    1C
    1UUSER                                                              
    1UDATE              17.october.2022                                 
    1UTIME              08:47:01                                        
    1UHOST                                                              
    1UPGM               CalculiX                                        
    1UVERSION           Version 2.20                             
    1UCOMPILETIME       Fri Jul 29 19:13:05 CEST 2022                    
    1UDIR                                                               
    1UDBN                                                               
    1UMAT    1S420                                                      
    2C                           930                                     1
 -1       404 0.00000E+00 5.90000E-01 2.93250E-01
 -1       406 0.00000E+00 5.90000E-01 3.06750E-01
 -1       407 3.00000E+00 5.90000E-01 2.93250E-01
 -1       409 3.00000E+00 5.90000E-01 3.06750E-01
 -1       410 3.00000E+00 5.00000E-01 2.93250E-01
 -1       412 3.00000E+00 5.00000E-01 3.06750E-01
 -1       413 3.00000E+00 4.95700E-01 3.00000E-01
 -1       415 3.00000E+00 5.04300E-01 3.00000E-01
 -1       424 0.00000E+00 5.00000E-01 2.93250E-01
 -1       426 0.00000E+00 5.00000E-01 3.06750E-01
 -1       427 0.00000E+00 4.95700E-01 3.00000E-01
 -1       429 0.00000E+00 5.04300E-01 3.00000E-01
 -1       438 3.00000E+00 4.10000E-01 2.93250E-01
 -1       440 3.00000E+00 4.10000E-01 3.06750E-01
 -1       441 0.00000E+00 4.10000E-01 2.93250E-01
 -1       443 0.00000E+00 4.10000E-01 3.06750E-01
 -1       444 0.00000E+00 4.95700E-01 7.00000E-01
 -1       446 0.00000E+00 5.04300E-01 7.00000E-01
 -1       447 0.00000E+00 5.00000E-01 7.06750E-01
 -1       449 0.00000E+00 5.00000E-01 6.93250E-01
 -1       458 3.00000E+00 4.95700E-01 7.00000E-01
 -1       460 3.00000E+00 5.04300E-01 7.00000E-01
 -1       461 3.00000E+00 5.00000E-01 7.06750E-01
 -1       463 3.00000E+00 5.00000E-01 6.93250E-01
 -1       472 0.00000E+00 4.10000E-01 7.06750E-01
 -1       474 0.00000E+00 4.10000E-01 6.93250E-01
 -1       475 3.00000E+00 4.10000E-01 7.06750E-01
 -1       477 3.00000E+00 4.10000E-01 6.93250E-01
 -1       478 3.00000E+00 5.90000E-01 7.06750E-01
 -1       480 3.00000E+00 5.90000E-01 6.93250E-01
 -1       481 0.00000E+00 5.90000E-01 7.06750E-01
 -1       483 0.00000E+00 5.90000E-01 6.93250E-01
 -1       484 1.00000E-01 5.90000E-01 2.93250E-01
 -1       486 1.00000E-01 5.90000E-01 3.06750E-01
 -1       487 2.00000E-01 5.90000E-01 2.93250E-01
 -1       489 2.00000E-01 5.90000E-01 3.06750E-01
 -1       490 3.00000E-01 5.90000E-01 2.93250E-01
 -1       492 3.00000E-01 5.90000E-01 3.06750E-01
 -1       493 4.00000E-01 5.90000E-01 2.93250E-01
 -1       495 4.00000E-01 5.90000E-01 3.06750E-01
 -1       496 5.00000E-01 5.90000E-01 2.93250E-01
 -1       498 5.00000E-01 5.90000E-01 3.06750E-01
 -1       499 6.00000E-01 5.90000E-01 2.93250E-01
 -1       501 6.00000E-01 5.90000E-01 3.06750E-01
 -1       502 7.00000E-01 5.90000E-01 2.93250E-01
 -1       504 7.00000E-01 5.90000E-01 3.06750E-01
 -1       505 8.00000E-01 5.90000E-01 2.93250E-01
 -1       507 8.00000E-01 5.90000E-01 3.06750E-01
 -1       508 9.00000E-01 5.90000E-01 2.93250E-01
 -1       510 9.00000E-01 5.90000E-01 3.06750E-01
 -1       511 1.00000E+00 5.90000E-01 2.93250E-01
 -1       513 1.00000E+00 5.90000E-01 3.06750E-01
 -1       514 1.10000E+00 5.90000E-01 2.93250E-01
 -1       516 1.10000E+00 5.90000E-01 3.06750E-01
 -1       517 1.20000E+00 5.90000E-01 2.93250E-01
 -1       519 1.20000E+00 5.90000E-01 3.06750E-01
 -1       520 1.30000E+00 5.90000E-01 2.93250E-01
 -1       522 1.30000E+00 5.90000E-01 3.06750E-01
 -1       523 1.40000E+00 5.90000E-01 2.93250E-01
 -1       525 1.40000E+00 5.90000E-01 3.06750E-01
 -1       526 1.50000E+00 5.90000E-01 2.93250E-01
 -1       528 1.50000E+00 5.90000E-01 3.06750E-01
 -1       529 1.60000E+00 5.90000E-01 2.93250E-01
 -1       531 1.60000E+00 5.90000E-01 3.06750E-01
 -1       532 1.70000E+00 5.90000E-01 2.93250E-01
 -1       534 1.70000E+00 5.90000E-01 3.06750E-01
 -1       535 1.80000E+00 5.90000E-01 2.93250E-01
 -1       537 1.80000E+00 5.90000E-01 3.06750E-01
 -1       538 1.90000E+00 5.90000E-01 2.93250E-01
 -1       540 1.90000E+00 5.90000E-01 3.06750E-01
 -1       541 2.00000E+00 5.90000E-01 2.93250E-01
 -1       543 2.00000E+00 5.90000E-01 3.06750E-01
 -1       544 2.10000E+00 5.90000E-01 2.93250E-01
 -1       546 2.10000E+00 5.90000E-01 3.06750E-01
 -1       547 2.20000E+00 5.90000E-01 2.93250E-01
 -1       549 2.20000E+00 5.90000E-01 3.06750E-01
 -1       550 2.30000E+00 5.90000E-01 2.93250E-01
 -1       552 2.30000E+00 5.90000E-01 3.06750E-01
 -1       553 2.40000E+00 5.90000E-01 2.93250E-01
 -1       555 2.40000E+00 5.90000E-01 3.06750E-01
 -1       556 2.50000E+00 5.90000E-01 2.93250E-01
 -1       558 2.50000E+00 5.90000E-01 3.06750E-01
 -1       559 2.60000E+00 5.90000E-01 2.93250E-01
 -1       561 2.60000E+00 5.90000E-01 3.06750E-01
 -1       562 2.70000E+00 5.90000E-01 2.93250E-01
 -1       564 2.70000E+00 5.90000E-01 3.06750E-01
 -1       565 2.80000E+00 5.90000E-01 2.93250E-01
 -1       567 2.80000E+00 5.90000E-01 3.06750E-01
 -1       568 2.90000E+00 5.90000E-01 2.93250E-01
 -1       570 2.90000E+00 5.90000E-01 3.06750E-01
 -1       571 3.00000E+00 5.45000E-01 2.93250E-01
 -1       573 3.00000E+00 5.45000E-01 3.06750E-01
 -1       574 1.00000E-01 5.00000E-01 2.93250E-01
 -1       576 1.00000E-01 5.00000E-01 3.06750E-01
 -1       577 1.00000E-01 4.95700E-01 3.00000E-01
 -1       579 1.00000E-01 5.04300E-01 3.00000E-01
 -1       588 2.00000E-01 5.00000E-01 2.93250E-01
 -1       590 2.00000E-01 5.00000E-01 3.06750E-01
 -1       591 2.00000E-01 4.95700E-01 3.00000E-01
 -1       593 2.00000E-01 5.04300E-01 3.00000E-01
 -1       602 3.00000E-01 5.00000E-01 2.93250E-01
 -1       604 3.00000E-01 5.00000E-01 3.06750E-01
 -1       605 3.00000E-01 4.95700E-01 3.00000E-01
 -1       607 3.00000E-01 5.04300E-01 3.00000E-01
 -1       616 4.00000E-01 5.00000E-01 2.93250E-01
 -1       618 4.00000E-01 5.00000E-01 3.06750E-01
 -1       619 4.00000E-01 4.95700E-01 3.00000E-01
 -1       621 4.00000E-01 5.04300E-01 3.00000E-01
 -1       630 5.00000E-01 5.00000E-01 2.93250E-01
 -1       632 5.00000E-01 5.00000E-01 3.06750E-01
 -1       633 5.00000E-01 4.95700E-01 3.00000E-01
 -1       635 5.00000E-01 5.04300E-01 3.00000E-01
 -1       644 6.00000E-01 5.00000E-01 2.93250E-01
 -1       646 6.00000E-01 5.00000E-01 3.06750E-01
 -1       647 6.00000E-01 4.95700E-01 3.00000E-01
 -1       649 6.00000E-01 5.04300E-01 3.00000E-01
 -1       658 7.00000E-01 5.00000E-01 2.93250E-01
 -1       660 7.00000E-01 5.00000E-01 3.06750E-01
 -1       661 7.00000E-01 4.95700E-01 3.00000E-01
 -1       663 7.00000E-01 5.04300E-01 3.00000E-01
 -1       672 8.00000E-01 5.00000E-01 2.93250E-01
 -1       674 8.00000E-01 5.00000E-01 3.06750E-01
 -1       675 8.00000E-01 4.95700E-01 3.00000E-01
 -1       677 8.00000E-01 5.04300E-01 3.00000E-01
 -1       686 9.00000E-01 5.00000E-01 2.93250E-01
 -1       688 9.00000E-01 5.00000E-01 3.06750E-01
 -1       689 9.00000E-01 4.95700E-01 3.00000E-01
 -1       691 9.00000E-01 5.04300E-01 3.00000E-01
 -1       700 1.00000E+00 5.00000E-01 2.93250E-01
 -1       702 1.00000E+00 5.00000E-01 3.06750E-01
 -1       703 1.00000E+00 4.95700E-01 3.00000E-01
 -1       705 1.00000E+00 5.04300E-01 3.00000E-01
 -1       714 1.10000E+00 5.00000E-01 2.93250E-01
 -1       716 1.10000E+00 5.00000E-01 3.06750E-01
 -1       717 1.10000E+00 4.95700E-01 3.00000E-01
 -1       719 1.10000E+00 5.04300E-01 3.00000E-01
 -1       728 1.20000E+00 5.00000E-01 2.93250E-01
 -1       730 1.20000E+00 5.00000E-01 3.06750E-01
 -1       731 1.20000E+00 4.95700E-01 3.00000E-01
 -1       733 1.20000E+00 5.04300E-01 3.00000E-01
 -1       742 1.30000E+00 5.00000E-01 2.93250E-01
 -1       744 1.30000E+00 5.00000E-01 3.06750E-01
 -1       745 1.30000E+00 4.95700E-01 3.00000E-01
 -1       747 1.30000E+00 5.04300E-01 3.00000E-01
 -1       756 1.40000E+00 5.00000E-01 2.93250E-01
 -1       758 1.40000E+00 5.00000E-01 3.06750E-01
 -1       759 1.40000E+00 4.95700E-01 3.00000E-01
 -1       761 1.40000E+00 5.04300E-01 3.00000E-01
 -1       770 1.50000E+00 5.00000E-01 2.93250E-01
 -1       772 1.50000E+00 5.00000E-01 3.06750E-01
 -1       773 1.50000E+00 4.95700E-01 3.00000E-01
 -1       775 1.50000E+00 5.04300E-01 3.00000E-01
 -1       784 1.60000E+00 5.00000E-01 2.93250E-01
 -1       786 1.60000E+00 5.00000E-01 3.06750E-01
 -1       787 1.60000E+00 4.95700E-01 3.00000E-01
 -1       789 1.60000E+00 5.04300E-01 3.00000E-01
 -1       798 1.70000E+00 5.00000E-01 2.93250E-01
 -1       800 1.70000E+00 5.00000E-01 3.06750E-01
 -1       801 1.70000E+00 4.95700E-01 3.00000E-01
 -1       803 1.70000E+00 5.04300E-01 3.00000E-01
 -1       812 1.80000E+00 5.00000E-01 2.93250E-01
 -1       814 1.80000E+00 5.00000E-01 3.06750E-01
 -1       815 1.80000E+00 4.95700E-01 3.00000E-01
 -1       817 1.80000E+00 5.04300E-01 3.00000E-01
 -1       826 1.90000E+00 5.00000E-01 2.93250E-01
 -1       828 1.90000E+00 5.00000E-01 3.06750E-01
 -1       829 1.90000E+00 4.95700E-01 3.00000E-01
 -1       831 1.90000E+00 5.04300E-01 3.00000E-01
 -1       840 2.00000E+00 5.00000E-01 2.93250E-01
 -1       842 2.00000E+00 5.00000E-01 3.06750E-01
 -1       843 2.00000E+00 4.95700E-01 3.00000E-01
 -1       845 2.00000E+00 5.04300E-01 3.00000E-01
 -1       854 2.10000E+00 5.00000E-01 2.93250E-01
 -1       856 2.10000E+00 5.00000E-01 3.06750E-01
 -1       857 2.10000E+00 4.95700E-01 3.00000E-01
 -1       859 2.10000E+00 5.04300E-01 3.00000E-01
 -1       868 2.20000E+00 5.00000E-01 2.93250E-01
 -1       870 2.20000E+00 5.00000E-01 3.06750E-01
 -1       871 2.20000E+00 4.95700E-01 3.00000E-01
 -1       873 2.20000E+00 5.04300E-01 3.00000E-01
 -1       882 2.30000E+00 5.00000E-01 2.93250E-01
 -1       884 2.30000E+00 5.00000E-01 3.06750E-01
 -1       885 2.30000E+00 4.95700E-01 3.00000E-01
 -1       887 2.30000E+00 5.04300E-01 3.00000E-01
 -1       896 2.40000E+00 5.00000E-01 2.93250E-01
 -1       898 2.40000E+00 5.00000E-01 3.06750E-01
 -1       899 2.40000E+00 4.95700E-01 3.00000E-01
 -1       901 2.40000E+00 5.04300E-01 3.00000E-01
 -1       910 2.50000E+00 5.00000E-01 2.93250E-01
 -1       912 2.50000E+00 5.00000E-01 3.06750E-01
 -1       913 2.50000E+00 4.95700E-01 3.00000E-01
 -1       915 2.50000E+00 5.04300E-01 3.00000E-01
 -1       924 2.60000E+00 5.00000E-01 2.93250E-01
 -1       926 2.60000E+00 5.00000E-01 3.06750E-01
 -1       927 2.60000E+00 4.95700E-01 3.00000E-01
 -1       929 2.60000E+00 5.04300E-01 3.00000E-01
 -1       938 2.70000E+00 5.00000E-01 2.93250E-01
 -1       940 2.70000E+00 5.00000E-01 3.06750E-01
 -1       941 2.70000E+00 4.95700E-01 3.00000E-01
 -1       943 2.70000E+00 5.04300E-01 3.00000E-01
 -1       952 2.80000E+00 5.00000E-01 2.93250E-01
 -1       954 2.80000E+00 5.00000E-01 3.06750E-01
 -1       955 2.80000E+00 4.95700E-01 3.00000E-01
 -1       957 2.80000E+00 5.04300E-01 3.00000E-01
 -1       966 2.90000E+00 5.00000E-01 2.93250E-01
 -1       968 2.90000E+00 5.00000E-01 3.06750E-01
 -1       969 2.90000E+00 4.95700E-01 3.00000E-01
 -1       971 2.90000E+00 5.04300E-01 3.00000E-01
 -1       980 0.00000E+00 5.45000E-01 2.93250E-01
 -1       982 0.00000E+00 5.45000E-01 3.06750E-01
 -1       983 3.00000E+00 4.55000E-01 2.93250E-01
 -1       985 3.00000E+00 4.55000E-01 3.06750E-01
 -1       986 1.00000E-01 4.10000E-01 2.93250E-01
 -1       988 1.00000E-01 4.10000E-01 3.06750E-01
 -1       989 2.00000E-01 4.10000E-01 2.93250E-01
 -1       991 2.00000E-01 4.10000E-01 3.06750E-01
 -1       992 3.00000E-01 4.10000E-01 2.93250E-01
 -1       994 3.00000E-01 4.10000E-01 3.06750E-01
 -1       995 4.00000E-01 4.10000E-01 2.93250E-01
 -1       997 4.00000E-01 4.10000E-01 3.06750E-01
 -1       998 5.00000E-01 4.10000E-01 2.93250E-01
 -1      1000 5.00000E-01 4.10000E-01 3.06750E-01
 -1      1001 6.00000E-01 4.10000E-01 2.93250E-01
 -1      1003 6.00000E-01 4.10000E-01 3.06750E-01
 -1      1004 7.00000E-01 4.10000E-01 2.93250E-01
 -1      1006 7.00000E-01 4.10000E-01 3.06750E-01
 -1      1007 8.00000E-01 4.10000E-01 2.93250E-01
 -1      1009 8.00000E-01 4.10000E-01 3.06750E-01
 -1      1010 9.00000E-01 4.10000E-01 2.93250E-01
 -1      1012 9.00000E-01 4.10000E-01 3.06750E-01
 -1      1013 1.00000E+00 4.10000E-01 2.93250E-01
 -1      1015 1.00000E+00 4.10000E-01 3.06750E-01
 -1      1016 1.10000E+00 4.10000E-01 2.93250E-01
 -1      1018 1.10000E+00 4.10000E-01 3.06750E-01
 -1      1019 1.20000E+00 4.10000E-01 2.93250E-01
 -1      1021 1.20000E+00 4.10000E-01 3.06750E-01
 -1      1022 1.30000E+00 4.10000E-01 2.93250E-01
 -1      1024 1.30000E+00 4.10000E-01 3.06750E-01
 -1      1025 1.40000E+00 4.10000E-01 2.93250E-01
 -1      1027 1.40000E+00 4.10000E-01 3.06750E-01
 -1      1028 1.50000E+00 4.10000E-01 2.93250E-01
 -1      1030 1.50000E+00 4.10000E-01 3.06750E-01
 -1      1031 1.60000E+00 4.10000E-01 2.93250E-01
 -1      1033 1.60000E+00 4.10000E-01 3.06750E-01
 -1      1034 1.70000E+00 4.10000E-01 2.93250E-01
 -1      1036 1.70000E+00 4.10000E-01 3.06750E-01
 -1      1037 1.80000E+00 4.10000E-01 2.93250E-01
 -1      1039 1.80000E+00 4.10000E-01 3.06750E-01
 -1      1040 1.90000E+00 4.10000E-01 2.93250E-01
 -1      1042 1.90000E+00 4.10000E-01 3.06750E-01
 -1      1043 2.00000E+00 4.10000E-01 2.93250E-01
 -1      1045 2.00000E+00 4.10000E-01 3.06750E-01
 -1      1046 2.10000E+00 4.10000E-01 2.93250E-01
 -1      1048 2.10000E+00 4.10000E-01 3.06750E-01
 -1      1049 2.20000E+00 4.10000E-01 2.93250E-01
 -1      1051 2.20000E+00 4.10000E-01 3.06750E-01
 -1      1052 2.30000E+00 4.10000E-01 2.93250E-01
 -1      1054 2.30000E+00 4.10000E-01 3.06750E-01
 -1      1055 2.40000E+00 4.10000E-01 2.93250E-01
 -1      1057 2.40000E+00 4.10000E-01 3.06750E-01
 -1      1058 2.50000E+00 4.10000E-01 2.93250E-01
 -1      1060 2.50000E+00 4.10000E-01 3.06750E-01
 -1      1061 2.60000E+00 4.10000E-01 2.93250E-01
 -1      1063 2.60000E+00 4.10000E-01 3.06750E-01
 -1      1064 2.70000E+00 4.10000E-01 2.93250E-01
 -1      1066 2.70000E+00 4.10000E-01 3.06750E-01
 -1      1067 2.80000E+00 4.10000E-01 2.93250E-01
 -1      1069 2.80000E+00 4.10000E-01 3.06750E-01
 -1      1070 2.90000E+00 4.10000E-01 2.93250E-01
 -1      1072 2.90000E+00 4.10000E-01 3.06750E-01
 -1      1073 0.00000E+00 4.55000E-01 2.93250E-01
 -1      1075 0.00000E+00 4.55000E-01 3.06750E-01
 -1      1076 0.00000E+00 4.95700E-01 4.00000E-01
 -1      1078 0.00000E+00 5.04300E-01 4.00000E-01
 -1      1079 0.00000E+00 4.95700E-01 5.00000E-01
 -1      1081 0.00000E+00 5.04300E-01 5.00000E-01
 -1      1082 0.00000E+00 4.95700E-01 6.00000E-01
 -1      1084 0.00000E+00 5.04300E-01 6.00000E-01
 -1      1085 1.00000E-01 4.95700E-01 7.00000E-01
 -1      1087 1.00000E-01 5.04300E-01 7.00000E-01
 -1      1088 1.00000E-01 5.00000E-01 7.06750E-01
 -1      1090 1.00000E-01 5.00000E-01 6.93250E-01
 -1      1099 2.00000E-01 4.95700E-01 7.00000E-01
 -1      1101 2.00000E-01 5.04300E-01 7.00000E-01
 -1      1102 2.00000E-01 5.00000E-01 7.06750E-01
 -1      1104 2.00000E-01 5.00000E-01 6.93250E-01
 -1      1113 3.00000E-01 4.95700E-01 7.00000E-01
 -1      1115 3.00000E-01 5.04300E-01 7.00000E-01
 -1      1116 3.00000E-01 5.00000E-01 7.06750E-01
 -1      1118 3.00000E-01 5.00000E-01 6.93250E-01
 -1      1127 4.00000E-01 4.95700E-01 7.00000E-01
 -1      1129 4.00000E-01 5.04300E-01 7.00000E-01
 -1      1130 4.00000E-01 5.00000E-01 7.06750E-01
 -1      1132 4.00000E-01 5.00000E-01 6.93250E-01
 -1      1141 5.00000E-01 4.95700E-01 7.00000E-01
 -1      1143 5.00000E-01 5.04300E-01 7.00000E-01
 -1      1144 5.00000E-01 5.00000E-01 7.06750E-01
 -1      1146 5.00000E-01 5.00000E-01 6.93250E-01
 -1      1155 6.00000E-01 4.95700E-01 7.00000E-01
 -1      1157 6.00000E-01 5.04300E-01 7.00000E-01
 -1      1158 6.00000E-01 5.00000E-01 7.06750E-01
 -1      1160 6.00000E-01 5.00000E-01 6.93250E-01
 -1      1169 7.00000E-01 4.95700E-01 7.00000E-01
 -1      1171 7.00000E-01 5.04300E-01 7.00000E-01
 -1      1172 7.00000E-01 5.00000E-01 7.06750E-01
 -1      1174 7.00000E-01 5.00000E-01 6.93250E-01
 -1      1183 8.00000E-01 4.95700E-01 7.00000E-01
 -1      1185 8.00000E-01 5.04300E-01 7.00000E-01
 -1      1186 8.00000E-01 5.00000E-01 7.06750E-01
 -1      1188 8.00000E-01 5.00000E-01 6.93250E-01
 -1      1197 9.00000E-01 4.95700E-01 7.00000E-01
 -1      1199 9.00000E-01 5.04300E-01 7.00000E-01
 -1      1200 9.00000E-01 5.00000E-01 7.06750E-01
 -1      1202 9.00000E-01 5.00000E-01 6.93250E-01
 -1      1211 1.00000E+00 4.95700E-01 7.00000E-01
 -1      1213 1.00000E+00 5.04300E-01 7.00000E-01
 -1      1214 1.00000E+00 5.00000E-01 7.06750E-01
 -1      1216 1.00000E+00 5.00000E-01 6.93250E-01
 -1      1225 1.10000E+00 4.95700E-01 7.00000E-01
 -1      1227 1.10000E+00 5.04300E-01 7.00000E-01
 -1      1228 1.10000E+00 5.00000E-01 7.06750E-01
 -1      1230 1.10000E+00 5.00000E-01 6.93250E-01
 -1      1239 1.20000E+00 4.95700E-01 7.00000E-01
 -1      1241 1.20000E+00 5.04300E-01 7.00000E-01
 -1      1242 1.20000E+00 5.00000E-01 7.06750E-01
 -1      1244 1.20000E+00 5.00000E-01 6.93250E-01
 -1      1253 1.30000E+00 4.95700E-01 7.00000E-01
 -1      1255 1.30000E+00 5.04300E-01 7.00000E-01
 -1      1256 1.30000E+00 5.00000E-01 7.06750E-01
 -1      1258 1.30000E+00 5.00000E-01 6.93250E-01
 -1      1267 1.40000E+00 4.95700E-01 7.00000E-01
 -1      1269 1.40000E+00 5.04300E-01 7.00000E-01
 -1      1270 1.40000E+00 5.00000E-01 7.06750E-01
 -1      1272 1.40000E+00 5.00000E-01 6.93250E-01
 -1      1281 1.50000E+00 4.95700E-01 7.00000E-01
 -1      1283 1.50000E+00 5.04300E-01 7.00000E-01
 -1      1284 1.50000E+00 5.00000E-01 7.06750E-01
 -1      1286 1.50000E+00 5.00000E-01 6.93250E-01
 -1      1295 1.60000E+00 4.95700E-01 7.00000E-01
 -1      1297 1.60000E+00 5.04300E-01 7.00000E-01
 -1      1298 1.60000E+00 5.00000E-01 7.06750E-01
 -1      1300 1.60000E+00 5.00000E-01 6.93250E-01
 -1      1309 1.70000E+00 4.95700E-01 7.00000E-01
 -1      1311 1.70000E+00 5.04300E-01 7.00000E-01
 -1      1312 1.70000E+00 5.00000E-01 7.06750E-01
 -1      1314 1.70000E+00 5.00000E-01 6.93250E-01
 -1      1323 1.80000E+00 4.95700E-01 7.00000E-01
 -1      1325 1.80000E+00 5.04300E-01 7.00000E-01
 -1      1326 1.80000E+00 5.00000E-01 7.06750E-01
 -1      1328 1.80000E+00 5.00000E-01 6.93250E-01
 -1      1337 1.90000E+00 4.95700E-01 7.00000E-01
 -1      1339 1.90000E+00 5.04300E-01 7.00000E-01
 -1      1340 1.90000E+00 5.00000E-01 7.06750E-01
 -1      1342 1.90000E+00 5.00000E-01 6.93250E-01
 -1      1351 2.00000E+00 4.95700E-01 7.00000E-01
 -1      1353 2.00000E+00 5.04300E-01 7.00000E-01
 -1      1354 2.00000E+00 5.00000E-01 7.06750E-01
 -1      1356 2.00000E+00 5.00000E-01 6.93250E-01
 -1      1365 2.10000E+00 4.95700E-01 7.00000E-01
 -1      1367 2.10000E+00 5.04300E-01 7.00000E-01
 -1      1368 2.10000E+00 5.00000E-01 7.06750E-01
 -1      1370 2.10000E+00 5.00000E-01 6.93250E-01
 -1      1379 2.20000E+00 4.95700E-01 7.00000E-01
 -1      1381 2.20000E+00 5.04300E-01 7.00000E-01
 -1      1382 2.20000E+00 5.00000E-01 7.06750E-01
 -1      1384 2.20000E+00 5.00000E-01 6.93250E-01
 -1      1393 2.30000E+00 4.95700E-01 7.00000E-01
 -1      1395 2.30000E+00 5.04300E-01 7.00000E-01
 -1      1396 2.30000E+00 5.00000E-01 7.06750E-01
 -1      1398 2.30000E+00 5.00000E-01 6.93250E-01
 -1      1407 2.40000E+00 4.95700E-01 7.00000E-01
 -1      1409 2.40000E+00 5.04300E-01 7.00000E-01
 -1      1410 2.40000E+00 5.00000E-01 7.06750E-01
 -1      1412 2.40000E+00 5.00000E-01 6.93250E-01
 -1      1421 2.50000E+00 4.95700E-01 7.00000E-01
 -1      1423 2.50000E+00 5.04300E-01 7.00000E-01
 -1      1424 2.50000E+00 5.00000E-01 7.06750E-01
 -1      1426 2.50000E+00 5.00000E-01 6.93250E-01
 -1      1435 2.60000E+00 4.95700E-01 7.00000E-01
 -1      1437 2.60000E+00 5.04300E-01 7.00000E-01
 -1      1438 2.60000E+00 5.00000E-01 7.06750E-01
 -1      1440 2.60000E+00 5.00000E-01 6.93250E-01
 -1      1449 2.70000E+00 4.95700E-01 7.00000E-01
 -1      1451 2.70000E+00 5.04300E-01 7.00000E-01
 -1      1452 2.70000E+00 5.00000E-01 7.06750E-01
 -1      1454 2.70000E+00 5.00000E-01 6.93250E-01
 -1      1463 2.80000E+00 4.95700E-01 7.00000E-01
 -1      1465 2.80000E+00 5.04300E-01 7.00000E-01
 -1      1466 2.80000E+00 5.00000E-01 7.06750E-01
 -1      1468 2.80000E+00 5.00000E-01 6.93250E-01
 -1      1477 2.90000E+00 4.95700E-01 7.00000E-01
 -1      1479 2.90000E+00 5.04300E-01 7.00000E-01
 -1      1480 2.90000E+00 5.00000E-01 7.06750E-01
 -1      1482 2.90000E+00 5.00000E-01 6.93250E-01
 -1      1491 3.00000E+00 4.95700E-01 4.00000E-01
 -1      1493 3.00000E+00 5.04300E-01 4.00000E-01
 -1      1494 3.00000E+00 4.95700E-01 5.00000E-01
 -1      1496 3.00000E+00 5.04300E-01 5.00000E-01
 -1      1497 3.00000E+00 4.95700E-01 6.00000E-01
 -1      1499 3.00000E+00 5.04300E-01 6.00000E-01
 -1      1500 1.00000E-01 4.10000E-01 7.06750E-01
 -1      1502 1.00000E-01 4.10000E-01 6.93250E-01
 -1      1503 2.00000E-01 4.10000E-01 7.06750E-01
 -1      1505 2.00000E-01 4.10000E-01 6.93250E-01
 -1      1506 3.00000E-01 4.10000E-01 7.06750E-01
 -1      1508 3.00000E-01 4.10000E-01 6.93250E-01
 -1      1509 4.00000E-01 4.10000E-01 7.06750E-01
 -1      1511 4.00000E-01 4.10000E-01 6.93250E-01
 -1      1512 5.00000E-01 4.10000E-01 7.06750E-01
 -1      1514 5.00000E-01 4.10000E-01 6.93250E-01
 -1      1515 6.00000E-01 4.10000E-01 7.06750E-01
 -1      1517 6.00000E-01 4.10000E-01 6.93250E-01
 -1      1518 7.00000E-01 4.10000E-01 7.06750E-01
 -1      1520 7.00000E-01 4.10000E-01 6.93250E-01
 -1      1521 8.00000E-01 4.10000E-01 7.06750E-01
 -1      1523 8.00000E-01 4.10000E-01 6.93250E-01
 -1      1524 9.00000E-01 4.10000E-01 7.06750E-01
 -1      1526 9.00000E-01 4.10000E-01 6.93250E-01
 -1      1527 1.00000E+00 4.10000E-01 7.06750E-01
 -1      1529 1.00000E+00 4.10000E-01 6.93250E-01
 -1      1530 1.10000E+00 4.10000E-01 7.06750E-01
 -1      1532 1.10000E+00 4.10000E-01 6.93250E-01
 -1      1533 1.20000E+00 4.10000E-01 7.06750E-01
 -1      1535 1.20000E+00 4.10000E-01 6.93250E-01
 -1      1536 1.30000E+00 4.10000E-01 7.06750E-01
 -1      1538 1.30000E+00 4.10000E-01 6.93250E-01
 -1      1539 1.40000E+00 4.10000E-01 7.06750E-01
 -1      1541 1.40000E+00 4.10000E-01 6.93250E-01
 -1      1542 1.50000E+00 4.10000E-01 7.06750E-01
 -1      1544 1.50000E+00 4.10000E-01 6.93250E-01
 -1      1545 1.60000E+00 4.10000E-01 7.06750E-01
 -1      1547 1.60000E+00 4.10000E-01 6.93250E-01
 -1      1548 1.70000E+00 4.10000E-01 7.06750E-01
 -1      1550 1.70000E+00 4.10000E-01 6.93250E-01
 -1      1551 1.80000E+00 4.10000E-01 7.06750E-01
 -1      1553 1.80000E+00 4.10000E-01 6.93250E-01
 -1      1554 1.90000E+00 4.10000E-01 7.06750E-01
 -1      1556 1.90000E+00 4.10000E-01 6.93250E-01
 -1      1557 2.00000E+00 4.10000E-01 7.06750E-01
 -1      1559 2.00000E+00 4.10000E-01 6.93250E-01
 -1      1560 2.10000E+00 4.10000E-01 7.06750E-01
 -1      1562 2.10000E+00 4.10000E-01 6.93250E-01
 -1      1563 2.20000E+00 4.10000E-01 7.06750E-01
 -1      1565 2.20000E+00 4.10000E-01 6.93250E-01
 -1      1566 2.30000E+00 4.10000E-01 7.06750E-01
 -1      1568 2.30000E+00 4.10000E-01 6.93250E-01
 -1      1569 2.40000E+00 4.10000E-01 7.06750E-01
 -1      1571 2.40000E+00 4.10000E-01 6.93250E-01
 -1      1572 2.50000E+00 4.10000E-01 7.06750E-01
 -1      1574 2.50000E+00 4.10000E-01 6.93250E-01
 -1      1575 2.60000E+00 4.10000E-01 7.06750E-01
 -1      1577 2.60000E+00 4.10000E-01 6.93250E-01
 -1      1578 2.70000E+00 4.10000E-01 7.06750E-01
 -1      1580 2.70000E+00 4.10000E-01 6.93250E-01
 -1      1581 2.80000E+00 4.10000E-01 7.06750E-01
 -1      1583 2.80000E+00 4.10000E-01 6.93250E-01
 -1      1584 2.90000E+00 4.10000E-01 7.06750E-01
 -1      1586 2.90000E+00 4.10000E-01 6.93250E-01
 -1      1587 3.00000E+00 4.55000E-01 7.06750E-01
 -1      1589 3.00000E+00 4.55000E-01 6.93250E-01
 -1      1590 0.00000E+00 4.55000E-01 7.06750E-01
 -1      1592 0.00000E+00 4.55000E-01 6.93250E-01
 -1      1593 3.00000E+00 5.45000E-01 7.06750E-01
 -1      1595 3.00000E+00 5.45000E-01 6.93250E-01
 -1      1596 1.00000E-01 5.90000E-01 7.06750E-01
 -1      1598 1.00000E-01 5.90000E-01 6.93250E-01
 -1      1599 2.00000E-01 5.90000E-01 7.06750E-01
 -1      1601 2.00000E-01 5.90000E-01 6.93250E-01
 -1      1602 3.00000E-01 5.90000E-01 7.06750E-01
 -1      1604 3.00000E-01 5.90000E-01 6.93250E-01
 -1      1605 4.00000E-01 5.90000E-01 7.06750E-01
 -1      1607 4.00000E-01 5.90000E-01 6.93250E-01
 -1      1608 5.00000E-01 5.90000E-01 7.06750E-01
 -1      1610 5.00000E-01 5.90000E-01 6.93250E-01
 -1      1611 6.00000E-01 5.90000E-01 7.06750E-01
 -1      1613 6.00000E-01 5.90000E-01 6.93250E-01
 -1      1614 7.00000E-01 5.90000E-01 7.06750E-01
 -1      1616 7.00000E-01 5.90000E-01 6.93250E-01
 -1      1617 8.00000E-01 5.90000E-01 7.06750E-01
 -1      1619 8.00000E-01 5.90000E-01 6.93250E-01
 -1      1620 9.00000E-01 5.90000E-01 7.06750E-01
 -1      1622 9.00000E-01 5.90000E-01 6.93250E-01
 -1      1623 1.00000E+00 5.90000E-01 7.06750E-01
 -1      1625 1.00000E+00 5.90000E-01 6.93250E-01
 -1      1626 1.10000E+00 5.90000E-01 7.06750E-01
 -1      1628 1.10000E+00 5.90000E-01 6.93250E-01
 -1      1629 1.20000E+00 5.90000E-01 7.06750E-01
 -1      1631 1.20000E+00 5.90000E-01 6.93250E-01
 -1      1632 1.30000E+00 5.90000E-01 7.06750E-01
 -1      1634 1.30000E+00 5.90000E-01 6.93250E-01
 -1      1635 1.40000E+00 5.90000E-01 7.06750E-01
 -1      1637 1.40000E+00 5.90000E-01 6.93250E-01
 -1      1638 1.50000E+00 5.90000E-01 7.06750E-01
 -1      1640 1.50000E+00 5.90000E-01 6.93250E-01
 -1      1641 1.60000E+00 5.90000E-01 7.06750E-01
 -1      1643 1.60000E+00 5.90000E-01 6.93250E-01
 -1      1644 1.70000E+00 5.90000E-01 7.06750E-01
 -1      1646 1.70000E+00 5.90000E-01 6.93250E-01
 -1      1647 1.80000E+00 5.90000E-01 7.06750E-01
 -1      1649 1.80000E+00 5.90000E-01 6.93250E-01
 -1      1650 1.90000E+00 5.90000E-01 7.06750E-01
 -1      1652 1.90000E+00 5.90000E-01 6.93250E-01
 -1      1653 2.00000E+00 5.90000E-01 7.06750E-01
 -1      1655 2.00000E+00 5.90000E-01 6.93250E-01
 -1      1656 2.10000E+00 5.90000E-01 7.06750E-01
 -1      1658 2.10000E+00 5.90000E-01 6.93250E-01
 -1      1659 2.20000E+00 5.90000E-01 7.06750E-01
 -1      1661 2.20000E+00 5.90000E-01 6.93250E-01
 -1      1662 2.30000E+00 5.90000E-01 7.06750E-01
 -1      1664 2.30000E+00 5.90000E-01 6.93250E-01
 -1      1665 2.40000E+00 5.90000E-01 7.06750E-01
 -1      1667 2.40000E+00 5.90000E-01 6.93250E-01
 -1      1668 2.50000E+00 5.90000E-01 7.06750E-01
 -1      1670 2.50000E+00 5.90000E-01 6.93250E-01
 -1      1671 2.60000E+00 5.90000E-01 7.06750E-01
 -1      1673 2.60000E+00 5.90000E-01 6.93250E-01
 -1      1674 2.70000E+00 5.90000E-01 7.06750E-01
 -1      1676 2.70000E+00 5.90000E-01 6.93250E-01
 -1      1677 2.80000E+00 5.90000E-01 7.06750E-01
 -1      1679 2.80000E+00 5.90000E-01 6.93250E-01
 -1      1680 2.90000E+00 5.90000E-01 7.06750E-01
 -1      1682 2.90000E+00 5.90000E-01 6.93250E-01
 -1      1683 0.00000E+00 5.45000E-01 7.06750E-01
 -1      1685 0.00000E+00 5.45000E-01 6.93250E-01
 -1      1686 1.00000E-01 5.45000E-01 2.93250E-01
 -1      1688 1.00000E-01 5.45000E-01 3.06750E-01
 -1      1689 2.00000E-01 5.45000E-01 2.93250E-01
 -1      1691 2.00000E-01 5.45000E-01 3.06750E-01
 -1      1692 3.00000E-01 5.45000E-01 2.93250E-01
 -1      1694 3.00000E-01 5.45000E-01 3.06750E-01
 -1      1695 4.00000E-01 5.45000E-01 2.93250E-01
 -1      1697 4.00000E-01 5.45000E-01 3.06750E-01
 -1      1698 5.00000E-01 5.45000E-01 2.93250E-01
 -1      1700 5.00000E-01 5.45000E-01 3.06750E-01
 -1      1701 6.00000E-01 5.45000E-01 2.93250E-01
 -1      1703 6.00000E-01 5.45000E-01 3.06750E-01
 -1      1704 7.00000E-01 5.45000E-01 2.93250E-01
 -1      1706 7.00000E-01 5.45000E-01 3.06750E-01
 -1      1707 8.00000E-01 5.45000E-01 2.93250E-01
 -1      1709 8.00000E-01 5.45000E-01 3.06750E-01
 -1      1710 9.00000E-01 5.45000E-01 2.93250E-01
 -1      1712 9.00000E-01 5.45000E-01 3.06750E-01
 -1      1713 1.00000E+00 5.45000E-01 2.93250E-01
 -1      1715 1.00000E+00 5.45000E-01 3.06750E-01
 -1      1716 1.10000E+00 5.45000E-01 2.93250E-01
 -1      1718 1.10000E+00 5.45000E-01 3.06750E-01
 -1      1719 1.20000E+00 5.45000E-01 2.93250E-01
 -1      1721 1.20000E+00 5.45000E-01 3.06750E-01
 -1      1722 1.30000E+00 5.45000E-01 2.93250E-01
 -1      1724 1.30000E+00 5.45000E-01 3.06750E-01
 -1      1725 1.40000E+00 5.45000E-01 2.93250E-01
 -1      1727 1.40000E+00 5.45000E-01 3.06750E-01
 -1      1728 1.50000E+00 5.45000E-01 2.93250E-01
 -1      1730 1.50000E+00 5.45000E-01 3.06750E-01
 -1      1731 1.60000E+00 5.45000E-01 2.93250E-01
 -1      1733 1.60000E+00 5.45000E-01 3.06750E-01
 -1      1734 1.70000E+00 5.45000E-01 2.93250E-01
 -1      1736 1.70000E+00 5.45000E-01 3.06750E-01
 -1      1737 1.80000E+00 5.45000E-01 2.93250E-01
 -1      1739 1.80000E+00 5.45000E-01 3.06750E-01
 -1      1740 1.90000E+00 5.45000E-01 2.93250E-01
 -1      1742 1.90000E+00 5.45000E-01 3.06750E-01
 -1      1743 2.00000E+00 5.45000E-01 2.93250E-01
 -1      1745 2.00000E+00 5.45000E-01 3.06750E-01
 -1      1746 2.10000E+00 5.45000E-01 2.93250E-01
 -1      1748 2.10000E+00 5.45000E-01 3.06750E-01
 -1      1749 2.20000E+00 5.45000E-01 2.93250E-01
 -1      1751 2.20000E+00 5.45000E-01 3.06750E-01
 -1      1752 2.30000E+00 5.45000E-01 2.93250E-01
 -1      1754 2.30000E+00 5.45000E-01 3.06750E-01
 -1      1755 2.40000E+00 5.45000E-01 2.93250E-01
 -1      1757 2.40000E+00 5.45000E-01 3.06750E-01
 -1      1758 2.50000E+00 5.45000E-01 2.93250E-01
 -1      1760 2.50000E+00 5.45000E-01 3.06750E-01
 -1      1761 2.60000E+00 5.45000E-01 2.93250E-01
 -1      1763 2.60000E+00 5.45000E-01 3.06750E-01
 -1      1764 2.70000E+00 5.45000E-01 2.93250E-01
 -1      1766 2.70000E+00 5.45000E-01 3.06750E-01
 -1      1767 2.80000E+00 5.45000E-01 2.93250E-01
 -1      1769 2.80000E+00 5.45000E-01 3.06750E-01
 -1      1770 2.90000E+00 5.45000E-01 2.93250E-01
 -1      1772 2.90000E+00 5.45000E-01 3.06750E-01
 -1      1773 1.00000E-01 4.55000E-01 2.93250E-01
 -1      1775 1.00000E-01 4.55000E-01 3.06750E-01
 -1      1776 2.00000E-01 4.55000E-01 2.93250E-01
 -1      1778 2.00000E-01 4.55000E-01 3.06750E-01
 -1      1779 3.00000E-01 4.55000E-01 2.93250E-01
 -1      1781 3.00000E-01 4.55000E-01 3.06750E-01
 -1      1782 4.00000E-01 4.55000E-01 2.93250E-01
 -1      1784 4.00000E-01 4.55000E-01 3.06750E-01
 -1      1785 5.00000E-01 4.55000E-01 2.93250E-01
 -1      1787 5.00000E-01 4.55000E-01 3.06750E-01
 -1      1788 6.00000E-01 4.55000E-01 2.93250E-01
 -1      1790 6.00000E-01 4.55000E-01 3.06750E-01
 -1      1791 7.00000E-01 4.55000E-01 2.93250E-01
 -1      1793 7.00000E-01 4.55000E-01 3.06750E-01
 -1      1794 8.00000E-01 4.55000E-01 2.93250E-01
 -1      1796 8.00000E-01 4.55000E-01 3.06750E-01
 -1      1797 9.00000E-01 4.55000E-01 2.93250E-01
 -1      1799 9.00000E-01 4.55000E-01 3.06750E-01
 -1      1800 1.00000E+00 4.55000E-01 2.93250E-01
 -1      1802 1.00000E+00 4.55000E-01 3.06750E-01
 -1      1803 1.10000E+00 4.55000E-01 2.93250E-01
 -1      1805 1.10000E+00 4.55000E-01 3.06750E-01
 -1      1806 1.20000E+00 4.55000E-01 2.93250E-01
 -1      1808 1.20000E+00 4.55000E-01 3.06750E-01
 -1      1809 1.30000E+00 4.55000E-01 2.93250E-01
 -1      1811 1.30000E+00 4.55000E-01 3.06750E-01
 -1      1812 1.40000E+00 4.55000E-01 2.93250E-01
 -1      1814 1.40000E+00 4.55000E-01 3.06750E-01
 -1      1815 1.50000E+00 4.55000E-01 2.93250E-01
 -1      1817 1.50000E+00 4.55000E-01 3.06750E-01
 -1      1818 1.60000E+00 4.55000E-01 2.93250E-01
 -1      1820 1.60000E+00 4.55000E-01 3.06750E-01
 -1      1821 1.70000E+00 4.55000E-01 2.93250E-01
 -1      1823 1.70000E+00 4.55000E-01 3.06750E-01
 -1      1824 1.80000E+00 4.55000E-01 2.93250E-01
 -1      1826 1.80000E+00 4.55000E-01 3.06750E-01
 -1      1827 1.90000E+00 4.55000E-01 2.93250E-01
 -1      1829 1.90000E+00 4.55000E-01 3.06750E-01
 -1      1830 2.00000E+00 4.55000E-01 2.93250E-01
 -1      1832 2.00000E+00 4.55000E-01 3.06750E-01
 -1      1833 2.10000E+00 4.55000E-01 2.93250E-01
 -1      1835 2.10000E+00 4.55000E-01 3.06750E-01
 -1      1836 2.20000E+00 4.55000E-01 2.93250E-01
 -1      1838 2.20000E+00 4.55000E-01 3.06750E-01
 -1      1839 2.30000E+00 4.55000E-01 2.93250E-01
 -1      1841 2.30000E+00 4.55000E-01 3.06750E-01
 -1      1842 2.40000E+00 4.55000E-01 2.93250E-01
 -1      1844 2.40000E+00 4.55000E-01 3.06750E-01
 -1      1845 2.50000E+00 4.55000E-01 2.93250E-01
 -1      1847 2.50000E+00 4.55000E-01 3.06750E-01
 -1      1848 2.60000E+00 4.55000E-01 2.93250E-01
 -1      1850 2.60000E+00 4.55000E-01 3.06750E-01
 -1      1851 2.70000E+00 4.55000E-01 2.93250E-01
 -1      1853 2.70000E+00 4.55000E-01 3.06750E-01
 -1      1854 2.80000E+00 4.55000E-01 2.93250E-01
 -1      1856 2.80000E+00 4.55000E-01 3.06750E-01
 -1      1857 2.90000E+00 4.55000E-01 2.93250E-01
 -1      1859 2.90000E+00 4.55000E-01 3.06750E-01
 -1      1860 1.00000E-01 4.95700E-01 4.00000E-01
 -1      1862 1.00000E-01 5.04300E-01 4.00000E-01
 -1      1863 2.00000E-01 4.95700E-01 4.00000E-01
 -1      1865 2.00000E-01 5.04300E-01 4.00000E-01
 -1      1866 3.00000E-01 4.95700E-01 4.00000E-01
 -1      1868 3.00000E-01 5.04300E-01 4.00000E-01
 -1      1869 4.00000E-01 4.95700E-01 4.00000E-01
 -1      1871 4.00000E-01 5.04300E-01 4.00000E-01
 -1      1872 5.00000E-01 4.95700E-01 4.00000E-01
 -1      1874 5.00000E-01 5.04300E-01 4.00000E-01
 -1      1875 6.00000E-01 4.95700E-01 4.00000E-01
 -1      1877 6.00000E-01 5.04300E-01 4.00000E-01
 -1      1878 7.00000E-01 4.95700E-01 4.00000E-01
 -1      1880 7.00000E-01 5.04300E-01 4.00000E-01
 -1      1881 8.00000E-01 4.95700E-01 4.00000E-01
 -1      1883 8.00000E-01 5.04300E-01 4.00000E-01
 -1      1884 9.00000E-01 4.95700E-01 4.00000E-01
 -1      1886 9.00000E-01 5.04300E-01 4.00000E-01
 -1      1887 1.00000E+00 4.95700E-01 4.00000E-01
 -1      1889 1.00000E+00 5.04300E-01 4.00000E-01
 -1      1890 1.10000E+00 4.95700E-01 4.00000E-01
 -1      1892 1.10000E+00 5.04300E-01 4.00000E-01
 -1      1893 1.20000E+00 4.95700E-01 4.00000E-01
 -1      1895 1.20000E+00 5.04300E-01 4.00000E-01
 -1      1896 1.30000E+00 4.95700E-01 4.00000E-01
 -1      1898 1.30000E+00 5.04300E-01 4.00000E-01
 -1      1899 1.40000E+00 4.95700E-01 4.00000E-01
 -1      1901 1.40000E+00 5.04300E-01 4.00000E-01
 -1      1902 1.50000E+00 4.95700E-01 4.00000E-01
 -1      1904 1.50000E+00 5.04300E-01 4.00000E-01
 -1      1905 1.60000E+00 4.95700E-01 4.00000E-01
 -1      1907 1.60000E+00 5.04300E-01 4.00000E-01
 -1      1908 1.70000E+00 4.95700E-01 4.00000E-01
 -1      1910 1.70000E+00 5.04300E-01 4.00000E-01
 -1      1911 1.80000E+00 4.95700E-01 4.00000E-01
 -1      1913 1.80000E+00 5.04300E-01 4.00000E-01
 -1      1914 1.90000E+00 4.95700E-01 4.00000E-01
 -1      1916 1.90000E+00 5.04300E-01 4.00000E-01
 -1      1917 2.00000E+00 4.95700E-01 4.00000E-01
 -1      1919 2.00000E+00 5.04300E-01 4.00000E-01
 -1      1920 2.10000E+00 4.95700E-01 4.00000E-01
 -1      1922 2.10000E+00 5.04300E-01 4.00000E-01
 -1      1923 2.20000E+00 4.95700E-01 4.00000E-01
 -1      1925 2.20000E+00 5.04300E-01 4.00000E-01
 -1      1926 2.30000E+00 4.95700E-01 4.00000E-01
 -1      1928 2.30000E+00 5.04300E-01 4.00000E-01
 -1      1929 2.40000E+00 4.95700E-01 4.00000E-01
 -1      1931 2.40000E+00 5.04300E-01 4.00000E-01
 -1      1932 2.50000E+00 4.95700E-01 4.00000E-01
 -1      1934 2.50000E+00 5.04300E-01 4.00000E-01
 -1      1935 2.60000E+00 4.95700E-01 4.00000E-01
 -1      1937 2.60000E+00 5.04300E-01 4.00000E-01
 -1      1938 2.70000E+00 4.95700E-01 4.00000E-01
 -1      1940 2.70000E+00 5.04300E-01 4.00000E-01
 -1      1941 2.80000E+00 4.95700E-01 4.00000E-01
 -1      1943 2.80000E+00 5.04300E-01 4.00000E-01
 -1      1944 2.90000E+00 4.95700E-01 4.00000E-01
 -1      1946 2.90000E+00 5.04300E-01 4.00000E-01
 -1      1947 1.00000E-01 4.95700E-01 5.00000E-01
 -1      1949 1.00000E-01 5.04300E-01 5.00000E-01
 -1      1950 2.00000E-01 4.95700E-01 5.00000E-01
 -1      1952 2.00000E-01 5.04300E-01 5.00000E-01
 -1      1953 3.00000E-01 4.95700E-01 5.00000E-01
 -1      1955 3.00000E-01 5.04300E-01 5.00000E-01
 -1      1956 4.00000E-01 4.95700E-01 5.00000E-01
 -1      1958 4.00000E-01 5.04300E-01 5.00000E-01
 -1      1959 5.00000E-01 4.95700E-01 5.00000E-01
 -1      1961 5.00000E-01 5.04300E-01 5.00000E-01
 -1      1962 6.00000E-01 4.95700E-01 5.00000E-01
 -1      1964 6.00000E-01 5.04300E-01 5.00000E-01
 -1      1965 7.00000E-01 4.95700E-01 5.00000E-01
 -1      1967 7.00000E-01 5.04300E-01 5.00000E-01
 -1      1968 8.00000E-01 4.95700E-01 5.00000E-01
 -1      1970 8.00000E-01 5.04300E-01 5.00000E-01
 -1      1971 9.00000E-01 4.95700E-01 5.00000E-01
 -1      1973 9.00000E-01 5.04300E-01 5.00000E-01
 -1      1974 1.00000E+00 4.95700E-01 5.00000E-01
 -1      1976 1.00000E+00 5.04300E-01 5.00000E-01
 -1      1977 1.10000E+00 4.95700E-01 5.00000E-01
 -1      1979 1.10000E+00 5.04300E-01 5.00000E-01
 -1      1980 1.20000E+00 4.95700E-01 5.00000E-01
 -1      1982 1.20000E+00 5.04300E-01 5.00000E-01
 -1      1983 1.30000E+00 4.95700E-01 5.00000E-01
 -1      1985 1.30000E+00 5.04300E-01 5.00000E-01
 -1      1986 1.40000E+00 4.95700E-01 5.00000E-01
 -1      1988 1.40000E+00 5.04300E-01 5.00000E-01
 -1      1989 1.50000E+00 4.95700E-01 5.00000E-01
 -1      1991 1.50000E+00 5.04300E-01 5.00000E-01
 -1      1992 1.60000E+00 4.95700E-01 5.00000E-01
 -1      1994 1.60000E+00 5.04300E-01 5.00000E-01
 -1      1995 1.70000E+00 4.95700E-01 5.00000E-01
 -1      1997 1.70000E+00 5.04300E-01 5.00000E-01
 -1      1998 1.80000E+00 4.95700E-01 5.00000E-01
 -1      2000 1.80000E+00 5.04300E-01 5.00000E-01
 -1      2001 1.90000E+00 4.95700E-01 5.00000E-01
 -1      2003 1.90000E+00 5.04300E-01 5.00000E-01
 -1      2004 2.00000E+00 4.95700E-01 5.00000E-01
 -1      2006 2.00000E+00 5.04300E-01 5.00000E-01
 -1      2007 2.10000E+00 4.95700E-01 5.00000E-01
 -1      2009 2.10000E+00 5.04300E-01 5.00000E-01
 -1      2010 2.20000E+00 4.95700E-01 5.00000E-01
 -1      2012 2.20000E+00 5.04300E-01 5.00000E-01
 -1      2013 2.30000E+00 4.95700E-01 5.00000E-01
 -1      2015 2.30000E+00 5.04300E-01 5.00000E-01
 -1      2016 2.40000E+00 4.95700E-01 5.00000E-01
 -1      2018 2.40000E+00 5.04300E-01 5.00000E-01
 -1      2019 2.50000E+00 4.95700E-01 5.00000E-01
 -1      2021 2.50000E+00 5.04300E-01 5.00000E-01
 -1      2022 2.60000E+00 4.95700E-01 5.00000E-01
 -1      2024 2.60000E+00 5.04300E-01 5.00000E-01
 -1      2025 2.70000E+00 4.95700E-01 5.00000E-01
 -1      2027 2.70000E+00 5.04300E-01 5.00000E-01
 -1      2028 2.80000E+00 4.95700E-01 5.00000E-01
 -1      2030 2.80000E+00 5.04300E-01 5.00000E-01
 -1      2031 2.90000E+00 4.95700E-01 5.00000E-01
 -1      2033 2.90000E+00 5.04300E-01 5.00000E-01
 -1      2034 1.00000E-01 4.95700E-01 6.00000E-01
 -1      2036 1.00000E-01 5.04300E-01 6.00000E-01
 -1      2037 2.00000E-01 4.95700E-01 6.00000E-01
 -1      2039 2.00000E-01 5.04300E-01 6.00000E-01
 -1      2040 3.00000E-01 4.95700E-01 6.00000E-01
 -1      2042 3.00000E-01 5.04300E-01 6.00000E-01
 -1      2043 4.00000E-01 4.95700E-01 6.00000E-01
 -1      2045 4.00000E-01 5.04300E-01 6.00000E-01
 -1      2046 5.00000E-01 4.95700E-01 6.00000E-01
 -1      2048 5.00000E-01 5.04300E-01 6.00000E-01
 -1      2049 6.00000E-01 4.95700E-01 6.00000E-01
 -1      2051 6.00000E-01 5.04300E-01 6.00000E-01
 -1      2052 7.00000E-01 4.95700E-01 6.00000E-01
 -1      2054 7.00000E-01 5.04300E-01 6.00000E-01
 -1      2055 8.00000E-01 4.95700E-01 6.00000E-01
 -1      2057 8.00000E-01 5.04300E-01 6.00000E-01
 -1      2058 9.00000E-01 4.95700E-01 6.00000E-01
 -1      2060 9.00000E-01 5.04300E-01 6.00000E-01
 -1      2061 1.00000E+00 4.95700E-01 6.00000E-01
 -1      2063 1.00000E+00 5.04300E-01 6.00000E-01
 -1      2064 1.10000E+00 4.95700E-01 6.00000E-01
 -1      2066 1.10000E+00 5.04300E-01 6.00000E-01
 -1      2067 1.20000E+00 4.95700E-01 6.00000E-01
 -1      2069 1.20000E+00 5.04300E-01 6.00000E-01
 -1      2070 1.30000E+00 4.95700E-01 6.00000E-01
 -1      2072 1.30000E+00 5.04300E-01 6.00000E-01
 -1      2073 1.40000E+00 4.95700E-01 6.00000E-01
 -1      2075 1.40000E+00 5.04300E-01 6.00000E-01
 -1      2076 1.50000E+00 4.95700E-01 6.00000E-01
 -1      2078 1.50000E+00 5.04300E-01 6.00000E-01
 -1      2079 1.60000E+00 4.95700E-01 6.00000E-01
 -1      2081 1.60000E+00 5.04300E-01 6.00000E-01
 -1      2082 1.70000E+00 4.95700E-01 6.00000E-01
 -1      2084 1.70000E+00 5.04300E-01 6.00000E-01
 -1      2085 1.80000E+00 4.95700E-01 6.00000E-01
 -1      2087 1.80000E+00 5.04300E-01 6.00000E-01
 -1      2088 1.90000E+00 4.95700E-01 6.00000E-01
 -1      2090 1.90000E+00 5.04300E-01 6.00000E-01
 -1      2091 2.00000E+00 4.95700E-01 6.00000E-01
 -1      2093 2.00000E+00 5.04300E-01 6.00000E-01
 -1      2094 2.10000E+00 4.95700E-01 6.00000E-01
 -1      2096 2.10000E+00 5.04300E-01 6.00000E-01
 -1      2097 2.20000E+00 4.95700E-01 6.00000E-01
 -1      2099 2.20000E+00 5.04300E-01 6.00000E-01
 -1      2100 2.30000E+00 4.95700E-01 6.00000E-01
 -1      2102 2.30000E+00 5.04300E-01 6.00000E-01
 -1      2103 2.40000E+00 4.95700E-01 6.00000E-01
 -1      2105 2.40000E+00 5.04300E-01 6.00000E-01
 -1      2106 2.50000E+00 4.95700E-01 6.00000E-01
 -1      2108 2.50000E+00 5.04300E-01 6.00000E-01
 -1      2109 2.60000E+00 4.95700E-01 6.00000E-01
 -1      2111 2.60000E+00 5.04300E-01 6.00000E-01
 -1      2112 2.70000E+00 4.95700E-01 6.00000E-01
 -1      2114 2.70000E+00 5.04300E-01 6.00000E-01
 -1      2115 2.80000E+00 4.95700E-01 6.00000E-01
 -1      2117 2.80000E+00 5.04300E-01 6.00000E-01
 -1      2118 2.90000E+00 4.95700E-01 6.00000E-01
 -1      2120 2.90000E+00 5.04300E-01 6.00000E-01
 -1      2121 1.00000E-01 4.55000E-01 7.06750E-01
 -1      2123 1.00000E-01 4.55000E-01 6.93250E-01
 -1      2124 2.00000E-01 4.55000E-01 7.06750E-01
 -1      2126 2.00000E-01 4.55000E-01 6.93250E-01
 -1      2127 3.00000E-01 4.55000E-01 7.06750E-01
 -1      2129 3.00000E-01 4.55000E-01 6.93250E-01
 -1      2130 4.00000E-01 4.55000E-01 7.06750E-01
 -1      2132 4.00000E-01 4.55000E-01 6.93250E-01
 -1      2133 5.00000E-01 4.55000E-01 7.06750E-01
 -1      2135 5.00000E-01 4.55000E-01 6.93250E-01
 -1      2136 6.00000E-01 4.55000E-01 7.06750E-01
 -1      2138 6.00000E-01 4.55000E-01 6.93250E-01
 -1      2139 7.00000E-01 4.55000E-01 7.06750E-01
 -1      2141 7.00000E-01 4.55000E-01 6.93250E-01
 -1      2142 8.00000E-01 4.55000E-01 7.06750E-01
 -1      2144 8.00000E-01 4.55000E-01 6.93250E-01
 -1      2145 9.00000E-01 4.55000E-01 7.06750E-01
 -1      2147 9.00000E-01 4.55000E-01 6.93250E-01
 -1      2148 1.00000E+00 4.55000E-01 7.06750E-01
 -1      2150 1.00000E+00 4.55000E-01 6.93250E-01
 -1      2151 1.10000E+00 4.55000E-01 7.06750E-01
 -1      2153 1.10000E+00 4.55000E-01 6.93250E-01
 -1      2154 1.20000E+00 4.55000E-01 7.06750E-01
 -1      2156 1.20000E+00 4.55000E-01 6.93250E-01
 -1      2157 1.30000E+00 4.55000E-01 7.06750E-01
 -1      2159 1.30000E+00 4.55000E-01 6.93250E-01
 -1      2160 1.40000E+00 4.55000E-01 7.06750E-01
 -1      2162 1.40000E+00 4.55000E-01 6.93250E-01
 -1      2163 1.50000E+00 4.55000E-01 7.06750E-01
 -1      2165 1.50000E+00 4.55000E-01 6.93250E-01
 -1      2166 1.60000E+00 4.55000E-01 7.06750E-01
 -1      2168 1.60000E+00 4.55000E-01 6.93250E-01
 -1      2169 1.70000E+00 4.55000E-01 7.06750E-01
 -1      2171 1.70000E+00 4.55000E-01 6.93250E-01
 -1      2172 1.80000E+00 4.55000E-01 7.06750E-01
 -1      2174 1.80000E+00 4.55000E-01 6.93250E-01
 -1      2175 1.90000E+00 4.55000E-01 7.06750E-01
 -1      2177 1.90000E+00 4.55000E-01 6.93250E-01
 -1      2178 2.00000E+00 4.55000E-01 7.06750E-01
 -1      2180 2.00000E+00 4.55000E-01 6.93250E-01
 -1      2181 2.10000E+00 4.55000E-01 7.06750E-01
 -1      2183 2.10000E+00 4.55000E-01 6.93250E-01
 -1      2184 2.20000E+00 4.55000E-01 7.06750E-01
 -1      2186 2.20000E+00 4.55000E-01 6.93250E-01
 -1      2187 2.30000E+00 4.55000E-01 7.06750E-01
 -1      2189 2.30000E+00 4.55000E-01 6.93250E-01
 -1      2190 2.40000E+00 4.55000E-01 7.06750E-01
 -1      2192 2.40000E+00 4.55000E-01 6.93250E-01
 -1      2193 2.50000E+00 4.55000E-01 7.06750E-01
 -1      2195 2.50000E+00 4.55000E-01 6.93250E-01
 -1      2196 2.60000E+00 4.55000E-01 7.06750E-01
 -1      2198 2.60000E+00 4.55000E-01 6.93250E-01
 -1      2199 2.70000E+00 4.55000E-01 7.06750E-01
 -1      2201 2.70000E+00 4.55000E-01 6.93250E-01
 -1      2202 2.80000E+00 4.55000E-01 7.06750E-01
 -1      2204 2.80000E+00 4.55000E-01 6.93250E-01
 -1      2205 2.90000E+00 4.55000E-01 7.06750E-01
 -1      2207 2.90000E+00 4.55000E-01 6.93250E-01
 -1      2208 1.00000E-01 5.45000E-01 7.06750E-01
 -1      2210 1.00000E-01 5.45000E-01 6.93250E-01
 -1      2211 2.00000E-01 5.45000E-01 7.06750E-01
 -1      2213 2.00000E-01 5.45000E-01 6.93250E-01
 -1      2214 3.00000E-01 5.45000E-01 7.06750E-01
 -1      2216 3.00000E-01 5.45000E-01 6.93250E-01
 -1      2217 4.00000E-01 5.45000E-01 7.06750E-01
 -1      2219 4.00000E-01 5.45000E-01 6.93250E-01
 -1      2220 5.00000E-01 5.45000E-01 7.06750E-01
 -1      2222 5.00000E-01 5.45000E-01 6.93250E-01
 -1      2223 6.00000E-01 5.45000E-01 7.06750E-01
 -1      2225 6.00000E-01 5.45000E-01 6.93250E-01
 -1      2226 7.00000E-01 5.45000E-01 7.06750E-01
 -1      2228 7.00000E-01 5.45000E-01 6.93250E-01
 -1      2229 8.00000E-01 5.45000E-01 7.06750E-01
 -1      2231 8.00000E-01 5.45000E-01 6.93250E-01
 -1      2232 9.00000E-01 5.45000E-01 7.06750E-01
 -1      2234 9.00000E-01 5.45000E-01 6.93250E-01
 -1      2235 1.00000E+00 5.45000E-01 7.06750E-01
 -1      2237 1.00000E+00 5.45000E-01 6.93250E-01
 -1      2238 1.10000E+00 5.45000E-01 7.06750E-01
 -1      2240 1.10000E+00 5.45000E-01 6.93250E-01
 -1      2241 1.20000E+00 5.45000E-01 7.06750E-01
 -1      2243 1.20000E+00 5.45000E-01 6.93250E-01
 -1      2244 1.30000E+00 5.45000E-01 7.06750E-01
 -1      2246 1.30000E+00 5.45000E-01 6.93250E-01
 -1      2247 1.40000E+00 5.45000E-01 7.06750E-01
 -1      2249 1.40000E+00 5.45000E-01 6.93250E-01
 -1      2250 1.50000E+00 5.45000E-01 7.06750E-01
 -1      2252 1.50000E+00 5.45000E-01 6.93250E-01
 -1      2253 1.60000E+00 5.45000E-01 7.06750E-01
 -1      2255 1.60000E+00 5.45000E-01 6.93250E-01
 -1      2256 1.70000E+00 5.45000E-01 7.06750E-01
 -1      2258 1.70000E+00 5.45000E-01 6.93250E-01
 -1      2259 1.80000E+00 5.45000E-01 7.06750E-01
 -1      2261 1.80000E+00 5.45000E-01 6.93250E-01
 -1      2262 1.90000E+00 5.45000E-01 7.06750E-01
 -1      2264 1.90000E+00 5.45000E-01 6.93250E-01
 -1      2265 2.00000E+00 5.45000E-01 7.06750E-01
 -1      2267 2.00000E+00 5.45000E-01 6.93250E-01
 -1      2268 2.10000E+00 5.45000E-01 7.06750E-01
 -1      2270 2.10000E+00 5.45000E-01 6.93250E-01
 -1      2271 2.20000E+00 5.45000E-01 7.06750E-01
 -1      2273 2.20000E+00 5.45000E-01 6.93250E-01
 -1      2274 2.30000E+00 5.45000E-01 7.06750E-01
 -1      2276 2.30000E+00 5.45000E-01 6.93250E-01
 -1      2277 2.40000E+00 5.45000E-01 7.06750E-01
 -1      2279 2.40000E+00 5.45000E-01 6.93250E-01
 -1      2280 2.50000E+00 5.45000E-01 7.06750E-01
 -1      2282 2.50000E+00 5.45000E-01 6.93250E-01
 -1      2283 2.60000E+00 5.45000E-01 7.06750E-01
 -1      2285 2.60000E+00 5.45000E-01 6.93250E-01
 -1      2286 2.70000E+00 5.45000E-01 7.06750E-01
 -1      2288 2.70000E+00 5.45000E-01 6.93250E-01
 -1      2289 2.80000E+00 5.45000E-01 7.06750E-01
 -1      2291 2.80000E+00 5.45000E-01 6.93250E-01
 -1      2292 2.90000E+00 5.45000E-01 7.06750E-01
 -1      2294 2.90000E+00 5.45000E-01 6.93250E-01
 -3
    3C                           360                                     1
 -1         1    1    0    1
 -2       404       980      1686       484       406       982      1688       486
 -1         2    1    0    1
 -2       980       424       574      1686       982       426       576      1688
 -1         3    1    0    1
 -2       484      1686      1689       487       486      1688      1691       489
 -1         4    1    0    1
 -2      1686       574       588      1689      1688       576       590      1691
 -1         5    1    0    1
 -2       487      1689      1692       490       489      1691      1694       492
 -1         6    1    0    1
 -2      1689       588       602      1692      1691       590       604      1694
 -1         7    1    0    1
 -2       490      1692      1695       493       492      1694      1697       495
 -1         8    1    0    1
 -2      1692       602       616      1695      1694       604       618      1697
 -1         9    1    0    1
 -2       493      1695      1698       496       495      1697      1700       498
 -1        10    1    0    1
 -2      1695       616       630      1698      1697       618       632      1700
 -1        11    1    0    1
 -2       496      1698      1701       499       498      1700      1703       501
 -1        12    1    0    1
 -2      1698       630       644      1701      1700       632       646      1703
 -1        13    1    0    1
 -2       499      1701      1704       502       501      1703      1706       504
 -1        14    1    0    1
 -2      1701       644       658      1704      1703       646       660      1706
 -1        15    1    0    1
 -2       502      1704      1707       505       504      1706      1709       507
 -1        16    1    0    1
 -2      1704       658       672      1707      1706       660       674      1709
 -1        17    1    0    1
 -2       505      1707      1710       508       507      1709      1712       510
 -1        18    1    0    1
 -2      1707       672       686      1710      1709       674       688      1712
 -1        19    1    0    1
 -2       508      1710      1713       511       510      1712      1715       513
 -1        20    1    0    1
 -2      1710       686       700      1713      1712       688       702      1715
 -1        21    1    0    1
 -2       511      1713      1716       514       513      1715      1718       516
 -1        22    1    0    1
 -2      1713       700       714      1716      1715       702       716      1718
 -1        23    1    0    1
 -2       514      1716      1719       517       516      1718      1721       519
 -1        24    1    0    1
 -2      1716       714       728      1719      1718       716       730      1721
 -1        25    1    0    1
 -2       517      1719      1722       520       519      1721      1724       522
 -1        26    1    0    1
 -2      1719       728       742      1722      1721       730       744      1724
 -1        27    1    0    1
 -2       520      1722      1725       523       522      1724      1727       525
 -1        28    1    0    1
 -2      1722       742       756      1725      1724       744       758      1727
 -1        29    1    0    1
 -2       523      1725      1728       526       525      1727      1730       528
 -1        30    1    0    1
 -2      1725       756       770      1728      1727       758       772      1730
 -1        31    1    0    1
 -2       526      1728      1731       529       528      1730      1733       531
 -1        32    1    0    1
 -2      1728       770       784      1731      1730       772       786      1733
 -1        33    1    0    1
 -2       529      1731      1734       532       531      1733      1736       534
 -1        34    1    0    1
 -2      1731       784       798      1734      1733       786       800      1736
 -1        35    1    0    1
 -2       532      1734      1737       535       534      1736      1739       537
 -1        36    1    0    1
 -2      1734       798       812      1737      1736       800       814      1739
 -1        37    1    0    1
 -2       535      1737      1740       538       537      1739      1742       540
 -1        38    1    0    1
 -2      1737       812       826      1740      1739       814       828      1742
 -1        39    1    0    1
 -2       538      1740      1743       541       540      1742      1745       543
 -1        40    1    0    1
 -2      1740       826       840      1743      1742       828       842      1745
 -1        41    1    0    1
 -2       541      1743      1746       544       543      1745      1748       546
 -1        42    1    0    1
 -2      1743       840       854      1746      1745       842       856      1748
 -1        43    1    0    1
 -2       544      1746      1749       547       546      1748      1751       549
 -1        44    1    0    1
 -2      1746       854       868      1749      1748       856       870      1751
 -1        45    1    0    1
 -2       547      1749      1752       550       549      1751      1754       552
 -1        46    1    0    1
 -2      1749       868       882      1752      1751       870       884      1754
 -1        47    1    0    1
 -2       550      1752      1755       553       552      1754      1757       555
 -1        48    1    0    1
 -2      1752       882       896      1755      1754       884       898      1757
 -1        49    1    0    1
 -2       553      1755      1758       556       555      1757      1760       558
 -1        50    1    0    1
 -2      1755       896       910      1758      1757       898       912      1760
 -1        51    1    0    1
 -2       556      1758      1761       559       558      1760      1763       561
 -1        52    1    0    1
 -2      1758       910       924      1761      1760       912       926      1763
 -1        53    1    0    1
 -2       559      1761      1764       562       561      1763      1766       564
 -1        54    1    0    1
 -2      1761       924       938      1764      1763       926       940      1766
 -1        55    1    0    1
 -2       562      1764      1767       565       564      1766      1769       567
 -1        56    1    0    1
 -2      1764       938       952      1767      1766       940       954      1769
 -1        57    1    0    1
 -2       565      1767      1770       568       567      1769      1772       570
 -1        58    1    0    1
 -2      1767       952       966      1770      1769       954       968      1772
 -1        59    1    0    1
 -2       568      1770       571       407       570      1772       573       409
 -1        60    1    0    1
 -2      1770       966       410       571      1772       968       412       573
 -1        61    1    0    1
 -2       424      1073      1773       574       426      1075      1775       576
 -1        62    1    0    1
 -2      1073       441       986      1773      1075       443       988      1775
 -1        63    1    0    1
 -2       574      1773      1776       588       576      1775      1778       590
 -1        64    1    0    1
 -2      1773       986       989      1776      1775       988       991      1778
 -1        65    1    0    1
 -2       588      1776      1779       602       590      1778      1781       604
 -1        66    1    0    1
 -2      1776       989       992      1779      1778       991       994      1781
 -1        67    1    0    1
 -2       602      1779      1782       616       604      1781      1784       618
 -1        68    1    0    1
 -2      1779       992       995      1782      1781       994       997      1784
 -1        69    1    0    1
 -2       616      1782      1785       630       618      1784      1787       632
 -1        70    1    0    1
 -2      1782       995       998      1785      1784       997      1000      1787
 -1        71    1    0    1
 -2       630      1785      1788       644       632      1787      1790       646
 -1        72    1    0    1
 -2      1785       998      1001      1788      1787      1000      1003      1790
 -1        73    1    0    1
 -2       644      1788      1791       658       646      1790      1793       660
 -1        74    1    0    1
 -2      1788      1001      1004      1791      1790      1003      1006      1793
 -1        75    1    0    1
 -2       658      1791      1794       672       660      1793      1796       674
 -1        76    1    0    1
 -2      1791      1004      1007      1794      1793      1006      1009      1796
 -1        77    1    0    1
 -2       672      1794      1797       686       674      1796      1799       688
 -1        78    1    0    1
 -2      1794      1007      1010      1797      1796      1009      1012      1799
 -1        79    1    0    1
 -2       686      1797      1800       700       688      1799      1802       702
 -1        80    1    0    1
 -2      1797      1010      1013      1800      1799      1012      1015      1802
 -1        81    1    0    1
 -2       700      1800      1803       714       702      1802      1805       716
 -1        82    1    0    1
 -2      1800      1013      1016      1803      1802      1015      1018      1805
 -1        83    1    0    1
 -2       714      1803      1806       728       716      1805      1808       730
 -1        84    1    0    1
 -2      1803      1016      1019      1806      1805      1018      1021      1808
 -1        85    1    0    1
 -2       728      1806      1809       742       730      1808      1811       744
 -1        86    1    0    1
 -2      1806      1019      1022      1809      1808      1021      1024      1811
 -1        87    1    0    1
 -2       742      1809      1812       756       744      1811      1814       758
 -1        88    1    0    1
 -2      1809      1022      1025      1812      1811      1024      1027      1814
 -1        89    1    0    1
 -2       756      1812      1815       770       758      1814      1817       772
 -1        90    1    0    1
 -2      1812      1025      1028      1815      1814      1027      1030      1817
 -1        91    1    0    1
 -2       770      1815      1818       784       772      1817      1820       786
 -1        92    1    0    1
 -2      1815      1028      1031      1818      1817      1030      1033      1820
 -1        93    1    0    1
 -2       784      1818      1821       798       786      1820      1823       800
 -1        94    1    0    1
 -2      1818      1031      1034      1821      1820      1033      1036      1823
 -1        95    1    0    1
 -2       798      1821      1824       812       800      1823      1826       814
 -1        96    1    0    1
 -2      1821      1034      1037      1824      1823      1036      1039      1826
 -1        97    1    0    1
 -2       812      1824      1827       826       814      1826      1829       828
 -1        98    1    0    1
 -2      1824      1037      1040      1827      1826      1039      1042      1829
 -1        99    1    0    1
 -2       826      1827      1830       840       828      1829      1832       842
 -1       100    1    0    1
 -2      1827      1040      1043      1830      1829      1042      1045      1832
 -1       101    1    0    1
 -2       840      1830      1833       854       842      1832      1835       856
 -1       102    1    0    1
 -2      1830      1043      1046      1833      1832      1045      1048      1835
 -1       103    1    0    1
 -2       854      1833      1836       868       856      1835      1838       870
 -1       104    1    0    1
 -2      1833      1046      1049      1836      1835      1048      1051      1838
 -1       105    1    0    1
 -2       868      1836      1839       882       870      1838      1841       884
 -1       106    1    0    1
 -2      1836      1049      1052      1839      1838      1051      1054      1841
 -1       107    1    0    1
 -2       882      1839      1842       896       884      1841      1844       898
 -1       108    1    0    1
 -2      1839      1052      1055      1842      1841      1054      1057      1844
 -1       109    1    0    1
 -2       896      1842      1845       910       898      1844      1847       912
 -1       110    1    0    1
 -2      1842      1055      1058      1845      1844      1057      1060      1847
 -1       111    1    0    1
 -2       910      1845      1848       924       912      1847      1850       926
 -1       112    1    0    1
 -2      1845      1058      1061      1848      1847      1060      1063      1850
 -1       113    1    0    1
 -2       924      1848      1851       938       926      1850      1853       940
 -1       114    1    0    1
 -2      1848      1061      1064      1851      1850      1063      1066      1853
 -1       115    1    0    1
 -2       938      1851      1854       952       940      1853      1856       954
 -1       116    1    0    1
 -2      1851      1064      1067      1854      1853      1066      1069      1856
 -1       117    1    0    1
 -2       952      1854      1857       966       954      1856      1859       968
 -1       118    1    0    1
 -2      1854      1067      1070      1857      1856      1069      1072      1859
 -1       119    1    0    1
 -2       966      1857       983       410       968      1859       985       412
 -1       120    1    0    1
 -2      1857      1070       438       983      1859      1072       440       985
 -1       121    1    0    1
 -2       427      1076      1860       577       429      1078      1862       579
 -1       122    1    0    1
 -2       577      1860      1863       591       579      1862      1865       593
 -1       123    1    0    1
 -2       591      1863      1866       605       593      1865      1868       607
 -1       124    1    0    1
 -2       605      1866      1869       619       607      1868      1871       621
 -1       125    1    0    1
 -2       619      1869      1872       633       621      1871      1874       635
 -1       126    1    0    1
 -2       633      1872      1875       647       635      1874      1877       649
 -1       127    1    0    1
 -2       647      1875      1878       661       649      1877      1880       663
 -1       128    1    0    1
 -2       661      1878      1881       675       663      1880      1883       677
 -1       129    1    0    1
 -2       675      1881      1884       689       677      1883      1886       691
 -1       130    1    0    1
 -2       689      1884      1887       703       691      1886      1889       705
 -1       131    1    0    1
 -2       703      1887      1890       717       705      1889      1892       719
 -1       132    1    0    1
 -2       717      1890      1893       731       719      1892      1895       733
 -1       133    1    0    1
 -2       731      1893      1896       745       733      1895      1898       747
 -1       134    1    0    1
 -2       745      1896      1899       759       747      1898      1901       761
 -1       135    1    0    1
 -2       759      1899      1902       773       761      1901      1904       775
 -1       136    1    0    1
 -2       773      1902      1905       787       775      1904      1907       789
 -1       137    1    0    1
 -2       787      1905      1908       801       789      1907      1910       803
 -1       138    1    0    1
 -2       801      1908      1911       815       803      1910      1913       817
 -1       139    1    0    1
 -2       815      1911      1914       829       817      1913      1916       831
 -1       140    1    0    1
 -2       829      1914      1917       843       831      1916      1919       845
 -1       141    1    0    1
 -2       843      1917      1920       857       845      1919      1922       859
 -1       142    1    0    1
 -2       857      1920      1923       871       859      1922      1925       873
 -1       143    1    0    1
 -2       871      1923      1926       885       873      1925      1928       887
 -1       144    1    0    1
 -2       885      1926      1929       899       887      1928      1931       901
 -1       145    1    0    1
 -2       899      1929      1932       913       901      1931      1934       915
 -1       146    1    0    1
 -2       913      1932      1935       927       915      1934      1937       929
 -1       147    1    0    1
 -2       927      1935      1938       941       929      1937      1940       943
 -1       148    1    0    1
 -2       941      1938      1941       955       943      1940      1943       957
 -1       149    1    0    1
 -2       955      1941      1944       969       957      1943      1946       971
 -1       150    1    0    1
 -2       969      1944      1491       413       971      1946      1493       415
 -1       151    1    0    1
 -2      1076      1079      1947      1860      1078      1081      1949      1862
 -1       152    1    0    1
 -2      1860      1947      1950      1863      1862      1949      1952      1865
 -1       153    1    0    1
 -2      1863      1950      1953      1866      1865      1952      1955      1868
 -1       154    1    0    1
 -2      1866      1953      1956      1869      1868      1955      1958      1871
 -1       155    1    0    1
 -2      1869      1956      1959      1872      1871      1958      1961      1874
 -1       156    1    0    1
 -2      1872      1959      1962      1875      1874      1961      1964      1877
 -1       157    1    0    1
 -2      1875      1962      1965      1878      1877      1964      1967      1880
 -1       158    1    0    1
 -2      1878      1965      1968      1881      1880      1967      1970      1883
 -1       159    1    0    1
 -2      1881      1968      1971      1884      1883      1970      1973      1886
 -1       160    1    0    1
 -2      1884      1971      1974      1887      1886      1973      1976      1889
 -1       161    1    0    1
 -2      1887      1974      1977      1890      1889      1976      1979      1892
 -1       162    1    0    1
 -2      1890      1977      1980      1893      1892      1979      1982      1895
 -1       163    1    0    1
 -2      1893      1980      1983      1896      1895      1982      1985      1898
 -1       164    1    0    1
 -2      1896      1983      1986      1899      1898      1985      1988      1901
 -1       165    1    0    1
 -2      1899      1986      1989      1902      1901      1988      1991      1904
 -1       166    1    0    1
 -2      1902      1989      1992      1905      1904      1991      1994      1907
 -1       167    1    0    1
 -2      1905      1992      1995      1908      1907      1994      1997      1910
 -1       168    1    0    1
 -2      1908      1995      1998      1911      1910      1997      2000      1913
 -1       169    1    0    1
 -2      1911      1998      2001      1914      1913      2000      2003      1916
 -1       170    1    0    1
 -2      1914      2001      2004      1917      1916      2003      2006      1919
 -1       171    1    0    1
 -2      1917      2004      2007      1920      1919      2006      2009      1922
 -1       172    1    0    1
 -2      1920      2007      2010      1923      1922      2009      2012      1925
 -1       173    1    0    1
 -2      1923      2010      2013      1926      1925      2012      2015      1928
 -1       174    1    0    1
 -2      1926      2013      2016      1929      1928      2015      2018      1931
 -1       175    1    0    1
 -2      1929      2016      2019      1932      1931      2018      2021      1934
 -1       176    1    0    1
 -2      1932      2019      2022      1935      1934      2021      2024      1937
 -1       177    1    0    1
 -2      1935      2022      2025      1938      1937      2024      2027      1940
 -1       178    1    0    1
 -2      1938      2025      2028      1941      1940      2027      2030      1943
 -1       179    1    0    1
 -2      1941      2028      2031      1944      1943      2030      2033      1946
 -1       180    1    0    1
 -2      1944      2031      1494      1491      1946      2033      1496      1493
 -1       181    1    0    1
 -2      1079      1082      2034      1947      1081      1084      2036      1949
 -1       182    1    0    1
 -2      1947      2034      2037      1950      1949      2036      2039      1952
 -1       183    1    0    1
 -2      1950      2037      2040      1953      1952      2039      2042      1955
 -1       184    1    0    1
 -2      1953      2040      2043      1956      1955      2042      2045      1958
 -1       185    1    0    1
 -2      1956      2043      2046      1959      1958      2045      2048      1961
 -1       186    1    0    1
 -2      1959      2046      2049      1962      1961      2048      2051      1964
 -1       187    1    0    1
 -2      1962      2049      2052      1965      1964      2051      2054      1967
 -1       188    1    0    1
 -2      1965      2052      2055      1968      1967      2054      2057      1970
 -1       189    1    0    1
 -2      1968      2055      2058      1971      1970      2057      2060      1973
 -1       190    1    0    1
 -2      1971      2058      2061      1974      1973      2060      2063      1976
 -1       191    1    0    1
 -2      1974      2061      2064      1977      1976      2063      2066      1979
 -1       192    1    0    1
 -2      1977      2064      2067      1980      1979      2066      2069      1982
 -1       193    1    0    1
 -2      1980      2067      2070      1983      1982      2069      2072      1985
 -1       194    1    0    1
 -2      1983      2070      2073      1986      1985      2072      2075      1988
 -1       195    1    0    1
 -2      1986      2073      2076      1989      1988      2075      2078      1991
 -1       196    1    0    1
 -2      1989      2076      2079      1992      1991      2078      2081      1994
 -1       197    1    0    1
 -2      1992      2079      2082      1995      1994      2081      2084      1997
 -1       198    1    0    1
 -2      1995      2082      2085      1998      1997      2084      2087      2000
 -1       199    1    0    1
 -2      1998      2085      2088      2001      2000      2087      2090      2003
 -1       200    1    0    1
 -2      2001      2088      2091      2004      2003      2090      2093      2006
 -1       201    1    0    1
 -2      2004      2091      2094      2007      2006      2093      2096      2009
 -1       202    1    0    1
 -2      2007      2094      2097      2010      2009      2096      2099      2012
 -1       203    1    0    1
 -2      2010      2097      2100      2013      2012      2099      2102      2015
 -1       204    1    0    1
 -2      2013      2100      2103      2016      2015      2102      2105      2018
 -1       205    1    0    1
 -2      2016      2103      2106      2019      2018      2105      2108      2021
 -1       206    1    0    1
 -2      2019      2106      2109      2022      2021      2108      2111      2024
 -1       207    1    0    1
 -2      2022      2109      2112      2025      2024      2111      2114      2027
 -1       208    1    0    1
 -2      2025      2112      2115      2028      2027      2114      2117      2030
 -1       209    1    0    1
 -2      2028      2115      2118      2031      2030      2117      2120      2033
 -1       210    1    0    1
 -2      2031      2118      1497      1494      2033      2120      1499      1496
 -1       211    1    0    1
 -2      1082       444      1085      2034      1084       446      1087      2036
 -1       212    1    0    1
 -2      2034      1085      1099      2037      2036      1087      1101      2039
 -1       213    1    0    1
 -2      2037      1099      1113      2040      2039      1101      1115      2042
 -1       214    1    0    1
 -2      2040      1113      1127      2043      2042      1115      1129      2045
 -1       215    1    0    1
 -2      2043      1127      1141      2046      2045      1129      1143      2048
 -1       216    1    0    1
 -2      2046      1141      1155      2049      2048      1143      1157      2051
 -1       217    1    0    1
 -2      2049      1155      1169      2052      2051      1157      1171      2054
 -1       218    1    0    1
 -2      2052      1169      1183      2055      2054      1171      1185      2057
 -1       219    1    0    1
 -2      2055      1183      1197      2058      2057      1185      1199      2060
 -1       220    1    0    1
 -2      2058      1197      1211      2061      2060      1199      1213      2063
 -1       221    1    0    1
 -2      2061      1211      1225      2064      2063      1213      1227      2066
 -1       222    1    0    1
 -2      2064      1225      1239      2067      2066      1227      1241      2069
 -1       223    1    0    1
 -2      2067      1239      1253      2070      2069      1241      1255      2072
 -1       224    1    0    1
 -2      2070      1253      1267      2073      2072      1255      1269      2075
 -1       225    1    0    1
 -2      2073      1267      1281      2076      2075      1269      1283      2078
 -1       226    1    0    1
 -2      2076      1281      1295      2079      2078      1283      1297      2081
 -1       227    1    0    1
 -2      2079      1295      1309      2082      2081      1297      1311      2084
 -1       228    1    0    1
 -2      2082      1309      1323      2085      2084      1311      1325      2087
 -1       229    1    0    1
 -2      2085      1323      1337      2088      2087      1325      1339      2090
 -1       230    1    0    1
 -2      2088      1337      1351      2091      2090      1339      1353      2093
 -1       231    1    0    1
 -2      2091      1351      1365      2094      2093      1353      1367      2096
 -1       232    1    0    1
 -2      2094      1365      1379      2097      2096      1367      1381      2099
 -1       233    1    0    1
 -2      2097      1379      1393      2100      2099      1381      1395      2102
 -1       234    1    0    1
 -2      2100      1393      1407      2103      2102      1395      1409      2105
 -1       235    1    0    1
 -2      2103      1407      1421      2106      2105      1409      1423      2108
 -1       236    1    0    1
 -2      2106      1421      1435      2109      2108      1423      1437      2111
 -1       237    1    0    1
 -2      2109      1435      1449      2112      2111      1437      1451      2114
 -1       238    1    0    1
 -2      2112      1449      1463      2115      2114      1451      1465      2117
 -1       239    1    0    1
 -2      2115      1463      1477      2118      2117      1465      1479      2120
 -1       240    1    0    1
 -2      2118      1477       458      1497      2120      1479       460      1499
 -1       241    1    0    1
 -2       472      1590      2121      1500       474      1592      2123      1502
 -1       242    1    0    1
 -2      1590       447      1088      2121      1592       449      1090      2123
 -1       243    1    0    1
 -2      1500      2121      2124      1503      1502      2123      2126      1505
 -1       244    1    0    1
 -2      2121      1088      1102      2124      2123      1090      1104      2126
 -1       245    1    0    1
 -2      1503      2124      2127      1506      1505      2126      2129      1508
 -1       246    1    0    1
 -2      2124      1102      1116      2127      2126      1104      1118      2129
 -1       247    1    0    1
 -2      1506      2127      2130      1509      1508      2129      2132      1511
 -1       248    1    0    1
 -2      2127      1116      1130      2130      2129      1118      1132      2132
 -1       249    1    0    1
 -2      1509      2130      2133      1512      1511      2132      2135      1514
 -1       250    1    0    1
 -2      2130      1130      1144      2133      2132      1132      1146      2135
 -1       251    1    0    1
 -2      1512      2133      2136      1515      1514      2135      2138      1517
 -1       252    1    0    1
 -2      2133      1144      1158      2136      2135      1146      1160      2138
 -1       253    1    0    1
 -2      1515      2136      2139      1518      1517      2138      2141      1520
 -1       254    1    0    1
 -2      2136      1158      1172      2139      2138      1160      1174      2141
 -1       255    1    0    1
 -2      1518      2139      2142      1521      1520      2141      2144      1523
 -1       256    1    0    1
 -2      2139      1172      1186      2142      2141      1174      1188      2144
 -1       257    1    0    1
 -2      1521      2142      2145      1524      1523      2144      2147      1526
 -1       258    1    0    1
 -2      2142      1186      1200      2145      2144      1188      1202      2147
 -1       259    1    0    1
 -2      1524      2145      2148      1527      1526      2147      2150      1529
 -1       260    1    0    1
 -2      2145      1200      1214      2148      2147      1202      1216      2150
 -1       261    1    0    1
 -2      1527      2148      2151      1530      1529      2150      2153      1532
 -1       262    1    0    1
 -2      2148      1214      1228      2151      2150      1216      1230      2153
 -1       263    1    0    1
 -2      1530      2151      2154      1533      1532      2153      2156      1535
 -1       264    1    0    1
 -2      2151      1228      1242      2154      2153      1230      1244      2156
 -1       265    1    0    1
 -2      1533      2154      2157      1536      1535      2156      2159      1538
 -1       266    1    0    1
 -2      2154      1242      1256      2157      2156      1244      1258      2159
 -1       267    1    0    1
 -2      1536      2157      2160      1539      1538      2159      2162      1541
 -1       268    1    0    1
 -2      2157      1256      1270      2160      2159      1258      1272      2162
 -1       269    1    0    1
 -2      1539      2160      2163      1542      1541      2162      2165      1544
 -1       270    1    0    1
 -2      2160      1270      1284      2163      2162      1272      1286      2165
 -1       271    1    0    1
 -2      1542      2163      2166      1545      1544      2165      2168      1547
 -1       272    1    0    1
 -2      2163      1284      1298      2166      2165      1286      1300      2168
 -1       273    1    0    1
 -2      1545      2166      2169      1548      1547      2168      2171      1550
 -1       274    1    0    1
 -2      2166      1298      1312      2169      2168      1300      1314      2171
 -1       275    1    0    1
 -2      1548      2169      2172      1551      1550      2171      2174      1553
 -1       276    1    0    1
 -2      2169      1312      1326      2172      2171      1314      1328      2174
 -1       277    1    0    1
 -2      1551      2172      2175      1554      1553      2174      2177      1556
 -1       278    1    0    1
 -2      2172      1326      1340      2175      2174      1328      1342      2177
 -1       279    1    0    1
 -2      1554      2175      2178      1557      1556      2177      2180      1559
 -1       280    1    0    1
 -2      2175      1340      1354      2178      2177      1342      1356      2180
 -1       281    1    0    1
 -2      1557      2178      2181      1560      1559      2180      2183      1562
 -1       282    1    0    1
 -2      2178      1354      1368      2181      2180      1356      1370      2183
 -1       283    1    0    1
 -2      1560      2181      2184      1563      1562      2183      2186      1565
 -1       284    1    0    1
 -2      2181      1368      1382      2184      2183      1370      1384      2186
 -1       285    1    0    1
 -2      1563      2184      2187      1566      1565      2186      2189      1568
 -1       286    1    0    1
 -2      2184      1382      1396      2187      2186      1384      1398      2189
 -1       287    1    0    1
 -2      1566      2187      2190      1569      1568      2189      2192      1571
 -1       288    1    0    1
 -2      2187      1396      1410      2190      2189      1398      1412      2192
 -1       289    1    0    1
 -2      1569      2190      2193      1572      1571      2192      2195      1574
 -1       290    1    0    1
 -2      2190      1410      1424      2193      2192      1412      1426      2195
 -1       291    1    0    1
 -2      1572      2193      2196      1575      1574      2195      2198      1577
 -1       292    1    0    1
 -2      2193      1424      1438      2196      2195      1426      1440      2198
 -1       293    1    0    1
 -2      1575      2196      2199      1578      1577      2198      2201      1580
 -1       294    1    0    1
 -2      2196      1438      1452      2199      2198      1440      1454      2201
 -1       295    1    0    1
 -2      1578      2199      2202      1581      1580      2201      2204      1583
 -1       296    1    0    1
 -2      2199      1452      1466      2202      2201      1454      1468      2204
 -1       297    1    0    1
 -2      1581      2202      2205      1584      1583      2204      2207      1586
 -1       298    1    0    1
 -2      2202      1466      1480      2205      2204      1468      1482      2207
 -1       299    1    0    1
 -2      1584      2205      1587       475      1586      2207      1589       477
 -1       300    1    0    1
 -2      2205      1480       461      1587      2207      1482       463      1589
 -1       301    1    0    1
 -2       447      1683      2208      1088       449      1685      2210      1090
 -1       302    1    0    1
 -2      1683       481      1596      2208      1685       483      1598      2210
 -1       303    1    0    1
 -2      1088      2208      2211      1102      1090      2210      2213      1104
 -1       304    1    0    1
 -2      2208      1596      1599      2211      2210      1598      1601      2213
 -1       305    1    0    1
 -2      1102      2211      2214      1116      1104      2213      2216      1118
 -1       306    1    0    1
 -2      2211      1599      1602      2214      2213      1601      1604      2216
 -1       307    1    0    1
 -2      1116      2214      2217      1130      1118      2216      2219      1132
 -1       308    1    0    1
 -2      2214      1602      1605      2217      2216      1604      1607      2219
 -1       309    1    0    1
 -2      1130      2217      2220      1144      1132      2219      2222      1146
 -1       310    1    0    1
 -2      2217      1605      1608      2220      2219      1607      1610      2222
 -1       311    1    0    1
 -2      1144      2220      2223      1158      1146      2222      2225      1160
 -1       312    1    0    1
 -2      2220      1608      1611      2223      2222      1610      1613      2225
 -1       313    1    0    1
 -2      1158      2223      2226      1172      1160      2225      2228      1174
 -1       314    1    0    1
 -2      2223      1611      1614      2226      2225      1613      1616      2228
 -1       315    1    0    1
 -2      1172      2226      2229      1186      1174      2228      2231      1188
 -1       316    1    0    1
 -2      2226      1614      1617      2229      2228      1616      1619      2231
 -1       317    1    0    1
 -2      1186      2229      2232      1200      1188      2231      2234      1202
 -1       318    1    0    1
 -2      2229      1617      1620      2232      2231      1619      1622      2234
 -1       319    1    0    1
 -2      1200      2232      2235      1214      1202      2234      2237      1216
 -1       320    1    0    1
 -2      2232      1620      1623      2235      2234      1622      1625      2237
 -1       321    1    0    1
 -2      1214      2235      2238      1228      1216      2237      2240      1230
 -1       322    1    0    1
 -2      2235      1623      1626      2238      2237      1625      1628      2240
 -1       323    1    0    1
 -2      1228      2238      2241      1242      1230      2240      2243      1244
 -1       324    1    0    1
 -2      2238      1626      1629      2241      2240      1628      1631      2243
 -1       325    1    0    1
 -2      1242      2241      2244      1256      1244      2243      2246      1258
 -1       326    1    0    1
 -2      2241      1629      1632      2244      2243      1631      1634      2246
 -1       327    1    0    1
 -2      1256      2244      2247      1270      1258      2246      2249      1272
 -1       328    1    0    1
 -2      2244      1632      1635      2247      2246      1634      1637      2249
 -1       329    1    0    1
 -2      1270      2247      2250      1284      1272      2249      2252      1286
 -1       330    1    0    1
 -2      2247      1635      1638      2250      2249      1637      1640      2252
 -1       331    1    0    1
 -2      1284      2250      2253      1298      1286      2252      2255      1300
 -1       332    1    0    1
 -2      2250      1638      1641      2253      2252      1640      1643      2255
 -1       333    1    0    1
 -2      1298      2253      2256      1312      1300      2255      2258      1314
 -1       334    1    0    1
 -2      2253      1641      1644      2256      2255      1643      1646      2258
 -1       335    1    0    1
 -2      1312      2256      2259      1326      1314      2258      2261      1328
 -1       336    1    0    1
 -2      2256      1644      1647      2259      2258      1646      1649      2261
 -1       337    1    0    1
 -2      1326      2259      2262      1340      1328      2261      2264      1342
 -1       338    1    0    1
 -2      2259      1647      1650      2262      2261      1649      1652      2264
 -1       339    1    0    1
 -2      1340      2262      2265      1354      1342      2264      2267      1356
 -1       340    1    0    1
 -2      2262      1650      1653      2265      2264      1652      1655      2267
 -1       341    1    0    1
 -2      1354      2265      2268      1368      1356      2267      2270      1370
 -1       342    1    0    1
 -2      2265      1653      1656      2268      2267      1655      1658      2270
 -1       343    1    0    1
 -2      1368      2268      2271      1382      1370      2270      2273      1384
 -1       344    1    0    1
 -2      2268      1656      1659      2271      2270      1658      1661      2273
 -1       345    1    0    1
 -2      1382      2271      2274      1396      1384      2273      2276      1398
 -1       346    1    0    1
 -2      2271      1659      1662      2274      2273      1661      1664      2276
 -1       347    1    0    1
 -2      1396      2274      2277      1410      1398      2276      2279      1412
 -1       348    1    0    1
 -2      2274      1662      1665      2277      2276      1664      1667      2279
 -1       349    1    0    1
 -2      1410      2277      2280      1424      1412      2279      2282      1426
 -1       350    1    0    1
 -2      2277      1665      1668      2280      2279      1667      1670      2282
 -1       351    1    0    1
 -2      1424      2280      2283      1438      1426      2282      2285      1440
 -1       352    1    0    1
 -2      2280      1668      1671      2283      2282      1670      1673      2285
 -1       353    1    0    1
 -2      1438      2283      2286      1452      1440      2285      2288      1454
 -1       354    1    0    1
 -2      2283      1671      1674      2286      2285      1673      1676      2288
 -1       355    1    0    1
 -2      1452      2286      2289      1466      1454      2288      2291      1468
 -1       356    1    0    1
 -2      2286      1674      1677      2289      2288      1676      1679      2291
 -1       357    1    0    1
 -2      1466      2289      2292      1480      1468      2291      2294      1482
 -1       358    1    0    1
 -2      2289      1677      1680      2292      2291      1679      1682      2294
 -1       359    1    0    1
 -2      1480      2292      1593       461      1482      2294      1595       463
 -1       360    1    0    1
 -2      2292      1680       478      1593      2294      1682       480      1595
 -3
    1PSTEP                         1           1           1          
    1PGM                1.000000E+00                                  
    1PGK                6.343347E+03                                  
    1PHID                         -1                                  
    1PSUBC                         0                                  
    1PMODE                         1                                  
  100CL  101 12.67591621         930                     2    1MODAL      1
 -4  DISP        4    1
 -5  D1          1    2    1    0
 -5  D2          1    2    2    0
 -5  D3          1    2    3    0
 -5  ALL         1    2    0    0    1ALL
 -1       404 0.00000E+00 0.00000E+00-1.30726E-05
 -1       406 0.00000E+00-0.00000E+00 1.30726E-05
 -1       407-5.88431E-03 1.42772E-01-2.92280E-04
 -1       409-5.88429E-03 1.42814E-01-2.92330E-04
 -1       410 7.14240E-14 1.42770E-01 7.71506E-13
 -1       412 6.68288E-14 1.42816E-01 7.71396E-13
 -1       413 2.81144E-04 1.42793E-01 1.47953E-05
 -1       415-2.81144E-04 1.42793E-01-1.47953E-05
 -1       424 0.00000E+00 0.00000E+00 1.47566E-16
 -1       426 0.00000E+00 0.00000E+00-1.47566E-16
 -1       427 0.00000E+00 9.40053E-17 0.00000E+00
 -1       429 0.00000E+00-9.40053E-17 0.00000E+00
 -1       438 5.88431E-03 1.42772E-01 2.92280E-04
 -1       440 5.88429E-03 1.42814E-01 2.92330E-04
 -1       441 0.00000E+00 0.00000E+00 1.30726E-05
 -1       443 0.00000E+00-0.00000E+00-1.30726E-05
 -1       444 0.00000E+00-7.95123E-17 0.00000E+00
 -1       446 0.00000E+00 7.95123E-17 0.00000E+00
 -1       447 0.00000E+00 0.00000E+00 1.24816E-16
 -1       449 0.00000E+00 0.00000E+00-1.24816E-16
 -1       458 2.81144E-04 1.42793E-01-1.47953E-05
 -1       460-2.81144E-04 1.42793E-01 1.47953E-05
 -1       461-7.06459E-14 1.42770E-01 7.71601E-13
 -1       463-6.59720E-14 1.42816E-01 7.72596E-13
 -1       472 0.00000E+00 0.00000E+00-1.30726E-05
 -1       474 0.00000E+00 0.00000E+00 1.30726E-05
 -1       475 5.88431E-03 1.42772E-01-2.92280E-04
 -1       477 5.88429E-03 1.42814E-01-2.92330E-04
 -1       478-5.88431E-03 1.42772E-01 2.92280E-04
 -1       480-5.88429E-03 1.42814E-01 2.92330E-04
 -1       481 0.00000E+00 0.00000E+00 1.30726E-05
 -1       483 0.00000E+00 0.00000E+00-1.30726E-05
 -1       484-4.88462E-04 3.50086E-04-1.86931E-05
 -1       486-4.85743E-04 3.52061E-04-2.77559E-06
 -1       487-9.50021E-04 1.13102E-03-3.51156E-05
 -1       489-9.48790E-04 1.13457E-03-1.53893E-05
 -1       490-1.39826E-03 2.46467E-03-4.59894E-05
 -1       492-1.39630E-03 2.47017E-03-2.86293E-05
 -1       493-1.81720E-03 4.25749E-03-5.84610E-05
 -1       495-1.81562E-03 4.26499E-03-4.25167E-05
 -1       496-2.21580E-03 6.51545E-03-7.12521E-05
 -1       498-2.21404E-03 6.52481E-03-5.48065E-05
 -1       499-2.59120E-03 9.19762E-03-8.27253E-05
 -1       501-2.58952E-03 9.20894E-03-6.89601E-05
 -1       502-2.94318E-03 1.22871E-02-9.58104E-05
 -1       504-2.94148E-03 1.23003E-02-8.11913E-05
 -1       505-3.27348E-03 1.57535E-02-1.07230E-04
 -1       507-3.27179E-03 1.57685E-02-9.51463E-05
 -1       508-3.58050E-03 1.95752E-02-1.20118E-04
 -1       510-3.57882E-03 1.95921E-02-1.07508E-04
 -1       511-3.86604E-03 2.37249E-02-1.31631E-04
 -1       513-3.86436E-03 2.37437E-02-1.21129E-04
 -1       514-4.12917E-03 2.81799E-02-1.44184E-04
 -1       516-4.12751E-03 2.82006E-02-1.33533E-04
 -1       517-4.37116E-03 3.29149E-02-1.55682E-04
 -1       519-4.36952E-03 3.29373E-02-1.46747E-04
 -1       520-4.59176E-03 3.79069E-02-1.67813E-04
 -1       522-4.59015E-03 3.79311E-02-1.59011E-04
 -1       523-4.79196E-03 4.31321E-02-1.79104E-04
 -1       525-4.79037E-03 4.31580E-02-1.71712E-04
 -1       526-4.97193E-03 4.85683E-02-1.90697E-04
 -1       528-4.97038E-03 4.85959E-02-1.83615E-04
 -1       529-5.13258E-03 5.41932E-02-2.01557E-04
 -1       531-5.13107E-03 5.42225E-02-1.95652E-04
 -1       532-5.27441E-03 5.99858E-02-2.12449E-04
 -1       534-5.27295E-03 6.00167E-02-2.06946E-04
 -1       535-5.39836E-03 6.59255E-02-2.22633E-04
 -1       537-5.39696E-03 6.59579E-02-2.18122E-04
 -1       538-5.50516E-03 7.19928E-02-2.32622E-04
 -1       540-5.50383E-03 7.20267E-02-2.28542E-04
 -1       541-5.59586E-03 7.81693E-02-2.41869E-04
 -1       543-5.59461E-03 7.82045E-02-2.38625E-04
 -1       544-5.67142E-03 8.44376E-02-2.50720E-04
 -1       546-5.67025E-03 8.44740E-02-2.47890E-04
 -1       547-5.73301E-03 9.07813E-02-2.58756E-04
 -1       549-5.73193E-03 9.08189E-02-2.56618E-04
 -1       550-5.78177E-03 9.71856E-02-2.66213E-04
 -1       552-5.78080E-03 9.72243E-02-2.64435E-04
 -1       553-5.81904E-03 1.03637E-01-2.72758E-04
 -1       555-5.81819E-03 1.03676E-01-2.71534E-04
 -1       556-5.84617E-03 1.10123E-01-2.78556E-04
 -1       558-5.84543E-03 1.10164E-01-2.77608E-04
 -1       559-5.86464E-03 1.16634E-01-2.83335E-04
 -1       561-5.86404E-03 1.16675E-01-2.82802E-04
 -1       562-5.87598E-03 1.23160E-01-2.87213E-04
 -1       564-5.87552E-03 1.23202E-01-2.86847E-04
 -1       565-5.88187E-03 1.29695E-01-2.89978E-04
 -1       567-5.88156E-03 1.29737E-01-2.89882E-04
 -1       568-5.88398E-03 1.36233E-01-2.91698E-04
 -1       570-5.88384E-03 1.36275E-01-2.91638E-04
 -1       571-2.94208E-03 1.42771E-01-1.49578E-04
 -1       573-2.94207E-03 1.42815E-01-1.49592E-04
 -1       574 5.46931E-15 2.54510E-04 3.85948E-15
 -1       576 4.52511E-15 2.56970E-04 3.66864E-15
 -1       577 2.26576E-05 2.55740E-04 7.83483E-07
 -1       579-2.26576E-05 2.55740E-04-7.83483E-07
 -1       588 1.03177E-14 1.08129E-03 9.64678E-15
 -1       590 9.63105E-15 1.08517E-03 9.44304E-15
 -1       591 4.81797E-05 1.08323E-03 1.23439E-06
 -1       593-4.81797E-05 1.08323E-03-1.23439E-06
 -1       602 1.53895E-14 2.40241E-03 1.73823E-14
 -1       604 1.40268E-14 2.40824E-03 1.72041E-14
 -1       605 6.60156E-05 2.40532E-03 1.85901E-06
 -1       607-6.60156E-05 2.40532E-03-1.85901E-06
 -1       616 1.99043E-14 4.20280E-03 2.77011E-14
 -1       618 1.84492E-14 4.21049E-03 2.75069E-14
 -1       619 8.88133E-05 4.20665E-03 2.45015E-06
 -1       621-8.88133E-05 4.20665E-03-2.45015E-06
 -1       630 2.44320E-14 6.46332E-03 4.00068E-14
 -1       632 2.25666E-14 6.47285E-03 3.99009E-14
 -1       633 1.05970E-04 6.46808E-03 3.03565E-06
 -1       635-1.05970E-04 6.46808E-03-3.03565E-06
 -1       644 2.86309E-14 9.14820E-03 5.45113E-14
 -1       646 2.65658E-14 9.15968E-03 5.43572E-14
 -1       647 1.25079E-04 9.15394E-03 3.65770E-06
 -1       649-1.25079E-04 9.15394E-03-3.65770E-06
 -1       658 3.27123E-14 1.22411E-02 7.09879E-14
 -1       660 3.03264E-14 1.22545E-02 7.08281E-14
 -1       661 1.41199E-04 1.22478E-02 4.25399E-06
 -1       663-1.41199E-04 1.22478E-02-4.25399E-06
 -1       672 3.65435E-14 1.57103E-02 8.94450E-14
 -1       674 3.39303E-14 1.57256E-02 8.92724E-14
 -1       675 1.57364E-04 1.57180E-02 4.87865E-06
 -1       677-1.57364E-04 1.57180E-02-4.87865E-06
 -1       686 4.01597E-14 1.95350E-02 1.09546E-13
 -1       688 3.73301E-14 1.95522E-02 1.09498E-13
 -1       689 1.71813E-04 1.95436E-02 5.48924E-06
 -1       691-1.71813E-04 1.95436E-02-5.48924E-06
 -1       700 4.36129E-14 2.36877E-02 1.31490E-13
 -1       702 4.05155E-14 2.37069E-02 1.31347E-13
 -1       703 1.85556E-04 2.36973E-02 6.11225E-06
 -1       705-1.85556E-04 2.36973E-02-6.11225E-06
 -1       714 4.68532E-14 2.81455E-02 1.55184E-13
 -1       716 4.35304E-14 2.81667E-02 1.54974E-13
 -1       717 1.98060E-04 2.81561E-02 6.72874E-06
 -1       719-1.98060E-04 2.81561E-02-6.72874E-06
 -1       728 4.98166E-14 3.28834E-02 1.80160E-13
 -1       730 4.63946E-14 3.29065E-02 1.79881E-13
 -1       731 2.09633E-04 3.28949E-02 7.34689E-06
 -1       733-2.09633E-04 3.28949E-02-7.34689E-06
 -1       742 5.26212E-14 3.78780E-02 2.06114E-13
 -1       744 4.90018E-14 3.79030E-02 2.06110E-13
 -1       745 2.20146E-04 3.78905E-02 7.95944E-06
 -1       747-2.20146E-04 3.78905E-02-7.95944E-06
 -1       756 5.52838E-14 4.31060E-02 2.33794E-13
 -1       758 5.14462E-14 4.31329E-02 2.33652E-13
 -1       759 2.29693E-04 4.31194E-02 8.56629E-06
 -1       761-2.29693E-04 4.31194E-02-8.56629E-06
 -1       770 5.77382E-14 4.85447E-02 2.62652E-13
 -1       772 5.37669E-14 4.85735E-02 2.62424E-13
 -1       773 2.38271E-04 4.85591E-02 9.16453E-06
 -1       775-2.38271E-04 4.85591E-02-9.16453E-06
 -1       784 5.99787E-14 5.41721E-02 2.92591E-13
 -1       786 5.58406E-14 5.42028E-02 2.92393E-13
 -1       787 2.45918E-04 5.41875E-02 9.75081E-06
 -1       789-2.45918E-04 5.41875E-02-9.75081E-06
 -1       798 6.20235E-14 5.99671E-02 3.23513E-13
 -1       800 5.77745E-14 5.99995E-02 3.23664E-13
 -1       801 2.52670E-04 5.99833E-02 1.03234E-05
 -1       803-2.52670E-04 5.99833E-02-1.03234E-05
 -1       812 6.38502E-14 6.59091E-02 3.55726E-13
 -1       814 5.94696E-14 6.59432E-02 3.55512E-13
 -1       815 2.58557E-04 6.59261E-02 1.08777E-05
 -1       817-2.58557E-04 6.59261E-02-1.08777E-05
 -1       826 6.54226E-14 7.19785E-02 3.88483E-13
 -1       828 6.09735E-14 7.20144E-02 3.88038E-13
 -1       829 2.63628E-04 7.19965E-02 1.14120E-05
 -1       831-2.63628E-04 7.19965E-02-1.14120E-05
 -1       840 6.69117E-14 7.81570E-02 4.21574E-13
 -1       842 6.23383E-14 7.81945E-02 4.21695E-13
 -1       843 2.67922E-04 7.81757E-02 1.19212E-05
 -1       845-2.67922E-04 7.81757E-02-1.19212E-05
 -1       854 6.81521E-14 8.44271E-02 4.55545E-13
 -1       856 6.35797E-14 8.44660E-02 4.56189E-13
 -1       857 2.71493E-04 8.44466E-02 1.24034E-05
 -1       859-2.71493E-04 8.44466E-02-1.24034E-05
 -1       868 6.92489E-14 9.07725E-02 4.91074E-13
 -1       870 6.44552E-14 9.08129E-02 4.90960E-13
 -1       871 2.74390E-04 9.07927E-02 1.28529E-05
 -1       873-2.74390E-04 9.07927E-02-1.28529E-05
 -1       882 6.99493E-14 9.71783E-02 5.26180E-13
 -1       884 6.51854E-14 9.72200E-02 5.26611E-13
 -1       885 2.76672E-04 9.71992E-02 1.32677E-05
 -1       887-2.76672E-04 9.71992E-02-1.32677E-05
 -1       896 7.05408E-14 1.03631E-01 5.61784E-13
 -1       898 6.58846E-14 1.03674E-01 5.61240E-13
 -1       899 2.78402E-04 1.03652E-01 1.36416E-05
 -1       901-2.78402E-04 1.03652E-01-1.36416E-05
 -1       910 7.11204E-14 1.10118E-01 5.96544E-13
 -1       912 6.62044E-14 1.10162E-01 5.97150E-13
 -1       913 2.79643E-04 1.10140E-01 1.39724E-05
 -1       915-2.79643E-04 1.10140E-01-1.39724E-05
 -1       924 7.13175E-14 1.16630E-01 6.32394E-13
 -1       926 6.65179E-14 1.16675E-01 6.32597E-13
 -1       927 2.80470E-04 1.16652E-01 1.42534E-05
 -1       929-2.80470E-04 1.16652E-01-1.42534E-05
 -1       938 7.14883E-14 1.23157E-01 6.67805E-13
 -1       940 6.67614E-14 1.23203E-01 6.67533E-13
 -1       941 2.80946E-04 1.23180E-01 1.44820E-05
 -1       943-2.80946E-04 1.23180E-01-1.44820E-05
 -1       952 7.14579E-14 1.29692E-01 7.02526E-13
 -1       954 6.68470E-14 1.29738E-01 7.02450E-13
 -1       955 2.81168E-04 1.29715E-01 1.46518E-05
 -1       957-2.81168E-04 1.29715E-01-1.46518E-05
 -1       966 7.15554E-14 1.36231E-01 7.36833E-13
 -1       968 6.69070E-14 1.36277E-01 7.37304E-13
 -1       969 2.81193E-04 1.36254E-01 1.47570E-05
 -1       971-2.81193E-04 1.36254E-01-1.47570E-05
 -1       980 0.00000E+00 0.00000E+00-6.01025E-06
 -1       982 0.00000E+00-0.00000E+00 6.01025E-06
 -1       983 2.94208E-03 1.42771E-01 1.49578E-04
 -1       985 2.94207E-03 1.42815E-01 1.49592E-04
 -1       986 4.88462E-04 3.50086E-04 1.86931E-05
 -1       988 4.85743E-04 3.52061E-04 2.77559E-06
 -1       989 9.50021E-04 1.13102E-03 3.51156E-05
 -1       991 9.48790E-04 1.13457E-03 1.53893E-05
 -1       992 1.39826E-03 2.46467E-03 4.59894E-05
 -1       994 1.39630E-03 2.47017E-03 2.86293E-05
 -1       995 1.81720E-03 4.25749E-03 5.84610E-05
 -1       997 1.81562E-03 4.26499E-03 4.25167E-05
 -1       998 2.21580E-03 6.51545E-03 7.12521E-05
 -1      1000 2.21404E-03 6.52481E-03 5.48065E-05
 -1      1001 2.59120E-03 9.19762E-03 8.27253E-05
 -1      1003 2.58952E-03 9.20894E-03 6.89601E-05
 -1      1004 2.94318E-03 1.22871E-02 9.58104E-05
 -1      1006 2.94148E-03 1.23003E-02 8.11913E-05
 -1      1007 3.27348E-03 1.57535E-02 1.07230E-04
 -1      1009 3.27179E-03 1.57685E-02 9.51463E-05
 -1      1010 3.58050E-03 1.95752E-02 1.20118E-04
 -1      1012 3.57882E-03 1.95921E-02 1.07508E-04
 -1      1013 3.86604E-03 2.37249E-02 1.31631E-04
 -1      1015 3.86436E-03 2.37437E-02 1.21129E-04
 -1      1016 4.12917E-03 2.81799E-02 1.44184E-04
 -1      1018 4.12751E-03 2.82006E-02 1.33533E-04
 -1      1019 4.37116E-03 3.29149E-02 1.55682E-04
 -1      1021 4.36952E-03 3.29373E-02 1.46747E-04
 -1      1022 4.59176E-03 3.79069E-02 1.67813E-04
 -1      1024 4.59015E-03 3.79311E-02 1.59011E-04
 -1      1025 4.79196E-03 4.31321E-02 1.79104E-04
 -1      1027 4.79037E-03 4.31580E-02 1.71712E-04
 -1      1028 4.97193E-03 4.85683E-02 1.90697E-04
 -1      1030 4.97038E-03 4.85959E-02 1.83615E-04
 -1      1031 5.13258E-03 5.41932E-02 2.01557E-04
 -1      1033 5.13107E-03 5.42225E-02 1.95652E-04
 -1      1034 5.27441E-03 5.99858E-02 2.12449E-04
 -1      1036 5.27295E-03 6.00167E-02 2.06946E-04
 -1      1037 5.39836E-03 6.59255E-02 2.22633E-04
 -1      1039 5.39696E-03 6.59579E-02 2.18122E-04
 -1      1040 5.50516E-03 7.19928E-02 2.32622E-04
 -1      1042 5.50383E-03 7.20267E-02 2.28542E-04
 -1      1043 5.59586E-03 7.81693E-02 2.41869E-04
 -1      1045 5.59461E-03 7.82045E-02 2.38625E-04
 -1      1046 5.67142E-03 8.44376E-02 2.50720E-04
 -1      1048 5.67025E-03 8.44740E-02 2.47890E-04
 -1      1049 5.73301E-03 9.07813E-02 2.58756E-04
 -1      1051 5.73193E-03 9.08189E-02 2.56618E-04
 -1      1052 5.78177E-03 9.71856E-02 2.66213E-04
 -1      1054 5.78080E-03 9.72243E-02 2.64435E-04
 -1      1055 5.81904E-03 1.03637E-01 2.72758E-04
 -1      1057 5.81819E-03 1.03676E-01 2.71534E-04
 -1      1058 5.84617E-03 1.10123E-01 2.78556E-04
 -1      1060 5.84543E-03 1.10164E-01 2.77608E-04
 -1      1061 5.86464E-03 1.16634E-01 2.83335E-04
 -1      1063 5.86404E-03 1.16675E-01 2.82802E-04
 -1      1064 5.87598E-03 1.23160E-01 2.87213E-04
 -1      1066 5.87552E-03 1.23202E-01 2.86847E-04
 -1      1067 5.88187E-03 1.29695E-01 2.89978E-04
 -1      1069 5.88156E-03 1.29737E-01 2.89882E-04
 -1      1070 5.88398E-03 1.36233E-01 2.91698E-04
 -1      1072 5.88384E-03 1.36275E-01 2.91638E-04
 -1      1073 0.00000E+00 0.00000E+00 6.01025E-06
 -1      1075 0.00000E+00-0.00000E+00-6.01025E-06
 -1      1076 0.00000E+00 5.03260E-17 0.00000E+00
 -1      1078 0.00000E+00-5.03260E-17 0.00000E+00
 -1      1079 0.00000E+00 7.41038E-19 0.00000E+00
 -1      1081 0.00000E+00-7.41038E-19 0.00000E+00
 -1      1082 0.00000E+00-2.39374E-17 0.00000E+00
 -1      1084 0.00000E+00 2.39374E-17 0.00000E+00
 -1      1085 2.26576E-05 2.55740E-04-7.83483E-07
 -1      1087-2.26576E-05 2.55740E-04 7.83483E-07
 -1      1088-5.42825E-15 2.54510E-04 3.86214E-15
 -1      1090-4.49350E-15 2.56970E-04 3.62820E-15
 -1      1099 4.81797E-05 1.08323E-03-1.23439E-06
 -1      1101-4.81797E-05 1.08323E-03 1.23439E-06
 -1      1102-1.02418E-14 1.08129E-03 9.61302E-15
 -1      1104-9.55463E-15 1.08517E-03 9.44502E-15
 -1      1113 6.60156E-05 2.40532E-03-1.85901E-06
 -1      1115-6.60156E-05 2.40532E-03 1.85901E-06
 -1      1116-1.52796E-14 2.40241E-03 1.73884E-14
 -1      1118-1.39159E-14 2.40824E-03 1.71935E-14
 -1      1127 8.88133E-05 4.20665E-03-2.45015E-06
 -1      1129-8.88133E-05 4.20665E-03 2.45015E-06
 -1      1130-1.97413E-14 4.20280E-03 2.76610E-14
 -1      1132-1.83054E-14 4.21049E-03 2.74949E-14
 -1      1141 1.05970E-04 6.46808E-03-3.03565E-06
 -1      1143-1.05970E-04 6.46808E-03 3.03565E-06
 -1      1144-2.42582E-14 6.46332E-03 4.00363E-14
 -1      1146-2.23840E-14 6.47285E-03 3.98242E-14
 -1      1155 1.25079E-04 9.15394E-03-3.65770E-06
 -1      1157-1.25079E-04 9.15394E-03 3.65770E-06
 -1      1158-2.84075E-14 9.14820E-03 5.45657E-14
 -1      1160-2.63511E-14 9.15968E-03 5.43852E-14
 -1      1169 1.41199E-04 1.22478E-02-4.25399E-06
 -1      1171-1.41199E-04 1.22478E-02 4.25399E-06
 -1      1172-3.24409E-14 1.22411E-02 7.10151E-14
 -1      1174-3.00577E-14 1.22545E-02 7.08902E-14
 -1      1183 1.57364E-04 1.57180E-02-4.87865E-06
 -1      1185-1.57364E-04 1.57180E-02 4.87865E-06
 -1      1186-3.62316E-14 1.57103E-02 8.94392E-14
 -1      1188-3.36459E-14 1.57256E-02 8.92511E-14
 -1      1197 1.71813E-04 1.95436E-02-5.48924E-06
 -1      1199-1.71813E-04 1.95436E-02 5.48924E-06
 -1      1200-3.98281E-14 1.95350E-02 1.09586E-13
 -1      1202-3.69906E-14 1.95522E-02 1.09415E-13
 -1      1211 1.85556E-04 2.36973E-02-6.11225E-06
 -1      1213-1.85556E-04 2.36973E-02 6.11225E-06
 -1      1214-4.32383E-14 2.36877E-02 1.31514E-13
 -1      1216-4.01621E-14 2.37069E-02 1.31311E-13
 -1      1225 1.98060E-04 2.81561E-02-6.72874E-06
 -1      1227-1.98060E-04 2.81561E-02 6.72874E-06
 -1      1228-4.63951E-14 2.81455E-02 1.54916E-13
 -1      1230-4.31305E-14 2.81667E-02 1.54961E-13
 -1      1239 2.09633E-04 3.28949E-02-7.34689E-06
 -1      1241-2.09633E-04 3.28949E-02 7.34689E-06
 -1      1242-4.93868E-14 3.28834E-02 1.79848E-13
 -1      1244-4.59467E-14 3.29065E-02 1.79801E-13
 -1      1253 2.20146E-04 3.78905E-02-7.95944E-06
 -1      1255-2.20146E-04 3.78905E-02 7.95944E-06
 -1      1256-5.21535E-14 3.78780E-02 2.06198E-13
 -1      1258-4.85093E-14 3.79030E-02 2.06126E-13
 -1      1267 2.29693E-04 4.31194E-02-8.56629E-06
 -1      1269-2.29693E-04 4.31194E-02 8.56629E-06
 -1      1270-5.47565E-14 4.31060E-02 2.33958E-13
 -1      1272-5.09483E-14 4.31329E-02 2.33661E-13
 -1      1281 2.38271E-04 4.85591E-02-9.16453E-06
 -1      1283-2.38271E-04 4.85591E-02 9.16453E-06
 -1      1284-5.71344E-14 4.85447E-02 2.62546E-13
 -1      1286-5.31727E-14 4.85735E-02 2.62776E-13
 -1      1295 2.45918E-04 5.41875E-02-9.75081E-06
 -1      1297-2.45918E-04 5.41875E-02 9.75081E-06
 -1      1298-5.93371E-14 5.41721E-02 2.92787E-13
 -1      1300-5.52339E-14 5.42028E-02 2.92592E-13
 -1      1309 2.52670E-04 5.99833E-02-1.03234E-05
 -1      1311-2.52670E-04 5.99833E-02 1.03234E-05
 -1      1312-6.13757E-14 5.99671E-02 3.23789E-13
 -1      1314-5.70805E-14 5.99995E-02 3.23711E-13
 -1      1323 2.58557E-04 6.59261E-02-1.08777E-05
 -1      1325-2.58557E-04 6.59261E-02 1.08777E-05
 -1      1326-6.31225E-14 6.59091E-02 3.55659E-13
 -1      1328-5.88050E-14 6.59432E-02 3.55646E-13
 -1      1337 2.63628E-04 7.19965E-02-1.14120E-05
 -1      1339-2.63628E-04 7.19965E-02 1.14120E-05
 -1      1340-6.47606E-14 7.19785E-02 3.88143E-13
 -1      1342-6.02740E-14 7.20144E-02 3.88613E-13
 -1      1351 2.67922E-04 7.81757E-02-1.19212E-05
 -1      1353-2.67922E-04 7.81757E-02 1.19212E-05
 -1      1354-6.61581E-14 7.81570E-02 4.22236E-13
 -1      1356-6.16527E-14 7.81945E-02 4.21693E-13
 -1      1365 2.71493E-04 8.44466E-02-1.24034E-05
 -1      1367-2.71493E-04 8.44466E-02 1.24034E-05
 -1      1368-6.73902E-14 8.44271E-02 4.56689E-13
 -1      1370-6.27302E-14 8.44660E-02 4.56107E-13
 -1      1379 2.74390E-04 9.07927E-02-1.28529E-05
 -1      1381-2.74390E-04 9.07927E-02 1.28529E-05
 -1      1382-6.84382E-14 9.07725E-02 4.91591E-13
 -1      1384-6.36395E-14 9.08129E-02 4.91354E-13
 -1      1393 2.76672E-04 9.71992E-02-1.32677E-05
 -1      1395-2.76672E-04 9.71992E-02 1.32677E-05
 -1      1396-6.89861E-14 9.71783E-02 5.26177E-13
 -1      1398-6.45201E-14 9.72200E-02 5.26276E-13
 -1      1407 2.78402E-04 1.03652E-01-1.36416E-05
 -1      1409-2.78402E-04 1.03652E-01 1.36416E-05
 -1      1410-6.98628E-14 1.03631E-01 5.61070E-13
 -1      1412-6.50192E-14 1.03674E-01 5.61014E-13
 -1      1421 2.79643E-04 1.10140E-01-1.39724E-05
 -1      1423-2.79643E-04 1.10140E-01 1.39724E-05
 -1      1424-7.03447E-14 1.10118E-01 5.96922E-13
 -1      1426-6.54457E-14 1.10162E-01 5.97050E-13
 -1      1435 2.80470E-04 1.16652E-01-1.42534E-05
 -1      1437-2.80470E-04 1.16652E-01 1.42534E-05
 -1      1438-7.03731E-14 1.16630E-01 6.32749E-13
 -1      1440-6.56927E-14 1.16675E-01 6.32101E-13
 -1      1449 2.80946E-04 1.23180E-01-1.44820E-05
 -1      1451-2.80946E-04 1.23180E-01 1.44820E-05
 -1      1452-7.07258E-14 1.23157E-01 6.67138E-13
 -1      1454-6.59598E-14 1.23203E-01 6.67763E-13
 -1      1463 2.81168E-04 1.29715E-01-1.46518E-05
 -1      1465-2.81168E-04 1.29715E-01 1.46518E-05
 -1      1466-7.07267E-14 1.29692E-01 7.02518E-13
 -1      1468-6.60260E-14 1.29738E-01 7.02830E-13
 -1      1477 2.81193E-04 1.36254E-01-1.47570E-05
 -1      1479-2.81193E-04 1.36254E-01 1.47570E-05
 -1      1480-7.08348E-14 1.36231E-01 7.37778E-13
 -1      1482-6.61110E-14 1.36277E-01 7.36919E-13
 -1      1491 2.81153E-04 1.43094E-01 1.10446E-05
 -1      1493-2.81153E-04 1.43094E-01-1.10446E-05
 -1      1494 2.81162E-04 1.43223E-01 7.72188E-13
 -1      1496-2.81162E-04 1.43223E-01 7.71259E-13
 -1      1497 2.81153E-04 1.43094E-01-1.10446E-05
 -1      1499-2.81153E-04 1.43094E-01 1.10446E-05
 -1      1500 4.88462E-04 3.50086E-04-1.86931E-05
 -1      1502 4.85743E-04 3.52061E-04-2.77559E-06
 -1      1503 9.50021E-04 1.13102E-03-3.51156E-05
 -1      1505 9.48790E-04 1.13457E-03-1.53893E-05
 -1      1506 1.39826E-03 2.46467E-03-4.59894E-05
 -1      1508 1.39630E-03 2.47017E-03-2.86293E-05
 -1      1509 1.81720E-03 4.25749E-03-5.84610E-05
 -1      1511 1.81562E-03 4.26499E-03-4.25167E-05
 -1      1512 2.21580E-03 6.51545E-03-7.12521E-05
 -1      1514 2.21404E-03 6.52481E-03-5.48065E-05
 -1      1515 2.59120E-03 9.19762E-03-8.27253E-05
 -1      1517 2.58952E-03 9.20894E-03-6.89601E-05
 -1      1518 2.94318E-03 1.22871E-02-9.58104E-05
 -1      1520 2.94148E-03 1.23003E-02-8.11913E-05
 -1      1521 3.27348E-03 1.57535E-02-1.07230E-04
 -1      1523 3.27179E-03 1.57685E-02-9.51463E-05
 -1      1524 3.58050E-03 1.95752E-02-1.20118E-04
 -1      1526 3.57882E-03 1.95921E-02-1.07508E-04
 -1      1527 3.86604E-03 2.37249E-02-1.31631E-04
 -1      1529 3.86436E-03 2.37437E-02-1.21129E-04
 -1      1530 4.12917E-03 2.81799E-02-1.44184E-04
 -1      1532 4.12751E-03 2.82006E-02-1.33533E-04
 -1      1533 4.37116E-03 3.29149E-02-1.55682E-04
 -1      1535 4.36952E-03 3.29373E-02-1.46747E-04
 -1      1536 4.59176E-03 3.79069E-02-1.67813E-04
 -1      1538 4.59015E-03 3.79311E-02-1.59011E-04
 -1      1539 4.79196E-03 4.31321E-02-1.79104E-04
 -1      1541 4.79037E-03 4.31580E-02-1.71712E-04
 -1      1542 4.97193E-03 4.85683E-02-1.90697E-04
 -1      1544 4.97038E-03 4.85959E-02-1.83615E-04
 -1      1545 5.13258E-03 5.41932E-02-2.01557E-04
 -1      1547 5.13107E-03 5.42225E-02-1.95652E-04
 -1      1548 5.27441E-03 5.99858E-02-2.12449E-04
 -1      1550 5.27295E-03 6.00167E-02-2.06946E-04
 -1      1551 5.39836E-03 6.59255E-02-2.22633E-04
 -1      1553 5.39696E-03 6.59579E-02-2.18122E-04
 -1      1554 5.50516E-03 7.19928E-02-2.32622E-04
 -1      1556 5.50383E-03 7.20267E-02-2.28542E-04
 -1      1557 5.59586E-03 7.81693E-02-2.41869E-04
 -1      1559 5.59461E-03 7.82045E-02-2.38625E-04
 -1      1560 5.67142E-03 8.44376E-02-2.50720E-04
 -1      1562 5.67025E-03 8.44740E-02-2.47890E-04
 -1      1563 5.73301E-03 9.07813E-02-2.58756E-04
 -1      1565 5.73193E-03 9.08189E-02-2.56618E-04
 -1      1566 5.78177E-03 9.71856E-02-2.66213E-04
 -1      1568 5.78080E-03 9.72243E-02-2.64435E-04
 -1      1569 5.81904E-03 1.03637E-01-2.72758E-04
 -1      1571 5.81819E-03 1.03676E-01-2.71534E-04
 -1      1572 5.84617E-03 1.10123E-01-2.78556E-04
 -1      1574 5.84543E-03 1.10164E-01-2.77608E-04
 -1      1575 5.86464E-03 1.16634E-01-2.83335E-04
 -1      1577 5.86404E-03 1.16675E-01-2.82802E-04
 -1      1578 5.87598E-03 1.23160E-01-2.87213E-04
 -1      1580 5.87552E-03 1.23202E-01-2.86847E-04
 -1      1581 5.88187E-03 1.29695E-01-2.89978E-04
 -1      1583 5.88156E-03 1.29737E-01-2.89882E-04
 -1      1584 5.88398E-03 1.36233E-01-2.91698E-04
 -1      1586 5.88384E-03 1.36275E-01-2.91638E-04
 -1      1587 2.94208E-03 1.42771E-01-1.49578E-04
 -1      1589 2.94207E-03 1.42815E-01-1.49592E-04
 -1      1590 0.00000E+00 0.00000E+00-6.01025E-06
 -1      1592 0.00000E+00 0.00000E+00 6.01025E-06
 -1      1593-2.94208E-03 1.42771E-01 1.49578E-04
 -1      1595-2.94207E-03 1.42815E-01 1.49592E-04
 -1      1596-4.88462E-04 3.50086E-04 1.86931E-05
 -1      1598-4.85743E-04 3.52061E-04 2.77559E-06
 -1      1599-9.50021E-04 1.13102E-03 3.51156E-05
 -1      1601-9.48790E-04 1.13457E-03 1.53893E-05
 -1      1602-1.39826E-03 2.46467E-03 4.59894E-05
 -1      1604-1.39630E-03 2.47017E-03 2.86293E-05
 -1      1605-1.81720E-03 4.25749E-03 5.84610E-05
 -1      1607-1.81562E-03 4.26499E-03 4.25167E-05
 -1      1608-2.21580E-03 6.51545E-03 7.12521E-05
 -1      1610-2.21404E-03 6.52481E-03 5.48065E-05
 -1      1611-2.59120E-03 9.19762E-03 8.27253E-05
 -1      1613-2.58952E-03 9.20894E-03 6.89601E-05
 -1      1614-2.94318E-03 1.22871E-02 9.58104E-05
 -1      1616-2.94148E-03 1.23003E-02 8.11913E-05
 -1      1617-3.27348E-03 1.57535E-02 1.07230E-04
 -1      1619-3.27179E-03 1.57685E-02 9.51463E-05
 -1      1620-3.58050E-03 1.95752E-02 1.20118E-04
 -1      1622-3.57882E-03 1.95921E-02 1.07508E-04
 -1      1623-3.86604E-03 2.37249E-02 1.31631E-04
 -1      1625-3.86436E-03 2.37437E-02 1.21129E-04
 -1      1626-4.12917E-03 2.81799E-02 1.44184E-04
 -1      1628-4.12751E-03 2.82006E-02 1.33533E-04
 -1      1629-4.37116E-03 3.29149E-02 1.55682E-04
 -1      1631-4.36952E-03 3.29373E-02 1.46747E-04
 -1      1632-4.59176E-03 3.79069E-02 1.67813E-04
 -1      1634-4.59015E-03 3.79311E-02 1.59011E-04
 -1      1635-4.79196E-03 4.31321E-02 1.79104E-04
 -1      1637-4.79037E-03 4.31580E-02 1.71712E-04
 -1      1638-4.97193E-03 4.85683E-02 1.90697E-04
 -1      1640-4.97038E-03 4.85959E-02 1.83615E-04
 -1      1641-5.13258E-03 5.41932E-02 2.01557E-04
 -1      1643-5.13107E-03 5.42225E-02 1.95652E-04
 -1      1644-5.27441E-03 5.99858E-02 2.12449E-04
 -1      1646-5.27295E-03 6.00167E-02 2.06946E-04
 -1      1647-5.39836E-03 6.59255E-02 2.22633E-04
 -1      1649-5.39696E-03 6.59579E-02 2.18122E-04
 -1      1650-5.50516E-03 7.19928E-02 2.32622E-04
 -1      1652-5.50383E-03 7.20267E-02 2.28542E-04
 -1      1653-5.59586E-03 7.81693E-02 2.41869E-04
 -1      1655-5.59461E-03 7.82045E-02 2.38625E-04
 -1      1656-5.67142E-03 8.44376E-02 2.50720E-04
 -1      1658-5.67025E-03 8.44740E-02 2.47890E-04
 -1      1659-5.73301E-03 9.07813E-02 2.58756E-04
 -1      1661-5.73193E-03 9.08189E-02 2.56618E-04
 -1      1662-5.78177E-03 9.71856E-02 2.66213E-04
 -1      1664-5.78080E-03 9.72243E-02 2.64435E-04
 -1      1665-5.81904E-03 1.03637E-01 2.72758E-04
 -1      1667-5.81819E-03 1.03676E-01 2.71534E-04
 -1      1668-5.84617E-03 1.10123E-01 2.78556E-04
 -1      1670-5.84543E-03 1.10164E-01 2.77608E-04
 -1      1671-5.86464E-03 1.16634E-01 2.83335E-04
 -1      1673-5.86404E-03 1.16675E-01 2.82802E-04
 -1      1674-5.87598E-03 1.23160E-01 2.87213E-04
 -1      1676-5.87552E-03 1.23202E-01 2.86847E-04
 -1      1677-5.88187E-03 1.29695E-01 2.89978E-04
 -1      1679-5.88156E-03 1.29737E-01 2.89882E-04
 -1      1680-5.88398E-03 1.36233E-01 2.91698E-04
 -1      1682-5.88384E-03 1.36275E-01 2.91638E-04
 -1      1683 0.00000E+00 0.00000E+00 6.01025E-06
 -1      1685 0.00000E+00 0.00000E+00-6.01025E-06
 -1      1686-2.33753E-04 2.75518E-04-1.05404E-05
 -1      1688-2.32263E-04 2.76585E-04-7.21805E-07
 -1      1689-4.78001E-04 1.09843E-03-1.74307E-05
 -1      1691-4.77450E-04 1.10223E-03-8.61621E-06
 -1      1692-6.93532E-04 2.41359E-03-2.33917E-05
 -1      1694-6.92506E-04 2.41917E-03-1.42925E-05
 -1      1695-9.07068E-04 4.22005E-03-2.95784E-05
 -1      1697-9.06283E-04 4.22757E-03-2.13561E-05
 -1      1698-1.10501E-03 6.47376E-03-3.55432E-05
 -1      1700-1.10411E-03 6.48325E-03-2.77189E-05
 -1      1701-1.29284E-03 9.16234E-03-4.18167E-05
 -1      1703-1.29198E-03 9.17367E-03-3.43192E-05
 -1      1704-1.46918E-03 1.22515E-02-4.77999E-05
 -1      1706-1.46831E-03 1.22648E-02-4.09764E-05
 -1      1707-1.63395E-03 1.57219E-02-5.40667E-05
 -1      1709-1.63308E-03 1.57370E-02-4.74919E-05
 -1      1710-1.78783E-03 1.95446E-02-6.01228E-05
 -1      1712-1.78696E-03 1.95617E-02-5.41658E-05
 -1      1713-1.93039E-03 2.36974E-02-6.63146E-05
 -1      1715-1.92952E-03 2.37163E-02-6.06965E-05
 -1      1716-2.06216E-03 2.81540E-02-7.24002E-05
 -1      1718-2.06130E-03 2.81748E-02-6.72778E-05
 -1      1719-2.18310E-03 3.28915E-02-7.84761E-05
 -1      1721-2.18224E-03 3.29141E-02-7.37767E-05
 -1      1722-2.29353E-03 3.78853E-02-8.45021E-05
 -1      1724-2.29269E-03 3.79097E-02-8.02019E-05
 -1      1725-2.39364E-03 4.31128E-02-9.04081E-05
 -1      1727-2.39281E-03 4.31390E-02-8.65700E-05
 -1      1728-2.48373E-03 4.85508E-02-9.62676E-05
 -1      1730-2.48292E-03 4.85788E-02-9.27655E-05
 -1      1731-2.56412E-03 5.41777E-02-1.01925E-04
 -1      1733-2.56333E-03 5.42074E-02-9.88849E-05
 -1      1734-2.63514E-03 5.99721E-02-1.07501E-04
 -1      1736-2.63437E-03 6.00034E-02-1.04754E-04
 -1      1737-2.69721E-03 6.59136E-02-1.12807E-04
 -1      1739-2.69647E-03 6.59464E-02-1.10496E-04
 -1      1740-2.75072E-03 7.19826E-02-1.17973E-04
 -1      1742-2.75002E-03 7.20169E-02-1.15921E-04
 -1      1743-2.79619E-03 7.81606E-02-1.22808E-04
 -1      1745-2.79553E-03 7.81964E-02-1.21148E-04
 -1      1746-2.83410E-03 8.44303E-02-1.27428E-04
 -1      1748-2.83348E-03 8.44674E-02-1.25992E-04
 -1      1749-2.86503E-03 9.07754E-02-1.31654E-04
 -1      1751-2.86446E-03 9.08137E-02-1.30558E-04
 -1      1752-2.88956E-03 9.71809E-02-1.35585E-04
 -1      1754-2.88904E-03 9.72203E-02-1.34672E-04
 -1      1755-2.90836E-03 1.03633E-01-1.39057E-04
 -1      1757-2.90790E-03 1.03674E-01-1.38422E-04
 -1      1758-2.92209E-03 1.10120E-01-1.42148E-04
 -1      1760-2.92169E-03 1.10162E-01-1.41648E-04
 -1      1761-2.93151E-03 1.16632E-01-1.44713E-04
 -1      1763-2.93118E-03 1.16674E-01-1.44425E-04
 -1      1764-2.93737E-03 1.23159E-01-1.46809E-04
 -1      1766-2.93711E-03 1.23201E-01-1.46600E-04
 -1      1767-2.94051E-03 1.29694E-01-1.48316E-04
 -1      1769-2.94033E-03 1.29737E-01-1.48247E-04
 -1      1770-2.94180E-03 1.36233E-01-1.49260E-04
 -1      1772-2.94172E-03 1.36276E-01-1.49199E-04
 -1      1773 2.33753E-04 2.75518E-04 1.05404E-05
 -1      1775 2.32263E-04 2.76585E-04 7.21805E-07
 -1      1776 4.78001E-04 1.09843E-03 1.74307E-05
 -1      1778 4.77450E-04 1.10223E-03 8.61621E-06
 -1      1779 6.93532E-04 2.41359E-03 2.33917E-05
 -1      1781 6.92506E-04 2.41917E-03 1.42925E-05
 -1      1782 9.07068E-04 4.22005E-03 2.95784E-05
 -1      1784 9.06283E-04 4.22757E-03 2.13561E-05
 -1      1785 1.10501E-03 6.47376E-03 3.55432E-05
 -1      1787 1.10411E-03 6.48325E-03 2.77189E-05
 -1      1788 1.29284E-03 9.16234E-03 4.18167E-05
 -1      1790 1.29198E-03 9.17367E-03 3.43192E-05
 -1      1791 1.46918E-03 1.22515E-02 4.77999E-05
 -1      1793 1.46831E-03 1.22648E-02 4.09764E-05
 -1      1794 1.63395E-03 1.57219E-02 5.40667E-05
 -1      1796 1.63308E-03 1.57370E-02 4.74919E-05
 -1      1797 1.78783E-03 1.95446E-02 6.01228E-05
 -1      1799 1.78696E-03 1.95617E-02 5.41658E-05
 -1      1800 1.93039E-03 2.36974E-02 6.63146E-05
 -1      1802 1.92952E-03 2.37163E-02 6.06965E-05
 -1      1803 2.06216E-03 2.81540E-02 7.24002E-05
 -1      1805 2.06130E-03 2.81748E-02 6.72778E-05
 -1      1806 2.18310E-03 3.28915E-02 7.84761E-05
 -1      1808 2.18224E-03 3.29141E-02 7.37767E-05
 -1      1809 2.29353E-03 3.78853E-02 8.45021E-05
 -1      1811 2.29269E-03 3.79097E-02 8.02019E-05
 -1      1812 2.39364E-03 4.31128E-02 9.04081E-05
 -1      1814 2.39281E-03 4.31390E-02 8.65700E-05
 -1      1815 2.48373E-03 4.85508E-02 9.62676E-05
 -1      1817 2.48292E-03 4.85788E-02 9.27655E-05
 -1      1818 2.56412E-03 5.41777E-02 1.01925E-04
 -1      1820 2.56333E-03 5.42074E-02 9.88849E-05
 -1      1821 2.63514E-03 5.99721E-02 1.07501E-04
 -1      1823 2.63437E-03 6.00034E-02 1.04754E-04
 -1      1824 2.69721E-03 6.59136E-02 1.12807E-04
 -1      1826 2.69647E-03 6.59464E-02 1.10496E-04
 -1      1827 2.75072E-03 7.19826E-02 1.17973E-04
 -1      1829 2.75002E-03 7.20169E-02 1.15921E-04
 -1      1830 2.79619E-03 7.81606E-02 1.22808E-04
 -1      1832 2.79553E-03 7.81964E-02 1.21148E-04
 -1      1833 2.83410E-03 8.44303E-02 1.27428E-04
 -1      1835 2.83348E-03 8.44674E-02 1.25992E-04
 -1      1836 2.86503E-03 9.07754E-02 1.31654E-04
 -1      1838 2.86446E-03 9.08137E-02 1.30558E-04
 -1      1839 2.88956E-03 9.71809E-02 1.35585E-04
 -1      1841 2.88904E-03 9.72203E-02 1.34672E-04
 -1      1842 2.90836E-03 1.03633E-01 1.39057E-04
 -1      1844 2.90790E-03 1.03674E-01 1.38422E-04
 -1      1845 2.92209E-03 1.10120E-01 1.42148E-04
 -1      1847 2.92169E-03 1.10162E-01 1.41648E-04
 -1      1848 2.93151E-03 1.16632E-01 1.44713E-04
 -1      1850 2.93118E-03 1.16674E-01 1.44425E-04
 -1      1851 2.93737E-03 1.23159E-01 1.46809E-04
 -1      1853 2.93711E-03 1.23201E-01 1.46600E-04
 -1      1854 2.94051E-03 1.29694E-01 1.48316E-04
 -1      1856 2.94033E-03 1.29737E-01 1.48247E-04
 -1      1857 2.94180E-03 1.36233E-01 1.49260E-04
 -1      1859 2.94172E-03 1.36276E-01 1.49199E-04
 -1      1860 2.34204E-05 2.73082E-04 6.10209E-07
 -1      1862-2.34204E-05 2.73082E-04-6.10209E-07
 -1      1863 4.80427E-05 1.10634E-03 8.37884E-07
 -1      1865-4.80427E-05 1.10634E-03-8.37884E-07
 -1      1866 6.68476E-05 2.44366E-03 1.36077E-06
 -1      1868-6.68476E-05 2.44366E-03-1.36077E-06
 -1      1869 8.87462E-05 4.25488E-03 1.73692E-06
 -1      1871-8.87462E-05 4.25488E-03-1.73692E-06
 -1      1872 1.06669E-04 6.52888E-03 2.15562E-06
 -1      1874-1.06669E-04 6.52888E-03-2.15562E-06
 -1      1875 1.25187E-04 9.22674E-03 2.60535E-06
 -1      1877-1.25187E-04 9.22674E-03-2.60535E-06
 -1      1878 1.41752E-04 1.23325E-02 3.01301E-06
 -1      1880-1.41752E-04 1.23325E-02-3.01301E-06
 -1      1881 1.57609E-04 1.58153E-02 3.47594E-06
 -1      1883-1.57609E-04 1.58153E-02-3.47594E-06
 -1      1884 1.72274E-04 1.96530E-02 3.90366E-06
 -1      1886-1.72274E-04 1.96530E-02-3.90366E-06
 -1      1887 1.85877E-04 2.38194E-02 4.36519E-06
 -1      1889-1.85877E-04 2.38194E-02-4.36519E-06
 -1      1890 1.98475E-04 2.82905E-02 4.81063E-06
 -1      1892-1.98475E-04 2.82905E-02-4.81063E-06
 -1      1893 2.09989E-04 3.30419E-02 5.26954E-06
 -1      1895-2.09989E-04 3.30419E-02-5.26954E-06
 -1      1896 2.20537E-04 3.80499E-02 5.72249E-06
 -1      1898-2.20537E-04 3.80499E-02-5.72249E-06
 -1      1899 2.30059E-04 4.32912E-02 6.17661E-06
 -1      1901-2.30059E-04 4.32912E-02-6.17661E-06
 -1      1902 2.38645E-04 4.87431E-02 6.62661E-06
 -1      1904-2.38645E-04 4.87431E-02-6.62661E-06
 -1      1905 2.46278E-04 5.43835E-02 7.07034E-06
 -1      1907-2.46278E-04 5.43835E-02-7.07034E-06
 -1      1908 2.53025E-04 6.01910E-02 7.50724E-06
 -1      1910-2.53025E-04 6.01910E-02-7.50724E-06
 -1      1911 2.58899E-04 6.61453E-02 7.93221E-06
 -1      1913-2.58899E-04 6.61453E-02-7.93221E-06
 -1      1914 2.63959E-04 7.22267E-02 8.34545E-06
 -1      1916-2.63959E-04 7.22267E-02-8.34545E-06
 -1      1917 2.68237E-04 7.84165E-02 8.74126E-06
 -1      1919-2.68237E-04 7.84165E-02-8.74126E-06
 -1      1920 2.71791E-04 8.46974E-02 9.11931E-06
 -1      1922-2.71791E-04 8.46974E-02-9.11931E-06
 -1      1923 2.74667E-04 9.10529E-02 9.47383E-06
 -1      1925-2.74667E-04 9.10529E-02-9.47383E-06
 -1      1926 2.76927E-04 9.74680E-02 9.80375E-06
 -1      1928-2.76927E-04 9.74680E-02-9.80375E-06
 -1      1929 2.78631E-04 1.03929E-01 1.01032E-05
 -1      1931-2.78631E-04 1.03929E-01-1.01032E-05
 -1      1932 2.79842E-04 1.10424E-01 1.03702E-05
 -1      1934-2.79842E-04 1.10424E-01-1.03702E-05
 -1      1935 2.80638E-04 1.16942E-01 1.05988E-05
 -1      1937-2.80638E-04 1.16942E-01-1.05988E-05
 -1      1938 2.81076E-04 1.23474E-01 1.07860E-05
 -1      1940-2.81076E-04 1.23474E-01-1.07860E-05
 -1      1941 2.81262E-04 1.30014E-01 1.09259E-05
 -1      1943-2.81262E-04 1.30014E-01-1.09259E-05
 -1      1944 2.81236E-04 1.36555E-01 1.10132E-05
 -1      1946-2.81236E-04 1.36555E-01-1.10132E-05
 -1      1947 2.41832E-05 2.79410E-04 2.39593E-15
 -1      1949-2.41832E-05 2.79410E-04 2.49761E-15
 -1      1950 4.79057E-05 1.11668E-03 7.80051E-15
 -1      1952-4.79057E-05 1.11668E-03 8.10868E-15
 -1      1953 6.76795E-05 2.45912E-03 1.56854E-14
 -1      1955-6.76795E-05 2.45912E-03 1.62267E-14
 -1      1956 8.86791E-05 4.27532E-03 2.58154E-14
 -1      1958-8.86791E-05 4.27532E-03 2.66529E-14
 -1      1959 1.07369E-04 6.55389E-03 3.80950E-14
 -1      1961-1.07369E-04 6.55389E-03 3.93031E-14
 -1      1962 1.25295E-04 9.25712E-03 5.24363E-14
 -1      1964-1.25295E-04 9.25712E-03 5.40707E-14
 -1      1965 1.42304E-04 1.23676E-02 6.88199E-14
 -1      1967-1.42304E-04 1.23676E-02 7.07894E-14
 -1      1968 1.57854E-04 1.58558E-02 8.72300E-14
 -1      1970-1.57854E-04 1.58558E-02 8.92820E-14
 -1      1971 1.72734E-04 1.96985E-02 1.07371E-13
 -1      1973-1.72734E-04 1.96985E-02 1.09664E-13
 -1      1974 1.86199E-04 2.38703E-02 1.29064E-13
 -1      1976-1.86199E-04 2.38703E-02 1.31888E-13
 -1      1977 1.98889E-04 2.83465E-02 1.52381E-13
 -1      1979-1.98889E-04 2.83465E-02 1.55647E-13
 -1      1980 2.10345E-04 3.31033E-02 1.77317E-13
 -1      1982-2.10345E-04 3.31033E-02 1.80756E-13
 -1      1983 2.20928E-04 3.81166E-02 2.03655E-13
 -1      1985-2.20928E-04 3.81166E-02 2.07119E-13
 -1      1986 2.30424E-04 4.33632E-02 2.31245E-13
 -1      1988-2.30424E-04 4.33632E-02 2.34827E-13
 -1      1989 2.39019E-04 4.88202E-02 2.60137E-13
 -1      1991-2.39019E-04 4.88202E-02 2.63701E-13
 -1      1992 2.46637E-04 5.44658E-02 2.89977E-13
 -1      1994-2.46637E-04 5.44658E-02 2.93999E-13
 -1      1995 2.53381E-04 6.02785E-02 3.20701E-13
 -1      1997-2.53381E-04 6.02785E-02 3.25535E-13
 -1      1998 2.59242E-04 6.62377E-02 3.52306E-13
 -1      2000-2.59242E-04 6.62377E-02 3.57941E-13
 -1      2001 2.64290E-04 7.23239E-02 3.84784E-13
 -1      2003-2.64290E-04 7.23239E-02 3.90928E-13
 -1      2004 2.68552E-04 7.85183E-02 4.18290E-13
 -1      2006-2.68552E-04 7.85183E-02 4.24618E-13
 -1      2007 2.72088E-04 8.48036E-02 4.52968E-13
 -1      2009-2.72088E-04 8.48036E-02 4.58685E-13
 -1      2010 2.74945E-04 9.11632E-02 4.88791E-13
 -1      2012-2.74945E-04 9.11632E-02 4.92817E-13
 -1      2013 2.77182E-04 9.75822E-02 5.24681E-13
 -1      2015-2.77182E-04 9.75822E-02 5.27208E-13
 -1      2016 2.78860E-04 1.04047E-01 5.60555E-13
 -1      2018-2.78860E-04 1.04047E-01 5.61975E-13
 -1      2019 2.80042E-04 1.10545E-01 5.96698E-13
 -1      2021-2.80042E-04 1.10545E-01 5.96924E-13
 -1      2022 2.80805E-04 1.17065E-01 6.32869E-13
 -1      2024-2.80805E-04 1.17065E-01 6.31600E-13
 -1      2025 2.81206E-04 1.23600E-01 6.68410E-13
 -1      2027-2.81206E-04 1.23600E-01 6.66458E-13
 -1      2028 2.81356E-04 1.30141E-01 7.03576E-13
 -1      2030-2.81356E-04 1.30141E-01 7.01409E-13
 -1      2031 2.81279E-04 1.36683E-01 7.38045E-13
 -1      2033-2.81279E-04 1.36683E-01 7.36312E-13
 -1      2034 2.34204E-05 2.73082E-04-6.10209E-07
 -1      2036-2.34204E-05 2.73082E-04 6.10209E-07
 -1      2037 4.80427E-05 1.10634E-03-8.37884E-07
 -1      2039-4.80427E-05 1.10634E-03 8.37884E-07
 -1      2040 6.68476E-05 2.44366E-03-1.36077E-06
 -1      2042-6.68476E-05 2.44366E-03 1.36077E-06
 -1      2043 8.87462E-05 4.25488E-03-1.73692E-06
 -1      2045-8.87462E-05 4.25488E-03 1.73692E-06
 -1      2046 1.06669E-04 6.52888E-03-2.15562E-06
 -1      2048-1.06669E-04 6.52888E-03 2.15562E-06
 -1      2049 1.25187E-04 9.22674E-03-2.60535E-06
 -1      2051-1.25187E-04 9.22674E-03 2.60535E-06
 -1      2052 1.41752E-04 1.23325E-02-3.01301E-06
 -1      2054-1.41752E-04 1.23325E-02 3.01301E-06
 -1      2055 1.57609E-04 1.58153E-02-3.47594E-06
 -1      2057-1.57609E-04 1.58153E-02 3.47594E-06
 -1      2058 1.72274E-04 1.96530E-02-3.90366E-06
 -1      2060-1.72274E-04 1.96530E-02 3.90366E-06
 -1      2061 1.85877E-04 2.38194E-02-4.36519E-06
 -1      2063-1.85877E-04 2.38194E-02 4.36519E-06
 -1      2064 1.98475E-04 2.82905E-02-4.81063E-06
 -1      2066-1.98475E-04 2.82905E-02 4.81063E-06
 -1      2067 2.09989E-04 3.30419E-02-5.26954E-06
 -1      2069-2.09989E-04 3.30419E-02 5.26954E-06
 -1      2070 2.20537E-04 3.80499E-02-5.72249E-06
 -1      2072-2.20537E-04 3.80499E-02 5.72249E-06
 -1      2073 2.30059E-04 4.32912E-02-6.17661E-06
 -1      2075-2.30059E-04 4.32912E-02 6.17661E-06
 -1      2076 2.38645E-04 4.87431E-02-6.62661E-06
 -1      2078-2.38645E-04 4.87431E-02 6.62661E-06
 -1      2079 2.46278E-04 5.43835E-02-7.07034E-06
 -1      2081-2.46278E-04 5.43835E-02 7.07034E-06
 -1      2082 2.53025E-04 6.01910E-02-7.50724E-06
 -1      2084-2.53025E-04 6.01910E-02 7.50724E-06
 -1      2085 2.58899E-04 6.61453E-02-7.93221E-06
 -1      2087-2.58899E-04 6.61453E-02 7.93221E-06
 -1      2088 2.63959E-04 7.22267E-02-8.34545E-06
 -1      2090-2.63959E-04 7.22267E-02 8.34545E-06
 -1      2091 2.68237E-04 7.84165E-02-8.74126E-06
 -1      2093-2.68237E-04 7.84165E-02 8.74126E-06
 -1      2094 2.71791E-04 8.46974E-02-9.11931E-06
 -1      2096-2.71791E-04 8.46974E-02 9.11931E-06
 -1      2097 2.74667E-04 9.10529E-02-9.47383E-06
 -1      2099-2.74667E-04 9.10529E-02 9.47383E-06
 -1      2100 2.76927E-04 9.74680E-02-9.80375E-06
 -1      2102-2.76927E-04 9.74680E-02 9.80375E-06
 -1      2103 2.78631E-04 1.03929E-01-1.01032E-05
 -1      2105-2.78631E-04 1.03929E-01 1.01032E-05
 -1      2106 2.79842E-04 1.10424E-01-1.03702E-05
 -1      2108-2.79842E-04 1.10424E-01 1.03702E-05
 -1      2109 2.80638E-04 1.16942E-01-1.05988E-05
 -1      2111-2.80638E-04 1.16942E-01 1.05988E-05
 -1      2112 2.81076E-04 1.23474E-01-1.07860E-05
 -1      2114-2.81076E-04 1.23474E-01 1.07860E-05
 -1      2115 2.81262E-04 1.30014E-01-1.09259E-05
 -1      2117-2.81262E-04 1.30014E-01 1.09259E-05
 -1      2118 2.81236E-04 1.36555E-01-1.10132E-05
 -1      2120-2.81236E-04 1.36555E-01 1.10132E-05
 -1      2121 2.33753E-04 2.75518E-04-1.05404E-05
 -1      2123 2.32263E-04 2.76585E-04-7.21805E-07
 -1      2124 4.78001E-04 1.09843E-03-1.74307E-05
 -1      2126 4.77450E-04 1.10223E-03-8.61621E-06
 -1      2127 6.93532E-04 2.41359E-03-2.33917E-05
 -1      2129 6.92506E-04 2.41917E-03-1.42925E-05
 -1      2130 9.07068E-04 4.22005E-03-2.95784E-05
 -1      2132 9.06283E-04 4.22757E-03-2.13561E-05
 -1      2133 1.10501E-03 6.47376E-03-3.55432E-05
 -1      2135 1.10411E-03 6.48325E-03-2.77189E-05
 -1      2136 1.29284E-03 9.16234E-03-4.18167E-05
 -1      2138 1.29198E-03 9.17367E-03-3.43192E-05
 -1      2139 1.46918E-03 1.22515E-02-4.77999E-05
 -1      2141 1.46831E-03 1.22648E-02-4.09764E-05
 -1      2142 1.63395E-03 1.57219E-02-5.40667E-05
 -1      2144 1.63308E-03 1.57370E-02-4.74919E-05
 -1      2145 1.78783E-03 1.95446E-02-6.01228E-05
 -1      2147 1.78696E-03 1.95617E-02-5.41658E-05
 -1      2148 1.93039E-03 2.36974E-02-6.63146E-05
 -1      2150 1.92952E-03 2.37163E-02-6.06965E-05
 -1      2151 2.06216E-03 2.81540E-02-7.24002E-05
 -1      2153 2.06130E-03 2.81748E-02-6.72778E-05
 -1      2154 2.18310E-03 3.28915E-02-7.84761E-05
 -1      2156 2.18224E-03 3.29141E-02-7.37767E-05
 -1      2157 2.29353E-03 3.78853E-02-8.45021E-05
 -1      2159 2.29269E-03 3.79097E-02-8.02019E-05
 -1      2160 2.39364E-03 4.31128E-02-9.04081E-05
 -1      2162 2.39281E-03 4.31390E-02-8.65700E-05
 -1      2163 2.48373E-03 4.85508E-02-9.62676E-05
 -1      2165 2.48292E-03 4.85788E-02-9.27655E-05
 -1      2166 2.56412E-03 5.41777E-02-1.01925E-04
 -1      2168 2.56333E-03 5.42074E-02-9.88849E-05
 -1      2169 2.63514E-03 5.99721E-02-1.07501E-04
 -1      2171 2.63437E-03 6.00034E-02-1.04754E-04
 -1      2172 2.69721E-03 6.59136E-02-1.12807E-04
 -1      2174 2.69647E-03 6.59464E-02-1.10496E-04
 -1      2175 2.75072E-03 7.19826E-02-1.17973E-04
 -1      2177 2.75002E-03 7.20169E-02-1.15921E-04
 -1      2178 2.79619E-03 7.81606E-02-1.22808E-04
 -1      2180 2.79553E-03 7.81964E-02-1.21148E-04
 -1      2181 2.83410E-03 8.44303E-02-1.27428E-04
 -1      2183 2.83348E-03 8.44674E-02-1.25992E-04
 -1      2184 2.86503E-03 9.07754E-02-1.31654E-04
 -1      2186 2.86446E-03 9.08137E-02-1.30558E-04
 -1      2187 2.88956E-03 9.71809E-02-1.35585E-04
 -1      2189 2.88904E-03 9.72203E-02-1.34672E-04
 -1      2190 2.90836E-03 1.03633E-01-1.39057E-04
 -1      2192 2.90790E-03 1.03674E-01-1.38422E-04
 -1      2193 2.92209E-03 1.10120E-01-1.42148E-04
 -1      2195 2.92169E-03 1.10162E-01-1.41648E-04
 -1      2196 2.93151E-03 1.16632E-01-1.44713E-04
 -1      2198 2.93118E-03 1.16674E-01-1.44425E-04
 -1      2199 2.93737E-03 1.23159E-01-1.46809E-04
 -1      2201 2.93711E-03 1.23201E-01-1.46600E-04
 -1      2202 2.94051E-03 1.29694E-01-1.48316E-04
 -1      2204 2.94033E-03 1.29737E-01-1.48247E-04
 -1      2205 2.94180E-03 1.36233E-01-1.49260E-04
 -1      2207 2.94172E-03 1.36276E-01-1.49199E-04
 -1      2208-2.33753E-04 2.75518E-04 1.05404E-05
 -1      2210-2.32263E-04 2.76585E-04 7.21805E-07
 -1      2211-4.78001E-04 1.09843E-03 1.74307E-05
 -1      2213-4.77450E-04 1.10223E-03 8.61621E-06
 -1      2214-6.93532E-04 2.41359E-03 2.33917E-05
 -1      2216-6.92506E-04 2.41917E-03 1.42925E-05
 -1      2217-9.07068E-04 4.22005E-03 2.95784E-05
 -1      2219-9.06283E-04 4.22757E-03 2.13561E-05
 -1      2220-1.10501E-03 6.47376E-03 3.55432E-05
 -1      2222-1.10411E-03 6.48325E-03 2.77189E-05
 -1      2223-1.29284E-03 9.16234E-03 4.18167E-05
 -1      2225-1.29198E-03 9.17367E-03 3.43192E-05
 -1      2226-1.46918E-03 1.22515E-02 4.77999E-05
 -1      2228-1.46831E-03 1.22648E-02 4.09764E-05
 -1      2229-1.63395E-03 1.57219E-02 5.40667E-05
 -1      2231-1.63308E-03 1.57370E-02 4.74919E-05
 -1      2232-1.78783E-03 1.95446E-02 6.01228E-05
 -1      2234-1.78696E-03 1.95617E-02 5.41658E-05
 -1      2235-1.93039E-03 2.36974E-02 6.63146E-05
 -1      2237-1.92952E-03 2.37163E-02 6.06965E-05
 -1      2238-2.06216E-03 2.81540E-02 7.24002E-05
 -1      2240-2.06130E-03 2.81748E-02 6.72778E-05
 -1      2241-2.18310E-03 3.28915E-02 7.84761E-05
 -1      2243-2.18224E-03 3.29141E-02 7.37767E-05
 -1      2244-2.29353E-03 3.78853E-02 8.45021E-05
 -1      2246-2.29269E-03 3.79097E-02 8.02019E-05
 -1      2247-2.39364E-03 4.31128E-02 9.04081E-05
 -1      2249-2.39281E-03 4.31390E-02 8.65700E-05
 -1      2250-2.48373E-03 4.85508E-02 9.62676E-05
 -1      2252-2.48292E-03 4.85788E-02 9.27655E-05
 -1      2253-2.56412E-03 5.41777E-02 1.01925E-04
 -1      2255-2.56333E-03 5.42074E-02 9.88849E-05
 -1      2256-2.63514E-03 5.99721E-02 1.07501E-04
 -1      2258-2.63437E-03 6.00034E-02 1.04754E-04
 -1      2259-2.69721E-03 6.59136E-02 1.12807E-04
 -1      2261-2.69647E-03 6.59464E-02 1.10496E-04
 -1      2262-2.75072E-03 7.19826E-02 1.17973E-04
 -1      2264-2.75002E-03 7.20169E-02 1.15921E-04
 -1      2265-2.79619E-03 7.81606E-02 1.22808E-04
 -1      2267-2.79553E-03 7.81964E-02 1.21148E-04
 -1      2268-2.83410E-03 8.44303E-02 1.27428E-04
 -1      2270-2.83348E-03 8.44674E-02 1.25992E-04
 -1      2271-2.86503E-03 9.07754E-02 1.31654E-04
 -1      2273-2.86446E-03 9.08137E-02 1.30558E-04
 -1      2274-2.88956E-03 9.71809E-02 1.35585E-04
 -1      2276-2.88904E-03 9.72203E-02 1.34672E-04
 -1      2277-2.90836E-03 1.03633E-01 1.39057E-04
 -1      2279-2.90790E-03 1.03674E-01 1.38422E-04
 -1      2280-2.92209E-03 1.10120E-01 1.42148E-04
 -1      2282-2.92169E-03 1.10162E-01 1.41648E-04
 -1      2283-2.93151E-03 1.16632E-01 1.44713E-04
 -1      2285-2.93118E-03 1.16674E-01 1.44425E-04
 -1      2286-2.93737E-03 1.23159E-01 1.46809E-04
 -1      2288-2.93711E-03 1.23201E-01 1.46600E-04
 -1      2289-2.94051E-03 1.29694E-01 1.48316E-04
 -1      2291-2.94033E-03 1.29737E-01 1.48247E-04
 -1      2292-2.94180E-03 1.36233E-01 1.49260E-04
 -1      2294-2.94172E-03 1.36276E-01 1.49199E-04
 -3
    1PSTEP                         2           1           1          
    1PGM                1.000000E+00                                  
    1PGK                6.343347E+03                                  
    1PHID                         -1                                  
    1PSUBC                         0                                  
    1PMODE                         1                                  
  100CL  101 12.67591621         930                     2    1MODAL      1
 -4  STRESS      6    1
 -5  SXX         1    4    1    1
 -5  SYY         1    4    2    2
 -5  SZZ         1    4    3    3
 -5  SXY         1    4    1    2
 -5  SYZ         1    4    2    3
 -5  SZX         1    4    3    1
 -1       404-7.73489E+08-5.72062E+07-7.01274E+05 2.52285E+07-2.99486E+04-3.12515E+05
 -1       406-7.73489E+08-5.72062E+07-7.01274E+05 2.52285E+07-2.99486E+04-3.12515E+05
 -1       407-7.34918E+05 1.26470E+04 4.47041E+03 3.34145E+05 3.08798E+04 2.70711E+03
 -1       409-7.34918E+05 1.26470E+04 4.47041E+03 3.34145E+05 3.08798E+04 2.70711E+03
 -1       410-9.76257E-05 2.21337E-04 9.71183E-05 8.64926E+05 3.72195E+04-4.23435E-06
 -1       412-9.76257E-05 2.21337E-04 9.71183E-05 8.64926E+05 3.72195E+04-4.23435E-06
 -1       413 2.60033E-04 9.20803E-04 3.22409E-04-7.47125E+03 5.85820E+05 3.85829E-05
 -1       415 2.60033E-04 9.20803E-04 3.22409E-04-7.47125E+03 5.85820E+05 3.85829E-05
 -1       424 1.07042E-02 1.41123E-03-2.91318E-06 5.65216E+06 2.21255E+05 1.35704E-04
 -1       426 1.07042E-02 1.41123E-03-2.91318E-06 5.65216E+06 2.21255E+05 1.35704E-04
 -1       427 8.07926E-03 1.81803E-05 1.34304E-03-2.81406E+06 4.58679E+05 1.53646E-03
 -1       429 8.07926E-03 1.81803E-05 1.34304E-03-2.81406E+06 4.58679E+05 1.53646E-03
 -1       438 7.34918E+05-1.26470E+04-4.47041E+03 3.34145E+05 3.08798E+04-2.70711E+03
 -1       440 7.34918E+05-1.26470E+04-4.47041E+03 3.34145E+05 3.08798E+04-2.70711E+03
 -1       441 7.73489E+08 5.72062E+07 7.01274E+05 2.52285E+07-2.99486E+04 3.12515E+05
 -1       443 7.73489E+08 5.72062E+07 7.01274E+05 2.52285E+07-2.99486E+04 3.12515E+05
 -1       444-7.99446E-03-5.65448E-06-1.32476E-03-2.81406E+06-4.58679E+05 1.52591E-03
 -1       446-7.99446E-03-5.65448E-06-1.32476E-03-2.81406E+06-4.58679E+05 1.52591E-03
 -1       447-1.06274E-02-1.40370E-03 1.71363E-07 5.65216E+06-2.21255E+05 1.30839E-04
 -1       449-1.06274E-02-1.40370E-03 1.71363E-07 5.65216E+06-2.21255E+05 1.30839E-04
 -1       458 5.15434E-04 5.96033E-04 8.49619E-04-7.47125E+03-5.85820E+05 1.11590E-04
 -1       460 5.15434E-04 5.96033E-04 8.49619E-04-7.47125E+03-5.85820E+05 1.11590E-04
 -1       461 3.12796E-04 1.60307E-04-1.15846E-05 8.64926E+05-3.72195E+04-3.20927E-06
 -1       463 3.12796E-04 1.60307E-04-1.15846E-05 8.64926E+05-3.72195E+04-3.20927E-06
 -1       472 7.73489E+08 5.72062E+07 7.01274E+05 2.52285E+07 2.99486E+04-3.12515E+05
 -1       474 7.73489E+08 5.72062E+07 7.01274E+05 2.52285E+07 2.99486E+04-3.12515E+05
 -1       475 7.34918E+05-1.26470E+04-4.47041E+03 3.34145E+05-3.08798E+04 2.70711E+03
 -1       477 7.34918E+05-1.26470E+04-4.47041E+03 3.34145E+05-3.08798E+04 2.70711E+03
 -1       478-7.34918E+05 1.26470E+04 4.47041E+03 3.34145E+05-3.08798E+04-2.70711E+03
 -1       480-7.34918E+05 1.26470E+04 4.47041E+03 3.34145E+05-3.08798E+04-2.70711E+03
 -1       481-7.73489E+08-5.72062E+07-7.01274E+05 2.52285E+07 2.99486E+04 3.12515E+05
 -1       483-7.73489E+08-5.72062E+07-7.01274E+05 2.52285E+07 2.99486E+04 3.12515E+05
 -1       484-7.53183E+08-1.30532E+07-7.89647E+04 1.12349E+07-2.04019E+04-9.95661E+04
 -1       486-7.53183E+08-1.30532E+07-7.89647E+04 1.12349E+07-2.04019E+04-9.95661E+04
 -1       487-7.17212E+08 7.54050E+06-4.18337E+05 6.18745E+06 3.48218E+03 7.84389E+03
 -1       489-7.17212E+08 7.54050E+06-4.18337E+05 6.18745E+06 3.48218E+03 7.84389E+03
 -1       490-6.81641E+08-3.92665E+06-2.86638E+05 1.05131E+07 4.39628E+03-4.74952E+04
 -1       492-6.81641E+08-3.92665E+06-2.86638E+05 1.05131E+07 4.39628E+03-4.74952E+04
 -1       493-6.44817E+08 1.92765E+06-2.45584E+05 7.89156E+06-1.03849E+01-1.99128E+04
 -1       495-6.44817E+08 1.92765E+06-2.45584E+05 7.89156E+06-1.03849E+01-1.99128E+04
 -1       496-6.09211E+08-9.28734E+05-3.24052E+05 9.15569E+06 4.27266E+03-3.29472E+04
 -1       498-6.09211E+08-9.28734E+05-3.24052E+05 9.15569E+06 4.27266E+03-3.29472E+04
 -1       499-5.73003E+08 4.61861E+05-1.88628E+05 8.56890E+06 5.98836E+02-2.67912E+04
 -1       501-5.73003E+08 4.61861E+05-1.88628E+05 8.56890E+06 5.98836E+02-2.67912E+04
 -1       502-5.37439E+08-2.49105E+05-2.94330E+05 8.69850E+06 2.79825E+03-2.92040E+04
 -1       504-5.37439E+08-2.49105E+05-2.94330E+05 8.69850E+06 2.79825E+03-2.92040E+04
 -1       505-5.01892E+08 1.50864E+05-1.66719E+05 8.58469E+06 2.05455E+03-2.80877E+04
 -1       507-5.01892E+08 1.50864E+05-1.66719E+05 8.58469E+06 2.05455E+03-2.80877E+04
 -1       508-4.66829E+08-9.98007E+04-2.49675E+05 8.48354E+06 2.86861E+03-2.81772E+04
 -1       510-4.66829E+08-9.98007E+04-2.49675E+05 8.48354E+06 2.86861E+03-2.81772E+04
 -1       511-4.32109E+08 7.10841E+04-1.50304E+05 8.38639E+06 3.64572E+03-2.79208E+04
 -1       513-4.32109E+08 7.10841E+04-1.50304E+05 8.38639E+06 3.64572E+03-2.79208E+04
 -1       514-3.97954E+08-5.04806E+04-2.06017E+05 8.23615E+06 4.22544E+03-2.75643E+04
 -1       516-3.97954E+08-5.04806E+04-2.06017E+05 8.23615E+06 4.22544E+03-2.75643E+04
 -1       517-3.64376E+08 3.76345E+04-1.32215E+05 8.08394E+06 5.58209E+03-2.72587E+04
 -1       519-3.64376E+08 3.76345E+04-1.32215E+05 8.08394E+06 5.58209E+03-2.72587E+04
 -1       520-3.31533E+08-2.61214E+04-1.66747E+05 7.89304E+06 6.41597E+03-2.67470E+04
 -1       522-3.31533E+08-2.61214E+04-1.66747E+05 7.89304E+06 6.41597E+03-2.67470E+04
 -1       523-2.99495E+08 2.02218E+04-1.11979E+05 7.68219E+06 8.00586E+03-2.62302E+04
 -1       525-2.99495E+08 2.02218E+04-1.11979E+05 7.68219E+06 8.00586E+03-2.62302E+04
 -1       526-2.68402E+08-1.31907E+04-1.31994E+05 7.44017E+06 9.18348E+03-2.55440E+04
 -1       528-2.68402E+08-1.31907E+04-1.31994E+05 7.44017E+06 9.18348E+03-2.55440E+04
 -1       529-2.38350E+08 1.13022E+04-9.06705E+04 7.17041E+06 1.09138E+04-2.47835E+04
 -1       531-2.38350E+08 1.13022E+04-9.06705E+04 7.17041E+06 1.09138E+04-2.47835E+04
 -1       532-2.09476E+08-6.49167E+03-1.01348E+05 6.87028E+06 1.23857E+04-2.38729E+04
 -1       534-2.09476E+08-6.49167E+03-1.01348E+05 6.87028E+06 1.23857E+04-2.38729E+04
 -1       535-1.81894E+08 6.92011E+03-6.95123E+04 6.53940E+06 1.42270E+04-2.28487E+04
 -1       537-1.81894E+08 6.92011E+03-6.95123E+04 6.53940E+06 1.42270E+04-2.28487E+04
 -1       538-1.55739E+08-2.99779E+03-7.45191E+04 6.17710E+06 1.59090E+04-2.16765E+04
 -1       540-1.55739E+08-2.99779E+03-7.45191E+04 6.17710E+06 1.59090E+04-2.16765E+04
 -1       541-1.31138E+08 4.80627E+03-4.95698E+04 5.78255E+06 1.78261E+04-2.03713E+04
 -1       543-1.31138E+08 4.80627E+03-4.95698E+04 5.78255E+06 1.78261E+04-2.03713E+04
 -1       544-1.08228E+08-1.05922E+03-5.14485E+04 5.35546E+06 1.96208E+04-1.89129E+04
 -1       546-1.08228E+08-1.05922E+03-5.14485E+04 5.35546E+06 1.96208E+04-1.89129E+04
 -1       547-8.71395E+07 3.76108E+03-3.17275E+04 4.89513E+06 2.15481E+04-1.73210E+04
 -1       549-8.71395E+07 3.76108E+03-3.17275E+04 4.89513E+06 2.15481E+04-1.73210E+04
 -1       550-6.80132E+07 2.26729E+02-3.22738E+04 4.40160E+06 2.33359E+04-1.55587E+04
 -1       552-6.80132E+07 2.26729E+02-3.22738E+04 4.40160E+06 2.33359E+04-1.55587E+04
 -1       553-5.09851E+07 3.00211E+03-1.67249E+04 3.87383E+06 2.51563E+04-1.37062E+04
 -1       555-5.09851E+07 3.00211E+03-1.67249E+04 3.87383E+06 2.51563E+04-1.37062E+04
 -1       556-3.61953E+07 1.67088E+03-1.72806E+04 3.31310E+06 2.67726E+04-1.16045E+04
 -1       558-3.61953E+07 1.67088E+03-1.72806E+04 3.31310E+06 2.67726E+04-1.16045E+04
 -1       559-2.37833E+07 1.62799E+03-5.19560E+03 2.71671E+06 2.82775E+04-9.61996E+03
 -1       561-2.37833E+07 1.62799E+03-5.19560E+03 2.71671E+06 2.82775E+04-9.61996E+03
 -1       562-1.38903E+07 3.87192E+03-6.84457E+03 2.08740E+06 2.94828E+04-7.00782E+03
 -1       564-1.38903E+07 3.87192E+03-6.84457E+03 2.08740E+06 2.94828E+04-7.00782E+03
 -1       565-6.65373E+06 1.13446E+03 2.23804E+03 1.42692E+06 3.03160E+04-5.39892E+03
 -1       567-6.65373E+06 1.13446E+03 2.23804E+03 1.42692E+06 3.03160E+04-5.39892E+03
 -1       568-2.22630E+06-2.38133E+03-1.19817E+03 7.11322E+05 3.08236E+04-1.43288E+03
 -1       570-2.22630E+06-2.38133E+03-1.19817E+03 7.11322E+05 3.08236E+04-1.43288E+03
 -1       571-5.66041E+05-1.02297E+05 1.85210E+03 5.99536E+05 3.40497E+04 2.03652E+03
 -1       573-5.66041E+05-1.02297E+05 1.85210E+03 5.99536E+05 3.40497E+04 2.03652E+03
 -1       574 1.06056E-02 5.48730E-04 2.96533E-06 1.74377E+07 1.16006E+05 2.07673E-05
 -1       576 1.06056E-02 5.48730E-04 2.96533E-06 1.74377E+07 1.16006E+05 2.07673E-05
 -1       577 7.97633E-03-5.17986E-06 6.77465E-04-1.76379E+05 2.59087E+05 1.48927E-03
 -1       579 7.97633E-03-5.17986E-06 6.77465E-04-1.76379E+05 2.59087E+05 1.48927E-03
 -1       588 1.01308E-02-1.93693E-04-8.75443E-07 2.19787E+07-1.77634E+04-1.66410E-05
 -1       590 1.01308E-02-1.93693E-04-8.75443E-07 2.19787E+07-1.77634E+04-1.66410E-05
 -1       591 7.68502E-03-7.77835E-07-1.07664E-05 3.48199E+05 1.12933E+04 1.34681E-03
 -1       593 7.68502E-03-7.77835E-07-1.07664E-05 3.48199E+05 1.12933E+04 1.34681E-03
 -1       602 9.62479E-03 3.82587E-06-1.69501E-06 1.82461E+07 3.95582E+03 1.00321E-05
 -1       604 9.62479E-03 3.82587E-06-1.69501E-06 1.82461E+07 3.95582E+03 1.00321E-05
 -1       605 7.27597E-03-1.84988E-05-2.75055E-05-2.82081E+05 7.13868E+04 1.32187E-03
 -1       607 7.27597E-03-1.84988E-05-2.75055E-05-2.82081E+05 7.13868E+04 1.32187E-03
 -1       616 9.26428E-03 2.58982E-05 2.21282E-06 2.03130E+07 4.87867E+03-5.50023E-06
 -1       618 9.26428E-03 2.58982E-05 2.21282E-06 2.03130E+07 4.87867E+03-5.50023E-06
 -1       619 6.94326E-03 7.44512E-06-1.14671E-05 2.44952E+05 8.50447E+04 1.36365E-03
 -1       621 6.94326E-03 7.44512E-06-1.14671E-05 2.44952E+05 8.50447E+04 1.36365E-03
 -1       630 8.82868E-03-1.44169E-05 5.88223E-06 1.92763E+07-8.08378E+03 3.56862E-06
 -1       632 8.82868E-03-1.44169E-05 5.88223E-06 1.92763E+07-8.08378E+03 3.56862E-06
 -1       633 6.65662E-03 4.06475E-05 6.98057E-06-1.32431E+05 7.62841E+04 1.34101E-03
 -1       635 6.65662E-03 4.06475E-05 6.98057E-06-1.32431E+05 7.62841E+04 1.34101E-03
 -1       644 8.42050E-03-8.52719E-06 2.64868E-06 1.95491E+07 4.73452E+03-3.02842E-06
 -1       646 8.42050E-03-8.52719E-06 2.64868E-06 1.95491E+07 4.73452E+03-3.02842E-06
 -1       647 6.33663E-03 4.67573E-06 3.22027E-05 1.11708E+05 1.19602E+05 1.34924E-03
 -1       649 6.33663E-03 4.67573E-06 3.22027E-05 1.11708E+05 1.19602E+05 1.34924E-03
 -1       658 8.01185E-03-5.44265E-06-1.79745E-05 1.93226E+07-4.68098E+03 7.41199E-07
 -1       660 8.01185E-03-5.44265E-06-1.79745E-05 1.93226E+07-4.68098E+03 7.41199E-07
 -1       661 6.00371E-03-5.05238E-05 6.26825E-06-3.82951E+04 1.17685E+05 1.36472E-03
 -1       663 6.00371E-03-5.05238E-05 6.26825E-06-3.82951E+04 1.17685E+05 1.36472E-03
 -1       672 7.58730E-03 7.70763E-06-3.74578E-06 1.91623E+07 2.27552E+03 6.90025E-07
 -1       674 7.58730E-03 7.70763E-06-3.74578E-06 1.91623E+07 2.27552E+03 6.90025E-07
 -1       675 5.68264E-03-2.36447E-05-1.04985E-05 4.77607E+04 1.51703E+05 1.35936E-03
 -1       677 5.68264E-03-2.36447E-05-1.04985E-05 4.77607E+04 1.51703E+05 1.35936E-03
 -1       686 7.17682E-03 1.37109E-05 6.57514E-06 1.89706E+07-9.07850E+02-5.60724E-07
 -1       688 7.17682E-03 1.37109E-05 6.57514E-06 1.89706E+07-9.07850E+02-5.60724E-07
 -1       689 5.42712E-03 1.10090E-04 6.90775E-05-1.85744E+03 1.63578E+05 1.34522E-03
 -1       691 5.42712E-03 1.10090E-04 6.90775E-05-1.85744E+03 1.63578E+05 1.34522E-03
 -1       700 6.76527E-03-9.67644E-06 7.45058E-06 1.87016E+07 2.03708E+03-2.18241E-07
 -1       702 6.76527E-03-9.67644E-06 7.45058E-06 1.87016E+07 2.03708E+03-2.18241E-07
 -1       703 5.11169E-03 5.80111E-05 1.66257E-05 2.37665E+04 1.90213E+05 1.38511E-03
 -1       705 5.11169E-03 5.80111E-05 1.66257E-05 2.37665E+04 1.90213E+05 1.38511E-03
 -1       714 6.31823E-03-5.42011E-05-1.93547E-05 1.84034E+07 1.98373E+03 2.38848E-06
 -1       716 6.31823E-03-5.42011E-05-1.93547E-05 1.84034E+07 1.98373E+03 2.38848E-06
 -1       717 4.76510E-03 9.39532E-07-1.37888E-04 8.85765E+03 2.09749E+05 1.37803E-03
 -1       719 4.76510E-03 9.39532E-07-1.37888E-04 8.85765E+03 2.09749E+05 1.37803E-03
 -1       728 5.90170E-03-3.10987E-05-2.61161E-05 1.80425E+07 3.57623E+03 1.01595E-06
 -1       730 5.90170E-03-3.10987E-05-2.61161E-05 1.80425E+07 3.57623E+03 1.01595E-06
 -1       731 4.47061E-03 9.68138E-05-6.78291E-05 1.49451E+04 2.33841E+05 1.27705E-03
 -1       733 4.47061E-03 9.68138E-05-6.78291E-05 1.49451E+04 2.33841E+05 1.27705E-03
 -1       742 5.51967E-03-3.20598E-05 2.72747E-05 1.76251E+07 4.71118E+03 3.46723E-06
 -1       744 5.51967E-03-3.20598E-05 2.72747E-05 1.76251E+07 4.71118E+03 3.46723E-06
 -1       745 4.20608E-03 1.05141E-04 1.07888E-04 1.06410E+04 2.56665E+05 1.25571E-03
 -1       747 4.20608E-03 1.05141E-04 1.07888E-04 1.06410E+04 2.56665E+05 1.25571E-03
 -1       756 5.14583E-03-9.91654E-05 3.17041E-05 1.71514E+07 6.14109E+03 3.72885E-06
 -1       758 5.14583E-03-9.91654E-05 3.17041E-05 1.71514E+07 6.14109E+03 3.72885E-06
 -1       759 3.96251E-03 6.85478E-05 1.51760E-04 1.09824E+04 2.80405E+05 1.29482E-03
 -1       761 3.96251E-03 6.85478E-05 1.51760E-04 1.09824E+04 2.80405E+05 1.29482E-03
 -1       770 4.73703E-03-9.14223E-05-2.91076E-05 1.66105E+07 7.72340E+03 2.24214E-06
 -1       772 4.73703E-03-9.14223E-05-2.91076E-05 1.66105E+07 7.72340E+03 2.24214E-06
 -1       773 3.59355E-03-3.77951E-05 8.85339E-05 9.64169E+03 3.04474E+05 1.29946E-03
 -1       775 3.59355E-03-3.77951E-05 8.85339E-05 9.64169E+03 3.04474E+05 1.29946E-03
 -1       784 4.32176E-03-7.01388E-05-1.89058E-05 1.60093E+07 9.34317E+03 3.12283E-06
 -1       786 4.32176E-03-7.01388E-05-1.89058E-05 1.60093E+07 9.34317E+03 3.12283E-06
 -1       787 3.20962E-03-1.50426E-04 1.93057E-05 8.47417E+03 3.28339E+05 1.32265E-03
 -1       789 3.20962E-03-1.50426E-04 1.93057E-05 8.47417E+03 3.28339E+05 1.32265E-03
 -1       798 3.91068E-03-6.00759E-05-1.14311E-05 1.53374E+07 1.11494E+04-9.69224E-07
 -1       800 3.91068E-03-6.00759E-05-1.14311E-05 1.53374E+07 1.11494E+04-9.69224E-07
 -1       801 3.04684E-03 1.52136E-04 1.02612E-04 7.83874E+03 3.52670E+05 1.36372E-03
 -1       803 3.04684E-03 1.52136E-04 1.02612E-04 7.83874E+03 3.52670E+05 1.36372E-03
 -1       812 3.50072E-03 6.28345E-05 1.92318E-06 1.45997E+07 1.30104E+04 2.25986E-06
 -1       814 3.50072E-03 6.28345E-05 1.92318E-06 1.45997E+07 1.30104E+04 2.25986E-06
 -1       815 2.82424E-03 4.21100E-04 2.11458E-04 6.42396E+03 3.76425E+05 1.31732E-03
 -1       817 2.82424E-03 4.21100E-04 2.11458E-04 6.42396E+03 3.76425E+05 1.31732E-03
 -1       826 3.11037E-03 5.95953E-05-6.53900E-05 1.37894E+07 1.49755E+04-1.74874E-06
 -1       828 3.11037E-03 5.95953E-05-6.53900E-05 1.37894E+07 1.49755E+04-1.74874E-06
 -1       829 2.45240E-03 1.49028E-04 2.20403E-04 5.86948E+03 4.00373E+05 1.26420E-03
 -1       831 2.45240E-03 1.49028E-04 2.20403E-04 5.86948E+03 4.00373E+05 1.26420E-03
 -1       840 2.76241E-03-7.47307E-05 5.82570E-05 1.29091E+07 1.70474E+04-1.62846E-06
 -1       842 2.76241E-03-7.47307E-05 5.82570E-05 1.29091E+07 1.70474E+04-1.62846E-06
 -1       843 2.13102E-03-1.10656E-04 2.97890E-04 4.58891E+03 4.23516E+05 1.32962E-03
 -1       845 2.13102E-03-1.10656E-04 2.97890E-04 4.58891E+03 4.23516E+05 1.32962E-03
 -1       854 2.31983E-03-7.62800E-05 7.79461E-05 1.19546E+07 1.91377E+04-1.27908E-05
 -1       856 2.31983E-03-7.62800E-05 7.79461E-05 1.19546E+07 1.91377E+04-1.27908E-05
 -1       857 1.74546E-03-9.01610E-05 2.85473E-04 3.96723E+03 4.46484E+05 1.45831E-03
 -1       859 1.74546E-03-9.01610E-05 2.85473E-04 3.96723E+03 4.46484E+05 1.45831E-03
 -1       868 1.85320E-03 9.18289E-05 7.21263E-06 1.09271E+07 2.13743E+04-5.25524E-06
 -1       870 1.85320E-03 9.18289E-05 7.21263E-06 1.09271E+07 2.13743E+04-5.25524E-06
 -1       871 1.20701E-03-3.88254E-04-1.69724E-04 2.97430E+03 4.68379E+05 1.45443E-03
 -1       873 1.20701E-03-3.88254E-04-1.69724E-04 2.97430E+03 4.68379E+05 1.45443E-03
 -1       882 1.49548E-03 7.17824E-05 1.03819E-04 9.82433E+06 2.35504E+04-2.76017E-06
 -1       884 1.49548E-03 7.17824E-05 1.03819E-04 9.82433E+06 2.35504E+04-2.76017E-06
 -1       885 9.20556E-04-3.72225E-04-4.51563E-04 2.24062E+03 4.89702E+05 1.24097E-03
 -1       887 9.20556E-04-3.72225E-04-4.51563E-04 2.24062E+03 4.89702E+05 1.24097E-03
 -1       896 1.09082E-03-1.49091E-04-3.34803E-05 8.64658E+06 2.59031E+04-7.75297E-06
 -1       898 1.09082E-03-1.49091E-04-3.34803E-05 8.64658E+06 2.59031E+04-7.75297E-06
 -1       899 9.30971E-04 2.98697E-04-9.07465E-05 1.69329E+03 5.09591E+05 1.09341E-03
 -1       901 9.30971E-04 2.98697E-04-9.07465E-05 1.69329E+03 5.09591E+05 1.09341E-03
 -1       910 7.85262E-04-7.46833E-05 7.32399E-05 7.39282E+06 2.81085E+04 7.11162E-06
 -1       912 7.85262E-04-7.46833E-05 7.32399E-05 7.39282E+06 2.81085E+04 7.11162E-06
 -1       913 7.27410E-04 3.67417E-04 3.10216E-05 7.64205E+02 5.28425E+05 1.07268E-03
 -1       915 7.27410E-04 3.67417E-04 3.10216E-05 7.64205E+02 5.28425E+05 1.07268E-03
 -1       924 4.21214E-04-2.17820E-04 7.67418E-05 6.06283E+06 3.05208E+04-2.59389E-06
 -1       926 4.21214E-04-2.17820E-04 7.67418E-05 6.06283E+06 3.05208E+04-2.59389E-06
 -1       927 4.77352E-04 3.28203E-04-1.60499E-04 9.11860E+02 5.45397E+05 9.07551E-04
 -1       929 4.77352E-04 3.28203E-04-1.60499E-04 9.11860E+02 5.45397E+05 9.07551E-04
 -1       938 8.94448E-05-5.31075E-04-1.49950E-04 4.65806E+06 3.26846E+04-1.08799E-06
 -1       940 8.94448E-05-5.31075E-04-1.49950E-04 4.65806E+06 3.26846E+04-1.08799E-06
 -1       941 3.16669E-04 5.67610E-04-1.34380E-04-3.45353E+02 5.60490E+05 5.94816E-04
 -1       943 3.16669E-04 5.67610E-04-1.34380E-04-3.45353E+02 5.60490E+05 5.94816E-04
 -1       952 4.97349E-05-3.33911E-04-1.64670E-05 3.16891E+06 3.49529E+04-7.42280E-06
 -1       954 4.97349E-05-3.33911E-04-1.64670E-05 3.16891E+06 3.49529E+04-7.42280E-06
 -1       955 9.44596E-05 1.29663E-04-1.28544E-04 8.02847E+02 5.73230E+05 3.35486E-04
 -1       957 9.44596E-05 1.29663E-04-1.28544E-04 8.02847E+02 5.73230E+05 3.35486E-04
 -1       966-1.48757E-05 5.87108E-05 1.32863E-04 1.63176E+06 3.69554E+04-3.88965E-06
 -1       968-1.48757E-05 5.87108E-05 1.32863E-04 1.63176E+06 3.69554E+04-3.88965E-06
 -1       969 1.22882E-04 2.90263E-04 6.75068E-05-1.01506E+03 5.82176E+05 1.34044E-04
 -1       971 1.22882E-04 2.90263E-04 6.75068E-05-1.01506E+03 5.82176E+05 1.34044E-04
 -1       980-5.13248E+08-4.27793E+07-8.98416E+04 1.54403E+07 9.56533E+04-1.78501E+05
 -1       982-5.13248E+08-4.27793E+07-8.98416E+04 1.54403E+07 9.56533E+04-1.78501E+05
 -1       983 5.66041E+05 1.02297E+05-1.85210E+03 5.99536E+05 3.40497E+04-2.03652E+03
 -1       985 5.66041E+05 1.02297E+05-1.85210E+03 5.99536E+05 3.40497E+04-2.03652E+03
 -1       986 7.53183E+08 1.30532E+07 7.89647E+04 1.12349E+07-2.04019E+04 9.95661E+04
 -1       988 7.53183E+08 1.30532E+07 7.89647E+04 1.12349E+07-2.04019E+04 9.95661E+04
 -1       989 7.17212E+08-7.54050E+06 4.18337E+05 6.18745E+06 3.48218E+03-7.84389E+03
 -1       991 7.17212E+08-7.54050E+06 4.18337E+05 6.18745E+06 3.48218E+03-7.84389E+03
 -1       992 6.81641E+08 3.92665E+06 2.86638E+05 1.05131E+07 4.39628E+03 4.74952E+04
 -1       994 6.81641E+08 3.92665E+06 2.86638E+05 1.05131E+07 4.39628E+03 4.74952E+04
 -1       995 6.44817E+08-1.92765E+06 2.45584E+05 7.89156E+06-1.03849E+01 1.99128E+04
 -1       997 6.44817E+08-1.92765E+06 2.45584E+05 7.89156E+06-1.03849E+01 1.99128E+04
 -1       998 6.09211E+08 9.28734E+05 3.24052E+05 9.15569E+06 4.27266E+03 3.29472E+04
 -1      1000 6.09211E+08 9.28734E+05 3.24052E+05 9.15569E+06 4.27266E+03 3.29472E+04
 -1      1001 5.73003E+08-4.61861E+05 1.88628E+05 8.56890E+06 5.98836E+02 2.67912E+04
 -1      1003 5.73003E+08-4.61861E+05 1.88628E+05 8.56890E+06 5.98836E+02 2.67912E+04
 -1      1004 5.37439E+08 2.49105E+05 2.94330E+05 8.69850E+06 2.79825E+03 2.92040E+04
 -1      1006 5.37439E+08 2.49105E+05 2.94330E+05 8.69850E+06 2.79825E+03 2.92040E+04
 -1      1007 5.01892E+08-1.50864E+05 1.66719E+05 8.58469E+06 2.05455E+03 2.80877E+04
 -1      1009 5.01892E+08-1.50864E+05 1.66719E+05 8.58469E+06 2.05455E+03 2.80877E+04
 -1      1010 4.66829E+08 9.98007E+04 2.49675E+05 8.48354E+06 2.86861E+03 2.81772E+04
 -1      1012 4.66829E+08 9.98007E+04 2.49675E+05 8.48354E+06 2.86861E+03 2.81772E+04
 -1      1013 4.32109E+08-7.10841E+04 1.50304E+05 8.38639E+06 3.64572E+03 2.79208E+04
 -1      1015 4.32109E+08-7.10841E+04 1.50304E+05 8.38639E+06 3.64572E+03 2.79208E+04
 -1      1016 3.97954E+08 5.04806E+04 2.06017E+05 8.23615E+06 4.22544E+03 2.75643E+04
 -1      1018 3.97954E+08 5.04806E+04 2.06017E+05 8.23615E+06 4.22544E+03 2.75643E+04
 -1      1019 3.64376E+08-3.76345E+04 1.32215E+05 8.08394E+06 5.58209E+03 2.72587E+04
 -1      1021 3.64376E+08-3.76345E+04 1.32215E+05 8.08394E+06 5.58209E+03 2.72587E+04
 -1      1022 3.31533E+08 2.61214E+04 1.66747E+05 7.89304E+06 6.41597E+03 2.67470E+04
 -1      1024 3.31533E+08 2.61214E+04 1.66747E+05 7.89304E+06 6.41597E+03 2.67470E+04
 -1      1025 2.99495E+08-2.02218E+04 1.11979E+05 7.68219E+06 8.00586E+03 2.62302E+04
 -1      1027 2.99495E+08-2.02218E+04 1.11979E+05 7.68219E+06 8.00586E+03 2.62302E+04
 -1      1028 2.68402E+08 1.31907E+04 1.31994E+05 7.44017E+06 9.18348E+03 2.55440E+04
 -1      1030 2.68402E+08 1.31907E+04 1.31994E+05 7.44017E+06 9.18348E+03 2.55440E+04
 -1      1031 2.38350E+08-1.13022E+04 9.06705E+04 7.17041E+06 1.09138E+04 2.47835E+04
 -1      1033 2.38350E+08-1.13022E+04 9.06705E+04 7.17041E+06 1.09138E+04 2.47835E+04
 -1      1034 2.09476E+08 6.49167E+03 1.01348E+05 6.87028E+06 1.23857E+04 2.38729E+04
 -1      1036 2.09476E+08 6.49167E+03 1.01348E+05 6.87028E+06 1.23857E+04 2.38729E+04
 -1      1037 1.81894E+08-6.92011E+03 6.95123E+04 6.53940E+06 1.42270E+04 2.28487E+04
 -1      1039 1.81894E+08-6.92011E+03 6.95123E+04 6.53940E+06 1.42270E+04 2.28487E+04
 -1      1040 1.55739E+08 2.99779E+03 7.45191E+04 6.17710E+06 1.59090E+04 2.16765E+04
 -1      1042 1.55739E+08 2.99779E+03 7.45191E+04 6.17710E+06 1.59090E+04 2.16765E+04
 -1      1043 1.31138E+08-4.80627E+03 4.95698E+04 5.78255E+06 1.78261E+04 2.03713E+04
 -1      1045 1.31138E+08-4.80627E+03 4.95698E+04 5.78255E+06 1.78261E+04 2.03713E+04
 -1      1046 1.08228E+08 1.05922E+03 5.14485E+04 5.35546E+06 1.96208E+04 1.89129E+04
 -1      1048 1.08228E+08 1.05922E+03 5.14485E+04 5.35546E+06 1.96208E+04 1.89129E+04
 -1      1049 8.71395E+07-3.76108E+03 3.17275E+04 4.89513E+06 2.15481E+04 1.73210E+04
 -1      1051 8.71395E+07-3.76108E+03 3.17275E+04 4.89513E+06 2.15481E+04 1.73210E+04
 -1      1052 6.80132E+07-2.26729E+02 3.22738E+04 4.40160E+06 2.33359E+04 1.55587E+04
 -1      1054 6.80132E+07-2.26729E+02 3.22738E+04 4.40160E+06 2.33359E+04 1.55587E+04
 -1      1055 5.09851E+07-3.00211E+03 1.67249E+04 3.87383E+06 2.51563E+04 1.37062E+04
 -1      1057 5.09851E+07-3.00211E+03 1.67249E+04 3.87383E+06 2.51563E+04 1.37062E+04
 -1      1058 3.61953E+07-1.67088E+03 1.72806E+04 3.31310E+06 2.67726E+04 1.16045E+04
 -1      1060 3.61953E+07-1.67088E+03 1.72806E+04 3.31310E+06 2.67726E+04 1.16045E+04
 -1      1061 2.37833E+07-1.62799E+03 5.19560E+03 2.71671E+06 2.82775E+04 9.61996E+03
 -1      1063 2.37833E+07-1.62799E+03 5.19560E+03 2.71671E+06 2.82775E+04 9.61996E+03
 -1      1064 1.38903E+07-3.87192E+03 6.84457E+03 2.08740E+06 2.94828E+04 7.00782E+03
 -1      1066 1.38903E+07-3.87192E+03 6.84457E+03 2.08740E+06 2.94828E+04 7.00782E+03
 -1      1067 6.65373E+06-1.13446E+03-2.23804E+03 1.42692E+06 3.03160E+04 5.39892E+03
 -1      1069 6.65373E+06-1.13446E+03-2.23804E+03 1.42692E+06 3.03160E+04 5.39892E+03
 -1      1070 2.22630E+06 2.38133E+03 1.19817E+03 7.11322E+05 3.08236E+04 1.43288E+03
 -1      1072 2.22630E+06 2.38133E+03 1.19817E+03 7.11322E+05 3.08236E+04 1.43288E+03
 -1      1073 5.13248E+08 4.27793E+07 8.98416E+04 1.54403E+07 9.56533E+04 1.78501E+05
 -1      1075 5.13248E+08 4.27793E+07 8.98416E+04 1.54403E+07 9.56533E+04 1.78501E+05
 -1      1076 5.33056E-03 3.18572E-06 9.08542E-04-1.61680E+06 7.44039E+04 1.35112E-03
 -1      1078 5.33056E-03 3.18572E-06 9.08542E-04-1.61680E+06 7.44039E+04 1.35112E-03
 -1      1079 4.06804E-05 7.50615E-07 7.96527E-06-4.19538E+05 6.95087E-07 1.16369E-03
 -1      1081 4.06804E-05 7.50615E-07 7.96527E-06-4.19538E+05 6.95087E-07 1.16369E-03
 -1      1082-5.24748E-03 3.82781E-06-8.91439E-04-1.61680E+06-7.44039E+04 1.34376E-03
 -1      1084-5.24748E-03 3.82781E-06-8.91439E-04-1.61680E+06-7.44039E+04 1.34376E-03
 -1      1085-7.89586E-03-5.18206E-06-6.71949E-04-1.76379E+05-2.59087E+05 1.48464E-03
 -1      1087-7.89586E-03-5.18206E-06-6.71949E-04-1.76379E+05-2.59087E+05 1.48464E-03
 -1      1088-1.05253E-02-5.44257E-04 3.53903E-07 1.74377E+07-1.16006E+05 2.02078E-05
 -1      1090-1.05253E-02-5.44257E-04 3.53903E-07 1.74377E+07-1.16006E+05 2.02078E-05
 -1      1099-7.60148E-03 2.78174E-06 2.37632E-05 3.48199E+05-1.12933E+04 1.34995E-03
 -1      1101-7.60148E-03 2.78174E-06 2.37632E-05 3.48199E+05-1.12933E+04 1.34995E-03
 -1      1102-1.00525E-02 1.92571E-04 3.09199E-07 2.19787E+07 1.77634E+04-1.65813E-05
 -1      1104-1.00525E-02 1.92571E-04 3.09199E-07 2.19787E+07 1.77634E+04-1.65813E-05
 -1      1113-7.20001E-03 3.01985E-06 3.59518E-05-2.82081E+05-7.13868E+04 1.31989E-03
 -1      1115-7.20001E-03 3.01985E-06 3.59518E-05-2.82081E+05-7.13868E+04 1.31989E-03
 -1      1116-9.54893E-03-8.75071E-06 1.42306E-06 1.82461E+07-3.95582E+03 1.02060E-05
 -1      1118-9.54893E-03-8.75071E-06 1.42306E-06 1.82461E+07-3.95582E+03 1.02060E-05
 -1      1127-6.86475E-03 8.09626E-06 1.39041E-05 2.44952E+05-8.50447E+04 1.36069E-03
 -1      1129-6.86475E-03 8.09626E-06 1.39041E-05 2.44952E+05-8.50447E+04 1.36069E-03
 -1      1130-9.19043E-03-2.57976E-05-2.84985E-06 2.03130E+07-4.87867E+03-5.75719E-06
 -1      1132-9.19043E-03-2.57976E-05-2.84985E-06 2.03130E+07-4.87867E+03-5.75719E-06
 -1      1141-6.58438E-03-6.24600E-05-6.21004E-06-1.32431E+05-7.62841E+04 1.35645E-03
 -1      1143-6.58438E-03-6.24600E-05-6.21004E-06-1.32431E+05-7.62841E+04 1.35645E-03
 -1      1144-8.75670E-03 4.95464E-06 9.58145E-06 1.92763E+07 8.08378E+03 4.56049E-06
 -1      1146-8.75670E-03 4.95464E-06 9.58145E-06 1.92763E+07 8.08378E+03 4.56049E-06
 -1      1155-6.27537E-03-9.75113E-05-1.43381E-05 1.11708E+05-1.19602E+05 1.36836E-03
 -1      1157-6.27537E-03-9.75113E-05-1.43381E-05 1.11708E+05-1.19602E+05 1.36836E-03
 -1      1158-8.33707E-03-6.66827E-06-4.37349E-06 1.95491E+07-4.73452E+03-2.90555E-06
 -1      1160-8.33707E-03-6.66827E-06-4.37349E-06 1.95491E+07-4.73452E+03-2.90555E-06
 -1      1169-5.92898E-03 2.12163E-05 3.50278E-05-3.82951E+04-1.17685E+05 1.35821E-03
 -1      1171-5.92898E-03 2.12163E-05 3.50278E-05-3.82951E+04-1.17685E+05 1.35821E-03
 -1      1172-7.92444E-03 2.13608E-05 6.33299E-07 1.93226E+07 4.68098E+03 9.54103E-07
 -1      1174-7.92444E-03 2.13608E-05 6.33299E-07 1.93226E+07 4.68098E+03 9.54103E-07
 -1      1183-5.60271E-03 4.44808E-05 3.88815E-05 4.77607E+04-1.51703E+05 1.35191E-03
 -1      1185-5.60271E-03 4.44808E-05 3.88815E-05 4.77607E+04-1.51703E+05 1.35191E-03
 -1      1186-7.52095E-03-3.49246E-06-4.81866E-06 1.91623E+07-2.27552E+03-1.44149E-06
 -1      1188-7.52095E-03-3.49246E-06-4.81866E-06 1.91623E+07-2.27552E+03-1.44149E-06
 -1      1197-5.29825E-03 4.48883E-05 7.78013E-06-1.85744E+03-1.63578E+05 1.36683E-03
 -1      1199-5.29825E-03 4.48883E-05 7.78013E-06-1.85744E+03-1.63578E+05 1.36683E-03
 -1      1200-7.09956E-03-1.56593E-05 1.16732E-05 1.89706E+07 9.07850E+02 9.54516E-07
 -1      1202-7.09956E-03-1.56593E-05 1.16732E-05 1.89706E+07 9.07850E+02 9.54516E-07
 -1      1211-4.96988E-03 5.37004E-05 1.96519E-05 2.37665E+04-1.90213E+05 1.37546E-03
 -1      1213-4.96988E-03 5.37004E-05 1.96519E-05 2.37665E+04-1.90213E+05 1.37546E-03
 -1      1214-6.67708E-03-1.22879E-05 1.14180E-06 1.87016E+07-2.03708E+03 1.27729E-06
 -1      1216-6.67708E-03-1.22879E-05 1.14180E-06 1.87016E+07-2.03708E+03 1.27729E-06
 -1      1225-4.60634E-03 1.37017E-04 8.92587E-05 8.85765E+03-2.09749E+05 1.32930E-03
 -1      1227-4.60634E-03 1.37017E-04 8.92587E-05 8.85765E+03-2.09749E+05 1.32930E-03
 -1      1228-6.27535E-03-1.07009E-05-2.12770E-05 1.84034E+07-1.98373E+03 5.69890E-07
 -1      1230-6.27535E-03-1.07009E-05-2.12770E-05 1.84034E+07-1.98373E+03 5.69890E-07
 -1      1239-4.32134E-03 1.16022E-04 4.51457E-05 1.49451E+04-2.33841E+05 1.29738E-03
 -1      1241-4.32134E-03 1.16022E-04 4.51457E-05 1.49451E+04-2.33841E+05 1.29738E-03
 -1      1242-5.86905E-03-4.32935E-05-1.64993E-05 1.80425E+07-3.57623E+03-8.92805E-07
 -1      1244-5.86905E-03-4.32935E-05-1.64993E-05 1.80425E+07-3.57623E+03-8.92805E-07
 -1      1253-3.99278E-03 2.00109E-04 7.45852E-05 1.06410E+04-2.56665E+05 1.29421E-03
 -1      1255-3.99278E-03 2.00109E-04 7.45852E-05 1.06410E+04-2.56665E+05 1.29421E-03
 -1      1256-5.45421E-03-5.48456E-05 2.55890E-05 1.76251E+07-4.71118E+03-4.34156E-07
 -1      1258-5.45421E-03-5.48456E-05 2.55890E-05 1.76251E+07-4.71118E+03-4.34156E-07
 -1      1267-3.63720E-03 2.89670E-04 1.72971E-04 1.09824E+04-2.80405E+05 1.28809E-03
 -1      1269-3.63720E-03 2.89670E-04 1.72971E-04 1.09824E+04-2.80405E+05 1.28809E-03
 -1      1270-5.07246E-03-4.98388E-05 1.02408E-05 1.71514E+07-6.14109E+03-2.22257E-06
 -1      1272-5.07246E-03-4.98388E-05 1.02408E-05 1.71514E+07-6.14109E+03-2.22257E-06
 -1      1281-3.41953E-03 5.74653E-05 1.13874E-04 9.64169E+03-3.04474E+05 1.30642E-03
 -1      1283-3.41953E-03 5.74653E-05 1.13874E-04 9.64169E+03-3.04474E+05 1.30642E-03
 -1      1284-4.68975E-03-7.46381E-05-5.68349E-05 1.66105E+07-7.72340E+03-1.35638E-06
 -1      1286-4.68975E-03-7.46381E-05-5.68349E-05 1.66105E+07-7.72340E+03-1.35638E-06
 -1      1295-3.11692E-03 8.65594E-05 1.41400E-04 8.47417E+03-3.28339E+05 1.32260E-03
 -1      1297-3.11692E-03 8.65594E-05 1.41400E-04 8.47417E+03-3.28339E+05 1.32260E-03
 -1      1298-4.27949E-03-1.88863E-05-1.89608E-05 1.60093E+07-9.34317E+03-2.49383E-06
 -1      1300-4.27949E-03-1.88863E-05-1.89608E-05 1.60093E+07-9.34317E+03-2.49383E-06
 -1      1309-2.78125E-03 1.70644E-04 1.63724E-04 7.83874E+03-3.52670E+05 1.29433E-03
 -1      1311-2.78125E-03 1.70644E-04 1.63724E-04 7.83874E+03-3.52670E+05 1.29433E-03
 -1      1312-3.86867E-03 6.00703E-07 1.40397E-05 1.53374E+07-1.11494E+04 2.47557E-06
 -1      1314-3.86867E-03 6.00703E-07 1.40397E-05 1.53374E+07-1.11494E+04 2.47557E-06
 -1      1323-2.50720E-03 1.43989E-04 1.11684E-04 6.42396E+03-3.76425E+05 1.25142E-03
 -1      1325-2.50720E-03 1.43989E-04 1.11684E-04 6.42396E+03-3.76425E+05 1.25142E-03
 -1      1326-3.45324E-03-2.97828E-05-2.66656E-05 1.45997E+07-1.30104E+04-5.27220E-06
 -1      1328-3.45324E-03-2.97828E-05-2.66656E-05 1.45997E+07-1.30104E+04-5.27220E-06
 -1      1337-2.13557E-03 4.00432E-04 2.06292E-04 5.86948E+03-4.00373E+05 1.29162E-03
 -1      1339-2.13557E-03 4.00432E-04 2.06292E-04 5.86948E+03-4.00373E+05 1.29162E-03
 -1      1340-3.11429E-03-6.88955E-05-5.88335E-05 1.37894E+07-1.49755E+04-2.85663E-06
 -1      1342-3.11429E-03-6.88955E-05-5.88335E-05 1.37894E+07-1.49755E+04-2.85663E-06
 -1      1351-1.67107E-03 6.79807E-04 3.62171E-04 4.58891E+03-4.23516E+05 1.41936E-03
 -1      1353-1.67107E-03 6.79807E-04 3.62171E-04 4.58891E+03-4.23516E+05 1.41936E-03
 -1      1354-2.61162E-03 1.23840E-04 8.09422E-05 1.29091E+07-1.70474E+04-1.10789E-05
 -1      1356-2.61162E-03 1.23840E-04 8.09422E-05 1.29091E+07-1.70474E+04-1.10789E-05
 -1      1365-1.30911E-03 6.50383E-04 5.23854E-04 3.96723E+03-4.46484E+05 1.48577E-03
 -1      1367-1.30911E-03 6.50383E-04 5.23854E-04 3.96723E+03-4.46484E+05 1.48577E-03
 -1      1368-2.07963E-03 2.69001E-04 1.59105E-04 1.19546E+07-1.91377E+04-8.95781E-06
 -1      1370-2.07963E-03 2.69001E-04 1.59105E-04 1.19546E+07-1.91377E+04-8.95781E-06
 -1      1379-1.04009E-03 5.36378E-04 6.51975E-04 2.97430E+03-4.68379E+05 1.28693E-03
 -1      1381-1.04009E-03 5.36378E-04 6.51975E-04 2.97430E+03-4.68379E+05 1.28693E-03
 -1      1382-1.79330E-03 7.24336E-05 5.29923E-05 1.09271E+07-2.13743E+04-4.57691E-07
 -1      1384-1.79330E-03 7.24336E-05 5.29923E-05 1.09271E+07-2.13743E+04-4.57691E-07
 -1      1393-8.36343E-04 4.58251E-04 3.43239E-04 2.24062E+03-4.89702E+05 1.00735E-03
 -1      1395-8.36343E-04 4.58251E-04 3.43239E-04 2.24062E+03-4.89702E+05 1.00735E-03
 -1      1396-1.40513E-03 2.68698E-04-1.12448E-05 9.82433E+06-2.35504E+04-1.53897E-05
 -1      1398-1.40513E-03 2.68698E-04-1.12448E-05 9.82433E+06-2.35504E+04-1.53897E-05
 -1      1407-7.80210E-04 2.06084E-04-8.71559E-05 1.69329E+03-5.09591E+05 1.07416E-03
 -1      1409-7.80210E-04 2.06084E-04-8.71559E-05 1.69329E+03-5.09591E+05 1.07416E-03
 -1      1410-1.05496E-03 2.81271E-04 1.07801E-05 8.64658E+06-2.59031E+04 4.04554E-06
 -1      1412-1.05496E-03 2.81271E-04 1.07801E-05 8.64658E+06-2.59031E+04 4.04554E-06
 -1      1421-6.62663E-04-3.70117E-04-1.04768E-04 7.64205E+02-5.28425E+05 1.06487E-03
 -1      1423-6.62663E-04-3.70117E-04-1.04768E-04 7.64205E+02-5.28425E+05 1.06487E-03
 -1      1424-7.10016E-04 1.43502E-05 3.89806E-05 7.39282E+06-2.81085E+04 2.05574E-06
 -1      1426-7.10016E-04 1.43502E-05 3.89806E-05 7.39282E+06-2.81085E+04 2.05574E-06
 -1      1435-3.80525E-04-1.20600E-04 1.33958E-04 9.11860E+02-5.45397E+05 7.12575E-04
 -1      1437-3.80525E-04-1.20600E-04 1.33958E-04 9.11860E+02-5.45397E+05 7.12575E-04
 -1      1438-3.78168E-04 1.46703E-04 1.28881E-04 6.06283E+06-3.05208E+04-6.89643E-06
 -1      1440-3.78168E-04 1.46703E-04 1.28881E-04 6.06283E+06-3.05208E+04-6.89643E-06
 -1      1449-2.75475E-04 9.33847E-06 1.51172E-04-3.45353E+02-5.60490E+05 5.38941E-04
 -1      1451-2.75475E-04 9.33847E-06 1.51172E-04-3.45353E+02-5.60490E+05 5.38941E-04
 -1      1452-3.50939E-04 1.89197E-04-1.45280E-04 4.65806E+06-3.26846E+04-3.01785E-06
 -1      1454-3.50939E-04 1.89197E-04-1.45280E-04 4.65806E+06-3.26846E+04-3.01785E-06
 -1      1463-1.08438E-04-2.09931E-04 1.85822E-04 8.02847E+02-5.73230E+05 3.69020E-04
 -1      1465-1.08438E-04-2.09931E-04 1.85822E-04 8.02847E+02-5.73230E+05 3.69020E-04
 -1      1466-1.18645E-04 3.22882E-04-2.91020E-05 3.16891E+06-3.49529E+04-3.96282E-06
 -1      1468-1.18645E-04 3.22882E-04-2.91020E-05 3.16891E+06-3.49529E+04-3.96282E-06
 -1      1477 3.09841E-04 3.19710E-04 6.00429E-04-1.01506E+03-5.82176E+05 1.47827E-04
 -1      1479 3.09841E-04 3.19710E-04 6.00429E-04-1.01506E+03-5.82176E+05 1.47827E-04
 -1      1480 2.36719E-04 3.37540E-04 2.08402E-04 1.63176E+06-3.69554E+04-7.96594E-07
 -1      1482 2.36719E-04 3.37540E-04 2.08402E-04 1.63176E+06-3.69554E+04-7.96594E-07
 -1      1491-2.22503E-04-3.36633E-04 3.29793E-05-8.21962E+03 3.63985E+05 3.36223E-05
 -1      1493-2.22503E-04-3.36633E-04 3.29793E-05-8.21962E+03 3.63985E+05 3.36223E-05
 -1      1494-4.42630E-04-7.24089E-04-1.05825E-04-8.96798E+03-7.36027E-05 5.33040E-05
 -1      1496-4.42630E-04-7.24089E-04-1.05825E-04-8.96798E+03-7.36027E-05 5.33040E-05
 -1      1497 1.67607E-04 3.70962E-04 4.47209E-04-8.21962E+03-3.63985E+05 9.47683E-05
 -1      1499 1.67607E-04 3.70962E-04 4.47209E-04-8.21962E+03-3.63985E+05 9.47683E-05
 -1      1500 7.53183E+08 1.30532E+07 7.89647E+04 1.12349E+07 2.04019E+04-9.95661E+04
 -1      1502 7.53183E+08 1.30532E+07 7.89647E+04 1.12349E+07 2.04019E+04-9.95661E+04
 -1      1503 7.17212E+08-7.54050E+06 4.18337E+05 6.18745E+06-3.48218E+03 7.84389E+03
 -1      1505 7.17212E+08-7.54050E+06 4.18337E+05 6.18745E+06-3.48218E+03 7.84389E+03
 -1      1506 6.81641E+08 3.92665E+06 2.86638E+05 1.05131E+07-4.39628E+03-4.74952E+04
 -1      1508 6.81641E+08 3.92665E+06 2.86638E+05 1.05131E+07-4.39628E+03-4.74952E+04
 -1      1509 6.44817E+08-1.92765E+06 2.45584E+05 7.89156E+06 1.03849E+01-1.99128E+04
 -1      1511 6.44817E+08-1.92765E+06 2.45584E+05 7.89156E+06 1.03849E+01-1.99128E+04
 -1      1512 6.09211E+08 9.28734E+05 3.24052E+05 9.15569E+06-4.27266E+03-3.29472E+04
 -1      1514 6.09211E+08 9.28734E+05 3.24052E+05 9.15569E+06-4.27266E+03-3.29472E+04
 -1      1515 5.73003E+08-4.61861E+05 1.88628E+05 8.56890E+06-5.98836E+02-2.67912E+04
 -1      1517 5.73003E+08-4.61861E+05 1.88628E+05 8.56890E+06-5.98836E+02-2.67912E+04
 -1      1518 5.37439E+08 2.49105E+05 2.94330E+05 8.69850E+06-2.79825E+03-2.92040E+04
 -1      1520 5.37439E+08 2.49105E+05 2.94330E+05 8.69850E+06-2.79825E+03-2.92040E+04
 -1      1521 5.01892E+08-1.50864E+05 1.66719E+05 8.58469E+06-2.05455E+03-2.80877E+04
 -1      1523 5.01892E+08-1.50864E+05 1.66719E+05 8.58469E+06-2.05455E+03-2.80877E+04
 -1      1524 4.66829E+08 9.98007E+04 2.49675E+05 8.48354E+06-2.86861E+03-2.81772E+04
 -1      1526 4.66829E+08 9.98007E+04 2.49675E+05 8.48354E+06-2.86861E+03-2.81772E+04
 -1      1527 4.32109E+08-7.10841E+04 1.50304E+05 8.38639E+06-3.64572E+03-2.79208E+04
 -1      1529 4.32109E+08-7.10841E+04 1.50304E+05 8.38639E+06-3.64572E+03-2.79208E+04
 -1      1530 3.97954E+08 5.04806E+04 2.06017E+05 8.23615E+06-4.22544E+03-2.75643E+04
 -1      1532 3.97954E+08 5.04806E+04 2.06017E+05 8.23615E+06-4.22544E+03-2.75643E+04
 -1      1533 3.64376E+08-3.76345E+04 1.32215E+05 8.08394E+06-5.58209E+03-2.72587E+04
 -1      1535 3.64376E+08-3.76345E+04 1.32215E+05 8.08394E+06-5.58209E+03-2.72587E+04
 -1      1536 3.31533E+08 2.61214E+04 1.66747E+05 7.89304E+06-6.41597E+03-2.67470E+04
 -1      1538 3.31533E+08 2.61214E+04 1.66747E+05 7.89304E+06-6.41597E+03-2.67470E+04
 -1      1539 2.99495E+08-2.02218E+04 1.11979E+05 7.68219E+06-8.00586E+03-2.62302E+04
 -1      1541 2.99495E+08-2.02218E+04 1.11979E+05 7.68219E+06-8.00586E+03-2.62302E+04
 -1      1542 2.68402E+08 1.31907E+04 1.31994E+05 7.44017E+06-9.18348E+03-2.55440E+04
 -1      1544 2.68402E+08 1.31907E+04 1.31994E+05 7.44017E+06-9.18348E+03-2.55440E+04
 -1      1545 2.38350E+08-1.13022E+04 9.06705E+04 7.17041E+06-1.09138E+04-2.47835E+04
 -1      1547 2.38350E+08-1.13022E+04 9.06705E+04 7.17041E+06-1.09138E+04-2.47835E+04
 -1      1548 2.09476E+08 6.49167E+03 1.01348E+05 6.87028E+06-1.23857E+04-2.38729E+04
 -1      1550 2.09476E+08 6.49167E+03 1.01348E+05 6.87028E+06-1.23857E+04-2.38729E+04
 -1      1551 1.81894E+08-6.92011E+03 6.95123E+04 6.53940E+06-1.42270E+04-2.28487E+04
 -1      1553 1.81894E+08-6.92011E+03 6.95123E+04 6.53940E+06-1.42270E+04-2.28487E+04
 -1      1554 1.55739E+08 2.99779E+03 7.45191E+04 6.17710E+06-1.59090E+04-2.16765E+04
 -1      1556 1.55739E+08 2.99779E+03 7.45191E+04 6.17710E+06-1.59090E+04-2.16765E+04
 -1      1557 1.31138E+08-4.80627E+03 4.95698E+04 5.78255E+06-1.78261E+04-2.03713E+04
 -1      1559 1.31138E+08-4.80627E+03 4.95698E+04 5.78255E+06-1.78261E+04-2.03713E+04
 -1      1560 1.08228E+08 1.05922E+03 5.14485E+04 5.35546E+06-1.96208E+04-1.89129E+04
 -1      1562 1.08228E+08 1.05922E+03 5.14485E+04 5.35546E+06-1.96208E+04-1.89129E+04
 -1      1563 8.71395E+07-3.76108E+03 3.17275E+04 4.89513E+06-2.15481E+04-1.73210E+04
 -1      1565 8.71395E+07-3.76108E+03 3.17275E+04 4.89513E+06-2.15481E+04-1.73210E+04
 -1      1566 6.80132E+07-2.26729E+02 3.22738E+04 4.40160E+06-2.33359E+04-1.55587E+04
 -1      1568 6.80132E+07-2.26729E+02 3.22738E+04 4.40160E+06-2.33359E+04-1.55587E+04
 -1      1569 5.09851E+07-3.00211E+03 1.67249E+04 3.87383E+06-2.51563E+04-1.37062E+04
 -1      1571 5.09851E+07-3.00211E+03 1.67249E+04 3.87383E+06-2.51563E+04-1.37062E+04
 -1      1572 3.61953E+07-1.67088E+03 1.72806E+04 3.31310E+06-2.67726E+04-1.16045E+04
 -1      1574 3.61953E+07-1.67088E+03 1.72806E+04 3.31310E+06-2.67726E+04-1.16045E+04
 -1      1575 2.37833E+07-1.62799E+03 5.19560E+03 2.71671E+06-2.82775E+04-9.61996E+03
 -1      1577 2.37833E+07-1.62799E+03 5.19560E+03 2.71671E+06-2.82775E+04-9.61996E+03
 -1      1578 1.38903E+07-3.87192E+03 6.84457E+03 2.08740E+06-2.94828E+04-7.00782E+03
 -1      1580 1.38903E+07-3.87192E+03 6.84457E+03 2.08740E+06-2.94828E+04-7.00782E+03
 -1      1581 6.65373E+06-1.13446E+03-2.23804E+03 1.42692E+06-3.03160E+04-5.39892E+03
 -1      1583 6.65373E+06-1.13446E+03-2.23804E+03 1.42692E+06-3.03160E+04-5.39892E+03
 -1      1584 2.22630E+06 2.38133E+03 1.19817E+03 7.11322E+05-3.08236E+04-1.43288E+03
 -1      1586 2.22630E+06 2.38133E+03 1.19817E+03 7.11322E+05-3.08236E+04-1.43288E+03
 -1      1587 5.66041E+05 1.02297E+05-1.85210E+03 5.99536E+05-3.40497E+04 2.03652E+03
 -1      1589 5.66041E+05 1.02297E+05-1.85210E+03 5.99536E+05-3.40497E+04 2.03652E+03
 -1      1590 5.13248E+08 4.27793E+07 8.98416E+04 1.54403E+07-9.56533E+04-1.78501E+05
 -1      1592 5.13248E+08 4.27793E+07 8.98416E+04 1.54403E+07-9.56533E+04-1.78501E+05
 -1      1593-5.66041E+05-1.02297E+05 1.85210E+03 5.99536E+05-3.40497E+04-2.03652E+03
 -1      1595-5.66041E+05-1.02297E+05 1.85210E+03 5.99536E+05-3.40497E+04-2.03652E+03
 -1      1596-7.53183E+08-1.30532E+07-7.89647E+04 1.12349E+07 2.04019E+04 9.95661E+04
 -1      1598-7.53183E+08-1.30532E+07-7.89647E+04 1.12349E+07 2.04019E+04 9.95661E+04
 -1      1599-7.17212E+08 7.54050E+06-4.18337E+05 6.18745E+06-3.48218E+03-7.84389E+03
 -1      1601-7.17212E+08 7.54050E+06-4.18337E+05 6.18745E+06-3.48218E+03-7.84389E+03
 -1      1602-6.81641E+08-3.92665E+06-2.86638E+05 1.05131E+07-4.39628E+03 4.74952E+04
 -1      1604-6.81641E+08-3.92665E+06-2.86638E+05 1.05131E+07-4.39628E+03 4.74952E+04
 -1      1605-6.44817E+08 1.92765E+06-2.45584E+05 7.89156E+06 1.03849E+01 1.99128E+04
 -1      1607-6.44817E+08 1.92765E+06-2.45584E+05 7.89156E+06 1.03849E+01 1.99128E+04
 -1      1608-6.09211E+08-9.28734E+05-3.24052E+05 9.15569E+06-4.27266E+03 3.29472E+04
 -1      1610-6.09211E+08-9.28734E+05-3.24052E+05 9.15569E+06-4.27266E+03 3.29472E+04
 -1      1611-5.73003E+08 4.61861E+05-1.88628E+05 8.56890E+06-5.98836E+02 2.67912E+04
 -1      1613-5.73003E+08 4.61861E+05-1.88628E+05 8.56890E+06-5.98836E+02 2.67912E+04
 -1      1614-5.37439E+08-2.49105E+05-2.94330E+05 8.69850E+06-2.79825E+03 2.92040E+04
 -1      1616-5.37439E+08-2.49105E+05-2.94330E+05 8.69850E+06-2.79825E+03 2.92040E+04
 -1      1617-5.01892E+08 1.50864E+05-1.66719E+05 8.58469E+06-2.05455E+03 2.80877E+04
 -1      1619-5.01892E+08 1.50864E+05-1.66719E+05 8.58469E+06-2.05455E+03 2.80877E+04
 -1      1620-4.66829E+08-9.98007E+04-2.49675E+05 8.48354E+06-2.86861E+03 2.81772E+04
 -1      1622-4.66829E+08-9.98007E+04-2.49675E+05 8.48354E+06-2.86861E+03 2.81772E+04
 -1      1623-4.32109E+08 7.10841E+04-1.50304E+05 8.38639E+06-3.64572E+03 2.79208E+04
 -1      1625-4.32109E+08 7.10841E+04-1.50304E+05 8.38639E+06-3.64572E+03 2.79208E+04
 -1      1626-3.97954E+08-5.04806E+04-2.06017E+05 8.23615E+06-4.22544E+03 2.75643E+04
 -1      1628-3.97954E+08-5.04806E+04-2.06017E+05 8.23615E+06-4.22544E+03 2.75643E+04
 -1      1629-3.64376E+08 3.76345E+04-1.32215E+05 8.08394E+06-5.58209E+03 2.72587E+04
 -1      1631-3.64376E+08 3.76345E+04-1.32215E+05 8.08394E+06-5.58209E+03 2.72587E+04
 -1      1632-3.31533E+08-2.61214E+04-1.66747E+05 7.89304E+06-6.41597E+03 2.67470E+04
 -1      1634-3.31533E+08-2.61214E+04-1.66747E+05 7.89304E+06-6.41597E+03 2.67470E+04
 -1      1635-2.99495E+08 2.02218E+04-1.11979E+05 7.68219E+06-8.00586E+03 2.62302E+04
 -1      1637-2.99495E+08 2.02218E+04-1.11979E+05 7.68219E+06-8.00586E+03 2.62302E+04
 -1      1638-2.68402E+08-1.31907E+04-1.31994E+05 7.44017E+06-9.18348E+03 2.55440E+04
 -1      1640-2.68402E+08-1.31907E+04-1.31994E+05 7.44017E+06-9.18348E+03 2.55440E+04
 -1      1641-2.38350E+08 1.13022E+04-9.06705E+04 7.17041E+06-1.09138E+04 2.47835E+04
 -1      1643-2.38350E+08 1.13022E+04-9.06705E+04 7.17041E+06-1.09138E+04 2.47835E+04
 -1      1644-2.09476E+08-6.49167E+03-1.01348E+05 6.87028E+06-1.23857E+04 2.38729E+04
 -1      1646-2.09476E+08-6.49167E+03-1.01348E+05 6.87028E+06-1.23857E+04 2.38729E+04
 -1      1647-1.81894E+08 6.92011E+03-6.95123E+04 6.53940E+06-1.42270E+04 2.28487E+04
 -1      1649-1.81894E+08 6.92011E+03-6.95123E+04 6.53940E+06-1.42270E+04 2.28487E+04
 -1      1650-1.55739E+08-2.99779E+03-7.45191E+04 6.17710E+06-1.59090E+04 2.16765E+04
 -1      1652-1.55739E+08-2.99779E+03-7.45191E+04 6.17710E+06-1.59090E+04 2.16765E+04
 -1      1653-1.31138E+08 4.80627E+03-4.95698E+04 5.78255E+06-1.78261E+04 2.03713E+04
 -1      1655-1.31138E+08 4.80627E+03-4.95698E+04 5.78255E+06-1.78261E+04 2.03713E+04
 -1      1656-1.08228E+08-1.05922E+03-5.14485E+04 5.35546E+06-1.96208E+04 1.89129E+04
 -1      1658-1.08228E+08-1.05922E+03-5.14485E+04 5.35546E+06-1.96208E+04 1.89129E+04
 -1      1659-8.71395E+07 3.76108E+03-3.17275E+04 4.89513E+06-2.15481E+04 1.73210E+04
 -1      1661-8.71395E+07 3.76108E+03-3.17275E+04 4.89513E+06-2.15481E+04 1.73210E+04
 -1      1662-6.80132E+07 2.26729E+02-3.22738E+04 4.40160E+06-2.33359E+04 1.55587E+04
 -1      1664-6.80132E+07 2.26729E+02-3.22738E+04 4.40160E+06-2.33359E+04 1.55587E+04
 -1      1665-5.09851E+07 3.00211E+03-1.67249E+04 3.87383E+06-2.51563E+04 1.37062E+04
 -1      1667-5.09851E+07 3.00211E+03-1.67249E+04 3.87383E+06-2.51563E+04 1.37062E+04
 -1      1668-3.61953E+07 1.67088E+03-1.72806E+04 3.31310E+06-2.67726E+04 1.16045E+04
 -1      1670-3.61953E+07 1.67088E+03-1.72806E+04 3.31310E+06-2.67726E+04 1.16045E+04
 -1      1671-2.37833E+07 1.62799E+03-5.19560E+03 2.71671E+06-2.82775E+04 9.61996E+03
 -1      1673-2.37833E+07 1.62799E+03-5.19560E+03 2.71671E+06-2.82775E+04 9.61996E+03
 -1      1674-1.38903E+07 3.87192E+03-6.84457E+03 2.08740E+06-2.94828E+04 7.00782E+03
 -1      1676-1.38903E+07 3.87192E+03-6.84457E+03 2.08740E+06-2.94828E+04 7.00782E+03
 -1      1677-6.65373E+06 1.13446E+03 2.23804E+03 1.42692E+06-3.03160E+04 5.39892E+03
 -1      1679-6.65373E+06 1.13446E+03 2.23804E+03 1.42692E+06-3.03160E+04 5.39892E+03
 -1      1680-2.22630E+06-2.38133E+03-1.19817E+03 7.11322E+05-3.08236E+04 1.43288E+03
 -1      1682-2.22630E+06-2.38133E+03-1.19817E+03 7.11322E+05-3.08236E+04 1.43288E+03
 -1      1683-5.13248E+08-4.27793E+07-8.98416E+04 1.54403E+07-9.56533E+04 1.78501E+05
 -1      1685-5.13248E+08-4.27793E+07-8.98416E+04 1.54403E+07-9.56533E+04 1.78501E+05
 -1      1686-5.03277E+08-1.08471E+07 6.69650E+03 1.43363E+07 4.78021E+04-4.35984E+04
 -1      1688-5.03277E+08-1.08471E+07 6.69650E+03 1.43363E+07 4.78021E+04-4.35984E+04
 -1      1689-4.78595E+08 6.08659E+06 2.06502E+04 1.40831E+07-7.14059E+03 2.39105E+04
 -1      1691-4.78595E+08 6.08659E+06 2.06502E+04 1.40831E+07-7.14059E+03 2.39105E+04
 -1      1692-4.53664E+08-2.89866E+06-2.03670E+04 1.43796E+07 4.17605E+03-1.26120E+04
 -1      1694-4.53664E+08-2.89866E+06-2.03670E+04 1.43796E+07 4.17605E+03-1.26120E+04
 -1      1695-4.30337E+08 1.17618E+06 3.76120E+03 1.41023E+07 2.43414E+03 5.64276E+03
 -1      1697-4.30337E+08 1.17618E+06 3.76120E+03 1.41023E+07 2.43414E+03 5.64276E+03
 -1      1698-4.05791E+08-3.93825E+05 6.38249E+02 1.42160E+07-1.90556E+03-3.17071E+03
 -1      1700-4.05791E+08-3.93825E+05 6.38249E+02 1.42160E+07-1.90556E+03-3.17071E+03
 -1      1701-3.82121E+08 7.01514E+04-8.96217E+03 1.40590E+07 2.66668E+03 3.15220E+02
 -1      1703-3.82121E+08 7.01514E+04-8.96217E+03 1.40590E+07 2.66668E+03 3.15220E+02
 -1      1704-3.58174E+08 9.11026E+03 5.81710E+03 1.40106E+07-9.41368E+02-9.80973E+02
 -1      1706-3.58174E+08 9.11026E+03 5.81710E+03 1.40106E+07-9.41368E+02-9.80973E+02
 -1      1707-3.34606E+08-4.67863E+04-8.36179E+03 1.38735E+07 2.16504E+03-9.36008E+02
 -1      1709-3.34606E+08-4.67863E+04-8.36179E+03 1.38735E+07 2.16504E+03-9.36008E+02
 -1      1710-3.11172E+08 9.95799E+03 3.04708E+03 1.37271E+07 9.80381E+02-8.13794E+02
 -1      1712-3.11172E+08 9.95799E+03 3.04708E+03 1.37271E+07 9.80381E+02-8.13794E+02
 -1      1713-2.88068E+08-3.35813E+04-4.28177E+03 1.35440E+07 2.84140E+03-1.17322E+03
 -1      1715-2.88068E+08-3.35813E+04-4.28177E+03 1.35440E+07 2.84140E+03-1.17322E+03
 -1      1716-2.65281E+08-1.59397E+04-4.17852E+02 1.33198E+07 3.10459E+03-1.01989E+03
 -1      1718-2.65281E+08-1.59397E+04-4.17852E+02 1.33198E+07 3.10459E+03-1.01989E+03
 -1      1719-2.42919E+08-2.83718E+04-9.65904E+02 1.30632E+07 4.57916E+03-1.24868E+03
 -1      1721-2.42919E+08-2.83718E+04-9.65904E+02 1.30632E+07 4.57916E+03-1.24868E+03
 -1      1722-2.21019E+08-3.05279E+04-2.57075E+03 1.27591E+07 5.56358E+03-1.21054E+03
 -1      1724-2.21019E+08-3.05279E+04-2.57075E+03 1.27591E+07 5.56358E+03-1.21054E+03
 -1      1725-1.99676E+08-3.33377E+04 9.33205E+02 1.24168E+07 7.07348E+03-1.32042E+03
 -1      1727-1.99676E+08-3.33377E+04 9.33205E+02 1.24168E+07 7.07348E+03-1.32042E+03
 -1      1728-1.78948E+08-4.02386E+04-3.47686E+03 1.20253E+07 8.45344E+03-1.33841E+03
 -1      1730-1.78948E+08-4.02386E+04-3.47686E+03 1.20253E+07 8.45344E+03-1.33841E+03
 -1      1731-1.58925E+08-4.18785E+04 1.78674E+03 1.15898E+07 1.01285E+04-1.38767E+03
 -1      1733-1.58925E+08-4.18785E+04 1.78674E+03 1.15898E+07 1.01285E+04-1.38767E+03
 -1      1734-1.39679E+08-4.92357E+04-3.60361E+03 1.11038E+07 1.17675E+04-1.41408E+03
 -1      1736-1.39679E+08-4.92357E+04-3.60361E+03 1.11038E+07 1.17675E+04-1.41408E+03
 -1      1737-1.21301E+08-5.14519E+04 2.03857E+03 1.05696E+07 1.36187E+04-1.43163E+03
 -1      1739-1.21301E+08-5.14519E+04 2.03857E+03 1.05696E+07 1.36187E+04-1.43163E+03
 -1      1740-1.03870E+08-5.85703E+04-3.33921E+03 9.98327E+06 1.54422E+04-1.44419E+03
 -1      1742-1.03870E+08-5.85703E+04-3.33921E+03 9.98327E+06 1.54422E+04-1.44419E+03
 -1      1743-8.74777E+07-6.14126E+04 1.99684E+03 9.34581E+06 1.74367E+04-1.43757E+03
 -1      1745-8.74777E+07-6.14126E+04 1.99684E+03 9.34581E+06 1.74367E+04-1.43757E+03
 -1      1746-7.22100E+07-6.83097E+04-2.92842E+03 8.65505E+06 1.93793E+04-1.42483E+03
 -1      1748-7.22100E+07-6.83097E+04-2.92842E+03 8.65505E+06 1.93793E+04-1.42483E+03
 -1      1749-5.81590E+07-7.16233E+04 1.83877E+03 7.91111E+06 2.14612E+04-1.39246E+03
 -1      1751-5.81590E+07-7.16233E+04 1.83877E+03 7.91111E+06 2.14612E+04-1.39246E+03
 -1      1752-4.54144E+07-7.82463E+04-2.50557E+03 7.11297E+06 2.34432E+04-1.34036E+03
 -1      1754-4.54144E+07-7.82463E+04-2.50557E+03 7.11297E+06 2.34432E+04-1.34036E+03
 -1      1755-3.40692E+07-8.22488E+04 1.65219E+03 6.26020E+06 2.55297E+04-1.28282E+03
 -1      1757-3.40692E+07-8.22488E+04 1.65219E+03 6.26020E+06 2.55297E+04-1.28282E+03
 -1      1758-2.42158E+07-8.77734E+04-2.13738E+03 5.35296E+06 2.74405E+04-1.15207E+03
 -1      1760-2.42158E+07-8.77734E+04-2.13738E+03 5.35296E+06 2.74405E+04-1.15207E+03
 -1      1761-1.59477E+07-9.39935E+04 1.48201E+03 4.38977E+06 2.93991E+04-1.10668E+03
 -1      1763-1.59477E+07-9.39935E+04 1.48201E+03 4.38977E+06 2.93991E+04-1.10668E+03
 -1      1764-9.35694E+06-9.61715E+04-1.88420E+03 3.37273E+06 3.10837E+04-7.48890E+02
 -1      1766-9.35694E+06-9.61715E+04-1.88420E+03 3.37273E+06 3.10837E+04-7.48890E+02
 -1      1767-4.54419E+06-1.05452E+05 1.42830E+03 2.29792E+06 3.26344E+04-9.45456E+02
 -1      1769-4.54419E+06-1.05452E+05 1.42830E+03 2.29792E+06 3.26344E+04-9.45456E+02
 -1      1770-1.58100E+06-1.12479E+05-1.96642E+03 1.17154E+06 3.38895E+04 2.42674E+02
 -1      1772-1.58100E+06-1.12479E+05-1.96642E+03 1.17154E+06 3.38895E+04 2.42674E+02
 -1      1773 5.03277E+08 1.08471E+07-6.69650E+03 1.43363E+07 4.78021E+04 4.35984E+04
 -1      1775 5.03277E+08 1.08471E+07-6.69650E+03 1.43363E+07 4.78021E+04 4.35984E+04
 -1      1776 4.78595E+08-6.08659E+06-2.06502E+04 1.40831E+07-7.14059E+03-2.39105E+04
 -1      1778 4.78595E+08-6.08659E+06-2.06502E+04 1.40831E+07-7.14059E+03-2.39105E+04
 -1      1779 4.53664E+08 2.89866E+06 2.03670E+04 1.43796E+07 4.17605E+03 1.26120E+04
 -1      1781 4.53664E+08 2.89866E+06 2.03670E+04 1.43796E+07 4.17605E+03 1.26120E+04
 -1      1782 4.30337E+08-1.17618E+06-3.76120E+03 1.41023E+07 2.43414E+03-5.64276E+03
 -1      1784 4.30337E+08-1.17618E+06-3.76120E+03 1.41023E+07 2.43414E+03-5.64276E+03
 -1      1785 4.05791E+08 3.93825E+05-6.38249E+02 1.42160E+07-1.90556E+03 3.17071E+03
 -1      1787 4.05791E+08 3.93825E+05-6.38249E+02 1.42160E+07-1.90556E+03 3.17071E+03
 -1      1788 3.82121E+08-7.01514E+04 8.96217E+03 1.40590E+07 2.66668E+03-3.15220E+02
 -1      1790 3.82121E+08-7.01514E+04 8.96217E+03 1.40590E+07 2.66668E+03-3.15220E+02
 -1      1791 3.58174E+08-9.11026E+03-5.81710E+03 1.40106E+07-9.41368E+02 9.80973E+02
 -1      1793 3.58174E+08-9.11026E+03-5.81710E+03 1.40106E+07-9.41368E+02 9.80973E+02
 -1      1794 3.34606E+08 4.67863E+04 8.36179E+03 1.38735E+07 2.16504E+03 9.36008E+02
 -1      1796 3.34606E+08 4.67863E+04 8.36179E+03 1.38735E+07 2.16504E+03 9.36008E+02
 -1      1797 3.11172E+08-9.95799E+03-3.04708E+03 1.37271E+07 9.80381E+02 8.13794E+02
 -1      1799 3.11172E+08-9.95799E+03-3.04708E+03 1.37271E+07 9.80381E+02 8.13794E+02
 -1      1800 2.88068E+08 3.35813E+04 4.28177E+03 1.35440E+07 2.84140E+03 1.17322E+03
 -1      1802 2.88068E+08 3.35813E+04 4.28177E+03 1.35440E+07 2.84140E+03 1.17322E+03
 -1      1803 2.65281E+08 1.59397E+04 4.17852E+02 1.33198E+07 3.10459E+03 1.01989E+03
 -1      1805 2.65281E+08 1.59397E+04 4.17852E+02 1.33198E+07 3.10459E+03 1.01989E+03
 -1      1806 2.42919E+08 2.83718E+04 9.65904E+02 1.30632E+07 4.57916E+03 1.24868E+03
 -1      1808 2.42919E+08 2.83718E+04 9.65904E+02 1.30632E+07 4.57916E+03 1.24868E+03
 -1      1809 2.21019E+08 3.05279E+04 2.57075E+03 1.27591E+07 5.56358E+03 1.21054E+03
 -1      1811 2.21019E+08 3.05279E+04 2.57075E+03 1.27591E+07 5.56358E+03 1.21054E+03
 -1      1812 1.99676E+08 3.33377E+04-9.33205E+02 1.24168E+07 7.07348E+03 1.32042E+03
 -1      1814 1.99676E+08 3.33377E+04-9.33205E+02 1.24168E+07 7.07348E+03 1.32042E+03
 -1      1815 1.78948E+08 4.02386E+04 3.47686E+03 1.20253E+07 8.45344E+03 1.33841E+03
 -1      1817 1.78948E+08 4.02386E+04 3.47686E+03 1.20253E+07 8.45344E+03 1.33841E+03
 -1      1818 1.58925E+08 4.18785E+04-1.78674E+03 1.15898E+07 1.01285E+04 1.38767E+03
 -1      1820 1.58925E+08 4.18785E+04-1.78674E+03 1.15898E+07 1.01285E+04 1.38767E+03
 -1      1821 1.39679E+08 4.92357E+04 3.60361E+03 1.11038E+07 1.17675E+04 1.41408E+03
 -1      1823 1.39679E+08 4.92357E+04 3.60361E+03 1.11038E+07 1.17675E+04 1.41408E+03
 -1      1824 1.21301E+08 5.14519E+04-2.03857E+03 1.05696E+07 1.36187E+04 1.43163E+03
 -1      1826 1.21301E+08 5.14519E+04-2.03857E+03 1.05696E+07 1.36187E+04 1.43163E+03
 -1      1827 1.03870E+08 5.85703E+04 3.33921E+03 9.98327E+06 1.54422E+04 1.44419E+03
 -1      1829 1.03870E+08 5.85703E+04 3.33921E+03 9.98327E+06 1.54422E+04 1.44419E+03
 -1      1830 8.74777E+07 6.14126E+04-1.99684E+03 9.34581E+06 1.74367E+04 1.43757E+03
 -1      1832 8.74777E+07 6.14126E+04-1.99684E+03 9.34581E+06 1.74367E+04 1.43757E+03
 -1      1833 7.22100E+07 6.83097E+04 2.92842E+03 8.65505E+06 1.93793E+04 1.42483E+03
 -1      1835 7.22100E+07 6.83097E+04 2.92842E+03 8.65505E+06 1.93793E+04 1.42483E+03
 -1      1836 5.81590E+07 7.16233E+04-1.83877E+03 7.91111E+06 2.14612E+04 1.39246E+03
 -1      1838 5.81590E+07 7.16233E+04-1.83877E+03 7.91111E+06 2.14612E+04 1.39246E+03
 -1      1839 4.54144E+07 7.82463E+04 2.50557E+03 7.11297E+06 2.34432E+04 1.34036E+03
 -1      1841 4.54144E+07 7.82463E+04 2.50557E+03 7.11297E+06 2.34432E+04 1.34036E+03
 -1      1842 3.40692E+07 8.22488E+04-1.65219E+03 6.26020E+06 2.55297E+04 1.28282E+03
 -1      1844 3.40692E+07 8.22488E+04-1.65219E+03 6.26020E+06 2.55297E+04 1.28282E+03
 -1      1845 2.42158E+07 8.77734E+04 2.13738E+03 5.35296E+06 2.74405E+04 1.15207E+03
 -1      1847 2.42158E+07 8.77734E+04 2.13738E+03 5.35296E+06 2.74405E+04 1.15207E+03
 -1      1848 1.59477E+07 9.39935E+04-1.48201E+03 4.38977E+06 2.93991E+04 1.10668E+03
 -1      1850 1.59477E+07 9.39935E+04-1.48201E+03 4.38977E+06 2.93991E+04 1.10668E+03
 -1      1851 9.35694E+06 9.61715E+04 1.88420E+03 3.37273E+06 3.10837E+04 7.48890E+02
 -1      1853 9.35694E+06 9.61715E+04 1.88420E+03 3.37273E+06 3.10837E+04 7.48890E+02
 -1      1854 4.54419E+06 1.05452E+05-1.42830E+03 2.29792E+06 3.26344E+04 9.45456E+02
 -1      1856 4.54419E+06 1.05452E+05-1.42830E+03 2.29792E+06 3.26344E+04 9.45456E+02
 -1      1857 1.58100E+06 1.12479E+05 1.96642E+03 1.17154E+06 3.38895E+04-2.42674E+02
 -1      1859 1.58100E+06 1.12479E+05 1.96642E+03 1.17154E+06 3.38895E+04-2.42674E+02
 -1      1860 5.30984E-03-3.35441E-06 4.82904E-04-5.95662E+04 3.52540E+04 1.44403E-03
 -1      1862 5.30984E-03-3.35441E-06 4.82904E-04-5.95662E+04 3.52540E+04 1.44403E-03
 -1      1863 5.15341E-03-1.32361E-06 1.39086E-05 2.88309E+05 1.24070E+04 1.48303E-03
 -1      1865 5.15341E-03-1.32361E-06 1.39086E-05 2.88309E+05 1.24070E+04 1.48303E-03
 -1      1866 4.87666E-03-8.49326E-06-1.86033E-05-1.53326E+05 4.67973E+04 1.45830E-03
 -1      1868 4.87666E-03-8.49326E-06-1.86033E-05-1.53326E+05 4.67973E+04 1.45830E-03
 -1      1869 4.64570E-03 1.99596E-06-5.25023E-06 1.97022E+05 4.97493E+04 1.46949E-03
 -1      1871 4.64570E-03 1.99596E-06-5.25023E-06 1.97022E+05 4.97493E+04 1.46949E-03
 -1      1872 4.44721E-03 1.24744E-05 9.59189E-06-2.94561E+04 6.19956E+04 1.45285E-03
 -1      1874 4.44721E-03 1.24744E-05 9.59189E-06-2.94561E+04 6.19956E+04 1.45285E-03
 -1      1875 4.23929E-03 5.67901E-06 3.45722E-05 9.67849E+04 7.83276E+04 1.45583E-03
 -1      1877 4.23929E-03 5.67901E-06 3.45722E-05 9.67849E+04 7.83276E+04 1.45583E-03
 -1      1878 4.02298E-03-1.27174E-05 2.44166E-05 3.50586E+04 8.60994E+04 1.46527E-03
 -1      1880 4.02298E-03-1.27174E-05 2.44166E-05 3.50586E+04 8.60994E+04 1.46527E-03
 -1      1881 3.81976E-03 2.76073E-05 2.20410E-05 5.91014E+04 1.03796E+05 1.46677E-03
 -1      1883 3.81976E-03 2.76073E-05 2.20410E-05 5.91014E+04 1.03796E+05 1.46677E-03
 -1      1884 3.64234E-03 1.14908E-04 6.30273E-05 5.25794E+04 1.13892E+05 1.46540E-03
 -1      1886 3.64234E-03 1.14908E-04 6.30273E-05 5.25794E+04 1.13892E+05 1.46540E-03
 -1      1887 3.41439E-03 3.22297E-05-4.04333E-06 4.98796E+04 1.30234E+05 1.48599E-03
 -1      1889 3.41439E-03 3.22297E-05-4.04333E-06 4.98796E+04 1.30234E+05 1.48599E-03
 -1      1890 3.19147E-03-4.65504E-05-1.21441E-04 5.36785E+04 1.42998E+05 1.46926E-03
 -1      1892 3.19147E-03-4.65504E-05-1.21441E-04 5.36785E+04 1.42998E+05 1.46926E-03
 -1      1893 3.07806E-03 2.25240E-04 4.20766E-06 4.78874E+04 1.58421E+05 1.39116E-03
 -1      1895 3.07806E-03 2.25240E-04 4.20766E-06 4.78874E+04 1.58421E+05 1.39116E-03
 -1      1896 2.95858E-03 4.21295E-04 1.94338E-04 5.08615E+04 1.72784E+05 1.36486E-03
 -1      1898 2.95858E-03 4.21295E-04 1.94338E-04 5.08615E+04 1.72784E+05 1.36486E-03
 -1      1899 2.74008E-03 2.47294E-04 1.82555E-04 4.63510E+04 1.87888E+05 1.39184E-03
 -1      1901 2.74008E-03 2.47294E-04 1.82555E-04 4.63510E+04 1.87888E+05 1.39184E-03
 -1      1902 2.46031E-03 8.84142E-05 1.27015E-04 4.72682E+04 2.02938E+05 1.41103E-03
 -1      1904 2.46031E-03 8.84142E-05 1.27015E-04 4.72682E+04 2.02938E+05 1.41103E-03
 -1      1905 2.21026E-03 2.27592E-05 1.19359E-04 4.38717E+04 2.17900E+05 1.44403E-03
 -1      1907 2.21026E-03 2.27592E-05 1.19359E-04 4.38717E+04 2.17900E+05 1.44403E-03
 -1      1908 2.05947E-03 6.13251E-05 1.26699E-04 4.32797E+04 2.33010E+05 1.48001E-03
 -1      1910 2.05947E-03 6.13251E-05 1.26699E-04 4.32797E+04 2.33010E+05 1.48001E-03
 -1      1911 1.94419E-03 3.38574E-04 1.94698E-04 4.03558E+04 2.47678E+05 1.43155E-03
 -1      1913 1.94419E-03 3.38574E-04 1.94698E-04 4.03558E+04 2.47678E+05 1.43155E-03
 -1      1914 1.77385E-03 4.01079E-04 2.62524E-04 3.87586E+04 2.62362E+05 1.39764E-03
 -1      1916 1.77385E-03 4.01079E-04 2.62524E-04 3.87586E+04 2.62362E+05 1.39764E-03
 -1      1917 1.53129E-03 2.27822E-04 3.16135E-04 3.58930E+04 2.76390E+05 1.47744E-03
 -1      1919 1.53129E-03 2.27822E-04 3.16135E-04 3.58930E+04 2.76390E+05 1.47744E-03
 -1      1920 1.13196E-03-4.27893E-05 2.02010E-04 3.35522E+04 2.90179E+05 1.59242E-03
 -1      1922 1.13196E-03-4.27893E-05 2.02010E-04 3.35522E+04 2.90179E+05 1.59242E-03
 -1      1923 6.78203E-04-6.34242E-04-2.27728E-04 3.05627E+04 3.03094E+05 1.55948E-03
 -1      1925 6.78203E-04-6.34242E-04-2.27728E-04 3.05627E+04 3.03094E+05 1.55948E-03
 -1      1926 5.65496E-04-5.41597E-04-3.50212E-04 2.75391E+04 3.15462E+05 1.34585E-03
 -1      1928 5.65496E-04-5.41597E-04-3.50212E-04 2.75391E+04 3.15462E+05 1.34585E-03
 -1      1929 5.66187E-04 3.98632E-06-8.66054E-05 2.44491E+04 3.26684E+05 1.21666E-03
 -1      1931 5.66187E-04 3.98632E-06-8.66054E-05 2.44491E+04 3.26684E+05 1.21666E-03
 -1      1932 4.36657E-04 8.55579E-05 3.96686E-06 2.05889E+04 3.36992E+05 1.12890E-03
 -1      1934 4.36657E-04 8.55579E-05 3.96686E-06 2.05889E+04 3.36992E+05 1.12890E-03
 -1      1935 3.32988E-04 1.50803E-04-6.34590E-05 1.76822E+04 3.45830E+05 8.96121E-04
 -1      1937 3.32988E-04 1.50803E-04-6.34590E-05 1.76822E+04 3.45830E+05 8.96121E-04
 -1      1938 1.72758E-04 1.90394E-04-8.21195E-05 1.25202E+04 3.53272E+05 6.11654E-04
 -1      1940 1.72758E-04 1.90394E-04-8.21195E-05 1.25202E+04 3.53272E+05 6.11654E-04
 -1      1941-6.55193E-06-2.17920E-04-9.81234E-05 1.05129E+04 3.58931E+05 3.69945E-04
 -1      1943-6.55193E-06-2.17920E-04-9.81234E-05 1.05129E+04 3.58931E+05 3.69945E-04
 -1      1944-1.48294E-04-4.56165E-04-5.10895E-05 2.81605E+03 3.62489E+05 1.44261E-04
 -1      1946-1.48294E-04-4.56165E-04-5.10895E-05 2.81605E+03 3.62489E+05 1.44261E-04
 -1      1947 4.18186E-05-5.83398E-07 6.02328E-06 5.72465E+04 4.47159E-07 1.39823E-03
 -1      1949 4.18186E-05-5.83398E-07 6.02328E-06 5.72465E+04 4.47159E-07 1.39823E-03
 -1      1950 4.52645E-05 7.29353E-06 8.19061E-06 2.28419E+05-2.88873E-06 1.61992E-03
 -1      1952 4.52645E-05 7.29353E-06 8.19061E-06 2.28419E+05-2.88873E-06 1.61992E-03
 -1      1953 4.54642E-05 9.05796E-06 9.01517E-06-2.45713E+04-1.95993E-06 1.59362E-03
 -1      1955 4.54642E-05 9.05796E-06 9.01517E-06-2.45713E+04-1.95993E-06 1.59362E-03
 -1      1956 4.20685E-05 5.12482E-06 6.58622E-06 1.49091E+05-1.89316E-06 1.57290E-03
 -1      1958 4.20685E-05 5.12482E-06 6.58622E-06 1.49091E+05-1.89316E-06 1.57290E-03
 -1      1959 4.28937E-05-1.24608E-06 1.12394E-05 7.35188E+04-4.90174E-06 1.56557E-03
 -1      1961 4.28937E-05-1.24608E-06 1.12394E-05 7.35188E+04-4.90174E-06 1.56557E-03
 -1      1962 5.19548E-05 2.99069E-05 3.80202E-05 8.18620E+04-1.17169E-05 1.56719E-03
 -1      1964 5.19548E-05 2.99069E-05 3.80202E-05 8.18620E+04-1.17169E-05 1.56719E-03
 -1      1965 5.34936E-05 3.48783E-05 4.33386E-05 1.08412E+05-1.35274E-05 1.56645E-03
 -1      1967 5.34936E-05 3.48783E-05 4.33386E-05 1.08412E+05-1.35274E-05 1.56645E-03
 -1      1968 6.42568E-05 6.59425E-05 3.89781E-05 7.04420E+04 3.46340E-06 1.57125E-03
 -1      1970 6.42568E-05 6.59425E-05 3.89781E-05 7.04420E+04 3.46340E-06 1.57125E-03
 -1      1971 8.09816E-05 1.26785E-04 5.02021E-05 1.07016E+05 9.99285E-06 1.58492E-03
 -1      1973 8.09816E-05 1.26785E-04 5.02021E-05 1.07016E+05 9.99285E-06 1.58492E-03
 -1      1974 6.87466E-05 7.22559E-05 1.66754E-05 7.59927E+04-5.17759E-06 1.58234E-03
 -1      1976 6.87466E-05 7.22559E-05 1.66754E-05 7.59927E+04-5.17759E-06 1.58234E-03
 -1      1977 9.03055E-05 2.59765E-05-2.31461E-05 9.84994E+04-2.20808E-05 1.55713E-03
 -1      1979 9.03055E-05 2.59765E-05-2.31461E-05 9.84994E+04-2.20808E-05 1.55713E-03
 -1      1980 2.37298E-04 4.01751E-04 1.30425E-04 8.08297E+04-1.84226E-05 1.51189E-03
 -1      1982 2.37298E-04 4.01751E-04 1.30425E-04 8.08297E+04-1.84226E-05 1.51189E-03
 -1      1983 2.98445E-04 6.09380E-04 2.56225E-04 9.10820E+04-1.07230E-05 1.47686E-03
 -1      1985 2.98445E-04 6.09380E-04 2.56225E-04 9.10820E+04-1.07230E-05 1.47686E-03
 -1      1986 2.36445E-04 3.93344E-04 2.19831E-04 8.17197E+04-6.26127E-06 1.48537E-03
 -1      1988 2.36445E-04 3.93344E-04 2.19831E-04 8.17197E+04-6.26127E-06 1.48537E-03
 -1      1989 1.73315E-04 2.37263E-04 1.90126E-04 8.48947E+04 3.34299E-06 1.52270E-03
 -1      1991 1.73315E-04 2.37263E-04 1.90126E-04 8.48947E+04 3.34299E-06 1.52270E-03
 -1      1992 1.49460E-04 2.00295E-04 2.07326E-04 7.92693E+04-2.44846E-05 1.56599E-03
 -1      1994 1.49460E-04 2.00295E-04 2.07326E-04 7.92693E+04-2.44846E-05 1.56599E-03
 -1      1995 1.98774E-04 2.33592E-04 2.30146E-04 7.87207E+04-7.14266E-05 1.57897E-03
 -1      1997 1.98774E-04 2.33592E-04 2.30146E-04 7.87207E+04-7.14266E-05 1.57897E-03
 -1      1998 2.63072E-04 4.27638E-04 2.68660E-04 7.42876E+04-1.21075E-04 1.52146E-03
 -1      2000 2.63072E-04 4.27638E-04 2.68660E-04 7.42876E+04-1.21075E-04 1.52146E-03
 -1      2001 2.83148E-04 5.29920E-04 3.17519E-04 7.16476E+04-1.59260E-04 1.51658E-03
 -1      2003 2.83148E-04 5.29920E-04 3.17519E-04 7.16476E+04-1.59260E-04 1.51658E-03
 -1      2004 2.84802E-04 5.35971E-04 4.13749E-04 6.71970E+04-1.88521E-04 1.62554E-03
 -1      2006 2.84802E-04 5.35971E-04 4.13749E-04 6.71970E+04-1.88521E-04 1.62554E-03
 -1      2007 1.34939E-04 2.61557E-04 3.48339E-04 6.31371E+04-1.75639E-04 1.72213E-03
 -1      2009 1.34939E-04 2.61557E-04 3.48339E-04 6.31371E+04-1.75639E-04 1.72213E-03
 -1      2010-1.14581E-04-3.87196E-04-1.03369E-05 5.81511E+04-1.12860E-04 1.62320E-03
 -1      2012-1.14581E-04-3.87196E-04-1.03369E-05 5.81511E+04-1.12860E-04 1.62320E-03
 -1      2013-1.39868E-04-5.76577E-04-2.27741E-04 5.28376E+04-6.33964E-05 1.41130E-03
 -1      2015-1.39868E-04-5.76577E-04-2.27741E-04 5.28376E+04-6.33964E-05 1.41130E-03
 -1      2016-7.08019E-07-9.94390E-05-9.76085E-05 4.72049E+04-2.43182E-05 1.34018E-03
 -1      2018-7.08019E-07-9.94390E-05-9.76085E-05 4.72049E+04-2.43182E-05 1.34018E-03
 -1      2019 5.13960E-05 1.68131E-04 4.27485E-05 4.04137E+04-5.71834E-06 1.21814E-03
 -1      2021 5.13960E-05 1.68131E-04 4.27485E-05 4.04137E+04-5.71834E-06 1.21814E-03
 -1      2022 4.02954E-05 4.31152E-05 2.57062E-05 3.44526E+04 6.10933E-05 9.20965E-04
 -1      2024 4.02954E-05 4.31152E-05 2.57062E-05 3.44526E+04 6.10933E-05 9.20965E-04
 -1      2025 8.10510E-05 2.13930E-04 8.80396E-05 2.53858E+04 7.37516E-05 6.51953E-04
 -1      2027 8.10510E-05 2.13930E-04 8.80396E-05 2.53858E+04 7.37516E-05 6.51953E-04
 -1      2028-5.77302E-05-3.08938E-04-3.94770E-05 2.02230E+04 6.09445E-05 4.04246E-04
 -1      2030-5.77302E-05-3.08938E-04-3.94770E-05 2.02230E+04 6.09445E-05 4.04246E-04
 -1      2031-3.26486E-04-8.46670E-04-1.64280E-04 6.64715E+03 1.25269E-05 1.56383E-04
 -1      2033-3.26486E-04-8.46670E-04-1.64280E-04 6.64715E+03 1.25269E-05 1.56383E-04
 -1      2034-5.22779E-03-2.40995E-06-4.74123E-04-5.95662E+04-3.52540E+04 1.44116E-03
 -1      2036-5.22779E-03-2.40995E-06-4.74123E-04-5.95662E+04-3.52540E+04 1.44116E-03
 -1      2037-5.06638E-03 9.61908E-06 7.80396E-07 2.88309E+05-1.24070E+04 1.48527E-03
 -1      2039-5.06638E-03 9.61908E-06 7.80396E-07 2.88309E+05-1.24070E+04 1.48527E-03
 -1      2040-4.79322E-03 9.81178E-06 3.18416E-05-1.53326E+05-4.67973E+04 1.45621E-03
 -1      2042-4.79322E-03 9.81178E-06 3.18416E-05-1.53326E+05-4.67973E+04 1.45621E-03
 -1      2043-4.56437E-03 1.08996E-05 1.30550E-05 1.97022E+05-4.97493E+04 1.46558E-03
 -1      2045-4.56437E-03 1.08996E-05 1.30550E-05 1.97022E+05-4.97493E+04 1.46558E-03
 -1      2046-4.36819E-03-2.46267E-05 2.03282E-06-2.94561E+04-6.19956E+04 1.46145E-03
 -1      2048-4.36819E-03-2.46267E-05 2.03282E-06-2.94561E+04-6.19956E+04 1.46145E-03
 -1      2049-4.15670E-03-2.21899E-05 1.23804E-05 9.67849E+04-7.83276E+04 1.47016E-03
 -1      2051-4.15670E-03-2.21899E-05 1.23804E-05 9.67849E+04-7.83276E+04 1.47016E-03
 -1      2052-3.93212E-03 3.29420E-05 3.95700E-05 3.50586E+04-8.60994E+04 1.46264E-03
 -1      2054-3.93212E-03 3.29420E-05 3.95700E-05 3.50586E+04-8.60994E+04 1.46264E-03
 -1      2055-3.71554E-03 4.87533E-05 3.11286E-05 5.91014E+04-1.03796E+05 1.46011E-03
 -1      2057-3.71554E-03 4.87533E-05 3.11286E-05 5.91014E+04-1.03796E+05 1.46011E-03
 -1      2058-3.49692E-03 8.93661E-05 2.56036E-05 5.25794E+04-1.13892E+05 1.47554E-03
 -1      2060-3.49692E-03 8.93661E-05 2.56036E-05 5.25794E+04-1.13892E+05 1.47554E-03
 -1      2061-3.27474E-03 9.58820E-05 3.88575E-05 4.98796E+04-1.30234E+05 1.47663E-03
 -1      2063-3.27474E-03 9.58820E-05 3.88575E-05 4.98796E+04-1.30234E+05 1.47663E-03
 -1      2064-3.02178E-03 1.41505E-04 7.39800E-05 5.36785E+04-1.42998E+05 1.44153E-03
 -1      2066-3.02178E-03 1.41505E-04 7.39800E-05 5.36785E+04-1.42998E+05 1.44153E-03
 -1      2067-2.76613E-03 2.82928E-04 1.14876E-04 4.78874E+04-1.58421E+05 1.40794E-03
 -1      2069-2.76613E-03 2.82928E-04 1.14876E-04 4.78874E+04-1.58421E+05 1.40794E-03
 -1      2070-2.55348E-03 3.40710E-04 1.53124E-04 5.08615E+04-1.72784E+05 1.38696E-03
 -1      2072-2.55348E-03 3.40710E-04 1.53124E-04 5.08615E+04-1.72784E+05 1.38696E-03
 -1      2073-2.34098E-03 3.25159E-04 1.99641E-04 4.63510E+04-1.87888E+05 1.38499E-03
 -1      2075-2.34098E-03 3.25159E-04 1.99641E-04 4.63510E+04-1.87888E+05 1.38499E-03
 -1      2076-2.19998E-03 1.58684E-04 1.64315E-04 4.72682E+04-2.02938E+05 1.41461E-03
 -1      2078-2.19998E-03 1.58684E-04 1.64315E-04 4.72682E+04-2.02938E+05 1.41461E-03
 -1      2079-2.01445E-03 1.45602E-04 1.68320E-04 4.38717E+04-2.17900E+05 1.44459E-03
 -1      2081-2.01445E-03 1.45602E-04 1.68320E-04 4.38717E+04-2.17900E+05 1.44459E-03
 -1      2082-1.72790E-03 3.33657E-04 2.36616E-04 4.32797E+04-2.33010E+05 1.42798E-03
 -1      2084-1.72790E-03 3.33657E-04 2.36616E-04 4.32797E+04-2.33010E+05 1.42798E-03
 -1      2085-1.52260E-03 3.71608E-04 2.35533E-04 4.03558E+04-2.47678E+05 1.37428E-03
 -1      2087-1.52260E-03 3.71608E-04 2.35533E-04 4.03558E+04-2.47678E+05 1.37428E-03
 -1      2088-1.33229E-03 4.03572E-04 2.68343E-04 3.87586E+04-2.62362E+05 1.39686E-03
 -1      2090-1.33229E-03 4.03572E-04 2.68343E-04 3.87586E+04-2.62362E+05 1.39686E-03
 -1      2091-1.01651E-03 5.92724E-04 4.27645E-04 3.58930E+04-2.76390E+05 1.52259E-03
 -1      2093-1.01651E-03 5.92724E-04 4.27645E-04 3.58930E+04-2.76390E+05 1.52259E-03
 -1      2094-7.78840E-04 5.84457E-04 5.50993E-04 3.35522E+04-2.90179E+05 1.60175E-03
 -1      2096-7.78840E-04 5.84457E-04 5.50993E-04 3.35522E+04-2.90179E+05 1.60175E-03
 -1      2097-7.09321E-04 3.21108E-04 4.58517E-04 3.05627E+04-3.03094E+05 1.43440E-03
 -1      2099-7.09321E-04 3.21108E-04 4.58517E-04 3.05627E+04-3.03094E+05 1.43440E-03
 -1      2100-6.63258E-04 8.03261E-06 6.83089E-05 2.75391E+04-3.15462E+05 1.18961E-03
 -1      2102-6.63258E-04 8.03261E-06 6.83089E-05 2.75391E+04-3.15462E+05 1.18961E-03
 -1      2103-4.91515E-04 1.48965E-04-9.99543E-05 2.44491E+04-3.26684E+05 1.20730E-03
 -1      2105-4.91515E-04 1.48965E-04-9.99543E-05 2.44491E+04-3.26684E+05 1.20730E-03
 -1      2106-3.52888E-04 8.12237E-05 1.90862E-06 2.05889E+04-3.36992E+05 1.15802E-03
 -1      2108-3.52888E-04 8.12237E-05 1.90862E-06 2.05889E+04-3.36992E+05 1.15802E-03
 -1      2109-2.44279E-04-3.88603E-06 7.58946E-05 1.76822E+04-3.45830E+05 8.34907E-04
 -1      2111-2.44279E-04-3.88603E-06 7.58946E-05 1.76822E+04-3.45830E+05 8.34907E-04
 -1      2112-7.11096E-05 3.12010E-04 1.78555E-04 1.25202E+04-3.53272E+05 6.07178E-04
 -1      2114-7.11096E-05 3.12010E-04 1.78555E-04 1.25202E+04-3.53272E+05 6.07178E-04
 -1      2115-5.81672E-05-1.31153E-04 8.72856E-05 1.05129E+04-3.58931E+05 3.86554E-04
 -1      2117-5.81672E-05-1.31153E-04 8.72856E-05 1.05129E+04-3.58931E+05 3.86554E-04
 -1      2118 3.81697E-05-8.55188E-05 2.20777E-04 2.81605E+03-3.62489E+05 1.53057E-04
 -1      2120 3.81697E-05-8.55188E-05 2.20777E-04 2.81605E+03-3.62489E+05 1.53057E-04
 -1      2121 5.03277E+08 1.08471E+07-6.69650E+03 1.43363E+07-4.78021E+04-4.35984E+04
 -1      2123 5.03277E+08 1.08471E+07-6.69650E+03 1.43363E+07-4.78021E+04-4.35984E+04
 -1      2124 4.78595E+08-6.08659E+06-2.06502E+04 1.40831E+07 7.14059E+03 2.39105E+04
 -1      2126 4.78595E+08-6.08659E+06-2.06502E+04 1.40831E+07 7.14059E+03 2.39105E+04
 -1      2127 4.53664E+08 2.89866E+06 2.03670E+04 1.43796E+07-4.17605E+03-1.26120E+04
 -1      2129 4.53664E+08 2.89866E+06 2.03670E+04 1.43796E+07-4.17605E+03-1.26120E+04
 -1      2130 4.30337E+08-1.17618E+06-3.76120E+03 1.41023E+07-2.43414E+03 5.64276E+03
 -1      2132 4.30337E+08-1.17618E+06-3.76120E+03 1.41023E+07-2.43414E+03 5.64276E+03
 -1      2133 4.05791E+08 3.93825E+05-6.38249E+02 1.42160E+07 1.90556E+03-3.17071E+03
 -1      2135 4.05791E+08 3.93825E+05-6.38249E+02 1.42160E+07 1.90556E+03-3.17071E+03
 -1      2136 3.82121E+08-7.01514E+04 8.96217E+03 1.40590E+07-2.66668E+03 3.15220E+02
 -1      2138 3.82121E+08-7.01514E+04 8.96217E+03 1.40590E+07-2.66668E+03 3.15220E+02
 -1      2139 3.58174E+08-9.11026E+03-5.81710E+03 1.40106E+07 9.41368E+02-9.80973E+02
 -1      2141 3.58174E+08-9.11026E+03-5.81710E+03 1.40106E+07 9.41368E+02-9.80973E+02
 -1      2142 3.34606E+08 4.67863E+04 8.36179E+03 1.38735E+07-2.16504E+03-9.36008E+02
 -1      2144 3.34606E+08 4.67863E+04 8.36179E+03 1.38735E+07-2.16504E+03-9.36008E+02
 -1      2145 3.11172E+08-9.95799E+03-3.04708E+03 1.37271E+07-9.80381E+02-8.13794E+02
 -1      2147 3.11172E+08-9.95799E+03-3.04708E+03 1.37271E+07-9.80381E+02-8.13794E+02
 -1      2148 2.88068E+08 3.35813E+04 4.28177E+03 1.35440E+07-2.84140E+03-1.17322E+03
 -1      2150 2.88068E+08 3.35813E+04 4.28177E+03 1.35440E+07-2.84140E+03-1.17322E+03
 -1      2151 2.65281E+08 1.59397E+04 4.17852E+02 1.33198E+07-3.10459E+03-1.01989E+03
 -1      2153 2.65281E+08 1.59397E+04 4.17852E+02 1.33198E+07-3.10459E+03-1.01989E+03
 -1      2154 2.42919E+08 2.83718E+04 9.65904E+02 1.30632E+07-4.57916E+03-1.24868E+03
 -1      2156 2.42919E+08 2.83718E+04 9.65904E+02 1.30632E+07-4.57916E+03-1.24868E+03
 -1      2157 2.21019E+08 3.05279E+04 2.57075E+03 1.27591E+07-5.56358E+03-1.21054E+03
 -1      2159 2.21019E+08 3.05279E+04 2.57075E+03 1.27591E+07-5.56358E+03-1.21054E+03
 -1      2160 1.99676E+08 3.33377E+04-9.33205E+02 1.24168E+07-7.07348E+03-1.32042E+03
 -1      2162 1.99676E+08 3.33377E+04-9.33205E+02 1.24168E+07-7.07348E+03-1.32042E+03
 -1      2163 1.78948E+08 4.02386E+04 3.47686E+03 1.20253E+07-8.45344E+03-1.33841E+03
 -1      2165 1.78948E+08 4.02386E+04 3.47686E+03 1.20253E+07-8.45344E+03-1.33841E+03
 -1      2166 1.58925E+08 4.18785E+04-1.78674E+03 1.15898E+07-1.01285E+04-1.38767E+03
 -1      2168 1.58925E+08 4.18785E+04-1.78674E+03 1.15898E+07-1.01285E+04-1.38767E+03
 -1      2169 1.39679E+08 4.92357E+04 3.60361E+03 1.11038E+07-1.17675E+04-1.41408E+03
 -1      2171 1.39679E+08 4.92357E+04 3.60361E+03 1.11038E+07-1.17675E+04-1.41408E+03
 -1      2172 1.21301E+08 5.14519E+04-2.03857E+03 1.05696E+07-1.36187E+04-1.43163E+03
 -1      2174 1.21301E+08 5.14519E+04-2.03857E+03 1.05696E+07-1.36187E+04-1.43163E+03
 -1      2175 1.03870E+08 5.85703E+04 3.33921E+03 9.98327E+06-1.54422E+04-1.44419E+03
 -1      2177 1.03870E+08 5.85703E+04 3.33921E+03 9.98327E+06-1.54422E+04-1.44419E+03
 -1      2178 8.74777E+07 6.14126E+04-1.99684E+03 9.34581E+06-1.74367E+04-1.43757E+03
 -1      2180 8.74777E+07 6.14126E+04-1.99684E+03 9.34581E+06-1.74367E+04-1.43757E+03
 -1      2181 7.22100E+07 6.83097E+04 2.92842E+03 8.65505E+06-1.93793E+04-1.42483E+03
 -1      2183 7.22100E+07 6.83097E+04 2.92842E+03 8.65505E+06-1.93793E+04-1.42483E+03
 -1      2184 5.81590E+07 7.16233E+04-1.83877E+03 7.91111E+06-2.14612E+04-1.39246E+03
 -1      2186 5.81590E+07 7.16233E+04-1.83877E+03 7.91111E+06-2.14612E+04-1.39246E+03
 -1      2187 4.54144E+07 7.82463E+04 2.50557E+03 7.11297E+06-2.34432E+04-1.34036E+03
 -1      2189 4.54144E+07 7.82463E+04 2.50557E+03 7.11297E+06-2.34432E+04-1.34036E+03
 -1      2190 3.40692E+07 8.22488E+04-1.65219E+03 6.26020E+06-2.55297E+04-1.28282E+03
 -1      2192 3.40692E+07 8.22488E+04-1.65219E+03 6.26020E+06-2.55297E+04-1.28282E+03
 -1      2193 2.42158E+07 8.77734E+04 2.13738E+03 5.35296E+06-2.74405E+04-1.15207E+03
 -1      2195 2.42158E+07 8.77734E+04 2.13738E+03 5.35296E+06-2.74405E+04-1.15207E+03
 -1      2196 1.59477E+07 9.39935E+04-1.48201E+03 4.38977E+06-2.93991E+04-1.10668E+03
 -1      2198 1.59477E+07 9.39935E+04-1.48201E+03 4.38977E+06-2.93991E+04-1.10668E+03
 -1      2199 9.35694E+06 9.61715E+04 1.88420E+03 3.37273E+06-3.10837E+04-7.48890E+02
 -1      2201 9.35694E+06 9.61715E+04 1.88420E+03 3.37273E+06-3.10837E+04-7.48890E+02
 -1      2202 4.54419E+06 1.05452E+05-1.42830E+03 2.29792E+06-3.26344E+04-9.45456E+02
 -1      2204 4.54419E+06 1.05452E+05-1.42830E+03 2.29792E+06-3.26344E+04-9.45456E+02
 -1      2205 1.58100E+06 1.12479E+05 1.96642E+03 1.17154E+06-3.38895E+04 2.42674E+02
 -1      2207 1.58100E+06 1.12479E+05 1.96642E+03 1.17154E+06-3.38895E+04 2.42674E+02
 -1      2208-5.03277E+08-1.08471E+07 6.69650E+03 1.43363E+07-4.78021E+04 4.35984E+04
 -1      2210-5.03277E+08-1.08471E+07 6.69650E+03 1.43363E+07-4.78021E+04 4.35984E+04
 -1      2211-4.78595E+08 6.08659E+06 2.06502E+04 1.40831E+07 7.14059E+03-2.39105E+04
 -1      2213-4.78595E+08 6.08659E+06 2.06502E+04 1.40831E+07 7.14059E+03-2.39105E+04
 -1      2214-4.53664E+08-2.89866E+06-2.03670E+04 1.43796E+07-4.17605E+03 1.26120E+04
 -1      2216-4.53664E+08-2.89866E+06-2.03670E+04 1.43796E+07-4.17605E+03 1.26120E+04
 -1      2217-4.30337E+08 1.17618E+06 3.76120E+03 1.41023E+07-2.43414E+03-5.64276E+03
 -1      2219-4.30337E+08 1.17618E+06 3.76120E+03 1.41023E+07-2.43414E+03-5.64276E+03
 -1      2220-4.05791E+08-3.93825E+05 6.38249E+02 1.42160E+07 1.90556E+03 3.17071E+03
 -1      2222-4.05791E+08-3.93825E+05 6.38249E+02 1.42160E+07 1.90556E+03 3.17071E+03
 -1      2223-3.82121E+08 7.01514E+04-8.96217E+03 1.40590E+07-2.66668E+03-3.15220E+02
 -1      2225-3.82121E+08 7.01514E+04-8.96217E+03 1.40590E+07-2.66668E+03-3.15220E+02
 -1      2226-3.58174E+08 9.11026E+03 5.81710E+03 1.40106E+07 9.41368E+02 9.80973E+02
 -1      2228-3.58174E+08 9.11026E+03 5.81710E+03 1.40106E+07 9.41368E+02 9.80973E+02
 -1      2229-3.34606E+08-4.67863E+04-8.36179E+03 1.38735E+07-2.16504E+03 9.36008E+02
 -1      2231-3.34606E+08-4.67863E+04-8.36179E+03 1.38735E+07-2.16504E+03 9.36008E+02
 -1      2232-3.11172E+08 9.95799E+03 3.04708E+03 1.37271E+07-9.80381E+02 8.13794E+02
 -1      2234-3.11172E+08 9.95799E+03 3.04708E+03 1.37271E+07-9.80381E+02 8.13794E+02
 -1      2235-2.88068E+08-3.35813E+04-4.28177E+03 1.35440E+07-2.84140E+03 1.17322E+03
 -1      2237-2.88068E+08-3.35813E+04-4.28177E+03 1.35440E+07-2.84140E+03 1.17322E+03
 -1      2238-2.65281E+08-1.59397E+04-4.17852E+02 1.33198E+07-3.10459E+03 1.01989E+03
 -1      2240-2.65281E+08-1.59397E+04-4.17852E+02 1.33198E+07-3.10459E+03 1.01989E+03
 -1      2241-2.42919E+08-2.83718E+04-9.65904E+02 1.30632E+07-4.57916E+03 1.24868E+03
 -1      2243-2.42919E+08-2.83718E+04-9.65904E+02 1.30632E+07-4.57916E+03 1.24868E+03
 -1      2244-2.21019E+08-3.05279E+04-2.57075E+03 1.27591E+07-5.56358E+03 1.21054E+03
 -1      2246-2.21019E+08-3.05279E+04-2.57075E+03 1.27591E+07-5.56358E+03 1.21054E+03
 -1      2247-1.99676E+08-3.33377E+04 9.33205E+02 1.24168E+07-7.07348E+03 1.32042E+03
 -1      2249-1.99676E+08-3.33377E+04 9.33205E+02 1.24168E+07-7.07348E+03 1.32042E+03
 -1      2250-1.78948E+08-4.02386E+04-3.47686E+03 1.20253E+07-8.45344E+03 1.33841E+03
 -1      2252-1.78948E+08-4.02386E+04-3.47686E+03 1.20253E+07-8.45344E+03 1.33841E+03
 -1      2253-1.58925E+08-4.18785E+04 1.78674E+03 1.15898E+07-1.01285E+04 1.38767E+03
 -1      2255-1.58925E+08-4.18785E+04 1.78674E+03 1.15898E+07-1.01285E+04 1.38767E+03
 -1      2256-1.39679E+08-4.92357E+04-3.60361E+03 1.11038E+07-1.17675E+04 1.41408E+03
 -1      2258-1.39679E+08-4.92357E+04-3.60361E+03 1.11038E+07-1.17675E+04 1.41408E+03
 -1      2259-1.21301E+08-5.14519E+04 2.03857E+03 1.05696E+07-1.36187E+04 1.43163E+03
 -1      2261-1.21301E+08-5.14519E+04 2.03857E+03 1.05696E+07-1.36187E+04 1.43163E+03
 -1      2262-1.03870E+08-5.85703E+04-3.33921E+03 9.98327E+06-1.54422E+04 1.44419E+03
 -1      2264-1.03870E+08-5.85703E+04-3.33921E+03 9.98327E+06-1.54422E+04 1.44419E+03
 -1      2265-8.74777E+07-6.14126E+04 1.99684E+03 9.34581E+06-1.74367E+04 1.43757E+03
 -1      2267-8.74777E+07-6.14126E+04 1.99684E+03 9.34581E+06-1.74367E+04 1.43757E+03
 -1      2268-7.22100E+07-6.83097E+04-2.92842E+03 8.65505E+06-1.93793E+04 1.42483E+03
 -1      2270-7.22100E+07-6.83097E+04-2.92842E+03 8.65505E+06-1.93793E+04 1.42483E+03
 -1      2271-5.81590E+07-7.16233E+04 1.83877E+03 7.91111E+06-2.14612E+04 1.39246E+03
 -1      2273-5.81590E+07-7.16233E+04 1.83877E+03 7.91111E+06-2.14612E+04 1.39246E+03
 -1      2274-4.54144E+07-7.82463E+04-2.50557E+03 7.11297E+06-2.34432E+04 1.34036E+03
 -1      2276-4.54144E+07-7.82463E+04-2.50557E+03 7.11297E+06-2.34432E+04 1.34036E+03
 -1      2277-3.40692E+07-8.22488E+04 1.65219E+03 6.26020E+06-2.55297E+04 1.28282E+03
 -1      2279-3.40692E+07-8.22488E+04 1.65219E+03 6.26020E+06-2.55297E+04 1.28282E+03
 -1      2280-2.42158E+07-8.77734E+04-2.13738E+03 5.35296E+06-2.74405E+04 1.15207E+03
 -1      2282-2.42158E+07-8.77734E+04-2.13738E+03 5.35296E+06-2.74405E+04 1.15207E+03
 -1      2283-1.59477E+07-9.39935E+04 1.48201E+03 4.38977E+06-2.93991E+04 1.10668E+03
 -1      2285-1.59477E+07-9.39935E+04 1.48201E+03 4.38977E+06-2.93991E+04 1.10668E+03
 -1      2286-9.35694E+06-9.61715E+04-1.88420E+03 3.37273E+06-3.10837E+04 7.48890E+02
 -1      2288-9.35694E+06-9.61715E+04-1.88420E+03 3.37273E+06-3.10837E+04 7.48890E+02
 -1      2289-4.54419E+06-1.05452E+05 1.42830E+03 2.29792E+06-3.26344E+04 9.45456E+02
 -1      2291-4.54419E+06-1.05452E+05 1.42830E+03 2.29792E+06-3.26344E+04 9.45456E+02
 -1      2292-1.58100E+06-1.12479E+05-1.96642E+03 1.17154E+06-3.38895E+04-2.42674E+02
 -1      2294-1.58100E+06-1.12479E+05-1.96642E+03 1.17154E+06-3.38895E+04-2.42674E+02
 -3
    1PSTEP                         3           1           1          
    1PGM                1.000000E+00                                  
    1PGK                6.343347E+03                                  
    1PHID                         -1                                  
    1PSUBC                         0                                  
    1PMODE                         1                                  
  100CL  101 12.67591621         930                     2    1MODAL      1
 -4  FORC        4    1
 -5  F1          1    2    1    0
 -5  F2          1    2    2    0
 -5  F3          1    2    3    0
 -5  ALL         1    2    0    0    1ALL
 -1       404 1.36277E+05-2.59559E+04 2.35299E+02
 -1       406 1.35411E+05-2.61413E+04 2.35299E+02
 -1       407-1.66870E+00 5.27585E+01-8.34524E-02
 -1       409-1.66870E+00 5.27585E+01-8.34529E-02
 -1       410-1.04805E-08 7.64842E+01-1.24499E-07
 -1       412-6.27925E-09 7.47286E+02 2.77407E-07
 -1       413-2.01476E-08-2.31601E+02-5.26501E+02
 -1       415 9.00830E-08-2.31601E+02 5.26501E+02
 -1       424-3.31040E-06 1.86357E+04-2.03625E-08
 -1       426-2.55670E-06 1.93578E+04-5.24896E-08
 -1       427 1.32614E+03 2.65500E+03-1.31937E+03
 -1       429-1.32614E+03 2.65500E+03 1.31937E+03
 -1       438 1.66870E+00 5.27585E+01 8.34528E-02
 -1       440 1.66870E+00 5.27585E+01 8.34528E-02
 -1       441-1.36277E+05-2.59559E+04-2.35299E+02
 -1       443-1.35411E+05-2.61413E+04-2.35299E+02
 -1       444 1.32614E+03 2.65500E+03 1.31937E+03
 -1       446-1.32614E+03 2.65500E+03-1.31937E+03
 -1       447 3.27684E-06 1.86357E+04-2.46116E-08
 -1       449 2.54559E-06 1.93578E+04-3.08428E-08
 -1       458 1.13190E-07-2.31601E+02 5.26501E+02
 -1       460 2.18385E-07-2.31601E+02-5.26501E+02
 -1       461-6.02865E-08 7.64842E+01-1.77379E-07
 -1       463-5.94378E-08 7.47286E+02 1.80392E-07
 -1       472-1.36277E+05-2.59559E+04 2.35299E+02
 -1       474-1.35411E+05-2.61413E+04 2.35299E+02
 -1       475 1.66870E+00 5.27585E+01-8.34527E-02
 -1       477 1.66870E+00 5.27585E+01-8.34527E-02
 -1       478-1.66870E+00 5.27585E+01 8.34527E-02
 -1       480-1.66870E+00 5.27585E+01 8.34530E-02
 -1       481 1.36277E+05-2.59559E+04-2.35299E+02
 -1       483 1.35411E+05-2.61413E+04-2.35299E+02
 -1       484-2.71060E-01 3.29673E-01-6.71250E-03
 -1       486-2.71060E-01 3.29673E-01-6.71250E-03
 -1       487-5.35500E-01 9.43174E-01-1.40919E-02
 -1       489-5.35500E-01 9.43174E-01-1.40919E-02
 -1       490-7.87539E-01 1.93659E+00-2.14151E-02
 -1       492-7.87539E-01 1.93659E+00-2.14151E-02
 -1       493-1.02625E+00 3.29472E+00-2.86175E-02
 -1       495-1.02625E+00 3.29472E+00-2.86175E-02
 -1       496-1.25208E+00 4.99642E+00-3.58458E-02
 -1       498-1.25208E+00 4.99642E+00-3.58458E-02
 -1       499-1.46490E+00 7.02316E+00-4.30477E-02
 -1       501-1.46490E+00 7.02316E+00-4.30477E-02
 -1       502-1.66483E+00 9.35552E+00-5.02592E-02
 -1       504-1.66483E+00 9.35552E+00-5.02592E-02
 -1       505-1.85195E+00 1.19745E+01-5.74555E-02
 -1       507-1.85195E+00 1.19745E+01-5.74555E-02
 -1       508-2.02636E+00 1.48611E+01-6.46387E-02
 -1       510-2.02636E+00 1.48611E+01-6.46387E-02
 -1       511-2.18820E+00 1.79966E+01-7.17910E-02
 -1       513-2.18820E+00 1.79966E+01-7.17910E-02
 -1       514-2.33765E+00 2.13626E+01-7.88995E-02
 -1       516-2.33765E+00 2.13626E+01-7.88995E-02
 -1       517-2.47489E+00 2.49406E+01-8.59442E-02
 -1       519-2.47489E+00 2.49406E+01-8.59442E-02
 -1       520-2.60019E+00 2.87128E+01-9.29041E-02
 -1       522-2.60019E+00 2.87128E+01-9.29042E-02
 -1       523-2.71380E+00 3.26617E+01-9.97544E-02
 -1       525-2.71380E+00 3.26617E+01-9.97544E-02
 -1       526-2.81604E+00 3.67701E+01-1.06468E-01
 -1       528-2.81604E+00 3.67701E+01-1.06468E-01
 -1       529-2.90728E+00 4.10214E+01-1.13016E-01
 -1       531-2.90728E+00 4.10214E+01-1.13016E-01
 -1       532-2.98790E+00 4.53996E+01-1.19366E-01
 -1       534-2.98790E+00 4.53996E+01-1.19366E-01
 -1       535-3.05837E+00 4.98891E+01-1.25485E-01
 -1       537-3.05837E+00 4.98891E+01-1.25485E-01
 -1       538-3.11915E+00 5.44753E+01-1.31336E-01
 -1       540-3.11915E+00 5.44753E+01-1.31336E-01
 -1       541-3.17080E+00 5.91442E+01-1.36884E-01
 -1       543-3.17080E+00 5.91442E+01-1.36883E-01
 -1       544-3.21390E+00 6.38826E+01-1.42088E-01
 -1       546-3.21390E+00 6.38826E+01-1.42088E-01
 -1       547-3.24907E+00 6.86783E+01-1.46910E-01
 -1       549-3.24907E+00 6.86783E+01-1.46909E-01
 -1       550-3.27701E+00 7.35200E+01-1.51308E-01
 -1       552-3.27701E+00 7.35200E+01-1.51308E-01
 -1       553-3.29843E+00 7.83973E+01-1.55243E-01
 -1       555-3.29843E+00 7.83973E+01-1.55243E-01
 -1       556-3.31413E+00 8.33013E+01-1.58672E-01
 -1       558-3.31413E+00 8.33013E+01-1.58672E-01
 -1       559-3.32493E+00 8.82240E+01-1.61556E-01
 -1       561-3.32493E+00 8.82240E+01-1.61556E-01
 -1       562-3.33171E+00 9.31588E+01-1.63856E-01
 -1       564-3.33171E+00 9.31588E+01-1.63856E-01
 -1       565-3.33541E+00 9.81002E+01-1.65533E-01
 -1       567-3.33541E+00 9.81002E+01-1.65533E-01
 -1       568-3.33701E+00 1.03044E+02-1.66557E-01
 -1       570-3.33701E+00 1.03044E+02-1.66558E-01
 -1       571-2.22492E+00 1.05517E+02-1.11701E-01
 -1       573-2.22492E+00 1.05517E+02-1.11701E-01
 -1       574 5.67588E-07 1.96672E+03 1.42716E-07
 -1       576 5.66745E-07 3.39491E+03 1.84357E-07
 -1       577-5.65566E-07-2.67977E+03-1.12096E+03
 -1       579-5.67801E-07-2.67977E+03 1.12096E+03
 -1       588 4.83979E-07-2.02080E+03-8.27260E-08
 -1       590 4.82283E-07-2.12520E+03-9.80703E-08
 -1       591-4.81826E-07 2.07614E+03 8.19435E+01
 -1       593-4.83401E-07 2.07614E+03-8.19435E+01
 -1       602 4.57443E-07 1.27941E+03 5.52864E-08
 -1       604 4.57399E-07 1.39112E+03 4.47463E-08
 -1       605-4.57331E-07-1.32871E+03-8.76808E+01
 -1       607-4.56846E-07-1.32871E+03 8.76808E+01
 -1       616 5.28563E-07-7.41273E+02-4.19348E-08
 -1       618 5.27985E-07-6.44032E+02-3.14266E-08
 -1       619-5.35137E-07 7.03853E+02-7.63225E+01
 -1       621-5.33313E-07 7.03853E+02 7.63225E+01
 -1       630 4.92164E-07 3.96198E+02-4.64150E-08
 -1       632 4.88197E-07 3.37148E+02 4.60299E-08
 -1       633-4.82310E-07-3.49648E+02 4.63471E+01
 -1       635-4.88174E-07-3.49648E+02-4.63471E+01
 -1       644 5.17845E-07-1.00653E+02-1.37722E-08
 -1       646 5.02717E-07-1.39409E+01 1.50214E-08
 -1       647-5.08242E-07 8.12544E+01-6.80588E+01
 -1       649-5.10204E-07 8.12544E+01 6.80588E+01
 -1       658 5.08976E-07 8.72225E+01 1.22851E-07
 -1       660 4.96298E-07 6.65372E+01-4.15454E-08
 -1       661-4.97339E-07-4.49450E+01 1.62355E+01
 -1       663-4.88475E-07-4.49450E+01-1.62355E+01
 -1       672 5.03832E-07 9.18194E+01 1.93046E-08
 -1       674 5.02755E-07 1.64733E+02-3.04915E-08
 -1       675-5.08718E-07-8.73849E+01-5.72287E+01
 -1       677-5.20309E-07-8.73849E+01 5.72287E+01
 -1       686 5.07182E-07 4.25167E+01-1.82442E-08
 -1       688 5.04227E-07 9.06961E+01 9.67628E-08
 -1       689-5.20748E-07-1.58446E+01-3.78153E+01
 -1       691-5.09865E-07-1.58446E+01 3.78153E+01
 -1       700 5.13048E-07 1.28593E+02 1.59301E-08
 -1       702 5.08710E-07 2.33621E+02 7.50130E-08
 -1       703-5.01364E-07-1.19624E+02-8.24347E+01
 -1       705-4.90383E-07-1.19624E+02 8.24347E+01
 -1       714 5.15322E-07 6.40038E+01-9.29555E-10
 -1       716 5.15832E-07 1.91423E+02-2.29687E-07
 -1       717-5.28997E-07-5.47234E+01-1.00009E+02
 -1       719-4.90178E-07-5.47234E+01 1.00009E+02
 -1       728 4.70783E-07 1.29866E+02 4.20276E-08
 -1       730 4.69538E-07 3.05997E+02-2.94900E-07
 -1       731-4.85712E-07-1.32709E+02-1.38242E+02
 -1       733-4.78676E-07-1.32709E+02 1.38242E+02
 -1       742 4.54304E-07 8.82874E+01-1.42103E-07
 -1       744 4.65708E-07 3.10157E+02 1.65203E-07
 -1       745-4.63079E-07-1.01105E+02-1.74142E+02
 -1       747-4.95538E-07-1.01105E+02 1.74142E+02
 -1       756 4.66442E-07 1.26647E+02-1.47290E-07
 -1       758 4.73785E-07 4.02016E+02 1.09632E-07
 -1       759-5.00801E-07-1.52716E+02-2.16132E+02
 -1       761-4.82814E-07-1.52716E+02 2.16132E+02
 -1       770 4.96562E-07 1.03293E+02 1.88589E-07
 -1       772 5.05840E-07 4.37519E+02-1.57803E-07
 -1       773-4.28781E-07-1.44747E+02-2.62329E+02
 -1       775-4.55049E-07-1.44747E+02 2.62329E+02
 -1       784 4.80298E-07 1.23134E+02 1.89054E-07
 -1       786 4.94823E-07 5.19017E+02-5.20896E-08
 -1       787-5.12576E-07-1.80886E+02-3.10722E+02
 -1       789-4.86527E-07-1.80886E+02 3.10722E+02
 -1       798 5.16150E-07 1.09624E+02-1.42237E-08
 -1       800 5.17926E-07 5.73292E+02 2.29488E-08
 -1       801-5.18595E-07-1.86304E+02-3.63925E+02
 -1       803-5.87659E-07-1.86304E+02 3.63925E+02
 -1       812 4.57913E-07 1.18559E+02 1.33969E-08
 -1       814 4.67800E-07 6.51672E+02-6.00067E-08
 -1       815-4.56248E-07-2.14617E+02-4.18431E+02
 -1       817-4.86744E-07-2.14617E+02 4.18431E+02
 -1       826 4.69660E-07 1.09641E+02 4.18712E-07
 -1       828 4.59834E-07 7.17122E+02-4.05574E-07
 -1       829-4.34437E-07-2.27209E+02-4.76802E+02
 -1       831-4.95618E-07-2.27209E+02 4.76802E+02
 -1       840 4.88025E-07 1.12459E+02-3.11474E-07
 -1       842 4.85698E-07 7.95433E+02 3.17879E-07
 -1       843-4.77345E-07-2.51818E+02-5.36056E+02
 -1       845-5.25455E-07-2.51818E+02 5.36056E+02
 -1       854 5.72193E-07 1.05585E+02-5.54597E-07
 -1       856 5.61619E-07 8.67331E+02 5.69922E-07
 -1       857-5.81173E-07-2.68137E+02-5.97882E+02
 -1       859-4.46714E-07-2.68137E+02 5.97882E+02
 -1       868 4.96373E-07 1.05594E+02-3.11484E-08
 -1       870 4.74064E-07 9.46346E+02-1.36596E-08
 -1       871-4.09253E-07-2.91261E+02-6.59892E+02
 -1       873-4.91739E-07-2.91261E+02 6.59892E+02
 -1       882 4.83909E-07 9.97689E+01-7.79591E-07
 -1       884 4.69277E-07 1.02088E+03 4.37002E-07
 -1       885-5.32664E-07-3.09071E+02-7.22964E+02
 -1       887-5.66772E-07-3.09071E+02 7.22964E+02
 -1       896 4.45932E-07 1.00330E+02 4.54095E-07
 -1       898 4.33860E-07 1.10047E+03-1.72372E-07
 -1       899-4.78545E-07-3.32481E+02-7.84993E+02
 -1       901-4.48072E-07-3.32481E+02 7.84993E+02
 -1       910 3.05006E-07 9.50846E+01-3.89784E-07
 -1       912 3.16316E-07 1.17294E+03 6.51340E-07
 -1       913-3.68568E-07-3.49339E+02-8.45993E+02
 -1       915-3.22323E-07-3.49339E+02 8.45993E+02
 -1       924 4.05028E-07 1.01427E+02-5.40511E-07
 -1       926 3.90994E-07 1.25336E+03 2.75717E-07
 -1       927-3.89742E-07-3.75899E+02-9.04131E+02
 -1       929-3.72429E-07-3.75899E+02 9.04131E+02
 -1       938 2.55091E-07 9.57067E+01 7.70594E-07
 -1       940 2.48614E-07 1.31572E+03-7.46539E-07
 -1       941-2.38715E-07-3.87361E+02-9.57569E+02
 -1       943-1.53547E-07-3.87361E+02 9.57569E+02
 -1       952 2.39934E-08 1.18231E+02 2.94467E-08
 -1       954-5.53259E-09 1.39883E+03-1.68752E-07
 -1       955-1.30953E-08-4.23298E+02-1.00512E+03
 -1       957-1.83682E-07-4.23298E+02 1.00512E+03
 -1       966 8.90041E-08 1.09036E+02-6.50305E-07
 -1       968 5.69907E-08 1.43437E+03 8.33096E-07
 -1       969-8.53381E-08-4.19579E+02-1.04023E+03
 -1       971-1.17578E-07-4.19579E+02 1.04023E+03
 -1       980 1.48986E+05 7.08240E+03 1.59475E+02
 -1       982 1.47962E+05 7.25806E+03 1.59475E+02
 -1       983 2.22492E+00 1.05517E+02 1.11700E-01
 -1       985 2.22492E+00 1.05517E+02 1.11701E-01
 -1       986 2.71060E-01 3.29673E-01 6.71250E-03
 -1       988 2.71060E-01 3.29673E-01 6.71250E-03
 -1       989 5.35500E-01 9.43174E-01 1.40919E-02
 -1       991 5.35500E-01 9.43174E-01 1.40919E-02
 -1       992 7.87539E-01 1.93659E+00 2.14151E-02
 -1       994 7.87539E-01 1.93659E+00 2.14151E-02
 -1       995 1.02625E+00 3.29472E+00 2.86175E-02
 -1       997 1.02625E+00 3.29472E+00 2.86175E-02
 -1       998 1.25208E+00 4.99642E+00 3.58458E-02
 -1      1000 1.25208E+00 4.99642E+00 3.58458E-02
 -1      1001 1.46490E+00 7.02316E+00 4.30477E-02
 -1      1003 1.46490E+00 7.02316E+00 4.30477E-02
 -1      1004 1.66483E+00 9.35552E+00 5.02591E-02
 -1      1006 1.66483E+00 9.35552E+00 5.02592E-02
 -1      1007 1.85195E+00 1.19745E+01 5.74554E-02
 -1      1009 1.85195E+00 1.19745E+01 5.74555E-02
 -1      1010 2.02636E+00 1.48611E+01 6.46387E-02
 -1      1012 2.02636E+00 1.48611E+01 6.46387E-02
 -1      1013 2.18820E+00 1.79966E+01 7.17910E-02
 -1      1015 2.18820E+00 1.79966E+01 7.17910E-02
 -1      1016 2.33765E+00 2.13626E+01 7.88996E-02
 -1      1018 2.33765E+00 2.13626E+01 7.88995E-02
 -1      1019 2.47489E+00 2.49406E+01 8.59442E-02
 -1      1021 2.47489E+00 2.49406E+01 8.59443E-02
 -1      1022 2.60019E+00 2.87128E+01 9.29040E-02
 -1      1024 2.60019E+00 2.87128E+01 9.29041E-02
 -1      1025 2.71380E+00 3.26617E+01 9.97545E-02
 -1      1027 2.71380E+00 3.26617E+01 9.97544E-02
 -1      1028 2.81604E+00 3.67701E+01 1.06468E-01
 -1      1030 2.81604E+00 3.67701E+01 1.06468E-01
 -1      1031 2.90728E+00 4.10214E+01 1.13016E-01
 -1      1033 2.90728E+00 4.10214E+01 1.13016E-01
 -1      1034 2.98790E+00 4.53996E+01 1.19366E-01
 -1      1036 2.98790E+00 4.53996E+01 1.19366E-01
 -1      1037 3.05837E+00 4.98891E+01 1.25485E-01
 -1      1039 3.05837E+00 4.98891E+01 1.25485E-01
 -1      1040 3.11915E+00 5.44753E+01 1.31336E-01
 -1      1042 3.11915E+00 5.44753E+01 1.31336E-01
 -1      1043 3.17080E+00 5.91442E+01 1.36883E-01
 -1      1045 3.17080E+00 5.91442E+01 1.36883E-01
 -1      1046 3.21390E+00 6.38826E+01 1.42088E-01
 -1      1048 3.21390E+00 6.38826E+01 1.42088E-01
 -1      1049 3.24907E+00 6.86783E+01 1.46909E-01
 -1      1051 3.24907E+00 6.86783E+01 1.46910E-01
 -1      1052 3.27701E+00 7.35200E+01 1.51308E-01
 -1      1054 3.27701E+00 7.35200E+01 1.51308E-01
 -1      1055 3.29843E+00 7.83973E+01 1.55243E-01
 -1      1057 3.29843E+00 7.83973E+01 1.55242E-01
 -1      1058 3.31413E+00 8.33013E+01 1.58672E-01
 -1      1060 3.31413E+00 8.33013E+01 1.58672E-01
 -1      1061 3.32493E+00 8.82240E+01 1.61556E-01
 -1      1063 3.32493E+00 8.82240E+01 1.61556E-01
 -1      1064 3.33171E+00 9.31588E+01 1.63856E-01
 -1      1066 3.33171E+00 9.31588E+01 1.63856E-01
 -1      1067 3.33541E+00 9.81002E+01 1.65533E-01
 -1      1069 3.33541E+00 9.81002E+01 1.65533E-01
 -1      1070 3.33701E+00 1.03044E+02 1.66558E-01
 -1      1072 3.33701E+00 1.03044E+02 1.66558E-01
 -1      1073-1.48986E+05 7.08240E+03-1.59475E+02
 -1      1075-1.47962E+05 7.25806E+03-1.59475E+02
 -1      1076-3.52305E+03-5.04080E+02-6.20301E+02
 -1      1078 3.52305E+03-5.04080E+02 6.20301E+02
 -1      1079-9.69839E+03-1.52095E+03-2.14517E-07
 -1      1081 9.69839E+03-1.52095E+03-2.47366E-07
 -1      1082-3.52305E+03-5.04080E+02 6.20301E+02
 -1      1084 3.52305E+03-5.04080E+02-6.20301E+02
 -1      1085 5.67153E-07-2.67977E+03 1.12096E+03
 -1      1087 5.67198E-07-2.67977E+03-1.12096E+03
 -1      1088-5.66340E-07 1.96672E+03 1.72221E-07
 -1      1090-5.66809E-07 3.39491E+03 1.56353E-07
 -1      1099 4.80438E-07 2.07614E+03-8.19435E+01
 -1      1101 4.79582E-07 2.07614E+03 8.19435E+01
 -1      1102-4.79674E-07-2.02080E+03-1.00441E-07
 -1      1104-4.80672E-07-2.12520E+03-8.94672E-08
 -1      1113 4.64497E-07-1.32871E+03 8.76808E+01
 -1      1115 4.60407E-07-1.32871E+03-8.76808E+01
 -1      1116-4.61469E-07 1.27941E+03 4.90919E-08
 -1      1118-4.61916E-07 1.39112E+03 2.97875E-08
 -1      1127 5.25688E-07 7.03853E+02 7.63225E+01
 -1      1129 5.27926E-07 7.03853E+02-7.63225E+01
 -1      1130-5.19726E-07-7.41273E+02-4.62926E-08
 -1      1132-5.26826E-07-6.44032E+02-1.35116E-08
 -1      1141 4.99583E-07-3.49648E+02-4.63471E+01
 -1      1143 5.05503E-07-3.49648E+02 4.63471E+01
 -1      1144-5.00125E-07 3.96198E+02 6.55094E-08
 -1      1146-5.03484E-07 3.37148E+02-4.72082E-08
 -1      1155 4.98578E-07 8.12544E+01 6.80588E+01
 -1      1157 5.13869E-07 8.12544E+01-6.80588E+01
 -1      1158-5.10104E-07-1.00653E+02-2.98349E-08
 -1      1160-5.08488E-07-1.39409E+01-2.80313E-09
 -1      1169 4.91965E-07-4.49450E+01-1.62355E+01
 -1      1171 4.99536E-07-4.49450E+01 1.62355E+01
 -1      1172-5.05727E-07 8.72225E+01-4.37804E-09
 -1      1174-4.97713E-07 6.65372E+01 7.05335E-09
 -1      1183 5.11137E-07-8.73849E+01 5.72287E+01
 -1      1185 4.99697E-07-8.73849E+01-5.72287E+01
 -1      1186-5.07240E-07 9.18194E+01-1.66969E-08
 -1      1188-5.02501E-07 1.64733E+02-2.02926E-10
 -1      1197 4.95989E-07-1.58446E+01 3.78153E+01
 -1      1199 5.19923E-07-1.58446E+01-3.78153E+01
 -1      1200-5.00947E-07 4.25167E+01 1.04398E-07
 -1      1202-5.10101E-07 9.06961E+01-2.07876E-08
 -1      1211 4.98028E-07-1.19624E+02 8.24347E+01
 -1      1213 5.11911E-07-1.19624E+02-8.24347E+01
 -1      1214-4.99483E-07 1.28593E+02 4.44803E-08
 -1      1216-5.11582E-07 2.33621E+02-1.18181E-08
 -1      1225 4.91563E-07-5.47234E+01 1.00009E+02
 -1      1227 4.70149E-07-5.47234E+01-1.00009E+02
 -1      1228-4.91665E-07 6.40038E+01-2.17373E-07
 -1      1230-5.01979E-07 1.91423E+02 7.63640E-08
 -1      1239 4.87142E-07-1.32709E+02 1.38242E+02
 -1      1241 5.11488E-07-1.32709E+02-1.38242E+02
 -1      1242-4.72456E-07 1.29866E+02-1.05761E-07
 -1      1244-4.77125E-07 3.05997E+02 8.36170E-08
 -1      1253 4.52262E-07-1.01105E+02 1.74142E+02
 -1      1255 4.44565E-07-1.01105E+02-1.74142E+02
 -1      1256-4.69848E-07 8.82874E+01 1.06991E-07
 -1      1258-4.74963E-07 3.10157E+02-1.01293E-07
 -1      1267 4.84827E-07-1.52716E+02 2.16132E+02
 -1      1269 4.94397E-07-1.52716E+02-2.16132E+02
 -1      1270-4.68099E-07 1.26647E+02 4.71723E-08
 -1      1272-4.63403E-07 4.02016E+02-1.67063E-07
 -1      1281 4.91948E-07-1.44747E+02 2.62329E+02
 -1      1283 5.24094E-07-1.44747E+02-2.62329E+02
 -1      1284-4.76507E-07 1.03293E+02-4.15200E-07
 -1      1286-4.74427E-07 4.37519E+02 2.93762E-07
 -1      1295 4.48742E-07-1.80886E+02 3.10722E+02
 -1      1297 4.93035E-07-1.80886E+02-3.10722E+02
 -1      1298-5.11193E-07 1.23134E+02-8.50759E-08
 -1      1300-4.99506E-07 5.19017E+02 1.53445E-08
 -1      1309 5.03685E-07-1.86304E+02 3.63925E+02
 -1      1311 4.63353E-07-1.86304E+02-3.63925E+02
 -1      1312-4.61485E-07 1.09624E+02 6.19404E-08
 -1      1314-4.65451E-07 5.73292E+02-6.64657E-08
 -1      1323 4.86394E-07-2.14617E+02 4.18431E+02
 -1      1325 4.47959E-07-2.14617E+02-4.18431E+02
 -1      1326-4.65898E-07 1.18559E+02-1.31793E-07
 -1      1328-4.65778E-07 6.51672E+02 1.40432E-07
 -1      1337 4.69374E-07-2.27209E+02 4.76802E+02
 -1      1339 4.17186E-07-2.27209E+02-4.76802E+02
 -1      1340-4.77879E-07 1.09641E+02-3.86554E-07
 -1      1342-4.75966E-07 7.17122E+02 4.70609E-07
 -1      1351 5.39127E-07-2.51818E+02 5.36056E+02
 -1      1353 4.66250E-07-2.51818E+02-5.36056E+02
 -1      1354-5.50011E-07 1.12459E+02 5.47491E-07
 -1      1356-5.49484E-07 7.95433E+02-4.84797E-07
 -1      1365 5.43300E-07-2.68137E+02 5.97882E+02
 -1      1367 5.87598E-07-2.68137E+02-5.97882E+02
 -1      1368-5.13022E-07 1.05585E+02 7.64162E-07
 -1      1370-5.10131E-07 8.67331E+02-1.00098E-06
 -1      1379 4.02689E-07-2.91261E+02 6.59892E+02
 -1      1381 5.26241E-07-2.91261E+02-6.59892E+02
 -1      1382-5.27007E-07 1.05594E+02-1.21911E-08
 -1      1384-4.99596E-07 9.46346E+02-6.13756E-07
 -1      1393 4.98331E-07-3.09071E+02 7.22964E+02
 -1      1395 3.77499E-07-3.09071E+02-7.22964E+02
 -1      1396-3.97761E-07 9.97689E+01-2.04607E-07
 -1      1398-3.81180E-07 1.02088E+03-2.92220E-08
 -1      1407 3.47845E-07-3.32481E+02 7.84993E+02
 -1      1409 5.12409E-07-3.32481E+02-7.84993E+02
 -1      1410-3.62020E-07 1.00330E+02 2.91407E-07
 -1      1412-3.58724E-07 1.10047E+03 1.69047E-07
 -1      1421 3.31028E-07-3.49339E+02 8.45993E+02
 -1      1423 4.14055E-07-3.49339E+02-8.45993E+02
 -1      1424-3.95109E-07 9.50846E+01 1.41510E-07
 -1      1426-4.01006E-07 1.17294E+03-1.20070E-07
 -1      1435 1.61466E-07-3.75899E+02 9.04131E+02
 -1      1437 3.71974E-07-3.75899E+02-9.04131E+02
 -1      1438-2.32229E-07 1.01427E+02 6.41846E-07
 -1      1440-2.36996E-07 1.25336E+03-9.12285E-07
 -1      1449 1.69220E-07-3.87361E+02 9.57569E+02
 -1      1451 2.60431E-07-3.87361E+02-9.57569E+02
 -1      1452-2.95060E-07 9.57067E+01-8.65745E-07
 -1      1454-2.74197E-07 1.31572E+03 8.25336E-07
 -1      1463 9.75887E-08-4.23298E+02 1.00512E+03
 -1      1465 1.09182E-07-4.23298E+02-1.00512E+03
 -1      1466-7.56733E-08 1.18231E+02-3.36202E-07
 -1      1468-6.55906E-08 1.39883E+03 1.15921E-07
 -1      1477-1.32413E-07-4.19579E+02 1.04023E+03
 -1      1479-2.37303E-08-4.19579E+02-1.04023E+03
 -1      1480-6.32264E-08 1.09036E+02 1.30476E-06
 -1      1482-3.71685E-08 1.43437E+03-1.10205E-06
 -1      1491-2.25790E-07 1.49650E+02 1.85276E-07
 -1      1493 9.79974E-08 1.49650E+02 2.45091E-08
 -1      1494-3.20356E-07 1.49764E+02 1.06544E-08
 -1      1496-1.28856E-07 1.49764E+02-1.65037E-08
 -1      1497 4.15511E-08 1.49650E+02-2.65025E-07
 -1      1499 3.95227E-08 1.49650E+02-9.74672E-08
 -1      1500 2.71060E-01 3.29673E-01-6.71250E-03
 -1      1502 2.71060E-01 3.29673E-01-6.71250E-03
 -1      1503 5.35500E-01 9.43174E-01-1.40919E-02
 -1      1505 5.35500E-01 9.43174E-01-1.40919E-02
 -1      1506 7.87539E-01 1.93659E+00-2.14151E-02
 -1      1508 7.87539E-01 1.93659E+00-2.14151E-02
 -1      1509 1.02625E+00 3.29472E+00-2.86175E-02
 -1      1511 1.02625E+00 3.29472E+00-2.86175E-02
 -1      1512 1.25208E+00 4.99642E+00-3.58458E-02
 -1      1514 1.25208E+00 4.99642E+00-3.58458E-02
 -1      1515 1.46490E+00 7.02316E+00-4.30476E-02
 -1      1517 1.46490E+00 7.02316E+00-4.30477E-02
 -1      1518 1.66483E+00 9.35552E+00-5.02592E-02
 -1      1520 1.66483E+00 9.35552E+00-5.02591E-02
 -1      1521 1.85195E+00 1.19745E+01-5.74555E-02
 -1      1523 1.85195E+00 1.19745E+01-5.74555E-02
 -1      1524 2.02636E+00 1.48611E+01-6.46387E-02
 -1      1526 2.02636E+00 1.48611E+01-6.46387E-02
 -1      1527 2.18820E+00 1.79966E+01-7.17910E-02
 -1      1529 2.18820E+00 1.79966E+01-7.17910E-02
 -1      1530 2.33765E+00 2.13626E+01-7.88995E-02
 -1      1532 2.33765E+00 2.13626E+01-7.88995E-02
 -1      1533 2.47489E+00 2.49406E+01-8.59442E-02
 -1      1535 2.47489E+00 2.49406E+01-8.59443E-02
 -1      1536 2.60019E+00 2.87128E+01-9.29040E-02
 -1      1538 2.60019E+00 2.87128E+01-9.29041E-02
 -1      1539 2.71380E+00 3.26617E+01-9.97544E-02
 -1      1541 2.71380E+00 3.26617E+01-9.97544E-02
 -1      1542 2.81604E+00 3.67701E+01-1.06468E-01
 -1      1544 2.81604E+00 3.67701E+01-1.06468E-01
 -1      1545 2.90728E+00 4.10214E+01-1.13016E-01
 -1      1547 2.90728E+00 4.10214E+01-1.13016E-01
 -1      1548 2.98790E+00 4.53996E+01-1.19366E-01
 -1      1550 2.98790E+00 4.53996E+01-1.19366E-01
 -1      1551 3.05837E+00 4.98891E+01-1.25485E-01
 -1      1553 3.05837E+00 4.98891E+01-1.25485E-01
 -1      1554 3.11915E+00 5.44753E+01-1.31336E-01
 -1      1556 3.11915E+00 5.44753E+01-1.31336E-01
 -1      1557 3.17080E+00 5.91442E+01-1.36884E-01
 -1      1559 3.17080E+00 5.91442E+01-1.36883E-01
 -1      1560 3.21390E+00 6.38826E+01-1.42088E-01
 -1      1562 3.21390E+00 6.38826E+01-1.42088E-01
 -1      1563 3.24907E+00 6.86783E+01-1.46910E-01
 -1      1565 3.24907E+00 6.86783E+01-1.46910E-01
 -1      1566 3.27701E+00 7.35200E+01-1.51308E-01
 -1      1568 3.27701E+00 7.35200E+01-1.51308E-01
 -1      1569 3.29843E+00 7.83973E+01-1.55243E-01
 -1      1571 3.29843E+00 7.83973E+01-1.55243E-01
 -1      1572 3.31413E+00 8.33013E+01-1.58672E-01
 -1      1574 3.31413E+00 8.33013E+01-1.58672E-01
 -1      1575 3.32493E+00 8.82240E+01-1.61556E-01
 -1      1577 3.32493E+00 8.82240E+01-1.61556E-01
 -1      1578 3.33171E+00 9.31588E+01-1.63856E-01
 -1      1580 3.33171E+00 9.31588E+01-1.63856E-01
 -1      1581 3.33541E+00 9.81002E+01-1.65533E-01
 -1      1583 3.33541E+00 9.81002E+01-1.65533E-01
 -1      1584 3.33701E+00 1.03044E+02-1.66558E-01
 -1      1586 3.33701E+00 1.03044E+02-1.66558E-01
 -1      1587 2.22492E+00 1.05517E+02-1.11700E-01
 -1      1589 2.22492E+00 1.05517E+02-1.11701E-01
 -1      1590-1.48986E+05 7.08240E+03 1.59475E+02
 -1      1592-1.47962E+05 7.25806E+03 1.59475E+02
 -1      1593-2.22492E+00 1.05517E+02 1.11701E-01
 -1      1595-2.22492E+00 1.05517E+02 1.11700E-01
 -1      1596-2.71060E-01 3.29673E-01 6.71250E-03
 -1      1598-2.71060E-01 3.29673E-01 6.71250E-03
 -1      1599-5.35500E-01 9.43174E-01 1.40919E-02
 -1      1601-5.35500E-01 9.43174E-01 1.40919E-02
 -1      1602-7.87539E-01 1.93659E+00 2.14151E-02
 -1      1604-7.87539E-01 1.93659E+00 2.14151E-02
 -1      1605-1.02625E+00 3.29472E+00 2.86175E-02
 -1      1607-1.02625E+00 3.29472E+00 2.86175E-02
 -1      1608-1.25208E+00 4.99642E+00 3.58458E-02
 -1      1610-1.25208E+00 4.99642E+00 3.58458E-02
 -1      1611-1.46490E+00 7.02316E+00 4.30477E-02
 -1      1613-1.46490E+00 7.02316E+00 4.30476E-02
 -1      1614-1.66483E+00 9.35552E+00 5.02591E-02
 -1      1616-1.66483E+00 9.35552E+00 5.02591E-02
 -1      1617-1.85195E+00 1.19745E+01 5.74554E-02
 -1      1619-1.85195E+00 1.19745E+01 5.74555E-02
 -1      1620-2.02636E+00 1.48611E+01 6.46387E-02
 -1      1622-2.02636E+00 1.48611E+01 6.46387E-02
 -1      1623-2.18820E+00 1.79966E+01 7.17910E-02
 -1      1625-2.18820E+00 1.79966E+01 7.17910E-02
 -1      1626-2.33765E+00 2.13626E+01 7.88996E-02
 -1      1628-2.33765E+00 2.13626E+01 7.88994E-02
 -1      1629-2.47489E+00 2.49406E+01 8.59443E-02
 -1      1631-2.47489E+00 2.49406E+01 8.59442E-02
 -1      1632-2.60019E+00 2.87128E+01 9.29041E-02
 -1      1634-2.60019E+00 2.87128E+01 9.29041E-02
 -1      1635-2.71380E+00 3.26617E+01 9.97544E-02
 -1      1637-2.71380E+00 3.26617E+01 9.97544E-02
 -1      1638-2.81604E+00 3.67701E+01 1.06468E-01
 -1      1640-2.81604E+00 3.67701E+01 1.06468E-01
 -1      1641-2.90728E+00 4.10214E+01 1.13016E-01
 -1      1643-2.90728E+00 4.10214E+01 1.13016E-01
 -1      1644-2.98790E+00 4.53996E+01 1.19366E-01
 -1      1646-2.98790E+00 4.53996E+01 1.19366E-01
 -1      1647-3.05837E+00 4.98891E+01 1.25485E-01
 -1      1649-3.05837E+00 4.98891E+01 1.25485E-01
 -1      1650-3.11915E+00 5.44753E+01 1.31336E-01
 -1      1652-3.11915E+00 5.44753E+01 1.31336E-01
 -1      1653-3.17080E+00 5.91442E+01 1.36883E-01
 -1      1655-3.17080E+00 5.91442E+01 1.36883E-01
 -1      1656-3.21390E+00 6.38826E+01 1.42088E-01
 -1      1658-3.21390E+00 6.38826E+01 1.42088E-01
 -1      1659-3.24907E+00 6.86783E+01 1.46910E-01
 -1      1661-3.24907E+00 6.86783E+01 1.46910E-01
 -1      1662-3.27701E+00 7.35200E+01 1.51308E-01
 -1      1664-3.27701E+00 7.35200E+01 1.51308E-01
 -1      1665-3.29843E+00 7.83973E+01 1.55243E-01
 -1      1667-3.29843E+00 7.83973E+01 1.55243E-01
 -1      1668-3.31413E+00 8.33013E+01 1.58672E-01
 -1      1670-3.31413E+00 8.33013E+01 1.58672E-01
 -1      1671-3.32493E+00 8.82240E+01 1.61556E-01
 -1      1673-3.32493E+00 8.82240E+01 1.61556E-01
 -1      1674-3.33171E+00 9.31588E+01 1.63856E-01
 -1      1676-3.33171E+00 9.31588E+01 1.63856E-01
 -1      1677-3.33541E+00 9.81002E+01 1.65533E-01
 -1      1679-3.33541E+00 9.81002E+01 1.65533E-01
 -1      1680-3.33701E+00 1.03044E+02 1.66558E-01
 -1      1682-3.33701E+00 1.03044E+02 1.66558E-01
 -1      1683 1.48986E+05 7.08240E+03-1.59475E+02
 -1      1685 1.47962E+05 7.25806E+03-1.59475E+02
 -1      1686-3.60275E-01 6.36636E-01-9.00830E-03
 -1      1688-3.60275E-01 6.36636E-01-9.00830E-03
 -1      1689-7.13362E-01 1.86210E+00-1.88678E-02
 -1      1691-7.13362E-01 1.86210E+00-1.88678E-02
 -1      1692-1.04944E+00 3.85159E+00-2.86161E-02
 -1      1694-1.04944E+00 3.85159E+00-2.86161E-02
 -1      1695-1.36760E+00 6.56833E+00-3.82039E-02
 -1      1697-1.36760E+00 6.56833E+00-3.82039E-02
 -1      1698-1.66880E+00 9.97318E+00-4.78324E-02
 -1      1700-1.66880E+00 9.97318E+00-4.78324E-02
 -1      1701-1.95251E+00 1.40277E+01-5.74314E-02
 -1      1703-1.95251E+00 1.40277E+01-5.74314E-02
 -1      1704-2.21912E+00 1.86936E+01-6.70504E-02
 -1      1706-2.21912E+00 1.86936E+01-6.70505E-02
 -1      1707-2.46860E+00 2.39327E+01-7.66543E-02
 -1      1709-2.46860E+00 2.39327E+01-7.66543E-02
 -1      1710-2.70116E+00 2.97071E+01-8.62465E-02
 -1      1712-2.70116E+00 2.97071E+01-8.62465E-02
 -1      1713-2.91696E+00 3.59793E+01-9.58019E-02
 -1      1715-2.91696E+00 3.59793E+01-9.58019E-02
 -1      1716-3.11623E+00 4.27122E+01-1.05303E-01
 -1      1718-3.11623E+00 4.27122E+01-1.05304E-01
 -1      1719-3.29924E+00 4.98694E+01-1.14724E-01
 -1      1721-3.29924E+00 4.98694E+01-1.14724E-01
 -1      1722-3.46631E+00 5.74149E+01-1.24036E-01
 -1      1724-3.46631E+00 5.74149E+01-1.24036E-01
 -1      1725-3.61781E+00 6.53137E+01-1.33205E-01
 -1      1727-3.61781E+00 6.53137E+01-1.33205E-01
 -1      1728-3.75415E+00 7.35315E+01-1.42195E-01
 -1      1730-3.75415E+00 7.35315E+01-1.42195E-01
 -1      1731-3.87582E+00 8.20351E+01-1.50967E-01
 -1      1733-3.87582E+00 8.20351E+01-1.50967E-01
 -1      1734-3.98334E+00 9.07924E+01-1.59478E-01
 -1      1736-3.98334E+00 9.07924E+01-1.59478E-01
 -1      1737-4.07732E+00 9.97724E+01-1.67682E-01
 -1      1739-4.07732E+00 9.97724E+01-1.67682E-01
 -1      1740-4.15840E+00 1.08946E+02-1.75533E-01
 -1      1742-4.15840E+00 1.08946E+02-1.75533E-01
 -1      1743-4.22729E+00 1.18284E+02-1.82979E-01
 -1      1745-4.22729E+00 1.18284E+02-1.82979E-01
 -1      1746-4.28479E+00 1.27762E+02-1.89969E-01
 -1      1748-4.28479E+00 1.27762E+02-1.89969E-01
 -1      1749-4.33172E+00 1.37354E+02-1.96450E-01
 -1      1751-4.33172E+00 1.37354E+02-1.96450E-01
 -1      1752-4.36901E+00 1.47038E+02-2.02366E-01
 -1      1754-4.36901E+00 1.47038E+02-2.02366E-01
 -1      1755-4.39761E+00 1.56793E+02-2.07662E-01
 -1      1757-4.39761E+00 1.56793E+02-2.07662E-01
 -1      1758-4.41858E+00 1.66602E+02-2.12283E-01
 -1      1760-4.41858E+00 1.66602E+02-2.12283E-01
 -1      1761-4.43303E+00 1.76447E+02-2.16172E-01
 -1      1763-4.43303E+00 1.76447E+02-2.16172E-01
 -1      1764-4.44212E+00 1.86317E+02-2.19277E-01
 -1      1766-4.44212E+00 1.86317E+02-2.19277E-01
 -1      1767-4.44710E+00 1.96200E+02-2.21544E-01
 -1      1769-4.44710E+00 1.96200E+02-2.21544E-01
 -1      1770-4.44929E+00 2.06089E+02-2.22930E-01
 -1      1772-4.44929E+00 2.06089E+02-2.22930E-01
 -1      1773 3.60275E-01 6.36636E-01 9.00830E-03
 -1      1775 3.60275E-01 6.36636E-01 9.00830E-03
 -1      1776 7.13362E-01 1.86210E+00 1.88678E-02
 -1      1778 7.13362E-01 1.86210E+00 1.88678E-02
 -1      1779 1.04944E+00 3.85159E+00 2.86161E-02
 -1      1781 1.04944E+00 3.85159E+00 2.86161E-02
 -1      1782 1.36760E+00 6.56833E+00 3.82039E-02
 -1      1784 1.36760E+00 6.56833E+00 3.82039E-02
 -1      1785 1.66880E+00 9.97318E+00 4.78324E-02
 -1      1787 1.66880E+00 9.97318E+00 4.78324E-02
 -1      1788 1.95251E+00 1.40277E+01 5.74314E-02
 -1      1790 1.95251E+00 1.40277E+01 5.74313E-02
 -1      1791 2.21912E+00 1.86936E+01 6.70505E-02
 -1      1793 2.21912E+00 1.86936E+01 6.70505E-02
 -1      1794 2.46860E+00 2.39327E+01 7.66543E-02
 -1      1796 2.46860E+00 2.39327E+01 7.66543E-02
 -1      1797 2.70116E+00 2.97071E+01 8.62465E-02
 -1      1799 2.70116E+00 2.97071E+01 8.62465E-02
 -1      1800 2.91696E+00 3.59793E+01 9.58018E-02
 -1      1802 2.91696E+00 3.59793E+01 9.58019E-02
 -1      1803 3.11623E+00 4.27122E+01 1.05304E-01
 -1      1805 3.11623E+00 4.27122E+01 1.05304E-01
 -1      1806 3.29924E+00 4.98694E+01 1.14724E-01
 -1      1808 3.29924E+00 4.98694E+01 1.14724E-01
 -1      1809 3.46631E+00 5.74149E+01 1.24036E-01
 -1      1811 3.46631E+00 5.74149E+01 1.24036E-01
 -1      1812 3.61781E+00 6.53137E+01 1.33205E-01
 -1      1814 3.61781E+00 6.53137E+01 1.33205E-01
 -1      1815 3.75415E+00 7.35315E+01 1.42195E-01
 -1      1817 3.75415E+00 7.35315E+01 1.42195E-01
 -1      1818 3.87582E+00 8.20351E+01 1.50967E-01
 -1      1820 3.87582E+00 8.20351E+01 1.50967E-01
 -1      1821 3.98334E+00 9.07924E+01 1.59478E-01
 -1      1823 3.98334E+00 9.07924E+01 1.59478E-01
 -1      1824 4.07732E+00 9.97724E+01 1.67682E-01
 -1      1826 4.07732E+00 9.97724E+01 1.67682E-01
 -1      1827 4.15840E+00 1.08946E+02 1.75533E-01
 -1      1829 4.15840E+00 1.08946E+02 1.75533E-01
 -1      1830 4.22729E+00 1.18284E+02 1.82979E-01
 -1      1832 4.22729E+00 1.18284E+02 1.82979E-01
 -1      1833 4.28479E+00 1.27762E+02 1.89969E-01
 -1      1835 4.28479E+00 1.27762E+02 1.89970E-01
 -1      1836 4.33172E+00 1.37354E+02 1.96449E-01
 -1      1838 4.33172E+00 1.37354E+02 1.96450E-01
 -1      1839 4.36901E+00 1.47038E+02 2.02366E-01
 -1      1841 4.36901E+00 1.47038E+02 2.02366E-01
 -1      1842 4.39761E+00 1.56793E+02 2.07662E-01
 -1      1844 4.39761E+00 1.56793E+02 2.07662E-01
 -1      1845 4.41858E+00 1.66602E+02 2.12283E-01
 -1      1847 4.41858E+00 1.66602E+02 2.12283E-01
 -1      1848 4.43303E+00 1.76447E+02 2.16172E-01
 -1      1850 4.43303E+00 1.76447E+02 2.16172E-01
 -1      1851 4.44212E+00 1.86317E+02 2.19277E-01
 -1      1853 4.44212E+00 1.86317E+02 2.19277E-01
 -1      1854 4.44710E+00 1.96200E+02 2.21544E-01
 -1      1856 4.44710E+00 1.96200E+02 2.21544E-01
 -1      1857 4.44929E+00 2.06089E+02 2.22930E-01
 -1      1859 4.44929E+00 2.06089E+02 2.22930E-01
 -1      1860 1.86661E-09 8.79927E-01 3.54621E-10
 -1      1862-1.29650E-09 8.79927E-01 4.29296E-10
 -1      1863 8.53078E-10 2.63076E+00-2.96883E-09
 -1      1865-2.75068E-09 2.63076E+00-1.67731E-10
 -1      1866 3.16899E-09 5.47448E+00-4.67577E-09
 -1      1868 4.41889E-09 5.47448E+00-4.70703E-09
 -1      1869-9.10988E-09 9.34297E+00-1.89267E-10
 -1      1871 1.69409E-09 9.34297E+00-9.99510E-09
 -1      1872-9.09139E-10 1.41875E+01 6.73133E-09
 -1      1874-1.51456E-08 1.41875E+01-3.75351E-09
 -1      1875 6.35177E-09 1.99518E+01-1.10194E-08
 -1      1877-9.76161E-09 1.99518E+01-3.31415E-09
 -1      1878 6.12394E-09 2.65816E+01-2.97523E-09
 -1      1880 2.13778E-08 2.65816E+01-2.48887E-08
 -1      1881-1.08102E-08 3.40233E+01-1.99080E-08
 -1      1883-2.49930E-08 3.40233E+01-4.63632E-08
 -1      1884-2.68654E-08 4.22227E+01 1.58522E-08
 -1      1886-1.89245E-08 4.22227E+01-1.01900E-08
 -1      1887 2.95064E-08 5.11271E+01 1.15959E-08
 -1      1889 1.46222E-08 5.11271E+01 2.61606E-08
 -1      1890-3.17307E-08 6.06837E+01 2.26560E-08
 -1      1892 1.83347E-08 6.06837E+01-2.11968E-08
 -1      1893-8.05422E-08 7.08408E+01-2.01226E-08
 -1      1895-5.19164E-08 7.08408E+01-5.71467E-08
 -1      1896-3.41868E-08 8.15476E+01-9.75466E-08
 -1      1898 1.24945E-08 8.15476E+01-2.65964E-08
 -1      1899-4.20414E-08 9.27543E+01-6.71816E-08
 -1      1901 7.97815E-08 9.27543E+01-2.27746E-08
 -1      1902 2.41848E-08 1.04412E+02-1.08609E-07
 -1      1904 6.47663E-08 1.04412E+02 3.00261E-08
 -1      1905-1.59811E-08 1.16474E+02-1.38031E-07
 -1      1907-3.17322E-08 1.16474E+02-5.20107E-08
 -1      1908 1.73747E-08 1.28895E+02-8.89783E-08
 -1      1910-1.41354E-07 1.28895E+02-3.00572E-08
 -1      1911-9.11343E-08 1.41630E+02-4.32868E-09
 -1      1913-2.60491E-09 1.41630E+02 1.56825E-07
 -1      1914 1.62612E-08 1.54638E+02-4.20107E-08
 -1      1916-3.13082E-08 1.54638E+02-8.34126E-08
 -1      1917-2.16069E-08 1.67880E+02-1.06726E-07
 -1      1919-1.61079E-08 1.67880E+02 5.58265E-09
 -1      1920 5.95843E-08 1.81316E+02 5.00249E-08
 -1      1922 2.07609E-07 1.81316E+02 1.06759E-08
 -1      1923 1.98026E-08 1.94914E+02 1.38664E-07
 -1      1925 1.19043E-08 1.94914E+02 1.48287E-07
 -1      1926-9.77306E-08 2.08640E+02-3.67415E-08
 -1      1928-1.46526E-07 2.08640E+02-8.59688E-09
 -1      1929-1.36592E-07 2.22466E+02-7.41087E-08
 -1      1931 6.01778E-08 2.22466E+02 7.84294E-08
 -1      1932-4.42049E-08 2.36365E+02 1.12718E-07
 -1      1934-3.07353E-08 2.36365E+02 1.54570E-07
 -1      1935 8.87741E-08 2.50315E+02 4.40742E-09
 -1      1937 9.11309E-08 2.50315E+02 2.72155E-08
 -1      1938 3.30566E-08 2.64296E+02 5.30007E-08
 -1      1940 1.24187E-07 2.64296E+02 9.70427E-08
 -1      1941 1.64604E-07 2.78294E+02 1.75228E-07
 -1      1943-1.03222E-07 2.78294E+02-5.62827E-08
 -1      1944-9.97135E-08 2.92297E+02 3.45037E-07
 -1      1946 1.42734E-07 2.92297E+02 1.42017E-07
 -1      1947 9.57442E-10 8.90739E-01 1.41753E-11
 -1      1949 2.79570E-10 8.90739E-01-9.47438E-11
 -1      1950-2.08819E-09 2.65008E+00-9.74964E-10
 -1      1952-7.33250E-09 2.65008E+00-1.68914E-09
 -1      1953 3.80145E-09 5.50255E+00 2.88722E-09
 -1      1955 4.10522E-09 5.50255E+00 1.84384E-09
 -1      1956-4.06857E-09 9.38003E+00-6.95806E-10
 -1      1958 9.46474E-09 9.38003E+00-1.13961E-09
 -1      1959 9.32599E-09 1.42335E+01 3.27129E-09
 -1      1961-8.54351E-09 1.42335E+01 2.98193E-09
 -1      1962-1.24693E-08 2.00070E+01-3.36527E-09
 -1      1964-1.38499E-08 2.00070E+01 3.40105E-09
 -1      1965 1.94521E-09 2.66459E+01-7.25480E-09
 -1      1967 8.39796E-09 2.66459E+01 1.13361E-09
 -1      1968-1.11827E-08 3.40969E+01 1.75953E-08
 -1      1970-1.51389E-08 3.40969E+01-1.14602E-09
 -1      1971-3.98612E-09 4.23057E+01-1.00163E-09
 -1      1973 6.59698E-09 4.23057E+01 1.25253E-08
 -1      1974 2.00615E-08 5.12196E+01-6.95760E-08
 -1      1976 1.62170E-08 5.12196E+01 1.26668E-08
 -1      1977-4.47078E-08 6.07857E+01-6.52026E-08
 -1      1979-1.79504E-08 6.07857E+01-6.00824E-08
 -1      1980-1.09235E-07 7.09523E+01-2.67372E-08
 -1      1982-1.01078E-07 7.09523E+01-7.38634E-09
 -1      1983 7.83008E-09 8.16686E+01 4.46876E-08
 -1      1985 8.27473E-08 8.16686E+01-4.31584E-09
 -1      1986 5.91976E-08 9.28847E+01-3.61958E-08
 -1      1988-2.69653E-08 9.28847E+01 1.49442E-08
 -1      1989 7.12293E-09 1.04552E+02-3.70550E-08
 -1      1991 7.33765E-08 1.04552E+02-6.17813E-08
 -1      1992-4.35783E-08 1.16623E+02 4.27673E-08
 -1      1994-1.79860E-09 1.16623E+02-5.85904E-08
 -1      1995 6.62773E-08 1.29053E+02-2.93780E-08
 -1      1997-8.38136E-08 1.29053E+02-5.87992E-08
 -1      1998-7.00297E-08 1.41797E+02-6.96509E-08
 -1      2000 4.84913E-08 1.41797E+02-1.34493E-08
 -1      2001 9.73339E-08 1.54814E+02-9.71380E-08
 -1      2003-5.14804E-08 1.54814E+02-1.49418E-08
 -1      2004 4.76870E-08 1.68063E+02-1.78630E-07
 -1      2006-3.14185E-08 1.68063E+02-5.34871E-08
 -1      2007 6.32629E-08 1.81507E+02-3.36859E-07
 -1      2009 1.84060E-07 1.81507E+02-1.34344E-07
 -1      2010 6.52369E-08 1.95112E+02-6.42740E-08
 -1      2012 1.42693E-07 1.95112E+02-2.01581E-07
 -1      2013 9.84395E-08 2.08845E+02 1.41720E-07
 -1      2015-8.37685E-08 2.08845E+02-3.94671E-08
 -1      2016-1.97768E-07 2.22677E+02-6.04895E-08
 -1      2018 1.84066E-08 2.22677E+02 1.10053E-07
 -1      2019-1.27580E-08 2.36581E+02 1.02813E-07
 -1      2021 6.52298E-08 2.36581E+02 1.98273E-08
 -1      2022 7.45564E-08 2.50536E+02 1.68055E-07
 -1      2024-2.50745E-07 2.50536E+02 1.03456E-07
 -1      2025-2.89707E-08 2.64521E+02-1.80247E-08
 -1      2027-4.82849E-08 2.64521E+02-2.36469E-08
 -1      2028 3.09376E-07 2.78522E+02 1.42984E-07
 -1      2030-6.24452E-09 2.78522E+02 1.05685E-07
 -1      2031 7.25935E-08 2.92527E+02-6.38792E-09
 -1      2033 1.70611E-07 2.92527E+02 7.51639E-08
 -1      2034 8.09905E-10 8.79927E-01 3.23571E-10
 -1      2036-6.17462E-11 8.79927E-01-1.10331E-09
 -1      2037-2.34479E-10 2.63076E+00 1.75105E-09
 -1      2039-3.92586E-09 2.63076E+00-2.92992E-10
 -1      2040 2.97020E-09 5.47448E+00 1.04457E-10
 -1      2042 3.84871E-09 5.47448E+00-8.97984E-11
 -1      2043-6.53377E-09 9.34297E+00 2.94427E-09
 -1      2045-2.36322E-09 9.34297E+00-5.87176E-09
 -1      2046 3.00003E-09 1.41875E+01 1.36111E-08
 -1      2048 1.13706E-08 1.41875E+01-7.56607E-10
 -1      2049-1.39659E-08 1.99518E+01 5.40135E-09
 -1      2051 3.70142E-09 1.99518E+01 2.48628E-08
 -1      2052-9.10609E-09 2.65816E+01 1.84990E-08
 -1      2054-1.68905E-08 2.65816E+01 2.28306E-08
 -1      2055 8.84799E-09 3.40233E+01-2.71563E-08
 -1      2057 7.96602E-09 3.40233E+01-1.02485E-08
 -1      2058-1.22815E-08 4.22227E+01 7.93605E-10
 -1      2060-8.05922E-09 4.22227E+01 6.78310E-09
 -1      2061 5.61017E-09 5.11271E+01 6.51886E-08
 -1      2063-6.14423E-09 5.11271E+01 1.47251E-08
 -1      2064-3.65208E-08 6.06836E+01-4.58655E-08
 -1      2066-3.13573E-08 6.06837E+01 3.00036E-08
 -1      2067-2.63204E-08 7.08408E+01 5.80139E-08
 -1      2069 4.69227E-08 7.08408E+01 7.92193E-08
 -1      2070-3.24260E-08 8.15476E+01 9.20669E-08
 -1      2072-7.21960E-09 8.15476E+01 8.58480E-08
 -1      2073 2.03992E-08 9.27543E+01 3.94874E-08
 -1      2075-3.28206E-08 9.27543E+01-2.98160E-08
 -1      2076 3.83244E-08 1.04412E+02 9.55203E-08
 -1      2078 8.42486E-08 1.04412E+02-3.09740E-08
 -1      2079-9.82892E-08 1.16474E+02 3.68869E-08
 -1      2081 4.64016E-08 1.16474E+02-9.82840E-09
 -1      2082 2.66632E-08 1.28895E+02 1.74066E-07
 -1      2084-1.06373E-08 1.28895E+02-1.59547E-08
 -1      2085 6.55404E-09 1.41630E+02 2.36508E-07
 -1      2087 7.23923E-08 1.41630E+02 2.98108E-08
 -1      2088 9.76168E-08 1.54638E+02 7.46269E-08
 -1      2090-1.08643E-07 1.54638E+02-6.09966E-08
 -1      2091-3.50299E-08 1.67880E+02 1.05472E-07
 -1      2093-1.74260E-07 1.67880E+02-1.29387E-07
 -1      2094-5.32693E-08 1.81316E+02 2.07949E-07
 -1      2096 2.20018E-07 1.81316E+02-6.96491E-08
 -1      2097 1.60221E-07 1.94914E+02-6.38773E-08
 -1      2099 1.09698E-07 1.94914E+02-6.14038E-08
 -1      2100 1.85111E-07 2.08640E+02-1.57244E-07
 -1      2102-4.01593E-08 2.08640E+02-2.57062E-07
 -1      2103-8.06255E-08 2.22466E+02 2.49720E-08
 -1      2105 1.17831E-07 2.22466E+02-5.01006E-08
 -1      2106 4.30114E-08 2.36365E+02 1.95345E-07
 -1      2108 1.78904E-07 2.36365E+02 1.30714E-07
 -1      2109-1.15496E-08 2.50315E+02 6.11329E-08
 -1      2111-3.40664E-08 2.50315E+02 1.71904E-07
 -1      2112 3.39082E-09 2.64296E+02-2.24069E-07
 -1      2114 1.05353E-07 2.64296E+02 3.89942E-07
 -1      2115 2.88159E-09 2.78294E+02-1.21994E-07
 -1      2117-3.12088E-08 2.78294E+02 1.73731E-07
 -1      2118-9.29168E-08 2.92297E+02-6.05761E-07
 -1      2120-2.42346E-08 2.92297E+02 1.97922E-07
 -1      2121 3.60275E-01 6.36636E-01-9.00830E-03
 -1      2123 3.60275E-01 6.36636E-01-9.00830E-03
 -1      2124 7.13362E-01 1.86210E+00-1.88678E-02
 -1      2126 7.13362E-01 1.86210E+00-1.88678E-02
 -1      2127 1.04944E+00 3.85159E+00-2.86161E-02
 -1      2129 1.04944E+00 3.85159E+00-2.86161E-02
 -1      2130 1.36760E+00 6.56833E+00-3.82039E-02
 -1      2132 1.36760E+00 6.56833E+00-3.82039E-02
 -1      2133 1.66880E+00 9.97318E+00-4.78324E-02
 -1      2135 1.66880E+00 9.97318E+00-4.78324E-02
 -1      2136 1.95251E+00 1.40277E+01-5.74314E-02
 -1      2138 1.95251E+00 1.40277E+01-5.74314E-02
 -1      2139 2.21912E+00 1.86936E+01-6.70504E-02
 -1      2141 2.21912E+00 1.86936E+01-6.70505E-02
 -1      2142 2.46860E+00 2.39327E+01-7.66543E-02
 -1      2144 2.46860E+00 2.39327E+01-7.66543E-02
 -1      2145 2.70116E+00 2.97071E+01-8.62465E-02
 -1      2147 2.70116E+00 2.97071E+01-8.62465E-02
 -1      2148 2.91696E+00 3.59793E+01-9.58019E-02
 -1      2150 2.91696E+00 3.59793E+01-9.58019E-02
 -1      2151 3.11623E+00 4.27122E+01-1.05303E-01
 -1      2153 3.11623E+00 4.27122E+01-1.05304E-01
 -1      2154 3.29924E+00 4.98694E+01-1.14724E-01
 -1      2156 3.29924E+00 4.98694E+01-1.14724E-01
 -1      2157 3.46631E+00 5.74149E+01-1.24036E-01
 -1      2159 3.46631E+00 5.74149E+01-1.24036E-01
 -1      2160 3.61781E+00 6.53137E+01-1.33205E-01
 -1      2162 3.61781E+00 6.53137E+01-1.33205E-01
 -1      2163 3.75415E+00 7.35315E+01-1.42195E-01
 -1      2165 3.75415E+00 7.35315E+01-1.42195E-01
 -1      2166 3.87582E+00 8.20351E+01-1.50967E-01
 -1      2168 3.87582E+00 8.20351E+01-1.50967E-01
 -1      2169 3.98334E+00 9.07924E+01-1.59478E-01
 -1      2171 3.98334E+00 9.07924E+01-1.59477E-01
 -1      2172 4.07732E+00 9.97724E+01-1.67682E-01
 -1      2174 4.07732E+00 9.97724E+01-1.67682E-01
 -1      2175 4.15840E+00 1.08946E+02-1.75533E-01
 -1      2177 4.15840E+00 1.08946E+02-1.75533E-01
 -1      2178 4.22729E+00 1.18284E+02-1.82979E-01
 -1      2180 4.22729E+00 1.18284E+02-1.82979E-01
 -1      2181 4.28479E+00 1.27762E+02-1.89969E-01
 -1      2183 4.28479E+00 1.27762E+02-1.89969E-01
 -1      2184 4.33172E+00 1.37354E+02-1.96450E-01
 -1      2186 4.33172E+00 1.37354E+02-1.96450E-01
 -1      2187 4.36901E+00 1.47038E+02-2.02366E-01
 -1      2189 4.36901E+00 1.47038E+02-2.02366E-01
 -1      2190 4.39761E+00 1.56793E+02-2.07662E-01
 -1      2192 4.39761E+00 1.56793E+02-2.07662E-01
 -1      2193 4.41858E+00 1.66602E+02-2.12283E-01
 -1      2195 4.41858E+00 1.66602E+02-2.12283E-01
 -1      2196 4.43303E+00 1.76447E+02-2.16172E-01
 -1      2198 4.43303E+00 1.76447E+02-2.16172E-01
 -1      2199 4.44212E+00 1.86317E+02-2.19277E-01
 -1      2201 4.44212E+00 1.86317E+02-2.19277E-01
 -1      2202 4.44710E+00 1.96200E+02-2.21543E-01
 -1      2204 4.44710E+00 1.96200E+02-2.21544E-01
 -1      2205 4.44929E+00 2.06089E+02-2.22930E-01
 -1      2207 4.44929E+00 2.06089E+02-2.22931E-01
 -1      2208-3.60275E-01 6.36636E-01 9.00830E-03
 -1      2210-3.60275E-01 6.36636E-01 9.00830E-03
 -1      2211-7.13362E-01 1.86210E+00 1.88678E-02
 -1      2213-7.13362E-01 1.86210E+00 1.88678E-02
 -1      2214-1.04944E+00 3.85159E+00 2.86162E-02
 -1      2216-1.04944E+00 3.85159E+00 2.86161E-02
 -1      2217-1.36760E+00 6.56833E+00 3.82039E-02
 -1      2219-1.36760E+00 6.56833E+00 3.82039E-02
 -1      2220-1.66880E+00 9.97318E+00 4.78324E-02
 -1      2222-1.66880E+00 9.97318E+00 4.78324E-02
 -1      2223-1.95251E+00 1.40277E+01 5.74314E-02
 -1      2225-1.95251E+00 1.40277E+01 5.74314E-02
 -1      2226-2.21912E+00 1.86936E+01 6.70504E-02
 -1      2228-2.21912E+00 1.86936E+01 6.70505E-02
 -1      2229-2.46860E+00 2.39327E+01 7.66543E-02
 -1      2231-2.46860E+00 2.39327E+01 7.66543E-02
 -1      2232-2.70116E+00 2.97071E+01 8.62465E-02
 -1      2234-2.70116E+00 2.97071E+01 8.62465E-02
 -1      2235-2.91696E+00 3.59793E+01 9.58019E-02
 -1      2237-2.91696E+00 3.59793E+01 9.58019E-02
 -1      2238-3.11623E+00 4.27122E+01 1.05304E-01
 -1      2240-3.11623E+00 4.27122E+01 1.05304E-01
 -1      2241-3.29924E+00 4.98694E+01 1.14724E-01
 -1      2243-3.29924E+00 4.98694E+01 1.14724E-01
 -1      2244-3.46631E+00 5.74149E+01 1.24036E-01
 -1      2246-3.46631E+00 5.74149E+01 1.24036E-01
 -1      2247-3.61781E+00 6.53137E+01 1.33205E-01
 -1      2249-3.61781E+00 6.53137E+01 1.33205E-01
 -1      2250-3.75415E+00 7.35315E+01 1.42195E-01
 -1      2252-3.75415E+00 7.35315E+01 1.42195E-01
 -1      2253-3.87582E+00 8.20351E+01 1.50967E-01
 -1      2255-3.87582E+00 8.20351E+01 1.50967E-01
 -1      2256-3.98334E+00 9.07924E+01 1.59478E-01
 -1      2258-3.98334E+00 9.07924E+01 1.59478E-01
 -1      2259-4.07732E+00 9.97724E+01 1.67682E-01
 -1      2261-4.07732E+00 9.97724E+01 1.67682E-01
 -1      2262-4.15840E+00 1.08946E+02 1.75533E-01
 -1      2264-4.15840E+00 1.08946E+02 1.75533E-01
 -1      2265-4.22729E+00 1.18284E+02 1.82979E-01
 -1      2267-4.22729E+00 1.18284E+02 1.82979E-01
 -1      2268-4.28479E+00 1.27762E+02 1.89969E-01
 -1      2270-4.28479E+00 1.27762E+02 1.89969E-01
 -1      2271-4.33172E+00 1.37354E+02 1.96450E-01
 -1      2273-4.33172E+00 1.37354E+02 1.96450E-01
 -1      2274-4.36901E+00 1.47038E+02 2.02366E-01
 -1      2276-4.36901E+00 1.47038E+02 2.02366E-01
 -1      2277-4.39761E+00 1.56793E+02 2.07662E-01
 -1      2279-4.39761E+00 1.56793E+02 2.07662E-01
 -1      2280-4.41858E+00 1.66602E+02 2.12283E-01
 -1      2282-4.41858E+00 1.66602E+02 2.12282E-01
 -1      2283-4.43303E+00 1.76447E+02 2.16172E-01
 -1      2285-4.43303E+00 1.76447E+02 2.16172E-01
 -1      2286-4.44212E+00 1.86317E+02 2.19277E-01
 -1      2288-4.44212E+00 1.86317E+02 2.19277E-01
 -1      2289-4.44710E+00 1.96200E+02 2.21543E-01
 -1      2291-4.44710E+00 1.96200E+02 2.21544E-01
 -1      2292-4.44929E+00 2.06089E+02 2.22930E-01
 -1      2294-4.44929E+00 2.06089E+02 2.22930E-01
 -3
    1PSTEP                         4           1           1          
    1PGM                1.000000E+00                                  
    1PGK                6.343347E+03                                  
    1PHID                         -1                                  
    1PSUBC                         0                                  
    1PMODE                         1                                  
  100CL  101 12.67591621         930                     2    1MODAL      1
 -4  ERROR       1    1
 -5  STR(%)      1    1    0    0
 -1       404 0.00000E+00
 -1       406 0.00000E+00
 -1       407 0.00000E+00
 -1       409 0.00000E+00
 -1       410 0.00000E+00
 -1       412 0.00000E+00
 -1       413 0.00000E+00
 -1       415 0.00000E+00
 -1       424 0.00000E+00
 -1       426 0.00000E+00
 -1       427 0.00000E+00
 -1       429 0.00000E+00
 -1       438 0.00000E+00
 -1       440 0.00000E+00
 -1       441 0.00000E+00
 -1       443 0.00000E+00
 -1       444 0.00000E+00
 -1       446 0.00000E+00
 -1       447 0.00000E+00
 -1       449 0.00000E+00
 -1       458 0.00000E+00
 -1       460 0.00000E+00
 -1       461 0.00000E+00
 -1       463 0.00000E+00
 -1       472 0.00000E+00
 -1       474 0.00000E+00
 -1       475 0.00000E+00
 -1       477 0.00000E+00
 -1       478 0.00000E+00
 -1       480 0.00000E+00
 -1       481 0.00000E+00
 -1       483 0.00000E+00
 -1       484 0.00000E+00
 -1       486 0.00000E+00
 -1       487 0.00000E+00
 -1       489 0.00000E+00
 -1       490 0.00000E+00
 -1       492 0.00000E+00
 -1       493 0.00000E+00
 -1       495 0.00000E+00
 -1       496 0.00000E+00
 -1       498 0.00000E+00
 -1       499 0.00000E+00
 -1       501 0.00000E+00
 -1       502 0.00000E+00
 -1       504 0.00000E+00
 -1       505 0.00000E+00
 -1       507 0.00000E+00
 -1       508 0.00000E+00
 -1       510 0.00000E+00
 -1       511 0.00000E+00
 -1       513 0.00000E+00
 -1       514 0.00000E+00
 -1       516 0.00000E+00
 -1       517 0.00000E+00
 -1       519 0.00000E+00
 -1       520 0.00000E+00
 -1       522 0.00000E+00
 -1       523 0.00000E+00
 -1       525 0.00000E+00
 -1       526 0.00000E+00
 -1       528 0.00000E+00
 -1       529 0.00000E+00
 -1       531 0.00000E+00
 -1       532 0.00000E+00
 -1       534 0.00000E+00
 -1       535 0.00000E+00
 -1       537 0.00000E+00
 -1       538 0.00000E+00
 -1       540 0.00000E+00
 -1       541 0.00000E+00
 -1       543 0.00000E+00
 -1       544 0.00000E+00
 -1       546 0.00000E+00
 -1       547 0.00000E+00
 -1       549 0.00000E+00
 -1       550 0.00000E+00
 -1       552 0.00000E+00
 -1       553 0.00000E+00
 -1       555 0.00000E+00
 -1       556 0.00000E+00
 -1       558 0.00000E+00
 -1       559 0.00000E+00
 -1       561 0.00000E+00
 -1       562 0.00000E+00
 -1       564 0.00000E+00
 -1       565 0.00000E+00
 -1       567 0.00000E+00
 -1       568 0.00000E+00
 -1       570 0.00000E+00
 -1       571 0.00000E+00
 -1       573 0.00000E+00
 -1       574 0.00000E+00
 -1       576 0.00000E+00
 -1       577 0.00000E+00
 -1       579 0.00000E+00
 -1       588 0.00000E+00
 -1       590 0.00000E+00
 -1       591 0.00000E+00
 -1       593 0.00000E+00
 -1       602 0.00000E+00
 -1       604 0.00000E+00
 -1       605 0.00000E+00
 -1       607 0.00000E+00
 -1       616 0.00000E+00
 -1       618 0.00000E+00
 -1       619 0.00000E+00
 -1       621 0.00000E+00
 -1       630 0.00000E+00
 -1       632 0.00000E+00
 -1       633 0.00000E+00
 -1       635 0.00000E+00
 -1       644 0.00000E+00
 -1       646 0.00000E+00
 -1       647 0.00000E+00
 -1       649 0.00000E+00
 -1       658 0.00000E+00
 -1       660 0.00000E+00
 -1       661 0.00000E+00
 -1       663 0.00000E+00
 -1       672 0.00000E+00
 -1       674 0.00000E+00
 -1       675 0.00000E+00
 -1       677 0.00000E+00
 -1       686 0.00000E+00
 -1       688 0.00000E+00
 -1       689 0.00000E+00
 -1       691 0.00000E+00
 -1       700 0.00000E+00
 -1       702 0.00000E+00
 -1       703 0.00000E+00
 -1       705 0.00000E+00
 -1       714 0.00000E+00
 -1       716 0.00000E+00
 -1       717 0.00000E+00
 -1       719 0.00000E+00
 -1       728 0.00000E+00
 -1       730 0.00000E+00
 -1       731 0.00000E+00
 -1       733 0.00000E+00
 -1       742 0.00000E+00
 -1       744 0.00000E+00
 -1       745 0.00000E+00
 -1       747 0.00000E+00
 -1       756 0.00000E+00
 -1       758 0.00000E+00
 -1       759 0.00000E+00
 -1       761 0.00000E+00
 -1       770 0.00000E+00
 -1       772 0.00000E+00
 -1       773 0.00000E+00
 -1       775 0.00000E+00
 -1       784 0.00000E+00
 -1       786 0.00000E+00
 -1       787 0.00000E+00
 -1       789 0.00000E+00
 -1       798 0.00000E+00
 -1       800 0.00000E+00
 -1       801 0.00000E+00
 -1       803 0.00000E+00
 -1       812 0.00000E+00
 -1       814 0.00000E+00
 -1       815 0.00000E+00
 -1       817 0.00000E+00
 -1       826 0.00000E+00
 -1       828 0.00000E+00
 -1       829 0.00000E+00
 -1       831 0.00000E+00
 -1       840 0.00000E+00
 -1       842 0.00000E+00
 -1       843 0.00000E+00
 -1       845 0.00000E+00
 -1       854 0.00000E+00
 -1       856 0.00000E+00
 -1       857 0.00000E+00
 -1       859 0.00000E+00
 -1       868 0.00000E+00
 -1       870 0.00000E+00
 -1       871 0.00000E+00
 -1       873 0.00000E+00
 -1       882 0.00000E+00
 -1       884 0.00000E+00
 -1       885 0.00000E+00
 -1       887 0.00000E+00
 -1       896 0.00000E+00
 -1       898 0.00000E+00
 -1       899 0.00000E+00
 -1       901 0.00000E+00
 -1       910 0.00000E+00
 -1       912 0.00000E+00
 -1       913 0.00000E+00
 -1       915 0.00000E+00
 -1       924 0.00000E+00
 -1       926 0.00000E+00
 -1       927 0.00000E+00
 -1       929 0.00000E+00
 -1       938 0.00000E+00
 -1       940 0.00000E+00
 -1       941 0.00000E+00
 -1       943 0.00000E+00
 -1       952 0.00000E+00
 -1       954 0.00000E+00
 -1       955 0.00000E+00
 -1       957 0.00000E+00
 -1       966 0.00000E+00
 -1       968 0.00000E+00
 -1       969 0.00000E+00
 -1       971 0.00000E+00
 -1       980 0.00000E+00
 -1       982 0.00000E+00
 -1       983 0.00000E+00
 -1       985 0.00000E+00
 -1       986 0.00000E+00
 -1       988 0.00000E+00
 -1       989 0.00000E+00
 -1       991 0.00000E+00
 -1       992 0.00000E+00
 -1       994 0.00000E+00
 -1       995 0.00000E+00
 -1       997 0.00000E+00
 -1       998 0.00000E+00
 -1      1000 0.00000E+00
 -1      1001 0.00000E+00
 -1      1003 0.00000E+00
 -1      1004 0.00000E+00
 -1      1006 0.00000E+00
 -1      1007 0.00000E+00
 -1      1009 0.00000E+00
 -1      1010 0.00000E+00
 -1      1012 0.00000E+00
 -1      1013 0.00000E+00
 -1      1015 0.00000E+00
 -1      1016 0.00000E+00
 -1      1018 0.00000E+00
 -1      1019 0.00000E+00
 -1      1021 0.00000E+00
 -1      1022 0.00000E+00
 -1      1024 0.00000E+00
 -1      1025 0.00000E+00
 -1      1027 0.00000E+00
 -1      1028 0.00000E+00
 -1      1030 0.00000E+00
 -1      1031 0.00000E+00
 -1      1033 0.00000E+00
 -1      1034 0.00000E+00
 -1      1036 0.00000E+00
 -1      1037 0.00000E+00
 -1      1039 0.00000E+00
 -1      1040 0.00000E+00
 -1      1042 0.00000E+00
 -1      1043 0.00000E+00
 -1      1045 0.00000E+00
 -1      1046 0.00000E+00
 -1      1048 0.00000E+00
 -1      1049 0.00000E+00
 -1      1051 0.00000E+00
 -1      1052 0.00000E+00
 -1      1054 0.00000E+00
 -1      1055 0.00000E+00
 -1      1057 0.00000E+00
 -1      1058 0.00000E+00
 -1      1060 0.00000E+00
 -1      1061 0.00000E+00
 -1      1063 0.00000E+00
 -1      1064 0.00000E+00
 -1      1066 0.00000E+00
 -1      1067 0.00000E+00
 -1      1069 0.00000E+00
 -1      1070 0.00000E+00
 -1      1072 0.00000E+00
 -1      1073 0.00000E+00
 -1      1075 0.00000E+00
 -1      1076 0.00000E+00
 -1      1078 0.00000E+00
 -1      1079 0.00000E+00
 -1      1081 0.00000E+00
 -1      1082 0.00000E+00
 -1      1084 0.00000E+00
 -1      1085 0.00000E+00
 -1      1087 0.00000E+00
 -1      1088 0.00000E+00
 -1      1090 0.00000E+00
 -1      1099 0.00000E+00
 -1      1101 0.00000E+00
 -1      1102 0.00000E+00
 -1      1104 0.00000E+00
 -1      1113 0.00000E+00
 -1      1115 0.00000E+00
 -1      1116 0.00000E+00
 -1      1118 0.00000E+00
 -1      1127 0.00000E+00
 -1      1129 0.00000E+00
 -1      1130 0.00000E+00
 -1      1132 0.00000E+00
 -1      1141 0.00000E+00
 -1      1143 0.00000E+00
 -1      1144 0.00000E+00
 -1      1146 0.00000E+00
 -1      1155 0.00000E+00
 -1      1157 0.00000E+00
 -1      1158 0.00000E+00
 -1      1160 0.00000E+00
 -1      1169 0.00000E+00
 -1      1171 0.00000E+00
 -1      1172 0.00000E+00
 -1      1174 0.00000E+00
 -1      1183 0.00000E+00
 -1      1185 0.00000E+00
 -1      1186 0.00000E+00
 -1      1188 0.00000E+00
 -1      1197 0.00000E+00
 -1      1199 0.00000E+00
 -1      1200 0.00000E+00
 -1      1202 0.00000E+00
 -1      1211 0.00000E+00
 -1      1213 0.00000E+00
 -1      1214 0.00000E+00
 -1      1216 0.00000E+00
 -1      1225 0.00000E+00
 -1      1227 0.00000E+00
 -1      1228 0.00000E+00
 -1      1230 0.00000E+00
 -1      1239 0.00000E+00
 -1      1241 0.00000E+00
 -1      1242 0.00000E+00
 -1      1244 0.00000E+00
 -1      1253 0.00000E+00
 -1      1255 0.00000E+00
 -1      1256 0.00000E+00
 -1      1258 0.00000E+00
 -1      1267 0.00000E+00
 -1      1269 0.00000E+00
 -1      1270 0.00000E+00
 -1      1272 0.00000E+00
 -1      1281 0.00000E+00
 -1      1283 0.00000E+00
 -1      1284 0.00000E+00
 -1      1286 0.00000E+00
 -1      1295 0.00000E+00
 -1      1297 0.00000E+00
 -1      1298 0.00000E+00
 -1      1300 0.00000E+00
 -1      1309 0.00000E+00
 -1      1311 0.00000E+00
 -1      1312 0.00000E+00
 -1      1314 0.00000E+00
 -1      1323 0.00000E+00
 -1      1325 0.00000E+00
 -1      1326 0.00000E+00
 -1      1328 0.00000E+00
 -1      1337 0.00000E+00
 -1      1339 0.00000E+00
 -1      1340 0.00000E+00
 -1      1342 0.00000E+00
 -1      1351 0.00000E+00
 -1      1353 0.00000E+00
 -1      1354 0.00000E+00
 -1      1356 0.00000E+00
 -1      1365 0.00000E+00
 -1      1367 0.00000E+00
 -1      1368 0.00000E+00
 -1      1370 0.00000E+00
 -1      1379 0.00000E+00
 -1      1381 0.00000E+00
 -1      1382 0.00000E+00
 -1      1384 0.00000E+00
 -1      1393 0.00000E+00
 -1      1395 0.00000E+00
 -1      1396 0.00000E+00
 -1      1398 0.00000E+00
 -1      1407 0.00000E+00
 -1      1409 0.00000E+00
 -1      1410 0.00000E+00
 -1      1412 0.00000E+00
 -1      1421 0.00000E+00
 -1      1423 0.00000E+00
 -1      1424 0.00000E+00
 -1      1426 0.00000E+00
 -1      1435 0.00000E+00
 -1      1437 0.00000E+00
 -1      1438 0.00000E+00
 -1      1440 0.00000E+00
 -1      1449 0.00000E+00
 -1      1451 0.00000E+00
 -1      1452 0.00000E+00
 -1      1454 0.00000E+00
 -1      1463 0.00000E+00
 -1      1465 0.00000E+00
 -1      1466 0.00000E+00
 -1      1468 0.00000E+00
 -1      1477 0.00000E+00
 -1      1479 0.00000E+00
 -1      1480 0.00000E+00
 -1      1482 0.00000E+00
 -1      1491 0.00000E+00
 -1      1493 0.00000E+00
 -1      1494 0.00000E+00
 -1      1496 0.00000E+00
 -1      1497 0.00000E+00
 -1      1499 0.00000E+00
 -1      1500 0.00000E+00
 -1      1502 0.00000E+00
 -1      1503 0.00000E+00
 -1      1505 0.00000E+00
 -1      1506 0.00000E+00
 -1      1508 0.00000E+00
 -1      1509 0.00000E+00
 -1      1511 0.00000E+00
 -1      1512 0.00000E+00
 -1      1514 0.00000E+00
 -1      1515 0.00000E+00
 -1      1517 0.00000E+00
 -1      1518 0.00000E+00
 -1      1520 0.00000E+00
 -1      1521 0.00000E+00
 -1      1523 0.00000E+00
 -1      1524 0.00000E+00
 -1      1526 0.00000E+00
 -1      1527 0.00000E+00
 -1      1529 0.00000E+00
 -1      1530 0.00000E+00
 -1      1532 0.00000E+00
 -1      1533 0.00000E+00
 -1      1535 0.00000E+00
 -1      1536 0.00000E+00
 -1      1538 0.00000E+00
 -1      1539 0.00000E+00
 -1      1541 0.00000E+00
 -1      1542 0.00000E+00
 -1      1544 0.00000E+00
 -1      1545 0.00000E+00
 -1      1547 0.00000E+00
 -1      1548 0.00000E+00
 -1      1550 0.00000E+00
 -1      1551 0.00000E+00
 -1      1553 0.00000E+00
 -1      1554 0.00000E+00
 -1      1556 0.00000E+00
 -1      1557 0.00000E+00
 -1      1559 0.00000E+00
 -1      1560 0.00000E+00
 -1      1562 0.00000E+00
 -1      1563 0.00000E+00
 -1      1565 0.00000E+00
 -1      1566 0.00000E+00
 -1      1568 0.00000E+00
 -1      1569 0.00000E+00
 -1      1571 0.00000E+00
 -1      1572 0.00000E+00
 -1      1574 0.00000E+00
 -1      1575 0.00000E+00
 -1      1577 0.00000E+00
 -1      1578 0.00000E+00
 -1      1580 0.00000E+00
 -1      1581 0.00000E+00
 -1      1583 0.00000E+00
 -1      1584 0.00000E+00
 -1      1586 0.00000E+00
 -1      1587 0.00000E+00
 -1      1589 0.00000E+00
 -1      1590 0.00000E+00
 -1      1592 0.00000E+00
 -1      1593 0.00000E+00
 -1      1595 0.00000E+00
 -1      1596 0.00000E+00
 -1      1598 0.00000E+00
 -1      1599 0.00000E+00
 -1      1601 0.00000E+00
 -1      1602 0.00000E+00
 -1      1604 0.00000E+00
 -1      1605 0.00000E+00
 -1      1607 0.00000E+00
 -1      1608 0.00000E+00
 -1      1610 0.00000E+00
 -1      1611 0.00000E+00
 -1      1613 0.00000E+00
 -1      1614 0.00000E+00
 -1      1616 0.00000E+00
 -1      1617 0.00000E+00
 -1      1619 0.00000E+00
 -1      1620 0.00000E+00
 -1      1622 0.00000E+00
 -1      1623 0.00000E+00
 -1      1625 0.00000E+00
 -1      1626 0.00000E+00
 -1      1628 0.00000E+00
 -1      1629 0.00000E+00
 -1      1631 0.00000E+00
 -1      1632 0.00000E+00
 -1      1634 0.00000E+00
 -1      1635 0.00000E+00
 -1      1637 0.00000E+00
 -1      1638 0.00000E+00
 -1      1640 0.00000E+00
 -1      1641 0.00000E+00
 -1      1643 0.00000E+00
 -1      1644 0.00000E+00
 -1      1646 0.00000E+00
 -1      1647 0.00000E+00
 -1      1649 0.00000E+00
 -1      1650 0.00000E+00
 -1      1652 0.00000E+00
 -1      1653 0.00000E+00
 -1      1655 0.00000E+00
 -1      1656 0.00000E+00
 -1      1658 0.00000E+00
 -1      1659 0.00000E+00
 -1      1661 0.00000E+00
 -1      1662 0.00000E+00
 -1      1664 0.00000E+00
 -1      1665 0.00000E+00
 -1      1667 0.00000E+00
 -1      1668 0.00000E+00
 -1      1670 0.00000E+00
 -1      1671 0.00000E+00
 -1      1673 0.00000E+00
 -1      1674 0.00000E+00
 -1      1676 0.00000E+00
 -1      1677 0.00000E+00
 -1      1679 0.00000E+00
 -1      1680 0.00000E+00
 -1      1682 0.00000E+00
 -1      1683 0.00000E+00
 -1      1685 0.00000E+00
 -1      1686 0.00000E+00
 -1      1688 0.00000E+00
 -1      1689 0.00000E+00
 -1      1691 0.00000E+00
 -1      1692 0.00000E+00
 -1      1694 0.00000E+00
 -1      1695 0.00000E+00
 -1      1697 0.00000E+00
 -1      1698 0.00000E+00
 -1      1700 0.00000E+00
 -1      1701 0.00000E+00
 -1      1703 0.00000E+00
 -1      1704 0.00000E+00
 -1      1706 0.00000E+00
 -1      1707 0.00000E+00
 -1      1709 0.00000E+00
 -1      1710 0.00000E+00
 -1      1712 0.00000E+00
 -1      1713 0.00000E+00
 -1      1715 0.00000E+00
 -1      1716 0.00000E+00
 -1      1718 0.00000E+00
 -1      1719 0.00000E+00
 -1      1721 0.00000E+00
 -1      1722 0.00000E+00
 -1      1724 0.00000E+00
 -1      1725 0.00000E+00
 -1      1727 0.00000E+00
 -1      1728 0.00000E+00
 -1      1730 0.00000E+00
 -1      1731 0.00000E+00
 -1      1733 0.00000E+00
 -1      1734 0.00000E+00
 -1      1736 0.00000E+00
 -1      1737 0.00000E+00
 -1      1739 0.00000E+00
 -1      1740 0.00000E+00
 -1      1742 0.00000E+00
 -1      1743 0.00000E+00
 -1      1745 0.00000E+00
 -1      1746 0.00000E+00
 -1      1748 0.00000E+00
 -1      1749 0.00000E+00
 -1      1751 0.00000E+00
 -1      1752 0.00000E+00
 -1      1754 0.00000E+00
 -1      1755 0.00000E+00
 -1      1757 0.00000E+00
 -1      1758 0.00000E+00
 -1      1760 0.00000E+00
 -1      1761 0.00000E+00
 -1      1763 0.00000E+00
 -1      1764 0.00000E+00
 -1      1766 0.00000E+00
 -1      1767 0.00000E+00
 -1      1769 0.00000E+00
 -1      1770 0.00000E+00
 -1      1772 0.00000E+00
 -1      1773 0.00000E+00
 -1      1775 0.00000E+00
 -1      1776 0.00000E+00
 -1      1778 0.00000E+00
 -1      1779 0.00000E+00
 -1      1781 0.00000E+00
 -1      1782 0.00000E+00
 -1      1784 0.00000E+00
 -1      1785 0.00000E+00
 -1      1787 0.00000E+00
 -1      1788 0.00000E+00
 -1      1790 0.00000E+00
 -1      1791 0.00000E+00
 -1      1793 0.00000E+00
 -1      1794 0.00000E+00
 -1      1796 0.00000E+00
 -1      1797 0.00000E+00
 -1      1799 0.00000E+00
 -1      1800 0.00000E+00
 -1      1802 0.00000E+00
 -1      1803 0.00000E+00
 -1      1805 0.00000E+00
 -1      1806 0.00000E+00
 -1      1808 0.00000E+00
 -1      1809 0.00000E+00
 -1      1811 0.00000E+00
 -1      1812 0.00000E+00
 -1      1814 0.00000E+00
 -1      1815 0.00000E+00
 -1      1817 0.00000E+00
 -1      1818 0.00000E+00
 -1      1820 0.00000E+00
 -1      1821 0.00000E+00
 -1      1823 0.00000E+00
 -1      1824 0.00000E+00
 -1      1826 0.00000E+00
 -1      1827 0.00000E+00
 -1      1829 0.00000E+00
 -1      1830 0.00000E+00
 -1      1832 0.00000E+00
 -1      1833 0.00000E+00
 -1      1835 0.00000E+00
 -1      1836 0.00000E+00
 -1      1838 0.00000E+00
 -1      1839 0.00000E+00
 -1      1841 0.00000E+00
 -1      1842 0.00000E+00
 -1      1844 0.00000E+00
 -1      1845 0.00000E+00
 -1      1847 0.00000E+00
 -1      1848 0.00000E+00
 -1      1850 0.00000E+00
 -1      1851 0.00000E+00
 -1      1853 0.00000E+00
 -1      1854 0.00000E+00
 -1      1856 0.00000E+00
 -1      1857 0.00000E+00
 -1      1859 0.00000E+00
 -1      1860 0.00000E+00
 -1      1862 0.00000E+00
 -1      1863 0.00000E+00
 -1      1865 0.00000E+00
 -1      1866 0.00000E+00
 -1      1868 0.00000E+00
 -1      1869 0.00000E+00
 -1      1871 0.00000E+00
 -1      1872 0.00000E+00
 -1      1874 0.00000E+00
 -1      1875 0.00000E+00
 -1      1877 0.00000E+00
 -1      1878 0.00000E+00
 -1      1880 0.00000E+00
 -1      1881 0.00000E+00
 -1      1883 0.00000E+00
 -1      1884 0.00000E+00
 -1      1886 0.00000E+00
 -1      1887 0.00000E+00
 -1      1889 0.00000E+00
 -1      1890 0.00000E+00
 -1      1892 0.00000E+00
 -1      1893 0.00000E+00
 -1      1895 0.00000E+00
 -1      1896 0.00000E+00
 -1      1898 0.00000E+00
 -1      1899 0.00000E+00
 -1      1901 0.00000E+00
 -1      1902 0.00000E+00
 -1      1904 0.00000E+00
 -1      1905 0.00000E+00
 -1      1907 0.00000E+00
 -1      1908 0.00000E+00
 -1      1910 0.00000E+00
 -1      1911 0.00000E+00
 -1      1913 0.00000E+00
 -1      1914 0.00000E+00
 -1      1916 0.00000E+00
 -1      1917 0.00000E+00
 -1      1919 0.00000E+00
 -1      1920 0.00000E+00
 -1      1922 0.00000E+00
 -1      1923 0.00000E+00
 -1      1925 0.00000E+00
 -1      1926 0.00000E+00
 -1      1928 0.00000E+00
 -1      1929 0.00000E+00
 -1      1931 0.00000E+00
 -1      1932 0.00000E+00
 -1      1934 0.00000E+00
 -1      1935 0.00000E+00
 -1      1937 0.00000E+00
 -1      1938 0.00000E+00
 -1      1940 0.00000E+00
 -1      1941 0.00000E+00
 -1      1943 0.00000E+00
 -1      1944 0.00000E+00
 -1      1946 0.00000E+00
 -1      1947 0.00000E+00
 -1      1949 0.00000E+00
 -1      1950 0.00000E+00
 -1      1952 0.00000E+00
 -1      1953 0.00000E+00
 -1      1955 0.00000E+00
 -1      1956 0.00000E+00
 -1      1958 0.00000E+00
 -1      1959 0.00000E+00
 -1      1961 0.00000E+00
 -1      1962 0.00000E+00
 -1      1964 0.00000E+00
 -1      1965 0.00000E+00
 -1      1967 0.00000E+00
 -1      1968 0.00000E+00
 -1      1970 0.00000E+00
 -1      1971 0.00000E+00
 -1      1973 0.00000E+00
 -1      1974 0.00000E+00
 -1      1976 0.00000E+00
 -1      1977 0.00000E+00
 -1      1979 0.00000E+00
 -1      1980 0.00000E+00
 -1      1982 0.00000E+00
 -1      1983 0.00000E+00
 -1      1985 0.00000E+00
 -1      1986 0.00000E+00
 -1      1988 0.00000E+00
 -1      1989 0.00000E+00
 -1      1991 0.00000E+00
 -1      1992 0.00000E+00
 -1      1994 0.00000E+00
 -1      1995 0.00000E+00
 -1      1997 0.00000E+00
 -1      1998 0.00000E+00
 -1      2000 0.00000E+00
 -1      2001 0.00000E+00
 -1      2003 0.00000E+00
 -1      2004 0.00000E+00
 -1      2006 0.00000E+00
 -1      2007 0.00000E+00
 -1      2009 0.00000E+00
 -1      2010 0.00000E+00
 -1      2012 0.00000E+00
 -1      2013 0.00000E+00
 -1      2015 0.00000E+00
 -1      2016 0.00000E+00
 -1      2018 0.00000E+00
 -1      2019 0.00000E+00
 -1      2021 0.00000E+00
 -1      2022 0.00000E+00
 -1      2024 0.00000E+00
 -1      2025 0.00000E+00
 -1      2027 0.00000E+00
 -1      2028 0.00000E+00
 -1      2030 0.00000E+00
 -1      2031 0.00000E+00
 -1      2033 0.00000E+00
 -1      2034 0.00000E+00
 -1      2036 0.00000E+00
 -1      2037 0.00000E+00
 -1      2039 0.00000E+00
 -1      2040 0.00000E+00
 -1      2042 0.00000E+00
 -1      2043 0.00000E+00
 -1      2045 0.00000E+00
 -1      2046 0.00000E+00
 -1      2048 0.00000E+00
 -1      2049 0.00000E+00
 -1      2051 0.00000E+00
 -1      2052 0.00000E+00
 -1      2054 0.00000E+00
 -1      2055 0.00000E+00
 -1      2057 0.00000E+00
 -1      2058 0.00000E+00
 -1      2060 0.00000E+00
 -1      2061 0.00000E+00
 -1      2063 0.00000E+00
 -1      2064 0.00000E+00
 -1      2066 0.00000E+00
 -1      2067 0.00000E+00
 -1      2069 0.00000E+00
 -1      2070 0.00000E+00
 -1      2072 0.00000E+00
 -1      2073 0.00000E+00
 -1      2075 0.00000E+00
 -1      2076 0.00000E+00
 -1      2078 0.00000E+00
 -1      2079 0.00000E+00
 -1      2081 0.00000E+00
 -1      2082 0.00000E+00
 -1      2084 0.00000E+00
 -1      2085 0.00000E+00
 -1      2087 0.00000E+00
 -1      2088 0.00000E+00
 -1      2090 0.00000E+00
 -1      2091 0.00000E+00
 -1      2093 0.00000E+00
 -1      2094 0.00000E+00
 -1      2096 0.00000E+00
 -1      2097 0.00000E+00
 -1      2099 0.00000E+00
 -1      2100 0.00000E+00
 -1      2102 0.00000E+00
 -1      2103 0.00000E+00
 -1      2105 0.00000E+00
 -1      2106 0.00000E+00
 -1      2108 0.00000E+00
 -1      2109 0.00000E+00
 -1      2111 0.00000E+00
 -1      2112 0.00000E+00
 -1      2114 0.00000E+00
 -1      2115 0.00000E+00
 -1      2117 0.00000E+00
 -1      2118 0.00000E+00
 -1      2120 0.00000E+00
 -1      2121 0.00000E+00
 -1      2123 0.00000E+00
 -1      2124 0.00000E+00
 -1      2126 0.00000E+00
 -1      2127 0.00000E+00
 -1      2129 0.00000E+00
 -1      2130 0.00000E+00
 -1      2132 0.00000E+00
 -1      2133 0.00000E+00
 -1      2135 0.00000E+00
 -1      2136 0.00000E+00
 -1      2138 0.00000E+00
 -1      2139 0.00000E+00
 -1      2141 0.00000E+00
 -1      2142 0.00000E+00
 -1      2144 0.00000E+00
 -1      2145 0.00000E+00
 -1      2147 0.00000E+00
 -1      2148 0.00000E+00
 -1      2150 0.00000E+00
 -1      2151 0.00000E+00
 -1      2153 0.00000E+00
 -1      2154 0.00000E+00
 -1      2156 0.00000E+00
 -1      2157 0.00000E+00
 -1      2159 0.00000E+00
 -1      2160 0.00000E+00
 -1      2162 0.00000E+00
 -1      2163 0.00000E+00
 -1      2165 0.00000E+00
 -1      2166 0.00000E+00
 -1      2168 0.00000E+00
 -1      2169 0.00000E+00
 -1      2171 0.00000E+00
 -1      2172 0.00000E+00
 -1      2174 0.00000E+00
 -1      2175 0.00000E+00
 -1      2177 0.00000E+00
 -1      2178 0.00000E+00
 -1      2180 0.00000E+00
 -1      2181 0.00000E+00
 -1      2183 0.00000E+00
 -1      2184 0.00000E+00
 -1      2186 0.00000E+00
 -1      2187 0.00000E+00
 -1      2189 0.00000E+00
 -1      2190 0.00000E+00
 -1      2192 0.00000E+00
 -1      2193 0.00000E+00
 -1      2195 0.00000E+00
 -1      2196 0.00000E+00
 -1      2198 0.00000E+00
 -1      2199 0.00000E+00
 -1      2201 0.00000E+00
 -1      2202 0.00000E+00
 -1      2204 0.00000E+00
 -1      2205 0.00000E+00
 -1      2207 0.00000E+00
 -1      2208 0.00000E+00
 -1      2210 0.00000E+00
 -1      2211 0.00000E+00
 -1      2213 0.00000E+00
 -1      2214 0.00000E+00
 -1      2216 0.00000E+00
 -1      2217 0.00000E+00
 -1      2219 0.00000E+00
 -1      2220 0.00000E+00
 -1      2222 0.00000E+00
 -1      2223 0.00000E+00
 -1      2225 0.00000E+00
 -1      2226 0.00000E+00
 -1      2228 0.00000E+00
 -1      2229 0.00000E+00
 -1      2231 0.00000E+00
 -1      2232 0.00000E+00
 -1      2234 0.00000E+00
 -1      2235 0.00000E+00
 -1      2237 0.00000E+00
 -1      2238 0.00000E+00
 -1      2240 0.00000E+00
 -1      2241 0.00000E+00
 -1      2243 0.00000E+00
 -1      2244 0.00000E+00
 -1      2246 0.00000E+00
 -1      2247 0.00000E+00
 -1      2249 0.00000E+00
 -1      2250 0.00000E+00
 -1      2252 0.00000E+00
 -1      2253 0.00000E+00
 -1      2255 0.00000E+00
 -1      2256 0.00000E+00
 -1      2258 0.00000E+00
 -1      2259 0.00000E+00
 -1      2261 0.00000E+00
 -1      2262 0.00000E+00
 -1      2264 0.00000E+00
 -1      2265 0.00000E+00
 -1      2267 0.00000E+00
 -1      2268 0.00000E+00
 -1      2270 0.00000E+00
 -1      2271 0.00000E+00
 -1      2273 0.00000E+00
 -1      2274 0.00000E+00
 -1      2276 0.00000E+00
 -1      2277 0.00000E+00
 -1      2279 0.00000E+00
 -1      2280 0.00000E+00
 -1      2282 0.00000E+00
 -1      2283 0.00000E+00
 -1      2285 0.00000E+00
 -1      2286 0.00000E+00
 -1      2288 0.00000E+00
 -1      2289 0.00000E+00
 -1      2291 0.00000E+00
 -1      2292 0.00000E+00
 -1      2294 0.00000E+00
 -3
    1PSTEP                         5           1           1          
    1PGM                1.000000E+00                                  
    1PGK                1.072207E+05                                  
    1PHID                         -1                                  
    1PSUBC                         0                                  
    1PMODE                         2                                  
  100CL  102 52.11460063         930                     2    2MODAL      1
 -4  DISP        4    1
 -5  D1          1    2    1    0
 -5  D2          1    2    2    0
 -5  D3          1    2    3    0
 -5  ALL         1    2    0    0    1ALL
 -1       404 0.00000E+00 0.00000E+00-2.96489E-05
 -1       406 0.00000E+00-0.00000E+00 2.96489E-05
 -1       407-1.22833E-02-1.86687E-04-1.40383E-01
 -1       409-1.14795E-02 1.83623E-04-1.40384E-01
 -1       410-1.22873E-02-5.29993E-13-1.38701E-01
 -1       412-1.14844E-02-4.58383E-13-1.38701E-01
 -1       413-1.18859E-02 2.17776E-07-1.38701E-01
 -1       415-1.18859E-02-2.17777E-07-1.38701E-01
 -1       424 0.00000E+00 0.00000E+00-2.65015E-05
 -1       426 0.00000E+00 0.00000E+00 2.65015E-05
 -1       427 0.00000E+00-1.68824E-05 0.00000E+00
 -1       429 0.00000E+00 1.68824E-05 0.00000E+00
 -1       438-1.22833E-02 1.86687E-04-1.40383E-01
 -1       440-1.14795E-02-1.83623E-04-1.40384E-01
 -1       441 0.00000E+00 0.00000E+00-2.96489E-05
 -1       443 0.00000E+00-0.00000E+00 2.96489E-05
 -1       444 0.00000E+00 1.68824E-05 0.00000E+00
 -1       446 0.00000E+00-1.68824E-05 0.00000E+00
 -1       447 0.00000E+00 0.00000E+00-2.65015E-05
 -1       449 0.00000E+00 0.00000E+00 2.65015E-05
 -1       458 1.18859E-02-2.17776E-07-1.38701E-01
 -1       460 1.18859E-02 2.17778E-07-1.38701E-01
 -1       461 1.22873E-02 7.39153E-13-1.38701E-01
 -1       463 1.14844E-02 7.05885E-13-1.38701E-01
 -1       472 0.00000E+00 0.00000E+00-2.96489E-05
 -1       474 0.00000E+00 0.00000E+00 2.96489E-05
 -1       475 1.22833E-02-1.86687E-04-1.40383E-01
 -1       477 1.14795E-02 1.83623E-04-1.40384E-01
 -1       478 1.22833E-02 1.86687E-04-1.40383E-01
 -1       480 1.14795E-02-1.83623E-04-1.40384E-01
 -1       481 0.00000E+00 0.00000E+00-2.96489E-05
 -1       483 0.00000E+00 0.00000E+00 2.96489E-05
 -1       484-1.08477E-03 3.23181E-04-7.17222E-04
 -1       486-8.97565E-04 3.41332E-04-6.87963E-04
 -1       487-1.94708E-03 2.36855E-04-2.05818E-03
 -1       489-1.77234E-03 2.39060E-04-2.01875E-03
 -1       490-2.91230E-03 2.29640E-04-3.65252E-03
 -1       492-2.65680E-03 2.45941E-04-3.61578E-03
 -1       493-3.78465E-03 2.08468E-04-5.76306E-03
 -1       495-3.47165E-03 2.33865E-04-5.73234E-03
 -1       496-4.61301E-03 1.95189E-04-8.26177E-03
 -1       498-4.25216E-03 2.30684E-04-8.22768E-03
 -1       499-5.40066E-03 1.72920E-04-1.11552E-02
 -1       501-4.98151E-03 2.20684E-04-1.11279E-02
 -1       502-6.13290E-03 1.57627E-04-1.44193E-02
 -1       504-5.67189E-03 2.16206E-04-1.43897E-02
 -1       505-6.82423E-03 1.37123E-04-1.80214E-02
 -1       507-6.31386E-03 2.08824E-04-1.79972E-02
 -1       508-7.46385E-03 1.19812E-04-2.19488E-02
 -1       510-6.91524E-03 2.03819E-04-2.19234E-02
 -1       511-8.06066E-03 1.00106E-04-2.61681E-02
 -1       513-7.47131E-03 1.98122E-04-2.61470E-02
 -1       514-8.60920E-03 8.18167E-05-3.06641E-02
 -1       516-7.98622E-03 1.93578E-04-3.06427E-02
 -1       517-9.11466E-03 6.24028E-05-3.54070E-02
 -1       519-8.45843E-03 1.89142E-04-3.53892E-02
 -1       520-9.57476E-03 4.37338E-05-4.03792E-02
 -1       522-8.89021E-03 1.85455E-04-4.03616E-02
 -1       523-9.99284E-03 2.45701E-05-4.55540E-02
 -1       525-9.28172E-03 1.82160E-04-4.55394E-02
 -1       526-1.03684E-02 5.93971E-06-5.09127E-02
 -1       528-9.63452E-03 1.79482E-04-5.08986E-02
 -1       529-1.07041E-02-1.27997E-05-5.64310E-02
 -1       531-9.94969E-03 1.77291E-04-5.64194E-02
 -1       532-1.10004E-02-3.10153E-05-6.20901E-02
 -1       534-1.02287E-02 1.75669E-04-6.20792E-02
 -1       535-1.12596E-02-4.90418E-05-6.78680E-02
 -1       537-1.04730E-02 1.74553E-04-6.78593E-02
 -1       538-1.14832E-02-6.64500E-05-7.37467E-02
 -1       540-1.06844E-02 1.73972E-04-7.37387E-02
 -1       541-1.16734E-02-8.33906E-05-7.97061E-02
 -1       543-1.08648E-02 1.73876E-04-7.97000E-02
 -1       544-1.18320E-02-9.95489E-05-8.57297E-02
 -1       546-1.10161E-02 1.74255E-04-8.57243E-02
 -1       547-1.19617E-02-1.14940E-04-9.17996E-02
 -1       549-1.11405E-02 1.75062E-04-9.17957E-02
 -1       550-1.20647E-02-1.29321E-04-9.79008E-02
 -1       552-1.12404E-02 1.76226E-04-9.78976E-02
 -1       553-1.21439E-02-1.42569E-04-1.04018E-01
 -1       555-1.13182E-02 1.77724E-04-1.04016E-01
 -1       556-1.22018E-02-1.54523E-04-1.10138E-01
 -1       558-1.13766E-02 1.79327E-04-1.10137E-01
 -1       559-1.22417E-02-1.64799E-04-1.16248E-01
 -1       561-1.14185E-02 1.81178E-04-1.16248E-01
 -1       562-1.22664E-02-1.73529E-04-1.22337E-01
 -1       564-1.14467E-02 1.82570E-04-1.22337E-01
 -1       565-1.22801E-02-1.79820E-04-1.28395E-01
 -1       567-1.14648E-02 1.84085E-04-1.28396E-01
 -1       568-1.22839E-02-1.83390E-04-1.34411E-01
 -1       570-1.14755E-02 1.85332E-04-1.34412E-01
 -1       571-1.22848E-02-1.60311E-04-1.39236E-01
 -1       573-1.14815E-02 1.57529E-04-1.39235E-01
 -1       574-1.07558E-03 4.40331E-15-8.20201E-04
 -1       576-8.75786E-04 6.53542E-15-7.77946E-04
 -1       577-9.75682E-04-1.34590E-05-7.99074E-04
 -1       579-9.75682E-04 1.34590E-05-7.99074E-04
 -1       588-2.00336E-03 2.05806E-14-2.01997E-03
 -1       590-1.86478E-03 2.56221E-14-1.98519E-03
 -1       591-1.93407E-03-1.10791E-05-2.00258E-03
 -1       593-1.93407E-03 1.10791E-05-2.00258E-03
 -1       602-2.97577E-03 4.52778E-14-3.59529E-03
 -1       604-2.69914E-03 5.26821E-14-3.55881E-03
 -1       605-2.83746E-03-1.16206E-05-3.57705E-03
 -1       607-2.83746E-03 1.16206E-05-3.57705E-03
 -1       616-3.82261E-03 7.79608E-14-5.65548E-03
 -1       618-3.53756E-03 8.83541E-14-5.62278E-03
 -1       619-3.68008E-03-1.04146E-05-5.63913E-03
 -1       621-3.68008E-03 1.04146E-05-5.63913E-03
 -1       630-4.67356E-03 1.15296E-13-8.10186E-03
 -1       632-4.30310E-03 1.29217E-13-8.07011E-03
 -1       633-4.48833E-03-1.01150E-05-8.08598E-03
 -1       635-4.48833E-03 1.01150E-05-8.08598E-03
 -1       644-5.44458E-03 1.53789E-13-1.09522E-02
 -1       646-5.04368E-03 1.71624E-13-1.09227E-02
 -1       647-5.24413E-03-9.41397E-06-1.09374E-02
 -1       649-5.24413E-03 9.41397E-06-1.09374E-02
 -1       658-6.18739E-03 1.91509E-13-1.41582E-02
 -1       660-5.72547E-03 2.13126E-13-1.41306E-02
 -1       661-5.95643E-03-8.79117E-06-1.41444E-02
 -1       663-5.95643E-03 8.79117E-06-1.41444E-02
 -1       672-6.87034E-03 2.26789E-13-1.77106E-02
 -1       674-6.37299E-03 2.51912E-13-1.76846E-02
 -1       675-6.62167E-03-8.29009E-06-1.76976E-02
 -1       677-6.62167E-03 8.29009E-06-1.76976E-02
 -1       686-7.51444E-03 2.57288E-13-2.15764E-02
 -1       688-6.96991E-03 2.85930E-13-2.15526E-02
 -1       689-7.24217E-03-7.58534E-06-2.15645E-02
 -1       691-7.24217E-03 7.58534E-06-2.15645E-02
 -1       700-8.10662E-03 2.82358E-13-2.57384E-02
 -1       702-7.52811E-03 3.14484E-13-2.57161E-02
 -1       703-7.81736E-03-7.12311E-06-2.57273E-02
 -1       705-7.81736E-03 7.12311E-06-2.57273E-02
 -1       714-8.65662E-03 3.01934E-13-3.01689E-02
 -1       716-8.04050E-03 3.37374E-13-3.01487E-02
 -1       717-8.34856E-03-6.44230E-06-3.01588E-02
 -1       719-8.34856E-03 6.44230E-06-3.01588E-02
 -1       728-9.15909E-03 3.15280E-13-3.48479E-02
 -1       730-8.51300E-03 3.54379E-13-3.48291E-02
 -1       731-8.83604E-03-5.97280E-06-3.48385E-02
 -1       733-8.83604E-03 5.97280E-06-3.48385E-02
 -1       742-9.61906E-03 3.19842E-13-3.97504E-02
 -1       744-8.94297E-03 3.62640E-13-3.97336E-02
 -1       745-9.28101E-03-5.34525E-06-3.97420E-02
 -1       747-9.28101E-03 5.34525E-06-3.97420E-02
 -1       756-1.00348E-02 3.13319E-13-4.48559E-02
 -1       758-9.33373E-03 3.58685E-13-4.48406E-02
 -1       759-9.68425E-03-4.86907E-06-4.48483E-02
 -1       761-9.68425E-03 4.86907E-06-4.48483E-02
 -1       770-1.04093E-02 2.95469E-13-5.01414E-02
 -1       772-9.68481E-03 3.42535E-13-5.01279E-02
 -1       773-1.00471E-02-4.29978E-06-5.01346E-02
 -1       775-1.00471E-02 4.29978E-06-5.01346E-02
 -1       784-1.07427E-02 2.67057E-13-5.55864E-02
 -1       786-9.99854E-03 3.15560E-13-5.55744E-02
 -1       787-1.03706E-02-3.83049E-06-5.55804E-02
 -1       789-1.03706E-02 3.83049E-06-5.55804E-02
 -1       798-1.10374E-02 2.30145E-13-6.11699E-02
 -1       800-1.02756E-02 2.79600E-13-6.11595E-02
 -1       801-1.06565E-02-3.31969E-06-6.11647E-02
 -1       803-1.06565E-02 3.31969E-06-6.11647E-02
 -1       812-1.12943E-02 1.85229E-13-6.68723E-02
 -1       814-1.05180E-02 2.35851E-13-6.68633E-02
 -1       815-1.09061E-02-2.87277E-06-6.68678E-02
 -1       817-1.09061E-02 2.87277E-06-6.68678E-02
 -1       826-1.15157E-02 1.34194E-13-7.26744E-02
 -1       828-1.07271E-02 1.87154E-13-7.26668E-02
 -1       829-1.11214E-02-2.42167E-06-7.26706E-02
 -1       831-1.11214E-02 2.42167E-06-7.26706E-02
 -1       840-1.17034E-02 7.85771E-14-7.85582E-02
 -1       842-1.09050E-02 1.34378E-13-7.85519E-02
 -1       843-1.13042E-02-2.01148E-06-7.85550E-02
 -1       845-1.13042E-02 2.01148E-06-7.85550E-02
 -1       854-1.18596E-02 2.01105E-14-8.45063E-02
 -1       856-1.10536E-02 7.77834E-14-8.45012E-02
 -1       857-1.14566E-02-1.62333E-06-8.45037E-02
 -1       859-1.14566E-02 1.62333E-06-8.45037E-02
 -1       868-1.19865E-02-4.07457E-14-9.05028E-02
 -1       870-1.11750E-02 2.00123E-14-9.04988E-02
 -1       871-1.15808E-02-1.26273E-06-9.05008E-02
 -1       873-1.15808E-02 1.26273E-06-9.05008E-02
 -1       882-1.20867E-02-1.04484E-13-9.65326E-02
 -1       884-1.12717E-02-4.19687E-14-9.65296E-02
 -1       885-1.16792E-02-9.42508E-07-9.65311E-02
 -1       887-1.16792E-02 9.42507E-07-9.65311E-02
 -1       896-1.21629E-02-1.69037E-13-1.02582E-01
 -1       898-1.13460E-02-1.05299E-13-1.02580E-01
 -1       899-1.17544E-02-6.43270E-07-1.02581E-01
 -1       901-1.17544E-02 6.43270E-07-1.02581E-01
 -1       910-1.22178E-02-2.32682E-13-1.08639E-01
 -1       912-1.14007E-02-1.67290E-13-1.08637E-01
 -1       913-1.18092E-02-3.96758E-07-1.08638E-01
 -1       915-1.18092E-02 3.96758E-07-1.08638E-01
 -1       924-1.22545E-02-2.93920E-13-1.14692E-01
 -1       926-1.14384E-02-2.26122E-13-1.14691E-01
 -1       927-1.18465E-02-1.70790E-07-1.14691E-01
 -1       929-1.18465E-02 1.70789E-07-1.14691E-01
 -1       938-1.22761E-02-3.53779E-13-1.20731E-01
 -1       940-1.14624E-02-2.84196E-13-1.20731E-01
 -1       941-1.18692E-02-3.17819E-09-1.20731E-01
 -1       943-1.18692E-02 3.17755E-09-1.20731E-01
 -1       952-1.22861E-02-4.13476E-13-1.26750E-01
 -1       954-1.14754E-02-3.43127E-13-1.26750E-01
 -1       955-1.18807E-02 1.39474E-07-1.26750E-01
 -1       957-1.18807E-02-1.39474E-07-1.26750E-01
 -1       966-1.22878E-02-4.71184E-13-1.32741E-01
 -1       968-1.14815E-02-3.99925E-13-1.32741E-01
 -1       969-1.18846E-02 2.18379E-07-1.32741E-01
 -1       971-1.18846E-02-2.18380E-07-1.32741E-01
 -1       980 0.00000E+00 0.00000E+00-2.42673E-05
 -1       982 0.00000E+00-0.00000E+00 2.42673E-05
 -1       983-1.22848E-02 1.60311E-04-1.39236E-01
 -1       985-1.14815E-02-1.57529E-04-1.39235E-01
 -1       986-1.08477E-03-3.23181E-04-7.17222E-04
 -1       988-8.97565E-04-3.41332E-04-6.87963E-04
 -1       989-1.94708E-03-2.36855E-04-2.05818E-03
 -1       991-1.77234E-03-2.39060E-04-2.01875E-03
 -1       992-2.91230E-03-2.29640E-04-3.65252E-03
 -1       994-2.65680E-03-2.45941E-04-3.61578E-03
 -1       995-3.78465E-03-2.08468E-04-5.76306E-03
 -1       997-3.47165E-03-2.33865E-04-5.73234E-03
 -1       998-4.61301E-03-1.95189E-04-8.26177E-03
 -1      1000-4.25216E-03-2.30684E-04-8.22768E-03
 -1      1001-5.40066E-03-1.72920E-04-1.11552E-02
 -1      1003-4.98151E-03-2.20684E-04-1.11279E-02
 -1      1004-6.13290E-03-1.57627E-04-1.44193E-02
 -1      1006-5.67189E-03-2.16206E-04-1.43897E-02
 -1      1007-6.82423E-03-1.37123E-04-1.80214E-02
 -1      1009-6.31386E-03-2.08824E-04-1.79972E-02
 -1      1010-7.46385E-03-1.19812E-04-2.19488E-02
 -1      1012-6.91524E-03-2.03819E-04-2.19234E-02
 -1      1013-8.06066E-03-1.00106E-04-2.61681E-02
 -1      1015-7.47131E-03-1.98122E-04-2.61470E-02
 -1      1016-8.60920E-03-8.18167E-05-3.06641E-02
 -1      1018-7.98622E-03-1.93578E-04-3.06427E-02
 -1      1019-9.11466E-03-6.24028E-05-3.54070E-02
 -1      1021-8.45843E-03-1.89142E-04-3.53892E-02
 -1      1022-9.57476E-03-4.37338E-05-4.03792E-02
 -1      1024-8.89021E-03-1.85455E-04-4.03616E-02
 -1      1025-9.99284E-03-2.45701E-05-4.55540E-02
 -1      1027-9.28172E-03-1.82160E-04-4.55394E-02
 -1      1028-1.03684E-02-5.93971E-06-5.09127E-02
 -1      1030-9.63452E-03-1.79482E-04-5.08986E-02
 -1      1031-1.07041E-02 1.27997E-05-5.64310E-02
 -1      1033-9.94969E-03-1.77291E-04-5.64194E-02
 -1      1034-1.10004E-02 3.10153E-05-6.20901E-02
 -1      1036-1.02287E-02-1.75669E-04-6.20792E-02
 -1      1037-1.12596E-02 4.90418E-05-6.78680E-02
 -1      1039-1.04730E-02-1.74553E-04-6.78593E-02
 -1      1040-1.14832E-02 6.64500E-05-7.37467E-02
 -1      1042-1.06844E-02-1.73972E-04-7.37387E-02
 -1      1043-1.16734E-02 8.33906E-05-7.97061E-02
 -1      1045-1.08648E-02-1.73876E-04-7.97000E-02
 -1      1046-1.18320E-02 9.95489E-05-8.57297E-02
 -1      1048-1.10161E-02-1.74255E-04-8.57243E-02
 -1      1049-1.19617E-02 1.14940E-04-9.17996E-02
 -1      1051-1.11405E-02-1.75062E-04-9.17957E-02
 -1      1052-1.20647E-02 1.29321E-04-9.79008E-02
 -1      1054-1.12404E-02-1.76226E-04-9.78976E-02
 -1      1055-1.21439E-02 1.42569E-04-1.04018E-01
 -1      1057-1.13182E-02-1.77724E-04-1.04016E-01
 -1      1058-1.22018E-02 1.54523E-04-1.10138E-01
 -1      1060-1.13766E-02-1.79327E-04-1.10137E-01
 -1      1061-1.22417E-02 1.64799E-04-1.16248E-01
 -1      1063-1.14185E-02-1.81178E-04-1.16248E-01
 -1      1064-1.22664E-02 1.73529E-04-1.22337E-01
 -1      1066-1.14467E-02-1.82570E-04-1.22337E-01
 -1      1067-1.22801E-02 1.79820E-04-1.28395E-01
 -1      1069-1.14648E-02-1.84085E-04-1.28396E-01
 -1      1070-1.22839E-02 1.83390E-04-1.34411E-01
 -1      1072-1.14755E-02-1.85332E-04-1.34412E-01
 -1      1073 0.00000E+00 0.00000E+00-2.42673E-05
 -1      1075 0.00000E+00-0.00000E+00 2.42673E-05
 -1      1076 0.00000E+00-7.88228E-06 0.00000E+00
 -1      1078 0.00000E+00 7.88228E-06 0.00000E+00
 -1      1079 0.00000E+00 6.99882E-18 0.00000E+00
 -1      1081 0.00000E+00-6.99882E-18 0.00000E+00
 -1      1082 0.00000E+00 7.88228E-06 0.00000E+00
 -1      1084 0.00000E+00-7.88228E-06 0.00000E+00
 -1      1085 9.75682E-04 1.34590E-05-7.99074E-04
 -1      1087 9.75682E-04-1.34590E-05-7.99074E-04
 -1      1088 1.07558E-03 1.86253E-14-8.20201E-04
 -1      1090 8.75786E-04 1.85838E-14-7.77946E-04
 -1      1099 1.93407E-03 1.10791E-05-2.00258E-03
 -1      1101 1.93407E-03-1.10791E-05-2.00258E-03
 -1      1102 2.00336E-03 6.83700E-14-2.01997E-03
 -1      1104 1.86478E-03 6.78136E-14-1.98519E-03
 -1      1113 2.83746E-03 1.16206E-05-3.57705E-03
 -1      1115 2.83746E-03-1.16206E-05-3.57705E-03
 -1      1116 2.97577E-03 1.39943E-13-3.59529E-03
 -1      1118 2.69914E-03 1.38463E-13-3.55881E-03
 -1      1127 3.68008E-03 1.04147E-05-5.63913E-03
 -1      1129 3.68008E-03-1.04146E-05-5.63913E-03
 -1      1130 3.82261E-03 2.31189E-13-5.65548E-03
 -1      1132 3.53756E-03 2.28426E-13-5.62278E-03
 -1      1141 4.48833E-03 1.01150E-05-8.08598E-03
 -1      1143 4.48833E-03-1.01150E-05-8.08598E-03
 -1      1144 4.67356E-03 3.37449E-13-8.10186E-03
 -1      1146 4.30310E-03 3.33008E-13-8.07011E-03
 -1      1155 5.24413E-03 9.41397E-06-1.09374E-02
 -1      1157 5.24413E-03-9.41397E-06-1.09374E-02
 -1      1158 5.44458E-03 4.52918E-13-1.09522E-02
 -1      1160 5.04368E-03 4.46266E-13-1.09227E-02
 -1      1169 5.95643E-03 8.79117E-06-1.41444E-02
 -1      1171 5.95643E-03-8.79117E-06-1.41444E-02
 -1      1172 6.18739E-03 5.72608E-13-1.41582E-02
 -1      1174 5.72547E-03 5.63595E-13-1.41306E-02
 -1      1183 6.62167E-03 8.29009E-06-1.76976E-02
 -1      1185 6.62167E-03-8.29009E-06-1.76976E-02
 -1      1186 6.87034E-03 6.90439E-13-1.77106E-02
 -1      1188 6.37299E-03 6.79437E-13-1.76846E-02
 -1      1197 7.24217E-03 7.58534E-06-2.15645E-02
 -1      1199 7.24217E-03-7.58534E-06-2.15645E-02
 -1      1200 7.51444E-03 8.02625E-13-2.15764E-02
 -1      1202 6.96991E-03 7.89276E-13-2.15526E-02
 -1      1211 7.81736E-03 7.12311E-06-2.57273E-02
 -1      1213 7.81736E-03-7.12311E-06-2.57273E-02
 -1      1214 8.10662E-03 9.06709E-13-2.57384E-02
 -1      1216 7.52811E-03 8.90985E-13-2.57161E-02
 -1      1225 8.34856E-03 6.44230E-06-3.01588E-02
 -1      1227 8.34856E-03-6.44230E-06-3.01588E-02
 -1      1228 8.65662E-03 1.00083E-12-3.01689E-02
 -1      1230 8.04050E-03 9.82648E-13-3.01487E-02
 -1      1239 8.83604E-03 5.97280E-06-3.48385E-02
 -1      1241 8.83604E-03-5.97280E-06-3.48385E-02
 -1      1242 9.15909E-03 1.08205E-12-3.48479E-02
 -1      1244 8.51300E-03 1.06171E-12-3.48291E-02
 -1      1253 9.28101E-03 5.34525E-06-3.97420E-02
 -1      1255 9.28101E-03-5.34525E-06-3.97420E-02
 -1      1256 9.61906E-03 1.14723E-12-3.97504E-02
 -1      1258 8.94297E-03 1.12490E-12-3.97336E-02
 -1      1267 9.68425E-03 4.86907E-06-4.48483E-02
 -1      1269 9.68425E-03-4.86907E-06-4.48483E-02
 -1      1270 1.00348E-02 1.19483E-12-4.48559E-02
 -1      1272 9.33373E-03 1.17097E-12-4.48406E-02
 -1      1281 1.00471E-02 4.29978E-06-5.01346E-02
 -1      1283 1.00471E-02-4.29978E-06-5.01346E-02
 -1      1284 1.04093E-02 1.22559E-12-5.01414E-02
 -1      1286 9.68481E-03 1.20087E-12-5.01279E-02
 -1      1295 1.03706E-02 3.83049E-06-5.55804E-02
 -1      1297 1.03706E-02-3.83049E-06-5.55804E-02
 -1      1298 1.07427E-02 1.24128E-12-5.55864E-02
 -1      1300 9.99854E-03 1.21675E-12-5.55744E-02
 -1      1309 1.06565E-02 3.31969E-06-6.11647E-02
 -1      1311 1.06565E-02-3.31969E-06-6.11647E-02
 -1      1312 1.10374E-02 1.24357E-12-6.11699E-02
 -1      1314 1.02756E-02 1.21869E-12-6.11595E-02
 -1      1323 1.09061E-02 2.87277E-06-6.68678E-02
 -1      1325 1.09061E-02-2.87277E-06-6.68678E-02
 -1      1326 1.12943E-02 1.23252E-12-6.68723E-02
 -1      1328 1.05180E-02 1.20785E-12-6.68633E-02
 -1      1337 1.11214E-02 2.42167E-06-7.26706E-02
 -1      1339 1.11214E-02-2.42167E-06-7.26706E-02
 -1      1340 1.15157E-02 1.21112E-12-7.26744E-02
 -1      1342 1.07271E-02 1.18657E-12-7.26668E-02
 -1      1351 1.13042E-02 2.01148E-06-7.85550E-02
 -1      1353 1.13042E-02-2.01148E-06-7.85550E-02
 -1      1354 1.17034E-02 1.18064E-12-7.85582E-02
 -1      1356 1.09050E-02 1.15623E-12-7.85519E-02
 -1      1365 1.14566E-02 1.62333E-06-8.45037E-02
 -1      1367 1.14566E-02-1.62333E-06-8.45037E-02
 -1      1368 1.18596E-02 1.14365E-12-8.45063E-02
 -1      1370 1.10536E-02 1.11837E-12-8.45012E-02
 -1      1379 1.15808E-02 1.26274E-06-9.05008E-02
 -1      1381 1.15808E-02-1.26273E-06-9.05008E-02
 -1      1382 1.19865E-02 1.10351E-12-9.05028E-02
 -1      1384 1.11750E-02 1.07788E-12-9.04988E-02
 -1      1393 1.16792E-02 9.42509E-07-9.65311E-02
 -1      1395 1.16792E-02-9.42506E-07-9.65311E-02
 -1      1396 1.20867E-02 1.05900E-12-9.65326E-02
 -1      1398 1.12717E-02 1.03327E-12-9.65296E-02
 -1      1407 1.17544E-02 6.43271E-07-1.02581E-01
 -1      1409 1.17544E-02-6.43269E-07-1.02581E-01
 -1      1410 1.21629E-02 1.01251E-12-1.02582E-01
 -1      1412 1.13460E-02 9.85362E-13-1.02580E-01
 -1      1421 1.18092E-02 3.96759E-07-1.08638E-01
 -1      1423 1.18092E-02-3.96757E-07-1.08638E-01
 -1      1424 1.22178E-02 9.66077E-13-1.08639E-01
 -1      1426 1.14007E-02 9.37123E-13-1.08637E-01
 -1      1435 1.18465E-02 1.70790E-07-1.14691E-01
 -1      1437 1.18465E-02-1.70788E-07-1.14691E-01
 -1      1438 1.22545E-02 9.20313E-13-1.14692E-01
 -1      1440 1.14384E-02 8.91598E-13-1.14691E-01
 -1      1449 1.18692E-02 3.17873E-09-1.20731E-01
 -1      1451 1.18692E-02-3.17701E-09-1.20731E-01
 -1      1452 1.22761E-02 8.75951E-13-1.20731E-01
 -1      1454 1.14624E-02 8.45755E-13-1.20731E-01
 -1      1463 1.18807E-02-1.39473E-07-1.26750E-01
 -1      1465 1.18807E-02 1.39475E-07-1.26750E-01
 -1      1466 1.22861E-02 8.30869E-13-1.26750E-01
 -1      1468 1.14754E-02 7.99299E-13-1.26750E-01
 -1      1477 1.18846E-02-2.18379E-07-1.32741E-01
 -1      1479 1.18846E-02 2.18380E-07-1.32741E-01
 -1      1480 1.22878E-02 7.85490E-13-1.32741E-01
 -1      1482 1.14815E-02 7.53612E-13-1.32741E-01
 -1      1491-5.94413E-03 1.15216E-07-1.38690E-01
 -1      1493-5.94413E-03-1.15216E-07-1.38690E-01
 -1      1494 4.54302E-15 2.73805E-13-1.38685E-01
 -1      1496 9.80487E-15 2.73739E-13-1.38685E-01
 -1      1497 5.94413E-03-1.15215E-07-1.38690E-01
 -1      1499 5.94413E-03 1.15216E-07-1.38690E-01
 -1      1500 1.08477E-03 3.23181E-04-7.17222E-04
 -1      1502 8.97565E-04 3.41332E-04-6.87963E-04
 -1      1503 1.94708E-03 2.36855E-04-2.05818E-03
 -1      1505 1.77234E-03 2.39060E-04-2.01875E-03
 -1      1506 2.91230E-03 2.29640E-04-3.65252E-03
 -1      1508 2.65680E-03 2.45941E-04-3.61578E-03
 -1      1509 3.78465E-03 2.08468E-04-5.76306E-03
 -1      1511 3.47165E-03 2.33865E-04-5.73234E-03
 -1      1512 4.61301E-03 1.95189E-04-8.26177E-03
 -1      1514 4.25216E-03 2.30684E-04-8.22768E-03
 -1      1515 5.40066E-03 1.72920E-04-1.11552E-02
 -1      1517 4.98151E-03 2.20684E-04-1.11279E-02
 -1      1518 6.13290E-03 1.57627E-04-1.44193E-02
 -1      1520 5.67189E-03 2.16206E-04-1.43897E-02
 -1      1521 6.82423E-03 1.37123E-04-1.80214E-02
 -1      1523 6.31386E-03 2.08824E-04-1.79972E-02
 -1      1524 7.46385E-03 1.19812E-04-2.19488E-02
 -1      1526 6.91524E-03 2.03819E-04-2.19234E-02
 -1      1527 8.06066E-03 1.00106E-04-2.61681E-02
 -1      1529 7.47131E-03 1.98122E-04-2.61470E-02
 -1      1530 8.60920E-03 8.18167E-05-3.06641E-02
 -1      1532 7.98622E-03 1.93578E-04-3.06427E-02
 -1      1533 9.11466E-03 6.24028E-05-3.54070E-02
 -1      1535 8.45843E-03 1.89142E-04-3.53892E-02
 -1      1536 9.57476E-03 4.37338E-05-4.03792E-02
 -1      1538 8.89021E-03 1.85455E-04-4.03616E-02
 -1      1539 9.99284E-03 2.45701E-05-4.55540E-02
 -1      1541 9.28172E-03 1.82160E-04-4.55394E-02
 -1      1542 1.03684E-02 5.93971E-06-5.09127E-02
 -1      1544 9.63452E-03 1.79482E-04-5.08986E-02
 -1      1545 1.07041E-02-1.27997E-05-5.64310E-02
 -1      1547 9.94969E-03 1.77291E-04-5.64194E-02
 -1      1548 1.10004E-02-3.10153E-05-6.20901E-02
 -1      1550 1.02287E-02 1.75669E-04-6.20792E-02
 -1      1551 1.12596E-02-4.90418E-05-6.78680E-02
 -1      1553 1.04730E-02 1.74553E-04-6.78593E-02
 -1      1554 1.14832E-02-6.64500E-05-7.37467E-02
 -1      1556 1.06844E-02 1.73972E-04-7.37387E-02
 -1      1557 1.16734E-02-8.33906E-05-7.97061E-02
 -1      1559 1.08648E-02 1.73876E-04-7.97000E-02
 -1      1560 1.18320E-02-9.95489E-05-8.57297E-02
 -1      1562 1.10161E-02 1.74255E-04-8.57243E-02
 -1      1563 1.19617E-02-1.14940E-04-9.17996E-02
 -1      1565 1.11405E-02 1.75062E-04-9.17957E-02
 -1      1566 1.20647E-02-1.29321E-04-9.79008E-02
 -1      1568 1.12404E-02 1.76226E-04-9.78976E-02
 -1      1569 1.21439E-02-1.42569E-04-1.04018E-01
 -1      1571 1.13182E-02 1.77724E-04-1.04016E-01
 -1      1572 1.22018E-02-1.54523E-04-1.10138E-01
 -1      1574 1.13766E-02 1.79327E-04-1.10137E-01
 -1      1575 1.22417E-02-1.64799E-04-1.16248E-01
 -1      1577 1.14185E-02 1.81178E-04-1.16248E-01
 -1      1578 1.22664E-02-1.73529E-04-1.22337E-01
 -1      1580 1.14467E-02 1.82570E-04-1.22337E-01
 -1      1581 1.22801E-02-1.79820E-04-1.28395E-01
 -1      1583 1.14648E-02 1.84085E-04-1.28396E-01
 -1      1584 1.22839E-02-1.83390E-04-1.34411E-01
 -1      1586 1.14755E-02 1.85332E-04-1.34412E-01
 -1      1587 1.22848E-02-1.60311E-04-1.39236E-01
 -1      1589 1.14815E-02 1.57529E-04-1.39235E-01
 -1      1590 0.00000E+00 0.00000E+00-2.42673E-05
 -1      1592 0.00000E+00 0.00000E+00 2.42673E-05
 -1      1593 1.22848E-02 1.60311E-04-1.39236E-01
 -1      1595 1.14815E-02-1.57529E-04-1.39235E-01
 -1      1596 1.08477E-03-3.23181E-04-7.17222E-04
 -1      1598 8.97565E-04-3.41332E-04-6.87963E-04
 -1      1599 1.94708E-03-2.36855E-04-2.05818E-03
 -1      1601 1.77234E-03-2.39060E-04-2.01875E-03
 -1      1602 2.91230E-03-2.29640E-04-3.65252E-03
 -1      1604 2.65680E-03-2.45941E-04-3.61578E-03
 -1      1605 3.78465E-03-2.08468E-04-5.76306E-03
 -1      1607 3.47165E-03-2.33865E-04-5.73234E-03
 -1      1608 4.61301E-03-1.95189E-04-8.26177E-03
 -1      1610 4.25216E-03-2.30684E-04-8.22768E-03
 -1      1611 5.40066E-03-1.72920E-04-1.11552E-02
 -1      1613 4.98151E-03-2.20684E-04-1.11279E-02
 -1      1614 6.13290E-03-1.57627E-04-1.44193E-02
 -1      1616 5.67189E-03-2.16206E-04-1.43897E-02
 -1      1617 6.82423E-03-1.37123E-04-1.80214E-02
 -1      1619 6.31386E-03-2.08824E-04-1.79972E-02
 -1      1620 7.46385E-03-1.19812E-04-2.19488E-02
 -1      1622 6.91524E-03-2.03819E-04-2.19234E-02
 -1      1623 8.06066E-03-1.00106E-04-2.61681E-02
 -1      1625 7.47131E-03-1.98122E-04-2.61470E-02
 -1      1626 8.60920E-03-8.18167E-05-3.06641E-02
 -1      1628 7.98622E-03-1.93578E-04-3.06427E-02
 -1      1629 9.11466E-03-6.24028E-05-3.54070E-02
 -1      1631 8.45843E-03-1.89142E-04-3.53892E-02
 -1      1632 9.57476E-03-4.37338E-05-4.03792E-02
 -1      1634 8.89021E-03-1.85455E-04-4.03616E-02
 -1      1635 9.99284E-03-2.45701E-05-4.55540E-02
 -1      1637 9.28172E-03-1.82160E-04-4.55394E-02
 -1      1638 1.03684E-02-5.93971E-06-5.09127E-02
 -1      1640 9.63452E-03-1.79482E-04-5.08986E-02
 -1      1641 1.07041E-02 1.27997E-05-5.64310E-02
 -1      1643 9.94969E-03-1.77291E-04-5.64194E-02
 -1      1644 1.10004E-02 3.10153E-05-6.20901E-02
 -1      1646 1.02287E-02-1.75669E-04-6.20792E-02
 -1      1647 1.12596E-02 4.90418E-05-6.78680E-02
 -1      1649 1.04730E-02-1.74553E-04-6.78593E-02
 -1      1650 1.14832E-02 6.64500E-05-7.37467E-02
 -1      1652 1.06844E-02-1.73972E-04-7.37387E-02
 -1      1653 1.16734E-02 8.33906E-05-7.97061E-02
 -1      1655 1.08648E-02-1.73876E-04-7.97000E-02
 -1      1656 1.18320E-02 9.95489E-05-8.57297E-02
 -1      1658 1.10161E-02-1.74255E-04-8.57243E-02
 -1      1659 1.19617E-02 1.14940E-04-9.17996E-02
 -1      1661 1.11405E-02-1.75062E-04-9.17957E-02
 -1      1662 1.20647E-02 1.29321E-04-9.79008E-02
 -1      1664 1.12404E-02-1.76226E-04-9.78976E-02
 -1      1665 1.21439E-02 1.42569E-04-1.04018E-01
 -1      1667 1.13182E-02-1.77724E-04-1.04016E-01
 -1      1668 1.22018E-02 1.54523E-04-1.10138E-01
 -1      1670 1.13766E-02-1.79327E-04-1.10137E-01
 -1      1671 1.22417E-02 1.64799E-04-1.16248E-01
 -1      1673 1.14185E-02-1.81178E-04-1.16248E-01
 -1      1674 1.22664E-02 1.73529E-04-1.22337E-01
 -1      1676 1.14467E-02-1.82570E-04-1.22337E-01
 -1      1677 1.22801E-02 1.79820E-04-1.28395E-01
 -1      1679 1.14648E-02-1.84085E-04-1.28396E-01
 -1      1680 1.22839E-02 1.83390E-04-1.34411E-01
 -1      1682 1.14755E-02-1.85332E-04-1.34412E-01
 -1      1683 0.00000E+00 0.00000E+00-2.42673E-05
 -1      1685 0.00000E+00 0.00000E+00 2.42673E-05
 -1      1686-1.02569E-03 1.67887E-04-7.47058E-04
 -1      1688-8.32188E-04 1.32531E-04-7.08983E-04
 -1      1689-1.99377E-03 1.33923E-04-2.04407E-03
 -1      1691-1.83711E-03 1.41008E-04-2.00834E-03
 -1      1692-2.92094E-03 1.01460E-04-3.60380E-03
 -1      1694-2.65488E-03 1.12384E-04-3.56777E-03
 -1      1695-3.79735E-03 1.08047E-04-5.69384E-03
 -1      1697-3.49832E-03 1.26492E-04-5.66005E-03
 -1      1698-4.63099E-03 8.75032E-05-8.14832E-03
 -1      1700-4.26534E-03 1.18078E-04-8.11674E-03
 -1      1701-5.41255E-03 8.21205E-05-1.10171E-02
 -1      1703-5.00252E-03 1.18845E-04-1.09871E-02
 -1      1704-6.14928E-03 6.77897E-05-1.42383E-02
 -1      1706-5.68782E-03 1.16552E-04-1.42101E-02
 -1      1707-6.83692E-03 5.85601E-05-1.78080E-02
 -1      1709-6.33306E-03 1.15884E-04-1.77820E-02
 -1      1710-7.47872E-03 4.57976E-05-2.16921E-02
 -1      1712-6.93215E-03 1.14961E-04-2.16674E-02
 -1      1713-8.07346E-03 3.49213E-05-2.58727E-02
 -1      1715-7.48953E-03 1.14698E-04-2.58503E-02
 -1      1716-8.62287E-03 2.25722E-05-3.03235E-02
 -1      1718-8.00331E-03 1.14597E-04-3.03023E-02
 -1      1719-9.12706E-03 1.08851E-05-3.50227E-02
 -1      1721-8.47590E-03 1.15003E-04-3.50038E-02
 -1      1722-9.58733E-03-1.40358E-06-3.99472E-02
 -1      1724-8.90701E-03 1.15647E-04-3.99295E-02
 -1      1725-1.00045E-02-1.34543E-05-4.50746E-02
 -1      1727-9.29842E-03 1.16753E-04-4.50589E-02
 -1      1728-1.03799E-02-2.57070E-05-5.03832E-02
 -1      1730-9.65067E-03 1.18111E-04-5.03687E-02
 -1      1731-1.07147E-02-3.78169E-05-5.58513E-02
 -1      1733-9.96545E-03 1.19890E-04-5.58388E-02
 -1      1734-1.10106E-02-4.99064E-05-6.14588E-02
 -1      1736-1.02438E-02 1.21918E-04-6.14473E-02
 -1      1737-1.12691E-02-6.18088E-05-6.71850E-02
 -1      1739-1.04876E-02 1.24314E-04-6.71753E-02
 -1      1740-1.14920E-02-7.35259E-05-7.30114E-02
 -1      1742-1.06983E-02 1.26944E-04-7.30027E-02
 -1      1743-1.16814E-02-8.49440E-05-7.89191E-02
 -1      1745-1.08780E-02 1.29867E-04-7.89119E-02
 -1      1746-1.18394E-02-9.60172E-05-8.48913E-02
 -1      1748-1.10284E-02 1.32993E-04-8.48850E-02
 -1      1749-1.19682E-02-1.06632E-04-9.09111E-02
 -1      1751-1.11519E-02 1.36303E-04-9.09060E-02
 -1      1752-1.20705E-02-1.16717E-04-9.69637E-02
 -1      1754-1.12508E-02 1.39763E-04-9.69594E-02
 -1      1755-1.21487E-02-1.26135E-04-1.03035E-01
 -1      1757-1.13275E-02 1.43238E-04-1.03032E-01
 -1      1758-1.22059E-02-1.34786E-04-1.09112E-01
 -1      1760-1.13847E-02 1.46772E-04-1.09109E-01
 -1      1761-1.22449E-02-1.42467E-04-1.15184E-01
 -1      1763-1.14252E-02 1.50072E-04-1.15182E-01
 -1      1764-1.22688E-02-1.49072E-04-1.21239E-01
 -1      1766-1.14522E-02 1.53223E-04-1.21238E-01
 -1      1767-1.22812E-02-1.54414E-04-1.27272E-01
 -1      1769-1.14682E-02 1.55673E-04-1.27271E-01
 -1      1770-1.22853E-02-1.57078E-04-1.33271E-01
 -1      1772-1.14779E-02 1.58331E-04-1.33270E-01
 -1      1773-1.02569E-03-1.67887E-04-7.47058E-04
 -1      1775-8.32188E-04-1.32531E-04-7.08983E-04
 -1      1776-1.99377E-03-1.33923E-04-2.04407E-03
 -1      1778-1.83711E-03-1.41008E-04-2.00834E-03
 -1      1779-2.92094E-03-1.01460E-04-3.60380E-03
 -1      1781-2.65488E-03-1.12384E-04-3.56777E-03
 -1      1782-3.79735E-03-1.08047E-04-5.69384E-03
 -1      1784-3.49832E-03-1.26492E-04-5.66005E-03
 -1      1785-4.63099E-03-8.75032E-05-8.14832E-03
 -1      1787-4.26534E-03-1.18078E-04-8.11674E-03
 -1      1788-5.41255E-03-8.21205E-05-1.10171E-02
 -1      1790-5.00252E-03-1.18845E-04-1.09871E-02
 -1      1791-6.14928E-03-6.77897E-05-1.42383E-02
 -1      1793-5.68782E-03-1.16552E-04-1.42101E-02
 -1      1794-6.83692E-03-5.85601E-05-1.78080E-02
 -1      1796-6.33306E-03-1.15884E-04-1.77820E-02
 -1      1797-7.47872E-03-4.57976E-05-2.16921E-02
 -1      1799-6.93215E-03-1.14961E-04-2.16674E-02
 -1      1800-8.07346E-03-3.49213E-05-2.58727E-02
 -1      1802-7.48953E-03-1.14698E-04-2.58503E-02
 -1      1803-8.62287E-03-2.25722E-05-3.03235E-02
 -1      1805-8.00331E-03-1.14597E-04-3.03023E-02
 -1      1806-9.12706E-03-1.08851E-05-3.50227E-02
 -1      1808-8.47590E-03-1.15003E-04-3.50038E-02
 -1      1809-9.58733E-03 1.40358E-06-3.99472E-02
 -1      1811-8.90701E-03-1.15647E-04-3.99295E-02
 -1      1812-1.00045E-02 1.34543E-05-4.50746E-02
 -1      1814-9.29842E-03-1.16753E-04-4.50589E-02
 -1      1815-1.03799E-02 2.57070E-05-5.03832E-02
 -1      1817-9.65067E-03-1.18111E-04-5.03687E-02
 -1      1818-1.07147E-02 3.78169E-05-5.58513E-02
 -1      1820-9.96545E-03-1.19890E-04-5.58388E-02
 -1      1821-1.10106E-02 4.99064E-05-6.14588E-02
 -1      1823-1.02438E-02-1.21918E-04-6.14473E-02
 -1      1824-1.12691E-02 6.18088E-05-6.71850E-02
 -1      1826-1.04876E-02-1.24314E-04-6.71753E-02
 -1      1827-1.14920E-02 7.35259E-05-7.30114E-02
 -1      1829-1.06983E-02-1.26944E-04-7.30027E-02
 -1      1830-1.16814E-02 8.49440E-05-7.89191E-02
 -1      1832-1.08780E-02-1.29867E-04-7.89119E-02
 -1      1833-1.18394E-02 9.60172E-05-8.48913E-02
 -1      1835-1.10284E-02-1.32993E-04-8.48850E-02
 -1      1836-1.19682E-02 1.06632E-04-9.09111E-02
 -1      1838-1.11519E-02-1.36303E-04-9.09060E-02
 -1      1839-1.20705E-02 1.16717E-04-9.69637E-02
 -1      1841-1.12508E-02-1.39763E-04-9.69594E-02
 -1      1842-1.21487E-02 1.26135E-04-1.03035E-01
 -1      1844-1.13275E-02-1.43238E-04-1.03032E-01
 -1      1845-1.22059E-02 1.34786E-04-1.09112E-01
 -1      1847-1.13847E-02-1.46772E-04-1.09109E-01
 -1      1848-1.22449E-02 1.42467E-04-1.15184E-01
 -1      1850-1.14252E-02-1.50072E-04-1.15182E-01
 -1      1851-1.22688E-02 1.49072E-04-1.21239E-01
 -1      1853-1.14522E-02-1.53223E-04-1.21238E-01
 -1      1854-1.22812E-02 1.54414E-04-1.27272E-01
 -1      1856-1.14682E-02-1.55673E-04-1.27271E-01
 -1      1857-1.22853E-02 1.57078E-04-1.33271E-01
 -1      1859-1.14779E-02-1.58331E-04-1.33270E-01
 -1      1860-4.44138E-04-6.69361E-06-6.02241E-04
 -1      1862-4.44138E-04 6.69361E-06-6.02241E-04
 -1      1863-9.28254E-04-6.29922E-06-1.77147E-03
 -1      1865-9.28254E-04 6.29922E-06-1.77147E-03
 -1      1866-1.38670E-03-5.53596E-06-3.38929E-03
 -1      1868-1.38670E-03 5.53596E-06-3.38929E-03
 -1      1869-1.81435E-03-5.34633E-06-5.44623E-03
 -1      1871-1.81435E-03 5.34633E-06-5.44623E-03
 -1      1872-2.21666E-03-5.10568E-06-7.91267E-03
 -1      1874-2.21666E-03 5.10568E-06-7.91267E-03
 -1      1875-2.59581E-03-4.65579E-06-1.07693E-02
 -1      1877-2.59581E-03 4.65579E-06-1.07693E-02
 -1      1878-2.95173E-03-4.53459E-06-1.39894E-02
 -1      1880-2.95173E-03 4.53459E-06-1.39894E-02
 -1      1881-3.28483E-03-4.05397E-06-1.75507E-02
 -1      1883-3.28483E-03 4.05397E-06-1.75507E-02
 -1      1884-3.59523E-03-3.92601E-06-2.14287E-02
 -1      1886-3.59523E-03 3.92601E-06-2.14287E-02
 -1      1887-3.88330E-03-3.48591E-06-2.56003E-02
 -1      1889-3.88330E-03 3.48592E-06-2.56003E-02
 -1      1890-4.14925E-03-3.32224E-06-3.00419E-02
 -1      1892-4.14925E-03 3.32224E-06-3.00419E-02
 -1      1893-4.39356E-03-2.93533E-06-3.47305E-02
 -1      1895-4.39356E-03 2.93533E-06-3.47305E-02
 -1      1896-4.61658E-03-2.74189E-06-3.96434E-02
 -1      1898-4.61658E-03 2.74189E-06-3.96434E-02
 -1      1899-4.81890E-03-2.40318E-06-4.47583E-02
 -1      1901-4.81890E-03 2.40318E-06-4.47583E-02
 -1      1902-5.00102E-03-2.19413E-06-5.00533E-02
 -1      1904-5.00102E-03 2.19413E-06-5.00533E-02
 -1      1905-5.16366E-03-1.89677E-06-5.55072E-02
 -1      1907-5.16366E-03 1.89678E-06-5.55072E-02
 -1      1908-5.30749E-03-1.68576E-06-6.10994E-02
 -1      1910-5.30749E-03 1.68576E-06-6.10994E-02
 -1      1911-5.43334E-03-1.42526E-06-6.68100E-02
 -1      1913-5.43334E-03 1.42526E-06-6.68100E-02
 -1      1914-5.54207E-03-1.22356E-06-7.26199E-02
 -1      1916-5.54207E-03 1.22356E-06-7.26199E-02
 -1      1917-5.63467E-03-9.98155E-07-7.85108E-02
 -1      1919-5.63467E-03 9.98156E-07-7.85108E-02
 -1      1920-5.71214E-03-8.14875E-07-8.44657E-02
 -1      1922-5.71214E-03 8.14876E-07-8.44657E-02
 -1      1923-5.77562E-03-6.24912E-07-9.04683E-02
 -1      1925-5.77562E-03 6.24912E-07-9.04683E-02
 -1      1926-5.82632E-03-4.67605E-07-9.65036E-02
 -1      1928-5.82632E-03 4.67606E-07-9.65036E-02
 -1      1929-5.86552E-03-3.14765E-07-1.02558E-01
 -1      1931-5.86552E-03 3.14765E-07-1.02558E-01
 -1      1932-5.89459E-03-1.90162E-07-1.08619E-01
 -1      1934-5.89459E-03 1.90162E-07-1.08619E-01
 -1      1935-5.91499E-03-7.66874E-08-1.14675E-01
 -1      1937-5.91499E-03 7.66877E-08-1.14675E-01
 -1      1938-5.92830E-03 8.85404E-09-1.20717E-01
 -1      1940-5.92830E-03-8.85382E-09-1.20717E-01
 -1      1941-5.93631E-03 7.99741E-08-1.26738E-01
 -1      1943-5.93631E-03-7.99740E-08-1.26738E-01
 -1      1944-5.94096E-03 1.07380E-07-1.32730E-01
 -1      1946-5.94096E-03-1.07380E-07-1.32730E-01
 -1      1947 1.95804E-15 2.04901E-14-5.49565E-04
 -1      1949-1.63462E-15 2.05018E-14-5.49565E-04
 -1      1950 2.52286E-15 6.24960E-14-1.69574E-03
 -1      1952-1.31868E-15 6.24778E-14-1.69574E-03
 -1      1953 3.81379E-15 1.17555E-13-3.32256E-03
 -1      1955-1.90118E-15 1.17559E-13-3.32256E-03
 -1      1956 4.50968E-15 1.90003E-13-5.38309E-03
 -1      1958-2.38535E-15 1.89980E-13-5.38309E-03
 -1      1959 4.91008E-15 2.74433E-13-7.85433E-03
 -1      1961-2.85933E-15 2.74461E-13-7.85433E-03
 -1      1962 4.96136E-15 3.64736E-13-1.07136E-02
 -1      1964-2.93328E-15 3.64726E-13-1.07136E-02
 -1      1965 5.22851E-15 4.56593E-13-1.39375E-02
 -1      1967-2.76733E-15 4.56628E-13-1.39375E-02
 -1      1968 5.37477E-15 5.45508E-13-1.75019E-02
 -1      1970-2.04119E-15 5.45418E-13-1.75019E-02
 -1      1971 5.33048E-15 6.27887E-13-2.13833E-02
 -1      1973-1.51441E-15 6.27901E-13-2.13833E-02
 -1      1974 4.83055E-15 7.01370E-13-2.55580E-02
 -1      1976-1.05338E-15 7.01258E-13-2.55580E-02
 -1      1977 4.36115E-15 7.65513E-13-3.00028E-02
 -1      1979-9.00999E-16 7.65547E-13-3.00028E-02
 -1      1980 4.04887E-15 8.23321E-13-3.46945E-02
 -1      1982-7.48804E-16 8.23432E-13-3.46945E-02
 -1      1983 3.33593E-15 8.69201E-13-3.96104E-02
 -1      1985 1.24412E-16 8.69263E-13-3.96104E-02
 -1      1986 2.56620E-15 8.95589E-13-4.47282E-02
 -1      1988 1.14123E-15 8.95534E-13-4.47282E-02
 -1      1989 2.06558E-15 9.04707E-13-5.00260E-02
 -1      1991 1.86732E-15 9.04603E-13-5.00260E-02
 -1      1992 1.73730E-15 9.00727E-13-5.54827E-02
 -1      1994 2.56327E-15 9.00589E-13-5.54827E-02
 -1      1995 1.65016E-15 8.84855E-13-6.10774E-02
 -1      1997 3.45318E-15 8.84764E-13-6.10774E-02
 -1      1998 1.61318E-15 8.58508E-13-6.67905E-02
 -1      2000 4.23067E-15 8.58622E-13-6.67905E-02
 -1      2001 1.81157E-15 8.27007E-13-7.26027E-02
 -1      2003 4.44068E-15 8.26983E-13-7.26027E-02
 -1      2004 1.27673E-15 7.88722E-13-7.84958E-02
 -1      2006 5.06951E-15 7.88872E-13-7.84958E-02
 -1      2007 1.50406E-15 7.44021E-13-8.44527E-02
 -1      2009 5.28874E-15 7.43744E-13-8.44527E-02
 -1      2010 2.07538E-15 7.00687E-13-9.04571E-02
 -1      2012 5.52672E-15 7.00660E-13-9.04571E-02
 -1      2013 1.86331E-15 6.51426E-13-9.64941E-02
 -1      2015 6.83568E-15 6.51314E-13-9.64941E-02
 -1      2016 2.32171E-15 5.91077E-13-1.02550E-01
 -1      2018 7.63528E-15 5.91511E-13-1.02550E-01
 -1      2019 3.40309E-15 5.33970E-13-1.08612E-01
 -1      2021 7.90503E-15 5.33807E-13-1.08612E-01
 -1      2022 4.20757E-15 4.83436E-13-1.14669E-01
 -1      2024 8.26281E-15 4.83629E-13-1.14669E-01
 -1      2025 3.86258E-15 4.28981E-13-1.20712E-01
 -1      2027 9.10340E-15 4.29295E-13-1.20712E-01
 -1      2028 4.53066E-15 3.73807E-13-1.26733E-01
 -1      2030 8.79407E-15 3.74277E-13-1.26733E-01
 -1      2031 4.86113E-15 3.26950E-13-1.32725E-01
 -1      2033 8.71959E-15 3.27124E-13-1.32725E-01
 -1      2034 4.44138E-04 6.69361E-06-6.02241E-04
 -1      2036 4.44138E-04-6.69361E-06-6.02241E-04
 -1      2037 9.28254E-04 6.29922E-06-1.77147E-03
 -1      2039 9.28254E-04-6.29922E-06-1.77147E-03
 -1      2040 1.38670E-03 5.53596E-06-3.38929E-03
 -1      2042 1.38670E-03-5.53596E-06-3.38929E-03
 -1      2043 1.81435E-03 5.34633E-06-5.44623E-03
 -1      2045 1.81435E-03-5.34633E-06-5.44623E-03
 -1      2046 2.21666E-03 5.10568E-06-7.91267E-03
 -1      2048 2.21666E-03-5.10568E-06-7.91267E-03
 -1      2049 2.59581E-03 4.65579E-06-1.07693E-02
 -1      2051 2.59581E-03-4.65579E-06-1.07693E-02
 -1      2052 2.95173E-03 4.53459E-06-1.39894E-02
 -1      2054 2.95173E-03-4.53459E-06-1.39894E-02
 -1      2055 3.28483E-03 4.05397E-06-1.75507E-02
 -1      2057 3.28483E-03-4.05397E-06-1.75507E-02
 -1      2058 3.59523E-03 3.92601E-06-2.14287E-02
 -1      2060 3.59523E-03-3.92601E-06-2.14287E-02
 -1      2061 3.88330E-03 3.48592E-06-2.56003E-02
 -1      2063 3.88330E-03-3.48591E-06-2.56003E-02
 -1      2064 4.14925E-03 3.32224E-06-3.00419E-02
 -1      2066 4.14925E-03-3.32224E-06-3.00419E-02
 -1      2067 4.39356E-03 2.93533E-06-3.47305E-02
 -1      2069 4.39356E-03-2.93533E-06-3.47305E-02
 -1      2070 4.61658E-03 2.74189E-06-3.96434E-02
 -1      2072 4.61658E-03-2.74189E-06-3.96434E-02
 -1      2073 4.81890E-03 2.40318E-06-4.47583E-02
 -1      2075 4.81890E-03-2.40318E-06-4.47583E-02
 -1      2076 5.00102E-03 2.19413E-06-5.00533E-02
 -1      2078 5.00102E-03-2.19413E-06-5.00533E-02
 -1      2079 5.16366E-03 1.89678E-06-5.55072E-02
 -1      2081 5.16366E-03-1.89677E-06-5.55072E-02
 -1      2082 5.30749E-03 1.68576E-06-6.10994E-02
 -1      2084 5.30749E-03-1.68576E-06-6.10994E-02
 -1      2085 5.43334E-03 1.42526E-06-6.68100E-02
 -1      2087 5.43334E-03-1.42526E-06-6.68100E-02
 -1      2088 5.54207E-03 1.22356E-06-7.26199E-02
 -1      2090 5.54207E-03-1.22356E-06-7.26199E-02
 -1      2091 5.63467E-03 9.98157E-07-7.85108E-02
 -1      2093 5.63467E-03-9.98155E-07-7.85108E-02
 -1      2094 5.71214E-03 8.14877E-07-8.44657E-02
 -1      2096 5.71214E-03-8.14875E-07-8.44657E-02
 -1      2097 5.77562E-03 6.24913E-07-9.04683E-02
 -1      2099 5.77562E-03-6.24911E-07-9.04683E-02
 -1      2100 5.82632E-03 4.67607E-07-9.65036E-02
 -1      2102 5.82632E-03-4.67605E-07-9.65036E-02
 -1      2103 5.86552E-03 3.14766E-07-1.02558E-01
 -1      2105 5.86552E-03-3.14764E-07-1.02558E-01
 -1      2106 5.89459E-03 1.90163E-07-1.08619E-01
 -1      2108 5.89459E-03-1.90161E-07-1.08619E-01
 -1      2109 5.91499E-03 7.66883E-08-1.14675E-01
 -1      2111 5.91499E-03-7.66869E-08-1.14675E-01
 -1      2112 5.92830E-03-8.85327E-09-1.20717E-01
 -1      2114 5.92830E-03 8.85459E-09-1.20717E-01
 -1      2115 5.93631E-03-7.99735E-08-1.26738E-01
 -1      2117 5.93631E-03 7.99747E-08-1.26738E-01
 -1      2118 5.94096E-03-1.07380E-07-1.32730E-01
 -1      2120 5.94096E-03 1.07381E-07-1.32730E-01
 -1      2121 1.02569E-03 1.67887E-04-7.47058E-04
 -1      2123 8.32188E-04 1.32531E-04-7.08983E-04
 -1      2124 1.99377E-03 1.33923E-04-2.04407E-03
 -1      2126 1.83711E-03 1.41008E-04-2.00834E-03
 -1      2127 2.92094E-03 1.01460E-04-3.60380E-03
 -1      2129 2.65488E-03 1.12384E-04-3.56777E-03
 -1      2130 3.79735E-03 1.08047E-04-5.69384E-03
 -1      2132 3.49832E-03 1.26492E-04-5.66005E-03
 -1      2133 4.63099E-03 8.75032E-05-8.14832E-03
 -1      2135 4.26534E-03 1.18078E-04-8.11674E-03
 -1      2136 5.41255E-03 8.21205E-05-1.10171E-02
 -1      2138 5.00252E-03 1.18845E-04-1.09871E-02
 -1      2139 6.14928E-03 6.77897E-05-1.42383E-02
 -1      2141 5.68782E-03 1.16552E-04-1.42101E-02
 -1      2142 6.83692E-03 5.85601E-05-1.78080E-02
 -1      2144 6.33306E-03 1.15884E-04-1.77820E-02
 -1      2145 7.47872E-03 4.57976E-05-2.16921E-02
 -1      2147 6.93215E-03 1.14961E-04-2.16674E-02
 -1      2148 8.07346E-03 3.49213E-05-2.58727E-02
 -1      2150 7.48953E-03 1.14698E-04-2.58503E-02
 -1      2151 8.62287E-03 2.25722E-05-3.03235E-02
 -1      2153 8.00331E-03 1.14597E-04-3.03023E-02
 -1      2154 9.12706E-03 1.08851E-05-3.50227E-02
 -1      2156 8.47590E-03 1.15003E-04-3.50038E-02
 -1      2157 9.58733E-03-1.40357E-06-3.99472E-02
 -1      2159 8.90701E-03 1.15647E-04-3.99295E-02
 -1      2160 1.00045E-02-1.34543E-05-4.50746E-02
 -1      2162 9.29842E-03 1.16753E-04-4.50589E-02
 -1      2163 1.03799E-02-2.57070E-05-5.03832E-02
 -1      2165 9.65067E-03 1.18111E-04-5.03687E-02
 -1      2166 1.07147E-02-3.78169E-05-5.58513E-02
 -1      2168 9.96545E-03 1.19890E-04-5.58388E-02
 -1      2169 1.10106E-02-4.99064E-05-6.14588E-02
 -1      2171 1.02438E-02 1.21918E-04-6.14473E-02
 -1      2172 1.12691E-02-6.18088E-05-6.71850E-02
 -1      2174 1.04876E-02 1.24314E-04-6.71753E-02
 -1      2175 1.14920E-02-7.35259E-05-7.30114E-02
 -1      2177 1.06983E-02 1.26944E-04-7.30027E-02
 -1      2178 1.16814E-02-8.49440E-05-7.89191E-02
 -1      2180 1.08780E-02 1.29867E-04-7.89119E-02
 -1      2181 1.18394E-02-9.60172E-05-8.48913E-02
 -1      2183 1.10284E-02 1.32993E-04-8.48850E-02
 -1      2184 1.19682E-02-1.06632E-04-9.09111E-02
 -1      2186 1.11519E-02 1.36303E-04-9.09060E-02
 -1      2187 1.20705E-02-1.16717E-04-9.69637E-02
 -1      2189 1.12508E-02 1.39763E-04-9.69594E-02
 -1      2190 1.21487E-02-1.26135E-04-1.03035E-01
 -1      2192 1.13275E-02 1.43238E-04-1.03032E-01
 -1      2193 1.22059E-02-1.34786E-04-1.09112E-01
 -1      2195 1.13847E-02 1.46772E-04-1.09109E-01
 -1      2196 1.22449E-02-1.42467E-04-1.15184E-01
 -1      2198 1.14252E-02 1.50072E-04-1.15182E-01
 -1      2199 1.22688E-02-1.49072E-04-1.21239E-01
 -1      2201 1.14522E-02 1.53223E-04-1.21238E-01
 -1      2202 1.22812E-02-1.54414E-04-1.27272E-01
 -1      2204 1.14682E-02 1.55673E-04-1.27271E-01
 -1      2205 1.22853E-02-1.57078E-04-1.33271E-01
 -1      2207 1.14779E-02 1.58331E-04-1.33270E-01
 -1      2208 1.02569E-03-1.67887E-04-7.47058E-04
 -1      2210 8.32188E-04-1.32531E-04-7.08983E-04
 -1      2211 1.99377E-03-1.33923E-04-2.04407E-03
 -1      2213 1.83711E-03-1.41008E-04-2.00834E-03
 -1      2214 2.92094E-03-1.01460E-04-3.60380E-03
 -1      2216 2.65488E-03-1.12384E-04-3.56777E-03
 -1      2217 3.79735E-03-1.08047E-04-5.69384E-03
 -1      2219 3.49832E-03-1.26492E-04-5.66005E-03
 -1      2220 4.63099E-03-8.75032E-05-8.14832E-03
 -1      2222 4.26534E-03-1.18078E-04-8.11674E-03
 -1      2223 5.41255E-03-8.21205E-05-1.10171E-02
 -1      2225 5.00252E-03-1.18845E-04-1.09871E-02
 -1      2226 6.14928E-03-6.77897E-05-1.42383E-02
 -1      2228 5.68782E-03-1.16552E-04-1.42101E-02
 -1      2229 6.83692E-03-5.85601E-05-1.78080E-02
 -1      2231 6.33306E-03-1.15884E-04-1.77820E-02
 -1      2232 7.47872E-03-4.57976E-05-2.16921E-02
 -1      2234 6.93215E-03-1.14961E-04-2.16674E-02
 -1      2235 8.07346E-03-3.49213E-05-2.58727E-02
 -1      2237 7.48953E-03-1.14698E-04-2.58503E-02
 -1      2238 8.62287E-03-2.25722E-05-3.03235E-02
 -1      2240 8.00331E-03-1.14597E-04-3.03023E-02
 -1      2241 9.12706E-03-1.08851E-05-3.50227E-02
 -1      2243 8.47590E-03-1.15003E-04-3.50038E-02
 -1      2244 9.58733E-03 1.40358E-06-3.99472E-02
 -1      2246 8.90701E-03-1.15647E-04-3.99295E-02
 -1      2247 1.00045E-02 1.34543E-05-4.50746E-02
 -1      2249 9.29842E-03-1.16753E-04-4.50589E-02
 -1      2250 1.03799E-02 2.57070E-05-5.03832E-02
 -1      2252 9.65067E-03-1.18111E-04-5.03687E-02
 -1      2253 1.07147E-02 3.78169E-05-5.58513E-02
 -1      2255 9.96545E-03-1.19890E-04-5.58388E-02
 -1      2256 1.10106E-02 4.99064E-05-6.14588E-02
 -1      2258 1.02438E-02-1.21918E-04-6.14473E-02
 -1      2259 1.12691E-02 6.18088E-05-6.71850E-02
 -1      2261 1.04876E-02-1.24314E-04-6.71753E-02
 -1      2262 1.14920E-02 7.35259E-05-7.30114E-02
 -1      2264 1.06983E-02-1.26944E-04-7.30027E-02
 -1      2265 1.16814E-02 8.49440E-05-7.89191E-02
 -1      2267 1.08780E-02-1.29867E-04-7.89119E-02
 -1      2268 1.18394E-02 9.60172E-05-8.48913E-02
 -1      2270 1.10284E-02-1.32993E-04-8.48850E-02
 -1      2271 1.19682E-02 1.06632E-04-9.09111E-02
 -1      2273 1.11519E-02-1.36303E-04-9.09060E-02
 -1      2274 1.20705E-02 1.16717E-04-9.69637E-02
 -1      2276 1.12508E-02-1.39763E-04-9.69594E-02
 -1      2277 1.21487E-02 1.26135E-04-1.03035E-01
 -1      2279 1.13275E-02-1.43238E-04-1.03032E-01
 -1      2280 1.22059E-02 1.34786E-04-1.09112E-01
 -1      2282 1.13847E-02-1.46772E-04-1.09109E-01
 -1      2283 1.22449E-02 1.42467E-04-1.15184E-01
 -1      2285 1.14252E-02-1.50072E-04-1.15182E-01
 -1      2286 1.22688E-02 1.49072E-04-1.21239E-01
 -1      2288 1.14522E-02-1.53223E-04-1.21238E-01
 -1      2289 1.22812E-02 1.54414E-04-1.27272E-01
 -1      2291 1.14682E-02-1.55673E-04-1.27271E-01
 -1      2292 1.22853E-02 1.57078E-04-1.33271E-01
 -1      2294 1.14779E-02-1.58331E-04-1.33270E-01
 -3
    1PSTEP                         6           1           1          
    1PGM                1.000000E+00                                  
    1PGK                1.072207E+05                                  
    1PHID                         -1                                  
    1PSUBC                         0                                  
    1PMODE                         2                                  
  100CL  102 52.11460063         930                     2    2MODAL      1
 -4  STRESS      6    1
 -5  SXX         1    4    1    1
 -5  SYY         1    4    2    2
 -5  SZZ         1    4    3    3
 -5  SXY         1    4    1    2
 -5  SYZ         1    4    2    3
 -5  SZX         1    4    3    1
 -1       404-2.07593E+09-1.98321E+08-1.06924E+06 1.38994E+08-2.91568E+06-8.32276E+06
 -1       406-2.07593E+09-1.98321E+08-1.06924E+06 1.38994E+08-2.91568E+06-8.32276E+06
 -1       407-3.60900E+06-5.82983E+05 7.73414E+04 1.41936E+06-1.87836E+06 1.33398E+05
 -1       409-3.60900E+06-5.82983E+05 7.73414E+04 1.41936E+06-1.87836E+06 1.33398E+05
 -1       410-3.88887E+06-3.00770E+06-1.86548E+05 1.01223E-04-3.95467E-04 1.45010E+05
 -1       412-3.88887E+06-3.00770E+06-1.86548E+05 1.01223E-04-3.95467E-04 1.45010E+05
 -1       413 2.98673E+06 3.52475E+05 2.49979E+07-7.84630E-06-4.29305E-04-1.38845E+07
 -1       415 2.98673E+06 3.52475E+05 2.49979E+07-7.84630E-06-4.29305E-04-1.38845E+07
 -1       424-2.08186E+09-2.73912E+08 5.30648E+05 3.89270E-04 9.89670E-05-2.84577E+07
 -1       426-2.08186E+09-2.73912E+08 5.30648E+05 3.89270E-04 9.89670E-05-2.84577E+07
 -1       427-1.57124E+09-2.60451E+06-2.65478E+08-6.03276E-05 4.13588E-05-3.51254E+08
 -1       429-1.57124E+09-2.60451E+06-2.65478E+08-6.03276E-05 4.13588E-05-3.51254E+08
 -1       438-3.60900E+06-5.82983E+05 7.73414E+04-1.41936E+06 1.87836E+06 1.33398E+05
 -1       440-3.60900E+06-5.82983E+05 7.73414E+04-1.41936E+06 1.87836E+06 1.33398E+05
 -1       441-2.07593E+09-1.98321E+08-1.06924E+06-1.38994E+08 2.91568E+06-8.32276E+06
 -1       443-2.07593E+09-1.98321E+08-1.06924E+06-1.38994E+08 2.91568E+06-8.32276E+06
 -1       444 1.57124E+09 2.60451E+06 2.65478E+08 1.97993E-05-3.58255E-05-3.51254E+08
 -1       446 1.57124E+09 2.60451E+06 2.65478E+08 1.97993E-05-3.58255E-05-3.51254E+08
 -1       447 2.08186E+09 2.73912E+08-5.30648E+05 3.62495E-03-8.22358E-07-2.84577E+07
 -1       449 2.08186E+09 2.73912E+08-5.30648E+05 3.62495E-03-8.22358E-07-2.84577E+07
 -1       458-2.98673E+06-3.52475E+05-2.49979E+07-5.04403E-06-5.44758E-04-1.38845E+07
 -1       460-2.98673E+06-3.52475E+05-2.49979E+07-5.04403E-06-5.44758E-04-1.38845E+07
 -1       461 3.88887E+06 3.00770E+06 1.86548E+05-2.35273E-04-3.37250E-04 1.45010E+05
 -1       463 3.88887E+06 3.00770E+06 1.86548E+05-2.35273E-04-3.37250E-04 1.45010E+05
 -1       472 2.07593E+09 1.98321E+08 1.06924E+06 1.38994E+08 2.91568E+06-8.32276E+06
 -1       474 2.07593E+09 1.98321E+08 1.06924E+06 1.38994E+08 2.91568E+06-8.32276E+06
 -1       475 3.60900E+06 5.82983E+05-7.73414E+04 1.41936E+06 1.87836E+06 1.33398E+05
 -1       477 3.60900E+06 5.82983E+05-7.73414E+04 1.41936E+06 1.87836E+06 1.33398E+05
 -1       478 3.60900E+06 5.82983E+05-7.73414E+04-1.41936E+06-1.87836E+06 1.33398E+05
 -1       480 3.60900E+06 5.82983E+05-7.73414E+04-1.41936E+06-1.87836E+06 1.33398E+05
 -1       481 2.07593E+09 1.98321E+08 1.06924E+06-1.38994E+08-2.91568E+06-8.32276E+06
 -1       483 2.07593E+09 1.98321E+08 1.06924E+06-1.38994E+08-2.91568E+06-8.32276E+06
 -1       484-1.99897E+09-5.74574E+07 7.20363E+05 4.49653E+07-1.46813E+06-3.48947E+06
 -1       486-1.99897E+09-5.74574E+07 7.20363E+05 4.49653E+07-1.46813E+06-3.48947E+06
 -1       487-1.90957E+09 2.66155E+07-2.15391E+05-4.21988E+06 9.44743E+04 1.44090E+06
 -1       489-1.90957E+09 2.66155E+07-2.15391E+05-4.21988E+06 9.44743E+04 1.44090E+06
 -1       490-1.84047E+09-8.34981E+06-7.56355E+04 2.93846E+07-1.96750E+05-4.94910E+05
 -1       492-1.84047E+09-8.34981E+06-7.56355E+04 2.93846E+07-1.96750E+05-4.94910E+05
 -1       493-1.73593E+09 2.88595E+06 1.86818E+05 2.03094E+07-1.91331E+05-2.74911E+05
 -1       495-1.73593E+09 2.88595E+06 1.86818E+05 2.03094E+07-1.91331E+05-2.74911E+05
 -1       496-1.63986E+09-1.41567E+06-1.68904E+05 2.18844E+07-2.02480E+05 6.39798E+04
 -1       498-1.63986E+09-1.41567E+06-1.68904E+05 2.18844E+07-2.02480E+05 6.39798E+04
 -1       499-1.54330E+09 8.45734E+05 1.67905E+05 2.16038E+07-3.42380E+05-3.95602E+05
 -1       501-1.54330E+09 8.45734E+05 1.67905E+05 2.16038E+07-3.42380E+05-3.95602E+05
 -1       502-1.44681E+09-5.88998E+05-1.20438E+05 2.15452E+07-3.48574E+05 2.36991E+03
 -1       504-1.44681E+09-5.88998E+05-1.20438E+05 2.15452E+07-3.48574E+05 2.36991E+03
 -1       505-1.35124E+09 2.98834E+05 1.24835E+05 2.12391E+07-4.74451E+05-3.17844E+05
 -1       507-1.35124E+09 2.98834E+05 1.24835E+05 2.12391E+07-4.74451E+05-3.17844E+05
 -1       508-1.25666E+09-2.72792E+05-7.96515E+04 2.10486E+07-5.07666E+05-9.48442E+04
 -1       510-1.25666E+09-2.72792E+05-7.96515E+04 2.10486E+07-5.07666E+05-9.48442E+04
 -1       511-1.16326E+09 6.83336E+04 9.52476E+04 2.06964E+07-6.17016E+05-2.62882E+05
 -1       513-1.16326E+09 6.83336E+04 9.52476E+04 2.06964E+07-6.17016E+05-2.62882E+05
 -1       514-1.07135E+09-1.69565E+05-5.00862E+04 2.03541E+07-6.71171E+05-1.56200E+05
 -1       516-1.07135E+09-1.69565E+05-5.00862E+04 2.03541E+07-6.71171E+05-1.56200E+05
 -1       517-9.81133E+08-3.43006E+04 7.59051E+04 1.99136E+07-7.72685E+05-2.38176E+05
 -1       519-9.81133E+08-3.43006E+04 7.59051E+04 1.99136E+07-7.72685E+05-2.38176E+05
 -1       520-8.92926E+08-1.47527E+05-2.81241E+04 1.94347E+07-8.41040E+05-1.90285E+05
 -1       522-8.92926E+08-1.47527E+05-2.81241E+04 1.94347E+07-8.41040E+05-1.90285E+05
 -1       523-8.06981E+08-9.22412E+04 6.36022E+04 1.88760E+07-9.39490E+05-2.29176E+05
 -1       525-8.06981E+08-9.22412E+04 6.36022E+04 1.88760E+07-9.39490E+05-2.29176E+05
 -1       526-7.23622E+08-1.56219E+05-1.12701E+04 1.82593E+07-1.01731E+06-2.08139E+05
 -1       528-7.23622E+08-1.56219E+05-1.12701E+04 1.82593E+07-1.01731E+06-2.08139E+05
 -1       529-6.43136E+08-1.34653E+05 5.62023E+04 1.75668E+07-1.11418E+06-2.25709E+05
 -1       531-6.43136E+08-1.34653E+05 5.62023E+04 1.75668E+07-1.11418E+06-2.25709E+05
 -1       532-5.65858E+08-1.77414E+05 2.09671E+03 1.68068E+07-1.19760E+06-2.15801E+05
 -1       534-5.65858E+08-1.77414E+05 2.09671E+03 1.68068E+07-1.19760E+06-2.15801E+05
 -1       535-4.92100E+08-1.71878E+05 5.22742E+04 1.59705E+07-1.29228E+06-2.22112E+05
 -1       537-4.92100E+08-1.71878E+05 5.22742E+04 1.59705E+07-1.29228E+06-2.22112E+05
 -1       538-4.22203E+08-2.03966E+05 1.30447E+04 1.50618E+07-1.37738E+06-2.15793E+05
 -1       540-4.22203E+08-2.03966E+05 1.30447E+04 1.50618E+07-1.37738E+06-2.15793E+05
 -1       541-3.56497E+08-2.07820E+05 5.08390E+04 1.40752E+07-1.46765E+06-2.15056E+05
 -1       543-3.56497E+08-2.07820E+05 5.08390E+04 1.40752E+07-1.46765E+06-2.15056E+05
 -1       544-2.95331E+08-2.32425E+05 2.22823E+04 1.30137E+07-1.54970E+06-2.08552E+05
 -1       546-2.95331E+08-2.32425E+05 2.22823E+04 1.30137E+07-1.54970E+06-2.08552E+05
 -1       547-2.39046E+08-2.44620E+05 5.12348E+04 1.18723E+07-1.63168E+06-2.02033E+05
 -1       549-2.39046E+08-2.44620E+05 5.12348E+04 1.18723E+07-1.63168E+06-2.02033E+05
 -1       550-1.87993E+08-2.59630E+05 3.02433E+04 1.06561E+07-1.70423E+06-1.92939E+05
 -1       552-1.87993E+08-2.59630E+05 3.02433E+04 1.06561E+07-1.70423E+06-1.92939E+05
 -1       553-1.42523E+08-2.85792E+05 5.30739E+04 9.35604E+06-1.77197E+06-1.80634E+05
 -1       555-1.42523E+08-2.85792E+05 5.30739E+04 9.35604E+06-1.77197E+06-1.80634E+05
 -1       556-1.02979E+08-2.80431E+05 3.71471E+04 7.98421E+06-1.82560E+06-1.65400E+05
 -1       558-1.02979E+08-2.80431E+05 3.71471E+04 7.98421E+06-1.82560E+06-1.65400E+05
 -1       559-6.96914E+07-3.24997E+05 5.59173E+04 6.55192E+06-1.87031E+06-1.49559E+05
 -1       561-6.96914E+07-3.24997E+05 5.59173E+04 6.55192E+06-1.87031E+06-1.49559E+05
 -1       562-4.31251E+07-3.47848E+05 4.39500E+04 4.91848E+06-1.89200E+06-1.15123E+05
 -1       564-4.31251E+07-3.47848E+05 4.39500E+04 4.91848E+06-1.89200E+06-1.15123E+05
 -1       565-2.32349E+07-1.92071E+05 5.81974E+04 3.61836E+06-1.90256E+06-1.18143E+05
 -1       567-2.32349E+07-1.92071E+05 5.81974E+04 3.61836E+06-1.90256E+06-1.18143E+05
 -1       568-9.24459E+06-3.66233E+05 4.56915E+04 2.31919E+06-1.89090E+06-4.50548E+03
 -1       570-9.24459E+06-3.66233E+05 4.56915E+04 2.31919E+06-1.89090E+06-4.50548E+03
 -1       571-3.74894E+06-1.79534E+06-5.46034E+04 2.88985E+06-4.63033E+06 1.39204E+05
 -1       573-3.74894E+06-1.79534E+06-5.46034E+04 2.88985E+06-4.63033E+06 1.39204E+05
 -1       574-2.05261E+09-1.05028E+08-3.65652E+05 9.11411E-04 6.93735E-06-4.45212E+06
 -1       576-2.05261E+09-1.05028E+08-3.65652E+05 9.11411E-04 6.93735E-06-4.45212E+06
 -1       577-1.54328E+09-1.73439E+05-1.35027E+08-3.42680E-05-1.70056E-05-3.44308E+08
 -1       579-1.54328E+09-1.73439E+05-1.35027E+08-3.42680E-05-1.70056E-05-3.44308E+08
 -1       588-1.94181E+09 3.82941E+07 3.24722E+05 1.26324E-03-1.08123E-04 3.60133E+06
 -1       590-1.94181E+09 3.82941E+07 3.24722E+05 1.26324E-03-1.08123E-04 3.60133E+06
 -1       591-1.47161E+09-6.79498E+05 2.89249E+06-6.01673E-05-1.27240E-04-3.17242E+08
 -1       593-1.47161E+09-6.79498E+05 2.89249E+06-6.01673E-05-1.27240E-04-3.17242E+08
 -1       602-1.82656E+09-1.29321E+06-3.61234E+03 1.56914E-03-8.46717E-05-2.14068E+06
 -1       604-1.82656E+09-1.29321E+06-3.61234E+03 1.56914E-03-8.46717E-05-2.14068E+06
 -1       605-1.38046E+09-7.47117E+05 5.39518E+06-7.26652E-05-1.39120E-04-3.10611E+08
 -1       607-1.38046E+09-7.47117E+05 5.39518E+06-7.26652E-05-1.39120E-04-3.10611E+08
 -1       616-1.73950E+09-3.62245E+06-2.23915E+05 2.13960E-03-2.29565E-05 1.43556E+06
 -1       618-1.73950E+09-3.62245E+06-2.23915E+05 2.13960E-03-2.29565E-05 1.43556E+06
 -1       619-1.30201E+09-7.65927E+04 1.48488E+06-8.02477E-05-3.77336E-05-3.18723E+08
 -1       621-1.30201E+09-7.65927E+04 1.48488E+06-8.02477E-05-3.77336E-05-3.18723E+08
 -1       630-1.63927E+09 2.16032E+06 1.72406E+05 2.06490E-03 8.76139E-06-8.31033E+05
 -1       632-1.63927E+09 2.16032E+06 1.72406E+05 2.06490E-03 8.76139E-06-8.31033E+05
 -1       633-1.23103E+09-7.72019E+05 1.98579E+06-9.32787E-05 5.18585E-05-3.15803E+08
 -1       635-1.23103E+09-7.72019E+05 1.98579E+06-9.32787E-05 5.18585E-05-3.15803E+08
 -1       644-1.54308E+09-1.06821E+06-1.92661E+05 1.71878E-03-4.26861E-05 6.38985E+05
 -1       646-1.54308E+09-1.06821E+06-1.92661E+05 1.71878E-03-4.26861E-05 6.38985E+05
 -1       647-1.15610E+09-1.68684E+05 2.04513E+06-1.01930E-04 4.31338E-05-3.15417E+08
 -1       649-1.15610E+09-1.68684E+05 2.04513E+06-1.01930E-04 4.31338E-05-3.15417E+08
 -1       658-1.44629E+09 1.90922E+05 7.88989E+04 1.47929E-03-4.25241E-05-3.14244E+05
 -1       660-1.44629E+09 1.90922E+05 7.88989E+04 1.47929E-03-4.25241E-05-3.14244E+05
 -1       661-1.08427E+09-5.10632E+05 2.75235E+06-1.03822E-04 6.74401E-05-3.12383E+08
 -1       663-1.08427E+09-5.10632E+05 2.75235E+06-1.03822E-04 6.74401E-05-3.12383E+08
 -1       672-1.35080E+09-4.49474E+05-1.20412E+05 1.15724E-03 5.52480E-05 3.28883E+05
 -1       674-1.35080E+09-4.49474E+05-1.20412E+05 1.15724E-03 5.52480E-05 3.28883E+05
 -1       675-1.01193E+09-2.43634E+05 3.33520E+06-1.10267E-04 2.25764E-04-3.09783E+08
 -1       677-1.01193E+09-2.43634E+05 3.33520E+06-1.10267E-04 2.25764E-04-3.09783E+08
 -1       686-1.25596E+09-1.94789E+05 1.54676E+04 7.05246E-04 1.02904E-04-8.98516E+04
 -1       688-1.25596E+09-1.94789E+05 1.54676E+04 7.05246E-04 1.02904E-04-8.98516E+04
 -1       689-9.40810E+08-3.46114E+05 4.10247E+06-1.09146E-04 3.15168E-04-3.05803E+08
 -1       691-9.40810E+08-3.46114E+05 4.10247E+06-1.09146E-04 3.15168E-04-3.05803E+08
 -1       700-1.16253E+09-4.39629E+05-8.77850E+04 6.32035E-04 1.40857E-04 2.03283E+05
 -1       702-1.16253E+09-4.39629E+05-8.77850E+04 6.32035E-04 1.40857E-04 2.03283E+05
 -1       703-8.70324E+08-2.29230E+05 4.85818E+06-1.01440E-04 3.62944E-04-3.01479E+08
 -1       705-8.70324E+08-2.29230E+05 4.85818E+06-1.01440E-04 3.62944E-04-3.01479E+08
 -1       714-1.07042E+09-3.89786E+05-2.04412E+04 1.05615E-03 1.54412E-04 1.74031E+04
 -1       716-1.07042E+09-3.89786E+05-2.04412E+04 1.05615E-03 1.54412E-04 1.74031E+04
 -1       717-8.01053E+08-2.39345E+05 5.70938E+06-1.09847E-04 3.81980E-04-2.96076E+08
 -1       719-8.01053E+08-2.39345E+05 5.70938E+06-1.09847E-04 3.81980E-04-2.96076E+08
 -1       728-9.80110E+08-5.29202E+05-7.65653E+04 1.33225E-03 5.75335E-05 1.54276E+05
 -1       730-9.80110E+08-5.29202E+05-7.65653E+04 1.33225E-03 5.75335E-05 1.54276E+05
 -1       731-7.32967E+08-1.76867E+05 6.57587E+06-8.21047E-05 2.57277E-04-2.89984E+08
 -1       733-7.32967E+08-1.76867E+05 6.57587E+06-8.21047E-05 2.57277E-04-2.89984E+08
 -1       742-8.91724E+08-5.54408E+05-4.39797E+04 7.88193E-04-3.41876E-05 7.27814E+04
 -1       744-8.91724E+08-5.54408E+05-4.39797E+04 7.88193E-04-3.41876E-05 7.27814E+04
 -1       745-6.66403E+08-1.54473E+05 7.50813E+06-7.20165E-05 1.95064E-04-2.82872E+08
 -1       747-6.66403E+08-1.54473E+05 7.50813E+06-7.20165E-05 1.95064E-04-2.82872E+08
 -1       756-8.05648E+08-6.57876E+05-7.59248E+04-1.96384E-04 2.76546E-05 1.38077E+05
 -1       758-8.05648E+08-6.57876E+05-7.59248E+04-1.96384E-04 2.76546E-05 1.38077E+05
 -1       759-6.01502E+08-1.11045E+05 8.46045E+06-5.56233E-05 2.71422E-04-2.74890E+08
 -1       761-6.01502E+08-1.11045E+05 8.46045E+06-5.56233E-05 2.71422E-04-2.74890E+08
 -1       770-7.22114E+08-7.14950E+05-6.20559E+04-8.92738E-04 4.02472E-05 1.03490E+05
 -1       772-7.22114E+08-7.14950E+05-6.20559E+04-8.92738E-04 4.02472E-05 1.03490E+05
 -1       773-5.38533E+08-7.81778E+04 9.46066E+06-5.50629E-05 2.17897E-04-2.65874E+08
 -1       775-5.38533E+08-7.81778E+04 9.46066E+06-5.50629E-05 2.17897E-04-2.65874E+08
 -1       784-6.41477E+08-8.06463E+05-8.09396E+04-1.09590E-03 4.73578E-05 1.35238E+05
 -1       786-6.41477E+08-8.06463E+05-8.09396E+04-1.09590E-03 4.73578E-05 1.35238E+05
 -1       787-4.77704E+08-4.15508E+04 1.04802E+07-5.21906E-05 1.36980E-04-2.55879E+08
 -1       789-4.77704E+08-4.15508E+04 1.04802E+07-5.21906E-05 1.36980E-04-2.55879E+08
 -1       798-5.64022E+08-8.78855E+05-7.77052E+04-1.10634E-03 1.56943E-04 1.21273E+05
 -1       800-5.64022E+08-8.78855E+05-7.77052E+04-1.10634E-03 1.56943E-04 1.21273E+05
 -1       801-4.19268E+08-6.29877E+03 1.15340E+07-4.29431E-05 2.96285E-04-2.44817E+08
 -1       803-4.19268E+08-6.29877E+03 1.15340E+07-4.29431E-05 2.96285E-04-2.44817E+08
 -1       812-4.90099E+08-9.66606E+05-8.92260E+04-1.05534E-03 2.19503E-04 1.36563E+05
 -1       814-4.90099E+08-9.66606E+05-8.92260E+04-1.05534E-03 2.19503E-04 1.36563E+05
 -1       815-3.63464E+08 2.73506E+04 1.26038E+07-5.44324E-05 3.29769E-04-2.32703E+08
 -1       817-3.63464E+08 2.73506E+04 1.26038E+07-5.44324E-05 3.29769E-04-2.32703E+08
 -1       826-4.20023E+08-1.04741E+06-9.23255E+04-8.40228E-04-1.62178E-05 1.30983E+05
 -1       828-4.20023E+08-1.04741E+06-9.23255E+04-8.40228E-04-1.62178E-05 1.30983E+05
 -1       829-3.10546E+08 6.19648E+04 1.36974E+07-2.61298E-05 1.96984E-05-2.19491E+08
 -1       831-3.10546E+08 6.19648E+04 1.36974E+07-2.61298E-05 1.96984E-05-2.19491E+08
 -1       840-3.54144E+08-1.13374E+06-9.95062E+04-5.77968E-04-3.11557E-04 1.37180E+05
 -1       842-3.54144E+08-1.13374E+06-9.95062E+04-5.77968E-04-3.11557E-04 1.37180E+05
 -1       843-2.60767E+08 9.33909E+04 1.48023E+07-5.83556E-05-3.51461E-04-2.05181E+08
 -1       845-2.60767E+08 9.33909E+04 1.48023E+07-5.83556E-05-3.51461E-04-2.05181E+08
 -1       854-2.92797E+08-1.22002E+06-1.06596E+05-2.09231E-04-2.50486E-04 1.34099E+05
 -1       856-2.92797E+08-1.22002E+06-1.06596E+05-2.09231E-04-2.50486E-04 1.34099E+05
 -1       857-2.14385E+08 1.26216E+05 1.59228E+07-3.07536E-05-3.51743E-04-1.89748E+08
 -1       859-2.14385E+08 1.26216E+05 1.59228E+07-3.07536E-05-3.51743E-04-1.89748E+08
 -1       868-2.36334E+08-1.30481E+06-1.11038E+05-4.36110E-04-2.52062E-04 1.33727E+05
 -1       870-2.36334E+08-1.30481E+06-1.11038E+05-4.36110E-04-2.52062E-04 1.33727E+05
 -1       871-1.71664E+08 1.55034E+05 1.70488E+07-3.37662E-05-3.27716E-04-1.73188E+08
 -1       873-1.71664E+08 1.55034E+05 1.70488E+07-3.37662E-05-3.27716E-04-1.73188E+08
 -1       882-1.85100E+08-1.39447E+06-1.20827E+05-9.76246E-04-2.98509E-04 1.30174E+05
 -1       884-1.85100E+08-1.39447E+06-1.20827E+05-9.76246E-04-2.98509E-04 1.30174E+05
 -1       885-1.32861E+08 1.85625E+05 1.81853E+07-4.07719E-05-5.27238E-04-1.55490E+08
 -1       887-1.32861E+08 1.85625E+05 1.81853E+07-4.07719E-05-5.27238E-04-1.55490E+08
 -1       896-1.39445E+08-1.48148E+06-1.23372E+05-7.71400E-04-1.41023E-04 1.22631E+05
 -1       898-1.39445E+08-1.48148E+06-1.23372E+05-7.71400E-04-1.41023E-04 1.22631E+05
 -1       899-9.82443E+07 2.11001E+05 1.93205E+07-1.66727E-05-3.01098E-04-1.36650E+08
 -1       901-9.82443E+07 2.11001E+05 1.93205E+07-1.66727E-05-3.01098E-04-1.36650E+08
 -1       910-9.97203E+07-1.55955E+06-1.35347E+05 1.13361E-05-1.38606E-04 1.17546E+05
 -1       912-9.97203E+07-1.55955E+06-1.35347E+05 1.13361E-05-1.38606E-04 1.17546E+05
 -1       913-6.80880E+07 2.39613E+05 2.04697E+07-3.34162E-05-1.35416E-04-1.16676E+08
 -1       915-6.80880E+07 2.39613E+05 2.04697E+07-3.34162E-05-1.35416E-04-1.16676E+08
 -1       924-6.63050E+07-1.64622E+06-1.35298E+05 4.25291E-04-3.02012E-04 9.81768E+04
 -1       926-6.63050E+07-1.64622E+06-1.35298E+05 4.25291E-04-3.02012E-04 9.81768E+04
 -1       927-4.26505E+07 2.58544E+05 2.16130E+07 3.99371E-06-4.63560E-04-9.55552E+07
 -1       929-4.26505E+07 2.58544E+05 2.16130E+07 3.99371E-06-4.63560E-04-9.55552E+07
 -1       938-3.93973E+07-1.85126E+06-1.52173E+05 1.42264E-04-4.55855E-04 9.44509E+04
 -1       940-3.93973E+07-1.85126E+06-1.52173E+05 1.42264E-04-4.55855E-04 9.44509E+04
 -1       941-2.22338E+07 2.90347E+05 2.28622E+07-2.56401E-05-6.30926E-04-7.34221E+07
 -1       943-2.22338E+07 2.90347E+05 2.28622E+07-2.56401E-05-6.30926E-04-7.34221E+07
 -1       952-1.95547E+07-1.28893E+06-1.46965E+05 3.28120E-04-5.44161E-04 4.72257E+04
 -1       954-1.95547E+07-1.28893E+06-1.46965E+05 3.28120E-04-5.44161E-04 4.72257E+04
 -1       955-7.41135E+06 2.97091E+05 2.40770E+07 4.20619E-07-7.27324E-04-5.02251E+07
 -1       957-7.41135E+06 2.97091E+05 2.40770E+07 4.20619E-07-7.27324E-04-5.02251E+07
 -1       966-7.70957E+06-1.78572E+06-1.52893E+05 4.05538E-04-4.73825E-04 6.05037E+04
 -1       968-7.70957E+06-1.78572E+06-1.52893E+05 4.05538E-04-4.73825E-04 6.05037E+04
 -1       969 7.43490E+05 3.13138E+05 2.47995E+07 1.28904E-05-6.46759E-04-2.60948E+07
 -1       971 7.43490E+05 3.13138E+05 2.47995E+07 1.28904E-05-6.46759E-04-2.60948E+07
 -1       980-2.07889E+09-2.36116E+08-2.69298E+05 1.20803E+08 3.98336E+06-1.83902E+07
 -1       982-2.07889E+09-2.36116E+08-2.69298E+05 1.20803E+08 3.98336E+06-1.83902E+07
 -1       983-3.74894E+06-1.79534E+06-5.46034E+04-2.88985E+06 4.63033E+06 1.39204E+05
 -1       985-3.74894E+06-1.79534E+06-5.46034E+04-2.88985E+06 4.63033E+06 1.39204E+05
 -1       986-1.99897E+09-5.74574E+07 7.20363E+05-4.49653E+07 1.46813E+06-3.48947E+06
 -1       988-1.99897E+09-5.74574E+07 7.20363E+05-4.49653E+07 1.46813E+06-3.48947E+06
 -1       989-1.90957E+09 2.66155E+07-2.15391E+05 4.21988E+06-9.44743E+04 1.44090E+06
 -1       991-1.90957E+09 2.66155E+07-2.15391E+05 4.21988E+06-9.44743E+04 1.44090E+06
 -1       992-1.84047E+09-8.34981E+06-7.56355E+04-2.93846E+07 1.96750E+05-4.94910E+05
 -1       994-1.84047E+09-8.34981E+06-7.56355E+04-2.93846E+07 1.96750E+05-4.94910E+05
 -1       995-1.73593E+09 2.88595E+06 1.86818E+05-2.03094E+07 1.91331E+05-2.74911E+05
 -1       997-1.73593E+09 2.88595E+06 1.86818E+05-2.03094E+07 1.91331E+05-2.74911E+05
 -1       998-1.63986E+09-1.41567E+06-1.68904E+05-2.18844E+07 2.02480E+05 6.39798E+04
 -1      1000-1.63986E+09-1.41567E+06-1.68904E+05-2.18844E+07 2.02480E+05 6.39798E+04
 -1      1001-1.54330E+09 8.45734E+05 1.67905E+05-2.16038E+07 3.42380E+05-3.95602E+05
 -1      1003-1.54330E+09 8.45734E+05 1.67905E+05-2.16038E+07 3.42380E+05-3.95602E+05
 -1      1004-1.44681E+09-5.88998E+05-1.20438E+05-2.15452E+07 3.48574E+05 2.36991E+03
 -1      1006-1.44681E+09-5.88998E+05-1.20438E+05-2.15452E+07 3.48574E+05 2.36991E+03
 -1      1007-1.35124E+09 2.98834E+05 1.24835E+05-2.12391E+07 4.74451E+05-3.17844E+05
 -1      1009-1.35124E+09 2.98834E+05 1.24835E+05-2.12391E+07 4.74451E+05-3.17844E+05
 -1      1010-1.25666E+09-2.72792E+05-7.96515E+04-2.10486E+07 5.07666E+05-9.48442E+04
 -1      1012-1.25666E+09-2.72792E+05-7.96515E+04-2.10486E+07 5.07666E+05-9.48442E+04
 -1      1013-1.16326E+09 6.83336E+04 9.52476E+04-2.06964E+07 6.17016E+05-2.62882E+05
 -1      1015-1.16326E+09 6.83336E+04 9.52476E+04-2.06964E+07 6.17016E+05-2.62882E+05
 -1      1016-1.07135E+09-1.69565E+05-5.00862E+04-2.03541E+07 6.71171E+05-1.56200E+05
 -1      1018-1.07135E+09-1.69565E+05-5.00862E+04-2.03541E+07 6.71171E+05-1.56200E+05
 -1      1019-9.81133E+08-3.43006E+04 7.59051E+04-1.99136E+07 7.72685E+05-2.38176E+05
 -1      1021-9.81133E+08-3.43006E+04 7.59051E+04-1.99136E+07 7.72685E+05-2.38176E+05
 -1      1022-8.92926E+08-1.47527E+05-2.81241E+04-1.94347E+07 8.41040E+05-1.90285E+05
 -1      1024-8.92926E+08-1.47527E+05-2.81241E+04-1.94347E+07 8.41040E+05-1.90285E+05
 -1      1025-8.06981E+08-9.22412E+04 6.36022E+04-1.88760E+07 9.39490E+05-2.29176E+05
 -1      1027-8.06981E+08-9.22412E+04 6.36022E+04-1.88760E+07 9.39490E+05-2.29176E+05
 -1      1028-7.23622E+08-1.56219E+05-1.12701E+04-1.82593E+07 1.01731E+06-2.08139E+05
 -1      1030-7.23622E+08-1.56219E+05-1.12701E+04-1.82593E+07 1.01731E+06-2.08139E+05
 -1      1031-6.43136E+08-1.34653E+05 5.62023E+04-1.75668E+07 1.11418E+06-2.25709E+05
 -1      1033-6.43136E+08-1.34653E+05 5.62023E+04-1.75668E+07 1.11418E+06-2.25709E+05
 -1      1034-5.65858E+08-1.77414E+05 2.09671E+03-1.68068E+07 1.19760E+06-2.15801E+05
 -1      1036-5.65858E+08-1.77414E+05 2.09671E+03-1.68068E+07 1.19760E+06-2.15801E+05
 -1      1037-4.92100E+08-1.71878E+05 5.22742E+04-1.59705E+07 1.29228E+06-2.22112E+05
 -1      1039-4.92100E+08-1.71878E+05 5.22742E+04-1.59705E+07 1.29228E+06-2.22112E+05
 -1      1040-4.22203E+08-2.03966E+05 1.30447E+04-1.50618E+07 1.37738E+06-2.15793E+05
 -1      1042-4.22203E+08-2.03966E+05 1.30447E+04-1.50618E+07 1.37738E+06-2.15793E+05
 -1      1043-3.56497E+08-2.07820E+05 5.08390E+04-1.40752E+07 1.46765E+06-2.15056E+05
 -1      1045-3.56497E+08-2.07820E+05 5.08390E+04-1.40752E+07 1.46765E+06-2.15056E+05
 -1      1046-2.95331E+08-2.32425E+05 2.22823E+04-1.30137E+07 1.54970E+06-2.08552E+05
 -1      1048-2.95331E+08-2.32425E+05 2.22823E+04-1.30137E+07 1.54970E+06-2.08552E+05
 -1      1049-2.39046E+08-2.44620E+05 5.12348E+04-1.18723E+07 1.63168E+06-2.02033E+05
 -1      1051-2.39046E+08-2.44620E+05 5.12348E+04-1.18723E+07 1.63168E+06-2.02033E+05
 -1      1052-1.87993E+08-2.59630E+05 3.02433E+04-1.06561E+07 1.70423E+06-1.92939E+05
 -1      1054-1.87993E+08-2.59630E+05 3.02433E+04-1.06561E+07 1.70423E+06-1.92939E+05
 -1      1055-1.42523E+08-2.85792E+05 5.30739E+04-9.35604E+06 1.77197E+06-1.80634E+05
 -1      1057-1.42523E+08-2.85792E+05 5.30739E+04-9.35604E+06 1.77197E+06-1.80634E+05
 -1      1058-1.02979E+08-2.80431E+05 3.71471E+04-7.98421E+06 1.82560E+06-1.65400E+05
 -1      1060-1.02979E+08-2.80431E+05 3.71471E+04-7.98421E+06 1.82560E+06-1.65400E+05
 -1      1061-6.96914E+07-3.24997E+05 5.59173E+04-6.55192E+06 1.87031E+06-1.49559E+05
 -1      1063-6.96914E+07-3.24997E+05 5.59173E+04-6.55192E+06 1.87031E+06-1.49559E+05
 -1      1064-4.31251E+07-3.47848E+05 4.39500E+04-4.91848E+06 1.89200E+06-1.15123E+05
 -1      1066-4.31251E+07-3.47848E+05 4.39500E+04-4.91848E+06 1.89200E+06-1.15123E+05
 -1      1067-2.32349E+07-1.92071E+05 5.81974E+04-3.61836E+06 1.90256E+06-1.18143E+05
 -1      1069-2.32349E+07-1.92071E+05 5.81974E+04-3.61836E+06 1.90256E+06-1.18143E+05
 -1      1070-9.24459E+06-3.66233E+05 4.56915E+04-2.31919E+06 1.89090E+06-4.50548E+03
 -1      1072-9.24459E+06-3.66233E+05 4.56915E+04-2.31919E+06 1.89090E+06-4.50548E+03
 -1      1073-2.07889E+09-2.36116E+08-2.69298E+05-1.20803E+08-3.98336E+06-1.83902E+07
 -1      1075-2.07889E+09-2.36116E+08-2.69298E+05-1.20803E+08-3.98336E+06-1.83902E+07
 -1      1076-1.03221E+09-8.83411E+04-1.78699E+08 1.97913E-04-5.89812E-06-3.18521E+08
 -1      1078-1.03221E+09-8.83411E+04-1.78699E+08 1.97913E-04-5.89812E-06-3.18521E+08
 -1      1079 3.17693E-04 6.31809E-06-3.37891E-04 3.28088E-04-1.91036E-05-2.85789E+08
 -1      1081 3.17693E-04 6.31809E-06-3.37891E-04 3.28088E-04-1.91036E-05-2.85789E+08
 -1      1082 1.03221E+09 8.83411E+04 1.78699E+08 1.09911E-04-1.04388E-05-3.18521E+08
 -1      1084 1.03221E+09 8.83411E+04 1.78699E+08 1.09911E-04-1.04388E-05-3.18521E+08
 -1      1085 1.54328E+09 1.73439E+05 1.35027E+08 4.66324E-05-1.69288E-05-3.44308E+08
 -1      1087 1.54328E+09 1.73439E+05 1.35027E+08 4.66324E-05-1.69288E-05-3.44308E+08
 -1      1088 2.05261E+09 1.05028E+08 3.65652E+05 4.29655E-03 6.08663E-06-4.45212E+06
 -1      1090 2.05261E+09 1.05028E+08 3.65652E+05 4.29655E-03 6.08663E-06-4.45212E+06
 -1      1099 1.47161E+09 6.79498E+05-2.89249E+06 3.38087E-05 6.91607E-05-3.17242E+08
 -1      1101 1.47161E+09 6.79498E+05-2.89249E+06 3.38087E-05 6.91607E-05-3.17242E+08
 -1      1102 1.94181E+09-3.82941E+07-3.24722E+05 4.04134E-03 6.36624E-05 3.60133E+06
 -1      1104 1.94181E+09-3.82941E+07-3.24722E+05 4.04134E-03 6.36624E-05 3.60133E+06
 -1      1113 1.38046E+09 7.47117E+05-5.39518E+06 4.41519E-05 1.47918E-04-3.10611E+08
 -1      1115 1.38046E+09 7.47117E+05-5.39518E+06 4.41519E-05 1.47918E-04-3.10611E+08
 -1      1116 1.82656E+09 1.29321E+06 3.61234E+03 3.53901E-03 1.25452E-04-2.14068E+06
 -1      1118 1.82656E+09 1.29321E+06 3.61234E+03 3.53901E-03 1.25452E-04-2.14068E+06
 -1      1127 1.30201E+09 7.65927E+04-1.48488E+06 6.35386E-05 7.73160E-05-3.18723E+08
 -1      1129 1.30201E+09 7.65927E+04-1.48488E+06 6.35386E-05 7.73160E-05-3.18723E+08
 -1      1130 1.73950E+09 3.62245E+06 2.23915E+05 4.03509E-03 9.72905E-05 1.43556E+06
 -1      1132 1.73950E+09 3.62245E+06 2.23915E+05 4.03509E-03 9.72905E-05 1.43556E+06
 -1      1141 1.23103E+09 7.72019E+05-1.98579E+06 5.93363E-05-2.76200E-05-3.15803E+08
 -1      1143 1.23103E+09 7.72019E+05-1.98579E+06 5.93363E-05-2.76200E-05-3.15803E+08
 -1      1144 1.63927E+09-2.16032E+06-1.72406E+05 4.15696E-03 3.25279E-05-8.31033E+05
 -1      1146 1.63927E+09-2.16032E+06-1.72406E+05 4.15696E-03 3.25279E-05-8.31033E+05
 -1      1155 1.15610E+09 1.68684E+05-2.04513E+06 6.00365E-05-9.05335E-05-3.15417E+08
 -1      1157 1.15610E+09 1.68684E+05-2.04513E+06 6.00365E-05-9.05335E-05-3.15417E+08
 -1      1158 1.54308E+09 1.06821E+06 1.92661E+05 4.11969E-03-3.12012E-05 6.38985E+05
 -1      1160 1.54308E+09 1.06821E+06 1.92661E+05 4.11969E-03-3.12012E-05 6.38985E+05
 -1      1169 1.08427E+09 5.10632E+05-2.75235E+06 7.25770E-05-2.00455E-04-3.12383E+08
 -1      1171 1.08427E+09 5.10632E+05-2.75235E+06 7.25770E-05-2.00455E-04-3.12383E+08
 -1      1172 1.44629E+09-1.90922E+05-7.88989E+04 3.64563E-03-1.00167E-04-3.14244E+05
 -1      1174 1.44629E+09-1.90922E+05-7.88989E+04 3.64563E-03-1.00167E-04-3.14244E+05
 -1      1183 1.01193E+09 2.43634E+05-3.33520E+06 6.94246E-05-2.65960E-04-3.09783E+08
 -1      1185 1.01193E+09 2.43634E+05-3.33520E+06 6.94246E-05-2.65960E-04-3.09783E+08
 -1      1186 1.35080E+09 4.49474E+05 1.20412E+05 2.74494E-03-1.10864E-04 3.28883E+05
 -1      1188 1.35080E+09 4.49474E+05 1.20412E+05 2.74494E-03-1.10864E-04 3.28883E+05
 -1      1197 9.40810E+08 3.46114E+05-4.10247E+06 7.43983E-05-2.79748E-04-3.05803E+08
 -1      1199 9.40810E+08 3.46114E+05-4.10247E+06 7.43983E-05-2.79748E-04-3.05803E+08
 -1      1200 1.25596E+09 1.94789E+05-1.54676E+04 2.07978E-03-1.22388E-04-8.98516E+04
 -1      1202 1.25596E+09 1.94789E+05-1.54676E+04 2.07978E-03-1.22388E-04-8.98516E+04
 -1      1211 8.70324E+08 2.29230E+05-4.85818E+06 5.91259E-05-3.63679E-04-3.01479E+08
 -1      1213 8.70324E+08 2.29230E+05-4.85818E+06 5.91259E-05-3.63679E-04-3.01479E+08
 -1      1214 1.16253E+09 4.39629E+05 8.77850E+04 1.98993E-03-1.50332E-04 2.03283E+05
 -1      1216 1.16253E+09 4.39629E+05 8.77850E+04 1.98993E-03-1.50332E-04 2.03283E+05
 -1      1225 8.01053E+08 2.39345E+05-5.70938E+06 5.25408E-05-4.73126E-04-2.96076E+08
 -1      1227 8.01053E+08 2.39345E+05-5.70938E+06 5.25408E-05-4.73126E-04-2.96076E+08
 -1      1228 1.07042E+09 3.89786E+05 2.04412E+04 2.01008E-03-1.97015E-04 1.74031E+04
 -1      1230 1.07042E+09 3.89786E+05 2.04412E+04 2.01008E-03-1.97015E-04 1.74031E+04
 -1      1239 7.32967E+08 1.76867E+05-6.57587E+06 4.27328E-05-4.95827E-04-2.89984E+08
 -1      1241 7.32967E+08 1.76867E+05-6.57587E+06 4.27328E-05-4.95827E-04-2.89984E+08
 -1      1242 9.80110E+08 5.29202E+05 7.65653E+04 1.42724E-03-2.38471E-04 1.54276E+05
 -1      1244 9.80110E+08 5.29202E+05 7.65653E+04 1.42724E-03-2.38471E-04 1.54276E+05
 -1      1253 6.66403E+08 1.54473E+05-7.50813E+06 4.54649E-05-5.64834E-04-2.82872E+08
 -1      1255 6.66403E+08 1.54473E+05-7.50813E+06 4.54649E-05-5.64834E-04-2.82872E+08
 -1      1256 8.91724E+08 5.54408E+05 4.39797E+04 2.98314E-04-2.95147E-04 7.27814E+04
 -1      1258 8.91724E+08 5.54408E+05 4.39797E+04 2.98314E-04-2.95147E-04 7.27814E+04
 -1      1267 6.01502E+08 1.11045E+05-8.46045E+06 4.32933E-05-7.00536E-04-2.74890E+08
 -1      1269 6.01502E+08 1.11045E+05-8.46045E+06 4.32933E-05-7.00536E-04-2.74890E+08
 -1      1270 8.05648E+08 6.57876E+05 7.59248E+04-5.44766E-04-3.96115E-04 1.38077E+05
 -1      1272 8.05648E+08 6.57876E+05 7.59248E+04-5.44766E-04-3.96115E-04 1.38077E+05
 -1      1281 5.38533E+08 7.81778E+04-9.46066E+06 3.79339E-05-5.21651E-04-2.65874E+08
 -1      1283 5.38533E+08 7.81778E+04-9.46066E+06 3.79339E-05-5.21651E-04-2.65874E+08
 -1      1284 7.22114E+08 7.14950E+05 6.20559E+04-7.31375E-04-2.33479E-04 1.03490E+05
 -1      1286 7.22114E+08 7.14950E+05 6.20559E+04-7.31375E-04-2.33479E-04 1.03490E+05
 -1      1295 4.77704E+08 4.15508E+04-1.04802E+07 4.07363E-05-3.10504E-04-2.55879E+08
 -1      1297 4.77704E+08 4.15508E+04-1.04802E+07 4.07363E-05-3.10504E-04-2.55879E+08
 -1      1298 6.41477E+08 8.06463E+05 8.09396E+04-8.05806E-04-7.47847E-05 1.35238E+05
 -1      1300 6.41477E+08 8.06463E+05 8.09396E+04-8.05806E-04-7.47847E-05 1.35238E+05
 -1      1309 4.19268E+08 6.29877E+03-1.15340E+07 3.09813E-05-4.52773E-04-2.44817E+08
 -1      1311 4.19268E+08 6.29877E+03-1.15340E+07 3.09813E-05-4.52773E-04-2.44817E+08
 -1      1312 5.64022E+08 8.78855E+05 7.77052E+04-1.20333E-03-1.69588E-04 1.21273E+05
 -1      1314 5.64022E+08 8.78855E+05 7.77052E+04-1.20333E-03-1.69588E-04 1.21273E+05
 -1      1323 3.63464E+08-2.73506E+04-1.26038E+07 7.07456E-06-4.05855E-04-2.32703E+08
 -1      1325 3.63464E+08-2.73506E+04-1.26038E+07 7.07456E-06-4.05855E-04-2.32703E+08
 -1      1326 4.90099E+08 9.66606E+05 8.92260E+04-1.44245E-03-1.44964E-04 1.36563E+05
 -1      1328 4.90099E+08 9.66606E+05 8.92260E+04-1.44245E-03-1.44964E-04 1.36563E+05
 -1      1337 3.10546E+08-6.19648E+04-1.36974E+07 2.22943E-05-1.29504E-04-2.19491E+08
 -1      1339 3.10546E+08-6.19648E+04-1.36974E+07 2.22943E-05-1.29504E-04-2.19491E+08
 -1      1340 4.20023E+08 1.04741E+06 9.23255E+04-1.55505E-03 1.42038E-05 1.30983E+05
 -1      1342 4.20023E+08 1.04741E+06 9.23255E+04-1.55505E-03 1.42038E-05 1.30983E+05
 -1      1351 2.60767E+08-9.33909E+04-1.48023E+07 4.02722E-06-7.87677E-05-2.05181E+08
 -1      1353 2.60767E+08-9.33909E+04-1.48023E+07 4.02722E-06-7.87677E-05-2.05181E+08
 -1      1354 3.54144E+08 1.13374E+06 9.95062E+04-1.67309E-03 1.36942E-04 1.37180E+05
 -1      1356 3.54144E+08 1.13374E+06 9.95062E+04-1.67309E-03 1.36942E-04 1.37180E+05
 -1      1365 2.14385E+08-1.26216E+05-1.59228E+07 3.14542E-05-2.25782E-04-1.89748E+08
 -1      1367 2.14385E+08-1.26216E+05-1.59228E+07 3.14542E-05-2.25782E-04-1.89748E+08
 -1      1368 2.92797E+08 1.22002E+06 1.06596E+05-1.09981E-03-1.31009E-05 1.34099E+05
 -1      1370 2.92797E+08 1.22002E+06 1.06596E+05-1.09981E-03-1.31009E-05 1.34099E+05
 -1      1379 1.71664E+08-1.55034E+05-1.70488E+07 4.45548E-05-2.62003E-04-1.73188E+08
 -1      1381 1.71664E+08-1.55034E+05-1.70488E+07 4.45548E-05-2.62003E-04-1.73188E+08
 -1      1382 2.36334E+08 1.30481E+06 1.11038E+05-7.12747E-04-6.38214E-05 1.33727E+05
 -1      1384 2.36334E+08 1.30481E+06 1.11038E+05-7.12747E-04-6.38214E-05 1.33727E+05
 -1      1393 1.32861E+08-1.85625E+05-1.81853E+07 1.13482E-05-3.65644E-05-1.55490E+08
 -1      1395 1.32861E+08-1.85625E+05-1.81853E+07 1.13482E-05-3.65644E-05-1.55490E+08
 -1      1396 1.85100E+08 1.39447E+06 1.20827E+05-1.09278E-03 1.18570E-04 1.30174E+05
 -1      1398 1.85100E+08 1.39447E+06 1.20827E+05-1.09278E-03 1.18570E-04 1.30174E+05
 -1      1407 9.82443E+07-2.11001E+05-1.93205E+07 3.19449E-05-1.88588E-04-1.36650E+08
 -1      1409 9.82443E+07-2.11001E+05-1.93205E+07 3.19449E-05-1.88588E-04-1.36650E+08
 -1      1410 1.39445E+08 1.48148E+06 1.23372E+05-1.06019E-03-6.65546E-06 1.22631E+05
 -1      1412 1.39445E+08 1.48148E+06 1.23372E+05-1.06019E-03-6.65546E-06 1.22631E+05
 -1      1421 6.80880E+07-2.39613E+05-2.04697E+07 1.42908E-05-5.06083E-04-1.16676E+08
 -1      1423 6.80880E+07-2.39613E+05-2.04697E+07 1.42908E-05-5.06083E-04-1.16676E+08
 -1      1424 9.97203E+07 1.55955E+06 1.35347E+05-3.30539E-04-1.64842E-04 1.17546E+05
 -1      1426 9.97203E+07 1.55955E+06 1.35347E+05-3.30539E-04-1.64842E-04 1.17546E+05
 -1      1435 4.26505E+07-2.58544E+05-2.16130E+07 3.19451E-05-4.26781E-04-9.55552E+07
 -1      1437 4.26505E+07-2.58544E+05-2.16130E+07 3.19451E-05-4.26781E-04-9.55552E+07
 -1      1438 6.63050E+07 1.64622E+06 1.35298E+05 2.53398E-04-1.60184E-04 9.81768E+04
 -1      1440 6.63050E+07 1.64622E+06 1.35298E+05 2.53398E-04-1.60184E-04 9.81768E+04
 -1      1449 2.22338E+07-2.90347E+05-2.28622E+07 1.40072E-06-5.97999E-04-7.34221E+07
 -1      1451 2.22338E+07-2.90347E+05-2.28622E+07 1.40072E-06-5.97999E-04-7.34221E+07
 -1      1452 3.93973E+07 1.85126E+06 1.52173E+05 1.86666E-04-2.98054E-04 9.44509E+04
 -1      1454 3.93973E+07 1.85126E+06 1.52173E+05 1.86666E-04-2.98054E-04 9.44509E+04
 -1      1463 7.41135E+06-2.97091E+05-2.40770E+07 2.67612E-05-6.35130E-04-5.02251E+07
 -1      1465 7.41135E+06-2.97091E+05-2.40770E+07 2.67612E-05-6.35130E-04-5.02251E+07
 -1      1466 1.95547E+07 1.28893E+06 1.46965E+05 1.03683E-04-3.12030E-04 4.72257E+04
 -1      1468 1.95547E+07 1.28893E+06 1.46965E+05 1.03683E-04-3.12030E-04 4.72257E+04
 -1      1477-7.43490E+05-3.13138E+05-2.47995E+07 2.15772E-05-4.82828E-04-2.60948E+07
 -1      1479-7.43490E+05-3.13138E+05-2.47995E+07 2.15772E-05-4.82828E-04-2.60948E+07
 -1      1480 7.70957E+06 1.78572E+06 1.52893E+05-2.90247E-05-2.63621E-04 6.05037E+04
 -1      1482 7.70957E+06 1.78572E+06 1.52893E+05-2.90247E-05-2.63621E-04 6.05037E+04
 -1      1491 1.08511E+06 1.00054E+03 1.68526E+07-4.46258E-05 1.52091E-04-1.40181E+07
 -1      1493 1.08511E+06 1.00054E+03 1.68526E+07-4.46258E-05 1.52091E-04-1.40181E+07
 -1      1494 1.79367E-04 2.42675E-04-2.68864E-03-6.64161E-05 2.57246E-04-1.41517E+07
 -1      1496 1.79367E-04 2.42675E-04-2.68864E-03-6.64161E-05 2.57246E-04-1.41517E+07
 -1      1497-1.08511E+06-1.00054E+03-1.68526E+07-2.82355E-05-3.81877E-04-1.40181E+07
 -1      1499-1.08511E+06-1.00054E+03-1.68526E+07-2.82355E-05-3.81877E-04-1.40181E+07
 -1      1500 1.99897E+09 5.74574E+07-7.20363E+05 4.49653E+07 1.46813E+06-3.48947E+06
 -1      1502 1.99897E+09 5.74574E+07-7.20363E+05 4.49653E+07 1.46813E+06-3.48947E+06
 -1      1503 1.90957E+09-2.66155E+07 2.15391E+05-4.21988E+06-9.44743E+04 1.44090E+06
 -1      1505 1.90957E+09-2.66155E+07 2.15391E+05-4.21988E+06-9.44743E+04 1.44090E+06
 -1      1506 1.84047E+09 8.34981E+06 7.56355E+04 2.93846E+07 1.96750E+05-4.94910E+05
 -1      1508 1.84047E+09 8.34981E+06 7.56355E+04 2.93846E+07 1.96750E+05-4.94910E+05
 -1      1509 1.73593E+09-2.88595E+06-1.86818E+05 2.03094E+07 1.91331E+05-2.74911E+05
 -1      1511 1.73593E+09-2.88595E+06-1.86818E+05 2.03094E+07 1.91331E+05-2.74911E+05
 -1      1512 1.63986E+09 1.41567E+06 1.68904E+05 2.18844E+07 2.02480E+05 6.39798E+04
 -1      1514 1.63986E+09 1.41567E+06 1.68904E+05 2.18844E+07 2.02480E+05 6.39798E+04
 -1      1515 1.54330E+09-8.45734E+05-1.67905E+05 2.16038E+07 3.42380E+05-3.95602E+05
 -1      1517 1.54330E+09-8.45734E+05-1.67905E+05 2.16038E+07 3.42380E+05-3.95602E+05
 -1      1518 1.44681E+09 5.88998E+05 1.20438E+05 2.15452E+07 3.48574E+05 2.36991E+03
 -1      1520 1.44681E+09 5.88998E+05 1.20438E+05 2.15452E+07 3.48574E+05 2.36991E+03
 -1      1521 1.35124E+09-2.98834E+05-1.24835E+05 2.12391E+07 4.74451E+05-3.17844E+05
 -1      1523 1.35124E+09-2.98834E+05-1.24835E+05 2.12391E+07 4.74451E+05-3.17844E+05
 -1      1524 1.25666E+09 2.72792E+05 7.96515E+04 2.10486E+07 5.07666E+05-9.48442E+04
 -1      1526 1.25666E+09 2.72792E+05 7.96515E+04 2.10486E+07 5.07666E+05-9.48442E+04
 -1      1527 1.16326E+09-6.83336E+04-9.52476E+04 2.06964E+07 6.17016E+05-2.62882E+05
 -1      1529 1.16326E+09-6.83336E+04-9.52476E+04 2.06964E+07 6.17016E+05-2.62882E+05
 -1      1530 1.07135E+09 1.69565E+05 5.00862E+04 2.03541E+07 6.71171E+05-1.56200E+05
 -1      1532 1.07135E+09 1.69565E+05 5.00862E+04 2.03541E+07 6.71171E+05-1.56200E+05
 -1      1533 9.81133E+08 3.43006E+04-7.59051E+04 1.99136E+07 7.72685E+05-2.38176E+05
 -1      1535 9.81133E+08 3.43006E+04-7.59051E+04 1.99136E+07 7.72685E+05-2.38176E+05
 -1      1536 8.92926E+08 1.47527E+05 2.81241E+04 1.94347E+07 8.41040E+05-1.90285E+05
 -1      1538 8.92926E+08 1.47527E+05 2.81241E+04 1.94347E+07 8.41040E+05-1.90285E+05
 -1      1539 8.06981E+08 9.22412E+04-6.36022E+04 1.88760E+07 9.39490E+05-2.29176E+05
 -1      1541 8.06981E+08 9.22412E+04-6.36022E+04 1.88760E+07 9.39490E+05-2.29176E+05
 -1      1542 7.23622E+08 1.56219E+05 1.12701E+04 1.82593E+07 1.01731E+06-2.08139E+05
 -1      1544 7.23622E+08 1.56219E+05 1.12701E+04 1.82593E+07 1.01731E+06-2.08139E+05
 -1      1545 6.43136E+08 1.34653E+05-5.62023E+04 1.75668E+07 1.11418E+06-2.25709E+05
 -1      1547 6.43136E+08 1.34653E+05-5.62023E+04 1.75668E+07 1.11418E+06-2.25709E+05
 -1      1548 5.65858E+08 1.77414E+05-2.09671E+03 1.68068E+07 1.19760E+06-2.15801E+05
 -1      1550 5.65858E+08 1.77414E+05-2.09671E+03 1.68068E+07 1.19760E+06-2.15801E+05
 -1      1551 4.92100E+08 1.71878E+05-5.22742E+04 1.59705E+07 1.29228E+06-2.22112E+05
 -1      1553 4.92100E+08 1.71878E+05-5.22742E+04 1.59705E+07 1.29228E+06-2.22112E+05
 -1      1554 4.22203E+08 2.03966E+05-1.30447E+04 1.50618E+07 1.37738E+06-2.15793E+05
 -1      1556 4.22203E+08 2.03966E+05-1.30447E+04 1.50618E+07 1.37738E+06-2.15793E+05
 -1      1557 3.56497E+08 2.07820E+05-5.08390E+04 1.40752E+07 1.46765E+06-2.15056E+05
 -1      1559 3.56497E+08 2.07820E+05-5.08390E+04 1.40752E+07 1.46765E+06-2.15056E+05
 -1      1560 2.95331E+08 2.32425E+05-2.22823E+04 1.30137E+07 1.54970E+06-2.08552E+05
 -1      1562 2.95331E+08 2.32425E+05-2.22823E+04 1.30137E+07 1.54970E+06-2.08552E+05
 -1      1563 2.39046E+08 2.44620E+05-5.12348E+04 1.18723E+07 1.63168E+06-2.02033E+05
 -1      1565 2.39046E+08 2.44620E+05-5.12348E+04 1.18723E+07 1.63168E+06-2.02033E+05
 -1      1566 1.87993E+08 2.59630E+05-3.02433E+04 1.06561E+07 1.70423E+06-1.92939E+05
 -1      1568 1.87993E+08 2.59630E+05-3.02433E+04 1.06561E+07 1.70423E+06-1.92939E+05
 -1      1569 1.42523E+08 2.85792E+05-5.30739E+04 9.35604E+06 1.77197E+06-1.80634E+05
 -1      1571 1.42523E+08 2.85792E+05-5.30739E+04 9.35604E+06 1.77197E+06-1.80634E+05
 -1      1572 1.02979E+08 2.80431E+05-3.71471E+04 7.98421E+06 1.82560E+06-1.65400E+05
 -1      1574 1.02979E+08 2.80431E+05-3.71471E+04 7.98421E+06 1.82560E+06-1.65400E+05
 -1      1575 6.96914E+07 3.24997E+05-5.59173E+04 6.55192E+06 1.87031E+06-1.49559E+05
 -1      1577 6.96914E+07 3.24997E+05-5.59173E+04 6.55192E+06 1.87031E+06-1.49559E+05
 -1      1578 4.31251E+07 3.47848E+05-4.39500E+04 4.91848E+06 1.89200E+06-1.15123E+05
 -1      1580 4.31251E+07 3.47848E+05-4.39500E+04 4.91848E+06 1.89200E+06-1.15123E+05
 -1      1581 2.32349E+07 1.92071E+05-5.81974E+04 3.61836E+06 1.90256E+06-1.18143E+05
 -1      1583 2.32349E+07 1.92071E+05-5.81974E+04 3.61836E+06 1.90256E+06-1.18143E+05
 -1      1584 9.24459E+06 3.66233E+05-4.56915E+04 2.31919E+06 1.89090E+06-4.50548E+03
 -1      1586 9.24459E+06 3.66233E+05-4.56915E+04 2.31919E+06 1.89090E+06-4.50548E+03
 -1      1587 3.74894E+06 1.79534E+06 5.46034E+04 2.88985E+06 4.63033E+06 1.39204E+05
 -1      1589 3.74894E+06 1.79534E+06 5.46034E+04 2.88985E+06 4.63033E+06 1.39204E+05
 -1      1590 2.07889E+09 2.36116E+08 2.69298E+05 1.20803E+08-3.98336E+06-1.83902E+07
 -1      1592 2.07889E+09 2.36116E+08 2.69298E+05 1.20803E+08-3.98336E+06-1.83902E+07
 -1      1593 3.74894E+06 1.79534E+06 5.46034E+04-2.88985E+06-4.63033E+06 1.39204E+05
 -1      1595 3.74894E+06 1.79534E+06 5.46034E+04-2.88985E+06-4.63033E+06 1.39204E+05
 -1      1596 1.99897E+09 5.74574E+07-7.20363E+05-4.49653E+07-1.46813E+06-3.48947E+06
 -1      1598 1.99897E+09 5.74574E+07-7.20363E+05-4.49653E+07-1.46813E+06-3.48947E+06
 -1      1599 1.90957E+09-2.66155E+07 2.15391E+05 4.21988E+06 9.44743E+04 1.44090E+06
 -1      1601 1.90957E+09-2.66155E+07 2.15391E+05 4.21988E+06 9.44743E+04 1.44090E+06
 -1      1602 1.84047E+09 8.34981E+06 7.56355E+04-2.93846E+07-1.96750E+05-4.94910E+05
 -1      1604 1.84047E+09 8.34981E+06 7.56355E+04-2.93846E+07-1.96750E+05-4.94910E+05
 -1      1605 1.73593E+09-2.88595E+06-1.86818E+05-2.03094E+07-1.91331E+05-2.74911E+05
 -1      1607 1.73593E+09-2.88595E+06-1.86818E+05-2.03094E+07-1.91331E+05-2.74911E+05
 -1      1608 1.63986E+09 1.41567E+06 1.68904E+05-2.18844E+07-2.02480E+05 6.39798E+04
 -1      1610 1.63986E+09 1.41567E+06 1.68904E+05-2.18844E+07-2.02480E+05 6.39798E+04
 -1      1611 1.54330E+09-8.45734E+05-1.67905E+05-2.16038E+07-3.42380E+05-3.95602E+05
 -1      1613 1.54330E+09-8.45734E+05-1.67905E+05-2.16038E+07-3.42380E+05-3.95602E+05
 -1      1614 1.44681E+09 5.88998E+05 1.20438E+05-2.15452E+07-3.48574E+05 2.36991E+03
 -1      1616 1.44681E+09 5.88998E+05 1.20438E+05-2.15452E+07-3.48574E+05 2.36991E+03
 -1      1617 1.35124E+09-2.98834E+05-1.24835E+05-2.12391E+07-4.74451E+05-3.17844E+05
 -1      1619 1.35124E+09-2.98834E+05-1.24835E+05-2.12391E+07-4.74451E+05-3.17844E+05
 -1      1620 1.25666E+09 2.72792E+05 7.96515E+04-2.10486E+07-5.07666E+05-9.48442E+04
 -1      1622 1.25666E+09 2.72792E+05 7.96515E+04-2.10486E+07-5.07666E+05-9.48442E+04
 -1      1623 1.16326E+09-6.83336E+04-9.52476E+04-2.06964E+07-6.17016E+05-2.62882E+05
 -1      1625 1.16326E+09-6.83336E+04-9.52476E+04-2.06964E+07-6.17016E+05-2.62882E+05
 -1      1626 1.07135E+09 1.69565E+05 5.00862E+04-2.03541E+07-6.71171E+05-1.56200E+05
 -1      1628 1.07135E+09 1.69565E+05 5.00862E+04-2.03541E+07-6.71171E+05-1.56200E+05
 -1      1629 9.81133E+08 3.43006E+04-7.59051E+04-1.99136E+07-7.72685E+05-2.38176E+05
 -1      1631 9.81133E+08 3.43006E+04-7.59051E+04-1.99136E+07-7.72685E+05-2.38176E+05
 -1      1632 8.92926E+08 1.47527E+05 2.81241E+04-1.94347E+07-8.41040E+05-1.90285E+05
 -1      1634 8.92926E+08 1.47527E+05 2.81241E+04-1.94347E+07-8.41040E+05-1.90285E+05
 -1      1635 8.06981E+08 9.22412E+04-6.36022E+04-1.88760E+07-9.39490E+05-2.29176E+05
 -1      1637 8.06981E+08 9.22412E+04-6.36022E+04-1.88760E+07-9.39490E+05-2.29176E+05
 -1      1638 7.23622E+08 1.56219E+05 1.12701E+04-1.82593E+07-1.01731E+06-2.08139E+05
 -1      1640 7.23622E+08 1.56219E+05 1.12701E+04-1.82593E+07-1.01731E+06-2.08139E+05
 -1      1641 6.43136E+08 1.34653E+05-5.62023E+04-1.75668E+07-1.11418E+06-2.25709E+05
 -1      1643 6.43136E+08 1.34653E+05-5.62023E+04-1.75668E+07-1.11418E+06-2.25709E+05
 -1      1644 5.65858E+08 1.77414E+05-2.09671E+03-1.68068E+07-1.19760E+06-2.15801E+05
 -1      1646 5.65858E+08 1.77414E+05-2.09671E+03-1.68068E+07-1.19760E+06-2.15801E+05
 -1      1647 4.92100E+08 1.71878E+05-5.22742E+04-1.59705E+07-1.29228E+06-2.22112E+05
 -1      1649 4.92100E+08 1.71878E+05-5.22742E+04-1.59705E+07-1.29228E+06-2.22112E+05
 -1      1650 4.22203E+08 2.03966E+05-1.30447E+04-1.50618E+07-1.37738E+06-2.15793E+05
 -1      1652 4.22203E+08 2.03966E+05-1.30447E+04-1.50618E+07-1.37738E+06-2.15793E+05
 -1      1653 3.56497E+08 2.07820E+05-5.08390E+04-1.40752E+07-1.46765E+06-2.15056E+05
 -1      1655 3.56497E+08 2.07820E+05-5.08390E+04-1.40752E+07-1.46765E+06-2.15056E+05
 -1      1656 2.95331E+08 2.32425E+05-2.22823E+04-1.30137E+07-1.54970E+06-2.08552E+05
 -1      1658 2.95331E+08 2.32425E+05-2.22823E+04-1.30137E+07-1.54970E+06-2.08552E+05
 -1      1659 2.39046E+08 2.44620E+05-5.12348E+04-1.18723E+07-1.63168E+06-2.02033E+05
 -1      1661 2.39046E+08 2.44620E+05-5.12348E+04-1.18723E+07-1.63168E+06-2.02033E+05
 -1      1662 1.87993E+08 2.59630E+05-3.02433E+04-1.06561E+07-1.70423E+06-1.92939E+05
 -1      1664 1.87993E+08 2.59630E+05-3.02433E+04-1.06561E+07-1.70423E+06-1.92939E+05
 -1      1665 1.42523E+08 2.85792E+05-5.30739E+04-9.35604E+06-1.77197E+06-1.80634E+05
 -1      1667 1.42523E+08 2.85792E+05-5.30739E+04-9.35604E+06-1.77197E+06-1.80634E+05
 -1      1668 1.02979E+08 2.80431E+05-3.71471E+04-7.98421E+06-1.82560E+06-1.65400E+05
 -1      1670 1.02979E+08 2.80431E+05-3.71471E+04-7.98421E+06-1.82560E+06-1.65400E+05
 -1      1671 6.96914E+07 3.24997E+05-5.59173E+04-6.55192E+06-1.87031E+06-1.49559E+05
 -1      1673 6.96914E+07 3.24997E+05-5.59173E+04-6.55192E+06-1.87031E+06-1.49559E+05
 -1      1674 4.31251E+07 3.47848E+05-4.39500E+04-4.91848E+06-1.89200E+06-1.15123E+05
 -1      1676 4.31251E+07 3.47848E+05-4.39500E+04-4.91848E+06-1.89200E+06-1.15123E+05
 -1      1677 2.32349E+07 1.92071E+05-5.81974E+04-3.61836E+06-1.90256E+06-1.18143E+05
 -1      1679 2.32349E+07 1.92071E+05-5.81974E+04-3.61836E+06-1.90256E+06-1.18143E+05
 -1      1680 9.24459E+06 3.66233E+05-4.56915E+04-2.31919E+06-1.89090E+06-4.50548E+03
 -1      1682 9.24459E+06 3.66233E+05-4.56915E+04-2.31919E+06-1.89090E+06-4.50548E+03
 -1      1683 2.07889E+09 2.36116E+08 2.69298E+05-1.20803E+08 3.98336E+06-1.83902E+07
 -1      1685 2.07889E+09 2.36116E+08 2.69298E+05-1.20803E+08 3.98336E+06-1.83902E+07
 -1      1686-2.02579E+09-8.12425E+07 1.77355E+05 6.15164E+07 2.05556E+06-3.97079E+06
 -1      1688-2.02579E+09-8.12425E+07 1.77355E+05 6.15164E+07 2.05556E+06-3.97079E+06
 -1      1689-1.92569E+09 3.24548E+07 5.46656E+04 2.34835E+07-4.09545E+05 2.52112E+06
 -1      1691-1.92569E+09 3.24548E+07 5.46656E+04 2.34835E+07-4.09545E+05 2.52112E+06
 -1      1692-1.83351E+09-4.82151E+06-3.96239E+04 4.63007E+07-8.54461E+04-1.31780E+06
 -1      1694-1.83351E+09-4.82151E+06-3.96239E+04 4.63007E+07-8.54461E+04-1.31780E+06
 -1      1695-1.73771E+09-3.68250E+05-1.85484E+04 4.43339E+07-1.54100E+05 5.80324E+05
 -1      1697-1.73771E+09-3.68250E+05-1.85484E+04 4.43339E+07-1.54100E+05 5.80324E+05
 -1      1698-1.63956E+09 3.72328E+05 1.75108E+03 4.27139E+07-4.84441E+05-3.83527E+05
 -1      1700-1.63956E+09 3.72328E+05 1.75108E+03 4.27139E+07-4.84441E+05-3.83527E+05
 -1      1701-1.54319E+09-1.11239E+05-1.23780E+04 4.36588E+07-3.98287E+05 1.21691E+05
 -1      1703-1.54319E+09-1.11239E+05-1.23780E+04 4.36588E+07-3.98287E+05 1.21691E+05
 -1      1704-1.44655E+09-1.99038E+05-2.07696E+04 4.28678E+07-6.91406E+05-1.55937E+05
 -1      1706-1.44655E+09-1.99038E+05-2.07696E+04 4.28678E+07-6.91406E+05-1.55937E+05
 -1      1707-1.35102E+09-7.53196E+04 2.21128E+03 4.26265E+07-7.15648E+05 5.51948E+03
 -1      1709-1.35102E+09-7.53196E+04 2.21128E+03 4.26265E+07-7.15648E+05 5.51948E+03
 -1      1710-1.25631E+09-2.33790E+05-3.20920E+04 4.20333E+07-9.39641E+05-9.23479E+04
 -1      1712-1.25631E+09-2.33790E+05-3.20920E+04 4.20333E+07-9.39641E+05-9.23479E+04
 -1      1713-1.16290E+09-1.85648E+05 3.73130E+03 4.14535E+07-1.04788E+06-2.97993E+04
 -1      1715-1.16290E+09-1.85648E+05 3.73130E+03 4.14535E+07-1.04788E+06-2.97993E+04
 -1      1716-1.07089E+09-2.79675E+05-3.52637E+04 4.06971E+07-1.24222E+06-6.93986E+04
 -1      1718-1.07089E+09-2.79675E+05-3.52637E+04 4.06971E+07-1.24222E+06-6.93986E+04
 -1      1719-9.80621E+08-2.81751E+05-3.30073E+02 3.98608E+07-1.39767E+06-4.19500E+04
 -1      1721-9.80621E+08-2.81751E+05-3.30073E+02 3.98608E+07-1.39767E+06-4.19500E+04
 -1      1722-8.92325E+08-3.50967E+05-3.60519E+04 3.88767E+07-1.58677E+06-5.87519E+04
 -1      1724-8.92325E+08-3.50967E+05-3.60519E+04 3.88767E+07-1.58677E+06-5.87519E+04
 -1      1725-8.06314E+08-3.75059E+05-6.16126E+03 3.77771E+07-1.76833E+06-4.55496E+04
 -1      1727-8.06314E+08-3.75059E+05-6.16126E+03 3.77771E+07-1.76833E+06-4.55496E+04
 -1      1728-7.22868E+08-4.35584E+05-3.66630E+04 3.65332E+07-1.96189E+06-5.23246E+04
 -1      1730-7.22868E+08-4.35584E+05-3.66630E+04 3.65332E+07-1.96189E+06-5.23246E+04
 -1      1731-6.42307E+08-4.70558E+05-1.23687E+04 3.51560E+07-2.15827E+06-4.52353E+04
 -1      1733-6.42307E+08-4.70558E+05-1.23687E+04 3.51560E+07-2.15827E+06-4.52353E+04
 -1      1734-5.64940E+08-5.28135E+05-3.78042E+04 3.36314E+07-2.35824E+06-4.72639E+04
 -1      1736-5.64940E+08-5.28135E+05-3.78042E+04 3.36314E+07-2.35824E+06-4.72639E+04
 -1      1737-4.91099E+08-5.69242E+05-1.84759E+04 3.19630E+07-2.56251E+06-4.27742E+04
 -1      1739-4.91099E+08-5.69242E+05-1.84759E+04 3.19630E+07-2.56251E+06-4.27742E+04
 -1      1740-4.21113E+08-6.25690E+05-3.96404E+04 3.01429E+07-2.76717E+06-4.24051E+04
 -1      1742-4.21113E+08-6.25690E+05-3.96404E+04 3.01429E+07-2.76717E+06-4.24051E+04
 -1      1743-3.55321E+08-6.70779E+05-2.43336E+04 2.81727E+07-2.97378E+06-3.89380E+04
 -1      1745-3.55321E+08-6.70779E+05-2.43336E+04 2.81727E+07-2.97378E+06-3.89380E+04
 -1      1746-2.94064E+08-7.26224E+05-4.21567E+04 2.60471E+07-3.17954E+06-3.72268E+04
 -1      1748-2.94064E+08-7.26224E+05-4.21567E+04 2.60471E+07-3.17954E+06-3.72268E+04
 -1      1749-2.37690E+08-7.74714E+05-2.99014E+04 2.37678E+07-3.38269E+06-3.41526E+04
 -1      1751-2.37690E+08-7.74714E+05-2.99014E+04 2.37678E+07-3.38269E+06-3.41526E+04
 -1      1752-1.86546E+08-8.27050E+05-4.52919E+04 2.13312E+07-3.58470E+06-3.13827E+04
 -1      1754-1.86546E+08-8.27050E+05-4.52919E+04 2.13312E+07-3.58470E+06-3.13827E+04
 -1      1755-1.40984E+08-8.83635E+05-3.51492E+04 1.87361E+07-3.77715E+06-2.90014E+04
 -1      1757-1.40984E+08-8.83635E+05-3.51492E+04 1.87361E+07-3.77715E+06-2.90014E+04
 -1      1758-1.01349E+08-9.19991E+05-4.90998E+04 1.59921E+07-3.96886E+06-2.39269E+04
 -1      1760-1.01349E+08-9.19991E+05-4.90998E+04 1.59921E+07-3.96886E+06-2.39269E+04
 -1      1761-6.79982E+07-9.85607E+05-3.96905E+04 1.30925E+07-4.14110E+06-2.56913E+04
 -1      1763-6.79982E+07-9.85607E+05-3.96905E+04 1.30925E+07-4.14110E+06-2.56913E+04
 -1      1764-4.12612E+07-1.09955E+06-5.41117E+04 9.97507E+06-4.31062E+06-1.03361E+04
 -1      1766-4.12612E+07-1.09955E+06-5.41117E+04 9.97507E+06-4.31062E+06-1.03361E+04
 -1      1767-2.13948E+07-7.40499E+05-4.43835E+04 7.02572E+06-4.45204E+06-3.54586E+04
 -1      1769-2.13948E+07-7.40499E+05-4.43835E+04 7.02572E+06-4.45204E+06-3.54586E+04
 -1      1770-8.47708E+06-1.07597E+06-5.36008E+04 4.29547E+06-4.55710E+06 2.79991E+04
 -1      1772-8.47708E+06-1.07597E+06-5.36008E+04 4.29547E+06-4.55710E+06 2.79991E+04
 -1      1773-2.02579E+09-8.12425E+07 1.77355E+05-6.15164E+07-2.05556E+06-3.97079E+06
 -1      1775-2.02579E+09-8.12425E+07 1.77355E+05-6.15164E+07-2.05556E+06-3.97079E+06
 -1      1776-1.92569E+09 3.24548E+07 5.46656E+04-2.34835E+07 4.09545E+05 2.52112E+06
 -1      1778-1.92569E+09 3.24548E+07 5.46656E+04-2.34835E+07 4.09545E+05 2.52112E+06
 -1      1779-1.83351E+09-4.82151E+06-3.96239E+04-4.63007E+07 8.54461E+04-1.31780E+06
 -1      1781-1.83351E+09-4.82151E+06-3.96239E+04-4.63007E+07 8.54461E+04-1.31780E+06
 -1      1782-1.73771E+09-3.68250E+05-1.85484E+04-4.43339E+07 1.54100E+05 5.80324E+05
 -1      1784-1.73771E+09-3.68250E+05-1.85484E+04-4.43339E+07 1.54100E+05 5.80324E+05
 -1      1785-1.63956E+09 3.72328E+05 1.75108E+03-4.27139E+07 4.84441E+05-3.83527E+05
 -1      1787-1.63956E+09 3.72328E+05 1.75108E+03-4.27139E+07 4.84441E+05-3.83527E+05
 -1      1788-1.54319E+09-1.11239E+05-1.23780E+04-4.36588E+07 3.98287E+05 1.21691E+05
 -1      1790-1.54319E+09-1.11239E+05-1.23780E+04-4.36588E+07 3.98287E+05 1.21691E+05
 -1      1791-1.44655E+09-1.99038E+05-2.07696E+04-4.28678E+07 6.91406E+05-1.55937E+05
 -1      1793-1.44655E+09-1.99038E+05-2.07696E+04-4.28678E+07 6.91406E+05-1.55937E+05
 -1      1794-1.35102E+09-7.53196E+04 2.21128E+03-4.26265E+07 7.15648E+05 5.51948E+03
 -1      1796-1.35102E+09-7.53196E+04 2.21128E+03-4.26265E+07 7.15648E+05 5.51948E+03
 -1      1797-1.25631E+09-2.33790E+05-3.20920E+04-4.20333E+07 9.39641E+05-9.23479E+04
 -1      1799-1.25631E+09-2.33790E+05-3.20920E+04-4.20333E+07 9.39641E+05-9.23479E+04
 -1      1800-1.16290E+09-1.85648E+05 3.73130E+03-4.14535E+07 1.04788E+06-2.97993E+04
 -1      1802-1.16290E+09-1.85648E+05 3.73130E+03-4.14535E+07 1.04788E+06-2.97993E+04
 -1      1803-1.07089E+09-2.79675E+05-3.52637E+04-4.06971E+07 1.24222E+06-6.93986E+04
 -1      1805-1.07089E+09-2.79675E+05-3.52637E+04-4.06971E+07 1.24222E+06-6.93986E+04
 -1      1806-9.80621E+08-2.81751E+05-3.30073E+02-3.98608E+07 1.39767E+06-4.19500E+04
 -1      1808-9.80621E+08-2.81751E+05-3.30073E+02-3.98608E+07 1.39767E+06-4.19500E+04
 -1      1809-8.92325E+08-3.50967E+05-3.60519E+04-3.88767E+07 1.58677E+06-5.87519E+04
 -1      1811-8.92325E+08-3.50967E+05-3.60519E+04-3.88767E+07 1.58677E+06-5.87519E+04
 -1      1812-8.06314E+08-3.75059E+05-6.16126E+03-3.77771E+07 1.76833E+06-4.55496E+04
 -1      1814-8.06314E+08-3.75059E+05-6.16126E+03-3.77771E+07 1.76833E+06-4.55496E+04
 -1      1815-7.22868E+08-4.35584E+05-3.66630E+04-3.65332E+07 1.96189E+06-5.23246E+04
 -1      1817-7.22868E+08-4.35584E+05-3.66630E+04-3.65332E+07 1.96189E+06-5.23246E+04
 -1      1818-6.42307E+08-4.70558E+05-1.23687E+04-3.51560E+07 2.15827E+06-4.52353E+04
 -1      1820-6.42307E+08-4.70558E+05-1.23687E+04-3.51560E+07 2.15827E+06-4.52353E+04
 -1      1821-5.64940E+08-5.28135E+05-3.78042E+04-3.36314E+07 2.35824E+06-4.72639E+04
 -1      1823-5.64940E+08-5.28135E+05-3.78042E+04-3.36314E+07 2.35824E+06-4.72639E+04
 -1      1824-4.91099E+08-5.69242E+05-1.84759E+04-3.19630E+07 2.56251E+06-4.27742E+04
 -1      1826-4.91099E+08-5.69242E+05-1.84759E+04-3.19630E+07 2.56251E+06-4.27742E+04
 -1      1827-4.21113E+08-6.25690E+05-3.96404E+04-3.01429E+07 2.76717E+06-4.24051E+04
 -1      1829-4.21113E+08-6.25690E+05-3.96404E+04-3.01429E+07 2.76717E+06-4.24051E+04
 -1      1830-3.55321E+08-6.70779E+05-2.43336E+04-2.81727E+07 2.97378E+06-3.89380E+04
 -1      1832-3.55321E+08-6.70779E+05-2.43336E+04-2.81727E+07 2.97378E+06-3.89380E+04
 -1      1833-2.94064E+08-7.26224E+05-4.21567E+04-2.60471E+07 3.17954E+06-3.72268E+04
 -1      1835-2.94064E+08-7.26224E+05-4.21567E+04-2.60471E+07 3.17954E+06-3.72268E+04
 -1      1836-2.37690E+08-7.74714E+05-2.99014E+04-2.37678E+07 3.38269E+06-3.41526E+04
 -1      1838-2.37690E+08-7.74714E+05-2.99014E+04-2.37678E+07 3.38269E+06-3.41526E+04
 -1      1839-1.86546E+08-8.27050E+05-4.52919E+04-2.13312E+07 3.58470E+06-3.13827E+04
 -1      1841-1.86546E+08-8.27050E+05-4.52919E+04-2.13312E+07 3.58470E+06-3.13827E+04
 -1      1842-1.40984E+08-8.83635E+05-3.51492E+04-1.87361E+07 3.77715E+06-2.90014E+04
 -1      1844-1.40984E+08-8.83635E+05-3.51492E+04-1.87361E+07 3.77715E+06-2.90014E+04
 -1      1845-1.01349E+08-9.19991E+05-4.90998E+04-1.59921E+07 3.96886E+06-2.39269E+04
 -1      1847-1.01349E+08-9.19991E+05-4.90998E+04-1.59921E+07 3.96886E+06-2.39269E+04
 -1      1848-6.79982E+07-9.85607E+05-3.96905E+04-1.30925E+07 4.14110E+06-2.56913E+04
 -1      1850-6.79982E+07-9.85607E+05-3.96905E+04-1.30925E+07 4.14110E+06-2.56913E+04
 -1      1851-4.12612E+07-1.09955E+06-5.41117E+04-9.97507E+06 4.31062E+06-1.03361E+04
 -1      1853-4.12612E+07-1.09955E+06-5.41117E+04-9.97507E+06 4.31062E+06-1.03361E+04
 -1      1854-2.13948E+07-7.40499E+05-4.43835E+04-7.02572E+06 4.45204E+06-3.54586E+04
 -1      1856-2.13948E+07-7.40499E+05-4.43835E+04-7.02572E+06 4.45204E+06-3.54586E+04
 -1      1857-8.47708E+06-1.07597E+06-5.36008E+04-4.29547E+06 4.55710E+06 2.79991E+04
 -1      1859-8.47708E+06-1.07597E+06-5.36008E+04-4.29547E+06 4.55710E+06 2.79991E+04
 -1      1860-1.02368E+09 3.61688E+04-9.55567E+07 6.59876E-05-1.49495E-05-3.38809E+08
 -1      1862-1.02368E+09 3.61688E+04-9.55567E+07 6.59876E-05-1.49495E-05-3.38809E+08
 -1      1863-9.84135E+08-4.82417E+04-1.86407E+06-2.05604E-05-2.02086E-05-3.47690E+08
 -1      1865-9.84135E+08-4.82417E+04-1.86407E+06-2.05604E-05-2.02086E-05-3.47690E+08
 -1      1866-9.22101E+08 1.97559E+04 4.74082E+06 1.51236E-05-9.18885E-06-3.41691E+08
 -1      1868-9.22101E+08 1.97559E+04 4.74082E+06 1.51236E-05-9.18885E-06-3.41691E+08
 -1      1869-8.68652E+08-3.81379E+03 1.43844E+06 8.44259E-06 1.00839E-05-3.43424E+08
 -1      1871-8.68652E+08-3.81379E+03 1.43844E+06 8.44259E-06 1.00839E-05-3.43424E+08
 -1      1872-8.20396E+08-1.49346E+04 1.45223E+06 1.76722E-05 2.88365E-05-3.40655E+08
 -1      1874-8.20396E+08-1.49346E+04 1.45223E+06 1.76722E-05 2.88365E-05-3.40655E+08
 -1      1875-7.70877E+08 1.41880E+04 1.35378E+06 5.46520E-06 4.62616E-05-3.39422E+08
 -1      1877-7.70877E+08 1.41880E+04 1.35378E+06 5.46520E-06 4.62616E-05-3.39422E+08
 -1      1878-7.22776E+08-2.11760E+04 1.90617E+06 1.49578E-05 5.86251E-05-3.36465E+08
 -1      1880-7.22776E+08-2.11760E+04 1.90617E+06 1.49578E-05 5.86251E-05-3.36465E+08
 -1      1881-6.74667E+08 1.52431E+04 2.25228E+06 1.89234E-06 1.10220E-04-3.33440E+08
 -1      1883-6.74667E+08 1.52431E+04 2.25228E+06 1.89234E-06 1.10220E-04-3.33440E+08
 -1      1884-6.27234E+08-1.79459E+04 2.79340E+06 6.79627E-06 1.39097E-04-3.29293E+08
 -1      1886-6.27234E+08-1.79459E+04 2.79340E+06 6.79627E-06 1.39097E-04-3.29293E+08
 -1      1887-5.80293E+08 1.16386E+04 3.29991E+06-3.43193E-06 1.37835E-04-3.24555E+08
 -1      1889-5.80293E+08 1.16386E+04 3.29991E+06-3.43193E-06 1.37835E-04-3.24555E+08
 -1      1890-5.34130E+08-1.29339E+04 3.87839E+06-1.48512E-05 1.43072E-04-3.18797E+08
 -1      1892-5.34130E+08-1.29339E+04 3.87839E+06-1.48512E-05 1.43072E-04-3.18797E+08
 -1      1893-4.88774E+08 7.89866E+03 4.47008E+06 2.80230E-05 1.28779E-04-3.12206E+08
 -1      1895-4.88774E+08 7.89866E+03 4.47008E+06 2.80230E-05 1.28779E-04-3.12206E+08
 -1      1896-4.44428E+08-8.59000E+03 5.09934E+06 5.60511E-06 1.38305E-04-3.04577E+08
 -1      1898-4.44428E+08-8.59000E+03 5.09934E+06 5.60511E-06 1.38305E-04-3.04577E+08
 -1      1899-4.01192E+08 5.16742E+03 5.75083E+06-2.66148E-06 1.40545E-04-2.95972E+08
 -1      1901-4.01192E+08 5.16742E+03 5.75083E+06-2.66148E-06 1.40545E-04-2.95972E+08
 -1      1902-3.59248E+08-5.33425E+03 6.42630E+06-8.89651E-06 1.07407E-04-2.86279E+08
 -1      1904-3.59248E+08-5.33425E+03 6.42630E+06-8.89651E-06 1.07407E-04-2.86279E+08
 -1      1905-3.18726E+08 3.45577E+03 7.12267E+06-1.04377E-05 1.22468E-04-2.75514E+08
 -1      1907-3.18726E+08 3.45577E+03 7.12267E+06-1.04377E-05 1.22468E-04-2.75514E+08
 -1      1908-2.79805E+08-3.00319E+03 7.83559E+06-1.03326E-05 1.81139E-04-2.63612E+08
 -1      1910-2.79805E+08-3.00319E+03 7.83559E+06-1.03326E-05 1.81139E-04-2.63612E+08
 -1      1911-2.42636E+08 2.50792E+03 8.56513E+06-2.90026E-05 1.73046E-04-2.50571E+08
 -1      1913-2.42636E+08 2.50792E+03 8.56513E+06-2.90026E-05 1.73046E-04-2.50571E+08
 -1      1914-2.07393E+08-1.34213E+03 9.30602E+06 2.53697E-05 1.93370E-04-2.36352E+08
 -1      1916-2.07393E+08-1.34213E+03 9.30602E+06 2.53697E-05 1.93370E-04-2.36352E+08
 -1      1917-1.74241E+08 2.06884E+03 1.00586E+07-1.98357E-05 1.24222E-04-2.20947E+08
 -1      1919-1.74241E+08 2.06884E+03 1.00586E+07-1.98357E-05 1.24222E-04-2.20947E+08
 -1      1920-1.43356E+08-1.42424E+02 1.08184E+07 9.58945E-06-1.43693E-05-2.04335E+08
 -1      1922-1.43356E+08-1.42424E+02 1.08184E+07 9.58945E-06-1.43693E-05-2.04335E+08
 -1      1923-1.14909E+08 1.94928E+03 1.15849E+07 3.68954E-05-5.63673E-05-1.86509E+08
 -1      1925-1.14909E+08 1.94928E+03 1.15849E+07 3.68954E-05-5.63673E-05-1.86509E+08
 -1      1926-8.90767E+07 7.32298E+02 1.23559E+07-4.14167E-06-1.99036E-04-1.67458E+08
 -1      1928-8.90767E+07 7.32298E+02 1.23559E+07-4.14167E-06-1.99036E-04-1.67458E+08
 -1      1929-6.60333E+07 2.03393E+03 1.31291E+07-1.24565E-05-2.92137E-04-1.47176E+08
 -1      1931-6.60333E+07 2.03393E+03 1.31291E+07-1.24565E-05-2.92137E-04-1.47176E+08
 -1      1932-4.59651E+07 1.34477E+03 1.39086E+07-6.68239E-06-1.72075E-04-1.25667E+08
 -1      1934-4.59651E+07 1.34477E+03 1.39086E+07-6.68239E-06-1.72075E-04-1.25667E+08
 -1      1935-2.90455E+07 2.27825E+03 1.46982E+07 2.59779E-05-1.68754E-04-1.02915E+08
 -1      1937-2.90455E+07 2.27825E+03 1.46982E+07 2.59779E-05-1.68754E-04-1.02915E+08
 -1      1938-1.55144E+07 1.70169E+03 1.55640E+07-4.27855E-05-2.36773E-04-7.89573E+07
 -1      1940-1.55144E+07 1.70169E+03 1.55640E+07-4.27855E-05-2.36773E-04-7.89573E+07
 -1      1941-5.75986E+06 2.88773E+03 1.64172E+07 3.23310E-05-2.11360E-04-5.37160E+07
 -1      1943-5.75986E+06 2.88773E+03 1.64172E+07 3.23310E-05-2.11360E-04-5.37160E+07
 -1      1944-4.00426E+05 1.29069E+03 1.68253E+07 4.38727E-05-2.57286E-05-2.73789E+07
 -1      1946-4.00426E+05 1.29069E+03 1.68253E+07 4.38727E-05-2.57286E-05-2.73789E+07
 -1      1947 4.59984E-04-2.25753E-06-5.40059E-04 1.00971E-04-1.91697E-05-3.33309E+08
 -1      1949 4.59984E-04-2.25753E-06-5.40059E-04 1.00971E-04-1.91697E-05-3.33309E+08
 -1      1950 5.69120E-04-1.66893E-06-5.42857E-04-2.30520E-05-2.05378E-05-3.78139E+08
 -1      1952 5.69120E-04-1.66893E-06-5.42857E-04-2.30520E-05-2.05378E-05-3.78139E+08
 -1      1953 4.79430E-04-1.07288E-05 8.02353E-05 3.50206E-05-3.53724E-05-3.72772E+08
 -1      1955 4.79430E-04-1.07288E-05 8.02353E-05 3.50206E-05-3.53724E-05-3.72772E+08
 -1      1956 3.78340E-04-3.20375E-06 7.84472E-04 2.90513E-05-5.00055E-05-3.68126E+08
 -1      1958 3.78340E-04-3.20375E-06 7.84472E-04 2.90513E-05-5.00055E-05-3.68126E+08
 -1      1959 2.75224E-04 4.44502E-05 9.40688E-04 4.47103E-05-4.51338E-05-3.65508E+08
 -1      1961 2.75224E-04 4.44502E-05 9.40688E-04 4.47103E-05-4.51338E-05-3.65508E+08
 -1      1962 2.85745E-04 6.77556E-05 3.98934E-04 2.84260E-05-1.73740E-05-3.63427E+08
 -1      1964 2.85745E-04 6.77556E-05 3.98934E-04 2.84260E-05-1.73740E-05-3.63427E+08
 -1      1965 4.38854E-04-1.63838E-05-4.22984E-04 4.25548E-05-9.59766E-06-3.60547E+08
 -1      1967 4.38854E-04-1.63838E-05-4.22984E-04 4.25548E-05-9.59766E-06-3.60547E+08
 -1      1968 4.65021E-04 7.81193E-06-7.39016E-04 2.28293E-05-3.21908E-05-3.57096E+08
 -1      1970 4.65021E-04 7.81193E-06-7.39016E-04 2.28293E-05-3.21908E-05-3.57096E+08
 -1      1971 2.30849E-04 6.44252E-05-3.33644E-04 2.50777E-05-6.31044E-05-3.52782E+08
 -1      1973 2.30849E-04 6.44252E-05-3.33644E-04 2.50777E-05-6.31044E-05-3.52782E+08
 -1      1974-1.11133E-04 8.29995E-06-2.44007E-06 5.92932E-06-6.73778E-05-3.47630E+08
 -1      1976-1.11133E-04 8.29995E-06-2.44007E-06 5.92932E-06-6.73778E-05-3.47630E+08
 -1      1977-3.26365E-04-1.86414E-05-4.06593E-04 1.37061E-05-5.38731E-05-3.41518E+08
 -1      1979-3.26365E-04-1.86414E-05-4.06593E-04 1.37061E-05-5.38731E-05-3.41518E+08
 -1      1980-3.20226E-04-9.32254E-05-1.26135E-03 4.61215E-05-2.10167E-05-3.34429E+08
 -1      1982-3.20226E-04-9.32254E-05-1.26135E-03 4.61215E-05-2.10167E-05-3.34429E+08
 -1      1983-2.69815E-04-7.77170E-05-1.86015E-03 2.21069E-05 4.18235E-05-3.26283E+08
 -1      1985-2.69815E-04-7.77170E-05-1.86015E-03 2.21069E-05 4.18235E-05-3.26283E+08
 -1      1986-2.92167E-04-2.00607E-05-2.03389E-03-2.87016E-06 2.69715E-05-3.17053E+08
 -1      1988-2.92167E-04-2.00607E-05-2.03389E-03-2.87016E-06 2.69715E-05-3.17053E+08
 -1      1989-2.43887E-04-2.65855E-05-2.06872E-03-1.15582E-06-2.95286E-05-3.06684E+08
 -1      1991-2.43887E-04-2.65855E-05-2.06872E-03-1.15582E-06-2.95286E-05-3.06684E+08
 -1      1992-1.05023E-04-5.81518E-05-2.22014E-03 6.43539E-06-2.37315E-05-2.95149E+08
 -1      1994-1.05023E-04-5.81518E-05-2.22014E-03 6.43539E-06-2.37315E-05-2.95149E+08
 -1      1995-3.51816E-05 5.13103E-05-2.34849E-03-8.59308E-07-1.06573E-05-2.82408E+08
 -1      1997-3.51816E-05 5.13103E-05-2.34849E-03-8.59308E-07-1.06573E-05-2.82408E+08
 -1      1998-1.87036E-04 1.33693E-04-2.22216E-03-1.79104E-05-5.30678E-06-2.68438E+08
 -1      2000-1.87036E-04 1.33693E-04-2.22216E-03-1.79104E-05-5.30678E-06-2.68438E+08
 -1      2001-2.77713E-04 1.20681E-04-1.82194E-03 3.68314E-05 8.86122E-05-2.53212E+08
 -1      2003-2.77713E-04 1.20681E-04-1.82194E-03 3.68314E-05 8.86122E-05-2.53212E+08
 -1      2004-1.24011E-04 2.63657E-05-1.45878E-03-1.74748E-05 1.15435E-04-2.36713E+08
 -1      2006-1.24011E-04 2.63657E-05-1.45878E-03-1.74748E-05 1.15435E-04-2.36713E+08
 -1      2007 1.18768E-04-1.08851E-04-1.52851E-03 5.12866E-06 3.20857E-05-2.18922E+08
 -1      2009 1.18768E-04-1.08851E-04-1.52851E-03 5.12866E-06 3.20857E-05-2.18922E+08
 -1      2010 4.37291E-04-3.79821E-05-1.81095E-03 5.81632E-05-1.35209E-05-1.99830E+08
 -1      2012 4.37291E-04-3.79821E-05-1.81095E-03 5.81632E-05-1.35209E-05-1.99830E+08
 -1      2013 6.77772E-04-2.22186E-05-2.02260E-03-2.79635E-05-1.30024E-04-1.79425E+08
 -1      2015 6.77772E-04-2.22186E-05-2.02260E-03-2.79635E-05-1.30024E-04-1.79425E+08
 -1      2016 6.24017E-04-1.70422E-04-2.37025E-03-3.87891E-05-2.98509E-04-1.57703E+08
 -1      2018 6.24017E-04-1.70422E-04-2.37025E-03-3.87891E-05-2.98509E-04-1.57703E+08
 -1      2019 3.68633E-04-2.96930E-04-2.65676E-03 6.98123E-06-2.03408E-04-1.34658E+08
 -1      2021 3.68633E-04-2.96930E-04-2.65676E-03 6.98123E-06-2.03408E-04-1.34658E+08
 -1      2022 6.73463E-05-1.59920E-04-2.56616E-03 4.25898E-05-2.11219E-05-1.10275E+08
 -1      2024 6.73463E-05-1.59920E-04-2.56616E-03 4.25898E-05-2.11219E-05-1.10275E+08
 -1      2025-3.07014E-04-1.64314E-04-2.29801E-03-6.41258E-05-1.57626E-05-8.44925E+07
 -1      2027-3.07014E-04-1.64314E-04-2.29801E-03-6.41258E-05-1.57626E-05-8.44925E+07
 -1      2028-3.54812E-04-6.42467E-06-2.04932E-03 1.55719E-05-2.38191E-06-5.72068E+07
 -1      2030-3.54812E-04-6.42467E-06-2.04932E-03 1.55719E-05-2.38191E-06-5.72068E+07
 -1      2031-8.50484E-06 2.81125E-04-2.31963E-03 4.68727E-05 1.41513E-04-2.86629E+07
 -1      2033-8.50484E-06 2.81125E-04-2.31963E-03 4.68727E-05 1.41513E-04-2.86629E+07
 -1      2034 1.02368E+09-3.61688E+04 9.55567E+07 4.11657E-05-2.11873E-05-3.38809E+08
 -1      2036 1.02368E+09-3.61688E+04 9.55567E+07 4.11657E-05-2.11873E-05-3.38809E+08
 -1      2037 9.84135E+08 4.82417E+04 1.86407E+06-1.56709E-05-2.93688E-05-3.47690E+08
 -1      2039 9.84135E+08 4.82417E+04 1.86407E+06-1.56709E-05-2.93688E-05-3.47690E+08
 -1      2040 9.22101E+08-1.97559E+04-4.74082E+06 5.64030E-06-2.17844E-05-3.41691E+08
 -1      2042 9.22101E+08-1.97559E+04-4.74082E+06 5.64030E-06-2.17844E-05-3.41691E+08
 -1      2043 8.68652E+08 3.81379E+03-1.43844E+06 1.22542E-05-4.02983E-05-3.43424E+08
 -1      2045 8.68652E+08 3.81379E+03-1.43844E+06 1.22542E-05-4.02983E-05-3.43424E+08
 -1      2046 8.20396E+08 1.49346E+04-1.45223E+06 1.00670E-05-6.18510E-05-3.40655E+08
 -1      2048 8.20396E+08 1.49346E+04-1.45223E+06 1.00670E-05-6.18510E-05-3.40655E+08
 -1      2049 7.70877E+08-1.41880E+04-1.35378E+06 2.01405E-06-8.73355E-05-3.39422E+08
 -1      2051 7.70877E+08-1.41880E+04-1.35378E+06 2.01405E-06-8.73355E-05-3.39422E+08
 -1      2052 7.22776E+08 2.11760E+04-1.90617E+06 1.19747E-05-1.34730E-04-3.36465E+08
 -1      2054 7.22776E+08 2.11760E+04-1.90617E+06 1.19747E-05-1.34730E-04-3.36465E+08
 -1      2055 6.74667E+08-1.52431E+04-2.25228E+06 5.15884E-07-1.62509E-04-3.33440E+08
 -1      2057 6.74667E+08-1.52431E+04-2.25228E+06 5.15884E-07-1.62509E-04-3.33440E+08
 -1      2058 6.27234E+08 1.79459E+04-2.79340E+06 9.07627E-07-1.84492E-04-3.29293E+08
 -1      2060 6.27234E+08 1.79459E+04-2.79340E+06 9.07627E-07-1.84492E-04-3.29293E+08
 -1      2061 5.80293E+08-1.16386E+04-3.29991E+06-1.17956E-05-2.05581E-04-3.24555E+08
 -1      2063 5.80293E+08-1.16386E+04-3.29991E+06-1.17956E-05-2.05581E-04-3.24555E+08
 -1      2064 5.34130E+08 1.29339E+04-3.87839E+06-9.56450E-08-2.42518E-04-3.18797E+08
 -1      2066 5.34130E+08 1.29339E+04-3.87839E+06-9.56450E-08-2.42518E-04-3.18797E+08
 -1      2067 4.88774E+08-7.89866E+03-4.47008E+06-1.58747E-06-2.69070E-04-3.12206E+08
 -1      2069 4.88774E+08-7.89866E+03-4.47008E+06-1.58747E-06-2.69070E-04-3.12206E+08
 -1      2070 4.44428E+08 8.59000E+03-5.09934E+06 3.22602E-06-2.81366E-04-3.04577E+08
 -1      2072 4.44428E+08 8.59000E+03-5.09934E+06 3.22602E-06-2.81366E-04-3.04577E+08
 -1      2073 4.01192E+08-5.16742E+03-5.75083E+06-6.37367E-06-3.28130E-04-2.95972E+08
 -1      2075 4.01192E+08-5.16742E+03-5.75083E+06-6.37367E-06-3.28130E-04-2.95972E+08
 -1      2076 3.59248E+08 5.33425E+03-6.42630E+06-8.23810E-07-2.88813E-04-2.86279E+08
 -1      2078 3.59248E+08 5.33425E+03-6.42630E+06-8.23810E-07-2.88813E-04-2.86279E+08
 -1      2079 3.18726E+08-3.45577E+03-7.12267E+06 1.11460E-05-2.32962E-04-2.75514E+08
 -1      2081 3.18726E+08-3.45577E+03-7.12267E+06 1.11460E-05-2.32962E-04-2.75514E+08
 -1      2082 2.79805E+08 3.00319E+03-7.83559E+06 3.49240E-06-2.70040E-04-2.63612E+08
 -1      2084 2.79805E+08 3.00319E+03-7.83559E+06 3.49240E-06-2.70040E-04-2.63612E+08
 -1      2085 2.42636E+08-2.50792E+03-8.56513E+06-1.25867E-05-2.16396E-04-2.50571E+08
 -1      2087 2.42636E+08-2.50792E+03-8.56513E+06-1.25867E-05-2.16396E-04-2.50571E+08
 -1      2088 2.07393E+08 1.34213E+03-9.30602E+06 9.54399E-06-1.59660E-04-2.36352E+08
 -1      2090 2.07393E+08 1.34213E+03-9.30602E+06 9.54399E-06-1.59660E-04-2.36352E+08
 -1      2091 1.74241E+08-2.06884E+03-1.00586E+07-2.48032E-05-2.23901E-04-2.20947E+08
 -1      2093 1.74241E+08-2.06884E+03-1.00586E+07-2.48032E-05-2.23901E-04-2.20947E+08
 -1      2094 1.43356E+08 1.42424E+02-1.08184E+07-4.11049E-06-2.42308E-04-2.04335E+08
 -1      2096 1.43356E+08 1.42424E+02-1.08184E+07-4.11049E-06-2.42308E-04-2.04335E+08
 -1      2097 1.14909E+08-1.94928E+03-1.15849E+07 2.66621E-05-2.52013E-04-1.86509E+08
 -1      2099 1.14909E+08-1.94928E+03-1.15849E+07 2.66621E-05-2.52013E-04-1.86509E+08
 -1      2100 8.90767E+07-7.32298E+02-1.23559E+07-3.85336E-05-2.12889E-04-1.67458E+08
 -1      2102 8.90767E+07-7.32298E+02-1.23559E+07-3.85336E-05-2.12889E-04-1.67458E+08
 -1      2103 6.60333E+07-2.03393E+03-1.31291E+07-1.86965E-05-2.51215E-04-1.47176E+08
 -1      2105 6.60333E+07-2.03393E+03-1.31291E+07-1.86965E-05-2.51215E-04-1.47176E+08
 -1      2106 4.59651E+07-1.34477E+03-1.39086E+07 4.10095E-06-3.52082E-04-1.25667E+08
 -1      2108 4.59651E+07-1.34477E+03-1.39086E+07 4.10095E-06-3.52082E-04-1.25667E+08
 -1      2109 2.90455E+07-2.27825E+03-1.46982E+07 3.45812E-05-2.97539E-04-1.02915E+08
 -1      2111 2.90455E+07-2.27825E+03-1.46982E+07 3.45812E-05-2.97539E-04-1.02915E+08
 -1      2112 1.55144E+07-1.70169E+03-1.55640E+07-3.34600E-05-3.93452E-04-7.89573E+07
 -1      2114 1.55144E+07-1.70169E+03-1.55640E+07-3.34600E-05-3.93452E-04-7.89573E+07
 -1      2115 5.75986E+06-2.88773E+03-1.64172E+07-3.16825E-06-4.72249E-04-5.37160E+07
 -1      2117 5.75986E+06-2.88773E+03-1.64172E+07-3.16825E-06-4.72249E-04-5.37160E+07
 -1      2118 4.00426E+05-1.29069E+03-1.68253E+07 2.02338E-05-3.97552E-04-2.73789E+07
 -1      2120 4.00426E+05-1.29069E+03-1.68253E+07 2.02338E-05-3.97552E-04-2.73789E+07
 -1      2121 2.02579E+09 8.12425E+07-1.77355E+05 6.15164E+07-2.05556E+06-3.97079E+06
 -1      2123 2.02579E+09 8.12425E+07-1.77355E+05 6.15164E+07-2.05556E+06-3.97079E+06
 -1      2124 1.92569E+09-3.24548E+07-5.46656E+04 2.34835E+07 4.09545E+05 2.52112E+06
 -1      2126 1.92569E+09-3.24548E+07-5.46656E+04 2.34835E+07 4.09545E+05 2.52112E+06
 -1      2127 1.83351E+09 4.82151E+06 3.96239E+04 4.63007E+07 8.54461E+04-1.31780E+06
 -1      2129 1.83351E+09 4.82151E+06 3.96239E+04 4.63007E+07 8.54461E+04-1.31780E+06
 -1      2130 1.73771E+09 3.68250E+05 1.85484E+04 4.43339E+07 1.54100E+05 5.80324E+05
 -1      2132 1.73771E+09 3.68250E+05 1.85484E+04 4.43339E+07 1.54100E+05 5.80324E+05
 -1      2133 1.63956E+09-3.72328E+05-1.75108E+03 4.27139E+07 4.84441E+05-3.83527E+05
 -1      2135 1.63956E+09-3.72328E+05-1.75108E+03 4.27139E+07 4.84441E+05-3.83527E+05
 -1      2136 1.54319E+09 1.11239E+05 1.23780E+04 4.36588E+07 3.98287E+05 1.21691E+05
 -1      2138 1.54319E+09 1.11239E+05 1.23780E+04 4.36588E+07 3.98287E+05 1.21691E+05
 -1      2139 1.44655E+09 1.99038E+05 2.07696E+04 4.28678E+07 6.91406E+05-1.55937E+05
 -1      2141 1.44655E+09 1.99038E+05 2.07696E+04 4.28678E+07 6.91406E+05-1.55937E+05
 -1      2142 1.35102E+09 7.53196E+04-2.21128E+03 4.26265E+07 7.15648E+05 5.51948E+03
 -1      2144 1.35102E+09 7.53196E+04-2.21128E+03 4.26265E+07 7.15648E+05 5.51948E+03
 -1      2145 1.25631E+09 2.33790E+05 3.20920E+04 4.20333E+07 9.39641E+05-9.23479E+04
 -1      2147 1.25631E+09 2.33790E+05 3.20920E+04 4.20333E+07 9.39641E+05-9.23479E+04
 -1      2148 1.16290E+09 1.85648E+05-3.73130E+03 4.14535E+07 1.04788E+06-2.97993E+04
 -1      2150 1.16290E+09 1.85648E+05-3.73130E+03 4.14535E+07 1.04788E+06-2.97993E+04
 -1      2151 1.07089E+09 2.79675E+05 3.52637E+04 4.06971E+07 1.24222E+06-6.93986E+04
 -1      2153 1.07089E+09 2.79675E+05 3.52637E+04 4.06971E+07 1.24222E+06-6.93986E+04
 -1      2154 9.80621E+08 2.81751E+05 3.30073E+02 3.98608E+07 1.39767E+06-4.19500E+04
 -1      2156 9.80621E+08 2.81751E+05 3.30073E+02 3.98608E+07 1.39767E+06-4.19500E+04
 -1      2157 8.92325E+08 3.50967E+05 3.60519E+04 3.88767E+07 1.58677E+06-5.87519E+04
 -1      2159 8.92325E+08 3.50967E+05 3.60519E+04 3.88767E+07 1.58677E+06-5.87519E+04
 -1      2160 8.06314E+08 3.75059E+05 6.16126E+03 3.77771E+07 1.76833E+06-4.55496E+04
 -1      2162 8.06314E+08 3.75059E+05 6.16126E+03 3.77771E+07 1.76833E+06-4.55496E+04
 -1      2163 7.22868E+08 4.35584E+05 3.66630E+04 3.65332E+07 1.96189E+06-5.23246E+04
 -1      2165 7.22868E+08 4.35584E+05 3.66630E+04 3.65332E+07 1.96189E+06-5.23246E+04
 -1      2166 6.42307E+08 4.70558E+05 1.23687E+04 3.51560E+07 2.15827E+06-4.52353E+04
 -1      2168 6.42307E+08 4.70558E+05 1.23687E+04 3.51560E+07 2.15827E+06-4.52353E+04
 -1      2169 5.64940E+08 5.28135E+05 3.78042E+04 3.36314E+07 2.35824E+06-4.72639E+04
 -1      2171 5.64940E+08 5.28135E+05 3.78042E+04 3.36314E+07 2.35824E+06-4.72639E+04
 -1      2172 4.91099E+08 5.69242E+05 1.84759E+04 3.19630E+07 2.56251E+06-4.27742E+04
 -1      2174 4.91099E+08 5.69242E+05 1.84759E+04 3.19630E+07 2.56251E+06-4.27742E+04
 -1      2175 4.21113E+08 6.25690E+05 3.96404E+04 3.01429E+07 2.76717E+06-4.24051E+04
 -1      2177 4.21113E+08 6.25690E+05 3.96404E+04 3.01429E+07 2.76717E+06-4.24051E+04
 -1      2178 3.55321E+08 6.70779E+05 2.43336E+04 2.81727E+07 2.97378E+06-3.89380E+04
 -1      2180 3.55321E+08 6.70779E+05 2.43336E+04 2.81727E+07 2.97378E+06-3.89380E+04
 -1      2181 2.94064E+08 7.26224E+05 4.21567E+04 2.60471E+07 3.17954E+06-3.72268E+04
 -1      2183 2.94064E+08 7.26224E+05 4.21567E+04 2.60471E+07 3.17954E+06-3.72268E+04
 -1      2184 2.37690E+08 7.74714E+05 2.99014E+04 2.37678E+07 3.38269E+06-3.41526E+04
 -1      2186 2.37690E+08 7.74714E+05 2.99014E+04 2.37678E+07 3.38269E+06-3.41526E+04
 -1      2187 1.86546E+08 8.27050E+05 4.52919E+04 2.13312E+07 3.58470E+06-3.13827E+04
 -1      2189 1.86546E+08 8.27050E+05 4.52919E+04 2.13312E+07 3.58470E+06-3.13827E+04
 -1      2190 1.40984E+08 8.83635E+05 3.51492E+04 1.87361E+07 3.77715E+06-2.90014E+04
 -1      2192 1.40984E+08 8.83635E+05 3.51492E+04 1.87361E+07 3.77715E+06-2.90014E+04
 -1      2193 1.01349E+08 9.19991E+05 4.90998E+04 1.59921E+07 3.96886E+06-2.39269E+04
 -1      2195 1.01349E+08 9.19991E+05 4.90998E+04 1.59921E+07 3.96886E+06-2.39269E+04
 -1      2196 6.79982E+07 9.85607E+05 3.96905E+04 1.30925E+07 4.14110E+06-2.56913E+04
 -1      2198 6.79982E+07 9.85607E+05 3.96905E+04 1.30925E+07 4.14110E+06-2.56913E+04
 -1      2199 4.12612E+07 1.09955E+06 5.41118E+04 9.97507E+06 4.31062E+06-1.03361E+04
 -1      2201 4.12612E+07 1.09955E+06 5.41118E+04 9.97507E+06 4.31062E+06-1.03361E+04
 -1      2202 2.13948E+07 7.40499E+05 4.43835E+04 7.02572E+06 4.45204E+06-3.54586E+04
 -1      2204 2.13948E+07 7.40499E+05 4.43835E+04 7.02572E+06 4.45204E+06-3.54586E+04
 -1      2205 8.47708E+06 1.07597E+06 5.36008E+04 4.29547E+06 4.55710E+06 2.79991E+04
 -1      2207 8.47708E+06 1.07597E+06 5.36008E+04 4.29547E+06 4.55710E+06 2.79991E+04
 -1      2208 2.02579E+09 8.12425E+07-1.77355E+05-6.15164E+07 2.05556E+06-3.97079E+06
 -1      2210 2.02579E+09 8.12425E+07-1.77355E+05-6.15164E+07 2.05556E+06-3.97079E+06
 -1      2211 1.92569E+09-3.24548E+07-5.46656E+04-2.34835E+07-4.09545E+05 2.52112E+06
 -1      2213 1.92569E+09-3.24548E+07-5.46656E+04-2.34835E+07-4.09545E+05 2.52112E+06
 -1      2214 1.83351E+09 4.82151E+06 3.96239E+04-4.63007E+07-8.54461E+04-1.31780E+06
 -1      2216 1.83351E+09 4.82151E+06 3.96239E+04-4.63007E+07-8.54461E+04-1.31780E+06
 -1      2217 1.73771E+09 3.68250E+05 1.85484E+04-4.43339E+07-1.54100E+05 5.80324E+05
 -1      2219 1.73771E+09 3.68250E+05 1.85484E+04-4.43339E+07-1.54100E+05 5.80324E+05
 -1      2220 1.63956E+09-3.72328E+05-1.75108E+03-4.27139E+07-4.84441E+05-3.83527E+05
 -1      2222 1.63956E+09-3.72328E+05-1.75108E+03-4.27139E+07-4.84441E+05-3.83527E+05
 -1      2223 1.54319E+09 1.11239E+05 1.23780E+04-4.36588E+07-3.98287E+05 1.21691E+05
 -1      2225 1.54319E+09 1.11239E+05 1.23780E+04-4.36588E+07-3.98287E+05 1.21691E+05
 -1      2226 1.44655E+09 1.99038E+05 2.07696E+04-4.28678E+07-6.91406E+05-1.55937E+05
 -1      2228 1.44655E+09 1.99038E+05 2.07696E+04-4.28678E+07-6.91406E+05-1.55937E+05
 -1      2229 1.35102E+09 7.53196E+04-2.21128E+03-4.26265E+07-7.15648E+05 5.51948E+03
 -1      2231 1.35102E+09 7.53196E+04-2.21128E+03-4.26265E+07-7.15648E+05 5.51948E+03
 -1      2232 1.25631E+09 2.33790E+05 3.20920E+04-4.20333E+07-9.39641E+05-9.23479E+04
 -1      2234 1.25631E+09 2.33790E+05 3.20920E+04-4.20333E+07-9.39641E+05-9.23479E+04
 -1      2235 1.16290E+09 1.85648E+05-3.73130E+03-4.14535E+07-1.04788E+06-2.97993E+04
 -1      2237 1.16290E+09 1.85648E+05-3.73130E+03-4.14535E+07-1.04788E+06-2.97993E+04
 -1      2238 1.07089E+09 2.79675E+05 3.52637E+04-4.06971E+07-1.24222E+06-6.93986E+04
 -1      2240 1.07089E+09 2.79675E+05 3.52637E+04-4.06971E+07-1.24222E+06-6.93986E+04
 -1      2241 9.80621E+08 2.81751E+05 3.30073E+02-3.98608E+07-1.39767E+06-4.19500E+04
 -1      2243 9.80621E+08 2.81751E+05 3.30073E+02-3.98608E+07-1.39767E+06-4.19500E+04
 -1      2244 8.92325E+08 3.50967E+05 3.60519E+04-3.88767E+07-1.58677E+06-5.87519E+04
 -1      2246 8.92325E+08 3.50967E+05 3.60519E+04-3.88767E+07-1.58677E+06-5.87519E+04
 -1      2247 8.06314E+08 3.75059E+05 6.16126E+03-3.77771E+07-1.76833E+06-4.55496E+04
 -1      2249 8.06314E+08 3.75059E+05 6.16126E+03-3.77771E+07-1.76833E+06-4.55496E+04
 -1      2250 7.22868E+08 4.35584E+05 3.66630E+04-3.65332E+07-1.96189E+06-5.23246E+04
 -1      2252 7.22868E+08 4.35584E+05 3.66630E+04-3.65332E+07-1.96189E+06-5.23246E+04
 -1      2253 6.42307E+08 4.70558E+05 1.23687E+04-3.51560E+07-2.15827E+06-4.52353E+04
 -1      2255 6.42307E+08 4.70558E+05 1.23687E+04-3.51560E+07-2.15827E+06-4.52353E+04
 -1      2256 5.64940E+08 5.28135E+05 3.78042E+04-3.36314E+07-2.35824E+06-4.72639E+04
 -1      2258 5.64940E+08 5.28135E+05 3.78042E+04-3.36314E+07-2.35824E+06-4.72639E+04
 -1      2259 4.91099E+08 5.69242E+05 1.84759E+04-3.19630E+07-2.56251E+06-4.27742E+04
 -1      2261 4.91099E+08 5.69242E+05 1.84759E+04-3.19630E+07-2.56251E+06-4.27742E+04
 -1      2262 4.21113E+08 6.25690E+05 3.96404E+04-3.01429E+07-2.76717E+06-4.24051E+04
 -1      2264 4.21113E+08 6.25690E+05 3.96404E+04-3.01429E+07-2.76717E+06-4.24051E+04
 -1      2265 3.55321E+08 6.70779E+05 2.43336E+04-2.81727E+07-2.97378E+06-3.89380E+04
 -1      2267 3.55321E+08 6.70779E+05 2.43336E+04-2.81727E+07-2.97378E+06-3.89380E+04
 -1      2268 2.94064E+08 7.26224E+05 4.21567E+04-2.60471E+07-3.17954E+06-3.72268E+04
 -1      2270 2.94064E+08 7.26224E+05 4.21567E+04-2.60471E+07-3.17954E+06-3.72268E+04
 -1      2271 2.37690E+08 7.74714E+05 2.99014E+04-2.37678E+07-3.38269E+06-3.41526E+04
 -1      2273 2.37690E+08 7.74714E+05 2.99014E+04-2.37678E+07-3.38269E+06-3.41526E+04
 -1      2274 1.86546E+08 8.27050E+05 4.52919E+04-2.13312E+07-3.58470E+06-3.13827E+04
 -1      2276 1.86546E+08 8.27050E+05 4.52919E+04-2.13312E+07-3.58470E+06-3.13827E+04
 -1      2277 1.40984E+08 8.83635E+05 3.51492E+04-1.87361E+07-3.77715E+06-2.90014E+04
 -1      2279 1.40984E+08 8.83635E+05 3.51492E+04-1.87361E+07-3.77715E+06-2.90014E+04
 -1      2280 1.01349E+08 9.19991E+05 4.90998E+04-1.59921E+07-3.96886E+06-2.39269E+04
 -1      2282 1.01349E+08 9.19991E+05 4.90998E+04-1.59921E+07-3.96886E+06-2.39269E+04
 -1      2283 6.79982E+07 9.85607E+05 3.96905E+04-1.30925E+07-4.14110E+06-2.56913E+04
 -1      2285 6.79982E+07 9.85607E+05 3.96905E+04-1.30925E+07-4.14110E+06-2.56913E+04
 -1      2286 4.12612E+07 1.09955E+06 5.41117E+04-9.97507E+06-4.31062E+06-1.03361E+04
 -1      2288 4.12612E+07 1.09955E+06 5.41117E+04-9.97507E+06-4.31062E+06-1.03361E+04
 -1      2289 2.13948E+07 7.40499E+05 4.43835E+04-7.02572E+06-4.45204E+06-3.54586E+04
 -1      2291 2.13948E+07 7.40499E+05 4.43835E+04-7.02572E+06-4.45204E+06-3.54586E+04
 -1      2292 8.47708E+06 1.07597E+06 5.36008E+04-4.29547E+06-4.55710E+06 2.79991E+04
 -1      2294 8.47708E+06 1.07597E+06 5.36008E+04-4.29547E+06-4.55710E+06 2.79991E+04
 -3
    1PSTEP                         7           1           1          
    1PGM                1.000000E+00                                  
    1PGK                1.072207E+05                                  
    1PHID                         -1                                  
    1PSUBC                         0                                  
    1PMODE                         2                                  
  100CL  102 52.11460063         930                     2    2MODAL      1
 -4  FORC        4    1
 -5  F1          1    2    1    0
 -5  F2          1    2    2    0
 -5  F3          1    2    3    0
 -5  ALL         1    2    0    0    1ALL
 -1       404 3.81352E+05-9.21578E+04-7.06305E+02
 -1       406 3.47859E+05-9.80507E+04-7.06305E+02
 -1       407-7.59406E+01-2.11868E-03-8.74521E+02
 -1       409-7.59406E+01-2.11856E-03-8.74521E+02
 -1       410-4.09928E+03 2.22754E-06 5.95014E+03
 -1       412-4.09928E+03-1.92547E-06 4.86096E+03
 -1       413 3.86672E+03-8.54878E+02-8.37184E+03
 -1       415 3.86672E+03 8.54878E+02-8.37184E+03
 -1       424 6.46014E+05 2.28122E-08 4.44726E+03
 -1       426 4.87444E+05 8.53504E-08 9.17362E+03
 -1       427 4.79193E+05 3.70964E+03 1.56985E+05
 -1       429 4.79193E+05-3.70964E+03 1.56985E+05
 -1       438-7.59406E+01 2.11841E-03-8.74521E+02
 -1       440-7.59406E+01 2.11858E-03-8.74521E+02
 -1       441 3.81352E+05 9.21578E+04-7.06305E+02
 -1       443 3.47859E+05 9.80507E+04-7.06305E+02
 -1       444-4.79193E+05-3.70964E+03 1.56985E+05
 -1       446-4.79193E+05 3.70964E+03 1.56985E+05
 -1       447-6.46014E+05 1.99149E-07 4.44726E+03
 -1       449-4.87444E+05 2.43802E-07 9.17362E+03
 -1       458-3.86672E+03 8.54878E+02-8.37184E+03
 -1       460-3.86672E+03-8.54878E+02-8.37184E+03
 -1       461 4.09928E+03-1.15809E-06 5.95014E+03
 -1       463 4.09928E+03 1.07558E-06 4.86096E+03
 -1       472-3.81352E+05-9.21578E+04-7.06305E+02
 -1       474-3.47859E+05-9.80507E+04-7.06305E+02
 -1       475 7.59406E+01-2.11861E-03-8.74521E+02
 -1       477 7.59406E+01-2.11854E-03-8.74521E+02
 -1       478 7.59406E+01 2.11840E-03-8.74521E+02
 -1       480 7.59406E+01 2.11849E-03-8.74521E+02
 -1       481-3.81352E+05 9.21578E+04-7.06305E+02
 -1       483-3.47859E+05 9.80507E+04-7.06305E+02
 -1       484-1.21684E+01 2.14173E+00-1.10668E+01
 -1       486-1.21684E+01 2.14173E+00-1.10668E+01
 -1       487-2.40367E+01 2.52149E+00-2.68123E+01
 -1       489-2.40367E+01 2.52149E+00-2.68123E+01
 -1       490-3.54667E+01 2.24228E+00-4.78233E+01
 -1       492-3.54667E+01 2.24228E+00-4.78233E+01
 -1       493-4.63468E+01 2.13687E+00-7.42160E+01
 -1       495-4.63468E+01 2.13687E+00-7.42160E+01
 -1       496-5.66227E+01 2.02479E+00-1.05976E+02
 -1       498-5.66227E+01 2.02479E+00-1.05976E+02
 -1       499-6.63104E+01 1.90049E+00-1.42680E+02
 -1       501-6.63104E+01 1.90049E+00-1.42680E+02
 -1       502-7.54113E+01 1.78268E+00-1.84084E+02
 -1       504-7.54113E+01 1.78268E+00-1.84084E+02
 -1       505-8.39271E+01 1.66447E+00-2.29860E+02
 -1       507-8.39271E+01 1.66447E+00-2.29860E+02
 -1       508-9.18645E+01 1.54756E+00-2.79717E+02
 -1       510-9.18645E+01 1.54756E+00-2.79717E+02
 -1       511-9.92296E+01 1.43222E+00-3.33350E+02
 -1       513-9.92296E+01 1.43222E+00-3.33350E+02
 -1       514-1.06031E+02 1.31858E+00-3.90463E+02
 -1       516-1.06031E+02 1.31858E+00-3.90463E+02
 -1       517-1.12278E+02 1.20709E+00-4.50759E+02
 -1       519-1.12278E+02 1.20709E+00-4.50759E+02
 -1       520-1.17981E+02 1.09801E+00-5.13946E+02
 -1       522-1.17981E+02 1.09801E+00-5.13946E+02
 -1       523-1.23155E+02 9.91738E-01-5.79739E+02
 -1       525-1.23155E+02 9.91738E-01-5.79739E+02
 -1       526-1.27813E+02 8.88617E-01-6.47856E+02
 -1       528-1.27813E+02 8.88617E-01-6.47856E+02
 -1       529-1.31973E+02 7.89049E-01-7.18024E+02
 -1       531-1.31973E+02 7.89049E-01-7.18024E+02
 -1       532-1.35652E+02 6.93410E-01-7.89976E+02
 -1       534-1.35652E+02 6.93410E-01-7.89976E+02
 -1       535-1.38872E+02 6.02112E-01-8.63455E+02
 -1       537-1.38872E+02 6.02112E-01-8.63455E+02
 -1       538-1.41654E+02 5.15559E-01-9.38215E+02
 -1       540-1.41654E+02 5.15559E-01-9.38215E+02
 -1       541-1.44024E+02 4.34174E-01-1.01402E+03
 -1       543-1.44024E+02 4.34174E-01-1.01402E+03
 -1       544-1.46008E+02 3.58377E-01-1.09064E+03
 -1       546-1.46008E+02 3.58377E-01-1.09064E+03
 -1       547-1.47634E+02 2.88593E-01-1.16787E+03
 -1       549-1.47634E+02 2.88593E-01-1.16787E+03
 -1       550-1.48933E+02 2.25264E-01-1.24551E+03
 -1       552-1.48933E+02 2.25264E-01-1.24551E+03
 -1       553-1.49939E+02 1.68782E-01-1.32338E+03
 -1       555-1.49939E+02 1.68782E-01-1.32338E+03
 -1       556-1.50685E+02 1.19699E-01-1.40130E+03
 -1       558-1.50685E+02 1.19699E-01-1.40130E+03
 -1       559-1.51211E+02 7.82559E-02-1.47913E+03
 -1       561-1.51211E+02 7.82560E-02-1.47913E+03
 -1       562-1.51553E+02 4.46543E-02-1.55673E+03
 -1       564-1.51553E+02 4.46542E-02-1.55673E+03
 -1       565-1.51755E+02 2.19192E-02-1.63398E+03
 -1       567-1.51755E+02 2.19194E-02-1.63398E+03
 -1       568-1.51853E+02 4.84734E-03-1.71077E+03
 -1       570-1.51853E+02 4.84774E-03-1.71077E+03
 -1       571-1.51896E+02-3.34100E-03-1.74369E+03
 -1       573-1.51896E+02-3.34069E-03-1.74369E+03
 -1       574-1.28972E+05-2.90832E-07-3.35339E+04
 -1       576-1.28972E+05-5.82000E-07-3.64108E+04
 -1       577 1.28935E+05-2.25802E+03 3.49349E+04
 -1       579 1.28935E+05 2.25802E+03 3.49349E+04
 -1       588-1.14061E+05 5.64507E-07 1.85680E+04
 -1       590-1.14061E+05-7.93691E-07 2.02814E+04
 -1       591 1.13986E+05 1.34485E+03-1.95142E+04
 -1       593 1.13986E+05-1.34485E+03-1.95142E+04
 -1       602-1.09559E+05-5.86580E-08-1.00153E+04
 -1       604-1.09559E+05-1.49344E-06-9.28319E+03
 -1       605 1.09450E+05 5.74635E+02 9.48931E+03
 -1       607 1.09450E+05-5.74635E+02 9.48931E+03
 -1       616-1.22741E+05-2.08934E-07 7.05552E+03
 -1       618-1.22741E+05-9.88751E-07 4.47818E+03
 -1       619 1.22598E+05-2.02291E+03-6.01599E+03
 -1       621 1.22598E+05 2.02291E+03-6.01599E+03
 -1       630-1.15150E+05 8.33306E-08-3.17627E+03
 -1       632-1.15150E+05-2.13028E-07-1.51760E+03
 -1       633 1.14976E+05 1.30186E+03 1.99044E+03
 -1       635 1.14976E+05-1.30186E+03 1.99044E+03
 -1       644-1.18294E+05 1.94490E-07 3.53935E+03
 -1       646-1.18294E+05-3.01462E-07 1.67372E+03
 -1       647 1.18090E+05-1.46430E+03-3.08728E+03
 -1       649 1.18090E+05 1.46430E+03-3.08728E+03
 -1       658-1.15694E+05 3.86943E-08-2.41101E+02
 -1       660-1.15694E+05-2.12607E-07 2.86573E+02
 -1       661 1.15462E+05 4.14163E+02-6.43706E+02
 -1       663 1.15462E+05-4.14163E+02-6.43706E+02
 -1       672-1.15487E+05-1.48998E-07 2.61089E+03
 -1       674-1.15487E+05 6.97551E-07 1.51165E+03
 -1       675 1.15229E+05-8.62781E+02-2.83733E+03
 -1       677 1.15229E+05 8.62781E+02-2.83733E+03
 -1       686-1.13598E+05-3.72853E-07 1.28361E+03
 -1       688-1.13598E+05 1.13681E-06 1.16690E+03
 -1       689 1.13315E+05-9.16031E+01-2.17028E+03
 -1       691 1.13315E+05 9.16031E+01-2.17028E+03
 -1       700-1.12254E+05-7.34320E-07 2.70450E+03
 -1       702-1.12254E+05 1.25599E-06 1.87729E+03
 -1       703 1.11949E+05-6.49261E+02-3.41771E+03
 -1       705 1.11949E+05 6.49261E+02-3.41771E+03
 -1       714-1.10093E+05-1.05546E-06 2.36000E+03
 -1       716-1.10093E+05 9.10941E-07 1.91274E+03
 -1       717 1.09768E+05-3.51045E+02-3.45679E+03
 -1       719 1.09768E+05 3.51045E+02-3.45679E+03
 -1       728-1.07941E+05-2.21800E-07 3.22359E+03
 -1       730-1.07941E+05 7.20665E-07 2.43795E+03
 -1       731 1.07596E+05-6.16635E+02-4.35560E+03
 -1       733 1.07596E+05 6.16635E+02-4.35560E+03
 -1       742-1.05236E+05 7.38347E-07 3.31250E+03
 -1       744-1.05236E+05 9.00531E-07 2.65368E+03
 -1       745 1.04874E+05-5.17099E+02-4.72215E+03
 -1       747 1.04874E+05 5.17099E+02-4.72215E+03
 -1       756-1.02323E+05 3.20105E-07 3.95190E+03
 -1       758-1.02323E+05 8.97398E-07 3.10804E+03
 -1       759 1.01945E+05-6.62331E+02-5.49209E+03
 -1       761 1.01945E+05 6.62331E+02-5.49209E+03
 -1       770-9.89451E+04 1.15401E-07 4.24811E+03
 -1       772-9.89451E+04 4.87401E-07 3.41842E+03
 -1       773 9.85528E+04-6.51212E+02-6.02635E+03
 -1       775 9.85528E+04 6.51212E+02-6.02635E+03
 -1       784-9.52586E+04 6.39005E-09 4.79873E+03
 -1       786-9.52586E+04 2.41596E-07 3.84951E+03
 -1       787 9.48537E+04-7.45033E+02-6.75512E+03
 -1       789 9.48537E+04 7.45033E+02-6.75512E+03
 -1       798-9.11350E+04-4.61912E-07 5.20090E+03
 -1       800-9.11350E+04 4.96132E-07 4.21159E+03
 -1       801 9.07188E+04-7.76494E+02-7.38122E+03
 -1       803 9.07188E+04 7.76494E+02-7.38122E+03
 -1       812-8.66499E+04-1.10706E-06 5.71875E+03
 -1       814-8.66499E+04-5.57527E-08 4.63914E+03
 -1       815 8.62239E+04-8.47365E+02-8.10310E+03
 -1       817 8.62239E+04 8.47365E+02-8.10310E+03
 -1       826-8.17332E+04 4.02840E-07 6.17802E+03
 -1       828-8.17332E+04-1.17659E-06 5.02948E+03
 -1       829 8.12987E+04-9.01472E+02-8.78144E+03
 -1       831 8.12987E+04 9.01472E+02-8.78144E+03
 -1       840-7.64265E+04 2.04383E-06 6.68518E+03
 -1       842-7.64265E+04-2.55009E-06 5.46053E+03
 -1       843 7.59849E+04-9.61205E+02-9.50765E+03
 -1       845 7.59849E+04 9.61205E+02-9.50765E+03
 -1       854-7.06856E+04 1.59379E-06 7.17626E+03
 -1       856-7.06856E+04-3.01243E-06 5.86503E+03
 -1       857 7.02379E+04-1.02916E+03-1.02154E+04
 -1       859 7.02379E+04 1.02916E+03-1.02154E+04
 -1       868-6.45415E+04 2.40565E-06 7.68018E+03
 -1       870-6.45415E+04-1.83656E-06 6.30135E+03
 -1       871 6.40889E+04-1.08222E+03-1.09475E+04
 -1       873 6.40889E+04 1.08222E+03-1.09475E+04
 -1       882-5.79576E+04 2.81316E-06 8.18794E+03
 -1       884-5.79576E+04-2.10364E-06 6.70959E+03
 -1       885 5.75011E+04-1.16033E+03-1.16690E+04
 -1       887 5.75011E+04 1.16033E+03-1.16690E+04
 -1       896-5.09649E+04 1.64228E-06 8.69238E+03
 -1       898-5.09649E+04-2.27559E-06 7.15358E+03
 -1       899 5.05054E+04-1.20778E+03-1.24075E+04
 -1       901 5.05054E+04 1.20778E+03-1.24075E+04
 -1       910-4.35428E+04 1.42609E-06 9.20124E+03
 -1       912-4.35428E+04-2.88699E-06 7.54937E+03
 -1       913 4.30811E+04-1.29653E+03-1.31245E+04
 -1       915 4.30811E+04 1.29653E+03-1.31245E+04
 -1       924-3.56888E+04 3.28820E-06 9.71900E+03
 -1       926-3.56888E+04-2.80660E-06 8.02618E+03
 -1       927 3.52255E+04-1.32866E+03-1.38863E+04
 -1       929 3.52255E+04 1.32866E+03-1.38863E+04
 -1       938-2.74652E+04 4.35306E-06 1.01904E+04
 -1       940-2.74652E+04-3.70621E-06 8.33942E+03
 -1       941 2.70009E+04-1.45282E+03-1.45424E+04
 -1       943 2.70009E+04 1.45282E+03-1.45424E+04
 -1       952-1.89900E+04 4.01268E-06 1.08179E+04
 -1       954-1.89900E+04-5.53995E-06 8.97989E+03
 -1       955 1.85252E+04-1.44265E+03-1.54393E+04
 -1       957 1.85252E+04 1.44265E+03-1.54393E+04
 -1       966-1.05782E+04 4.76482E-06 1.09276E+04
 -1       968-1.05782E+04-4.24838E-06 9.01854E+03
 -1       969 1.01132E+04-1.49841E+03-1.57752E+04
 -1       971 1.01132E+04 1.49841E+03-1.57752E+04
 -1       980 6.71347E+05-7.09530E+04 8.47316E+03
 -1       982 5.58569E+05-5.09891E+04 8.47316E+03
 -1       983-1.51896E+02 3.34085E-03-1.74369E+03
 -1       985-1.51896E+02 3.34103E-03-1.74369E+03
 -1       986-1.21684E+01-2.14173E+00-1.10668E+01
 -1       988-1.21684E+01-2.14173E+00-1.10668E+01
 -1       989-2.40367E+01-2.52149E+00-2.68123E+01
 -1       991-2.40367E+01-2.52149E+00-2.68123E+01
 -1       992-3.54667E+01-2.24228E+00-4.78233E+01
 -1       994-3.54667E+01-2.24228E+00-4.78233E+01
 -1       995-4.63468E+01-2.13687E+00-7.42160E+01
 -1       997-4.63468E+01-2.13687E+00-7.42160E+01
 -1       998-5.66227E+01-2.02479E+00-1.05976E+02
 -1      1000-5.66227E+01-2.02479E+00-1.05976E+02
 -1      1001-6.63104E+01-1.90049E+00-1.42680E+02
 -1      1003-6.63104E+01-1.90049E+00-1.42680E+02
 -1      1004-7.54113E+01-1.78268E+00-1.84084E+02
 -1      1006-7.54113E+01-1.78268E+00-1.84084E+02
 -1      1007-8.39271E+01-1.66447E+00-2.29860E+02
 -1      1009-8.39271E+01-1.66447E+00-2.29860E+02
 -1      1010-9.18645E+01-1.54756E+00-2.79717E+02
 -1      1012-9.18645E+01-1.54756E+00-2.79717E+02
 -1      1013-9.92296E+01-1.43222E+00-3.33350E+02
 -1      1015-9.92296E+01-1.43222E+00-3.33350E+02
 -1      1016-1.06031E+02-1.31858E+00-3.90463E+02
 -1      1018-1.06031E+02-1.31858E+00-3.90463E+02
 -1      1019-1.12278E+02-1.20709E+00-4.50759E+02
 -1      1021-1.12278E+02-1.20709E+00-4.50759E+02
 -1      1022-1.17981E+02-1.09801E+00-5.13946E+02
 -1      1024-1.17981E+02-1.09801E+00-5.13946E+02
 -1      1025-1.23155E+02-9.91738E-01-5.79739E+02
 -1      1027-1.23155E+02-9.91738E-01-5.79739E+02
 -1      1028-1.27813E+02-8.88617E-01-6.47856E+02
 -1      1030-1.27813E+02-8.88617E-01-6.47856E+02
 -1      1031-1.31973E+02-7.89049E-01-7.18024E+02
 -1      1033-1.31973E+02-7.89049E-01-7.18024E+02
 -1      1034-1.35652E+02-6.93410E-01-7.89976E+02
 -1      1036-1.35652E+02-6.93410E-01-7.89976E+02
 -1      1037-1.38872E+02-6.02112E-01-8.63455E+02
 -1      1039-1.38872E+02-6.02112E-01-8.63455E+02
 -1      1040-1.41654E+02-5.15559E-01-9.38215E+02
 -1      1042-1.41654E+02-5.15559E-01-9.38215E+02
 -1      1043-1.44024E+02-4.34174E-01-1.01402E+03
 -1      1045-1.44024E+02-4.34174E-01-1.01402E+03
 -1      1046-1.46008E+02-3.58376E-01-1.09064E+03
 -1      1048-1.46008E+02-3.58376E-01-1.09064E+03
 -1      1049-1.47634E+02-2.88593E-01-1.16787E+03
 -1      1051-1.47634E+02-2.88593E-01-1.16787E+03
 -1      1052-1.48933E+02-2.25264E-01-1.24551E+03
 -1      1054-1.48933E+02-2.25264E-01-1.24551E+03
 -1      1055-1.49939E+02-1.68782E-01-1.32338E+03
 -1      1057-1.49939E+02-1.68782E-01-1.32338E+03
 -1      1058-1.50685E+02-1.19699E-01-1.40130E+03
 -1      1060-1.50685E+02-1.19699E-01-1.40130E+03
 -1      1061-1.51211E+02-7.82561E-02-1.47913E+03
 -1      1063-1.51211E+02-7.82564E-02-1.47913E+03
 -1      1064-1.51553E+02-4.46545E-02-1.55673E+03
 -1      1066-1.51553E+02-4.46546E-02-1.55673E+03
 -1      1067-1.51755E+02-2.19194E-02-1.63398E+03
 -1      1069-1.51755E+02-2.19193E-02-1.63398E+03
 -1      1070-1.51853E+02-4.84766E-03-1.71077E+03
 -1      1072-1.51853E+02-4.84780E-03-1.71077E+03
 -1      1073 6.71347E+05 7.09530E+04 8.47316E+03
 -1      1075 5.58569E+05 5.09891E+04 8.47316E+03
 -1      1076 4.18948E+05-1.09847E-06 8.17884E+04
 -1      1078 4.18948E+05-9.97267E-07 8.17884E+04
 -1      1079-2.50895E-06-7.26307E-07 7.03109E+04
 -1      1081 2.39041E-06-6.77501E-07 7.03109E+04
 -1      1082-4.18948E+05-6.90060E-08 8.17884E+04
 -1      1084-4.18948E+05-4.50319E-08 8.17884E+04
 -1      1085-1.28935E+05 2.25802E+03 3.49349E+04
 -1      1087-1.28935E+05-2.25802E+03 3.49349E+04
 -1      1088 1.28972E+05 5.11345E-07-3.35339E+04
 -1      1090 1.28972E+05 6.23722E-07-3.64108E+04
 -1      1099-1.13986E+05-1.34485E+03-1.95142E+04
 -1      1101-1.13986E+05 1.34485E+03-1.95142E+04
 -1      1102 1.14061E+05 6.12359E-07 1.85680E+04
 -1      1104 1.14061E+05 2.04406E-07 2.02814E+04
 -1      1113-1.09450E+05-5.74635E+02 9.48931E+03
 -1      1115-1.09450E+05 5.74635E+02 9.48931E+03
 -1      1116 1.09559E+05 1.63226E-07-1.00153E+04
 -1      1118 1.09559E+05-7.75376E-07-9.28319E+03
 -1      1127-1.22598E+05 2.02291E+03-6.01599E+03
 -1      1129-1.22598E+05-2.02291E+03-6.01599E+03
 -1      1130 1.22741E+05 7.55693E-08 7.05552E+03
 -1      1132 1.22741E+05-4.04810E-07 4.47818E+03
 -1      1141-1.14976E+05-1.30186E+03 1.99044E+03
 -1      1143-1.14976E+05 1.30186E+03 1.99044E+03
 -1      1144 1.15150E+05 7.38995E-08-3.17627E+03
 -1      1146 1.15150E+05 5.14566E-07-1.51760E+03
 -1      1155-1.18090E+05 1.46430E+03-3.08728E+03
 -1      1157-1.18090E+05-1.46430E+03-3.08728E+03
 -1      1158 1.18294E+05-3.30916E-07 3.53935E+03
 -1      1160 1.18294E+05 9.47642E-07 1.67372E+03
 -1      1169-1.15462E+05-4.14163E+02-6.43706E+02
 -1      1171-1.15462E+05 4.14163E+02-6.43706E+02
 -1      1172 1.15694E+05-6.03835E-07-2.41101E+02
 -1      1174 1.15694E+05 1.52578E-06 2.86573E+02
 -1      1183-1.15229E+05 8.62781E+02-2.83733E+03
 -1      1185-1.15229E+05-8.62781E+02-2.83733E+03
 -1      1186 1.15487E+05-6.65634E-07 2.61089E+03
 -1      1188 1.15487E+05 1.97063E-06 1.51165E+03
 -1      1197-1.13315E+05 9.16031E+01-2.17028E+03
 -1      1199-1.13315E+05-9.16031E+01-2.17028E+03
 -1      1200 1.13598E+05-1.18505E-06 1.28361E+03
 -1      1202 1.13598E+05 1.77499E-06 1.16690E+03
 -1      1211-1.11949E+05 6.49261E+02-3.41771E+03
 -1      1213-1.11949E+05-6.49261E+02-3.41771E+03
 -1      1214 1.12254E+05-1.83179E-06 2.70450E+03
 -1      1216 1.12254E+05 1.66412E-06 1.87729E+03
 -1      1225-1.09768E+05 3.51045E+02-3.45679E+03
 -1      1227-1.09768E+05-3.51045E+02-3.45679E+03
 -1      1228 1.10093E+05-2.11625E-06 2.36000E+03
 -1      1230 1.10093E+05 2.07538E-06 1.91274E+03
 -1      1239-1.07596E+05 6.16635E+02-4.35560E+03
 -1      1241-1.07596E+05-6.16635E+02-4.35560E+03
 -1      1242 1.07941E+05-2.05217E-06 3.22359E+03
 -1      1244 1.07941E+05 2.87213E-06 2.43795E+03
 -1      1253-1.04874E+05 5.17099E+02-4.72215E+03
 -1      1255-1.04874E+05-5.17099E+02-4.72215E+03
 -1      1256 1.05236E+05-2.21168E-06 3.31250E+03
 -1      1258 1.05236E+05 3.44690E-06 2.65368E+03
 -1      1267-1.01945E+05 6.62331E+02-5.49209E+03
 -1      1269-1.01945E+05-6.62331E+02-5.49209E+03
 -1      1270 1.02323E+05-2.85358E-06 3.95190E+03
 -1      1272 1.02323E+05 3.79070E-06 3.10804E+03
 -1      1281-9.85528E+04 6.51212E+02-6.02635E+03
 -1      1283-9.85528E+04-6.51212E+02-6.02635E+03
 -1      1284 9.89451E+04-2.62507E-06 4.24811E+03
 -1      1286 9.89451E+04 2.38068E-06 3.41842E+03
 -1      1295-9.48537E+04 7.45033E+02-6.75512E+03
 -1      1297-9.48537E+04-7.45033E+02-6.75512E+03
 -1      1298 9.52586E+04-1.88553E-06 4.79873E+03
 -1      1300 9.52586E+04 1.76319E-06 3.84951E+03
 -1      1309-9.07188E+04 7.76494E+02-7.38122E+03
 -1      1311-9.07188E+04-7.76494E+02-7.38122E+03
 -1      1312 9.11350E+04-1.66263E-06 5.20090E+03
 -1      1314 9.11350E+04 2.48716E-06 4.21159E+03
 -1      1323-8.62239E+04 8.47365E+02-8.10310E+03
 -1      1325-8.62239E+04-8.47365E+02-8.10310E+03
 -1      1326 8.66499E+04-1.72421E-06 5.71875E+03
 -1      1328 8.66499E+04 1.93486E-06 4.63914E+03
 -1      1337-8.12987E+04 9.01472E+02-8.78144E+03
 -1      1339-8.12987E+04-9.01472E+02-8.78144E+03
 -1      1340 8.17332E+04-4.94035E-07 6.17802E+03
 -1      1342 8.17332E+04 1.17557E-06 5.02948E+03
 -1      1351-7.59849E+04 9.61205E+02-9.50765E+03
 -1      1353-7.59849E+04-9.61205E+02-9.50765E+03
 -1      1354 7.64265E+04 4.58758E-08 6.68518E+03
 -1      1356 7.64265E+04 4.39730E-07 5.46053E+03
 -1      1365-7.02379E+04 1.02916E+03-1.02154E+04
 -1      1367-7.02379E+04-1.02916E+03-1.02154E+04
 -1      1368 7.06856E+04-1.22972E-06 7.17626E+03
 -1      1370 7.06856E+04 4.00306E-07 5.86503E+03
 -1      1379-6.40889E+04 1.08222E+03-1.09475E+04
 -1      1381-6.40889E+04-1.08222E+03-1.09475E+04
 -1      1382 6.45415E+04-6.26386E-07 7.68018E+03
 -1      1384 6.45415E+04 1.80838E-06 6.30135E+03
 -1      1393-5.75011E+04 1.16033E+03-1.16690E+04
 -1      1395-5.75011E+04-1.16033E+03-1.16690E+04
 -1      1396 5.79576E+04-4.28335E-08 8.18794E+03
 -1      1398 5.79576E+04 1.17658E-06 6.70959E+03
 -1      1407-5.05054E+04 1.20778E+03-1.24075E+04
 -1      1409-5.05054E+04-1.20778E+03-1.24075E+04
 -1      1410 5.09649E+04-1.38295E-06 8.69238E+03
 -1      1412 5.09649E+04 9.58176E-07 7.15358E+03
 -1      1421-4.30811E+04 1.29653E+03-1.31245E+04
 -1      1423-4.30811E+04-1.29653E+03-1.31245E+04
 -1      1424 4.35428E+04-2.46646E-06 9.20124E+03
 -1      1426 4.35428E+04 1.14679E-06 7.54937E+03
 -1      1435-3.52255E+04 1.32866E+03-1.38863E+04
 -1      1437-3.52255E+04-1.32866E+03-1.38863E+04
 -1      1438 3.56888E+04-1.86398E-06 9.71900E+03
 -1      1440 3.56888E+04 2.46142E-06 8.02618E+03
 -1      1449-2.70009E+04 1.45282E+03-1.45424E+04
 -1      1451-2.70009E+04-1.45282E+03-1.45424E+04
 -1      1452 2.74652E+04-2.14733E-06 1.01904E+04
 -1      1454 2.74652E+04 3.07992E-06 8.33942E+03
 -1      1463-1.85252E+04 1.44265E+03-1.54393E+04
 -1      1465-1.85252E+04-1.44265E+03-1.54393E+04
 -1      1466 1.89900E+04-2.69420E-06 1.08179E+04
 -1      1468 1.89900E+04 2.27014E-06 8.97989E+03
 -1      1477-1.01132E+04 1.49841E+03-1.57752E+04
 -1      1479-1.01132E+04-1.49841E+03-1.57752E+04
 -1      1480 1.05782E+04-1.93037E-06 1.09276E+04
 -1      1482 1.05782E+04 2.63003E-06 9.01854E+03
 -1      1491-1.07538E+02-8.07080E-08-2.45586E+03
 -1      1493-1.07538E+02-4.74456E-07-2.45586E+03
 -1      1494 1.12543E-07-1.02682E-06-2.45579E+03
 -1      1496 1.37749E-07 1.29418E-06-2.45579E+03
 -1      1497 1.07538E+02-1.92034E-06-2.45586E+03
 -1      1499 1.07538E+02 2.00902E-06-2.45586E+03
 -1      1500 1.21684E+01 2.14173E+00-1.10668E+01
 -1      1502 1.21684E+01 2.14173E+00-1.10668E+01
 -1      1503 2.40367E+01 2.52149E+00-2.68123E+01
 -1      1505 2.40367E+01 2.52149E+00-2.68123E+01
 -1      1506 3.54667E+01 2.24228E+00-4.78233E+01
 -1      1508 3.54667E+01 2.24228E+00-4.78233E+01
 -1      1509 4.63468E+01 2.13687E+00-7.42160E+01
 -1      1511 4.63468E+01 2.13687E+00-7.42160E+01
 -1      1512 5.66227E+01 2.02479E+00-1.05976E+02
 -1      1514 5.66227E+01 2.02479E+00-1.05976E+02
 -1      1515 6.63104E+01 1.90049E+00-1.42680E+02
 -1      1517 6.63104E+01 1.90049E+00-1.42680E+02
 -1      1518 7.54113E+01 1.78268E+00-1.84084E+02
 -1      1520 7.54113E+01 1.78268E+00-1.84084E+02
 -1      1521 8.39271E+01 1.66447E+00-2.29860E+02
 -1      1523 8.39271E+01 1.66447E+00-2.29860E+02
 -1      1524 9.18645E+01 1.54756E+00-2.79717E+02
 -1      1526 9.18645E+01 1.54756E+00-2.79717E+02
 -1      1527 9.92296E+01 1.43222E+00-3.33350E+02
 -1      1529 9.92296E+01 1.43222E+00-3.33350E+02
 -1      1530 1.06031E+02 1.31858E+00-3.90463E+02
 -1      1532 1.06031E+02 1.31858E+00-3.90463E+02
 -1      1533 1.12278E+02 1.20709E+00-4.50759E+02
 -1      1535 1.12278E+02 1.20709E+00-4.50759E+02
 -1      1536 1.17981E+02 1.09801E+00-5.13946E+02
 -1      1538 1.17981E+02 1.09801E+00-5.13946E+02
 -1      1539 1.23155E+02 9.91738E-01-5.79739E+02
 -1      1541 1.23155E+02 9.91738E-01-5.79739E+02
 -1      1542 1.27813E+02 8.88617E-01-6.47856E+02
 -1      1544 1.27813E+02 8.88617E-01-6.47856E+02
 -1      1545 1.31973E+02 7.89049E-01-7.18024E+02
 -1      1547 1.31973E+02 7.89049E-01-7.18024E+02
 -1      1548 1.35652E+02 6.93409E-01-7.89976E+02
 -1      1550 1.35652E+02 6.93410E-01-7.89976E+02
 -1      1551 1.38872E+02 6.02112E-01-8.63455E+02
 -1      1553 1.38872E+02 6.02112E-01-8.63455E+02
 -1      1554 1.41654E+02 5.15559E-01-9.38215E+02
 -1      1556 1.41654E+02 5.15559E-01-9.38215E+02
 -1      1557 1.44024E+02 4.34174E-01-1.01402E+03
 -1      1559 1.44024E+02 4.34174E-01-1.01402E+03
 -1      1560 1.46008E+02 3.58376E-01-1.09064E+03
 -1      1562 1.46008E+02 3.58376E-01-1.09064E+03
 -1      1563 1.47634E+02 2.88593E-01-1.16787E+03
 -1      1565 1.47634E+02 2.88592E-01-1.16787E+03
 -1      1566 1.48933E+02 2.25263E-01-1.24551E+03
 -1      1568 1.48933E+02 2.25264E-01-1.24551E+03
 -1      1569 1.49939E+02 1.68782E-01-1.32338E+03
 -1      1571 1.49939E+02 1.68782E-01-1.32338E+03
 -1      1572 1.50685E+02 1.19699E-01-1.40130E+03
 -1      1574 1.50685E+02 1.19699E-01-1.40130E+03
 -1      1575 1.51211E+02 7.82559E-02-1.47913E+03
 -1      1577 1.51211E+02 7.82558E-02-1.47913E+03
 -1      1578 1.51553E+02 4.46542E-02-1.55673E+03
 -1      1580 1.51553E+02 4.46544E-02-1.55673E+03
 -1      1581 1.51755E+02 2.19190E-02-1.63398E+03
 -1      1583 1.51755E+02 2.19198E-02-1.63398E+03
 -1      1584 1.51853E+02 4.84751E-03-1.71077E+03
 -1      1586 1.51853E+02 4.84803E-03-1.71077E+03
 -1      1587 1.51896E+02-3.34107E-03-1.74369E+03
 -1      1589 1.51896E+02-3.34085E-03-1.74369E+03
 -1      1590-6.71347E+05-7.09530E+04 8.47316E+03
 -1      1592-5.58569E+05-5.09891E+04 8.47316E+03
 -1      1593 1.51896E+02 3.34076E-03-1.74369E+03
 -1      1595 1.51896E+02 3.34102E-03-1.74369E+03
 -1      1596 1.21684E+01-2.14173E+00-1.10668E+01
 -1      1598 1.21684E+01-2.14173E+00-1.10668E+01
 -1      1599 2.40367E+01-2.52149E+00-2.68123E+01
 -1      1601 2.40367E+01-2.52149E+00-2.68123E+01
 -1      1602 3.54667E+01-2.24228E+00-4.78233E+01
 -1      1604 3.54667E+01-2.24228E+00-4.78233E+01
 -1      1605 4.63468E+01-2.13687E+00-7.42160E+01
 -1      1607 4.63468E+01-2.13687E+00-7.42160E+01
 -1      1608 5.66227E+01-2.02479E+00-1.05976E+02
 -1      1610 5.66227E+01-2.02479E+00-1.05976E+02
 -1      1611 6.63104E+01-1.90049E+00-1.42680E+02
 -1      1613 6.63104E+01-1.90049E+00-1.42680E+02
 -1      1614 7.54113E+01-1.78268E+00-1.84084E+02
 -1      1616 7.54113E+01-1.78268E+00-1.84084E+02
 -1      1617 8.39271E+01-1.66447E+00-2.29860E+02
 -1      1619 8.39271E+01-1.66447E+00-2.29860E+02
 -1      1620 9.18645E+01-1.54756E+00-2.79717E+02
 -1      1622 9.18645E+01-1.54756E+00-2.79717E+02
 -1      1623 9.92296E+01-1.43222E+00-3.33350E+02
 -1      1625 9.92296E+01-1.43222E+00-3.33350E+02
 -1      1626 1.06031E+02-1.31858E+00-3.90463E+02
 -1      1628 1.06031E+02-1.31858E+00-3.90463E+02
 -1      1629 1.12278E+02-1.20709E+00-4.50759E+02
 -1      1631 1.12278E+02-1.20709E+00-4.50759E+02
 -1      1632 1.17981E+02-1.09801E+00-5.13946E+02
 -1      1634 1.17981E+02-1.09801E+00-5.13946E+02
 -1      1635 1.23155E+02-9.91738E-01-5.79739E+02
 -1      1637 1.23155E+02-9.91738E-01-5.79739E+02
 -1      1638 1.27813E+02-8.88617E-01-6.47856E+02
 -1      1640 1.27813E+02-8.88617E-01-6.47856E+02
 -1      1641 1.31973E+02-7.89049E-01-7.18024E+02
 -1      1643 1.31973E+02-7.89049E-01-7.18024E+02
 -1      1644 1.35652E+02-6.93410E-01-7.89976E+02
 -1      1646 1.35652E+02-6.93410E-01-7.89976E+02
 -1      1647 1.38872E+02-6.02112E-01-8.63455E+02
 -1      1649 1.38872E+02-6.02112E-01-8.63455E+02
 -1      1650 1.41654E+02-5.15559E-01-9.38215E+02
 -1      1652 1.41654E+02-5.15559E-01-9.38215E+02
 -1      1653 1.44024E+02-4.34174E-01-1.01402E+03
 -1      1655 1.44024E+02-4.34174E-01-1.01402E+03
 -1      1656 1.46008E+02-3.58376E-01-1.09064E+03
 -1      1658 1.46008E+02-3.58377E-01-1.09064E+03
 -1      1659 1.47634E+02-2.88593E-01-1.16787E+03
 -1      1661 1.47634E+02-2.88593E-01-1.16787E+03
 -1      1662 1.48933E+02-2.25263E-01-1.24551E+03
 -1      1664 1.48933E+02-2.25264E-01-1.24551E+03
 -1      1665 1.49939E+02-1.68782E-01-1.32338E+03
 -1      1667 1.49939E+02-1.68782E-01-1.32338E+03
 -1      1668 1.50685E+02-1.19699E-01-1.40130E+03
 -1      1670 1.50685E+02-1.19699E-01-1.40130E+03
 -1      1671 1.51211E+02-7.82565E-02-1.47913E+03
 -1      1673 1.51211E+02-7.82558E-02-1.47913E+03
 -1      1674 1.51553E+02-4.46546E-02-1.55673E+03
 -1      1676 1.51553E+02-4.46541E-02-1.55673E+03
 -1      1677 1.51755E+02-2.19193E-02-1.63398E+03
 -1      1679 1.51755E+02-2.19195E-02-1.63398E+03
 -1      1680 1.51853E+02-4.84781E-03-1.71077E+03
 -1      1682 1.51853E+02-4.84766E-03-1.71077E+03
 -1      1683-6.71347E+05 7.09530E+04 8.47316E+03
 -1      1685-5.58569E+05 5.09891E+04 8.47316E+03
 -1      1686-2.44062E+01 2.84141E+00-2.23845E+01
 -1      1688-2.44062E+01 2.84141E+00-2.23845E+01
 -1      1689-4.83708E+01 3.37166E+00-5.35728E+01
 -1      1691-4.83708E+01 3.37166E+00-5.35728E+01
 -1      1692-7.13042E+01 2.99101E+00-9.52333E+01
 -1      1694-7.13042E+01 2.99101E+00-9.52333E+01
 -1      1695-9.30332E+01 2.84673E+00-1.47740E+02
 -1      1697-9.30332E+01 2.84673E+00-1.47740E+02
 -1      1698-1.13591E+02 2.70123E+00-2.10945E+02
 -1      1700-1.13591E+02 2.70123E+00-2.10945E+02
 -1      1701-1.32966E+02 2.53314E+00-2.84038E+02
 -1      1703-1.32966E+02 2.53314E+00-2.84038E+02
 -1      1704-1.51164E+02 2.37717E+00-3.66513E+02
 -1      1706-1.51164E+02 2.37717E+00-3.66513E+02
 -1      1707-1.68193E+02 2.21893E+00-4.57715E+02
 -1      1709-1.68193E+02 2.21893E+00-4.57715E+02
 -1      1710-1.84063E+02 2.06334E+00-5.57062E+02
 -1      1712-1.84063E+02 2.06334E+00-5.57062E+02
 -1      1713-1.98789E+02 1.90932E+00-6.63942E+02
 -1      1715-1.98789E+02 1.90932E+00-6.63942E+02
 -1      1716-2.12385E+02 1.75787E+00-7.77764E+02
 -1      1718-2.12385E+02 1.75787E+00-7.77764E+02
 -1      1719-2.24872E+02 1.60911E+00-8.97935E+02
 -1      1721-2.24872E+02 1.60911E+00-8.97935E+02
 -1      1722-2.36272E+02 1.46366E+00-1.02387E+03
 -1      1724-2.36272E+02 1.46366E+00-1.02387E+03
 -1      1725-2.46610E+02 1.32190E+00-1.15501E+03
 -1      1727-2.46610E+02 1.32190E+00-1.15501E+03
 -1      1728-2.55917E+02 1.18437E+00-1.29078E+03
 -1      1730-2.55917E+02 1.18437E+00-1.29078E+03
 -1      1731-2.64225E+02 1.05155E+00-1.43065E+03
 -1      1733-2.64225E+02 1.05155E+00-1.43065E+03
 -1      1734-2.71572E+02 9.23985E-01-1.57407E+03
 -1      1736-2.71572E+02 9.23985E-01-1.57407E+03
 -1      1737-2.77998E+02 8.02199E-01-1.72055E+03
 -1      1739-2.77998E+02 8.02199E-01-1.72055E+03
 -1      1740-2.83549E+02 6.86743E-01-1.86958E+03
 -1      1742-2.83549E+02 6.86743E-01-1.86958E+03
 -1      1743-2.88273E+02 5.78174E-01-2.02070E+03
 -1      1745-2.88273E+02 5.78174E-01-2.02070E+03
 -1      1746-2.92223E+02 4.77055E-01-2.17347E+03
 -1      1748-2.92223E+02 4.77055E-01-2.17347E+03
 -1      1749-2.95457E+02 3.83957E-01-2.32746E+03
 -1      1751-2.95457E+02 3.83957E-01-2.32746E+03
 -1      1752-2.98036E+02 2.99458E-01-2.48229E+03
 -1      1754-2.98036E+02 2.99458E-01-2.48229E+03
 -1      1755-3.00027E+02 2.24099E-01-2.63759E+03
 -1      1757-3.00027E+02 2.24100E-01-2.63759E+03
 -1      1758-3.01498E+02 1.58592E-01-2.79304E+03
 -1      1760-3.01498E+02 1.58592E-01-2.79304E+03
 -1      1761-3.02526E+02 1.03301E-01-2.94833E+03
 -1      1763-3.02526E+02 1.03301E-01-2.94833E+03
 -1      1764-3.03187E+02 5.83692E-02-3.10322E+03
 -1      1766-3.03187E+02 5.83691E-02-3.10322E+03
 -1      1767-3.03565E+02 2.82495E-02-3.25746E+03
 -1      1769-3.03565E+02 2.82494E-02-3.25746E+03
 -1      1770-3.03743E+02 5.63284E-03-3.41089E+03
 -1      1772-3.03743E+02 5.63300E-03-3.41089E+03
 -1      1773-2.44062E+01-2.84141E+00-2.23845E+01
 -1      1775-2.44062E+01-2.84141E+00-2.23845E+01
 -1      1776-4.83708E+01-3.37166E+00-5.35728E+01
 -1      1778-4.83708E+01-3.37166E+00-5.35728E+01
 -1      1779-7.13042E+01-2.99101E+00-9.52333E+01
 -1      1781-7.13042E+01-2.99101E+00-9.52333E+01
 -1      1782-9.30332E+01-2.84673E+00-1.47740E+02
 -1      1784-9.30332E+01-2.84673E+00-1.47740E+02
 -1      1785-1.13591E+02-2.70123E+00-2.10945E+02
 -1      1787-1.13591E+02-2.70123E+00-2.10945E+02
 -1      1788-1.32966E+02-2.53314E+00-2.84038E+02
 -1      1790-1.32966E+02-2.53314E+00-2.84038E+02
 -1      1791-1.51164E+02-2.37717E+00-3.66513E+02
 -1      1793-1.51164E+02-2.37717E+00-3.66513E+02
 -1      1794-1.68193E+02-2.21893E+00-4.57715E+02
 -1      1796-1.68193E+02-2.21893E+00-4.57715E+02
 -1      1797-1.84063E+02-2.06334E+00-5.57062E+02
 -1      1799-1.84063E+02-2.06334E+00-5.57062E+02
 -1      1800-1.98789E+02-1.90932E+00-6.63942E+02
 -1      1802-1.98789E+02-1.90932E+00-6.63942E+02
 -1      1803-2.12385E+02-1.75787E+00-7.77764E+02
 -1      1805-2.12385E+02-1.75787E+00-7.77764E+02
 -1      1806-2.24872E+02-1.60911E+00-8.97935E+02
 -1      1808-2.24872E+02-1.60911E+00-8.97935E+02
 -1      1809-2.36272E+02-1.46366E+00-1.02387E+03
 -1      1811-2.36272E+02-1.46366E+00-1.02387E+03
 -1      1812-2.46610E+02-1.32190E+00-1.15501E+03
 -1      1814-2.46610E+02-1.32190E+00-1.15501E+03
 -1      1815-2.55917E+02-1.18437E+00-1.29078E+03
 -1      1817-2.55917E+02-1.18437E+00-1.29078E+03
 -1      1818-2.64225E+02-1.05155E+00-1.43065E+03
 -1      1820-2.64225E+02-1.05155E+00-1.43065E+03
 -1      1821-2.71572E+02-9.23985E-01-1.57407E+03
 -1      1823-2.71572E+02-9.23985E-01-1.57407E+03
 -1      1824-2.77998E+02-8.02198E-01-1.72055E+03
 -1      1826-2.77998E+02-8.02198E-01-1.72055E+03
 -1      1827-2.83549E+02-6.86743E-01-1.86958E+03
 -1      1829-2.83549E+02-6.86743E-01-1.86958E+03
 -1      1830-2.88273E+02-5.78174E-01-2.02070E+03
 -1      1832-2.88273E+02-5.78174E-01-2.02070E+03
 -1      1833-2.92223E+02-4.77055E-01-2.17347E+03
 -1      1835-2.92223E+02-4.77055E-01-2.17347E+03
 -1      1836-2.95457E+02-3.83956E-01-2.32746E+03
 -1      1838-2.95457E+02-3.83957E-01-2.32746E+03
 -1      1839-2.98036E+02-2.99458E-01-2.48229E+03
 -1      1841-2.98036E+02-2.99458E-01-2.48229E+03
 -1      1842-3.00027E+02-2.24100E-01-2.63759E+03
 -1      1844-3.00027E+02-2.24100E-01-2.63759E+03
 -1      1845-3.01498E+02-1.58592E-01-2.79304E+03
 -1      1847-3.01498E+02-1.58592E-01-2.79304E+03
 -1      1848-3.02526E+02-1.03300E-01-2.94833E+03
 -1      1850-3.02526E+02-1.03300E-01-2.94833E+03
 -1      1851-3.03187E+02-5.83689E-02-3.10322E+03
 -1      1853-3.03187E+02-5.83690E-02-3.10322E+03
 -1      1854-3.03565E+02-2.82492E-02-3.25746E+03
 -1      1856-3.03565E+02-2.82492E-02-3.25746E+03
 -1      1857-3.03743E+02-5.63259E-03-3.41089E+03
 -1      1859-3.03743E+02-5.63245E-03-3.41089E+03
 -1      1860-1.70070E+01 2.22386E-07-2.79303E+01
 -1      1862-1.70070E+01 1.78416E-07-2.79303E+01
 -1      1863-3.40569E+01 2.81169E-07-6.94753E+01
 -1      1865-3.40569E+01 5.31099E-08-6.94753E+01
 -1      1866-5.04907E+01-1.12010E-07-1.27832E+02
 -1      1868-5.04907E+01-2.02590E-07-1.27832E+02
 -1      1869-6.59381E+01 2.84619E-08-2.01938E+02
 -1      1871-6.59381E+01-1.96697E-07-2.01938E+02
 -1      1872-8.05004E+01-3.09844E-07-2.90977E+02
 -1      1874-8.05004E+01 5.11344E-07-2.90977E+02
 -1      1875-9.42200E+01-6.31365E-07-3.94057E+02
 -1      1877-9.42200E+01 8.39083E-07-3.94057E+02
 -1      1878-1.07100E+02-9.55392E-08-5.10338E+02
 -1      1880-1.07100E+02-2.91106E-07-5.10338E+02
 -1      1881-1.19152E+02 5.38010E-07-6.38948E+02
 -1      1883-1.19152E+02 6.04837E-08-6.38948E+02
 -1      1884-1.30384E+02 1.12051E-07-7.79033E+02
 -1      1886-1.30384E+02-2.99755E-08-7.79033E+02
 -1      1887-1.40805E+02 7.29252E-07-9.29741E+02
 -1      1889-1.40805E+02 2.48786E-07-9.29741E+02
 -1      1890-1.50427E+02 1.30095E-09-1.09023E+03
 -1      1892-1.50427E+02-1.19462E-07-1.09023E+03
 -1      1893-1.59263E+02 1.53347E-06-1.25966E+03
 -1      1895-1.59263E+02-1.55177E-06-1.25966E+03
 -1      1896-1.67330E+02 1.62188E-06-1.43721E+03
 -1      1898-1.67330E+02-8.88748E-07-1.43721E+03
 -1      1899-1.74645E+02 2.16237E-07-1.62208E+03
 -1      1901-1.74645E+02 3.55632E-07-1.62208E+03
 -1      1902-1.81229E+02-7.26223E-07-1.81347E+03
 -1      1904-1.81229E+02 1.53883E-06-1.81347E+03
 -1      1905-1.87106E+02-1.37996E-06-2.01063E+03
 -1      1907-1.87106E+02 1.48655E-06-2.01063E+03
 -1      1908-1.92303E+02-1.08111E-06-2.21279E+03
 -1      1910-1.92303E+02 1.50986E-06-2.21279E+03
 -1      1911-1.96847E+02-1.01761E-06-2.41926E+03
 -1      1913-1.96847E+02 1.83730E-07-2.41926E+03
 -1      1914-2.00771E+02-1.12943E-06-2.62932E+03
 -1      1916-2.00771E+02 1.26037E-07-2.62932E+03
 -1      1917-2.04110E+02-1.17116E-08-2.84233E+03
 -1      1919-2.04110E+02-8.33084E-07-2.84233E+03
 -1      1920-2.06901E+02-8.38166E-07-3.05767E+03
 -1      1922-2.06901E+02-1.29228E-06-3.05767E+03
 -1      1923-2.09184E+02-9.01184E-07-3.27475E+03
 -1      1925-2.09184E+02 1.33032E-06-3.27475E+03
 -1      1926-2.11004E+02-5.33667E-07-3.49303E+03
 -1      1928-2.11004E+02 3.16917E-07-3.49303E+03
 -1      1929-2.12406E+02 4.19208E-06-3.71201E+03
 -1      1931-2.12406E+02-3.18166E-06-3.71201E+03
 -1      1932-2.13441E+02 2.04901E-06-3.93124E+03
 -1      1934-2.13441E+02-2.30086E-06-3.93124E+03
 -1      1935-2.14162E+02 8.75797E-07-4.15033E+03
 -1      1937-2.14162E+02-6.77388E-07-4.15033E+03
 -1      1938-2.14624E+02-2.02371E-08-4.36893E+03
 -1      1940-2.14624E+02-5.66667E-07-4.36893E+03
 -1      1941-2.14890E+02-1.92375E-06-4.58675E+03
 -1      1943-2.14890E+02-7.11742E-08-4.58675E+03
 -1      1944-2.15029E+02-1.40833E-06-4.80357E+03
 -1      1946-2.15029E+02 1.63563E-06-4.80357E+03
 -1      1947-1.10670E-07 1.92821E-07-2.61074E+01
 -1      1949-9.99402E-08 1.69111E-07-2.61074E+01
 -1      1950-3.85393E-08 1.15580E-07-6.69471E+01
 -1      1952-1.76893E-08 4.68640E-08-6.69471E+01
 -1      1953-1.23252E-08-7.25410E-08-1.25407E+02
 -1      1955-6.63593E-09-2.65727E-07-1.25407E+02
 -1      1956 1.57998E-08-1.14872E-07-1.99680E+02
 -1      1958-2.72376E-08-1.95059E-07-1.99680E+02
 -1      1959 7.45915E-08-5.89695E-07-2.88843E+02
 -1      1961 6.37535E-08 3.80335E-07-2.88843E+02
 -1      1962 7.90470E-08-6.85575E-07-3.92052E+02
 -1      1964 9.16324E-08 6.60076E-07-3.92052E+02
 -1      1965 1.44189E-07 3.99757E-07-5.08454E+02
 -1      1967 1.41509E-07 1.42574E-07-5.08454E+02
 -1      1968 2.05340E-07 3.66854E-09-6.37184E+02
 -1      1970 1.84520E-07-2.62244E-08-6.37184E+02
 -1      1971 2.00051E-07-3.20029E-07-7.77388E+02
 -1      1973 8.90883E-08 9.88251E-07-7.77388E+02
 -1      1974 2.00840E-07 1.61389E-07-9.28212E+02
 -1      1976 1.40403E-07 1.03858E-07-9.28212E+02
 -1      1977 2.08296E-07-2.01253E-07-1.08881E+03
 -1      1979 1.76828E-07-5.21640E-07-1.08881E+03
 -1      1980 1.26578E-07 8.57306E-07-1.25836E+03
 -1      1982 4.15835E-08-8.18063E-07-1.25836E+03
 -1      1983-3.19643E-08 1.36286E-06-1.43602E+03
 -1      1985-3.73974E-08-1.13249E-07-1.43602E+03
 -1      1986-1.50746E-07 5.24430E-07-1.62099E+03
 -1      1988-1.00355E-07-4.18511E-08-1.62099E+03
 -1      1989-2.37277E-07 5.27226E-07-1.81249E+03
 -1      1991-2.41757E-07-2.64984E-07-1.81249E+03
 -1      1992-3.19437E-07 1.02268E-06-2.00974E+03
 -1      1994-2.22374E-07-4.67378E-07-2.00974E+03
 -1      1995-1.38326E-07-3.96826E-07-2.21200E+03
 -1      1997-1.30124E-07 3.88337E-07-2.21200E+03
 -1      1998 6.75329E-08-1.44973E-06-2.41855E+03
 -1      2000-1.11370E-08 1.38158E-06-2.41855E+03
 -1      2001-3.73778E-08-9.92816E-07-2.62870E+03
 -1      2003-4.33016E-08 1.31172E-06-2.62870E+03
 -1      2004-1.65082E-07 1.83647E-07-2.84180E+03
 -1      2006-6.99901E-08 9.67737E-07-2.84180E+03
 -1      2007-7.00606E-08 1.36662E-06-3.05721E+03
 -1      2009 1.52799E-08-1.38559E-06-3.05721E+03
 -1      2010-1.54901E-08 4.11350E-07-3.27435E+03
 -1      2012 1.14610E-08-4.31968E-07-3.27435E+03
 -1      2013 2.32587E-08 1.57716E-06-3.49269E+03
 -1      2015 4.75418E-08 8.80033E-07-3.49269E+03
 -1      2016 1.83969E-07 1.09424E-06-3.71172E+03
 -1      2018 1.15904E-07-1.48145E-06-3.71172E+03
 -1      2019 1.71353E-07 2.75186E-06-3.93100E+03
 -1      2021 1.33048E-07-3.54076E-06-3.93100E+03
 -1      2022 1.65582E-07 1.99782E-06-4.15013E+03
 -1      2024 2.16820E-07-8.64800E-07-4.15013E+03
 -1      2025 1.41870E-07 1.19928E-06-4.36875E+03
 -1      2027 3.54149E-08-1.51467E-06-4.36875E+03
 -1      2028 1.58870E-08-9.13936E-07-4.58659E+03
 -1      2030-1.98178E-09-1.68522E-07-4.58659E+03
 -1      2031 8.66218E-08-1.85891E-06-4.80343E+03
 -1      2033 2.82645E-08 4.02796E-06-4.80343E+03
 -1      2034 1.70070E+01-1.15407E-08-2.79303E+01
 -1      2036 1.70070E+01 3.77305E-08-2.79303E+01
 -1      2037 3.40569E+01-8.68463E-08-6.94753E+01
 -1      2039 3.40569E+01-8.98640E-08-6.94753E+01
 -1      2040 5.04907E+01-1.28169E-07-1.27832E+02
 -1      2042 5.04907E+01-4.22350E-07-1.27832E+02
 -1      2043 6.59381E+01-1.09828E-07-2.01938E+02
 -1      2045 6.59381E+01-2.17058E-07-2.01938E+02
 -1      2046 8.05004E+01-2.09321E-07-2.90977E+02
 -1      2048 8.05004E+01 3.13837E-07-2.90977E+02
 -1      2049 9.42200E+01 5.56278E-08-3.94057E+02
 -1      2051 9.42200E+01 6.79314E-08-3.94057E+02
 -1      2052 1.07100E+02 8.16251E-07-5.10339E+02
 -1      2054 1.07100E+02-8.38839E-07-5.10338E+02
 -1      2055 1.19152E+02 4.99197E-07-6.38948E+02
 -1      2057 1.19152E+02 1.86969E-07-6.38948E+02
 -1      2058 1.30384E+02-1.35667E-06-7.79033E+02
 -1      2060 1.30384E+02 1.36839E-06-7.79033E+02
 -1      2061 1.40805E+02-1.29008E-06-9.29741E+02
 -1      2063 1.40805E+02 1.40842E-06-9.29741E+02
 -1      2064 1.50427E+02 9.57898E-08-1.09023E+03
 -1      2066 1.50427E+02 2.64957E-07-1.09023E+03
 -1      2067 1.59263E+02 5.11897E-07-1.25966E+03
 -1      2069 1.59263E+02 1.08308E-07-1.25966E+03
 -1      2070 1.67330E+02-3.89359E-07-1.43721E+03
 -1      2072 1.67330E+02 3.03577E-07-1.43721E+03
 -1      2073 1.74645E+02-6.14690E-08-1.62208E+03
 -1      2075 1.74645E+02 1.05243E-06-1.62208E+03
 -1      2076 1.81229E+02 6.18098E-08-1.81347E+03
 -1      2078 1.81229E+02-6.73606E-07-1.81347E+03
 -1      2079 1.87106E+02 7.50117E-07-2.01063E+03
 -1      2081 1.87106E+02-8.92931E-07-2.01063E+03
 -1      2082 1.92303E+02-1.02825E-08-2.21279E+03
 -1      2084 1.92303E+02 2.30068E-07-2.21279E+03
 -1      2085 1.96847E+02-6.04070E-07-2.41926E+03
 -1      2087 1.96847E+02 1.16044E-06-2.41926E+03
 -1      2088 2.00771E+02-9.04395E-08-2.62932E+03
 -1      2090 2.00771E+02 4.81318E-07-2.62932E+03
 -1      2091 2.04110E+02 4.46460E-07-2.84233E+03
 -1      2093 2.04110E+02 3.29047E-07-2.84233E+03
 -1      2094 2.06901E+02-3.41298E-07-3.05767E+03
 -1      2096 2.06901E+02-1.35458E-07-3.05767E+03
 -1      2097 2.09184E+02 1.56878E-06-3.27475E+03
 -1      2099 2.09184E+02 2.20709E-07-3.27475E+03
 -1      2100 2.11004E+02-1.34991E-07-3.49303E+03
 -1      2102 2.11004E+02-3.94089E-07-3.49303E+03
 -1      2103 2.12406E+02-7.20528E-07-3.71201E+03
 -1      2105 2.12406E+02-3.75835E-07-3.71201E+03
 -1      2106 2.13441E+02-2.73153E-07-3.93124E+03
 -1      2108 2.13441E+02-4.67991E-07-3.93124E+03
 -1      2109 2.14162E+02 1.70934E-06-4.15033E+03
 -1      2111 2.14162E+02-1.28687E-06-4.15033E+03
 -1      2112 2.14624E+02 3.70168E-06-4.36893E+03
 -1      2114 2.14624E+02-1.78069E-06-4.36893E+03
 -1      2115 2.14890E+02 1.03550E-06-4.58675E+03
 -1      2117 2.14890E+02-6.60617E-07-4.58675E+03
 -1      2118 2.15029E+02-3.10615E-06-4.80357E+03
 -1      2120 2.15029E+02 2.19433E-06-4.80357E+03
 -1      2121 2.44062E+01 2.84141E+00-2.23845E+01
 -1      2123 2.44062E+01 2.84141E+00-2.23845E+01
 -1      2124 4.83708E+01 3.37167E+00-5.35728E+01
 -1      2126 4.83708E+01 3.37166E+00-5.35728E+01
 -1      2127 7.13042E+01 2.99101E+00-9.52333E+01
 -1      2129 7.13042E+01 2.99101E+00-9.52333E+01
 -1      2130 9.30332E+01 2.84673E+00-1.47740E+02
 -1      2132 9.30332E+01 2.84673E+00-1.47740E+02
 -1      2133 1.13591E+02 2.70123E+00-2.10945E+02
 -1      2135 1.13591E+02 2.70123E+00-2.10945E+02
 -1      2136 1.32966E+02 2.53314E+00-2.84038E+02
 -1      2138 1.32966E+02 2.53314E+00-2.84038E+02
 -1      2139 1.51164E+02 2.37717E+00-3.66513E+02
 -1      2141 1.51164E+02 2.37717E+00-3.66513E+02
 -1      2142 1.68193E+02 2.21893E+00-4.57715E+02
 -1      2144 1.68193E+02 2.21893E+00-4.57715E+02
 -1      2145 1.84063E+02 2.06334E+00-5.57062E+02
 -1      2147 1.84063E+02 2.06334E+00-5.57062E+02
 -1      2148 1.98789E+02 1.90932E+00-6.63942E+02
 -1      2150 1.98789E+02 1.90932E+00-6.63942E+02
 -1      2151 2.12385E+02 1.75787E+00-7.77764E+02
 -1      2153 2.12385E+02 1.75787E+00-7.77764E+02
 -1      2154 2.24872E+02 1.60911E+00-8.97935E+02
 -1      2156 2.24872E+02 1.60911E+00-8.97935E+02
 -1      2157 2.36272E+02 1.46366E+00-1.02387E+03
 -1      2159 2.36272E+02 1.46366E+00-1.02387E+03
 -1      2160 2.46610E+02 1.32190E+00-1.15501E+03
 -1      2162 2.46610E+02 1.32190E+00-1.15501E+03
 -1      2163 2.55917E+02 1.18437E+00-1.29078E+03
 -1      2165 2.55917E+02 1.18437E+00-1.29078E+03
 -1      2166 2.64225E+02 1.05155E+00-1.43065E+03
 -1      2168 2.64225E+02 1.05155E+00-1.43065E+03
 -1      2169 2.71572E+02 9.23985E-01-1.57407E+03
 -1      2171 2.71572E+02 9.23985E-01-1.57407E+03
 -1      2172 2.77998E+02 8.02198E-01-1.72055E+03
 -1      2174 2.77998E+02 8.02199E-01-1.72055E+03
 -1      2175 2.83549E+02 6.86743E-01-1.86958E+03
 -1      2177 2.83549E+02 6.86743E-01-1.86958E+03
 -1      2178 2.88273E+02 5.78174E-01-2.02070E+03
 -1      2180 2.88273E+02 5.78174E-01-2.02070E+03
 -1      2181 2.92223E+02 4.77055E-01-2.17347E+03
 -1      2183 2.92223E+02 4.77055E-01-2.17347E+03
 -1      2184 2.95457E+02 3.83957E-01-2.32746E+03
 -1      2186 2.95457E+02 3.83956E-01-2.32746E+03
 -1      2187 2.98036E+02 2.99458E-01-2.48229E+03
 -1      2189 2.98036E+02 2.99458E-01-2.48229E+03
 -1      2190 3.00027E+02 2.24100E-01-2.63759E+03
 -1      2192 3.00027E+02 2.24100E-01-2.63759E+03
 -1      2193 3.01498E+02 1.58592E-01-2.79304E+03
 -1      2195 3.01498E+02 1.58592E-01-2.79304E+03
 -1      2196 3.02526E+02 1.03301E-01-2.94833E+03
 -1      2198 3.02526E+02 1.03301E-01-2.94833E+03
 -1      2199 3.03187E+02 5.83692E-02-3.10322E+03
 -1      2201 3.03187E+02 5.83693E-02-3.10322E+03
 -1      2202 3.03565E+02 2.82492E-02-3.25746E+03
 -1      2204 3.03565E+02 2.82497E-02-3.25746E+03
 -1      2205 3.03743E+02 5.63216E-03-3.41089E+03
 -1      2207 3.03743E+02 5.63289E-03-3.41089E+03
 -1      2208 2.44062E+01-2.84141E+00-2.23845E+01
 -1      2210 2.44062E+01-2.84141E+00-2.23845E+01
 -1      2211 4.83708E+01-3.37166E+00-5.35728E+01
 -1      2213 4.83708E+01-3.37166E+00-5.35728E+01
 -1      2214 7.13042E+01-2.99101E+00-9.52333E+01
 -1      2216 7.13042E+01-2.99101E+00-9.52333E+01
 -1      2217 9.30332E+01-2.84673E+00-1.47740E+02
 -1      2219 9.30332E+01-2.84673E+00-1.47740E+02
 -1      2220 1.13591E+02-2.70123E+00-2.10945E+02
 -1      2222 1.13591E+02-2.70123E+00-2.10945E+02
 -1      2223 1.32966E+02-2.53314E+00-2.84038E+02
 -1      2225 1.32966E+02-2.53314E+00-2.84038E+02
 -1      2226 1.51164E+02-2.37717E+00-3.66513E+02
 -1      2228 1.51164E+02-2.37717E+00-3.66513E+02
 -1      2229 1.68193E+02-2.21893E+00-4.57715E+02
 -1      2231 1.68193E+02-2.21893E+00-4.57715E+02
 -1      2232 1.84063E+02-2.06334E+00-5.57062E+02
 -1      2234 1.84063E+02-2.06334E+00-5.57062E+02
 -1      2235 1.98789E+02-1.90932E+00-6.63942E+02
 -1      2237 1.98789E+02-1.90932E+00-6.63942E+02
 -1      2238 2.12385E+02-1.75787E+00-7.77764E+02
 -1      2240 2.12385E+02-1.75787E+00-7.77764E+02
 -1      2241 2.24872E+02-1.60911E+00-8.97935E+02
 -1      2243 2.24872E+02-1.60911E+00-8.97935E+02
 -1      2244 2.36272E+02-1.46366E+00-1.02387E+03
 -1      2246 2.36272E+02-1.46366E+00-1.02387E+03
 -1      2247 2.46610E+02-1.32190E+00-1.15501E+03
 -1      2249 2.46610E+02-1.32190E+00-1.15501E+03
 -1      2250 2.55917E+02-1.18437E+00-1.29078E+03
 -1      2252 2.55917E+02-1.18437E+00-1.29078E+03
 -1      2253 2.64225E+02-1.05155E+00-1.43065E+03
 -1      2255 2.64225E+02-1.05155E+00-1.43065E+03
 -1      2256 2.71572E+02-9.23985E-01-1.57407E+03
 -1      2258 2.71572E+02-9.23985E-01-1.57407E+03
 -1      2259 2.77998E+02-8.02199E-01-1.72055E+03
 -1      2261 2.77998E+02-8.02198E-01-1.72055E+03
 -1      2262 2.83549E+02-6.86743E-01-1.86958E+03
 -1      2264 2.83549E+02-6.86743E-01-1.86958E+03
 -1      2265 2.88273E+02-5.78174E-01-2.02070E+03
 -1      2267 2.88273E+02-5.78174E-01-2.02070E+03
 -1      2268 2.92223E+02-4.77055E-01-2.17347E+03
 -1      2270 2.92223E+02-4.77055E-01-2.17347E+03
 -1      2271 2.95457E+02-3.83956E-01-2.32746E+03
 -1      2273 2.95457E+02-3.83957E-01-2.32746E+03
 -1      2274 2.98036E+02-2.99458E-01-2.48229E+03
 -1      2276 2.98036E+02-2.99458E-01-2.48229E+03
 -1      2277 3.00027E+02-2.24100E-01-2.63759E+03
 -1      2279 3.00027E+02-2.24100E-01-2.63759E+03
 -1      2280 3.01498E+02-1.58592E-01-2.79304E+03
 -1      2282 3.01498E+02-1.58592E-01-2.79304E+03
 -1      2283 3.02526E+02-1.03301E-01-2.94833E+03
 -1      2285 3.02526E+02-1.03301E-01-2.94833E+03
 -1      2286 3.03187E+02-5.83697E-02-3.10322E+03
 -1      2288 3.03187E+02-5.83690E-02-3.10322E+03
 -1      2289 3.03565E+02-2.82495E-02-3.25746E+03
 -1      2291 3.03565E+02-2.82493E-02-3.25746E+03
 -1      2292 3.03743E+02-5.63251E-03-3.41089E+03
 -1      2294 3.03743E+02-5.63250E-03-3.41089E+03
 -3
    1PSTEP                         8           1           1          
    1PGM                1.000000E+00                                  
    1PGK                1.072207E+05                                  
    1PHID                         -1                                  
    1PSUBC                         0                                  
    1PMODE                         2                                  
  100CL  102 52.11460063         930                     2    2MODAL      1
 -4  ERROR       1    1
 -5  STR(%)      1    1    0    0
 -1       404 0.00000E+00
 -1       406 0.00000E+00
 -1       407 0.00000E+00
 -1       409 0.00000E+00
 -1       410 0.00000E+00
 -1       412 0.00000E+00
 -1       413 0.00000E+00
 -1       415 0.00000E+00
 -1       424 0.00000E+00
 -1       426 0.00000E+00
 -1       427 0.00000E+00
 -1       429 0.00000E+00
 -1       438 0.00000E+00
 -1       440 0.00000E+00
 -1       441 0.00000E+00
 -1       443 0.00000E+00
 -1       444 0.00000E+00
 -1       446 0.00000E+00
 -1       447 0.00000E+00
 -1       449 0.00000E+00
 -1       458 0.00000E+00
 -1       460 0.00000E+00
 -1       461 0.00000E+00
 -1       463 0.00000E+00
 -1       472 0.00000E+00
 -1       474 0.00000E+00
 -1       475 0.00000E+00
 -1       477 0.00000E+00
 -1       478 0.00000E+00
 -1       480 0.00000E+00
 -1       481 0.00000E+00
 -1       483 0.00000E+00
 -1       484 0.00000E+00
 -1       486 0.00000E+00
 -1       487 0.00000E+00
 -1       489 0.00000E+00
 -1       490 0.00000E+00
 -1       492 0.00000E+00
 -1       493 0.00000E+00
 -1       495 0.00000E+00
 -1       496 0.00000E+00
 -1       498 0.00000E+00
 -1       499 0.00000E+00
 -1       501 0.00000E+00
 -1       502 0.00000E+00
 -1       504 0.00000E+00
 -1       505 0.00000E+00
 -1       507 0.00000E+00
 -1       508 0.00000E+00
 -1       510 0.00000E+00
 -1       511 0.00000E+00
 -1       513 0.00000E+00
 -1       514 0.00000E+00
 -1       516 0.00000E+00
 -1       517 0.00000E+00
 -1       519 0.00000E+00
 -1       520 0.00000E+00
 -1       522 0.00000E+00
 -1       523 0.00000E+00
 -1       525 0.00000E+00
 -1       526 0.00000E+00
 -1       528 0.00000E+00
 -1       529 0.00000E+00
 -1       531 0.00000E+00
 -1       532 0.00000E+00
 -1       534 0.00000E+00
 -1       535 0.00000E+00
 -1       537 0.00000E+00
 -1       538 0.00000E+00
 -1       540 0.00000E+00
 -1       541 0.00000E+00
 -1       543 0.00000E+00
 -1       544 0.00000E+00
 -1       546 0.00000E+00
 -1       547 0.00000E+00
 -1       549 0.00000E+00
 -1       550 0.00000E+00
 -1       552 0.00000E+00
 -1       553 0.00000E+00
 -1       555 0.00000E+00
 -1       556 0.00000E+00
 -1       558 0.00000E+00
 -1       559 0.00000E+00
 -1       561 0.00000E+00
 -1       562 0.00000E+00
 -1       564 0.00000E+00
 -1       565 0.00000E+00
 -1       567 0.00000E+00
 -1       568 0.00000E+00
 -1       570 0.00000E+00
 -1       571 0.00000E+00
 -1       573 0.00000E+00
 -1       574 0.00000E+00
 -1       576 0.00000E+00
 -1       577 0.00000E+00
 -1       579 0.00000E+00
 -1       588 0.00000E+00
 -1       590 0.00000E+00
 -1       591 0.00000E+00
 -1       593 0.00000E+00
 -1       602 0.00000E+00
 -1       604 0.00000E+00
 -1       605 0.00000E+00
 -1       607 0.00000E+00
 -1       616 0.00000E+00
 -1       618 0.00000E+00
 -1       619 0.00000E+00
 -1       621 0.00000E+00
 -1       630 0.00000E+00
 -1       632 0.00000E+00
 -1       633 0.00000E+00
 -1       635 0.00000E+00
 -1       644 0.00000E+00
 -1       646 0.00000E+00
 -1       647 0.00000E+00
 -1       649 0.00000E+00
 -1       658 0.00000E+00
 -1       660 0.00000E+00
 -1       661 0.00000E+00
 -1       663 0.00000E+00
 -1       672 0.00000E+00
 -1       674 0.00000E+00
 -1       675 0.00000E+00
 -1       677 0.00000E+00
 -1       686 0.00000E+00
 -1       688 0.00000E+00
 -1       689 0.00000E+00
 -1       691 0.00000E+00
 -1       700 0.00000E+00
 -1       702 0.00000E+00
 -1       703 0.00000E+00
 -1       705 0.00000E+00
 -1       714 0.00000E+00
 -1       716 0.00000E+00
 -1       717 0.00000E+00
 -1       719 0.00000E+00
 -1       728 0.00000E+00
 -1       730 0.00000E+00
 -1       731 0.00000E+00
 -1       733 0.00000E+00
 -1       742 0.00000E+00
 -1       744 0.00000E+00
 -1       745 0.00000E+00
 -1       747 0.00000E+00
 -1       756 0.00000E+00
 -1       758 0.00000E+00
 -1       759 0.00000E+00
 -1       761 0.00000E+00
 -1       770 0.00000E+00
 -1       772 0.00000E+00
 -1       773 0.00000E+00
 -1       775 0.00000E+00
 -1       784 0.00000E+00
 -1       786 0.00000E+00
 -1       787 0.00000E+00
 -1       789 0.00000E+00
 -1       798 0.00000E+00
 -1       800 0.00000E+00
 -1       801 0.00000E+00
 -1       803 0.00000E+00
 -1       812 0.00000E+00
 -1       814 0.00000E+00
 -1       815 0.00000E+00
 -1       817 0.00000E+00
 -1       826 0.00000E+00
 -1       828 0.00000E+00
 -1       829 0.00000E+00
 -1       831 0.00000E+00
 -1       840 0.00000E+00
 -1       842 0.00000E+00
 -1       843 0.00000E+00
 -1       845 0.00000E+00
 -1       854 0.00000E+00
 -1       856 0.00000E+00
 -1       857 0.00000E+00
 -1       859 0.00000E+00
 -1       868 0.00000E+00
 -1       870 0.00000E+00
 -1       871 0.00000E+00
 -1       873 0.00000E+00
 -1       882 0.00000E+00
 -1       884 0.00000E+00
 -1       885 0.00000E+00
 -1       887 0.00000E+00
 -1       896 0.00000E+00
 -1       898 0.00000E+00
 -1       899 0.00000E+00
 -1       901 0.00000E+00
 -1       910 0.00000E+00
 -1       912 0.00000E+00
 -1       913 0.00000E+00
 -1       915 0.00000E+00
 -1       924 0.00000E+00
 -1       926 0.00000E+00
 -1       927 0.00000E+00
 -1       929 0.00000E+00
 -1       938 0.00000E+00
 -1       940 0.00000E+00
 -1       941 0.00000E+00
 -1       943 0.00000E+00
 -1       952 0.00000E+00
 -1       954 0.00000E+00
 -1       955 0.00000E+00
 -1       957 0.00000E+00
 -1       966 0.00000E+00
 -1       968 0.00000E+00
 -1       969 0.00000E+00
 -1       971 0.00000E+00
 -1       980 0.00000E+00
 -1       982 0.00000E+00
 -1       983 0.00000E+00
 -1       985 0.00000E+00
 -1       986 0.00000E+00
 -1       988 0.00000E+00
 -1       989 0.00000E+00
 -1       991 0.00000E+00
 -1       992 0.00000E+00
 -1       994 0.00000E+00
 -1       995 0.00000E+00
 -1       997 0.00000E+00
 -1       998 0.00000E+00
 -1      1000 0.00000E+00
 -1      1001 0.00000E+00
 -1      1003 0.00000E+00
 -1      1004 0.00000E+00
 -1      1006 0.00000E+00
 -1      1007 0.00000E+00
 -1      1009 0.00000E+00
 -1      1010 0.00000E+00
 -1      1012 0.00000E+00
 -1      1013 0.00000E+00
 -1      1015 0.00000E+00
 -1      1016 0.00000E+00
 -1      1018 0.00000E+00
 -1      1019 0.00000E+00
 -1      1021 0.00000E+00
 -1      1022 0.00000E+00
 -1      1024 0.00000E+00
 -1      1025 0.00000E+00
 -1      1027 0.00000E+00
 -1      1028 0.00000E+00
 -1      1030 0.00000E+00
 -1      1031 0.00000E+00
 -1      1033 0.00000E+00
 -1      1034 0.00000E+00
 -1      1036 0.00000E+00
 -1      1037 0.00000E+00
 -1      1039 0.00000E+00
 -1      1040 0.00000E+00
 -1      1042 0.00000E+00
 -1      1043 0.00000E+00
 -1      1045 0.00000E+00
 -1      1046 0.00000E+00
 -1      1048 0.00000E+00
 -1      1049 0.00000E+00
 -1      1051 0.00000E+00
 -1      1052 0.00000E+00
 -1      1054 0.00000E+00
 -1      1055 0.00000E+00
 -1      1057 0.00000E+00
 -1      1058 0.00000E+00
 -1      1060 0.00000E+00
 -1      1061 0.00000E+00
 -1      1063 0.00000E+00
 -1      1064 0.00000E+00
 -1      1066 0.00000E+00
 -1      1067 0.00000E+00
 -1      1069 0.00000E+00
 -1      1070 0.00000E+00
 -1      1072 0.00000E+00
 -1      1073 0.00000E+00
 -1      1075 0.00000E+00
 -1      1076 0.00000E+00
 -1      1078 0.00000E+00
 -1      1079 0.00000E+00
 -1      1081 0.00000E+00
 -1      1082 0.00000E+00
 -1      1084 0.00000E+00
 -1      1085 0.00000E+00
 -1      1087 0.00000E+00
 -1      1088 0.00000E+00
 -1      1090 0.00000E+00
 -1      1099 0.00000E+00
 -1      1101 0.00000E+00
 -1      1102 0.00000E+00
 -1      1104 0.00000E+00
 -1      1113 0.00000E+00
 -1      1115 0.00000E+00
 -1      1116 0.00000E+00
 -1      1118 0.00000E+00
 -1      1127 0.00000E+00
 -1      1129 0.00000E+00
 -1      1130 0.00000E+00
 -1      1132 0.00000E+00
 -1      1141 0.00000E+00
 -1      1143 0.00000E+00
 -1      1144 0.00000E+00
 -1      1146 0.00000E+00
 -1      1155 0.00000E+00
 -1      1157 0.00000E+00
 -1      1158 0.00000E+00
 -1      1160 0.00000E+00
 -1      1169 0.00000E+00
 -1      1171 0.00000E+00
 -1      1172 0.00000E+00
 -1      1174 0.00000E+00
 -1      1183 0.00000E+00
 -1      1185 0.00000E+00
 -1      1186 0.00000E+00
 -1      1188 0.00000E+00
 -1      1197 0.00000E+00
 -1      1199 0.00000E+00
 -1      1200 0.00000E+00
 -1      1202 0.00000E+00
 -1      1211 0.00000E+00
 -1      1213 0.00000E+00
 -1      1214 0.00000E+00
 -1      1216 0.00000E+00
 -1      1225 0.00000E+00
 -1      1227 0.00000E+00
 -1      1228 0.00000E+00
 -1      1230 0.00000E+00
 -1      1239 0.00000E+00
 -1      1241 0.00000E+00
 -1      1242 0.00000E+00
 -1      1244 0.00000E+00
 -1      1253 0.00000E+00
 -1      1255 0.00000E+00
 -1      1256 0.00000E+00
 -1      1258 0.00000E+00
 -1      1267 0.00000E+00
 -1      1269 0.00000E+00
 -1      1270 0.00000E+00
 -1      1272 0.00000E+00
 -1      1281 0.00000E+00
 -1      1283 0.00000E+00
 -1      1284 0.00000E+00
 -1      1286 0.00000E+00
 -1      1295 0.00000E+00
 -1      1297 0.00000E+00
 -1      1298 0.00000E+00
 -1      1300 0.00000E+00
 -1      1309 0.00000E+00
 -1      1311 0.00000E+00
 -1      1312 0.00000E+00
 -1      1314 0.00000E+00
 -1      1323 0.00000E+00
 -1      1325 0.00000E+00
 -1      1326 0.00000E+00
 -1      1328 0.00000E+00
 -1      1337 0.00000E+00
 -1      1339 0.00000E+00
 -1      1340 0.00000E+00
 -1      1342 0.00000E+00
 -1      1351 0.00000E+00
 -1      1353 0.00000E+00
 -1      1354 0.00000E+00
 -1      1356 0.00000E+00
 -1      1365 0.00000E+00
 -1      1367 0.00000E+00
 -1      1368 0.00000E+00
 -1      1370 0.00000E+00
 -1      1379 0.00000E+00
 -1      1381 0.00000E+00
 -1      1382 0.00000E+00
 -1      1384 0.00000E+00
 -1      1393 0.00000E+00
 -1      1395 0.00000E+00
 -1      1396 0.00000E+00
 -1      1398 0.00000E+00
 -1      1407 0.00000E+00
 -1      1409 0.00000E+00
 -1      1410 0.00000E+00
 -1      1412 0.00000E+00
 -1      1421 0.00000E+00
 -1      1423 0.00000E+00
 -1      1424 0.00000E+00
 -1      1426 0.00000E+00
 -1      1435 0.00000E+00
 -1      1437 0.00000E+00
 -1      1438 0.00000E+00
 -1      1440 0.00000E+00
 -1      1449 0.00000E+00
 -1      1451 0.00000E+00
 -1      1452 0.00000E+00
 -1      1454 0.00000E+00
 -1      1463 0.00000E+00
 -1      1465 0.00000E+00
 -1      1466 0.00000E+00
 -1      1468 0.00000E+00
 -1      1477 0.00000E+00
 -1      1479 0.00000E+00
 -1      1480 0.00000E+00
 -1      1482 0.00000E+00
 -1      1491 0.00000E+00
 -1      1493 0.00000E+00
 -1      1494 0.00000E+00
 -1      1496 0.00000E+00
 -1      1497 0.00000E+00
 -1      1499 0.00000E+00
 -1      1500 0.00000E+00
 -1      1502 0.00000E+00
 -1      1503 0.00000E+00
 -1      1505 0.00000E+00
 -1      1506 0.00000E+00
 -1      1508 0.00000E+00
 -1      1509 0.00000E+00
 -1      1511 0.00000E+00
 -1      1512 0.00000E+00
 -1      1514 0.00000E+00
 -1      1515 0.00000E+00
 -1      1517 0.00000E+00
 -1      1518 0.00000E+00
 -1      1520 0.00000E+00
 -1      1521 0.00000E+00
 -1      1523 0.00000E+00
 -1      1524 0.00000E+00
 -1      1526 0.00000E+00
 -1      1527 0.00000E+00
 -1      1529 0.00000E+00
 -1      1530 0.00000E+00
 -1      1532 0.00000E+00
 -1      1533 0.00000E+00
 -1      1535 0.00000E+00
 -1      1536 0.00000E+00
 -1      1538 0.00000E+00
 -1      1539 0.00000E+00
 -1      1541 0.00000E+00
 -1      1542 0.00000E+00
 -1      1544 0.00000E+00
 -1      1545 0.00000E+00
 -1      1547 0.00000E+00
 -1      1548 0.00000E+00
 -1      1550 0.00000E+00
 -1      1551 0.00000E+00
 -1      1553 0.00000E+00
 -1      1554 0.00000E+00
 -1      1556 0.00000E+00
 -1      1557 0.00000E+00
 -1      1559 0.00000E+00
 -1      1560 0.00000E+00
 -1      1562 0.00000E+00
 -1      1563 0.00000E+00
 -1      1565 0.00000E+00
 -1      1566 0.00000E+00
 -1      1568 0.00000E+00
 -1      1569 0.00000E+00
 -1      1571 0.00000E+00
 -1      1572 0.00000E+00
 -1      1574 0.00000E+00
 -1      1575 0.00000E+00
 -1      1577 0.00000E+00
 -1      1578 0.00000E+00
 -1      1580 0.00000E+00
 -1      1581 0.00000E+00
 -1      1583 0.00000E+00
 -1      1584 0.00000E+00
 -1      1586 0.00000E+00
 -1      1587 0.00000E+00
 -1      1589 0.00000E+00
 -1      1590 0.00000E+00
 -1      1592 0.00000E+00
 -1      1593 0.00000E+00
 -1      1595 0.00000E+00
 -1      1596 0.00000E+00
 -1      1598 0.00000E+00
 -1      1599 0.00000E+00
 -1      1601 0.00000E+00
 -1      1602 0.00000E+00
 -1      1604 0.00000E+00
 -1      1605 0.00000E+00
 -1      1607 0.00000E+00
 -1      1608 0.00000E+00
 -1      1610 0.00000E+00
 -1      1611 0.00000E+00
 -1      1613 0.00000E+00
 -1      1614 0.00000E+00
 -1      1616 0.00000E+00
 -1      1617 0.00000E+00
 -1      1619 0.00000E+00
 -1      1620 0.00000E+00
 -1      1622 0.00000E+00
 -1      1623 0.00000E+00
 -1      1625 0.00000E+00
 -1      1626 0.00000E+00
 -1      1628 0.00000E+00
 -1      1629 0.00000E+00
 -1      1631 0.00000E+00
 -1      1632 0.00000E+00
 -1      1634 0.00000E+00
 -1      1635 0.00000E+00
 -1      1637 0.00000E+00
 -1      1638 0.00000E+00
 -1      1640 0.00000E+00
 -1      1641 0.00000E+00
 -1      1643 0.00000E+00
 -1      1644 0.00000E+00
 -1      1646 0.00000E+00
 -1      1647 0.00000E+00
 -1      1649 0.00000E+00
 -1      1650 0.00000E+00
 -1      1652 0.00000E+00
 -1      1653 0.00000E+00
 -1      1655 0.00000E+00
 -1      1656 0.00000E+00
 -1      1658 0.00000E+00
 -1      1659 0.00000E+00
 -1      1661 0.00000E+00
 -1      1662 0.00000E+00
 -1      1664 0.00000E+00
 -1      1665 0.00000E+00
 -1      1667 0.00000E+00
 -1      1668 0.00000E+00
 -1      1670 0.00000E+00
 -1      1671 0.00000E+00
 -1      1673 0.00000E+00
 -1      1674 0.00000E+00
 -1      1676 0.00000E+00
 -1      1677 0.00000E+00
 -1      1679 0.00000E+00
 -1      1680 0.00000E+00
 -1      1682 0.00000E+00
 -1      1683 0.00000E+00
 -1      1685 0.00000E+00
 -1      1686 0.00000E+00
 -1      1688 0.00000E+00
 -1      1689 0.00000E+00
 -1      1691 0.00000E+00
 -1      1692 0.00000E+00
 -1      1694 0.00000E+00
 -1      1695 0.00000E+00
 -1      1697 0.00000E+00
 -1      1698 0.00000E+00
 -1      1700 0.00000E+00
 -1      1701 0.00000E+00
 -1      1703 0.00000E+00
 -1      1704 0.00000E+00
 -1      1706 0.00000E+00
 -1      1707 0.00000E+00
 -1      1709 0.00000E+00
 -1      1710 0.00000E+00
 -1      1712 0.00000E+00
 -1      1713 0.00000E+00
 -1      1715 0.00000E+00
 -1      1716 0.00000E+00
 -1      1718 0.00000E+00
 -1      1719 0.00000E+00
 -1      1721 0.00000E+00
 -1      1722 0.00000E+00
 -1      1724 0.00000E+00
 -1      1725 0.00000E+00
 -1      1727 0.00000E+00
 -1      1728 0.00000E+00
 -1      1730 0.00000E+00
 -1      1731 0.00000E+00
 -1      1733 0.00000E+00
 -1      1734 0.00000E+00
 -1      1736 0.00000E+00
 -1      1737 0.00000E+00
 -1      1739 0.00000E+00
 -1      1740 0.00000E+00
 -1      1742 0.00000E+00
 -1      1743 0.00000E+00
 -1      1745 0.00000E+00
 -1      1746 0.00000E+00
 -1      1748 0.00000E+00
 -1      1749 0.00000E+00
 -1      1751 0.00000E+00
 -1      1752 0.00000E+00
 -1      1754 0.00000E+00
 -1      1755 0.00000E+00
 -1      1757 0.00000E+00
 -1      1758 0.00000E+00
 -1      1760 0.00000E+00
 -1      1761 0.00000E+00
 -1      1763 0.00000E+00
 -1      1764 0.00000E+00
 -1      1766 0.00000E+00
 -1      1767 0.00000E+00
 -1      1769 0.00000E+00
 -1      1770 0.00000E+00
 -1      1772 0.00000E+00
 -1      1773 0.00000E+00
 -1      1775 0.00000E+00
 -1      1776 0.00000E+00
 -1      1778 0.00000E+00
 -1      1779 0.00000E+00
 -1      1781 0.00000E+00
 -1      1782 0.00000E+00
 -1      1784 0.00000E+00
 -1      1785 0.00000E+00
 -1      1787 0.00000E+00
 -1      1788 0.00000E+00
 -1      1790 0.00000E+00
 -1      1791 0.00000E+00
 -1      1793 0.00000E+00
 -1      1794 0.00000E+00
 -1      1796 0.00000E+00
 -1      1797 0.00000E+00
 -1      1799 0.00000E+00
 -1      1800 0.00000E+00
 -1      1802 0.00000E+00
 -1      1803 0.00000E+00
 -1      1805 0.00000E+00
 -1      1806 0.00000E+00
 -1      1808 0.00000E+00
 -1      1809 0.00000E+00
 -1      1811 0.00000E+00
 -1      1812 0.00000E+00
 -1      1814 0.00000E+00
 -1      1815 0.00000E+00
 -1      1817 0.00000E+00
 -1      1818 0.00000E+00
 -1      1820 0.00000E+00
 -1      1821 0.00000E+00
 -1      1823 0.00000E+00
 -1      1824 0.00000E+00
 -1      1826 0.00000E+00
 -1      1827 0.00000E+00
 -1      1829 0.00000E+00
 -1      1830 0.00000E+00
 -1      1832 0.00000E+00
 -1      1833 0.00000E+00
 -1      1835 0.00000E+00
 -1      1836 0.00000E+00
 -1      1838 0.00000E+00
 -1      1839 0.00000E+00
 -1      1841 0.00000E+00
 -1      1842 0.00000E+00
 -1      1844 0.00000E+00
 -1      1845 0.00000E+00
 -1      1847 0.00000E+00
 -1      1848 0.00000E+00
 -1      1850 0.00000E+00
 -1      1851 0.00000E+00
 -1      1853 0.00000E+00
 -1      1854 0.00000E+00
 -1      1856 0.00000E+00
 -1      1857 0.00000E+00
 -1      1859 0.00000E+00
 -1      1860 0.00000E+00
 -1      1862 0.00000E+00
 -1      1863 0.00000E+00
 -1      1865 0.00000E+00
 -1      1866 0.00000E+00
 -1      1868 0.00000E+00
 -1      1869 0.00000E+00
 -1      1871 0.00000E+00
 -1      1872 0.00000E+00
 -1      1874 0.00000E+00
 -1      1875 0.00000E+00
 -1      1877 0.00000E+00
 -1      1878 0.00000E+00
 -1      1880 0.00000E+00
 -1      1881 0.00000E+00
 -1      1883 0.00000E+00
 -1      1884 0.00000E+00
 -1      1886 0.00000E+00
 -1      1887 0.00000E+00
 -1      1889 0.00000E+00
 -1      1890 0.00000E+00
 -1      1892 0.00000E+00
 -1      1893 0.00000E+00
 -1      1895 0.00000E+00
 -1      1896 0.00000E+00
 -1      1898 0.00000E+00
 -1      1899 0.00000E+00
 -1      1901 0.00000E+00
 -1      1902 0.00000E+00
 -1      1904 0.00000E+00
 -1      1905 0.00000E+00
 -1      1907 0.00000E+00
 -1      1908 0.00000E+00
 -1      1910 0.00000E+00
 -1      1911 0.00000E+00
 -1      1913 0.00000E+00
 -1      1914 0.00000E+00
 -1      1916 0.00000E+00
 -1      1917 0.00000E+00
 -1      1919 0.00000E+00
 -1      1920 0.00000E+00
 -1      1922 0.00000E+00
 -1      1923 0.00000E+00
 -1      1925 0.00000E+00
 -1      1926 0.00000E+00
 -1      1928 0.00000E+00
 -1      1929 0.00000E+00
 -1      1931 0.00000E+00
 -1      1932 0.00000E+00
 -1      1934 0.00000E+00
 -1      1935 0.00000E+00
 -1      1937 0.00000E+00
 -1      1938 0.00000E+00
 -1      1940 0.00000E+00
 -1      1941 0.00000E+00
 -1      1943 0.00000E+00
 -1      1944 0.00000E+00
 -1      1946 0.00000E+00
 -1      1947 0.00000E+00
 -1      1949 0.00000E+00
 -1      1950 0.00000E+00
 -1      1952 0.00000E+00
 -1      1953 0.00000E+00
 -1      1955 0.00000E+00
 -1      1956 0.00000E+00
 -1      1958 0.00000E+00
 -1      1959 0.00000E+00
 -1      1961 0.00000E+00
 -1      1962 0.00000E+00
 -1      1964 0.00000E+00
 -1      1965 0.00000E+00
 -1      1967 0.00000E+00
 -1      1968 0.00000E+00
 -1      1970 0.00000E+00
 -1      1971 0.00000E+00
 -1      1973 0.00000E+00
 -1      1974 0.00000E+00
 -1      1976 0.00000E+00
 -1      1977 0.00000E+00
 -1      1979 0.00000E+00
 -1      1980 0.00000E+00
 -1      1982 0.00000E+00
 -1      1983 0.00000E+00
 -1      1985 0.00000E+00
 -1      1986 0.00000E+00
 -1      1988 0.00000E+00
 -1      1989 0.00000E+00
 -1      1991 0.00000E+00
 -1      1992 0.00000E+00
 -1      1994 0.00000E+00
 -1      1995 0.00000E+00
 -1      1997 0.00000E+00
 -1      1998 0.00000E+00
 -1      2000 0.00000E+00
 -1      2001 0.00000E+00
 -1      2003 0.00000E+00
 -1      2004 0.00000E+00
 -1      2006 0.00000E+00
 -1      2007 0.00000E+00
 -1      2009 0.00000E+00
 -1      2010 0.00000E+00
 -1      2012 0.00000E+00
 -1      2013 0.00000E+00
 -1      2015 0.00000E+00
 -1      2016 0.00000E+00
 -1      2018 0.00000E+00
 -1      2019 0.00000E+00
 -1      2021 0.00000E+00
 -1      2022 0.00000E+00
 -1      2024 0.00000E+00
 -1      2025 0.00000E+00
 -1      2027 0.00000E+00
 -1      2028 0.00000E+00
 -1      2030 0.00000E+00
 -1      2031 0.00000E+00
 -1      2033 0.00000E+00
 -1      2034 0.00000E+00
 -1      2036 0.00000E+00
 -1      2037 0.00000E+00
 -1      2039 0.00000E+00
 -1      2040 0.00000E+00
 -1      2042 0.00000E+00
 -1      2043 0.00000E+00
 -1      2045 0.00000E+00
 -1      2046 0.00000E+00
 -1      2048 0.00000E+00
 -1      2049 0.00000E+00
 -1      2051 0.00000E+00
 -1      2052 0.00000E+00
 -1      2054 0.00000E+00
 -1      2055 0.00000E+00
 -1      2057 0.00000E+00
 -1      2058 0.00000E+00
 -1      2060 0.00000E+00
 -1      2061 0.00000E+00
 -1      2063 0.00000E+00
 -1      2064 0.00000E+00
 -1      2066 0.00000E+00
 -1      2067 0.00000E+00
 -1      2069 0.00000E+00
 -1      2070 0.00000E+00
 -1      2072 0.00000E+00
 -1      2073 0.00000E+00
 -1      2075 0.00000E+00
 -1      2076 0.00000E+00
 -1      2078 0.00000E+00
 -1      2079 0.00000E+00
 -1      2081 0.00000E+00
 -1      2082 0.00000E+00
 -1      2084 0.00000E+00
 -1      2085 0.00000E+00
 -1      2087 0.00000E+00
 -1      2088 0.00000E+00
 -1      2090 0.00000E+00
 -1      2091 0.00000E+00
 -1      2093 0.00000E+00
 -1      2094 0.00000E+00
 -1      2096 0.00000E+00
 -1      2097 0.00000E+00
 -1      2099 0.00000E+00
 -1      2100 0.00000E+00
 -1      2102 0.00000E+00
 -1      2103 0.00000E+00
 -1      2105 0.00000E+00
 -1      2106 0.00000E+00
 -1      2108 0.00000E+00
 -1      2109 0.00000E+00
 -1      2111 0.00000E+00
 -1      2112 0.00000E+00
 -1      2114 0.00000E+00
 -1      2115 0.00000E+00
 -1      2117 0.00000E+00
 -1      2118 0.00000E+00
 -1      2120 0.00000E+00
 -1      2121 0.00000E+00
 -1      2123 0.00000E+00
 -1      2124 0.00000E+00
 -1      2126 0.00000E+00
 -1      2127 0.00000E+00
 -1      2129 0.00000E+00
 -1      2130 0.00000E+00
 -1      2132 0.00000E+00
 -1      2133 0.00000E+00
 -1      2135 0.00000E+00
 -1      2136 0.00000E+00
 -1      2138 0.00000E+00
 -1      2139 0.00000E+00
 -1      2141 0.00000E+00
 -1      2142 0.00000E+00
 -1      2144 0.00000E+00
 -1      2145 0.00000E+00
 -1      2147 0.00000E+00
 -1      2148 0.00000E+00
 -1      2150 0.00000E+00
 -1      2151 0.00000E+00
 -1      2153 0.00000E+00
 -1      2154 0.00000E+00
 -1      2156 0.00000E+00
 -1      2157 0.00000E+00
 -1      2159 0.00000E+00
 -1      2160 0.00000E+00
 -1      2162 0.00000E+00
 -1      2163 0.00000E+00
 -1      2165 0.00000E+00
 -1      2166 0.00000E+00
 -1      2168 0.00000E+00
 -1      2169 0.00000E+00
 -1      2171 0.00000E+00
 -1      2172 0.00000E+00
 -1      2174 0.00000E+00
 -1      2175 0.00000E+00
 -1      2177 0.00000E+00
 -1      2178 0.00000E+00
 -1      2180 0.00000E+00
 -1      2181 0.00000E+00
 -1      2183 0.00000E+00
 -1      2184 0.00000E+00
 -1      2186 0.00000E+00
 -1      2187 0.00000E+00
 -1      2189 0.00000E+00
 -1      2190 0.00000E+00
 -1      2192 0.00000E+00
 -1      2193 0.00000E+00
 -1      2195 0.00000E+00
 -1      2196 0.00000E+00
 -1      2198 0.00000E+00
 -1      2199 0.00000E+00
 -1      2201 0.00000E+00
 -1      2202 0.00000E+00
 -1      2204 0.00000E+00
 -1      2205 0.00000E+00
 -1      2207 0.00000E+00
 -1      2208 0.00000E+00
 -1      2210 0.00000E+00
 -1      2211 0.00000E+00
 -1      2213 0.00000E+00
 -1      2214 0.00000E+00
 -1      2216 0.00000E+00
 -1      2217 0.00000E+00
 -1      2219 0.00000E+00
 -1      2220 0.00000E+00
 -1      2222 0.00000E+00
 -1      2223 0.00000E+00
 -1      2225 0.00000E+00
 -1      2226 0.00000E+00
 -1      2228 0.00000E+00
 -1      2229 0.00000E+00
 -1      2231 0.00000E+00
 -1      2232 0.00000E+00
 -1      2234 0.00000E+00
 -1      2235 0.00000E+00
 -1      2237 0.00000E+00
 -1      2238 0.00000E+00
 -1      2240 0.00000E+00
 -1      2241 0.00000E+00
 -1      2243 0.00000E+00
 -1      2244 0.00000E+00
 -1      2246 0.00000E+00
 -1      2247 0.00000E+00
 -1      2249 0.00000E+00
 -1      2250 0.00000E+00
 -1      2252 0.00000E+00
 -1      2253 0.00000E+00
 -1      2255 0.00000E+00
 -1      2256 0.00000E+00
 -1      2258 0.00000E+00
 -1      2259 0.00000E+00
 -1      2261 0.00000E+00
 -1      2262 0.00000E+00
 -1      2264 0.00000E+00
 -1      2265 0.00000E+00
 -1      2267 0.00000E+00
 -1      2268 0.00000E+00
 -1      2270 0.00000E+00
 -1      2271 0.00000E+00
 -1      2273 0.00000E+00
 -1      2274 0.00000E+00
 -1      2276 0.00000E+00
 -1      2277 0.00000E+00
 -1      2279 0.00000E+00
 -1      2280 0.00000E+00
 -1      2282 0.00000E+00
 -1      2283 0.00000E+00
 -1      2285 0.00000E+00
 -1      2286 0.00000E+00
 -1      2288 0.00000E+00
 -1      2289 0.00000E+00
 -1      2291 0.00000E+00
 -1      2292 0.00000E+00
 -1      2294 0.00000E+00
 -3
    1PSTEP                         9           1           1          
    1PGM                1.000000E+00                                  
    1PGK                1.990216E+05                                  
    1PHID                         -1                                  
    1PSUBC                         0                                  
    1PMODE                         3                                  
  100CL  103 71.00194462         930                     2    3MODAL      1
 -4  DISP        4    1
 -5  D1          1    2    1    0
 -5  D2          1    2    2    0
 -5  D3          1    2    3    0
 -5  ALL         1    2    0    0    1ALL
 -1       404 0.00000E+00 0.00000E+00 5.41830E-05
 -1       406 0.00000E+00-0.00000E+00-5.41830E-05
 -1       407 1.26400E-03-1.29839E-01-5.10837E-02
 -1       409 1.27040E-03-1.22355E-01-5.10905E-02
 -1       410 7.32500E-14-1.30030E-01 7.26832E-13
 -1       412 6.93906E-14-1.22037E-01 7.26394E-13
 -1       413-4.90692E-05-1.26034E-01 2.54583E-03
 -1       415 4.90692E-05-1.26034E-01-2.54583E-03
 -1       424 0.00000E+00 0.00000E+00 1.72450E-16
 -1       426 0.00000E+00 0.00000E+00-1.72450E-16
 -1       427 0.00000E+00 1.09857E-16 0.00000E+00
 -1       429 0.00000E+00-1.09857E-16 0.00000E+00
 -1       438-1.26400E-03-1.29839E-01 5.10837E-02
 -1       440-1.27040E-03-1.22355E-01 5.10905E-02
 -1       441 0.00000E+00 0.00000E+00-5.41830E-05
 -1       443 0.00000E+00-0.00000E+00 5.41830E-05
 -1       444 0.00000E+00-9.84760E-17 0.00000E+00
 -1       446 0.00000E+00 9.84760E-17 0.00000E+00
 -1       447 0.00000E+00 0.00000E+00 1.54584E-16
 -1       449 0.00000E+00 0.00000E+00-1.54584E-16
 -1       458 4.90692E-05 1.26034E-01 2.54583E-03
 -1       460-4.90692E-05 1.26034E-01-2.54583E-03
 -1       461-6.16532E-14 1.30030E-01 7.26342E-13
 -1       463-5.71754E-14 1.22037E-01 7.27037E-13
 -1       472 0.00000E+00 0.00000E+00-5.41830E-05
 -1       474 0.00000E+00 0.00000E+00 5.41830E-05
 -1       475 1.26400E-03 1.29839E-01 5.10837E-02
 -1       477 1.27040E-03 1.22355E-01 5.10905E-02
 -1       478-1.26400E-03 1.29839E-01-5.10837E-02
 -1       480-1.27040E-03 1.22355E-01-5.10905E-02
 -1       481 0.00000E+00 0.00000E+00 5.41830E-05
 -1       483 0.00000E+00 0.00000E+00-5.41830E-05
 -1       484 1.56738E-03-1.72509E-03-1.51681E-03
 -1       486 1.94915E-03-1.43528E-03-1.55922E-03
 -1       487 2.87149E-03-4.67529E-03-3.66798E-03
 -1       489 3.07796E-03-4.06203E-03-3.71315E-03
 -1       490 3.74571E-03-8.91244E-03-5.64112E-03
 -1       492 4.05678E-03-7.97827E-03-5.67251E-03
 -1       493 4.40505E-03-1.38990E-02-7.84210E-03
 -1       495 4.68350E-03-1.26340E-02-7.85909E-03
 -1       496 4.84069E-03-1.94955E-02-1.00534E-02
 -1       498 5.15135E-03-1.79015E-02-1.00724E-02
 -1       499 5.14437E-03-2.54644E-02-1.23728E-02
 -1       501 5.45249E-03-2.35352E-02-1.23774E-02
 -1       502 5.32119E-03-3.16970E-02-1.47178E-02
 -1       504 5.63984E-03-2.94302E-02-1.47271E-02
 -1       505 5.41607E-03-3.80609E-02-1.71092E-02
 -1       507 5.73534E-03-3.54537E-02-1.71078E-02
 -1       508 5.43550E-03-4.44846E-02-1.95033E-02
 -1       510 5.75642E-03-4.15353E-02-1.95058E-02
 -1       511 5.40180E-03-5.08870E-02-2.19004E-02
 -1       513 5.72055E-03-4.75967E-02-2.18955E-02
 -1       514 5.32025E-03-5.72196E-02-2.42710E-02
 -1       516 5.63534E-03-5.35898E-02-2.42689E-02
 -1       517 5.20241E-03-6.34293E-02-2.66100E-02
 -1       519 5.51168E-03-5.94652E-02-2.66029E-02
 -1       520 5.05197E-03-6.94811E-02-2.88954E-02
 -1       522 5.35365E-03-6.51882E-02-2.88902E-02
 -1       523 4.87543E-03-7.53382E-02-3.11208E-02
 -1       525 5.16789E-03-7.07255E-02-3.11120E-02
 -1       526 4.67533E-03-8.09742E-02-3.32689E-02
 -1       528 4.95702E-03-7.60509E-02-3.32614E-02
 -1       529 4.45577E-03-8.63620E-02-3.53335E-02
 -1       531 4.72537E-03-8.11404E-02-3.53234E-02
 -1       532 4.21880E-03-9.14813E-02-3.73010E-02
 -1       534 4.47501E-03-8.59742E-02-3.72919E-02
 -1       535 3.96744E-03-9.63119E-02-3.91658E-02
 -1       537 4.20918E-03-9.05343E-02-3.91547E-02
 -1       538 3.70385E-03-1.00839E-01-4.09170E-02
 -1       540 3.93007E-03-9.48064E-02-4.09067E-02
 -1       541 3.43073E-03-1.05048E-01-4.25500E-02
 -1       543 3.64057E-03-9.87779E-02-4.25382E-02
 -1       544 3.15098E-03-1.08930E-01-4.40559E-02
 -1       546 3.34360E-03-1.02440E-01-4.40451E-02
 -1       547 2.86751E-03-1.12476E-01-4.54317E-02
 -1       549 3.04225E-03-1.05787E-01-4.54194E-02
 -1       550 2.58511E-03-1.15687E-01-4.66693E-02
 -1       552 2.74123E-03-1.08817E-01-4.66587E-02
 -1       553 2.30667E-03-1.18558E-01-4.77677E-02
 -1       555 2.44384E-03-1.11530E-01-4.77557E-02
 -1       556 2.04221E-03-1.21104E-01-4.87184E-02
 -1       558 2.15941E-03-1.13941E-01-4.87088E-02
 -1       559 1.79180E-03-1.23331E-01-4.95224E-02
 -1       561 1.88936E-03-1.16056E-01-4.95117E-02
 -1       562 1.57964E-03-1.25274E-01-5.01676E-02
 -1       564 1.65508E-03-1.17911E-01-5.01604E-02
 -1       565 1.39589E-03-1.26961E-01-5.06564E-02
 -1       567 1.45137E-03-1.19538E-01-5.06495E-02
 -1       568 1.28764E-03-1.28437E-01-5.09651E-02
 -1       570 1.31508E-03-1.20972E-01-5.09601E-02
 -1       571 6.30612E-04-1.29884E-01-2.59692E-02
 -1       573 6.35364E-04-1.22295E-01-2.59604E-02
 -1       574 7.29797E-15-1.35641E-03 8.59483E-15
 -1       576 5.14954E-15-1.22077E-03 8.32740E-15
 -1       577-1.06479E-04-1.28859E-03 4.32049E-05
 -1       579 1.06479E-04-1.28859E-03-4.32049E-05
 -1       588 1.21128E-14-4.47049E-03 1.95675E-14
 -1       590 1.11295E-14-4.07422E-03 1.94274E-14
 -1       591-1.48848E-04-4.27236E-03 1.26218E-04
 -1       593 1.48848E-04-4.27236E-03-1.26218E-04
 -1       602 1.75870E-14-8.66980E-03 3.05266E-14
 -1       604 1.57305E-14-7.99642E-03 3.03066E-14
 -1       605-1.95529E-04-8.33311E-03 2.14485E-04
 -1       607 1.95529E-04-8.33311E-03-2.14485E-04
 -1       616 2.23611E-14-1.37023E-02 4.37586E-14
 -1       618 2.06193E-14-1.27034E-02 4.35952E-14
 -1       619-2.19837E-04-1.32028E-02 3.18198E-04
 -1       621 2.19837E-04-1.32028E-02-3.18198E-04
 -1       630 2.71106E-14-1.93237E-02 5.98776E-14
 -1       632 2.45841E-14-1.79735E-02 5.96205E-14
 -1       633-2.43142E-04-1.86486E-02 4.30086E-04
 -1       635 2.43142E-04-1.86486E-02-4.30086E-04
 -1       644 3.06768E-14-2.53309E-02 7.92462E-14
 -1       646 2.79812E-14-2.36117E-02 7.90924E-14
 -1       647-2.53213E-04-2.44713E-02 5.47599E-04
 -1       649 2.53213E-04-2.44713E-02-5.47599E-04
 -1       658 3.36041E-14-3.15962E-02 1.00080E-13
 -1       660 3.07285E-14-2.94934E-02 1.00051E-13
 -1       661-2.63621E-04-3.05448E-02 6.69782E-04
 -1       663 2.63621E-04-3.05448E-02-6.69782E-04
 -1       672 3.60858E-14-3.79965E-02 1.20207E-13
 -1       674 3.36198E-14-3.55064E-02 1.20191E-13
 -1       675-2.65322E-04-3.67515E-02 7.93145E-04
 -1       677 2.65322E-04-3.67515E-02-7.93145E-04
 -1       686 3.90831E-14-4.44508E-02 1.40002E-13
 -1       688 3.64286E-14-4.15691E-02 1.39767E-13
 -1       689-2.67524E-04-4.30100E-02 9.17885E-04
 -1       691 2.67524E-04-4.30100E-02-9.17885E-04
 -1       700 4.23556E-14-5.08850E-02 1.62372E-13
 -1       702 3.90363E-14-4.76155E-02 1.62445E-13
 -1       703-2.64200E-04-4.92502E-02 1.04138E-03
 -1       705 2.64200E-04-4.92502E-02-1.04138E-03
 -1       714 4.48420E-14-5.72440E-02 1.87626E-13
 -1       716 4.13489E-14-5.35900E-02 1.87699E-13
 -1       717-2.60981E-04-5.54170E-02 1.16386E-03
 -1       719 2.60981E-04-5.54170E-02-1.16386E-03
 -1       728 4.65476E-14-6.34799E-02 2.12641E-13
 -1       730 4.33846E-14-5.94503E-02 2.12644E-13
 -1       731-2.54323E-04-6.14651E-02 1.28351E-03
 -1       733 2.54323E-04-6.14651E-02-1.28351E-03
 -1       742 4.82384E-14-6.95539E-02 2.36683E-13
 -1       744 4.50721E-14-6.51572E-02 2.36571E-13
 -1       745-2.47392E-04-6.73556E-02 1.40046E-03
 -1       747 2.47392E-04-6.73556E-02-1.40046E-03
 -1       756 4.98224E-14-7.54323E-02 2.60168E-13
 -1       758 4.65428E-14-7.06809E-02 2.60381E-13
 -1       759-2.38320E-04-7.30566E-02 1.51339E-03
 -1       761 2.38320E-04-7.30566E-02-1.51339E-03
 -1       770 5.12117E-14-8.10863E-02 2.83666E-13
 -1       772 4.80830E-14-7.59929E-02 2.83880E-13
 -1       773-2.28724E-04-7.85396E-02 1.62236E-03
 -1       775 2.28724E-04-7.85396E-02-1.62236E-03
 -1       784 5.27935E-14-8.64910E-02 3.07237E-13
 -1       786 4.95422E-14-8.10710E-02 3.07222E-13
 -1       787-2.17825E-04-8.37810E-02 1.72637E-03
 -1       789 2.17825E-04-8.37810E-02-1.72637E-03
 -1       798 5.41695E-14-9.16248E-02 3.31680E-13
 -1       800 5.08125E-14-8.58937E-02 3.31303E-13
 -1       801-2.06231E-04-8.87593E-02 1.82548E-03
 -1       803 2.06231E-04-8.87593E-02-1.82548E-03
 -1       812 5.53727E-14-9.64689E-02 3.57410E-13
 -1       814 5.16363E-14-9.04447E-02 3.57563E-13
 -1       815-1.93981E-04-9.34568E-02 1.91882E-03
 -1       817 1.93981E-04-9.34568E-02-1.91882E-03
 -1       826 5.65870E-14-1.01007E-01 3.83890E-13
 -1       828 5.31672E-14-9.47075E-02 3.83878E-13
 -1       829-1.80868E-04-9.78574E-02 2.00658E-03
 -1       831 1.80868E-04-9.78574E-02-2.00658E-03
 -1       840 5.85779E-14-1.05227E-01 4.11247E-13
 -1       842 5.46683E-14-9.86717E-02 4.11760E-13
 -1       843-1.67767E-04-1.01949E-01 2.08791E-03
 -1       845 1.67767E-04-1.01949E-01-2.08791E-03
 -1       854 6.05411E-14-1.09117E-01 4.39813E-13
 -1       856 5.68988E-14-1.02326E-01 4.40003E-13
 -1       857-1.53540E-04-1.05722E-01 2.16320E-03
 -1       859 1.53540E-04-1.05722E-01-2.16320E-03
 -1       868 6.28302E-14-1.12672E-01 4.67905E-13
 -1       870 5.91252E-14-1.05666E-01 4.67674E-13
 -1       871-1.40242E-04-1.09169E-01 2.23157E-03
 -1       873 1.40242E-04-1.09169E-01-2.23157E-03
 -1       882 6.55876E-14-1.15888E-01 4.98691E-13
 -1       884 6.10133E-14-1.08687E-01 4.98280E-13
 -1       885-1.25333E-04-1.12288E-01 2.29376E-03
 -1       887 1.25333E-04-1.12288E-01-2.29376E-03
 -1       896 6.73781E-14-1.18768E-01 5.30755E-13
 -1       898 6.33975E-14-1.11394E-01 5.29917E-13
 -1       899-1.12781E-04-1.15081E-01 2.34871E-03
 -1       901 1.12781E-04-1.15081E-01-2.34871E-03
 -1       910 6.93190E-14-1.21319E-01 5.61891E-13
 -1       912 6.49460E-14-1.13791E-01 5.62036E-13
 -1       913-9.78565E-05-1.17555E-01 2.39774E-03
 -1       915 9.78565E-05-1.17555E-01-2.39774E-03
 -1       924 7.08584E-14-1.23554E-01 5.95182E-13
 -1       926 6.61857E-14-1.15895E-01 5.95265E-13
 -1       927-8.72450E-05-1.19724E-01 2.43947E-03
 -1       929 8.72450E-05-1.19724E-01-2.43947E-03
 -1       938 7.18817E-14-1.25509E-01 6.29412E-13
 -1       940 6.73086E-14-1.17735E-01 6.28411E-13
 -1       941-7.41120E-05-1.21622E-01 2.47610E-03
 -1       943 7.41120E-05-1.21622E-01-2.47610E-03
 -1       952 7.26943E-14-1.27190E-01 6.62809E-13
 -1       954 6.83088E-14-1.19325E-01 6.62423E-13
 -1       955-6.56572E-05-1.23257E-01 2.50534E-03
 -1       957 6.56572E-05-1.23257E-01-2.50534E-03
 -1       966 7.32144E-14-1.28718E-01 6.95621E-13
 -1       968 6.89571E-14-1.20774E-01 6.95155E-13
 -1       969-6.08285E-05-1.24746E-01 2.53047E-03
 -1       971 6.08285E-05-1.24746E-01-2.53047E-03
 -1       980 0.00000E+00 0.00000E+00 2.16436E-05
 -1       982 0.00000E+00-0.00000E+00-2.16436E-05
 -1       983-6.30612E-04-1.29884E-01 2.59692E-02
 -1       985-6.35364E-04-1.22295E-01 2.59604E-02
 -1       986-1.56738E-03-1.72509E-03 1.51681E-03
 -1       988-1.94915E-03-1.43528E-03 1.55922E-03
 -1       989-2.87149E-03-4.67529E-03 3.66798E-03
 -1       991-3.07796E-03-4.06203E-03 3.71315E-03
 -1       992-3.74571E-03-8.91244E-03 5.64112E-03
 -1       994-4.05678E-03-7.97827E-03 5.67251E-03
 -1       995-4.40505E-03-1.38990E-02 7.84210E-03
 -1       997-4.68350E-03-1.26340E-02 7.85909E-03
 -1       998-4.84069E-03-1.94955E-02 1.00534E-02
 -1      1000-5.15135E-03-1.79015E-02 1.00724E-02
 -1      1001-5.14437E-03-2.54644E-02 1.23728E-02
 -1      1003-5.45249E-03-2.35352E-02 1.23774E-02
 -1      1004-5.32119E-03-3.16970E-02 1.47178E-02
 -1      1006-5.63984E-03-2.94302E-02 1.47271E-02
 -1      1007-5.41607E-03-3.80609E-02 1.71092E-02
 -1      1009-5.73534E-03-3.54537E-02 1.71078E-02
 -1      1010-5.43550E-03-4.44846E-02 1.95033E-02
 -1      1012-5.75642E-03-4.15353E-02 1.95058E-02
 -1      1013-5.40180E-03-5.08870E-02 2.19004E-02
 -1      1015-5.72055E-03-4.75967E-02 2.18955E-02
 -1      1016-5.32025E-03-5.72196E-02 2.42710E-02
 -1      1018-5.63534E-03-5.35898E-02 2.42689E-02
 -1      1019-5.20241E-03-6.34293E-02 2.66100E-02
 -1      1021-5.51168E-03-5.94652E-02 2.66029E-02
 -1      1022-5.05197E-03-6.94811E-02 2.88954E-02
 -1      1024-5.35365E-03-6.51882E-02 2.88902E-02
 -1      1025-4.87543E-03-7.53382E-02 3.11208E-02
 -1      1027-5.16789E-03-7.07255E-02 3.11120E-02
 -1      1028-4.67533E-03-8.09742E-02 3.32689E-02
 -1      1030-4.95702E-03-7.60509E-02 3.32614E-02
 -1      1031-4.45577E-03-8.63620E-02 3.53335E-02
 -1      1033-4.72537E-03-8.11404E-02 3.53234E-02
 -1      1034-4.21880E-03-9.14813E-02 3.73010E-02
 -1      1036-4.47501E-03-8.59742E-02 3.72919E-02
 -1      1037-3.96744E-03-9.63119E-02 3.91658E-02
 -1      1039-4.20918E-03-9.05343E-02 3.91547E-02
 -1      1040-3.70385E-03-1.00839E-01 4.09170E-02
 -1      1042-3.93007E-03-9.48064E-02 4.09067E-02
 -1      1043-3.43073E-03-1.05048E-01 4.25500E-02
 -1      1045-3.64057E-03-9.87779E-02 4.25382E-02
 -1      1046-3.15098E-03-1.08930E-01 4.40559E-02
 -1      1048-3.34360E-03-1.02440E-01 4.40451E-02
 -1      1049-2.86751E-03-1.12476E-01 4.54317E-02
 -1      1051-3.04225E-03-1.05787E-01 4.54194E-02
 -1      1052-2.58511E-03-1.15687E-01 4.66693E-02
 -1      1054-2.74123E-03-1.08817E-01 4.66587E-02
 -1      1055-2.30667E-03-1.18558E-01 4.77677E-02
 -1      1057-2.44384E-03-1.11530E-01 4.77557E-02
 -1      1058-2.04221E-03-1.21104E-01 4.87184E-02
 -1      1060-2.15941E-03-1.13941E-01 4.87088E-02
 -1      1061-1.79180E-03-1.23331E-01 4.95224E-02
 -1      1063-1.88936E-03-1.16056E-01 4.95117E-02
 -1      1064-1.57964E-03-1.25274E-01 5.01676E-02
 -1      1066-1.65508E-03-1.17911E-01 5.01604E-02
 -1      1067-1.39589E-03-1.26961E-01 5.06564E-02
 -1      1069-1.45137E-03-1.19538E-01 5.06495E-02
 -1      1070-1.28764E-03-1.28437E-01 5.09651E-02
 -1      1072-1.31508E-03-1.20972E-01 5.09601E-02
 -1      1073 0.00000E+00 0.00000E+00-2.16436E-05
 -1      1075 0.00000E+00-0.00000E+00 2.16436E-05
 -1      1076 0.00000E+00 2.74735E-17 0.00000E+00
 -1      1078 0.00000E+00-2.74735E-17 0.00000E+00
 -1      1079 0.00000E+00 2.90342E-18 0.00000E+00
 -1      1081 0.00000E+00-2.90342E-18 0.00000E+00
 -1      1082 0.00000E+00-1.29111E-17 0.00000E+00
 -1      1084 0.00000E+00 1.29111E-17 0.00000E+00
 -1      1085 1.06479E-04 1.28859E-03 4.32049E-05
 -1      1087-1.06479E-04 1.28859E-03-4.32049E-05
 -1      1088-6.51238E-15 1.35641E-03 6.59786E-15
 -1      1090-4.95718E-15 1.22077E-03 6.33451E-15
 -1      1099 1.48848E-04 4.27236E-03 1.26218E-04
 -1      1101-1.48848E-04 4.27236E-03-1.26218E-04
 -1      1102-1.18906E-14 4.47049E-03 1.71312E-14
 -1      1104-1.05580E-14 4.07422E-03 1.69613E-14
 -1      1113 1.95529E-04 8.33311E-03 2.14485E-04
 -1      1115-1.95529E-04 8.33311E-03-2.14485E-04
 -1      1116-1.71957E-14 8.66980E-03 3.03437E-14
 -1      1118-1.50632E-14 7.99642E-03 3.01599E-14
 -1      1127 2.19837E-04 1.32028E-02 3.18198E-04
 -1      1129-2.19837E-04 1.32028E-02-3.18198E-04
 -1      1130-2.12686E-14 1.37023E-02 4.58692E-14
 -1      1132-1.92312E-14 1.27034E-02 4.57311E-14
 -1      1141 2.43142E-04 1.86486E-02 4.30086E-04
 -1      1143-2.43142E-04 1.86486E-02-4.30086E-04
 -1      1144-2.51832E-14 1.93237E-02 6.29539E-14
 -1      1146-2.26540E-14 1.79735E-02 6.28032E-14
 -1      1155 2.53213E-04 2.44713E-02 5.47599E-04
 -1      1157-2.53213E-04 2.44713E-02-5.47599E-04
 -1      1158-2.82838E-14 2.53309E-02 8.13669E-14
 -1      1160-2.58491E-14 2.36117E-02 8.13015E-14
 -1      1169 2.63621E-04 3.05448E-02 6.69782E-04
 -1      1171-2.63621E-04 3.05448E-02-6.69782E-04
 -1      1172-3.13154E-14 3.15962E-02 9.94518E-14
 -1      1174-2.89207E-14 2.94934E-02 9.93406E-14
 -1      1183 2.65322E-04 3.67515E-02 7.93145E-04
 -1      1185-2.65322E-04 3.67515E-02-7.93145E-04
 -1      1186-3.46463E-14 3.79965E-02 1.18309E-13
 -1      1188-3.19245E-14 3.55064E-02 1.18120E-13
 -1      1197 2.67524E-04 4.30100E-02 9.17885E-04
 -1      1199-2.67524E-04 4.30100E-02-9.17885E-04
 -1      1200-3.76858E-14 4.44508E-02 1.40148E-13
 -1      1202-3.43504E-14 4.15691E-02 1.39912E-13
 -1      1211 2.64200E-04 4.92502E-02 1.04138E-03
 -1      1213-2.64200E-04 4.92502E-02-1.04138E-03
 -1      1214-3.98493E-14 5.08850E-02 1.63796E-13
 -1      1216-3.64567E-14 4.76155E-02 1.63720E-13
 -1      1225 2.60981E-04 5.54170E-02 1.16386E-03
 -1      1227-2.60981E-04 5.54170E-02-1.16386E-03
 -1      1228-4.16441E-14 5.72440E-02 1.87030E-13
 -1      1230-3.84585E-14 5.35900E-02 1.86796E-13
 -1      1239 2.54323E-04 6.14651E-02 1.28351E-03
 -1      1241-2.54323E-04 6.14651E-02-1.28351E-03
 -1      1242-4.34943E-14 6.34799E-02 2.09376E-13
 -1      1244-4.03249E-14 5.94503E-02 2.09289E-13
 -1      1253 2.47392E-04 6.73556E-02 1.40046E-03
 -1      1255-2.47392E-04 6.73556E-02-1.40046E-03
 -1      1256-4.49017E-14 6.95539E-02 2.32084E-13
 -1      1258-4.17217E-14 6.51572E-02 2.32135E-13
 -1      1267 2.38320E-04 7.30566E-02 1.51339E-03
 -1      1269-2.38320E-04 7.30566E-02-1.51339E-03
 -1      1270-4.60191E-14 7.54323E-02 2.56091E-13
 -1      1272-4.25472E-14 7.06809E-02 2.55729E-13
 -1      1281 2.28724E-04 7.85396E-02 1.62236E-03
 -1      1283-2.28724E-04 7.85396E-02-1.62236E-03
 -1      1284-4.65862E-14 8.10863E-02 2.79866E-13
 -1      1286-4.35275E-14 7.59929E-02 2.79610E-13
 -1      1295 2.17825E-04 8.37810E-02 1.72637E-03
 -1      1297-2.17825E-04 8.37810E-02-1.72637E-03
 -1      1298-4.76992E-14 8.64910E-02 3.03030E-13
 -1      1300-4.44910E-14 8.10710E-02 3.02978E-13
 -1      1309 2.06231E-04 8.87593E-02 1.82548E-03
 -1      1311-2.06231E-04 8.87593E-02-1.82548E-03
 -1      1312-4.93486E-14 9.16248E-02 3.28038E-13
 -1      1314-4.56484E-14 8.58937E-02 3.28045E-13
 -1      1323 1.93981E-04 9.34568E-02 1.91882E-03
 -1      1325-1.93981E-04 9.34568E-02-1.91882E-03
 -1      1326-5.10406E-14 9.64689E-02 3.55565E-13
 -1      1328-4.72436E-14 9.04447E-02 3.55443E-13
 -1      1337 1.80868E-04 9.78574E-02 2.00658E-03
 -1      1339-1.80868E-04 9.78574E-02-2.00658E-03
 -1      1340-5.29299E-14 1.01007E-01 3.83963E-13
 -1      1342-4.89469E-14 9.47075E-02 3.83985E-13
 -1      1351 1.67767E-04 1.01949E-01 2.08791E-03
 -1      1353-1.67767E-04 1.01949E-01-2.08791E-03
 -1      1354-5.44907E-14 1.05227E-01 4.12743E-13
 -1      1356-5.07134E-14 9.86717E-02 4.12222E-13
 -1      1365 1.53540E-04 1.05722E-01 2.16320E-03
 -1      1367-1.53540E-04 1.05722E-01-2.16320E-03
 -1      1368-5.59935E-14 1.09117E-01 4.41214E-13
 -1      1370-5.20451E-14 1.02326E-01 4.40715E-13
 -1      1379 1.40242E-04 1.09169E-01 2.23157E-03
 -1      1381-1.40242E-04 1.09169E-01-2.23157E-03
 -1      1382-5.70386E-14 1.12672E-01 4.68681E-13
 -1      1384-5.33193E-14 1.05666E-01 4.68731E-13
 -1      1393 1.25333E-04 1.12288E-01 2.29376E-03
 -1      1395-1.25333E-04 1.12288E-01-2.29376E-03
 -1      1396-5.79748E-14 1.15888E-01 4.95265E-13
 -1      1398-5.44023E-14 1.08687E-01 4.95615E-13
 -1      1407 1.12781E-04 1.15081E-01 2.34871E-03
 -1      1409-1.12781E-04 1.15081E-01-2.34871E-03
 -1      1410-5.92944E-14 1.18768E-01 5.24831E-13
 -1      1412-5.49389E-14 1.11394E-01 5.25160E-13
 -1      1421 9.78565E-05 1.17555E-01 2.39774E-03
 -1      1423-9.78565E-05 1.17555E-01-2.39774E-03
 -1      1424-6.00255E-14 1.21319E-01 5.58594E-13
 -1      1426-5.53510E-14 1.13791E-01 5.58683E-13
 -1      1435 8.72450E-05 1.19724E-01 2.43947E-03
 -1      1437-8.72450E-05 1.19724E-01-2.43947E-03
 -1      1438-6.02564E-14 1.23554E-01 5.93025E-13
 -1      1440-5.58678E-14 1.15895E-01 5.92739E-13
 -1      1449 7.41120E-05 1.21622E-01 2.47610E-03
 -1      1451-7.41120E-05 1.21622E-01-2.47610E-03
 -1      1452-6.06949E-14 1.25509E-01 6.24413E-13
 -1      1454-5.65654E-14 1.17735E-01 6.25247E-13
 -1      1463 6.56572E-05 1.23257E-01 2.50534E-03
 -1      1465-6.56572E-05 1.23257E-01-2.50534E-03
 -1      1466-6.14053E-14 1.27190E-01 6.57358E-13
 -1      1468-5.68421E-14 1.19325E-01 6.57785E-13
 -1      1477 6.08285E-05 1.24746E-01 2.53047E-03
 -1      1479-6.08285E-05 1.24746E-01-2.53047E-03
 -1      1480-6.19046E-14 1.28718E-01 6.92125E-13
 -1      1482-5.71113E-14 1.20774E-01 6.92233E-13
 -1      1491-2.51559E-05-6.44655E-02 2.74461E-03
 -1      1493 2.51559E-05-6.44655E-02-2.74461E-03
 -1      1494 4.67812E-14 5.75638E-12 2.79655E-03
 -1      1496-3.29537E-14 5.75615E-12-2.79655E-03
 -1      1497 2.51559E-05 6.44655E-02 2.74461E-03
 -1      1499-2.51559E-05 6.44655E-02-2.74461E-03
 -1      1500 1.56738E-03 1.72509E-03 1.51681E-03
 -1      1502 1.94915E-03 1.43528E-03 1.55922E-03
 -1      1503 2.87149E-03 4.67529E-03 3.66798E-03
 -1      1505 3.07796E-03 4.06203E-03 3.71315E-03
 -1      1506 3.74571E-03 8.91244E-03 5.64112E-03
 -1      1508 4.05678E-03 7.97827E-03 5.67251E-03
 -1      1509 4.40505E-03 1.38990E-02 7.84210E-03
 -1      1511 4.68350E-03 1.26340E-02 7.85909E-03
 -1      1512 4.84069E-03 1.94955E-02 1.00534E-02
 -1      1514 5.15135E-03 1.79015E-02 1.00724E-02
 -1      1515 5.14437E-03 2.54644E-02 1.23728E-02
 -1      1517 5.45249E-03 2.35352E-02 1.23774E-02
 -1      1518 5.32119E-03 3.16970E-02 1.47178E-02
 -1      1520 5.63984E-03 2.94302E-02 1.47271E-02
 -1      1521 5.41607E-03 3.80609E-02 1.71092E-02
 -1      1523 5.73534E-03 3.54537E-02 1.71078E-02
 -1      1524 5.43550E-03 4.44846E-02 1.95033E-02
 -1      1526 5.75642E-03 4.15353E-02 1.95058E-02
 -1      1527 5.40180E-03 5.08870E-02 2.19004E-02
 -1      1529 5.72055E-03 4.75967E-02 2.18955E-02
 -1      1530 5.32025E-03 5.72196E-02 2.42710E-02
 -1      1532 5.63534E-03 5.35898E-02 2.42689E-02
 -1      1533 5.20241E-03 6.34293E-02 2.66100E-02
 -1      1535 5.51168E-03 5.94652E-02 2.66029E-02
 -1      1536 5.05197E-03 6.94811E-02 2.88954E-02
 -1      1538 5.35365E-03 6.51882E-02 2.88902E-02
 -1      1539 4.87543E-03 7.53382E-02 3.11208E-02
 -1      1541 5.16789E-03 7.07255E-02 3.11120E-02
 -1      1542 4.67533E-03 8.09742E-02 3.32689E-02
 -1      1544 4.95702E-03 7.60509E-02 3.32614E-02
 -1      1545 4.45577E-03 8.63620E-02 3.53335E-02
 -1      1547 4.72537E-03 8.11404E-02 3.53234E-02
 -1      1548 4.21880E-03 9.14813E-02 3.73010E-02
 -1      1550 4.47501E-03 8.59742E-02 3.72919E-02
 -1      1551 3.96744E-03 9.63119E-02 3.91658E-02
 -1      1553 4.20918E-03 9.05343E-02 3.91547E-02
 -1      1554 3.70385E-03 1.00839E-01 4.09170E-02
 -1      1556 3.93007E-03 9.48064E-02 4.09067E-02
 -1      1557 3.43073E-03 1.05048E-01 4.25500E-02
 -1      1559 3.64057E-03 9.87779E-02 4.25382E-02
 -1      1560 3.15098E-03 1.08930E-01 4.40559E-02
 -1      1562 3.34360E-03 1.02440E-01 4.40451E-02
 -1      1563 2.86751E-03 1.12476E-01 4.54317E-02
 -1      1565 3.04225E-03 1.05787E-01 4.54194E-02
 -1      1566 2.58511E-03 1.15687E-01 4.66693E-02
 -1      1568 2.74123E-03 1.08817E-01 4.66587E-02
 -1      1569 2.30667E-03 1.18558E-01 4.77677E-02
 -1      1571 2.44384E-03 1.11530E-01 4.77557E-02
 -1      1572 2.04221E-03 1.21104E-01 4.87184E-02
 -1      1574 2.15941E-03 1.13941E-01 4.87088E-02
 -1      1575 1.79180E-03 1.23331E-01 4.95224E-02
 -1      1577 1.88936E-03 1.16056E-01 4.95117E-02
 -1      1578 1.57964E-03 1.25274E-01 5.01676E-02
 -1      1580 1.65508E-03 1.17911E-01 5.01604E-02
 -1      1581 1.39589E-03 1.26961E-01 5.06564E-02
 -1      1583 1.45137E-03 1.19538E-01 5.06495E-02
 -1      1584 1.28764E-03 1.28437E-01 5.09651E-02
 -1      1586 1.31508E-03 1.20972E-01 5.09601E-02
 -1      1587 6.30612E-04 1.29884E-01 2.59692E-02
 -1      1589 6.35364E-04 1.22295E-01 2.59604E-02
 -1      1590 0.00000E+00 0.00000E+00-2.16436E-05
 -1      1592 0.00000E+00 0.00000E+00 2.16436E-05
 -1      1593-6.30612E-04 1.29884E-01-2.59692E-02
 -1      1595-6.35364E-04 1.22295E-01-2.59604E-02
 -1      1596-1.56738E-03 1.72509E-03-1.51681E-03
 -1      1598-1.94915E-03 1.43528E-03-1.55922E-03
 -1      1599-2.87149E-03 4.67529E-03-3.66798E-03
 -1      1601-3.07796E-03 4.06203E-03-3.71315E-03
 -1      1602-3.74571E-03 8.91244E-03-5.64112E-03
 -1      1604-4.05678E-03 7.97827E-03-5.67251E-03
 -1      1605-4.40505E-03 1.38990E-02-7.84210E-03
 -1      1607-4.68350E-03 1.26340E-02-7.85909E-03
 -1      1608-4.84069E-03 1.94955E-02-1.00534E-02
 -1      1610-5.15135E-03 1.79015E-02-1.00724E-02
 -1      1611-5.14437E-03 2.54644E-02-1.23728E-02
 -1      1613-5.45249E-03 2.35352E-02-1.23774E-02
 -1      1614-5.32119E-03 3.16970E-02-1.47178E-02
 -1      1616-5.63984E-03 2.94302E-02-1.47271E-02
 -1      1617-5.41607E-03 3.80609E-02-1.71092E-02
 -1      1619-5.73534E-03 3.54537E-02-1.71078E-02
 -1      1620-5.43550E-03 4.44846E-02-1.95033E-02
 -1      1622-5.75642E-03 4.15353E-02-1.95058E-02
 -1      1623-5.40180E-03 5.08870E-02-2.19004E-02
 -1      1625-5.72055E-03 4.75967E-02-2.18955E-02
 -1      1626-5.32025E-03 5.72196E-02-2.42710E-02
 -1      1628-5.63534E-03 5.35898E-02-2.42689E-02
 -1      1629-5.20241E-03 6.34293E-02-2.66100E-02
 -1      1631-5.51168E-03 5.94652E-02-2.66029E-02
 -1      1632-5.05197E-03 6.94811E-02-2.88954E-02
 -1      1634-5.35365E-03 6.51882E-02-2.88902E-02
 -1      1635-4.87543E-03 7.53382E-02-3.11208E-02
 -1      1637-5.16789E-03 7.07255E-02-3.11120E-02
 -1      1638-4.67533E-03 8.09742E-02-3.32689E-02
 -1      1640-4.95702E-03 7.60509E-02-3.32614E-02
 -1      1641-4.45577E-03 8.63620E-02-3.53335E-02
 -1      1643-4.72537E-03 8.11404E-02-3.53234E-02
 -1      1644-4.21880E-03 9.14813E-02-3.73010E-02
 -1      1646-4.47501E-03 8.59742E-02-3.72919E-02
 -1      1647-3.96744E-03 9.63119E-02-3.91658E-02
 -1      1649-4.20918E-03 9.05343E-02-3.91547E-02
 -1      1650-3.70385E-03 1.00839E-01-4.09170E-02
 -1      1652-3.93007E-03 9.48064E-02-4.09067E-02
 -1      1653-3.43073E-03 1.05048E-01-4.25500E-02
 -1      1655-3.64057E-03 9.87779E-02-4.25382E-02
 -1      1656-3.15098E-03 1.08930E-01-4.40559E-02
 -1      1658-3.34360E-03 1.02440E-01-4.40451E-02
 -1      1659-2.86751E-03 1.12476E-01-4.54317E-02
 -1      1661-3.04225E-03 1.05787E-01-4.54194E-02
 -1      1662-2.58511E-03 1.15687E-01-4.66693E-02
 -1      1664-2.74123E-03 1.08817E-01-4.66587E-02
 -1      1665-2.30667E-03 1.18558E-01-4.77677E-02
 -1      1667-2.44384E-03 1.11530E-01-4.77557E-02
 -1      1668-2.04221E-03 1.21104E-01-4.87184E-02
 -1      1670-2.15941E-03 1.13941E-01-4.87088E-02
 -1      1671-1.79180E-03 1.23331E-01-4.95224E-02
 -1      1673-1.88936E-03 1.16056E-01-4.95117E-02
 -1      1674-1.57964E-03 1.25274E-01-5.01676E-02
 -1      1676-1.65508E-03 1.17911E-01-5.01604E-02
 -1      1677-1.39589E-03 1.26961E-01-5.06564E-02
 -1      1679-1.45137E-03 1.19538E-01-5.06495E-02
 -1      1680-1.28764E-03 1.28437E-01-5.09651E-02
 -1      1682-1.31508E-03 1.20972E-01-5.09601E-02
 -1      1683 0.00000E+00 0.00000E+00 2.16436E-05
 -1      1685 0.00000E+00 0.00000E+00-2.16436E-05
 -1      1686 6.87901E-04-1.46001E-03-6.19378E-04
 -1      1688 8.65676E-04-1.20863E-03-6.54763E-04
 -1      1689 1.42091E-03-4.61262E-03-1.65962E-03
 -1      1691 1.52410E-03-4.01539E-03-1.68142E-03
 -1      1692 1.83250E-03-8.78877E-03-2.59944E-03
 -1      1694 1.98672E-03-7.89256E-03-2.61676E-03
 -1      1695 2.17995E-03-1.38382E-02-3.70102E-03
 -1      1697 2.32492E-03-1.26194E-02-3.71369E-03
 -1      1698 2.39958E-03-1.94259E-02-4.82319E-03
 -1      1700 2.56040E-03-1.78772E-02-4.83043E-03
 -1      1701 2.55383E-03-2.54252E-02-6.01113E-03
 -1      1703 2.71633E-03-2.35398E-02-6.01743E-03
 -1      1704 2.64665E-03-3.16625E-02-7.22281E-03
 -1      1706 2.81401E-03-2.94292E-02-7.22503E-03
 -1      1707 2.69464E-03-3.80456E-02-8.45650E-03
 -1      1709 2.86326E-03-3.54635E-02-8.45837E-03
 -1      1710 2.70722E-03-4.44773E-02-9.69603E-03
 -1      1712 2.87613E-03-4.15405E-02-9.69547E-03
 -1      1713 2.69094E-03-5.08933E-02-1.09324E-02
 -1      1715 2.85882E-03-4.76048E-02-1.09314E-02
 -1      1716 2.65181E-03-5.72339E-02-1.21563E-02
 -1      1718 2.81733E-03-5.35941E-02-1.21540E-02
 -1      1719 2.59348E-03-6.34538E-02-1.33596E-02
 -1      1721 2.75579E-03-5.94692E-02-1.33565E-02
 -1      1722 2.51928E-03-6.95128E-02-1.45349E-02
 -1      1724 2.67726E-03-6.51891E-02-1.45313E-02
 -1      1725 2.43155E-03-7.53777E-02-1.56761E-02
 -1      1727 2.58451E-03-7.07250E-02-1.56718E-02
 -1      1728 2.33219E-03-8.10197E-02-1.67770E-02
 -1      1730 2.47928E-03-7.60478E-02-1.67723E-02
 -1      1731 2.22292E-03-8.64136E-02-1.78326E-02
 -1      1733 2.36352E-03-8.11357E-02-1.78273E-02
 -1      1734 2.10498E-03-9.15378E-02-1.88379E-02
 -1      1736 2.23843E-03-8.59672E-02-1.88324E-02
 -1      1737 1.97981E-03-9.63733E-02-1.97889E-02
 -1      1739 2.10560E-03-9.05258E-02-1.97831E-02
 -1      1740 1.84850E-03-1.00904E-01-2.06818E-02
 -1      1742 1.96612E-03-9.47958E-02-2.06757E-02
 -1      1743 1.71252E-03-1.05117E-01-2.15131E-02
 -1      1745 1.82156E-03-9.87660E-02-2.15069E-02
 -1      1746 1.57312E-03-1.09001E-01-2.22802E-02
 -1      1748 1.67319E-03-1.02426E-01-2.22736E-02
 -1      1749 1.43215E-03-1.12551E-01-2.29802E-02
 -1      1751 1.52302E-03-1.05771E-01-2.29741E-02
 -1      1752 1.29128E-03-1.15762E-01-2.36120E-02
 -1      1754 1.37257E-03-1.08797E-01-2.36052E-02
 -1      1755 1.15360E-03-1.18638E-01-2.41730E-02
 -1      1757 1.22543E-03-1.11510E-01-2.41674E-02
 -1      1758 1.02050E-03-1.21182E-01-2.46637E-02
 -1      1760 1.08224E-03-1.13912E-01-2.46571E-02
 -1      1761 8.99954E-04-1.23415E-01-2.50817E-02
 -1      1763 9.52405E-04-1.16027E-01-2.50772E-02
 -1      1764 7.88402E-04-1.25350E-01-2.54274E-02
 -1      1766 8.29845E-04-1.17868E-01-2.54220E-02
 -1      1767 7.08827E-04-1.27045E-01-2.56980E-02
 -1      1769 7.41268E-04-1.19493E-01-2.56945E-02
 -1      1770 6.46957E-04-1.28506E-01-2.58818E-02
 -1      1772 6.64665E-04-1.20920E-01-2.58823E-02
 -1      1773-6.87901E-04-1.46001E-03 6.19378E-04
 -1      1775-8.65676E-04-1.20863E-03 6.54763E-04
 -1      1776-1.42091E-03-4.61262E-03 1.65962E-03
 -1      1778-1.52410E-03-4.01539E-03 1.68142E-03
 -1      1779-1.83250E-03-8.78877E-03 2.59944E-03
 -1      1781-1.98672E-03-7.89256E-03 2.61676E-03
 -1      1782-2.17995E-03-1.38382E-02 3.70102E-03
 -1      1784-2.32492E-03-1.26194E-02 3.71369E-03
 -1      1785-2.39958E-03-1.94259E-02 4.82319E-03
 -1      1787-2.56040E-03-1.78772E-02 4.83043E-03
 -1      1788-2.55383E-03-2.54252E-02 6.01113E-03
 -1      1790-2.71633E-03-2.35398E-02 6.01743E-03
 -1      1791-2.64665E-03-3.16625E-02 7.22281E-03
 -1      1793-2.81401E-03-2.94292E-02 7.22503E-03
 -1      1794-2.69464E-03-3.80456E-02 8.45650E-03
 -1      1796-2.86326E-03-3.54635E-02 8.45837E-03
 -1      1797-2.70722E-03-4.44773E-02 9.69603E-03
 -1      1799-2.87613E-03-4.15405E-02 9.69547E-03
 -1      1800-2.69094E-03-5.08933E-02 1.09324E-02
 -1      1802-2.85882E-03-4.76048E-02 1.09314E-02
 -1      1803-2.65181E-03-5.72339E-02 1.21563E-02
 -1      1805-2.81733E-03-5.35941E-02 1.21540E-02
 -1      1806-2.59348E-03-6.34538E-02 1.33596E-02
 -1      1808-2.75579E-03-5.94692E-02 1.33565E-02
 -1      1809-2.51928E-03-6.95128E-02 1.45349E-02
 -1      1811-2.67726E-03-6.51891E-02 1.45313E-02
 -1      1812-2.43155E-03-7.53777E-02 1.56761E-02
 -1      1814-2.58451E-03-7.07250E-02 1.56718E-02
 -1      1815-2.33219E-03-8.10197E-02 1.67770E-02
 -1      1817-2.47928E-03-7.60478E-02 1.67723E-02
 -1      1818-2.22292E-03-8.64136E-02 1.78326E-02
 -1      1820-2.36352E-03-8.11357E-02 1.78273E-02
 -1      1821-2.10498E-03-9.15378E-02 1.88379E-02
 -1      1823-2.23843E-03-8.59672E-02 1.88324E-02
 -1      1824-1.97981E-03-9.63733E-02 1.97889E-02
 -1      1826-2.10560E-03-9.05258E-02 1.97831E-02
 -1      1827-1.84850E-03-1.00904E-01 2.06818E-02
 -1      1829-1.96612E-03-9.47958E-02 2.06757E-02
 -1      1830-1.71252E-03-1.05117E-01 2.15131E-02
 -1      1832-1.82156E-03-9.87660E-02 2.15069E-02
 -1      1833-1.57312E-03-1.09001E-01 2.22802E-02
 -1      1835-1.67319E-03-1.02426E-01 2.22736E-02
 -1      1836-1.43215E-03-1.12551E-01 2.29802E-02
 -1      1838-1.52302E-03-1.05771E-01 2.29741E-02
 -1      1839-1.29128E-03-1.15762E-01 2.36120E-02
 -1      1841-1.37257E-03-1.08797E-01 2.36052E-02
 -1      1842-1.15360E-03-1.18638E-01 2.41730E-02
 -1      1844-1.22543E-03-1.11510E-01 2.41674E-02
 -1      1845-1.02050E-03-1.21182E-01 2.46637E-02
 -1      1847-1.08224E-03-1.13912E-01 2.46571E-02
 -1      1848-8.99954E-04-1.23415E-01 2.50817E-02
 -1      1850-9.52405E-04-1.16027E-01 2.50772E-02
 -1      1851-7.88402E-04-1.25350E-01 2.54274E-02
 -1      1853-8.29845E-04-1.17868E-01 2.54220E-02
 -1      1854-7.08827E-04-1.27045E-01 2.56980E-02
 -1      1856-7.41268E-04-1.19493E-01 2.56945E-02
 -1      1857-6.46957E-04-1.28506E-01 2.58818E-02
 -1      1859-6.64665E-04-1.20920E-01 2.58823E-02
 -1      1860-5.06059E-05-5.75711E-04 1.84112E-05
 -1      1862 5.06059E-05-5.75711E-04-1.84112E-05
 -1      1863-7.50934E-05-2.02325E-03 6.95136E-05
 -1      1865 7.50934E-05-2.02325E-03-6.95136E-05
 -1      1866-9.90075E-05-4.02628E-03 1.56692E-04
 -1      1868 9.90075E-05-4.02628E-03-1.56692E-04
 -1      1869-1.12905E-04-6.46686E-03 2.62802E-04
 -1      1871 1.12905E-04-6.46686E-03-2.62802E-04
 -1      1872-1.25416E-04-9.21218E-03 3.82342E-04
 -1      1874 1.25416E-04-9.21218E-03-3.82342E-04
 -1      1875-1.31372E-04-1.21707E-02 5.11251E-04
 -1      1877 1.31372E-04-1.21707E-02-5.11251E-04
 -1      1878-1.37174E-04-1.52656E-02 6.44972E-04
 -1      1880 1.37174E-04-1.52656E-02-6.44972E-04
 -1      1881-1.38451E-04-1.84421E-02 7.81988E-04
 -1      1883 1.38451E-04-1.84421E-02-7.81988E-04
 -1      1884-1.39850E-04-2.16500E-02 9.19598E-04
 -1      1886 1.39850E-04-2.16500E-02-9.19598E-04
 -1      1887-1.38306E-04-2.48562E-02 1.05675E-03
 -1      1889 1.38306E-04-2.48562E-02-1.05675E-03
 -1      1890-1.36756E-04-2.80271E-02 1.19201E-03
 -1      1892 1.36756E-04-2.80271E-02-1.19201E-03
 -1      1893-1.33354E-04-3.11408E-02 1.32443E-03
 -1      1895 1.33354E-04-3.11408E-02-1.32443E-03
 -1      1896-1.29783E-04-3.41743E-02 1.45332E-03
 -1      1898 1.29783E-04-3.41743E-02-1.45332E-03
 -1      1899-1.25056E-04-3.71122E-02 1.57777E-03
 -1      1901 1.25056E-04-3.71122E-02-1.57777E-03
 -1      1902-1.20044E-04-3.99378E-02 1.69751E-03
 -1      1904 1.20044E-04-3.99378E-02-1.69751E-03
 -1      1905-1.14336E-04-4.26398E-02 1.81163E-03
 -1      1907 1.14336E-04-4.26398E-02-1.81163E-03
 -1      1908-1.08260E-04-4.52061E-02 1.92020E-03
 -1      1910 1.08260E-04-4.52061E-02-1.92020E-03
 -1      1911-1.01844E-04-4.76282E-02 2.02222E-03
 -1      1913 1.01844E-04-4.76282E-02-2.02222E-03
 -1      1914-9.49715E-05-4.98973E-02 2.11812E-03
 -1      1916 9.49715E-05-4.98973E-02-2.11812E-03
 -1      1917-8.81262E-05-5.20081E-02 2.20674E-03
 -1      1919 8.81262E-05-5.20081E-02-2.20674E-03
 -1      1920-8.06786E-05-5.39543E-02 2.28900E-03
 -1      1922 8.06786E-05-5.39543E-02-2.28900E-03
 -1      1923-7.37588E-05-5.57347E-02 2.36338E-03
 -1      1925 7.37588E-05-5.57347E-02-2.36338E-03
 -1      1926-6.59620E-05-5.73458E-02 2.43162E-03
 -1      1928 6.59620E-05-5.73458E-02-2.43162E-03
 -1      1929-5.94629E-05-5.87918E-02 2.49156E-03
 -1      1931 5.94629E-05-5.87918E-02-2.49156E-03
 -1      1932-5.16510E-05-6.00733E-02 2.54635E-03
 -1      1934 5.16510E-05-6.00733E-02-2.54635E-03
 -1      1935-4.61694E-05-6.12009E-02 2.59261E-03
 -1      1937 4.61694E-05-6.12009E-02-2.59261E-03
 -1      1938-3.92351E-05-6.21863E-02 2.63647E-03
 -1      1940 3.92351E-05-6.21863E-02-2.63647E-03
 -1      1941-3.47669E-05-6.30392E-02 2.67159E-03
 -1      1943 3.47669E-05-6.30392E-02-2.67159E-03
 -1      1944-3.18966E-05-6.38085E-02 2.71208E-03
 -1      1946 3.18966E-05-6.38085E-02-2.71208E-03
 -1      1947-7.46126E-15-8.79340E-14 3.16062E-05
 -1      1949 7.77893E-15-8.79219E-14-3.16062E-05
 -1      1950-1.04277E-14-3.02798E-13 1.03689E-04
 -1      1952 1.18491E-14-3.02825E-13-1.03689E-04
 -1      1953-1.35794E-14-6.01113E-13 1.89743E-04
 -1      1955 1.58677E-14-6.01113E-13-1.89743E-04
 -1      1956-1.54087E-14-9.62751E-13 2.92780E-04
 -1      1958 1.78765E-14-9.62785E-13-2.92780E-04
 -1      1959-1.72115E-14-1.36708E-12 4.09890E-04
 -1      1961 1.94498E-14-1.36709E-12-4.09890E-04
 -1      1962-1.80726E-14-1.79927E-12 5.35051E-04
 -1      1964 2.00811E-14-1.79928E-12-5.35051E-04
 -1      1965-1.75548E-14-2.23738E-12 6.67774E-04
 -1      1967 1.99745E-14-2.23735E-12-6.67774E-04
 -1      1968-1.64495E-14-2.66376E-12 8.03710E-04
 -1      1970 1.97192E-14-2.66376E-12-8.03710E-04
 -1      1971-1.52653E-14-3.07045E-12 9.42155E-04
 -1      1973 1.88680E-14-3.07041E-12-9.42155E-04
 -1      1974-1.29890E-14-3.43663E-12 1.08054E-03
 -1      1976 1.62535E-14-3.43660E-12-1.08054E-03
 -1      1977-1.02828E-14-3.74061E-12 1.21812E-03
 -1      1979 1.30419E-14-3.74049E-12-1.21812E-03
 -1      1980-7.06650E-15-3.97254E-12 1.35326E-03
 -1      1982 9.65471E-15-3.97254E-12-1.35326E-03
 -1      1983-3.19401E-15-4.12255E-12 1.48541E-03
 -1      1985 5.93297E-15-4.12255E-12-1.48541E-03
 -1      1986-2.97071E-17-4.19210E-12 1.61336E-03
 -1      1988 2.91780E-15-4.19197E-12-1.61336E-03
 -1      1989 3.88698E-15-4.18147E-12 1.73683E-03
 -1      1991-8.17272E-16-4.18129E-12-1.73683E-03
 -1      1992 8.59574E-15-4.07332E-12 1.85475E-03
 -1      1994-5.09857E-15-4.07333E-12-1.85475E-03
 -1      1995 1.34348E-14-3.86331E-12 1.96719E-03
 -1      1997-8.84666E-15-3.86342E-12-1.96719E-03
 -1      1998 1.91532E-14-3.54312E-12 2.07301E-03
 -1      2000-1.38019E-14-3.54307E-12-2.07301E-03
 -1      2001 2.29285E-14-3.11681E-12 2.17271E-03
 -1      2003-1.77536E-14-3.11673E-12-2.17271E-03
 -1      2004 2.67511E-14-2.59937E-12 2.26496E-03
 -1      2006-2.19837E-14-2.59917E-12-2.26496E-03
 -1      2007 3.09971E-14-1.98551E-12 2.35081E-03
 -1      2009-2.62425E-14-1.98511E-12-2.35081E-03
 -1      2010 3.37801E-14-1.29184E-12 2.42856E-03
 -1      2012-2.86676E-14-1.29209E-12-2.42856E-03
 -1      2013 3.72348E-14-5.33565E-13 2.50000E-03
 -1      2015-3.12166E-14-5.33637E-13-2.50000E-03
 -1      2016 4.03774E-14 2.86297E-13 2.56296E-03
 -1      2018-3.24855E-14 2.85709E-13-2.56296E-03
 -1      2019 4.30342E-14 1.15261E-12 2.62008E-03
 -1      2021-3.35376E-14 1.15281E-12-2.62008E-03
 -1      2022 4.47611E-14 2.05576E-12 2.66868E-03
 -1      2024-3.43519E-14 2.05579E-12-2.66868E-03
 -1      2025 4.58045E-14 2.98189E-12 2.71211E-03
 -1      2027-3.46307E-14 2.98132E-12-2.71211E-03
 -1      2028 4.60023E-14 3.91274E-12 2.74729E-03
 -1      2030-3.39498E-14 3.91248E-12-2.74729E-03
 -1      2031 4.59719E-14 4.83522E-12 2.77668E-03
 -1      2033-3.27802E-14 4.83494E-12-2.77668E-03
 -1      2034 5.06059E-05 5.75711E-04 1.84112E-05
 -1      2036-5.06059E-05 5.75711E-04-1.84112E-05
 -1      2037 7.50934E-05 2.02325E-03 6.95136E-05
 -1      2039-7.50934E-05 2.02325E-03-6.95136E-05
 -1      2040 9.90075E-05 4.02628E-03 1.56692E-04
 -1      2042-9.90075E-05 4.02628E-03-1.56692E-04
 -1      2043 1.12905E-04 6.46686E-03 2.62802E-04
 -1      2045-1.12905E-04 6.46686E-03-2.62802E-04
 -1      2046 1.25416E-04 9.21218E-03 3.82342E-04
 -1      2048-1.25416E-04 9.21218E-03-3.82342E-04
 -1      2049 1.31372E-04 1.21707E-02 5.11251E-04
 -1      2051-1.31372E-04 1.21707E-02-5.11251E-04
 -1      2052 1.37174E-04 1.52656E-02 6.44972E-04
 -1      2054-1.37174E-04 1.52656E-02-6.44972E-04
 -1      2055 1.38451E-04 1.84421E-02 7.81988E-04
 -1      2057-1.38451E-04 1.84421E-02-7.81988E-04
 -1      2058 1.39850E-04 2.16500E-02 9.19598E-04
 -1      2060-1.39850E-04 2.16500E-02-9.19598E-04
 -1      2061 1.38306E-04 2.48562E-02 1.05675E-03
 -1      2063-1.38306E-04 2.48562E-02-1.05675E-03
 -1      2064 1.36756E-04 2.80271E-02 1.19201E-03
 -1      2066-1.36756E-04 2.80271E-02-1.19201E-03
 -1      2067 1.33354E-04 3.11408E-02 1.32443E-03
 -1      2069-1.33354E-04 3.11408E-02-1.32443E-03
 -1      2070 1.29783E-04 3.41743E-02 1.45332E-03
 -1      2072-1.29783E-04 3.41743E-02-1.45332E-03
 -1      2073 1.25056E-04 3.71122E-02 1.57777E-03
 -1      2075-1.25056E-04 3.71122E-02-1.57777E-03
 -1      2076 1.20044E-04 3.99378E-02 1.69751E-03
 -1      2078-1.20044E-04 3.99378E-02-1.69751E-03
 -1      2079 1.14336E-04 4.26398E-02 1.81163E-03
 -1      2081-1.14336E-04 4.26398E-02-1.81163E-03
 -1      2082 1.08260E-04 4.52061E-02 1.92020E-03
 -1      2084-1.08260E-04 4.52061E-02-1.92020E-03
 -1      2085 1.01844E-04 4.76282E-02 2.02222E-03
 -1      2087-1.01844E-04 4.76282E-02-2.02222E-03
 -1      2088 9.49715E-05 4.98973E-02 2.11812E-03
 -1      2090-9.49715E-05 4.98973E-02-2.11812E-03
 -1      2091 8.81262E-05 5.20081E-02 2.20674E-03
 -1      2093-8.81262E-05 5.20081E-02-2.20674E-03
 -1      2094 8.06786E-05 5.39543E-02 2.28900E-03
 -1      2096-8.06786E-05 5.39543E-02-2.28900E-03
 -1      2097 7.37588E-05 5.57347E-02 2.36338E-03
 -1      2099-7.37588E-05 5.57347E-02-2.36338E-03
 -1      2100 6.59620E-05 5.73458E-02 2.43162E-03
 -1      2102-6.59620E-05 5.73458E-02-2.43162E-03
 -1      2103 5.94629E-05 5.87918E-02 2.49156E-03
 -1      2105-5.94629E-05 5.87918E-02-2.49156E-03
 -1      2106 5.16510E-05 6.00733E-02 2.54635E-03
 -1      2108-5.16510E-05 6.00733E-02-2.54635E-03
 -1      2109 4.61694E-05 6.12009E-02 2.59261E-03
 -1      2111-4.61694E-05 6.12009E-02-2.59261E-03
 -1      2112 3.92351E-05 6.21863E-02 2.63647E-03
 -1      2114-3.92351E-05 6.21863E-02-2.63647E-03
 -1      2115 3.47669E-05 6.30392E-02 2.67159E-03
 -1      2117-3.47669E-05 6.30392E-02-2.67159E-03
 -1      2118 3.18966E-05 6.38085E-02 2.71208E-03
 -1      2120-3.18966E-05 6.38085E-02-2.71208E-03
 -1      2121 6.87901E-04 1.46001E-03 6.19378E-04
 -1      2123 8.65676E-04 1.20863E-03 6.54763E-04
 -1      2124 1.42091E-03 4.61262E-03 1.65962E-03
 -1      2126 1.52410E-03 4.01539E-03 1.68142E-03
 -1      2127 1.83250E-03 8.78877E-03 2.59944E-03
 -1      2129 1.98672E-03 7.89256E-03 2.61676E-03
 -1      2130 2.17995E-03 1.38382E-02 3.70102E-03
 -1      2132 2.32492E-03 1.26194E-02 3.71369E-03
 -1      2133 2.39958E-03 1.94259E-02 4.82319E-03
 -1      2135 2.56040E-03 1.78772E-02 4.83043E-03
 -1      2136 2.55383E-03 2.54252E-02 6.01113E-03
 -1      2138 2.71633E-03 2.35398E-02 6.01743E-03
 -1      2139 2.64665E-03 3.16625E-02 7.22281E-03
 -1      2141 2.81401E-03 2.94292E-02 7.22503E-03
 -1      2142 2.69464E-03 3.80456E-02 8.45650E-03
 -1      2144 2.86326E-03 3.54635E-02 8.45837E-03
 -1      2145 2.70722E-03 4.44773E-02 9.69603E-03
 -1      2147 2.87613E-03 4.15405E-02 9.69547E-03
 -1      2148 2.69094E-03 5.08933E-02 1.09324E-02
 -1      2150 2.85882E-03 4.76048E-02 1.09314E-02
 -1      2151 2.65181E-03 5.72339E-02 1.21563E-02
 -1      2153 2.81733E-03 5.35941E-02 1.21540E-02
 -1      2154 2.59348E-03 6.34538E-02 1.33596E-02
 -1      2156 2.75579E-03 5.94692E-02 1.33565E-02
 -1      2157 2.51928E-03 6.95128E-02 1.45349E-02
 -1      2159 2.67726E-03 6.51891E-02 1.45313E-02
 -1      2160 2.43155E-03 7.53777E-02 1.56761E-02
 -1      2162 2.58451E-03 7.07250E-02 1.56718E-02
 -1      2163 2.33219E-03 8.10197E-02 1.67770E-02
 -1      2165 2.47928E-03 7.60478E-02 1.67723E-02
 -1      2166 2.22292E-03 8.64136E-02 1.78326E-02
 -1      2168 2.36352E-03 8.11357E-02 1.78273E-02
 -1      2169 2.10498E-03 9.15378E-02 1.88379E-02
 -1      2171 2.23843E-03 8.59672E-02 1.88324E-02
 -1      2172 1.97981E-03 9.63733E-02 1.97889E-02
 -1      2174 2.10560E-03 9.05258E-02 1.97831E-02
 -1      2175 1.84850E-03 1.00904E-01 2.06818E-02
 -1      2177 1.96612E-03 9.47958E-02 2.06757E-02
 -1      2178 1.71252E-03 1.05117E-01 2.15131E-02
 -1      2180 1.82156E-03 9.87660E-02 2.15069E-02
 -1      2181 1.57312E-03 1.09001E-01 2.22802E-02
 -1      2183 1.67319E-03 1.02426E-01 2.22736E-02
 -1      2184 1.43215E-03 1.12551E-01 2.29802E-02
 -1      2186 1.52302E-03 1.05771E-01 2.29741E-02
 -1      2187 1.29128E-03 1.15762E-01 2.36120E-02
 -1      2189 1.37257E-03 1.08797E-01 2.36052E-02
 -1      2190 1.15360E-03 1.18638E-01 2.41730E-02
 -1      2192 1.22543E-03 1.11510E-01 2.41674E-02
 -1      2193 1.02050E-03 1.21182E-01 2.46637E-02
 -1      2195 1.08224E-03 1.13912E-01 2.46571E-02
 -1      2196 8.99954E-04 1.23415E-01 2.50817E-02
 -1      2198 9.52405E-04 1.16027E-01 2.50772E-02
 -1      2199 7.88402E-04 1.25350E-01 2.54274E-02
 -1      2201 8.29845E-04 1.17868E-01 2.54220E-02
 -1      2202 7.08827E-04 1.27045E-01 2.56980E-02
 -1      2204 7.41268E-04 1.19493E-01 2.56945E-02
 -1      2205 6.46957E-04 1.28506E-01 2.58818E-02
 -1      2207 6.64665E-04 1.20920E-01 2.58823E-02
 -1      2208-6.87901E-04 1.46001E-03-6.19378E-04
 -1      2210-8.65676E-04 1.20863E-03-6.54763E-04
 -1      2211-1.42091E-03 4.61262E-03-1.65962E-03
 -1      2213-1.52410E-03 4.01539E-03-1.68142E-03
 -1      2214-1.83250E-03 8.78877E-03-2.59944E-03
 -1      2216-1.98672E-03 7.89256E-03-2.61676E-03
 -1      2217-2.17995E-03 1.38382E-02-3.70102E-03
 -1      2219-2.32492E-03 1.26194E-02-3.71369E-03
 -1      2220-2.39958E-03 1.94259E-02-4.82319E-03
 -1      2222-2.56040E-03 1.78772E-02-4.83043E-03
 -1      2223-2.55383E-03 2.54252E-02-6.01113E-03
 -1      2225-2.71633E-03 2.35398E-02-6.01743E-03
 -1      2226-2.64665E-03 3.16625E-02-7.22281E-03
 -1      2228-2.81401E-03 2.94292E-02-7.22503E-03
 -1      2229-2.69464E-03 3.80456E-02-8.45650E-03
 -1      2231-2.86326E-03 3.54635E-02-8.45837E-03
 -1      2232-2.70722E-03 4.44773E-02-9.69603E-03
 -1      2234-2.87613E-03 4.15405E-02-9.69547E-03
 -1      2235-2.69094E-03 5.08933E-02-1.09324E-02
 -1      2237-2.85882E-03 4.76048E-02-1.09314E-02
 -1      2238-2.65181E-03 5.72339E-02-1.21563E-02
 -1      2240-2.81733E-03 5.35941E-02-1.21540E-02
 -1      2241-2.59348E-03 6.34538E-02-1.33596E-02
 -1      2243-2.75579E-03 5.94692E-02-1.33565E-02
 -1      2244-2.51928E-03 6.95128E-02-1.45349E-02
 -1      2246-2.67726E-03 6.51891E-02-1.45313E-02
 -1      2247-2.43155E-03 7.53777E-02-1.56761E-02
 -1      2249-2.58451E-03 7.07250E-02-1.56718E-02
 -1      2250-2.33219E-03 8.10197E-02-1.67770E-02
 -1      2252-2.47928E-03 7.60478E-02-1.67723E-02
 -1      2253-2.22292E-03 8.64136E-02-1.78326E-02
 -1      2255-2.36352E-03 8.11357E-02-1.78273E-02
 -1      2256-2.10498E-03 9.15378E-02-1.88379E-02
 -1      2258-2.23843E-03 8.59672E-02-1.88324E-02
 -1      2259-1.97981E-03 9.63733E-02-1.97889E-02
 -1      2261-2.10560E-03 9.05258E-02-1.97831E-02
 -1      2262-1.84850E-03 1.00904E-01-2.06818E-02
 -1      2264-1.96612E-03 9.47958E-02-2.06757E-02
 -1      2265-1.71252E-03 1.05117E-01-2.15131E-02
 -1      2267-1.82156E-03 9.87660E-02-2.15069E-02
 -1      2268-1.57312E-03 1.09001E-01-2.22802E-02
 -1      2270-1.67319E-03 1.02426E-01-2.22736E-02
 -1      2271-1.43215E-03 1.12551E-01-2.29802E-02
 -1      2273-1.52302E-03 1.05771E-01-2.29741E-02
 -1      2274-1.29128E-03 1.15762E-01-2.36120E-02
 -1      2276-1.37257E-03 1.08797E-01-2.36052E-02
 -1      2277-1.15360E-03 1.18638E-01-2.41730E-02
 -1      2279-1.22543E-03 1.11510E-01-2.41674E-02
 -1      2280-1.02050E-03 1.21182E-01-2.46637E-02
 -1      2282-1.08224E-03 1.13912E-01-2.46571E-02
 -1      2283-8.99954E-04 1.23415E-01-2.50817E-02
 -1      2285-9.52405E-04 1.16027E-01-2.50772E-02
 -1      2286-7.88402E-04 1.25350E-01-2.54274E-02
 -1      2288-8.29845E-04 1.17868E-01-2.54220E-02
 -1      2289-7.08827E-04 1.27045E-01-2.56980E-02
 -1      2291-7.41268E-04 1.19493E-01-2.56945E-02
 -1      2292-6.46957E-04 1.28506E-01-2.58818E-02
 -1      2294-6.64665E-04 1.20920E-01-2.58823E-02
 -3
    1PSTEP                        10           1           1          
    1PGM                1.000000E+00                                  
    1PGK                1.990216E+05                                  
    1PHID                         -1                                  
    1PSUBC                         0                                  
    1PMODE                         3                                  
  100CL  103 71.00194462         930                     2    3MODAL      1
 -4  STRESS      6    1
 -5  SXX         1    4    1    1
 -5  SYY         1    4    2    2
 -5  SZZ         1    4    3    3
 -5  SXY         1    4    1    2
 -5  SYZ         1    4    2    3
 -5  SZX         1    4    3    1
 -1       404 2.73745E+09 2.48605E+08 3.51704E+06-2.96196E+08 9.33003E+05-4.14711E+07
 -1       406 2.73745E+09 2.48605E+08 3.51704E+06-2.96196E+08 9.33003E+05-4.14711E+07
 -1       407-6.45137E+07-1.61833E+07 5.79530E+05 3.03681E+07 3.20199E+06 5.28978E+05
 -1       409-6.45137E+07-1.61833E+07 5.79530E+05 3.03681E+07 3.20199E+06 5.28978E+05
 -1       410 6.66942E-04 1.17090E-04-4.34890E-05 8.07673E+07 5.79669E+06-8.82488E-06
 -1       412 6.66942E-04 1.17090E-04-4.34890E-05 8.07673E+07 5.79669E+06-8.82488E-06
 -1       413 6.39766E-04 5.19742E-04-4.61604E-04-1.45341E+06 1.17788E+07-1.33674E-04
 -1       415 6.39766E-04 5.19742E-04-4.61604E-04-1.45341E+06 1.17788E+07-1.33674E-04
 -1       424 1.28639E-02 1.76740E-03-6.79493E-06-3.62134E+08 7.14956E+06 2.85531E-04
 -1       426 1.28639E-02 1.76740E-03-6.79493E-06-3.62134E+08 7.14956E+06 2.85531E-04
 -1       427 9.69951E-03 3.15800E-05 1.36851E-03-1.52369E+07-1.44948E+06 4.78045E-03
 -1       429 9.69951E-03 3.15800E-05 1.36851E-03-1.52369E+07-1.44948E+06 4.78045E-03
 -1       438 6.45137E+07 1.61833E+07-5.79530E+05 3.03681E+07 3.20199E+06-5.28978E+05
 -1       440 6.45137E+07 1.61833E+07-5.79530E+05 3.03681E+07 3.20199E+06-5.28978E+05
 -1       441-2.73745E+09-2.48605E+08-3.51704E+06-2.96196E+08 9.33003E+05 4.14711E+07
 -1       443-2.73745E+09-2.48605E+08-3.51704E+06-2.96196E+08 9.33003E+05 4.14711E+07
 -1       444-8.82078E-03-1.21172E-05-1.97837E-03 1.52369E+07-1.44948E+06 3.49619E-03
 -1       446-8.82078E-03-1.21172E-05-1.97837E-03 1.52369E+07-1.44948E+06 3.49619E-03
 -1       447-1.21139E-02-1.53467E-03 4.44055E-06 3.62134E+08 7.14956E+06 1.74404E-04
 -1       449-1.21139E-02-1.53467E-03 4.44055E-06 3.62134E+08 7.14956E+06 1.74404E-04
 -1       458 3.17047E-04 1.36578E-04 2.93644E-04 1.45341E+06 1.17788E+07 5.38496E-04
 -1       460 3.17047E-04 1.36578E-04 2.93644E-04 1.45341E+06 1.17788E+07 5.38496E-04
 -1       461-4.18350E-05-4.07450E-04-3.06047E-04-8.07673E+07 5.79669E+06-3.40735E-05
 -1       463-4.18350E-05-4.07450E-04-3.06047E-04-8.07673E+07 5.79669E+06-3.40735E-05
 -1       472 2.73745E+09 2.48605E+08 3.51704E+06 2.96196E+08 9.33003E+05 4.14711E+07
 -1       474 2.73745E+09 2.48605E+08 3.51704E+06 2.96196E+08 9.33003E+05 4.14711E+07
 -1       475-6.45137E+07-1.61833E+07 5.79530E+05-3.03681E+07 3.20199E+06-5.28978E+05
 -1       477-6.45137E+07-1.61833E+07 5.79530E+05-3.03681E+07 3.20199E+06-5.28978E+05
 -1       478 6.45137E+07 1.61833E+07-5.79530E+05-3.03681E+07 3.20199E+06 5.28978E+05
 -1       480 6.45137E+07 1.61833E+07-5.79530E+05-3.03681E+07 3.20199E+06 5.28978E+05
 -1       481-2.73745E+09-2.48605E+08-3.51704E+06 2.96196E+08 9.33003E+05-4.14711E+07
 -1       483-2.73745E+09-2.48605E+08-3.51704E+06 2.96196E+08 9.33003E+05-4.14711E+07
 -1       484 2.35543E+09 6.90869E+07-3.01191E+05-1.98340E+08-2.20978E+05-1.40104E+07
 -1       486 2.35543E+09 6.90869E+07-3.01191E+05-1.98340E+08-2.20978E+05-1.40104E+07
 -1       487 1.71338E+09-2.22404E+07 8.70023E+05-1.18740E+08-9.78553E+05-6.53074E+04
 -1       489 1.71338E+09-2.22404E+07 8.70023E+05-1.18740E+08-9.78553E+05-6.53074E+04
 -1       490 1.23960E+09 1.99366E+07 4.91616E+05-1.06958E+08-1.01993E+06-7.11011E+06
 -1       492 1.23960E+09 1.99366E+07 4.91616E+05-1.06958E+08-1.01993E+06-7.11011E+06
 -1       493 8.73298E+08-3.03881E+06 1.46053E+04-7.29019E+07-1.54327E+06-3.82677E+06
 -1       495 8.73298E+08-3.03881E+06 1.46053E+04-7.29019E+07-1.54327E+06-3.82677E+06
 -1       496 5.98757E+08 5.94209E+06 5.06370E+05-5.91783E+07-1.44824E+06-5.58832E+06
 -1       498 5.98757E+08 5.94209E+06 5.06370E+05-5.91783E+07-1.44824E+06-5.58832E+06
 -1       499 3.85641E+08-2.88834E+05-1.93436E+05-4.43476E+07-1.39394E+06-4.88060E+06
 -1       501 3.85641E+08-2.88834E+05-1.93436E+05-4.43476E+07-1.39394E+06-4.88060E+06
 -1       502 2.21727E+08 1.75229E+06 3.41703E+05-3.49207E+07-1.12212E+06-5.33266E+06
 -1       504 2.21727E+08 1.75229E+06 3.41703E+05-3.49207E+07-1.12212E+06-5.33266E+06
 -1       505 9.25563E+07-6.43968E+05-2.21204E+05-2.74729E+07-8.01291E+05-5.19411E+06
 -1       507 9.25563E+07-6.43968E+05-2.21204E+05-2.74729E+07-8.01291E+05-5.19411E+06
 -1       508-9.73243E+06-7.60342E+04 1.86262E+05-2.19743E+07-4.68326E+05-5.28494E+06
 -1       510-9.73243E+06-7.60342E+04 1.86262E+05-2.19743E+07-4.68326E+05-5.28494E+06
 -1       511-9.24679E+07-1.29453E+06-2.11947E+05-1.78710E+07-8.19314E+04-5.22609E+06
 -1       513-9.24679E+07-1.29453E+06-2.11947E+05-1.78710E+07-8.19314E+04-5.22609E+06
 -1       514-1.60125E+08-1.16763E+06 7.13805E+04-1.47449E+07 2.44089E+05-5.18330E+06
 -1       516-1.60125E+08-1.16763E+06 7.13805E+04-1.47449E+07 2.44089E+05-5.18330E+06
 -1       517-2.16546E+08-1.87152E+06-2.01959E+05-1.23595E+07 6.08472E+05-5.09180E+06
 -1       519-2.16546E+08-1.87152E+06-2.01959E+05-1.23595E+07 6.08472E+05-5.09180E+06
 -1       520-2.64121E+08-1.91429E+06-8.65326E+03-1.05001E+07 8.99170E+05-4.97397E+06
 -1       522-2.64121E+08-1.91429E+06-8.65326E+03-1.05001E+07 8.99170E+05-4.97397E+06
 -1       523-3.04831E+08-2.36217E+06-1.98293E+05-9.00584E+06 1.21244E+06-4.83043E+06
 -1       525-3.04831E+08-2.36217E+06-1.98293E+05-9.00584E+06 1.21244E+06-4.83043E+06
 -1       526-3.39856E+08-2.45987E+06-6.34382E+04-7.77098E+06 1.45977E+06-4.65718E+06
 -1       528-3.39856E+08-2.45987E+06-6.34382E+04-7.77098E+06 1.45977E+06-4.65718E+06
 -1       529-3.70128E+08-2.77862E+06-2.00769E+05-6.69333E+06 1.71779E+06-4.46430E+06
 -1       531-3.70128E+08-2.77862E+06-2.00769E+05-6.69333E+06 1.71779E+06-4.46430E+06
 -1       532-3.96092E+08-2.86775E+06-9.97739E+04-5.70347E+06 1.92307E+06-4.24607E+06
 -1       534-3.96092E+08-2.86775E+06-9.97739E+04-5.70347E+06 1.92307E+06-4.24607E+06
 -1       535-4.18030E+08-3.12966E+06-2.07841E+05-4.73990E+06 2.13157E+06-4.01112E+06
 -1       537-4.18030E+08-3.12966E+06-2.07841E+05-4.73990E+06 2.13157E+06-4.01112E+06
 -1       538-4.35854E+08-3.15418E+06-1.21137E+05-3.73040E+06 2.30126E+06-3.75552E+06
 -1       540-4.35854E+08-3.15418E+06-1.21137E+05-3.73040E+06 2.30126E+06-3.75552E+06
 -1       541-4.49347E+08-3.42409E+06-2.17881E+05-2.63721E+06 2.47147E+06-3.48605E+06
 -1       543-4.49347E+08-3.42409E+06-2.17881E+05-2.63721E+06 2.47147E+06-3.48605E+06
 -1       544-4.57898E+08-3.29914E+06-1.28351E+05-1.36527E+06 2.61753E+06-3.19824E+06
 -1       546-4.57898E+08-3.29914E+06-1.28351E+05-1.36527E+06 2.61753E+06-3.19824E+06
 -1       547-4.60731E+08-3.66253E+06-2.28777E+05 1.63364E+05 2.76857E+06-2.90155E+06
 -1       549-4.60731E+08-3.66253E+06-2.28777E+05 1.63364E+05 2.76857E+06-2.90155E+06
 -1       550-4.56563E+08-3.28321E+06-1.20402E+05 1.93804E+06 2.91188E+06-2.58170E+06
 -1       552-4.56563E+08-3.28321E+06-1.20402E+05 1.93804E+06 2.91188E+06-2.58170E+06
 -1       553-4.43715E+08-3.73161E+06-2.36494E+05 4.53626E+06 3.07885E+06-2.26691E+06
 -1       555-4.43715E+08-3.73161E+06-2.36494E+05 4.53626E+06 3.07885E+06-2.26691E+06
 -1       556-4.19977E+08-3.31460E+06-9.54647E+04 6.86484E+06 3.24873E+06-1.90221E+06
 -1       558-4.19977E+08-3.31460E+06-9.54647E+04 6.86484E+06 3.24873E+06-1.90221E+06
 -1       559-3.81950E+08-2.95794E+06-2.30256E+05 1.20840E+07 3.48820E+06-1.59135E+06
 -1       561-3.81950E+08-2.95794E+06-2.30256E+05 1.20840E+07 3.48820E+06-1.59135E+06
 -1       562-3.25836E+08-4.40911E+06-6.20583E+04 1.47174E+07 3.67197E+06-1.13653E+06
 -1       564-3.25836E+08-4.40911E+06-6.20583E+04 1.47174E+07 3.67197E+06-1.13653E+06
 -1       565-2.46410E+08 8.01194E+04-1.48945E+05 2.41585E+07 3.97818E+06-9.13365E+05
 -1       567-2.46410E+08 8.01194E+04-1.48945E+05 2.41585E+07 3.97818E+06-9.13365E+05
 -1       568-1.32277E+08-5.90552E+06-1.61753E+05 3.29244E+07 3.72616E+06-2.59698E+05
 -1       570-1.32277E+08-5.90552E+06-1.61753E+05 3.29244E+07 3.72616E+06-2.59698E+05
 -1       571-5.44823E+07-4.14703E+07-4.76782E+05 5.55677E+07 4.49934E+06 3.51175E+05
 -1       573-5.44823E+07-4.14703E+07-4.76782E+05 5.55677E+07 4.49934E+06 3.51175E+05
 -1       574 1.21915E-02 7.10472E-04 6.72042E-06-3.75927E+08 5.51423E+05 5.17977E-05
 -1       576 1.21915E-02 7.10472E-04 6.72042E-06-3.75927E+08 5.51423E+05 5.17977E-05
 -1       577 9.14196E-03-1.14005E-05-5.56585E-05-7.77394E+06-6.86978E+06 4.76989E-03
 -1       579 9.14196E-03-1.14005E-05-5.56585E-05-7.77394E+06-6.86978E+06 4.76989E-03
 -1       588 1.09827E-02-1.55084E-04 7.07805E-06-3.10281E+08-6.08490E+06-3.34869E-05
 -1       590 1.09827E-02-1.55084E-04 7.07805E-06-3.10281E+08-6.08490E+06-3.34869E-05
 -1       591 8.33673E-03-3.85199E-05-1.44158E-03-7.21788E+06-1.34195E+07 4.27688E-03
 -1       593 8.33673E-03-3.85199E-05-1.44158E-03-7.21788E+06-1.34195E+07 4.27688E-03
 -1       602 1.03477E-02 4.39472E-05 1.23233E-05-2.18169E+08-4.44258E+06 2.86878E-05
 -1       604 1.03477E-02 4.39472E-05 1.23233E-05-2.18169E+08-4.44258E+06 2.86878E-05
 -1       605 7.95400E-03-6.49311E-05-4.37735E-04-1.03697E+07-1.31323E+07 3.82095E-03
 -1       607 7.95400E-03-6.49311E-05-4.37735E-04-1.03697E+07-1.31323E+07 3.82095E-03
 -1       616 9.63728E-03-1.08220E-05 1.43871E-05-1.73823E+08-4.11557E+06-3.32762E-06
 -1       618 9.63728E-03-1.08220E-05 1.43871E-05-1.73823E+08-4.11557E+06-3.32762E-06
 -1       619 7.45751E-03-4.88116E-05 1.12279E-03-1.06582E+07-1.19689E+07 3.93889E-03
 -1       621 7.45751E-03-4.88116E-05 1.12279E-03-1.06582E+07-1.19689E+07 3.93889E-03
 -1       630 8.23580E-03 8.33049E-05 2.89455E-06-1.28998E+08-3.51156E+06 8.35431E-06
 -1       632 8.23580E-03 8.33049E-05 2.89455E-06-1.28998E+08-3.51156E+06 8.35431E-06
 -1       633 6.37887E-03 4.77345E-05 1.47410E-03-1.21593E+07-1.05650E+07 4.29358E-03
 -1       635 6.37887E-03 4.77345E-05 1.47410E-03-1.21593E+07-1.05650E+07 4.29358E-03
 -1       644 6.77643E-03 1.43476E-04 6.50249E-06-1.01068E+08-2.48719E+06-1.88099E-05
 -1       646 6.77643E-03 1.43476E-04 6.50249E-06-1.01068E+08-2.48719E+06-1.88099E-05
 -1       647 5.04450E-03-2.99249E-05 2.56990E-04-1.20723E+07-8.55582E+06 4.44184E-03
 -1       649 5.04450E-03-2.99249E-05 2.56990E-04-1.20723E+07-8.55582E+06 4.44184E-03
 -1       658 5.93048E-03-9.58671E-05 6.07129E-06-7.79894E+07-2.14305E+06-1.04031E-05
 -1       660 5.93048E-03-9.58671E-05 6.07129E-06-7.79894E+07-2.14305E+06-1.04031E-05
 -1       661 4.30221E-03-6.55244E-05-1.17886E-03-1.28611E+07-7.09019E+06 3.77667E-03
 -1       663 4.30221E-03-6.55244E-05-1.17886E-03-1.28611E+07-7.09019E+06 3.77667E-03
 -1       672 5.88746E-03-2.10496E-04-7.57072E-06-6.18406E+07-1.35463E+06-2.03515E-05
 -1       674 5.88746E-03-2.10496E-04-7.57072E-06-6.18406E+07-1.35463E+06-2.03515E-05
 -1       675 4.28902E-03-1.04329E-04-1.13958E-03-1.25599E+07-5.46079E+06 2.75749E-03
 -1       677 4.28902E-03-1.04329E-04-1.13958E-03-1.25599E+07-5.46079E+06 2.75749E-03
 -1       686 5.95409E-03-2.50460E-04-5.68423E-05-4.92754E+07-1.08734E+06-1.42741E-05
 -1       688 5.95409E-03-2.50460E-04-5.68423E-05-4.92754E+07-1.08734E+06-1.42741E-05
 -1       689 4.38739E-03-6.46115E-05-9.52610E-05-1.28649E+07-4.25962E+06 2.60369E-03
 -1       691 4.38739E-03-6.46115E-05-9.52610E-05-1.28649E+07-4.25962E+06 2.60369E-03
 -1       700 5.51448E-03-1.19561E-04-6.49216E-05-4.01510E+07-5.56132E+05-3.48501E-06
 -1       702 5.51448E-03-1.19561E-04-6.49216E-05-4.01510E+07-5.56132E+05-3.48501E-06
 -1       703 3.87977E-03 1.13495E-04-8.19613E-05-1.24760E+07-3.12148E+06 3.18995E-03
 -1       705 3.87977E-03 1.13495E-04-8.19613E-05-1.24760E+07-3.12148E+06 3.18995E-03
 -1       714 4.69471E-03 3.15469E-04 1.92020E-05-3.30400E+07-3.36064E+05-3.16976E-06
 -1       716 4.69471E-03 3.15469E-04 1.92020E-05-3.30400E+07-3.36064E+05-3.16976E-06
 -1       717 2.86004E-03-1.42855E-04-1.47105E-03-1.24442E+07-2.24520E+06 2.98591E-03
 -1       719 2.86004E-03-1.42855E-04-1.47105E-03-1.24442E+07-2.24520E+06 2.98591E-03
 -1       728 3.95146E-03 3.73127E-04 4.14783E-05-2.77511E+07 2.23870E+04-2.21378E-05
 -1       730 3.95146E-03 3.73127E-04 4.14783E-05-2.77511E+07 2.23870E+04-2.21378E-05
 -1       731 2.15467E-03-2.76448E-04-2.53215E-03-1.20013E+07-1.50327E+06 1.91491E-03
 -1       733 2.15467E-03-2.76448E-04-2.53215E-03-1.20013E+07-1.50327E+06 1.91491E-03
 -1       742 3.43432E-03 3.42466E-05-1.72537E-05-2.35093E+07 1.99769E+05-1.16115E-05
 -1       744 3.43432E-03 3.42466E-05-1.72537E-05-2.35093E+07 1.99769E+05-1.16115E-05
 -1       745 1.74312E-03-1.90067E-04-2.68753E-03-1.17390E+07-9.11114E+05 9.19443E-04
 -1       747 1.74312E-03-1.90067E-04-2.68753E-03-1.17390E+07-9.11114E+05 9.19443E-04
 -1       756 3.25312E-03 1.05314E-05-2.19718E-05-2.01988E+07 4.49688E+05 6.74301E-06
 -1       758 3.25312E-03 1.05314E-05-2.19718E-05-2.01988E+07 4.49688E+05 6.74301E-06
 -1       759 1.50437E-03-1.68995E-04-2.53399E-03-1.12467E+07-4.57803E+05 9.13882E-05
 -1       761 1.50437E-03-1.68995E-04-2.53399E-03-1.12467E+07-4.57803E+05 9.13882E-05
 -1       770 3.35547E-03 2.95199E-04-1.15857E-06-1.73925E+07 5.87425E+05 6.76024E-06
 -1       772 3.35547E-03 2.95199E-04-1.15857E-06-1.73925E+07 5.87425E+05 6.76024E-06
 -1       773 1.76779E-03 1.59846E-04-2.16756E-03-1.08217E+07-8.40379E+04-5.91672E-04
 -1       775 1.76779E-03 1.59846E-04-2.16756E-03-1.08217E+07-8.40379E+04-5.91672E-04
 -1       784 3.15145E-03 5.29293E-04 1.17328E-05-1.49882E+07 7.66820E+05 8.52928E-06
 -1       786 3.15145E-03 5.29293E-04 1.17328E-05-1.49882E+07 7.66820E+05 8.52928E-06
 -1       787 1.93803E-03 8.96719E-06-1.59728E-03-1.02840E+07 1.62305E+05-6.58821E-04
 -1       789 1.93803E-03 8.96719E-06-1.59728E-03-1.02840E+07 1.62305E+05-6.58821E-04
 -1       798 2.58906E-03 4.51667E-04 1.01648E-04-1.27656E+07 8.67300E+05 2.62749E-07
 -1       800 2.58906E-03 4.51667E-04 1.01648E-04-1.27656E+07 8.67300E+05 2.62749E-07
 -1       801 1.60475E-03-2.47662E-04-1.18683E-03-9.73555E+06 3.77570E+05-1.44388E-04
 -1       803 1.60475E-03-2.47662E-04-1.18683E-03-9.73555E+06 3.77570E+05-1.44388E-04
 -1       812 2.52382E-03-1.10380E-05 6.22924E-05-1.05843E+07 9.96599E+05 5.72717E-06
 -1       814 2.52382E-03-1.10380E-05 6.22924E-05-1.05843E+07 9.96599E+05 5.72717E-06
 -1       815 1.68918E-03 6.27451E-05-1.01374E-03-9.16519E+06 4.70279E+05 2.77497E-04
 -1       817 1.68918E-03 6.27451E-05-1.01374E-03-9.16519E+06 4.70279E+05 2.77497E-04
 -1       826 3.14640E-03-3.79032E-04-1.88947E-05-8.35649E+06 1.06024E+06-2.35914E-05
 -1       828 3.14640E-03-3.79032E-04-1.88947E-05-8.35649E+06 1.06024E+06-2.35914E-05
 -1       829 2.38327E-03 3.69891E-04-5.28579E-04-8.51310E+06 5.74799E+05 5.30119E-04
 -1       831 2.38327E-03 3.69891E-04-5.28579E-04-8.51310E+06 5.74799E+05 5.30119E-04
 -1       840 3.94549E-03-3.74537E-04 5.18579E-05-5.84373E+06 1.14833E+06 7.63615E-06
 -1       842 3.94549E-03-3.74537E-04 5.18579E-05-5.84373E+06 1.14833E+06 7.63615E-06
 -1       843 3.00255E-03-1.36839E-05-2.50404E-04-7.93668E+06 5.45316E+05 5.33090E-04
 -1       845 3.00255E-03-1.36839E-05-2.50404E-04-7.93668E+06 5.45316E+05 5.33090E-04
 -1       854 4.55845E-03-2.82487E-04 1.14875E-04-3.05383E+06 1.17418E+06 2.39944E-06
 -1       856 4.55845E-03-2.82487E-04 1.14875E-04-3.05383E+06 1.17418E+06 2.39944E-06
 -1       857 3.56144E-03-1.02403E-04-1.70050E-05-7.18593E+06 5.83594E+05-3.08553E-05
 -1       859 3.56144E-03-1.02403E-04-1.70050E-05-7.18593E+06 5.83594E+05-3.08553E-05
 -1       868 4.73090E-03-1.56287E-04-2.54642E-05 4.00951E+05 1.22019E+06-7.23323E-06
 -1       870 4.73090E-03-1.56287E-04-2.54642E-05 4.00951E+05 1.22019E+06-7.23323E-06
 -1       871 3.81612E-03 6.11174E-05 2.73388E-04-6.65136E+06 4.51372E+05 5.44577E-05
 -1       873 3.81612E-03 6.11174E-05 2.73388E-04-6.65136E+06 4.51372E+05 5.44577E-05
 -1       882 4.58866E-03 2.54478E-04-4.89019E-05 4.55027E+06 1.21295E+06 1.09815E-05
 -1       884 4.58866E-03 2.54478E-04-4.89019E-05 4.55027E+06 1.21295E+06 1.09815E-05
 -1       885 3.62648E-03-1.06826E-04-4.07647E-04-5.79428E+06 4.93128E+05 6.70021E-04
 -1       887 3.62648E-03-1.06826E-04-4.07647E-04-5.79428E+06 4.93128E+05 6.70021E-04
 -1       896 4.12205E-03 5.11760E-04-6.99982E-06 9.70880E+06 1.20490E+06-2.82763E-05
 -1       898 4.12205E-03 5.11760E-04-6.99982E-06 9.70880E+06 1.20490E+06-2.82763E-05
 -1       899 3.25377E-03 3.72635E-04-1.07907E-03-5.37617E+06 2.81218E+05 6.93937E-04
 -1       901 3.25377E-03 3.72635E-04-1.07907E-03-5.37617E+06 2.81218E+05 6.93937E-04
 -1       910 3.37841E-03 4.32651E-04 2.60733E-05 1.67698E+07 1.21084E+06-7.89016E-06
 -1       912 3.37841E-03 4.32651E-04 2.60733E-05 1.67698E+07 1.21084E+06-7.89016E-06
 -1       913 2.43169E-03 2.37857E-04-1.32797E-03-4.41523E+06 5.07005E+05 9.39561E-04
 -1       915 2.43169E-03 2.37857E-04-1.32797E-03-4.41523E+06 5.07005E+05 9.39561E-04
 -1       924 2.73465E-03 4.18516E-04 7.87154E-05 2.45350E+07 1.13774E+06-2.21987E-06
 -1       926 2.73465E-03 4.18516E-04 7.87154E-05 2.45350E+07 1.13774E+06-2.21987E-06
 -1       927 1.57598E-03-1.91323E-04-1.90286E-03-4.16987E+06 2.84604E+05 1.23668E-03
 -1       929 1.57598E-03-1.91323E-04-1.90286E-03-4.16987E+06 2.84604E+05 1.23668E-03
 -1       938 2.26921E-03 5.44128E-04-4.74434E-05 3.73383E+07 1.42835E+06-1.60910E-05
 -1       940 2.26921E-03 5.44128E-04-4.74434E-05 3.73383E+07 1.42835E+06-1.60910E-05
 -1       941 9.37180E-04-6.38035E-04-2.75310E-03-3.27993E+06 1.30038E+06 1.27600E-03
 -1       943 9.37180E-04-6.38035E-04-2.75310E-03-3.27993E+06 1.30038E+06 1.27600E-03
 -1       952 1.83113E-03 7.65783E-04-1.68337E-05 5.04820E+07 1.47183E+06-5.56508E-06
 -1       954 1.83113E-03 7.65783E-04-1.68337E-05 5.04820E+07 1.47183E+06-5.56508E-06
 -1       955 5.07599E-04-8.36452E-04-2.82948E-03-2.93237E+06 1.44247E+06 1.06533E-03
 -1       957 5.07599E-04-8.36452E-04-2.82948E-03-2.93237E+06 1.44247E+06 1.06533E-03
 -1       966 1.13354E-03 4.99185E-04 5.82729E-06 6.77323E+07 3.52130E+06-1.17121E-07
 -1       968 1.13354E-03 4.99185E-04 5.82729E-06 6.77323E+07 3.52130E+06-1.17121E-07
 -1       969 5.39258E-04 5.11957E-06-1.45478E-03-3.13536E+06 5.63545E+06 3.17987E-04
 -1       971 5.39258E-04 5.11957E-06-1.45478E-03-3.13536E+06 5.63545E+06 3.17987E-04
 -1       980 1.79867E+09 1.99504E+08 3.29078E+05-3.29165E+08 4.04128E+06-1.64237E+07
 -1       982 1.79867E+09 1.99504E+08 3.29078E+05-3.29165E+08 4.04128E+06-1.64237E+07
 -1       983 5.44823E+07 4.14703E+07 4.76782E+05 5.55677E+07 4.49934E+06-3.51175E+05
 -1       985 5.44823E+07 4.14703E+07 4.76782E+05 5.55677E+07 4.49934E+06-3.51175E+05
 -1       986-2.35543E+09-6.90869E+07 3.01191E+05-1.98340E+08-2.20978E+05 1.40104E+07
 -1       988-2.35543E+09-6.90869E+07 3.01191E+05-1.98340E+08-2.20978E+05 1.40104E+07
 -1       989-1.71338E+09 2.22404E+07-8.70023E+05-1.18740E+08-9.78553E+05 6.53074E+04
 -1       991-1.71338E+09 2.22404E+07-8.70023E+05-1.18740E+08-9.78553E+05 6.53074E+04
 -1       992-1.23960E+09-1.99366E+07-4.91616E+05-1.06958E+08-1.01993E+06 7.11011E+06
 -1       994-1.23960E+09-1.99366E+07-4.91616E+05-1.06958E+08-1.01993E+06 7.11011E+06
 -1       995-8.73298E+08 3.03881E+06-1.46053E+04-7.29019E+07-1.54327E+06 3.82677E+06
 -1       997-8.73298E+08 3.03881E+06-1.46053E+04-7.29019E+07-1.54327E+06 3.82677E+06
 -1       998-5.98757E+08-5.94209E+06-5.06370E+05-5.91783E+07-1.44824E+06 5.58832E+06
 -1      1000-5.98757E+08-5.94209E+06-5.06370E+05-5.91783E+07-1.44824E+06 5.58832E+06
 -1      1001-3.85641E+08 2.88834E+05 1.93436E+05-4.43476E+07-1.39394E+06 4.88060E+06
 -1      1003-3.85641E+08 2.88834E+05 1.93436E+05-4.43476E+07-1.39394E+06 4.88060E+06
 -1      1004-2.21727E+08-1.75229E+06-3.41703E+05-3.49207E+07-1.12212E+06 5.33266E+06
 -1      1006-2.21727E+08-1.75229E+06-3.41703E+05-3.49207E+07-1.12212E+06 5.33266E+06
 -1      1007-9.25563E+07 6.43968E+05 2.21204E+05-2.74729E+07-8.01291E+05 5.19411E+06
 -1      1009-9.25563E+07 6.43968E+05 2.21204E+05-2.74729E+07-8.01291E+05 5.19411E+06
 -1      1010 9.73243E+06 7.60342E+04-1.86262E+05-2.19743E+07-4.68326E+05 5.28494E+06
 -1      1012 9.73243E+06 7.60342E+04-1.86262E+05-2.19743E+07-4.68326E+05 5.28494E+06
 -1      1013 9.24679E+07 1.29453E+06 2.11947E+05-1.78710E+07-8.19314E+04 5.22609E+06
 -1      1015 9.24679E+07 1.29453E+06 2.11947E+05-1.78710E+07-8.19314E+04 5.22609E+06
 -1      1016 1.60125E+08 1.16763E+06-7.13805E+04-1.47449E+07 2.44089E+05 5.18330E+06
 -1      1018 1.60125E+08 1.16763E+06-7.13805E+04-1.47449E+07 2.44089E+05 5.18330E+06
 -1      1019 2.16546E+08 1.87152E+06 2.01959E+05-1.23595E+07 6.08472E+05 5.09180E+06
 -1      1021 2.16546E+08 1.87152E+06 2.01959E+05-1.23595E+07 6.08472E+05 5.09180E+06
 -1      1022 2.64121E+08 1.91429E+06 8.65326E+03-1.05001E+07 8.99170E+05 4.97397E+06
 -1      1024 2.64121E+08 1.91429E+06 8.65326E+03-1.05001E+07 8.99170E+05 4.97397E+06
 -1      1025 3.04831E+08 2.36217E+06 1.98293E+05-9.00584E+06 1.21244E+06 4.83043E+06
 -1      1027 3.04831E+08 2.36217E+06 1.98293E+05-9.00584E+06 1.21244E+06 4.83043E+06
 -1      1028 3.39856E+08 2.45987E+06 6.34382E+04-7.77098E+06 1.45977E+06 4.65718E+06
 -1      1030 3.39856E+08 2.45987E+06 6.34382E+04-7.77098E+06 1.45977E+06 4.65718E+06
 -1      1031 3.70128E+08 2.77862E+06 2.00769E+05-6.69333E+06 1.71779E+06 4.46430E+06
 -1      1033 3.70128E+08 2.77862E+06 2.00769E+05-6.69333E+06 1.71779E+06 4.46430E+06
 -1      1034 3.96092E+08 2.86775E+06 9.97740E+04-5.70347E+06 1.92307E+06 4.24607E+06
 -1      1036 3.96092E+08 2.86775E+06 9.97740E+04-5.70347E+06 1.92307E+06 4.24607E+06
 -1      1037 4.18030E+08 3.12966E+06 2.07841E+05-4.73990E+06 2.13157E+06 4.01112E+06
 -1      1039 4.18030E+08 3.12966E+06 2.07841E+05-4.73990E+06 2.13157E+06 4.01112E+06
 -1      1040 4.35854E+08 3.15418E+06 1.21137E+05-3.73040E+06 2.30126E+06 3.75552E+06
 -1      1042 4.35854E+08 3.15418E+06 1.21137E+05-3.73040E+06 2.30126E+06 3.75552E+06
 -1      1043 4.49347E+08 3.42409E+06 2.17881E+05-2.63721E+06 2.47147E+06 3.48605E+06
 -1      1045 4.49347E+08 3.42409E+06 2.17881E+05-2.63721E+06 2.47147E+06 3.48605E+06
 -1      1046 4.57898E+08 3.29914E+06 1.28351E+05-1.36527E+06 2.61753E+06 3.19824E+06
 -1      1048 4.57898E+08 3.29914E+06 1.28351E+05-1.36527E+06 2.61753E+06 3.19824E+06
 -1      1049 4.60731E+08 3.66253E+06 2.28777E+05 1.63364E+05 2.76857E+06 2.90155E+06
 -1      1051 4.60731E+08 3.66253E+06 2.28777E+05 1.63364E+05 2.76857E+06 2.90155E+06
 -1      1052 4.56563E+08 3.28321E+06 1.20402E+05 1.93804E+06 2.91188E+06 2.58170E+06
 -1      1054 4.56563E+08 3.28321E+06 1.20402E+05 1.93804E+06 2.91188E+06 2.58170E+06
 -1      1055 4.43715E+08 3.73161E+06 2.36494E+05 4.53626E+06 3.07885E+06 2.26691E+06
 -1      1057 4.43715E+08 3.73161E+06 2.36494E+05 4.53626E+06 3.07885E+06 2.26691E+06
 -1      1058 4.19977E+08 3.31460E+06 9.54647E+04 6.86484E+06 3.24873E+06 1.90221E+06
 -1      1060 4.19977E+08 3.31460E+06 9.54647E+04 6.86484E+06 3.24873E+06 1.90221E+06
 -1      1061 3.81950E+08 2.95794E+06 2.30256E+05 1.20840E+07 3.48820E+06 1.59135E+06
 -1      1063 3.81950E+08 2.95794E+06 2.30256E+05 1.20840E+07 3.48820E+06 1.59135E+06
 -1      1064 3.25836E+08 4.40911E+06 6.20583E+04 1.47174E+07 3.67197E+06 1.13653E+06
 -1      1066 3.25836E+08 4.40911E+06 6.20583E+04 1.47174E+07 3.67197E+06 1.13653E+06
 -1      1067 2.46410E+08-8.01194E+04 1.48945E+05 2.41585E+07 3.97818E+06 9.13365E+05
 -1      1069 2.46410E+08-8.01194E+04 1.48945E+05 2.41585E+07 3.97818E+06 9.13365E+05
 -1      1070 1.32277E+08 5.90552E+06 1.61753E+05 3.29244E+07 3.72616E+06 2.59698E+05
 -1      1072 1.32277E+08 5.90552E+06 1.61753E+05 3.29244E+07 3.72616E+06 2.59698E+05
 -1      1073-1.79867E+09-1.99504E+08-3.29078E+05-3.29165E+08 4.04128E+06 1.64237E+07
 -1      1075-1.79867E+09-1.99504E+08-3.29078E+05-3.29165E+08 4.04128E+06 1.64237E+07
 -1      1076 6.29685E-03 7.99625E-06 6.62277E-04-5.04796E+06-1.91351E+06 4.54047E-03
 -1      1078 6.29685E-03 7.99625E-06 6.62277E-04-5.04796E+06-1.91351E+06 4.54047E-03
 -1      1079 2.86158E-04 1.20639E-05-5.18218E-04-7.05430E-04-2.37754E+06 4.10693E-03
 -1      1081 2.86158E-04 1.20639E-05-5.18218E-04-7.05430E-04-2.37754E+06 4.10693E-03
 -1      1082-5.57133E-03 1.37990E-05-1.48542E-03 5.04796E+06-1.91351E+06 3.70478E-03
 -1      1084-5.57133E-03 1.37990E-05-1.48542E-03 5.04796E+06-1.91351E+06 3.70478E-03
 -1      1085-8.63004E-03-5.20372E-06-1.28147E-03 7.77394E+06-6.86978E+06 3.80911E-03
 -1      1087-8.63004E-03-5.20372E-06-1.28147E-03 7.77394E+06-6.86978E+06 3.80911E-03
 -1      1088-1.18400E-02-6.19680E-04-4.18723E-06 3.75927E+08 5.51423E+05 2.53950E-05
 -1      1090-1.18400E-02-6.19680E-04-4.18723E-06 3.75927E+08 5.51423E+05 2.53950E-05
 -1      1099-8.07927E-03-4.84154E-06-2.16006E-04 7.21788E+06-1.34195E+07 4.19767E-03
 -1      1101-8.07927E-03-4.84154E-06-2.16006E-04 7.21788E+06-1.34195E+07 4.19767E-03
 -1      1102-1.07580E-02 1.42381E-04-9.40263E-06 3.10281E+08-6.08490E+06-2.43797E-05
 -1      1104-1.07580E-02 1.42381E-04-9.40263E-06 3.10281E+08-6.08490E+06-2.43797E-05
 -1      1113-7.09011E-03-3.11870E-05 3.85179E-04 1.03697E+07-1.31323E+07 4.29271E-03
 -1      1115-7.09011E-03-3.11870E-05 3.85179E-04 1.03697E+07-1.31323E+07 4.29271E-03
 -1      1116-9.34233E-03 2.72207E-05-3.33786E-06 2.18169E+08-4.44258E+06 8.28423E-06
 -1      1118-9.34233E-03 2.72207E-05-3.33786E-06 2.18169E+08-4.44258E+06 8.28423E-06
 -1      1127-5.96216E-03 2.17831E-06 9.95618E-04 1.06582E+07-1.19689E+07 4.18086E-03
 -1      1129-5.96216E-03 2.17831E-06 9.95618E-04 1.06582E+07-1.19689E+07 4.18086E-03
 -1      1130-8.19246E-03 1.01324E-04 8.19564E-06 1.73823E+08-4.11557E+06-1.97033E-05
 -1      1132-8.19246E-03 1.01324E-04 8.19564E-06 1.73823E+08-4.11557E+06-1.97033E-05
 -1      1141-5.00686E-03 1.93169E-05 1.78776E-03 1.21593E+07-1.05650E+07 3.96998E-03
 -1      1143-5.00686E-03 1.93169E-05 1.78776E-03 1.21593E+07-1.05650E+07 3.96998E-03
 -1      1144-7.26482E-03-1.25976E-04-2.80924E-05 1.28998E+08-3.51156E+06-1.57743E-07
 -1      1146-7.26482E-03-1.25976E-04-2.80924E-05 1.28998E+08-3.51156E+06-1.57743E-07
 -1      1155-4.37209E-03 3.25433E-06 2.10975E-03 1.20723E+07-8.55582E+06 3.33964E-03
 -1      1157-4.37209E-03 3.25433E-06 2.10975E-03 1.20723E+07-8.55582E+06 3.33964E-03
 -1      1158-6.74821E-03-2.72987E-04-4.87063E-05 1.01068E+08-2.48719E+06-3.22238E-06
 -1      1160-6.74821E-03-2.72987E-04-4.87063E-05 1.01068E+08-2.48719E+06-3.22238E-06
 -1      1169-4.26785E-03 4.53077E-05 1.27140E-03 1.28611E+07-7.09019E+06 2.41246E-03
 -1      1171-4.26785E-03 4.53077E-05 1.27140E-03 1.28611E+07-7.09019E+06 2.41246E-03
 -1      1172-6.61502E-03-3.14233E-05-2.75383E-05 7.79894E+07-2.14305E+06-3.38000E-06
 -1      1174-6.61502E-03-3.14233E-05-2.75383E-05 7.79894E+07-2.14305E+06-3.38000E-06
 -1      1183-4.23485E-03-9.63020E-05 1.05775E-04 1.25599E+07-5.46079E+06 2.33149E-03
 -1      1185-4.23485E-03-9.63020E-05 1.05775E-04 1.25599E+07-5.46079E+06 2.33149E-03
 -1      1186-6.17564E-03 7.55466E-06-2.61352E-05 6.18406E+07-1.35463E+06 4.25638E-06
 -1      1188-6.17564E-03 7.55466E-06-2.61352E-05 6.18406E+07-1.35463E+06 4.25638E-06
 -1      1197-3.69034E-03-7.45014E-05 1.77946E-04 1.28649E+07-4.25962E+06 2.75517E-03
 -1      1199-3.69034E-03-7.45014E-05 1.77946E-04 1.28649E+07-4.25962E+06 2.75517E-03
 -1      1200-5.16429E-03-1.37856E-04 2.97721E-06 4.92754E+07-1.08734E+06 2.79178E-05
 -1      1202-5.16429E-03-1.37856E-04 2.97721E-06 4.92754E+07-1.08734E+06 2.79178E-05
 -1      1211-3.21558E-03-3.05073E-05 7.82424E-04 1.24760E+07-3.12148E+06 2.51832E-03
 -1      1213-3.21558E-03-3.05073E-05 7.82424E-04 1.24760E+07-3.12148E+06 2.51832E-03
 -1      1214-4.38512E-03-2.71698E-04 1.69151E-06 4.01510E+07-5.56132E+05 3.62538E-05
 -1      1216-4.38512E-03-2.71698E-04 1.69151E-06 4.01510E+07-5.56132E+05 3.62538E-05
 -1      1225-3.14223E-03 1.00180E-04 4.06396E-04 1.24442E+07-2.24520E+06 1.71289E-03
 -1      1227-3.14223E-03 1.00180E-04 4.06396E-04 1.24442E+07-2.24520E+06 1.71289E-03
 -1      1228-4.02928E-03-2.75641E-04 7.95685E-05 3.30400E+07-3.36064E+05 3.88813E-05
 -1      1230-4.02928E-03-2.75641E-04 7.95685E-05 3.30400E+07-3.36064E+05 3.88813E-05
 -1      1239-3.02167E-03-4.96895E-05-1.02974E-03 1.20013E+07-1.50327E+06 1.13288E-03
 -1      1241-3.02167E-03-4.96895E-05-1.02974E-03 1.20013E+07-1.50327E+06 1.13288E-03
 -1      1242-3.43793E-03-2.25210E-04 1.57524E-05 2.77511E+07 2.23870E+04 3.94066E-05
 -1      1244-3.43793E-03-2.25210E-04 1.57524E-05 2.77511E+07 2.23870E+04 3.94066E-05
 -1      1253-2.52456E-03-2.18264E-04-2.20534E-03 1.17390E+07-9.11114E+05 9.83369E-04
 -1      1255-2.52456E-03-2.18264E-04-2.20534E-03 1.17390E+07-9.11114E+05 9.83369E-04
 -1      1256-2.56465E-03-2.56772E-04-1.07121E-05 2.35093E+07 1.99769E+05 1.83894E-05
 -1      1258-2.56465E-03-2.56772E-04-1.07121E-05 2.35093E+07 1.99769E+05 1.83894E-05
 -1      1267-1.96620E-03-5.41162E-05-2.33311E-03 1.12467E+07-4.57803E+05 7.19735E-04
 -1      1269-1.96620E-03-5.41162E-05-2.33311E-03 1.12467E+07-4.57803E+05 7.19735E-04
 -1      1270-2.08901E-03-3.33126E-04-1.22972E-05 2.01988E+07 4.49688E+05 2.13319E-05
 -1      1272-2.08901E-03-3.33126E-04-1.22972E-05 2.01988E+07 4.49688E+05 2.13319E-05
 -1      1281-2.01112E-03-2.29864E-04-2.33001E-03 1.08217E+07-8.40379E+04 6.40007E-05
 -1      1283-2.01112E-03-2.29864E-04-2.33001E-03 1.08217E+07-8.40379E+04 6.40007E-05
 -1      1284-2.17581E-03-2.42563E-04-4.13470E-05 1.73925E+07 5.87425E+05-1.22702E-07
 -1      1286-2.17581E-03-2.42563E-04-4.13470E-05 1.73925E+07 5.87425E+05-1.22702E-07
 -1      1295-2.29533E-03-8.35321E-05-2.41290E-03 1.02840E+07 1.62305E+05-8.78679E-05
 -1      1297-2.29533E-03-8.35321E-05-2.41290E-03 1.02840E+07 1.62305E+05-8.78679E-05
 -1      1298-2.56310E-03 1.90884E-05-5.88782E-06 1.49882E+07 7.66820E+05-5.35918E-06
 -1      1300-2.56310E-03 1.90884E-05-5.88782E-06 1.49882E+07 7.66820E+05-5.35918E-06
 -1      1309-2.47258E-03 3.35702E-04-1.84851E-03 9.73555E+06 3.77570E+05 5.51184E-04
 -1      1311-2.47258E-03 3.35702E-04-1.84851E-03 9.73555E+06 3.77570E+05 5.51184E-04
 -1      1312-3.12040E-03 4.13358E-05-1.32164E-04 1.27656E+07 8.67300E+05-6.99656E-08
 -1      1314-3.12040E-03 4.13358E-05-1.32164E-04 1.27656E+07 8.67300E+05-6.99656E-08
 -1      1323-2.85615E-03 1.09973E-04-8.18481E-04 9.16519E+06 4.70279E+05 1.04363E-03
 -1      1325-2.85615E-03 1.09973E-04-8.18481E-04 9.16519E+06 4.70279E+05 1.04363E-03
 -1      1326-3.51045E-03 6.53546E-05-1.18645E-04 1.05843E+07 9.96599E+05-1.11565E-05
 -1      1328-3.51045E-03 6.53546E-05-1.18645E-04 1.05843E+07 9.96599E+05-1.11565E-05
 -1      1337-2.97958E-03-9.75576E-05 8.97726E-05 8.51310E+06 5.74799E+05 9.87392E-04
 -1      1339-2.97958E-03-9.75576E-05 8.97726E-05 8.51310E+06 5.74799E+05 9.87392E-04
 -1      1340-3.51782E-03 2.48203E-04-2.63490E-05 8.35649E+06 1.06024E+06-4.95650E-06
 -1      1342-3.51782E-03 2.48203E-04-2.63490E-05 8.35649E+06 1.06024E+06-4.95650E-06
 -1      1351-2.59476E-03-1.98949E-04 7.65864E-04 7.93668E+06 5.45316E+05 5.73055E-04
 -1      1353-2.59476E-03-1.98949E-04 7.65864E-04 7.93668E+06 5.45316E+05 5.73055E-04
 -1      1354-3.04227E-03 5.60097E-04 1.10313E-04 5.84373E+06 1.14833E+06-3.82692E-06
 -1      1356-3.04227E-03 5.60097E-04 1.10313E-04 5.84373E+06 1.14833E+06-3.82692E-06
 -1      1365-2.01078E-03 4.09062E-06 1.16954E-03 7.18593E+06 5.83594E+05 9.97632E-05
 -1      1367-2.01078E-03 4.09062E-06 1.16954E-03 7.18593E+06 5.83594E+05 9.97632E-05
 -1      1368-2.53318E-03 4.53951E-04 6.34268E-05 3.05383E+06 1.17418E+06 1.97645E-05
 -1      1370-2.53318E-03 4.53951E-04 6.34268E-05 3.05383E+06 1.17418E+06 1.97645E-05
 -1      1379-1.58154E-03 4.02334E-04 2.02603E-04 6.65136E+06 4.51372E+05-5.53990E-04
 -1      1381-1.58154E-03 4.02334E-04 2.02603E-04 6.65136E+06 4.51372E+05-5.53990E-04
 -1      1382-2.30305E-03 1.35124E-04-5.45569E-06-4.00951E+05 1.22019E+06 2.53692E-05
 -1      1384-2.30305E-03 1.35124E-04-5.45569E-06-4.00951E+05 1.22019E+06 2.53692E-05
 -1      1393-1.37557E-03 2.07199E-04-1.97498E-03 5.79428E+06 4.93128E+05-4.88234E-04
 -1      1395-1.37557E-03 2.07199E-04-1.97498E-03 5.79428E+06 4.93128E+05-4.88234E-04
 -1      1396-1.87193E-03 4.76094E-04-9.65837E-05-4.55027E+06 1.21295E+06 7.09435E-07
 -1      1398-1.87193E-03 4.76094E-04-9.65837E-05-4.55027E+06 1.21295E+06 7.09435E-07
 -1      1407-1.11646E-03 8.04436E-05-2.81203E-03 5.37617E+06 2.81218E+05 8.63468E-04
 -1      1409-1.11646E-03 8.04436E-05-2.81203E-03 5.37617E+06 2.81218E+05 8.63468E-04
 -1      1410-1.40917E-03 2.28729E-04-1.21020E-04-9.70880E+06 1.20490E+06 6.52403E-06
 -1      1412-1.40917E-03 2.28729E-04-1.21020E-04-9.70880E+06 1.20490E+06 6.52403E-06
 -1      1421-9.73228E-04-2.39746E-04-1.69110E-03 4.41523E+06 5.07005E+05 1.73494E-03
 -1      1423-9.73228E-04-2.39746E-04-1.69110E-03 4.41523E+06 5.07005E+05 1.73494E-03
 -1      1424-1.14080E-03-1.67236E-04 4.74975E-07-1.67698E+07 1.21084E+06 1.00619E-05
 -1      1426-1.14080E-03-1.67236E-04 4.74975E-07-1.67698E+07 1.21084E+06 1.00619E-05
 -1      1435-9.14334E-04 9.96565E-05-5.40937E-04 4.16987E+06 2.84604E+05 1.09536E-03
 -1      1437-9.14334E-04 9.96565E-05-5.40937E-04 4.16987E+06 2.84604E+05 1.09536E-03
 -1      1438-9.94764E-04-4.23230E-05 1.82372E-05-2.45350E+07 1.13774E+06-2.50494E-05
 -1      1440-9.94764E-04-4.23230E-05 1.82372E-05-2.45350E+07 1.13774E+06-2.50494E-05
 -1      1449-1.00999E-03 2.11113E-04-1.16178E-03 3.27993E+06 1.30038E+06 5.41387E-04
 -1      1451-1.00999E-03 2.11113E-04-1.16178E-03 3.27993E+06 1.30038E+06 5.41387E-04
 -1      1452-1.10067E-03-5.47804E-06-1.02758E-04-3.73383E+07 1.42835E+06-1.25488E-05
 -1      1454-1.10067E-03-5.47804E-06-1.02758E-04-3.73383E+07 1.42835E+06-1.25488E-05
 -1      1463-6.58429E-04 3.08830E-04-1.73163E-03 2.93237E+06 1.44247E+06 9.47240E-04
 -1      1465-6.58429E-04 3.08830E-04-1.73163E-03 2.93237E+06 1.44247E+06 9.47240E-04
 -1      1466-9.24153E-04 1.97779E-04-1.65185E-04-5.04820E+07 1.47183E+06-4.29971E-06
 -1      1468-9.24153E-04 1.97779E-04-1.65185E-04-5.04820E+07 1.47183E+06-4.29971E-06
 -1      1477 6.41375E-05 5.24376E-04-5.69971E-04 3.13536E+06 5.63545E+06 8.92717E-04
 -1      1479 6.41375E-05 5.24376E-04-5.69971E-04 3.13536E+06 5.63545E+06 8.92717E-04
 -1      1480-3.30277E-04-4.31519E-05-1.82726E-04-6.77323E+07 3.52130E+06-2.18575E-05
 -1      1482-3.30277E-04-4.31519E-05-1.82726E-04-6.77323E+07 3.52130E+06-2.18575E-05
 -1      1491 5.22274E-04 3.86562E-04-8.65761E-04 5.63879E+05 9.76181E+06-5.08334E-05
 -1      1493 5.22274E-04 3.86562E-04-8.65761E-04 5.63879E+05 9.76181E+06-5.08334E-05
 -1      1494 1.97795E-04 2.16724E-05-1.25107E-03 5.45038E-05 7.74483E+06 1.73695E-05
 -1      1496 1.97795E-04 2.16724E-05-1.25107E-03 5.45038E-05 7.74483E+06 1.73695E-05
 -1      1497 1.53928E-04-3.67298E-05-4.69294E-04-5.63879E+05 9.76181E+06 2.70614E-04
 -1      1499 1.53928E-04-3.67298E-05-4.69294E-04-5.63879E+05 9.76181E+06 2.70614E-04
 -1      1500 2.35543E+09 6.90869E+07-3.01191E+05 1.98340E+08-2.20978E+05 1.40104E+07
 -1      1502 2.35543E+09 6.90869E+07-3.01191E+05 1.98340E+08-2.20978E+05 1.40104E+07
 -1      1503 1.71338E+09-2.22404E+07 8.70023E+05 1.18740E+08-9.78553E+05 6.53074E+04
 -1      1505 1.71338E+09-2.22404E+07 8.70023E+05 1.18740E+08-9.78553E+05 6.53074E+04
 -1      1506 1.23960E+09 1.99366E+07 4.91616E+05 1.06958E+08-1.01993E+06 7.11011E+06
 -1      1508 1.23960E+09 1.99366E+07 4.91616E+05 1.06958E+08-1.01993E+06 7.11011E+06
 -1      1509 8.73298E+08-3.03881E+06 1.46053E+04 7.29019E+07-1.54327E+06 3.82677E+06
 -1      1511 8.73298E+08-3.03881E+06 1.46053E+04 7.29019E+07-1.54327E+06 3.82677E+06
 -1      1512 5.98757E+08 5.94209E+06 5.06370E+05 5.91783E+07-1.44824E+06 5.58832E+06
 -1      1514 5.98757E+08 5.94209E+06 5.06370E+05 5.91783E+07-1.44824E+06 5.58832E+06
 -1      1515 3.85641E+08-2.88834E+05-1.93436E+05 4.43476E+07-1.39394E+06 4.88060E+06
 -1      1517 3.85641E+08-2.88834E+05-1.93436E+05 4.43476E+07-1.39394E+06 4.88060E+06
 -1      1518 2.21727E+08 1.75229E+06 3.41703E+05 3.49207E+07-1.12212E+06 5.33266E+06
 -1      1520 2.21727E+08 1.75229E+06 3.41703E+05 3.49207E+07-1.12212E+06 5.33266E+06
 -1      1521 9.25563E+07-6.43968E+05-2.21204E+05 2.74729E+07-8.01291E+05 5.19411E+06
 -1      1523 9.25563E+07-6.43968E+05-2.21204E+05 2.74729E+07-8.01291E+05 5.19411E+06
 -1      1524-9.73243E+06-7.60342E+04 1.86262E+05 2.19743E+07-4.68326E+05 5.28494E+06
 -1      1526-9.73243E+06-7.60342E+04 1.86262E+05 2.19743E+07-4.68326E+05 5.28494E+06
 -1      1527-9.24679E+07-1.29453E+06-2.11947E+05 1.78710E+07-8.19314E+04 5.22609E+06
 -1      1529-9.24679E+07-1.29453E+06-2.11947E+05 1.78710E+07-8.19314E+04 5.22609E+06
 -1      1530-1.60125E+08-1.16763E+06 7.13805E+04 1.47449E+07 2.44089E+05 5.18330E+06
 -1      1532-1.60125E+08-1.16763E+06 7.13805E+04 1.47449E+07 2.44089E+05 5.18330E+06
 -1      1533-2.16546E+08-1.87152E+06-2.01959E+05 1.23595E+07 6.08472E+05 5.09180E+06
 -1      1535-2.16546E+08-1.87152E+06-2.01959E+05 1.23595E+07 6.08472E+05 5.09180E+06
 -1      1536-2.64121E+08-1.91429E+06-8.65326E+03 1.05001E+07 8.99170E+05 4.97397E+06
 -1      1538-2.64121E+08-1.91429E+06-8.65326E+03 1.05001E+07 8.99170E+05 4.97397E+06
 -1      1539-3.04831E+08-2.36217E+06-1.98293E+05 9.00584E+06 1.21244E+06 4.83043E+06
 -1      1541-3.04831E+08-2.36217E+06-1.98293E+05 9.00584E+06 1.21244E+06 4.83043E+06
 -1      1542-3.39856E+08-2.45987E+06-6.34382E+04 7.77098E+06 1.45977E+06 4.65718E+06
 -1      1544-3.39856E+08-2.45987E+06-6.34382E+04 7.77098E+06 1.45977E+06 4.65718E+06
 -1      1545-3.70128E+08-2.77862E+06-2.00769E+05 6.69333E+06 1.71779E+06 4.46430E+06
 -1      1547-3.70128E+08-2.77862E+06-2.00769E+05 6.69333E+06 1.71779E+06 4.46430E+06
 -1      1548-3.96092E+08-2.86775E+06-9.97740E+04 5.70347E+06 1.92307E+06 4.24607E+06
 -1      1550-3.96092E+08-2.86775E+06-9.97740E+04 5.70347E+06 1.92307E+06 4.24607E+06
 -1      1551-4.18030E+08-3.12966E+06-2.07841E+05 4.73990E+06 2.13157E+06 4.01112E+06
 -1      1553-4.18030E+08-3.12966E+06-2.07841E+05 4.73990E+06 2.13157E+06 4.01112E+06
 -1      1554-4.35854E+08-3.15418E+06-1.21137E+05 3.73040E+06 2.30126E+06 3.75552E+06
 -1      1556-4.35854E+08-3.15418E+06-1.21137E+05 3.73040E+06 2.30126E+06 3.75552E+06
 -1      1557-4.49347E+08-3.42409E+06-2.17881E+05 2.63721E+06 2.47147E+06 3.48605E+06
 -1      1559-4.49347E+08-3.42409E+06-2.17881E+05 2.63721E+06 2.47147E+06 3.48605E+06
 -1      1560-4.57898E+08-3.29914E+06-1.28351E+05 1.36527E+06 2.61753E+06 3.19824E+06
 -1      1562-4.57898E+08-3.29914E+06-1.28351E+05 1.36527E+06 2.61753E+06 3.19824E+06
 -1      1563-4.60731E+08-3.66253E+06-2.28777E+05-1.63364E+05 2.76857E+06 2.90155E+06
 -1      1565-4.60731E+08-3.66253E+06-2.28777E+05-1.63364E+05 2.76857E+06 2.90155E+06
 -1      1566-4.56563E+08-3.28321E+06-1.20402E+05-1.93804E+06 2.91188E+06 2.58170E+06
 -1      1568-4.56563E+08-3.28321E+06-1.20402E+05-1.93804E+06 2.91188E+06 2.58170E+06
 -1      1569-4.43715E+08-3.73161E+06-2.36494E+05-4.53626E+06 3.07885E+06 2.26691E+06
 -1      1571-4.43715E+08-3.73161E+06-2.36494E+05-4.53626E+06 3.07885E+06 2.26691E+06
 -1      1572-4.19977E+08-3.31460E+06-9.54647E+04-6.86484E+06 3.24873E+06 1.90221E+06
 -1      1574-4.19977E+08-3.31460E+06-9.54647E+04-6.86484E+06 3.24873E+06 1.90221E+06
 -1      1575-3.81950E+08-2.95794E+06-2.30256E+05-1.20840E+07 3.48820E+06 1.59135E+06
 -1      1577-3.81950E+08-2.95794E+06-2.30256E+05-1.20840E+07 3.48820E+06 1.59135E+06
 -1      1578-3.25836E+08-4.40911E+06-6.20583E+04-1.47174E+07 3.67197E+06 1.13653E+06
 -1      1580-3.25836E+08-4.40911E+06-6.20583E+04-1.47174E+07 3.67197E+06 1.13653E+06
 -1      1581-2.46410E+08 8.01194E+04-1.48945E+05-2.41585E+07 3.97818E+06 9.13365E+05
 -1      1583-2.46410E+08 8.01194E+04-1.48945E+05-2.41585E+07 3.97818E+06 9.13365E+05
 -1      1584-1.32277E+08-5.90552E+06-1.61753E+05-3.29244E+07 3.72616E+06 2.59698E+05
 -1      1586-1.32277E+08-5.90552E+06-1.61753E+05-3.29244E+07 3.72616E+06 2.59698E+05
 -1      1587-5.44823E+07-4.14703E+07-4.76782E+05-5.55677E+07 4.49934E+06-3.51175E+05
 -1      1589-5.44823E+07-4.14703E+07-4.76782E+05-5.55677E+07 4.49934E+06-3.51175E+05
 -1      1590 1.79867E+09 1.99504E+08 3.29078E+05 3.29165E+08 4.04128E+06 1.64237E+07
 -1      1592 1.79867E+09 1.99504E+08 3.29078E+05 3.29165E+08 4.04128E+06 1.64237E+07
 -1      1593 5.44823E+07 4.14703E+07 4.76782E+05-5.55677E+07 4.49934E+06 3.51175E+05
 -1      1595 5.44823E+07 4.14703E+07 4.76782E+05-5.55677E+07 4.49934E+06 3.51175E+05
 -1      1596-2.35543E+09-6.90869E+07 3.01191E+05 1.98340E+08-2.20978E+05-1.40104E+07
 -1      1598-2.35543E+09-6.90869E+07 3.01191E+05 1.98340E+08-2.20978E+05-1.40104E+07
 -1      1599-1.71338E+09 2.22404E+07-8.70023E+05 1.18740E+08-9.78553E+05-6.53074E+04
 -1      1601-1.71338E+09 2.22404E+07-8.70023E+05 1.18740E+08-9.78553E+05-6.53074E+04
 -1      1602-1.23960E+09-1.99366E+07-4.91616E+05 1.06958E+08-1.01993E+06-7.11011E+06
 -1      1604-1.23960E+09-1.99366E+07-4.91616E+05 1.06958E+08-1.01993E+06-7.11011E+06
 -1      1605-8.73298E+08 3.03881E+06-1.46053E+04 7.29019E+07-1.54327E+06-3.82677E+06
 -1      1607-8.73298E+08 3.03881E+06-1.46053E+04 7.29019E+07-1.54327E+06-3.82677E+06
 -1      1608-5.98757E+08-5.94209E+06-5.06370E+05 5.91783E+07-1.44824E+06-5.58832E+06
 -1      1610-5.98757E+08-5.94209E+06-5.06370E+05 5.91783E+07-1.44824E+06-5.58832E+06
 -1      1611-3.85641E+08 2.88834E+05 1.93436E+05 4.43476E+07-1.39394E+06-4.88060E+06
 -1      1613-3.85641E+08 2.88834E+05 1.93436E+05 4.43476E+07-1.39394E+06-4.88060E+06
 -1      1614-2.21727E+08-1.75229E+06-3.41703E+05 3.49207E+07-1.12212E+06-5.33266E+06
 -1      1616-2.21727E+08-1.75229E+06-3.41703E+05 3.49207E+07-1.12212E+06-5.33266E+06
 -1      1617-9.25563E+07 6.43968E+05 2.21204E+05 2.74729E+07-8.01291E+05-5.19411E+06
 -1      1619-9.25563E+07 6.43968E+05 2.21204E+05 2.74729E+07-8.01291E+05-5.19411E+06
 -1      1620 9.73243E+06 7.60342E+04-1.86262E+05 2.19743E+07-4.68326E+05-5.28494E+06
 -1      1622 9.73243E+06 7.60342E+04-1.86262E+05 2.19743E+07-4.68326E+05-5.28494E+06
 -1      1623 9.24679E+07 1.29453E+06 2.11947E+05 1.78710E+07-8.19314E+04-5.22609E+06
 -1      1625 9.24679E+07 1.29453E+06 2.11947E+05 1.78710E+07-8.19314E+04-5.22609E+06
 -1      1626 1.60125E+08 1.16763E+06-7.13805E+04 1.47449E+07 2.44089E+05-5.18330E+06
 -1      1628 1.60125E+08 1.16763E+06-7.13805E+04 1.47449E+07 2.44089E+05-5.18330E+06
 -1      1629 2.16546E+08 1.87152E+06 2.01959E+05 1.23595E+07 6.08472E+05-5.09180E+06
 -1      1631 2.16546E+08 1.87152E+06 2.01959E+05 1.23595E+07 6.08472E+05-5.09180E+06
 -1      1632 2.64121E+08 1.91429E+06 8.65326E+03 1.05001E+07 8.99170E+05-4.97397E+06
 -1      1634 2.64121E+08 1.91429E+06 8.65326E+03 1.05001E+07 8.99170E+05-4.97397E+06
 -1      1635 3.04831E+08 2.36217E+06 1.98293E+05 9.00584E+06 1.21244E+06-4.83043E+06
 -1      1637 3.04831E+08 2.36217E+06 1.98293E+05 9.00584E+06 1.21244E+06-4.83043E+06
 -1      1638 3.39856E+08 2.45987E+06 6.34382E+04 7.77098E+06 1.45977E+06-4.65718E+06
 -1      1640 3.39856E+08 2.45987E+06 6.34382E+04 7.77098E+06 1.45977E+06-4.65718E+06
 -1      1641 3.70128E+08 2.77862E+06 2.00769E+05 6.69333E+06 1.71779E+06-4.46430E+06
 -1      1643 3.70128E+08 2.77862E+06 2.00769E+05 6.69333E+06 1.71779E+06-4.46430E+06
 -1      1644 3.96092E+08 2.86775E+06 9.97739E+04 5.70347E+06 1.92307E+06-4.24607E+06
 -1      1646 3.96092E+08 2.86775E+06 9.97739E+04 5.70347E+06 1.92307E+06-4.24607E+06
 -1      1647 4.18030E+08 3.12966E+06 2.07841E+05 4.73990E+06 2.13157E+06-4.01112E+06
 -1      1649 4.18030E+08 3.12966E+06 2.07841E+05 4.73990E+06 2.13157E+06-4.01112E+06
 -1      1650 4.35854E+08 3.15418E+06 1.21137E+05 3.73040E+06 2.30126E+06-3.75552E+06
 -1      1652 4.35854E+08 3.15418E+06 1.21137E+05 3.73040E+06 2.30126E+06-3.75552E+06
 -1      1653 4.49347E+08 3.42409E+06 2.17881E+05 2.63721E+06 2.47147E+06-3.48605E+06
 -1      1655 4.49347E+08 3.42409E+06 2.17881E+05 2.63721E+06 2.47147E+06-3.48605E+06
 -1      1656 4.57898E+08 3.29914E+06 1.28351E+05 1.36527E+06 2.61753E+06-3.19824E+06
 -1      1658 4.57898E+08 3.29914E+06 1.28351E+05 1.36527E+06 2.61753E+06-3.19824E+06
 -1      1659 4.60731E+08 3.66253E+06 2.28777E+05-1.63364E+05 2.76857E+06-2.90155E+06
 -1      1661 4.60731E+08 3.66253E+06 2.28777E+05-1.63364E+05 2.76857E+06-2.90155E+06
 -1      1662 4.56563E+08 3.28321E+06 1.20402E+05-1.93804E+06 2.91188E+06-2.58170E+06
 -1      1664 4.56563E+08 3.28321E+06 1.20402E+05-1.93804E+06 2.91188E+06-2.58170E+06
 -1      1665 4.43715E+08 3.73161E+06 2.36494E+05-4.53626E+06 3.07885E+06-2.26691E+06
 -1      1667 4.43715E+08 3.73161E+06 2.36494E+05-4.53626E+06 3.07885E+06-2.26691E+06
 -1      1668 4.19977E+08 3.31460E+06 9.54647E+04-6.86484E+06 3.24873E+06-1.90221E+06
 -1      1670 4.19977E+08 3.31460E+06 9.54647E+04-6.86484E+06 3.24873E+06-1.90221E+06
 -1      1671 3.81950E+08 2.95794E+06 2.30256E+05-1.20840E+07 3.48820E+06-1.59135E+06
 -1      1673 3.81950E+08 2.95794E+06 2.30256E+05-1.20840E+07 3.48820E+06-1.59135E+06
 -1      1674 3.25836E+08 4.40911E+06 6.20583E+04-1.47174E+07 3.67197E+06-1.13653E+06
 -1      1676 3.25836E+08 4.40911E+06 6.20583E+04-1.47174E+07 3.67197E+06-1.13653E+06
 -1      1677 2.46410E+08-8.01194E+04 1.48945E+05-2.41585E+07 3.97818E+06-9.13365E+05
 -1      1679 2.46410E+08-8.01194E+04 1.48945E+05-2.41585E+07 3.97818E+06-9.13365E+05
 -1      1680 1.32277E+08 5.90552E+06 1.61753E+05-3.29244E+07 3.72616E+06-2.59698E+05
 -1      1682 1.32277E+08 5.90552E+06 1.61753E+05-3.29244E+07 3.72616E+06-2.59698E+05
 -1      1683-1.79867E+09-1.99504E+08-3.29078E+05 3.29165E+08 4.04128E+06-1.64237E+07
 -1      1685-1.79867E+09-1.99504E+08-3.29078E+05 3.29165E+08 4.04128E+06-1.64237E+07
 -1      1686 1.57705E+09 7.68120E+07 2.41654E+05-2.87134E+08 1.65223E+05-4.12397E+06
 -1      1688 1.57705E+09 7.68120E+07 2.41654E+05-2.87134E+08 1.65223E+05-4.12397E+06
 -1      1689 1.15700E+09-8.42183E+05-3.41331E+04-2.14511E+08-3.53173E+06 2.29026E+06
 -1      1691 1.15700E+09-8.42183E+05-3.41331E+04-2.14511E+08-3.53173E+06 2.29026E+06
 -1      1692 8.28801E+08 2.43771E+07 6.04570E+04-1.62563E+08-2.73125E+06-1.06587E+06
 -1      1694 8.28801E+08 2.43771E+07 6.04570E+04-1.62563E+08-2.73125E+06-1.06587E+06
 -1      1695 5.89220E+08 7.89780E+06 7.98965E+04-1.23363E+08-2.82942E+06 2.98176E+05
 -1      1697 5.89220E+08 7.89780E+06 7.98965E+04-1.23363E+08-2.82942E+06 2.98176E+05
 -1      1698 4.01366E+08 8.41258E+06-4.55919E+04-9.40879E+07-2.47990E+06-4.61258E+05
 -1      1700 4.01366E+08 8.41258E+06-4.55919E+04-9.40879E+07-2.47990E+06-4.61258E+05
 -1      1701 2.60046E+08 4.71700E+06 8.25648E+04-7.27077E+07-1.94057E+06-2.07333E+05
 -1      1703 2.60046E+08 4.71700E+06 8.25648E+04-7.27077E+07-1.94057E+06-2.07333E+05
 -1      1704 1.49116E+08 2.72106E+06-4.91591E+04-5.64550E+07-1.63259E+06-3.50923E+05
 -1      1706 1.49116E+08 2.72106E+06-4.91591E+04-5.64550E+07-1.63259E+06-3.50923E+05
 -1      1707 6.28525E+07 1.09633E+06 4.36853E+04-4.46567E+07-1.07796E+06-3.13285E+05
 -1      1709 6.28525E+07 1.09633E+06 4.36853E+04-4.46567E+07-1.07796E+06-3.13285E+05
 -1      1710-6.04956E+06-3.00863E+05-2.98384E+04-3.56248E+07-7.77832E+05-3.19200E+05
 -1      1712-6.04956E+06-3.00863E+05-2.98384E+04-3.56248E+07-7.77832E+05-3.19200E+05
 -1      1713-6.14184E+07-1.41360E+06 9.31715E+03-2.90110E+07-3.19032E+05-3.11412E+05
 -1      1715-6.14184E+07-1.41360E+06 9.31715E+03-2.90110E+07-3.19032E+05-3.11412E+05
 -1      1716-1.06911E+08-2.31251E+06-1.56774E+04-2.38924E+07-4.59873E+04-2.91185E+05
 -1      1718-1.06911E+08-2.31251E+06-1.56774E+04-2.38924E+07-4.59873E+04-2.91185E+05
 -1      1719-1.44683E+08-3.12751E+06-1.18984E+04-2.00553E+07 3.15429E+05-2.81717E+05
 -1      1721-1.44683E+08-3.12751E+06-1.18984E+04-2.00553E+07 3.15429E+05-2.81717E+05
 -1      1722-1.76637E+08-3.76051E+06-1.01247E+04-1.70047E+07 5.49470E+05-2.59464E+05
 -1      1724-1.76637E+08-3.76051E+06-1.01247E+04-1.70047E+07 5.49470E+05-2.59464E+05
 -1      1725-2.03889E+08-4.36868E+06-2.25016E+04-1.46023E+07 8.31062E+05-2.46405E+05
 -1      1727-2.03889E+08-4.36868E+06-2.25016E+04-1.46023E+07 8.31062E+05-2.46405E+05
 -1      1728-2.27393E+08-4.84380E+06-1.10078E+04-1.25817E+07 1.02360E+06-2.26278E+05
 -1      1730-2.27393E+08-4.84380E+06-1.10078E+04-1.25817E+07 1.02360E+06-2.26278E+05
 -1      1731-2.47650E+08-5.30648E+06-2.58600E+04-1.08408E+07 1.24230E+06-2.11461E+05
 -1      1733-2.47650E+08-5.30648E+06-2.58600E+04-1.08408E+07 1.24230E+06-2.11461E+05
 -1      1734-2.65064E+08-5.66354E+06-1.62848E+04-9.23453E+06 1.39518E+06-1.93535E+05
 -1      1736-2.65064E+08-5.66354E+06-1.62848E+04-9.23453E+06 1.39518E+06-1.93535E+05
 -1      1737-2.79729E+08-6.01394E+06-2.38529E+04-7.66209E+06 1.56409E+06-1.78572E+05
 -1      1739-2.79729E+08-6.01394E+06-2.38529E+04-7.66209E+06 1.56409E+06-1.78572E+05
 -1      1740-2.91682E+08-6.25498E+06-2.51458E+04-6.04344E+06 1.68075E+06-1.62395E+05
 -1      1742-2.91682E+08-6.25498E+06-2.51458E+04-6.04344E+06 1.68075E+06-1.62395E+05
 -1      1743-3.00674E+08-6.50565E+06-1.67129E+04-4.24047E+06 1.80990E+06-1.49217E+05
 -1      1745-3.00674E+08-6.50565E+06-1.67129E+04-4.24047E+06 1.80990E+06-1.49217E+05
 -1      1746-3.06410E+08-6.60460E+06-3.80210E+04-2.20955E+06 1.89586E+06-1.34316E+05
 -1      1748-3.06410E+08-6.60460E+06-3.80210E+04-2.20955E+06 1.89586E+06-1.34316E+05
 -1      1749-3.08251E+08-6.72954E+06-3.23246E+03 2.82158E+05 1.99438E+06-1.27141E+05
 -1      1751-3.08251E+08-6.72954E+06-3.23246E+03 2.82158E+05 1.99438E+06-1.27141E+05
 -1      1752-3.05420E+08-6.70524E+06-5.61860E+04 3.24415E+06 2.06241E+06-1.12066E+05
 -1      1754-3.05420E+08-6.70524E+06-5.61860E+04 3.24415E+06 2.06241E+06-1.12066E+05
 -1      1755-2.96826E+08-6.41454E+06 1.81271E+04 7.12253E+06 2.14188E+06-1.21598E+05
 -1      1757-2.96826E+08-6.41454E+06 1.81271E+04 7.12253E+06 2.14188E+06-1.21598E+05
 -1      1758-2.80680E+08-6.84874E+06-7.81289E+04 1.18173E+07 2.22979E+06-1.00146E+05
 -1      1760-2.80680E+08-6.84874E+06-7.81289E+04 1.18173E+07 2.22979E+06-1.00146E+05
 -1      1761-2.55416E+08-4.46812E+06 3.88570E+04 1.83095E+07 2.31297E+06-1.52065E+05
 -1      1763-2.55416E+08-4.46812E+06 3.88570E+04 1.83095E+07 2.31297E+06-1.52065E+05
 -1      1764-2.17588E+08-8.40613E+06-7.14574E+04 2.60278E+07 2.55016E+06-1.01707E+05
 -1      1766-2.17588E+08-8.40613E+06-7.14574E+04 2.60278E+07 2.55016E+06-1.01707E+05
 -1      1767-1.62986E+08 1.53857E+06-2.74714E+04 3.73202E+07 2.72500E+06-2.46302E+05
 -1      1769-1.62986E+08 1.53857E+06-2.74714E+04 3.73202E+07 2.72500E+06-2.46302E+05
 -1      1770-9.28044E+07-1.15455E+07 1.77445E+05 5.03283E+07 3.62373E+06-9.20192E+04
 -1      1772-9.28044E+07-1.15455E+07 1.77445E+05 5.03283E+07 3.62373E+06-9.20192E+04
 -1      1773-1.57705E+09-7.68120E+07-2.41654E+05-2.87134E+08 1.65223E+05 4.12397E+06
 -1      1775-1.57705E+09-7.68120E+07-2.41654E+05-2.87134E+08 1.65223E+05 4.12397E+06
 -1      1776-1.15700E+09 8.42183E+05 3.41331E+04-2.14511E+08-3.53173E+06-2.29026E+06
 -1      1778-1.15700E+09 8.42183E+05 3.41331E+04-2.14511E+08-3.53173E+06-2.29026E+06
 -1      1779-8.28801E+08-2.43771E+07-6.04570E+04-1.62563E+08-2.73125E+06 1.06587E+06
 -1      1781-8.28801E+08-2.43771E+07-6.04570E+04-1.62563E+08-2.73125E+06 1.06587E+06
 -1      1782-5.89220E+08-7.89780E+06-7.98965E+04-1.23363E+08-2.82942E+06-2.98176E+05
 -1      1784-5.89220E+08-7.89780E+06-7.98965E+04-1.23363E+08-2.82942E+06-2.98176E+05
 -1      1785-4.01366E+08-8.41258E+06 4.55919E+04-9.40879E+07-2.47990E+06 4.61258E+05
 -1      1787-4.01366E+08-8.41258E+06 4.55919E+04-9.40879E+07-2.47990E+06 4.61258E+05
 -1      1788-2.60046E+08-4.71700E+06-8.25648E+04-7.27077E+07-1.94057E+06 2.07333E+05
 -1      1790-2.60046E+08-4.71700E+06-8.25648E+04-7.27077E+07-1.94057E+06 2.07333E+05
 -1      1791-1.49116E+08-2.72106E+06 4.91591E+04-5.64550E+07-1.63259E+06 3.50923E+05
 -1      1793-1.49116E+08-2.72106E+06 4.91591E+04-5.64550E+07-1.63259E+06 3.50923E+05
 -1      1794-6.28525E+07-1.09633E+06-4.36853E+04-4.46567E+07-1.07796E+06 3.13285E+05
 -1      1796-6.28525E+07-1.09633E+06-4.36853E+04-4.46567E+07-1.07796E+06 3.13285E+05
 -1      1797 6.04956E+06 3.00863E+05 2.98384E+04-3.56248E+07-7.77832E+05 3.19200E+05
 -1      1799 6.04956E+06 3.00863E+05 2.98384E+04-3.56248E+07-7.77832E+05 3.19200E+05
 -1      1800 6.14184E+07 1.41360E+06-9.31715E+03-2.90110E+07-3.19032E+05 3.11412E+05
 -1      1802 6.14184E+07 1.41360E+06-9.31715E+03-2.90110E+07-3.19032E+05 3.11412E+05
 -1      1803 1.06911E+08 2.31251E+06 1.56774E+04-2.38924E+07-4.59873E+04 2.91185E+05
 -1      1805 1.06911E+08 2.31251E+06 1.56774E+04-2.38924E+07-4.59873E+04 2.91185E+05
 -1      1806 1.44683E+08 3.12751E+06 1.18984E+04-2.00553E+07 3.15429E+05 2.81717E+05
 -1      1808 1.44683E+08 3.12751E+06 1.18984E+04-2.00553E+07 3.15429E+05 2.81717E+05
 -1      1809 1.76637E+08 3.76051E+06 1.01247E+04-1.70047E+07 5.49470E+05 2.59464E+05
 -1      1811 1.76637E+08 3.76051E+06 1.01247E+04-1.70047E+07 5.49470E+05 2.59464E+05
 -1      1812 2.03889E+08 4.36868E+06 2.25016E+04-1.46023E+07 8.31062E+05 2.46405E+05
 -1      1814 2.03889E+08 4.36868E+06 2.25016E+04-1.46023E+07 8.31062E+05 2.46405E+05
 -1      1815 2.27393E+08 4.84380E+06 1.10078E+04-1.25817E+07 1.02360E+06 2.26278E+05
 -1      1817 2.27393E+08 4.84380E+06 1.10078E+04-1.25817E+07 1.02360E+06 2.26278E+05
 -1      1818 2.47650E+08 5.30648E+06 2.58600E+04-1.08408E+07 1.24230E+06 2.11461E+05
 -1      1820 2.47650E+08 5.30648E+06 2.58600E+04-1.08408E+07 1.24230E+06 2.11461E+05
 -1      1821 2.65064E+08 5.66354E+06 1.62848E+04-9.23453E+06 1.39518E+06 1.93535E+05
 -1      1823 2.65064E+08 5.66354E+06 1.62848E+04-9.23453E+06 1.39518E+06 1.93535E+05
 -1      1824 2.79729E+08 6.01394E+06 2.38529E+04-7.66209E+06 1.56409E+06 1.78572E+05
 -1      1826 2.79729E+08 6.01394E+06 2.38529E+04-7.66209E+06 1.56409E+06 1.78572E+05
 -1      1827 2.91682E+08 6.25498E+06 2.51458E+04-6.04344E+06 1.68075E+06 1.62395E+05
 -1      1829 2.91682E+08 6.25498E+06 2.51458E+04-6.04344E+06 1.68075E+06 1.62395E+05
 -1      1830 3.00674E+08 6.50565E+06 1.67129E+04-4.24047E+06 1.80990E+06 1.49217E+05
 -1      1832 3.00674E+08 6.50565E+06 1.67129E+04-4.24047E+06 1.80990E+06 1.49217E+05
 -1      1833 3.06410E+08 6.60460E+06 3.80210E+04-2.20955E+06 1.89586E+06 1.34316E+05
 -1      1835 3.06410E+08 6.60460E+06 3.80210E+04-2.20955E+06 1.89586E+06 1.34316E+05
 -1      1836 3.08251E+08 6.72954E+06 3.23246E+03 2.82158E+05 1.99438E+06 1.27141E+05
 -1      1838 3.08251E+08 6.72954E+06 3.23246E+03 2.82158E+05 1.99438E+06 1.27141E+05
 -1      1839 3.05420E+08 6.70524E+06 5.61860E+04 3.24415E+06 2.06241E+06 1.12066E+05
 -1      1841 3.05420E+08 6.70524E+06 5.61860E+04 3.24415E+06 2.06241E+06 1.12066E+05
 -1      1842 2.96826E+08 6.41454E+06-1.81271E+04 7.12253E+06 2.14188E+06 1.21598E+05
 -1      1844 2.96826E+08 6.41454E+06-1.81271E+04 7.12253E+06 2.14188E+06 1.21598E+05
 -1      1845 2.80680E+08 6.84874E+06 7.81289E+04 1.18173E+07 2.22979E+06 1.00146E+05
 -1      1847 2.80680E+08 6.84874E+06 7.81289E+04 1.18173E+07 2.22979E+06 1.00146E+05
 -1      1848 2.55416E+08 4.46812E+06-3.88570E+04 1.83095E+07 2.31297E+06 1.52065E+05
 -1      1850 2.55416E+08 4.46812E+06-3.88570E+04 1.83095E+07 2.31297E+06 1.52065E+05
 -1      1851 2.17588E+08 8.40613E+06 7.14574E+04 2.60278E+07 2.55016E+06 1.01707E+05
 -1      1853 2.17588E+08 8.40613E+06 7.14574E+04 2.60278E+07 2.55016E+06 1.01707E+05
 -1      1854 1.62986E+08-1.53857E+06 2.74714E+04 3.73202E+07 2.72500E+06 2.46302E+05
 -1      1856 1.62986E+08-1.53857E+06 2.74714E+04 3.73202E+07 2.72500E+06 2.46302E+05
 -1      1857 9.28044E+07 1.15455E+07-1.77445E+05 5.03283E+07 3.62373E+06 9.20192E+04
 -1      1859 9.28044E+07 1.15455E+07-1.77445E+05 5.03283E+07 3.62373E+06 9.20192E+04
 -1      1860 6.19699E-03-1.50867E-06-3.36309E-04-1.18049E+06-3.68749E+06 4.69867E-03
 -1      1862 6.19699E-03-1.50867E-06-3.36309E-04-1.18049E+06-3.68749E+06 4.69867E-03
 -1      1863 5.91580E-03-3.35966E-05-1.24828E-03-2.71377E+04-5.63610E+06 4.58404E-03
 -1      1865 5.91580E-03-3.35966E-05-1.24828E-03-2.71377E+04-5.63610E+06 4.58404E-03
 -1      1866 5.52819E-03-1.10506E-04-3.01015E-04-6.48624E+05-5.37315E+06 4.23999E-03
 -1      1868 5.52819E-03-1.10506E-04-3.01015E-04-6.48624E+05-5.37315E+06 4.23999E-03
 -1      1869 5.00868E-03-1.10438E-04 1.08330E-03-3.42862E+05-4.83948E+06 4.18823E-03
 -1      1871 5.00868E-03-1.10438E-04 1.08330E-03-3.42862E+05-4.83948E+06 4.18823E-03
 -1      1872 4.23422E-03 5.00989E-05 1.38258E-03-7.07517E+05-4.13308E+06 4.37600E-03
 -1      1874 4.23422E-03 5.00989E-05 1.38258E-03-7.07517E+05-4.13308E+06 4.37600E-03
 -1      1875 3.44687E-03 3.80509E-05 3.13170E-04-4.71984E+05-3.25169E+06 4.37808E-03
 -1      1877 3.44687E-03 3.80509E-05 3.13170E-04-4.71984E+05-3.25169E+06 4.37808E-03
 -1      1878 3.08279E-03-6.15197E-05-9.66102E-04-7.51682E+05-2.49570E+06 3.76931E-03
 -1      1880 3.08279E-03-6.15197E-05-9.66102E-04-7.51682E+05-2.49570E+06 3.76931E-03
 -1      1881 3.01916E-03-1.22866E-04-9.80669E-04-5.64711E+05-1.69229E+06 2.98646E-03
 -1      1883 3.01916E-03-1.22866E-04-9.80669E-04-5.64711E+05-1.69229E+06 2.98646E-03
 -1      1884 2.86102E-03-7.43301E-05-5.84449E-05-7.44785E+05-1.00545E+06 2.87600E-03
 -1      1886 2.86102E-03-7.43301E-05-5.84449E-05-7.44785E+05-1.00545E+06 2.87600E-03
 -1      1887 2.33576E-03-3.84647E-05-3.53647E-05-6.13981E+05-3.48122E+05 3.28998E-03
 -1      1889 2.33576E-03-3.84647E-05-3.53647E-05-6.13981E+05-3.48122E+05 3.28998E-03
 -1      1890 1.69431E-03-2.03174E-04-1.26410E-03-7.09600E+05 2.36639E+05 3.02234E-03
 -1      1892 1.69431E-03-2.03174E-04-1.26410E-03-7.09600E+05 2.36639E+05 3.02234E-03
 -1      1893 1.33014E-03-1.64900E-04-2.26839E-03-6.21360E+05 7.57757E+05 2.00239E-03
 -1      1895 1.33014E-03-1.64900E-04-2.26839E-03-6.21360E+05 7.57757E+05 2.00239E-03
 -1      1896 1.00773E-03-1.22412E-04-2.52322E-03-6.58497E+05 1.24183E+06 1.04753E-03
 -1      1898 1.00773E-03-1.22412E-04-2.52322E-03-6.58497E+05 1.24183E+06 1.04753E-03
 -1      1899 7.72087E-04-2.04943E-04-2.46553E-03-5.97936E+05 1.64830E+06 2.34337E-04
 -1      1901 7.72087E-04-2.04943E-04-2.46553E-03-5.97936E+05 1.64830E+06 2.34337E-04
 -1      1902 9.92187E-04-2.06343E-05-2.22670E-03-5.96665E+05 2.04536E+06-4.01902E-04
 -1      1904 9.92187E-04-2.06343E-05-2.22670E-03-5.96665E+05 2.04536E+06-4.01902E-04
 -1      1905 1.31504E-03 2.20929E-05-1.86312E-03-5.55288E+05 2.35466E+06-3.74730E-04
 -1      1907 1.31504E-03 2.20929E-05-1.86312E-03-5.55288E+05 2.35466E+06-3.74730E-04
 -1      1908 1.20987E-03-3.50615E-05-1.48218E-03-5.26533E+05 2.68096E+06 1.73560E-04
 -1      1910 1.20987E-03-3.50615E-05-1.48218E-03-5.26533E+05 2.68096E+06 1.73560E-04
 -1      1911 1.09549E-03-1.86749E-05-1.08003E-03-5.03030E+05 2.90363E+06 6.01670E-04
 -1      1913 1.09549E-03-1.86749E-05-1.08003E-03-5.03030E+05 2.90363E+06 6.01670E-04
 -1      1914 1.40641E-03 3.68993E-05-4.67400E-04-4.48929E+05 3.17562E+06 8.60398E-04
 -1      1916 1.40641E-03 3.68993E-05-4.67400E-04-4.48929E+05 3.17562E+06 8.60398E-04
 -1      1917 2.04970E-03 6.71045E-05 3.91521E-05-4.49410E+05 3.31582E+06 6.92061E-04
 -1      1919 2.04970E-03 6.71045E-05 3.91521E-05-4.49410E+05 3.31582E+06 6.92061E-04
 -1      1920 2.64898E-03 1.70368E-04 3.28100E-04-3.62825E+05 3.55272E+06 5.99478E-05
 -1      1922 2.64898E-03 1.70368E-04 3.28100E-04-3.62825E+05 3.55272E+06 5.99478E-05
 -1      1923 2.79352E-03 7.80113E-05 3.03137E-04-4.02275E+05 3.60998E+06 5.29882E-05
 -1      1925 2.79352E-03 7.80113E-05 3.03137E-04-4.02275E+05 3.60998E+06 5.29882E-05
 -1      1926 2.87600E-03 3.95658E-05-4.12647E-04-2.65283E+05 3.84335E+06 5.15361E-04
 -1      1928 2.87600E-03 3.95658E-05-4.12647E-04-2.65283E+05 3.84335E+06 5.15361E-04
 -1      1929 2.70187E-03 4.13744E-04-1.12844E-03-3.66461E+05 3.81502E+06 7.43323E-04
 -1      1931 2.70187E-03 4.13744E-04-1.12844E-03-3.66461E+05 3.81502E+06 7.43323E-04
 -1      1932 1.88154E-03 2.27877E-04-1.51053E-03-1.58694E+05 4.11875E+06 1.09670E-03
 -1      1934 1.88154E-03 2.27877E-04-1.51053E-03-1.58694E+05 4.11875E+06 1.09670E-03
 -1      1935 1.10414E-03-1.64827E-04-2.08100E-03-3.19683E+05 4.00603E+06 1.24961E-03
 -1      1937 1.10414E-03-1.64827E-04-2.08100E-03-3.19683E+05 4.00603E+06 1.24961E-03
 -1      1938 6.40877E-04-5.30123E-04-2.83539E-03-9.69233E+04 4.60927E+06 1.23476E-03
 -1      1940 6.40877E-04-5.30123E-04-2.83539E-03-9.69233E+04 4.60927E+06 1.23476E-03
 -1      1941 4.61526E-04-5.70054E-04-2.82800E-03-1.07597E+05 4.47767E+06 1.08091E-03
 -1      1943 4.61526E-04-5.70054E-04-2.82800E-03-1.07597E+05 4.47767E+06 1.08091E-03
 -1      1944 4.98253E-04 2.19785E-05-1.66844E-03-3.28713E+05 6.23572E+06 3.85500E-04
 -1      1946 4.98253E-04 2.19785E-05-1.66844E-03-3.28713E+05 6.23572E+06 3.85500E-04
 -1      1947 4.91575E-04 9.67487E-06-7.97615E-04-2.56896E-04-5.05204E+05 4.52972E-03
 -1      1949 4.91575E-04 9.67487E-06-7.97615E-04-2.56896E-04-5.05204E+05 4.52972E-03
 -1      1950 6.45553E-04-1.34301E-05-8.03321E-04-5.95651E-05 2.14726E+06 4.97550E-03
 -1      1952 6.45553E-04-1.34301E-05-8.03321E-04-5.95651E-05 2.14726E+06 4.97550E-03
 -1      1953 5.00812E-04-1.07543E-04 8.51888E-05-1.38676E-04 2.38599E+06 4.81424E-03
 -1      1955 5.00812E-04-1.07543E-04 8.51888E-05-1.38676E-04 2.38599E+06 4.81424E-03
 -1      1956 3.35885E-04-1.68152E-04 1.09970E-03-5.79362E-05 2.28993E+06 4.51268E-03
 -1      1958 3.35885E-04-1.68152E-04 1.09970E-03-5.79362E-05 2.28993E+06 4.51268E-03
 -1      1959 2.28272E-04 9.87938E-06 1.42505E-03-9.26848E-05 2.29882E+06 4.37660E-03
 -1      1961 2.28272E-04 9.87938E-06 1.42505E-03-9.26848E-05 2.29882E+06 4.37660E-03
 -1      1962 2.91042E-04 1.40140E-04 8.25152E-04-9.70620E-05 2.05244E+06 4.04545E-03
 -1      1964 2.91042E-04 1.40140E-04 8.25152E-04-9.70620E-05 2.05244E+06 4.04545E-03
 -1      1965 4.49554E-04-1.60301E-05-2.18331E-04-5.54142E-05 2.09879E+06 3.41963E-03
 -1      1967 4.49554E-04-1.60301E-05-2.18331E-04-5.54142E-05 2.09879E+06 3.41963E-03
 -1      1968 3.81135E-04-1.33697E-04-6.10137E-04-5.28228E-05 2.07620E+06 3.06696E-03
 -1      1970 3.81135E-04-1.33697E-04-6.10137E-04-5.28228E-05 2.07620E+06 3.06696E-03
 -1      1971 5.45124E-05-9.12701E-05-5.88406E-05-1.12860E-04 2.24872E+06 3.15181E-03
 -1      1973 5.45124E-05-9.12701E-05-5.88406E-05-1.12860E-04 2.24872E+06 3.15181E-03
 -1      1974-3.63795E-04-1.91773E-04 1.45209E-04-6.50114E-05 2.42524E+06 3.24307E-03
 -1      1976-3.63795E-04-1.91773E-04 1.45209E-04-6.50114E-05 2.42524E+06 3.24307E-03
 -1      1977-5.25194E-04-1.62117E-04-6.30707E-04-4.19631E-05 2.71848E+06 2.77767E-03
 -1      1979-5.25194E-04-1.62117E-04-6.30707E-04-4.19631E-05 2.71848E+06 2.77767E-03
 -1      1980-4.16269E-04 2.78219E-05-1.63483E-03-3.90569E-05 3.01878E+06 1.92271E-03
 -1      1982-4.16269E-04 2.78219E-05-1.63483E-03-3.90569E-05 3.01878E+06 1.92271E-03
 -1      1983-4.43500E-04-7.74351E-05-2.27395E-03 2.29785E-05 3.39478E+06 1.20959E-03
 -1      1985-4.43500E-04-7.74351E-05-2.27395E-03 2.29785E-05 3.39478E+06 1.20959E-03
 -1      1986-5.59353E-04-3.57932E-04-2.48029E-03-5.15273E-05 3.75440E+06 5.62480E-04
 -1      1988-5.59353E-04-3.57932E-04-2.48029E-03-5.15273E-05 3.75440E+06 5.62480E-04
 -1      1989-3.44813E-04-1.99279E-04-2.33464E-03-5.15264E-05 4.17475E+06 3.65321E-05
 -1      1991-3.44813E-04-1.99279E-04-2.33464E-03-5.15264E-05 4.17475E+06 3.65321E-05
 -1      1992 1.21501E-04 1.44646E-04-2.16347E-03-6.72555E-06 4.54701E+06 1.46069E-04
 -1      1994 1.21501E-04 1.44646E-04-2.16347E-03-6.72555E-06 4.54701E+06 1.46069E-04
 -1      1995 1.15437E-04 9.19669E-05-1.97845E-03-5.16316E-05 4.98435E+06 7.16323E-04
 -1      1997 1.15437E-04 9.19669E-05-1.97845E-03-5.16316E-05 4.98435E+06 7.16323E-04
 -1      1998-2.99001E-04-5.53043E-05-1.26173E-03 9.74482E-05 5.33699E+06 1.09181E-03
 -1      2000-2.99001E-04-5.53043E-05-1.26173E-03 9.74482E-05 5.33699E+06 1.09181E-03
 -1      2001-3.82365E-04 6.01910E-06-1.57621E-04 2.69366E-05 5.77643E+06 1.21536E-03
 -1      2003-3.82365E-04 6.01910E-06-1.57621E-04 2.69366E-05 5.77643E+06 1.21536E-03
 -1      2004 7.52381E-05 1.14070E-04 6.42938E-04 3.32065E-05 6.08633E+06 7.54292E-04
 -1      2006 7.52381E-05 1.14070E-04 6.42938E-04 3.32065E-05 6.08633E+06 7.54292E-04
 -1      2007 5.81355E-04 2.04171E-04 9.29816E-04 1.34473E-04 6.52185E+06 3.82353E-05
 -1      2009 5.81355E-04 2.04171E-04 9.29816E-04 1.34473E-04 6.52185E+06 3.82353E-05
 -1      2010 9.28980E-04 3.39306E-04 5.06986E-04 3.37667E-05 6.76858E+06-2.27974E-04
 -1      2012 9.28980E-04 3.39306E-04 5.06986E-04 3.37667E-05 6.76858E+06-2.27974E-04
 -1      2013 1.35228E-03 1.21408E-04-7.75084E-04 9.07574E-05 7.19358E+06 1.65940E-05
 -1      2015 1.35228E-03 1.21408E-04-7.75084E-04 9.07574E-05 7.19358E+06 1.65940E-05
 -1      2016 1.39319E-03 6.46443E-05-1.70460E-03 7.27361E-05 7.34882E+06 7.69668E-04
 -1      2018 1.39319E-03 6.46443E-05-1.70460E-03 7.27361E-05 7.34882E+06 7.69668E-04
 -1      2019 7.89880E-04 1.54997E-04-1.75074E-03 9.22643E-05 7.73049E+06 1.36627E-03
 -1      2021 7.89880E-04 1.54997E-04-1.75074E-03 9.22643E-05 7.73049E+06 1.36627E-03
 -1      2022 1.56179E-04-1.28685E-04-1.85820E-03 9.32098E-05 7.72746E+06 1.19520E-03
 -1      2024 1.56179E-04-1.28685E-04-1.85820E-03 9.32098E-05 7.72746E+06 1.19520E-03
 -1      2025 4.58839E-05-2.66403E-04-2.26488E-03 1.04629E-04 7.91816E+06 9.72254E-04
 -1      2027 4.58839E-05-2.66403E-04-2.26488E-03 1.04629E-04 7.91816E+06 9.72254E-04
 -1      2028 1.93861E-04-4.23043E-04-2.45323E-03 5.87158E-05 7.51288E+06 9.91424E-04
 -1      2030 1.93861E-04-4.23043E-04-2.45323E-03 5.87158E-05 7.51288E+06 9.91424E-04
 -1      2031 2.12433E-04-3.02559E-04-1.83365E-03-3.64729E-05 6.83599E+06 4.70657E-04
 -1      2033 2.12433E-04-3.02559E-04-1.83365E-03-3.64729E-05 6.83599E+06 4.70657E-04
 -1      2034-5.44946E-03 2.88141E-06-1.12987E-03 1.18049E+06-3.68749E+06 4.12055E-03
 -1      2036-5.44946E-03 2.88141E-06-1.12987E-03 1.18049E+06-3.68749E+06 4.12055E-03
 -1      2037-5.14152E-03-1.51423E-06-3.83832E-04 2.71377E+04-5.63610E+06 4.62874E-03
 -1      2039-5.14152E-03-1.51423E-06-3.83832E-04 2.71377E+04-5.63610E+06 4.62874E-03
 -1      2040-4.59543E-03-4.50958E-05 3.59925E-04 6.48624E+05-5.37315E+06 4.63108E-03
 -1      2042-4.59543E-03-4.50958E-05 3.59925E-04 6.48624E+05-5.37315E+06 4.63108E-03
 -1      2043-3.92512E-03-8.10305E-05 1.07561E-03 3.42862E+05-4.83948E+06 4.38432E-03
 -1      2045-3.92512E-03-8.10305E-05 1.07561E-03 3.42862E+05-4.83948E+06 4.38432E-03
 -1      2046-3.31994E-03-6.69382E-06 1.67340E-03 7.07517E+05-4.13308E+06 4.13238E-03
 -1      2048-3.31994E-03-6.69382E-06 1.67340E-03 7.07517E+05-4.13308E+06 4.13238E-03
 -1      2049-2.81963E-03 8.87540E-05 1.69535E-03 4.71984E+05-3.25169E+06 3.55811E-03
 -1      2051-2.81963E-03 8.87540E-05 1.69535E-03 4.71984E+05-3.25169E+06 3.55811E-03
 -1      2052-2.61606E-03 3.53813E-05 7.94040E-04 7.51682E+05-2.49570E+06 2.74489E-03
 -1      2054-2.61606E-03 3.53813E-05 7.94040E-04 7.51682E+05-2.49570E+06 2.74489E-03
 -1      2055-2.61093E-03-1.11146E-04-1.46372E-04 5.64711E+05-1.69229E+06 2.62499E-03
 -1      2057-2.61093E-03-1.11146E-04-1.46372E-04 5.64711E+05-1.69229E+06 2.62499E-03
 -1      2058-2.45798E-03-8.64964E-05 4.09467E-05 7.44785E+05-1.00545E+06 2.95524E-03
 -1      2060-2.45798E-03-8.64964E-05 4.09467E-05 7.44785E+05-1.00545E+06 2.95524E-03
 -1      2061-2.36747E-03-1.11815E-04 5.30805E-04 6.13981E+05-3.48122E+05 2.80722E-03
 -1      2063-2.36747E-03-1.11815E-04 5.30805E-04 6.13981E+05-3.48122E+05 2.80722E-03
 -1      2064-2.36059E-03 1.97196E-05 1.01070E-04 7.09600E+05 2.36639E+05 2.10474E-03
 -1      2066-2.36059E-03 1.97196E-05 1.01070E-04 7.09600E+05 2.36639E+05 2.10474E-03
 -1      2067-2.17992E-03 2.96527E-05-1.14739E-03 6.21360E+05 7.57757E+05 1.44422E-03
 -1      2069-2.17992E-03 2.96527E-05-1.14739E-03 6.21360E+05 7.57757E+05 1.44422E-03
 -1      2070-1.84196E-03-1.59189E-04-2.19717E-03 6.58497E+05 1.24183E+06 1.11346E-03
 -1      2072-1.84196E-03-1.59189E-04-2.19717E-03 6.58497E+05 1.24183E+06 1.11346E-03
 -1      2073-1.56235E-03-2.64545E-04-2.44831E-03 5.97936E+05 1.64830E+06 7.33705E-04
 -1      2075-1.56235E-03-2.64545E-04-2.44831E-03 5.97936E+05 1.64830E+06 7.33705E-04
 -1      2076-1.45867E-03-2.13654E-04-2.35672E-03 5.96665E+05 2.04536E+06 1.74599E-04
 -1      2078-1.45867E-03-2.13654E-04-2.35672E-03 5.96665E+05 2.04536E+06 1.74599E-04
 -1      2079-1.37218E-03 8.52712E-05-2.30544E-03 5.55288E+05 2.35466E+06 1.47455E-04
 -1      2081-1.37218E-03 8.52712E-05-2.30544E-03 5.55288E+05 2.35466E+06 1.47455E-04
 -1      2082-1.52835E-03 1.71049E-04-2.01395E-03 5.26533E+05 2.68096E+06 7.46161E-04
 -1      2084-1.52835E-03 1.71049E-04-2.01395E-03 5.26533E+05 2.68096E+06 7.46161E-04
 -1      2085-1.97798E-03 4.97298E-05-1.09782E-03 5.03030E+05 2.90363E+06 1.15070E-03
 -1      2087-1.97798E-03 4.97298E-05-1.09782E-03 5.03030E+05 2.90363E+06 1.15070E-03
 -1      2088-2.08693E-03 1.05286E-04 9.03759E-05 4.48929E+05 3.17562E+06 1.11372E-03
 -1      2090-2.08693E-03 1.05286E-04 9.03759E-05 4.48929E+05 3.17562E+06 1.11372E-03
 -1      2091-1.77057E-03-5.93514E-05 8.61516E-04 4.49410E+05 3.31582E+06 6.15304E-04
 -1      2093-1.77057E-03-5.93514E-05 8.61516E-04 4.49410E+05 3.31582E+06 6.15304E-04
 -1      2094-1.29229E-03-1.53535E-05 1.17799E-03 3.62825E+05 3.55272E+06 1.27415E-05
 -1      2096-1.29229E-03-1.53535E-05 1.17799E-03 3.62825E+05 3.55272E+06 1.27415E-05
 -1      2097-7.47251E-04 4.93020E-04 4.41845E-04 4.02275E+05 3.60998E+06-5.30728E-04
 -1      2099-7.47251E-04 4.93020E-04 4.41845E-04 4.02275E+05 3.60998E+06-5.30728E-04
 -1      2100-3.98265E-04 1.32029E-04-1.55375E-03 2.65283E+05 3.84335E+06-4.07873E-04
 -1      2102-3.98265E-04 1.32029E-04-1.55375E-03 2.65283E+05 3.84335E+06-4.07873E-04
 -1      2103-2.40028E-04-1.22560E-04-2.52171E-03 3.66461E+05 3.81502E+06 8.05048E-04
 -1      2105-2.40028E-04-1.22560E-04-2.52171E-03 3.66461E+05 3.81502E+06 8.05048E-04
 -1      2106-3.62434E-04-7.38248E-05-1.74975E-03 1.58694E+05 4.11875E+06 1.60682E-03
 -1      2108-3.62434E-04-7.38248E-05-1.74975E-03 1.58694E+05 4.11875E+06 1.60682E-03
 -1      2109-6.17139E-04-9.69088E-06-9.99099E-04 3.19683E+05 4.00603E+06 1.11161E-03
 -1      2111-6.17139E-04-9.69088E-06-9.99099E-04 3.19683E+05 4.00603E+06 1.11161E-03
 -1      2112-6.31399E-04 5.02599E-05-1.38693E-03 9.69233E+04 4.60927E+06 6.46190E-04
 -1      2114-6.31399E-04 5.02599E-05-1.38693E-03 9.69233E+04 4.60927E+06 6.46190E-04
 -1      2115-3.43080E-04-1.16801E-04-1.90578E-03 1.07597E+05 4.47767E+06 9.16800E-04
 -1      2117-3.43080E-04-1.16801E-04-1.90578E-03 1.07597E+05 4.47767E+06 9.16800E-04
 -1      2118 1.58783E-05-5.97901E-05-1.17759E-03 3.28713E+05 6.23572E+06 6.90508E-04
 -1      2120 1.58783E-05-5.97901E-05-1.17759E-03 3.28713E+05 6.23572E+06 6.90508E-04
 -1      2121 1.57705E+09 7.68120E+07 2.41654E+05 2.87134E+08 1.65223E+05 4.12397E+06
 -1      2123 1.57705E+09 7.68120E+07 2.41654E+05 2.87134E+08 1.65223E+05 4.12397E+06
 -1      2124 1.15700E+09-8.42183E+05-3.41331E+04 2.14511E+08-3.53173E+06-2.29026E+06
 -1      2126 1.15700E+09-8.42183E+05-3.41331E+04 2.14511E+08-3.53173E+06-2.29026E+06
 -1      2127 8.28801E+08 2.43771E+07 6.04570E+04 1.62563E+08-2.73125E+06 1.06587E+06
 -1      2129 8.28801E+08 2.43771E+07 6.04570E+04 1.62563E+08-2.73125E+06 1.06587E+06
 -1      2130 5.89220E+08 7.89780E+06 7.98965E+04 1.23363E+08-2.82942E+06-2.98176E+05
 -1      2132 5.89220E+08 7.89780E+06 7.98965E+04 1.23363E+08-2.82942E+06-2.98176E+05
 -1      2133 4.01366E+08 8.41258E+06-4.55919E+04 9.40879E+07-2.47990E+06 4.61258E+05
 -1      2135 4.01366E+08 8.41258E+06-4.55919E+04 9.40879E+07-2.47990E+06 4.61258E+05
 -1      2136 2.60046E+08 4.71700E+06 8.25648E+04 7.27077E+07-1.94057E+06 2.07333E+05
 -1      2138 2.60046E+08 4.71700E+06 8.25648E+04 7.27077E+07-1.94057E+06 2.07333E+05
 -1      2139 1.49116E+08 2.72106E+06-4.91591E+04 5.64550E+07-1.63259E+06 3.50923E+05
 -1      2141 1.49116E+08 2.72106E+06-4.91591E+04 5.64550E+07-1.63259E+06 3.50923E+05
 -1      2142 6.28525E+07 1.09633E+06 4.36853E+04 4.46567E+07-1.07796E+06 3.13285E+05
 -1      2144 6.28525E+07 1.09633E+06 4.36853E+04 4.46567E+07-1.07796E+06 3.13285E+05
 -1      2145-6.04956E+06-3.00863E+05-2.98384E+04 3.56248E+07-7.77832E+05 3.19200E+05
 -1      2147-6.04956E+06-3.00863E+05-2.98384E+04 3.56248E+07-7.77832E+05 3.19200E+05
 -1      2148-6.14184E+07-1.41360E+06 9.31715E+03 2.90110E+07-3.19032E+05 3.11412E+05
 -1      2150-6.14184E+07-1.41360E+06 9.31715E+03 2.90110E+07-3.19032E+05 3.11412E+05
 -1      2151-1.06911E+08-2.31251E+06-1.56774E+04 2.38924E+07-4.59873E+04 2.91185E+05
 -1      2153-1.06911E+08-2.31251E+06-1.56774E+04 2.38924E+07-4.59873E+04 2.91185E+05
 -1      2154-1.44683E+08-3.12751E+06-1.18984E+04 2.00553E+07 3.15429E+05 2.81717E+05
 -1      2156-1.44683E+08-3.12751E+06-1.18984E+04 2.00553E+07 3.15429E+05 2.81717E+05
 -1      2157-1.76637E+08-3.76051E+06-1.01247E+04 1.70047E+07 5.49470E+05 2.59464E+05
 -1      2159-1.76637E+08-3.76051E+06-1.01247E+04 1.70047E+07 5.49470E+05 2.59464E+05
 -1      2160-2.03889E+08-4.36868E+06-2.25016E+04 1.46023E+07 8.31062E+05 2.46405E+05
 -1      2162-2.03889E+08-4.36868E+06-2.25016E+04 1.46023E+07 8.31062E+05 2.46405E+05
 -1      2163-2.27393E+08-4.84380E+06-1.10078E+04 1.25817E+07 1.02360E+06 2.26278E+05
 -1      2165-2.27393E+08-4.84380E+06-1.10078E+04 1.25817E+07 1.02360E+06 2.26278E+05
 -1      2166-2.47650E+08-5.30648E+06-2.58600E+04 1.08408E+07 1.24230E+06 2.11461E+05
 -1      2168-2.47650E+08-5.30648E+06-2.58600E+04 1.08408E+07 1.24230E+06 2.11461E+05
 -1      2169-2.65064E+08-5.66354E+06-1.62848E+04 9.23453E+06 1.39518E+06 1.93535E+05
 -1      2171-2.65064E+08-5.66354E+06-1.62848E+04 9.23453E+06 1.39518E+06 1.93535E+05
 -1      2172-2.79729E+08-6.01394E+06-2.38529E+04 7.66209E+06 1.56409E+06 1.78572E+05
 -1      2174-2.79729E+08-6.01394E+06-2.38529E+04 7.66209E+06 1.56409E+06 1.78572E+05
 -1      2175-2.91682E+08-6.25498E+06-2.51458E+04 6.04344E+06 1.68075E+06 1.62395E+05
 -1      2177-2.91682E+08-6.25498E+06-2.51458E+04 6.04344E+06 1.68075E+06 1.62395E+05
 -1      2178-3.00674E+08-6.50565E+06-1.67129E+04 4.24047E+06 1.80990E+06 1.49217E+05
 -1      2180-3.00674E+08-6.50565E+06-1.67129E+04 4.24047E+06 1.80990E+06 1.49217E+05
 -1      2181-3.06410E+08-6.60460E+06-3.80210E+04 2.20955E+06 1.89586E+06 1.34316E+05
 -1      2183-3.06410E+08-6.60460E+06-3.80210E+04 2.20955E+06 1.89586E+06 1.34316E+05
 -1      2184-3.08251E+08-6.72954E+06-3.23246E+03-2.82158E+05 1.99438E+06 1.27141E+05
 -1      2186-3.08251E+08-6.72954E+06-3.23246E+03-2.82158E+05 1.99438E+06 1.27141E+05
 -1      2187-3.05420E+08-6.70524E+06-5.61860E+04-3.24415E+06 2.06241E+06 1.12066E+05
 -1      2189-3.05420E+08-6.70524E+06-5.61860E+04-3.24415E+06 2.06241E+06 1.12066E+05
 -1      2190-2.96826E+08-6.41454E+06 1.81271E+04-7.12253E+06 2.14188E+06 1.21598E+05
 -1      2192-2.96826E+08-6.41454E+06 1.81271E+04-7.12253E+06 2.14188E+06 1.21598E+05
 -1      2193-2.80680E+08-6.84874E+06-7.81289E+04-1.18173E+07 2.22979E+06 1.00146E+05
 -1      2195-2.80680E+08-6.84874E+06-7.81289E+04-1.18173E+07 2.22979E+06 1.00146E+05
 -1      2196-2.55416E+08-4.46812E+06 3.88570E+04-1.83095E+07 2.31297E+06 1.52065E+05
 -1      2198-2.55416E+08-4.46812E+06 3.88570E+04-1.83095E+07 2.31297E+06 1.52065E+05
 -1      2199-2.17588E+08-8.40613E+06-7.14574E+04-2.60278E+07 2.55016E+06 1.01707E+05
 -1      2201-2.17588E+08-8.40613E+06-7.14574E+04-2.60278E+07 2.55016E+06 1.01707E+05
 -1      2202-1.62986E+08 1.53857E+06-2.74714E+04-3.73202E+07 2.72500E+06 2.46302E+05
 -1      2204-1.62986E+08 1.53857E+06-2.74714E+04-3.73202E+07 2.72500E+06 2.46302E+05
 -1      2205-9.28044E+07-1.15455E+07 1.77445E+05-5.03283E+07 3.62373E+06 9.20192E+04
 -1      2207-9.28044E+07-1.15455E+07 1.77445E+05-5.03283E+07 3.62373E+06 9.20192E+04
 -1      2208-1.57705E+09-7.68120E+07-2.41654E+05 2.87134E+08 1.65223E+05-4.12397E+06
 -1      2210-1.57705E+09-7.68120E+07-2.41654E+05 2.87134E+08 1.65223E+05-4.12397E+06
 -1      2211-1.15700E+09 8.42183E+05 3.41331E+04 2.14511E+08-3.53173E+06 2.29026E+06
 -1      2213-1.15700E+09 8.42183E+05 3.41331E+04 2.14511E+08-3.53173E+06 2.29026E+06
 -1      2214-8.28801E+08-2.43771E+07-6.04570E+04 1.62563E+08-2.73125E+06-1.06587E+06
 -1      2216-8.28801E+08-2.43771E+07-6.04570E+04 1.62563E+08-2.73125E+06-1.06587E+06
 -1      2217-5.89220E+08-7.89780E+06-7.98965E+04 1.23363E+08-2.82942E+06 2.98176E+05
 -1      2219-5.89220E+08-7.89780E+06-7.98965E+04 1.23363E+08-2.82942E+06 2.98176E+05
 -1      2220-4.01366E+08-8.41258E+06 4.55919E+04 9.40879E+07-2.47990E+06-4.61258E+05
 -1      2222-4.01366E+08-8.41258E+06 4.55919E+04 9.40879E+07-2.47990E+06-4.61258E+05
 -1      2223-2.60046E+08-4.71700E+06-8.25648E+04 7.27077E+07-1.94057E+06-2.07333E+05
 -1      2225-2.60046E+08-4.71700E+06-8.25648E+04 7.27077E+07-1.94057E+06-2.07333E+05
 -1      2226-1.49116E+08-2.72106E+06 4.91591E+04 5.64550E+07-1.63259E+06-3.50923E+05
 -1      2228-1.49116E+08-2.72106E+06 4.91591E+04 5.64550E+07-1.63259E+06-3.50923E+05
 -1      2229-6.28525E+07-1.09633E+06-4.36853E+04 4.46567E+07-1.07796E+06-3.13285E+05
 -1      2231-6.28525E+07-1.09633E+06-4.36853E+04 4.46567E+07-1.07796E+06-3.13285E+05
 -1      2232 6.04956E+06 3.00863E+05 2.98384E+04 3.56248E+07-7.77832E+05-3.19200E+05
 -1      2234 6.04956E+06 3.00863E+05 2.98384E+04 3.56248E+07-7.77832E+05-3.19200E+05
 -1      2235 6.14184E+07 1.41360E+06-9.31715E+03 2.90110E+07-3.19032E+05-3.11412E+05
 -1      2237 6.14184E+07 1.41360E+06-9.31715E+03 2.90110E+07-3.19032E+05-3.11412E+05
 -1      2238 1.06911E+08 2.31251E+06 1.56774E+04 2.38924E+07-4.59873E+04-2.91185E+05
 -1      2240 1.06911E+08 2.31251E+06 1.56774E+04 2.38924E+07-4.59873E+04-2.91185E+05
 -1      2241 1.44683E+08 3.12751E+06 1.18984E+04 2.00553E+07 3.15429E+05-2.81717E+05
 -1      2243 1.44683E+08 3.12751E+06 1.18984E+04 2.00553E+07 3.15429E+05-2.81717E+05
 -1      2244 1.76637E+08 3.76051E+06 1.01247E+04 1.70047E+07 5.49470E+05-2.59464E+05
 -1      2246 1.76637E+08 3.76051E+06 1.01247E+04 1.70047E+07 5.49470E+05-2.59464E+05
 -1      2247 2.03889E+08 4.36868E+06 2.25016E+04 1.46023E+07 8.31062E+05-2.46405E+05
 -1      2249 2.03889E+08 4.36868E+06 2.25016E+04 1.46023E+07 8.31062E+05-2.46405E+05
 -1      2250 2.27393E+08 4.84380E+06 1.10078E+04 1.25817E+07 1.02360E+06-2.26278E+05
 -1      2252 2.27393E+08 4.84380E+06 1.10078E+04 1.25817E+07 1.02360E+06-2.26278E+05
 -1      2253 2.47650E+08 5.30648E+06 2.58600E+04 1.08408E+07 1.24230E+06-2.11461E+05
 -1      2255 2.47650E+08 5.30648E+06 2.58600E+04 1.08408E+07 1.24230E+06-2.11461E+05
 -1      2256 2.65064E+08 5.66354E+06 1.62848E+04 9.23453E+06 1.39518E+06-1.93535E+05
 -1      2258 2.65064E+08 5.66354E+06 1.62848E+04 9.23453E+06 1.39518E+06-1.93535E+05
 -1      2259 2.79729E+08 6.01394E+06 2.38529E+04 7.66209E+06 1.56409E+06-1.78572E+05
 -1      2261 2.79729E+08 6.01394E+06 2.38529E+04 7.66209E+06 1.56409E+06-1.78572E+05
 -1      2262 2.91682E+08 6.25498E+06 2.51458E+04 6.04344E+06 1.68075E+06-1.62395E+05
 -1      2264 2.91682E+08 6.25498E+06 2.51458E+04 6.04344E+06 1.68075E+06-1.62395E+05
 -1      2265 3.00674E+08 6.50565E+06 1.67129E+04 4.24047E+06 1.80990E+06-1.49217E+05
 -1      2267 3.00674E+08 6.50565E+06 1.67129E+04 4.24047E+06 1.80990E+06-1.49217E+05
 -1      2268 3.06410E+08 6.60460E+06 3.80210E+04 2.20955E+06 1.89586E+06-1.34316E+05
 -1      2270 3.06410E+08 6.60460E+06 3.80210E+04 2.20955E+06 1.89586E+06-1.34316E+05
 -1      2271 3.08251E+08 6.72954E+06 3.23246E+03-2.82158E+05 1.99438E+06-1.27141E+05
 -1      2273 3.08251E+08 6.72954E+06 3.23246E+03-2.82158E+05 1.99438E+06-1.27141E+05
 -1      2274 3.05420E+08 6.70524E+06 5.61860E+04-3.24415E+06 2.06241E+06-1.12066E+05
 -1      2276 3.05420E+08 6.70524E+06 5.61860E+04-3.24415E+06 2.06241E+06-1.12066E+05
 -1      2277 2.96826E+08 6.41454E+06-1.81271E+04-7.12253E+06 2.14188E+06-1.21598E+05
 -1      2279 2.96826E+08 6.41454E+06-1.81271E+04-7.12253E+06 2.14188E+06-1.21598E+05
 -1      2280 2.80680E+08 6.84874E+06 7.81289E+04-1.18173E+07 2.22979E+06-1.00146E+05
 -1      2282 2.80680E+08 6.84874E+06 7.81289E+04-1.18173E+07 2.22979E+06-1.00146E+05
 -1      2283 2.55416E+08 4.46812E+06-3.88570E+04-1.83095E+07 2.31297E+06-1.52065E+05
 -1      2285 2.55416E+08 4.46812E+06-3.88570E+04-1.83095E+07 2.31297E+06-1.52065E+05
 -1      2286 2.17588E+08 8.40613E+06 7.14574E+04-2.60278E+07 2.55016E+06-1.01707E+05
 -1      2288 2.17588E+08 8.40613E+06 7.14574E+04-2.60278E+07 2.55016E+06-1.01707E+05
 -1      2289 1.62986E+08-1.53857E+06 2.74714E+04-3.73202E+07 2.72500E+06-2.46302E+05
 -1      2291 1.62986E+08-1.53857E+06 2.74714E+04-3.73202E+07 2.72500E+06-2.46302E+05
 -1      2292 9.28044E+07 1.15455E+07-1.77445E+05-5.03283E+07 3.62373E+06-9.20192E+04
 -1      2294 9.28044E+07 1.15455E+07-1.77445E+05-5.03283E+07 3.62373E+06-9.20192E+04
 -3
    1PSTEP                        11           1           1          
    1PGM                1.000000E+00                                  
    1PGK                1.990216E+05                                  
    1PHID                         -1                                  
    1PSUBC                         0                                  
    1PMODE                         3                                  
  100CL  103 71.00194462         930                     2    3MODAL      1
 -4  FORC        4    1
 -5  F1          1    2    1    0
 -5  F2          1    2    2    0
 -5  F3          1    2    3    0
 -5  ALL         1    2    0    0    1ALL
 -1       404-4.96278E+05 1.47872E+05 4.15591E+04
 -1       406-6.11292E+05 1.28979E+05 4.15591E+04
 -1       407 1.14408E+01-1.48774E+03-4.56452E+02
 -1       409 1.14408E+01-1.48774E+03-4.56452E+02
 -1       410 2.17725E-07 3.00829E+04 1.09282E-07
 -1       412 2.66757E-07 1.22799E+05-2.14409E-07
 -1       413 2.31265E-07-8.10080E+04-7.27715E+04
 -1       415 7.06996E-08-8.10080E+04 7.27715E+04
 -1       424-4.11971E-06 3.85389E+03 8.12785E-08
 -1       426-2.47341E-06 6.00337E+03 3.14006E-08
 -1       427 5.75550E+04 9.19124E+04-4.01048E+03
 -1       429-5.75550E+04 9.19124E+04 4.01048E+03
 -1       438-1.14408E+01-1.48774E+03 4.56452E+02
 -1       440-1.14408E+01-1.48774E+03 4.56452E+02
 -1       441 4.96278E+05 1.47872E+05-4.15591E+04
 -1       443 6.11292E+05 1.28979E+05-4.15591E+04
 -1       444-5.75550E+04-9.19124E+04-4.01048E+03
 -1       446 5.75550E+04-9.19124E+04 4.01048E+03
 -1       447 3.75090E-06-3.85389E+03 2.90891E-08
 -1       449 2.71375E-06-6.00337E+03-5.07478E-09
 -1       458 2.21313E-07 8.10080E+04-7.27715E+04
 -1       460 1.48519E-07 8.10080E+04 7.27715E+04
 -1       461-4.59472E-07-3.00829E+04-1.18945E-06
 -1       463-4.37097E-07-1.22799E+05 3.99178E-07
 -1       472-4.96278E+05-1.47872E+05-4.15591E+04
 -1       474-6.11292E+05-1.28979E+05-4.15591E+04
 -1       475 1.14408E+01 1.48774E+03 4.56452E+02
 -1       477 1.14408E+01 1.48774E+03 4.56452E+02
 -1       478-1.14408E+01 1.48774E+03-4.56452E+02
 -1       480-1.14408E+01 1.48774E+03-4.56452E+02
 -1       481 4.96278E+05-1.47872E+05 4.15591E+04
 -1       483 6.11292E+05-1.28979E+05 4.15591E+04
 -1       484 2.82281E+01-4.30411E+01-2.88033E+01
 -1       486 2.82281E+01-4.30411E+01-2.88033E+01
 -1       487 5.11344E+01-1.09936E+02-6.27663E+01
 -1       489 5.11344E+01-1.09936E+02-6.27663E+01
 -1       490 6.78188E+01-2.03910E+02-9.92082E+01
 -1       492 6.78188E+01-2.03910E+02-9.92082E+01
 -1       493 7.97260E+01-3.17734E+02-1.37237E+02
 -1       495 7.97260E+01-3.17734E+02-1.37237E+02
 -1       496 8.80365E+01-4.45422E+02-1.77148E+02
 -1       498 8.80365E+01-4.45422E+02-1.77148E+02
 -1       499 9.35877E+01-5.82587E+02-2.18339E+02
 -1       501 9.35877E+01-5.82587E+02-2.18339E+02
 -1       502 9.70163E+01-7.25810E+02-2.60554E+02
 -1       504 9.70163E+01-7.25810E+02-2.60554E+02
 -1       505 9.87897E+01-8.72445E+02-3.03355E+02
 -1       507 9.87897E+01-8.72445E+02-3.03355E+02
 -1       508 9.92589E+01-1.02041E+03-3.46414E+02
 -1       510 9.92589E+01-1.02041E+03-3.46414E+02
 -1       511 9.86839E+01-1.16805E+03-3.89387E+02
 -1       513 9.86839E+01-1.16805E+03-3.89387E+02
 -1       514 9.72613E+01-1.31403E+03-4.31977E+02
 -1       516 9.72613E+01-1.31403E+03-4.31977E+02
 -1       517 9.51387E+01-1.45724E+03-4.73902E+02
 -1       519 9.51387E+01-1.45724E+03-4.73902E+02
 -1       520 9.24300E+01-1.59677E+03-5.14911E+02
 -1       522 9.24300E+01-1.59677E+03-5.14911E+02
 -1       523 8.92233E+01-1.73182E+03-5.54773E+02
 -1       525 8.92233E+01-1.73182E+03-5.54773E+02
 -1       526 8.55898E+01-1.86174E+03-5.93277E+02
 -1       528 8.55898E+01-1.86174E+03-5.93277E+02
 -1       529 8.15881E+01-1.98595E+03-6.30233E+02
 -1       531 8.15881E+01-1.98595E+03-6.30233E+02
 -1       532 7.72694E+01-2.10393E+03-6.65468E+02
 -1       534 7.72694E+01-2.10393E+03-6.65468E+02
 -1       535 7.26808E+01-2.21527E+03-6.98826E+02
 -1       537 7.26808E+01-2.21527E+03-6.98826E+02
 -1       538 6.78680E+01-2.31960E+03-7.30166E+02
 -1       540 6.78680E+01-2.31960E+03-7.30166E+02
 -1       541 6.28788E+01-2.41661E+03-7.59365E+02
 -1       543 6.28788E+01-2.41661E+03-7.59365E+02
 -1       544 5.77653E+01-2.50608E+03-7.86312E+02
 -1       546 5.77653E+01-2.50608E+03-7.86312E+02
 -1       547 5.25880E+01-2.58785E+03-8.10911E+02
 -1       549 5.25880E+01-2.58785E+03-8.10911E+02
 -1       550 4.74181E+01-2.66188E+03-8.33080E+02
 -1       552 4.74181E+01-2.66188E+03-8.33080E+02
 -1       553 4.23445E+01-2.72820E+03-8.52746E+02
 -1       555 4.23445E+01-2.72820E+03-8.52746E+02
 -1       556 3.74776E+01-2.78703E+03-8.69848E+02
 -1       558 3.74776E+01-2.78703E+03-8.69848E+02
 -1       559 3.29584E+01-2.83873E+03-8.84320E+02
 -1       561 3.29584E+01-2.83873E+03-8.84320E+02
 -1       562 2.89728E+01-2.88392E+03-8.96087E+02
 -1       564 2.89728E+01-2.88392E+03-8.96087E+02
 -1       565 2.57476E+01-2.92342E+03-9.05010E+02
 -1       567 2.57476E+01-2.92342E+03-9.05010E+02
 -1       568 2.36186E+01-2.95867E+03-9.10819E+02
 -1       570 2.36186E+01-2.95867E+03-9.10819E+02
 -1       571 1.52633E+01-2.97542E+03-6.10228E+02
 -1       573 1.52633E+01-2.97542E+03-6.10228E+02
 -1       574 1.77934E-06-7.78939E+04 1.22643E-07
 -1       576 1.78914E-06-1.25868E+05 1.71685E-07
 -1       577-1.63382E-06 1.01757E+05 3.76540E+04
 -1       579-1.63486E-06 1.01757E+05-3.76540E+04
 -1       588 1.48972E-06-1.62994E+04-7.70680E-07
 -1       590 1.49238E-06-1.31066E+05-6.64255E-07
 -1       591-1.70421E-06 7.33539E+04 9.00788E+04
 -1       593-1.70717E-06 7.33539E+04-9.00788E+04
 -1       602 1.29843E-06 6.69000E+03-1.17708E-07
 -1       604 1.29690E-06-1.08033E+05-1.93706E-08
 -1       605-1.64100E-06 5.00531E+04 9.00441E+04
 -1       607-1.62124E-06 5.00531E+04-9.00441E+04
 -1       616 1.60378E-06 1.24463E+04 2.86304E-07
 -1       618 1.63093E-06-9.53677E+04 4.29533E-07
 -1       619-1.56849E-06 4.04929E+04 8.46215E+04
 -1       621-1.53620E-06 4.04929E+04-8.46215E+04
 -1       630 1.72854E-06 2.24408E+04 7.40439E-07
 -1       632 1.75667E-06-7.26422E+04 7.07840E-07
 -1       633-1.49771E-06 2.37406E+04 7.46291E+04
 -1       635-1.45338E-06 2.37406E+04-7.46291E+04
 -1       644 1.61595E-06 1.72921E+04 2.67123E-07
 -1       646 1.62559E-06-5.86659E+04 3.13273E-07
 -1       647-1.56383E-06 1.89055E+04 5.96182E+04
 -1       649-1.54330E-06 1.89055E+04-5.96182E+04
 -1       658 1.09265E-06 1.91052E+04-4.33754E-07
 -1       660 1.08951E-06-4.10211E+04-3.26751E-07
 -1       661-1.51359E-06 8.73647E+03 4.71921E+04
 -1       663-1.55682E-06 8.73647E+03-4.71921E+04
 -1       672 6.08985E-07 1.26373E+04-4.67407E-07
 -1       674 6.25936E-07-2.88833E+04-4.74873E-07
 -1       675-1.29196E-06 5.45097E+03 3.25889E+04
 -1       677-1.28430E-06 5.45097E+03-3.25889E+04
 -1       686 7.03932E-07 1.06944E+04 2.49318E-07
 -1       688 7.31089E-07-1.56295E+04-3.37357E-07
 -1       689-1.21916E-06-6.59164E+02 2.06612E+04
 -1       691-1.13265E-06-6.59164E+02-2.06612E+04
 -1       700 1.03202E-06 4.84467E+03 2.42550E-07
 -1       702 1.03703E-06-5.79095E+03-2.29016E-07
 -1       703-1.11232E-06-3.10730E+03 8.34772E+03
 -1       705-1.09907E-06-3.10730E+03-8.34772E+03
 -1       714 9.58255E-07 1.64071E+03-5.14206E-07
 -1       716 9.98841E-07 4.21551E+03-2.38281E-07
 -1       717-9.33875E-07-6.95718E+03-2.02092E+03
 -1       719-1.00732E-06-6.95718E+03 2.02092E+03
 -1       728 7.55036E-07-3.26354E+03-9.11089E-07
 -1       730 7.46975E-07 1.20157E+04-4.86942E-07
 -1       731-6.93611E-07-8.84527E+03-1.19924E+04
 -1       733-7.84989E-07-8.84527E+03 1.19924E+04
 -1       742 5.70624E-07-6.58482E+03-6.37865E-07
 -1       744 5.47954E-07 1.96565E+04-8.17050E-07
 -1       745-3.19483E-07-1.14339E+04-2.05964E+04
 -1       747-2.99606E-07-1.14339E+04 2.05964E+04
 -1       756 2.02394E-07-1.05865E+04-8.11079E-07
 -1       758 1.77246E-07 2.57845E+04-8.32080E-07
 -1       759-3.00929E-08-1.29121E+04-2.85470E+04
 -1       761-4.10553E-08-1.29121E+04 2.85470E+04
 -1       770-1.10984E-07-1.35679E+04-8.28757E-07
 -1       772-1.42319E-07 3.16750E+04-6.60602E-07
 -1       773 1.73589E-07-1.47659E+04-3.55104E+04
 -1       775 1.30427E-07-1.47659E+04 3.55104E+04
 -1       784-4.75785E-08-1.68074E+04-2.66617E-07
 -1       786-1.16511E-07 3.64142E+04-1.28205E-07
 -1       787 2.68754E-07-1.58976E+04-4.17728E+04
 -1       789 4.47317E-07-1.58976E+04 4.17728E+04
 -1       798 4.89023E-08-1.93005E+04-1.06206E-07
 -1       800 4.25310E-08 4.09687E+04 6.06552E-07
 -1       801 1.68491E-07-1.72909E+04-4.73043E+04
 -1       803 1.64971E-07-1.72909E+04 4.73043E+04
 -1       812-1.70418E-07-2.19561E+04-5.06661E-07
 -1       814-2.19085E-07 4.44794E+04 1.81236E-07
 -1       815-2.81699E-07-1.80606E+04-5.21441E+04
 -1       817-2.91795E-07-1.80606E+04 5.21441E+04
 -1       826-2.46017E-07-2.39500E+04-1.16263E-07
 -1       828-3.16936E-07 4.79818E+04-2.56411E-07
 -1       829-4.57420E-07-1.91355E+04-5.64581E+04
 -1       831-4.08160E-07-1.91355E+04 5.64581E+04
 -1       840-3.20926E-07-2.62545E+04-5.41041E-07
 -1       842-3.31569E-07 5.02982E+04 2.84563E-07
 -1       843-2.87089E-07-1.94396E+04-6.00850E+04
 -1       845-3.46260E-07-1.94396E+04 6.00850E+04
 -1       854-2.62037E-07-2.78259E+04-8.01212E-07
 -1       856-1.86065E-07 5.29877E+04 4.00111E-07
 -1       857-1.35964E-07-2.02736E+04-6.34293E+04
 -1       859-1.53404E-07-2.02736E+04 6.34293E+04
 -1       868-2.12926E-07-3.01500E+04 7.94314E-07
 -1       870-1.18657E-07 5.40093E+04 4.78931E-07
 -1       871 1.30855E-08-1.98736E+04-6.60553E+04
 -1       873-1.88942E-08-1.98736E+04 6.60553E+04
 -1       882 2.34174E-08-3.14973E+04 5.23209E-07
 -1       884 2.35707E-08 5.62429E+04-1.16708E-07
 -1       885-1.13488E-07-2.05444E+04-6.88659E+04
 -1       887-2.25761E-07-2.05444E+04 6.88659E+04
 -1       896 4.30111E-07-3.45783E+04-7.46401E-08
 -1       898 4.33754E-07 5.56681E+04-5.99728E-07
 -1       899-2.14699E-07-1.89203E+04-7.08329E+04
 -1       901-1.60638E-07-1.89203E+04 7.08329E+04
 -1       910 5.52384E-07-3.61426E+04-1.66313E-07
 -1       912 5.36671E-07 5.84223E+04 2.05893E-07
 -1       913-2.11008E-07-1.96961E+04-7.42225E+04
 -1       915-9.92895E-08-1.96961E+04 7.42225E+04
 -1       924 5.58484E-07-4.18219E+04-6.47772E-07
 -1       926 5.63452E-07 5.55022E+04 1.50766E-07
 -1       927-3.86857E-07-1.55552E+04-7.63881E+04
 -1       929-3.67398E-07-1.55552E+04 7.63881E+04
 -1       938 4.54852E-07-4.47570E+04-1.03582E-07
 -1       940 4.07859E-07 6.22401E+04-1.11712E-06
 -1       941-3.93504E-07-1.75954E+04-8.39802E+04
 -1       943-3.42122E-07-1.75954E+04 8.39802E+04
 -1       952 3.46731E-07-5.85177E+04-6.46235E-07
 -1       954 3.95480E-07 5.58438E+04-1.01019E-06
 -1       955-3.95097E-07-7.63827E+03-8.97605E+04
 -1       957-4.35109E-07-7.63827E+03 8.97605E+04
 -1       966 4.46133E-07-6.88656E+04-4.38917E-07
 -1       968 4.55964E-07 7.89066E+04-6.53643E-07
 -1       969-1.12909E-07-1.41035E+04-1.15984E+05
 -1       971-2.39672E-07-1.41035E+04 1.15984E+05
 -1       980-5.09407E+05 6.79864E+04-3.14844E+03
 -1       982-6.11913E+05 5.01687E+04-3.14844E+03
 -1       983-1.52633E+01-2.97542E+03 6.10228E+02
 -1       985-1.52633E+01-2.97542E+03 6.10228E+02
 -1       986-2.82281E+01-4.30411E+01 2.88033E+01
 -1       988-2.82281E+01-4.30411E+01 2.88033E+01
 -1       989-5.11344E+01-1.09936E+02 6.27663E+01
 -1       991-5.11344E+01-1.09936E+02 6.27663E+01
 -1       992-6.78188E+01-2.03910E+02 9.92082E+01
 -1       994-6.78188E+01-2.03910E+02 9.92082E+01
 -1       995-7.97260E+01-3.17734E+02 1.37237E+02
 -1       997-7.97260E+01-3.17734E+02 1.37237E+02
 -1       998-8.80365E+01-4.45422E+02 1.77148E+02
 -1      1000-8.80365E+01-4.45422E+02 1.77148E+02
 -1      1001-9.35877E+01-5.82587E+02 2.18339E+02
 -1      1003-9.35877E+01-5.82587E+02 2.18339E+02
 -1      1004-9.70163E+01-7.25810E+02 2.60554E+02
 -1      1006-9.70163E+01-7.25810E+02 2.60554E+02
 -1      1007-9.87897E+01-8.72445E+02 3.03355E+02
 -1      1009-9.87897E+01-8.72445E+02 3.03355E+02
 -1      1010-9.92589E+01-1.02041E+03 3.46414E+02
 -1      1012-9.92589E+01-1.02041E+03 3.46414E+02
 -1      1013-9.86839E+01-1.16805E+03 3.89387E+02
 -1      1015-9.86839E+01-1.16805E+03 3.89387E+02
 -1      1016-9.72613E+01-1.31403E+03 4.31977E+02
 -1      1018-9.72613E+01-1.31403E+03 4.31977E+02
 -1      1019-9.51387E+01-1.45724E+03 4.73902E+02
 -1      1021-9.51387E+01-1.45724E+03 4.73902E+02
 -1      1022-9.24300E+01-1.59677E+03 5.14911E+02
 -1      1024-9.24300E+01-1.59677E+03 5.14911E+02
 -1      1025-8.92233E+01-1.73182E+03 5.54773E+02
 -1      1027-8.92233E+01-1.73182E+03 5.54773E+02
 -1      1028-8.55898E+01-1.86174E+03 5.93277E+02
 -1      1030-8.55898E+01-1.86174E+03 5.93277E+02
 -1      1031-8.15881E+01-1.98595E+03 6.30233E+02
 -1      1033-8.15881E+01-1.98595E+03 6.30233E+02
 -1      1034-7.72694E+01-2.10393E+03 6.65468E+02
 -1      1036-7.72694E+01-2.10393E+03 6.65468E+02
 -1      1037-7.26808E+01-2.21527E+03 6.98826E+02
 -1      1039-7.26808E+01-2.21527E+03 6.98826E+02
 -1      1040-6.78680E+01-2.31960E+03 7.30166E+02
 -1      1042-6.78680E+01-2.31960E+03 7.30166E+02
 -1      1043-6.28788E+01-2.41661E+03 7.59365E+02
 -1      1045-6.28788E+01-2.41661E+03 7.59365E+02
 -1      1046-5.77653E+01-2.50608E+03 7.86312E+02
 -1      1048-5.77653E+01-2.50608E+03 7.86312E+02
 -1      1049-5.25880E+01-2.58785E+03 8.10911E+02
 -1      1051-5.25880E+01-2.58785E+03 8.10911E+02
 -1      1052-4.74181E+01-2.66188E+03 8.33080E+02
 -1      1054-4.74181E+01-2.66188E+03 8.33080E+02
 -1      1055-4.23445E+01-2.72820E+03 8.52746E+02
 -1      1057-4.23445E+01-2.72820E+03 8.52746E+02
 -1      1058-3.74776E+01-2.78703E+03 8.69848E+02
 -1      1060-3.74776E+01-2.78703E+03 8.69848E+02
 -1      1061-3.29584E+01-2.83873E+03 8.84320E+02
 -1      1063-3.29584E+01-2.83873E+03 8.84320E+02
 -1      1064-2.89728E+01-2.88392E+03 8.96087E+02
 -1      1066-2.89728E+01-2.88392E+03 8.96087E+02
 -1      1067-2.57476E+01-2.92342E+03 9.05010E+02
 -1      1069-2.57476E+01-2.92342E+03 9.05010E+02
 -1      1070-2.36186E+01-2.95867E+03 9.10819E+02
 -1      1072-2.36186E+01-2.95867E+03 9.10819E+02
 -1      1073 5.09407E+05 6.79864E+04 3.14844E+03
 -1      1075 6.11913E+05 5.01687E+04 3.14844E+03
 -1      1076 5.09725E+04-1.46246E+04-4.26375E+03
 -1      1078-5.09725E+04-1.46246E+04 4.26375E+03
 -1      1079 7.07598E-06 1.98222E-06-5.06539E+02
 -1      1081-7.10635E-06 2.09373E-06 5.06539E+02
 -1      1082-5.09725E+04 1.46246E+04-4.26375E+03
 -1      1084 5.09725E+04 1.46246E+04 4.26375E+03
 -1      1085 1.49139E-06-1.01757E+05 3.76540E+04
 -1      1087 1.48945E-06-1.01757E+05-3.76540E+04
 -1      1088-1.01788E-06 7.78939E+04 3.32096E-07
 -1      1090-1.01533E-06 1.25868E+05 3.55482E-07
 -1      1099 1.56033E-06-7.33539E+04 9.00788E+04
 -1      1101 1.56908E-06-7.33539E+04-9.00788E+04
 -1      1102-1.27479E-06 1.62994E+04-1.69504E-07
 -1      1104-1.28075E-06 1.31066E+05-6.35088E-08
 -1      1113 1.51051E-06-5.00531E+04 9.00441E+04
 -1      1115 1.51813E-06-5.00531E+04-9.00441E+04
 -1      1116-1.57934E-06-6.69000E+03 4.28526E-08
 -1      1118-1.59226E-06 1.08033E+05 7.02376E-08
 -1      1127 1.54692E-06-4.04929E+04 8.46215E+04
 -1      1129 1.57024E-06-4.04929E+04-8.46215E+04
 -1      1130-1.57600E-06-1.24463E+04-6.97331E-08
 -1      1132-1.59228E-06 9.53677E+04-1.31775E-07
 -1      1141 1.45054E-06-2.37406E+04 7.46291E+04
 -1      1143 1.47500E-06-2.37406E+04-7.46291E+04
 -1      1144-1.34506E-06-2.24408E+04-5.06379E-07
 -1      1146-1.34096E-06 7.26422E+04-2.58528E-07
 -1      1155 1.37405E-06-1.89055E+04 5.96182E+04
 -1      1157 1.39107E-06-1.89055E+04-5.96182E+04
 -1      1158-1.03390E-06-1.72921E+04-8.31310E-07
 -1      1160-1.02907E-06 5.86659E+04-3.51019E-07
 -1      1169 1.15053E-06-8.73647E+03 4.71921E+04
 -1      1171 1.11302E-06-8.73647E+03-4.71921E+04
 -1      1172-7.37579E-07-1.91052E+04-4.73468E-07
 -1      1174-7.08988E-07 4.10211E+04-2.15885E-07
 -1      1183 9.33389E-07-5.45097E+03 3.25889E+04
 -1      1185 8.97502E-07-5.45097E+03-3.25889E+04
 -1      1186-8.78904E-07-1.26373E+04-3.40081E-07
 -1      1188-8.58785E-07 2.88833E+04-1.48106E-07
 -1      1197 8.83713E-07 6.59164E+02 2.06612E+04
 -1      1199 9.23441E-07 6.59164E+02-2.06612E+04
 -1      1200-9.46115E-07-1.06944E+04-2.84984E-07
 -1      1202-9.35083E-07 1.56295E+04-3.93731E-07
 -1      1211 1.01699E-06 3.10730E+03 8.34772E+03
 -1      1213 1.02133E-06 3.10730E+03-8.34772E+03
 -1      1214-6.64649E-07-4.84467E+03-4.32062E-07
 -1      1216-6.63611E-07 5.79095E+03-4.38710E-07
 -1      1225 7.57209E-07 6.95718E+03-2.02092E+03
 -1      1227 7.12480E-07 6.95718E+03 2.02092E+03
 -1      1228-5.33410E-07-1.64071E+03 2.11789E-07
 -1      1230-5.33023E-07-4.21551E+03-5.94432E-07
 -1      1239 4.44049E-07 8.84527E+03-1.19924E+04
 -1      1241 4.65488E-07 8.84527E+03 1.19924E+04
 -1      1242-6.94478E-07 3.26354E+03 5.06343E-07
 -1      1244-6.96276E-07-1.20157E+04 3.54759E-07
 -1      1253 2.64150E-07 1.14339E+04-2.05964E+04
 -1      1255 2.04751E-07 1.14339E+04 2.05964E+04
 -1      1256-7.57867E-07 6.58482E+03 7.09916E-07
 -1      1258-7.30542E-07-1.96565E+04 8.73252E-07
 -1      1267 2.29335E-07 1.29121E+04-2.85470E+04
 -1      1269 2.33229E-07 1.29121E+04 2.85470E+04
 -1      1270-4.21186E-07 1.05865E+04 7.00364E-07
 -1      1272-3.72108E-07-2.57845E+04 6.17407E-07
 -1      1281 1.84256E-07 1.47659E+04-3.55104E+04
 -1      1283 1.01930E-07 1.47659E+04 3.55104E+04
 -1      1284 1.10830E-07 1.35679E+04 5.53193E-07
 -1      1286 9.60353E-08-3.16750E+04 7.95442E-07
 -1      1295 7.97623E-08 1.58976E+04-4.17728E+04
 -1      1297 2.66758E-08 1.58976E+04 4.17728E+04
 -1      1298 3.77915E-07 1.68074E+04 7.70009E-07
 -1      1300 4.03241E-07-3.64142E+04 8.20938E-07
 -1      1309 2.35843E-07 1.72909E+04-4.73043E+04
 -1      1311 2.85724E-07 1.72909E+04 4.73043E+04
 -1      1312 3.33416E-07 1.93005E+04 5.08723E-08
 -1      1314 3.74184E-07-4.09687E+04 1.27661E-06
 -1      1323 4.90038E-07 1.80606E+04-5.21441E+04
 -1      1325 5.90123E-07 1.80606E+04 5.21441E+04
 -1      1326-5.21173E-08 2.19561E+04-5.89902E-08
 -1      1328-3.27813E-08-4.44794E+04 9.71643E-07
 -1      1337 3.15015E-07 1.91355E+04-5.64581E+04
 -1      1339 3.10074E-07 1.91355E+04 5.64581E+04
 -1      1340-3.76963E-07 2.39500E+04-3.47044E-08
 -1      1342-3.53900E-07-4.79818E+04 2.56399E-07
 -1      1351 1.64019E-07 1.94396E+04-6.00850E+04
 -1      1353 1.33729E-07 1.94396E+04 6.00850E+04
 -1      1354-4.16887E-07 2.62545E+04 4.66310E-07
 -1      1356-4.84636E-07-5.02982E+04-8.13603E-07
 -1      1365-1.57388E-07 2.02736E+04-6.34293E+04
 -1      1367-1.23620E-07 2.02736E+04 6.34293E+04
 -1      1368-3.27219E-07 2.78259E+04 4.12297E-08
 -1      1370-3.62974E-07-5.29877E+04-8.09338E-07
 -1      1379-2.19426E-07 1.98736E+04-6.60553E+04
 -1      1381-1.77862E-07 1.98736E+04 6.60553E+04
 -1      1382-4.15366E-07 3.01500E+04-3.11370E-07
 -1      1384-4.26200E-07-5.40093E+04-2.06536E-07
 -1      1393-1.57093E-07 2.05444E+04-6.88659E+04
 -1      1395-2.01252E-07 2.05444E+04 6.88659E+04
 -1      1396-3.73366E-07 3.14973E+04 1.34793E-07
 -1      1398-2.97042E-07-5.62429E+04 1.23284E-06
 -1      1407 3.26653E-07 1.89203E+04-7.08329E+04
 -1      1409 1.73563E-07 1.89203E+04 7.08329E+04
 -1      1410-4.46949E-07 3.45783E+04 7.10725E-07
 -1      1412-4.27656E-07-5.56681E+04 2.01655E-06
 -1      1421 6.35947E-07 1.96961E+04-7.42225E+04
 -1      1423 6.54921E-07 1.96961E+04 7.42225E+04
 -1      1424-4.56282E-07 3.61426E+04 6.91557E-07
 -1      1426-6.60591E-07-5.84223E+04 7.60572E-07
 -1      1435 4.47387E-07 1.55552E+04-7.63881E+04
 -1      1437 4.60292E-07 1.55552E+04 7.63881E+04
 -1      1438-4.08176E-07 4.18219E+04 2.05321E-08
 -1      1440-3.51559E-07-5.55022E+04-3.05271E-07
 -1      1449 2.94439E-07 1.75954E+04-8.39802E+04
 -1      1451 3.74189E-07 1.75954E+04 8.39802E+04
 -1      1452-4.77517E-07 4.47570E+04-6.99164E-07
 -1      1454-5.28949E-07-6.22401E+04 7.49792E-07
 -1      1463 1.91102E-07 7.63827E+03-8.97605E+04
 -1      1465 2.59233E-07 7.63827E+03 8.97605E+04
 -1      1466-4.59380E-07 5.85177E+04-4.24562E-07
 -1      1468-4.89559E-07-5.58438E+04 1.32967E-06
 -1      1477 2.40763E-07 1.41035E+04-1.15984E+05
 -1      1479 1.24976E-07 1.41035E+04 1.15984E+05
 -1      1480-6.86472E-07 6.88656E+04-8.07144E-07
 -1      1482-5.61737E-07-7.89066E+04 9.05147E-07
 -1      1491 3.09404E-07-2.13013E+03 1.03004E-06
 -1      1493 1.09163E-07-2.13013E+03-5.74133E-07
 -1      1494 1.68497E-07 7.06510E-07 5.30501E-07
 -1      1496 6.16476E-08 6.75631E-07-5.24469E-07
 -1      1497-1.74236E-08 2.13013E+03-4.40477E-07
 -1      1499-1.40017E-07 2.13013E+03-1.88281E-07
 -1      1500 2.82281E+01 4.30411E+01 2.88033E+01
 -1      1502 2.82281E+01 4.30411E+01 2.88033E+01
 -1      1503 5.11344E+01 1.09936E+02 6.27663E+01
 -1      1505 5.11344E+01 1.09936E+02 6.27663E+01
 -1      1506 6.78188E+01 2.03910E+02 9.92082E+01
 -1      1508 6.78188E+01 2.03910E+02 9.92082E+01
 -1      1509 7.97260E+01 3.17734E+02 1.37237E+02
 -1      1511 7.97260E+01 3.17734E+02 1.37237E+02
 -1      1512 8.80365E+01 4.45422E+02 1.77148E+02
 -1      1514 8.80365E+01 4.45422E+02 1.77148E+02
 -1      1515 9.35877E+01 5.82587E+02 2.18339E+02
 -1      1517 9.35877E+01 5.82587E+02 2.18339E+02
 -1      1518 9.70163E+01 7.25810E+02 2.60554E+02
 -1      1520 9.70163E+01 7.25810E+02 2.60554E+02
 -1      1521 9.87897E+01 8.72445E+02 3.03355E+02
 -1      1523 9.87897E+01 8.72445E+02 3.03355E+02
 -1      1524 9.92589E+01 1.02041E+03 3.46414E+02
 -1      1526 9.92589E+01 1.02041E+03 3.46414E+02
 -1      1527 9.86839E+01 1.16805E+03 3.89387E+02
 -1      1529 9.86839E+01 1.16805E+03 3.89387E+02
 -1      1530 9.72613E+01 1.31403E+03 4.31977E+02
 -1      1532 9.72613E+01 1.31403E+03 4.31977E+02
 -1      1533 9.51387E+01 1.45724E+03 4.73902E+02
 -1      1535 9.51387E+01 1.45724E+03 4.73902E+02
 -1      1536 9.24300E+01 1.59677E+03 5.14911E+02
 -1      1538 9.24300E+01 1.59677E+03 5.14911E+02
 -1      1539 8.92233E+01 1.73182E+03 5.54773E+02
 -1      1541 8.92233E+01 1.73182E+03 5.54773E+02
 -1      1542 8.55898E+01 1.86174E+03 5.93277E+02
 -1      1544 8.55898E+01 1.86174E+03 5.93277E+02
 -1      1545 8.15881E+01 1.98595E+03 6.30233E+02
 -1      1547 8.15881E+01 1.98595E+03 6.30233E+02
 -1      1548 7.72694E+01 2.10393E+03 6.65468E+02
 -1      1550 7.72694E+01 2.10393E+03 6.65468E+02
 -1      1551 7.26808E+01 2.21527E+03 6.98826E+02
 -1      1553 7.26808E+01 2.21527E+03 6.98826E+02
 -1      1554 6.78680E+01 2.31960E+03 7.30166E+02
 -1      1556 6.78680E+01 2.31960E+03 7.30166E+02
 -1      1557 6.28788E+01 2.41661E+03 7.59365E+02
 -1      1559 6.28788E+01 2.41661E+03 7.59365E+02
 -1      1560 5.77653E+01 2.50608E+03 7.86312E+02
 -1      1562 5.77653E+01 2.50608E+03 7.86312E+02
 -1      1563 5.25880E+01 2.58785E+03 8.10911E+02
 -1      1565 5.25880E+01 2.58785E+03 8.10911E+02
 -1      1566 4.74181E+01 2.66188E+03 8.33080E+02
 -1      1568 4.74181E+01 2.66188E+03 8.33080E+02
 -1      1569 4.23445E+01 2.72820E+03 8.52746E+02
 -1      1571 4.23445E+01 2.72820E+03 8.52746E+02
 -1      1572 3.74776E+01 2.78703E+03 8.69848E+02
 -1      1574 3.74776E+01 2.78703E+03 8.69848E+02
 -1      1575 3.29584E+01 2.83873E+03 8.84320E+02
 -1      1577 3.29584E+01 2.83873E+03 8.84320E+02
 -1      1578 2.89728E+01 2.88392E+03 8.96087E+02
 -1      1580 2.89728E+01 2.88392E+03 8.96087E+02
 -1      1581 2.57476E+01 2.92342E+03 9.05010E+02
 -1      1583 2.57476E+01 2.92342E+03 9.05010E+02
 -1      1584 2.36186E+01 2.95867E+03 9.10819E+02
 -1      1586 2.36186E+01 2.95867E+03 9.10819E+02
 -1      1587 1.52633E+01 2.97542E+03 6.10228E+02
 -1      1589 1.52633E+01 2.97542E+03 6.10228E+02
 -1      1590-5.09407E+05-6.79864E+04 3.14844E+03
 -1      1592-6.11913E+05-5.01687E+04 3.14844E+03
 -1      1593-1.52633E+01 2.97542E+03-6.10228E+02
 -1      1595-1.52633E+01 2.97542E+03-6.10228E+02
 -1      1596-2.82281E+01 4.30411E+01-2.88033E+01
 -1      1598-2.82281E+01 4.30411E+01-2.88033E+01
 -1      1599-5.11344E+01 1.09936E+02-6.27663E+01
 -1      1601-5.11344E+01 1.09936E+02-6.27663E+01
 -1      1602-6.78188E+01 2.03910E+02-9.92082E+01
 -1      1604-6.78188E+01 2.03910E+02-9.92082E+01
 -1      1605-7.97260E+01 3.17734E+02-1.37237E+02
 -1      1607-7.97260E+01 3.17734E+02-1.37237E+02
 -1      1608-8.80365E+01 4.45422E+02-1.77148E+02
 -1      1610-8.80365E+01 4.45422E+02-1.77148E+02
 -1      1611-9.35877E+01 5.82587E+02-2.18339E+02
 -1      1613-9.35877E+01 5.82587E+02-2.18339E+02
 -1      1614-9.70163E+01 7.25810E+02-2.60554E+02
 -1      1616-9.70163E+01 7.25810E+02-2.60554E+02
 -1      1617-9.87897E+01 8.72445E+02-3.03355E+02
 -1      1619-9.87897E+01 8.72445E+02-3.03355E+02
 -1      1620-9.92589E+01 1.02041E+03-3.46414E+02
 -1      1622-9.92589E+01 1.02041E+03-3.46414E+02
 -1      1623-9.86839E+01 1.16805E+03-3.89387E+02
 -1      1625-9.86839E+01 1.16805E+03-3.89387E+02
 -1      1626-9.72613E+01 1.31403E+03-4.31977E+02
 -1      1628-9.72613E+01 1.31403E+03-4.31977E+02
 -1      1629-9.51387E+01 1.45724E+03-4.73902E+02
 -1      1631-9.51387E+01 1.45724E+03-4.73902E+02
 -1      1632-9.24300E+01 1.59677E+03-5.14911E+02
 -1      1634-9.24300E+01 1.59677E+03-5.14911E+02
 -1      1635-8.92233E+01 1.73182E+03-5.54773E+02
 -1      1637-8.92233E+01 1.73182E+03-5.54773E+02
 -1      1638-8.55898E+01 1.86174E+03-5.93277E+02
 -1      1640-8.55898E+01 1.86174E+03-5.93277E+02
 -1      1641-8.15881E+01 1.98595E+03-6.30233E+02
 -1      1643-8.15881E+01 1.98595E+03-6.30233E+02
 -1      1644-7.72694E+01 2.10393E+03-6.65468E+02
 -1      1646-7.72694E+01 2.10393E+03-6.65468E+02
 -1      1647-7.26808E+01 2.21527E+03-6.98826E+02
 -1      1649-7.26808E+01 2.21527E+03-6.98826E+02
 -1      1650-6.78680E+01 2.31960E+03-7.30166E+02
 -1      1652-6.78680E+01 2.31960E+03-7.30166E+02
 -1      1653-6.28788E+01 2.41661E+03-7.59365E+02
 -1      1655-6.28788E+01 2.41661E+03-7.59365E+02
 -1      1656-5.77653E+01 2.50608E+03-7.86312E+02
 -1      1658-5.77653E+01 2.50608E+03-7.86312E+02
 -1      1659-5.25880E+01 2.58785E+03-8.10911E+02
 -1      1661-5.25880E+01 2.58785E+03-8.10911E+02
 -1      1662-4.74181E+01 2.66188E+03-8.33080E+02
 -1      1664-4.74181E+01 2.66188E+03-8.33080E+02
 -1      1665-4.23445E+01 2.72820E+03-8.52746E+02
 -1      1667-4.23445E+01 2.72820E+03-8.52746E+02
 -1      1668-3.74776E+01 2.78703E+03-8.69848E+02
 -1      1670-3.74776E+01 2.78703E+03-8.69848E+02
 -1      1671-3.29584E+01 2.83873E+03-8.84320E+02
 -1      1673-3.29584E+01 2.83873E+03-8.84320E+02
 -1      1674-2.89728E+01 2.88392E+03-8.96087E+02
 -1      1676-2.89728E+01 2.88392E+03-8.96087E+02
 -1      1677-2.57476E+01 2.92342E+03-9.05010E+02
 -1      1679-2.57476E+01 2.92342E+03-9.05010E+02
 -1      1680-2.36186E+01 2.95867E+03-9.10819E+02
 -1      1682-2.36186E+01 2.95867E+03-9.10819E+02
 -1      1683 5.09407E+05-6.79864E+04-3.14844E+03
 -1      1685 6.11913E+05-5.01687E+04-3.14844E+03
 -1      1686 3.72034E+01-8.40669E+01-3.75370E+01
 -1      1688 3.72034E+01-8.40669E+01-3.75370E+01
 -1      1689 6.78369E+01-2.18103E+02-8.23008E+01
 -1      1691 6.78369E+01-2.18103E+02-8.23008E+01
 -1      1692 9.01945E+01-4.06680E+02-1.30630E+02
 -1      1694 9.01945E+01-4.06680E+02-1.30630E+02
 -1      1695 1.06107E+02-6.34609E+02-1.81280E+02
 -1      1697 1.06107E+02-6.34609E+02-1.81280E+02
 -1      1698 1.17244E+02-8.90274E+02-2.34614E+02
 -1      1700 1.17244E+02-8.90274E+02-2.34614E+02
 -1      1701 1.24672E+02-1.16480E+03-2.89757E+02
 -1      1703 1.24672E+02-1.16480E+03-2.89757E+02
 -1      1704 1.29270E+02-1.45141E+03-3.46329E+02
 -1      1706 1.29270E+02-1.45141E+03-3.46329E+02
 -1      1707 1.31652E+02-1.74480E+03-4.03707E+02
 -1      1709 1.31652E+02-1.74480E+03-4.03707E+02
 -1      1710 1.32291E+02-2.04083E+03-4.61437E+02
 -1      1712 1.32291E+02-2.04083E+03-4.61437E+02
 -1      1713 1.31535E+02-2.33620E+03-5.19043E+02
 -1      1715 1.31535E+02-2.33620E+03-5.19043E+02
 -1      1716 1.29646E+02-2.62822E+03-5.76123E+02
 -1      1718 1.29646E+02-2.62822E+03-5.76123E+02
 -1      1719 1.26821E+02-2.91469E+03-6.32298E+02
 -1      1721 1.26821E+02-2.91469E+03-6.32298E+02
 -1      1722 1.23214E+02-3.19378E+03-6.87229E+02
 -1      1724 1.23214E+02-3.19378E+03-6.87229E+02
 -1      1725 1.18942E+02-3.46393E+03-7.40607E+02
 -1      1727 1.18942E+02-3.46393E+03-7.40607E+02
 -1      1728 1.14101E+02-3.72381E+03-7.92155E+02
 -1      1730 1.14101E+02-3.72381E+03-7.92155E+02
 -1      1731 1.08768E+02-3.97224E+03-8.41617E+02
 -1      1733 1.08768E+02-3.97224E+03-8.41617E+02
 -1      1734 1.03012E+02-4.20824E+03-8.88764E+02
 -1      1736 1.03012E+02-4.20824E+03-8.88764E+02
 -1      1737 9.68962E+01-4.43095E+03-9.33392E+02
 -1      1739 9.68962E+01-4.43095E+03-9.33392E+02
 -1      1740 9.04816E+01-4.63961E+03-9.75313E+02
 -1      1742 9.04816E+01-4.63961E+03-9.75313E+02
 -1      1743 8.38320E+01-4.83365E+03-1.01437E+03
 -1      1745 8.38320E+01-4.83365E+03-1.01437E+03
 -1      1746 7.70173E+01-5.01259E+03-1.05040E+03
 -1      1748 7.70173E+01-5.01259E+03-1.05040E+03
 -1      1749 7.01176E+01-5.17614E+03-1.08330E+03
 -1      1751 7.01176E+01-5.17614E+03-1.08330E+03
 -1      1752 6.32295E+01-5.32418E+03-1.11296E+03
 -1      1754 6.32295E+01-5.32418E+03-1.11296E+03
 -1      1755 5.64694E+01-5.45683E+03-1.13929E+03
 -1      1757 5.64694E+01-5.45683E+03-1.13929E+03
 -1      1758 4.99894E+01-5.57446E+03-1.16220E+03
 -1      1760 4.99894E+01-5.57446E+03-1.16220E+03
 -1      1761 4.39706E+01-5.67782E+03-1.18164E+03
 -1      1763 4.39706E+01-5.67782E+03-1.18164E+03
 -1      1764 3.86699E+01-5.76812E+03-1.19750E+03
 -1      1766 3.86699E+01-5.76812E+03-1.19750E+03
 -1      1767 3.43934E+01-5.84710E+03-1.20961E+03
 -1      1769 3.43934E+01-5.84710E+03-1.20961E+03
 -1      1770 3.15367E+01-5.91742E+03-1.21757E+03
 -1      1772 3.15367E+01-5.91742E+03-1.21757E+03
 -1      1773-3.72034E+01-8.40669E+01 3.75370E+01
 -1      1775-3.72034E+01-8.40669E+01 3.75370E+01
 -1      1776-6.78369E+01-2.18103E+02 8.23008E+01
 -1      1778-6.78369E+01-2.18103E+02 8.23008E+01
 -1      1779-9.01945E+01-4.06680E+02 1.30630E+02
 -1      1781-9.01945E+01-4.06680E+02 1.30630E+02
 -1      1782-1.06107E+02-6.34609E+02 1.81280E+02
 -1      1784-1.06107E+02-6.34609E+02 1.81280E+02
 -1      1785-1.17244E+02-8.90274E+02 2.34614E+02
 -1      1787-1.17244E+02-8.90274E+02 2.34614E+02
 -1      1788-1.24672E+02-1.16480E+03 2.89757E+02
 -1      1790-1.24672E+02-1.16480E+03 2.89757E+02
 -1      1791-1.29270E+02-1.45141E+03 3.46329E+02
 -1      1793-1.29270E+02-1.45141E+03 3.46329E+02
 -1      1794-1.31652E+02-1.74480E+03 4.03707E+02
 -1      1796-1.31652E+02-1.74480E+03 4.03707E+02
 -1      1797-1.32291E+02-2.04083E+03 4.61437E+02
 -1      1799-1.32291E+02-2.04083E+03 4.61437E+02
 -1      1800-1.31535E+02-2.33620E+03 5.19043E+02
 -1      1802-1.31535E+02-2.33620E+03 5.19043E+02
 -1      1803-1.29646E+02-2.62822E+03 5.76123E+02
 -1      1805-1.29646E+02-2.62822E+03 5.76123E+02
 -1      1806-1.26821E+02-2.91469E+03 6.32298E+02
 -1      1808-1.26821E+02-2.91469E+03 6.32298E+02
 -1      1809-1.23214E+02-3.19378E+03 6.87229E+02
 -1      1811-1.23214E+02-3.19378E+03 6.87229E+02
 -1      1812-1.18942E+02-3.46393E+03 7.40607E+02
 -1      1814-1.18942E+02-3.46393E+03 7.40607E+02
 -1      1815-1.14101E+02-3.72381E+03 7.92155E+02
 -1      1817-1.14101E+02-3.72381E+03 7.92155E+02
 -1      1818-1.08768E+02-3.97224E+03 8.41617E+02
 -1      1820-1.08768E+02-3.97224E+03 8.41617E+02
 -1      1821-1.03012E+02-4.20824E+03 8.88764E+02
 -1      1823-1.03012E+02-4.20824E+03 8.88764E+02
 -1      1824-9.68962E+01-4.43095E+03 9.33392E+02
 -1      1826-9.68962E+01-4.43095E+03 9.33392E+02
 -1      1827-9.04816E+01-4.63961E+03 9.75313E+02
 -1      1829-9.04816E+01-4.63961E+03 9.75313E+02
 -1      1830-8.38320E+01-4.83365E+03 1.01437E+03
 -1      1832-8.38320E+01-4.83365E+03 1.01437E+03
 -1      1833-7.70173E+01-5.01259E+03 1.05040E+03
 -1      1835-7.70173E+01-5.01259E+03 1.05040E+03
 -1      1836-7.01176E+01-5.17614E+03 1.08330E+03
 -1      1838-7.01176E+01-5.17614E+03 1.08330E+03
 -1      1839-6.32295E+01-5.32418E+03 1.11296E+03
 -1      1841-6.32295E+01-5.32418E+03 1.11296E+03
 -1      1842-5.64694E+01-5.45683E+03 1.13929E+03
 -1      1844-5.64694E+01-5.45683E+03 1.13929E+03
 -1      1845-4.99894E+01-5.57446E+03 1.16220E+03
 -1      1847-4.99894E+01-5.57446E+03 1.16220E+03
 -1      1848-4.39706E+01-5.67782E+03 1.18164E+03
 -1      1850-4.39706E+01-5.67782E+03 1.18164E+03
 -1      1851-3.86699E+01-5.76812E+03 1.19750E+03
 -1      1853-3.86699E+01-5.76812E+03 1.19750E+03
 -1      1854-3.43934E+01-5.84710E+03 1.20961E+03
 -1      1856-3.43934E+01-5.84710E+03 1.20961E+03
 -1      1857-3.15367E+01-5.91742E+03 1.21757E+03
 -1      1859-3.15367E+01-5.91742E+03 1.21757E+03
 -1      1860-5.41991E-08-5.54186E+01 5.64382E-08
 -1      1862-5.73459E-08-5.54186E+01 1.13055E-07
 -1      1863-1.22510E-07-1.48901E+02-4.34850E-08
 -1      1865-1.41582E-07-1.48901E+02-3.26025E-09
 -1      1866-1.16719E-07-2.82267E+02-2.25414E-08
 -1      1868-9.86565E-08-2.82267E+02-1.99510E-08
 -1      1869 6.49256E-08-4.43939E+02-6.85133E-08
 -1      1871 1.67862E-07-4.43939E+02 2.83996E-08
 -1      1872 2.80753E-07-6.26011E+02-1.06609E-07
 -1      1874 3.38617E-07-6.26011E+02 5.52751E-08
 -1      1875 2.52461E-07-8.22005E+02-1.21948E-08
 -1      1877 2.93085E-07-8.22005E+02 2.33879E-07
 -1      1878 3.14240E-08-1.02701E+03-4.76957E-08
 -1      1880-1.48643E-09-1.02701E+03 3.90386E-07
 -1      1881-1.60848E-07-1.23719E+03-1.24456E-07
 -1      1883-8.93803E-08-1.23719E+03 4.20073E-07
 -1      1884-1.07733E-07-1.44948E+03-2.13486E-07
 -1      1886 2.36006E-08-1.44948E+03-1.75018E-07
 -1      1887 1.95529E-07-1.66147E+03 3.78528E-08
 -1      1889 2.07070E-07-1.66147E+03-4.58862E-07
 -1      1890 1.62539E-07-1.87117E+03 3.16998E-07
 -1      1892 2.58619E-08-1.87117E+03 4.61310E-08
 -1      1893 1.04515E-07-2.07698E+03 1.39445E-07
 -1      1895 1.03864E-09-2.07698E+03 4.14181E-07
 -1      1896 1.42367E-07-2.27754E+03 9.35544E-08
 -1      1898 8.85731E-08-2.27754E+03 2.71667E-07
 -1      1899-9.91575E-08-2.47172E+03 2.08280E-07
 -1      1901-8.07746E-08-2.47172E+03 4.56657E-07
 -1      1902-4.21933E-07-2.65852E+03-6.96073E-08
 -1      1904-3.71097E-07-2.65852E+03 4.46033E-07
 -1      1905-3.41469E-07-2.83712E+03-2.39687E-07
 -1      1907-2.70185E-07-2.83712E+03 1.86534E-07
 -1      1908-7.73829E-08-3.00678E+03 1.87176E-07
 -1      1910-1.42668E-07-3.00678E+03 2.21295E-07
 -1      1911-2.57224E-07-3.16689E+03-3.26427E-07
 -1      1913-4.93965E-07-3.16689E+03-2.48204E-08
 -1      1914-4.94054E-07-3.31693E+03-2.66008E-08
 -1      1916-4.46561E-07-3.31693E+03-2.85610E-07
 -1      1917-4.61830E-07-3.45645E+03 3.40116E-08
 -1      1919-6.00627E-07-3.45645E+03-1.66706E-08
 -1      1920-1.98494E-07-3.58515E+03-7.18576E-07
 -1      1922-2.11189E-07-3.58515E+03 5.72780E-07
 -1      1923 8.04837E-08-3.70281E+03-5.89699E-07
 -1      1925 9.63907E-08-3.70281E+03 4.59151E-08
 -1      1926 3.40826E-08-3.80935E+03-8.45970E-07
 -1      1928-8.38863E-08-3.80935E+03 6.56525E-07
 -1      1929 1.94397E-07-3.90486E+03-5.60643E-07
 -1      1931 2.89987E-07-3.90486E+03 4.25225E-07
 -1      1932 2.17956E-07-3.98961E+03-4.19348E-07
 -1      1934 3.82892E-07-3.98961E+03 3.28635E-07
 -1      1935 1.11854E-07-4.06416E+03 5.47820E-08
 -1      1937 2.52053E-07-4.06416E+03 4.94021E-07
 -1      1938 1.50296E-07-4.12925E+03 2.75885E-07
 -1      1940 2.03436E-07-4.12925E+03-4.06104E-07
 -1      1941-1.08060E-08-4.18626E+03 9.45880E-07
 -1      1943 2.07328E-08-4.18626E+03-4.11403E-07
 -1      1944 2.59945E-09-4.23663E+03 1.70097E-06
 -1      1946-1.50484E-07-4.23663E+03-7.71705E-07
 -1      1947-1.51356E-07 1.62023E-07-2.01075E-07
 -1      1949-1.49690E-07 3.71362E-07-1.70586E-07
 -1      1950-1.94455E-08 2.27540E-07-3.97540E-07
 -1      1952-3.99773E-08-9.89014E-08-3.46111E-07
 -1      1953-1.67599E-08 7.97177E-07-8.79406E-08
 -1      1955 9.62359E-09-1.33001E-06-3.76835E-08
 -1      1956-4.12354E-08 1.56527E-06-1.43432E-08
 -1      1958 5.35654E-08-1.81632E-06 2.22782E-07
 -1      1959 5.45601E-08-8.34427E-08-2.39173E-07
 -1      1961 8.87276E-08 1.38333E-07 1.10012E-07
 -1      1962 1.14667E-07-1.46964E-06-2.85408E-07
 -1      1964 1.11849E-07 1.32499E-06 9.92318E-09
 -1      1965 2.51865E-07-2.67581E-07-4.03958E-07
 -1      1967 2.54307E-07-5.21541E-07-1.52946E-07
 -1      1968 2.69731E-07 1.53512E-06-1.37512E-07
 -1      1970 3.04793E-07-1.13500E-06-1.19002E-07
 -1      1971 1.80511E-07 6.78026E-07 1.84137E-07
 -1      1973 1.68133E-07-1.05323E-06-1.84414E-07
 -1      1974 3.30280E-07 1.51558E-06 2.18325E-07
 -1      1976 2.78423E-07-2.24562E-06-3.50599E-07
 -1      1977 1.64239E-07 1.38852E-06 2.36974E-07
 -1      1979 2.16892E-07-1.64394E-06-3.65750E-07
 -1      1980 9.20398E-08-9.09191E-07 2.62784E-07
 -1      1982 1.18647E-07-4.03450E-07-2.38492E-07
 -1      1983 7.73019E-08 5.58419E-07 2.74126E-07
 -1      1985 1.52476E-08-1.05912E-06 1.38704E-07
 -1      1986-1.43564E-07 4.29864E-06-5.61664E-08
 -1      1988-1.13431E-07-2.63827E-06 8.93524E-07
 -1      1989-4.69269E-07 1.22838E-06-1.97765E-07
 -1      1991-4.10943E-07-2.45289E-06 5.05213E-07
 -1      1992-4.26259E-07-1.89293E-06-7.11351E-08
 -1      1994-4.87065E-07 9.25225E-07-2.97122E-07
 -1      1995-1.54329E-08-1.03217E-06-2.06936E-07
 -1      1997-6.41829E-08 5.49627E-07-3.59025E-08
 -1      1998 8.34883E-08 6.71449E-08 8.90552E-08
 -1      2000 1.13041E-07-9.72623E-07 2.25107E-07
 -1      2001-1.15600E-07-5.90283E-08-4.26041E-07
 -1      2003-9.39947E-08 1.85979E-07-3.01325E-07
 -1      2004-1.78769E-07-2.46131E-06 1.18988E-07
 -1      2006-1.82036E-07 2.43479E-07 3.47633E-07
 -1      2007-5.02771E-08-2.49230E-06-2.66514E-07
 -1      2009-1.07360E-07 2.39952E-06-3.94448E-08
 -1      2010 1.02984E-07-2.72683E-06 1.77937E-09
 -1      2012 8.59293E-08 3.56432E-06-2.34823E-07
 -1      2013 1.57391E-07-1.92504E-06 3.50791E-07
 -1      2015 7.04543E-08 3.75256E-07-9.71255E-08
 -1      2016 2.13093E-07-1.75616E-09-3.95743E-07
 -1      2018 9.20626E-08 1.09877E-07 6.03276E-07
 -1      2019 2.30273E-07-1.61705E-06-7.63175E-07
 -1      2021 2.42825E-07 1.84292E-06 6.60448E-07
 -1      2022 2.33300E-07 9.87744E-07-1.97825E-07
 -1      2024 2.34789E-07-1.54686E-06-1.66255E-08
 -1      2025 7.97139E-08 4.13713E-06-1.03099E-06
 -1      2027 2.05510E-07-2.35157E-06-4.10300E-07
 -1      2028-5.40816E-08 4.97577E-06-3.19529E-07
 -1      2030 1.26888E-07-4.01639E-06-1.64043E-07
 -1      2031-8.39054E-09 3.20807E-06 1.28381E-06
 -1      2033-1.74969E-08-3.40362E-06-5.32310E-07
 -1      2034 3.13361E-07 5.54186E+01-3.14873E-07
 -1      2036 3.11306E-07 5.54186E+01-3.04135E-07
 -1      2037 2.95339E-07 1.48901E+02-3.24455E-07
 -1      2039 2.93854E-07 1.48901E+02-3.22201E-07
 -1      2040-5.46431E-08 2.82267E+02 1.06368E-07
 -1      2042-1.81806E-08 2.82267E+02 7.17405E-08
 -1      2043-1.52507E-07 4.43939E+02 2.03111E-07
 -1      2045-9.49451E-08 4.43939E+02 2.86027E-07
 -1      2046-9.42423E-08 6.26011E+02-3.72809E-08
 -1      2048-7.06516E-08 6.26011E+02 1.22827E-07
 -1      2049-7.64453E-09 8.22005E+02-6.99849E-08
 -1      2051-7.30665E-09 8.22005E+02 3.85901E-08
 -1      2052 1.97275E-07 1.02701E+03-1.67043E-07
 -1      2054 2.10560E-07 1.02701E+03-1.28860E-07
 -1      2055 2.86775E-07 1.23719E+03-3.32325E-07
 -1      2057 1.98600E-07 1.23719E+03-5.10307E-07
 -1      2058 9.01736E-08 1.44948E+03 4.57590E-09
 -1      2060 1.43429E-07 1.44948E+03-3.06103E-07
 -1      2061 3.56218E-07 1.66147E+03 1.57069E-07
 -1      2063 3.47579E-07 1.66147E+03-1.64085E-07
 -1      2064 2.86207E-07 1.87117E+03 4.43480E-07
 -1      2066 2.56754E-07 1.87117E+03-2.39054E-07
 -1      2067 9.99813E-08 2.07698E+03 5.57671E-07
 -1      2069 1.42942E-07 2.07698E+03-4.47662E-07
 -1      2070-9.49624E-08 2.27754E+03 4.35886E-07
 -1      2072-1.22016E-07 2.27754E+03-1.25497E-07
 -1      2073-1.69643E-08 2.47172E+03-2.14119E-07
 -1      2075-4.50761E-08 2.47172E+03 4.63940E-07
 -1      2076 9.44528E-08 2.65852E+03 1.13298E-07
 -1      2078-1.77367E-08 2.65852E+03 3.24704E-07
 -1      2079 2.10352E-07 2.83712E+03 1.56917E-08
 -1      2081 9.03398E-08 2.83712E+03-2.39636E-07
 -1      2082 3.10057E-07 3.00678E+03-1.97563E-07
 -1      2084 4.35342E-07 3.00678E+03-5.88882E-07
 -1      2085 2.74767E-07 3.16689E+03-4.06890E-07
 -1      2087 4.12544E-07 3.16689E+03-4.36963E-07
 -1      2088-2.72007E-09 3.31693E+03 3.55515E-07
 -1      2090 5.92679E-08 3.31693E+03-6.17837E-08
 -1      2091-9.09104E-08 3.45645E+03 5.99901E-07
 -1      2093-1.17296E-07 3.45645E+03 3.21845E-07
 -1      2094-3.01867E-07 3.58515E+03 5.11437E-07
 -1      2096-3.00223E-07 3.58515E+03-2.76039E-07
 -1      2097-2.68343E-07 3.70281E+03 7.33341E-07
 -1      2099-3.26741E-07 3.70281E+03 2.89693E-07
 -1      2100-1.16883E-07 3.80935E+03 3.69205E-07
 -1      2102-2.15369E-07 3.80935E+03-3.89924E-07
 -1      2103 1.60889E-07 3.90486E+03-1.39744E-07
 -1      2105-1.68861E-07 3.90486E+03-5.42851E-07
 -1      2106 1.99082E-07 3.98961E+03-2.66325E-07
 -1      2108 8.29372E-08 3.98961E+03 1.09622E-07
 -1      2109 1.57347E-07 4.06416E+03-6.90844E-07
 -1      2111 7.10990E-08 4.06416E+03 5.20762E-07
 -1      2112-1.93645E-07 4.12925E+03-9.13517E-07
 -1      2114 5.04848E-08 4.12925E+03 5.76924E-07
 -1      2115-3.54180E-07 4.18626E+03-1.14355E-06
 -1      2117-1.52311E-07 4.18626E+03 5.29902E-07
 -1      2118-1.05621E-07 4.23663E+03-4.91865E-07
 -1      2120-2.91281E-07 4.23663E+03 3.49655E-07
 -1      2121 3.72034E+01 8.40669E+01 3.75370E+01
 -1      2123 3.72034E+01 8.40669E+01 3.75370E+01
 -1      2124 6.78369E+01 2.18103E+02 8.23008E+01
 -1      2126 6.78369E+01 2.18103E+02 8.23008E+01
 -1      2127 9.01945E+01 4.06680E+02 1.30630E+02
 -1      2129 9.01945E+01 4.06680E+02 1.30630E+02
 -1      2130 1.06107E+02 6.34609E+02 1.81280E+02
 -1      2132 1.06107E+02 6.34609E+02 1.81280E+02
 -1      2133 1.17244E+02 8.90274E+02 2.34614E+02
 -1      2135 1.17244E+02 8.90274E+02 2.34614E+02
 -1      2136 1.24672E+02 1.16480E+03 2.89757E+02
 -1      2138 1.24672E+02 1.16480E+03 2.89757E+02
 -1      2139 1.29270E+02 1.45141E+03 3.46329E+02
 -1      2141 1.29270E+02 1.45141E+03 3.46329E+02
 -1      2142 1.31652E+02 1.74480E+03 4.03707E+02
 -1      2144 1.31652E+02 1.74480E+03 4.03707E+02
 -1      2145 1.32291E+02 2.04083E+03 4.61437E+02
 -1      2147 1.32291E+02 2.04083E+03 4.61437E+02
 -1      2148 1.31535E+02 2.33620E+03 5.19043E+02
 -1      2150 1.31535E+02 2.33620E+03 5.19043E+02
 -1      2151 1.29646E+02 2.62822E+03 5.76123E+02
 -1      2153 1.29646E+02 2.62822E+03 5.76123E+02
 -1      2154 1.26821E+02 2.91469E+03 6.32298E+02
 -1      2156 1.26821E+02 2.91469E+03 6.32298E+02
 -1      2157 1.23214E+02 3.19378E+03 6.87229E+02
 -1      2159 1.23214E+02 3.19378E+03 6.87229E+02
 -1      2160 1.18942E+02 3.46393E+03 7.40607E+02
 -1      2162 1.18942E+02 3.46393E+03 7.40607E+02
 -1      2163 1.14101E+02 3.72381E+03 7.92155E+02
 -1      2165 1.14101E+02 3.72381E+03 7.92155E+02
 -1      2166 1.08768E+02 3.97224E+03 8.41617E+02
 -1      2168 1.08768E+02 3.97224E+03 8.41617E+02
 -1      2169 1.03012E+02 4.20824E+03 8.88764E+02
 -1      2171 1.03012E+02 4.20824E+03 8.88764E+02
 -1      2172 9.68962E+01 4.43095E+03 9.33392E+02
 -1      2174 9.68962E+01 4.43095E+03 9.33392E+02
 -1      2175 9.04816E+01 4.63961E+03 9.75313E+02
 -1      2177 9.04816E+01 4.63961E+03 9.75313E+02
 -1      2178 8.38320E+01 4.83365E+03 1.01437E+03
 -1      2180 8.38320E+01 4.83365E+03 1.01437E+03
 -1      2181 7.70173E+01 5.01259E+03 1.05040E+03
 -1      2183 7.70173E+01 5.01259E+03 1.05040E+03
 -1      2184 7.01176E+01 5.17614E+03 1.08330E+03
 -1      2186 7.01176E+01 5.17614E+03 1.08330E+03
 -1      2187 6.32295E+01 5.32418E+03 1.11296E+03
 -1      2189 6.32295E+01 5.32418E+03 1.11296E+03
 -1      2190 5.64694E+01 5.45683E+03 1.13929E+03
 -1      2192 5.64694E+01 5.45683E+03 1.13929E+03
 -1      2193 4.99894E+01 5.57446E+03 1.16220E+03
 -1      2195 4.99894E+01 5.57446E+03 1.16220E+03
 -1      2196 4.39706E+01 5.67782E+03 1.18164E+03
 -1      2198 4.39706E+01 5.67782E+03 1.18164E+03
 -1      2199 3.86699E+01 5.76812E+03 1.19750E+03
 -1      2201 3.86699E+01 5.76812E+03 1.19750E+03
 -1      2202 3.43934E+01 5.84710E+03 1.20961E+03
 -1      2204 3.43934E+01 5.84710E+03 1.20961E+03
 -1      2205 3.15367E+01 5.91742E+03 1.21757E+03
 -1      2207 3.15367E+01 5.91742E+03 1.21757E+03
 -1      2208-3.72034E+01 8.40669E+01-3.75370E+01
 -1      2210-3.72034E+01 8.40669E+01-3.75370E+01
 -1      2211-6.78369E+01 2.18103E+02-8.23008E+01
 -1      2213-6.78369E+01 2.18103E+02-8.23008E+01
 -1      2214-9.01945E+01 4.06680E+02-1.30630E+02
 -1      2216-9.01945E+01 4.06680E+02-1.30630E+02
 -1      2217-1.06107E+02 6.34609E+02-1.81280E+02
 -1      2219-1.06107E+02 6.34609E+02-1.81280E+02
 -1      2220-1.17244E+02 8.90274E+02-2.34614E+02
 -1      2222-1.17244E+02 8.90274E+02-2.34614E+02
 -1      2223-1.24672E+02 1.16480E+03-2.89757E+02
 -1      2225-1.24672E+02 1.16480E+03-2.89757E+02
 -1      2226-1.29270E+02 1.45141E+03-3.46329E+02
 -1      2228-1.29270E+02 1.45141E+03-3.46329E+02
 -1      2229-1.31652E+02 1.74480E+03-4.03707E+02
 -1      2231-1.31652E+02 1.74480E+03-4.03707E+02
 -1      2232-1.32291E+02 2.04083E+03-4.61437E+02
 -1      2234-1.32291E+02 2.04083E+03-4.61437E+02
 -1      2235-1.31535E+02 2.33620E+03-5.19043E+02
 -1      2237-1.31535E+02 2.33620E+03-5.19043E+02
 -1      2238-1.29646E+02 2.62822E+03-5.76123E+02
 -1      2240-1.29646E+02 2.62822E+03-5.76123E+02
 -1      2241-1.26821E+02 2.91469E+03-6.32298E+02
 -1      2243-1.26821E+02 2.91469E+03-6.32298E+02
 -1      2244-1.23214E+02 3.19378E+03-6.87229E+02
 -1      2246-1.23214E+02 3.19378E+03-6.87229E+02
 -1      2247-1.18942E+02 3.46393E+03-7.40607E+02
 -1      2249-1.18942E+02 3.46393E+03-7.40607E+02
 -1      2250-1.14101E+02 3.72381E+03-7.92155E+02
 -1      2252-1.14101E+02 3.72381E+03-7.92155E+02
 -1      2253-1.08768E+02 3.97224E+03-8.41617E+02
 -1      2255-1.08768E+02 3.97224E+03-8.41617E+02
 -1      2256-1.03012E+02 4.20824E+03-8.88764E+02
 -1      2258-1.03012E+02 4.20824E+03-8.88764E+02
 -1      2259-9.68962E+01 4.43095E+03-9.33392E+02
 -1      2261-9.68962E+01 4.43095E+03-9.33392E+02
 -1      2262-9.04816E+01 4.63961E+03-9.75313E+02
 -1      2264-9.04816E+01 4.63961E+03-9.75313E+02
 -1      2265-8.38320E+01 4.83365E+03-1.01437E+03
 -1      2267-8.38320E+01 4.83365E+03-1.01437E+03
 -1      2268-7.70173E+01 5.01259E+03-1.05040E+03
 -1      2270-7.70173E+01 5.01259E+03-1.05040E+03
 -1      2271-7.01176E+01 5.17614E+03-1.08330E+03
 -1      2273-7.01176E+01 5.17614E+03-1.08330E+03
 -1      2274-6.32295E+01 5.32418E+03-1.11296E+03
 -1      2276-6.32295E+01 5.32418E+03-1.11296E+03
 -1      2277-5.64694E+01 5.45683E+03-1.13929E+03
 -1      2279-5.64694E+01 5.45683E+03-1.13929E+03
 -1      2280-4.99894E+01 5.57446E+03-1.16220E+03
 -1      2282-4.99894E+01 5.57446E+03-1.16220E+03
 -1      2283-4.39706E+01 5.67782E+03-1.18164E+03
 -1      2285-4.39706E+01 5.67782E+03-1.18164E+03
 -1      2286-3.86699E+01 5.76812E+03-1.19750E+03
 -1      2288-3.86699E+01 5.76812E+03-1.19750E+03
 -1      2289-3.43934E+01 5.84710E+03-1.20961E+03
 -1      2291-3.43934E+01 5.84710E+03-1.20961E+03
 -1      2292-3.15367E+01 5.91742E+03-1.21757E+03
 -1      2294-3.15367E+01 5.91742E+03-1.21757E+03
 -3
    1PSTEP                        12           1           1          
    1PGM                1.000000E+00                                  
    1PGK                1.990216E+05                                  
    1PHID                         -1                                  
    1PSUBC                         0                                  
    1PMODE                         3                                  
  100CL  103 71.00194462         930                     2    3MODAL      1
 -4  ERROR       1    1
 -5  STR(%)      1    1    0    0
 -1       404 0.00000E+00
 -1       406 0.00000E+00
 -1       407 0.00000E+00
 -1       409 0.00000E+00
 -1       410 0.00000E+00
 -1       412 0.00000E+00
 -1       413 0.00000E+00
 -1       415 0.00000E+00
 -1       424 0.00000E+00
 -1       426 0.00000E+00
 -1       427 0.00000E+00
 -1       429 0.00000E+00
 -1       438 0.00000E+00
 -1       440 0.00000E+00
 -1       441 0.00000E+00
 -1       443 0.00000E+00
 -1       444 0.00000E+00
 -1       446 0.00000E+00
 -1       447 0.00000E+00
 -1       449 0.00000E+00
 -1       458 0.00000E+00
 -1       460 0.00000E+00
 -1       461 0.00000E+00
 -1       463 0.00000E+00
 -1       472 0.00000E+00
 -1       474 0.00000E+00
 -1       475 0.00000E+00
 -1       477 0.00000E+00
 -1       478 0.00000E+00
 -1       480 0.00000E+00
 -1       481 0.00000E+00
 -1       483 0.00000E+00
 -1       484 0.00000E+00
 -1       486 0.00000E+00
 -1       487 0.00000E+00
 -1       489 0.00000E+00
 -1       490 0.00000E+00
 -1       492 0.00000E+00
 -1       493 0.00000E+00
 -1       495 0.00000E+00
 -1       496 0.00000E+00
 -1       498 0.00000E+00
 -1       499 0.00000E+00
 -1       501 0.00000E+00
 -1       502 0.00000E+00
 -1       504 0.00000E+00
 -1       505 0.00000E+00
 -1       507 0.00000E+00
 -1       508 0.00000E+00
 -1       510 0.00000E+00
 -1       511 0.00000E+00
 -1       513 0.00000E+00
 -1       514 0.00000E+00
 -1       516 0.00000E+00
 -1       517 0.00000E+00
 -1       519 0.00000E+00
 -1       520 0.00000E+00
 -1       522 0.00000E+00
 -1       523 0.00000E+00
 -1       525 0.00000E+00
 -1       526 0.00000E+00
 -1       528 0.00000E+00
 -1       529 0.00000E+00
 -1       531 0.00000E+00
 -1       532 0.00000E+00
 -1       534 0.00000E+00
 -1       535 0.00000E+00
 -1       537 0.00000E+00
 -1       538 0.00000E+00
 -1       540 0.00000E+00
 -1       541 0.00000E+00
 -1       543 0.00000E+00
 -1       544 0.00000E+00
 -1       546 0.00000E+00
 -1       547 0.00000E+00
 -1       549 0.00000E+00
 -1       550 0.00000E+00
 -1       552 0.00000E+00
 -1       553 0.00000E+00
 -1       555 0.00000E+00
 -1       556 0.00000E+00
 -1       558 0.00000E+00
 -1       559 0.00000E+00
 -1       561 0.00000E+00
 -1       562 0.00000E+00
 -1       564 0.00000E+00
 -1       565 0.00000E+00
 -1       567 0.00000E+00
 -1       568 0.00000E+00
 -1       570 0.00000E+00
 -1       571 0.00000E+00
 -1       573 0.00000E+00
 -1       574 0.00000E+00
 -1       576 0.00000E+00
 -1       577 0.00000E+00
 -1       579 0.00000E+00
 -1       588 0.00000E+00
 -1       590 0.00000E+00
 -1       591 0.00000E+00
 -1       593 0.00000E+00
 -1       602 0.00000E+00
 -1       604 0.00000E+00
 -1       605 0.00000E+00
 -1       607 0.00000E+00
 -1       616 0.00000E+00
 -1       618 0.00000E+00
 -1       619 0.00000E+00
 -1       621 0.00000E+00
 -1       630 0.00000E+00
 -1       632 0.00000E+00
 -1       633 0.00000E+00
 -1       635 0.00000E+00
 -1       644 0.00000E+00
 -1       646 0.00000E+00
 -1       647 0.00000E+00
 -1       649 0.00000E+00
 -1       658 0.00000E+00
 -1       660 0.00000E+00
 -1       661 0.00000E+00
 -1       663 0.00000E+00
 -1       672 0.00000E+00
 -1       674 0.00000E+00
 -1       675 0.00000E+00
 -1       677 0.00000E+00
 -1       686 0.00000E+00
 -1       688 0.00000E+00
 -1       689 0.00000E+00
 -1       691 0.00000E+00
 -1       700 0.00000E+00
 -1       702 0.00000E+00
 -1       703 0.00000E+00
 -1       705 0.00000E+00
 -1       714 0.00000E+00
 -1       716 0.00000E+00
 -1       717 0.00000E+00
 -1       719 0.00000E+00
 -1       728 0.00000E+00
 -1       730 0.00000E+00
 -1       731 0.00000E+00
 -1       733 0.00000E+00
 -1       742 0.00000E+00
 -1       744 0.00000E+00
 -1       745 0.00000E+00
 -1       747 0.00000E+00
 -1       756 0.00000E+00
 -1       758 0.00000E+00
 -1       759 0.00000E+00
 -1       761 0.00000E+00
 -1       770 0.00000E+00
 -1       772 0.00000E+00
 -1       773 0.00000E+00
 -1       775 0.00000E+00
 -1       784 0.00000E+00
 -1       786 0.00000E+00
 -1       787 0.00000E+00
 -1       789 0.00000E+00
 -1       798 0.00000E+00
 -1       800 0.00000E+00
 -1       801 0.00000E+00
 -1       803 0.00000E+00
 -1       812 0.00000E+00
 -1       814 0.00000E+00
 -1       815 0.00000E+00
 -1       817 0.00000E+00
 -1       826 0.00000E+00
 -1       828 0.00000E+00
 -1       829 0.00000E+00
 -1       831 0.00000E+00
 -1       840 0.00000E+00
 -1       842 0.00000E+00
 -1       843 0.00000E+00
 -1       845 0.00000E+00
 -1       854 0.00000E+00
 -1       856 0.00000E+00
 -1       857 0.00000E+00
 -1       859 0.00000E+00
 -1       868 0.00000E+00
 -1       870 0.00000E+00
 -1       871 0.00000E+00
 -1       873 0.00000E+00
 -1       882 0.00000E+00
 -1       884 0.00000E+00
 -1       885 0.00000E+00
 -1       887 0.00000E+00
 -1       896 0.00000E+00
 -1       898 0.00000E+00
 -1       899 0.00000E+00
 -1       901 0.00000E+00
 -1       910 0.00000E+00
 -1       912 0.00000E+00
 -1       913 0.00000E+00
 -1       915 0.00000E+00
 -1       924 0.00000E+00
 -1       926 0.00000E+00
 -1       927 0.00000E+00
 -1       929 0.00000E+00
 -1       938 0.00000E+00
 -1       940 0.00000E+00
 -1       941 0.00000E+00
 -1       943 0.00000E+00
 -1       952 0.00000E+00
 -1       954 0.00000E+00
 -1       955 0.00000E+00
 -1       957 0.00000E+00
 -1       966 0.00000E+00
 -1       968 0.00000E+00
 -1       969 0.00000E+00
 -1       971 0.00000E+00
 -1       980 0.00000E+00
 -1       982 0.00000E+00
 -1       983 0.00000E+00
 -1       985 0.00000E+00
 -1       986 0.00000E+00
 -1       988 0.00000E+00
 -1       989 0.00000E+00
 -1       991 0.00000E+00
 -1       992 0.00000E+00
 -1       994 0.00000E+00
 -1       995 0.00000E+00
 -1       997 0.00000E+00
 -1       998 0.00000E+00
 -1      1000 0.00000E+00
 -1      1001 0.00000E+00
 -1      1003 0.00000E+00
 -1      1004 0.00000E+00
 -1      1006 0.00000E+00
 -1      1007 0.00000E+00
 -1      1009 0.00000E+00
 -1      1010 0.00000E+00
 -1      1012 0.00000E+00
 -1      1013 0.00000E+00
 -1      1015 0.00000E+00
 -1      1016 0.00000E+00
 -1      1018 0.00000E+00
 -1      1019 0.00000E+00
 -1      1021 0.00000E+00
 -1      1022 0.00000E+00
 -1      1024 0.00000E+00
 -1      1025 0.00000E+00
 -1      1027 0.00000E+00
 -1      1028 0.00000E+00
 -1      1030 0.00000E+00
 -1      1031 0.00000E+00
 -1      1033 0.00000E+00
 -1      1034 0.00000E+00
 -1      1036 0.00000E+00
 -1      1037 0.00000E+00
 -1      1039 0.00000E+00
 -1      1040 0.00000E+00
 -1      1042 0.00000E+00
 -1      1043 0.00000E+00
 -1      1045 0.00000E+00
 -1      1046 0.00000E+00
 -1      1048 0.00000E+00
 -1      1049 0.00000E+00
 -1      1051 0.00000E+00
 -1      1052 0.00000E+00
 -1      1054 0.00000E+00
 -1      1055 0.00000E+00
 -1      1057 0.00000E+00
 -1      1058 0.00000E+00
 -1      1060 0.00000E+00
 -1      1061 0.00000E+00
 -1      1063 0.00000E+00
 -1      1064 0.00000E+00
 -1      1066 0.00000E+00
 -1      1067 0.00000E+00
 -1      1069 0.00000E+00
 -1      1070 0.00000E+00
 -1      1072 0.00000E+00
 -1      1073 0.00000E+00
 -1      1075 0.00000E+00
 -1      1076 0.00000E+00
 -1      1078 0.00000E+00
 -1      1079 0.00000E+00
 -1      1081 0.00000E+00
 -1      1082 0.00000E+00
 -1      1084 0.00000E+00
 -1      1085 0.00000E+00
 -1      1087 0.00000E+00
 -1      1088 0.00000E+00
 -1      1090 0.00000E+00
 -1      1099 0.00000E+00
 -1      1101 0.00000E+00
 -1      1102 0.00000E+00
 -1      1104 0.00000E+00
 -1      1113 0.00000E+00
 -1      1115 0.00000E+00
 -1      1116 0.00000E+00
 -1      1118 0.00000E+00
 -1      1127 0.00000E+00
 -1      1129 0.00000E+00
 -1      1130 0.00000E+00
 -1      1132 0.00000E+00
 -1      1141 0.00000E+00
 -1      1143 0.00000E+00
 -1      1144 0.00000E+00
 -1      1146 0.00000E+00
 -1      1155 0.00000E+00
 -1      1157 0.00000E+00
 -1      1158 0.00000E+00
 -1      1160 0.00000E+00
 -1      1169 0.00000E+00
 -1      1171 0.00000E+00
 -1      1172 0.00000E+00
 -1      1174 0.00000E+00
 -1      1183 0.00000E+00
 -1      1185 0.00000E+00
 -1      1186 0.00000E+00
 -1      1188 0.00000E+00
 -1      1197 0.00000E+00
 -1      1199 0.00000E+00
 -1      1200 0.00000E+00
 -1      1202 0.00000E+00
 -1      1211 0.00000E+00
 -1      1213 0.00000E+00
 -1      1214 0.00000E+00
 -1      1216 0.00000E+00
 -1      1225 0.00000E+00
 -1      1227 0.00000E+00
 -1      1228 0.00000E+00
 -1      1230 0.00000E+00
 -1      1239 0.00000E+00
 -1      1241 0.00000E+00
 -1      1242 0.00000E+00
 -1      1244 0.00000E+00
 -1      1253 0.00000E+00
 -1      1255 0.00000E+00
 -1      1256 0.00000E+00
 -1      1258 0.00000E+00
 -1      1267 0.00000E+00
 -1      1269 0.00000E+00
 -1      1270 0.00000E+00
 -1      1272 0.00000E+00
 -1      1281 0.00000E+00
 -1      1283 0.00000E+00
 -1      1284 0.00000E+00
 -1      1286 0.00000E+00
 -1      1295 0.00000E+00
 -1      1297 0.00000E+00
 -1      1298 0.00000E+00
 -1      1300 0.00000E+00
 -1      1309 0.00000E+00
 -1      1311 0.00000E+00
 -1      1312 0.00000E+00
 -1      1314 0.00000E+00
 -1      1323 0.00000E+00
 -1      1325 0.00000E+00
 -1      1326 0.00000E+00
 -1      1328 0.00000E+00
 -1      1337 0.00000E+00
 -1      1339 0.00000E+00
 -1      1340 0.00000E+00
 -1      1342 0.00000E+00
 -1      1351 0.00000E+00
 -1      1353 0.00000E+00
 -1      1354 0.00000E+00
 -1      1356 0.00000E+00
 -1      1365 0.00000E+00
 -1      1367 0.00000E+00
 -1      1368 0.00000E+00
 -1      1370 0.00000E+00
 -1      1379 0.00000E+00
 -1      1381 0.00000E+00
 -1      1382 0.00000E+00
 -1      1384 0.00000E+00
 -1      1393 0.00000E+00
 -1      1395 0.00000E+00
 -1      1396 0.00000E+00
 -1      1398 0.00000E+00
 -1      1407 0.00000E+00
 -1      1409 0.00000E+00
 -1      1410 0.00000E+00
 -1      1412 0.00000E+00
 -1      1421 0.00000E+00
 -1      1423 0.00000E+00
 -1      1424 0.00000E+00
 -1      1426 0.00000E+00
 -1      1435 0.00000E+00
 -1      1437 0.00000E+00
 -1      1438 0.00000E+00
 -1      1440 0.00000E+00
 -1      1449 0.00000E+00
 -1      1451 0.00000E+00
 -1      1452 0.00000E+00
 -1      1454 0.00000E+00
 -1      1463 0.00000E+00
 -1      1465 0.00000E+00
 -1      1466 0.00000E+00
 -1      1468 0.00000E+00
 -1      1477 0.00000E+00
 -1      1479 0.00000E+00
 -1      1480 0.00000E+00
 -1      1482 0.00000E+00
 -1      1491 0.00000E+00
 -1      1493 0.00000E+00
 -1      1494 0.00000E+00
 -1      1496 0.00000E+00
 -1      1497 0.00000E+00
 -1      1499 0.00000E+00
 -1      1500 0.00000E+00
 -1      1502 0.00000E+00
 -1      1503 0.00000E+00
 -1      1505 0.00000E+00
 -1      1506 0.00000E+00
 -1      1508 0.00000E+00
 -1      1509 0.00000E+00
 -1      1511 0.00000E+00
 -1      1512 0.00000E+00
 -1      1514 0.00000E+00
 -1      1515 0.00000E+00
 -1      1517 0.00000E+00
 -1      1518 0.00000E+00
 -1      1520 0.00000E+00
 -1      1521 0.00000E+00
 -1      1523 0.00000E+00
 -1      1524 0.00000E+00
 -1      1526 0.00000E+00
 -1      1527 0.00000E+00
 -1      1529 0.00000E+00
 -1      1530 0.00000E+00
 -1      1532 0.00000E+00
 -1      1533 0.00000E+00
 -1      1535 0.00000E+00
 -1      1536 0.00000E+00
 -1      1538 0.00000E+00
 -1      1539 0.00000E+00
 -1      1541 0.00000E+00
 -1      1542 0.00000E+00
 -1      1544 0.00000E+00
 -1      1545 0.00000E+00
 -1      1547 0.00000E+00
 -1      1548 0.00000E+00
 -1      1550 0.00000E+00
 -1      1551 0.00000E+00
 -1      1553 0.00000E+00
 -1      1554 0.00000E+00
 -1      1556 0.00000E+00
 -1      1557 0.00000E+00
 -1      1559 0.00000E+00
 -1      1560 0.00000E+00
 -1      1562 0.00000E+00
 -1      1563 0.00000E+00
 -1      1565 0.00000E+00
 -1      1566 0.00000E+00
 -1      1568 0.00000E+00
 -1      1569 0.00000E+00
 -1      1571 0.00000E+00
 -1      1572 0.00000E+00
 -1      1574 0.00000E+00
 -1      1575 0.00000E+00
 -1      1577 0.00000E+00
 -1      1578 0.00000E+00
 -1      1580 0.00000E+00
 -1      1581 0.00000E+00
 -1      1583 0.00000E+00
 -1      1584 0.00000E+00
 -1      1586 0.00000E+00
 -1      1587 0.00000E+00
 -1      1589 0.00000E+00
 -1      1590 0.00000E+00
 -1      1592 0.00000E+00
 -1      1593 0.00000E+00
 -1      1595 0.00000E+00
 -1      1596 0.00000E+00
 -1      1598 0.00000E+00
 -1      1599 0.00000E+00
 -1      1601 0.00000E+00
 -1      1602 0.00000E+00
 -1      1604 0.00000E+00
 -1      1605 0.00000E+00
 -1      1607 0.00000E+00
 -1      1608 0.00000E+00
 -1      1610 0.00000E+00
 -1      1611 0.00000E+00
 -1      1613 0.00000E+00
 -1      1614 0.00000E+00
 -1      1616 0.00000E+00
 -1      1617 0.00000E+00
 -1      1619 0.00000E+00
 -1      1620 0.00000E+00
 -1      1622 0.00000E+00
 -1      1623 0.00000E+00
 -1      1625 0.00000E+00
 -1      1626 0.00000E+00
 -1      1628 0.00000E+00
 -1      1629 0.00000E+00
 -1      1631 0.00000E+00
 -1      1632 0.00000E+00
 -1      1634 0.00000E+00
 -1      1635 0.00000E+00
 -1      1637 0.00000E+00
 -1      1638 0.00000E+00
 -1      1640 0.00000E+00
 -1      1641 0.00000E+00
 -1      1643 0.00000E+00
 -1      1644 0.00000E+00
 -1      1646 0.00000E+00
 -1      1647 0.00000E+00
 -1      1649 0.00000E+00
 -1      1650 0.00000E+00
 -1      1652 0.00000E+00
 -1      1653 0.00000E+00
 -1      1655 0.00000E+00
 -1      1656 0.00000E+00
 -1      1658 0.00000E+00
 -1      1659 0.00000E+00
 -1      1661 0.00000E+00
 -1      1662 0.00000E+00
 -1      1664 0.00000E+00
 -1      1665 0.00000E+00
 -1      1667 0.00000E+00
 -1      1668 0.00000E+00
 -1      1670 0.00000E+00
 -1      1671 0.00000E+00
 -1      1673 0.00000E+00
 -1      1674 0.00000E+00
 -1      1676 0.00000E+00
 -1      1677 0.00000E+00
 -1      1679 0.00000E+00
 -1      1680 0.00000E+00
 -1      1682 0.00000E+00
 -1      1683 0.00000E+00
 -1      1685 0.00000E+00
 -1      1686 0.00000E+00
 -1      1688 0.00000E+00
 -1      1689 0.00000E+00
 -1      1691 0.00000E+00
 -1      1692 0.00000E+00
 -1      1694 0.00000E+00
 -1      1695 0.00000E+00
 -1      1697 0.00000E+00
 -1      1698 0.00000E+00
 -1      1700 0.00000E+00
 -1      1701 0.00000E+00
 -1      1703 0.00000E+00
 -1      1704 0.00000E+00
 -1      1706 0.00000E+00
 -1      1707 0.00000E+00
 -1      1709 0.00000E+00
 -1      1710 0.00000E+00
 -1      1712 0.00000E+00
 -1      1713 0.00000E+00
 -1      1715 0.00000E+00
 -1      1716 0.00000E+00
 -1      1718 0.00000E+00
 -1      1719 0.00000E+00
 -1      1721 0.00000E+00
 -1      1722 0.00000E+00
 -1      1724 0.00000E+00
 -1      1725 0.00000E+00
 -1      1727 0.00000E+00
 -1      1728 0.00000E+00
 -1      1730 0.00000E+00
 -1      1731 0.00000E+00
 -1      1733 0.00000E+00
 -1      1734 0.00000E+00
 -1      1736 0.00000E+00
 -1      1737 0.00000E+00
 -1      1739 0.00000E+00
 -1      1740 0.00000E+00
 -1      1742 0.00000E+00
 -1      1743 0.00000E+00
 -1      1745 0.00000E+00
 -1      1746 0.00000E+00
 -1      1748 0.00000E+00
 -1      1749 0.00000E+00
 -1      1751 0.00000E+00
 -1      1752 0.00000E+00
 -1      1754 0.00000E+00
 -1      1755 0.00000E+00
 -1      1757 0.00000E+00
 -1      1758 0.00000E+00
 -1      1760 0.00000E+00
 -1      1761 0.00000E+00
 -1      1763 0.00000E+00
 -1      1764 0.00000E+00
 -1      1766 0.00000E+00
 -1      1767 0.00000E+00
 -1      1769 0.00000E+00
 -1      1770 0.00000E+00
 -1      1772 0.00000E+00
 -1      1773 0.00000E+00
 -1      1775 0.00000E+00
 -1      1776 0.00000E+00
 -1      1778 0.00000E+00
 -1      1779 0.00000E+00
 -1      1781 0.00000E+00
 -1      1782 0.00000E+00
 -1      1784 0.00000E+00
 -1      1785 0.00000E+00
 -1      1787 0.00000E+00
 -1      1788 0.00000E+00
 -1      1790 0.00000E+00
 -1      1791 0.00000E+00
 -1      1793 0.00000E+00
 -1      1794 0.00000E+00
 -1      1796 0.00000E+00
 -1      1797 0.00000E+00
 -1      1799 0.00000E+00
 -1      1800 0.00000E+00
 -1      1802 0.00000E+00
 -1      1803 0.00000E+00
 -1      1805 0.00000E+00
 -1      1806 0.00000E+00
 -1      1808 0.00000E+00
 -1      1809 0.00000E+00
 -1      1811 0.00000E+00
 -1      1812 0.00000E+00
 -1      1814 0.00000E+00
 -1      1815 0.00000E+00
 -1      1817 0.00000E+00
 -1      1818 0.00000E+00
 -1      1820 0.00000E+00
 -1      1821 0.00000E+00
 -1      1823 0.00000E+00
 -1      1824 0.00000E+00
 -1      1826 0.00000E+00
 -1      1827 0.00000E+00
 -1      1829 0.00000E+00
 -1      1830 0.00000E+00
 -1      1832 0.00000E+00
 -1      1833 0.00000E+00
 -1      1835 0.00000E+00
 -1      1836 0.00000E+00
 -1      1838 0.00000E+00
 -1      1839 0.00000E+00
 -1      1841 0.00000E+00
 -1      1842 0.00000E+00
 -1      1844 0.00000E+00
 -1      1845 0.00000E+00
 -1      1847 0.00000E+00
 -1      1848 0.00000E+00
 -1      1850 0.00000E+00
 -1      1851 0.00000E+00
 -1      1853 0.00000E+00
 -1      1854 0.00000E+00
 -1      1856 0.00000E+00
 -1      1857 0.00000E+00
 -1      1859 0.00000E+00
 -1      1860 0.00000E+00
 -1      1862 0.00000E+00
 -1      1863 0.00000E+00
 -1      1865 0.00000E+00
 -1      1866 0.00000E+00
 -1      1868 0.00000E+00
 -1      1869 0.00000E+00
 -1      1871 0.00000E+00
 -1      1872 0.00000E+00
 -1      1874 0.00000E+00
 -1      1875 0.00000E+00
 -1      1877 0.00000E+00
 -1      1878 0.00000E+00
 -1      1880 0.00000E+00
 -1      1881 0.00000E+00
 -1      1883 0.00000E+00
 -1      1884 0.00000E+00
 -1      1886 0.00000E+00
 -1      1887 0.00000E+00
 -1      1889 0.00000E+00
 -1      1890 0.00000E+00
 -1      1892 0.00000E+00
 -1      1893 0.00000E+00
 -1      1895 0.00000E+00
 -1      1896 0.00000E+00
 -1      1898 0.00000E+00
 -1      1899 0.00000E+00
 -1      1901 0.00000E+00
 -1      1902 0.00000E+00
 -1      1904 0.00000E+00
 -1      1905 0.00000E+00
 -1      1907 0.00000E+00
 -1      1908 0.00000E+00
 -1      1910 0.00000E+00
 -1      1911 0.00000E+00
 -1      1913 0.00000E+00
 -1      1914 0.00000E+00
 -1      1916 0.00000E+00
 -1      1917 0.00000E+00
 -1      1919 0.00000E+00
 -1      1920 0.00000E+00
 -1      1922 0.00000E+00
 -1      1923 0.00000E+00
 -1      1925 0.00000E+00
 -1      1926 0.00000E+00
 -1      1928 0.00000E+00
 -1      1929 0.00000E+00
 -1      1931 0.00000E+00
 -1      1932 0.00000E+00
 -1      1934 0.00000E+00
 -1      1935 0.00000E+00
 -1      1937 0.00000E+00
 -1      1938 0.00000E+00
 -1      1940 0.00000E+00
 -1      1941 0.00000E+00
 -1      1943 0.00000E+00
 -1      1944 0.00000E+00
 -1      1946 0.00000E+00
 -1      1947 0.00000E+00
 -1      1949 0.00000E+00
 -1      1950 0.00000E+00
 -1      1952 0.00000E+00
 -1      1953 0.00000E+00
 -1      1955 0.00000E+00
 -1      1956 0.00000E+00
 -1      1958 0.00000E+00
 -1      1959 0.00000E+00
 -1      1961 0.00000E+00
 -1      1962 0.00000E+00
 -1      1964 0.00000E+00
 -1      1965 0.00000E+00
 -1      1967 0.00000E+00
 -1      1968 0.00000E+00
 -1      1970 0.00000E+00
 -1      1971 0.00000E+00
 -1      1973 0.00000E+00
 -1      1974 0.00000E+00
 -1      1976 0.00000E+00
 -1      1977 0.00000E+00
 -1      1979 0.00000E+00
 -1      1980 0.00000E+00
 -1      1982 0.00000E+00
 -1      1983 0.00000E+00
 -1      1985 0.00000E+00
 -1      1986 0.00000E+00
 -1      1988 0.00000E+00
 -1      1989 0.00000E+00
 -1      1991 0.00000E+00
 -1      1992 0.00000E+00
 -1      1994 0.00000E+00
 -1      1995 0.00000E+00
 -1      1997 0.00000E+00
 -1      1998 0.00000E+00
 -1      2000 0.00000E+00
 -1      2001 0.00000E+00
 -1      2003 0.00000E+00
 -1      2004 0.00000E+00
 -1      2006 0.00000E+00
 -1      2007 0.00000E+00
 -1      2009 0.00000E+00
 -1      2010 0.00000E+00
 -1      2012 0.00000E+00
 -1      2013 0.00000E+00
 -1      2015 0.00000E+00
 -1      2016 0.00000E+00
 -1      2018 0.00000E+00
 -1      2019 0.00000E+00
 -1      2021 0.00000E+00
 -1      2022 0.00000E+00
 -1      2024 0.00000E+00
 -1      2025 0.00000E+00
 -1      2027 0.00000E+00
 -1      2028 0.00000E+00
 -1      2030 0.00000E+00
 -1      2031 0.00000E+00
 -1      2033 0.00000E+00
 -1      2034 0.00000E+00
 -1      2036 0.00000E+00
 -1      2037 0.00000E+00
 -1      2039 0.00000E+00
 -1      2040 0.00000E+00
 -1      2042 0.00000E+00
 -1      2043 0.00000E+00
 -1      2045 0.00000E+00
 -1      2046 0.00000E+00
 -1      2048 0.00000E+00
 -1      2049 0.00000E+00
 -1      2051 0.00000E+00
 -1      2052 0.00000E+00
 -1      2054 0.00000E+00
 -1      2055 0.00000E+00
 -1      2057 0.00000E+00
 -1      2058 0.00000E+00
 -1      2060 0.00000E+00
 -1      2061 0.00000E+00
 -1      2063 0.00000E+00
 -1      2064 0.00000E+00
 -1      2066 0.00000E+00
 -1      2067 0.00000E+00
 -1      2069 0.00000E+00
 -1      2070 0.00000E+00
 -1      2072 0.00000E+00
 -1      2073 0.00000E+00
 -1      2075 0.00000E+00
 -1      2076 0.00000E+00
 -1      2078 0.00000E+00
 -1      2079 0.00000E+00
 -1      2081 0.00000E+00
 -1      2082 0.00000E+00
 -1      2084 0.00000E+00
 -1      2085 0.00000E+00
 -1      2087 0.00000E+00
 -1      2088 0.00000E+00
 -1      2090 0.00000E+00
 -1      2091 0.00000E+00
 -1      2093 0.00000E+00
 -1      2094 0.00000E+00
 -1      2096 0.00000E+00
 -1      2097 0.00000E+00
 -1      2099 0.00000E+00
 -1      2100 0.00000E+00
 -1      2102 0.00000E+00
 -1      2103 0.00000E+00
 -1      2105 0.00000E+00
 -1      2106 0.00000E+00
 -1      2108 0.00000E+00
 -1      2109 0.00000E+00
 -1      2111 0.00000E+00
 -1      2112 0.00000E+00
 -1      2114 0.00000E+00
 -1      2115 0.00000E+00
 -1      2117 0.00000E+00
 -1      2118 0.00000E+00
 -1      2120 0.00000E+00
 -1      2121 0.00000E+00
 -1      2123 0.00000E+00
 -1      2124 0.00000E+00
 -1      2126 0.00000E+00
 -1      2127 0.00000E+00
 -1      2129 0.00000E+00
 -1      2130 0.00000E+00
 -1      2132 0.00000E+00
 -1      2133 0.00000E+00
 -1      2135 0.00000E+00
 -1      2136 0.00000E+00
 -1      2138 0.00000E+00
 -1      2139 0.00000E+00
 -1      2141 0.00000E+00
 -1      2142 0.00000E+00
 -1      2144 0.00000E+00
 -1      2145 0.00000E+00
 -1      2147 0.00000E+00
 -1      2148 0.00000E+00
 -1      2150 0.00000E+00
 -1      2151 0.00000E+00
 -1      2153 0.00000E+00
 -1      2154 0.00000E+00
 -1      2156 0.00000E+00
 -1      2157 0.00000E+00
 -1      2159 0.00000E+00
 -1      2160 0.00000E+00
 -1      2162 0.00000E+00
 -1      2163 0.00000E+00
 -1      2165 0.00000E+00
 -1      2166 0.00000E+00
 -1      2168 0.00000E+00
 -1      2169 0.00000E+00
 -1      2171 0.00000E+00
 -1      2172 0.00000E+00
 -1      2174 0.00000E+00
 -1      2175 0.00000E+00
 -1      2177 0.00000E+00
 -1      2178 0.00000E+00
 -1      2180 0.00000E+00
 -1      2181 0.00000E+00
 -1      2183 0.00000E+00
 -1      2184 0.00000E+00
 -1      2186 0.00000E+00
 -1      2187 0.00000E+00
 -1      2189 0.00000E+00
 -1      2190 0.00000E+00
 -1      2192 0.00000E+00
 -1      2193 0.00000E+00
 -1      2195 0.00000E+00
 -1      2196 0.00000E+00
 -1      2198 0.00000E+00
 -1      2199 0.00000E+00
 -1      2201 0.00000E+00
 -1      2202 0.00000E+00
 -1      2204 0.00000E+00
 -1      2205 0.00000E+00
 -1      2207 0.00000E+00
 -1      2208 0.00000E+00
 -1      2210 0.00000E+00
 -1      2211 0.00000E+00
 -1      2213 0.00000E+00
 -1      2214 0.00000E+00
 -1      2216 0.00000E+00
 -1      2217 0.00000E+00
 -1      2219 0.00000E+00
 -1      2220 0.00000E+00
 -1      2222 0.00000E+00
 -1      2223 0.00000E+00
 -1      2225 0.00000E+00
 -1      2226 0.00000E+00
 -1      2228 0.00000E+00
 -1      2229 0.00000E+00
 -1      2231 0.00000E+00
 -1      2232 0.00000E+00
 -1      2234 0.00000E+00
 -1      2235 0.00000E+00
 -1      2237 0.00000E+00
 -1      2238 0.00000E+00
 -1      2240 0.00000E+00
 -1      2241 0.00000E+00
 -1      2243 0.00000E+00
 -1      2244 0.00000E+00
 -1      2246 0.00000E+00
 -1      2247 0.00000E+00
 -1      2249 0.00000E+00
 -1      2250 0.00000E+00
 -1      2252 0.00000E+00
 -1      2253 0.00000E+00
 -1      2255 0.00000E+00
 -1      2256 0.00000E+00
 -1      2258 0.00000E+00
 -1      2259 0.00000E+00
 -1      2261 0.00000E+00
 -1      2262 0.00000E+00
 -1      2264 0.00000E+00
 -1      2265 0.00000E+00
 -1      2267 0.00000E+00
 -1      2268 0.00000E+00
 -1      2270 0.00000E+00
 -1      2271 0.00000E+00
 -1      2273 0.00000E+00
 -1      2274 0.00000E+00
 -1      2276 0.00000E+00
 -1      2277 0.00000E+00
 -1      2279 0.00000E+00
 -1      2280 0.00000E+00
 -1      2282 0.00000E+00
 -1      2283 0.00000E+00
 -1      2285 0.00000E+00
 -1      2286 0.00000E+00
 -1      2288 0.00000E+00
 -1      2289 0.00000E+00
 -1      2291 0.00000E+00
 -1      2292 0.00000E+00
 -1      2294 0.00000E+00
 -3
    1PSTEP                        13           1           1          
    1PGM                1.000000E+00                                  
    1PGK                2.415175E+05                                  
    1PHID                         -1                                  
    1PSUBC                         0                                  
    1PMODE                         4                                  
  100CL  104 78.21578245         930                     2    4MODAL      1
 -4  DISP        4    1
 -5  D1          1    2    1    0
 -5  D2          1    2    2    0
 -5  D3          1    2    3    0
 -5  ALL         1    2    0    0    1ALL
 -1       404 0.00000E+00 0.00000E+00 8.16304E-05
 -1       406 0.00000E+00-0.00000E+00-8.16304E-05
 -1       407-2.00505E-02 1.41911E-01 1.64750E-03
 -1       409-2.00493E-02 1.41604E-01 1.64723E-03
 -1       410-6.50216E-14 1.41827E-01-6.62642E-13
 -1       412-6.14380E-14 1.41690E-01-6.62499E-13
 -1       413 9.58232E-04 1.41758E-01-4.36513E-05
 -1       415-9.58232E-04 1.41758E-01 4.36513E-05
 -1       424 0.00000E+00 0.00000E+00-2.38087E-16
 -1       426 0.00000E+00 0.00000E+00 2.38087E-16
 -1       427 0.00000E+00-1.51670E-16 0.00000E+00
 -1       429 0.00000E+00 1.51670E-16 0.00000E+00
 -1       438 2.00505E-02 1.41911E-01-1.64750E-03
 -1       440 2.00493E-02 1.41604E-01-1.64723E-03
 -1       441 0.00000E+00 0.00000E+00-8.16304E-05
 -1       443 0.00000E+00-0.00000E+00 8.16304E-05
 -1       444 0.00000E+00 8.84600E-17 0.00000E+00
 -1       446 0.00000E+00-8.84600E-17 0.00000E+00
 -1       447 0.00000E+00 0.00000E+00-1.38862E-16
 -1       449 0.00000E+00 0.00000E+00 1.38862E-16
 -1       458 9.58232E-04 1.41758E-01 4.36513E-05
 -1       460-9.58232E-04 1.41758E-01-4.36513E-05
 -1       461 4.38894E-14 1.41827E-01-6.61277E-13
 -1       463 4.03523E-14 1.41690E-01-6.60742E-13
 -1       472 0.00000E+00 0.00000E+00 8.16304E-05
 -1       474 0.00000E+00 0.00000E+00-8.16304E-05
 -1       475 2.00505E-02 1.41911E-01 1.64750E-03
 -1       477 2.00493E-02 1.41604E-01 1.64723E-03
 -1       478-2.00505E-02 1.41911E-01-1.64750E-03
 -1       480-2.00493E-02 1.41604E-01-1.64723E-03
 -1       481 0.00000E+00 0.00000E+00-8.16304E-05
 -1       483 0.00000E+00 0.00000E+00 8.16304E-05
 -1       484 2.85610E-03-2.24936E-03 3.61444E-04
 -1       486 2.77544E-03-2.29993E-03 2.78705E-04
 -1       487 5.10643E-03-6.75949E-03 8.06313E-04
 -1       489 5.06666E-03-6.86395E-03 7.16347E-04
 -1       490 6.96325E-03-1.38297E-02 1.16448E-03
 -1       492 6.90511E-03-1.39867E-02 1.09986E-03
 -1       493 8.28892E-03-2.25290E-02 1.54310E-03
 -1       495 8.24191E-03-2.27389E-02 1.50314E-03
 -1       496 9.16485E-03-3.25120E-02 1.90022E-03
 -1       498 9.11555E-03-3.27712E-02 1.86869E-03
 -1       499 9.57973E-03-4.31679E-02 2.23465E-03
 -1       501 9.53544E-03-4.34744E-02 2.23293E-03
 -1       502 9.55681E-03-5.40495E-02 2.55399E-03
 -1       504 9.51500E-03-5.43994E-02 2.55804E-03
 -1       505 9.12812E-03-6.46520E-02 2.83640E-03
 -1       507 9.09085E-03-6.50415E-02 2.86664E-03
 -1       508 8.31701E-03-7.45554E-02 3.09568E-03
 -1       510 8.28419E-03-7.49800E-02 3.13167E-03
 -1       511 7.16829E-03-8.33423E-02 3.31133E-03
 -1       513 7.14069E-03-8.37972E-02 3.36777E-03
 -1       514 5.71774E-03-9.06646E-02 3.49459E-03
 -1       516 5.69567E-03-9.11447E-02 3.55597E-03
 -1       517 4.01655E-03-9.62063E-02 3.63046E-03
 -1       519 4.00036E-03-9.67060E-02 3.70626E-03
 -1       520 2.11080E-03-9.97175E-02 3.72749E-03
 -1       522 2.10067E-03-1.00231E-01 3.80615E-03
 -1       523 5.54339E-05-1.00997E-01 3.77618E-03
 -1       525 5.14214E-05-1.01519E-01 3.86343E-03
 -1       526-2.09825E-03-9.99086E-02 3.78385E-03
 -1       528-2.09622E-03-1.00434E-01 3.87097E-03
 -1       529-4.29509E-03-9.63726E-02 3.74574E-03
 -1       531-4.28728E-03-9.68957E-02 3.83603E-03
 -1       532-6.48411E-03-9.03713E-02 3.66915E-03
 -1       534-6.47089E-03-9.08872E-02 3.75598E-03
 -1       535-8.61450E-03-8.19425E-02 3.55333E-03
 -1       537-8.59643E-03-8.24466E-02 3.63858E-03
 -1       538-1.06411E-02-7.11793E-02 3.40632E-03
 -1       540-1.06189E-02-7.16679E-02 3.48498E-03
 -1       541-1.25224E-02-5.82228E-02 3.23064E-03
 -1       543-1.24968E-02-5.86928E-02 3.30394E-03
 -1       544-1.42242E-02-4.32575E-02 3.03531E-03
 -1       546-1.41962E-02-4.37065E-02 3.09960E-03
 -1       547-1.57188E-02-2.65023E-02 2.82536E-03
 -1       549-1.56894E-02-2.69290E-02 2.88176E-03
 -1       550-1.69875E-02-8.20292E-03 2.61065E-03
 -1       552-1.69579E-02-8.60689E-03 2.65677E-03
 -1       553-1.80206E-02 1.13790E-02 2.39783E-03
 -1       555-1.79919E-02 1.09973E-02 2.43504E-03
 -1       556-1.88183E-02 3.19757E-02 2.19713E-03
 -1       558-1.87918E-02 3.16146E-02 2.22428E-03
 -1       559-1.93914E-02 5.33257E-02 2.01573E-03
 -1       561-1.93681E-02 5.29829E-02 2.03466E-03
 -1       562-1.97618E-02 7.51845E-02 1.86364E-03
 -1       564-1.97432E-02 7.48568E-02 1.87445E-03
 -1       565-1.99633E-02 9.73398E-02 1.74673E-03
 -1       567-1.99497E-02 9.70235E-02 1.75182E-03
 -1       568-2.00384E-02 1.19618E-01 1.67487E-03
 -1       570-2.00321E-02 1.19309E-01 1.67553E-03
 -1       571-1.00226E-02 1.41893E-01 6.82227E-04
 -1       573-1.00218E-02 1.41621E-01 6.82753E-04
 -1       574-8.93247E-15-1.71480E-03-1.22060E-14
 -1       576-5.83913E-15-1.77050E-03-1.19656E-14
 -1       577-1.56003E-04-1.74265E-03-1.77414E-05
 -1       579 1.56003E-04-1.74265E-03 1.77414E-05
 -1       588-1.39762E-14-6.54581E-03-2.73025E-14
 -1       590-1.27147E-14-6.67349E-03-2.71747E-14
 -1       591-2.66929E-04-6.60965E-03-4.06677E-05
 -1       593 2.66929E-04-6.60965E-03 4.06677E-05
 -1       602-2.00191E-14-1.35713E-02-4.08858E-14
 -1       604-1.77693E-14-1.37628E-02-4.06670E-14
 -1       605-3.46392E-04-1.36670E-02-6.09989E-05
 -1       607 3.46392E-04-1.36670E-02 6.09989E-05
 -1       616-2.53679E-14-2.23648E-02-5.68010E-14
 -1       618-2.32894E-14-2.26228E-02-5.66048E-14
 -1       619-4.17477E-04-2.24938E-02-8.21624E-05
 -1       621 4.17477E-04-2.24938E-02 8.21624E-05
 -1       630-3.05464E-14-3.23923E-02-7.63125E-14
 -1       632-2.74141E-14-3.27134E-02-7.63501E-14
 -1       633-4.53213E-04-3.25529E-02-1.02291E-04
 -1       635 4.53213E-04-3.25529E-02 1.02291E-04
 -1       644-3.39791E-14-4.31052E-02-1.00552E-13
 -1       646-3.05231E-14-4.34872E-02-1.00578E-13
 -1       647-4.75554E-04-4.32962E-02-1.21686E-04
 -1       649 4.75554E-04-4.32962E-02 1.21686E-04
 -1       658-3.62207E-14-5.40356E-02-1.26160E-13
 -1       660-3.28742E-14-5.44750E-02-1.25951E-13
 -1       661-4.71736E-04-5.42553E-02-1.39960E-04
 -1       663 4.71736E-04-5.42553E-02 1.39960E-04
 -1       672-3.79544E-14-6.46864E-02-1.49059E-13
 -1       674-3.53979E-14-6.51781E-02-1.48626E-13
 -1       675-4.50804E-04-6.49323E-02-1.56618E-04
 -1       677 4.50804E-04-6.49323E-02 1.56618E-04
 -1       686-4.07292E-14-7.46312E-02-1.69785E-13
 -1       688-3.79240E-14-7.51700E-02-1.70075E-13
 -1       689-4.10335E-04-7.49006E-02-1.71624E-04
 -1       691 4.10335E-04-7.49006E-02 1.71624E-04
 -1       700-4.39610E-14-8.34579E-02-1.95501E-13
 -1       702-4.01069E-14-8.40367E-02-1.95034E-13
 -1       703-3.53820E-04-8.37473E-02-1.84374E-04
 -1       705 3.53820E-04-8.37473E-02 1.84374E-04
 -1       714-4.58449E-14-9.08126E-02-2.24181E-13
 -1       716-4.19658E-14-9.14245E-02-2.24474E-13
 -1       717-2.82788E-04-9.11185E-02-1.94903E-04
 -1       719 2.82788E-04-9.11185E-02 1.94903E-04
 -1       728-4.65745E-14-9.63835E-02-2.52103E-13
 -1       730-4.30445E-14-9.70200E-02-2.52326E-13
 -1       731-1.99425E-04-9.67018E-02-2.02727E-04
 -1       733 1.99425E-04-9.67018E-02 2.02727E-04
 -1       742-4.68502E-14-9.99170E-02-2.76986E-13
 -1       744-4.37522E-14-1.00570E-01-2.77501E-13
 -1       745-1.06444E-04-1.00243E-01-2.07910E-04
 -1       747 1.06444E-04-1.00243E-01 2.07910E-04
 -1       756-4.68227E-14-1.01214E-01-2.99638E-13
 -1       758-4.40968E-14-1.01874E-01-2.99438E-13
 -1       759-6.02093E-06-1.01544E-01-2.10159E-04
 -1       761 6.02093E-06-1.01544E-01 2.10159E-04
 -1       770-4.70790E-14-1.00138E-01-3.20905E-13
 -1       772-4.40825E-14-1.00796E-01-3.21039E-13
 -1       773 9.88942E-05-1.00467E-01-2.09593E-04
 -1       775-9.88942E-05-1.00467E-01 2.09593E-04
 -1       784-4.71823E-14-9.66085E-02-3.42298E-13
 -1       786-4.43825E-14-9.72557E-02-3.42148E-13
 -1       787 2.06000E-04-9.69321E-02-2.06127E-04
 -1       789-2.06000E-04-9.69321E-02 2.06127E-04
 -1       798-4.67174E-14-9.06085E-02-3.61089E-13
 -1       800-4.43018E-14-9.12363E-02-3.61673E-13
 -1       801 3.12491E-04-9.09224E-02-1.99967E-04
 -1       803-3.12491E-04-9.09224E-02 1.99967E-04
 -1       812-4.62628E-14-8.21766E-02-3.79260E-13
 -1       814-4.39099E-14-8.27769E-02-3.78904E-13
 -1       815 4.16146E-04-8.24768E-02-1.91228E-04
 -1       817-4.16146E-04-8.24768E-02 1.91228E-04
 -1       826-4.70066E-14-7.14058E-02-3.98998E-13
 -1       828-4.39345E-14-7.19716E-02-3.98839E-13
 -1       829 5.14550E-04-7.16887E-02-1.80223E-04
 -1       831-5.14550E-04-7.16887E-02 1.80223E-04
 -1       840-4.85648E-14-5.84382E-02-4.21214E-13
 -1       842-4.54174E-14-5.89633E-02-4.21220E-13
 -1       843 6.05838E-04-5.87008E-02-1.67251E-04
 -1       845-6.05838E-04-5.87008E-02 1.67251E-04
 -1       854-5.04320E-14-4.34589E-02-4.43072E-13
 -1       856-4.75869E-14-4.39383E-02-4.43268E-13
 -1       857 6.88192E-04-4.36986E-02-1.52726E-04
 -1       859-6.88192E-04-4.36986E-02 1.52726E-04
 -1       868-5.29106E-14-2.66875E-02-4.65628E-13
 -1       870-4.97659E-14-2.71180E-02-4.65317E-13
 -1       871 7.60378E-04-2.69027E-02-1.37113E-04
 -1       873-7.60378E-04-2.69027E-02 1.37113E-04
 -1       882-5.55859E-14-8.37074E-03-4.90391E-13
 -1       884-5.19253E-14-8.75033E-03-4.90407E-13
 -1       885 8.21333E-04-8.56054E-03-1.20908E-04
 -1       887-8.21333E-04-8.56054E-03 1.20908E-04
 -1       896-5.77423E-14 1.12291E-02-5.16125E-13
 -1       898-5.43512E-14 1.09003E-02-5.16256E-13
 -1       899 8.70723E-04 1.10647E-02-1.04714E-04
 -1       901-8.70723E-04 1.10647E-02 1.04714E-04
 -1       910-5.92984E-14 3.18429E-02-5.41028E-13
 -1       912-5.59875E-14 3.15632E-02-5.40749E-13
 -1       913 9.08301E-04 3.17030E-02-8.90881E-05
 -1       915-9.08301E-04 3.17030E-02 8.90881E-05
 -1       924-6.03404E-14 5.32088E-02-5.64443E-13
 -1       926-5.73879E-14 5.29742E-02-5.64272E-13
 -1       927 9.34922E-04 5.30915E-02-7.47347E-05
 -1       929-9.34922E-04 5.30915E-02 7.47347E-05
 -1       938-6.18066E-14 7.50811E-02-5.87431E-13
 -1       940-5.85596E-14 7.48856E-02-5.87487E-13
 -1       941 9.51069E-04 7.49833E-02-6.22728E-05
 -1       943-9.51069E-04 7.49833E-02 6.22728E-05
 -1       952-6.33851E-14 9.72466E-02-6.12162E-13
 -1       954-5.97589E-14 9.70819E-02-6.12178E-13
 -1       955 9.59124E-04 9.71642E-02-5.24410E-05
 -1       957-9.59124E-04 9.71642E-02 5.24410E-05
 -1       966-6.42793E-14 1.19533E-01-6.37759E-13
 -1       968-6.09916E-14 1.19388E-01-6.37104E-13
 -1       969 9.60048E-04 1.19461E-01-4.60368E-05
 -1       971-9.60048E-04 1.19461E-01 4.60368E-05
 -1       980 0.00000E+00 0.00000E+00 3.38494E-05
 -1       982 0.00000E+00-0.00000E+00-3.38494E-05
 -1       983 1.00226E-02 1.41893E-01-6.82227E-04
 -1       985 1.00218E-02 1.41621E-01-6.82753E-04
 -1       986-2.85610E-03-2.24936E-03-3.61444E-04
 -1       988-2.77544E-03-2.29993E-03-2.78705E-04
 -1       989-5.10643E-03-6.75949E-03-8.06313E-04
 -1       991-5.06666E-03-6.86395E-03-7.16347E-04
 -1       992-6.96325E-03-1.38297E-02-1.16448E-03
 -1       994-6.90511E-03-1.39867E-02-1.09986E-03
 -1       995-8.28892E-03-2.25290E-02-1.54310E-03
 -1       997-8.24191E-03-2.27389E-02-1.50314E-03
 -1       998-9.16485E-03-3.25120E-02-1.90022E-03
 -1      1000-9.11555E-03-3.27712E-02-1.86869E-03
 -1      1001-9.57973E-03-4.31679E-02-2.23465E-03
 -1      1003-9.53544E-03-4.34744E-02-2.23293E-03
 -1      1004-9.55681E-03-5.40495E-02-2.55399E-03
 -1      1006-9.51500E-03-5.43994E-02-2.55804E-03
 -1      1007-9.12812E-03-6.46520E-02-2.83640E-03
 -1      1009-9.09085E-03-6.50415E-02-2.86664E-03
 -1      1010-8.31701E-03-7.45554E-02-3.09568E-03
 -1      1012-8.28419E-03-7.49800E-02-3.13167E-03
 -1      1013-7.16829E-03-8.33423E-02-3.31133E-03
 -1      1015-7.14069E-03-8.37972E-02-3.36777E-03
 -1      1016-5.71774E-03-9.06646E-02-3.49459E-03
 -1      1018-5.69567E-03-9.11447E-02-3.55597E-03
 -1      1019-4.01655E-03-9.62063E-02-3.63046E-03
 -1      1021-4.00036E-03-9.67060E-02-3.70626E-03
 -1      1022-2.11080E-03-9.97175E-02-3.72749E-03
 -1      1024-2.10067E-03-1.00231E-01-3.80615E-03
 -1      1025-5.54339E-05-1.00997E-01-3.77618E-03
 -1      1027-5.14214E-05-1.01519E-01-3.86343E-03
 -1      1028 2.09825E-03-9.99086E-02-3.78385E-03
 -1      1030 2.09622E-03-1.00434E-01-3.87097E-03
 -1      1031 4.29509E-03-9.63726E-02-3.74574E-03
 -1      1033 4.28728E-03-9.68957E-02-3.83603E-03
 -1      1034 6.48411E-03-9.03713E-02-3.66915E-03
 -1      1036 6.47089E-03-9.08872E-02-3.75598E-03
 -1      1037 8.61450E-03-8.19425E-02-3.55333E-03
 -1      1039 8.59643E-03-8.24466E-02-3.63858E-03
 -1      1040 1.06411E-02-7.11793E-02-3.40632E-03
 -1      1042 1.06189E-02-7.16679E-02-3.48498E-03
 -1      1043 1.25224E-02-5.82228E-02-3.23064E-03
 -1      1045 1.24968E-02-5.86928E-02-3.30394E-03
 -1      1046 1.42242E-02-4.32575E-02-3.03531E-03
 -1      1048 1.41962E-02-4.37065E-02-3.09960E-03
 -1      1049 1.57188E-02-2.65023E-02-2.82536E-03
 -1      1051 1.56894E-02-2.69290E-02-2.88176E-03
 -1      1052 1.69875E-02-8.20292E-03-2.61065E-03
 -1      1054 1.69579E-02-8.60689E-03-2.65677E-03
 -1      1055 1.80206E-02 1.13790E-02-2.39783E-03
 -1      1057 1.79919E-02 1.09973E-02-2.43504E-03
 -1      1058 1.88183E-02 3.19757E-02-2.19713E-03
 -1      1060 1.87918E-02 3.16146E-02-2.22428E-03
 -1      1061 1.93914E-02 5.33257E-02-2.01573E-03
 -1      1063 1.93681E-02 5.29829E-02-2.03466E-03
 -1      1064 1.97618E-02 7.51845E-02-1.86364E-03
 -1      1066 1.97432E-02 7.48568E-02-1.87445E-03
 -1      1067 1.99633E-02 9.73398E-02-1.74673E-03
 -1      1069 1.99497E-02 9.70235E-02-1.75182E-03
 -1      1070 2.00384E-02 1.19618E-01-1.67487E-03
 -1      1072 2.00321E-02 1.19309E-01-1.67553E-03
 -1      1073 0.00000E+00 0.00000E+00-3.38494E-05
 -1      1075 0.00000E+00-0.00000E+00 3.38494E-05
 -1      1076 0.00000E+00-2.81478E-17 0.00000E+00
 -1      1078 0.00000E+00 2.81478E-17 0.00000E+00
 -1      1079 0.00000E+00 8.76764E-18 0.00000E+00
 -1      1081 0.00000E+00-8.76764E-18 0.00000E+00
 -1      1082 0.00000E+00-6.36058E-18 0.00000E+00
 -1      1084 0.00000E+00 6.36058E-18 0.00000E+00
 -1      1085-1.56003E-04-1.74265E-03 1.77414E-05
 -1      1087 1.56003E-04-1.74265E-03-1.77414E-05
 -1      1088 7.58359E-15-1.71480E-03-8.71444E-15
 -1      1090 5.53548E-15-1.77050E-03-8.30841E-15
 -1      1099-2.66929E-04-6.60965E-03 4.06677E-05
 -1      1101 2.66929E-04-6.60965E-03-4.06677E-05
 -1      1102 1.36926E-14-6.54581E-03-2.29494E-14
 -1      1104 1.18143E-14-6.67349E-03-2.28195E-14
 -1      1113-3.46392E-04-1.36670E-02 6.09989E-05
 -1      1115 3.46392E-04-1.36670E-02-6.09989E-05
 -1      1116 1.95109E-14-1.35713E-02-4.06899E-14
 -1      1118 1.67361E-14-1.37628E-02-4.04154E-14
 -1      1127-4.17477E-04-2.24938E-02 8.21624E-05
 -1      1129 4.17477E-04-2.24938E-02-8.21624E-05
 -1      1130 2.35780E-14-2.23648E-02-6.05931E-14
 -1      1132 2.10044E-14-2.26228E-02-6.04386E-14
 -1      1141-4.53213E-04-3.25529E-02 1.02291E-04
 -1      1143 4.53213E-04-3.25529E-02-1.02291E-04
 -1      1144 2.73583E-14-3.23923E-02-8.21593E-14
 -1      1146 2.42107E-14-3.27134E-02-8.17166E-14
 -1      1155-4.75554E-04-4.32962E-02 1.21686E-04
 -1      1157 4.75554E-04-4.32962E-02-1.21686E-04
 -1      1158 2.99528E-14-4.31052E-02-1.04393E-13
 -1      1160 2.70381E-14-4.34872E-02-1.04412E-13
 -1      1169-4.71736E-04-5.42553E-02 1.39960E-04
 -1      1171 4.71736E-04-5.42553E-02-1.39960E-04
 -1      1172 3.24392E-14-5.40356E-02-1.24561E-13
 -1      1174 2.99833E-14-5.44750E-02-1.24677E-13
 -1      1183-4.50804E-04-6.49323E-02 1.56618E-04
 -1      1185 4.50804E-04-6.49323E-02-1.56618E-04
 -1      1186 3.57761E-14-6.46864E-02-1.44665E-13
 -1      1188 3.28020E-14-6.51781E-02-1.44840E-13
 -1      1197-4.10335E-04-7.49006E-02 1.71624E-04
 -1      1199 4.10335E-04-7.49006E-02-1.71624E-04
 -1      1200 3.87063E-14-7.46312E-02-1.69928E-13
 -1      1202 3.47591E-14-7.51700E-02-1.69467E-13
 -1      1211-3.53820E-04-8.37473E-02 1.84374E-04
 -1      1213 3.53820E-04-8.37473E-02-1.84374E-04
 -1      1214 4.00725E-14-8.34579E-02-1.97596E-13
 -1      1216 3.60996E-14-8.40367E-02-1.97852E-13
 -1      1225-2.82788E-04-9.11185E-02 1.94903E-04
 -1      1227 2.82788E-04-9.11185E-02-1.94903E-04
 -1      1228 4.07426E-14-9.08126E-02-2.23705E-13
 -1      1230 3.73737E-14-9.14245E-02-2.23368E-13
 -1      1239-1.99425E-04-9.67018E-02 2.02727E-04
 -1      1241 1.99425E-04-9.67018E-02-2.02727E-04
 -1      1242 4.15563E-14-9.63835E-02-2.47171E-13
 -1      1244 3.82679E-14-9.70200E-02-2.46767E-13
 -1      1253-1.06444E-04-1.00243E-01 2.07910E-04
 -1      1255 1.06444E-04-1.00243E-01-2.07910E-04
 -1      1256 4.15070E-14-9.99170E-02-2.69786E-13
 -1      1258 3.83423E-14-1.00570E-01-2.69581E-13
 -1      1267-6.02093E-06-1.01544E-01 2.10159E-04
 -1      1269 6.02093E-06-1.01544E-01-2.10159E-04
 -1      1270 4.07357E-14-1.01214E-01-2.92623E-13
 -1      1272 3.75177E-14-1.01874E-01-2.92680E-13
 -1      1281 9.88942E-05-1.00467E-01 2.09593E-04
 -1      1283-9.88942E-05-1.00467E-01-2.09593E-04
 -1      1284 3.94510E-14-1.00138E-01-3.14907E-13
 -1      1286 3.65038E-14-1.00796E-01-3.14756E-13
 -1      1295 2.06000E-04-9.69321E-02 2.06127E-04
 -1      1297-2.06000E-04-9.69321E-02-2.06127E-04
 -1      1298 3.83432E-14-9.66085E-02-3.33987E-13
 -1      1300 3.60886E-14-9.72557E-02-3.34159E-13
 -1      1309 3.12491E-04-9.09224E-02 1.99967E-04
 -1      1311-3.12491E-04-9.09224E-02-1.99967E-04
 -1      1312 3.86006E-14-9.06085E-02-3.53565E-13
 -1      1314 3.57011E-14-9.12363E-02-3.53196E-13
 -1      1323 4.16146E-04-8.24768E-02 1.91228E-04
 -1      1325-4.16146E-04-8.24768E-02-1.91228E-04
 -1      1326 3.94327E-14-8.21766E-02-3.75733E-13
 -1      1328 3.62498E-14-8.27769E-02-3.75906E-13
 -1      1337 5.14550E-04-7.16887E-02 1.80223E-04
 -1      1339-5.14550E-04-7.16887E-02-1.80223E-04
 -1      1340 4.04717E-14-7.14058E-02-3.98827E-13
 -1      1342 3.74868E-14-7.19716E-02-3.99014E-13
 -1      1351 6.05838E-04-5.87008E-02 1.67251E-04
 -1      1353-6.05838E-04-5.87008E-02-1.67251E-04
 -1      1354 4.17525E-14-5.84382E-02-4.22097E-13
 -1      1356 3.86866E-14-5.89633E-02-4.21791E-13
 -1      1365 6.88192E-04-4.36986E-02 1.52726E-04
 -1      1367-6.88192E-04-4.36986E-02-1.52726E-04
 -1      1368 4.24330E-14-4.34589E-02-4.44694E-13
 -1      1370 3.94494E-14-4.39383E-02-4.44786E-13
 -1      1379 7.60378E-04-2.69027E-02 1.37113E-04
 -1      1381-7.60378E-04-2.69027E-02-1.37113E-04
 -1      1382 4.26830E-14-2.66875E-02-4.65381E-13
 -1      1384 4.01535E-14-2.71180E-02-4.65353E-13
 -1      1393 8.21333E-04-8.56054E-03 1.20908E-04
 -1      1395-8.21333E-04-8.56054E-03-1.20908E-04
 -1      1396 4.29537E-14-8.37074E-03-4.84797E-13
 -1      1398 4.03581E-14-8.75033E-03-4.84731E-13
 -1      1407 8.70723E-04 1.10647E-02 1.04714E-04
 -1      1409-8.70723E-04 1.10647E-02-1.04714E-04
 -1      1410 4.32486E-14 1.12291E-02-5.07660E-13
 -1      1412 3.96608E-14 1.09003E-02-5.07424E-13
 -1      1421 9.08301E-04 3.17030E-02 8.90881E-05
 -1      1423-9.08301E-04 3.17030E-02-8.90881E-05
 -1      1424 4.28208E-14 3.18429E-02-5.33768E-13
 -1      1426 3.91483E-14 3.15632E-02-5.34097E-13
 -1      1435 9.34922E-04 5.30915E-02 7.47347E-05
 -1      1437-9.34922E-04 5.30915E-02-7.47347E-05
 -1      1438 4.23814E-14 5.32088E-02-5.59003E-13
 -1      1440 3.92061E-14 5.29742E-02-5.59131E-13
 -1      1449 9.51069E-04 7.49833E-02 6.22728E-05
 -1      1451-9.51069E-04 7.49833E-02-6.22728E-05
 -1      1452 4.23951E-14 7.50811E-02-5.82683E-13
 -1      1454 3.93174E-14 7.48856E-02-5.82656E-13
 -1      1463 9.59124E-04 9.71642E-02 5.24410E-05
 -1      1465-9.59124E-04 9.71642E-02-5.24410E-05
 -1      1466 4.31671E-14 9.72466E-02-6.07925E-13
 -1      1468 3.95584E-14 9.70819E-02-6.07491E-13
 -1      1477 9.60048E-04 1.19461E-01 4.60368E-05
 -1      1479-9.60048E-04 1.19461E-01-4.60368E-05
 -1      1480 4.36948E-14 1.19533E-01-6.34064E-13
 -1      1482 4.00264E-14 1.19388E-01-6.34997E-13
 -1      1491 9.58787E-04 1.41199E-01-5.18017E-06
 -1      1493-9.58787E-04 1.41199E-01 5.18017E-06
 -1      1494 9.59342E-04 1.41136E-01-7.68323E-13
 -1      1496-9.59342E-04 1.41136E-01-5.55233E-13
 -1      1497 9.58787E-04 1.41199E-01 5.18017E-06
 -1      1499-9.58787E-04 1.41199E-01-5.18017E-06
 -1      1500-2.85610E-03-2.24936E-03 3.61444E-04
 -1      1502-2.77544E-03-2.29993E-03 2.78705E-04
 -1      1503-5.10643E-03-6.75949E-03 8.06313E-04
 -1      1505-5.06666E-03-6.86395E-03 7.16347E-04
 -1      1506-6.96325E-03-1.38297E-02 1.16448E-03
 -1      1508-6.90511E-03-1.39867E-02 1.09986E-03
 -1      1509-8.28892E-03-2.25290E-02 1.54310E-03
 -1      1511-8.24191E-03-2.27389E-02 1.50314E-03
 -1      1512-9.16485E-03-3.25120E-02 1.90022E-03
 -1      1514-9.11555E-03-3.27712E-02 1.86869E-03
 -1      1515-9.57973E-03-4.31679E-02 2.23465E-03
 -1      1517-9.53544E-03-4.34744E-02 2.23293E-03
 -1      1518-9.55681E-03-5.40495E-02 2.55399E-03
 -1      1520-9.51500E-03-5.43994E-02 2.55804E-03
 -1      1521-9.12812E-03-6.46520E-02 2.83640E-03
 -1      1523-9.09085E-03-6.50415E-02 2.86664E-03
 -1      1524-8.31701E-03-7.45554E-02 3.09568E-03
 -1      1526-8.28419E-03-7.49800E-02 3.13167E-03
 -1      1527-7.16829E-03-8.33423E-02 3.31133E-03
 -1      1529-7.14069E-03-8.37972E-02 3.36777E-03
 -1      1530-5.71774E-03-9.06646E-02 3.49459E-03
 -1      1532-5.69567E-03-9.11447E-02 3.55597E-03
 -1      1533-4.01655E-03-9.62063E-02 3.63046E-03
 -1      1535-4.00036E-03-9.67060E-02 3.70626E-03
 -1      1536-2.11080E-03-9.97175E-02 3.72749E-03
 -1      1538-2.10067E-03-1.00231E-01 3.80615E-03
 -1      1539-5.54339E-05-1.00997E-01 3.77618E-03
 -1      1541-5.14214E-05-1.01519E-01 3.86343E-03
 -1      1542 2.09825E-03-9.99086E-02 3.78385E-03
 -1      1544 2.09622E-03-1.00434E-01 3.87097E-03
 -1      1545 4.29509E-03-9.63726E-02 3.74574E-03
 -1      1547 4.28728E-03-9.68957E-02 3.83603E-03
 -1      1548 6.48411E-03-9.03713E-02 3.66915E-03
 -1      1550 6.47089E-03-9.08872E-02 3.75598E-03
 -1      1551 8.61450E-03-8.19425E-02 3.55333E-03
 -1      1553 8.59643E-03-8.24466E-02 3.63858E-03
 -1      1554 1.06411E-02-7.11793E-02 3.40632E-03
 -1      1556 1.06189E-02-7.16679E-02 3.48498E-03
 -1      1557 1.25224E-02-5.82228E-02 3.23064E-03
 -1      1559 1.24968E-02-5.86928E-02 3.30394E-03
 -1      1560 1.42242E-02-4.32575E-02 3.03531E-03
 -1      1562 1.41962E-02-4.37065E-02 3.09960E-03
 -1      1563 1.57188E-02-2.65023E-02 2.82536E-03
 -1      1565 1.56894E-02-2.69290E-02 2.88176E-03
 -1      1566 1.69875E-02-8.20292E-03 2.61065E-03
 -1      1568 1.69579E-02-8.60689E-03 2.65677E-03
 -1      1569 1.80206E-02 1.13790E-02 2.39783E-03
 -1      1571 1.79919E-02 1.09973E-02 2.43504E-03
 -1      1572 1.88183E-02 3.19757E-02 2.19713E-03
 -1      1574 1.87918E-02 3.16146E-02 2.22428E-03
 -1      1575 1.93914E-02 5.33257E-02 2.01573E-03
 -1      1577 1.93681E-02 5.29829E-02 2.03466E-03
 -1      1578 1.97618E-02 7.51845E-02 1.86364E-03
 -1      1580 1.97432E-02 7.48568E-02 1.87445E-03
 -1      1581 1.99633E-02 9.73398E-02 1.74673E-03
 -1      1583 1.99497E-02 9.70235E-02 1.75182E-03
 -1      1584 2.00384E-02 1.19618E-01 1.67487E-03
 -1      1586 2.00321E-02 1.19309E-01 1.67553E-03
 -1      1587 1.00226E-02 1.41893E-01 6.82227E-04
 -1      1589 1.00218E-02 1.41621E-01 6.82753E-04
 -1      1590 0.00000E+00 0.00000E+00 3.38494E-05
 -1      1592 0.00000E+00 0.00000E+00-3.38494E-05
 -1      1593-1.00226E-02 1.41893E-01-6.82227E-04
 -1      1595-1.00218E-02 1.41621E-01-6.82753E-04
 -1      1596 2.85610E-03-2.24936E-03-3.61444E-04
 -1      1598 2.77544E-03-2.29993E-03-2.78705E-04
 -1      1599 5.10643E-03-6.75949E-03-8.06313E-04
 -1      1601 5.06666E-03-6.86395E-03-7.16347E-04
 -1      1602 6.96325E-03-1.38297E-02-1.16448E-03
 -1      1604 6.90511E-03-1.39867E-02-1.09986E-03
 -1      1605 8.28892E-03-2.25290E-02-1.54310E-03
 -1      1607 8.24191E-03-2.27389E-02-1.50314E-03
 -1      1608 9.16485E-03-3.25120E-02-1.90022E-03
 -1      1610 9.11555E-03-3.27712E-02-1.86869E-03
 -1      1611 9.57973E-03-4.31679E-02-2.23465E-03
 -1      1613 9.53544E-03-4.34744E-02-2.23293E-03
 -1      1614 9.55681E-03-5.40495E-02-2.55399E-03
 -1      1616 9.51500E-03-5.43994E-02-2.55804E-03
 -1      1617 9.12812E-03-6.46520E-02-2.83640E-03
 -1      1619 9.09085E-03-6.50415E-02-2.86664E-03
 -1      1620 8.31701E-03-7.45554E-02-3.09568E-03
 -1      1622 8.28419E-03-7.49800E-02-3.13167E-03
 -1      1623 7.16829E-03-8.33423E-02-3.31133E-03
 -1      1625 7.14069E-03-8.37972E-02-3.36777E-03
 -1      1626 5.71774E-03-9.06646E-02-3.49459E-03
 -1      1628 5.69567E-03-9.11447E-02-3.55597E-03
 -1      1629 4.01655E-03-9.62063E-02-3.63046E-03
 -1      1631 4.00036E-03-9.67060E-02-3.70626E-03
 -1      1632 2.11080E-03-9.97175E-02-3.72749E-03
 -1      1634 2.10067E-03-1.00231E-01-3.80615E-03
 -1      1635 5.54339E-05-1.00997E-01-3.77618E-03
 -1      1637 5.14214E-05-1.01519E-01-3.86343E-03
 -1      1638-2.09825E-03-9.99086E-02-3.78385E-03
 -1      1640-2.09622E-03-1.00434E-01-3.87097E-03
 -1      1641-4.29509E-03-9.63726E-02-3.74574E-03
 -1      1643-4.28728E-03-9.68957E-02-3.83603E-03
 -1      1644-6.48411E-03-9.03713E-02-3.66915E-03
 -1      1646-6.47089E-03-9.08872E-02-3.75598E-03
 -1      1647-8.61450E-03-8.19425E-02-3.55333E-03
 -1      1649-8.59643E-03-8.24466E-02-3.63858E-03
 -1      1650-1.06411E-02-7.11793E-02-3.40632E-03
 -1      1652-1.06189E-02-7.16679E-02-3.48498E-03
 -1      1653-1.25224E-02-5.82228E-02-3.23064E-03
 -1      1655-1.24968E-02-5.86928E-02-3.30394E-03
 -1      1656-1.42242E-02-4.32575E-02-3.03531E-03
 -1      1658-1.41962E-02-4.37065E-02-3.09960E-03
 -1      1659-1.57188E-02-2.65023E-02-2.82536E-03
 -1      1661-1.56894E-02-2.69290E-02-2.88176E-03
 -1      1662-1.69875E-02-8.20292E-03-2.61065E-03
 -1      1664-1.69579E-02-8.60689E-03-2.65677E-03
 -1      1665-1.80206E-02 1.13790E-02-2.39783E-03
 -1      1667-1.79919E-02 1.09973E-02-2.43504E-03
 -1      1668-1.88183E-02 3.19757E-02-2.19713E-03
 -1      1670-1.87918E-02 3.16146E-02-2.22428E-03
 -1      1671-1.93914E-02 5.33257E-02-2.01573E-03
 -1      1673-1.93681E-02 5.29829E-02-2.03466E-03
 -1      1674-1.97618E-02 7.51845E-02-1.86364E-03
 -1      1676-1.97432E-02 7.48568E-02-1.87445E-03
 -1      1677-1.99633E-02 9.73398E-02-1.74673E-03
 -1      1679-1.99497E-02 9.70235E-02-1.75182E-03
 -1      1680-2.00384E-02 1.19618E-01-1.67487E-03
 -1      1682-2.00321E-02 1.19309E-01-1.67553E-03
 -1      1683 0.00000E+00 0.00000E+00-3.38494E-05
 -1      1685 0.00000E+00 0.00000E+00 3.38494E-05
 -1      1686 1.31439E-03-1.83487E-03 1.89646E-04
 -1      1688 1.27049E-03-1.87862E-03 1.36366E-04
 -1      1689 2.53413E-03-6.62878E-03 4.21208E-04
 -1      1691 2.51298E-03-6.74020E-03 3.81303E-04
 -1      1692 3.40863E-03-1.36215E-02 6.10526E-04
 -1      1694 3.37735E-03-1.37878E-02 5.77244E-04
 -1      1695 4.09792E-03-2.24349E-02 8.13557E-04
 -1      1697 4.07249E-03-2.26573E-02 7.91008E-04
 -1      1698 4.52855E-03-3.24243E-02 9.99704E-04
 -1      1700 4.50192E-03-3.27002E-02 9.87076E-04
 -1      1701 4.73998E-03-4.31477E-02 1.18262E-03
 -1      1703 4.71582E-03-4.34733E-02 1.17770E-03
 -1      1704 4.73255E-03-5.40553E-02 1.34987E-03
 -1      1706 4.70981E-03-5.44281E-02 1.35497E-03
 -1      1707 4.52017E-03-6.47066E-02 1.50517E-03
 -1      1709 4.49976E-03-6.51214E-02 1.51701E-03
 -1      1710 4.12029E-03-7.46382E-02 1.64189E-03
 -1      1712 4.10238E-03-7.50911E-02 1.66186E-03
 -1      1713 3.54956E-03-8.34612E-02 1.76014E-03
 -1      1715 3.53449E-03-8.39464E-02 1.78612E-03
 -1      1716 2.83029E-03-9.08075E-02 1.85657E-03
 -1      1718 2.81833E-03-9.13196E-02 1.88828E-03
 -1      1719 1.98475E-03-9.63740E-02 1.92994E-03
 -1      1721 1.97609E-03-9.69067E-02 1.96638E-03
 -1      1722 1.03808E-03-9.99015E-02 1.97920E-03
 -1      1724 1.03287E-03-1.00449E-01 2.01892E-03
 -1      1725 1.61328E-05-1.01195E-01 2.00310E-03
 -1      1727 1.44071E-05-1.01750E-01 2.04577E-03
 -1      1728-1.05456E-03-1.00114E-01 2.00238E-03
 -1      1730-1.05282E-03-1.00671E-01 2.04597E-03
 -1      1731-2.14726E-03-9.65809E-02 1.97654E-03
 -1      1733-2.14217E-03-9.71334E-02 2.02107E-03
 -1      1734-3.23615E-03-9.05773E-02 1.92786E-03
 -1      1736-3.22791E-03-9.11196E-02 1.97116E-03
 -1      1737-4.29627E-03-8.21424E-02 1.85699E-03
 -1      1739-4.28519E-03-8.26692E-02 1.89923E-03
 -1      1740-5.30501E-03-7.13686E-02 1.76749E-03
 -1      1742-5.29144E-03-7.18753E-02 1.80670E-03
 -1      1743-6.24181E-03-5.83983E-02 1.66129E-03
 -1      1745-6.22624E-03-5.88811E-02 1.69776E-03
 -1      1746-7.08968E-03-4.34161E-02 1.54302E-03
 -1      1748-7.07262E-03-4.38722E-02 1.57513E-03
 -1      1749-7.83488E-03-2.66422E-02 1.41577E-03
 -1      1751-7.81694E-03-2.70696E-02 1.44399E-03
 -1      1752-8.46822E-03-8.32242E-03 1.28499E-03
 -1      1754-8.45006E-03-8.72065E-03 1.30815E-03
 -1      1755-8.98477E-03 1.12801E-02 1.15462E-03
 -1      1757-8.96705E-03 1.09106E-02 1.17347E-03
 -1      1758-9.38483E-03 3.18972E-02 1.03070E-03
 -1      1760-9.36832E-03 3.15547E-02 1.04455E-03
 -1      1761-9.67384E-03 5.32659E-02 9.17527E-04
 -1      1763-9.65920E-03 5.29474E-02 9.27502E-04
 -1      1764-9.86267E-03 7.51417E-02 8.21612E-04
 -1      1766-9.85082E-03 7.48430E-02 8.27481E-04
 -1      1767-9.96812E-03 9.73096E-02 7.46679E-04
 -1      1769-9.95937E-03 9.70257E-02 7.50005E-04
 -1      1770-1.00128E-02 1.19598E-01 7.00085E-04
 -1      1772-1.00087E-02 1.19323E-01 7.01249E-04
 -1      1773-1.31439E-03-1.83487E-03-1.89646E-04
 -1      1775-1.27049E-03-1.87862E-03-1.36366E-04
 -1      1776-2.53413E-03-6.62878E-03-4.21208E-04
 -1      1778-2.51298E-03-6.74020E-03-3.81303E-04
 -1      1779-3.40863E-03-1.36215E-02-6.10526E-04
 -1      1781-3.37735E-03-1.37878E-02-5.77244E-04
 -1      1782-4.09792E-03-2.24349E-02-8.13557E-04
 -1      1784-4.07249E-03-2.26573E-02-7.91008E-04
 -1      1785-4.52855E-03-3.24243E-02-9.99704E-04
 -1      1787-4.50192E-03-3.27002E-02-9.87076E-04
 -1      1788-4.73998E-03-4.31477E-02-1.18262E-03
 -1      1790-4.71582E-03-4.34733E-02-1.17770E-03
 -1      1791-4.73255E-03-5.40553E-02-1.34987E-03
 -1      1793-4.70981E-03-5.44281E-02-1.35497E-03
 -1      1794-4.52017E-03-6.47066E-02-1.50517E-03
 -1      1796-4.49976E-03-6.51214E-02-1.51701E-03
 -1      1797-4.12029E-03-7.46382E-02-1.64189E-03
 -1      1799-4.10238E-03-7.50911E-02-1.66186E-03
 -1      1800-3.54956E-03-8.34612E-02-1.76014E-03
 -1      1802-3.53449E-03-8.39464E-02-1.78612E-03
 -1      1803-2.83029E-03-9.08075E-02-1.85657E-03
 -1      1805-2.81833E-03-9.13196E-02-1.88828E-03
 -1      1806-1.98475E-03-9.63740E-02-1.92994E-03
 -1      1808-1.97609E-03-9.69067E-02-1.96638E-03
 -1      1809-1.03808E-03-9.99015E-02-1.97920E-03
 -1      1811-1.03287E-03-1.00449E-01-2.01892E-03
 -1      1812-1.61328E-05-1.01195E-01-2.00310E-03
 -1      1814-1.44071E-05-1.01750E-01-2.04577E-03
 -1      1815 1.05456E-03-1.00114E-01-2.00238E-03
 -1      1817 1.05282E-03-1.00671E-01-2.04597E-03
 -1      1818 2.14726E-03-9.65809E-02-1.97654E-03
 -1      1820 2.14217E-03-9.71334E-02-2.02107E-03
 -1      1821 3.23615E-03-9.05773E-02-1.92786E-03
 -1      1823 3.22791E-03-9.11196E-02-1.97116E-03
 -1      1824 4.29627E-03-8.21424E-02-1.85699E-03
 -1      1826 4.28519E-03-8.26692E-02-1.89923E-03
 -1      1827 5.30501E-03-7.13686E-02-1.76749E-03
 -1      1829 5.29144E-03-7.18753E-02-1.80670E-03
 -1      1830 6.24181E-03-5.83983E-02-1.66129E-03
 -1      1832 6.22624E-03-5.88811E-02-1.69776E-03
 -1      1833 7.08968E-03-4.34161E-02-1.54302E-03
 -1      1835 7.07262E-03-4.38722E-02-1.57513E-03
 -1      1836 7.83488E-03-2.66422E-02-1.41577E-03
 -1      1838 7.81694E-03-2.70696E-02-1.44399E-03
 -1      1839 8.46822E-03-8.32242E-03-1.28499E-03
 -1      1841 8.45006E-03-8.72065E-03-1.30815E-03
 -1      1842 8.98477E-03 1.12801E-02-1.15462E-03
 -1      1844 8.96705E-03 1.09106E-02-1.17347E-03
 -1      1845 9.38483E-03 3.18972E-02-1.03070E-03
 -1      1847 9.36832E-03 3.15547E-02-1.04455E-03
 -1      1848 9.67384E-03 5.32659E-02-9.17527E-04
 -1      1850 9.65920E-03 5.29474E-02-9.27502E-04
 -1      1851 9.86267E-03 7.51417E-02-8.21612E-04
 -1      1853 9.85082E-03 7.48430E-02-8.27481E-04
 -1      1854 9.96812E-03 9.73096E-02-7.46679E-04
 -1      1856 9.95937E-03 9.70257E-02-7.50005E-04
 -1      1857 1.00128E-02 1.19598E-01-7.00085E-04
 -1      1859 1.00087E-02 1.19323E-01-7.01249E-04
 -1      1860-1.77600E-04-2.12915E-03-1.51004E-05
 -1      1862 1.77600E-04-2.12915E-03 1.51004E-05
 -1      1863-2.75346E-04-7.45882E-03-3.23427E-05
 -1      1865 2.75346E-04-7.45882E-03 3.23427E-05
 -1      1866-3.63511E-04-1.49505E-02-4.90440E-05
 -1      1868 3.63511E-04-1.49505E-02 4.90440E-05
 -1      1869-4.28261E-04-2.42192E-02-6.57637E-05
 -1      1871 4.28261E-04-2.42192E-02 6.57637E-05
 -1      1872-4.67838E-04-3.46997E-02-8.19328E-05
 -1      1874 4.67838E-04-3.46997E-02 8.19328E-05
 -1      1875-4.86655E-04-4.58563E-02-9.77020E-05
 -1      1877 4.86655E-04-4.58563E-02 9.77020E-05
 -1      1878-4.83925E-04-5.71969E-02-1.12400E-04
 -1      1880 4.83925E-04-5.71969E-02 1.12400E-04
 -1      1881-4.60679E-04-6.82306E-02-1.26039E-04
 -1      1883 4.60679E-04-6.82306E-02 1.26039E-04
 -1      1884-4.19693E-04-7.85124E-02-1.38137E-04
 -1      1886 4.19693E-04-7.85124E-02 1.38137E-04
 -1      1887-3.61218E-04-8.76311E-02-1.48488E-04
 -1      1889 3.61218E-04-8.76311E-02 1.48488E-04
 -1      1890-2.88781E-04-9.52208E-02-1.56852E-04
 -1      1892 2.88781E-04-9.52208E-02 1.56852E-04
 -1      1893-2.03455E-04-1.00968E-01-1.62946E-04
 -1      1895 2.03455E-04-1.00968E-01 1.62946E-04
 -1      1896-1.08625E-04-1.04613E-01-1.66698E-04
 -1      1898 1.08625E-04-1.04613E-01 1.66698E-04
 -1      1899-6.19122E-06-1.05955E-01-1.67888E-04
 -1      1901 6.19122E-06-1.05955E-01 1.67888E-04
 -1      1902 1.00708E-04-1.04854E-01-1.66567E-04
 -1      1904-1.00708E-04-1.04854E-01 1.66567E-04
 -1      1905 2.09758E-04-1.01234E-01-1.62657E-04
 -1      1907-2.09758E-04-1.01234E-01 1.62657E-04
 -1      1908 3.18114E-04-9.50777E-02-1.56316E-04
 -1      1910-3.18114E-04-9.50777E-02 1.56316E-04
 -1      1911 4.23463E-04-8.64289E-02-1.47635E-04
 -1      1913-4.23463E-04-8.64289E-02 1.47635E-04
 -1      1914 5.23385E-04-7.53863E-02-1.36882E-04
 -1      1916-5.23385E-04-7.53863E-02 1.36882E-04
 -1      1917 6.15914E-04-6.21001E-02-1.24315E-04
 -1      1919-6.15914E-04-6.21001E-02 1.24315E-04
 -1      1920 6.99233E-04-4.67644E-02-1.10306E-04
 -1      1922-6.99233E-04-4.67644E-02 1.10306E-04
 -1      1923 7.72021E-04-2.96103E-02-9.52717E-05
 -1      1925-7.72021E-04-2.96103E-02 9.52717E-05
 -1      1926 8.33204E-04-1.08966E-02-7.96763E-05
 -1      1928-8.33204E-04-1.08966E-02 7.96763E-05
 -1      1929 8.82401E-04 9.10072E-03-6.40740E-05
 -1      1931-8.82401E-04 9.10072E-03 6.40740E-05
 -1      1932 9.19305E-04 3.00975E-02-4.90107E-05
 -1      1934-9.19305E-04 3.00975E-02 4.90107E-05
 -1      1935 9.44844E-04 5.18166E-02-3.51471E-05
 -1      1937-9.44844E-04 5.18166E-02 3.51471E-05
 -1      1938 9.59224E-04 7.39944E-02-2.31169E-05
 -1      1940-9.59224E-04 7.39944E-02 2.31169E-05
 -1      1941 9.65340E-04 9.64025E-02-1.36259E-05
 -1      1943-9.65340E-04 9.64025E-02 1.36259E-05
 -1      1944 9.63052E-04 1.18845E-01-7.44807E-06
 -1      1946-9.63052E-04 1.18845E-01 7.44807E-06
 -1      1947-1.99197E-04-2.30012E-03-9.84976E-15
 -1      1949 1.99197E-04-2.30012E-03-7.84268E-15
 -1      1950-2.83763E-04-7.83962E-03-2.53859E-14
 -1      1952 2.83763E-04-7.83962E-03-1.83178E-14
 -1      1953-3.80630E-04-1.55192E-02-4.53838E-14
 -1      1955 3.80630E-04-1.55192E-02-3.18582E-14
 -1      1956-4.39044E-04-2.49870E-02-6.83325E-14
 -1      1958 4.39044E-04-2.49870E-02-4.68132E-14
 -1      1959-4.82463E-04-3.56530E-02-9.36369E-14
 -1      1961 4.82463E-04-3.56530E-02-6.28143E-14
 -1      1962-4.97757E-04-4.69948E-02-1.20879E-13
 -1      1964 4.97757E-04-4.69948E-02-7.98632E-14
 -1      1965-4.96113E-04-5.85051E-02-1.48850E-13
 -1      1967 4.96113E-04-5.85051E-02-9.67317E-14
 -1      1968-4.70554E-04-6.96984E-02-1.77421E-13
 -1      1970 4.70554E-04-6.96984E-02-1.13801E-13
 -1      1971-4.29052E-04-8.01201E-02-2.07188E-13
 -1      1973 4.29052E-04-8.01201E-02-1.32529E-13
 -1      1974-3.68616E-04-8.93599E-02-2.38420E-13
 -1      1976 3.68616E-04-8.93599E-02-1.53121E-13
 -1      1977-2.94774E-04-9.70462E-02-2.70700E-13
 -1      1979 2.94774E-04-9.70462E-02-1.74236E-13
 -1      1980-2.07486E-04-1.02865E-01-3.02168E-13
 -1      1982 2.07486E-04-1.02865E-01-1.94587E-13
 -1      1983-1.10806E-04-1.06552E-01-3.32491E-13
 -1      1985 1.10806E-04-1.06552E-01-2.14054E-13
 -1      1986-6.36151E-06-1.07909E-01-3.60927E-13
 -1      1988 6.36151E-06-1.07909E-01-2.32422E-13
 -1      1989 1.02523E-04-1.06792E-01-3.86805E-13
 -1      1991-1.02523E-04-1.06792E-01-2.49217E-13
 -1      1992 2.13516E-04-1.03127E-01-4.10904E-13
 -1      1994-2.13516E-04-1.03127E-01-2.64937E-13
 -1      1995 3.23738E-04-9.68967E-02-4.34302E-13
 -1      1997-3.23738E-04-9.68967E-02-2.80585E-13
 -1      1998 4.30780E-04-8.81469E-02-4.57762E-13
 -1      2000-4.30780E-04-8.81469E-02-2.96907E-13
 -1      2001 5.32220E-04-7.69792E-02-4.82468E-13
 -1      2003-5.32220E-04-7.69792E-02-3.14363E-13
 -1      2004 6.25991E-04-6.35468E-02-5.07467E-13
 -1      2006-6.25991E-04-6.35468E-02-3.33049E-13
 -1      2007 7.10274E-04-4.80482E-02-5.32814E-13
 -1      2009-7.10274E-04-4.80482E-02-3.52634E-13
 -1      2010 7.83663E-04-3.07192E-02-5.57938E-13
 -1      2012-7.83663E-04-3.07192E-02-3.72175E-13
 -1      2013 8.45075E-04-1.18243E-02-5.82988E-13
 -1      2015-8.45075E-04-1.18243E-02-3.92623E-13
 -1      2016 8.94079E-04 8.35446E-03-6.08655E-13
 -1      2018-8.94079E-04 8.35446E-03-4.14306E-13
 -1      2019 9.30310E-04 2.95260E-02-6.34996E-13
 -1      2021-9.30310E-04 2.95260E-02-4.37010E-13
 -1      2022 9.54767E-04 5.14063E-02-6.60902E-13
 -1      2024-9.54767E-04 5.14063E-02-4.59846E-13
 -1      2025 9.67379E-04 7.37233E-02-6.86812E-13
 -1      2027-9.67379E-04 7.37233E-02-4.82142E-13
 -1      2028 9.71556E-04 9.62418E-02-7.13159E-13
 -1      2030-9.71556E-04 9.62418E-02-5.05360E-13
 -1      2031 9.66055E-04 1.18756E-01-7.40595E-13
 -1      2033-9.66055E-04 1.18756E-01-5.29795E-13
 -1      2034-1.77600E-04-2.12915E-03 1.51004E-05
 -1      2036 1.77600E-04-2.12915E-03-1.51004E-05
 -1      2037-2.75346E-04-7.45882E-03 3.23427E-05
 -1      2039 2.75346E-04-7.45882E-03-3.23427E-05
 -1      2040-3.63511E-04-1.49505E-02 4.90440E-05
 -1      2042 3.63511E-04-1.49505E-02-4.90440E-05
 -1      2043-4.28261E-04-2.42192E-02 6.57637E-05
 -1      2045 4.28261E-04-2.42192E-02-6.57637E-05
 -1      2046-4.67838E-04-3.46997E-02 8.19328E-05
 -1      2048 4.67838E-04-3.46997E-02-8.19328E-05
 -1      2049-4.86655E-04-4.58563E-02 9.77020E-05
 -1      2051 4.86655E-04-4.58563E-02-9.77020E-05
 -1      2052-4.83925E-04-5.71969E-02 1.12400E-04
 -1      2054 4.83925E-04-5.71969E-02-1.12400E-04
 -1      2055-4.60679E-04-6.82306E-02 1.26039E-04
 -1      2057 4.60679E-04-6.82306E-02-1.26039E-04
 -1      2058-4.19693E-04-7.85124E-02 1.38137E-04
 -1      2060 4.19693E-04-7.85124E-02-1.38137E-04
 -1      2061-3.61218E-04-8.76311E-02 1.48488E-04
 -1      2063 3.61218E-04-8.76311E-02-1.48488E-04
 -1      2064-2.88781E-04-9.52208E-02 1.56852E-04
 -1      2066 2.88781E-04-9.52208E-02-1.56852E-04
 -1      2067-2.03455E-04-1.00968E-01 1.62946E-04
 -1      2069 2.03455E-04-1.00968E-01-1.62946E-04
 -1      2070-1.08625E-04-1.04613E-01 1.66698E-04
 -1      2072 1.08625E-04-1.04613E-01-1.66698E-04
 -1      2073-6.19122E-06-1.05955E-01 1.67888E-04
 -1      2075 6.19122E-06-1.05955E-01-1.67888E-04
 -1      2076 1.00708E-04-1.04854E-01 1.66567E-04
 -1      2078-1.00708E-04-1.04854E-01-1.66567E-04
 -1      2079 2.09758E-04-1.01234E-01 1.62657E-04
 -1      2081-2.09758E-04-1.01234E-01-1.62657E-04
 -1      2082 3.18114E-04-9.50777E-02 1.56316E-04
 -1      2084-3.18114E-04-9.50777E-02-1.56316E-04
 -1      2085 4.23463E-04-8.64289E-02 1.47635E-04
 -1      2087-4.23463E-04-8.64289E-02-1.47635E-04
 -1      2088 5.23385E-04-7.53863E-02 1.36882E-04
 -1      2090-5.23385E-04-7.53863E-02-1.36882E-04
 -1      2091 6.15914E-04-6.21001E-02 1.24315E-04
 -1      2093-6.15914E-04-6.21001E-02-1.24315E-04
 -1      2094 6.99233E-04-4.67644E-02 1.10306E-04
 -1      2096-6.99233E-04-4.67644E-02-1.10306E-04
 -1      2097 7.72021E-04-2.96103E-02 9.52717E-05
 -1      2099-7.72021E-04-2.96103E-02-9.52717E-05
 -1      2100 8.33204E-04-1.08966E-02 7.96763E-05
 -1      2102-8.33204E-04-1.08966E-02-7.96763E-05
 -1      2103 8.82401E-04 9.10072E-03 6.40740E-05
 -1      2105-8.82401E-04 9.10072E-03-6.40740E-05
 -1      2106 9.19305E-04 3.00975E-02 4.90107E-05
 -1      2108-9.19305E-04 3.00975E-02-4.90107E-05
 -1      2109 9.44844E-04 5.18166E-02 3.51471E-05
 -1      2111-9.44844E-04 5.18166E-02-3.51471E-05
 -1      2112 9.59224E-04 7.39944E-02 2.31169E-05
 -1      2114-9.59224E-04 7.39944E-02-2.31169E-05
 -1      2115 9.65340E-04 9.64025E-02 1.36259E-05
 -1      2117-9.65340E-04 9.64025E-02-1.36259E-05
 -1      2118 9.63052E-04 1.18845E-01 7.44807E-06
 -1      2120-9.63052E-04 1.18845E-01-7.44807E-06
 -1      2121-1.31439E-03-1.83487E-03 1.89646E-04
 -1      2123-1.27049E-03-1.87862E-03 1.36366E-04
 -1      2124-2.53413E-03-6.62878E-03 4.21208E-04
 -1      2126-2.51298E-03-6.74020E-03 3.81303E-04
 -1      2127-3.40863E-03-1.36215E-02 6.10526E-04
 -1      2129-3.37735E-03-1.37878E-02 5.77244E-04
 -1      2130-4.09792E-03-2.24349E-02 8.13557E-04
 -1      2132-4.07249E-03-2.26573E-02 7.91008E-04
 -1      2133-4.52855E-03-3.24243E-02 9.99704E-04
 -1      2135-4.50192E-03-3.27002E-02 9.87076E-04
 -1      2136-4.73998E-03-4.31477E-02 1.18262E-03
 -1      2138-4.71582E-03-4.34733E-02 1.17770E-03
 -1      2139-4.73255E-03-5.40553E-02 1.34987E-03
 -1      2141-4.70981E-03-5.44281E-02 1.35497E-03
 -1      2142-4.52017E-03-6.47066E-02 1.50517E-03
 -1      2144-4.49976E-03-6.51214E-02 1.51701E-03
 -1      2145-4.12029E-03-7.46382E-02 1.64189E-03
 -1      2147-4.10238E-03-7.50911E-02 1.66186E-03
 -1      2148-3.54956E-03-8.34612E-02 1.76014E-03
 -1      2150-3.53449E-03-8.39464E-02 1.78612E-03
 -1      2151-2.83029E-03-9.08075E-02 1.85657E-03
 -1      2153-2.81833E-03-9.13196E-02 1.88828E-03
 -1      2154-1.98475E-03-9.63740E-02 1.92994E-03
 -1      2156-1.97609E-03-9.69067E-02 1.96638E-03
 -1      2157-1.03808E-03-9.99015E-02 1.97920E-03
 -1      2159-1.03287E-03-1.00449E-01 2.01892E-03
 -1      2160-1.61328E-05-1.01195E-01 2.00310E-03
 -1      2162-1.44071E-05-1.01750E-01 2.04577E-03
 -1      2163 1.05456E-03-1.00114E-01 2.00238E-03
 -1      2165 1.05282E-03-1.00671E-01 2.04597E-03
 -1      2166 2.14726E-03-9.65809E-02 1.97654E-03
 -1      2168 2.14217E-03-9.71334E-02 2.02107E-03
 -1      2169 3.23615E-03-9.05773E-02 1.92786E-03
 -1      2171 3.22791E-03-9.11196E-02 1.97116E-03
 -1      2172 4.29627E-03-8.21424E-02 1.85699E-03
 -1      2174 4.28519E-03-8.26692E-02 1.89923E-03
 -1      2175 5.30501E-03-7.13686E-02 1.76749E-03
 -1      2177 5.29144E-03-7.18753E-02 1.80670E-03
 -1      2178 6.24181E-03-5.83983E-02 1.66129E-03
 -1      2180 6.22624E-03-5.88811E-02 1.69776E-03
 -1      2181 7.08968E-03-4.34161E-02 1.54302E-03
 -1      2183 7.07262E-03-4.38722E-02 1.57513E-03
 -1      2184 7.83488E-03-2.66422E-02 1.41577E-03
 -1      2186 7.81694E-03-2.70696E-02 1.44399E-03
 -1      2187 8.46822E-03-8.32242E-03 1.28499E-03
 -1      2189 8.45006E-03-8.72065E-03 1.30815E-03
 -1      2190 8.98477E-03 1.12801E-02 1.15462E-03
 -1      2192 8.96705E-03 1.09106E-02 1.17347E-03
 -1      2193 9.38483E-03 3.18972E-02 1.03070E-03
 -1      2195 9.36832E-03 3.15547E-02 1.04455E-03
 -1      2196 9.67384E-03 5.32659E-02 9.17527E-04
 -1      2198 9.65920E-03 5.29474E-02 9.27502E-04
 -1      2199 9.86267E-03 7.51417E-02 8.21612E-04
 -1      2201 9.85082E-03 7.48430E-02 8.27481E-04
 -1      2202 9.96812E-03 9.73096E-02 7.46679E-04
 -1      2204 9.95937E-03 9.70257E-02 7.50005E-04
 -1      2205 1.00128E-02 1.19598E-01 7.00085E-04
 -1      2207 1.00087E-02 1.19323E-01 7.01249E-04
 -1      2208 1.31439E-03-1.83487E-03-1.89646E-04
 -1      2210 1.27049E-03-1.87862E-03-1.36366E-04
 -1      2211 2.53413E-03-6.62878E-03-4.21208E-04
 -1      2213 2.51298E-03-6.74020E-03-3.81303E-04
 -1      2214 3.40863E-03-1.36215E-02-6.10526E-04
 -1      2216 3.37735E-03-1.37878E-02-5.77244E-04
 -1      2217 4.09792E-03-2.24349E-02-8.13557E-04
 -1      2219 4.07249E-03-2.26573E-02-7.91008E-04
 -1      2220 4.52855E-03-3.24243E-02-9.99704E-04
 -1      2222 4.50192E-03-3.27002E-02-9.87076E-04
 -1      2223 4.73998E-03-4.31477E-02-1.18262E-03
 -1      2225 4.71582E-03-4.34733E-02-1.17770E-03
 -1      2226 4.73255E-03-5.40553E-02-1.34987E-03
 -1      2228 4.70981E-03-5.44281E-02-1.35497E-03
 -1      2229 4.52017E-03-6.47066E-02-1.50517E-03
 -1      2231 4.49976E-03-6.51214E-02-1.51701E-03
 -1      2232 4.12029E-03-7.46382E-02-1.64189E-03
 -1      2234 4.10238E-03-7.50911E-02-1.66186E-03
 -1      2235 3.54956E-03-8.34612E-02-1.76014E-03
 -1      2237 3.53449E-03-8.39464E-02-1.78612E-03
 -1      2238 2.83029E-03-9.08075E-02-1.85657E-03
 -1      2240 2.81833E-03-9.13196E-02-1.88828E-03
 -1      2241 1.98475E-03-9.63740E-02-1.92994E-03
 -1      2243 1.97609E-03-9.69067E-02-1.96638E-03
 -1      2244 1.03808E-03-9.99015E-02-1.97920E-03
 -1      2246 1.03287E-03-1.00449E-01-2.01892E-03
 -1      2247 1.61328E-05-1.01195E-01-2.00310E-03
 -1      2249 1.44071E-05-1.01750E-01-2.04577E-03
 -1      2250-1.05456E-03-1.00114E-01-2.00238E-03
 -1      2252-1.05282E-03-1.00671E-01-2.04597E-03
 -1      2253-2.14726E-03-9.65809E-02-1.97654E-03
 -1      2255-2.14217E-03-9.71334E-02-2.02107E-03
 -1      2256-3.23615E-03-9.05773E-02-1.92786E-03
 -1      2258-3.22791E-03-9.11196E-02-1.97116E-03
 -1      2259-4.29627E-03-8.21424E-02-1.85699E-03
 -1      2261-4.28519E-03-8.26692E-02-1.89923E-03
 -1      2262-5.30501E-03-7.13686E-02-1.76749E-03
 -1      2264-5.29144E-03-7.18753E-02-1.80670E-03
 -1      2265-6.24181E-03-5.83983E-02-1.66129E-03
 -1      2267-6.22624E-03-5.88811E-02-1.69776E-03
 -1      2268-7.08968E-03-4.34161E-02-1.54302E-03
 -1      2270-7.07262E-03-4.38722E-02-1.57513E-03
 -1      2271-7.83488E-03-2.66422E-02-1.41577E-03
 -1      2273-7.81694E-03-2.70696E-02-1.44399E-03
 -1      2274-8.46822E-03-8.32242E-03-1.28499E-03
 -1      2276-8.45006E-03-8.72065E-03-1.30815E-03
 -1      2277-8.98477E-03 1.12801E-02-1.15462E-03
 -1      2279-8.96705E-03 1.09106E-02-1.17347E-03
 -1      2280-9.38483E-03 3.18972E-02-1.03070E-03
 -1      2282-9.36832E-03 3.15547E-02-1.04455E-03
 -1      2283-9.67384E-03 5.32659E-02-9.17527E-04
 -1      2285-9.65920E-03 5.29474E-02-9.27502E-04
 -1      2286-9.86267E-03 7.51417E-02-8.21612E-04
 -1      2288-9.85082E-03 7.48430E-02-8.27481E-04
 -1      2289-9.96812E-03 9.73096E-02-7.46679E-04
 -1      2291-9.95937E-03 9.70257E-02-7.50005E-04
 -1      2292-1.00128E-02 1.19598E-01-7.00085E-04
 -1      2294-1.00087E-02 1.19323E-01-7.01249E-04
 -3
    1PSTEP                        14           1           1          
    1PGM                1.000000E+00                                  
    1PGK                2.415175E+05                                  
    1PHID                         -1                                  
    1PSUBC                         0                                  
    1PMODE                         4                                  
  100CL  104 78.21578245         930                     2    4MODAL      1
 -4  STRESS      6    1
 -5  SXX         1    4    1    1
 -5  SYY         1    4    2    2
 -5  SZZ         1    4    3    3
 -5  SXY         1    4    1    2
 -5  SYZ         1    4    2    3
 -5  SZX         1    4    3    1
 -1       404 4.42090E+09 3.52657E+08 4.93149E+06-3.01357E+08-1.21501E+05 8.78028E+06
 -1       406 4.42090E+09 3.52657E+08 4.93149E+06-3.01357E+08-1.21501E+05 8.78028E+06
 -1       407-2.72715E+07 3.98647E+05 5.43899E+04 1.19997E+07 1.10267E+06 1.28750E+05
 -1       409-2.72715E+07 3.98647E+05 5.43899E+04 1.19997E+07 1.10267E+06 1.28750E+05
 -1       410-1.31717E-03-2.55476E-04-3.95700E-05 3.08267E+07 2.06265E+06 1.93475E-06
 -1       412-1.31717E-03-2.55476E-04-3.95700E-05 3.08267E+07 2.06265E+06 1.93475E-06
 -1       413-5.25622E-04 6.00390E-04 1.28347E-03-3.56383E+05 6.15913E+06 1.53709E-04
 -1       415-5.25622E-04 6.00390E-04 1.28347E-03-3.56383E+05 6.15913E+06 1.53709E-04
 -1       424-1.50113E-02-2.08127E-03 6.55651E-06-2.93717E+08-2.46360E+06-4.22771E-04
 -1       426-1.50113E-02-2.08127E-03 6.55651E-06-2.93717E+08-2.46360E+06-4.22771E-04
 -1       427-1.12977E-02-3.58720E-05-1.41662E-03 2.95468E+06-1.86577E+06-7.21027E-03
 -1       429-1.12977E-02-3.58720E-05-1.41662E-03 2.95468E+06-1.86577E+06-7.21027E-03
 -1       438 2.72715E+07-3.98647E+05-5.43899E+04 1.19997E+07 1.10267E+06-1.28750E+05
 -1       440 2.72715E+07-3.98647E+05-5.43899E+04 1.19997E+07 1.10267E+06-1.28750E+05
 -1       441-4.42090E+09-3.52657E+08-4.93149E+06-3.01357E+08-1.21501E+05-8.78028E+06
 -1       443-4.42090E+09-3.52657E+08-4.93149E+06-3.01357E+08-1.21501E+05-8.78028E+06
 -1       444 9.83438E-03 1.15801E-05 2.54157E-03 2.95468E+06 1.86577E+06-4.90655E-03
 -1       446 9.83438E-03 1.15801E-05 2.54157E-03 2.95468E+06 1.86577E+06-4.90655E-03
 -1       447 1.37804E-02 1.71226E-03-9.59635E-06-2.93717E+08 2.46360E+06-1.96831E-04
 -1       449 1.37804E-02 1.71226E-03-9.59635E-06-2.93717E+08 2.46360E+06-1.96831E-04
 -1       458 8.76800E-05-6.08538E-04 3.70760E-04-3.56383E+05-6.15913E+06-3.75789E-04
 -1       460 8.76800E-05-6.08538E-04 3.70760E-04-3.56383E+05-6.15913E+06-3.75789E-04
 -1       461 8.12849E-04 9.04516E-04 2.61655E-05 3.08267E+07-2.06265E+06-3.36871E-06
 -1       463 8.12849E-04 9.04516E-04 2.61655E-05 3.08267E+07-2.06265E+06-3.36871E-06
 -1       472-4.42090E+09-3.52657E+08-4.93149E+06-3.01357E+08 1.21501E+05 8.78028E+06
 -1       474-4.42090E+09-3.52657E+08-4.93149E+06-3.01357E+08 1.21501E+05 8.78028E+06
 -1       475 2.72715E+07-3.98647E+05-5.43899E+04 1.19997E+07-1.10267E+06 1.28750E+05
 -1       477 2.72715E+07-3.98647E+05-5.43899E+04 1.19997E+07-1.10267E+06 1.28750E+05
 -1       478-2.72715E+07 3.98647E+05 5.43899E+04 1.19997E+07-1.10267E+06-1.28750E+05
 -1       480-2.72715E+07 3.98647E+05 5.43899E+04 1.19997E+07-1.10267E+06-1.28750E+05
 -1       481 4.42090E+09 3.52657E+08 4.93149E+06-3.01357E+08 1.21501E+05-8.78028E+06
 -1       483 4.42090E+09 3.52657E+08 4.93149E+06-3.01357E+08 1.21501E+05-8.78028E+06
 -1       484 4.02015E+09 8.25904E+07 2.50345E+05-2.08046E+08 4.09050E+02 2.88992E+06
 -1       486 4.02015E+09 8.25904E+07 2.50345E+05-2.08046E+08 4.09050E+02 2.88992E+06
 -1       487 3.25182E+09-4.57226E+07 1.94862E+06-1.68787E+08-1.18969E+05-1.52139E+05
 -1       489 3.25182E+09-4.57226E+07 1.94862E+06-1.68787E+08-1.18969E+05-1.52139E+05
 -1       490 2.49614E+09 2.34411E+07 1.10967E+06-1.93915E+08-3.33478E+05 1.31843E+06
 -1       492 2.49614E+09 2.34411E+07 1.10967E+06-1.93915E+08-3.33478E+05 1.31843E+06
 -1       493 1.74402E+09-1.15165E+07 4.53251E+05-1.74718E+08-3.76389E+05 5.67677E+05
 -1       495 1.74402E+09-1.15165E+07 4.53251E+05-1.74718E+08-3.76389E+05 5.67677E+05
 -1       496 1.01774E+09 5.63037E+06 8.17102E+05-1.76519E+08-5.22869E+05 8.75924E+05
 -1       498 1.01774E+09 5.63037E+06 8.17102E+05-1.76519E+08-5.22869E+05 8.75924E+05
 -1       499 3.14928E+08-2.83887E+06-2.97712E+05-1.65573E+08-6.03353E+05 6.63239E+05
 -1       501 3.14928E+08-2.83887E+06-2.97712E+05-1.65573E+08-6.03353E+05 6.63239E+05
 -1       502-3.49152E+08 1.55385E+06 1.84084E+05-1.56791E+08-7.10560E+05 6.82882E+05
 -1       504-3.49152E+08 1.55385E+06 1.84084E+05-1.56791E+08-7.10560E+05 6.82882E+05
 -1       505-9.69224E+08-9.24823E+05-7.98956E+05-1.44367E+08-8.02553E+05 5.82179E+05
 -1       507-9.69224E+08-9.24823E+05-7.98956E+05-1.44367E+08-8.02553E+05 5.82179E+05
 -1       508-1.53449E+09 6.05291E+05-4.43441E+05-1.30231E+08-8.80664E+05 5.23850E+05
 -1       510-1.53449E+09 6.05291E+05-4.43441E+05-1.30231E+08-8.80664E+05 5.23850E+05
 -1       511-2.03796E+09-4.13584E+05-1.18667E+06-1.14221E+08-9.55464E+05 4.37048E+05
 -1       513-2.03796E+09-4.13584E+05-1.18667E+06-1.14221E+08-9.55464E+05 4.37048E+05
 -1       514-2.47171E+09 2.91105E+05-9.49523E+05-9.65091E+07-1.00103E+06 3.53184E+05
 -1       516-2.47171E+09 2.91105E+05-9.49523E+05-9.65091E+07-1.00103E+06 3.53184E+05
 -1       517-2.83015E+09-2.09434E+05-1.46967E+06-7.75690E+07-1.03910E+06 2.62615E+05
 -1       519-2.83015E+09-2.09434E+05-1.46967E+06-7.75690E+07-1.03910E+06 2.62615E+05
 -1       520-3.10844E+09 1.47047E+05-1.29596E+06-5.76808E+07-1.04327E+06 1.70121E+05
 -1       522-3.10844E+09 1.47047E+05-1.29596E+06-5.76808E+07-1.04327E+06 1.70121E+05
 -1       523-3.30389E+09-1.09177E+05-1.62973E+06-3.73292E+07-1.03269E+06 7.81347E+04
 -1       525-3.30389E+09-1.09177E+05-1.62973E+06-3.73292E+07-1.03269E+06 7.81347E+04
 -1       526-3.41533E+09 7.70255E+04-1.47217E+06-1.69543E+07-9.87818E+05-1.28696E+04
 -1       528-3.41533E+09 7.70255E+04-1.47217E+06-1.69543E+07-9.87818E+05-1.28696E+04
 -1       529-3.44378E+09-5.73222E+04-1.65382E+06 2.95366E+06-9.22981E+05-9.86686E+04
 -1       531-3.44378E+09-5.73222E+04-1.65382E+06 2.95366E+06-9.22981E+05-9.86686E+04
 -1       532-3.39209E+09 4.58534E+04-1.48308E+06 2.18983E+07-8.26103E+05-1.78960E+05
 -1       534-3.39209E+09 4.58534E+04-1.48308E+06 2.18983E+07-8.26103E+05-1.78960E+05
 -1       535-3.26528E+09-2.80587E+04-1.54321E+06 3.93927E+07-7.07683E+05-2.49762E+05
 -1       537-3.26528E+09-2.80587E+04-1.54321E+06 3.93927E+07-7.07683E+05-2.49762E+05
 -1       538-3.07029E+09 3.57011E+04-1.34719E+06 5.49518E+07-5.62044E+05-3.10535E+05
 -1       540-3.07029E+09 3.57011E+04-1.34719E+06 5.49518E+07-5.62044E+05-3.10535E+05
 -1       541-2.81603E+09-8.14917E+03-1.31524E+06 6.81281E+07-3.97290E+05-3.58050E+05
 -1       543-2.81603E+09-8.14917E+03-1.31524E+06 6.81281E+07-3.97290E+05-3.58050E+05
 -1       544-2.51317E+09 3.80123E+04-1.09607E+06 7.84916E+07-2.13117E+05-3.91644E+05
 -1       546-2.51317E+09 3.80123E+04-1.09607E+06 7.84916E+07-2.13117E+05-3.91644E+05
 -1       547-2.17409E+09 7.75304E+03-1.00228E+06 8.56690E+07-1.64223E+04-4.09476E+05
 -1       549-2.17409E+09 7.75304E+03-1.00228E+06 8.56690E+07-1.64223E+04-4.09476E+05
 -1       550-1.81259E+09 5.18483E+04-7.73426E+05 8.93225E+07 1.88331E+05-4.10200E+05
 -1       552-1.81259E+09 5.18483E+04-7.73426E+05 8.93225E+07 1.88331E+05-4.10200E+05
 -1       553-1.44379E+09 1.52523E+04-6.49204E+05 8.91619E+07 3.94190E+05-3.95688E+05
 -1       555-1.44379E+09 1.52523E+04-6.49204E+05 8.91619E+07 3.94190E+05-3.95688E+05
 -1       556-1.08379E+09 9.02577E+04-4.33162E+05 8.49906E+07 5.92301E+05-3.59836E+05
 -1       558-1.08379E+09 9.02577E+04-4.33162E+05 8.49906E+07 5.92301E+05-3.59836E+05
 -1       559-7.49608E+08-6.40047E+03-3.10008E+05 7.65648E+07 7.73128E+05-3.18205E+05
 -1       561-7.49608E+08-6.40047E+03-3.10008E+05 7.65648E+07 7.73128E+05-3.18205E+05
 -1       562-4.58805E+08 1.68371E+05-1.36157E+05 6.38417E+07 9.25198E+05-2.39901E+05
 -1       564-4.58805E+08 1.68371E+05-1.36157E+05 6.38417E+07 9.25198E+05-2.39901E+05
 -1       565-2.29311E+08 7.39495E+02-4.67555E+04 4.68245E+07 1.03116E+06-1.97845E+05
 -1       567-2.29311E+08 7.39495E+02-4.67555E+04 4.68245E+07 1.03116E+06-1.97845E+05
 -1       568-7.97215E+07-4.92844E+04 6.05229E+04 2.46026E+07 1.09089E+06-4.47860E+04
 -1       570-7.97215E+07-4.92844E+04 6.05229E+04 2.46026E+07 1.09089E+06-4.47860E+04
 -1       571-2.08165E+07-3.67288E+06-3.71036E+03 2.14132E+07 1.58266E+06 9.28373E+04
 -1       573-2.08165E+07-3.67288E+06-3.71036E+03 2.14132E+07 1.58266E+06 9.28373E+04
 -1       574-1.39184E-02-8.69885E-04-6.79493E-06-3.92144E+08-1.22886E+06-7.60591E-05
 -1       576-1.39184E-02-8.69885E-04-6.79493E-06-3.92144E+08-1.22886E+06-7.60591E-05
 -1       577-1.04198E-02-4.97043E-06 6.08672E-04-9.55152E+05-1.90884E+06-7.22469E-03
 -1       579-1.04198E-02-4.97043E-06 6.08672E-04-9.55152E+05-1.90884E+06-7.22469E-03
 -1       588-1.21852E-02 1.48311E-04-3.66718E-05-4.33011E+08 1.00217E+05 4.20446E-05
 -1       590-1.21852E-02 1.48311E-04-3.66718E-05-4.33011E+08 1.00217E+05 4.20446E-05
 -1       591-9.26562E-03 3.16306E-05 2.53209E-03-1.82759E+05-1.80754E+06-6.45536E-03
 -1       593-9.26562E-03 3.16306E-05 2.53209E-03-1.82759E+05-1.80754E+06-6.45536E-03
 -1       602-1.15124E-02-7.11828E-05-1.06543E-05-3.99746E+08-2.57486E+05-4.32093E-05
 -1       604-1.15124E-02-7.11828E-05-1.06543E-05-3.99746E+08-2.57486E+05-4.32093E-05
 -1       605-8.97398E-03-1.83115E-05 6.75089E-04 9.08952E+05-2.70811E+06-5.66898E-03
 -1       607-8.97398E-03-1.83115E-05 6.75089E-04 9.08952E+05-2.70811E+06-5.66898E-03
 -1       616-1.05860E-02-1.21370E-04-4.31091E-05-4.06496E+08-3.19277E+05 5.95258E-06
 -1       618-1.05860E-02-1.21370E-04-4.31091E-05-4.06496E+08-3.19277E+05 5.95258E-06
 -1       619-8.32638E-03-3.48891E-05-2.08723E-03-4.30856E+05-3.91907E+06-5.89846E-03
 -1       621-8.32638E-03-3.48891E-05-2.08723E-03-4.30856E+05-3.91907E+06-5.89846E-03
 -1       630-8.36804E-03-1.99009E-04-7.66292E-05-3.86561E+08-3.60344E+05-2.66868E-06
 -1       632-8.36804E-03-1.99009E-04-7.66292E-05-3.86561E+08-3.60344E+05-2.66868E-06
 -1       633-6.51408E-03 3.96726E-05-2.56298E-03 6.03249E+05-4.83400E+06-6.62373E-03
 -1       635-6.51408E-03 3.96726E-05-2.56298E-03 6.03249E+05-4.83400E+06-6.62373E-03
 -1       644-6.08581E-03-2.27975E-04-8.50692E-05-3.72270E+08-5.77726E+05 2.71731E-05
 -1       646-6.08581E-03-2.27975E-04-8.50692E-05-3.72270E+08-5.77726E+05 2.71731E-05
 -1       647-4.48760E-03 4.60641E-05-3.32651E-04-8.17523E+04-6.07127E+06-6.95518E-03
 -1       649-4.48760E-03 4.60641E-05-3.32651E-04-8.17523E+04-6.07127E+06-6.95518E-03
 -1       658-4.89380E-03-3.85996E-05 4.39115E-05-3.48909E+08-6.35448E+05 1.96398E-05
 -1       660-4.89380E-03-3.85996E-05 4.39115E-05-3.48909E+08-6.35448E+05 1.96398E-05
 -1       661-3.43501E-03-8.83101E-05 2.20806E-03 2.75716E+05-7.06638E+06-5.84121E-03
 -1       663-3.43501E-03-8.83101E-05 2.20806E-03 2.75716E+05-7.06638E+06-5.84121E-03
 -1       672-4.99925E-03 3.20703E-04 4.53480E-05-3.22306E+08-8.21526E+05 3.28804E-05
 -1       674-4.99925E-03 3.20703E-04 4.53480E-05-3.22306E+08-8.21526E+05 3.28804E-05
 -1       675-3.63548E-03-4.61571E-05 2.00503E-03 5.51257E+04-8.12729E+06-4.22047E-03
 -1       677-3.63548E-03-4.61571E-05 2.00503E-03 5.51257E+04-8.12729E+06-4.22047E-03
 -1       686-5.34615E-03 4.31933E-04-9.18657E-05-2.90551E+08-9.03054E+05 2.69760E-05
 -1       688-5.34615E-03 4.31933E-04-9.18657E-05-2.90551E+08-9.03054E+05 2.69760E-05
 -1       689-3.98373E-03-3.98871E-05-3.50051E-05 9.65398E+04-9.03612E+06-4.30622E-03
 -1       691-3.98373E-03-3.98871E-05-3.50051E-05 9.65398E+04-9.03612E+06-4.30622E-03
 -1       700-4.65128E-03 1.70827E-04-4.45694E-05-2.54809E+08-1.03677E+06 4.79228E-06
 -1       702-4.65128E-03 1.70827E-04-4.45694E-05-2.54809E+08-1.03677E+06 4.79228E-06
 -1       703-2.94359E-03 1.19821E-04-7.64893E-05 2.75818E+04-9.83949E+06-5.58213E-03
 -1       705-2.94359E-03 1.19821E-04-7.64893E-05 2.75818E+04-9.83949E+06-5.58213E-03
 -1       714-3.09941E-03-1.10716E-04-9.10461E-06-2.15349E+08-1.10400E+06 2.23720E-05
 -1       716-3.09941E-03-1.10716E-04-9.10461E-06-2.15349E+08-1.10400E+06 2.23720E-05
 -1       717-9.56950E-04 9.59952E-04 2.44705E-03-3.09495E+04-1.04968E+07-5.33429E-03
 -1       719-9.56950E-04 9.59952E-04 2.44705E-03-3.09495E+04-1.04968E+07-5.33429E-03
 -1       728-1.65570E-03-1.65209E-04 1.70767E-05-1.73091E+08-1.17938E+06 2.01170E-05
 -1       730-1.65570E-03-1.65209E-04 1.70767E-05-1.73091E+08-1.17938E+06 2.01170E-05
 -1       731 2.07743E-04 9.93265E-04 4.34659E-03-7.43765E+04-1.09629E+07-3.57870E-03
 -1       733 2.07743E-04 9.93265E-04 4.34659E-03-7.43765E+04-1.09629E+07-3.57870E-03
 -1       742-7.49856E-04-8.56817E-06-1.69724E-05-1.28733E+08-1.20314E+06 1.10070E-05
 -1       744-7.49856E-04-8.56817E-06-1.69724E-05-1.28733E+08-1.20314E+06 1.10070E-05
 -1       745 5.80562E-04 7.33867E-05 4.17157E-03-1.56629E+05-1.12532E+07-1.63516E-03
 -1       747 5.80562E-04 7.33867E-05 4.17157E-03-1.56629E+05-1.12532E+07-1.63516E-03
 -1       756-5.20825E-04-5.02169E-06-2.04891E-05-8.33714E+07-1.21272E+06 1.44250E-05
 -1       758-5.20825E-04-5.02169E-06-2.04891E-05-8.33714E+07-1.21272E+06 1.44250E-05
 -1       759 9.90867E-04-3.11820E-05 3.41270E-03-2.05109E+05-1.13144E+07-7.00351E-05
 -1       761 9.90867E-04-3.11820E-05 3.41270E-03-2.05109E+05-1.13144E+07-7.00351E-05
 -1       770-6.84977E-04-4.75585E-04 3.23057E-05-3.79205E+07-1.17619E+06-7.67281E-06
 -1       772-6.84977E-04-4.75585E-04 3.23057E-05-3.79205E+07-1.17619E+06-7.67281E-06
 -1       773 9.94691E-04 3.40861E-04 3.56100E-03-2.87357E+05-1.11731E+07 8.43196E-04
 -1       775 9.94691E-04 3.40861E-04 3.56100E-03-2.87357E+05-1.11731E+07 8.43196E-04
 -1       784-2.87652E-04-9.02951E-04 5.61029E-05 6.44564E+06-1.11452E+06-1.63669E-05
 -1       786-2.87652E-04-9.02951E-04 5.61029E-05 6.44564E+06-1.11452E+06-1.63669E-05
 -1       787 8.07049E-04 8.10922E-05 4.12619E-03-3.40136E+05-1.07944E+07 1.54936E-03
 -1       789 8.07049E-04 8.10922E-05 4.12619E-03-3.40136E+05-1.07944E+07 1.54936E-03
 -1       798 4.55856E-04-7.45863E-04-8.28505E-06 4.86963E+07-1.01076E+06-2.10059E-05
 -1       800 4.55856E-04-7.45863E-04-8.28505E-06 4.86963E+07-1.01076E+06-2.10059E-05
 -1       801 8.65590E-04 3.57483E-05 3.45021E-03-4.12517E+05-1.02059E+07 1.96766E-03
 -1       803 8.65590E-04 3.57483E-05 3.45021E-03-4.12517E+05-1.02059E+07 1.96766E-03
 -1       812 6.74129E-05-7.91401E-05 4.77433E-05 8.76807E+07-8.77570E+05-5.84092E-06
 -1       814 6.74129E-05-7.91401E-05 4.77433E-05 8.76807E+07-8.77570E+05-5.84092E-06
 -1       815 3.15017E-04-3.45793E-06 1.53863E-03-4.60721E+05-9.39555E+06 1.32467E-03
 -1       817 3.15017E-04-3.45793E-06 1.53863E-03-4.60721E+05-9.39555E+06 1.32467E-03
 -1       826-1.66583E-03 5.86286E-04 7.43866E-05 1.22372E+08-7.07845E+05-1.84620E-05
 -1       828-1.66583E-03 5.86286E-04 7.43866E-05 1.22372E+08-7.07845E+05-1.84620E-05
 -1       829-9.78137E-04 2.73398E-04 8.01447E-04-5.16110E+05-8.39143E+06 1.11238E-04
 -1       831-9.78137E-04 2.73398E-04 8.01447E-04-5.16110E+05-8.39143E+06 1.11238E-04
 -1       840-3.40575E-03 7.68721E-04-6.15418E-06 1.51724E+08-5.09009E+05-1.45717E-05
 -1       842-3.40575E-03 7.68721E-04-6.15418E-06 1.51724E+08-5.09009E+05-1.45717E-05
 -1       843-2.39665E-03 4.34386E-04 9.69129E-04-5.49216E+05-7.20348E+06-2.01151E-04
 -1       845-2.39665E-03 4.34386E-04 9.69129E-04-5.49216E+05-7.20348E+06-2.01151E-04
 -1       854-4.46749E-03 5.08830E-04-1.34110E-07 1.74823E+08-2.81654E+05 3.43709E-07
 -1       856-4.46749E-03 5.08830E-04-1.34110E-07 1.74823E+08-2.81654E+05 3.43709E-07
 -1       857-3.57702E-03 3.41513E-05 1.54792E-04-5.81401E+05-5.86071E+06 2.30386E-04
 -1       859-3.57702E-03 3.41513E-05 1.54792E-04-5.81401E+05-5.86071E+06 2.30386E-04
 -1       868-4.92784E-03 1.61543E-04 2.63155E-05 1.90791E+08-2.88608E+04 3.80492E-06
 -1       870-4.92784E-03 1.61543E-04 2.63155E-05 1.90791E+08-2.88608E+04 3.80492E-06
 -1       871-4.11421E-03-1.28888E-04-2.40058E-04-5.88211E+05-4.39286E+06 9.31572E-05
 -1       873-4.11421E-03-1.28888E-04-2.40058E-04-5.88211E+05-4.39286E+06 9.31572E-05
 -1       882-4.89244E-03-2.29210E-04 9.50694E-06 1.98916E+08 2.41983E+05-2.56143E-06
 -1       884-4.89244E-03-2.29210E-04 9.50694E-06 1.98916E+08 2.41983E+05-2.56143E-06
 -1       885-3.87719E-03-3.01296E-05 1.44529E-03-5.92993E+05-2.82978E+06-3.41502E-04
 -1       887-3.87719E-03-3.01296E-05 1.44529E-03-5.92993E+05-2.82978E+06-3.41502E-04
 -1       896-4.21391E-03-6.49691E-04 6.65486E-05 1.98528E+08 5.32436E+05 1.47424E-05
 -1       898-4.21391E-03-6.49691E-04 6.65486E-05 1.98528E+08 5.32436E+05 1.47424E-05
 -1       899-2.92329E-03 1.46989E-04 3.60754E-03-5.60226E+05-1.21925E+06-2.49982E-04
 -1       901-2.92329E-03 1.46989E-04 3.60754E-03-5.60226E+05-1.21925E+06-2.49982E-04
 -1       910-3.15310E-03-5.29435E-04 4.28855E-05 1.89163E+08 8.28369E+05-5.76649E-06
 -1       912-3.15310E-03-5.29435E-04 4.28855E-05 1.89163E+08 8.28369E+05-5.76649E-06
 -1       913-1.90894E-03 7.23165E-05 4.20946E-03-5.37641E+05 4.06001E+05 2.90965E-04
 -1       915-1.90894E-03 7.23165E-05 4.20946E-03-5.37641E+05 4.06001E+05 2.90965E-04
 -1       924-2.66612E-03 2.36034E-05 5.38826E-05 1.70360E+08 1.13686E+06 6.81734E-06
 -1       926-2.66612E-03 2.36034E-05 5.38826E-05 1.70360E+08 1.13686E+06 6.81734E-06
 -1       927-1.66608E-03-2.86257E-04 3.35422E-03-4.47460E+05 1.98487E+06 7.55890E-04
 -1       929-1.66608E-03-2.86257E-04 3.35422E-03-4.47460E+05 1.98487E+06 7.55890E-04
 -1       938-2.76861E-03-1.08723E-05 1.19185E-04 1.42000E+08 1.43617E+06 1.13732E-06
 -1       940-2.76861E-03-1.08723E-05 1.19185E-04 1.42000E+08 1.43617E+06 1.13732E-06
 -1       941-1.60024E-03-3.82725E-05 2.56069E-03-4.03023E+05 3.46348E+06 5.66606E-04
 -1       943-1.60024E-03-3.82725E-05 2.56069E-03-4.03023E+05 3.46348E+06 5.66606E-04
 -1       952-2.83791E-03-7.81366E-04 1.96556E-05 1.03426E+08 1.73061E+06-7.98531E-06
 -1       954-2.83791E-03-7.81366E-04 1.96556E-05 1.03426E+08 1.73061E+06-7.98531E-06
 -1       955-1.40518E-03 1.88356E-04 2.18846E-03-2.31156E+05 4.77681E+06 1.12111E-04
 -1       957-1.40518E-03 1.88356E-04 2.18846E-03-2.31156E+05 4.77681E+06 1.12111E-04
 -1       966-2.05540E-03-7.45513E-04-2.16374E-05 5.60994E+07 1.98453E+06 1.34965E-05
 -1       968-2.05540E-03-7.45513E-04-2.16374E-05 5.60994E+07 1.98453E+06 1.34965E-05
 -1       969-9.70819E-04 1.83426E-04 1.58224E-03-1.80811E+05 5.75574E+06 6.11705E-05
 -1       971-9.70819E-04 1.83426E-04 1.58224E-03-1.80811E+05 5.75574E+06 6.11705E-05
 -1       980 2.91135E+09 2.52875E+08 4.62294E+05-2.97537E+08-1.29255E+06 4.47532E+06
 -1       982 2.91135E+09 2.52875E+08 4.62294E+05-2.97537E+08-1.29255E+06 4.47532E+06
 -1       983 2.08165E+07 3.67288E+06 3.71036E+03 2.14132E+07 1.58266E+06-9.28373E+04
 -1       985 2.08165E+07 3.67288E+06 3.71036E+03 2.14132E+07 1.58266E+06-9.28373E+04
 -1       986-4.02015E+09-8.25904E+07-2.50345E+05-2.08046E+08 4.09050E+02-2.88992E+06
 -1       988-4.02015E+09-8.25904E+07-2.50345E+05-2.08046E+08 4.09050E+02-2.88992E+06
 -1       989-3.25182E+09 4.57226E+07-1.94862E+06-1.68787E+08-1.18969E+05 1.52139E+05
 -1       991-3.25182E+09 4.57226E+07-1.94862E+06-1.68787E+08-1.18969E+05 1.52139E+05
 -1       992-2.49614E+09-2.34411E+07-1.10967E+06-1.93915E+08-3.33478E+05-1.31843E+06
 -1       994-2.49614E+09-2.34411E+07-1.10967E+06-1.93915E+08-3.33478E+05-1.31843E+06
 -1       995-1.74402E+09 1.15165E+07-4.53251E+05-1.74718E+08-3.76389E+05-5.67677E+05
 -1       997-1.74402E+09 1.15165E+07-4.53251E+05-1.74718E+08-3.76389E+05-5.67677E+05
 -1       998-1.01774E+09-5.63037E+06-8.17102E+05-1.76519E+08-5.22869E+05-8.75924E+05
 -1      1000-1.01774E+09-5.63037E+06-8.17102E+05-1.76519E+08-5.22869E+05-8.75924E+05
 -1      1001-3.14928E+08 2.83887E+06 2.97712E+05-1.65573E+08-6.03353E+05-6.63239E+05
 -1      1003-3.14928E+08 2.83887E+06 2.97712E+05-1.65573E+08-6.03353E+05-6.63239E+05
 -1      1004 3.49152E+08-1.55385E+06-1.84084E+05-1.56791E+08-7.10560E+05-6.82882E+05
 -1      1006 3.49152E+08-1.55385E+06-1.84084E+05-1.56791E+08-7.10560E+05-6.82882E+05
 -1      1007 9.69224E+08 9.24823E+05 7.98956E+05-1.44367E+08-8.02553E+05-5.82179E+05
 -1      1009 9.69224E+08 9.24823E+05 7.98956E+05-1.44367E+08-8.02553E+05-5.82179E+05
 -1      1010 1.53449E+09-6.05291E+05 4.43441E+05-1.30231E+08-8.80664E+05-5.23850E+05
 -1      1012 1.53449E+09-6.05291E+05 4.43441E+05-1.30231E+08-8.80664E+05-5.23850E+05
 -1      1013 2.03796E+09 4.13584E+05 1.18667E+06-1.14221E+08-9.55464E+05-4.37048E+05
 -1      1015 2.03796E+09 4.13584E+05 1.18667E+06-1.14221E+08-9.55464E+05-4.37048E+05
 -1      1016 2.47171E+09-2.91105E+05 9.49523E+05-9.65091E+07-1.00103E+06-3.53184E+05
 -1      1018 2.47171E+09-2.91105E+05 9.49523E+05-9.65091E+07-1.00103E+06-3.53184E+05
 -1      1019 2.83015E+09 2.09434E+05 1.46967E+06-7.75690E+07-1.03910E+06-2.62615E+05
 -1      1021 2.83015E+09 2.09434E+05 1.46967E+06-7.75690E+07-1.03910E+06-2.62615E+05
 -1      1022 3.10844E+09-1.47047E+05 1.29596E+06-5.76808E+07-1.04327E+06-1.70121E+05
 -1      1024 3.10844E+09-1.47047E+05 1.29596E+06-5.76808E+07-1.04327E+06-1.70121E+05
 -1      1025 3.30389E+09 1.09177E+05 1.62973E+06-3.73292E+07-1.03269E+06-7.81347E+04
 -1      1027 3.30389E+09 1.09177E+05 1.62973E+06-3.73292E+07-1.03269E+06-7.81347E+04
 -1      1028 3.41533E+09-7.70255E+04 1.47217E+06-1.69543E+07-9.87818E+05 1.28696E+04
 -1      1030 3.41533E+09-7.70255E+04 1.47217E+06-1.69543E+07-9.87818E+05 1.28696E+04
 -1      1031 3.44378E+09 5.73222E+04 1.65382E+06 2.95366E+06-9.22981E+05 9.86686E+04
 -1      1033 3.44378E+09 5.73222E+04 1.65382E+06 2.95366E+06-9.22981E+05 9.86686E+04
 -1      1034 3.39209E+09-4.58534E+04 1.48308E+06 2.18983E+07-8.26103E+05 1.78960E+05
 -1      1036 3.39209E+09-4.58534E+04 1.48308E+06 2.18983E+07-8.26103E+05 1.78960E+05
 -1      1037 3.26528E+09 2.80587E+04 1.54321E+06 3.93927E+07-7.07683E+05 2.49762E+05
 -1      1039 3.26528E+09 2.80587E+04 1.54321E+06 3.93927E+07-7.07683E+05 2.49762E+05
 -1      1040 3.07029E+09-3.57011E+04 1.34719E+06 5.49518E+07-5.62044E+05 3.10535E+05
 -1      1042 3.07029E+09-3.57011E+04 1.34719E+06 5.49518E+07-5.62044E+05 3.10535E+05
 -1      1043 2.81603E+09 8.14917E+03 1.31524E+06 6.81281E+07-3.97290E+05 3.58050E+05
 -1      1045 2.81603E+09 8.14917E+03 1.31524E+06 6.81281E+07-3.97290E+05 3.58050E+05
 -1      1046 2.51317E+09-3.80123E+04 1.09607E+06 7.84916E+07-2.13117E+05 3.91644E+05
 -1      1048 2.51317E+09-3.80123E+04 1.09607E+06 7.84916E+07-2.13117E+05 3.91644E+05
 -1      1049 2.17409E+09-7.75304E+03 1.00228E+06 8.56690E+07-1.64223E+04 4.09476E+05
 -1      1051 2.17409E+09-7.75304E+03 1.00228E+06 8.56690E+07-1.64223E+04 4.09476E+05
 -1      1052 1.81259E+09-5.18483E+04 7.73426E+05 8.93225E+07 1.88331E+05 4.10200E+05
 -1      1054 1.81259E+09-5.18483E+04 7.73426E+05 8.93225E+07 1.88331E+05 4.10200E+05
 -1      1055 1.44379E+09-1.52523E+04 6.49204E+05 8.91619E+07 3.94190E+05 3.95688E+05
 -1      1057 1.44379E+09-1.52523E+04 6.49204E+05 8.91619E+07 3.94190E+05 3.95688E+05
 -1      1058 1.08379E+09-9.02577E+04 4.33162E+05 8.49906E+07 5.92301E+05 3.59836E+05
 -1      1060 1.08379E+09-9.02577E+04 4.33162E+05 8.49906E+07 5.92301E+05 3.59836E+05
 -1      1061 7.49608E+08 6.40047E+03 3.10008E+05 7.65648E+07 7.73128E+05 3.18205E+05
 -1      1063 7.49608E+08 6.40047E+03 3.10008E+05 7.65648E+07 7.73128E+05 3.18205E+05
 -1      1064 4.58805E+08-1.68371E+05 1.36157E+05 6.38417E+07 9.25198E+05 2.39901E+05
 -1      1066 4.58805E+08-1.68371E+05 1.36157E+05 6.38417E+07 9.25198E+05 2.39901E+05
 -1      1067 2.29311E+08-7.39495E+02 4.67555E+04 4.68245E+07 1.03116E+06 1.97845E+05
 -1      1069 2.29311E+08-7.39495E+02 4.67555E+04 4.68245E+07 1.03116E+06 1.97845E+05
 -1      1070 7.97215E+07 4.92844E+04-6.05229E+04 2.46026E+07 1.09089E+06 4.47860E+04
 -1      1072 7.97215E+07 4.92844E+04-6.05229E+04 2.46026E+07 1.09089E+06 4.47860E+04
 -1      1073-2.91135E+09-2.52875E+08-4.62294E+05-2.97537E+08-1.29255E+06-4.47532E+06
 -1      1075-2.91135E+09-2.52875E+08-4.62294E+05-2.97537E+08-1.29255E+06-4.47532E+06
 -1      1076-7.26415E-03-1.64358E-06-4.78890E-04-8.19742E+06-1.77077E+03-6.90544E-03
 -1      1078-7.26415E-03-1.64358E-06-4.78890E-04-8.19742E+06-1.77077E+03-6.90544E-03
 -1      1079-4.45743E-04 2.92265E-06 9.58208E-04-1.93495E+07 1.00623E-04-6.25397E-03
 -1      1081-4.45743E-04 2.92265E-06 9.58208E-04-1.93495E+07 1.00623E-04-6.25397E-03
 -1      1082 6.08673E-03-7.57975E-06 1.99957E-03-8.19742E+06 1.77077E+03-5.40694E-03
 -1      1084 6.08673E-03-7.57975E-06 1.99957E-03-8.19742E+06 1.77077E+03-5.40694E-03
 -1      1085 9.61894E-03 3.38864E-05 1.80163E-03-9.55152E+05 1.90884E+06-5.50791E-03
 -1      1087 9.61894E-03 3.38864E-05 1.80163E-03-9.55152E+05 1.90884E+06-5.50791E-03
 -1      1088 1.33979E-02 7.03797E-04-6.48201E-06-3.92144E+08 1.22886E+06-3.32373E-05
 -1      1090 1.33979E-02 7.03797E-04-6.48201E-06-3.92144E+08 1.22886E+06-3.32373E-05
 -1      1099 8.90473E-03-3.24053E-05 4.00559E-04-1.82759E+05 1.80754E+06-6.33252E-03
 -1      1101 8.90473E-03-3.24053E-05 4.00559E-04-1.82759E+05 1.80754E+06-6.33252E-03
 -1      1102 1.18757E-02-1.45257E-04-2.51383E-05-4.33011E+08-1.00217E+05 2.92112E-05
 -1      1104 1.18757E-02-1.45257E-04-2.51383E-05-4.33011E+08-1.00217E+05 2.92112E-05
 -1      1113 7.44319E-03-9.82488E-05-6.59707E-04 9.08952E+05 2.70811E+06-6.54301E-03
 -1      1115 7.44319E-03-9.82488E-05-6.59707E-04 9.08952E+05 2.70811E+06-6.54301E-03
 -1      1116 9.78023E-03-7.75456E-05-1.35303E-05-3.99746E+08 2.57486E+05-1.28947E-06
 -1      1118 9.78023E-03-7.75456E-05-1.35303E-05-3.99746E+08 2.57486E+05-1.28947E-06
 -1      1127 5.69043E-03-1.89363E-04-1.69756E-03-4.30856E+05 3.91907E+06-6.37414E-03
 -1      1129 5.69043E-03-1.89363E-04-1.69756E-03-4.30856E+05 3.91907E+06-6.37414E-03
 -1      1130 8.01772E-03-1.99057E-04-6.21453E-05-4.06496E+08 3.19277E+05 3.33949E-05
 -1      1132 8.01772E-03-1.99057E-04-6.21453E-05-4.06496E+08 3.19277E+05 3.33949E-05
 -1      1141 4.30374E-03-2.29270E-05-3.05900E-03 6.03249E+05 4.83400E+06-6.10306E-03
 -1      1143 4.30374E-03-2.29270E-05-3.05900E-03 6.03249E+05 4.83400E+06-6.10306E-03
 -1      1144 6.67615E-03 2.18060E-04-5.74365E-05-3.86561E+08 3.60344E+05 1.79082E-06
 -1      1146 6.67615E-03 2.18060E-04-5.74365E-05-3.86561E+08 3.60344E+05 1.79082E-06
 -1      1155 3.48904E-03 2.03212E-04-3.66654E-03-8.17523E+04 6.07127E+06-4.98883E-03
 -1      1157 3.48904E-03 2.03212E-04-3.66654E-03-8.17523E+04 6.07127E+06-4.98883E-03
 -1      1158 6.07731E-03 4.57923E-04-1.91010E-05-3.72270E+08 5.77726E+05-3.71656E-08
 -1      1160 6.07731E-03 4.57923E-04-1.91010E-05-3.72270E+08 5.77726E+05-3.71656E-08
 -1      1169 3.59053E-03 1.55716E-04-1.98346E-03 2.75716E+05 7.06638E+06-3.33903E-03
 -1      1171 3.59053E-03 1.55716E-04-1.98346E-03 2.75716E+05 7.06638E+06-3.33903E-03
 -1      1172 6.19160E-03 2.37813E-05-1.93482E-06-3.48909E+08 6.35448E+05 7.60765E-06
 -1      1174 6.19160E-03 2.37813E-05-1.93482E-06-3.48909E+08 6.35448E+05 7.60765E-06
 -1      1183 3.85110E-03 5.40284E-04 5.14459E-04 5.51257E+04 8.12729E+06-3.38589E-03
 -1      1185 3.85110E-03 5.40284E-04 5.14459E-04 5.51257E+04 8.12729E+06-3.38589E-03
 -1      1186 5.67651E-03-7.35521E-05-5.57303E-06-3.22306E+08 8.21526E+05-8.09807E-06
 -1      1188 5.67651E-03-7.35521E-05-5.57303E-06-3.22306E+08 8.21526E+05-8.09807E-06
 -1      1197 2.77867E-03-2.70209E-05 2.39880E-04 9.65398E+04 9.03612E+06-4.65510E-03
 -1      1199 2.77867E-03-2.70209E-05 2.39880E-04 9.65398E+04 9.03612E+06-4.65510E-03
 -1      1200 4.01047E-03 1.93819E-04 6.50436E-06-2.90551E+08 9.03054E+05-3.72524E-05
 -1      1202 4.01047E-03 1.93819E-04 6.50436E-06-2.90551E+08 9.03054E+05-3.72524E-05
 -1      1211 1.75141E-03-5.01144E-04-1.24586E-03 2.75818E+04 9.83949E+06-4.52837E-03
 -1      1213 1.75141E-03-5.01144E-04-1.24586E-03 2.75818E+04 9.83949E+06-4.52837E-03
 -1      1214 2.65408E-03 3.51287E-04 3.23132E-05-2.54809E+08 1.03677E+06-4.13856E-05
 -1      1216 2.65408E-03 3.51287E-04 3.23132E-05-2.54809E+08 1.03677E+06-4.13856E-05
 -1      1225 1.68881E-03-4.29788E-04-7.89964E-04-3.09495E+04 1.04968E+07-3.15753E-03
 -1      1227 1.68881E-03-4.29788E-04-7.89964E-04-3.09495E+04 1.04968E+07-3.15753E-03
 -1      1228 2.05722E-03 4.41834E-04-2.10255E-05-2.15349E+08 1.10400E+06-4.26116E-05
 -1      1230 2.05722E-03 4.41834E-04-2.10255E-05-2.15349E+08 1.10400E+06-4.26116E-05
 -1      1239 1.35208E-03-2.88538E-04 1.41647E-03-7.43765E+04 1.09629E+07-2.19898E-03
 -1      1241 1.35208E-03-2.88538E-04 1.41647E-03-7.43765E+04 1.09629E+07-2.19898E-03
 -1      1242 9.72003E-04 4.52831E-04 3.23206E-05-1.73091E+08 1.17938E+06-5.06998E-05
 -1      1244 9.72003E-04 4.52831E-04 3.23206E-05-1.73091E+08 1.17938E+06-5.06998E-05
 -1      1253 3.23475E-04-1.09735E-04 3.35195E-03-1.56629E+05 1.12532E+07-1.88827E-03
 -1      1255 3.23475E-04-1.09735E-04 3.35195E-03-1.56629E+05 1.12532E+07-1.88827E-03
 -1      1256-6.96838E-04 4.19959E-04 3.72529E-05-1.28733E+08 1.20314E+06-2.93278E-05
 -1      1258-6.96838E-04 4.19959E-04 3.72529E-05-1.28733E+08 1.20314E+06-2.93278E-05
 -1      1267-6.28041E-04-9.50752E-06 3.70497E-03-2.05109E+05 1.13144E+07-1.47836E-03
 -1      1269-6.28041E-04-9.50752E-06 3.70497E-03-2.05109E+05 1.13144E+07-1.47836E-03
 -1      1270-1.64396E-03 4.97580E-04-3.91454E-05-8.33714E+07 1.21272E+06-1.48069E-05
 -1      1272-1.64396E-03 4.97580E-04-3.91454E-05-8.33714E+07 1.21272E+06-1.48069E-05
 -1      1281-7.65128E-04 1.14278E-04 3.32209E-03-2.87357E+05 1.11731E+07-1.71079E-04
 -1      1283-7.65128E-04 1.14278E-04 3.32209E-03-2.87357E+05 1.11731E+07-1.71079E-04
 -1      1284-1.53565E-03 3.91215E-04-7.46101E-05-3.79205E+07 1.17619E+06-8.68680E-06
 -1      1286-1.53565E-03 3.91215E-04-7.46101E-05-3.79205E+07 1.17619E+06-8.68680E-06
 -1      1295-1.66143E-04 5.60055E-05 3.46145E-03-3.40136E+05 1.07944E+07 9.07534E-04
 -1      1297-1.66143E-04 5.60055E-05 3.46145E-03-3.40136E+05 1.07944E+07 9.07534E-04
 -1      1298-7.30872E-04 1.10209E-04 1.02371E-05 6.44564E+06 1.11452E+06 2.18154E-05
 -1      1300-7.30872E-04 1.10209E-04 1.02371E-05 6.44564E+06 1.11452E+06 2.18154E-05
 -1      1309 9.99389E-04 4.06425E-04 3.46399E-03-4.12517E+05 1.02059E+07 3.71017E-04
 -1      1311 9.99389E-04 4.06425E-04 3.46399E-03-4.12517E+05 1.02059E+07 3.71017E-04
 -1      1312 4.65155E-04-9.65893E-05-8.76188E-05 4.86963E+07 1.01076E+06 8.42883E-08
 -1      1314 4.65155E-04-9.65893E-05-8.76188E-05 4.86963E+07 1.01076E+06 8.42883E-08
 -1      1323 1.99423E-03 3.56229E-04 1.99096E-03-4.60721E+05 9.39555E+06-4.04268E-04
 -1      1325 1.99423E-03 3.56229E-04 1.99096E-03-4.60721E+05 9.39555E+06-4.04268E-04
 -1      1326 1.65227E-03-2.65464E-04-1.14888E-05 8.76807E+07 8.77570E+05 8.82598E-06
 -1      1328 1.65227E-03-2.65464E-04-1.14888E-05 8.76807E+07 8.77570E+05 8.82598E-06
 -1      1337 2.35615E-03 2.20729E-04 2.44794E-04-5.16110E+05 8.39143E+06-4.65773E-04
 -1      1339 2.35615E-03 2.20729E-04 2.44794E-04-5.16110E+05 8.39143E+06-4.65773E-04
 -1      1340 2.13018E-03-7.49186E-04 7.43419E-05 1.22372E+08 7.07845E+05 2.60609E-05
 -1      1342 2.13018E-03-7.49186E-04 7.43419E-05 1.22372E+08 7.07845E+05 2.60609E-05
 -1      1351 1.93221E-03 3.15873E-04-8.79298E-04-5.49216E+05 7.20348E+06-3.76116E-04
 -1      1353 1.93221E-03 3.15873E-04-8.79298E-04-5.49216E+05 7.20348E+06-3.76116E-04
 -1      1354 1.69492E-03-1.00210E-03-2.26051E-05 1.51724E+08 5.09009E+05 2.23260E-05
 -1      1356 1.69492E-03-1.00210E-03-2.26051E-05 1.51724E+08 5.09009E+05 2.23260E-05
 -1      1365 1.02105E-03 1.14399E-05-1.48807E-03-5.81401E+05 5.86071E+06 3.23770E-04
 -1      1367 1.02105E-03 1.14399E-05-1.48807E-03-5.81401E+05 5.86071E+06 3.23770E-04
 -1      1368 1.14399E-03-5.38498E-04-1.50055E-05 1.74823E+08 2.81654E+05 1.97471E-06
 -1      1370 1.14399E-03-5.38498E-04-1.50055E-05 1.74823E+08 2.81654E+05 1.97471E-06
 -1      1379 2.21061E-04-3.24904E-04-3.13200E-04-5.88211E+05 4.39286E+06 1.24504E-03
 -1      1381 2.21061E-04-3.24904E-04-3.13200E-04-5.88211E+05 4.39286E+06 1.24504E-03
 -1      1382 6.68555E-04-3.36573E-04 2.72840E-05 1.90791E+08 2.88608E+04-4.70682E-07
 -1      1384 6.68555E-04-3.36573E-04 2.72840E-05 1.90791E+08 2.88608E+04-4.70682E-07
 -1      1393-3.85031E-04-1.76930E-04 2.34045E-03-5.92993E+05 2.82978E+06 9.31991E-04
 -1      1395-3.85031E-04-1.76930E-04 2.34045E-03-5.92993E+05 2.82978E+06 9.31991E-04
 -1      1396-1.24663E-04-4.44330E-04-4.50611E-05 1.98916E+08-2.41983E+05-9.58893E-06
 -1      1398-1.24663E-04-4.44330E-04-4.50611E-05 1.98916E+08-2.41983E+05-9.58893E-06
 -1      1407-8.17497E-04-9.77748E-05 3.09505E-03-5.60226E+05 1.21925E+06-3.60089E-04
 -1      1409-8.17497E-04-9.77748E-05 3.09505E-03-5.60226E+05 1.21925E+06-3.60089E-04
 -1      1410-6.66857E-04-5.28842E-05 1.82167E-05 1.98528E+08-5.32436E+05-1.66099E-05
 -1      1412-6.66857E-04-5.28842E-05 1.82167E-05 1.98528E+08-5.32436E+05-1.66099E-05
 -1      1421-6.99665E-04-1.41983E-04 1.62527E-03-5.37641E+05-4.06001E+05-5.74132E-04
 -1      1423-6.99665E-04-1.41983E-04 1.62527E-03-5.37641E+05-4.06001E+05-5.74132E-04
 -1      1424-5.41508E-04 2.81073E-04 1.63801E-05 1.89163E+08-8.28369E+05 1.60450E-05
 -1      1426-5.41508E-04 2.81073E-04 1.63801E-05 1.89163E+08-8.28369E+05 1.60450E-05
 -1      1435-1.81351E-04-2.46574E-04 7.58321E-04-4.47460E+05-1.98487E+06 4.34717E-04
 -1      1437-1.81351E-04-2.46574E-04 7.58321E-04-4.47460E+05-1.98487E+06 4.34717E-04
 -1      1438 4.93154E-05 3.25762E-04 7.48038E-05 1.70360E+08-1.13686E+06 1.41776E-05
 -1      1440 4.93154E-05 3.25762E-04 7.48038E-05 1.70360E+08-1.13686E+06 1.41776E-05
 -1      1449 4.55089E-04-2.81061E-04 1.09494E-03-4.03023E+05-3.46348E+06 6.25347E-04
 -1      1451 4.55089E-04-2.81061E-04 1.09494E-03-4.03023E+05-3.46348E+06 6.25347E-04
 -1      1452 5.99273E-04 3.14569E-04 2.41585E-06 1.42000E+08-1.43617E+06 2.13365E-05
 -1      1454 5.99273E-04 3.14569E-04 2.41585E-06 1.42000E+08-1.43617E+06 2.13365E-05
 -1      1463 1.07785E-03 4.03879E-04 1.35643E-03-2.31156E+05-4.77681E+06-1.48067E-04
 -1      1465 1.07785E-03 4.03879E-04 1.35643E-03-2.31156E+05-4.77681E+06-1.48067E-04
 -1      1466 9.72031E-04 3.05241E-04 4.54476E-05 1.03426E+08-1.73061E+06 8.21408E-06
 -1      1468 9.72031E-04 3.05241E-04 4.54476E-05 1.03426E+08-1.73061E+06 8.21408E-06
 -1      1477 7.02928E-04 2.32010E-04 8.47597E-04-1.80811E+05-5.75574E+06-4.76728E-04
 -1      1479 7.02928E-04 2.32010E-04 8.47597E-04-1.80811E+05-5.75574E+06-4.76728E-04
 -1      1480 1.01190E-03 6.52373E-04 2.49520E-04 5.60994E+07-1.98453E+06-7.14874E-06
 -1      1482 1.01190E-03 6.52373E-04 2.49520E-04 5.60994E+07-1.98453E+06-7.14874E-06
 -1      1491-5.32992E-04 9.09280E-05 1.45781E-03-4.22747E+05 1.82140E+06 8.49704E-06
 -1      1493-5.32992E-04 9.09280E-05 1.45781E-03-4.22747E+05 1.82140E+06 8.49704E-06
 -1      1494 1.70582E-05 7.92440E-04 1.69182E-03-4.89110E+05-1.46466E-04 3.36445E-05
 -1      1496 1.70582E-05 7.92440E-04 1.69182E-03-4.89110E+05-1.46466E-04 3.36445E-05
 -1      1497 3.31079E-04 6.97438E-04 1.06113E-03-4.22747E+05-1.82140E+06-8.58929E-05
 -1      1499 3.31079E-04 6.97438E-04 1.06113E-03-4.22747E+05-1.82140E+06-8.58929E-05
 -1      1500-4.02015E+09-8.25904E+07-2.50345E+05-2.08046E+08-4.09050E+02 2.88992E+06
 -1      1502-4.02015E+09-8.25904E+07-2.50345E+05-2.08046E+08-4.09050E+02 2.88992E+06
 -1      1503-3.25182E+09 4.57226E+07-1.94862E+06-1.68787E+08 1.18969E+05-1.52139E+05
 -1      1505-3.25182E+09 4.57226E+07-1.94862E+06-1.68787E+08 1.18969E+05-1.52139E+05
 -1      1506-2.49614E+09-2.34411E+07-1.10967E+06-1.93915E+08 3.33478E+05 1.31843E+06
 -1      1508-2.49614E+09-2.34411E+07-1.10967E+06-1.93915E+08 3.33478E+05 1.31843E+06
 -1      1509-1.74402E+09 1.15165E+07-4.53251E+05-1.74718E+08 3.76389E+05 5.67677E+05
 -1      1511-1.74402E+09 1.15165E+07-4.53251E+05-1.74718E+08 3.76389E+05 5.67677E+05
 -1      1512-1.01774E+09-5.63037E+06-8.17102E+05-1.76519E+08 5.22869E+05 8.75924E+05
 -1      1514-1.01774E+09-5.63037E+06-8.17102E+05-1.76519E+08 5.22869E+05 8.75924E+05
 -1      1515-3.14928E+08 2.83887E+06 2.97712E+05-1.65573E+08 6.03353E+05 6.63239E+05
 -1      1517-3.14928E+08 2.83887E+06 2.97712E+05-1.65573E+08 6.03353E+05 6.63239E+05
 -1      1518 3.49152E+08-1.55385E+06-1.84084E+05-1.56791E+08 7.10560E+05 6.82882E+05
 -1      1520 3.49152E+08-1.55385E+06-1.84084E+05-1.56791E+08 7.10560E+05 6.82882E+05
 -1      1521 9.69224E+08 9.24823E+05 7.98956E+05-1.44367E+08 8.02553E+05 5.82179E+05
 -1      1523 9.69224E+08 9.24823E+05 7.98956E+05-1.44367E+08 8.02553E+05 5.82179E+05
 -1      1524 1.53449E+09-6.05291E+05 4.43441E+05-1.30231E+08 8.80664E+05 5.23850E+05
 -1      1526 1.53449E+09-6.05291E+05 4.43441E+05-1.30231E+08 8.80664E+05 5.23850E+05
 -1      1527 2.03796E+09 4.13584E+05 1.18667E+06-1.14221E+08 9.55464E+05 4.37048E+05
 -1      1529 2.03796E+09 4.13584E+05 1.18667E+06-1.14221E+08 9.55464E+05 4.37048E+05
 -1      1530 2.47171E+09-2.91105E+05 9.49523E+05-9.65091E+07 1.00103E+06 3.53184E+05
 -1      1532 2.47171E+09-2.91105E+05 9.49523E+05-9.65091E+07 1.00103E+06 3.53184E+05
 -1      1533 2.83015E+09 2.09434E+05 1.46967E+06-7.75690E+07 1.03910E+06 2.62615E+05
 -1      1535 2.83015E+09 2.09434E+05 1.46967E+06-7.75690E+07 1.03910E+06 2.62615E+05
 -1      1536 3.10844E+09-1.47047E+05 1.29596E+06-5.76808E+07 1.04327E+06 1.70121E+05
 -1      1538 3.10844E+09-1.47047E+05 1.29596E+06-5.76808E+07 1.04327E+06 1.70121E+05
 -1      1539 3.30389E+09 1.09177E+05 1.62973E+06-3.73292E+07 1.03269E+06 7.81347E+04
 -1      1541 3.30389E+09 1.09177E+05 1.62973E+06-3.73292E+07 1.03269E+06 7.81347E+04
 -1      1542 3.41533E+09-7.70255E+04 1.47217E+06-1.69543E+07 9.87818E+05-1.28696E+04
 -1      1544 3.41533E+09-7.70255E+04 1.47217E+06-1.69543E+07 9.87818E+05-1.28696E+04
 -1      1545 3.44378E+09 5.73222E+04 1.65382E+06 2.95366E+06 9.22981E+05-9.86686E+04
 -1      1547 3.44378E+09 5.73222E+04 1.65382E+06 2.95366E+06 9.22981E+05-9.86686E+04
 -1      1548 3.39209E+09-4.58534E+04 1.48308E+06 2.18983E+07 8.26103E+05-1.78960E+05
 -1      1550 3.39209E+09-4.58534E+04 1.48308E+06 2.18983E+07 8.26103E+05-1.78960E+05
 -1      1551 3.26528E+09 2.80587E+04 1.54321E+06 3.93927E+07 7.07683E+05-2.49762E+05
 -1      1553 3.26528E+09 2.80587E+04 1.54321E+06 3.93927E+07 7.07683E+05-2.49762E+05
 -1      1554 3.07029E+09-3.57011E+04 1.34719E+06 5.49518E+07 5.62044E+05-3.10535E+05
 -1      1556 3.07029E+09-3.57011E+04 1.34719E+06 5.49518E+07 5.62044E+05-3.10535E+05
 -1      1557 2.81603E+09 8.14917E+03 1.31524E+06 6.81281E+07 3.97290E+05-3.58050E+05
 -1      1559 2.81603E+09 8.14917E+03 1.31524E+06 6.81281E+07 3.97290E+05-3.58050E+05
 -1      1560 2.51317E+09-3.80123E+04 1.09607E+06 7.84916E+07 2.13117E+05-3.91644E+05
 -1      1562 2.51317E+09-3.80123E+04 1.09607E+06 7.84916E+07 2.13117E+05-3.91644E+05
 -1      1563 2.17409E+09-7.75304E+03 1.00228E+06 8.56690E+07 1.64223E+04-4.09476E+05
 -1      1565 2.17409E+09-7.75304E+03 1.00228E+06 8.56690E+07 1.64223E+04-4.09476E+05
 -1      1566 1.81259E+09-5.18483E+04 7.73426E+05 8.93225E+07-1.88331E+05-4.10200E+05
 -1      1568 1.81259E+09-5.18483E+04 7.73426E+05 8.93225E+07-1.88331E+05-4.10200E+05
 -1      1569 1.44379E+09-1.52523E+04 6.49204E+05 8.91619E+07-3.94190E+05-3.95688E+05
 -1      1571 1.44379E+09-1.52523E+04 6.49204E+05 8.91619E+07-3.94190E+05-3.95688E+05
 -1      1572 1.08379E+09-9.02577E+04 4.33162E+05 8.49906E+07-5.92301E+05-3.59836E+05
 -1      1574 1.08379E+09-9.02577E+04 4.33162E+05 8.49906E+07-5.92301E+05-3.59836E+05
 -1      1575 7.49608E+08 6.40047E+03 3.10008E+05 7.65648E+07-7.73128E+05-3.18205E+05
 -1      1577 7.49608E+08 6.40047E+03 3.10008E+05 7.65648E+07-7.73128E+05-3.18205E+05
 -1      1578 4.58805E+08-1.68371E+05 1.36157E+05 6.38417E+07-9.25198E+05-2.39901E+05
 -1      1580 4.58805E+08-1.68371E+05 1.36157E+05 6.38417E+07-9.25198E+05-2.39901E+05
 -1      1581 2.29311E+08-7.39494E+02 4.67555E+04 4.68245E+07-1.03116E+06-1.97845E+05
 -1      1583 2.29311E+08-7.39494E+02 4.67555E+04 4.68245E+07-1.03116E+06-1.97845E+05
 -1      1584 7.97215E+07 4.92844E+04-6.05229E+04 2.46026E+07-1.09089E+06-4.47860E+04
 -1      1586 7.97215E+07 4.92844E+04-6.05229E+04 2.46026E+07-1.09089E+06-4.47860E+04
 -1      1587 2.08165E+07 3.67288E+06 3.71036E+03 2.14132E+07-1.58266E+06 9.28373E+04
 -1      1589 2.08165E+07 3.67288E+06 3.71036E+03 2.14132E+07-1.58266E+06 9.28373E+04
 -1      1590-2.91135E+09-2.52875E+08-4.62294E+05-2.97537E+08 1.29255E+06 4.47532E+06
 -1      1592-2.91135E+09-2.52875E+08-4.62294E+05-2.97537E+08 1.29255E+06 4.47532E+06
 -1      1593-2.08165E+07-3.67288E+06-3.71036E+03 2.14132E+07-1.58266E+06-9.28373E+04
 -1      1595-2.08165E+07-3.67288E+06-3.71036E+03 2.14132E+07-1.58266E+06-9.28373E+04
 -1      1596 4.02015E+09 8.25904E+07 2.50345E+05-2.08046E+08-4.09050E+02-2.88992E+06
 -1      1598 4.02015E+09 8.25904E+07 2.50345E+05-2.08046E+08-4.09050E+02-2.88992E+06
 -1      1599 3.25182E+09-4.57226E+07 1.94862E+06-1.68787E+08 1.18969E+05 1.52139E+05
 -1      1601 3.25182E+09-4.57226E+07 1.94862E+06-1.68787E+08 1.18969E+05 1.52139E+05
 -1      1602 2.49614E+09 2.34411E+07 1.10967E+06-1.93915E+08 3.33478E+05-1.31843E+06
 -1      1604 2.49614E+09 2.34411E+07 1.10967E+06-1.93915E+08 3.33478E+05-1.31843E+06
 -1      1605 1.74402E+09-1.15165E+07 4.53251E+05-1.74718E+08 3.76389E+05-5.67677E+05
 -1      1607 1.74402E+09-1.15165E+07 4.53251E+05-1.74718E+08 3.76389E+05-5.67677E+05
 -1      1608 1.01774E+09 5.63037E+06 8.17102E+05-1.76519E+08 5.22869E+05-8.75924E+05
 -1      1610 1.01774E+09 5.63037E+06 8.17102E+05-1.76519E+08 5.22869E+05-8.75924E+05
 -1      1611 3.14928E+08-2.83887E+06-2.97712E+05-1.65573E+08 6.03353E+05-6.63239E+05
 -1      1613 3.14928E+08-2.83887E+06-2.97712E+05-1.65573E+08 6.03353E+05-6.63239E+05
 -1      1614-3.49152E+08 1.55385E+06 1.84084E+05-1.56791E+08 7.10560E+05-6.82882E+05
 -1      1616-3.49152E+08 1.55385E+06 1.84084E+05-1.56791E+08 7.10560E+05-6.82882E+05
 -1      1617-9.69224E+08-9.24823E+05-7.98956E+05-1.44367E+08 8.02553E+05-5.82179E+05
 -1      1619-9.69224E+08-9.24823E+05-7.98956E+05-1.44367E+08 8.02553E+05-5.82179E+05
 -1      1620-1.53449E+09 6.05291E+05-4.43441E+05-1.30231E+08 8.80664E+05-5.23850E+05
 -1      1622-1.53449E+09 6.05291E+05-4.43441E+05-1.30231E+08 8.80664E+05-5.23850E+05
 -1      1623-2.03796E+09-4.13584E+05-1.18667E+06-1.14221E+08 9.55464E+05-4.37048E+05
 -1      1625-2.03796E+09-4.13584E+05-1.18667E+06-1.14221E+08 9.55464E+05-4.37048E+05
 -1      1626-2.47171E+09 2.91105E+05-9.49523E+05-9.65091E+07 1.00103E+06-3.53184E+05
 -1      1628-2.47171E+09 2.91105E+05-9.49523E+05-9.65091E+07 1.00103E+06-3.53184E+05
 -1      1629-2.83015E+09-2.09434E+05-1.46967E+06-7.75690E+07 1.03910E+06-2.62615E+05
 -1      1631-2.83015E+09-2.09434E+05-1.46967E+06-7.75690E+07 1.03910E+06-2.62615E+05
 -1      1632-3.10844E+09 1.47047E+05-1.29596E+06-5.76808E+07 1.04327E+06-1.70121E+05
 -1      1634-3.10844E+09 1.47047E+05-1.29596E+06-5.76808E+07 1.04327E+06-1.70121E+05
 -1      1635-3.30389E+09-1.09177E+05-1.62973E+06-3.73292E+07 1.03269E+06-7.81347E+04
 -1      1637-3.30389E+09-1.09177E+05-1.62973E+06-3.73292E+07 1.03269E+06-7.81347E+04
 -1      1638-3.41533E+09 7.70255E+04-1.47217E+06-1.69543E+07 9.87818E+05 1.28696E+04
 -1      1640-3.41533E+09 7.70255E+04-1.47217E+06-1.69543E+07 9.87818E+05 1.28696E+04
 -1      1641-3.44378E+09-5.73222E+04-1.65382E+06 2.95366E+06 9.22981E+05 9.86686E+04
 -1      1643-3.44378E+09-5.73222E+04-1.65382E+06 2.95366E+06 9.22981E+05 9.86686E+04
 -1      1644-3.39209E+09 4.58534E+04-1.48308E+06 2.18983E+07 8.26103E+05 1.78960E+05
 -1      1646-3.39209E+09 4.58534E+04-1.48308E+06 2.18983E+07 8.26103E+05 1.78960E+05
 -1      1647-3.26528E+09-2.80587E+04-1.54321E+06 3.93927E+07 7.07683E+05 2.49762E+05
 -1      1649-3.26528E+09-2.80587E+04-1.54321E+06 3.93927E+07 7.07683E+05 2.49762E+05
 -1      1650-3.07029E+09 3.57011E+04-1.34719E+06 5.49518E+07 5.62044E+05 3.10535E+05
 -1      1652-3.07029E+09 3.57011E+04-1.34719E+06 5.49518E+07 5.62044E+05 3.10535E+05
 -1      1653-2.81603E+09-8.14917E+03-1.31524E+06 6.81281E+07 3.97290E+05 3.58050E+05
 -1      1655-2.81603E+09-8.14917E+03-1.31524E+06 6.81281E+07 3.97290E+05 3.58050E+05
 -1      1656-2.51317E+09 3.80123E+04-1.09607E+06 7.84916E+07 2.13117E+05 3.91644E+05
 -1      1658-2.51317E+09 3.80123E+04-1.09607E+06 7.84916E+07 2.13117E+05 3.91644E+05
 -1      1659-2.17409E+09 7.75304E+03-1.00228E+06 8.56690E+07 1.64223E+04 4.09476E+05
 -1      1661-2.17409E+09 7.75304E+03-1.00228E+06 8.56690E+07 1.64223E+04 4.09476E+05
 -1      1662-1.81259E+09 5.18483E+04-7.73426E+05 8.93225E+07-1.88331E+05 4.10200E+05
 -1      1664-1.81259E+09 5.18483E+04-7.73426E+05 8.93225E+07-1.88331E+05 4.10200E+05
 -1      1665-1.44379E+09 1.52523E+04-6.49204E+05 8.91619E+07-3.94190E+05 3.95688E+05
 -1      1667-1.44379E+09 1.52523E+04-6.49204E+05 8.91619E+07-3.94190E+05 3.95688E+05
 -1      1668-1.08379E+09 9.02577E+04-4.33162E+05 8.49906E+07-5.92301E+05 3.59836E+05
 -1      1670-1.08379E+09 9.02577E+04-4.33162E+05 8.49906E+07-5.92301E+05 3.59836E+05
 -1      1671-7.49608E+08-6.40047E+03-3.10008E+05 7.65648E+07-7.73128E+05 3.18205E+05
 -1      1673-7.49608E+08-6.40047E+03-3.10008E+05 7.65648E+07-7.73128E+05 3.18205E+05
 -1      1674-4.58805E+08 1.68371E+05-1.36157E+05 6.38417E+07-9.25198E+05 2.39901E+05
 -1      1676-4.58805E+08 1.68371E+05-1.36157E+05 6.38417E+07-9.25198E+05 2.39901E+05
 -1      1677-2.29311E+08 7.39494E+02-4.67555E+04 4.68245E+07-1.03116E+06 1.97845E+05
 -1      1679-2.29311E+08 7.39494E+02-4.67555E+04 4.68245E+07-1.03116E+06 1.97845E+05
 -1      1680-7.97215E+07-4.92844E+04 6.05229E+04 2.46026E+07-1.09089E+06 4.47860E+04
 -1      1682-7.97215E+07-4.92844E+04 6.05229E+04 2.46026E+07-1.09089E+06 4.47860E+04
 -1      1683 2.91135E+09 2.52875E+08 4.62294E+05-2.97537E+08 1.29255E+06-4.47532E+06
 -1      1685 2.91135E+09 2.52875E+08 4.62294E+05-2.97537E+08 1.29255E+06-4.47532E+06
 -1      1686 2.67970E+09 6.53750E+07 2.34812E+04-3.00095E+08-6.14225E+05 1.22135E+06
 -1      1688 2.67970E+09 6.53750E+07 2.34812E+04-3.00095E+08-6.14225E+05 1.22135E+06
 -1      1689 2.17341E+09-3.47597E+07-9.29010E+04-3.00899E+08-9.37618E+03-4.95617E+05
 -1      1691 2.17341E+09-3.47597E+07-9.29010E+04-3.00899E+08-9.37618E+03-4.95617E+05
 -1      1692 1.65940E+09 1.68700E+07 6.60678E+04-2.96830E+08-2.95482E+05 3.41029E+05
 -1      1694 1.65940E+09 1.68700E+07 6.60678E+04-2.96830E+08-2.95482E+05 3.41029E+05
 -1      1695 1.16646E+09-5.99478E+06 1.16672E+04-2.90607E+08-3.47833E+05-5.22157E+04
 -1      1697 1.16646E+09-5.99478E+06 1.16672E+04-2.90607E+08-3.47833E+05-5.22157E+04
 -1      1698 6.77632E+08 3.44672E+06-3.51071E+04-2.81540E+08-4.41606E+05 1.31245E+05
 -1      1700 6.77632E+08 3.44672E+06-3.51071E+04-2.81540E+08-4.41606E+05 1.31245E+05
 -1      1701 2.12250E+08 7.87863E+05 5.63015E+04-2.68921E+08-5.90540E+05 4.97125E+04
 -1      1703 2.12250E+08 7.87863E+05 5.63015E+04-2.68921E+08-5.90540E+05 4.97125E+04
 -1      1704-2.31516E+08 1.81425E+06-4.61150E+04-2.52850E+08-6.73004E+05 7.99648E+04
 -1      1706-2.31516E+08 1.81425E+06-4.61150E+04-2.52850E+08-6.73004E+05 7.99648E+04
 -1      1707-6.43776E+08 2.17428E+06 3.71270E+04-2.33337E+08-8.12039E+05 6.22233E+04
 -1      1709-6.43776E+08 2.17428E+06 3.71270E+04-2.33337E+08-8.12039E+05 6.22233E+04
 -1      1710-1.02066E+09 2.34151E+06-2.34628E+04-2.10391E+08-8.91859E+05 5.78044E+04
 -1      1712-1.02066E+09 2.34151E+06-2.34628E+04-2.10391E+08-8.91859E+05 5.78044E+04
 -1      1713-1.35576E+09 2.72194E+06 8.11642E+03-1.84515E+08-9.96115E+05 4.76765E+04
 -1      1715-1.35576E+09 2.72194E+06 8.11642E+03-1.84515E+08-9.96115E+05 4.76765E+04
 -1      1716-1.64481E+09 2.90866E+06-2.74475E+03-1.55929E+08-1.05251E+06 3.45607E+04
 -1      1718-1.64481E+09 2.90866E+06-2.74475E+03-1.55929E+08-1.05251E+06 3.45607E+04
 -1      1719-1.88347E+09 3.08695E+06-1.19476E+04-1.25330E+08-1.10924E+06 2.17878E+04
 -1      1721-1.88347E+09 3.08695E+06-1.19476E+04-1.25330E+08-1.10924E+06 2.17878E+04
 -1      1722-2.06893E+09 3.21361E+06 8.70466E+03-9.32071E+07-1.12321E+06 5.51254E+03
 -1      1724-2.06893E+09 3.21361E+06 8.70466E+03-9.32071E+07-1.12321E+06 5.51254E+03
 -1      1725-2.19913E+09 3.23046E+06-2.21056E+04-6.03503E+07-1.12270E+06-1.00726E+04
 -1      1727-2.19913E+09 3.23046E+06-2.21056E+04-6.03503E+07-1.12270E+06-1.00726E+04
 -1      1728-2.27348E+09 3.22077E+06 1.29876E+04-2.74374E+07-1.08200E+06-2.75789E+04
 -1      1730-2.27348E+09 3.22077E+06 1.29876E+04-2.74374E+07-1.08200E+06-2.75789E+04
 -1      1731-2.29253E+09 3.08773E+06-2.55657E+04 4.69965E+06-1.01875E+06-4.42081E+04
 -1      1733-2.29253E+09 3.08773E+06-2.55657E+04 4.69965E+06-1.01875E+06-4.42081E+04
 -1      1734-2.25828E+09 2.91962E+06 1.33137E+04 3.52973E+07-9.18431E+05-6.12803E+04
 -1      1736-2.25828E+09 2.91962E+06 1.33137E+04 3.52973E+07-9.18431E+05-6.12803E+04
 -1      1737-2.17400E+09 2.63916E+06-2.52886E+04 6.35367E+07-7.92626E+05-7.69058E+04
 -1      1739-2.17400E+09 2.63916E+06-2.52886E+04 6.35367E+07-7.92626E+05-7.69058E+04
 -1      1740-2.04436E+09 2.31689E+06 1.19619E+04 8.86620E+07-6.34944E+05-9.17258E+04
 -1      1742-2.04436E+09 2.31689E+06 1.19619E+04 8.86620E+07-6.34944E+05-9.17258E+04
 -1      1743-1.87527E+09 1.90107E+06-2.32951E+04 1.09926E+08-4.53150E+05-1.04332E+05
 -1      1745-1.87527E+09 1.90107E+06-2.32951E+04 1.09926E+08-4.53150E+05-1.04332E+05
 -1      1746-1.67386E+09 1.44272E+06 1.02474E+04 1.26657E+08-2.47385E+05-1.14953E+05
 -1      1748-1.67386E+09 1.44272E+06 1.02474E+04 1.26657E+08-2.47385E+05-1.14953E+05
 -1      1749-1.44835E+09 9.14688E+05-2.09433E+04 1.38230E+08-2.26415E+04-1.22654E+05
 -1      1751-1.44835E+09 9.14688E+05-2.09433E+04 1.38230E+08-2.26415E+04-1.22654E+05
 -1      1752-1.20795E+09 3.51365E+05 8.91046E+03 1.44119E+08 2.15157E+05-1.26829E+05
 -1      1754-1.20795E+09 3.51365E+05 8.91046E+03 1.44119E+08 2.15157E+05-1.26829E+05
 -1      1755-9.62713E+08-2.68684E+05-1.93123E+04 1.43845E+08 4.63313E+05-1.28129E+05
 -1      1757-9.62713E+08-2.68684E+05-1.93123E+04 1.43845E+08 4.63313E+05-1.28129E+05
 -1      1758-7.23388E+08-8.74953E+05 8.37974E+03 1.37077E+08 7.10335E+05-1.22246E+05
 -1      1760-7.23388E+08-8.74953E+05 8.37974E+03 1.37077E+08 7.10335E+05-1.22246E+05
 -1      1761-5.01290E+08-1.60980E+06-1.91030E+04 1.23462E+08 9.54992E+05-1.17494E+05
 -1      1763-5.01290E+08-1.60980E+06-1.91030E+04 1.23462E+08 9.54992E+05-1.17494E+05
 -1      1764-3.08070E+08-2.14094E+06 7.85018E+03 1.02921E+08 1.18068E+06-9.20301E+04
 -1      1766-3.08070E+08-2.14094E+06 7.85018E+03 1.02921E+08 1.18068E+06-9.20301E+04
 -1      1767-1.55981E+08-3.00496E+06-1.79947E+04 7.51253E+07 1.38088E+06-9.07361E+04
 -1      1769-1.55981E+08-3.00496E+06-1.79947E+04 7.51253E+07 1.38088E+06-9.07361E+04
 -1      1770-5.63142E+07-3.69774E+06-4.27774E+02 4.03510E+07 1.53771E+06-1.17082E+04
 -1      1772-5.63142E+07-3.69774E+06-4.27774E+02 4.03510E+07 1.53771E+06-1.17082E+04
 -1      1773-2.67970E+09-6.53750E+07-2.34812E+04-3.00095E+08-6.14225E+05-1.22135E+06
 -1      1775-2.67970E+09-6.53750E+07-2.34812E+04-3.00095E+08-6.14225E+05-1.22135E+06
 -1      1776-2.17341E+09 3.47597E+07 9.29010E+04-3.00899E+08-9.37618E+03 4.95617E+05
 -1      1778-2.17341E+09 3.47597E+07 9.29010E+04-3.00899E+08-9.37618E+03 4.95617E+05
 -1      1779-1.65940E+09-1.68700E+07-6.60678E+04-2.96830E+08-2.95482E+05-3.41029E+05
 -1      1781-1.65940E+09-1.68700E+07-6.60678E+04-2.96830E+08-2.95482E+05-3.41029E+05
 -1      1782-1.16646E+09 5.99478E+06-1.16672E+04-2.90607E+08-3.47833E+05 5.22157E+04
 -1      1784-1.16646E+09 5.99478E+06-1.16672E+04-2.90607E+08-3.47833E+05 5.22157E+04
 -1      1785-6.77632E+08-3.44672E+06 3.51071E+04-2.81540E+08-4.41606E+05-1.31245E+05
 -1      1787-6.77632E+08-3.44672E+06 3.51071E+04-2.81540E+08-4.41606E+05-1.31245E+05
 -1      1788-2.12250E+08-7.87863E+05-5.63015E+04-2.68921E+08-5.90540E+05-4.97125E+04
 -1      1790-2.12250E+08-7.87863E+05-5.63015E+04-2.68921E+08-5.90540E+05-4.97125E+04
 -1      1791 2.31516E+08-1.81425E+06 4.61150E+04-2.52850E+08-6.73004E+05-7.99648E+04
 -1      1793 2.31516E+08-1.81425E+06 4.61150E+04-2.52850E+08-6.73004E+05-7.99648E+04
 -1      1794 6.43776E+08-2.17428E+06-3.71270E+04-2.33337E+08-8.12039E+05-6.22233E+04
 -1      1796 6.43776E+08-2.17428E+06-3.71270E+04-2.33337E+08-8.12039E+05-6.22233E+04
 -1      1797 1.02066E+09-2.34151E+06 2.34628E+04-2.10391E+08-8.91859E+05-5.78044E+04
 -1      1799 1.02066E+09-2.34151E+06 2.34628E+04-2.10391E+08-8.91859E+05-5.78044E+04
 -1      1800 1.35576E+09-2.72194E+06-8.11642E+03-1.84515E+08-9.96115E+05-4.76765E+04
 -1      1802 1.35576E+09-2.72194E+06-8.11642E+03-1.84515E+08-9.96115E+05-4.76765E+04
 -1      1803 1.64481E+09-2.90866E+06 2.74475E+03-1.55929E+08-1.05251E+06-3.45607E+04
 -1      1805 1.64481E+09-2.90866E+06 2.74475E+03-1.55929E+08-1.05251E+06-3.45607E+04
 -1      1806 1.88347E+09-3.08695E+06 1.19476E+04-1.25330E+08-1.10924E+06-2.17878E+04
 -1      1808 1.88347E+09-3.08695E+06 1.19476E+04-1.25330E+08-1.10924E+06-2.17878E+04
 -1      1809 2.06893E+09-3.21361E+06-8.70466E+03-9.32071E+07-1.12321E+06-5.51254E+03
 -1      1811 2.06893E+09-3.21361E+06-8.70466E+03-9.32071E+07-1.12321E+06-5.51254E+03
 -1      1812 2.19913E+09-3.23046E+06 2.21056E+04-6.03503E+07-1.12270E+06 1.00726E+04
 -1      1814 2.19913E+09-3.23046E+06 2.21056E+04-6.03503E+07-1.12270E+06 1.00726E+04
 -1      1815 2.27348E+09-3.22077E+06-1.29876E+04-2.74374E+07-1.08200E+06 2.75789E+04
 -1      1817 2.27348E+09-3.22077E+06-1.29876E+04-2.74374E+07-1.08200E+06 2.75789E+04
 -1      1818 2.29253E+09-3.08773E+06 2.55657E+04 4.69965E+06-1.01875E+06 4.42081E+04
 -1      1820 2.29253E+09-3.08773E+06 2.55657E+04 4.69965E+06-1.01875E+06 4.42081E+04
 -1      1821 2.25828E+09-2.91962E+06-1.33137E+04 3.52973E+07-9.18431E+05 6.12803E+04
 -1      1823 2.25828E+09-2.91962E+06-1.33137E+04 3.52973E+07-9.18431E+05 6.12803E+04
 -1      1824 2.17400E+09-2.63916E+06 2.52886E+04 6.35367E+07-7.92626E+05 7.69058E+04
 -1      1826 2.17400E+09-2.63916E+06 2.52886E+04 6.35367E+07-7.92626E+05 7.69058E+04
 -1      1827 2.04436E+09-2.31689E+06-1.19619E+04 8.86620E+07-6.34944E+05 9.17258E+04
 -1      1829 2.04436E+09-2.31689E+06-1.19619E+04 8.86620E+07-6.34944E+05 9.17258E+04
 -1      1830 1.87527E+09-1.90107E+06 2.32951E+04 1.09926E+08-4.53150E+05 1.04332E+05
 -1      1832 1.87527E+09-1.90107E+06 2.32951E+04 1.09926E+08-4.53150E+05 1.04332E+05
 -1      1833 1.67386E+09-1.44272E+06-1.02474E+04 1.26657E+08-2.47385E+05 1.14953E+05
 -1      1835 1.67386E+09-1.44272E+06-1.02474E+04 1.26657E+08-2.47385E+05 1.14953E+05
 -1      1836 1.44835E+09-9.14688E+05 2.09433E+04 1.38230E+08-2.26415E+04 1.22654E+05
 -1      1838 1.44835E+09-9.14688E+05 2.09433E+04 1.38230E+08-2.26415E+04 1.22654E+05
 -1      1839 1.20795E+09-3.51365E+05-8.91046E+03 1.44119E+08 2.15157E+05 1.26829E+05
 -1      1841 1.20795E+09-3.51365E+05-8.91046E+03 1.44119E+08 2.15157E+05 1.26829E+05
 -1      1842 9.62713E+08 2.68684E+05 1.93123E+04 1.43845E+08 4.63313E+05 1.28129E+05
 -1      1844 9.62713E+08 2.68684E+05 1.93123E+04 1.43845E+08 4.63313E+05 1.28129E+05
 -1      1845 7.23388E+08 8.74953E+05-8.37974E+03 1.37077E+08 7.10335E+05 1.22246E+05
 -1      1847 7.23388E+08 8.74953E+05-8.37974E+03 1.37077E+08 7.10335E+05 1.22246E+05
 -1      1848 5.01290E+08 1.60980E+06 1.91030E+04 1.23462E+08 9.54992E+05 1.17494E+05
 -1      1850 5.01290E+08 1.60980E+06 1.91030E+04 1.23462E+08 9.54992E+05 1.17494E+05
 -1      1851 3.08070E+08 2.14094E+06-7.85018E+03 1.02921E+08 1.18068E+06 9.20301E+04
 -1      1853 3.08070E+08 2.14094E+06-7.85018E+03 1.02921E+08 1.18068E+06 9.20301E+04
 -1      1854 1.55981E+08 3.00496E+06 1.79947E+04 7.51253E+07 1.38088E+06 9.07361E+04
 -1      1856 1.55981E+08 3.00496E+06 1.79947E+04 7.51253E+07 1.38088E+06 9.07361E+04
 -1      1857 5.63142E+07 3.69774E+06 4.27773E+02 4.03510E+07 1.53771E+06 1.17082E+04
 -1      1859 5.63142E+07 3.69774E+06 4.27773E+02 4.03510E+07 1.53771E+06 1.17082E+04
 -1      1860-7.13197E-03-2.08234E-05 9.69174E-04-3.95754E+06-5.00159E+05-7.11827E-03
 -1      1862-7.13197E-03-2.08234E-05 9.69174E-04-3.95754E+06-5.00159E+05-7.11827E-03
 -1      1863-6.80131E-03 2.47769E-06 2.20492E-03-4.74823E+05-1.23586E+06-6.89002E-03
 -1      1865-6.80131E-03 2.47769E-06 2.20492E-03-4.74823E+05-1.23586E+06-6.89002E-03
 -1      1866-6.40811E-03-3.82805E-05 3.83835E-04-1.16044E+06-1.82736E+06-6.31130E-03
 -1      1868-6.40811E-03-3.82805E-05 3.83835E-04-1.16044E+06-1.82736E+06-6.31130E-03
 -1      1869-5.60065E-03 4.68240E-05-2.05369E-03-1.24754E+06-2.47298E+06-6.28460E-03
 -1      1871-5.60065E-03 4.68240E-05-2.05369E-03-1.24754E+06-2.47298E+06-6.28460E-03
 -1      1872-4.18381E-03 2.35563E-04-2.35567E-03-1.02888E+06-3.07062E+06-6.71006E-03
 -1      1874-4.18381E-03 2.35563E-04-2.35567E-03-1.02888E+06-3.07062E+06-6.71006E-03
 -1      1875-3.01920E-03 2.16443E-04-3.78255E-04-1.06789E+06-3.69386E+06-6.76879E-03
 -1      1877-3.01920E-03 2.16443E-04-3.78255E-04-1.06789E+06-3.69386E+06-6.76879E-03
 -1      1878-2.71391E-03-9.62845E-05 1.77124E-03-1.01673E+06-4.25094E+06-5.76664E-03
 -1      1880-2.71391E-03-9.62845E-05 1.77124E-03-1.01673E+06-4.25094E+06-5.76664E-03
 -1      1881-2.82245E-03-1.81901E-04 1.67210E-03-8.79149E+05-4.78959E+06-4.60639E-03
 -1      1883-2.82245E-03-1.81901E-04 1.67210E-03-8.79149E+05-4.78959E+06-4.60639E-03
 -1      1884-2.59055E-03-6.68390E-05-4.14262E-05-8.66801E+05-5.25761E+06-4.78581E-03
 -1      1886-2.59055E-03-6.68390E-05-4.14262E-05-8.66801E+05-5.25761E+06-4.78581E-03
 -1      1887-1.62267E-03 2.23304E-07-2.41759E-04-6.91940E+05-5.65734E+06-5.77502E-03
 -1      1889-1.62267E-03 2.23304E-07-2.41759E-04-6.91940E+05-5.65734E+06-5.77502E-03
 -1      1890-2.64035E-04 6.77016E-04 1.97675E-03-6.38765E+05-5.97753E+06-5.44620E-03
 -1      1892-2.64035E-04 6.77016E-04 1.97675E-03-6.38765E+05-5.97753E+06-5.44620E-03
 -1      1893 4.42659E-04 7.43962E-04 3.90239E-03-4.71064E+05-6.19484E+06-3.77823E-03
 -1      1895 4.42659E-04 7.43962E-04 3.90239E-03-4.71064E+05-6.19484E+06-3.77823E-03
 -1      1896 6.42978E-04-7.09130E-05 4.01673E-03-3.76785E+05-6.31884E+06-1.93979E-03
 -1      1898 6.42978E-04-7.09130E-05 4.01673E-03-3.76785E+05-6.31884E+06-1.93979E-03
 -1      1899 1.00282E-03-2.16381E-04 3.56058E-03-2.21340E+05-6.32268E+06-4.09759E-04
 -1      1901 1.00282E-03-2.16381E-04 3.56058E-03-2.21340E+05-6.32268E+06-4.09759E-04
 -1      1902 8.92647E-04 8.09373E-05 3.72922E-03-1.06536E+05-6.22276E+06 5.65456E-04
 -1      1904 8.92647E-04 8.09373E-05 3.72922E-03-1.06536E+05-6.22276E+06 5.65456E-04
 -1      1905 4.71916E-04 2.12074E-04 4.27621E-03 3.43198E+04-6.00045E+06 1.17725E-03
 -1      1907 4.71916E-04 2.12074E-04 4.27621E-03 3.43198E+04-6.00045E+06 1.17725E-03
 -1      1908 4.10413E-04 2.28512E-04 3.84850E-03 1.49108E+05-5.67358E+06 1.38978E-03
 -1      1910 4.10413E-04 2.28512E-04 3.84850E-03 1.49108E+05-5.67358E+06 1.38978E-03
 -1      1911 3.47590E-04 4.19521E-05 2.20143E-03 2.68896E+05-5.23573E+06 7.68670E-04
 -1      1913 3.47590E-04 4.19521E-05 2.20143E-03 2.68896E+05-5.23573E+06 7.68670E-04
 -1      1914-3.11679E-04 2.39356E-04 9.54102E-04 3.66390E+05-4.70512E+06-2.00471E-04
 -1      1916-3.11679E-04 2.39356E-04 9.54102E-04 3.66390E+05-4.70512E+06-2.00471E-04
 -1      1917-1.51368E-03 4.06835E-04 4.21759E-04 4.56491E+05-4.08807E+06-4.03835E-04
 -1      1919-1.51368E-03 4.06835E-04 4.21759E-04 4.56491E+05-4.08807E+06-4.03835E-04
 -1      1920-2.56944E-03 2.03483E-04-1.13479E-04 5.21903E+05-3.40328E+06 8.08705E-05
 -1      1922-2.56944E-03 2.03483E-04-1.13479E-04 5.21903E+05-3.40328E+06 8.08705E-05
 -1      1923-3.13449E-03-3.12212E-05 6.75109E-05 5.75088E+05-2.66924E+06 2.10011E-04
 -1      1925-3.13449E-03-3.12212E-05 6.75109E-05 5.75088E+05-2.66924E+06 2.10011E-04
 -1      1926-3.19022E-03 5.70892E-05 1.76792E-03 5.94074E+05-1.90534E+06-8.41533E-05
 -1      1928-3.19022E-03 5.70892E-05 1.76792E-03 5.94074E+05-1.90534E+06-8.41533E-05
 -1      1929-2.62722E-03 3.14261E-04 3.74276E-03 6.09215E+05-1.14099E+06-1.57659E-04
 -1      1931-2.62722E-03 3.14261E-04 3.74276E-03 6.09215E+05-1.14099E+06-1.57659E-04
 -1      1932-1.79462E-03 1.69302E-04 4.36013E-03 5.63240E+05-3.97241E+05 2.51329E-04
 -1      1934-1.79462E-03 1.69302E-04 4.36013E-03 5.63240E+05-3.97241E+05 2.51329E-04
 -1      1935-1.33545E-03-2.65048E-04 3.67716E-03 5.53076E+05 2.88936E+05 7.59874E-04
 -1      1937-1.33545E-03-2.65048E-04 3.67716E-03 5.53076E+05 2.88936E+05 7.59874E-04
 -1      1938-1.07340E-03-1.66982E-04 3.00370E-03 4.09530E+05 8.90393E+05 6.90469E-04
 -1      1940-1.07340E-03-1.66982E-04 3.00370E-03 4.09530E+05 8.90393E+05 6.90469E-04
 -1      1941-9.98890E-04-1.64364E-04 2.54933E-03 4.16494E+05 1.37293E+06 2.27999E-04
 -1      1943-9.98890E-04-1.64364E-04 2.54933E-03 4.16494E+05 1.37293E+06 2.27999E-04
 -1      1944-8.23872E-04-2.60358E-04 1.82119E-03 9.79860E+04 1.69000E+06 5.82916E-06
 -1      1946-8.23872E-04-2.60358E-04 1.82119E-03 9.79860E+04 1.69000E+06 5.82916E-06
 -1      1947-8.17797E-04-1.41702E-05 1.44936E-03-6.95992E+06 3.55557E-05-6.84016E-03
 -1      1949-8.17797E-04-1.41702E-05 1.44936E-03-6.95992E+06 3.55557E-05-6.84016E-03
 -1      1950-1.11213E-03-1.71035E-05 1.42427E-03-7.66887E+05-3.91701E-05-7.48273E-03
 -1      1952-1.11213E-03-1.71035E-05 1.42427E-03-7.66887E+05-3.91701E-05-7.48273E-03
 -1      1953-9.30508E-04-7.67249E-05-2.96687E-04-3.22984E+06-3.21558E-05-7.23718E-03
 -1      1955-9.30508E-04-7.67249E-05-2.96687E-04-3.22984E+06-3.21558E-05-7.23718E-03
 -1      1956-6.28136E-04 1.65469E-05-2.13390E-03-2.06422E+06-2.16824E-05-6.80702E-03
 -1      1958-6.28136E-04 1.65469E-05-2.13390E-03-2.06422E+06-2.16824E-05-6.80702E-03
 -1      1959-2.78981E-04 1.04340E-04-2.52070E-03-2.66102E+06-4.76382E-05-6.65270E-03
 -1      1961-2.78981E-04 1.04340E-04-2.52070E-03-2.66102E+06-4.76382E-05-6.65270E-03
 -1      1962-3.35237E-04 5.60881E-05-1.30412E-03-2.05402E+06-7.14922E-05-6.09709E-03
 -1      1964-3.35237E-04 5.60881E-05-1.30412E-03-2.05402E+06-7.14922E-05-6.09709E-03
 -1      1965-7.81758E-04 1.25915E-05 5.12867E-04-2.30917E+06-1.05470E-04-5.06583E-03
 -1      1967-7.81758E-04 1.25915E-05 5.12867E-04-2.30917E+06-1.05470E-04-5.06583E-03
 -1      1968-8.49456E-04-1.60191E-04 1.13150E-03-1.81342E+06-1.33282E-04-4.68873E-03
 -1      1970-8.49456E-04-1.60191E-04 1.13150E-03-1.81342E+06-1.33282E-04-4.68873E-03
 -1      1971-2.65973E-04-2.58171E-04 1.04845E-04-1.83014E+06-9.53113E-05-5.27726E-03
 -1      1973-2.65973E-04-2.58171E-04 1.04845E-04-1.83014E+06-9.53113E-05-5.27726E-03
 -1      1974 4.93356E-04-8.59649E-05-4.69043E-04-1.41146E+06-5.10708E-05-5.73784E-03
 -1      1976 4.93356E-04-8.59649E-05-4.69043E-04-1.41146E+06-5.10708E-05-5.73784E-03
 -1      1977 1.09943E-03 4.60278E-04 9.78837E-04-1.24658E+06-8.97418E-05-5.05558E-03
 -1      1979 1.09943E-03 4.60278E-04 9.78837E-04-1.24658E+06-8.97418E-05-5.05558E-03
 -1      1980 1.05496E-03 3.48943E-04 2.82823E-03-8.67751E+05-1.56786E-04-3.65581E-03
 -1      1982 1.05496E-03 3.48943E-04 2.82823E-03-8.67751E+05-1.56786E-04-3.65581E-03
 -1      1983 6.99946E-04-2.28903E-04 3.66628E-03-5.96942E+05-2.11640E-04-2.33514E-03
 -1      1985 6.99946E-04-2.28903E-04 3.66628E-03-5.96942E+05-2.11640E-04-2.33514E-03
 -1      1986 7.56578E-04-6.86229E-05 3.91076E-03-2.37572E+05-2.23619E-04-1.14203E-03
 -1      1988 7.56578E-04-6.86229E-05 3.91076E-03-2.37572E+05-2.23619E-04-1.14203E-03
 -1      1989 5.73288E-04 2.28980E-04 4.07576E-03 7.42848E+04-1.81445E-04-1.04168E-04
 -1      1991 5.73288E-04 2.28980E-04 4.07576E-03 7.42848E+04-1.81445E-04-1.04168E-04
 -1      1992-1.22734E-04 8.93654E-05 4.30640E-03 4.08776E+05-1.42564E-04 4.69871E-04
 -1      1994-1.22734E-04 8.93654E-05 4.30640E-03 4.08776E+05-1.42564E-04 4.69871E-04
 -1      1995-3.29804E-04-2.79701E-04 3.90497E-03 7.10733E+05-8.29465E-05 3.84613E-04
 -1      1997-3.29804E-04-2.79701E-04 3.90497E-03 7.10733E+05-8.29465E-05 3.84613E-04
 -1      1998 4.34853E-04-2.10154E-04 2.51727E-03 9.98513E+05-3.95117E-05-1.49027E-04
 -1      2000 4.34853E-04-2.10154E-04 2.51727E-03 9.98513E+05-3.95117E-05-1.49027E-04
 -1      2001 8.24599E-04 7.07594E-05 6.93574E-04 1.24889E+06-4.65873E-05-5.91729E-04
 -1      2003 8.24599E-04 7.07594E-05 6.93574E-04 1.24889E+06-4.65873E-05-5.91729E-04
 -1      2004 1.92853E-04 2.69319E-04-6.55146E-04 1.46220E+06-2.71818E-05-5.18573E-04
 -1      2006 1.92853E-04 2.69319E-04-6.55146E-04 1.46220E+06-2.71818E-05-5.18573E-04
 -1      2007-6.68688E-04 1.69665E-04-8.44655E-04 1.62521E+06-3.76902E-05 2.13283E-04
 -1      2009-6.68688E-04 1.69665E-04-8.44655E-04 1.62521E+06-3.76902E-05 2.13283E-04
 -1      2010-1.40412E-03 2.62418E-05 3.35574E-04 1.73839E+06-7.23680E-05 8.30489E-04
 -1      2012-1.40412E-03 2.62418E-05 3.35574E-04 1.73839E+06-7.23680E-05 8.30489E-04
 -1      2013-2.13281E-03 9.27497E-05 2.08254E-03 1.78114E+06-6.08087E-05 6.19119E-04
 -1      2015-2.13281E-03 9.27497E-05 2.08254E-03 1.78114E+06-6.08087E-05 6.19119E-04
 -1      2016-2.27145E-03 1.72350E-04 3.31225E-03 1.77866E+06-6.70791E-06 8.66682E-05
 -1      2018-2.27145E-03 1.72350E-04 3.31225E-03 1.77866E+06-6.70791E-06 8.66682E-05
 -1      2019-1.54617E-03 1.28578E-04 3.56793E-03 1.66412E+06 1.93180E-05 1.71103E-04
 -1      2021-1.54617E-03 1.28578E-04 3.56793E-03 1.66412E+06 1.93180E-05 1.71103E-04
 -1      2022-7.94931E-04-3.05431E-04 3.11860E-03 1.55361E+06 3.54134E-05 8.20331E-04
 -1      2024-7.94931E-04-3.05431E-04 3.11860E-03 1.55361E+06 3.54134E-05 8.20331E-04
 -1      2025-2.15489E-04-9.33287E-05 2.93530E-03 1.22208E+06 2.04388E-05 9.84446E-04
 -1      2027-2.15489E-04-9.33287E-05 2.93530E-03 1.22208E+06 2.04388E-05 9.84446E-04
 -1      2028-1.30597E-04-6.03486E-05 2.57177E-03 1.06414E+06 1.16731E-05 5.17829E-04
 -1      2030-1.30597E-04-6.03486E-05 2.57177E-03 1.06414E+06 1.16731E-05 5.17829E-04
 -1      2031-1.59833E-04 1.51777E-04 1.90921E-03 3.76783E+05-4.51490E-05 1.23360E-04
 -1      2033-1.59833E-04 1.51777E-04 1.90921E-03 3.76783E+05-4.51490E-05 1.23360E-04
 -1      2034 5.91373E-03 2.11111E-05 1.68534E-03-3.95754E+06 5.00159E+05-6.08819E-03
 -1      2036 5.91373E-03 2.11111E-05 1.68534E-03-3.95754E+06 5.00159E+05-6.08819E-03
 -1      2037 5.50873E-03-1.99686E-05 6.85671E-04-4.74823E+05 1.23586E+06-6.98665E-03
 -1      2039 5.50873E-03-1.99686E-05 6.85671E-04-4.74823E+05 1.23586E+06-6.98665E-03
 -1      2040 4.71220E-03-9.67245E-05-6.72831E-04-1.16044E+06 1.82736E+06-7.03187E-03
 -1      2042 4.71220E-03-9.67245E-05-6.72831E-04-1.16044E+06 1.82736E+06-7.03187E-03
 -1      2043 3.65453E-03-1.42403E-04-1.97260E-03-1.24754E+06 2.47298E+06-6.65872E-03
 -1      2045 3.65453E-03-1.42403E-04-1.97260E-03-1.24754E+06 2.47298E+06-6.65872E-03
 -1      2046 2.79966E-03-1.22850E-04-2.97602E-03-1.02888E+06 3.07062E+06-6.30604E-03
 -1      2048 2.79966E-03-1.22850E-04-2.97602E-03-1.02888E+06 3.07062E+06-6.30604E-03
 -1      2049 2.18468E-03-3.57166E-05-2.92546E-03-1.06789E+06 3.69386E+06-5.30030E-03
 -1      2051 2.18468E-03-3.57166E-05-2.92546E-03-1.06789E+06 3.69386E+06-5.30030E-03
 -1      2052 2.00992E-03 1.42579E-04-1.14608E-03-1.01673E+06 4.25094E+06-3.88931E-03
 -1      2054 2.00992E-03 1.42579E-04-1.14608E-03-1.01673E+06 4.25094E+06-3.88931E-03
 -1      2055 2.08080E-03 2.68774E-04 7.19143E-04-8.79149E+05 4.78959E+06-3.88552E-03
 -1      2057 2.08080E-03 2.68774E-04 7.19143E-04-8.79149E+05 4.78959E+06-3.88552E-03
 -1      2058 1.72205E-03-2.24786E-04 2.48709E-04-8.66801E+05 5.25761E+06-4.97211E-03
 -1      2060 1.72205E-03-2.24786E-04 2.48709E-04-8.66801E+05 5.25761E+06-4.97211E-03
 -1      2061 1.51994E-03-2.76850E-04-8.88457E-04-6.91940E+05 5.65734E+06-5.01807E-03
 -1      2063 1.51994E-03-2.76850E-04-8.88457E-04-6.91940E+05 5.65734E+06-5.01807E-03
 -1      2064 1.72939E-03 4.83437E-05-1.69367E-04-6.38765E+05 5.97753E+06-3.85529E-03
 -1      2066 1.72939E-03 4.83437E-05-1.69367E-04-6.38765E+05 5.97753E+06-3.85529E-03
 -1      2067 1.39221E-03-4.26554E-05 1.80738E-03-4.71064E+05 6.19484E+06-2.76642E-03
 -1      2069 1.39221E-03-4.26554E-05 1.80738E-03-4.71064E+05 6.19484E+06-2.76642E-03
 -1      2070 5.08987E-04-1.76164E-04 3.41131E-03-3.76785E+05 6.31884E+06-2.15706E-03
 -1      2072 5.08987E-04-1.76164E-04 3.41131E-03-3.76785E+05 6.31884E+06-2.15706E-03
 -1      2073-6.48253E-05 1.27414E-04 3.90902E-03-2.21340E+05 6.32268E+06-1.50647E-03
 -1      2075-6.48253E-05 1.27414E-04 3.90902E-03-2.21340E+05 6.32268E+06-1.50647E-03
 -1      2076-2.04578E-04 3.75612E-04 3.78809E-03-1.06536E+05 6.22276E+06-3.33566E-04
 -1      2078-2.04578E-04 3.75612E-04 3.78809E-03-1.06536E+05 6.22276E+06-3.33566E-04
 -1      2079-2.74197E-04-5.41594E-05 3.82401E-03 3.43198E+04 6.00045E+06 5.21064E-04
 -1      2081-2.74197E-04-5.41594E-05 3.82401E-03 3.43198E+04 6.00045E+06 5.21064E-04
 -1      2082 1.92272E-04-2.87126E-04 3.51358E-03 1.49108E+05 5.67358E+06 1.64170E-04
 -1      2084 1.92272E-04-2.87126E-04 3.51358E-03 1.49108E+05 5.67358E+06 1.64170E-04
 -1      2085 1.24189E-03-7.57208E-05 2.08063E-03 2.68896E+05 5.23573E+06-4.57497E-04
 -1      2087 1.24189E-03-7.57208E-05 2.08063E-03 2.68896E+05 5.23573E+06-4.57497E-04
 -1      2088 1.82528E-03 7.84673E-05 2.62592E-04 3.66390E+05 4.70512E+06-5.68525E-04
 -1      2090 1.82528E-03 7.84673E-05 2.62592E-04 3.66390E+05 4.70512E+06-5.68525E-04
 -1      2091 1.47431E-03 2.37613E-04-1.03199E-03 4.56491E+05 4.08807E+06-4.03371E-04
 -1      2093 1.47431E-03 2.37613E-04-1.03199E-03 4.56491E+05 4.08807E+06-4.03371E-04
 -1      2094 6.22775E-04-1.10226E-05-1.39782E-03 5.21903E+05 3.40328E+06 4.09491E-04
 -1      2096 6.22775E-04-1.10226E-05-1.39782E-03 5.21903E+05 3.40328E+06 4.09491E-04
 -1      2097-2.16204E-04-1.69433E-04-8.56655E-06 5.75088E+05 2.66924E+06 1.28958E-03
 -1      2099-2.16204E-04-1.69433E-04-8.56655E-06 5.75088E+05 2.66924E+06 1.28958E-03
 -1      2100-1.07370E-03-6.78691E-05 2.20749E-03 5.94074E+05 1.90534E+06 9.98517E-04
 -1      2102-1.07370E-03-6.78691E-05 2.20749E-03 5.94074E+05 1.90534E+06 9.98517E-04
 -1      2103-1.51463E-03-1.17304E-04 2.92079E-03 6.09215E+05 1.14099E+06-6.07080E-05
 -1      2105-1.51463E-03-1.17304E-04 2.92079E-03 6.09215E+05 1.14099E+06-6.07080E-05
 -1      2106-1.05585E-03-7.55577E-05 2.12516E-03 5.63240E+05 3.97241E+05-2.21809E-04
 -1      2108-1.05585E-03-7.55577E-05 2.12516E-03 5.63240E+05 3.97241E+05-2.21809E-04
 -1      2109-3.83195E-04-3.06798E-04 1.49771E-03 5.53076E+05-2.88936E+05 6.55761E-04
 -1      2111-3.83195E-04-3.06798E-04 1.49771E-03 5.53076E+05-2.88936E+05 6.55761E-04
 -1      2112 2.85337E-04-8.60135E-05 1.75942E-03 4.09530E+05-8.90393E+05 8.89954E-04
 -1      2114 2.85337E-04-8.60135E-05 1.75942E-03 4.09530E+05-8.90393E+05 8.89954E-04
 -1      2115 7.04632E-04 4.00133E-04 1.79488E-03 4.16494E+05-1.37293E+06 2.71851E-04
 -1      2117 7.04632E-04 4.00133E-04 1.79488E-03 4.16494E+05-1.37293E+06 2.71851E-04
 -1      2118 5.30094E-04 6.19853E-04 1.30294E-03 9.79860E+04-1.69000E+06-9.02479E-05
 -1      2120 5.30094E-04 6.19853E-04 1.30294E-03 9.79860E+04-1.69000E+06-9.02479E-05
 -1      2121-2.67970E+09-6.53750E+07-2.34812E+04-3.00095E+08 6.14225E+05 1.22135E+06
 -1      2123-2.67970E+09-6.53750E+07-2.34812E+04-3.00095E+08 6.14225E+05 1.22135E+06
 -1      2124-2.17341E+09 3.47597E+07 9.29010E+04-3.00899E+08 9.37618E+03-4.95617E+05
 -1      2126-2.17341E+09 3.47597E+07 9.29010E+04-3.00899E+08 9.37618E+03-4.95617E+05
 -1      2127-1.65940E+09-1.68700E+07-6.60678E+04-2.96830E+08 2.95482E+05 3.41029E+05
 -1      2129-1.65940E+09-1.68700E+07-6.60678E+04-2.96830E+08 2.95482E+05 3.41029E+05
 -1      2130-1.16646E+09 5.99478E+06-1.16672E+04-2.90607E+08 3.47833E+05-5.22157E+04
 -1      2132-1.16646E+09 5.99478E+06-1.16672E+04-2.90607E+08 3.47833E+05-5.22157E+04
 -1      2133-6.77632E+08-3.44672E+06 3.51071E+04-2.81540E+08 4.41606E+05 1.31245E+05
 -1      2135-6.77632E+08-3.44672E+06 3.51071E+04-2.81540E+08 4.41606E+05 1.31245E+05
 -1      2136-2.12250E+08-7.87863E+05-5.63015E+04-2.68921E+08 5.90540E+05 4.97125E+04
 -1      2138-2.12250E+08-7.87863E+05-5.63015E+04-2.68921E+08 5.90540E+05 4.97125E+04
 -1      2139 2.31516E+08-1.81425E+06 4.61150E+04-2.52850E+08 6.73004E+05 7.99648E+04
 -1      2141 2.31516E+08-1.81425E+06 4.61150E+04-2.52850E+08 6.73004E+05 7.99648E+04
 -1      2142 6.43776E+08-2.17428E+06-3.71270E+04-2.33337E+08 8.12039E+05 6.22233E+04
 -1      2144 6.43776E+08-2.17428E+06-3.71270E+04-2.33337E+08 8.12039E+05 6.22233E+04
 -1      2145 1.02066E+09-2.34151E+06 2.34628E+04-2.10391E+08 8.91859E+05 5.78044E+04
 -1      2147 1.02066E+09-2.34151E+06 2.34628E+04-2.10391E+08 8.91859E+05 5.78044E+04
 -1      2148 1.35576E+09-2.72194E+06-8.11642E+03-1.84515E+08 9.96115E+05 4.76765E+04
 -1      2150 1.35576E+09-2.72194E+06-8.11642E+03-1.84515E+08 9.96115E+05 4.76765E+04
 -1      2151 1.64481E+09-2.90866E+06 2.74475E+03-1.55929E+08 1.05251E+06 3.45607E+04
 -1      2153 1.64481E+09-2.90866E+06 2.74475E+03-1.55929E+08 1.05251E+06 3.45607E+04
 -1      2154 1.88347E+09-3.08695E+06 1.19476E+04-1.25330E+08 1.10924E+06 2.17878E+04
 -1      2156 1.88347E+09-3.08695E+06 1.19476E+04-1.25330E+08 1.10924E+06 2.17878E+04
 -1      2157 2.06893E+09-3.21361E+06-8.70466E+03-9.32071E+07 1.12321E+06 5.51254E+03
 -1      2159 2.06893E+09-3.21361E+06-8.70466E+03-9.32071E+07 1.12321E+06 5.51254E+03
 -1      2160 2.19913E+09-3.23046E+06 2.21056E+04-6.03503E+07 1.12270E+06-1.00726E+04
 -1      2162 2.19913E+09-3.23046E+06 2.21056E+04-6.03503E+07 1.12270E+06-1.00726E+04
 -1      2163 2.27348E+09-3.22077E+06-1.29876E+04-2.74374E+07 1.08200E+06-2.75789E+04
 -1      2165 2.27348E+09-3.22077E+06-1.29876E+04-2.74374E+07 1.08200E+06-2.75789E+04
 -1      2166 2.29253E+09-3.08773E+06 2.55657E+04 4.69965E+06 1.01875E+06-4.42081E+04
 -1      2168 2.29253E+09-3.08773E+06 2.55657E+04 4.69965E+06 1.01875E+06-4.42081E+04
 -1      2169 2.25828E+09-2.91962E+06-1.33137E+04 3.52973E+07 9.18431E+05-6.12803E+04
 -1      2171 2.25828E+09-2.91962E+06-1.33137E+04 3.52973E+07 9.18431E+05-6.12803E+04
 -1      2172 2.17400E+09-2.63916E+06 2.52886E+04 6.35367E+07 7.92626E+05-7.69058E+04
 -1      2174 2.17400E+09-2.63916E+06 2.52886E+04 6.35367E+07 7.92626E+05-7.69058E+04
 -1      2175 2.04436E+09-2.31689E+06-1.19619E+04 8.86620E+07 6.34944E+05-9.17258E+04
 -1      2177 2.04436E+09-2.31689E+06-1.19619E+04 8.86620E+07 6.34944E+05-9.17258E+04
 -1      2178 1.87527E+09-1.90107E+06 2.32951E+04 1.09926E+08 4.53150E+05-1.04332E+05
 -1      2180 1.87527E+09-1.90107E+06 2.32951E+04 1.09926E+08 4.53150E+05-1.04332E+05
 -1      2181 1.67386E+09-1.44272E+06-1.02474E+04 1.26657E+08 2.47385E+05-1.14953E+05
 -1      2183 1.67386E+09-1.44272E+06-1.02474E+04 1.26657E+08 2.47385E+05-1.14953E+05
 -1      2184 1.44835E+09-9.14688E+05 2.09433E+04 1.38230E+08 2.26415E+04-1.22654E+05
 -1      2186 1.44835E+09-9.14688E+05 2.09433E+04 1.38230E+08 2.26415E+04-1.22654E+05
 -1      2187 1.20795E+09-3.51365E+05-8.91046E+03 1.44119E+08-2.15157E+05-1.26829E+05
 -1      2189 1.20795E+09-3.51365E+05-8.91046E+03 1.44119E+08-2.15157E+05-1.26829E+05
 -1      2190 9.62713E+08 2.68684E+05 1.93123E+04 1.43845E+08-4.63313E+05-1.28129E+05
 -1      2192 9.62713E+08 2.68684E+05 1.93123E+04 1.43845E+08-4.63313E+05-1.28129E+05
 -1      2193 7.23388E+08 8.74953E+05-8.37974E+03 1.37077E+08-7.10335E+05-1.22246E+05
 -1      2195 7.23388E+08 8.74953E+05-8.37974E+03 1.37077E+08-7.10335E+05-1.22246E+05
 -1      2196 5.01290E+08 1.60980E+06 1.91030E+04 1.23462E+08-9.54992E+05-1.17494E+05
 -1      2198 5.01290E+08 1.60980E+06 1.91030E+04 1.23462E+08-9.54992E+05-1.17494E+05
 -1      2199 3.08070E+08 2.14094E+06-7.85018E+03 1.02921E+08-1.18068E+06-9.20301E+04
 -1      2201 3.08070E+08 2.14094E+06-7.85018E+03 1.02921E+08-1.18068E+06-9.20301E+04
 -1      2202 1.55981E+08 3.00496E+06 1.79947E+04 7.51253E+07-1.38088E+06-9.07361E+04
 -1      2204 1.55981E+08 3.00496E+06 1.79947E+04 7.51253E+07-1.38088E+06-9.07361E+04
 -1      2205 5.63142E+07 3.69774E+06 4.27774E+02 4.03510E+07-1.53771E+06-1.17082E+04
 -1      2207 5.63142E+07 3.69774E+06 4.27774E+02 4.03510E+07-1.53771E+06-1.17082E+04
 -1      2208 2.67970E+09 6.53750E+07 2.34812E+04-3.00095E+08 6.14225E+05-1.22135E+06
 -1      2210 2.67970E+09 6.53750E+07 2.34812E+04-3.00095E+08 6.14225E+05-1.22135E+06
 -1      2211 2.17341E+09-3.47597E+07-9.29010E+04-3.00899E+08 9.37618E+03 4.95617E+05
 -1      2213 2.17341E+09-3.47597E+07-9.29010E+04-3.00899E+08 9.37618E+03 4.95617E+05
 -1      2214 1.65940E+09 1.68700E+07 6.60678E+04-2.96830E+08 2.95482E+05-3.41029E+05
 -1      2216 1.65940E+09 1.68700E+07 6.60678E+04-2.96830E+08 2.95482E+05-3.41029E+05
 -1      2217 1.16646E+09-5.99478E+06 1.16672E+04-2.90607E+08 3.47833E+05 5.22157E+04
 -1      2219 1.16646E+09-5.99478E+06 1.16672E+04-2.90607E+08 3.47833E+05 5.22157E+04
 -1      2220 6.77632E+08 3.44672E+06-3.51071E+04-2.81540E+08 4.41606E+05-1.31245E+05
 -1      2222 6.77632E+08 3.44672E+06-3.51071E+04-2.81540E+08 4.41606E+05-1.31245E+05
 -1      2223 2.12250E+08 7.87863E+05 5.63015E+04-2.68921E+08 5.90540E+05-4.97125E+04
 -1      2225 2.12250E+08 7.87863E+05 5.63015E+04-2.68921E+08 5.90540E+05-4.97125E+04
 -1      2226-2.31516E+08 1.81425E+06-4.61150E+04-2.52850E+08 6.73004E+05-7.99648E+04
 -1      2228-2.31516E+08 1.81425E+06-4.61150E+04-2.52850E+08 6.73004E+05-7.99648E+04
 -1      2229-6.43776E+08 2.17428E+06 3.71270E+04-2.33337E+08 8.12039E+05-6.22233E+04
 -1      2231-6.43776E+08 2.17428E+06 3.71270E+04-2.33337E+08 8.12039E+05-6.22233E+04
 -1      2232-1.02066E+09 2.34151E+06-2.34628E+04-2.10391E+08 8.91859E+05-5.78044E+04
 -1      2234-1.02066E+09 2.34151E+06-2.34628E+04-2.10391E+08 8.91859E+05-5.78044E+04
 -1      2235-1.35576E+09 2.72194E+06 8.11642E+03-1.84515E+08 9.96115E+05-4.76765E+04
 -1      2237-1.35576E+09 2.72194E+06 8.11642E+03-1.84515E+08 9.96115E+05-4.76765E+04
 -1      2238-1.64481E+09 2.90866E+06-2.74475E+03-1.55929E+08 1.05251E+06-3.45607E+04
 -1      2240-1.64481E+09 2.90866E+06-2.74475E+03-1.55929E+08 1.05251E+06-3.45607E+04
 -1      2241-1.88347E+09 3.08695E+06-1.19476E+04-1.25330E+08 1.10924E+06-2.17878E+04
 -1      2243-1.88347E+09 3.08695E+06-1.19476E+04-1.25330E+08 1.10924E+06-2.17878E+04
 -1      2244-2.06893E+09 3.21361E+06 8.70466E+03-9.32071E+07 1.12321E+06-5.51254E+03
 -1      2246-2.06893E+09 3.21361E+06 8.70466E+03-9.32071E+07 1.12321E+06-5.51254E+03
 -1      2247-2.19913E+09 3.23046E+06-2.21056E+04-6.03503E+07 1.12270E+06 1.00726E+04
 -1      2249-2.19913E+09 3.23046E+06-2.21056E+04-6.03503E+07 1.12270E+06 1.00726E+04
 -1      2250-2.27348E+09 3.22077E+06 1.29876E+04-2.74374E+07 1.08200E+06 2.75789E+04
 -1      2252-2.27348E+09 3.22077E+06 1.29876E+04-2.74374E+07 1.08200E+06 2.75789E+04
 -1      2253-2.29253E+09 3.08773E+06-2.55657E+04 4.69965E+06 1.01875E+06 4.42081E+04
 -1      2255-2.29253E+09 3.08773E+06-2.55657E+04 4.69965E+06 1.01875E+06 4.42081E+04
 -1      2256-2.25828E+09 2.91962E+06 1.33137E+04 3.52973E+07 9.18431E+05 6.12803E+04
 -1      2258-2.25828E+09 2.91962E+06 1.33137E+04 3.52973E+07 9.18431E+05 6.12803E+04
 -1      2259-2.17400E+09 2.63916E+06-2.52886E+04 6.35367E+07 7.92626E+05 7.69058E+04
 -1      2261-2.17400E+09 2.63916E+06-2.52886E+04 6.35367E+07 7.92626E+05 7.69058E+04
 -1      2262-2.04436E+09 2.31689E+06 1.19619E+04 8.86620E+07 6.34944E+05 9.17258E+04
 -1      2264-2.04436E+09 2.31689E+06 1.19619E+04 8.86620E+07 6.34944E+05 9.17258E+04
 -1      2265-1.87527E+09 1.90107E+06-2.32951E+04 1.09926E+08 4.53150E+05 1.04332E+05
 -1      2267-1.87527E+09 1.90107E+06-2.32951E+04 1.09926E+08 4.53150E+05 1.04332E+05
 -1      2268-1.67386E+09 1.44272E+06 1.02474E+04 1.26657E+08 2.47385E+05 1.14953E+05
 -1      2270-1.67386E+09 1.44272E+06 1.02474E+04 1.26657E+08 2.47385E+05 1.14953E+05
 -1      2271-1.44835E+09 9.14688E+05-2.09433E+04 1.38230E+08 2.26415E+04 1.22654E+05
 -1      2273-1.44835E+09 9.14688E+05-2.09433E+04 1.38230E+08 2.26415E+04 1.22654E+05
 -1      2274-1.20795E+09 3.51365E+05 8.91046E+03 1.44119E+08-2.15157E+05 1.26829E+05
 -1      2276-1.20795E+09 3.51365E+05 8.91046E+03 1.44119E+08-2.15157E+05 1.26829E+05
 -1      2277-9.62713E+08-2.68684E+05-1.93123E+04 1.43845E+08-4.63313E+05 1.28129E+05
 -1      2279-9.62713E+08-2.68684E+05-1.93123E+04 1.43845E+08-4.63313E+05 1.28129E+05
 -1      2280-7.23388E+08-8.74953E+05 8.37974E+03 1.37077E+08-7.10335E+05 1.22246E+05
 -1      2282-7.23388E+08-8.74953E+05 8.37974E+03 1.37077E+08-7.10335E+05 1.22246E+05
 -1      2283-5.01290E+08-1.60980E+06-1.91030E+04 1.23462E+08-9.54992E+05 1.17494E+05
 -1      2285-5.01290E+08-1.60980E+06-1.91030E+04 1.23462E+08-9.54992E+05 1.17494E+05
 -1      2286-3.08070E+08-2.14094E+06 7.85018E+03 1.02921E+08-1.18068E+06 9.20301E+04
 -1      2288-3.08070E+08-2.14094E+06 7.85018E+03 1.02921E+08-1.18068E+06 9.20301E+04
 -1      2289-1.55981E+08-3.00496E+06-1.79947E+04 7.51253E+07-1.38088E+06 9.07361E+04
 -1      2291-1.55981E+08-3.00496E+06-1.79947E+04 7.51253E+07-1.38088E+06 9.07361E+04
 -1      2292-5.63142E+07-3.69774E+06-4.27774E+02 4.03510E+07-1.53771E+06 1.17082E+04
 -1      2294-5.63142E+07-3.69774E+06-4.27774E+02 4.03510E+07-1.53771E+06 1.17082E+04
 -3
    1PSTEP                        15           1           1          
    1PGM                1.000000E+00                                  
    1PGK                2.415175E+05                                  
    1PHID                         -1                                  
    1PSUBC                         0                                  
    1PMODE                         4                                  
  100CL  104 78.21578245         930                     2    4MODAL      1
 -4  FORC        4    1
 -5  F1          1    2    1    0
 -5  F2          1    2    2    0
 -5  F3          1    2    3    0
 -5  ALL         1    2    0    0    1ALL
 -1       404-8.44513E+05 1.79307E+05-7.46687E+03
 -1       406-8.19926E+05 1.82692E+05-7.46687E+03
 -1       407-2.16381E+02 1.88040E+03 1.69372E+01
 -1       409-2.16381E+02 1.88040E+03 1.69372E+01
 -1       410-4.33669E-07-7.79903E+02 2.76805E-07
 -1       412-3.66390E-07 3.02493E+04 1.34356E-07
 -1       413-1.44611E-07-8.31796E+03-2.43543E+04
 -1       415-1.84666E-07-8.31796E+03 2.43543E+04
 -1       424 4.92257E-06-2.12874E+04-1.26289E-07
 -1       426 2.49430E-06-2.46586E+04-5.14607E-08
 -1       427 3.39464E+04-4.81212E+04 8.73350E+03
 -1       429-3.39464E+04-4.81212E+04-8.73350E+03
 -1       438 2.16381E+02 1.88040E+03-1.69372E+01
 -1       440 2.16381E+02 1.88040E+03-1.69372E+01
 -1       441 8.44513E+05 1.79307E+05 7.46687E+03
 -1       443 8.19926E+05 1.82692E+05 7.46687E+03
 -1       444 3.39464E+04-4.81212E+04-8.73350E+03
 -1       446-3.39464E+04-4.81212E+04 8.73350E+03
 -1       447-4.24532E-06-2.12874E+04-4.94755E-08
 -1       449-3.03113E-06-2.46586E+04-1.29995E-08
 -1       458-3.78628E-08-8.31796E+03 2.43543E+04
 -1       460 5.44691E-09-8.31796E+03-2.43543E+04
 -1       461 4.37017E-07-7.79903E+02-1.22886E-07
 -1       463 4.54323E-07 3.02493E+04-8.46226E-08
 -1       472 8.44513E+05 1.79307E+05-7.46687E+03
 -1       474 8.19926E+05 1.82692E+05-7.46687E+03
 -1       475 2.16381E+02 1.88040E+03 1.69372E+01
 -1       477 2.16381E+02 1.88040E+03 1.69372E+01
 -1       478-2.16381E+02 1.88040E+03-1.69372E+01
 -1       480-2.16381E+02 1.88040E+03-1.69372E+01
 -1       481-8.44513E+05 1.79307E+05 7.46687E+03
 -1       483-8.19926E+05 1.82692E+05 7.46687E+03
 -1       484 5.69640E+01-7.83165E+01 7.66193E+00
 -1       486 5.69640E+01-7.83165E+01 7.66193E+00
 -1       487 1.06738E+02-2.11409E+02 1.63202E+01
 -1       489 1.06738E+02-2.11409E+02 1.63202E+01
 -1       490 1.46185E+02-4.09964E+02 2.49793E+01
 -1       492 1.46185E+02-4.09964E+02 2.49793E+01
 -1       493 1.75226E+02-6.59303E+02 3.33102E+01
 -1       495 1.75226E+02-6.59303E+02 3.33102E+01
 -1       496 1.94170E+02-9.43799E+02 4.13738E+01
 -1       498 1.94170E+02-9.43799E+02 4.13738E+01
 -1       499 2.03299E+02-1.24871E+03 4.90011E+01
 -1       501 2.03299E+02-1.24871E+03 4.90011E+01
 -1       502 2.03068E+02-1.55965E+03 5.61250E+01
 -1       504 2.03068E+02-1.55965E+03 5.61250E+01
 -1       505 1.94029E+02-1.86305E+03 6.26244E+01
 -1       507 1.94029E+02-1.86305E+03 6.26244E+01
 -1       508 1.76868E+02-2.14624E+03 6.84092E+01
 -1       510 1.76868E+02-2.14624E+03 6.84092E+01
 -1       511 1.52379E+02-2.39765E+03 7.33842E+01
 -1       513 1.52379E+02-2.39765E+03 7.33842E+01
 -1       514 1.21466E+02-2.60697E+03 7.74729E+01
 -1       516 1.21466E+02-2.60697E+03 7.74729E+01
 -1       517 8.51226E+01-2.76536E+03 8.06115E+01
 -1       519 8.51226E+01-2.76536E+03 8.06115E+01
 -1       520 4.44150E+01-2.86547E+03 8.27563E+01
 -1       522 4.44150E+01-2.86547E+03 8.27563E+01
 -1       523 4.59560E-01-2.90164E+03 8.38844E+01
 -1       525 4.59560E-01-2.90164E+03 8.38844E+01
 -1       526-4.55993E+01-2.86987E+03 8.39965E+01
 -1       528-4.55993E+01-2.86987E+03 8.39965E+01
 -1       529-9.26173E+01-2.76792E+03 8.31181E+01
 -1       531-9.26173E+01-2.76792E+03 8.31181E+01
 -1       532-1.39476E+02-2.59524E+03 8.12999E+01
 -1       534-1.39476E+02-2.59524E+03 8.12999E+01
 -1       535-1.85111E+02-2.35293E+03 7.86187E+01
 -1       537-1.85111E+02-2.35293E+03 7.86187E+01
 -1       538-2.28540E+02-2.04363E+03 7.51757E+01
 -1       540-2.28540E+02-2.04363E+03 7.51757E+01
 -1       541-2.68890E+02-1.67138E+03 7.10960E+01
 -1       543-2.68890E+02-1.67138E+03 7.10960E+01
 -1       544-3.05421E+02-1.24147E+03 6.65264E+01
 -1       546-3.05421E+02-1.24147E+03 6.65264E+01
 -1       547-3.37551E+02-7.60150E+02 6.16328E+01
 -1       549-3.37551E+02-7.60150E+02 6.16328E+01
 -1       550-3.64879E+02-2.34460E+02 5.65966E+01
 -1       552-3.64879E+02-2.34460E+02 5.65966E+01
 -1       553-3.87201E+02 3.28115E+02 5.16120E+01
 -1       555-3.87201E+02 3.28115E+02 5.16120E+01
 -1       556-4.04528E+02 9.19925E+02 4.68800E+01
 -1       558-4.04528E+02 9.19925E+02 4.68800E+01
 -1       559-4.17096E+02 1.53349E+03 4.26058E+01
 -1       561-4.17096E+02 1.53349E+03 4.26058E+01
 -1       562-4.25380E+02 2.16185E+03 3.89891E+01
 -1       564-4.25380E+02 2.16185E+03 3.89891E+01
 -1       565-4.30097E+02 2.79892E+03 3.62256E+01
 -1       567-4.30097E+02 2.79892E+03 3.62256E+01
 -1       568-4.32216E+02 3.43987E+03 3.44782E+01
 -1       570-4.32216E+02 3.43987E+03 3.44782E+01
 -1       571-2.88485E+02 3.76079E+03 2.19155E+01
 -1       573-2.88485E+02 3.76079E+03 2.19155E+01
 -1       574-2.70103E-06 1.25011E+04-9.62016E-08
 -1       576-2.70675E-06 8.52146E+02-1.85018E-07
 -1       577 2.43742E-06-6.93528E+03 9.14308E+03
 -1       579 2.43711E-06-6.93528E+03-9.14308E+03
 -1       588-2.22543E-06-1.20426E+02 1.40189E-06
 -1       590-2.24554E-06-5.88342E+03 1.00839E-06
 -1       591 2.63536E-06 2.27867E+03 4.52328E+03
 -1       593 2.61888E-06 2.27867E+03-4.52328E+03
 -1       602-1.89608E-06 1.74673E+03 1.98252E-07
 -1       604-1.90594E-06-8.09058E+03 9.98991E-08
 -1       605 2.51982E-06 1.75661E+03 7.72115E+03
 -1       607 2.54931E-06 1.75661E+03-7.72115E+03
 -1       616-2.45240E-06 1.63412E+03-4.49618E-07
 -1       618-2.43897E-06-1.27270E+04-8.42321E-07
 -1       619 2.27819E-06 3.26769E+03 1.12718E+04
 -1       621 2.29819E-06 3.26769E+03-1.12718E+04
 -1       630-2.76748E-06 2.00766E+03-8.04967E-07
 -1       632-2.75970E-06-1.57535E+04-1.61772E-06
 -1       633 2.22965E-06 3.61016E+03 1.39404E+04
 -1       635 2.24430E-06 3.61016E+03-1.39404E+04
 -1       644-2.50358E-06 9.53802E+02 6.83793E-08
 -1       646-2.47853E-06-2.22322E+04-7.85700E-07
 -1       647 2.45174E-06 6.32350E+03 1.81983E+04
 -1       649 2.48178E-06 6.32350E+03-1.81983E+04
 -1       658-1.62711E-06 2.03239E+03 4.93374E-07
 -1       660-1.61927E-06-2.51585E+04 9.57442E-07
 -1       661 2.39388E-06 6.17437E+03 2.13417E+04
 -1       663 2.36214E-06 6.17437E+03-2.13417E+04
 -1       672-8.62409E-07 6.64773E+02 3.80563E-07
 -1       674-8.61273E-07-3.12964E+04 9.99585E-07
 -1       675 2.11690E-06 8.88071E+03 2.50858E+04
 -1       677 2.05607E-06 8.88071E+03-2.50858E+04
 -1       686-1.14229E-06 1.51359E+03 3.56178E-07
 -1       688-1.13064E-06-3.42738E+04-7.06463E-07
 -1       689 1.93032E-06 8.96873E+03 2.80889E+04
 -1       691 1.93941E-06 8.96873E+03-2.80889E+04
 -1       700-1.79069E-06 4.52320E+02-1.06357E-07
 -1       702-1.80415E-06-3.89053E+04-2.69802E-07
 -1       703 1.87558E-06 1.09486E+04 3.08911E+04
 -1       705 1.95216E-06 1.09486E+04-3.08911E+04
 -1       714-1.83164E-06 8.30034E+02 7.10095E-07
 -1       716-1.84057E-06-4.12275E+04 4.08013E-07
 -1       717 1.68708E-06 1.11994E+04 3.30103E+04
 -1       719 1.73246E-06 1.11994E+04-3.30103E+04
 -1       728-1.34201E-06 5.67479E+01 1.12026E-06
 -1       730-1.34249E-06-4.38755E+04 1.11322E-06
 -1       731 1.40058E-06 1.23640E+04 3.44817E+04
 -1       733 1.43561E-06 1.23640E+04-3.44817E+04
 -1       742-9.75098E-07 4.86498E+01 1.37304E-06
 -1       744-9.80279E-07-4.47486E+04 8.91852E-07
 -1       745 6.15915E-07 1.24593E+04 3.51606E+04
 -1       747 6.72591E-07 1.24593E+04-3.51606E+04
 -1       756-3.37310E-07-6.00873E+02 7.76737E-07
 -1       758-3.57806E-07-4.51462E+04 7.10408E-07
 -1       759-4.54898E-08 1.28576E+04 3.49629E+04
 -1       761 2.74702E-09 1.28576E+04-3.49629E+04
 -1       770 2.68362E-07-8.87927E+02 6.34326E-07
 -1       772 2.49555E-07-4.40304E+04 8.26303E-07
 -1       773-3.00810E-07 1.25516E+04 3.38618E+04
 -1       775-3.75151E-07 1.25516E+04-3.38618E+04
 -1       784 2.76232E-07-1.53614E+03 9.39052E-07
 -1       786 2.48583E-07-4.20440E+04 1.52011E-06
 -1       787-7.45493E-07 1.22324E+04 3.17940E+04
 -1       789-8.01749E-07 1.22324E+04-3.17940E+04
 -1       798 5.10203E-07-2.02816E+03 1.06617E-06
 -1       800 4.85832E-07-3.87044E+04 6.26355E-07
 -1       801-8.73684E-07 1.14017E+04 2.87866E+04
 -1       803-8.34021E-07 1.14017E+04-2.87866E+04
 -1       812 9.91007E-07-2.72880E+03-4.19903E-07
 -1       814 9.80559E-07-3.43711E+04 2.28357E-07
 -1       815-1.66634E-07 1.04177E+04 2.48355E+04
 -1       817-1.41532E-07 1.04177E+04-2.48355E+04
 -1       826 1.09867E-06-3.36306E+03-3.20651E-07
 -1       828 1.09254E-06-2.88559E+04 4.31789E-07
 -1       829 2.77367E-07 9.03972E+03 2.00089E+04
 -1       831 3.26223E-07 9.03972E+03-2.00089E+04
 -1       840 6.46387E-07-4.10452E+03 6.22288E-07
 -1       842 6.67098E-07-2.24097E+04 5.31474E-07
 -1       843 3.82831E-07 7.46604E+03 1.43674E+04
 -1       845 4.04619E-07 7.46604E+03-1.43674E+04
 -1       854 5.55954E-07-4.80201E+03 9.79758E-08
 -1       856 5.75287E-07-1.50177E+04-7.23826E-08
 -1       857 8.48593E-08 5.59540E+03 8.01815E+03
 -1       859 1.33245E-07 5.59540E+03-8.01815E+03
 -1       868 4.33224E-07-5.49949E+03-5.57926E-07
 -1       870 4.24073E-07-6.88242E+03-1.85824E-07
 -1       871 6.96811E-09 3.52931E+03 1.08544E+03
 -1       873-1.80658E-08 3.52931E+03-1.08544E+03
 -1       882 2.52950E-07-6.14547E+03 1.07339E-07
 -1       884 2.29177E-07 1.86217E+03 1.20761E-07
 -1       885-3.76497E-08 1.28478E+03-6.28506E+03
 -1       887-1.00902E-07 1.28478E+03 6.28506E+03
 -1       896-2.63988E-07-6.60521E+03 6.10764E-07
 -1       898-2.55615E-07 1.11139E+04 1.06715E-06
 -1       899-2.25816E-07-1.18041E+03-1.39074E+04
 -1       901-2.35172E-07-1.18041E+03 1.39074E+04
 -1       910-2.98861E-07-7.04121E+03 7.70178E-07
 -1       912-2.89113E-07 2.04609E+04 1.28353E-06
 -1       913-2.55147E-07-3.60559E+03-2.15860E+04
 -1       915-3.17521E-07-3.60559E+03 2.15860E+04
 -1       924-2.78485E-08-6.86960E+03 3.70460E-07
 -1       926 5.24649E-08 3.01834E+04 9.27231E-07
 -1       927-1.62576E-07-6.44870E+03-2.90823E+04
 -1       929-2.24808E-07-6.44870E+03 2.90823E+04
 -1       938 1.08673E-07-6.89552E+03-3.94192E-07
 -1       940 2.62526E-07 3.90762E+04 6.06306E-07
 -1       941-2.64769E-07-8.72881E+03-3.60825E+04
 -1       943-3.50314E-07-8.72881E+03 3.60825E+04
 -1       952 1.30398E-08-5.24766E+03-1.01711E-07
 -1       954 1.18739E-07 4.86271E+04 2.16427E-08
 -1       955-6.21525E-08-1.21466E+04-4.22855E+04
 -1       957-8.80223E-08-1.21466E+04 4.22855E+04
 -1       966-4.05942E-07-4.51057E+03 3.16698E-07
 -1       968-3.78223E-07 5.52700E+04 4.95552E-07
 -1       969-1.90526E-07-1.36437E+04-4.69208E+04
 -1       971-2.84058E-07-1.36437E+04 4.69208E+04
 -1       980-8.86124E+05 1.03908E+04-2.38012E+03
 -1       982-8.59451E+05 1.20903E+04-2.38012E+03
 -1       983 2.88485E+02 3.76079E+03-2.19155E+01
 -1       985 2.88485E+02 3.76079E+03-2.19155E+01
 -1       986-5.69640E+01-7.83165E+01-7.66193E+00
 -1       988-5.69640E+01-7.83165E+01-7.66193E+00
 -1       989-1.06738E+02-2.11409E+02-1.63202E+01
 -1       991-1.06738E+02-2.11409E+02-1.63202E+01
 -1       992-1.46185E+02-4.09964E+02-2.49793E+01
 -1       994-1.46185E+02-4.09964E+02-2.49793E+01
 -1       995-1.75226E+02-6.59303E+02-3.33102E+01
 -1       997-1.75226E+02-6.59303E+02-3.33102E+01
 -1       998-1.94170E+02-9.43799E+02-4.13738E+01
 -1      1000-1.94170E+02-9.43799E+02-4.13738E+01
 -1      1001-2.03299E+02-1.24871E+03-4.90011E+01
 -1      1003-2.03299E+02-1.24871E+03-4.90011E+01
 -1      1004-2.03068E+02-1.55965E+03-5.61250E+01
 -1      1006-2.03068E+02-1.55965E+03-5.61250E+01
 -1      1007-1.94029E+02-1.86305E+03-6.26244E+01
 -1      1009-1.94029E+02-1.86305E+03-6.26244E+01
 -1      1010-1.76868E+02-2.14624E+03-6.84092E+01
 -1      1012-1.76868E+02-2.14624E+03-6.84092E+01
 -1      1013-1.52379E+02-2.39765E+03-7.33842E+01
 -1      1015-1.52379E+02-2.39765E+03-7.33842E+01
 -1      1016-1.21466E+02-2.60697E+03-7.74729E+01
 -1      1018-1.21466E+02-2.60697E+03-7.74729E+01
 -1      1019-8.51226E+01-2.76536E+03-8.06115E+01
 -1      1021-8.51226E+01-2.76536E+03-8.06115E+01
 -1      1022-4.44150E+01-2.86547E+03-8.27563E+01
 -1      1024-4.44150E+01-2.86547E+03-8.27563E+01
 -1      1025-4.59560E-01-2.90164E+03-8.38844E+01
 -1      1027-4.59560E-01-2.90164E+03-8.38844E+01
 -1      1028 4.55993E+01-2.86987E+03-8.39965E+01
 -1      1030 4.55993E+01-2.86987E+03-8.39965E+01
 -1      1031 9.26173E+01-2.76792E+03-8.31181E+01
 -1      1033 9.26173E+01-2.76792E+03-8.31181E+01
 -1      1034 1.39476E+02-2.59524E+03-8.12999E+01
 -1      1036 1.39476E+02-2.59524E+03-8.12999E+01
 -1      1037 1.85111E+02-2.35293E+03-7.86187E+01
 -1      1039 1.85111E+02-2.35293E+03-7.86187E+01
 -1      1040 2.28540E+02-2.04363E+03-7.51757E+01
 -1      1042 2.28540E+02-2.04363E+03-7.51757E+01
 -1      1043 2.68890E+02-1.67138E+03-7.10960E+01
 -1      1045 2.68890E+02-1.67138E+03-7.10960E+01
 -1      1046 3.05421E+02-1.24147E+03-6.65264E+01
 -1      1048 3.05421E+02-1.24147E+03-6.65264E+01
 -1      1049 3.37551E+02-7.60150E+02-6.16328E+01
 -1      1051 3.37551E+02-7.60150E+02-6.16328E+01
 -1      1052 3.64879E+02-2.34460E+02-5.65966E+01
 -1      1054 3.64879E+02-2.34460E+02-5.65966E+01
 -1      1055 3.87201E+02 3.28115E+02-5.16120E+01
 -1      1057 3.87201E+02 3.28115E+02-5.16120E+01
 -1      1058 4.04528E+02 9.19925E+02-4.68800E+01
 -1      1060 4.04528E+02 9.19925E+02-4.68800E+01
 -1      1061 4.17096E+02 1.53349E+03-4.26058E+01
 -1      1063 4.17096E+02 1.53349E+03-4.26058E+01
 -1      1064 4.25380E+02 2.16185E+03-3.89891E+01
 -1      1066 4.25380E+02 2.16185E+03-3.89891E+01
 -1      1067 4.30097E+02 2.79892E+03-3.62256E+01
 -1      1069 4.30097E+02 2.79892E+03-3.62256E+01
 -1      1070 4.32216E+02 3.43987E+03-3.44782E+01
 -1      1072 4.32216E+02 3.43987E+03-3.44782E+01
 -1      1073 8.86124E+05 1.03908E+04 2.38012E+03
 -1      1075 8.59451E+05 1.20903E+04 2.38012E+03
 -1      1076 1.29005E+05 2.94269E+04 5.94884E+03
 -1      1078-1.29005E+05 2.94269E+04-5.94884E+03
 -1      1079 1.90117E+05 5.14881E+04 2.30746E-06
 -1      1081-1.90117E+05 5.14881E+04 2.48706E-06
 -1      1082 1.29005E+05 2.94269E+04-5.94884E+03
 -1      1084-1.29005E+05 2.94269E+04 5.94884E+03
 -1      1085-2.18020E-06-6.93528E+03-9.14308E+03
 -1      1087-2.19034E-06-6.93528E+03 9.14308E+03
 -1      1088 1.32215E-06 1.25011E+04-5.57165E-07
 -1      1090 1.33132E-06 8.52146E+02-4.15830E-07
 -1      1099-2.35909E-06 2.27867E+03-4.52328E+03
 -1      1101-2.37897E-06 2.27867E+03 4.52328E+03
 -1      1102 1.86964E-06-1.20426E+02 3.61582E-08
 -1      1104 1.85865E-06-5.88342E+03 2.01702E-07
 -1      1113-2.29810E-06 1.75661E+03-7.72115E+03
 -1      1115-2.30616E-06 1.75661E+03 7.72115E+03
 -1      1116 2.46484E-06 1.74673E+03-2.27044E-07
 -1      1118 2.41779E-06-8.09058E+03-5.15509E-08
 -1      1127-2.37805E-06 3.26769E+03-1.12718E+04
 -1      1129-2.35651E-06 3.26769E+03 1.12718E+04
 -1      1130 2.42799E-06 1.63412E+03-2.10159E-07
 -1      1132 2.41981E-06-1.27270E+04 3.49033E-07
 -1      1141-2.30682E-06 3.61016E+03-1.39404E+04
 -1      1143-2.26001E-06 3.61016E+03 1.39404E+04
 -1      1144 2.02263E-06 2.00766E+03 3.18876E-07
 -1      1146 2.04052E-06-1.57535E+04 1.02596E-06
 -1      1155-2.07940E-06 6.32350E+03-1.81983E+04
 -1      1157-2.13751E-06 6.32350E+03 1.81983E+04
 -1      1158 1.45321E-06 9.53802E+02 1.11296E-06
 -1      1160 1.44438E-06-2.22322E+04 1.19413E-06
 -1      1169-1.68243E-06 6.17437E+03-2.13417E+04
 -1      1171-1.71548E-06 6.17437E+03 2.13417E+04
 -1      1172 9.29605E-07 2.03239E+03 7.50032E-07
 -1      1174 9.04386E-07-2.51585E+04 6.21552E-07
 -1      1183-1.32608E-06 8.88071E+03-2.50858E+04
 -1      1185-1.43391E-06 8.88071E+03 2.50858E+04
 -1      1186 1.29772E-06 6.64773E+02 1.28048E-07
 -1      1188 1.29388E-06-3.12964E+04 2.91524E-09
 -1      1197-1.41979E-06 8.96873E+03-2.80889E+04
 -1      1199-1.34565E-06 8.96873E+03 2.80889E+04
 -1      1200 1.56426E-06 1.51359E+03 1.54006E-07
 -1      1202 1.57241E-06-3.42738E+04 3.31631E-07
 -1      1211-1.95073E-06 1.09486E+04-3.08911E+04
 -1      1213-1.77632E-06 1.09486E+04 3.08911E+04
 -1      1214 1.22014E-06 4.52320E+02 8.69947E-07
 -1      1216 1.18404E-06-3.89053E+04 3.85498E-07
 -1      1225-1.31450E-06 1.11994E+04-3.30103E+04
 -1      1227-1.37128E-06 1.11994E+04 3.30103E+04
 -1      1228 9.38138E-07 8.30034E+02 1.10238E-07
 -1      1230 9.26698E-07-4.12275E+04 4.78248E-07
 -1      1239-8.00697E-07 1.23640E+04-3.44817E+04
 -1      1241-8.46470E-07 1.23640E+04 3.44817E+04
 -1      1242 1.38434E-06 5.67479E+01-7.07247E-07
 -1      1244 1.35369E-06-4.38755E+04-7.63372E-07
 -1      1253-5.25108E-07 1.24593E+04-3.51606E+04
 -1      1255-4.24458E-07 1.24593E+04 3.51606E+04
 -1      1256 1.39225E-06 4.86498E+01-1.01639E-06
 -1      1258 1.40233E-06-4.47486E+04-1.21926E-06
 -1      1267-4.47226E-07 1.28576E+04-3.49629E+04
 -1      1269-6.17746E-07 1.28576E+04 3.49629E+04
 -1      1270 7.82398E-07-6.00873E+02-1.13784E-06
 -1      1272 7.66901E-07-4.51462E+04-8.08866E-07
 -1      1281-1.49919E-07 1.25516E+04-3.38618E+04
 -1      1283-1.31790E-07 1.25516E+04 3.38618E+04
 -1      1284-2.03602E-07-8.87927E+02-1.01621E-06
 -1      1286-2.25781E-07-4.40304E+04-2.40218E-07
 -1      1295 1.32739E-07 1.22324E+04-3.17940E+04
 -1      1297 1.12789E-09 1.22324E+04 3.17940E+04
 -1      1298-9.32732E-07-1.53614E+03-5.85484E-07
 -1      1300-9.34075E-07-4.20440E+04-7.76267E-07
 -1      1309-1.28128E-07 1.14017E+04-2.87866E+04
 -1      1311-1.27986E-07 1.14017E+04 2.87866E+04
 -1      1312-9.94283E-07-2.02816E+03-1.48135E-06
 -1      1314-1.01187E-06-3.87044E+04-4.71529E-07
 -1      1323-3.09706E-07 1.04177E+04-2.48355E+04
 -1      1325-2.29325E-07 1.04177E+04 2.48355E+04
 -1      1326-5.25655E-07-2.72880E+03-8.28520E-07
 -1      1328-5.45082E-07-3.43711E+04-8.49842E-07
 -1      1337-2.06695E-07 9.03972E+03-2.00089E+04
 -1      1339-1.49005E-07 9.03972E+03 2.00089E+04
 -1      1340 2.25846E-07-3.36306E+03-1.32244E-07
 -1      1342 2.60711E-07-2.88559E+04-9.31141E-07
 -1      1351 4.24859E-08 7.46604E+03-1.43674E+04
 -1      1353 1.05792E-07 7.46604E+03 1.43674E+04
 -1      1354 5.11330E-07-4.10452E+03-2.69271E-07
 -1      1356 5.11022E-07-2.24097E+04 1.15639E-07
 -1      1365 3.99270E-07 5.59540E+03-8.01815E+03
 -1      1367 2.68637E-07 5.59540E+03 8.01815E+03
 -1      1368 4.34469E-07-4.80201E+03 4.00696E-07
 -1      1370 4.58764E-07-1.50177E+04 4.71005E-07
 -1      1379 6.05073E-07 3.52931E+03-1.08544E+03
 -1      1381 5.07787E-07 3.52931E+03 1.08544E+03
 -1      1382 5.62559E-07-5.49949E+03 4.88520E-07
 -1      1384 5.56833E-07-6.88242E+03 2.56623E-07
 -1      1393 5.28494E-07 1.28478E+03 6.28506E+03
 -1      1395 4.05647E-07 1.28478E+03-6.28506E+03
 -1      1396 5.69202E-07-6.14547E+03-1.00921E-06
 -1      1398 6.44908E-07 1.86217E+03-5.57439E-07
 -1      1407 6.74025E-09-1.18041E+03 1.39074E+04
 -1      1409-4.85087E-08-1.18041E+03-1.39074E+04
 -1      1410 3.21703E-07-6.60521E+03-1.26583E-06
 -1      1412 3.20706E-07 1.11139E+04-1.27408E-06
 -1      1421-3.34564E-07-3.60559E+03 2.15860E+04
 -1      1423-2.63489E-07-3.60559E+03-2.15860E+04
 -1      1424 2.25871E-07-7.04121E+03-3.48033E-07
 -1      1426 1.14263E-07 2.04609E+04-6.95926E-07
 -1      1435 2.97988E-08-6.44870E+03 2.90823E+04
 -1      1437 1.20965E-07-6.44870E+03-2.90823E+04
 -1      1438-1.41713E-07-6.86960E+03 2.69754E-07
 -1      1440-6.56462E-08 3.01834E+04-4.84219E-07
 -1      1449-4.12030E-09-8.72881E+03 3.60825E+04
 -1      1451 1.29658E-07-8.72881E+03-3.60825E+04
 -1      1452 2.73443E-08-6.89552E+03-1.27845E-07
 -1      1454 3.25132E-08 3.90762E+04-1.44396E-07
 -1      1463-1.00354E-07-1.21466E+04 4.22855E+04
 -1      1465-2.06027E-07-1.21466E+04-4.22855E+04
 -1      1466 5.78082E-07-5.24766E+03-9.28366E-08
 -1      1468 4.75672E-07 4.86271E+04-2.45911E-07
 -1      1477 1.21683E-07-1.36437E+04 4.69208E+04
 -1      1479 1.12874E-08-1.36437E+04-4.69208E+04
 -1      1480 8.40733E-07-4.51057E+03 1.37445E-06
 -1      1482 8.69244E-07 5.52700E+04-1.45992E-06
 -1      1491-2.52558E-07 5.30518E+03 1.88477E-07
 -1      1493-5.06305E-08 5.30518E+03-2.96974E-07
 -1      1494-4.25167E-07 5.29842E+03 1.37472E-07
 -1      1496 2.23878E-07 5.29842E+03-2.69282E-07
 -1      1497 1.50001E-07 5.30518E+03 1.23736E-07
 -1      1499 3.68891E-07 5.30518E+03 1.97131E-07
 -1      1500-5.69640E+01-7.83165E+01 7.66193E+00
 -1      1502-5.69640E+01-7.83165E+01 7.66193E+00
 -1      1503-1.06738E+02-2.11409E+02 1.63202E+01
 -1      1505-1.06738E+02-2.11409E+02 1.63202E+01
 -1      1506-1.46185E+02-4.09964E+02 2.49793E+01
 -1      1508-1.46185E+02-4.09964E+02 2.49793E+01
 -1      1509-1.75226E+02-6.59303E+02 3.33102E+01
 -1      1511-1.75226E+02-6.59303E+02 3.33102E+01
 -1      1512-1.94170E+02-9.43799E+02 4.13738E+01
 -1      1514-1.94170E+02-9.43799E+02 4.13738E+01
 -1      1515-2.03299E+02-1.24871E+03 4.90011E+01
 -1      1517-2.03299E+02-1.24871E+03 4.90011E+01
 -1      1518-2.03068E+02-1.55965E+03 5.61250E+01
 -1      1520-2.03068E+02-1.55965E+03 5.61250E+01
 -1      1521-1.94029E+02-1.86305E+03 6.26244E+01
 -1      1523-1.94029E+02-1.86305E+03 6.26244E+01
 -1      1524-1.76868E+02-2.14624E+03 6.84092E+01
 -1      1526-1.76868E+02-2.14624E+03 6.84092E+01
 -1      1527-1.52379E+02-2.39765E+03 7.33842E+01
 -1      1529-1.52379E+02-2.39765E+03 7.33842E+01
 -1      1530-1.21466E+02-2.60697E+03 7.74729E+01
 -1      1532-1.21466E+02-2.60697E+03 7.74729E+01
 -1      1533-8.51226E+01-2.76536E+03 8.06115E+01
 -1      1535-8.51226E+01-2.76536E+03 8.06115E+01
 -1      1536-4.44150E+01-2.86547E+03 8.27563E+01
 -1      1538-4.44150E+01-2.86547E+03 8.27563E+01
 -1      1539-4.59560E-01-2.90164E+03 8.38844E+01
 -1      1541-4.59560E-01-2.90164E+03 8.38844E+01
 -1      1542 4.55993E+01-2.86987E+03 8.39965E+01
 -1      1544 4.55993E+01-2.86987E+03 8.39965E+01
 -1      1545 9.26173E+01-2.76792E+03 8.31181E+01
 -1      1547 9.26173E+01-2.76792E+03 8.31181E+01
 -1      1548 1.39476E+02-2.59524E+03 8.12999E+01
 -1      1550 1.39476E+02-2.59524E+03 8.12999E+01
 -1      1551 1.85111E+02-2.35293E+03 7.86187E+01
 -1      1553 1.85111E+02-2.35293E+03 7.86187E+01
 -1      1554 2.28540E+02-2.04363E+03 7.51757E+01
 -1      1556 2.28540E+02-2.04363E+03 7.51757E+01
 -1      1557 2.68890E+02-1.67138E+03 7.10960E+01
 -1      1559 2.68890E+02-1.67138E+03 7.10960E+01
 -1      1560 3.05421E+02-1.24147E+03 6.65264E+01
 -1      1562 3.05421E+02-1.24147E+03 6.65264E+01
 -1      1563 3.37551E+02-7.60150E+02 6.16328E+01
 -1      1565 3.37551E+02-7.60150E+02 6.16328E+01
 -1      1566 3.64879E+02-2.34460E+02 5.65966E+01
 -1      1568 3.64879E+02-2.34460E+02 5.65966E+01
 -1      1569 3.87201E+02 3.28115E+02 5.16120E+01
 -1      1571 3.87201E+02 3.28115E+02 5.16120E+01
 -1      1572 4.04528E+02 9.19925E+02 4.68800E+01
 -1      1574 4.04528E+02 9.19925E+02 4.68800E+01
 -1      1575 4.17096E+02 1.53349E+03 4.26058E+01
 -1      1577 4.17096E+02 1.53349E+03 4.26058E+01
 -1      1578 4.25380E+02 2.16185E+03 3.89891E+01
 -1      1580 4.25380E+02 2.16185E+03 3.89891E+01
 -1      1581 4.30097E+02 2.79892E+03 3.62256E+01
 -1      1583 4.30097E+02 2.79892E+03 3.62256E+01
 -1      1584 4.32216E+02 3.43987E+03 3.44782E+01
 -1      1586 4.32216E+02 3.43987E+03 3.44782E+01
 -1      1587 2.88485E+02 3.76079E+03 2.19155E+01
 -1      1589 2.88485E+02 3.76079E+03 2.19155E+01
 -1      1590 8.86124E+05 1.03908E+04-2.38012E+03
 -1      1592 8.59451E+05 1.20903E+04-2.38012E+03
 -1      1593-2.88485E+02 3.76079E+03-2.19155E+01
 -1      1595-2.88485E+02 3.76079E+03-2.19155E+01
 -1      1596 5.69640E+01-7.83165E+01-7.66193E+00
 -1      1598 5.69640E+01-7.83165E+01-7.66193E+00
 -1      1599 1.06738E+02-2.11409E+02-1.63202E+01
 -1      1601 1.06738E+02-2.11409E+02-1.63202E+01
 -1      1602 1.46185E+02-4.09964E+02-2.49793E+01
 -1      1604 1.46185E+02-4.09964E+02-2.49793E+01
 -1      1605 1.75226E+02-6.59303E+02-3.33102E+01
 -1      1607 1.75226E+02-6.59303E+02-3.33102E+01
 -1      1608 1.94170E+02-9.43799E+02-4.13738E+01
 -1      1610 1.94170E+02-9.43799E+02-4.13738E+01
 -1      1611 2.03299E+02-1.24871E+03-4.90011E+01
 -1      1613 2.03299E+02-1.24871E+03-4.90011E+01
 -1      1614 2.03068E+02-1.55965E+03-5.61250E+01
 -1      1616 2.03068E+02-1.55965E+03-5.61250E+01
 -1      1617 1.94029E+02-1.86305E+03-6.26244E+01
 -1      1619 1.94029E+02-1.86305E+03-6.26244E+01
 -1      1620 1.76868E+02-2.14624E+03-6.84092E+01
 -1      1622 1.76868E+02-2.14624E+03-6.84092E+01
 -1      1623 1.52379E+02-2.39765E+03-7.33842E+01
 -1      1625 1.52379E+02-2.39765E+03-7.33842E+01
 -1      1626 1.21466E+02-2.60697E+03-7.74729E+01
 -1      1628 1.21466E+02-2.60697E+03-7.74729E+01
 -1      1629 8.51226E+01-2.76536E+03-8.06115E+01
 -1      1631 8.51226E+01-2.76536E+03-8.06115E+01
 -1      1632 4.44150E+01-2.86547E+03-8.27563E+01
 -1      1634 4.44150E+01-2.86547E+03-8.27563E+01
 -1      1635 4.59560E-01-2.90164E+03-8.38844E+01
 -1      1637 4.59560E-01-2.90164E+03-8.38844E+01
 -1      1638-4.55993E+01-2.86987E+03-8.39965E+01
 -1      1640-4.55993E+01-2.86987E+03-8.39965E+01
 -1      1641-9.26173E+01-2.76792E+03-8.31181E+01
 -1      1643-9.26173E+01-2.76792E+03-8.31181E+01
 -1      1644-1.39476E+02-2.59524E+03-8.12999E+01
 -1      1646-1.39476E+02-2.59524E+03-8.12999E+01
 -1      1647-1.85111E+02-2.35293E+03-7.86187E+01
 -1      1649-1.85111E+02-2.35293E+03-7.86187E+01
 -1      1650-2.28540E+02-2.04363E+03-7.51757E+01
 -1      1652-2.28540E+02-2.04363E+03-7.51757E+01
 -1      1653-2.68890E+02-1.67138E+03-7.10960E+01
 -1      1655-2.68890E+02-1.67138E+03-7.10960E+01
 -1      1656-3.05421E+02-1.24147E+03-6.65264E+01
 -1      1658-3.05421E+02-1.24147E+03-6.65264E+01
 -1      1659-3.37551E+02-7.60150E+02-6.16328E+01
 -1      1661-3.37551E+02-7.60150E+02-6.16328E+01
 -1      1662-3.64879E+02-2.34460E+02-5.65966E+01
 -1      1664-3.64879E+02-2.34460E+02-5.65966E+01
 -1      1665-3.87201E+02 3.28115E+02-5.16120E+01
 -1      1667-3.87201E+02 3.28115E+02-5.16120E+01
 -1      1668-4.04528E+02 9.19925E+02-4.68800E+01
 -1      1670-4.04528E+02 9.19925E+02-4.68800E+01
 -1      1671-4.17096E+02 1.53349E+03-4.26058E+01
 -1      1673-4.17096E+02 1.53349E+03-4.26058E+01
 -1      1674-4.25380E+02 2.16185E+03-3.89891E+01
 -1      1676-4.25380E+02 2.16185E+03-3.89891E+01
 -1      1677-4.30097E+02 2.79892E+03-3.62256E+01
 -1      1679-4.30097E+02 2.79892E+03-3.62256E+01
 -1      1680-4.32216E+02 3.43987E+03-3.44782E+01
 -1      1682-4.32216E+02 3.43987E+03-3.44782E+01
 -1      1683-8.86124E+05 1.03908E+04 2.38012E+03
 -1      1685-8.59451E+05 1.20903E+04 2.38012E+03
 -1      1686 7.53506E+01-1.52076E+02 1.02796E+01
 -1      1688 7.53506E+01-1.52076E+02 1.02796E+01
 -1      1689 1.41769E+02-4.18581E+02 2.19329E+01
 -1      1691 1.41769E+02-4.18581E+02 2.19329E+01
 -1      1692 1.94396E+02-8.16960E+02 3.35862E+01
 -1      1694 1.94396E+02-8.16960E+02 3.35862E+01
 -1      1695 2.33098E+02-1.31641E+03 4.47985E+01
 -1      1697 2.33098E+02-1.31641E+03 4.47985E+01
 -1      1698 2.58394E+02-1.88636E+03 5.56601E+01
 -1      1700 2.58394E+02-1.88636E+03 5.56601E+01
 -1      1701 2.70578E+02-2.49703E+03 6.59397E+01
 -1      1703 2.70578E+02-2.49703E+03 6.59397E+01
 -1      1704 2.70303E+02-3.11975E+03 7.55469E+01
 -1      1706 2.70303E+02-3.11975E+03 7.55469E+01
 -1      1707 2.58285E+02-3.72731E+03 8.43153E+01
 -1      1709 2.58285E+02-3.72731E+03 8.43153E+01
 -1      1710 2.35444E+02-4.29439E+03 9.21211E+01
 -1      1712 2.35444E+02-4.29439E+03 9.21211E+01
 -1      1713 2.02839E+02-4.79782E+03 9.88331E+01
 -1      1715 2.02839E+02-4.79782E+03 9.88331E+01
 -1      1716 1.61674E+02-5.21701E+03 1.04346E+02
 -1      1718 1.61674E+02-5.21701E+03 1.04346E+02
 -1      1719 1.13271E+02-5.53422E+03 1.08570E+02
 -1      1721 1.13271E+02-5.53422E+03 1.08570E+02
 -1      1722 5.90519E+01-5.73480E+03 1.11445E+02
 -1      1724 5.90519E+01-5.73480E+03 1.11445E+02
 -1      1725 5.03914E-01-5.80737E+03 1.12938E+02
 -1      1727 5.03914E-01-5.80737E+03 1.12938E+02
 -1      1728-6.08488E+01-5.74397E+03 1.13048E+02
 -1      1730-6.08488E+01-5.74397E+03 1.13048E+02
 -1      1731-1.23482E+02-5.54011E+03 1.11809E+02
 -1      1733-1.23482E+02-5.54011E+03 1.11809E+02
 -1      1734-1.85905E+02-5.19469E+03 1.09288E+02
 -1      1736-1.85905E+02-5.19469E+03 1.09288E+02
 -1      1737-2.46701E+02-4.70990E+03 1.05587E+02
 -1      1739-2.46701E+02-4.70990E+03 1.05587E+02
 -1      1740-3.04561E+02-4.09105E+03 1.00845E+02
 -1      1742-3.04561E+02-4.09105E+03 1.00845E+02
 -1      1743-3.58322E+02-3.34625E+03 9.52299E+01
 -1      1745-3.58322E+02-3.34625E+03 9.52299E+01
 -1      1746-4.07000E+02-2.48604E+03 8.89411E+01
 -1      1748-4.07000E+02-2.48604E+03 8.89411E+01
 -1      1749-4.49820E+02-1.52299E+03 8.22040E+01
 -1      1751-4.49820E+02-1.52299E+03 8.22040E+01
 -1      1752-4.86247E+02-4.71158E+02 7.52663E+01
 -1      1754-4.86247E+02-4.71158E+02 7.52663E+01
 -1      1755-5.16010E+02 6.54450E+02 6.83928E+01
 -1      1757-5.16010E+02 6.54450E+02 6.83928E+01
 -1      1758-5.39125E+02 1.83852E+03 6.18594E+01
 -1      1760-5.39125E+02 1.83852E+03 6.18594E+01
 -1      1761-5.55907E+02 3.06606E+03 5.59490E+01
 -1      1763-5.55907E+02 3.06606E+03 5.59490E+01
 -1      1764-5.66989E+02 4.32315E+03 5.09385E+01
 -1      1766-5.66989E+02 4.32315E+03 5.09385E+01
 -1      1767-5.73330E+02 5.59757E+03 4.71022E+01
 -1      1769-5.73330E+02 5.59757E+03 4.71022E+01
 -1      1770-5.76214E+02 6.87965E+03 4.46719E+01
 -1      1772-5.76214E+02 6.87965E+03 4.46719E+01
 -1      1773-7.53506E+01-1.52076E+02-1.02796E+01
 -1      1775-7.53506E+01-1.52076E+02-1.02796E+01
 -1      1776-1.41769E+02-4.18581E+02-2.19329E+01
 -1      1778-1.41769E+02-4.18581E+02-2.19329E+01
 -1      1779-1.94396E+02-8.16960E+02-3.35862E+01
 -1      1781-1.94396E+02-8.16960E+02-3.35862E+01
 -1      1782-2.33098E+02-1.31641E+03-4.47985E+01
 -1      1784-2.33098E+02-1.31641E+03-4.47985E+01
 -1      1785-2.58394E+02-1.88636E+03-5.56601E+01
 -1      1787-2.58394E+02-1.88636E+03-5.56601E+01
 -1      1788-2.70578E+02-2.49703E+03-6.59397E+01
 -1      1790-2.70578E+02-2.49703E+03-6.59397E+01
 -1      1791-2.70303E+02-3.11975E+03-7.55469E+01
 -1      1793-2.70303E+02-3.11975E+03-7.55469E+01
 -1      1794-2.58285E+02-3.72731E+03-8.43153E+01
 -1      1796-2.58285E+02-3.72731E+03-8.43153E+01
 -1      1797-2.35444E+02-4.29439E+03-9.21211E+01
 -1      1799-2.35444E+02-4.29439E+03-9.21211E+01
 -1      1800-2.02839E+02-4.79782E+03-9.88331E+01
 -1      1802-2.02839E+02-4.79782E+03-9.88331E+01
 -1      1803-1.61674E+02-5.21701E+03-1.04346E+02
 -1      1805-1.61674E+02-5.21701E+03-1.04346E+02
 -1      1806-1.13271E+02-5.53422E+03-1.08570E+02
 -1      1808-1.13271E+02-5.53422E+03-1.08570E+02
 -1      1809-5.90519E+01-5.73480E+03-1.11445E+02
 -1      1811-5.90519E+01-5.73480E+03-1.11445E+02
 -1      1812-5.03914E-01-5.80737E+03-1.12938E+02
 -1      1814-5.03914E-01-5.80737E+03-1.12938E+02
 -1      1815 6.08488E+01-5.74397E+03-1.13048E+02
 -1      1817 6.08488E+01-5.74397E+03-1.13048E+02
 -1      1818 1.23482E+02-5.54011E+03-1.11809E+02
 -1      1820 1.23482E+02-5.54011E+03-1.11809E+02
 -1      1821 1.85905E+02-5.19469E+03-1.09288E+02
 -1      1823 1.85905E+02-5.19469E+03-1.09288E+02
 -1      1824 2.46701E+02-4.70990E+03-1.05587E+02
 -1      1826 2.46701E+02-4.70990E+03-1.05587E+02
 -1      1827 3.04561E+02-4.09105E+03-1.00845E+02
 -1      1829 3.04561E+02-4.09105E+03-1.00845E+02
 -1      1830 3.58322E+02-3.34625E+03-9.52299E+01
 -1      1832 3.58322E+02-3.34625E+03-9.52299E+01
 -1      1833 4.07000E+02-2.48604E+03-8.89411E+01
 -1      1835 4.07000E+02-2.48604E+03-8.89411E+01
 -1      1836 4.49820E+02-1.52299E+03-8.22040E+01
 -1      1838 4.49820E+02-1.52299E+03-8.22040E+01
 -1      1839 4.86247E+02-4.71158E+02-7.52663E+01
 -1      1841 4.86247E+02-4.71158E+02-7.52663E+01
 -1      1842 5.16010E+02 6.54450E+02-6.83928E+01
 -1      1844 5.16010E+02 6.54450E+02-6.83928E+01
 -1      1845 5.39125E+02 1.83852E+03-6.18594E+01
 -1      1847 5.39125E+02 1.83852E+03-6.18594E+01
 -1      1848 5.55907E+02 3.06606E+03-5.59490E+01
 -1      1850 5.55907E+02 3.06606E+03-5.59490E+01
 -1      1851 5.66989E+02 4.32315E+03-5.09385E+01
 -1      1853 5.66989E+02 4.32315E+03-5.09385E+01
 -1      1854 5.73330E+02 5.59757E+03-4.71022E+01
 -1      1856 5.73330E+02 5.59757E+03-4.71022E+01
 -1      1857 5.76214E+02 6.87965E+03-4.46719E+01
 -1      1859 5.76214E+02 6.87965E+03-4.46719E+01
 -1      1860 1.14531E-07-2.34224E+02-1.70537E-07
 -1      1862 1.16212E-07-2.34224E+02-1.36232E-07
 -1      1863 2.38383E-07-6.42626E+02 4.70250E-08
 -1      1865 2.34711E-07-6.42626E+02 3.67722E-08
 -1      1866 2.47451E-07-1.24050E+03 6.28447E-08
 -1      1868 2.44147E-07-1.24050E+03 1.09475E-07
 -1      1869-2.90861E-07-1.97967E+03 9.78389E-09
 -1      1871-2.99375E-07-1.97967E+03 2.57222E-07
 -1      1872-5.84038E-07-2.81836E+03-1.32434E-08
 -1      1874-5.84552E-07-2.81836E+03 3.27484E-08
 -1      1875-3.76685E-07-3.71326E+03-1.60969E-07
 -1      1877-3.09478E-07-3.71326E+03-2.35738E-07
 -1      1878-4.30184E-08-4.62346E+03-2.02746E-07
 -1      1880 3.13672E-08-4.62346E+03-2.14072E-07
 -1      1881 3.40950E-07-5.50993E+03-1.44241E-07
 -1      1883 2.79412E-07-5.50993E+03 2.42785E-08
 -1      1884-3.71271E-08-6.33623E+03 2.22494E-07
 -1      1886 1.10408E-07-6.33623E+03 6.59147E-07
 -1      1887-5.26927E-07-7.06912E+03 6.63084E-07
 -1      1889-2.27506E-07-7.06912E+03 3.66943E-07
 -1      1890-2.73110E-07-7.67900E+03 4.77817E-08
 -1      1892-3.80563E-07-7.67900E+03-4.25021E-07
 -1      1893 1.85327E-07-8.14036E+03-2.58651E-07
 -1      1895 1.54889E-07-8.14036E+03-5.77128E-07
 -1      1896-3.29467E-08-8.43219E+03-4.52596E-07
 -1      1898 1.80579E-08-8.43219E+03-7.79218E-07
 -1      1899-1.58571E-08-8.53820E+03-7.01319E-07
 -1      1901 1.34023E-07-8.53820E+03-7.31656E-07
 -1      1902 6.53822E-07-8.44705E+03-5.54557E-07
 -1      1904 4.88287E-07-8.44705E+03-4.27217E-07
 -1      1905 6.34538E-07-8.15240E+03-5.60749E-07
 -1      1907 3.93122E-07-8.15240E+03 2.33558E-09
 -1      1908 3.99169E-07-7.65287E+03-4.60205E-07
 -1      1910 4.71719E-07-7.65287E+03-3.65872E-08
 -1      1911 4.96045E-07-6.95187E+03-3.68621E-07
 -1      1913 4.34487E-07-6.95187E+03-2.42562E-07
 -1      1914 7.92555E-07-6.05730E+03 2.52724E-07
 -1      1916 8.32282E-07-6.05730E+03 1.81865E-07
 -1      1917 8.00325E-07-4.98119E+03 4.48207E-07
 -1      1919 7.40334E-07-4.98119E+03 5.01755E-07
 -1      1920 4.34372E-07-3.73912E+03-2.15510E-07
 -1      1922 3.98336E-07-3.73912E+03 3.75509E-07
 -1      1923-3.28866E-08-2.34962E+03-4.02014E-07
 -1      1925 1.26937E-08-2.34962E+03-1.89327E-07
 -1      1926-2.00328E-07-8.33472E+02-6.25069E-07
 -1      1928-2.86070E-07-8.33472E+02 3.08378E-07
 -1      1929-4.52693E-07 7.87153E+02-3.75150E-07
 -1      1931-3.93722E-07 7.87153E+02 1.72003E-07
 -1      1932-3.23081E-07 2.48954E+03-7.04109E-07
 -1      1934-2.57076E-07 2.48954E+03-2.54412E-07
 -1      1935-1.08651E-07 4.25139E+03-5.71691E-07
 -1      1937-1.60821E-07 4.25139E+03-1.55783E-07
 -1      1938-2.32827E-07 6.05181E+03-1.89871E-07
 -1      1940-3.57731E-07 6.05181E+03-3.06436E-07
 -1      1941 2.50250E-07 7.87231E+03 6.88811E-08
 -1      1943-1.99805E-07 7.87231E+03-2.14540E-07
 -1      1944-2.62750E-07 9.69790E+03 4.92450E-08
 -1      1946-1.72864E-07 9.69790E+03-5.34408E-07
 -1      1947 2.70830E-07-2.46172E+02 3.40630E-07
 -1      1949 2.79686E-07-2.46172E+02 3.29028E-07
 -1      1950 5.32029E-08-6.67438E+02 6.57783E-07
 -1      1952 1.03386E-07-6.67438E+02 6.41435E-07
 -1      1953 5.74837E-08-1.27834E+03 2.14150E-08
 -1      1955 5.56058E-08-1.27834E+03 1.68022E-07
 -1      1956-6.34165E-08-2.03031E+03-2.65231E-07
 -1      1958-7.81975E-08-2.03031E+03 5.72220E-08
 -1      1959-1.98777E-07-2.88150E+03 2.11486E-07
 -1      1961-1.83931E-07-2.88150E+03 2.43232E-07
 -1      1962-1.69001E-07-3.78840E+03 4.87066E-07
 -1      1964-2.13223E-07-3.78840E+03 1.97091E-07
 -1      1965-3.87582E-07-4.70990E+03 6.21354E-07
 -1      1967-2.53627E-07-4.70990E+03 2.14517E-07
 -1      1968-5.48079E-07-5.60675E+03 4.68711E-07
 -1      1970-5.07179E-07-5.60675E+03 1.02802E-07
 -1      1971-4.09535E-07-6.44230E+03 5.45854E-08
 -1      1973-2.95397E-07-6.44230E+03 1.08500E-07
 -1      1974-5.34741E-07-7.18311E+03-5.17730E-10
 -1      1976-3.95508E-07-7.18311E+03 1.29829E-07
 -1      1977-5.14649E-07-7.79940E+03-4.37924E-08
 -1      1979-7.96960E-07-7.79940E+03-9.43726E-08
 -1      1980-2.95099E-08-8.26552E+03 2.06962E-07
 -1      1982-1.05383E-07-8.26552E+03-1.75906E-07
 -1      1983 1.88663E-07-8.56032E+03-2.47731E-07
 -1      1985 1.09181E-07-8.56032E+03-5.09870E-07
 -1      1986 1.51920E-07-8.66744E+03-8.02749E-07
 -1      1988 3.42487E-07-8.66744E+03-7.60319E-07
 -1      1989 6.38119E-07-8.57551E+03-7.00173E-07
 -1      1991 6.39546E-07-8.57551E+03-3.23947E-07
 -1      1992 7.60636E-07-8.27820E+03-5.39193E-08
 -1      1994 6.38735E-07-8.27820E+03 1.10933E-07
 -1      1995 1.60009E-07-7.77421E+03 2.50923E-07
 -1      1997 3.16180E-07-7.77421E+03 5.18366E-07
 -1      1998-2.30584E-07-7.06704E+03 6.59795E-07
 -1      2000-1.66132E-07-7.06704E+03 6.48047E-07
 -1      2001-2.86394E-09-6.16480E+03 3.52408E-07
 -1      2003 1.58379E-07-6.16480E+03 4.23189E-07
 -1      2004 4.05062E-07-5.07969E+03 2.31009E-07
 -1      2006 2.57515E-07-5.07969E+03 4.83868E-07
 -1      2007 2.28081E-07-3.82758E+03-5.67297E-10
 -1      2009 9.36922E-08-3.82758E+03 2.56020E-08
 -1      2010-1.03047E-07-2.42731E+03-4.77999E-08
 -1      2012-2.21091E-07-2.42731E+03-1.42241E-07
 -1      2013-6.40932E-08-8.99987E+02 2.73960E-07
 -1      2015-1.19574E-07-8.99987E+02 7.57361E-08
 -1      2016-2.80995E-07 7.31812E+02 4.56740E-07
 -1      2018-2.86007E-07 7.31812E+02 8.75742E-07
 -1      2019-3.72282E-07 2.44496E+03 2.86281E-07
 -1      2021-3.11456E-07 2.44496E+03 9.91058E-07
 -1      2022-3.20825E-07 4.21671E+03 3.47470E-07
 -1      2024-3.38198E-07 4.21671E+03 6.76801E-07
 -1      2025-3.70811E-07 6.02569E+03 1.24286E-07
 -1      2027-4.25962E-07 6.02569E+03 9.09834E-07
 -1      2028 3.47528E-07 7.85289E+03 2.38558E-07
 -1      2030-2.58986E-07 7.85289E+03 8.60801E-07
 -1      2031-3.88838E-07 9.68284E+03 5.11258E-07
 -1      2033-1.95762E-07 9.68284E+03 3.46932E-08
 -1      2034-5.69772E-07-2.34224E+02 5.86982E-07
 -1      2036-5.74979E-07-2.34224E+02 5.51849E-07
 -1      2037-5.16438E-07-6.42626E+02 5.89877E-07
 -1      2039-5.14128E-07-6.42626E+02 5.98776E-07
 -1      2040 1.20554E-07-1.24050E+03-2.51224E-07
 -1      2042 8.20396E-08-1.24050E+03-1.32635E-07
 -1      2043 2.24086E-07-1.97967E+03-5.83192E-07
 -1      2045 2.54544E-07-1.97967E+03-4.39406E-07
 -1      2046 3.91223E-08-2.81836E+03-1.17370E-07
 -1      2048 8.33243E-08-2.81836E+03-2.14058E-07
 -1      2049 2.88215E-08-3.71326E+03 2.07614E-07
 -1      2051-4.60245E-08-3.71326E+03-1.46763E-07
 -1      2052-3.98427E-07-4.62346E+03 5.43555E-07
 -1      2054-3.86829E-07-4.62346E+03 1.40625E-07
 -1      2055-3.87593E-07-5.50993E+03 7.75852E-07
 -1      2057-3.80993E-07-5.50993E+03 4.44283E-07
 -1      2058-1.74312E-07-6.33623E+03 3.07218E-07
 -1      2060-7.14682E-08-6.33623E+03 5.28400E-07
 -1      2061-7.37706E-07-7.06912E+03-5.52103E-07
 -1      2063-5.39394E-07-7.06912E+03 2.21774E-07
 -1      2064-5.76133E-07-7.67900E+03-2.06454E-08
 -1      2066-7.25453E-07-7.67900E+03 1.12765E-07
 -1      2067-1.47346E-08-8.14036E+03 1.34984E-08
 -1      2069-1.17620E-07-8.14036E+03-6.71858E-08
 -1      2070 2.19103E-07-8.43219E+03-1.86836E-08
 -1      2072 2.46175E-07-8.43219E+03-2.58517E-07
 -1      2073 1.99818E-07-8.53820E+03-4.05768E-07
 -1      2075-5.57818E-08-8.53820E+03-1.64007E-07
 -1      2076-1.96671E-07-8.44705E+03-2.42073E-07
 -1      2078-5.46131E-08-8.44705E+03-1.12621E-07
 -1      2079-2.93148E-07-8.15240E+03 3.07452E-07
 -1      2081-2.44545E-07-8.15240E+03 7.82620E-08
 -1      2082-5.98187E-07-7.65287E+03 4.66552E-07
 -1      2084-6.54114E-07-7.65287E+03 5.24007E-07
 -1      2085-7.29046E-07-6.95187E+03 3.18479E-07
 -1      2087-4.83057E-07-6.95187E+03 6.52825E-08
 -1      2088-2.01275E-07-6.05730E+03 2.94698E-07
 -1      2090-4.04578E-08-6.05730E+03-2.07830E-07
 -1      2091 1.80071E-07-4.98119E+03-2.65986E-07
 -1      2093 2.36684E-07-4.98119E+03-4.44336E-07
 -1      2094 5.77791E-07-3.73912E+03-3.90895E-07
 -1      2096 3.87165E-07-3.73912E+03-6.93175E-07
 -1      2097 6.13994E-07-2.34962E+03 2.87991E-07
 -1      2099 4.53025E-07-2.34962E+03 2.83602E-07
 -1      2100 6.95280E-07-8.33472E+02 2.33966E-07
 -1      2102 4.96219E-07-8.33472E+02 1.60093E-07
 -1      2103 1.49069E-07 7.87153E+02 3.75222E-07
 -1      2105 3.01633E-08 7.87153E+02 2.61402E-08
 -1      2106-1.88256E-07 2.48954E+03 1.75820E-07
 -1      2108-8.25038E-08 2.48954E+03 2.42207E-07
 -1      2109-4.49455E-08 4.25139E+03-2.16253E-07
 -1      2111 2.19567E-08 4.25139E+03 7.35414E-07
 -1      2112-1.21427E-07 6.05181E+03 1.95947E-07
 -1      2114-1.47908E-08 6.05181E+03 1.35230E-06
 -1      2115 4.96406E-07 7.87231E+03-9.72916E-09
 -1      2117 1.35507E-07 7.87231E+03 1.31300E-06
 -1      2118 5.70960E-07 9.69790E+03 1.90655E-07
 -1      2120 4.74857E-07 9.69790E+03 8.26933E-07
 -1      2121-7.53506E+01-1.52076E+02 1.02796E+01
 -1      2123-7.53506E+01-1.52076E+02 1.02796E+01
 -1      2124-1.41769E+02-4.18581E+02 2.19329E+01
 -1      2126-1.41769E+02-4.18581E+02 2.19329E+01
 -1      2127-1.94396E+02-8.16960E+02 3.35862E+01
 -1      2129-1.94396E+02-8.16960E+02 3.35862E+01
 -1      2130-2.33098E+02-1.31641E+03 4.47985E+01
 -1      2132-2.33098E+02-1.31641E+03 4.47985E+01
 -1      2133-2.58394E+02-1.88636E+03 5.56601E+01
 -1      2135-2.58394E+02-1.88636E+03 5.56601E+01
 -1      2136-2.70578E+02-2.49703E+03 6.59397E+01
 -1      2138-2.70578E+02-2.49703E+03 6.59397E+01
 -1      2139-2.70303E+02-3.11975E+03 7.55469E+01
 -1      2141-2.70303E+02-3.11975E+03 7.55469E+01
 -1      2142-2.58285E+02-3.72731E+03 8.43153E+01
 -1      2144-2.58285E+02-3.72731E+03 8.43153E+01
 -1      2145-2.35444E+02-4.29439E+03 9.21211E+01
 -1      2147-2.35444E+02-4.29439E+03 9.21211E+01
 -1      2148-2.02839E+02-4.79782E+03 9.88331E+01
 -1      2150-2.02839E+02-4.79782E+03 9.88331E+01
 -1      2151-1.61674E+02-5.21701E+03 1.04346E+02
 -1      2153-1.61674E+02-5.21701E+03 1.04346E+02
 -1      2154-1.13271E+02-5.53422E+03 1.08570E+02
 -1      2156-1.13271E+02-5.53422E+03 1.08570E+02
 -1      2157-5.90519E+01-5.73480E+03 1.11445E+02
 -1      2159-5.90519E+01-5.73480E+03 1.11445E+02
 -1      2160-5.03914E-01-5.80737E+03 1.12938E+02
 -1      2162-5.03914E-01-5.80737E+03 1.12938E+02
 -1      2163 6.08488E+01-5.74397E+03 1.13048E+02
 -1      2165 6.08488E+01-5.74397E+03 1.13048E+02
 -1      2166 1.23482E+02-5.54011E+03 1.11809E+02
 -1      2168 1.23482E+02-5.54011E+03 1.11809E+02
 -1      2169 1.85905E+02-5.19469E+03 1.09288E+02
 -1      2171 1.85905E+02-5.19469E+03 1.09288E+02
 -1      2172 2.46701E+02-4.70990E+03 1.05587E+02
 -1      2174 2.46701E+02-4.70990E+03 1.05587E+02
 -1      2175 3.04561E+02-4.09105E+03 1.00845E+02
 -1      2177 3.04561E+02-4.09105E+03 1.00845E+02
 -1      2178 3.58322E+02-3.34625E+03 9.52299E+01
 -1      2180 3.58322E+02-3.34625E+03 9.52299E+01
 -1      2181 4.07000E+02-2.48604E+03 8.89411E+01
 -1      2183 4.07000E+02-2.48604E+03 8.89411E+01
 -1      2184 4.49820E+02-1.52299E+03 8.22040E+01
 -1      2186 4.49820E+02-1.52299E+03 8.22040E+01
 -1      2187 4.86247E+02-4.71158E+02 7.52663E+01
 -1      2189 4.86247E+02-4.71158E+02 7.52663E+01
 -1      2190 5.16010E+02 6.54450E+02 6.83928E+01
 -1      2192 5.16010E+02 6.54450E+02 6.83928E+01
 -1      2193 5.39125E+02 1.83852E+03 6.18594E+01
 -1      2195 5.39125E+02 1.83852E+03 6.18594E+01
 -1      2196 5.55907E+02 3.06606E+03 5.59490E+01
 -1      2198 5.55907E+02 3.06606E+03 5.59490E+01
 -1      2199 5.66989E+02 4.32315E+03 5.09385E+01
 -1      2201 5.66989E+02 4.32315E+03 5.09385E+01
 -1      2202 5.73330E+02 5.59757E+03 4.71022E+01
 -1      2204 5.73330E+02 5.59757E+03 4.71022E+01
 -1      2205 5.76214E+02 6.87965E+03 4.46719E+01
 -1      2207 5.76214E+02 6.87965E+03 4.46719E+01
 -1      2208 7.53506E+01-1.52076E+02-1.02796E+01
 -1      2210 7.53506E+01-1.52076E+02-1.02796E+01
 -1      2211 1.41769E+02-4.18581E+02-2.19329E+01
 -1      2213 1.41769E+02-4.18581E+02-2.19329E+01
 -1      2214 1.94396E+02-8.16960E+02-3.35862E+01
 -1      2216 1.94396E+02-8.16960E+02-3.35862E+01
 -1      2217 2.33098E+02-1.31641E+03-4.47985E+01
 -1      2219 2.33098E+02-1.31641E+03-4.47985E+01
 -1      2220 2.58394E+02-1.88636E+03-5.56601E+01
 -1      2222 2.58394E+02-1.88636E+03-5.56601E+01
 -1      2223 2.70578E+02-2.49703E+03-6.59397E+01
 -1      2225 2.70578E+02-2.49703E+03-6.59397E+01
 -1      2226 2.70303E+02-3.11975E+03-7.55469E+01
 -1      2228 2.70303E+02-3.11975E+03-7.55469E+01
 -1      2229 2.58285E+02-3.72731E+03-8.43153E+01
 -1      2231 2.58285E+02-3.72731E+03-8.43153E+01
 -1      2232 2.35444E+02-4.29439E+03-9.21211E+01
 -1      2234 2.35444E+02-4.29439E+03-9.21211E+01
 -1      2235 2.02839E+02-4.79782E+03-9.88331E+01
 -1      2237 2.02839E+02-4.79782E+03-9.88331E+01
 -1      2238 1.61674E+02-5.21701E+03-1.04346E+02
 -1      2240 1.61674E+02-5.21701E+03-1.04346E+02
 -1      2241 1.13271E+02-5.53422E+03-1.08570E+02
 -1      2243 1.13271E+02-5.53422E+03-1.08570E+02
 -1      2244 5.90519E+01-5.73480E+03-1.11445E+02
 -1      2246 5.90519E+01-5.73480E+03-1.11445E+02
 -1      2247 5.03914E-01-5.80737E+03-1.12938E+02
 -1      2249 5.03914E-01-5.80737E+03-1.12938E+02
 -1      2250-6.08488E+01-5.74397E+03-1.13048E+02
 -1      2252-6.08488E+01-5.74397E+03-1.13048E+02
 -1      2253-1.23482E+02-5.54011E+03-1.11809E+02
 -1      2255-1.23482E+02-5.54011E+03-1.11809E+02
 -1      2256-1.85905E+02-5.19469E+03-1.09288E+02
 -1      2258-1.85905E+02-5.19469E+03-1.09288E+02
 -1      2259-2.46701E+02-4.70990E+03-1.05587E+02
 -1      2261-2.46701E+02-4.70990E+03-1.05587E+02
 -1      2262-3.04561E+02-4.09105E+03-1.00845E+02
 -1      2264-3.04561E+02-4.09105E+03-1.00845E+02
 -1      2265-3.58322E+02-3.34625E+03-9.52299E+01
 -1      2267-3.58322E+02-3.34625E+03-9.52299E+01
 -1      2268-4.07000E+02-2.48604E+03-8.89411E+01
 -1      2270-4.07000E+02-2.48604E+03-8.89411E+01
 -1      2271-4.49820E+02-1.52299E+03-8.22040E+01
 -1      2273-4.49820E+02-1.52299E+03-8.22040E+01
 -1      2274-4.86247E+02-4.71158E+02-7.52663E+01
 -1      2276-4.86247E+02-4.71158E+02-7.52663E+01
 -1      2277-5.16010E+02 6.54450E+02-6.83928E+01
 -1      2279-5.16010E+02 6.54450E+02-6.83928E+01
 -1      2280-5.39125E+02 1.83852E+03-6.18594E+01
 -1      2282-5.39125E+02 1.83852E+03-6.18594E+01
 -1      2283-5.55907E+02 3.06606E+03-5.59490E+01
 -1      2285-5.55907E+02 3.06606E+03-5.59490E+01
 -1      2286-5.66989E+02 4.32315E+03-5.09385E+01
 -1      2288-5.66989E+02 4.32315E+03-5.09385E+01
 -1      2289-5.73330E+02 5.59757E+03-4.71022E+01
 -1      2291-5.73330E+02 5.59757E+03-4.71022E+01
 -1      2292-5.76214E+02 6.87965E+03-4.46719E+01
 -1      2294-5.76214E+02 6.87965E+03-4.46719E+01
 -3
    1PSTEP                        16           1           1          
    1PGM                1.000000E+00                                  
    1PGK                2.415175E+05                                  
    1PHID                         -1                                  
    1PSUBC                         0                                  
    1PMODE                         4                                  
  100CL  104 78.21578245         930                     2    4MODAL      1
 -4  ERROR       1    1
 -5  STR(%)      1    1    0    0
 -1       404 0.00000E+00
 -1       406 0.00000E+00
 -1       407 0.00000E+00
 -1       409 0.00000E+00
 -1       410 0.00000E+00
 -1       412 0.00000E+00
 -1       413 0.00000E+00
 -1       415 0.00000E+00
 -1       424 0.00000E+00
 -1       426 0.00000E+00
 -1       427 0.00000E+00
 -1       429 0.00000E+00
 -1       438 0.00000E+00
 -1       440 0.00000E+00
 -1       441 0.00000E+00
 -1       443 0.00000E+00
 -1       444 0.00000E+00
 -1       446 0.00000E+00
 -1       447 0.00000E+00
 -1       449 0.00000E+00
 -1       458 0.00000E+00
 -1       460 0.00000E+00
 -1       461 0.00000E+00
 -1       463 0.00000E+00
 -1       472 0.00000E+00
 -1       474 0.00000E+00
 -1       475 0.00000E+00
 -1       477 0.00000E+00
 -1       478 0.00000E+00
 -1       480 0.00000E+00
 -1       481 0.00000E+00
 -1       483 0.00000E+00
 -1       484 0.00000E+00
 -1       486 0.00000E+00
 -1       487 0.00000E+00
 -1       489 0.00000E+00
 -1       490 0.00000E+00
 -1       492 0.00000E+00
 -1       493 0.00000E+00
 -1       495 0.00000E+00
 -1       496 0.00000E+00
 -1       498 0.00000E+00
 -1       499 0.00000E+00
 -1       501 0.00000E+00
 -1       502 0.00000E+00
 -1       504 0.00000E+00
 -1       505 0.00000E+00
 -1       507 0.00000E+00
 -1       508 0.00000E+00
 -1       510 0.00000E+00
 -1       511 0.00000E+00
 -1       513 0.00000E+00
 -1       514 0.00000E+00
 -1       516 0.00000E+00
 -1       517 0.00000E+00
 -1       519 0.00000E+00
 -1       520 0.00000E+00
 -1       522 0.00000E+00
 -1       523 0.00000E+00
 -1       525 0.00000E+00
 -1       526 0.00000E+00
 -1       528 0.00000E+00
 -1       529 0.00000E+00
 -1       531 0.00000E+00
 -1       532 0.00000E+00
 -1       534 0.00000E+00
 -1       535 0.00000E+00
 -1       537 0.00000E+00
 -1       538 0.00000E+00
 -1       540 0.00000E+00
 -1       541 0.00000E+00
 -1       543 0.00000E+00
 -1       544 0.00000E+00
 -1       546 0.00000E+00
 -1       547 0.00000E+00
 -1       549 0.00000E+00
 -1       550 0.00000E+00
 -1       552 0.00000E+00
 -1       553 0.00000E+00
 -1       555 0.00000E+00
 -1       556 0.00000E+00
 -1       558 0.00000E+00
 -1       559 0.00000E+00
 -1       561 0.00000E+00
 -1       562 0.00000E+00
 -1       564 0.00000E+00
 -1       565 0.00000E+00
 -1       567 0.00000E+00
 -1       568 0.00000E+00
 -1       570 0.00000E+00
 -1       571 0.00000E+00
 -1       573 0.00000E+00
 -1       574 0.00000E+00
 -1       576 0.00000E+00
 -1       577 0.00000E+00
 -1       579 0.00000E+00
 -1       588 0.00000E+00
 -1       590 0.00000E+00
 -1       591 0.00000E+00
 -1       593 0.00000E+00
 -1       602 0.00000E+00
 -1       604 0.00000E+00
 -1       605 0.00000E+00
 -1       607 0.00000E+00
 -1       616 0.00000E+00
 -1       618 0.00000E+00
 -1       619 0.00000E+00
 -1       621 0.00000E+00
 -1       630 0.00000E+00
 -1       632 0.00000E+00
 -1       633 0.00000E+00
 -1       635 0.00000E+00
 -1       644 0.00000E+00
 -1       646 0.00000E+00
 -1       647 0.00000E+00
 -1       649 0.00000E+00
 -1       658 0.00000E+00
 -1       660 0.00000E+00
 -1       661 0.00000E+00
 -1       663 0.00000E+00
 -1       672 0.00000E+00
 -1       674 0.00000E+00
 -1       675 0.00000E+00
 -1       677 0.00000E+00
 -1       686 0.00000E+00
 -1       688 0.00000E+00
 -1       689 0.00000E+00
 -1       691 0.00000E+00
 -1       700 0.00000E+00
 -1       702 0.00000E+00
 -1       703 0.00000E+00
 -1       705 0.00000E+00
 -1       714 0.00000E+00
 -1       716 0.00000E+00
 -1       717 0.00000E+00
 -1       719 0.00000E+00
 -1       728 0.00000E+00
 -1       730 0.00000E+00
 -1       731 0.00000E+00
 -1       733 0.00000E+00
 -1       742 0.00000E+00
 -1       744 0.00000E+00
 -1       745 0.00000E+00
 -1       747 0.00000E+00
 -1       756 0.00000E+00
 -1       758 0.00000E+00
 -1       759 0.00000E+00
 -1       761 0.00000E+00
 -1       770 0.00000E+00
 -1       772 0.00000E+00
 -1       773 0.00000E+00
 -1       775 0.00000E+00
 -1       784 0.00000E+00
 -1       786 0.00000E+00
 -1       787 0.00000E+00
 -1       789 0.00000E+00
 -1       798 0.00000E+00
 -1       800 0.00000E+00
 -1       801 0.00000E+00
 -1       803 0.00000E+00
 -1       812 0.00000E+00
 -1       814 0.00000E+00
 -1       815 0.00000E+00
 -1       817 0.00000E+00
 -1       826 0.00000E+00
 -1       828 0.00000E+00
 -1       829 0.00000E+00
 -1       831 0.00000E+00
 -1       840 0.00000E+00
 -1       842 0.00000E+00
 -1       843 0.00000E+00
 -1       845 0.00000E+00
 -1       854 0.00000E+00
 -1       856 0.00000E+00
 -1       857 0.00000E+00
 -1       859 0.00000E+00
 -1       868 0.00000E+00
 -1       870 0.00000E+00
 -1       871 0.00000E+00
 -1       873 0.00000E+00
 -1       882 0.00000E+00
 -1       884 0.00000E+00
 -1       885 0.00000E+00
 -1       887 0.00000E+00
 -1       896 0.00000E+00
 -1       898 0.00000E+00
 -1       899 0.00000E+00
 -1       901 0.00000E+00
 -1       910 0.00000E+00
 -1       912 0.00000E+00
 -1       913 0.00000E+00
 -1       915 0.00000E+00
 -1       924 0.00000E+00
 -1       926 0.00000E+00
 -1       927 0.00000E+00
 -1       929 0.00000E+00
 -1       938 0.00000E+00
 -1       940 0.00000E+00
 -1       941 0.00000E+00
 -1       943 0.00000E+00
 -1       952 0.00000E+00
 -1       954 0.00000E+00
 -1       955 0.00000E+00
 -1       957 0.00000E+00
 -1       966 0.00000E+00
 -1       968 0.00000E+00
 -1       969 0.00000E+00
 -1       971 0.00000E+00
 -1       980 0.00000E+00
 -1       982 0.00000E+00
 -1       983 0.00000E+00
 -1       985 0.00000E+00
 -1       986 0.00000E+00
 -1       988 0.00000E+00
 -1       989 0.00000E+00
 -1       991 0.00000E+00
 -1       992 0.00000E+00
 -1       994 0.00000E+00
 -1       995 0.00000E+00
 -1       997 0.00000E+00
 -1       998 0.00000E+00
 -1      1000 0.00000E+00
 -1      1001 0.00000E+00
 -1      1003 0.00000E+00
 -1      1004 0.00000E+00
 -1      1006 0.00000E+00
 -1      1007 0.00000E+00
 -1      1009 0.00000E+00
 -1      1010 0.00000E+00
 -1      1012 0.00000E+00
 -1      1013 0.00000E+00
 -1      1015 0.00000E+00
 -1      1016 0.00000E+00
 -1      1018 0.00000E+00
 -1      1019 0.00000E+00
 -1      1021 0.00000E+00
 -1      1022 0.00000E+00
 -1      1024 0.00000E+00
 -1      1025 0.00000E+00
 -1      1027 0.00000E+00
 -1      1028 0.00000E+00
 -1      1030 0.00000E+00
 -1      1031 0.00000E+00
 -1      1033 0.00000E+00
 -1      1034 0.00000E+00
 -1      1036 0.00000E+00
 -1      1037 0.00000E+00
 -1      1039 0.00000E+00
 -1      1040 0.00000E+00
 -1      1042 0.00000E+00
 -1      1043 0.00000E+00
 -1      1045 0.00000E+00
 -1      1046 0.00000E+00
 -1      1048 0.00000E+00
 -1      1049 0.00000E+00
 -1      1051 0.00000E+00
 -1      1052 0.00000E+00
 -1      1054 0.00000E+00
 -1      1055 0.00000E+00
 -1      1057 0.00000E+00
 -1      1058 0.00000E+00
 -1      1060 0.00000E+00
 -1      1061 0.00000E+00
 -1      1063 0.00000E+00
 -1      1064 0.00000E+00
 -1      1066 0.00000E+00
 -1      1067 0.00000E+00
 -1      1069 0.00000E+00
 -1      1070 0.00000E+00
 -1      1072 0.00000E+00
 -1      1073 0.00000E+00
 -1      1075 0.00000E+00
 -1      1076 0.00000E+00
 -1      1078 0.00000E+00
 -1      1079 0.00000E+00
 -1      1081 0.00000E+00
 -1      1082 0.00000E+00
 -1      1084 0.00000E+00
 -1      1085 0.00000E+00
 -1      1087 0.00000E+00
 -1      1088 0.00000E+00
 -1      1090 0.00000E+00
 -1      1099 0.00000E+00
 -1      1101 0.00000E+00
 -1      1102 0.00000E+00
 -1      1104 0.00000E+00
 -1      1113 0.00000E+00
 -1      1115 0.00000E+00
 -1      1116 0.00000E+00
 -1      1118 0.00000E+00
 -1      1127 0.00000E+00
 -1      1129 0.00000E+00
 -1      1130 0.00000E+00
 -1      1132 0.00000E+00
 -1      1141 0.00000E+00
 -1      1143 0.00000E+00
 -1      1144 0.00000E+00
 -1      1146 0.00000E+00
 -1      1155 0.00000E+00
 -1      1157 0.00000E+00
 -1      1158 0.00000E+00
 -1      1160 0.00000E+00
 -1      1169 0.00000E+00
 -1      1171 0.00000E+00
 -1      1172 0.00000E+00
 -1      1174 0.00000E+00
 -1      1183 0.00000E+00
 -1      1185 0.00000E+00
 -1      1186 0.00000E+00
 -1      1188 0.00000E+00
 -1      1197 0.00000E+00
 -1      1199 0.00000E+00
 -1      1200 0.00000E+00
 -1      1202 0.00000E+00
 -1      1211 0.00000E+00
 -1      1213 0.00000E+00
 -1      1214 0.00000E+00
 -1      1216 0.00000E+00
 -1      1225 0.00000E+00
 -1      1227 0.00000E+00
 -1      1228 0.00000E+00
 -1      1230 0.00000E+00
 -1      1239 0.00000E+00
 -1      1241 0.00000E+00
 -1      1242 0.00000E+00
 -1      1244 0.00000E+00
 -1      1253 0.00000E+00
 -1      1255 0.00000E+00
 -1      1256 0.00000E+00
 -1      1258 0.00000E+00
 -1      1267 0.00000E+00
 -1      1269 0.00000E+00
 -1      1270 0.00000E+00
 -1      1272 0.00000E+00
 -1      1281 0.00000E+00
 -1      1283 0.00000E+00
 -1      1284 0.00000E+00
 -1      1286 0.00000E+00
 -1      1295 0.00000E+00
 -1      1297 0.00000E+00
 -1      1298 0.00000E+00
 -1      1300 0.00000E+00
 -1      1309 0.00000E+00
 -1      1311 0.00000E+00
 -1      1312 0.00000E+00
 -1      1314 0.00000E+00
 -1      1323 0.00000E+00
 -1      1325 0.00000E+00
 -1      1326 0.00000E+00
 -1      1328 0.00000E+00
 -1      1337 0.00000E+00
 -1      1339 0.00000E+00
 -1      1340 0.00000E+00
 -1      1342 0.00000E+00
 -1      1351 0.00000E+00
 -1      1353 0.00000E+00
 -1      1354 0.00000E+00
 -1      1356 0.00000E+00
 -1      1365 0.00000E+00
 -1      1367 0.00000E+00
 -1      1368 0.00000E+00
 -1      1370 0.00000E+00
 -1      1379 0.00000E+00
 -1      1381 0.00000E+00
 -1      1382 0.00000E+00
 -1      1384 0.00000E+00
 -1      1393 0.00000E+00
 -1      1395 0.00000E+00
 -1      1396 0.00000E+00
 -1      1398 0.00000E+00
 -1      1407 0.00000E+00
 -1      1409 0.00000E+00
 -1      1410 0.00000E+00
 -1      1412 0.00000E+00
 -1      1421 0.00000E+00
 -1      1423 0.00000E+00
 -1      1424 0.00000E+00
 -1      1426 0.00000E+00
 -1      1435 0.00000E+00
 -1      1437 0.00000E+00
 -1      1438 0.00000E+00
 -1      1440 0.00000E+00
 -1      1449 0.00000E+00
 -1      1451 0.00000E+00
 -1      1452 0.00000E+00
 -1      1454 0.00000E+00
 -1      1463 0.00000E+00
 -1      1465 0.00000E+00
 -1      1466 0.00000E+00
 -1      1468 0.00000E+00
 -1      1477 0.00000E+00
 -1      1479 0.00000E+00
 -1      1480 0.00000E+00
 -1      1482 0.00000E+00
 -1      1491 0.00000E+00
 -1      1493 0.00000E+00
 -1      1494 0.00000E+00
 -1      1496 0.00000E+00
 -1      1497 0.00000E+00
 -1      1499 0.00000E+00
 -1      1500 0.00000E+00
 -1      1502 0.00000E+00
 -1      1503 0.00000E+00
 -1      1505 0.00000E+00
 -1      1506 0.00000E+00
 -1      1508 0.00000E+00
 -1      1509 0.00000E+00
 -1      1511 0.00000E+00
 -1      1512 0.00000E+00
 -1      1514 0.00000E+00
 -1      1515 0.00000E+00
 -1      1517 0.00000E+00
 -1      1518 0.00000E+00
 -1      1520 0.00000E+00
 -1      1521 0.00000E+00
 -1      1523 0.00000E+00
 -1      1524 0.00000E+00
 -1      1526 0.00000E+00
 -1      1527 0.00000E+00
 -1      1529 0.00000E+00
 -1      1530 0.00000E+00
 -1      1532 0.00000E+00
 -1      1533 0.00000E+00
 -1      1535 0.00000E+00
 -1      1536 0.00000E+00
 -1      1538 0.00000E+00
 -1      1539 0.00000E+00
 -1      1541 0.00000E+00
 -1      1542 0.00000E+00
 -1      1544 0.00000E+00
 -1      1545 0.00000E+00
 -1      1547 0.00000E+00
 -1      1548 0.00000E+00
 -1      1550 0.00000E+00
 -1      1551 0.00000E+00
 -1      1553 0.00000E+00
 -1      1554 0.00000E+00
 -1      1556 0.00000E+00
 -1      1557 0.00000E+00
 -1      1559 0.00000E+00
 -1      1560 0.00000E+00
 -1      1562 0.00000E+00
 -1      1563 0.00000E+00
 -1      1565 0.00000E+00
 -1      1566 0.00000E+00
 -1      1568 0.00000E+00
 -1      1569 0.00000E+00
 -1      1571 0.00000E+00
 -1      1572 0.00000E+00
 -1      1574 0.00000E+00
 -1      1575 0.00000E+00
 -1      1577 0.00000E+00
 -1      1578 0.00000E+00
 -1      1580 0.00000E+00
 -1      1581 0.00000E+00
 -1      1583 0.00000E+00
 -1      1584 0.00000E+00
 -1      1586 0.00000E+00
 -1      1587 0.00000E+00
 -1      1589 0.00000E+00
 -1      1590 0.00000E+00
 -1      1592 0.00000E+00
 -1      1593 0.00000E+00
 -1      1595 0.00000E+00
 -1      1596 0.00000E+00
 -1      1598 0.00000E+00
 -1      1599 0.00000E+00
 -1      1601 0.00000E+00
 -1      1602 0.00000E+00
 -1      1604 0.00000E+00
 -1      1605 0.00000E+00
 -1      1607 0.00000E+00
 -1      1608 0.00000E+00
 -1      1610 0.00000E+00
 -1      1611 0.00000E+00
 -1      1613 0.00000E+00
 -1      1614 0.00000E+00
 -1      1616 0.00000E+00
 -1      1617 0.00000E+00
 -1      1619 0.00000E+00
 -1      1620 0.00000E+00
 -1      1622 0.00000E+00
 -1      1623 0.00000E+00
 -1      1625 0.00000E+00
 -1      1626 0.00000E+00
 -1      1628 0.00000E+00
 -1      1629 0.00000E+00
 -1      1631 0.00000E+00
 -1      1632 0.00000E+00
 -1      1634 0.00000E+00
 -1      1635 0.00000E+00
 -1      1637 0.00000E+00
 -1      1638 0.00000E+00
 -1      1640 0.00000E+00
 -1      1641 0.00000E+00
 -1      1643 0.00000E+00
 -1      1644 0.00000E+00
 -1      1646 0.00000E+00
 -1      1647 0.00000E+00
 -1      1649 0.00000E+00
 -1      1650 0.00000E+00
 -1      1652 0.00000E+00
 -1      1653 0.00000E+00
 -1      1655 0.00000E+00
 -1      1656 0.00000E+00
 -1      1658 0.00000E+00
 -1      1659 0.00000E+00
 -1      1661 0.00000E+00
 -1      1662 0.00000E+00
 -1      1664 0.00000E+00
 -1      1665 0.00000E+00
 -1      1667 0.00000E+00
 -1      1668 0.00000E+00
 -1      1670 0.00000E+00
 -1      1671 0.00000E+00
 -1      1673 0.00000E+00
 -1      1674 0.00000E+00
 -1      1676 0.00000E+00
 -1      1677 0.00000E+00
 -1      1679 0.00000E+00
 -1      1680 0.00000E+00
 -1      1682 0.00000E+00
 -1      1683 0.00000E+00
 -1      1685 0.00000E+00
 -1      1686 0.00000E+00
 -1      1688 0.00000E+00
 -1      1689 0.00000E+00
 -1      1691 0.00000E+00
 -1      1692 0.00000E+00
 -1      1694 0.00000E+00
 -1      1695 0.00000E+00
 -1      1697 0.00000E+00
 -1      1698 0.00000E+00
 -1      1700 0.00000E+00
 -1      1701 0.00000E+00
 -1      1703 0.00000E+00
 -1      1704 0.00000E+00
 -1      1706 0.00000E+00
 -1      1707 0.00000E+00
 -1      1709 0.00000E+00
 -1      1710 0.00000E+00
 -1      1712 0.00000E+00
 -1      1713 0.00000E+00
 -1      1715 0.00000E+00
 -1      1716 0.00000E+00
 -1      1718 0.00000E+00
 -1      1719 0.00000E+00
 -1      1721 0.00000E+00
 -1      1722 0.00000E+00
 -1      1724 0.00000E+00
 -1      1725 0.00000E+00
 -1      1727 0.00000E+00
 -1      1728 0.00000E+00
 -1      1730 0.00000E+00
 -1      1731 0.00000E+00
 -1      1733 0.00000E+00
 -1      1734 0.00000E+00
 -1      1736 0.00000E+00
 -1      1737 0.00000E+00
 -1      1739 0.00000E+00
 -1      1740 0.00000E+00
 -1      1742 0.00000E+00
 -1      1743 0.00000E+00
 -1      1745 0.00000E+00
 -1      1746 0.00000E+00
 -1      1748 0.00000E+00
 -1      1749 0.00000E+00
 -1      1751 0.00000E+00
 -1      1752 0.00000E+00
 -1      1754 0.00000E+00
 -1      1755 0.00000E+00
 -1      1757 0.00000E+00
 -1      1758 0.00000E+00
 -1      1760 0.00000E+00
 -1      1761 0.00000E+00
 -1      1763 0.00000E+00
 -1      1764 0.00000E+00
 -1      1766 0.00000E+00
 -1      1767 0.00000E+00
 -1      1769 0.00000E+00
 -1      1770 0.00000E+00
 -1      1772 0.00000E+00
 -1      1773 0.00000E+00
 -1      1775 0.00000E+00
 -1      1776 0.00000E+00
 -1      1778 0.00000E+00
 -1      1779 0.00000E+00
 -1      1781 0.00000E+00
 -1      1782 0.00000E+00
 -1      1784 0.00000E+00
 -1      1785 0.00000E+00
 -1      1787 0.00000E+00
 -1      1788 0.00000E+00
 -1      1790 0.00000E+00
 -1      1791 0.00000E+00
 -1      1793 0.00000E+00
 -1      1794 0.00000E+00
 -1      1796 0.00000E+00
 -1      1797 0.00000E+00
 -1      1799 0.00000E+00
 -1      1800 0.00000E+00
 -1      1802 0.00000E+00
 -1      1803 0.00000E+00
 -1      1805 0.00000E+00
 -1      1806 0.00000E+00
 -1      1808 0.00000E+00
 -1      1809 0.00000E+00
 -1      1811 0.00000E+00
 -1      1812 0.00000E+00
 -1      1814 0.00000E+00
 -1      1815 0.00000E+00
 -1      1817 0.00000E+00
 -1      1818 0.00000E+00
 -1      1820 0.00000E+00
 -1      1821 0.00000E+00
 -1      1823 0.00000E+00
 -1      1824 0.00000E+00
 -1      1826 0.00000E+00
 -1      1827 0.00000E+00
 -1      1829 0.00000E+00
 -1      1830 0.00000E+00
 -1      1832 0.00000E+00
 -1      1833 0.00000E+00
 -1      1835 0.00000E+00
 -1      1836 0.00000E+00
 -1      1838 0.00000E+00
 -1      1839 0.00000E+00
 -1      1841 0.00000E+00
 -1      1842 0.00000E+00
 -1      1844 0.00000E+00
 -1      1845 0.00000E+00
 -1      1847 0.00000E+00
 -1      1848 0.00000E+00
 -1      1850 0.00000E+00
 -1      1851 0.00000E+00
 -1      1853 0.00000E+00
 -1      1854 0.00000E+00
 -1      1856 0.00000E+00
 -1      1857 0.00000E+00
 -1      1859 0.00000E+00
 -1      1860 0.00000E+00
 -1      1862 0.00000E+00
 -1      1863 0.00000E+00
 -1      1865 0.00000E+00
 -1      1866 0.00000E+00
 -1      1868 0.00000E+00
 -1      1869 0.00000E+00
 -1      1871 0.00000E+00
 -1      1872 0.00000E+00
 -1      1874 0.00000E+00
 -1      1875 0.00000E+00
 -1      1877 0.00000E+00
 -1      1878 0.00000E+00
 -1      1880 0.00000E+00
 -1      1881 0.00000E+00
 -1      1883 0.00000E+00
 -1      1884 0.00000E+00
 -1      1886 0.00000E+00
 -1      1887 0.00000E+00
 -1      1889 0.00000E+00
 -1      1890 0.00000E+00
 -1      1892 0.00000E+00
 -1      1893 0.00000E+00
 -1      1895 0.00000E+00
 -1      1896 0.00000E+00
 -1      1898 0.00000E+00
 -1      1899 0.00000E+00
 -1      1901 0.00000E+00
 -1      1902 0.00000E+00
 -1      1904 0.00000E+00
 -1      1905 0.00000E+00
 -1      1907 0.00000E+00
 -1      1908 0.00000E+00
 -1      1910 0.00000E+00
 -1      1911 0.00000E+00
 -1      1913 0.00000E+00
 -1      1914 0.00000E+00
 -1      1916 0.00000E+00
 -1      1917 0.00000E+00
 -1      1919 0.00000E+00
 -1      1920 0.00000E+00
 -1      1922 0.00000E+00
 -1      1923 0.00000E+00
 -1      1925 0.00000E+00
 -1      1926 0.00000E+00
 -1      1928 0.00000E+00
 -1      1929 0.00000E+00
 -1      1931 0.00000E+00
 -1      1932 0.00000E+00
 -1      1934 0.00000E+00
 -1      1935 0.00000E+00
 -1      1937 0.00000E+00
 -1      1938 0.00000E+00
 -1      1940 0.00000E+00
 -1      1941 0.00000E+00
 -1      1943 0.00000E+00
 -1      1944 0.00000E+00
 -1      1946 0.00000E+00
 -1      1947 0.00000E+00
 -1      1949 0.00000E+00
 -1      1950 0.00000E+00
 -1      1952 0.00000E+00
 -1      1953 0.00000E+00
 -1      1955 0.00000E+00
 -1      1956 0.00000E+00
 -1      1958 0.00000E+00
 -1      1959 0.00000E+00
 -1      1961 0.00000E+00
 -1      1962 0.00000E+00
 -1      1964 0.00000E+00
 -1      1965 0.00000E+00
 -1      1967 0.00000E+00
 -1      1968 0.00000E+00
 -1      1970 0.00000E+00
 -1      1971 0.00000E+00
 -1      1973 0.00000E+00
 -1      1974 0.00000E+00
 -1      1976 0.00000E+00
 -1      1977 0.00000E+00
 -1      1979 0.00000E+00
 -1      1980 0.00000E+00
 -1      1982 0.00000E+00
 -1      1983 0.00000E+00
 -1      1985 0.00000E+00
 -1      1986 0.00000E+00
 -1      1988 0.00000E+00
 -1      1989 0.00000E+00
 -1      1991 0.00000E+00
 -1      1992 0.00000E+00
 -1      1994 0.00000E+00
 -1      1995 0.00000E+00
 -1      1997 0.00000E+00
 -1      1998 0.00000E+00
 -1      2000 0.00000E+00
 -1      2001 0.00000E+00
 -1      2003 0.00000E+00
 -1      2004 0.00000E+00
 -1      2006 0.00000E+00
 -1      2007 0.00000E+00
 -1      2009 0.00000E+00
 -1      2010 0.00000E+00
 -1      2012 0.00000E+00
 -1      2013 0.00000E+00
 -1      2015 0.00000E+00
 -1      2016 0.00000E+00
 -1      2018 0.00000E+00
 -1      2019 0.00000E+00
 -1      2021 0.00000E+00
 -1      2022 0.00000E+00
 -1      2024 0.00000E+00
 -1      2025 0.00000E+00
 -1      2027 0.00000E+00
 -1      2028 0.00000E+00
 -1      2030 0.00000E+00
 -1      2031 0.00000E+00
 -1      2033 0.00000E+00
 -1      2034 0.00000E+00
 -1      2036 0.00000E+00
 -1      2037 0.00000E+00
 -1      2039 0.00000E+00
 -1      2040 0.00000E+00
 -1      2042 0.00000E+00
 -1      2043 0.00000E+00
 -1      2045 0.00000E+00
 -1      2046 0.00000E+00
 -1      2048 0.00000E+00
 -1      2049 0.00000E+00
 -1      2051 0.00000E+00
 -1      2052 0.00000E+00
 -1      2054 0.00000E+00
 -1      2055 0.00000E+00
 -1      2057 0.00000E+00
 -1      2058 0.00000E+00
 -1      2060 0.00000E+00
 -1      2061 0.00000E+00
 -1      2063 0.00000E+00
 -1      2064 0.00000E+00
 -1      2066 0.00000E+00
 -1      2067 0.00000E+00
 -1      2069 0.00000E+00
 -1      2070 0.00000E+00
 -1      2072 0.00000E+00
 -1      2073 0.00000E+00
 -1      2075 0.00000E+00
 -1      2076 0.00000E+00
 -1      2078 0.00000E+00
 -1      2079 0.00000E+00
 -1      2081 0.00000E+00
 -1      2082 0.00000E+00
 -1      2084 0.00000E+00
 -1      2085 0.00000E+00
 -1      2087 0.00000E+00
 -1      2088 0.00000E+00
 -1      2090 0.00000E+00
 -1      2091 0.00000E+00
 -1      2093 0.00000E+00
 -1      2094 0.00000E+00
 -1      2096 0.00000E+00
 -1      2097 0.00000E+00
 -1      2099 0.00000E+00
 -1      2100 0.00000E+00
 -1      2102 0.00000E+00
 -1      2103 0.00000E+00
 -1      2105 0.00000E+00
 -1      2106 0.00000E+00
 -1      2108 0.00000E+00
 -1      2109 0.00000E+00
 -1      2111 0.00000E+00
 -1      2112 0.00000E+00
 -1      2114 0.00000E+00
 -1      2115 0.00000E+00
 -1      2117 0.00000E+00
 -1      2118 0.00000E+00
 -1      2120 0.00000E+00
 -1      2121 0.00000E+00
 -1      2123 0.00000E+00
 -1      2124 0.00000E+00
 -1      2126 0.00000E+00
 -1      2127 0.00000E+00
 -1      2129 0.00000E+00
 -1      2130 0.00000E+00
 -1      2132 0.00000E+00
 -1      2133 0.00000E+00
 -1      2135 0.00000E+00
 -1      2136 0.00000E+00
 -1      2138 0.00000E+00
 -1      2139 0.00000E+00
 -1      2141 0.00000E+00
 -1      2142 0.00000E+00
 -1      2144 0.00000E+00
 -1      2145 0.00000E+00
 -1      2147 0.00000E+00
 -1      2148 0.00000E+00
 -1      2150 0.00000E+00
 -1      2151 0.00000E+00
 -1      2153 0.00000E+00
 -1      2154 0.00000E+00
 -1      2156 0.00000E+00
 -1      2157 0.00000E+00
 -1      2159 0.00000E+00
 -1      2160 0.00000E+00
 -1      2162 0.00000E+00
 -1      2163 0.00000E+00
 -1      2165 0.00000E+00
 -1      2166 0.00000E+00
 -1      2168 0.00000E+00
 -1      2169 0.00000E+00
 -1      2171 0.00000E+00
 -1      2172 0.00000E+00
 -1      2174 0.00000E+00
 -1      2175 0.00000E+00
 -1      2177 0.00000E+00
 -1      2178 0.00000E+00
 -1      2180 0.00000E+00
 -1      2181 0.00000E+00
 -1      2183 0.00000E+00
 -1      2184 0.00000E+00
 -1      2186 0.00000E+00
 -1      2187 0.00000E+00
 -1      2189 0.00000E+00
 -1      2190 0.00000E+00
 -1      2192 0.00000E+00
 -1      2193 0.00000E+00
 -1      2195 0.00000E+00
 -1      2196 0.00000E+00
 -1      2198 0.00000E+00
 -1      2199 0.00000E+00
 -1      2201 0.00000E+00
 -1      2202 0.00000E+00
 -1      2204 0.00000E+00
 -1      2205 0.00000E+00
 -1      2207 0.00000E+00
 -1      2208 0.00000E+00
 -1      2210 0.00000E+00
 -1      2211 0.00000E+00
 -1      2213 0.00000E+00
 -1      2214 0.00000E+00
 -1      2216 0.00000E+00
 -1      2217 0.00000E+00
 -1      2219 0.00000E+00
 -1      2220 0.00000E+00
 -1      2222 0.00000E+00
 -1      2223 0.00000E+00
 -1      2225 0.00000E+00
 -1      2226 0.00000E+00
 -1      2228 0.00000E+00
 -1      2229 0.00000E+00
 -1      2231 0.00000E+00
 -1      2232 0.00000E+00
 -1      2234 0.00000E+00
 -1      2235 0.00000E+00
 -1      2237 0.00000E+00
 -1      2238 0.00000E+00
 -1      2240 0.00000E+00
 -1      2241 0.00000E+00
 -1      2243 0.00000E+00
 -1      2244 0.00000E+00
 -1      2246 0.00000E+00
 -1      2247 0.00000E+00
 -1      2249 0.00000E+00
 -1      2250 0.00000E+00
 -1      2252 0.00000E+00
 -1      2253 0.00000E+00
 -1      2255 0.00000E+00
 -1      2256 0.00000E+00
 -1      2258 0.00000E+00
 -1      2259 0.00000E+00
 -1      2261 0.00000E+00
 -1      2262 0.00000E+00
 -1      2264 0.00000E+00
 -1      2265 0.00000E+00
 -1      2267 0.00000E+00
 -1      2268 0.00000E+00
 -1      2270 0.00000E+00
 -1      2271 0.00000E+00
 -1      2273 0.00000E+00
 -1      2274 0.00000E+00
 -1      2276 0.00000E+00
 -1      2277 0.00000E+00
 -1      2279 0.00000E+00
 -1      2280 0.00000E+00
 -1      2282 0.00000E+00
 -1      2283 0.00000E+00
 -1      2285 0.00000E+00
 -1      2286 0.00000E+00
 -1      2288 0.00000E+00
 -1      2289 0.00000E+00
 -1      2291 0.00000E+00
 -1      2292 0.00000E+00
 -1      2294 0.00000E+00
 -3
    1PSTEP                        17           1           1          
    1PGM                1.000000E+00                                  
    1PGK                1.668277E+06                                  
    1PHID                         -1                                  
    1PSUBC                         0                                  
    1PMODE                         5                                  
  100CL  105 205.5673943         930                     2    5MODAL      1
 -4  DISP        4    1
 -5  D1          1    2    1    0
 -5  D2          1    2    2    0
 -5  D3          1    2    3    0
 -5  ALL         1    2    0    0    1ALL
 -1       404 0.00000E+00 0.00000E+00-6.15063E-05
 -1       406 0.00000E+00-0.00000E+00 6.15063E-05
 -1       407-1.05425E-02-1.02896E-02-1.69504E-01
 -1       409-1.05297E-02 1.63706E-02-1.69506E-01
 -1       410-3.12588E-14-8.39066E-03 2.76145E-13
 -1       412-3.51464E-14 1.44994E-02 2.75532E-13
 -1       413 5.04614E-04 3.05439E-03 7.29092E-03
 -1       415-5.04614E-04 3.05439E-03-7.29092E-03
 -1       424 0.00000E+00 0.00000E+00-5.49679E-16
 -1       426 0.00000E+00 0.00000E+00 5.49679E-16
 -1       427 0.00000E+00-3.50166E-16 0.00000E+00
 -1       429 0.00000E+00 3.50166E-16 0.00000E+00
 -1       438 1.05425E-02-1.02896E-02 1.69504E-01
 -1       440 1.05297E-02 1.63706E-02 1.69506E-01
 -1       441 0.00000E+00 0.00000E+00 6.15063E-05
 -1       443 0.00000E+00-0.00000E+00-6.15063E-05
 -1       444 0.00000E+00 1.92016E-16 0.00000E+00
 -1       446 0.00000E+00-1.92016E-16 0.00000E+00
 -1       447 0.00000E+00 0.00000E+00-3.01420E-16
 -1       449 0.00000E+00 0.00000E+00 3.01420E-16
 -1       458 5.04614E-04 3.05439E-03-7.29092E-03
 -1       460-5.04614E-04 3.05439E-03 7.29092E-03
 -1       461-7.76724E-14-8.39066E-03 2.83848E-13
 -1       463-7.81769E-14 1.44994E-02 2.86633E-13
 -1       472 0.00000E+00 0.00000E+00-6.15063E-05
 -1       474 0.00000E+00 0.00000E+00 6.15063E-05
 -1       475 1.05425E-02-1.02896E-02-1.69504E-01
 -1       477 1.05297E-02 1.63706E-02-1.69506E-01
 -1       478-1.05425E-02-1.02896E-02 1.69504E-01
 -1       480-1.05297E-02 1.63706E-02 1.69506E-01
 -1       481 0.00000E+00 0.00000E+00 6.15063E-05
 -1       483 0.00000E+00 0.00000E+00-6.15063E-05
 -1       484-2.75337E-03 9.32700E-04-7.72867E-03
 -1       486-8.24800E-04 2.28543E-03-7.67885E-03
 -1       487-3.35070E-03 3.14130E-03-1.82813E-02
 -1       489-2.39463E-03 5.95283E-03-1.82541E-02
 -1       490-4.00758E-03 6.36277E-03-2.72469E-02
 -1       492-2.60099E-03 1.05983E-02-2.72382E-02
 -1       493-3.69619E-03 9.54919E-03-3.67796E-02
 -1       495-2.53750E-03 1.52474E-02-3.68039E-02
 -1       496-3.02883E-03 1.22704E-02-4.57940E-02
 -1       498-1.78870E-03 1.93789E-02-4.58301E-02
 -1       499-1.81812E-03 1.38556E-02-5.47438E-02
 -1       501-6.62475E-04 2.23590E-02-5.48026E-02
 -1       502-3.25832E-04 1.39167E-02-6.33638E-02
 -1       504 8.17335E-04 2.37750E-02-6.34284E-02
 -1       505 1.39899E-03 1.21355E-02-7.17274E-02
 -1       507 2.48989E-03 2.33087E-02-7.18016E-02
 -1       508 3.17943E-03 8.35947E-03-7.97642E-02
 -1       510 4.23188E-03 2.08073E-02-7.98354E-02
 -1       511 4.90091E-03 2.59903E-03-8.74753E-02
 -1       513 5.90555E-03 1.62713E-02-8.75436E-02
 -1       514 6.42463E-03-5.00028E-03-9.48426E-02
 -1       516 7.38354E-03 9.85212E-03-9.48984E-02
 -1       517 7.64195E-03-1.41376E-02-1.01862E-01
 -1       519 8.55382E-03 1.84059E-03-1.01905E-01
 -1       520 8.45938E-03-2.44098E-02-1.08536E-01
 -1       522 9.32486E-03-7.35352E-03-1.08559E-01
 -1       523 8.81256E-03-3.53120E-02-1.14865E-01
 -1       525 9.63276E-03-1.72330E-02-1.14870E-01
 -1       526 8.66793E-03-4.62927E-02-1.20860E-01
 -1       528 9.44377E-03-2.72408E-02-1.20844E-01
 -1       529 8.02340E-03-5.67729E-02-1.26528E-01
 -1       531 8.75649E-03-3.68035E-02-1.26492E-01
 -1       532 6.91040E-03-6.61969E-02-1.31877E-01
 -1       534 7.60158E-03-4.53610E-02-1.31823E-01
 -1       535 5.38857E-03-7.40567E-02-1.36914E-01
 -1       537 6.03887E-03-5.24098E-02-1.36845E-01
 -1       538 3.54420E-03-7.99327E-02-1.41642E-01
 -1       540 4.15365E-03-5.75274E-02-1.41562E-01
 -1       541 1.48137E-03-8.35119E-02-1.46060E-01
 -1       543 2.04969E-03-6.04048E-02-1.45973E-01
 -1       544-6.83029E-04-8.46117E-02-1.50162E-01
 -1       546-1.57166E-04-6.08581E-02-1.50073E-01
 -1       547-2.83013E-03-8.31830E-02-1.53935E-01
 -1       549-2.34854E-03-5.88424E-02-1.53850E-01
 -1       550-4.84541E-03-7.93144E-02-1.57363E-01
 -1       552-4.41102E-03-5.44463E-02-1.57285E-01
 -1       553-6.63021E-03-7.32155E-02-1.60423E-01
 -1       555-6.24601E-03-4.78837E-02-1.60356E-01
 -1       556-8.10645E-03-6.52015E-02-1.63088E-01
 -1       558-7.77702E-03-3.94709E-02-1.63035E-01
 -1       559-9.22840E-03-5.56578E-02-1.65332E-01
 -1       561-8.95642E-03-2.95971E-02-1.65294E-01
 -1       562-9.98118E-03-4.50102E-02-1.67119E-01
 -1       564-9.77395E-03-1.86896E-02-1.67095E-01
 -1       565-1.03986E-02-3.36717E-02-1.68429E-01
 -1       567-1.02535E-02-7.16354E-03-1.68419E-01
 -1       568-1.05361E-02-2.20158E-02-1.69216E-01
 -1       570-1.04702E-02 4.60574E-03-1.69215E-01
 -1       571-5.26349E-03-9.98885E-03-8.16260E-02
 -1       573-5.25636E-03 1.60711E-02-8.16234E-02
 -1       574-1.85086E-14 6.60463E-04-4.62830E-14
 -1       576-6.69953E-15 1.74308E-03-4.60372E-14
 -1       577 2.08639E-04 1.20177E-03 3.44832E-04
 -1       579-2.08639E-04 1.20177E-03-3.44832E-04
 -1       588-1.88629E-14 3.32232E-03-9.78000E-14
 -1       590-1.58888E-14 5.87334E-03-9.80052E-14
 -1       591 1.92658E-04 4.59783E-03 8.12548E-04
 -1       593-1.92658E-04 4.59783E-03-8.12548E-04
 -1       602-2.35465E-14 6.47672E-03-1.29452E-13
 -1       604-1.86385E-14 1.02682E-02-1.29466E-13
 -1       605 2.42885E-04 8.37244E-03 1.20765E-03
 -1       607-2.42885E-04 8.37244E-03-1.20765E-03
 -1       616-2.70843E-14 9.96596E-03-1.59183E-13
 -1       618-2.42536E-14 1.50753E-02-1.58552E-13
 -1       619 2.19074E-04 1.25206E-02 1.62742E-03
 -1       621-2.19074E-04 1.25206E-02-1.62742E-03
 -1       630-3.01355E-14 1.27467E-02-1.96539E-13
 -1       632-2.33014E-14 1.91098E-02-1.96335E-13
 -1       633 1.80775E-04 1.59283E-02 2.02677E-03
 -1       635-1.80775E-04 1.59283E-02-2.02677E-03
 -1       644-2.49971E-14 1.45204E-02-2.47281E-13
 -1       646-1.81576E-14 2.20998E-02-2.47132E-13
 -1       647 1.23929E-04 1.83101E-02 2.41418E-03
 -1       649-1.23929E-04 1.83101E-02-2.41418E-03
 -1       658-1.43377E-14 1.46822E-02-2.91296E-13
 -1       660-9.64659E-15 2.34453E-02-2.92754E-13
 -1       661 4.00840E-05 1.90638E-02 2.79120E-03
 -1       663-4.00840E-05 1.90638E-02-2.79120E-03
 -1       672-2.61136E-15 1.30284E-02-3.10189E-13
 -1       674-3.68829E-15 2.29082E-02-3.10658E-13
 -1       675-4.18067E-05 1.79683E-02 3.14687E-03
 -1       677 4.18067E-05 1.79683E-02-3.14687E-03
 -1       686 2.24183E-15 9.34799E-03-3.08646E-13
 -1       688 9.96466E-16 2.03061E-02-3.08760E-13
 -1       689-1.38491E-04 1.48270E-02 3.49036E-03
 -1       691 1.38491E-04 1.48270E-02-3.49036E-03
 -1       700 2.60811E-15 3.67841E-03-3.18594E-13
 -1       702 5.41802E-15 1.56442E-02-3.19271E-13
 -1       703-2.22099E-04 9.66130E-03 3.81132E-03
 -1       705 2.22099E-04 9.66130E-03-3.81132E-03
 -1       714 8.43315E-15-3.84544E-03-3.41016E-13
 -1       716 1.10656E-14 9.08277E-03-3.41469E-13
 -1       717-3.03596E-04 2.61867E-03 4.11787E-03
 -1       719 3.03596E-04 2.61867E-03-4.11787E-03
 -1       728 1.92046E-14-1.29177E-02-3.49916E-13
 -1       730 1.82008E-14 9.07332E-04-3.49628E-13
 -1       731-3.63558E-04-6.00521E-03 4.40354E-03
 -1       733 3.63558E-04-6.00521E-03-4.40354E-03
 -1       742 3.00852E-14-2.31345E-02-3.34541E-13
 -1       744 2.58933E-14-8.45836E-03-3.35698E-13
 -1       745-4.07875E-04-1.57964E-02 4.67463E-03
 -1       747 4.07875E-04-1.57964E-02-4.67463E-03
 -1       756 3.97835E-14-3.39895E-02-3.02711E-13
 -1       758 3.45944E-14-1.85184E-02-3.02947E-13
 -1       759-4.25442E-04-2.62539E-02 4.92783E-03
 -1       761 4.25442E-04-2.62539E-02-4.92783E-03
 -1       770 4.85961E-14-4.49284E-02-2.60235E-13
 -1       772 4.22711E-14-2.87032E-02-2.61317E-13
 -1       773-4.20359E-04-3.68158E-02 5.16802E-03
 -1       775 4.20359E-04-3.68158E-02-5.16802E-03
 -1       784 5.49084E-14-5.53710E-02-2.11335E-13
 -1       786 4.80704E-14-3.84370E-02-2.11046E-13
 -1       787-3.88344E-04-4.69040E-02 5.39381E-03
 -1       789 3.88344E-04-4.69040E-02-5.39381E-03
 -1       798 6.24921E-14-6.47590E-02-1.54918E-13
 -1       800 5.42921E-14-4.71499E-02-1.55081E-13
 -1       801-3.34011E-04-5.59544E-02 5.60883E-03
 -1       803 3.34011E-04-5.59544E-02-5.60883E-03
 -1       812 7.00420E-14-7.25831E-02-9.43461E-14
 -1       814 6.14769E-14-5.43347E-02-9.45826E-14
 -1       815-2.58247E-04-6.34589E-02 5.81243E-03
 -1       817 2.58247E-04-6.34589E-02-5.81243E-03
 -1       826 7.04758E-14-7.84220E-02-4.20980E-14
 -1       828 6.49714E-14-5.95629E-02-4.23830E-14
 -1       829-1.66935E-04-6.89925E-02 6.00700E-03
 -1       831 1.66935E-04-6.89925E-02-6.00700E-03
 -1       840 6.65934E-14-8.19621E-02 5.94356E-16
 -1       842 6.04109E-14-6.25229E-02 1.17159E-15
 -1       843-6.43060E-05-7.22425E-02 6.19174E-03
 -1       845 6.43060E-05-7.22425E-02-6.19174E-03
 -1       854 5.89198E-14-8.30204E-02 5.40729E-14
 -1       856 5.03209E-14-6.30287E-02 5.37489E-14
 -1       857 4.29892E-05-7.30245E-02 6.36773E-03
 -1       859-4.29892E-05-7.30245E-02-6.36773E-03
 -1       868 4.50458E-14-8.15477E-02 1.05024E-13
 -1       870 4.00111E-14-6.10357E-02 1.05103E-13
 -1       871 1.49408E-04-7.12917E-02 6.53345E-03
 -1       873-1.49408E-04-7.12917E-02-6.53345E-03
 -1       882 3.03537E-14-7.76340E-02 1.39908E-13
 -1       884 2.65660E-14-5.66345E-02 1.39449E-13
 -1       885 2.48744E-04-6.71343E-02 6.68874E-03
 -1       887-2.48744E-04-6.71343E-02-6.68874E-03
 -1       896 1.60524E-14-7.14892E-02 1.66957E-13
 -1       898 1.18680E-14-5.00425E-02 1.68851E-13
 -1       899 3.36311E-04-6.07659E-02 6.83117E-03
 -1       901-3.36311E-04-6.07659E-02-6.83117E-03
 -1       910 3.55563E-15-6.34317E-02 1.91350E-13
 -1       912 3.45762E-16-4.15820E-02 1.90681E-13
 -1       913 4.07596E-04-5.25069E-02 6.95955E-03
 -1       915-4.07596E-04-5.25069E-02-6.95955E-03
 -1       924-6.29556E-15-5.38465E-02 2.06861E-13
 -1       926-8.23969E-15-3.16480E-02 2.05944E-13
 -1       927 4.60969E-04-4.27473E-02 7.07064E-03
 -1       929-4.60969E-04-4.27473E-02-7.07064E-03
 -1       938-1.46117E-14-4.31644E-02 2.19718E-13
 -1       940-1.68284E-14-2.06775E-02 2.20384E-13
 -1       941 4.94210E-04-3.19210E-02 7.16250E-03
 -1       943-4.94210E-04-3.19210E-02-7.16250E-03
 -1       952-2.18404E-14-3.17981E-02 2.36996E-13
 -1       954-2.55523E-14-9.09390E-03 2.37992E-13
 -1       955 5.10932E-04-2.04460E-02 7.23171E-03
 -1       957-5.10932E-04-2.04460E-02-7.23171E-03
 -1       966-2.87063E-14-2.01222E-02 2.57411E-13
 -1       968-3.15129E-14 2.71844E-03 2.54707E-13
 -1       969 5.10558E-04-8.70189E-03 7.27517E-03
 -1       971-5.10558E-04-8.70189E-03-7.27517E-03
 -1       980 0.00000E+00 0.00000E+00-1.53767E-05
 -1       982 0.00000E+00-0.00000E+00 1.53767E-05
 -1       983 5.26349E-03-9.98885E-03 8.16260E-02
 -1       985 5.25636E-03 1.60711E-02 8.16234E-02
 -1       986 2.75337E-03 9.32700E-04 7.72867E-03
 -1       988 8.24800E-04 2.28543E-03 7.67885E-03
 -1       989 3.35070E-03 3.14130E-03 1.82813E-02
 -1       991 2.39463E-03 5.95283E-03 1.82541E-02
 -1       992 4.00758E-03 6.36277E-03 2.72469E-02
 -1       994 2.60099E-03 1.05983E-02 2.72382E-02
 -1       995 3.69619E-03 9.54919E-03 3.67796E-02
 -1       997 2.53750E-03 1.52474E-02 3.68039E-02
 -1       998 3.02883E-03 1.22704E-02 4.57940E-02
 -1      1000 1.78870E-03 1.93789E-02 4.58301E-02
 -1      1001 1.81812E-03 1.38556E-02 5.47438E-02
 -1      1003 6.62475E-04 2.23590E-02 5.48026E-02
 -1      1004 3.25832E-04 1.39167E-02 6.33638E-02
 -1      1006-8.17335E-04 2.37750E-02 6.34284E-02
 -1      1007-1.39899E-03 1.21355E-02 7.17274E-02
 -1      1009-2.48989E-03 2.33087E-02 7.18016E-02
 -1      1010-3.17943E-03 8.35947E-03 7.97642E-02
 -1      1012-4.23188E-03 2.08073E-02 7.98354E-02
 -1      1013-4.90091E-03 2.59903E-03 8.74753E-02
 -1      1015-5.90555E-03 1.62713E-02 8.75436E-02
 -1      1016-6.42463E-03-5.00028E-03 9.48426E-02
 -1      1018-7.38354E-03 9.85212E-03 9.48984E-02
 -1      1019-7.64195E-03-1.41376E-02 1.01862E-01
 -1      1021-8.55382E-03 1.84059E-03 1.01905E-01
 -1      1022-8.45938E-03-2.44098E-02 1.08536E-01
 -1      1024-9.32486E-03-7.35352E-03 1.08559E-01
 -1      1025-8.81256E-03-3.53120E-02 1.14865E-01
 -1      1027-9.63276E-03-1.72330E-02 1.14870E-01
 -1      1028-8.66793E-03-4.62927E-02 1.20860E-01
 -1      1030-9.44377E-03-2.72408E-02 1.20844E-01
 -1      1031-8.02340E-03-5.67729E-02 1.26528E-01
 -1      1033-8.75649E-03-3.68035E-02 1.26492E-01
 -1      1034-6.91040E-03-6.61969E-02 1.31877E-01
 -1      1036-7.60158E-03-4.53610E-02 1.31823E-01
 -1      1037-5.38857E-03-7.40567E-02 1.36914E-01
 -1      1039-6.03887E-03-5.24098E-02 1.36845E-01
 -1      1040-3.54420E-03-7.99327E-02 1.41642E-01
 -1      1042-4.15365E-03-5.75274E-02 1.41562E-01
 -1      1043-1.48137E-03-8.35119E-02 1.46060E-01
 -1      1045-2.04969E-03-6.04048E-02 1.45973E-01
 -1      1046 6.83029E-04-8.46117E-02 1.50162E-01
 -1      1048 1.57166E-04-6.08581E-02 1.50073E-01
 -1      1049 2.83013E-03-8.31830E-02 1.53935E-01
 -1      1051 2.34854E-03-5.88424E-02 1.53850E-01
 -1      1052 4.84541E-03-7.93144E-02 1.57363E-01
 -1      1054 4.41102E-03-5.44463E-02 1.57285E-01
 -1      1055 6.63021E-03-7.32155E-02 1.60423E-01
 -1      1057 6.24601E-03-4.78837E-02 1.60356E-01
 -1      1058 8.10645E-03-6.52015E-02 1.63088E-01
 -1      1060 7.77702E-03-3.94709E-02 1.63035E-01
 -1      1061 9.22840E-03-5.56578E-02 1.65332E-01
 -1      1063 8.95642E-03-2.95971E-02 1.65294E-01
 -1      1064 9.98118E-03-4.50102E-02 1.67119E-01
 -1      1066 9.77395E-03-1.86896E-02 1.67095E-01
 -1      1067 1.03986E-02-3.36717E-02 1.68429E-01
 -1      1069 1.02535E-02-7.16354E-03 1.68419E-01
 -1      1070 1.05361E-02-2.20158E-02 1.69216E-01
 -1      1072 1.04702E-02 4.60574E-03 1.69215E-01
 -1      1073 0.00000E+00 0.00000E+00 1.53767E-05
 -1      1075 0.00000E+00-0.00000E+00-1.53767E-05
 -1      1076 0.00000E+00-8.59137E-17 0.00000E+00
 -1      1078 0.00000E+00 8.59137E-17 0.00000E+00
 -1      1079 0.00000E+00-2.95415E-17 0.00000E+00
 -1      1081 0.00000E+00 2.95415E-17 0.00000E+00
 -1      1082 0.00000E+00-2.79665E-17 0.00000E+00
 -1      1084 0.00000E+00 2.79665E-17 0.00000E+00
 -1      1085 2.08639E-04 1.20177E-03-3.44832E-04
 -1      1087-2.08639E-04 1.20177E-03 3.44832E-04
 -1      1088 1.10353E-14 6.60463E-04-2.64478E-14
 -1      1090 5.07807E-15 1.74308E-03-2.61781E-14
 -1      1099 1.92658E-04 4.59783E-03-8.12548E-04
 -1      1101-1.92658E-04 4.59783E-03 8.12548E-04
 -1      1102 1.74196E-14 3.32232E-03-7.36614E-14
 -1      1104 1.08985E-14 5.87334E-03-7.34891E-14
 -1      1113 2.42885E-04 8.37244E-03-1.20765E-03
 -1      1115-2.42885E-04 8.37244E-03 1.20765E-03
 -1      1116 2.05584E-14 6.47672E-03-1.27492E-13
 -1      1118 1.31516E-14 1.02682E-02-1.27667E-13
 -1      1127 2.19074E-04 1.25206E-02-1.62742E-03
 -1      1129-2.19074E-04 1.25206E-02 1.62742E-03
 -1      1130 1.76303E-14 9.96596E-03-1.79548E-13
 -1      1132 1.16028E-14 1.50753E-02-1.79753E-13
 -1      1141 1.80775E-04 1.59283E-02-2.02677E-03
 -1      1143-1.80775E-04 1.59283E-02 2.02677E-03
 -1      1144 1.24416E-14 1.27467E-02-2.27200E-13
 -1      1146 5.81640E-15 1.91098E-02-2.28013E-13
 -1      1155 1.23929E-04 1.83101E-02-2.41418E-03
 -1      1157-1.23929E-04 1.83101E-02 2.41418E-03
 -1      1158 3.25667E-15 1.45204E-02-2.67521E-13
 -1      1160-1.01801E-15 2.20998E-02-2.68344E-13
 -1      1169 4.00840E-05 1.90638E-02-2.79120E-03
 -1      1171-4.00840E-05 1.90638E-02 2.79120E-03
 -1      1172-5.97689E-15 1.46822E-02-2.84596E-13
 -1      1174-5.90336E-15 2.34453E-02-2.85132E-13
 -1      1183-4.18067E-05 1.79683E-02-3.14687E-03
 -1      1185 4.18067E-05 1.79683E-02 3.14687E-03
 -1      1186-9.28100E-15 1.30284E-02-2.89388E-13
 -1      1188-1.06536E-14 2.29082E-02-2.89135E-13
 -1      1197-1.38491E-04 1.48270E-02-3.49036E-03
 -1      1199 1.38491E-04 1.48270E-02 3.49036E-03
 -1      1200-1.28922E-14 9.34799E-03-3.08843E-13
 -1      1202-1.84998E-14 2.03061E-02-3.09663E-13
 -1      1211-2.22099E-04 9.66130E-03-3.81132E-03
 -1      1213 2.22099E-04 9.66130E-03 3.81132E-03
 -1      1214-2.41145E-14 3.67841E-03-3.32994E-13
 -1      1216-2.75820E-14 1.56442E-02-3.32765E-13
 -1      1225-3.03596E-04 2.61867E-03-4.11787E-03
 -1      1227 3.03596E-04 2.61867E-03 4.11787E-03
 -1      1228-3.58771E-14-3.84544E-03-3.36112E-13
 -1      1230-3.62462E-14 9.08277E-03-3.37412E-13
 -1      1239-3.63558E-04-6.00521E-03-4.40354E-03
 -1      1241 3.63558E-04-6.00521E-03 4.40354E-03
 -1      1242-4.64252E-14-1.29177E-02-3.20366E-13
 -1      1244-4.40122E-14 9.07332E-04-3.21347E-13
 -1      1253-4.07875E-04-1.57964E-02-4.67463E-03
 -1      1255 4.07875E-04-1.57964E-02 4.67463E-03
 -1      1256-5.82695E-14-2.31345E-02-2.93184E-13
 -1      1258-5.51062E-14-8.45836E-03-2.93353E-13
 -1      1267-4.25442E-04-2.62539E-02-4.92783E-03
 -1      1269 4.25442E-04-2.62539E-02 4.92783E-03
 -1      1270-7.22675E-14-3.39895E-02-2.64107E-13
 -1      1272-6.95411E-14-1.85184E-02-2.63995E-13
 -1      1281-4.20359E-04-3.68158E-02-5.16802E-03
 -1      1283 4.20359E-04-3.68158E-02 5.16802E-03
 -1      1284-8.88385E-14-4.49284E-02-2.25637E-13
 -1      1286-8.24972E-14-2.87032E-02-2.26321E-13
 -1      1295-3.88344E-04-4.69040E-02-5.39381E-03
 -1      1297 3.88344E-04-4.69040E-02 5.39381E-03
 -1      1298-1.00638E-13-5.53710E-02-1.69896E-13
 -1      1300-9.21928E-14-3.84370E-02-1.69964E-13
 -1      1309-3.34011E-04-5.59544E-02-5.60883E-03
 -1      1311 3.34011E-04-5.59544E-02 5.60883E-03
 -1      1312-1.04510E-13-6.47590E-02-1.16254E-13
 -1      1314-9.86999E-14-4.71499E-02-1.16265E-13
 -1      1323-2.58247E-04-6.34589E-02-5.81243E-03
 -1      1325 2.58247E-04-6.34589E-02 5.81243E-03
 -1      1326-1.04595E-13-7.25831E-02-7.87090E-14
 -1      1328-1.00526E-13-5.43347E-02-7.84083E-14
 -1      1337-1.66935E-04-6.89925E-02-6.00700E-03
 -1      1339 1.66935E-04-6.89925E-02 6.00700E-03
 -1      1340-1.02276E-13-7.84220E-02-4.24869E-14
 -1      1342-9.67963E-14-5.95629E-02-4.23897E-14
 -1      1351-6.43060E-05-7.22425E-02-6.19174E-03
 -1      1353 6.43060E-05-7.22425E-02 6.19174E-03
 -1      1354-9.86580E-14-8.19621E-02-8.27430E-16
 -1      1356-9.30750E-14-6.25229E-02-1.43465E-15
 -1      1365 4.29892E-05-7.30245E-02-6.36773E-03
 -1      1367-4.29892E-05-7.30245E-02 6.36773E-03
 -1      1368-9.59829E-14-8.30204E-02 4.15987E-14
 -1      1370-9.09336E-14-6.30287E-02 4.28303E-14
 -1      1379 1.49408E-04-7.12917E-02-6.53345E-03
 -1      1381-1.49408E-04-7.12917E-02 6.53345E-03
 -1      1382-9.71226E-14-8.15477E-02 1.02734E-13
 -1      1384-8.64077E-14-6.10357E-02 1.02751E-13
 -1      1393 2.48744E-04-6.71343E-02-6.68874E-03
 -1      1395-2.48744E-04-6.71343E-02 6.68874E-03
 -1      1396-9.38198E-14-7.76340E-02 1.73228E-13
 -1      1398-8.56270E-14-5.66345E-02 1.74995E-13
 -1      1407 3.36311E-04-6.07659E-02-6.83117E-03
 -1      1409-3.36311E-04-6.07659E-02 6.83117E-03
 -1      1410-8.98075E-14-7.14892E-02 2.18242E-13
 -1      1412-8.70943E-14-5.00425E-02 2.18120E-13
 -1      1421 4.07596E-04-5.25069E-02-6.95955E-03
 -1      1423-4.07596E-04-5.25069E-02 6.95955E-03
 -1      1424-8.78313E-14-6.34317E-02 2.29793E-13
 -1      1426-8.82258E-14-4.15820E-02 2.30754E-13
 -1      1435 4.60969E-04-4.27473E-02-7.07064E-03
 -1      1437-4.60969E-04-4.27473E-02 7.07064E-03
 -1      1438-8.94704E-14-5.38465E-02 2.41398E-13
 -1      1440-8.57801E-14-3.16480E-02 2.42374E-13
 -1      1449 4.94210E-04-3.19210E-02-7.16250E-03
 -1      1451-4.94210E-04-3.19210E-02 7.16250E-03
 -1      1452-8.79179E-14-4.31644E-02 2.69695E-13
 -1      1454-8.30009E-14-2.06775E-02 2.68118E-13
 -1      1463 5.10932E-04-2.04460E-02-7.23171E-03
 -1      1465-5.10932E-04-2.04460E-02 7.23171E-03
 -1      1466-8.13856E-14-3.17981E-02 2.82746E-13
 -1      1468-8.17755E-14-9.09390E-03 2.84252E-13
 -1      1477 5.10558E-04-8.70189E-03-7.27517E-03
 -1      1479-5.10558E-04-8.70189E-03 7.27517E-03
 -1      1480-7.86381E-14-2.01222E-02 2.82642E-13
 -1      1482-7.83734E-14 2.71844E-03 2.83356E-13
 -1      1491 5.07320E-04 1.35713E-01 4.11041E-03
 -1      1493-5.07320E-04 1.35713E-01-4.11041E-03
 -1      1494 5.10026E-04 1.83544E-01 3.28158E-13
 -1      1496-5.10026E-04 1.83544E-01 2.37890E-13
 -1      1497 5.07320E-04 1.35713E-01-4.11041E-03
 -1      1499-5.07320E-04 1.35713E-01 4.11041E-03
 -1      1500 2.75337E-03 9.32700E-04-7.72867E-03
 -1      1502 8.24800E-04 2.28543E-03-7.67885E-03
 -1      1503 3.35070E-03 3.14130E-03-1.82813E-02
 -1      1505 2.39463E-03 5.95283E-03-1.82541E-02
 -1      1506 4.00758E-03 6.36277E-03-2.72469E-02
 -1      1508 2.60099E-03 1.05983E-02-2.72382E-02
 -1      1509 3.69619E-03 9.54919E-03-3.67796E-02
 -1      1511 2.53750E-03 1.52474E-02-3.68039E-02
 -1      1512 3.02883E-03 1.22704E-02-4.57940E-02
 -1      1514 1.78870E-03 1.93789E-02-4.58301E-02
 -1      1515 1.81812E-03 1.38556E-02-5.47438E-02
 -1      1517 6.62475E-04 2.23590E-02-5.48026E-02
 -1      1518 3.25832E-04 1.39167E-02-6.33638E-02
 -1      1520-8.17335E-04 2.37750E-02-6.34284E-02
 -1      1521-1.39899E-03 1.21355E-02-7.17274E-02
 -1      1523-2.48989E-03 2.33087E-02-7.18016E-02
 -1      1524-3.17943E-03 8.35947E-03-7.97642E-02
 -1      1526-4.23188E-03 2.08073E-02-7.98354E-02
 -1      1527-4.90091E-03 2.59903E-03-8.74753E-02
 -1      1529-5.90555E-03 1.62713E-02-8.75436E-02
 -1      1530-6.42463E-03-5.00028E-03-9.48426E-02
 -1      1532-7.38354E-03 9.85212E-03-9.48984E-02
 -1      1533-7.64195E-03-1.41376E-02-1.01862E-01
 -1      1535-8.55382E-03 1.84059E-03-1.01905E-01
 -1      1536-8.45938E-03-2.44098E-02-1.08536E-01
 -1      1538-9.32486E-03-7.35352E-03-1.08559E-01
 -1      1539-8.81256E-03-3.53120E-02-1.14865E-01
 -1      1541-9.63276E-03-1.72330E-02-1.14870E-01
 -1      1542-8.66793E-03-4.62927E-02-1.20860E-01
 -1      1544-9.44377E-03-2.72408E-02-1.20844E-01
 -1      1545-8.02340E-03-5.67729E-02-1.26528E-01
 -1      1547-8.75649E-03-3.68035E-02-1.26492E-01
 -1      1548-6.91040E-03-6.61969E-02-1.31877E-01
 -1      1550-7.60158E-03-4.53610E-02-1.31823E-01
 -1      1551-5.38857E-03-7.40567E-02-1.36914E-01
 -1      1553-6.03887E-03-5.24098E-02-1.36845E-01
 -1      1554-3.54420E-03-7.99327E-02-1.41642E-01
 -1      1556-4.15365E-03-5.75274E-02-1.41562E-01
 -1      1557-1.48137E-03-8.35119E-02-1.46060E-01
 -1      1559-2.04969E-03-6.04048E-02-1.45973E-01
 -1      1560 6.83029E-04-8.46117E-02-1.50162E-01
 -1      1562 1.57166E-04-6.08581E-02-1.50073E-01
 -1      1563 2.83013E-03-8.31830E-02-1.53935E-01
 -1      1565 2.34854E-03-5.88424E-02-1.53850E-01
 -1      1566 4.84541E-03-7.93144E-02-1.57363E-01
 -1      1568 4.41102E-03-5.44463E-02-1.57285E-01
 -1      1569 6.63021E-03-7.32155E-02-1.60423E-01
 -1      1571 6.24601E-03-4.78837E-02-1.60356E-01
 -1      1572 8.10645E-03-6.52015E-02-1.63088E-01
 -1      1574 7.77702E-03-3.94709E-02-1.63035E-01
 -1      1575 9.22840E-03-5.56578E-02-1.65332E-01
 -1      1577 8.95642E-03-2.95971E-02-1.65294E-01
 -1      1578 9.98118E-03-4.50102E-02-1.67119E-01
 -1      1580 9.77395E-03-1.86896E-02-1.67095E-01
 -1      1581 1.03986E-02-3.36717E-02-1.68429E-01
 -1      1583 1.02535E-02-7.16354E-03-1.68419E-01
 -1      1584 1.05361E-02-2.20158E-02-1.69216E-01
 -1      1586 1.04702E-02 4.60574E-03-1.69215E-01
 -1      1587 5.26349E-03-9.98885E-03-8.16260E-02
 -1      1589 5.25636E-03 1.60711E-02-8.16234E-02
 -1      1590 0.00000E+00 0.00000E+00-1.53767E-05
 -1      1592 0.00000E+00 0.00000E+00 1.53767E-05
 -1      1593-5.26349E-03-9.98885E-03 8.16260E-02
 -1      1595-5.25636E-03 1.60711E-02 8.16234E-02
 -1      1596-2.75337E-03 9.32700E-04 7.72867E-03
 -1      1598-8.24800E-04 2.28543E-03 7.67885E-03
 -1      1599-3.35070E-03 3.14130E-03 1.82813E-02
 -1      1601-2.39463E-03 5.95283E-03 1.82541E-02
 -1      1602-4.00758E-03 6.36277E-03 2.72469E-02
 -1      1604-2.60099E-03 1.05983E-02 2.72382E-02
 -1      1605-3.69619E-03 9.54919E-03 3.67796E-02
 -1      1607-2.53750E-03 1.52474E-02 3.68039E-02
 -1      1608-3.02883E-03 1.22704E-02 4.57940E-02
 -1      1610-1.78870E-03 1.93789E-02 4.58301E-02
 -1      1611-1.81812E-03 1.38556E-02 5.47438E-02
 -1      1613-6.62475E-04 2.23590E-02 5.48026E-02
 -1      1614-3.25832E-04 1.39167E-02 6.33638E-02
 -1      1616 8.17335E-04 2.37750E-02 6.34284E-02
 -1      1617 1.39899E-03 1.21355E-02 7.17274E-02
 -1      1619 2.48989E-03 2.33087E-02 7.18016E-02
 -1      1620 3.17943E-03 8.35947E-03 7.97642E-02
 -1      1622 4.23188E-03 2.08073E-02 7.98354E-02
 -1      1623 4.90091E-03 2.59903E-03 8.74753E-02
 -1      1625 5.90555E-03 1.62713E-02 8.75436E-02
 -1      1626 6.42463E-03-5.00028E-03 9.48426E-02
 -1      1628 7.38354E-03 9.85212E-03 9.48984E-02
 -1      1629 7.64195E-03-1.41376E-02 1.01862E-01
 -1      1631 8.55382E-03 1.84059E-03 1.01905E-01
 -1      1632 8.45938E-03-2.44098E-02 1.08536E-01
 -1      1634 9.32486E-03-7.35352E-03 1.08559E-01
 -1      1635 8.81256E-03-3.53120E-02 1.14865E-01
 -1      1637 9.63276E-03-1.72330E-02 1.14870E-01
 -1      1638 8.66793E-03-4.62927E-02 1.20860E-01
 -1      1640 9.44377E-03-2.72408E-02 1.20844E-01
 -1      1641 8.02340E-03-5.67729E-02 1.26528E-01
 -1      1643 8.75649E-03-3.68035E-02 1.26492E-01
 -1      1644 6.91040E-03-6.61969E-02 1.31877E-01
 -1      1646 7.60158E-03-4.53610E-02 1.31823E-01
 -1      1647 5.38857E-03-7.40567E-02 1.36914E-01
 -1      1649 6.03887E-03-5.24098E-02 1.36845E-01
 -1      1650 3.54420E-03-7.99327E-02 1.41642E-01
 -1      1652 4.15365E-03-5.75274E-02 1.41562E-01
 -1      1653 1.48137E-03-8.35119E-02 1.46060E-01
 -1      1655 2.04969E-03-6.04048E-02 1.45973E-01
 -1      1656-6.83029E-04-8.46117E-02 1.50162E-01
 -1      1658-1.57166E-04-6.08581E-02 1.50073E-01
 -1      1659-2.83013E-03-8.31830E-02 1.53935E-01
 -1      1661-2.34854E-03-5.88424E-02 1.53850E-01
 -1      1662-4.84541E-03-7.93144E-02 1.57363E-01
 -1      1664-4.41102E-03-5.44463E-02 1.57285E-01
 -1      1665-6.63021E-03-7.32155E-02 1.60423E-01
 -1      1667-6.24601E-03-4.78837E-02 1.60356E-01
 -1      1668-8.10645E-03-6.52015E-02 1.63088E-01
 -1      1670-7.77702E-03-3.94709E-02 1.63035E-01
 -1      1671-9.22840E-03-5.56578E-02 1.65332E-01
 -1      1673-8.95642E-03-2.95971E-02 1.65294E-01
 -1      1674-9.98118E-03-4.50102E-02 1.67119E-01
 -1      1676-9.77395E-03-1.86896E-02 1.67095E-01
 -1      1677-1.03986E-02-3.36717E-02 1.68429E-01
 -1      1679-1.02535E-02-7.16354E-03 1.68419E-01
 -1      1680-1.05361E-02-2.20158E-02 1.69216E-01
 -1      1682-1.04702E-02 4.60574E-03 1.69215E-01
 -1      1683 0.00000E+00 0.00000E+00 1.53767E-05
 -1      1685 0.00000E+00 0.00000E+00-1.53767E-05
 -1      1686-1.27722E-03 7.86664E-04-3.61176E-03
 -1      1688-2.95201E-04 1.89845E-03-3.58675E-03
 -1      1689-1.61720E-03 3.15036E-03-8.95349E-03
 -1      1691-1.14192E-03 5.92682E-03-8.93147E-03
 -1      1692-1.91499E-03 6.34703E-03-1.32332E-02
 -1      1694-1.21541E-03 1.05242E-02-1.32343E-02
 -1      1695-1.79883E-03 9.65353E-03-1.79189E-02
 -1      1697-1.21983E-03 1.52677E-02-1.79252E-02
 -1      1698-1.44963E-03 1.24081E-02-2.22694E-02
 -1      1700-8.36613E-04 1.94266E-02-2.22875E-02
 -1      1701-8.75419E-04 1.40575E-02-2.66146E-02
 -1      1703-3.01186E-04 2.24327E-02-2.66410E-02
 -1      1704-1.30777E-04 1.41557E-02-3.07705E-02
 -1      1706 4.32051E-04 2.38682E-02-3.08001E-02
 -1      1707 7.09014E-04 1.24042E-02-3.47958E-02
 -1      1709 1.24661E-03 2.33941E-02-3.48308E-02
 -1      1710 1.58903E-03 8.64551E-03-3.86462E-02
 -1      1712 2.10404E-03 2.08820E-02-3.86783E-02
 -1      1713 2.43307E-03 2.88864E-03-4.23251E-02
 -1      1715 2.92378E-03 1.63105E-02-4.23572E-02
 -1      1716 3.18398E-03-4.71677E-03-4.58258E-02
 -1      1718 3.64980E-03 9.84983E-03-4.58504E-02
 -1      1719 3.78174E-03-1.38711E-02-4.91468E-02
 -1      1721 4.22356E-03 1.78041E-03-4.91664E-02
 -1      1722 4.18368E-03-2.41672E-02-5.22940E-02
 -1      1724 4.60149E-03-7.47647E-03-5.23030E-02
 -1      1725 4.35614E-03-3.50986E-02-5.52700E-02
 -1      1727 4.75148E-03-1.74260E-02-5.52709E-02
 -1      1728 4.28353E-03-4.61109E-02-5.80854E-02
 -1      1730 4.65706E-03-2.75036E-02-5.80750E-02
 -1      1731 3.96422E-03-5.66221E-02-6.07458E-02
 -1      1733 4.31747E-03-3.71345E-02-6.07268E-02
 -1      1734 3.41395E-03-6.60741E-02-6.32614E-02
 -1      1736 3.74770E-03-4.57534E-02-6.32326E-02
 -1      1737 2.66193E-03-7.39563E-02-6.56370E-02
 -1      1739 2.97718E-03-5.28546E-02-6.56017E-02
 -1      1740 1.75068E-03-7.98473E-02-6.78786E-02
 -1      1742 2.04772E-03-5.80123E-02-6.78371E-02
 -1      1743 7.31462E-04-8.34327E-02-6.99863E-02
 -1      1745 1.01037E-03-6.09162E-02-6.99422E-02
 -1      1746-3.38277E-04-8.45293E-02-7.19593E-02
 -1      1748-7.80973E-05-6.13811E-02-7.19137E-02
 -1      1749-1.39986E-03-8.30882E-02-7.37906E-02
 -1      1751-1.15942E-03-5.93627E-02-7.37469E-02
 -1      1752-2.39726E-03-7.91985E-02-7.54716E-02
 -1      1754-2.17820E-03-5.49501E-02-7.54309E-02
 -1      1755-3.28159E-03-7.30720E-02-7.69883E-02
 -1      1757-3.08585E-03-4.83606E-02-7.69533E-02
 -1      1758-4.01509E-03-6.50251E-02-7.83246E-02
 -1      1760-3.84538E-03-3.99117E-02-7.82957E-02
 -1      1761-4.57493E-03-5.54473E-02-7.94627E-02
 -1      1763-4.43331E-03-2.99993E-02-7.94411E-02
 -1      1764-4.95473E-03-4.47649E-02-8.03792E-02
 -1      1766-4.84557E-03-1.90513E-02-8.03644E-02
 -1      1767-5.17032E-03-3.33989E-02-8.10605E-02
 -1      1769-5.09308E-03-7.49419E-03-8.10517E-02
 -1      1770-5.25434E-03-2.17179E-02-8.14718E-02
 -1      1772-5.21909E-03 4.30132E-03-8.14668E-02
 -1      1773 1.27722E-03 7.86664E-04 3.61176E-03
 -1      1775 2.95201E-04 1.89845E-03 3.58675E-03
 -1      1776 1.61720E-03 3.15036E-03 8.95349E-03
 -1      1778 1.14192E-03 5.92682E-03 8.93147E-03
 -1      1779 1.91499E-03 6.34703E-03 1.32332E-02
 -1      1781 1.21541E-03 1.05242E-02 1.32343E-02
 -1      1782 1.79883E-03 9.65353E-03 1.79189E-02
 -1      1784 1.21983E-03 1.52677E-02 1.79252E-02
 -1      1785 1.44963E-03 1.24081E-02 2.22694E-02
 -1      1787 8.36613E-04 1.94266E-02 2.22875E-02
 -1      1788 8.75419E-04 1.40575E-02 2.66146E-02
 -1      1790 3.01186E-04 2.24327E-02 2.66410E-02
 -1      1791 1.30777E-04 1.41557E-02 3.07705E-02
 -1      1793-4.32051E-04 2.38682E-02 3.08001E-02
 -1      1794-7.09014E-04 1.24042E-02 3.47958E-02
 -1      1796-1.24661E-03 2.33941E-02 3.48308E-02
 -1      1797-1.58903E-03 8.64551E-03 3.86462E-02
 -1      1799-2.10404E-03 2.08820E-02 3.86783E-02
 -1      1800-2.43307E-03 2.88864E-03 4.23251E-02
 -1      1802-2.92378E-03 1.63105E-02 4.23572E-02
 -1      1803-3.18398E-03-4.71677E-03 4.58258E-02
 -1      1805-3.64980E-03 9.84983E-03 4.58504E-02
 -1      1806-3.78174E-03-1.38711E-02 4.91468E-02
 -1      1808-4.22356E-03 1.78041E-03 4.91664E-02
 -1      1809-4.18368E-03-2.41672E-02 5.22940E-02
 -1      1811-4.60149E-03-7.47647E-03 5.23030E-02
 -1      1812-4.35614E-03-3.50986E-02 5.52700E-02
 -1      1814-4.75148E-03-1.74260E-02 5.52709E-02
 -1      1815-4.28353E-03-4.61109E-02 5.80854E-02
 -1      1817-4.65706E-03-2.75036E-02 5.80750E-02
 -1      1818-3.96422E-03-5.66221E-02 6.07458E-02
 -1      1820-4.31747E-03-3.71345E-02 6.07268E-02
 -1      1821-3.41395E-03-6.60741E-02 6.32614E-02
 -1      1823-3.74770E-03-4.57534E-02 6.32326E-02
 -1      1824-2.66193E-03-7.39563E-02 6.56370E-02
 -1      1826-2.97718E-03-5.28546E-02 6.56017E-02
 -1      1827-1.75068E-03-7.98473E-02 6.78786E-02
 -1      1829-2.04772E-03-5.80123E-02 6.78371E-02
 -1      1830-7.31462E-04-8.34327E-02 6.99863E-02
 -1      1832-1.01037E-03-6.09162E-02 6.99422E-02
 -1      1833 3.38277E-04-8.45293E-02 7.19593E-02
 -1      1835 7.80973E-05-6.13811E-02 7.19137E-02
 -1      1836 1.39986E-03-8.30882E-02 7.37906E-02
 -1      1838 1.15942E-03-5.93627E-02 7.37469E-02
 -1      1839 2.39726E-03-7.91985E-02 7.54716E-02
 -1      1841 2.17820E-03-5.49501E-02 7.54309E-02
 -1      1842 3.28159E-03-7.30720E-02 7.69883E-02
 -1      1844 3.08585E-03-4.83606E-02 7.69533E-02
 -1      1845 4.01509E-03-6.50251E-02 7.83246E-02
 -1      1847 3.84538E-03-3.99117E-02 7.82957E-02
 -1      1848 4.57493E-03-5.54473E-02 7.94627E-02
 -1      1850 4.43331E-03-2.99993E-02 7.94411E-02
 -1      1851 4.95473E-03-4.47649E-02 8.03792E-02
 -1      1853 4.84557E-03-1.90513E-02 8.03644E-02
 -1      1854 5.17032E-03-3.33989E-02 8.10605E-02
 -1      1856 5.09308E-03-7.49419E-03 8.10517E-02
 -1      1857 5.25434E-03-2.17179E-02 8.14718E-02
 -1      1859 5.21909E-03 4.30132E-03 8.14668E-02
 -1      1860 5.68507E-04 7.86061E-03 2.21622E-04
 -1      1862-5.68507E-04 7.86061E-03-2.21622E-04
 -1      1863 3.43224E-04 1.96548E-02 4.82489E-04
 -1      1865-3.43224E-04 1.96548E-02-4.82489E-04
 -1      1866 5.10574E-04 3.08198E-02 7.21736E-04
 -1      1868-5.10574E-04 3.08198E-02-7.21736E-04
 -1      1869 4.10648E-04 4.27184E-02 9.65011E-04
 -1      1871-4.10648E-04 4.27184E-02-9.65011E-04
 -1      1872 4.08193E-04 5.34141E-02 1.19642E-03
 -1      1874-4.08193E-04 5.34141E-02-1.19642E-03
 -1      1875 3.16836E-04 6.29749E-02 1.42096E-03
 -1      1877-3.16836E-04 6.29749E-02-1.42096E-03
 -1      1878 2.40040E-04 7.05415E-02 1.63408E-03
 -1      1880-2.40040E-04 7.05415E-02-1.63408E-03
 -1      1881 1.36977E-04 7.59678E-02 1.83487E-03
 -1      1883-1.36977E-04 7.59678E-02-1.83487E-03
 -1      1884 3.64886E-05 7.89764E-02 2.02354E-03
 -1      1886-3.64886E-05 7.89764E-02-2.02354E-03
 -1      1887-6.30555E-05 7.96060E-02 2.19798E-03
 -1      1889 6.30555E-05 7.96060E-02-2.19798E-03
 -1      1890-1.52045E-04 7.79895E-02 2.36047E-03
 -1      1892 1.52045E-04 7.79895E-02-2.36047E-03
 -1      1893-2.24596E-04 7.44424E-02 2.50955E-03
 -1      1895 2.24596E-04 7.44424E-02-2.50955E-03
 -1      1896-2.76647E-04 6.93962E-02 2.64830E-03
 -1      1898 2.76647E-04 6.93962E-02-2.64830E-03
 -1      1899-3.03692E-04 6.33839E-02 2.77629E-03
 -1      1901 3.03692E-04 6.33839E-02-2.77629E-03
 -1      1902-3.04916E-04 5.70003E-02 2.89672E-03
 -1      1904 3.04916E-04 5.70003E-02-2.89672E-03
 -1      1905-2.79444E-04 5.08607E-02 3.00985E-03
 -1      1907 2.79444E-04 5.08607E-02-3.00985E-03
 -1      1908-2.29567E-04 4.55631E-02 3.11847E-03
 -1      1910 2.29567E-04 4.55631E-02-3.11847E-03
 -1      1911-1.58076E-04 4.16465E-02 3.22296E-03
 -1      1913 1.58076E-04 4.16465E-02-3.22296E-03
 -1      1914-6.99277E-05 3.95586E-02 3.32526E-03
 -1      1916 6.99277E-05 3.95586E-02-3.32526E-03
 -1      1917 2.94758E-05 3.96254E-02 3.42529E-03
 -1      1919-2.94758E-05 3.96254E-02-3.42529E-03
 -1      1920 1.33649E-04 4.20332E-02 3.52386E-03
 -1      1922-1.33649E-04 4.20332E-02-3.52386E-03
 -1      1923 2.36315E-04 4.68184E-02 3.62004E-03
 -1      1925-2.36315E-04 4.68184E-02-3.62004E-03
 -1      1926 3.30997E-04 5.38675E-02 3.71343E-03
 -1      1928-3.30997E-04 5.38675E-02-3.71343E-03
 -1      1929 4.12715E-04 6.29323E-02 3.80212E-03
 -1      1931-4.12715E-04 6.29323E-02-3.80212E-03
 -1      1932 4.76260E-04 7.36446E-02 3.88460E-03
 -1      1934-4.76260E-04 7.36446E-02-3.88460E-03
 -1      1935 5.20567E-04 8.55622E-02 3.95820E-03
 -1      1937-5.20567E-04 8.55622E-02-3.95820E-03
 -1      1938 5.41587E-04 9.81828E-02 4.02054E-03
 -1      1940-5.41587E-04 9.81828E-02-4.02054E-03
 -1      1941 5.45897E-04 1.11032E-01 4.06862E-03
 -1      1943-5.45897E-04 1.11032E-01-4.06862E-03
 -1      1944 5.27183E-04 1.23640E-01 4.09943E-03
 -1      1946-5.27183E-04 1.23640E-01-4.09943E-03
 -1      1947 9.28375E-04 1.03454E-02-3.49742E-14
 -1      1949-9.28375E-04 1.03454E-02-3.63975E-14
 -1      1950 4.93789E-04 2.53304E-02-7.63500E-14
 -1      1952-4.93789E-04 2.53304E-02-7.73541E-14
 -1      1953 7.78262E-04 3.91811E-02-1.25205E-13
 -1      1955-7.78262E-04 3.91811E-02-1.23809E-13
 -1      1956 6.02223E-04 5.39708E-02-1.74396E-13
 -1      1958-6.02223E-04 5.39708E-02-1.67835E-13
 -1      1959 6.35611E-04 6.73221E-02-2.20769E-13
 -1      1961-6.35611E-04 6.73221E-02-2.06756E-13
 -1      1962 5.09744E-04 7.95198E-02-2.63314E-13
 -1      1964-5.09744E-04 7.95198E-02-2.41226E-13
 -1      1965 4.39996E-04 8.95482E-02-2.94955E-13
 -1      1967-4.39996E-04 8.95482E-02-2.65192E-13
 -1      1968 3.15761E-04 9.73255E-02-3.16622E-13
 -1      1970-3.15761E-04 9.73255E-02-2.81317E-13
 -1      1971 2.11468E-04 1.02518E-01-3.32991E-13
 -1      1973-2.11468E-04 1.02518E-01-2.94249E-13
 -1      1974 9.59879E-05 1.05188E-01-3.47283E-13
 -1      1976-9.59879E-05 1.05188E-01-3.06260E-13
 -1      1977-4.94620E-07 1.05454E-01-3.58014E-13
 -1      1979 4.94620E-07 1.05454E-01-3.12894E-13
 -1      1980-8.56333E-05 1.03651E-01-3.56468E-13
 -1      1982 8.56333E-05 1.03651E-01-3.07974E-13
 -1      1983-1.45419E-04 1.00214E-01-3.41487E-13
 -1      1985 1.45419E-04 1.00214E-01-2.92346E-13
 -1      1986-1.81941E-04 9.56983E-02-3.12989E-13
 -1      1988 1.81941E-04 9.56983E-02-2.66523E-13
 -1      1989-1.89473E-04 9.07129E-02-2.67000E-13
 -1      1991 1.89473E-04 9.07129E-02-2.25740E-13
 -1      1992-1.70544E-04 8.58950E-02-2.09336E-13
 -1      1994 1.70544E-04 8.58950E-02-1.77153E-13
 -1      1995-1.25123E-04 8.18595E-02-1.49800E-13
 -1      1997 1.25123E-04 8.18595E-02-1.28843E-13
 -1      1998-5.79052E-05 7.91626E-02-9.28355E-14
 -1      2000 5.79052E-05 7.91626E-02-8.20958E-14
 -1      2001 2.70794E-05 7.82635E-02-3.85716E-14
 -1      2003-2.70794E-05 7.82635E-02-3.85698E-14
 -1      2004 1.23258E-04 7.94967E-02 1.35031E-14
 -1      2006-1.23258E-04 7.94967E-02-4.44089E-16
 -1      2007 2.24310E-04 8.30498E-02 7.12460E-14
 -1      2009-2.24310E-04 8.30498E-02 4.28633E-14
 -1      2010 3.23222E-04 8.89555E-02 1.27165E-13
 -1      2012-3.23222E-04 8.89555E-02 8.54516E-14
 -1      2013 4.13250E-04 9.70891E-02 1.78466E-13
 -1      2015-4.13250E-04 9.70891E-02 1.26364E-13
 -1      2016 4.89120E-04 1.07186E-01 2.21837E-13
 -1      2018-4.89120E-04 1.07186E-01 1.58512E-13
 -1      2019 5.44924E-04 1.18855E-01 2.50946E-13
 -1      2021-5.44924E-04 1.18855E-01 1.77696E-13
 -1      2022 5.80165E-04 1.31629E-01 2.72574E-13
 -1      2024-5.80165E-04 1.31629E-01 1.92247E-13
 -1      2025 5.88965E-04 1.44971E-01 2.94209E-13
 -1      2027-5.88965E-04 1.44971E-01 2.08561E-13
 -1      2028 5.80861E-04 1.58379E-01 3.08361E-13
 -1      2030-5.80861E-04 1.58379E-01 2.20752E-13
 -1      2031 5.43808E-04 1.71341E-01 3.17309E-13
 -1      2033-5.43808E-04 1.71341E-01 2.29330E-13
 -1      2034 5.68507E-04 7.86061E-03-2.21622E-04
 -1      2036-5.68507E-04 7.86061E-03 2.21622E-04
 -1      2037 3.43224E-04 1.96548E-02-4.82489E-04
 -1      2039-3.43224E-04 1.96548E-02 4.82489E-04
 -1      2040 5.10574E-04 3.08198E-02-7.21736E-04
 -1      2042-5.10574E-04 3.08198E-02 7.21736E-04
 -1      2043 4.10648E-04 4.27184E-02-9.65011E-04
 -1      2045-4.10648E-04 4.27184E-02 9.65011E-04
 -1      2046 4.08193E-04 5.34141E-02-1.19642E-03
 -1      2048-4.08193E-04 5.34141E-02 1.19642E-03
 -1      2049 3.16836E-04 6.29749E-02-1.42096E-03
 -1      2051-3.16836E-04 6.29749E-02 1.42096E-03
 -1      2052 2.40040E-04 7.05415E-02-1.63408E-03
 -1      2054-2.40040E-04 7.05415E-02 1.63408E-03
 -1      2055 1.36977E-04 7.59678E-02-1.83487E-03
 -1      2057-1.36977E-04 7.59678E-02 1.83487E-03
 -1      2058 3.64886E-05 7.89764E-02-2.02354E-03
 -1      2060-3.64886E-05 7.89764E-02 2.02354E-03
 -1      2061-6.30555E-05 7.96060E-02-2.19798E-03
 -1      2063 6.30555E-05 7.96060E-02 2.19798E-03
 -1      2064-1.52045E-04 7.79895E-02-2.36047E-03
 -1      2066 1.52045E-04 7.79895E-02 2.36047E-03
 -1      2067-2.24596E-04 7.44424E-02-2.50955E-03
 -1      2069 2.24596E-04 7.44424E-02 2.50955E-03
 -1      2070-2.76647E-04 6.93962E-02-2.64830E-03
 -1      2072 2.76647E-04 6.93962E-02 2.64830E-03
 -1      2073-3.03692E-04 6.33839E-02-2.77629E-03
 -1      2075 3.03692E-04 6.33839E-02 2.77629E-03
 -1      2076-3.04916E-04 5.70003E-02-2.89672E-03
 -1      2078 3.04916E-04 5.70003E-02 2.89672E-03
 -1      2079-2.79444E-04 5.08607E-02-3.00985E-03
 -1      2081 2.79444E-04 5.08607E-02 3.00985E-03
 -1      2082-2.29567E-04 4.55631E-02-3.11847E-03
 -1      2084 2.29567E-04 4.55631E-02 3.11847E-03
 -1      2085-1.58076E-04 4.16465E-02-3.22296E-03
 -1      2087 1.58076E-04 4.16465E-02 3.22296E-03
 -1      2088-6.99277E-05 3.95586E-02-3.32526E-03
 -1      2090 6.99277E-05 3.95586E-02 3.32526E-03
 -1      2091 2.94758E-05 3.96254E-02-3.42529E-03
 -1      2093-2.94758E-05 3.96254E-02 3.42529E-03
 -1      2094 1.33649E-04 4.20332E-02-3.52386E-03
 -1      2096-1.33649E-04 4.20332E-02 3.52386E-03
 -1      2097 2.36315E-04 4.68184E-02-3.62004E-03
 -1      2099-2.36315E-04 4.68184E-02 3.62004E-03
 -1      2100 3.30997E-04 5.38675E-02-3.71343E-03
 -1      2102-3.30997E-04 5.38675E-02 3.71343E-03
 -1      2103 4.12715E-04 6.29323E-02-3.80212E-03
 -1      2105-4.12715E-04 6.29323E-02 3.80212E-03
 -1      2106 4.76260E-04 7.36446E-02-3.88460E-03
 -1      2108-4.76260E-04 7.36446E-02 3.88460E-03
 -1      2109 5.20567E-04 8.55622E-02-3.95820E-03
 -1      2111-5.20567E-04 8.55622E-02 3.95820E-03
 -1      2112 5.41587E-04 9.81828E-02-4.02054E-03
 -1      2114-5.41587E-04 9.81828E-02 4.02054E-03
 -1      2115 5.45897E-04 1.11032E-01-4.06862E-03
 -1      2117-5.45897E-04 1.11032E-01 4.06862E-03
 -1      2118 5.27183E-04 1.23640E-01-4.09943E-03
 -1      2120-5.27183E-04 1.23640E-01 4.09943E-03
 -1      2121 1.27722E-03 7.86664E-04-3.61176E-03
 -1      2123 2.95201E-04 1.89845E-03-3.58675E-03
 -1      2124 1.61720E-03 3.15036E-03-8.95349E-03
 -1      2126 1.14192E-03 5.92682E-03-8.93147E-03
 -1      2127 1.91499E-03 6.34703E-03-1.32332E-02
 -1      2129 1.21541E-03 1.05242E-02-1.32343E-02
 -1      2130 1.79883E-03 9.65353E-03-1.79189E-02
 -1      2132 1.21983E-03 1.52677E-02-1.79252E-02
 -1      2133 1.44963E-03 1.24081E-02-2.22694E-02
 -1      2135 8.36613E-04 1.94266E-02-2.22875E-02
 -1      2136 8.75419E-04 1.40575E-02-2.66146E-02
 -1      2138 3.01186E-04 2.24327E-02-2.66410E-02
 -1      2139 1.30777E-04 1.41557E-02-3.07705E-02
 -1      2141-4.32051E-04 2.38682E-02-3.08001E-02
 -1      2142-7.09014E-04 1.24042E-02-3.47958E-02
 -1      2144-1.24661E-03 2.33941E-02-3.48308E-02
 -1      2145-1.58903E-03 8.64551E-03-3.86462E-02
 -1      2147-2.10404E-03 2.08820E-02-3.86783E-02
 -1      2148-2.43307E-03 2.88864E-03-4.23251E-02
 -1      2150-2.92378E-03 1.63105E-02-4.23572E-02
 -1      2151-3.18398E-03-4.71677E-03-4.58258E-02
 -1      2153-3.64980E-03 9.84983E-03-4.58504E-02
 -1      2154-3.78174E-03-1.38711E-02-4.91468E-02
 -1      2156-4.22356E-03 1.78041E-03-4.91664E-02
 -1      2157-4.18368E-03-2.41672E-02-5.22940E-02
 -1      2159-4.60149E-03-7.47647E-03-5.23030E-02
 -1      2160-4.35614E-03-3.50986E-02-5.52700E-02
 -1      2162-4.75148E-03-1.74260E-02-5.52709E-02
 -1      2163-4.28353E-03-4.61109E-02-5.80854E-02
 -1      2165-4.65706E-03-2.75036E-02-5.80750E-02
 -1      2166-3.96422E-03-5.66221E-02-6.07458E-02
 -1      2168-4.31747E-03-3.71345E-02-6.07268E-02
 -1      2169-3.41395E-03-6.60741E-02-6.32614E-02
 -1      2171-3.74770E-03-4.57534E-02-6.32326E-02
 -1      2172-2.66193E-03-7.39563E-02-6.56370E-02
 -1      2174-2.97718E-03-5.28546E-02-6.56017E-02
 -1      2175-1.75068E-03-7.98473E-02-6.78786E-02
 -1      2177-2.04772E-03-5.80123E-02-6.78371E-02
 -1      2178-7.31462E-04-8.34327E-02-6.99863E-02
 -1      2180-1.01037E-03-6.09162E-02-6.99422E-02
 -1      2181 3.38277E-04-8.45293E-02-7.19593E-02
 -1      2183 7.80973E-05-6.13811E-02-7.19137E-02
 -1      2184 1.39986E-03-8.30882E-02-7.37906E-02
 -1      2186 1.15942E-03-5.93627E-02-7.37469E-02
 -1      2187 2.39726E-03-7.91985E-02-7.54716E-02
 -1      2189 2.17820E-03-5.49501E-02-7.54309E-02
 -1      2190 3.28159E-03-7.30720E-02-7.69883E-02
 -1      2192 3.08585E-03-4.83606E-02-7.69533E-02
 -1      2193 4.01509E-03-6.50251E-02-7.83246E-02
 -1      2195 3.84538E-03-3.99117E-02-7.82957E-02
 -1      2196 4.57493E-03-5.54473E-02-7.94627E-02
 -1      2198 4.43331E-03-2.99993E-02-7.94411E-02
 -1      2199 4.95473E-03-4.47649E-02-8.03792E-02
 -1      2201 4.84557E-03-1.90513E-02-8.03644E-02
 -1      2202 5.17032E-03-3.33989E-02-8.10605E-02
 -1      2204 5.09308E-03-7.49419E-03-8.10517E-02
 -1      2205 5.25434E-03-2.17179E-02-8.14718E-02
 -1      2207 5.21909E-03 4.30132E-03-8.14668E-02
 -1      2208-1.27722E-03 7.86664E-04 3.61176E-03
 -1      2210-2.95201E-04 1.89845E-03 3.58675E-03
 -1      2211-1.61720E-03 3.15036E-03 8.95349E-03
 -1      2213-1.14192E-03 5.92682E-03 8.93147E-03
 -1      2214-1.91499E-03 6.34703E-03 1.32332E-02
 -1      2216-1.21541E-03 1.05242E-02 1.32343E-02
 -1      2217-1.79883E-03 9.65353E-03 1.79189E-02
 -1      2219-1.21983E-03 1.52677E-02 1.79252E-02
 -1      2220-1.44963E-03 1.24081E-02 2.22694E-02
 -1      2222-8.36613E-04 1.94266E-02 2.22875E-02
 -1      2223-8.75419E-04 1.40575E-02 2.66146E-02
 -1      2225-3.01186E-04 2.24327E-02 2.66410E-02
 -1      2226-1.30777E-04 1.41557E-02 3.07705E-02
 -1      2228 4.32051E-04 2.38682E-02 3.08001E-02
 -1      2229 7.09014E-04 1.24042E-02 3.47958E-02
 -1      2231 1.24661E-03 2.33941E-02 3.48308E-02
 -1      2232 1.58903E-03 8.64551E-03 3.86462E-02
 -1      2234 2.10404E-03 2.08820E-02 3.86783E-02
 -1      2235 2.43307E-03 2.88864E-03 4.23251E-02
 -1      2237 2.92378E-03 1.63105E-02 4.23572E-02
 -1      2238 3.18398E-03-4.71677E-03 4.58258E-02
 -1      2240 3.64980E-03 9.84983E-03 4.58504E-02
 -1      2241 3.78174E-03-1.38711E-02 4.91468E-02
 -1      2243 4.22356E-03 1.78041E-03 4.91664E-02
 -1      2244 4.18368E-03-2.41672E-02 5.22940E-02
 -1      2246 4.60149E-03-7.47647E-03 5.23030E-02
 -1      2247 4.35614E-03-3.50986E-02 5.52700E-02
 -1      2249 4.75148E-03-1.74260E-02 5.52709E-02
 -1      2250 4.28353E-03-4.61109E-02 5.80854E-02
 -1      2252 4.65706E-03-2.75036E-02 5.80750E-02
 -1      2253 3.96422E-03-5.66221E-02 6.07458E-02
 -1      2255 4.31747E-03-3.71345E-02 6.07268E-02
 -1      2256 3.41395E-03-6.60741E-02 6.32614E-02
 -1      2258 3.74770E-03-4.57534E-02 6.32326E-02
 -1      2259 2.66193E-03-7.39563E-02 6.56370E-02
 -1      2261 2.97718E-03-5.28546E-02 6.56017E-02
 -1      2262 1.75068E-03-7.98473E-02 6.78786E-02
 -1      2264 2.04772E-03-5.80123E-02 6.78371E-02
 -1      2265 7.31462E-04-8.34327E-02 6.99863E-02
 -1      2267 1.01037E-03-6.09162E-02 6.99422E-02
 -1      2268-3.38277E-04-8.45293E-02 7.19593E-02
 -1      2270-7.80973E-05-6.13811E-02 7.19137E-02
 -1      2271-1.39986E-03-8.30882E-02 7.37906E-02
 -1      2273-1.15942E-03-5.93627E-02 7.37469E-02
 -1      2274-2.39726E-03-7.91985E-02 7.54716E-02
 -1      2276-2.17820E-03-5.49501E-02 7.54309E-02
 -1      2277-3.28159E-03-7.30720E-02 7.69883E-02
 -1      2279-3.08585E-03-4.83606E-02 7.69533E-02
 -1      2280-4.01509E-03-6.50251E-02 7.83246E-02
 -1      2282-3.84538E-03-3.99117E-02 7.82957E-02
 -1      2283-4.57493E-03-5.54473E-02 7.94627E-02
 -1      2285-4.43331E-03-2.99993E-02 7.94411E-02
 -1      2286-4.95473E-03-4.47649E-02 8.03792E-02
 -1      2288-4.84557E-03-1.90513E-02 8.03644E-02
 -1      2289-5.17032E-03-3.33989E-02 8.10605E-02
 -1      2291-5.09308E-03-7.49419E-03 8.10517E-02
 -1      2292-5.25434E-03-2.17179E-02 8.14718E-02
 -1      2294-5.21909E-03 4.30132E-03 8.14668E-02
 -3
    1PSTEP                        18           1           1          
    1PGM                1.000000E+00                                  
    1PGK                1.668277E+06                                  
    1PHID                         -1                                  
    1PSUBC                         0                                  
    1PMODE                         5                                  
  100CL  105 205.5673943         930                     2    5MODAL      1
 -4  STRESS      6    1
 -5  SXX         1    4    1    1
 -5  SYY         1    4    2    2
 -5  SZZ         1    4    3    3
 -5  SXY         1    4    1    2
 -5  SYZ         1    4    2    3
 -5  SZX         1    4    3    1
 -1       404-2.76843E+09-2.10037E+08-4.54165E+06 2.91984E+08 2.69836E+06-2.11246E+08
 -1       406-2.76843E+09-2.10037E+08-4.54165E+06 2.91984E+08 2.69836E+06-2.11246E+08
 -1       407-6.26998E+07-1.25478E+07 2.95890E+05 2.70160E+07-2.20649E+07 1.20454E+06
 -1       409-6.26998E+07-1.25478E+07 2.95890E+05 2.70160E+07-2.20649E+07 1.20454E+06
 -1       410-7.28233E-03-2.15460E-03-7.01092E-04 7.26323E+07-6.94500E+07 6.11152E-05
 -1       412-7.28233E-03-2.15460E-03-7.01092E-04 7.26323E+07-6.94500E+07 6.11152E-05
 -1       413-2.55514E-03 1.35658E-03 1.11863E-02-1.54720E+06 6.62477E+07 2.58840E-04
 -1       415-2.55514E-03 1.35658E-03 1.11863E-02-1.54720E+06 6.62477E+07 2.58840E-04
 -1       424-2.24905E-02-3.63559E-03-2.62260E-06 3.21944E+08 5.21166E+07-1.48379E-03
 -1       426-2.24905E-02-3.63559E-03-2.62260E-06 3.21944E+08 5.21166E+07-1.48379E-03
 -1       427-1.67769E-02-1.12261E-04-2.33265E-04 1.04219E+07 2.91425E+07-3.16560E-02
 -1       429-1.67769E-02-1.12261E-04-2.33265E-04 1.04219E+07 2.91425E+07-3.16560E-02
 -1       438 6.26998E+07 1.25478E+07-2.95890E+05 2.70160E+07-2.20649E+07-1.20454E+06
 -1       440 6.26998E+07 1.25478E+07-2.95890E+05 2.70160E+07-2.20649E+07-1.20454E+06
 -1       441 2.76843E+09 2.10037E+08 4.54165E+06 2.91984E+08 2.69836E+06 2.11246E+08
 -1       443 2.76843E+09 2.10037E+08 4.54165E+06 2.91984E+08 2.69836E+06 2.11246E+08
 -1       444 8.89177E-03 1.06030E-04 6.61621E-03 1.04219E+07-2.91425E+07-1.88969E-02
 -1       446 8.89177E-03 1.06030E-04 6.61621E-03 1.04219E+07-2.91425E+07-1.88969E-02
 -1       447 1.56295E-02 1.44479E-03-2.86400E-05 3.21944E+08-5.21166E+07-3.60649E-04
 -1       449 1.56295E-02 1.44479E-03-2.86400E-05 3.21944E+08-5.21166E+07-3.60649E-04
 -1       458-3.50981E-05-3.51752E-04 2.28208E-03-1.54720E+06-6.62477E+07-2.99028E-03
 -1       460-3.50981E-05-3.51752E-04 2.28208E-03-1.54720E+06-6.62477E+07-2.99028E-03
 -1       461 2.31783E-03 4.33935E-03-5.95488E-05 7.26323E+07 6.94500E+07 5.41009E-05
 -1       463 2.31783E-03 4.33935E-03-5.95488E-05 7.26323E+07 6.94500E+07 5.41009E-05
 -1       472 2.76843E+09 2.10037E+08 4.54165E+06 2.91984E+08-2.69836E+06-2.11246E+08
 -1       474 2.76843E+09 2.10037E+08 4.54165E+06 2.91984E+08-2.69836E+06-2.11246E+08
 -1       475 6.26998E+07 1.25478E+07-2.95890E+05 2.70160E+07 2.20649E+07 1.20454E+06
 -1       477 6.26998E+07 1.25478E+07-2.95890E+05 2.70160E+07 2.20649E+07 1.20454E+06
 -1       478-6.26998E+07-1.25478E+07 2.95890E+05 2.70160E+07 2.20649E+07-1.20454E+06
 -1       480-6.26998E+07-1.25478E+07 2.95890E+05 2.70160E+07 2.20649E+07-1.20454E+06
 -1       481-2.76843E+09-2.10037E+08-4.54165E+06 2.91984E+08-2.69836E+06 2.11246E+08
 -1       483-2.76843E+09-2.10037E+08-4.54165E+06 2.91984E+08-2.69836E+06 2.11246E+08
 -1       484-2.24511E+09-4.19102E+07-3.95679E+05 2.64606E+08-2.62724E+06-7.04734E+07
 -1       486-2.24511E+09-4.19102E+07-3.95679E+05 2.64606E+08-2.62724E+06-7.04734E+07
 -1       487-1.19740E+09 2.38113E+07-3.16408E+05 2.49422E+08-3.78501E+06 1.99034E+06
 -1       489-1.19740E+09 2.38113E+07-3.16408E+05 2.49422E+08-3.78501E+06 1.99034E+06
 -1       490-2.02013E+08-1.86571E+07-3.10323E+05 2.32960E+08-1.36577E+06-3.33689E+07
 -1       492-2.02013E+08-1.86571E+07-3.10323E+05 2.32960E+08-1.36577E+06-3.33689E+07
 -1       493 6.94167E+08 7.34734E+06 7.47512E+05 2.02765E+08-3.63256E+06-1.58151E+07
 -1       495 6.94167E+08 7.34734E+06 7.47512E+05 2.02765E+08-3.63256E+06-1.58151E+07
 -1       496 1.46595E+09-9.81336E+06 5.56439E+05 1.71088E+08-3.64510E+06-2.36794E+07
 -1       498 1.46595E+09-9.81336E+06 5.56439E+05 1.71088E+08-3.64510E+06-2.36794E+07
 -1       499 2.07289E+09-1.16530E+06 1.30370E+06 1.24569E+08-4.93117E+06-1.91893E+07
 -1       501 2.07289E+09-1.16530E+06 1.30370E+06 1.24569E+08-4.93117E+06-1.91893E+07
 -1       502 2.49252E+09-6.74297E+06 1.15747E+06 7.89049E+07-5.88889E+06-2.04711E+07
 -1       504 2.49252E+09-6.74297E+06 1.15747E+06 7.89049E+07-5.88889E+06-2.04711E+07
 -1       505 2.70571E+09-5.13794E+06 1.53299E+06 2.58884E+07-6.93028E+06-1.89351E+07
 -1       507 2.70571E+09-5.13794E+06 1.53299E+06 2.58884E+07-6.93028E+06-1.89351E+07
 -1       508 2.70709E+09-6.65022E+06 1.32147E+06-2.43562E+07-8.25025E+06-1.86251E+07
 -1       510 2.70709E+09-6.65022E+06 1.32147E+06-2.43562E+07-8.25025E+06-1.86251E+07
 -1       511 2.50192E+09-7.04534E+06 1.39340E+06-7.34511E+07-9.36515E+06-1.77070E+07
 -1       513 2.50192E+09-7.04534E+06 1.39340E+06-7.34511E+07-9.36515E+06-1.77070E+07
 -1       514 2.10796E+09-7.55824E+06 1.05940E+06-1.15951E+08-1.08387E+07-1.70043E+07
 -1       516 2.10796E+09-7.55824E+06 1.05940E+06-1.15951E+08-1.08387E+07-1.70043E+07
 -1       517 1.55376E+09-8.24306E+06 9.09982E+05-1.50753E+08-1.20695E+07-1.62011E+07
 -1       519 1.55376E+09-8.24306E+06 9.09982E+05-1.50753E+08-1.20695E+07-1.62011E+07
 -1       520 8.77420E+08-8.62050E+06 4.74875E+05-1.75118E+08-1.35778E+07-1.54118E+07
 -1       522 8.77420E+08-8.62050E+06 4.74875E+05-1.75118E+08-1.35778E+07-1.54118E+07
 -1       523 1.24050E+08-9.21312E+06 1.99618E+05-1.87984E+08-1.48475E+07-1.46346E+07
 -1       525 1.24050E+08-9.21312E+06 1.99618E+05-1.87984E+08-1.48475E+07-1.46346E+07
 -1       526-6.56937E+08-9.59935E+06-2.63325E+05-1.88557E+08-1.62750E+07-1.38438E+07
 -1       528-6.56937E+08-9.59935E+06-2.63325E+05-1.88557E+08-1.62750E+07-1.38438E+07
 -1       529-1.41509E+09-1.00800E+07-5.59750E+05-1.77020E+08-1.74603E+07-1.30821E+07
 -1       531-1.41509E+09-1.00800E+07-5.59750E+05-1.77020E+08-1.74603E+07-1.30821E+07
 -1       532-2.10213E+09-1.04629E+07-9.58226E+05-1.54297E+08-1.86892E+07-1.23062E+07
 -1       534-2.10213E+09-1.04629E+07-9.58226E+05-1.54297E+08-1.86892E+07-1.23062E+07
 -1       535-2.67518E+09-1.08683E+07-1.17814E+06-1.22053E+08-1.96653E+07-1.15491E+07
 -1       537-2.67518E+09-1.08683E+07-1.17814E+06-1.22053E+08-1.96653E+07-1.15491E+07
 -1       538-3.09963E+09-1.12237E+07-1.43145E+06-8.26264E+07-2.05972E+07-1.07728E+07
 -1       540-3.09963E+09-1.12237E+07-1.43145E+06-8.26264E+07-2.05972E+07-1.07728E+07
 -1       541-3.35154E+09-1.15805E+07-1.50483E+06-3.88288E+07-2.12718E+07-9.99510E+06
 -1       543-3.35154E+09-1.15805E+07-1.50483E+06-3.88288E+07-2.12718E+07-9.99510E+06
 -1       544-3.41938E+09-1.18907E+07-1.56828E+06 6.13838E+06-2.18530E+07-9.18462E+06
 -1       546-3.41938E+09-1.18907E+07-1.56828E+06 6.13838E+06-2.18530E+07-9.18462E+06
 -1       547-3.30513E+09-1.22126E+07-1.46922E+06 4.89739E+07-2.21919E+07-8.35362E+06
 -1       549-3.30513E+09-1.22126E+07-1.46922E+06 4.89739E+07-2.21919E+07-8.35362E+06
 -1       550-3.02439E+09-1.24528E+07-1.34922E+06 8.63534E+07-2.24318E+07-7.46705E+06
 -1       552-3.02439E+09-1.24528E+07-1.34922E+06 8.63534E+07-2.24318E+07-7.46705E+06
 -1       553-2.60607E+09-1.27660E+07-1.10148E+06 1.15209E+08-2.24751E+07-6.56037E+06
 -1       555-2.60607E+09-1.27660E+07-1.10148E+06 1.15209E+08-2.24751E+07-6.56037E+06
 -1       556-2.09083E+09-1.28523E+07-8.60118E+05 1.32891E+08-2.24546E+07-5.54776E+06
 -1       558-2.09083E+09-1.28523E+07-8.60118E+05 1.32891E+08-2.24546E+07-5.54776E+06
 -1       559-1.52966E+09-1.32736E+07-5.29182E+05 1.37068E+08-2.23257E+07-4.59558E+06
 -1       561-1.52966E+09-1.32736E+07-5.29182E+05 1.37068E+08-2.23257E+07-4.59558E+06
 -1       562-9.81124E+08-1.30083E+07-2.77001E+05 1.26310E+08-2.21949E+07-3.35448E+06
 -1       564-9.81124E+08-1.30083E+07-2.77001E+05 1.26310E+08-2.21949E+07-3.35448E+06
 -1       565-5.09174E+08-1.35474E+07 4.03723E+04 9.98645E+07-2.21036E+07-2.57199E+06
 -1       567-5.09174E+08-1.35474E+07 4.03723E+04 9.98645E+07-2.21036E+07-2.57199E+06
 -1       568-1.81709E+08-1.38245E+07 1.89659E+05 5.48241E+07-2.20485E+07-7.09837E+05
 -1       570-1.81709E+08-1.38245E+07 1.89659E+05 5.48241E+07-2.20485E+07-7.09837E+05
 -1       571-5.24096E+07-3.56315E+07-6.55106E+04 4.98242E+07-4.57575E+07 9.16361E+05
 -1       573-5.24096E+07-3.56315E+07-6.55106E+04 4.98242E+07-4.57575E+07 9.16361E+05
 -1       574-1.69121E-02-1.71565E-03-3.14713E-05 5.20248E+08 2.37002E+07-2.85760E-04
 -1       576-1.69121E-02-1.71565E-03-3.14713E-05 5.20248E+08 2.37002E+07-2.85760E-04
 -1       577-1.24303E-02 5.40538E-05 7.32335E-03-1.04339E+07 2.88264E+07-3.19980E-02
 -1       579-1.24303E-02 5.40538E-05 7.32335E-03-1.04339E+07 2.88264E+07-3.19980E-02
 -1       588-9.80141E-03-2.34142E-04-5.47469E-05 5.86986E+08-9.59590E+06 1.76260E-04
 -1       590-9.80141E-03-2.34142E-04-5.47469E-05 5.86986E+08-9.59590E+06 1.76260E-04
 -1       591-7.62476E-03 6.21650E-05 1.42241E-02-2.62939E+07 1.65033E+07-2.85423E-02
 -1       593-7.62476E-03 6.21650E-05 1.42241E-02-2.62939E+07 1.65033E+07-2.85423E-02
 -1       602-8.83291E-03-3.23066E-04-5.19641E-05 4.98471E+08-8.28997E+06-1.79974E-04
 -1       604-8.83291E-03-3.23066E-04-5.19641E-05 4.98471E+08-8.28997E+06-1.79974E-04
 -1       605-8.18529E-03-6.94388E-05 4.12633E-03-1.80754E+07 1.55669E+07-2.41726E-02
 -1       607-8.18529E-03-6.94388E-05 4.12633E-03-1.80754E+07 1.55669E+07-2.41726E-02
 -1       616-5.61316E-03-1.40600E-04-1.71736E-06 4.66634E+08-1.24458E+07 1.82837E-05
 -1       618-5.61316E-03-1.40600E-04-1.71736E-06 4.66634E+08-1.24458E+07 1.82837E-05
 -1       619-6.58529E-03-2.59295E-04-1.12405E-02-2.10450E+07 2.54620E+07-2.48433E-02
 -1       621-6.58529E-03-2.59295E-04-1.12405E-02-2.10450E+07 2.54620E+07-2.48433E-02
 -1       630 4.10697E-03-9.55679E-04 1.99899E-05 3.69922E+08-1.71209E+07-1.22599E-05
 -1       632 4.10697E-03-9.55679E-04 1.99899E-05 3.69922E+08-1.71209E+07-1.22599E-05
 -1       633 1.53566E-03-1.47975E-04-1.39777E-02-1.98790E+07 2.76982E+07-2.87243E-02
 -1       635 1.53566E-03-1.47975E-04-1.39777E-02-1.98790E+07 2.76982E+07-2.87243E-02
 -1       644 1.41859E-02-1.05532E-03-1.20468E-04 2.84691E+08-1.90425E+07 1.55174E-04
 -1       646 1.41859E-02-1.05532E-03-1.20468E-04 2.84691E+08-1.90425E+07 1.55174E-04
 -1       647 1.13015E-02 1.15772E-04-1.24002E-03-1.88127E+07 3.39563E+07-2.99187E-02
 -1       649 1.13015E-02 1.15772E-04-1.24002E-03-1.88127E+07 3.39563E+07-2.99187E-02
 -1       658 1.78951E-02 4.39793E-04-2.05919E-04 1.71100E+08-2.37745E+07 1.24140E-04
 -1       660 1.78951E-02 4.39793E-04-2.05919E-04 1.71100E+08-2.37745E+07 1.24140E-04
 -1       661 1.52862E-02 6.04536E-04 1.28802E-02-1.92170E+07 3.72378E+07-2.28963E-02
 -1       663 1.52862E-02 6.04536E-04 1.28802E-02-1.92170E+07 3.72378E+07-2.28963E-02
 -1       672 1.42389E-02 1.97709E-03 1.15708E-04 6.03913E+07-2.62373E+07 1.81097E-04
 -1       674 1.42389E-02 1.97709E-03 1.15708E-04 6.03913E+07-2.62373E+07 1.81097E-04
 -1       675 1.14501E-02-5.52426E-05 1.11753E-02-1.74181E+07 4.03435E+07-1.31848E-02
 -1       677 1.14501E-02-5.52426E-05 1.11753E-02-1.74181E+07 4.03435E+07-1.31848E-02
 -1       686 9.33129E-03 2.76780E-03 4.09618E-04-5.54917E+07-3.06348E+07 1.36049E-04
 -1       688 9.33129E-03 2.76780E-03 4.09618E-04-5.54917E+07-3.06348E+07 1.36049E-04
 -1       689 6.93907E-03-8.99957E-04-2.24475E-04-1.76912E+07 4.23579E+07-1.23879E-02
 -1       691 6.93907E-03-8.99957E-04-2.24475E-04-1.76912E+07 4.23579E+07-1.23879E-02
 -1       700 9.36997E-03 1.11358E-03-1.64062E-05-1.62543E+08-3.36719E+07 5.22621E-05
 -1       702 9.36997E-03 1.11358E-03-1.64062E-05-1.62543E+08-3.36719E+07 5.22621E-05
 -1       703 9.31184E-03-8.19604E-04-9.11098E-04-1.60781E+07 4.31166E+07-1.84421E-02
 -1       705 9.31184E-03-8.19604E-04-9.11098E-04-1.60781E+07 4.31166E+07-1.84421E-02
 -1       714 1.39257E-02-1.74282E-03 5.85020E-05-2.58132E+08-3.78626E+07 1.07327E-04
 -1       716 1.39257E-02-1.74282E-03 5.85020E-05-2.58132E+08-3.78626E+07 1.07327E-04
 -1       717 1.55048E-02-8.57205E-04 1.12184E-02-1.59625E+07 4.32715E+07-1.71728E-02
 -1       719 1.55048E-02-8.57205E-04 1.12184E-02-1.59625E+07 4.32715E+07-1.71728E-02
 -1       728 1.79718E-02-1.65800E-03 1.94274E-04-3.35093E+08-4.12289E+07 1.34928E-04
 -1       730 1.79718E-02-1.65800E-03 1.94274E-04-3.35093E+08-4.12289E+07 1.34928E-04
 -1       731 1.90639E-02-5.50786E-04 2.16786E-02-1.46695E+07 4.22507E+07-7.50161E-03
 -1       733 1.90639E-02-5.50786E-04 2.16786E-02-1.46695E+07 4.22507E+07-7.50161E-03
 -1       742 1.92493E-02 3.46966E-04 1.49783E-04-3.89454E+08-4.52230E+07 8.64840E-05
 -1       744 1.92493E-02 3.46966E-04 1.49783E-04-3.89454E+08-4.52230E+07 8.64840E-05
 -1       745 2.05938E-02-3.19224E-04 2.28343E-02-1.42897E+07 4.09195E+07 2.65368E-03
 -1       747 2.05938E-02-3.19224E-04 2.28343E-02-1.42897E+07 4.09195E+07 2.65368E-03
 -1       756 1.71423E-02-3.91779E-05-6.37211E-05-4.18062E+08-4.86419E+07-6.02519E-06
 -1       758 1.71423E-02-3.91779E-05-6.37211E-05-4.18062E+08-4.86419E+07-6.02519E-06
 -1       759 2.08237E-02 4.58938E-04 2.00691E-02-1.32690E+07 3.88859E+07 1.04666E-02
 -1       761 2.08237E-02 4.58938E-04 2.00691E-02-1.32690E+07 3.88859E+07 1.04666E-02
 -1       770 1.27831E-02-3.16542E-03-2.04332E-04-4.19330E+08-5.23252E+07-3.91267E-05
 -1       772 1.27831E-02-3.16542E-03-2.04332E-04-4.19330E+08-5.23252E+07-3.91267E-05
 -1       773 1.72517E-02 2.37876E-04 1.89018E-02-1.27715E+07 3.69244E+07 1.55725E-02
 -1       775 1.72517E-02 2.37876E-04 1.89018E-02-1.27715E+07 3.69244E+07 1.55725E-02
 -1       784 1.16345E-02-5.68798E-03 1.27405E-06-3.93744E+08-5.55183E+07-7.01966E-05
 -1       786 1.16345E-02-5.68798E-03 1.27405E-06-3.93744E+08-5.55183E+07-7.01966E-05
 -1       787 1.38169E-02 2.20458E-06 1.82870E-02-1.19519E+07 3.48433E+07 1.72285E-02
 -1       789 1.38169E-02 2.20458E-06 1.82870E-02-1.19519E+07 3.48433E+07 1.72285E-02
 -1       798 1.35820E-02-4.36293E-03-2.64071E-04-3.43202E+08-5.87178E+07-9.17772E-06
 -1       800 1.35820E-02-4.36293E-03-2.64071E-04-3.43202E+08-5.87178E+07-9.17772E-06
 -1       801 1.31529E-02 1.77914E-04 1.42521E-02-1.14191E+07 3.32627E+07 1.62440E-02
 -1       803 1.31529E-02 1.77914E-04 1.42521E-02-1.14191E+07 3.32627E+07 1.62440E-02
 -1       812 9.86767E-03-2.64585E-04-1.60873E-04-2.71571E+08-6.14344E+07 7.06171E-05
 -1       814 9.86767E-03-2.64585E-04-1.60873E-04-2.71571E+08-6.14344E+07 7.06171E-05
 -1       815 9.33951E-03 3.12834E-05 8.17307E-03-1.07269E+07 3.20901E+07 1.17697E-02
 -1       817 9.33951E-03 3.12834E-05 8.17307E-03-1.07269E+07 3.20901E+07 1.17697E-02
 -1       826-8.23081E-04 3.19362E-03 9.28938E-05-1.83905E+08-6.39840E+07 2.94298E-06
 -1       828-8.23081E-04 3.19362E-03 9.28938E-05-1.83905E+08-6.39840E+07 2.94298E-06
 -1       829 6.78275E-04-2.24624E-04 6.34454E-03-1.01746E+07 3.17709E+07 5.66728E-03
 -1       831 6.78275E-04-2.24624E-04 6.34454E-03-1.01746E+07 3.17709E+07 5.66728E-03
 -1       840-1.26382E-02 3.99159E-03-1.88291E-04-8.65963E+07-6.60376E+07-1.88453E-05
 -1       842-1.26382E-02 3.99159E-03-1.88291E-04-8.65963E+07-6.60376E+07-1.88453E-05
 -1       843-8.74064E-03 5.51513E-04 7.00410E-03-9.52942E+06 3.22085E+07 6.85474E-03
 -1       845-8.74064E-03 5.51513E-04 7.00410E-03-9.52942E+06 3.22085E+07 6.85474E-03
 -1       854-2.18384E-02 2.13501E-03-4.40657E-04 1.33748E+07-6.78307E+07 3.65339E-05
 -1       856-2.18384E-02 2.13501E-03-4.40657E-04 1.33748E+07-6.78307E+07 3.65339E-05
 -1       857-1.67275E-02 8.33938E-04 2.72069E-03-8.92709E+06 3.36661E+07 1.14304E-02
 -1       859-1.67275E-02 8.33938E-04 2.72069E-03-8.92709E+06 3.36661E+07 1.14304E-02
 -1       868-2.69830E-02 5.65276E-04-1.37389E-05 1.08506E+08-6.91262E+07-8.80957E-05
 -1       870-2.69830E-02 5.65276E-04-1.37389E-05 1.08506E+08-6.91262E+07-8.80957E-05
 -1       871-2.19283E-02-6.51818E-05-2.04734E-04-8.24079E+06 3.59721E+07 9.46881E-03
 -1       873-2.19283E-02-6.51818E-05-2.04734E-04-8.24079E+06 3.59721E+07 9.46881E-03
 -1       882-2.94949E-02-8.75577E-04-2.25797E-04 1.91580E+08-7.01460E+07 3.33115E-05
 -1       884-2.94949E-02-8.75577E-04-2.25797E-04 1.91580E+08-7.01460E+07 3.33115E-05
 -1       885-2.33433E-02-4.25131E-05 6.18183E-03-7.54003E+06 3.92144E+07 5.57399E-03
 -1       887-2.33433E-02-4.25131E-05 6.18183E-03-7.54003E+06 3.92144E+07 5.57399E-03
 -1       896-2.78556E-02-2.54217E-03-6.44758E-04 2.55590E+08-7.06887E+07 1.39867E-04
 -1       898-2.78556E-02-2.54217E-03-6.44758E-04 2.55590E+08-7.06887E+07 1.39867E-04
 -1       899-2.04642E-02 3.51353E-05 1.44418E-02-6.71936E+06 4.31246E+07 2.80657E-03
 -1       901-2.04642E-02 3.51353E-05 1.44418E-02-6.71936E+06 4.31246E+07 2.80657E-03
 -1       910-2.24089E-02-1.81289E-03-3.23519E-04 2.94766E+08-7.10108E+07 1.54981E-04
 -1       912-2.24089E-02-1.81289E-03-3.23519E-04 2.94766E+08-7.10108E+07 1.54981E-04
 -1       913-1.47239E-02 4.78177E-05 1.92354E-02-5.88532E+06 4.76205E+07-1.04979E-03
 -1       915-1.47239E-02 4.78177E-05 1.92354E-02-5.88532E+06 4.76205E+07-1.04979E-03
 -1       924-1.83310E-02 6.00483E-04-2.03729E-04 3.03845E+08-7.08937E+07 1.33002E-04
 -1       926-1.83310E-02 6.00483E-04-2.03729E-04 3.03845E+08-7.08937E+07 1.33002E-04
 -1       927-1.05304E-02-6.64005E-04 2.40157E-02-4.83138E+06 5.23920E+07-3.01683E-03
 -1       929-1.05304E-02-6.64005E-04 2.40157E-02-4.83138E+06 5.23920E+07-3.01683E-03
 -1       938-1.71646E-02 5.64395E-04-7.70241E-05 2.79999E+08-7.06553E+07 9.24654E-05
 -1       940-1.71646E-02 5.64395E-04-7.70241E-05 2.79999E+08-7.06553E+07 9.24654E-05
 -1       941-8.20058E-03 4.11536E-05 2.80387E-02-3.87264E+06 5.71199E+07-2.57400E-03
 -1       943-8.20058E-03 4.11536E-05 2.80387E-02-3.87264E+06 5.71199E+07-2.57400E-03
 -1       952-1.61724E-02-2.35591E-03-1.01514E-04 2.19079E+08-7.00898E+07 7.87607E-05
 -1       954-1.61724E-02-2.35591E-03-1.01514E-04 2.19079E+08-7.00898E+07 7.87607E-05
 -1       955-6.91279E-03 6.41666E-04 2.42256E-02-2.47148E+06 6.15872E+07-1.92708E-03
 -1       957-6.91279E-03 6.41666E-04 2.42256E-02-2.47148E+06 6.15872E+07-1.92708E-03
 -1       966-1.12685E-02-3.11851E-03-5.16597E-04 1.25450E+08-6.94442E+07-2.18488E-06
 -1       968-1.12685E-02-3.11851E-03-5.16597E-04 1.25450E+08-6.94442E+07-2.18488E-06
 -1       969-4.67668E-03 6.70372E-04 1.53191E-02-1.48133E+06 6.49741E+07-6.46443E-04
 -1       971-4.67668E-03 6.70372E-04 1.53191E-02-1.48133E+06 6.49741E+07-6.46443E-04
 -1       980-1.78253E+09-5.94846E+07 3.30472E+05 3.06964E+08 2.74075E+07-9.79818E+07
 -1       982-1.78253E+09-5.94846E+07 3.30472E+05 3.06964E+08 2.74075E+07-9.79818E+07
 -1       983 5.24096E+07 3.56315E+07 6.55106E+04 4.98242E+07-4.57575E+07-9.16361E+05
 -1       985 5.24096E+07 3.56315E+07 6.55106E+04 4.98242E+07-4.57575E+07-9.16361E+05
 -1       986 2.24511E+09 4.19102E+07 3.95679E+05 2.64606E+08-2.62724E+06 7.04734E+07
 -1       988 2.24511E+09 4.19102E+07 3.95679E+05 2.64606E+08-2.62724E+06 7.04734E+07
 -1       989 1.19740E+09-2.38113E+07 3.16408E+05 2.49422E+08-3.78501E+06-1.99034E+06
 -1       991 1.19740E+09-2.38113E+07 3.16408E+05 2.49422E+08-3.78501E+06-1.99034E+06
 -1       992 2.02013E+08 1.86571E+07 3.10323E+05 2.32960E+08-1.36577E+06 3.33689E+07
 -1       994 2.02013E+08 1.86571E+07 3.10323E+05 2.32960E+08-1.36577E+06 3.33689E+07
 -1       995-6.94167E+08-7.34734E+06-7.47512E+05 2.02765E+08-3.63256E+06 1.58151E+07
 -1       997-6.94167E+08-7.34734E+06-7.47512E+05 2.02765E+08-3.63256E+06 1.58151E+07
 -1       998-1.46595E+09 9.81336E+06-5.56439E+05 1.71088E+08-3.64510E+06 2.36794E+07
 -1      1000-1.46595E+09 9.81336E+06-5.56439E+05 1.71088E+08-3.64510E+06 2.36794E+07
 -1      1001-2.07289E+09 1.16530E+06-1.30370E+06 1.24569E+08-4.93117E+06 1.91893E+07
 -1      1003-2.07289E+09 1.16530E+06-1.30370E+06 1.24569E+08-4.93117E+06 1.91893E+07
 -1      1004-2.49252E+09 6.74297E+06-1.15747E+06 7.89049E+07-5.88889E+06 2.04711E+07
 -1      1006-2.49252E+09 6.74297E+06-1.15747E+06 7.89049E+07-5.88889E+06 2.04711E+07
 -1      1007-2.70571E+09 5.13794E+06-1.53299E+06 2.58884E+07-6.93028E+06 1.89351E+07
 -1      1009-2.70571E+09 5.13794E+06-1.53299E+06 2.58884E+07-6.93028E+06 1.89351E+07
 -1      1010-2.70709E+09 6.65022E+06-1.32147E+06-2.43562E+07-8.25025E+06 1.86251E+07
 -1      1012-2.70709E+09 6.65022E+06-1.32147E+06-2.43562E+07-8.25025E+06 1.86251E+07
 -1      1013-2.50192E+09 7.04534E+06-1.39340E+06-7.34511E+07-9.36515E+06 1.77070E+07
 -1      1015-2.50192E+09 7.04534E+06-1.39340E+06-7.34511E+07-9.36515E+06 1.77070E+07
 -1      1016-2.10796E+09 7.55824E+06-1.05940E+06-1.15951E+08-1.08387E+07 1.70043E+07
 -1      1018-2.10796E+09 7.55824E+06-1.05940E+06-1.15951E+08-1.08387E+07 1.70043E+07
 -1      1019-1.55376E+09 8.24306E+06-9.09982E+05-1.50753E+08-1.20695E+07 1.62011E+07
 -1      1021-1.55376E+09 8.24306E+06-9.09982E+05-1.50753E+08-1.20695E+07 1.62011E+07
 -1      1022-8.77420E+08 8.62050E+06-4.74875E+05-1.75118E+08-1.35778E+07 1.54118E+07
 -1      1024-8.77420E+08 8.62050E+06-4.74875E+05-1.75118E+08-1.35778E+07 1.54118E+07
 -1      1025-1.24050E+08 9.21312E+06-1.99618E+05-1.87984E+08-1.48475E+07 1.46346E+07
 -1      1027-1.24050E+08 9.21312E+06-1.99618E+05-1.87984E+08-1.48475E+07 1.46346E+07
 -1      1028 6.56937E+08 9.59935E+06 2.63325E+05-1.88557E+08-1.62750E+07 1.38438E+07
 -1      1030 6.56937E+08 9.59935E+06 2.63325E+05-1.88557E+08-1.62750E+07 1.38438E+07
 -1      1031 1.41509E+09 1.00800E+07 5.59750E+05-1.77020E+08-1.74603E+07 1.30821E+07
 -1      1033 1.41509E+09 1.00800E+07 5.59750E+05-1.77020E+08-1.74603E+07 1.30821E+07
 -1      1034 2.10213E+09 1.04629E+07 9.58226E+05-1.54297E+08-1.86892E+07 1.23062E+07
 -1      1036 2.10213E+09 1.04629E+07 9.58226E+05-1.54297E+08-1.86892E+07 1.23062E+07
 -1      1037 2.67518E+09 1.08683E+07 1.17814E+06-1.22053E+08-1.96653E+07 1.15491E+07
 -1      1039 2.67518E+09 1.08683E+07 1.17814E+06-1.22053E+08-1.96653E+07 1.15491E+07
 -1      1040 3.09963E+09 1.12237E+07 1.43145E+06-8.26264E+07-2.05972E+07 1.07728E+07
 -1      1042 3.09963E+09 1.12237E+07 1.43145E+06-8.26264E+07-2.05972E+07 1.07728E+07
 -1      1043 3.35154E+09 1.15805E+07 1.50483E+06-3.88288E+07-2.12718E+07 9.99510E+06
 -1      1045 3.35154E+09 1.15805E+07 1.50483E+06-3.88288E+07-2.12718E+07 9.99510E+06
 -1      1046 3.41938E+09 1.18907E+07 1.56828E+06 6.13838E+06-2.18530E+07 9.18462E+06
 -1      1048 3.41938E+09 1.18907E+07 1.56828E+06 6.13838E+06-2.18530E+07 9.18462E+06
 -1      1049 3.30513E+09 1.22126E+07 1.46922E+06 4.89739E+07-2.21919E+07 8.35362E+06
 -1      1051 3.30513E+09 1.22126E+07 1.46922E+06 4.89739E+07-2.21919E+07 8.35362E+06
 -1      1052 3.02439E+09 1.24528E+07 1.34922E+06 8.63534E+07-2.24318E+07 7.46705E+06
 -1      1054 3.02439E+09 1.24528E+07 1.34922E+06 8.63534E+07-2.24318E+07 7.46705E+06
 -1      1055 2.60607E+09 1.27660E+07 1.10148E+06 1.15209E+08-2.24751E+07 6.56037E+06
 -1      1057 2.60607E+09 1.27660E+07 1.10148E+06 1.15209E+08-2.24751E+07 6.56037E+06
 -1      1058 2.09083E+09 1.28523E+07 8.60118E+05 1.32891E+08-2.24546E+07 5.54776E+06
 -1      1060 2.09083E+09 1.28523E+07 8.60118E+05 1.32891E+08-2.24546E+07 5.54776E+06
 -1      1061 1.52966E+09 1.32736E+07 5.29182E+05 1.37068E+08-2.23257E+07 4.59558E+06
 -1      1063 1.52966E+09 1.32736E+07 5.29182E+05 1.37068E+08-2.23257E+07 4.59558E+06
 -1      1064 9.81124E+08 1.30083E+07 2.77001E+05 1.26310E+08-2.21949E+07 3.35448E+06
 -1      1066 9.81124E+08 1.30083E+07 2.77001E+05 1.26310E+08-2.21949E+07 3.35448E+06
 -1      1067 5.09174E+08 1.35474E+07-4.03723E+04 9.98645E+07-2.21036E+07 2.57199E+06
 -1      1069 5.09174E+08 1.35474E+07-4.03723E+04 9.98645E+07-2.21036E+07 2.57199E+06
 -1      1070 1.81709E+08 1.38245E+07-1.89659E+05 5.48241E+07-2.20485E+07 7.09837E+05
 -1      1072 1.81709E+08 1.38245E+07-1.89659E+05 5.48241E+07-2.20485E+07 7.09837E+05
 -1      1073 1.78253E+09 5.94846E+07-3.30472E+05 3.06964E+08 2.74075E+07 9.79818E+07
 -1      1075 1.78253E+09 5.94846E+07-3.30472E+05 3.06964E+08 2.74075E+07 9.79818E+07
 -1      1076-1.00329E-02 1.84116E-06 2.48848E-03 1.66836E+08-4.04542E+06-3.10411E-02
 -1      1078-1.00329E-02 1.84116E-06 2.48848E-03 1.66836E+08-4.04542E+06-3.10411E-02
 -1      1079-2.36029E-03-2.80006E-06 5.33330E-03 3.23250E+08 9.22605E-05-2.85127E-02
 -1      1081-2.36029E-03-2.80006E-06 5.33330E-03 3.23250E+08 9.22605E-05-2.85127E-02
 -1      1082 3.73002E-03-7.75653E-06 6.03629E-03 1.66836E+08 4.04542E+06-2.27479E-02
 -1      1084 3.73002E-03-7.75653E-06 6.03629E-03 1.66836E+08 4.04542E+06-2.27479E-02
 -1      1085 8.11234E-03-2.49553E-05 6.10415E-03-1.04339E+07-2.88264E+07-2.24602E-02
 -1      1087 8.11234E-03-2.49553E-05 6.10415E-03-1.04339E+07-2.88264E+07-2.24602E-02
 -1      1088 1.40660E-02 7.04795E-04-3.67314E-06 5.20248E+08-2.37002E+07-3.69186E-05
 -1      1090 1.40660E-02 7.04795E-04-3.67314E-06 5.20248E+08-2.37002E+07-3.69186E-05
 -1      1099 5.70148E-03-1.01597E-04 2.23658E-03-2.62939E+07-1.65033E+07-2.77197E-02
 -1      1101 5.70148E-03-1.01597E-04 2.23658E-03-2.62939E+07-1.65033E+07-2.77197E-02
 -1      1102 8.27644E-03 4.56469E-04 7.19614E-05 5.86986E+08 9.59590E+06 7.69217E-05
 -1      1104 8.27644E-03 4.56469E-04 7.19614E-05 5.86986E+08 9.59590E+06 7.69217E-05
 -1      1113 3.46340E-05 2.09652E-04-3.45472E-03-1.80754E+07-1.55669E+07-2.89018E-02
 -1      1115 3.46340E-05 2.09652E-04-3.45472E-03-1.80754E+07-1.55669E+07-2.89018E-02
 -1      1116-6.06675E-04-4.77254E-04-2.12211E-05 4.98471E+08 8.28997E+06 5.22621E-05
 -1      1118-6.06675E-04-4.77254E-04-2.12211E-05 4.98471E+08 8.28997E+06 5.22621E-05
 -1      1127-7.63157E-03 2.19547E-04-9.35576E-03-2.10450E+07-2.54620E+07-2.74439E-02
 -1      1129-7.63157E-03 2.19547E-04-9.35576E-03-2.10450E+07-2.54620E+07-2.74439E-02
 -1      1130-8.29107E-03-1.38966E-03-3.98997E-05 4.66634E+08 1.24458E+07 1.58397E-04
 -1      1132-8.29107E-03-1.38966E-03-3.98997E-05 4.66634E+08 1.24458E+07 1.58397E-04
 -1      1141-1.40775E-02-3.33060E-04-1.74195E-02-1.98790E+07-2.76982E+07-2.55763E-02
 -1      1143-1.40775E-02-3.33060E-04-1.74195E-02-1.98790E+07-2.76982E+07-2.55763E-02
 -1      1144-1.31315E-02 8.17753E-04 3.00817E-05 3.69922E+08 1.71209E+07 5.14220E-05
 -1      1146-1.31315E-02 8.17753E-04 3.00817E-05 3.69922E+08 1.71209E+07 5.14220E-05
 -1      1155-1.70928E-02-7.59374E-04-2.11877E-02-1.88127E+07-3.39563E+07-1.88641E-02
 -1      1157-1.70928E-02-7.59374E-04-2.11877E-02-1.88127E+07-3.39563E+07-1.88641E-02
 -1      1158-1.37235E-02 2.19382E-03 2.47203E-04 2.84691E+08 1.90425E+07-2.08747E-05
 -1      1160-1.37235E-02 2.19382E-03 2.47203E-04 2.84691E+08 1.90425E+07-2.08747E-05
 -1      1169-1.45117E-02 1.67612E-04-1.21300E-02-1.92170E+07-3.72378E+07-9.11856E-03
 -1      1171-1.45117E-02 1.67612E-04-1.21300E-02-1.92170E+07-3.72378E+07-9.11856E-03
 -1      1172-1.05321E-02 7.81640E-04 1.97828E-04 1.71100E+08 2.37745E+07 3.04040E-05
 -1      1174-1.05321E-02 7.81640E-04 1.97828E-04 1.71100E+08 2.37745E+07 3.04040E-05
 -1      1183-1.16797E-02 3.91486E-04-7.15848E-05-1.74181E+07-4.03435E+07-8.80496E-03
 -1      1185-1.16797E-02 3.91486E-04-7.15848E-05-1.74181E+07-4.03435E+07-8.80496E-03
 -1      1186-1.06461E-02-1.31026E-04-2.46912E-05 6.03913E+07 2.62373E+07-7.13179E-05
 -1      1188-1.06461E-02-1.31026E-04-2.46912E-05 6.03913E+07 2.62373E+07-7.13179E-05
 -1      1197-1.39023E-02 4.52635E-04-4.42892E-04-1.76912E+07-4.23579E+07-1.41129E-02
 -1      1199-1.39023E-02 4.52635E-04-4.42892E-04-1.76912E+07-4.23579E+07-1.41129E-02
 -1      1200-1.65847E-02 4.37587E-04-2.22296E-04-5.54917E+07 3.06348E+07-2.79875E-04
 -1      1202-1.65847E-02 4.37587E-04-2.22296E-04-5.54917E+07 3.06348E+07-2.79875E-04
 -1      1211-1.53860E-02 7.21056E-04-6.30228E-03-1.60781E+07-4.31166E+07-1.23333E-02
 -1      1213-1.53860E-02 7.21056E-04-6.30228E-03-1.60781E+07-4.31166E+07-1.23333E-02
 -1      1214-2.02481E-02 1.74893E-03-3.06651E-04-1.62543E+08 3.36719E+07-3.03133E-04
 -1      1216-2.02481E-02 1.74893E-03-3.06651E-04-1.62543E+08 3.36719E+07-3.03133E-04
 -1      1225-1.27733E-02-5.24852E-04-3.27589E-03-1.59625E+07-4.32715E+07-5.07159E-03
 -1      1227-1.27733E-02-5.24852E-04-3.27589E-03-1.59625E+07-4.32715E+07-5.07159E-03
 -1      1228-1.94833E-02 2.52841E-03-4.50239E-05-2.58132E+08 3.78626E+07-3.41734E-04
 -1      1230-1.94833E-02 2.52841E-03-4.50239E-05-2.58132E+08 3.78626E+07-3.41734E-04
 -1      1239-1.21936E-02-1.01615E-03 8.49558E-03-1.46695E+07-4.22507E+07 3.97538E-04
 -1      1241-1.21936E-02-1.01615E-03 8.49558E-03-1.46695E+07-4.22507E+07 3.97538E-04
 -1      1242-2.16559E-02 1.58984E-03 6.89179E-06-3.35093E+08 4.12289E+07-2.84988E-04
 -1      1244-2.16559E-02 1.58984E-03 6.89179E-06-3.35093E+08 4.12289E+07-2.84988E-04
 -1      1253-1.53473E-02-7.87063E-04 1.94073E-02-1.42897E+07-4.09195E+07 1.77123E-03
 -1      1255-1.53473E-02-7.87063E-04 1.94073E-02-1.42897E+07-4.09195E+07 1.77123E-03
 -1      1256-2.66631E-02 1.49168E-03-2.88039E-05-3.89454E+08 4.52230E+07-2.01307E-04
 -1      1258-2.66631E-02 1.49168E-03-2.88039E-05-3.89454E+08 4.52230E+07-2.01307E-04
 -1      1267-1.75713E-02-3.06846E-04 2.19109E-02-1.32690E+07-3.88859E+07 3.50521E-03
 -1      1269-1.75713E-02-3.06846E-04 2.19109E-02-1.32690E+07-3.88859E+07 3.50521E-03
 -1      1270-2.79705E-02 3.30821E-03 1.35265E-04-4.18062E+08 4.86419E+07-2.05509E-04
 -1      1272-2.79705E-02 3.30821E-03 1.35265E-04-4.18062E+08 4.86419E+07-2.05509E-04
 -1      1281-1.55719E-02-4.70145E-04 1.99111E-02-1.27715E+07-3.69244E+07 9.68960E-03
 -1      1283-1.55719E-02-4.70145E-04 1.99111E-02-1.27715E+07-3.69244E+07 9.68960E-03
 -1      1284-2.37676E-02 2.96312E-03 3.58142E-04-4.19330E+08 5.23252E+07-4.08776E-05
 -1      1286-2.37676E-02 2.96312E-03 3.58142E-04-4.19330E+08 5.23252E+07-4.08776E-05
 -1      1295-9.52190E-03-6.37964E-04 2.09956E-02-1.19519E+07-3.48433E+07 1.29036E-02
 -1      1297-9.52190E-03-6.37964E-04 2.09956E-02-1.19519E+07-3.48433E+07 1.29036E-02
 -1      1298-1.63624E-02 1.02710E-04 2.33926E-04-3.93744E+08 5.55183E+07 5.98980E-05
 -1      1300-1.63624E-02 1.02710E-04 2.33926E-04-3.93744E+08 5.55183E+07 5.98980E-05
 -1      1309-2.63191E-03-5.48627E-05 1.89247E-02-1.14191E+07-3.32627E+07 7.76502E-03
 -1      1311-2.63191E-03-5.48627E-05 1.89247E-02-1.14191E+07-3.32627E+07 7.76502E-03
 -1      1312-7.56437E-03-8.57450E-04 3.73565E-04-3.43202E+08 5.87178E+07 4.55417E-07
 -1      1314-7.56437E-03-8.57450E-04 3.73565E-04-3.43202E+08 5.87178E+07 4.55417E-07
 -1      1323 4.13890E-03 4.59300E-04 9.28259E-03-1.07269E+07-3.20901E+07 2.65634E-03
 -1      1325 4.13890E-03 4.59300E-04 9.28259E-03-1.07269E+07-3.20901E+07 2.65634E-03
 -1      1326 6.08265E-04-1.83485E-03 4.65065E-05-2.71571E+08 6.14344E+07 2.52156E-06
 -1      1328 6.08265E-04-1.83485E-03 4.65065E-05-2.71571E+08 6.14344E+07 2.52156E-06
 -1      1337 7.83125E-03 7.30407E-04 1.98962E-04-1.01746E+07-3.17709E+07 2.77969E-03
 -1      1339 7.83125E-03 7.30407E-04 1.98962E-04-1.01746E+07-3.17709E+07 2.77969E-03
 -1      1340 4.73547E-03-4.78835E-03-4.12837E-04-1.83905E+08 6.39840E+07 1.29324E-04
 -1      1342 4.73547E-03-4.78835E-03-4.12837E-04-1.83905E+08 6.39840E+07 1.29324E-04
 -1      1351 5.94293E-03 2.21224E-06-7.02358E-03-9.52942E+06-3.22085E+07 4.88149E-03
 -1      1353 5.94293E-03 2.21224E-06-7.02358E-03-9.52942E+06-3.22085E+07 4.88149E-03
 -1      1354 4.49568E-03-5.15567E-03-2.60919E-04-8.65963E+07 6.60376E+07 5.85318E-05
 -1      1356 4.49568E-03-5.15567E-03-2.60919E-04-8.65963E+07 6.60376E+07 5.85318E-05
 -1      1365 3.52887E-03-4.25602E-04-1.06985E-02-8.92709E+06-3.36661E+07 9.60192E-03
 -1      1367 3.52887E-03-4.25602E-04-1.06985E-02-8.92709E+06-3.36661E+07 9.60192E-03
 -1      1368 3.83395E-03-2.37232E-03 7.11232E-05 1.33748E+07 6.78307E+07-1.76822E-04
 -1      1370 3.83395E-03-2.37232E-03 7.11232E-05 1.33748E+07 6.78307E+07-1.76822E-04
 -1      1379 3.21529E-03 1.76520E-04 5.59446E-04-8.24079E+06-3.59721E+07 1.63269E-02
 -1      1381 3.21529E-03 1.76520E-04 5.59446E-04-8.24079E+06-3.59721E+07 1.63269E-02
 -1      1382 3.48306E-03-2.07897E-03 9.23872E-07 1.08506E+08 6.91262E+07-1.16539E-04
 -1      1384 3.48306E-03-2.07897E-03 9.23872E-07 1.08506E+08 6.91262E+07-1.16539E-04
 -1      1393 2.29620E-03-9.63272E-06 2.03647E-02-7.54003E+06-3.92144E+07 1.33596E-02
 -1      1395 2.29620E-03-9.63272E-06 2.03647E-02-7.54003E+06-3.92144E+07 1.33596E-02
 -1      1396 2.14094E-03-3.02455E-03 1.92240E-04 1.91580E+08 7.01460E+07-1.91919E-04
 -1      1398 2.14094E-03-3.02455E-03 1.92240E-04 1.91580E+08 7.01460E+07-1.91919E-04
 -1      1407 1.10605E-03-6.26700E-04 2.60260E-02-6.71936E+06-4.31246E+07 2.56300E-04
 -1      1409 1.10605E-03-6.26700E-04 2.60260E-02-6.71936E+06-4.31246E+07 2.56300E-04
 -1      1410 9.02057E-04-8.94636E-04 1.76430E-04 2.55590E+08 7.06887E+07-1.19918E-04
 -1      1412 9.02057E-04-8.94636E-04 1.76430E-04 2.55590E+08 7.06887E+07-1.19918E-04
 -1      1421 1.42665E-03-2.93382E-04 1.53146E-02-5.88532E+06-4.76205E+07-6.40127E-03
 -1      1423 1.42665E-03-2.93382E-04 1.53146E-02-5.88532E+06-4.76205E+07-6.40127E-03
 -1      1424 1.45543E-03 1.49619E-03 5.89341E-05 2.94766E+08 7.10108E+07-9.95845E-05
 -1      1426 1.45543E-03 1.49619E-03 5.89341E-05 2.94766E+08 7.10108E+07-9.95845E-05
 -1      1435 3.67631E-03 2.27459E-04 8.89467E-03-4.83138E+06-5.23920E+07-1.32572E-03
 -1      1437 3.67631E-03 2.27459E-04 8.89467E-03-4.83138E+06-5.23920E+07-1.32572E-03
 -1      1438 3.41538E-03 1.60752E-03-1.72265E-04 3.03845E+08 7.08937E+07 1.40515E-04
 -1      1440 3.41538E-03 1.60752E-03-1.72265E-04 3.03845E+08 7.08937E+07 1.40515E-04
 -1      1449 6.65978E-03-3.84643E-04 1.36630E-02-3.87264E+06-5.71199E+07 7.63551E-04
 -1      1451 6.65978E-03-3.84643E-04 1.36630E-02-3.87264E+06-5.71199E+07 7.63551E-04
 -1      1452 5.71349E-03 7.57735E-04-6.07312E-04 2.79999E+08 7.06553E+07 1.49588E-04
 -1      1454 5.71349E-03 7.57735E-04-6.07312E-04 2.79999E+08 7.06553E+07 1.49588E-04
 -1      1463 6.45453E-03-5.89724E-04 1.52053E-02-2.47148E+06-6.15872E+07-4.80294E-03
 -1      1465 6.45453E-03-5.89724E-04 1.52053E-02-2.47148E+06-6.15872E+07-4.80294E-03
 -1      1466 6.36144E-03-2.21087E-04-2.97397E-04 2.19079E+08 7.00898E+07-6.58614E-05
 -1      1468 6.36144E-03-2.21087E-04-2.97397E-04 2.19079E+08 7.00898E+07-6.58614E-05
 -1      1477 2.51312E-03-2.15747E-04 7.64791E-03-1.48133E+06-6.49741E+07-5.39882E-03
 -1      1479 2.51312E-03-2.15747E-04 7.64791E-03-1.48133E+06-6.49741E+07-5.39882E-03
 -1      1480 4.00670E-03 1.73471E-03-1.67558E-04 1.25450E+08 6.94442E+07 1.10951E-04
 -1      1482 4.00670E-03 1.73471E-03-1.67558E-04 1.25450E+08 6.94442E+07 1.10951E-04
 -1      1491-1.93418E-03 1.06927E-03 1.25268E-02-1.96880E+06 4.70202E+07-2.71354E-04
 -1      1493-1.93418E-03 1.06927E-03 1.25268E-02-1.96880E+06 4.70202E+07-2.71354E-04
 -1      1494-5.34633E-04 1.78310E-03 1.23847E-02-2.39041E+06 1.03347E-03-1.85815E-04
 -1      1496-5.34633E-04 1.78310E-03 1.23847E-02-2.39041E+06 1.03347E-03-1.85815E-04
 -1      1497 1.04427E-04 1.21625E-03 6.59208E-03-1.96880E+06-4.70202E+07-1.28018E-03
 -1      1499 1.04427E-04 1.21625E-03 6.59208E-03-1.96880E+06-4.70202E+07-1.28018E-03
 -1      1500 2.24511E+09 4.19102E+07 3.95679E+05 2.64606E+08 2.62724E+06-7.04734E+07
 -1      1502 2.24511E+09 4.19102E+07 3.95679E+05 2.64606E+08 2.62724E+06-7.04734E+07
 -1      1503 1.19740E+09-2.38113E+07 3.16408E+05 2.49422E+08 3.78501E+06 1.99034E+06
 -1      1505 1.19740E+09-2.38113E+07 3.16408E+05 2.49422E+08 3.78501E+06 1.99034E+06
 -1      1506 2.02013E+08 1.86571E+07 3.10323E+05 2.32960E+08 1.36577E+06-3.33689E+07
 -1      1508 2.02013E+08 1.86571E+07 3.10323E+05 2.32960E+08 1.36577E+06-3.33689E+07
 -1      1509-6.94167E+08-7.34734E+06-7.47512E+05 2.02765E+08 3.63256E+06-1.58151E+07
 -1      1511-6.94167E+08-7.34734E+06-7.47512E+05 2.02765E+08 3.63256E+06-1.58151E+07
 -1      1512-1.46595E+09 9.81336E+06-5.56439E+05 1.71088E+08 3.64510E+06-2.36794E+07
 -1      1514-1.46595E+09 9.81336E+06-5.56439E+05 1.71088E+08 3.64510E+06-2.36794E+07
 -1      1515-2.07289E+09 1.16530E+06-1.30370E+06 1.24569E+08 4.93117E+06-1.91893E+07
 -1      1517-2.07289E+09 1.16530E+06-1.30370E+06 1.24569E+08 4.93117E+06-1.91893E+07
 -1      1518-2.49252E+09 6.74297E+06-1.15747E+06 7.89049E+07 5.88889E+06-2.04711E+07
 -1      1520-2.49252E+09 6.74297E+06-1.15747E+06 7.89049E+07 5.88889E+06-2.04711E+07
 -1      1521-2.70571E+09 5.13794E+06-1.53299E+06 2.58884E+07 6.93028E+06-1.89351E+07
 -1      1523-2.70571E+09 5.13794E+06-1.53299E+06 2.58884E+07 6.93028E+06-1.89351E+07
 -1      1524-2.70709E+09 6.65022E+06-1.32147E+06-2.43562E+07 8.25025E+06-1.86251E+07
 -1      1526-2.70709E+09 6.65022E+06-1.32147E+06-2.43562E+07 8.25025E+06-1.86251E+07
 -1      1527-2.50192E+09 7.04534E+06-1.39340E+06-7.34511E+07 9.36515E+06-1.77070E+07
 -1      1529-2.50192E+09 7.04534E+06-1.39340E+06-7.34511E+07 9.36515E+06-1.77070E+07
 -1      1530-2.10796E+09 7.55824E+06-1.05940E+06-1.15951E+08 1.08387E+07-1.70043E+07
 -1      1532-2.10796E+09 7.55824E+06-1.05940E+06-1.15951E+08 1.08387E+07-1.70043E+07
 -1      1533-1.55376E+09 8.24306E+06-9.09982E+05-1.50753E+08 1.20695E+07-1.62011E+07
 -1      1535-1.55376E+09 8.24306E+06-9.09982E+05-1.50753E+08 1.20695E+07-1.62011E+07
 -1      1536-8.77420E+08 8.62050E+06-4.74875E+05-1.75118E+08 1.35778E+07-1.54118E+07
 -1      1538-8.77420E+08 8.62050E+06-4.74875E+05-1.75118E+08 1.35778E+07-1.54118E+07
 -1      1539-1.24050E+08 9.21312E+06-1.99618E+05-1.87984E+08 1.48475E+07-1.46346E+07
 -1      1541-1.24050E+08 9.21312E+06-1.99618E+05-1.87984E+08 1.48475E+07-1.46346E+07
 -1      1542 6.56937E+08 9.59935E+06 2.63325E+05-1.88557E+08 1.62750E+07-1.38438E+07
 -1      1544 6.56937E+08 9.59935E+06 2.63325E+05-1.88557E+08 1.62750E+07-1.38438E+07
 -1      1545 1.41509E+09 1.00800E+07 5.59750E+05-1.77020E+08 1.74603E+07-1.30821E+07
 -1      1547 1.41509E+09 1.00800E+07 5.59750E+05-1.77020E+08 1.74603E+07-1.30821E+07
 -1      1548 2.10213E+09 1.04629E+07 9.58226E+05-1.54297E+08 1.86892E+07-1.23062E+07
 -1      1550 2.10213E+09 1.04629E+07 9.58226E+05-1.54297E+08 1.86892E+07-1.23062E+07
 -1      1551 2.67518E+09 1.08683E+07 1.17814E+06-1.22053E+08 1.96653E+07-1.15491E+07
 -1      1553 2.67518E+09 1.08683E+07 1.17814E+06-1.22053E+08 1.96653E+07-1.15491E+07
 -1      1554 3.09963E+09 1.12237E+07 1.43145E+06-8.26264E+07 2.05972E+07-1.07728E+07
 -1      1556 3.09963E+09 1.12237E+07 1.43145E+06-8.26264E+07 2.05972E+07-1.07728E+07
 -1      1557 3.35154E+09 1.15805E+07 1.50483E+06-3.88288E+07 2.12718E+07-9.99510E+06
 -1      1559 3.35154E+09 1.15805E+07 1.50483E+06-3.88288E+07 2.12718E+07-9.99510E+06
 -1      1560 3.41938E+09 1.18907E+07 1.56828E+06 6.13838E+06 2.18530E+07-9.18462E+06
 -1      1562 3.41938E+09 1.18907E+07 1.56828E+06 6.13838E+06 2.18530E+07-9.18462E+06
 -1      1563 3.30513E+09 1.22126E+07 1.46922E+06 4.89739E+07 2.21919E+07-8.35362E+06
 -1      1565 3.30513E+09 1.22126E+07 1.46922E+06 4.89739E+07 2.21919E+07-8.35362E+06
 -1      1566 3.02439E+09 1.24528E+07 1.34922E+06 8.63534E+07 2.24318E+07-7.46705E+06
 -1      1568 3.02439E+09 1.24528E+07 1.34922E+06 8.63534E+07 2.24318E+07-7.46705E+06
 -1      1569 2.60607E+09 1.27660E+07 1.10148E+06 1.15209E+08 2.24751E+07-6.56037E+06
 -1      1571 2.60607E+09 1.27660E+07 1.10148E+06 1.15209E+08 2.24751E+07-6.56037E+06
 -1      1572 2.09083E+09 1.28523E+07 8.60118E+05 1.32891E+08 2.24546E+07-5.54776E+06
 -1      1574 2.09083E+09 1.28523E+07 8.60118E+05 1.32891E+08 2.24546E+07-5.54776E+06
 -1      1575 1.52966E+09 1.32736E+07 5.29182E+05 1.37068E+08 2.23257E+07-4.59558E+06
 -1      1577 1.52966E+09 1.32736E+07 5.29182E+05 1.37068E+08 2.23257E+07-4.59558E+06
 -1      1578 9.81124E+08 1.30083E+07 2.77001E+05 1.26310E+08 2.21949E+07-3.35448E+06
 -1      1580 9.81124E+08 1.30083E+07 2.77001E+05 1.26310E+08 2.21949E+07-3.35448E+06
 -1      1581 5.09174E+08 1.35474E+07-4.03723E+04 9.98645E+07 2.21036E+07-2.57199E+06
 -1      1583 5.09174E+08 1.35474E+07-4.03723E+04 9.98645E+07 2.21036E+07-2.57199E+06
 -1      1584 1.81709E+08 1.38245E+07-1.89659E+05 5.48241E+07 2.20485E+07-7.09837E+05
 -1      1586 1.81709E+08 1.38245E+07-1.89659E+05 5.48241E+07 2.20485E+07-7.09837E+05
 -1      1587 5.24096E+07 3.56315E+07 6.55106E+04 4.98242E+07 4.57575E+07 9.16361E+05
 -1      1589 5.24096E+07 3.56315E+07 6.55106E+04 4.98242E+07 4.57575E+07 9.16361E+05
 -1      1590 1.78253E+09 5.94846E+07-3.30472E+05 3.06964E+08-2.74075E+07-9.79818E+07
 -1      1592 1.78253E+09 5.94846E+07-3.30472E+05 3.06964E+08-2.74075E+07-9.79818E+07
 -1      1593-5.24096E+07-3.56315E+07-6.55106E+04 4.98242E+07 4.57575E+07-9.16361E+05
 -1      1595-5.24096E+07-3.56315E+07-6.55106E+04 4.98242E+07 4.57575E+07-9.16361E+05
 -1      1596-2.24511E+09-4.19102E+07-3.95679E+05 2.64606E+08 2.62724E+06 7.04734E+07
 -1      1598-2.24511E+09-4.19102E+07-3.95679E+05 2.64606E+08 2.62724E+06 7.04734E+07
 -1      1599-1.19740E+09 2.38113E+07-3.16408E+05 2.49422E+08 3.78501E+06-1.99034E+06
 -1      1601-1.19740E+09 2.38113E+07-3.16408E+05 2.49422E+08 3.78501E+06-1.99034E+06
 -1      1602-2.02013E+08-1.86571E+07-3.10323E+05 2.32960E+08 1.36577E+06 3.33689E+07
 -1      1604-2.02013E+08-1.86571E+07-3.10323E+05 2.32960E+08 1.36577E+06 3.33689E+07
 -1      1605 6.94167E+08 7.34734E+06 7.47512E+05 2.02765E+08 3.63256E+06 1.58151E+07
 -1      1607 6.94167E+08 7.34734E+06 7.47512E+05 2.02765E+08 3.63256E+06 1.58151E+07
 -1      1608 1.46595E+09-9.81336E+06 5.56439E+05 1.71088E+08 3.64510E+06 2.36794E+07
 -1      1610 1.46595E+09-9.81336E+06 5.56439E+05 1.71088E+08 3.64510E+06 2.36794E+07
 -1      1611 2.07289E+09-1.16530E+06 1.30370E+06 1.24569E+08 4.93117E+06 1.91893E+07
 -1      1613 2.07289E+09-1.16530E+06 1.30370E+06 1.24569E+08 4.93117E+06 1.91893E+07
 -1      1614 2.49252E+09-6.74297E+06 1.15747E+06 7.89049E+07 5.88889E+06 2.04711E+07
 -1      1616 2.49252E+09-6.74297E+06 1.15747E+06 7.89049E+07 5.88889E+06 2.04711E+07
 -1      1617 2.70571E+09-5.13794E+06 1.53299E+06 2.58884E+07 6.93028E+06 1.89351E+07
 -1      1619 2.70571E+09-5.13794E+06 1.53299E+06 2.58884E+07 6.93028E+06 1.89351E+07
 -1      1620 2.70709E+09-6.65022E+06 1.32147E+06-2.43562E+07 8.25025E+06 1.86251E+07
 -1      1622 2.70709E+09-6.65022E+06 1.32147E+06-2.43562E+07 8.25025E+06 1.86251E+07
 -1      1623 2.50192E+09-7.04534E+06 1.39340E+06-7.34511E+07 9.36515E+06 1.77070E+07
 -1      1625 2.50192E+09-7.04534E+06 1.39340E+06-7.34511E+07 9.36515E+06 1.77070E+07
 -1      1626 2.10796E+09-7.55824E+06 1.05940E+06-1.15951E+08 1.08387E+07 1.70043E+07
 -1      1628 2.10796E+09-7.55824E+06 1.05940E+06-1.15951E+08 1.08387E+07 1.70043E+07
 -1      1629 1.55376E+09-8.24306E+06 9.09982E+05-1.50753E+08 1.20695E+07 1.62011E+07
 -1      1631 1.55376E+09-8.24306E+06 9.09982E+05-1.50753E+08 1.20695E+07 1.62011E+07
 -1      1632 8.77420E+08-8.62050E+06 4.74875E+05-1.75118E+08 1.35778E+07 1.54118E+07
 -1      1634 8.77420E+08-8.62050E+06 4.74875E+05-1.75118E+08 1.35778E+07 1.54118E+07
 -1      1635 1.24050E+08-9.21312E+06 1.99618E+05-1.87984E+08 1.48475E+07 1.46346E+07
 -1      1637 1.24050E+08-9.21312E+06 1.99618E+05-1.87984E+08 1.48475E+07 1.46346E+07
 -1      1638-6.56937E+08-9.59935E+06-2.63325E+05-1.88557E+08 1.62750E+07 1.38438E+07
 -1      1640-6.56937E+08-9.59935E+06-2.63325E+05-1.88557E+08 1.62750E+07 1.38438E+07
 -1      1641-1.41509E+09-1.00800E+07-5.59750E+05-1.77020E+08 1.74603E+07 1.30821E+07
 -1      1643-1.41509E+09-1.00800E+07-5.59750E+05-1.77020E+08 1.74603E+07 1.30821E+07
 -1      1644-2.10213E+09-1.04629E+07-9.58226E+05-1.54297E+08 1.86892E+07 1.23062E+07
 -1      1646-2.10213E+09-1.04629E+07-9.58226E+05-1.54297E+08 1.86892E+07 1.23062E+07
 -1      1647-2.67518E+09-1.08683E+07-1.17814E+06-1.22053E+08 1.96653E+07 1.15491E+07
 -1      1649-2.67518E+09-1.08683E+07-1.17814E+06-1.22053E+08 1.96653E+07 1.15491E+07
 -1      1650-3.09963E+09-1.12237E+07-1.43145E+06-8.26264E+07 2.05972E+07 1.07728E+07
 -1      1652-3.09963E+09-1.12237E+07-1.43145E+06-8.26264E+07 2.05972E+07 1.07728E+07
 -1      1653-3.35154E+09-1.15805E+07-1.50483E+06-3.88288E+07 2.12718E+07 9.99510E+06
 -1      1655-3.35154E+09-1.15805E+07-1.50483E+06-3.88288E+07 2.12718E+07 9.99510E+06
 -1      1656-3.41938E+09-1.18907E+07-1.56828E+06 6.13838E+06 2.18530E+07 9.18462E+06
 -1      1658-3.41938E+09-1.18907E+07-1.56828E+06 6.13838E+06 2.18530E+07 9.18462E+06
 -1      1659-3.30513E+09-1.22126E+07-1.46922E+06 4.89739E+07 2.21919E+07 8.35362E+06
 -1      1661-3.30513E+09-1.22126E+07-1.46922E+06 4.89739E+07 2.21919E+07 8.35362E+06
 -1      1662-3.02439E+09-1.24528E+07-1.34922E+06 8.63534E+07 2.24318E+07 7.46705E+06
 -1      1664-3.02439E+09-1.24528E+07-1.34922E+06 8.63534E+07 2.24318E+07 7.46705E+06
 -1      1665-2.60607E+09-1.27660E+07-1.10148E+06 1.15209E+08 2.24751E+07 6.56037E+06
 -1      1667-2.60607E+09-1.27660E+07-1.10148E+06 1.15209E+08 2.24751E+07 6.56037E+06
 -1      1668-2.09083E+09-1.28523E+07-8.60118E+05 1.32891E+08 2.24546E+07 5.54776E+06
 -1      1670-2.09083E+09-1.28523E+07-8.60118E+05 1.32891E+08 2.24546E+07 5.54776E+06
 -1      1671-1.52966E+09-1.32736E+07-5.29182E+05 1.37068E+08 2.23257E+07 4.59558E+06
 -1      1673-1.52966E+09-1.32736E+07-5.29182E+05 1.37068E+08 2.23257E+07 4.59558E+06
 -1      1674-9.81124E+08-1.30083E+07-2.77001E+05 1.26310E+08 2.21949E+07 3.35448E+06
 -1      1676-9.81124E+08-1.30083E+07-2.77001E+05 1.26310E+08 2.21949E+07 3.35448E+06
 -1      1677-5.09174E+08-1.35474E+07 4.03723E+04 9.98645E+07 2.21036E+07 2.57199E+06
 -1      1679-5.09174E+08-1.35474E+07 4.03723E+04 9.98645E+07 2.21036E+07 2.57199E+06
 -1      1680-1.81709E+08-1.38245E+07 1.89659E+05 5.48241E+07 2.20485E+07 7.09837E+05
 -1      1682-1.81709E+08-1.38245E+07 1.89659E+05 5.48241E+07 2.20485E+07 7.09837E+05
 -1      1683-1.78253E+09-5.94846E+07 3.30472E+05 3.06964E+08-2.74075E+07 9.79818E+07
 -1      1685-1.78253E+09-5.94846E+07 3.30472E+05 3.06964E+08-2.74075E+07 9.79818E+07
 -1      1686-1.47756E+09 2.36513E+06 2.38001E+05 3.92427E+08 1.05365E+07-2.59466E+07
 -1      1688-1.47756E+09 2.36513E+06 2.38001E+05 3.92427E+08 1.05365E+07-2.59466E+07
 -1      1689-8.07099E+08-8.51620E+05-4.45659E+05 4.18204E+08-6.69046E+06 1.25288E+07
 -1      1691-8.07099E+08-8.51620E+05-4.45659E+05 4.18204E+08-6.69046E+06 1.25288E+07
 -1      1692-1.36896E+08-1.58487E+07 2.80225E+05 3.65716E+08-4.82787E+06-5.85462E+06
 -1      1694-1.36896E+08-1.58487E+07 2.80225E+05 3.65716E+08-4.82787E+06-5.85462E+06
 -1      1695 4.55569E+08-3.48042E+06-1.68789E+05 3.34699E+08-8.03920E+06 2.76367E+06
 -1      1697 4.55569E+08-3.48042E+06-1.68789E+05 3.34699E+08-8.03920E+06 2.76367E+06
 -1      1698 9.70297E+08-1.94435E+07-1.21735E+04 2.70505E+08-1.03830E+07-1.09968E+06
 -1      1700 9.70297E+08-1.94435E+07-1.21735E+04 2.70505E+08-1.03830E+07-1.09968E+06
 -1      1701 1.37231E+09-1.24141E+07 1.46092E+04 2.04630E+08-1.19868E+07 6.70076E+05
 -1      1703 1.37231E+09-1.24141E+07 1.46092E+04 2.04630E+08-1.19868E+07 6.70076E+05
 -1      1704 1.65200E+09-2.05397E+07-1.28575E+05 1.25003E+08-1.48317E+07 1.12406E+04
 -1      1706 1.65200E+09-2.05397E+07-1.28575E+05 1.25003E+08-1.48317E+07 1.12406E+04
 -1      1707 1.79303E+09-1.85359E+07 5.23157E+04 4.31399E+07-1.65838E+07 3.53138E+05
 -1      1709 1.79303E+09-1.85359E+07 5.23157E+04 4.31399E+07-1.65838E+07 3.53138E+05
 -1      1710 1.79424E+09-2.15530E+07-1.46787E+05-3.99239E+07-1.94425E+07 3.31621E+05
 -1      1712 1.79424E+09-2.15530E+07-1.46787E+05-3.99239E+07-1.94425E+07 3.31621E+05
 -1      1713 1.65772E+09-2.10686E+07 3.56896E+04-1.17997E+08-2.15185E+07 4.04348E+05
 -1      1715 1.65772E+09-2.10686E+07 3.56896E+04-1.17997E+08-2.15185E+07 4.04348E+05
 -1      1716 1.39604E+09-2.16044E+07-1.35379E+05-1.87041E+08-2.43506E+07 4.72191E+05
 -1      1718 1.39604E+09-2.16044E+07-1.35379E+05-1.87041E+08-2.43506E+07 4.72191E+05
 -1      1719 1.02780E+09-2.09955E+07 9.20630E+03-2.42923E+08-2.66492E+07 4.89215E+05
 -1      1721 1.02780E+09-2.09955E+07 9.20630E+03-2.42923E+08-2.66492E+07 4.89215E+05
 -1      1722 5.78463E+08-2.03736E+07-1.20230E+05-2.82286E+08-2.94004E+07 5.32854E+05
 -1      1724 5.78463E+08-2.03736E+07-1.20230E+05-2.82286E+08-2.94004E+07 5.32854E+05
 -1      1725 7.79509E+07-1.93993E+07-1.37649E+04-3.03023E+08-3.17447E+07 5.18685E+05
 -1      1727 7.79509E+07-1.93993E+07-1.37649E+04-3.03023E+08-3.17447E+07 5.18685E+05
 -1      1728-4.40937E+08-1.83784E+07-1.08298E+05-3.03943E+08-3.43001E+07 5.16069E+05
 -1      1730-4.40937E+08-1.83784E+07-1.08298E+05-3.03943E+08-3.43001E+07 5.16069E+05
 -1      1731-9.44656E+08-1.73757E+07-3.13100E+04-2.85382E+08-3.64893E+07 4.68586E+05
 -1      1733-9.44656E+08-1.73757E+07-3.13100E+04-2.85382E+08-3.64893E+07 4.68586E+05
 -1      1734-1.40118E+09-1.65418E+07-1.00652E+05-2.48749E+08-3.87035E+07 4.21287E+05
 -1      1736-1.40118E+09-1.65418E+07-1.00652E+05-2.48749E+08-3.87035E+07 4.21287E+05
 -1      1737-1.78202E+09-1.59754E+07-4.46817E+04-1.96812E+08-4.05498E+07 3.43931E+05
 -1      1739-1.78202E+09-1.59754E+07-4.46817E+04-1.96812E+08-4.05498E+07 3.43931E+05
 -1      1740-2.06420E+09-1.57917E+07-9.69396E+04-1.33265E+08-4.22906E+07 2.64506E+05
 -1      1742-2.06420E+09-1.57917E+07-9.69396E+04-1.33265E+08-4.22906E+07 2.64506E+05
 -1      1743-2.23182E+09-1.60250E+07-5.56077E+04-6.27125E+07-4.36547E+07 1.70069E+05
 -1      1745-2.23182E+09-1.60250E+07-5.56077E+04-6.27125E+07-4.36547E+07 1.70069E+05
 -1      1746-2.27725E+09-1.67687E+07-9.64241E+04 9.75661E+06-4.48418E+07 7.83359E+04
 -1      1748-2.27725E+09-1.67687E+07-9.64241E+04 9.75661E+06-4.48418E+07 7.83359E+04
 -1      1749-2.20179E+09-1.79484E+07-6.57243E+04 7.87399E+07-4.56591E+07-1.45402E+04
 -1      1751-2.20179E+09-1.79484E+07-6.57243E+04 7.87399E+07-4.56591E+07-1.45402E+04
 -1      1752-2.01587E+09-1.96485E+07-9.78358E+04 1.38967E+08-4.62889E+07-9.37551E+04
 -1      1754-2.01587E+09-1.96485E+07-9.78358E+04 1.38967E+08-4.62889E+07-9.37551E+04
 -1      1755-1.73864E+09-2.16948E+07-7.68314E+04 1.85400E+08-4.65819E+07-1.68402E+05
 -1      1757-1.73864E+09-2.16948E+07-7.68314E+04 1.85400E+08-4.65819E+07-1.68402E+05
 -1      1758-1.39722E+09-2.40750E+07-9.91519E+04 2.13829E+08-4.67327E+07-2.01506E+05
 -1      1760-1.39722E+09-2.40750E+07-9.91519E+04 2.13829E+08-4.67327E+07-2.01506E+05
 -1      1761-1.02544E+09-2.68284E+07-9.04083E+04 2.20457E+08-4.66097E+07-2.63079E+05
 -1      1763-1.02544E+09-2.68284E+07-9.04083E+04 2.20457E+08-4.66097E+07-2.63079E+05
 -1      1764-6.62118E+08-2.92638E+07-1.00578E+05 2.03155E+08-4.64251E+07-1.75084E+05
 -1      1766-6.62118E+08-2.92638E+07-1.00578E+05 2.03155E+08-4.64251E+07-1.75084E+05
 -1      1767-3.50687E+08-3.24975E+07-9.96430E+04 1.59472E+08-4.60967E+07-3.22809E+05
 -1      1769-3.50687E+08-3.24975E+07-9.96430E+04 1.59472E+08-4.60967E+07-3.22809E+05
 -1      1770-1.33060E+08-3.51831E+07-1.23319E+05 9.01370E+07-4.57463E+07 1.52128E+05
 -1      1772-1.33060E+08-3.51831E+07-1.23319E+05 9.01370E+07-4.57463E+07 1.52128E+05
 -1      1773 1.47756E+09-2.36513E+06-2.38001E+05 3.92427E+08 1.05365E+07 2.59466E+07
 -1      1775 1.47756E+09-2.36513E+06-2.38001E+05 3.92427E+08 1.05365E+07 2.59466E+07
 -1      1776 8.07099E+08 8.51620E+05 4.45659E+05 4.18204E+08-6.69046E+06-1.25288E+07
 -1      1778 8.07099E+08 8.51620E+05 4.45659E+05 4.18204E+08-6.69046E+06-1.25288E+07
 -1      1779 1.36896E+08 1.58487E+07-2.80225E+05 3.65716E+08-4.82787E+06 5.85462E+06
 -1      1781 1.36896E+08 1.58487E+07-2.80225E+05 3.65716E+08-4.82787E+06 5.85462E+06
 -1      1782-4.55569E+08 3.48042E+06 1.68789E+05 3.34699E+08-8.03920E+06-2.76367E+06
 -1      1784-4.55569E+08 3.48042E+06 1.68789E+05 3.34699E+08-8.03920E+06-2.76367E+06
 -1      1785-9.70297E+08 1.94435E+07 1.21735E+04 2.70505E+08-1.03830E+07 1.09968E+06
 -1      1787-9.70297E+08 1.94435E+07 1.21735E+04 2.70505E+08-1.03830E+07 1.09968E+06
 -1      1788-1.37231E+09 1.24141E+07-1.46092E+04 2.04630E+08-1.19868E+07-6.70076E+05
 -1      1790-1.37231E+09 1.24141E+07-1.46092E+04 2.04630E+08-1.19868E+07-6.70076E+05
 -1      1791-1.65200E+09 2.05397E+07 1.28575E+05 1.25003E+08-1.48317E+07-1.12406E+04
 -1      1793-1.65200E+09 2.05397E+07 1.28575E+05 1.25003E+08-1.48317E+07-1.12406E+04
 -1      1794-1.79303E+09 1.85359E+07-5.23157E+04 4.31399E+07-1.65838E+07-3.53138E+05
 -1      1796-1.79303E+09 1.85359E+07-5.23157E+04 4.31399E+07-1.65838E+07-3.53138E+05
 -1      1797-1.79424E+09 2.15530E+07 1.46787E+05-3.99239E+07-1.94425E+07-3.31621E+05
 -1      1799-1.79424E+09 2.15530E+07 1.46787E+05-3.99239E+07-1.94425E+07-3.31621E+05
 -1      1800-1.65772E+09 2.10686E+07-3.56896E+04-1.17997E+08-2.15185E+07-4.04348E+05
 -1      1802-1.65772E+09 2.10686E+07-3.56896E+04-1.17997E+08-2.15185E+07-4.04348E+05
 -1      1803-1.39604E+09 2.16044E+07 1.35379E+05-1.87041E+08-2.43506E+07-4.72191E+05
 -1      1805-1.39604E+09 2.16044E+07 1.35379E+05-1.87041E+08-2.43506E+07-4.72191E+05
 -1      1806-1.02780E+09 2.09955E+07-9.20630E+03-2.42923E+08-2.66492E+07-4.89215E+05
 -1      1808-1.02780E+09 2.09955E+07-9.20630E+03-2.42923E+08-2.66492E+07-4.89215E+05
 -1      1809-5.78463E+08 2.03736E+07 1.20230E+05-2.82286E+08-2.94004E+07-5.32854E+05
 -1      1811-5.78463E+08 2.03736E+07 1.20230E+05-2.82286E+08-2.94004E+07-5.32854E+05
 -1      1812-7.79509E+07 1.93993E+07 1.37649E+04-3.03023E+08-3.17447E+07-5.18685E+05
 -1      1814-7.79509E+07 1.93993E+07 1.37649E+04-3.03023E+08-3.17447E+07-5.18685E+05
 -1      1815 4.40937E+08 1.83784E+07 1.08298E+05-3.03943E+08-3.43001E+07-5.16069E+05
 -1      1817 4.40937E+08 1.83784E+07 1.08298E+05-3.03943E+08-3.43001E+07-5.16069E+05
 -1      1818 9.44656E+08 1.73757E+07 3.13100E+04-2.85382E+08-3.64893E+07-4.68586E+05
 -1      1820 9.44656E+08 1.73757E+07 3.13100E+04-2.85382E+08-3.64893E+07-4.68586E+05
 -1      1821 1.40118E+09 1.65418E+07 1.00652E+05-2.48749E+08-3.87035E+07-4.21287E+05
 -1      1823 1.40118E+09 1.65418E+07 1.00652E+05-2.48749E+08-3.87035E+07-4.21287E+05
 -1      1824 1.78202E+09 1.59754E+07 4.46817E+04-1.96812E+08-4.05498E+07-3.43931E+05
 -1      1826 1.78202E+09 1.59754E+07 4.46817E+04-1.96812E+08-4.05498E+07-3.43931E+05
 -1      1827 2.06420E+09 1.57917E+07 9.69396E+04-1.33265E+08-4.22906E+07-2.64506E+05
 -1      1829 2.06420E+09 1.57917E+07 9.69396E+04-1.33265E+08-4.22906E+07-2.64506E+05
 -1      1830 2.23182E+09 1.60250E+07 5.56077E+04-6.27125E+07-4.36547E+07-1.70069E+05
 -1      1832 2.23182E+09 1.60250E+07 5.56077E+04-6.27125E+07-4.36547E+07-1.70069E+05
 -1      1833 2.27725E+09 1.67687E+07 9.64241E+04 9.75661E+06-4.48418E+07-7.83359E+04
 -1      1835 2.27725E+09 1.67687E+07 9.64241E+04 9.75661E+06-4.48418E+07-7.83359E+04
 -1      1836 2.20179E+09 1.79484E+07 6.57243E+04 7.87399E+07-4.56591E+07 1.45402E+04
 -1      1838 2.20179E+09 1.79484E+07 6.57243E+04 7.87399E+07-4.56591E+07 1.45402E+04
 -1      1839 2.01587E+09 1.96485E+07 9.78358E+04 1.38967E+08-4.62889E+07 9.37551E+04
 -1      1841 2.01587E+09 1.96485E+07 9.78358E+04 1.38967E+08-4.62889E+07 9.37551E+04
 -1      1842 1.73864E+09 2.16948E+07 7.68314E+04 1.85400E+08-4.65819E+07 1.68402E+05
 -1      1844 1.73864E+09 2.16948E+07 7.68314E+04 1.85400E+08-4.65819E+07 1.68402E+05
 -1      1845 1.39722E+09 2.40750E+07 9.91519E+04 2.13829E+08-4.67327E+07 2.01506E+05
 -1      1847 1.39722E+09 2.40750E+07 9.91519E+04 2.13829E+08-4.67327E+07 2.01506E+05
 -1      1848 1.02544E+09 2.68284E+07 9.04083E+04 2.20457E+08-4.66097E+07 2.63079E+05
 -1      1850 1.02544E+09 2.68284E+07 9.04083E+04 2.20457E+08-4.66097E+07 2.63079E+05
 -1      1851 6.62118E+08 2.92638E+07 1.00578E+05 2.03155E+08-4.64251E+07 1.75084E+05
 -1      1853 6.62118E+08 2.92638E+07 1.00578E+05 2.03155E+08-4.64251E+07 1.75084E+05
 -1      1854 3.50687E+08 3.24975E+07 9.96430E+04 1.59472E+08-4.60967E+07 3.22809E+05
 -1      1856 3.50687E+08 3.24975E+07 9.96430E+04 1.59472E+08-4.60967E+07 3.22809E+05
 -1      1857 1.33060E+08 3.51831E+07 1.23319E+05 9.01370E+07-4.57463E+07-1.52128E+05
 -1      1859 1.33060E+08 3.51831E+07 1.23319E+05 9.01370E+07-4.57463E+07-1.52128E+05
 -1      1860-9.35530E-03 6.77470E-05 8.23446E-03 3.93399E+07 2.38227E+06-3.16817E-02
 -1      1862-9.35530E-03 6.77470E-05 8.23446E-03 3.93399E+07 2.38227E+06-3.16817E-02
 -1      1863-8.41175E-03-3.48951E-05 1.25601E-02-1.94587E+07 8.98978E+06-3.01638E-02
 -1      1865-8.41175E-03-3.48951E-05 1.25601E-02-1.94587E+07 8.98978E+06-3.01638E-02
 -1      1866-7.74791E-03-7.47893E-05 2.55395E-03 1.32460E+07 1.12820E+07-2.69272E-02
 -1      1868-7.74791E-03-7.47893E-05 2.55395E-03 1.32460E+07 1.12820E+07-2.69272E-02
 -1      1869-4.79185E-03 7.10347E-05-1.11071E-02-4.83056E+06 1.55440E+07-2.62977E-02
 -1      1871-4.79185E-03 7.10347E-05-1.11071E-02-4.83056E+06 1.55440E+07-2.62977E-02
 -1      1872 1.44730E-03 3.57051E-05-1.32091E-02 4.40593E+06 1.84600E+07-2.83463E-02
 -1      1874 1.44730E-03 3.57051E-05-1.32091E-02 4.40593E+06 1.84600E+07-2.83463E-02
 -1      1875 7.02745E-03 6.00923E-06-1.97534E-03-7.21623E+05 2.16110E+07-2.80985E-02
 -1      1877 7.02745E-03 6.00923E-06-1.97534E-03-7.21623E+05 2.16110E+07-2.80985E-02
 -1      1878 8.03693E-03 3.39979E-04 1.04463E-02 1.30176E+06 2.42087E+07-2.17991E-02
 -1      1880 8.03693E-03 3.39979E-04 1.04463E-02 1.30176E+06 2.42087E+07-2.17991E-02
 -1      1881 5.76421E-03-1.65577E-04 9.51842E-03-1.27575E+05 2.63640E+07-1.44244E-02
 -1      1883 5.76421E-03-1.65577E-04 9.51842E-03-1.27575E+05 2.63640E+07-1.44244E-02
 -1      1884 5.00487E-03-8.80240E-04-4.39447E-04-4.68105E+04 2.82230E+07-1.41074E-02
 -1      1886 5.00487E-03-8.80240E-04-4.39447E-04-4.68105E+04 2.82230E+07-1.41074E-02
 -1      1887 8.30138E-03-4.96353E-04-1.59175E-03-5.23076E+05 2.94489E+07-1.86064E-02
 -1      1889 8.30138E-03-4.96353E-04-1.59175E-03-5.23076E+05 2.94489E+07-1.86064E-02
 -1      1890 1.22993E-02-2.05714E-04 9.18818E-03-8.14713E+05 3.04790E+07-1.66096E-02
 -1      1892 1.22993E-02-2.05714E-04 9.18818E-03-8.14713E+05 3.04790E+07-1.66096E-02
 -1      1893 1.39168E-02-4.08219E-04 1.95342E-02-1.01594E+06 3.09431E+07-7.43558E-03
 -1      1895 1.39168E-02-4.08219E-04 1.95342E-02-1.01594E+06 3.09431E+07-7.43558E-03
 -1      1896 1.53183E-02-2.18031E-04 2.20939E-02-1.23932E+06 3.13125E+07 1.92441E-03
 -1      1898 1.53183E-02-2.18031E-04 2.20939E-02-1.23932E+06 3.13125E+07 1.92441E-03
 -1      1899 1.61695E-02 5.19012E-04 2.03965E-02-1.27965E+06 3.13108E+07 9.56319E-03
 -1      1901 1.61695E-02 5.19012E-04 2.03965E-02-1.27965E+06 3.13108E+07 9.56319E-03
 -1      1902 1.32045E-02 3.71975E-04 1.97434E-02-1.32305E+06 3.13542E+07 1.47931E-02
 -1      1904 1.32045E-02 3.71975E-04 1.97434E-02-1.32305E+06 3.13542E+07 1.47931E-02
 -1      1905 9.02964E-03-3.35318E-04 1.98897E-02-1.20948E+06 3.12640E+07 1.58069E-02
 -1      1907 9.02964E-03-3.35318E-04 1.98897E-02-1.20948E+06 3.12640E+07 1.58069E-02
 -1      1908 7.96161E-03-2.98556E-04 1.70391E-02-1.07121E+06 3.13729E+07 1.37375E-02
 -1      1910 7.96161E-03-2.98556E-04 1.70391E-02-1.07121E+06 3.13729E+07 1.37375E-02
 -1      1911 7.13340E-03 1.91026E-04 1.09116E-02-8.25539E+05 3.15616E+07 9.20283E-03
 -1      1913 7.13340E-03 1.91026E-04 1.09116E-02-8.25539E+05 3.15616E+07 9.20283E-03
 -1      1914 2.15492E-03 3.46733E-04 5.95641E-03-5.57786E+05 3.20709E+07 4.19757E-03
 -1      1916 2.15492E-03 3.46733E-04 5.95641E-03-5.57786E+05 3.20709E+07 4.19757E-03
 -1      1917-5.98545E-03 2.68556E-04 2.99486E-03-2.36406E+05 3.27965E+07 6.04689E-03
 -1      1919-5.98545E-03 2.68556E-04 2.99486E-03-2.36406E+05 3.27965E+07 6.04689E-03
 -1      1920-1.29315E-02-3.16662E-04-5.58496E-04 7.47216E+04 3.38870E+07 1.10739E-02
 -1      1922-1.29315E-02-3.16662E-04-5.58496E-04 7.47216E+04 3.38870E+07 1.10739E-02
 -1      1923-1.67799E-02 2.04810E-05-2.49305E-04 3.95706E+05 3.52192E+07 1.06845E-02
 -1      1925-1.67799E-02 2.04810E-05-2.49305E-04 3.95706E+05 3.52192E+07 1.06845E-02
 -1      1926-1.90249E-02 1.05662E-04 7.13692E-03 6.42437E+05 3.68564E+07 7.44157E-03
 -1      1928-1.90249E-02 1.05662E-04 7.13692E-03 6.42437E+05 3.68564E+07 7.44157E-03
 -1      1929-1.77843E-02-8.17414E-04 1.55258E-02 9.00668E+05 3.86409E+07 3.14203E-03
 -1      1931-1.77843E-02-8.17414E-04 1.55258E-02 9.00668E+05 3.86409E+07 3.14203E-03
 -1      1932-1.25518E-02-9.75015E-04 2.08037E-02 9.53431E+05 4.05608E+07-1.47625E-03
 -1      1934-1.25518E-02-9.75015E-04 2.08037E-02 9.53431E+05 4.05608E+07-1.47625E-03
 -1      1935-8.16310E-03-6.38461E-04 2.53084E-02 1.15409E+06 4.24332E+07-2.55533E-03
 -1      1937-8.16310E-03-6.38461E-04 2.53084E-02 1.15409E+06 4.24332E+07-2.55533E-03
 -1      1938-6.13265E-03 1.27539E-04 2.85319E-02 8.28168E+05 4.41768E+07-1.96132E-03
 -1      1940-6.13265E-03 1.27539E-04 2.85319E-02 8.28168E+05 4.41768E+07-1.96132E-03
 -1      1941-5.02151E-03 1.04246E-03 2.57201E-02 1.14101E+06 4.56240E+07-2.12792E-03
 -1      1943-5.02151E-03 1.04246E-03 2.57201E-02 1.14101E+06 4.56240E+07-2.12792E-03
 -1      1944-3.26249E-03 1.33156E-03 1.74228E-02 5.69639E+04 4.66120E+07-1.17841E-03
 -1      1946-3.26249E-03 1.33156E-03 1.74228E-02 5.69639E+04 4.66120E+07-1.17841E-03
 -1      1947-4.41619E-03 2.36702E-05 8.12344E-03 8.91137E+07 1.57379E-04-3.03941E-02
 -1      1949-4.41619E-03 2.36702E-05 8.12344E-03 8.91137E+07 1.57379E-04-3.03941E-02
 -1      1950-6.08579E-03-1.00786E-04 8.08130E-03-1.26236E+07 2.80785E-04-3.26005E-02
 -1      1952-6.08579E-03-1.00786E-04 8.08130E-03-1.26236E+07 2.80785E-04-3.26005E-02
 -1      1953-5.00999E-03 1.01997E-05-1.13440E-03 4.45674E+07 3.71017E-04-3.12297E-02
 -1      1955-5.00999E-03 1.01997E-05-1.13440E-03 4.45674E+07 3.71017E-04-3.12297E-02
 -1      1956-3.51023E-03 2.48205E-04-1.14387E-02 1.13838E+07 3.48879E-04-2.85138E-02
 -1      1958-3.51023E-03 2.48205E-04-1.14387E-02 1.13838E+07 3.48879E-04-2.85138E-02
 -1      1959-1.84544E-03 9.47728E-06-1.40935E-02 2.86908E+07 2.44356E-04-2.72119E-02
 -1      1961-1.84544E-03 9.47728E-06-1.40935E-02 2.86908E+07 2.44356E-04-2.72119E-02
 -1      1962-1.90727E-03 2.41081E-05-7.53253E-03 1.73694E+07 1.42915E-04-2.36091E-02
 -1      1964-1.90727E-03 2.41081E-05-7.53253E-03 1.73694E+07 1.42915E-04-2.36091E-02
 -1      1965-4.14701E-03 2.34497E-04 2.51948E-03 2.18206E+07 4.81987E-05-1.72395E-02
 -1      1967-4.14701E-03 2.34497E-04 2.51948E-03 2.18206E+07 4.81987E-05-1.72395E-02
 -1      1968-4.13777E-03 1.61209E-04 6.07402E-03 1.71630E+07 7.79019E-05-1.41183E-02
 -1      1970-4.13777E-03 1.61209E-04 6.07402E-03 1.71630E+07 7.79019E-05-1.41183E-02
 -1      1971-8.21342E-04 1.22121E-04 5.28972E-04 1.75976E+07 3.07687E-04-1.58369E-02
 -1      1973-8.21342E-04 1.22121E-04 5.28972E-04 1.75976E+07 3.07687E-04-1.58369E-02
 -1      1974 3.06454E-03 4.25856E-04-2.65532E-03 1.50320E+07 4.44995E-04-1.75603E-02
 -1      1976 3.06454E-03 4.25856E-04-2.65532E-03 1.50320E+07 4.44995E-04-1.75603E-02
 -1      1977 5.02463E-03 2.47597E-04 4.03854E-03 1.43331E+07 2.67894E-04-1.34990E-02
 -1      1979 5.02463E-03 2.47597E-04 4.03854E-03 1.43331E+07 2.67894E-04-1.34990E-02
 -1      1980 4.35212E-03-4.87726E-04 1.41505E-02 1.26376E+07-7.06147E-05-5.59568E-03
 -1      1982 4.35212E-03-4.87726E-04 1.41505E-02 1.26376E+07-7.06147E-05-5.59568E-03
 -1      1983 4.00790E-03 3.36773E-05 2.03905E-02 1.18111E+07-2.52201E-04 8.64627E-04
 -1      1985 4.00790E-03 3.36773E-05 2.03905E-02 1.18111E+07-2.52201E-04 8.64627E-04
 -1      1986 4.49195E-03 4.00161E-04 2.14000E-02 1.07097E+07-3.35149E-04 6.65821E-03
 -1      1988 4.49195E-03 4.00161E-04 2.14000E-02 1.07097E+07-3.35149E-04 6.65821E-03
 -1      1989 3.02957E-03-1.85197E-04 2.08724E-02 1.01254E+07-2.71259E-04 1.16599E-02
 -1      1991 3.02957E-03-1.85197E-04 2.08724E-02 1.01254E+07-2.71259E-04 1.16599E-02
 -1      1992-5.79403E-05-4.98766E-04 2.16324E-02 9.53290E+06 1.38991E-04 1.21562E-02
 -1      1994-5.79403E-05-4.98766E-04 2.16324E-02 9.53290E+06 1.38991E-04 1.21562E-02
 -1      1995-4.36822E-05 5.57537E-05 2.02802E-02 9.27664E+06 4.13612E-04 8.72245E-03
 -1      1997-4.36822E-05 5.57537E-05 2.02802E-02 9.27664E+06 4.13612E-04 8.72245E-03
 -1      1998 3.82686E-03 3.91916E-04 1.30227E-02 9.07587E+06 5.86230E-04 4.71022E-03
 -1      2000 3.82686E-03 3.91916E-04 1.30227E-02 9.07587E+06 5.86230E-04 4.71022E-03
 -1      2001 4.72194E-03 3.67242E-04 3.06917E-03 9.05900E+06 5.86229E-04 2.41115E-03
 -1      2003 4.72194E-03 3.67242E-04 3.06917E-03 9.05900E+06 5.86229E-04 2.41115E-03
 -1      2004 2.74177E-04 1.41298E-04-4.46612E-03 9.05661E+06 6.57966E-04 5.73309E-03
 -1      2006 2.74177E-04 1.41298E-04-4.46612E-03 9.05661E+06 6.57966E-04 5.73309E-03
 -1      2007-3.96620E-03-5.75759E-04-6.65714E-03 9.07653E+06 1.08391E-03 1.18782E-02
 -1      2009-3.96620E-03-5.75759E-04-6.65714E-03 9.07653E+06 1.08391E-03 1.18782E-02
 -1      2010-7.29106E-03-3.62811E-04-6.01851E-04 9.03220E+06 1.05589E-03 1.47868E-02
 -1      2012-7.29106E-03-3.62811E-04-6.01851E-04 9.03220E+06 1.05589E-03 1.47868E-02
 -1      2013-1.16630E-02 9.73479E-05 1.06664E-02 8.82490E+06 9.50519E-04 1.20756E-02
 -1      2015-1.16630E-02 9.73479E-05 1.06664E-02 8.82490E+06 9.50519E-04 1.20756E-02
 -1      2016-1.23965E-02-4.19619E-04 1.85751E-02 8.52070E+06 8.95597E-04 3.90972E-03
 -1      2018-1.23965E-02-4.19619E-04 1.85751E-02 8.52070E+06 8.95597E-04 3.90972E-03
 -1      2019-7.54935E-03-1.07707E-03 2.11343E-02 7.79219E+06 7.84629E-04-2.22922E-03
 -1      2021-7.54935E-03-1.07707E-03 2.11343E-02 7.79219E+06 7.84629E-04-2.22922E-03
 -1      2022-2.96243E-03-6.73145E-04 2.30230E-02 7.13957E+06 8.69816E-04-1.27158E-03
 -1      2024-2.96243E-03-6.73145E-04 2.30230E-02 7.13957E+06 8.69816E-04-1.27158E-03
 -1      2025-1.37561E-03 2.32781E-04 2.54662E-02 5.52898E+06 7.95837E-04 8.56042E-05
 -1      2027-1.37561E-03 2.32781E-04 2.54662E-02 5.52898E+06 7.95837E-04 8.56042E-05
 -1      2028-1.46313E-03 1.34698E-03 2.41385E-02 4.75351E+06 6.81506E-04-1.67793E-03
 -1      2030-1.46313E-03 1.34698E-03 2.41385E-02 4.75351E+06 6.81506E-04-1.67793E-03
 -1      2031-1.19616E-03 1.89069E-03 1.70575E-02 1.59525E+06 8.50761E-04-1.39931E-03
 -1      2033-1.19616E-03 1.89069E-03 1.70575E-02 1.59525E+06 8.50761E-04-1.39931E-03
 -1      2034 2.78015E-03-2.95276E-05 6.60273E-03 3.93399E+07-2.38227E+06-2.59415E-02
 -1      2036 2.78015E-03-2.95276E-05 6.60273E-03 3.93399E+07-2.38227E+06-2.59415E-02
 -1      2037 1.36432E-03-8.56064E-05 3.75156E-03-1.94587E+07-8.98978E+06-3.05677E-02
 -1      2039 1.36432E-03-8.56064E-05 3.75156E-03-1.94587E+07-8.98978E+06-3.05677E-02
 -1      2040-1.33741E-03 1.55096E-04-3.35255E-03 1.32460E+07-1.12820E+07-3.08396E-02
 -1      2042-1.33741E-03 1.55096E-04-3.35255E-03 1.32460E+07-1.12820E+07-3.08396E-02
 -1      2043-5.82681E-03 1.57296E-04-1.06297E-02-4.83056E+06-1.55440E+07-2.83597E-02
 -1      2045-5.82681E-03 1.57296E-04-1.06297E-02-4.83056E+06-1.55440E+07-2.83597E-02
 -1      2046-9.56364E-03-2.66745E-04-1.65831E-02 4.40593E+06-1.84600E+07-2.60159E-02
 -1      2048-9.56364E-03-2.66745E-04-1.65831E-02 4.40593E+06-1.84600E+07-2.60159E-02
 -1      2049-1.18303E-02-3.03702E-04-1.67710E-02-7.21623E+05-2.16110E+07-1.99020E-02
 -1      2051-1.18303E-02-3.03702E-04-1.67710E-02-7.21623E+05-2.16110E+07-1.99020E-02
 -1      2052-1.17967E-02 2.80591E-04-7.55179E-03 1.30176E+06-2.42087E+07-1.14478E-02
 -1      2054-1.17967E-02 2.80591E-04-7.55179E-03 1.30176E+06-2.42087E+07-1.14478E-02
 -1      2055-1.00168E-02 4.94908E-04 2.10746E-03-1.27575E+05-2.63640E+07-1.06888E-02
 -1      2057-1.00168E-02 4.94908E-04 2.10746E-03-1.27575E+05-2.63640E+07-1.06888E-02
 -1      2058-9.30783E-03 7.78701E-04 6.34736E-04-4.68105E+04-2.82230E+07-1.49798E-02
 -1      2060-9.30783E-03 7.78701E-04 6.34736E-04-4.68105E+04-2.82230E+07-1.49798E-02
 -1      2061-8.27394E-03 8.72935E-04-4.67026E-03-5.23076E+05-2.94489E+07-1.43417E-02
 -1      2063-8.27394E-03 8.72935E-04-4.67026E-03-5.23076E+05-2.94489E+07-1.43417E-02
 -1      2064-5.90896E-03-2.37717E-04-1.17840E-03-8.14713E+05-3.04790E+07-8.01153E-03
 -1      2066-5.90896E-03-2.37717E-04-1.17840E-03-8.14713E+05-3.04790E+07-8.01153E-03
 -1      2067-6.12954E-03-8.62977E-04 9.70335E-03-1.01594E+06-3.09431E+07-1.71214E-03
 -1      2069-6.12954E-03-8.62977E-04 9.70335E-03-1.01594E+06-3.09431E+07-1.71214E-03
 -1      2070-8.68717E-03-3.01435E-04 1.94174E-02-1.23932E+06-3.13125E+07 1.15267E-03
 -1      2072-8.68717E-03-3.01435E-04 1.94174E-02-1.23932E+06-3.13125E+07 1.15267E-03
 -1      2073-1.00514E-02-4.28048E-05 2.19935E-02-1.27965E+06-3.13108E+07 4.08093E-03
 -1      2075-1.00514E-02-4.28048E-05 2.19935E-02-1.27965E+06-3.13108E+07 4.08093E-03
 -1      2076-9.33501E-03-6.73306E-04 2.05355E-02-1.32305E+06-3.13542E+07 9.49786E-03
 -1      2078-9.33501E-03-6.73306E-04 2.05355E-02-1.32305E+06-3.13542E+07 9.49786E-03
 -1      2079-6.94008E-03-4.81328E-04 2.13839E-02-1.20948E+06-3.12640E+07 1.14153E-02
 -1      2081-6.94008E-03-4.81328E-04 2.13839E-02-1.20948E+06-3.12640E+07 1.14153E-02
 -1      2082-2.74481E-03 4.15835E-04 1.98295E-02-1.07121E+06-3.13729E+07 6.98950E-03
 -1      2084-2.74481E-03 4.15835E-04 1.98295E-02-1.07121E+06-3.13729E+07 6.98950E-03
 -1      2085 3.43266E-03 4.46182E-04 1.08388E-02-8.25539E+05-3.15616E+07 2.72043E-03
 -1      2087 3.43266E-03 4.46182E-04 1.08388E-02-8.25539E+05-3.15616E+07 2.72043E-03
 -1      2088 6.82179E-03 2.73402E-04 3.84511E-04-5.57786E+05-3.20709E+07 2.43706E-03
 -1      2090 6.82179E-03 2.73402E-04 3.84511E-04-5.57786E+05-3.20709E+07 2.43706E-03
 -1      2091 4.86078E-03 1.49605E-04-7.47072E-03-2.36406E+05-3.27965E+07 5.55431E-03
 -1      2093 4.86078E-03 1.49605E-04-7.47072E-03-2.36406E+05-3.27965E+07 5.55431E-03
 -1      2094 2.36604E-03-5.49284E-05-1.00875E-02 7.47216E+04-3.38870E+07 1.13205E-02
 -1      2096 2.36604E-03-5.49284E-05-1.00875E-02 7.47216E+04-3.38870E+07 1.13205E-02
 -1      2097 1.32274E-04-3.27623E-04-1.75190E-04 3.95706E+05-3.52192E+07 1.70002E-02
 -1      2099 1.32274E-04-3.27623E-04-1.75190E-04 3.95706E+05-3.52192E+07 1.70002E-02
 -1      2100-3.16164E-03-3.43872E-05 1.68027E-02 6.42437E+05-3.68564E+07 1.41008E-02
 -1      2102-3.16164E-03-3.43872E-05 1.68027E-02 6.42437E+05-3.68564E+07 1.41008E-02
 -1      2103-4.29133E-03 1.02012E-04 2.32831E-02 9.00668E+05-3.86409E+07 2.29912E-03
 -1      2105-4.29133E-03 1.02012E-04 2.32831E-02 9.00668E+05-3.86409E+07 2.29912E-03
 -1      2106-1.64614E-03-2.24836E-04 1.76055E-02 9.53431E+05-4.05608E+07-4.47850E-03
 -1      2108-1.64614E-03-2.24836E-04 1.76055E-02 9.53431E+05-4.05608E+07-4.47850E-03
 -1      2109 1.77360E-03-2.52957E-04 1.41698E-02 1.15409E+06-4.24332E+07-8.87519E-04
 -1      2111 1.77360E-03-2.52957E-04 1.41698E-02 1.15409E+06-4.24332E+07-8.87519E-04
 -1      2112 3.98664E-03-6.65030E-05 1.77852E-02 8.28168E+05-4.41768E+07 1.14170E-03
 -1      2114 3.98664E-03-6.65030E-05 1.77852E-02 8.28168E+05-4.41768E+07 1.14170E-03
 -1      2115 3.32925E-03 3.30499E-04 1.81339E-02 1.14101E+06-4.56240E+07-2.91502E-03
 -1      2117 3.32925E-03 3.30499E-04 1.81339E-02 1.14101E+06-4.56240E+07-2.91502E-03
 -1      2118 9.84541E-04 7.86448E-04 1.11183E-02 5.69639E+04-4.66120E+07-3.24353E-03
 -1      2120 9.84541E-04 7.86448E-04 1.11183E-02 5.69639E+04-4.66120E+07-3.24353E-03
 -1      2121 1.47756E+09-2.36513E+06-2.38001E+05 3.92427E+08-1.05365E+07-2.59466E+07
 -1      2123 1.47756E+09-2.36513E+06-2.38001E+05 3.92427E+08-1.05365E+07-2.59466E+07
 -1      2124 8.07099E+08 8.51620E+05 4.45659E+05 4.18204E+08 6.69046E+06 1.25288E+07
 -1      2126 8.07099E+08 8.51620E+05 4.45659E+05 4.18204E+08 6.69046E+06 1.25288E+07
 -1      2127 1.36896E+08 1.58487E+07-2.80225E+05 3.65716E+08 4.82787E+06-5.85462E+06
 -1      2129 1.36896E+08 1.58487E+07-2.80225E+05 3.65716E+08 4.82787E+06-5.85462E+06
 -1      2130-4.55569E+08 3.48042E+06 1.68789E+05 3.34699E+08 8.03920E+06 2.76367E+06
 -1      2132-4.55569E+08 3.48042E+06 1.68789E+05 3.34699E+08 8.03920E+06 2.76367E+06
 -1      2133-9.70297E+08 1.94435E+07 1.21735E+04 2.70505E+08 1.03830E+07-1.09968E+06
 -1      2135-9.70297E+08 1.94435E+07 1.21735E+04 2.70505E+08 1.03830E+07-1.09968E+06
 -1      2136-1.37231E+09 1.24141E+07-1.46092E+04 2.04630E+08 1.19868E+07 6.70076E+05
 -1      2138-1.37231E+09 1.24141E+07-1.46092E+04 2.04630E+08 1.19868E+07 6.70076E+05
 -1      2139-1.65200E+09 2.05397E+07 1.28575E+05 1.25003E+08 1.48317E+07 1.12406E+04
 -1      2141-1.65200E+09 2.05397E+07 1.28575E+05 1.25003E+08 1.48317E+07 1.12406E+04
 -1      2142-1.79303E+09 1.85359E+07-5.23157E+04 4.31399E+07 1.65838E+07 3.53138E+05
 -1      2144-1.79303E+09 1.85359E+07-5.23157E+04 4.31399E+07 1.65838E+07 3.53138E+05
 -1      2145-1.79424E+09 2.15530E+07 1.46787E+05-3.99239E+07 1.94425E+07 3.31621E+05
 -1      2147-1.79424E+09 2.15530E+07 1.46787E+05-3.99239E+07 1.94425E+07 3.31621E+05
 -1      2148-1.65772E+09 2.10686E+07-3.56896E+04-1.17997E+08 2.15185E+07 4.04348E+05
 -1      2150-1.65772E+09 2.10686E+07-3.56896E+04-1.17997E+08 2.15185E+07 4.04348E+05
 -1      2151-1.39604E+09 2.16044E+07 1.35379E+05-1.87041E+08 2.43506E+07 4.72191E+05
 -1      2153-1.39604E+09 2.16044E+07 1.35379E+05-1.87041E+08 2.43506E+07 4.72191E+05
 -1      2154-1.02780E+09 2.09955E+07-9.20630E+03-2.42923E+08 2.66492E+07 4.89215E+05
 -1      2156-1.02780E+09 2.09955E+07-9.20630E+03-2.42923E+08 2.66492E+07 4.89215E+05
 -1      2157-5.78463E+08 2.03736E+07 1.20230E+05-2.82286E+08 2.94004E+07 5.32854E+05
 -1      2159-5.78463E+08 2.03736E+07 1.20230E+05-2.82286E+08 2.94004E+07 5.32854E+05
 -1      2160-7.79509E+07 1.93993E+07 1.37649E+04-3.03023E+08 3.17447E+07 5.18685E+05
 -1      2162-7.79509E+07 1.93993E+07 1.37649E+04-3.03023E+08 3.17447E+07 5.18685E+05
 -1      2163 4.40937E+08 1.83784E+07 1.08298E+05-3.03943E+08 3.43001E+07 5.16069E+05
 -1      2165 4.40937E+08 1.83784E+07 1.08298E+05-3.03943E+08 3.43001E+07 5.16069E+05
 -1      2166 9.44656E+08 1.73757E+07 3.13100E+04-2.85382E+08 3.64893E+07 4.68586E+05
 -1      2168 9.44656E+08 1.73757E+07 3.13100E+04-2.85382E+08 3.64893E+07 4.68586E+05
 -1      2169 1.40118E+09 1.65418E+07 1.00652E+05-2.48749E+08 3.87035E+07 4.21287E+05
 -1      2171 1.40118E+09 1.65418E+07 1.00652E+05-2.48749E+08 3.87035E+07 4.21287E+05
 -1      2172 1.78202E+09 1.59754E+07 4.46817E+04-1.96812E+08 4.05498E+07 3.43931E+05
 -1      2174 1.78202E+09 1.59754E+07 4.46817E+04-1.96812E+08 4.05498E+07 3.43931E+05
 -1      2175 2.06420E+09 1.57917E+07 9.69396E+04-1.33265E+08 4.22906E+07 2.64506E+05
 -1      2177 2.06420E+09 1.57917E+07 9.69396E+04-1.33265E+08 4.22906E+07 2.64506E+05
 -1      2178 2.23182E+09 1.60250E+07 5.56077E+04-6.27125E+07 4.36547E+07 1.70069E+05
 -1      2180 2.23182E+09 1.60250E+07 5.56077E+04-6.27125E+07 4.36547E+07 1.70069E+05
 -1      2181 2.27725E+09 1.67687E+07 9.64241E+04 9.75661E+06 4.48418E+07 7.83359E+04
 -1      2183 2.27725E+09 1.67687E+07 9.64241E+04 9.75661E+06 4.48418E+07 7.83359E+04
 -1      2184 2.20179E+09 1.79484E+07 6.57243E+04 7.87399E+07 4.56591E+07-1.45402E+04
 -1      2186 2.20179E+09 1.79484E+07 6.57243E+04 7.87399E+07 4.56591E+07-1.45402E+04
 -1      2187 2.01587E+09 1.96485E+07 9.78358E+04 1.38967E+08 4.62889E+07-9.37551E+04
 -1      2189 2.01587E+09 1.96485E+07 9.78358E+04 1.38967E+08 4.62889E+07-9.37551E+04
 -1      2190 1.73864E+09 2.16948E+07 7.68314E+04 1.85400E+08 4.65819E+07-1.68402E+05
 -1      2192 1.73864E+09 2.16948E+07 7.68314E+04 1.85400E+08 4.65819E+07-1.68402E+05
 -1      2193 1.39722E+09 2.40750E+07 9.91519E+04 2.13829E+08 4.67327E+07-2.01506E+05
 -1      2195 1.39722E+09 2.40750E+07 9.91519E+04 2.13829E+08 4.67327E+07-2.01506E+05
 -1      2196 1.02544E+09 2.68284E+07 9.04083E+04 2.20457E+08 4.66097E+07-2.63079E+05
 -1      2198 1.02544E+09 2.68284E+07 9.04083E+04 2.20457E+08 4.66097E+07-2.63079E+05
 -1      2199 6.62118E+08 2.92638E+07 1.00578E+05 2.03155E+08 4.64251E+07-1.75084E+05
 -1      2201 6.62118E+08 2.92638E+07 1.00578E+05 2.03155E+08 4.64251E+07-1.75084E+05
 -1      2202 3.50687E+08 3.24975E+07 9.96430E+04 1.59472E+08 4.60967E+07-3.22809E+05
 -1      2204 3.50687E+08 3.24975E+07 9.96430E+04 1.59472E+08 4.60967E+07-3.22809E+05
 -1      2205 1.33060E+08 3.51831E+07 1.23319E+05 9.01370E+07 4.57463E+07 1.52128E+05
 -1      2207 1.33060E+08 3.51831E+07 1.23319E+05 9.01370E+07 4.57463E+07 1.52128E+05
 -1      2208-1.47756E+09 2.36513E+06 2.38001E+05 3.92427E+08-1.05365E+07 2.59466E+07
 -1      2210-1.47756E+09 2.36513E+06 2.38001E+05 3.92427E+08-1.05365E+07 2.59466E+07
 -1      2211-8.07099E+08-8.51620E+05-4.45659E+05 4.18204E+08 6.69046E+06-1.25288E+07
 -1      2213-8.07099E+08-8.51620E+05-4.45659E+05 4.18204E+08 6.69046E+06-1.25288E+07
 -1      2214-1.36896E+08-1.58487E+07 2.80225E+05 3.65716E+08 4.82787E+06 5.85462E+06
 -1      2216-1.36896E+08-1.58487E+07 2.80225E+05 3.65716E+08 4.82787E+06 5.85462E+06
 -1      2217 4.55569E+08-3.48042E+06-1.68789E+05 3.34699E+08 8.03920E+06-2.76367E+06
 -1      2219 4.55569E+08-3.48042E+06-1.68789E+05 3.34699E+08 8.03920E+06-2.76367E+06
 -1      2220 9.70297E+08-1.94435E+07-1.21735E+04 2.70505E+08 1.03830E+07 1.09968E+06
 -1      2222 9.70297E+08-1.94435E+07-1.21735E+04 2.70505E+08 1.03830E+07 1.09968E+06
 -1      2223 1.37231E+09-1.24141E+07 1.46092E+04 2.04630E+08 1.19868E+07-6.70076E+05
 -1      2225 1.37231E+09-1.24141E+07 1.46092E+04 2.04630E+08 1.19868E+07-6.70076E+05
 -1      2226 1.65200E+09-2.05397E+07-1.28575E+05 1.25003E+08 1.48317E+07-1.12406E+04
 -1      2228 1.65200E+09-2.05397E+07-1.28575E+05 1.25003E+08 1.48317E+07-1.12406E+04
 -1      2229 1.79303E+09-1.85359E+07 5.23157E+04 4.31399E+07 1.65838E+07-3.53138E+05
 -1      2231 1.79303E+09-1.85359E+07 5.23157E+04 4.31399E+07 1.65838E+07-3.53138E+05
 -1      2232 1.79424E+09-2.15530E+07-1.46787E+05-3.99239E+07 1.94425E+07-3.31621E+05
 -1      2234 1.79424E+09-2.15530E+07-1.46787E+05-3.99239E+07 1.94425E+07-3.31621E+05
 -1      2235 1.65772E+09-2.10686E+07 3.56896E+04-1.17997E+08 2.15185E+07-4.04348E+05
 -1      2237 1.65772E+09-2.10686E+07 3.56896E+04-1.17997E+08 2.15185E+07-4.04348E+05
 -1      2238 1.39604E+09-2.16044E+07-1.35379E+05-1.87041E+08 2.43506E+07-4.72191E+05
 -1      2240 1.39604E+09-2.16044E+07-1.35379E+05-1.87041E+08 2.43506E+07-4.72191E+05
 -1      2241 1.02780E+09-2.09955E+07 9.20630E+03-2.42923E+08 2.66492E+07-4.89215E+05
 -1      2243 1.02780E+09-2.09955E+07 9.20630E+03-2.42923E+08 2.66492E+07-4.89215E+05
 -1      2244 5.78463E+08-2.03736E+07-1.20230E+05-2.82286E+08 2.94004E+07-5.32854E+05
 -1      2246 5.78463E+08-2.03736E+07-1.20230E+05-2.82286E+08 2.94004E+07-5.32854E+05
 -1      2247 7.79509E+07-1.93993E+07-1.37649E+04-3.03023E+08 3.17447E+07-5.18685E+05
 -1      2249 7.79509E+07-1.93993E+07-1.37649E+04-3.03023E+08 3.17447E+07-5.18685E+05
 -1      2250-4.40937E+08-1.83784E+07-1.08298E+05-3.03943E+08 3.43001E+07-5.16069E+05
 -1      2252-4.40937E+08-1.83784E+07-1.08298E+05-3.03943E+08 3.43001E+07-5.16069E+05
 -1      2253-9.44656E+08-1.73757E+07-3.13100E+04-2.85382E+08 3.64893E+07-4.68586E+05
 -1      2255-9.44656E+08-1.73757E+07-3.13100E+04-2.85382E+08 3.64893E+07-4.68586E+05
 -1      2256-1.40118E+09-1.65418E+07-1.00652E+05-2.48749E+08 3.87035E+07-4.21287E+05
 -1      2258-1.40118E+09-1.65418E+07-1.00652E+05-2.48749E+08 3.87035E+07-4.21287E+05
 -1      2259-1.78202E+09-1.59754E+07-4.46817E+04-1.96812E+08 4.05498E+07-3.43931E+05
 -1      2261-1.78202E+09-1.59754E+07-4.46817E+04-1.96812E+08 4.05498E+07-3.43931E+05
 -1      2262-2.06420E+09-1.57917E+07-9.69396E+04-1.33265E+08 4.22906E+07-2.64506E+05
 -1      2264-2.06420E+09-1.57917E+07-9.69396E+04-1.33265E+08 4.22906E+07-2.64506E+05
 -1      2265-2.23182E+09-1.60250E+07-5.56077E+04-6.27125E+07 4.36547E+07-1.70069E+05
 -1      2267-2.23182E+09-1.60250E+07-5.56077E+04-6.27125E+07 4.36547E+07-1.70069E+05
 -1      2268-2.27725E+09-1.67687E+07-9.64241E+04 9.75661E+06 4.48418E+07-7.83359E+04
 -1      2270-2.27725E+09-1.67687E+07-9.64241E+04 9.75661E+06 4.48418E+07-7.83359E+04
 -1      2271-2.20179E+09-1.79484E+07-6.57243E+04 7.87399E+07 4.56591E+07 1.45402E+04
 -1      2273-2.20179E+09-1.79484E+07-6.57243E+04 7.87399E+07 4.56591E+07 1.45402E+04
 -1      2274-2.01587E+09-1.96485E+07-9.78358E+04 1.38967E+08 4.62889E+07 9.37551E+04
 -1      2276-2.01587E+09-1.96485E+07-9.78358E+04 1.38967E+08 4.62889E+07 9.37551E+04
 -1      2277-1.73864E+09-2.16948E+07-7.68314E+04 1.85400E+08 4.65819E+07 1.68402E+05
 -1      2279-1.73864E+09-2.16948E+07-7.68314E+04 1.85400E+08 4.65819E+07 1.68402E+05
 -1      2280-1.39722E+09-2.40750E+07-9.91519E+04 2.13829E+08 4.67327E+07 2.01506E+05
 -1      2282-1.39722E+09-2.40750E+07-9.91519E+04 2.13829E+08 4.67327E+07 2.01506E+05
 -1      2283-1.02544E+09-2.68284E+07-9.04083E+04 2.20457E+08 4.66097E+07 2.63079E+05
 -1      2285-1.02544E+09-2.68284E+07-9.04083E+04 2.20457E+08 4.66097E+07 2.63079E+05
 -1      2286-6.62118E+08-2.92638E+07-1.00578E+05 2.03155E+08 4.64251E+07 1.75084E+05
 -1      2288-6.62118E+08-2.92638E+07-1.00578E+05 2.03155E+08 4.64251E+07 1.75084E+05
 -1      2289-3.50687E+08-3.24975E+07-9.96430E+04 1.59472E+08 4.60967E+07 3.22809E+05
 -1      2291-3.50687E+08-3.24975E+07-9.96430E+04 1.59472E+08 4.60967E+07 3.22809E+05
 -1      2292-1.33060E+08-3.51831E+07-1.23319E+05 9.01370E+07 4.57463E+07-1.52128E+05
 -1      2294-1.33060E+08-3.51831E+07-1.23319E+05 9.01370E+07 4.57463E+07-1.52128E+05
 -3
    1PSTEP                        19           1           1          
    1PGM                1.000000E+00                                  
    1PGK                1.668277E+06                                  
    1PHID                         -1                                  
    1PSUBC                         0                                  
    1PMODE                         5                                  
  100CL  105 205.5673943         930                     2    5MODAL      1
 -4  FORC        4    1
 -5  F1          1    2    1    0
 -5  F2          1    2    2    0
 -5  F3          1    2    3    0
 -5  ALL         1    2    0    0    1ALL
 -1       404 8.51999E+05-8.08091E+04 1.92199E+05
 -1       406 2.63800E+05-1.70331E+05 1.92199E+05
 -1       407-7.84043E+02-2.81728E+02-1.24761E+04
 -1       409-7.84043E+02-2.81728E+02-1.24761E+04
 -1       410-2.30705E-06 4.60895E+05 3.60238E-06
 -1       412-2.48212E-06-3.36443E+05 2.22714E-07
 -1       413-7.54502E-07-5.38592E+04 6.25817E+05
 -1       415-4.97430E-07-5.38592E+04-6.25817E+05
 -1       424 8.34258E-06-1.80486E+05-1.02685E-06
 -1       426-5.01997E-07-1.16193E+05-8.53553E-07
 -1       427-1.22342E+05 8.16518E+05-1.43039E+05
 -1       429 1.22342E+05 8.16518E+05 1.43039E+05
 -1       438 7.84043E+02-2.81728E+02 1.24761E+04
 -1       440 7.84043E+02-2.81728E+02 1.24761E+04
 -1       441-8.51999E+05-8.08091E+04-1.92199E+05
 -1       443-2.63800E+05-1.70331E+05-1.92199E+05
 -1       444-1.22342E+05 8.16518E+05 1.43039E+05
 -1       446 1.22342E+05 8.16518E+05-1.43039E+05
 -1       447-4.87650E-06-1.80486E+05-5.32711E-07
 -1       449-2.14566E-06-1.16193E+05-3.19769E-07
 -1       458-4.22537E-07-5.38592E+04-6.25817E+05
 -1       460-4.45385E-07-5.38592E+04 6.25817E+05
 -1       461 2.79251E-06 4.60895E+05 5.85816E-07
 -1       463 2.64613E-06-3.36443E+05 1.67865E-06
 -1       472-8.51999E+05-8.08091E+04 1.92199E+05
 -1       474-2.63800E+05-1.70331E+05 1.92199E+05
 -1       475 7.84043E+02-2.81728E+02-1.24761E+04
 -1       477 7.84043E+02-2.81728E+02-1.24761E+04
 -1       478-7.84043E+02-2.81728E+02 1.24761E+04
 -1       480-7.84043E+02-2.81728E+02 1.24761E+04
 -1       481 8.51999E+05-8.08091E+04-1.92199E+05
 -1       483 2.63800E+05-1.70331E+05-1.92199E+05
 -1       484-2.33772E+02 3.72652E+02-1.23853E+03
 -1       486-2.33772E+02 3.72652E+02-1.23853E+03
 -1       487-3.96528E+02 9.45723E+02-2.64032E+03
 -1       489-3.96528E+02 9.45723E+02-2.64032E+03
 -1       490-4.62863E+02 1.68506E+03-4.04942E+03
 -1       492-4.62863E+02 1.68506E+03-4.04942E+03
 -1       493-4.39402E+02 2.44581E+03-5.41975E+03
 -1       495-4.39402E+02 2.44581E+03-5.41975E+03
 -1       496-3.37091E+02 3.10016E+03-6.76979E+03
 -1       498-3.37091E+02 3.10016E+03-6.76979E+03
 -1       499-1.69377E+02 3.53796E+03-8.08195E+03
 -1       501-1.69377E+02 3.53796E+03-8.08195E+03
 -1       502 4.69002E+01 3.67183E+03-9.35656E+03
 -1       504 4.69002E+01 3.67183E+03-9.35656E+03
 -1       505 2.93198E+02 3.44207E+03-1.05862E+04
 -1       507 2.93198E+02 3.44207E+03-1.05862E+04
 -1       508 5.49654E+02 2.81810E+03-1.17684E+04
 -1       510 5.49654E+02 2.81810E+03-1.17684E+04
 -1       511 7.96487E+02 1.80022E+03-1.29001E+04
 -1       513 7.96487E+02 1.80022E+03-1.29001E+04
 -1       514 1.01497E+03 4.18321E+02-1.39800E+04
 -1       516 1.01497E+03 4.18321E+02-1.39800E+04
 -1       517 1.18857E+03-1.27041E+03-1.50075E+04
 -1       519 1.18857E+03-1.27041E+03-1.50075E+04
 -1       520 1.30392E+03-3.18569E+03-1.59830E+04
 -1       522 1.30392E+03-3.18569E+03-1.59830E+04
 -1       523 1.35159E+03-5.22963E+03-1.69074E+04
 -1       525 1.35159E+03-5.22963E+03-1.69074E+04
 -1       526 1.32662E+03-7.29322E+03-1.77824E+04
 -1       528 1.32662E+03-7.29322E+03-1.77824E+04
 -1       529 1.22879E+03-9.26354E+03-1.86097E+04
 -1       531 1.22879E+03-9.26354E+03-1.86097E+04
 -1       532 1.06254E+03-1.10310E+04-1.93908E+04
 -1       534 1.06254E+03-1.10310E+04-1.93908E+04
 -1       535 8.36639E+02-1.24963E+04-2.01270E+04
 -1       537 8.36639E+02-1.24963E+04-2.01270E+04
 -1       538 5.63518E+02-1.35769E+04-2.08193E+04
 -1       540 5.63518E+02-1.35769E+04-2.08193E+04
 -1       541 2.58383E+02-1.42114E+04-2.14676E+04
 -1       543 2.58383E+02-1.42114E+04-2.14676E+04
 -1       544-6.18837E+01-1.43640E+04-2.20711E+04
 -1       546-6.18837E+01-1.43640E+04-2.20711E+04
 -1       547-3.79944E+02-1.40251E+04-2.26281E+04
 -1       549-3.79944E+02-1.40251E+04-2.26281E+04
 -1       550-6.79294E+02-1.32119E+04-2.31358E+04
 -1       552-6.79294E+02-1.32119E+04-2.31358E+04
 -1       553-9.45537E+02-1.19658E+04-2.35906E+04
 -1       555-9.45537E+02-1.19658E+04-2.35906E+04
 -1       556-1.16757E+03-1.03482E+04-2.39885E+04
 -1       558-1.16757E+03-1.03482E+04-2.39885E+04
 -1       559-1.33863E+03-8.43475E+03-2.43244E+04
 -1       561-1.33863E+03-8.43475E+03-2.43244E+04
 -1       562-1.45715E+03-6.30823E+03-2.45935E+04
 -1       564-1.45715E+03-6.30823E+03-2.45935E+04
 -1       565-1.52734E+03-4.04999E+03-2.47904E+04
 -1       567-1.52734E+03-4.04999E+03-2.47904E+04
 -1       568-1.55967E+03-1.73062E+03-2.49111E+04
 -1       570-1.55967E+03-1.73062E+03-2.49111E+04
 -1       571-1.04501E+03-5.63032E+02-1.65309E+04
 -1       573-1.04501E+03-5.63032E+02-1.65309E+04
 -1       574-1.19092E-05-2.75588E+05 3.67126E-07
 -1       576-1.19039E-05-1.44158E+05 1.64916E-08
 -1       577 1.04411E-05 2.12072E+05-1.03157E+05
 -1       579 1.04163E-05 2.12072E+05 1.03157E+05
 -1       588-9.84694E-06 1.98459E+05 6.61776E-06
 -1       590-9.83704E-06 8.03077E+04 5.88227E-06
 -1       591 1.19697E-05-1.34107E+05 9.27354E+04
 -1       593 1.19907E-05-1.34107E+05-9.27354E+04
 -1       602-7.99961E-06 7.39605E+04 1.69862E-06
 -1       604-8.00806E-06-1.29158E+05 1.11593E-06
 -1       605 1.14777E-05 3.65234E+04 1.59425E+05
 -1       607 1.14658E-05 3.65234E+04-1.59425E+05
 -1       616-1.06078E-05 2.08750E+05-3.77138E-06
 -1       618-1.06261E-05-5.24025E+04-3.46337E-06
 -1       619 9.73994E-06-6.55621E+04 2.04974E+05
 -1       621 9.73073E-06-6.55621E+04-2.04974E+05
 -1       630-1.22506E-05 2.19919E+05-6.64404E-06
 -1       632-1.22514E-05-1.30911E+05-6.29593E-06
 -1       633 9.48097E-06-2.85911E+04 2.75361E+05
 -1       635 9.52165E-06-2.85911E+04-2.75361E+05
 -1       644-1.06689E-05 2.82816E+05-1.36520E-06
 -1       646-1.06158E-05-1.31453E+05-2.19217E-06
 -1       647 1.02722E-05-5.72536E+04 3.25154E+05
 -1       649 1.02575E-05-5.72536E+04-3.25154E+05
 -1       658-5.38968E-06 3.23838E+05 5.59905E-06
 -1       660-5.33856E-06-1.74891E+05 3.06923E-06
 -1       661 9.77428E-06-5.46115E+04 3.91445E+05
 -1       663 9.66795E-06-5.46115E+04-3.91445E+05
 -1       672-1.06945E-06 3.69311E+05 3.66522E-06
 -1       674-1.19073E-06-2.05955E+05 4.61273E-06
 -1       675 7.91757E-06-6.16791E+04 4.51518E+05
 -1       677 7.88054E-06-6.16791E+04-4.51518E+05
 -1       686-2.01827E-06 4.13588E+05-2.09412E-06
 -1       688-2.15082E-06-2.48567E+05 1.65599E-06
 -1       689 6.35655E-06-6.37761E+04 5.19715E+05
 -1       691 6.51769E-06-6.37761E+04-5.19715E+05
 -1       700-5.30576E-06 4.53505E+05-6.39736E-07
 -1       702-5.35361E-06-2.94694E+05-1.07989E-06
 -1       703 6.10999E-06-6.33387E+04 5.87250E+05
 -1       705 6.21526E-06-6.33387E+04-5.87250E+05
 -1       714-5.38639E-06 4.94692E+05 2.39440E-06
 -1       716-5.40059E-06-3.44735E+05 2.78231E-06
 -1       717 5.51120E-06-6.28798E+04 6.58853E+05
 -1       719 5.42640E-06-6.28798E+04-6.58853E+05
 -1       728-2.86226E-06 5.31211E+05 4.84735E-06
 -1       730-2.98233E-06-3.99488E+05 6.95971E-06
 -1       731 2.83551E-06-5.88331E+04 7.30490E+05
 -1       733 2.78176E-06-5.88331E+04-7.30490E+05
 -1       742-1.05074E-06 5.68144E+05 5.42239E-06
 -1       744-1.20960E-06-4.55181E+05 6.29210E-06
 -1       745-1.14282E-06-5.53482E+04 8.03191E+05
 -1       747-1.21723E-06-5.53482E+04-8.03191E+05
 -1       756 2.21248E-06 6.01417E+05 4.83014E-06
 -1       758 2.11770E-06-5.12655E+05 4.32851E-06
 -1       759-4.09276E-06-4.96261E+04 8.74417E+05
 -1       761-4.12228E-06-4.96261E+04-8.74417E+05
 -1       770 5.34873E-06 6.34183E+05 5.58093E-06
 -1       772 5.19854E-06-5.68184E+05 3.20064E-06
 -1       773-5.42277E-06-4.47288E+04 9.43718E+05
 -1       775-5.61548E-06-4.47288E+04-9.43718E+05
 -1       784 4.91502E-06 6.64141E+05 3.57443E-06
 -1       786 5.00484E-06-6.21603E+05 3.83595E-06
 -1       787-7.43797E-06-3.91959E+04 1.00916E+06
 -1       789-7.61470E-06-3.91959E+04-1.00916E+06
 -1       798 4.51987E-06 6.93057E+05 2.98411E-06
 -1       800 4.78264E-06-6.69981E+05 6.24354E-07
 -1       801-6.74635E-06-3.49939E+04 1.06983E+06
 -1       803-6.83336E-06-3.49939E+04-1.06983E+06
 -1       812 7.50499E-06 7.19700E+05 9.76600E-08
 -1       814 7.55243E-06-7.12705E+05-1.36475E-06
 -1       815-3.01345E-06-3.14714E+04 1.12427E+06
 -1       817-2.68989E-06-3.14714E+04-1.12427E+06
 -1       826 7.53980E-06 7.45038E+05 1.45969E-06
 -1       828 7.61450E-06-7.47800E+05 2.15348E-06
 -1       829 3.33622E-07-2.98115E+04 1.17170E+06
 -1       831-2.27119E-07-2.98115E+04-1.17170E+06
 -1       840 7.09862E-06 7.68394E+05 6.45540E-06
 -1       842 7.20865E-06-7.74845E+05 5.02427E-06
 -1       843-1.02330E-06-2.96758E+04 1.21126E+06
 -1       845-1.02603E-06-2.96758E+04-1.21126E+06
 -1       854 6.62013E-06 7.90301E+05 3.54770E-06
 -1       856 6.75005E-06-7.92920E+05-8.24661E-07
 -1       857-3.17171E-06-3.16661E+04 1.24264E+06
 -1       859-2.93794E-06-3.16661E+04-1.24264E+06
 -1       868 5.64487E-06 8.10392E+05-1.84362E-06
 -1       870 5.48558E-06-8.02139E+05-2.23621E-06
 -1       871-3.32591E-06-3.55117E+04 1.26565E+06
 -1       873-3.40740E-06-3.55117E+04-1.26565E+06
 -1       882 3.89705E-06 8.28878E+05 1.60781E-06
 -1       884 3.90740E-06-8.02778E+05-1.07649E-06
 -1       885-2.69188E-06-4.12425E+04 1.28066E+06
 -1       887-2.67714E-06-4.12425E+04-1.28066E+06
 -1       896 2.71361E-08 8.45825E+05 4.05378E-06
 -1       898 2.32063E-09-7.95271E+05-9.08197E-07
 -1       899-2.52754E-06-4.88220E+04 1.28807E+06
 -1       901-2.62863E-06-4.88220E+04-1.28807E+06
 -1       910-2.35958E-06 8.60786E+05 4.22235E-06
 -1       912-2.45814E-06-7.81587E+05 6.30546E-07
 -1       913-8.47163E-07-5.72586E+04 1.28907E+06
 -1       915-1.03256E-06-5.72586E+04-1.28907E+06
 -1       924-2.06362E-06 8.75214E+05 6.25080E-06
 -1       926-2.01893E-06-7.61114E+05 3.65415E-06
 -1       927 7.65577E-07-6.78535E+04 1.28433E+06
 -1       929 6.45466E-07-6.78535E+04-1.28433E+06
 -1       938-1.07585E-06 8.86421E+05 7.78906E-06
 -1       940-9.15769E-07-7.39441E+05 7.31226E-06
 -1       941 7.37624E-07-7.67617E+04 1.27611E+06
 -1       943 4.70634E-07-7.67617E+04-1.27611E+06
 -1       952-8.92825E-07 9.00689E+05 6.30815E-06
 -1       954-9.30917E-07-7.11030E+05 5.78688E-06
 -1       955 9.26568E-07-9.01815E+04 1.26501E+06
 -1       957 6.80680E-07-9.01815E+04-1.26501E+06
 -1       966-2.48222E-06 9.07766E+05 6.31958E-06
 -1       968-2.58904E-06-6.91077E+05-1.45111E-07
 -1       969-7.57881E-07-9.56433E+04 1.25491E+06
 -1       971-6.66686E-07-9.56433E+04-1.25491E+06
 -1       980 8.39104E+05 4.19471E+04 2.68427E+04
 -1       982 2.47200E+05-1.54283E+04 2.68427E+04
 -1       983 1.04501E+03-5.63032E+02 1.65309E+04
 -1       985 1.04501E+03-5.63032E+02 1.65309E+04
 -1       986 2.33772E+02 3.72652E+02 1.23853E+03
 -1       988 2.33772E+02 3.72652E+02 1.23853E+03
 -1       989 3.96528E+02 9.45723E+02 2.64032E+03
 -1       991 3.96528E+02 9.45723E+02 2.64032E+03
 -1       992 4.62863E+02 1.68506E+03 4.04942E+03
 -1       994 4.62863E+02 1.68506E+03 4.04942E+03
 -1       995 4.39402E+02 2.44581E+03 5.41975E+03
 -1       997 4.39402E+02 2.44581E+03 5.41975E+03
 -1       998 3.37091E+02 3.10016E+03 6.76979E+03
 -1      1000 3.37091E+02 3.10016E+03 6.76979E+03
 -1      1001 1.69377E+02 3.53796E+03 8.08195E+03
 -1      1003 1.69377E+02 3.53796E+03 8.08195E+03
 -1      1004-4.69002E+01 3.67183E+03 9.35656E+03
 -1      1006-4.69002E+01 3.67183E+03 9.35656E+03
 -1      1007-2.93198E+02 3.44207E+03 1.05862E+04
 -1      1009-2.93198E+02 3.44207E+03 1.05862E+04
 -1      1010-5.49654E+02 2.81810E+03 1.17684E+04
 -1      1012-5.49654E+02 2.81810E+03 1.17684E+04
 -1      1013-7.96487E+02 1.80022E+03 1.29001E+04
 -1      1015-7.96487E+02 1.80022E+03 1.29001E+04
 -1      1016-1.01497E+03 4.18321E+02 1.39800E+04
 -1      1018-1.01497E+03 4.18321E+02 1.39800E+04
 -1      1019-1.18857E+03-1.27041E+03 1.50075E+04
 -1      1021-1.18857E+03-1.27041E+03 1.50075E+04
 -1      1022-1.30392E+03-3.18569E+03 1.59830E+04
 -1      1024-1.30392E+03-3.18569E+03 1.59830E+04
 -1      1025-1.35159E+03-5.22963E+03 1.69074E+04
 -1      1027-1.35159E+03-5.22963E+03 1.69074E+04
 -1      1028-1.32662E+03-7.29322E+03 1.77824E+04
 -1      1030-1.32662E+03-7.29322E+03 1.77824E+04
 -1      1031-1.22879E+03-9.26354E+03 1.86097E+04
 -1      1033-1.22879E+03-9.26354E+03 1.86097E+04
 -1      1034-1.06254E+03-1.10310E+04 1.93908E+04
 -1      1036-1.06254E+03-1.10310E+04 1.93908E+04
 -1      1037-8.36639E+02-1.24963E+04 2.01270E+04
 -1      1039-8.36639E+02-1.24963E+04 2.01270E+04
 -1      1040-5.63518E+02-1.35769E+04 2.08193E+04
 -1      1042-5.63518E+02-1.35769E+04 2.08193E+04
 -1      1043-2.58383E+02-1.42114E+04 2.14676E+04
 -1      1045-2.58383E+02-1.42114E+04 2.14676E+04
 -1      1046 6.18837E+01-1.43640E+04 2.20711E+04
 -1      1048 6.18837E+01-1.43640E+04 2.20711E+04
 -1      1049 3.79944E+02-1.40251E+04 2.26281E+04
 -1      1051 3.79944E+02-1.40251E+04 2.26281E+04
 -1      1052 6.79294E+02-1.32119E+04 2.31358E+04
 -1      1054 6.79294E+02-1.32119E+04 2.31358E+04
 -1      1055 9.45537E+02-1.19658E+04 2.35906E+04
 -1      1057 9.45537E+02-1.19658E+04 2.35906E+04
 -1      1058 1.16757E+03-1.03482E+04 2.39885E+04
 -1      1060 1.16757E+03-1.03482E+04 2.39885E+04
 -1      1061 1.33863E+03-8.43475E+03 2.43244E+04
 -1      1063 1.33863E+03-8.43475E+03 2.43244E+04
 -1      1064 1.45715E+03-6.30823E+03 2.45935E+04
 -1      1066 1.45715E+03-6.30823E+03 2.45935E+04
 -1      1067 1.52734E+03-4.04999E+03 2.47904E+04
 -1      1069 1.52734E+03-4.04999E+03 2.47904E+04
 -1      1070 1.55967E+03-1.73062E+03 2.49111E+04
 -1      1072 1.55967E+03-1.73062E+03 2.49111E+04
 -1      1073-8.39104E+05 4.19471E+04-2.68427E+04
 -1      1075-2.47200E+05-1.54283E+04-2.68427E+04
 -1      1076-1.11593E+06-5.74628E+05-7.74148E+04
 -1      1078 1.11593E+06-5.74628E+05 7.74148E+04
 -1      1079-1.98717E+06-7.70737E+05 1.16495E-05
 -1      1081 1.98717E+06-7.70737E+05 1.27091E-05
 -1      1082-1.11593E+06-5.74628E+05 7.74148E+04
 -1      1084 1.11593E+06-5.74628E+05-7.74148E+04
 -1      1085-8.98050E-06 2.12072E+05 1.03157E+05
 -1      1087-8.97247E-06 2.12072E+05-1.03157E+05
 -1      1088 4.25598E-06-2.75588E+05-1.84846E-06
 -1      1090 4.26866E-06-1.44158E+05-1.82613E-06
 -1      1099-1.05292E-05-1.34107E+05-9.27354E+04
 -1      1101-1.05214E-05-1.34107E+05 9.27354E+04
 -1      1102 7.64352E-06 1.98459E+05 5.17474E-07
 -1      1104 7.66094E-06 8.03077E+04-1.26609E-07
 -1      1113-1.02621E-05 3.65234E+04-1.59425E+05
 -1      1115-1.02877E-05 3.65234E+04 1.59425E+05
 -1      1116 1.09671E-05 7.39605E+04-2.68862E-07
 -1      1118 1.09524E-05-1.29158E+05-1.75466E-07
 -1      1127-9.96412E-06-6.55621E+04-2.04974E+05
 -1      1129-1.00788E-05-6.55621E+04 2.04974E+05
 -1      1130 1.03877E-05 2.08750E+05 3.49843E-07
 -1      1132 1.03543E-05-5.24025E+04 6.94723E-07
 -1      1141-9.52042E-06-2.85911E+04-2.75361E+05
 -1      1143-9.45288E-06-2.85911E+04 2.75361E+05
 -1      1144 8.24824E-06 2.19919E+05 4.21768E-06
 -1      1146 8.28425E-06-1.30911E+05 3.58619E-06
 -1      1155-8.42093E-06-5.72536E+04-3.25154E+05
 -1      1157-8.28108E-06-5.72536E+04 3.25154E+05
 -1      1158 4.64422E-06 2.82816E+05 8.00466E-06
 -1      1160 4.68598E-06-1.31453E+05 5.41459E-06
 -1      1169-5.85999E-06-5.46115E+04-3.91445E+05
 -1      1171-5.89172E-06-5.46115E+04 3.91445E+05
 -1      1172 1.76270E-06 3.23838E+05 5.14191E-06
 -1      1174 1.74163E-06-1.74891E+05 3.15157E-06
 -1      1183-3.59235E-06-6.16791E+04-4.51518E+05
 -1      1185-3.56824E-06-6.16791E+04 4.51518E+05
 -1      1186 3.19945E-06 3.69311E+05 1.14227E-06
 -1      1188 3.24402E-06-2.05955E+05 1.64218E-06
 -1      1197-4.33181E-06-6.37761E+04-5.19715E+05
 -1      1199-4.27477E-06-6.37761E+04 5.19715E+05
 -1      1200 4.68163E-06 4.13588E+05 1.95045E-06
 -1      1202 4.66831E-06-2.48567E+05 3.62305E-06
 -1      1211-5.29588E-06-6.33387E+04-5.87250E+05
 -1      1213-5.25106E-06-6.33387E+04 5.87250E+05
 -1      1214 1.40129E-06 4.53505E+05 2.50029E-06
 -1      1216 1.52033E-06-2.94694E+05 5.60772E-06
 -1      1225-3.07962E-06-6.28798E+04-6.58853E+05
 -1      1227-3.10072E-06-6.28798E+04 6.58853E+05
 -1      1228 5.05139E-07 4.94692E+05 1.66008E-06
 -1      1230 5.17090E-07-3.44735E+05 1.46001E-06
 -1      1239 5.04725E-07-5.88331E+04-7.30490E+05
 -1      1241 4.56025E-07-5.88331E+04 7.30490E+05
 -1      1242 2.97005E-06 5.31211E+05-3.09168E-06
 -1      1244 2.90107E-06-3.99488E+05-3.52151E-06
 -1      1253 1.53937E-06-5.53482E+04-8.03191E+05
 -1      1255 1.51782E-06-5.53482E+04 8.03191E+05
 -1      1256 3.16493E-06 5.68144E+05-6.97651E-06
 -1      1258 3.04079E-06-4.55181E+05-6.53010E-06
 -1      1267 1.85356E-06-4.96261E+04-8.74417E+05
 -1      1269 1.69991E-06-4.96261E+04 8.74417E+05
 -1      1270-1.13524E-07 6.01417E+05-5.51672E-06
 -1      1272-5.73902E-08-5.12655E+05-6.36916E-06
 -1      1281 2.86601E-06-4.47288E+04-9.43718E+05
 -1      1283 2.73949E-06-4.47288E+04 9.43718E+05
 -1      1284-4.97359E-06 6.34183E+05-2.95550E-06
 -1      1286-4.95606E-06-5.68184E+05-6.34607E-06
 -1      1295 3.23024E-06-3.91959E+04-1.00916E+06
 -1      1297 3.37260E-06-3.91959E+04 1.00916E+06
 -1      1298-8.19293E-06 6.64141E+05-4.16218E-06
 -1      1300-8.26592E-06-6.21603E+05-6.10656E-06
 -1      1309 1.96220E-06-3.49939E+04-1.06983E+06
 -1      1311 1.89405E-06-3.49939E+04 1.06983E+06
 -1      1312-7.97280E-06 6.93057E+05-3.80859E-06
 -1      1314-7.90469E-06-6.69981E+05-7.06412E-06
 -1      1323-7.51595E-08-3.14714E+04-1.12427E+06
 -1      1325-2.24780E-07-3.14714E+04 1.12427E+06
 -1      1326-4.79186E-06 7.19700E+05-3.56002E-06
 -1      1328-4.59829E-06-7.12705E+05-3.77883E-06
 -1      1337 1.24884E-06-2.98115E+04-1.17170E+06
 -1      1339 1.24902E-06-2.98115E+04 1.17170E+06
 -1      1340-8.63502E-07 7.45038E+05-3.08762E-06
 -1      1342-1.01570E-06-7.47800E+05 6.67837E-07
 -1      1351 3.11578E-06-2.96758E+04-1.21126E+06
 -1      1353 3.13933E-06-2.96758E+04 1.21126E+06
 -1      1354 1.86058E-07 7.68394E+05-2.88123E-07
 -1      1356 1.73062E-07-7.74845E+05 1.67237E-06
 -1      1365 4.33068E-06-3.16661E+04-1.24264E+06
 -1      1367 4.36675E-06-3.16661E+04 1.24264E+06
 -1      1368-2.27962E-07 7.90301E+05 4.93787E-06
 -1      1370-2.89548E-07-7.92920E+05 5.03501E-06
 -1      1379 6.04192E-06-3.55117E+04-1.26565E+06
 -1      1381 6.18287E-06-3.55117E+04 1.26565E+06
 -1      1382 1.55901E-07 8.10392E+05 2.39115E-06
 -1      1384 2.53612E-07-8.02139E+05 2.38053E-06
 -1      1393 5.42634E-06-4.12425E+04-1.28066E+06
 -1      1395 5.66716E-06-4.12425E+04 1.28066E+06
 -1      1396 3.61042E-07 8.28878E+05-7.43873E-06
 -1      1398 1.30682E-07-8.02778E+05-8.04716E-06
 -1      1407 5.56517E-07-4.88220E+04-1.28807E+06
 -1      1409 6.09500E-07-4.88220E+04 1.28807E+06
 -1      1410 1.12154E-06 8.45825E+05-1.06873E-05
 -1      1412 1.13289E-06-7.95271E+05-1.23517E-05
 -1      1421-2.33628E-06-5.72586E+04-1.28907E+06
 -1      1423-2.33849E-06-5.72586E+04 1.28907E+06
 -1      1424 1.07173E-06 8.60786E+05-5.47961E-06
 -1      1426 1.69665E-06-7.81587E+05-5.44822E-06
 -1      1435-1.49235E-06-6.78535E+04-1.28433E+06
 -1      1437-1.37948E-06-6.78535E+04 1.28433E+06
 -1      1438 9.68419E-07 8.75214E+05-1.75695E-06
 -1      1440 9.61660E-07-7.61114E+05 3.23420E-07
 -1      1449-4.24956E-07-7.67617E+04-1.27611E+06
 -1      1451-6.55444E-07-7.67617E+04 1.27611E+06
 -1      1452 1.26779E-06 8.86421E+05-5.96975E-06
 -1      1454 1.30920E-06-7.39441E+05-1.57603E-06
 -1      1463-1.69258E-06-9.01815E+04-1.26501E+06
 -1      1465-1.26067E-06-9.01815E+04 1.26501E+06
 -1      1466 4.01445E-06 9.00689E+05-6.65374E-06
 -1      1468 4.29916E-06-7.11030E+05-3.12271E-06
 -1      1477-1.04259E-06-9.56433E+04-1.25491E+06
 -1      1479-5.96867E-07-9.56433E+04 1.25491E+06
 -1      1480 5.29661E-06 9.07766E+05-2.07779E-06
 -1      1482 5.18397E-06-6.91077E+05-2.13715E-07
 -1      1491-7.15456E-07 3.05477E+04-1.85605E-06
 -1      1493-5.52200E-07 3.05477E+04 8.84577E-07
 -1      1494-4.63227E-07 4.32368E+04-1.18237E-06
 -1      1496-7.57569E-07 4.32368E+04 1.65279E-06
 -1      1497 7.14701E-07 3.05477E+04 1.31514E-06
 -1      1499 7.46491E-07 3.05477E+04 1.51016E-06
 -1      1500 2.33772E+02 3.72652E+02-1.23853E+03
 -1      1502 2.33772E+02 3.72652E+02-1.23853E+03
 -1      1503 3.96528E+02 9.45723E+02-2.64032E+03
 -1      1505 3.96528E+02 9.45723E+02-2.64032E+03
 -1      1506 4.62863E+02 1.68506E+03-4.04942E+03
 -1      1508 4.62863E+02 1.68506E+03-4.04942E+03
 -1      1509 4.39402E+02 2.44581E+03-5.41975E+03
 -1      1511 4.39402E+02 2.44581E+03-5.41975E+03
 -1      1512 3.37091E+02 3.10016E+03-6.76979E+03
 -1      1514 3.37091E+02 3.10016E+03-6.76979E+03
 -1      1515 1.69377E+02 3.53796E+03-8.08195E+03
 -1      1517 1.69377E+02 3.53796E+03-8.08195E+03
 -1      1518-4.69002E+01 3.67183E+03-9.35656E+03
 -1      1520-4.69002E+01 3.67183E+03-9.35656E+03
 -1      1521-2.93198E+02 3.44207E+03-1.05862E+04
 -1      1523-2.93198E+02 3.44207E+03-1.05862E+04
 -1      1524-5.49654E+02 2.81810E+03-1.17684E+04
 -1      1526-5.49654E+02 2.81810E+03-1.17684E+04
 -1      1527-7.96487E+02 1.80022E+03-1.29001E+04
 -1      1529-7.96487E+02 1.80022E+03-1.29001E+04
 -1      1530-1.01497E+03 4.18321E+02-1.39800E+04
 -1      1532-1.01497E+03 4.18321E+02-1.39800E+04
 -1      1533-1.18857E+03-1.27041E+03-1.50075E+04
 -1      1535-1.18857E+03-1.27041E+03-1.50075E+04
 -1      1536-1.30392E+03-3.18569E+03-1.59830E+04
 -1      1538-1.30392E+03-3.18569E+03-1.59830E+04
 -1      1539-1.35159E+03-5.22963E+03-1.69074E+04
 -1      1541-1.35159E+03-5.22963E+03-1.69074E+04
 -1      1542-1.32662E+03-7.29322E+03-1.77824E+04
 -1      1544-1.32662E+03-7.29322E+03-1.77824E+04
 -1      1545-1.22879E+03-9.26354E+03-1.86097E+04
 -1      1547-1.22879E+03-9.26354E+03-1.86097E+04
 -1      1548-1.06254E+03-1.10310E+04-1.93908E+04
 -1      1550-1.06254E+03-1.10310E+04-1.93908E+04
 -1      1551-8.36639E+02-1.24963E+04-2.01270E+04
 -1      1553-8.36639E+02-1.24963E+04-2.01270E+04
 -1      1554-5.63518E+02-1.35769E+04-2.08193E+04
 -1      1556-5.63518E+02-1.35769E+04-2.08193E+04
 -1      1557-2.58383E+02-1.42114E+04-2.14676E+04
 -1      1559-2.58383E+02-1.42114E+04-2.14676E+04
 -1      1560 6.18837E+01-1.43640E+04-2.20711E+04
 -1      1562 6.18837E+01-1.43640E+04-2.20711E+04
 -1      1563 3.79944E+02-1.40251E+04-2.26281E+04
 -1      1565 3.79944E+02-1.40251E+04-2.26281E+04
 -1      1566 6.79294E+02-1.32119E+04-2.31358E+04
 -1      1568 6.79294E+02-1.32119E+04-2.31358E+04
 -1      1569 9.45537E+02-1.19658E+04-2.35906E+04
 -1      1571 9.45537E+02-1.19658E+04-2.35906E+04
 -1      1572 1.16757E+03-1.03482E+04-2.39885E+04
 -1      1574 1.16757E+03-1.03482E+04-2.39885E+04
 -1      1575 1.33863E+03-8.43475E+03-2.43244E+04
 -1      1577 1.33863E+03-8.43475E+03-2.43244E+04
 -1      1578 1.45715E+03-6.30823E+03-2.45935E+04
 -1      1580 1.45715E+03-6.30823E+03-2.45935E+04
 -1      1581 1.52734E+03-4.04999E+03-2.47904E+04
 -1      1583 1.52734E+03-4.04999E+03-2.47904E+04
 -1      1584 1.55967E+03-1.73062E+03-2.49111E+04
 -1      1586 1.55967E+03-1.73062E+03-2.49111E+04
 -1      1587 1.04501E+03-5.63032E+02-1.65309E+04
 -1      1589 1.04501E+03-5.63032E+02-1.65309E+04
 -1      1590-8.39104E+05 4.19471E+04 2.68427E+04
 -1      1592-2.47200E+05-1.54283E+04 2.68427E+04
 -1      1593-1.04501E+03-5.63032E+02 1.65309E+04
 -1      1595-1.04501E+03-5.63032E+02 1.65309E+04
 -1      1596-2.33772E+02 3.72652E+02 1.23853E+03
 -1      1598-2.33772E+02 3.72652E+02 1.23853E+03
 -1      1599-3.96528E+02 9.45723E+02 2.64032E+03
 -1      1601-3.96528E+02 9.45723E+02 2.64032E+03
 -1      1602-4.62863E+02 1.68506E+03 4.04942E+03
 -1      1604-4.62863E+02 1.68506E+03 4.04942E+03
 -1      1605-4.39402E+02 2.44581E+03 5.41975E+03
 -1      1607-4.39402E+02 2.44581E+03 5.41975E+03
 -1      1608-3.37091E+02 3.10016E+03 6.76979E+03
 -1      1610-3.37091E+02 3.10016E+03 6.76979E+03
 -1      1611-1.69377E+02 3.53796E+03 8.08195E+03
 -1      1613-1.69377E+02 3.53796E+03 8.08195E+03
 -1      1614 4.69002E+01 3.67183E+03 9.35656E+03
 -1      1616 4.69002E+01 3.67183E+03 9.35656E+03
 -1      1617 2.93198E+02 3.44207E+03 1.05862E+04
 -1      1619 2.93198E+02 3.44207E+03 1.05862E+04
 -1      1620 5.49654E+02 2.81810E+03 1.17684E+04
 -1      1622 5.49654E+02 2.81810E+03 1.17684E+04
 -1      1623 7.96487E+02 1.80022E+03 1.29001E+04
 -1      1625 7.96487E+02 1.80022E+03 1.29001E+04
 -1      1626 1.01497E+03 4.18321E+02 1.39800E+04
 -1      1628 1.01497E+03 4.18321E+02 1.39800E+04
 -1      1629 1.18857E+03-1.27041E+03 1.50075E+04
 -1      1631 1.18857E+03-1.27041E+03 1.50075E+04
 -1      1632 1.30392E+03-3.18569E+03 1.59830E+04
 -1      1634 1.30392E+03-3.18569E+03 1.59830E+04
 -1      1635 1.35159E+03-5.22963E+03 1.69074E+04
 -1      1637 1.35159E+03-5.22963E+03 1.69074E+04
 -1      1638 1.32662E+03-7.29322E+03 1.77824E+04
 -1      1640 1.32662E+03-7.29322E+03 1.77824E+04
 -1      1641 1.22879E+03-9.26354E+03 1.86097E+04
 -1      1643 1.22879E+03-9.26354E+03 1.86097E+04
 -1      1644 1.06254E+03-1.10310E+04 1.93908E+04
 -1      1646 1.06254E+03-1.10310E+04 1.93908E+04
 -1      1647 8.36639E+02-1.24963E+04 2.01270E+04
 -1      1649 8.36639E+02-1.24963E+04 2.01270E+04
 -1      1650 5.63518E+02-1.35769E+04 2.08193E+04
 -1      1652 5.63518E+02-1.35769E+04 2.08193E+04
 -1      1653 2.58383E+02-1.42114E+04 2.14676E+04
 -1      1655 2.58383E+02-1.42114E+04 2.14676E+04
 -1      1656-6.18837E+01-1.43640E+04 2.20711E+04
 -1      1658-6.18837E+01-1.43640E+04 2.20711E+04
 -1      1659-3.79944E+02-1.40251E+04 2.26281E+04
 -1      1661-3.79944E+02-1.40251E+04 2.26281E+04
 -1      1662-6.79294E+02-1.32119E+04 2.31358E+04
 -1      1664-6.79294E+02-1.32119E+04 2.31358E+04
 -1      1665-9.45537E+02-1.19658E+04 2.35906E+04
 -1      1667-9.45537E+02-1.19658E+04 2.35906E+04
 -1      1668-1.16757E+03-1.03482E+04 2.39885E+04
 -1      1670-1.16757E+03-1.03482E+04 2.39885E+04
 -1      1671-1.33863E+03-8.43475E+03 2.43244E+04
 -1      1673-1.33863E+03-8.43475E+03 2.43244E+04
 -1      1674-1.45715E+03-6.30823E+03 2.45935E+04
 -1      1676-1.45715E+03-6.30823E+03 2.45935E+04
 -1      1677-1.52734E+03-4.04999E+03 2.47904E+04
 -1      1679-1.52734E+03-4.04999E+03 2.47904E+04
 -1      1680-1.55967E+03-1.73062E+03 2.49111E+04
 -1      1682-1.55967E+03-1.73062E+03 2.49111E+04
 -1      1683 8.39104E+05 4.19471E+04-2.68427E+04
 -1      1685 2.47200E+05-1.54283E+04-2.68427E+04
 -1      1686-3.07163E+02 7.26314E+02-1.63982E+03
 -1      1688-3.07163E+02 7.26314E+02-1.63982E+03
 -1      1689-5.23585E+02 1.88116E+03-3.50348E+03
 -1      1691-5.23585E+02 1.88116E+03-3.50348E+03
 -1      1692-6.12514E+02 3.36905E+03-5.37535E+03
 -1      1694-6.12514E+02 3.36905E+03-5.37535E+03
 -1      1695-5.81786E+02 4.89759E+03-7.19381E+03
 -1      1697-5.81786E+02 4.89759E+03-7.19381E+03
 -1      1698-4.46083E+02 6.21356E+03-8.98515E+03
 -1      1700-4.46083E+02 6.21356E+03-8.98515E+03
 -1      1701-2.23304E+02 7.09400E+03-1.07252E+04
 -1      1703-2.23304E+02 7.09400E+03-1.07252E+04
 -1      1704 6.40744E+01 7.36567E+03-1.24149E+04
 -1      1706 6.40744E+01 7.36567E+03-1.24149E+04
 -1      1707 3.91472E+02 6.90785E+03-1.40438E+04
 -1      1709 3.91472E+02 6.90785E+03-1.40438E+04
 -1      1710 7.32371E+02 5.66006E+03-1.56091E+04
 -1      1712 7.32371E+02 5.66006E+03-1.56091E+04
 -1      1713 1.06053E+03 3.62254E+03-1.71063E+04
 -1      1715 1.06053E+03 3.62254E+03-1.71063E+04
 -1      1716 1.35097E+03 8.55410E+02-1.85341E+04
 -1      1718 1.35097E+03 8.55410E+02-1.85341E+04
 -1      1719 1.58175E+03-2.52678E+03-1.98916E+04
 -1      1721 1.58175E+03-2.52678E+03-1.98916E+04
 -1      1722 1.73506E+03-6.36312E+03-2.11797E+04
 -1      1724 1.73506E+03-6.36312E+03-2.11797E+04
 -1      1725 1.79837E+03-1.04574E+04-2.23999E+04
 -1      1727 1.79837E+03-1.04574E+04-2.23999E+04
 -1      1728 1.76506E+03-1.45913E+04-2.35545E+04
 -1      1730 1.76506E+03-1.45913E+04-2.35545E+04
 -1      1731 1.63485E+03-1.85384E+04-2.46461E+04
 -1      1733 1.63485E+03-1.85384E+04-2.46461E+04
 -1      1734 1.41364E+03-2.20792E+04-2.56771E+04
 -1      1736 1.41364E+03-2.20792E+04-2.56771E+04
 -1      1737 1.11308E+03-2.50148E+04-2.66494E+04
 -1      1739 1.11308E+03-2.50148E+04-2.66494E+04
 -1      1740 7.49706E+02-2.71794E+04-2.75643E+04
 -1      1742 7.49706E+02-2.71794E+04-2.75643E+04
 -1      1743 3.43730E+02-2.84507E+04-2.84221E+04
 -1      1745 3.43730E+02-2.84507E+04-2.84221E+04
 -1      1746-8.23971E+01-2.87564E+04-2.92215E+04
 -1      1748-8.23971E+01-2.87564E+04-2.92215E+04
 -1      1749-5.05625E+02-2.80776E+04-2.99605E+04
 -1      1751-5.05625E+02-2.80776E+04-2.99605E+04
 -1      1752-9.04016E+02-2.64488E+04-3.06351E+04
 -1      1754-9.04016E+02-2.64488E+04-3.06351E+04
 -1      1755-1.25843E+03-2.39529E+04-3.12407E+04
 -1      1757-1.25843E+03-2.39529E+04-3.12407E+04
 -1      1758-1.55413E+03-2.07132E+04-3.17713E+04
 -1      1760-1.55413E+03-2.07132E+04-3.17713E+04
 -1      1761-1.78213E+03-1.68815E+04-3.22202E+04
 -1      1763-1.78213E+03-1.68815E+04-3.22202E+04
 -1      1764-1.94037E+03-1.26237E+04-3.25804E+04
 -1      1766-1.94037E+03-1.26237E+04-3.25804E+04
 -1      1767-2.03453E+03-8.10309E+03-3.28445E+04
 -1      1769-2.03453E+03-8.10309E+03-3.28445E+04
 -1      1770-2.07842E+03-3.46144E+03-3.30066E+04
 -1      1772-2.07842E+03-3.46144E+03-3.30066E+04
 -1      1773 3.07163E+02 7.26314E+02 1.63982E+03
 -1      1775 3.07163E+02 7.26314E+02 1.63982E+03
 -1      1776 5.23585E+02 1.88116E+03 3.50348E+03
 -1      1778 5.23585E+02 1.88116E+03 3.50348E+03
 -1      1779 6.12514E+02 3.36905E+03 5.37535E+03
 -1      1781 6.12514E+02 3.36905E+03 5.37535E+03
 -1      1782 5.81786E+02 4.89759E+03 7.19381E+03
 -1      1784 5.81786E+02 4.89759E+03 7.19381E+03
 -1      1785 4.46083E+02 6.21356E+03 8.98515E+03
 -1      1787 4.46083E+02 6.21356E+03 8.98515E+03
 -1      1788 2.23304E+02 7.09400E+03 1.07252E+04
 -1      1790 2.23304E+02 7.09400E+03 1.07252E+04
 -1      1791-6.40744E+01 7.36567E+03 1.24149E+04
 -1      1793-6.40744E+01 7.36567E+03 1.24149E+04
 -1      1794-3.91472E+02 6.90785E+03 1.40438E+04
 -1      1796-3.91472E+02 6.90785E+03 1.40438E+04
 -1      1797-7.32371E+02 5.66006E+03 1.56091E+04
 -1      1799-7.32371E+02 5.66006E+03 1.56091E+04
 -1      1800-1.06053E+03 3.62254E+03 1.71063E+04
 -1      1802-1.06053E+03 3.62254E+03 1.71063E+04
 -1      1803-1.35097E+03 8.55410E+02 1.85341E+04
 -1      1805-1.35097E+03 8.55410E+02 1.85341E+04
 -1      1806-1.58175E+03-2.52678E+03 1.98916E+04
 -1      1808-1.58175E+03-2.52678E+03 1.98916E+04
 -1      1809-1.73506E+03-6.36312E+03 2.11797E+04
 -1      1811-1.73506E+03-6.36312E+03 2.11797E+04
 -1      1812-1.79837E+03-1.04574E+04 2.23999E+04
 -1      1814-1.79837E+03-1.04574E+04 2.23999E+04
 -1      1815-1.76506E+03-1.45913E+04 2.35545E+04
 -1      1817-1.76506E+03-1.45913E+04 2.35545E+04
 -1      1818-1.63485E+03-1.85384E+04 2.46461E+04
 -1      1820-1.63485E+03-1.85384E+04 2.46461E+04
 -1      1821-1.41364E+03-2.20792E+04 2.56771E+04
 -1      1823-1.41364E+03-2.20792E+04 2.56771E+04
 -1      1824-1.11308E+03-2.50148E+04 2.66494E+04
 -1      1826-1.11308E+03-2.50148E+04 2.66494E+04
 -1      1827-7.49706E+02-2.71794E+04 2.75643E+04
 -1      1829-7.49706E+02-2.71794E+04 2.75643E+04
 -1      1830-3.43730E+02-2.84507E+04 2.84221E+04
 -1      1832-3.43730E+02-2.84507E+04 2.84221E+04
 -1      1833 8.23971E+01-2.87564E+04 2.92215E+04
 -1      1835 8.23971E+01-2.87564E+04 2.92215E+04
 -1      1836 5.05625E+02-2.80776E+04 2.99605E+04
 -1      1838 5.05625E+02-2.80776E+04 2.99605E+04
 -1      1839 9.04016E+02-2.64488E+04 3.06351E+04
 -1      1841 9.04016E+02-2.64488E+04 3.06351E+04
 -1      1842 1.25843E+03-2.39529E+04 3.12407E+04
 -1      1844 1.25843E+03-2.39529E+04 3.12407E+04
 -1      1845 1.55413E+03-2.07132E+04 3.17713E+04
 -1      1847 1.55413E+03-2.07132E+04 3.17713E+04
 -1      1848 1.78213E+03-1.68815E+04 3.22202E+04
 -1      1850 1.78213E+03-1.68815E+04 3.22202E+04
 -1      1851 1.94037E+03-1.26237E+04 3.25804E+04
 -1      1853 1.94037E+03-1.26237E+04 3.25804E+04
 -1      1854 2.03453E+03-8.10309E+03 3.28445E+04
 -1      1856 2.03453E+03-8.10309E+03 3.28445E+04
 -1      1857 2.07842E+03-3.46144E+03 3.30066E+04
 -1      1859 2.07842E+03-3.46144E+03 3.30066E+04
 -1      1860 6.19792E-07 4.35630E+03-8.56162E-07
 -1      1862 5.94548E-07 4.35630E+03-8.77848E-07
 -1      1863 1.36353E-06 9.67654E+03 2.33937E-07
 -1      1865 1.38780E-06 9.67654E+03 1.61730E-07
 -1      1866 1.28944E-06 1.54702E+04 4.66000E-07
 -1      1868 1.27368E-06 1.54702E+04 1.78985E-07
 -1      1869-1.42405E-06 2.12274E+04 7.93836E-07
 -1      1871-1.55508E-06 2.12274E+04 3.31733E-07
 -1      1872-3.32949E-06 2.66030E+04 2.82835E-07
 -1      1874-3.26445E-06 2.66030E+04 2.30615E-07
 -1      1875-2.57117E-06 3.12301E+04-1.27004E-06
 -1      1877-2.65176E-06 3.12301E+04-7.20014E-07
 -1      1878 2.00853E-07 3.48575E+04-1.49881E-06
 -1      1880 2.85258E-08 3.48575E+04-1.46750E-06
 -1      1881 1.67078E-06 3.72879E+04-8.34098E-07
 -1      1883 1.64318E-06 3.72879E+04-1.31059E-06
 -1      1884 3.52147E-07 3.84294E+04 2.22635E-06
 -1      1886 2.25712E-07 3.84294E+04 2.07388E-06
 -1      1887-1.73233E-06 3.82741E+04 2.04186E-06
 -1      1889-1.80982E-06 3.82741E+04 2.40403E-06
 -1      1890-8.47199E-07 3.69093E+04-1.09407E-06
 -1      1892-8.75910E-07 3.69093E+04-1.55094E-06
 -1      1893-2.64229E-07 3.45029E+04-1.59454E-06
 -1      1895-3.24806E-07 3.45029E+04-3.59663E-06
 -1      1896-1.00773E-06 3.12945E+04-2.10875E-06
 -1      1898-9.87711E-07 3.12945E+04-3.81238E-06
 -1      1899 1.07530E-06 2.75768E+04-3.02672E-06
 -1      1901 7.47819E-07 2.75768E+04-4.03478E-06
 -1      1902 3.33705E-06 2.36767E+04-1.72142E-06
 -1      1904 3.10386E-06 2.36767E+04-2.21909E-06
 -1      1905 2.59764E-06 1.99331E+04 2.69854E-07
 -1      1907 2.81940E-06 1.99331E+04-1.51033E-06
 -1      1908 1.53784E-06 1.66746E+04-1.08659E-06
 -1      1910 1.79517E-06 1.66746E+04-2.21948E-06
 -1      1911 3.36318E-06 1.41983E+04-1.92496E-07
 -1      1913 3.04748E-06 1.41983E+04 5.94446E-09
 -1      1914 4.74220E-06 1.27505E+04 1.83321E-06
 -1      1916 4.69784E-06 1.27505E+04 1.66565E-06
 -1      1917 4.52157E-06 1.25116E+04 9.40629E-07
 -1      1919 4.98011E-06 1.25116E+04 1.76909E-06
 -1      1920 2.05529E-06 1.35850E+04 2.15117E-06
 -1      1922 2.01922E-06 1.35850E+04 1.38222E-06
 -1      1923 1.18617E-07 1.59922E+04 9.55139E-07
 -1      1925-3.56335E-07 1.59922E+04 1.22556E-06
 -1      1926-8.24370E-07 1.96730E+04 2.26096E-06
 -1      1928-6.99046E-07 1.96730E+04-9.16993E-07
 -1      1929-1.94314E-06 2.44924E+04 1.77989E-06
 -1      1931-2.07276E-06 2.44924E+04 9.60950E-07
 -1      1932-1.80172E-06 3.02528E+04 1.03907E-06
 -1      1934-2.41713E-06 3.02528E+04-8.14634E-07
 -1      1935-1.25461E-06 3.67111E+04-9.88435E-07
 -1      1937-1.45064E-06 3.67111E+04-3.14620E-06
 -1      1938-1.12420E-06 4.36013E+04-6.53731E-07
 -1      1940-1.21379E-06 4.36013E+04 1.46813E-06
 -1      1941-3.73479E-07 5.06578E+04-1.82389E-06
 -1      1943-5.51335E-07 5.06578E+04-1.30475E-06
 -1      1944-7.61310E-07 5.76452E+04-4.14563E-06
 -1      1946-5.60496E-07 5.76452E+04-1.63581E-06
 -1      1947 1.51006E-06 5.72962E+03 1.90876E-06
 -1      1949 1.54440E-06 5.72962E+03 1.83513E-06
 -1      1950 3.67219E-07 1.25421E+04 3.69060E-06
 -1      1952 3.84529E-07 1.25421E+04 3.61579E-06
 -1      1953 2.96799E-07 1.98274E+04 7.90715E-07
 -1      1955 1.50490E-07 1.98274E+04 3.12801E-07
 -1      1956-4.06917E-08 2.70382E+04-7.21830E-07
 -1      1958-1.98453E-07 2.70382E+04-1.34941E-06
 -1      1959-1.11129E-06 3.38338E+04 7.34606E-07
 -1      1961-1.08551E-06 3.38338E+04 7.09977E-07
 -1      1962-1.22438E-06 3.98282E+04 1.29303E-06
 -1      1964-1.05688E-06 3.98282E+04 1.90001E-06
 -1      1965-1.98585E-06 4.47663E+04 2.76693E-06
 -1      1967-1.98124E-06 4.47663E+04 3.23788E-06
 -1      1968-2.74238E-06 4.84409E+04 1.34922E-06
 -1      1970-2.97260E-06 4.84409E+04 1.16928E-06
 -1      1971-1.90843E-06 5.07572E+04-7.76567E-07
 -1      1973-2.00434E-06 5.07572E+04 2.27468E-07
 -1      1974-2.50086E-06 5.17040E+04 5.29726E-08
 -1      1976-2.48141E-06 5.17040E+04 2.76301E-07
 -1      1977-2.09004E-06 5.13695E+04-1.45264E-07
 -1      1979-2.12793E-06 5.13695E+04-4.65938E-07
 -1      1980-9.89670E-07 4.99241E+04 5.79657E-07
 -1      1982-1.25212E-06 4.99241E+04-9.11477E-07
 -1      1983-1.36592E-07 4.76121E+04-9.74382E-07
 -1      1985 3.19042E-08 4.76121E+04-1.78129E-06
 -1      1986 1.78527E-06 4.47326E+04-3.38888E-06
 -1      1988 1.41480E-06 4.47326E+04-4.70597E-06
 -1      1989 3.67342E-06 4.16196E+04-9.67037E-07
 -1      1991 3.55805E-06 4.16196E+04-2.21886E-06
 -1      1992 3.47305E-06 3.86197E+04 7.76836E-07
 -1      1994 3.89967E-06 3.86197E+04 1.41176E-06
 -1      1995 1.16623E-06 3.60690E+04 2.04289E-06
 -1      1997 1.23407E-06 3.60690E+04 6.52130E-07
 -1      1998-5.85331E-07 3.42707E+04 1.91130E-06
 -1      2000-9.43013E-07 3.42707E+04 1.62557E-06
 -1      2001 1.01355E-06 3.34762E+04 3.09951E-06
 -1      2003 1.00787E-06 3.34762E+04 2.72966E-06
 -1      2004 1.94634E-06 3.38685E+04 5.70526E-07
 -1      2006 2.22948E-06 3.38685E+04-1.47886E-06
 -1      2007 4.74316E-07 3.55518E+04-8.27607E-07
 -1      2009 3.33116E-07 3.55518E+04 3.25406E-06
 -1      2010-9.35543E-07 3.85452E+04-1.17530E-06
 -1      2012-9.30033E-07 3.85452E+04 9.04538E-07
 -1      2013-6.64016E-07 4.27840E+04-1.21194E-06
 -1      2015-3.97873E-07 4.27840E+04 4.76732E-07
 -1      2016-1.38373E-06 4.81258E+04 3.14586E-06
 -1      2018-1.42168E-06 4.81258E+04 1.72046E-06
 -1      2019-2.14340E-06 5.43635E+04 4.63038E-06
 -1      2021-2.49436E-06 5.43635E+04-1.66247E-07
 -1      2022-1.79572E-06 6.12426E+04 2.24765E-06
 -1      2024-2.01554E-06 6.12426E+04 9.33829E-07
 -1      2025-1.66520E-06 6.84840E+04 4.74360E-06
 -1      2027-1.52168E-06 6.84840E+04 2.97719E-06
 -1      2028-2.51916E-07 7.58080E+04 3.84360E-06
 -1      2030 1.17310E-07 7.58080E+04 2.65753E-06
 -1      2031-8.12225E-07 8.29648E+04-1.12137E-06
 -1      2033-1.11706E-06 8.29648E+04 3.98695E-06
 -1      2034-3.13731E-06 4.35630E+03 3.16676E-06
 -1      2036-3.09987E-06 4.35630E+03 3.09450E-06
 -1      2037-2.89971E-06 9.67654E+03 3.33451E-06
 -1      2039-2.82486E-06 9.67654E+03 3.22436E-06
 -1      2040 5.10774E-07 1.54702E+04-6.90936E-07
 -1      2042 4.07466E-07 1.54702E+04-1.19370E-06
 -1      2043 1.48633E-06 2.12274E+04-2.57439E-06
 -1      2045 1.25647E-06 2.12274E+04-3.20325E-06
 -1      2046 6.15376E-07 2.66030E+04-4.76528E-07
 -1      2048 5.85583E-07 2.66030E+04-5.32058E-07
 -1      2049-2.21580E-07 3.12301E+04-4.93226E-07
 -1      2051 6.03928E-08 3.12301E+04 1.54232E-07
 -1      2052-1.84300E-06 3.48575E+04 1.23081E-06
 -1      2054-1.86018E-06 3.48575E+04 1.99115E-06
 -1      2055-2.34025E-06 3.72879E+04 3.45482E-06
 -1      2057-2.45035E-06 3.72879E+04 4.62316E-06
 -1      2058-1.16104E-06 3.84294E+04 1.41104E-06
 -1      2060-1.04386E-06 3.84294E+04 2.47664E-06
 -1      2061-3.47790E-06 3.82741E+04-6.70876E-07
 -1      2063-3.40026E-06 3.82741E+04-4.27328E-07
 -1      2064-3.40694E-06 3.69093E+04-1.72224E-06
 -1      2066-3.67366E-06 3.69093E+04-1.48901E-06
 -1      2067-1.12078E-07 3.45029E+04-6.61697E-07
 -1      2069-1.76003E-07 3.45029E+04-3.97536E-07
 -1      2070 9.86548E-07 3.12945E+04-1.20775E-06
 -1      2072 9.34397E-07 3.12945E+04-6.24628E-07
 -1      2073 4.91552E-07 2.75768E+04-1.19164E-06
 -1      2075 3.93546E-07 2.75768E+04-3.07340E-06
 -1      2076-8.59970E-07 2.36767E+04-1.24770E-06
 -1      2078-8.90991E-07 2.36767E+04-2.48743E-06
 -1      2079-2.35423E-06 1.99331E+04 9.64947E-07
 -1      2081-2.35149E-06 1.99331E+04 1.40994E-06
 -1      2082-3.11214E-06 1.66746E+04 3.44098E-06
 -1      2084-3.28976E-06 1.66746E+04 3.37554E-06
 -1      2085-3.18723E-06 1.41983E+04 3.60103E-06
 -1      2087-3.70138E-06 1.41983E+04 2.04783E-06
 -1      2088-8.84232E-08 1.27505E+04-7.64281E-07
 -1      2090-5.00463E-07 1.27505E+04-2.85858E-07
 -1      2091 1.66581E-06 1.25116E+04-2.70288E-06
 -1      2093 1.72275E-06 1.25116E+04-3.50702E-06
 -1      2094 2.03882E-06 1.35850E+04-2.13482E-06
 -1      2096 1.69616E-06 1.35850E+04-1.54606E-06
 -1      2097 3.01284E-06 1.59922E+04-2.13433E-06
 -1      2099 3.31670E-06 1.59922E+04-2.47313E-06
 -1      2100 2.83064E-06 1.96730E+04 1.07596E-06
 -1      2102 3.36644E-06 1.96730E+04 1.08718E-06
 -1      2103 5.72235E-07 2.44924E+04 1.53371E-06
 -1      2105 5.21297E-07 2.44924E+04 3.12517E-06
 -1      2106-8.74639E-07 3.02528E+04 2.68564E-06
 -1      2108-1.09533E-06 3.02528E+04 2.43077E-06
 -1      2109-7.26037E-07 3.67111E+04 4.58160E-06
 -1      2111-7.76695E-07 3.67111E+04-1.15663E-07
 -1      2112 2.13035E-07 4.36013E+04 6.35173E-06
 -1      2114 6.64500E-08 4.36013E+04 2.85044E-06
 -1      2115 2.63879E-06 5.06578E+04 6.18251E-06
 -1      2117 3.32310E-06 5.06578E+04 2.79506E-06
 -1      2118 2.05816E-06 5.76452E+04 1.33854E-06
 -1      2120 2.71518E-06 5.76452E+04 9.73794E-07
 -1      2121 3.07163E+02 7.26314E+02-1.63982E+03
 -1      2123 3.07163E+02 7.26314E+02-1.63982E+03
 -1      2124 5.23585E+02 1.88116E+03-3.50348E+03
 -1      2126 5.23585E+02 1.88116E+03-3.50348E+03
 -1      2127 6.12514E+02 3.36905E+03-5.37535E+03
 -1      2129 6.12514E+02 3.36905E+03-5.37535E+03
 -1      2130 5.81786E+02 4.89759E+03-7.19381E+03
 -1      2132 5.81786E+02 4.89759E+03-7.19381E+03
 -1      2133 4.46083E+02 6.21356E+03-8.98515E+03
 -1      2135 4.46083E+02 6.21356E+03-8.98515E+03
 -1      2136 2.23304E+02 7.09400E+03-1.07252E+04
 -1      2138 2.23304E+02 7.09400E+03-1.07252E+04
 -1      2139-6.40744E+01 7.36567E+03-1.24149E+04
 -1      2141-6.40744E+01 7.36567E+03-1.24149E+04
 -1      2142-3.91472E+02 6.90785E+03-1.40438E+04
 -1      2144-3.91472E+02 6.90785E+03-1.40438E+04
 -1      2145-7.32371E+02 5.66006E+03-1.56091E+04
 -1      2147-7.32371E+02 5.66006E+03-1.56091E+04
 -1      2148-1.06053E+03 3.62254E+03-1.71063E+04
 -1      2150-1.06053E+03 3.62254E+03-1.71063E+04
 -1      2151-1.35097E+03 8.55410E+02-1.85341E+04
 -1      2153-1.35097E+03 8.55410E+02-1.85341E+04
 -1      2154-1.58175E+03-2.52678E+03-1.98916E+04
 -1      2156-1.58175E+03-2.52678E+03-1.98916E+04
 -1      2157-1.73506E+03-6.36312E+03-2.11797E+04
 -1      2159-1.73506E+03-6.36312E+03-2.11797E+04
 -1      2160-1.79837E+03-1.04574E+04-2.23999E+04
 -1      2162-1.79837E+03-1.04574E+04-2.23999E+04
 -1      2163-1.76506E+03-1.45913E+04-2.35545E+04
 -1      2165-1.76506E+03-1.45913E+04-2.35545E+04
 -1      2166-1.63485E+03-1.85384E+04-2.46461E+04
 -1      2168-1.63485E+03-1.85384E+04-2.46461E+04
 -1      2169-1.41364E+03-2.20792E+04-2.56771E+04
 -1      2171-1.41364E+03-2.20792E+04-2.56771E+04
 -1      2172-1.11308E+03-2.50148E+04-2.66494E+04
 -1      2174-1.11308E+03-2.50148E+04-2.66494E+04
 -1      2175-7.49706E+02-2.71794E+04-2.75643E+04
 -1      2177-7.49706E+02-2.71794E+04-2.75643E+04
 -1      2178-3.43730E+02-2.84507E+04-2.84221E+04
 -1      2180-3.43730E+02-2.84507E+04-2.84221E+04
 -1      2181 8.23971E+01-2.87564E+04-2.92215E+04
 -1      2183 8.23971E+01-2.87564E+04-2.92215E+04
 -1      2184 5.05625E+02-2.80776E+04-2.99605E+04
 -1      2186 5.05625E+02-2.80776E+04-2.99605E+04
 -1      2187 9.04016E+02-2.64488E+04-3.06351E+04
 -1      2189 9.04016E+02-2.64488E+04-3.06351E+04
 -1      2190 1.25843E+03-2.39529E+04-3.12407E+04
 -1      2192 1.25843E+03-2.39529E+04-3.12407E+04
 -1      2193 1.55413E+03-2.07132E+04-3.17713E+04
 -1      2195 1.55413E+03-2.07132E+04-3.17713E+04
 -1      2196 1.78213E+03-1.68815E+04-3.22202E+04
 -1      2198 1.78213E+03-1.68815E+04-3.22202E+04
 -1      2199 1.94037E+03-1.26237E+04-3.25804E+04
 -1      2201 1.94037E+03-1.26237E+04-3.25804E+04
 -1      2202 2.03453E+03-8.10309E+03-3.28445E+04
 -1      2204 2.03453E+03-8.10309E+03-3.28445E+04
 -1      2205 2.07842E+03-3.46144E+03-3.30066E+04
 -1      2207 2.07842E+03-3.46144E+03-3.30066E+04
 -1      2208-3.07163E+02 7.26314E+02 1.63982E+03
 -1      2210-3.07163E+02 7.26314E+02 1.63982E+03
 -1      2211-5.23585E+02 1.88116E+03 3.50348E+03
 -1      2213-5.23585E+02 1.88116E+03 3.50348E+03
 -1      2214-6.12514E+02 3.36905E+03 5.37535E+03
 -1      2216-6.12514E+02 3.36905E+03 5.37535E+03
 -1      2217-5.81786E+02 4.89759E+03 7.19381E+03
 -1      2219-5.81786E+02 4.89759E+03 7.19381E+03
 -1      2220-4.46083E+02 6.21356E+03 8.98515E+03
 -1      2222-4.46083E+02 6.21356E+03 8.98515E+03
 -1      2223-2.23304E+02 7.09400E+03 1.07252E+04
 -1      2225-2.23304E+02 7.09400E+03 1.07252E+04
 -1      2226 6.40744E+01 7.36567E+03 1.24149E+04
 -1      2228 6.40744E+01 7.36567E+03 1.24149E+04
 -1      2229 3.91472E+02 6.90785E+03 1.40438E+04
 -1      2231 3.91472E+02 6.90785E+03 1.40438E+04
 -1      2232 7.32371E+02 5.66006E+03 1.56091E+04
 -1      2234 7.32371E+02 5.66006E+03 1.56091E+04
 -1      2235 1.06053E+03 3.62254E+03 1.71063E+04
 -1      2237 1.06053E+03 3.62254E+03 1.71063E+04
 -1      2238 1.35097E+03 8.55410E+02 1.85341E+04
 -1      2240 1.35097E+03 8.55410E+02 1.85341E+04
 -1      2241 1.58175E+03-2.52678E+03 1.98916E+04
 -1      2243 1.58175E+03-2.52678E+03 1.98916E+04
 -1      2244 1.73506E+03-6.36312E+03 2.11797E+04
 -1      2246 1.73506E+03-6.36312E+03 2.11797E+04
 -1      2247 1.79837E+03-1.04574E+04 2.23999E+04
 -1      2249 1.79837E+03-1.04574E+04 2.23999E+04
 -1      2250 1.76506E+03-1.45913E+04 2.35545E+04
 -1      2252 1.76506E+03-1.45913E+04 2.35545E+04
 -1      2253 1.63485E+03-1.85384E+04 2.46461E+04
 -1      2255 1.63485E+03-1.85384E+04 2.46461E+04
 -1      2256 1.41364E+03-2.20792E+04 2.56771E+04
 -1      2258 1.41364E+03-2.20792E+04 2.56771E+04
 -1      2259 1.11308E+03-2.50148E+04 2.66494E+04
 -1      2261 1.11308E+03-2.50148E+04 2.66494E+04
 -1      2262 7.49706E+02-2.71794E+04 2.75643E+04
 -1      2264 7.49706E+02-2.71794E+04 2.75643E+04
 -1      2265 3.43730E+02-2.84507E+04 2.84221E+04
 -1      2267 3.43730E+02-2.84507E+04 2.84221E+04
 -1      2268-8.23971E+01-2.87564E+04 2.92215E+04
 -1      2270-8.23971E+01-2.87564E+04 2.92215E+04
 -1      2271-5.05625E+02-2.80776E+04 2.99605E+04
 -1      2273-5.05625E+02-2.80776E+04 2.99605E+04
 -1      2274-9.04016E+02-2.64488E+04 3.06351E+04
 -1      2276-9.04016E+02-2.64488E+04 3.06351E+04
 -1      2277-1.25843E+03-2.39529E+04 3.12407E+04
 -1      2279-1.25843E+03-2.39529E+04 3.12407E+04
 -1      2280-1.55413E+03-2.07132E+04 3.17713E+04
 -1      2282-1.55413E+03-2.07132E+04 3.17713E+04
 -1      2283-1.78213E+03-1.68815E+04 3.22202E+04
 -1      2285-1.78213E+03-1.68815E+04 3.22202E+04
 -1      2286-1.94037E+03-1.26237E+04 3.25804E+04
 -1      2288-1.94037E+03-1.26237E+04 3.25804E+04
 -1      2289-2.03453E+03-8.10309E+03 3.28445E+04
 -1      2291-2.03453E+03-8.10309E+03 3.28445E+04
 -1      2292-2.07842E+03-3.46144E+03 3.30066E+04
 -1      2294-2.07842E+03-3.46144E+03 3.30066E+04
 -3
    1PSTEP                        20           1           1          
    1PGM                1.000000E+00                                  
    1PGK                1.668277E+06                                  
    1PHID                         -1                                  
    1PSUBC                         0                                  
    1PMODE                         5                                  
  100CL  105 205.5673943         930                     2    5MODAL      1
 -4  ERROR       1    1
 -5  STR(%)      1    1    0    0
 -1       404 0.00000E+00
 -1       406 0.00000E+00
 -1       407 0.00000E+00
 -1       409 0.00000E+00
 -1       410 0.00000E+00
 -1       412 0.00000E+00
 -1       413 0.00000E+00
 -1       415 0.00000E+00
 -1       424 0.00000E+00
 -1       426 0.00000E+00
 -1       427 0.00000E+00
 -1       429 0.00000E+00
 -1       438 0.00000E+00
 -1       440 0.00000E+00
 -1       441 0.00000E+00
 -1       443 0.00000E+00
 -1       444 0.00000E+00
 -1       446 0.00000E+00
 -1       447 0.00000E+00
 -1       449 0.00000E+00
 -1       458 0.00000E+00
 -1       460 0.00000E+00
 -1       461 0.00000E+00
 -1       463 0.00000E+00
 -1       472 0.00000E+00
 -1       474 0.00000E+00
 -1       475 0.00000E+00
 -1       477 0.00000E+00
 -1       478 0.00000E+00
 -1       480 0.00000E+00
 -1       481 0.00000E+00
 -1       483 0.00000E+00
 -1       484 0.00000E+00
 -1       486 0.00000E+00
 -1       487 0.00000E+00
 -1       489 0.00000E+00
 -1       490 0.00000E+00
 -1       492 0.00000E+00
 -1       493 0.00000E+00
 -1       495 0.00000E+00
 -1       496 0.00000E+00
 -1       498 0.00000E+00
 -1       499 0.00000E+00
 -1       501 0.00000E+00
 -1       502 0.00000E+00
 -1       504 0.00000E+00
 -1       505 0.00000E+00
 -1       507 0.00000E+00
 -1       508 0.00000E+00
 -1       510 0.00000E+00
 -1       511 0.00000E+00
 -1       513 0.00000E+00
 -1       514 0.00000E+00
 -1       516 0.00000E+00
 -1       517 0.00000E+00
 -1       519 0.00000E+00
 -1       520 0.00000E+00
 -1       522 0.00000E+00
 -1       523 0.00000E+00
 -1       525 0.00000E+00
 -1       526 0.00000E+00
 -1       528 0.00000E+00
 -1       529 0.00000E+00
 -1       531 0.00000E+00
 -1       532 0.00000E+00
 -1       534 0.00000E+00
 -1       535 0.00000E+00
 -1       537 0.00000E+00
 -1       538 0.00000E+00
 -1       540 0.00000E+00
 -1       541 0.00000E+00
 -1       543 0.00000E+00
 -1       544 0.00000E+00
 -1       546 0.00000E+00
 -1       547 0.00000E+00
 -1       549 0.00000E+00
 -1       550 0.00000E+00
 -1       552 0.00000E+00
 -1       553 0.00000E+00
 -1       555 0.00000E+00
 -1       556 0.00000E+00
 -1       558 0.00000E+00
 -1       559 0.00000E+00
 -1       561 0.00000E+00
 -1       562 0.00000E+00
 -1       564 0.00000E+00
 -1       565 0.00000E+00
 -1       567 0.00000E+00
 -1       568 0.00000E+00
 -1       570 0.00000E+00
 -1       571 0.00000E+00
 -1       573 0.00000E+00
 -1       574 0.00000E+00
 -1       576 0.00000E+00
 -1       577 0.00000E+00
 -1       579 0.00000E+00
 -1       588 0.00000E+00
 -1       590 0.00000E+00
 -1       591 0.00000E+00
 -1       593 0.00000E+00
 -1       602 0.00000E+00
 -1       604 0.00000E+00
 -1       605 0.00000E+00
 -1       607 0.00000E+00
 -1       616 0.00000E+00
 -1       618 0.00000E+00
 -1       619 0.00000E+00
 -1       621 0.00000E+00
 -1       630 0.00000E+00
 -1       632 0.00000E+00
 -1       633 0.00000E+00
 -1       635 0.00000E+00
 -1       644 0.00000E+00
 -1       646 0.00000E+00
 -1       647 0.00000E+00
 -1       649 0.00000E+00
 -1       658 0.00000E+00
 -1       660 0.00000E+00
 -1       661 0.00000E+00
 -1       663 0.00000E+00
 -1       672 0.00000E+00
 -1       674 0.00000E+00
 -1       675 0.00000E+00
 -1       677 0.00000E+00
 -1       686 0.00000E+00
 -1       688 0.00000E+00
 -1       689 0.00000E+00
 -1       691 0.00000E+00
 -1       700 0.00000E+00
 -1       702 0.00000E+00
 -1       703 0.00000E+00
 -1       705 0.00000E+00
 -1       714 0.00000E+00
 -1       716 0.00000E+00
 -1       717 0.00000E+00
 -1       719 0.00000E+00
 -1       728 0.00000E+00
 -1       730 0.00000E+00
 -1       731 0.00000E+00
 -1       733 0.00000E+00
 -1       742 0.00000E+00
 -1       744 0.00000E+00
 -1       745 0.00000E+00
 -1       747 0.00000E+00
 -1       756 0.00000E+00
 -1       758 0.00000E+00
 -1       759 0.00000E+00
 -1       761 0.00000E+00
 -1       770 0.00000E+00
 -1       772 0.00000E+00
 -1       773 0.00000E+00
 -1       775 0.00000E+00
 -1       784 0.00000E+00
 -1       786 0.00000E+00
 -1       787 0.00000E+00
 -1       789 0.00000E+00
 -1       798 0.00000E+00
 -1       800 0.00000E+00
 -1       801 0.00000E+00
 -1       803 0.00000E+00
 -1       812 0.00000E+00
 -1       814 0.00000E+00
 -1       815 0.00000E+00
 -1       817 0.00000E+00
 -1       826 0.00000E+00
 -1       828 0.00000E+00
 -1       829 0.00000E+00
 -1       831 0.00000E+00
 -1       840 0.00000E+00
 -1       842 0.00000E+00
 -1       843 0.00000E+00
 -1       845 0.00000E+00
 -1       854 0.00000E+00
 -1       856 0.00000E+00
 -1       857 0.00000E+00
 -1       859 0.00000E+00
 -1       868 0.00000E+00
 -1       870 0.00000E+00
 -1       871 0.00000E+00
 -1       873 0.00000E+00
 -1       882 0.00000E+00
 -1       884 0.00000E+00
 -1       885 0.00000E+00
 -1       887 0.00000E+00
 -1       896 0.00000E+00
 -1       898 0.00000E+00
 -1       899 0.00000E+00
 -1       901 0.00000E+00
 -1       910 0.00000E+00
 -1       912 0.00000E+00
 -1       913 0.00000E+00
 -1       915 0.00000E+00
 -1       924 0.00000E+00
 -1       926 0.00000E+00
 -1       927 0.00000E+00
 -1       929 0.00000E+00
 -1       938 0.00000E+00
 -1       940 0.00000E+00
 -1       941 0.00000E+00
 -1       943 0.00000E+00
 -1       952 0.00000E+00
 -1       954 0.00000E+00
 -1       955 0.00000E+00
 -1       957 0.00000E+00
 -1       966 0.00000E+00
 -1       968 0.00000E+00
 -1       969 0.00000E+00
 -1       971 0.00000E+00
 -1       980 0.00000E+00
 -1       982 0.00000E+00
 -1       983 0.00000E+00
 -1       985 0.00000E+00
 -1       986 0.00000E+00
 -1       988 0.00000E+00
 -1       989 0.00000E+00
 -1       991 0.00000E+00
 -1       992 0.00000E+00
 -1       994 0.00000E+00
 -1       995 0.00000E+00
 -1       997 0.00000E+00
 -1       998 0.00000E+00
 -1      1000 0.00000E+00
 -1      1001 0.00000E+00
 -1      1003 0.00000E+00
 -1      1004 0.00000E+00
 -1      1006 0.00000E+00
 -1      1007 0.00000E+00
 -1      1009 0.00000E+00
 -1      1010 0.00000E+00
 -1      1012 0.00000E+00
 -1      1013 0.00000E+00
 -1      1015 0.00000E+00
 -1      1016 0.00000E+00
 -1      1018 0.00000E+00
 -1      1019 0.00000E+00
 -1      1021 0.00000E+00
 -1      1022 0.00000E+00
 -1      1024 0.00000E+00
 -1      1025 0.00000E+00
 -1      1027 0.00000E+00
 -1      1028 0.00000E+00
 -1      1030 0.00000E+00
 -1      1031 0.00000E+00
 -1      1033 0.00000E+00
 -1      1034 0.00000E+00
 -1      1036 0.00000E+00
 -1      1037 0.00000E+00
 -1      1039 0.00000E+00
 -1      1040 0.00000E+00
 -1      1042 0.00000E+00
 -1      1043 0.00000E+00
 -1      1045 0.00000E+00
 -1      1046 0.00000E+00
 -1      1048 0.00000E+00
 -1      1049 0.00000E+00
 -1      1051 0.00000E+00
 -1      1052 0.00000E+00
 -1      1054 0.00000E+00
 -1      1055 0.00000E+00
 -1      1057 0.00000E+00
 -1      1058 0.00000E+00
 -1      1060 0.00000E+00
 -1      1061 0.00000E+00
 -1      1063 0.00000E+00
 -1      1064 0.00000E+00
 -1      1066 0.00000E+00
 -1      1067 0.00000E+00
 -1      1069 0.00000E+00
 -1      1070 0.00000E+00
 -1      1072 0.00000E+00
 -1      1073 0.00000E+00
 -1      1075 0.00000E+00
 -1      1076 0.00000E+00
 -1      1078 0.00000E+00
 -1      1079 0.00000E+00
 -1      1081 0.00000E+00
 -1      1082 0.00000E+00
 -1      1084 0.00000E+00
 -1      1085 0.00000E+00
 -1      1087 0.00000E+00
 -1      1088 0.00000E+00
 -1      1090 0.00000E+00
 -1      1099 0.00000E+00
 -1      1101 0.00000E+00
 -1      1102 0.00000E+00
 -1      1104 0.00000E+00
 -1      1113 0.00000E+00
 -1      1115 0.00000E+00
 -1      1116 0.00000E+00
 -1      1118 0.00000E+00
 -1      1127 0.00000E+00
 -1      1129 0.00000E+00
 -1      1130 0.00000E+00
 -1      1132 0.00000E+00
 -1      1141 0.00000E+00
 -1      1143 0.00000E+00
 -1      1144 0.00000E+00
 -1      1146 0.00000E+00
 -1      1155 0.00000E+00
 -1      1157 0.00000E+00
 -1      1158 0.00000E+00
 -1      1160 0.00000E+00
 -1      1169 0.00000E+00
 -1      1171 0.00000E+00
 -1      1172 0.00000E+00
 -1      1174 0.00000E+00
 -1      1183 0.00000E+00
 -1      1185 0.00000E+00
 -1      1186 0.00000E+00
 -1      1188 0.00000E+00
 -1      1197 0.00000E+00
 -1      1199 0.00000E+00
 -1      1200 0.00000E+00
 -1      1202 0.00000E+00
 -1      1211 0.00000E+00
 -1      1213 0.00000E+00
 -1      1214 0.00000E+00
 -1      1216 0.00000E+00
 -1      1225 0.00000E+00
 -1      1227 0.00000E+00
 -1      1228 0.00000E+00
 -1      1230 0.00000E+00
 -1      1239 0.00000E+00
 -1      1241 0.00000E+00
 -1      1242 0.00000E+00
 -1      1244 0.00000E+00
 -1      1253 0.00000E+00
 -1      1255 0.00000E+00
 -1      1256 0.00000E+00
 -1      1258 0.00000E+00
 -1      1267 0.00000E+00
 -1      1269 0.00000E+00
 -1      1270 0.00000E+00
 -1      1272 0.00000E+00
 -1      1281 0.00000E+00
 -1      1283 0.00000E+00
 -1      1284 0.00000E+00
 -1      1286 0.00000E+00
 -1      1295 0.00000E+00
 -1      1297 0.00000E+00
 -1      1298 0.00000E+00
 -1      1300 0.00000E+00
 -1      1309 0.00000E+00
 -1      1311 0.00000E+00
 -1      1312 0.00000E+00
 -1      1314 0.00000E+00
 -1      1323 0.00000E+00
 -1      1325 0.00000E+00
 -1      1326 0.00000E+00
 -1      1328 0.00000E+00
 -1      1337 0.00000E+00
 -1      1339 0.00000E+00
 -1      1340 0.00000E+00
 -1      1342 0.00000E+00
 -1      1351 0.00000E+00
 -1      1353 0.00000E+00
 -1      1354 0.00000E+00
 -1      1356 0.00000E+00
 -1      1365 0.00000E+00
 -1      1367 0.00000E+00
 -1      1368 0.00000E+00
 -1      1370 0.00000E+00
 -1      1379 0.00000E+00
 -1      1381 0.00000E+00
 -1      1382 0.00000E+00
 -1      1384 0.00000E+00
 -1      1393 0.00000E+00
 -1      1395 0.00000E+00
 -1      1396 0.00000E+00
 -1      1398 0.00000E+00
 -1      1407 0.00000E+00
 -1      1409 0.00000E+00
 -1      1410 0.00000E+00
 -1      1412 0.00000E+00
 -1      1421 0.00000E+00
 -1      1423 0.00000E+00
 -1      1424 0.00000E+00
 -1      1426 0.00000E+00
 -1      1435 0.00000E+00
 -1      1437 0.00000E+00
 -1      1438 0.00000E+00
 -1      1440 0.00000E+00
 -1      1449 0.00000E+00
 -1      1451 0.00000E+00
 -1      1452 0.00000E+00
 -1      1454 0.00000E+00
 -1      1463 0.00000E+00
 -1      1465 0.00000E+00
 -1      1466 0.00000E+00
 -1      1468 0.00000E+00
 -1      1477 0.00000E+00
 -1      1479 0.00000E+00
 -1      1480 0.00000E+00
 -1      1482 0.00000E+00
 -1      1491 0.00000E+00
 -1      1493 0.00000E+00
 -1      1494 0.00000E+00
 -1      1496 0.00000E+00
 -1      1497 0.00000E+00
 -1      1499 0.00000E+00
 -1      1500 0.00000E+00
 -1      1502 0.00000E+00
 -1      1503 0.00000E+00
 -1      1505 0.00000E+00
 -1      1506 0.00000E+00
 -1      1508 0.00000E+00
 -1      1509 0.00000E+00
 -1      1511 0.00000E+00
 -1      1512 0.00000E+00
 -1      1514 0.00000E+00
 -1      1515 0.00000E+00
 -1      1517 0.00000E+00
 -1      1518 0.00000E+00
 -1      1520 0.00000E+00
 -1      1521 0.00000E+00
 -1      1523 0.00000E+00
 -1      1524 0.00000E+00
 -1      1526 0.00000E+00
 -1      1527 0.00000E+00
 -1      1529 0.00000E+00
 -1      1530 0.00000E+00
 -1      1532 0.00000E+00
 -1      1533 0.00000E+00
 -1      1535 0.00000E+00
 -1      1536 0.00000E+00
 -1      1538 0.00000E+00
 -1      1539 0.00000E+00
 -1      1541 0.00000E+00
 -1      1542 0.00000E+00
 -1      1544 0.00000E+00
 -1      1545 0.00000E+00
 -1      1547 0.00000E+00
 -1      1548 0.00000E+00
 -1      1550 0.00000E+00
 -1      1551 0.00000E+00
 -1      1553 0.00000E+00
 -1      1554 0.00000E+00
 -1      1556 0.00000E+00
 -1      1557 0.00000E+00
 -1      1559 0.00000E+00
 -1      1560 0.00000E+00
 -1      1562 0.00000E+00
 -1      1563 0.00000E+00
 -1      1565 0.00000E+00
 -1      1566 0.00000E+00
 -1      1568 0.00000E+00
 -1      1569 0.00000E+00
 -1      1571 0.00000E+00
 -1      1572 0.00000E+00
 -1      1574 0.00000E+00
 -1      1575 0.00000E+00
 -1      1577 0.00000E+00
 -1      1578 0.00000E+00
 -1      1580 0.00000E+00
 -1      1581 0.00000E+00
 -1      1583 0.00000E+00
 -1      1584 0.00000E+00
 -1      1586 0.00000E+00
 -1      1587 0.00000E+00
 -1      1589 0.00000E+00
 -1      1590 0.00000E+00
 -1      1592 0.00000E+00
 -1      1593 0.00000E+00
 -1      1595 0.00000E+00
 -1      1596 0.00000E+00
 -1      1598 0.00000E+00
 -1      1599 0.00000E+00
 -1      1601 0.00000E+00
 -1      1602 0.00000E+00
 -1      1604 0.00000E+00
 -1      1605 0.00000E+00
 -1      1607 0.00000E+00
 -1      1608 0.00000E+00
 -1      1610 0.00000E+00
 -1      1611 0.00000E+00
 -1      1613 0.00000E+00
 -1      1614 0.00000E+00
 -1      1616 0.00000E+00
 -1      1617 0.00000E+00
 -1      1619 0.00000E+00
 -1      1620 0.00000E+00
 -1      1622 0.00000E+00
 -1      1623 0.00000E+00
 -1      1625 0.00000E+00
 -1      1626 0.00000E+00
 -1      1628 0.00000E+00
 -1      1629 0.00000E+00
 -1      1631 0.00000E+00
 -1      1632 0.00000E+00
 -1      1634 0.00000E+00
 -1      1635 0.00000E+00
 -1      1637 0.00000E+00
 -1      1638 0.00000E+00
 -1      1640 0.00000E+00
 -1      1641 0.00000E+00
 -1      1643 0.00000E+00
 -1      1644 0.00000E+00
 -1      1646 0.00000E+00
 -1      1647 0.00000E+00
 -1      1649 0.00000E+00
 -1      1650 0.00000E+00
 -1      1652 0.00000E+00
 -1      1653 0.00000E+00
 -1      1655 0.00000E+00
 -1      1656 0.00000E+00
 -1      1658 0.00000E+00
 -1      1659 0.00000E+00
 -1      1661 0.00000E+00
 -1      1662 0.00000E+00
 -1      1664 0.00000E+00
 -1      1665 0.00000E+00
 -1      1667 0.00000E+00
 -1      1668 0.00000E+00
 -1      1670 0.00000E+00
 -1      1671 0.00000E+00
 -1      1673 0.00000E+00
 -1      1674 0.00000E+00
 -1      1676 0.00000E+00
 -1      1677 0.00000E+00
 -1      1679 0.00000E+00
 -1      1680 0.00000E+00
 -1      1682 0.00000E+00
 -1      1683 0.00000E+00
 -1      1685 0.00000E+00
 -1      1686 0.00000E+00
 -1      1688 0.00000E+00
 -1      1689 0.00000E+00
 -1      1691 0.00000E+00
 -1      1692 0.00000E+00
 -1      1694 0.00000E+00
 -1      1695 0.00000E+00
 -1      1697 0.00000E+00
 -1      1698 0.00000E+00
 -1      1700 0.00000E+00
 -1      1701 0.00000E+00
 -1      1703 0.00000E+00
 -1      1704 0.00000E+00
 -1      1706 0.00000E+00
 -1      1707 0.00000E+00
 -1      1709 0.00000E+00
 -1      1710 0.00000E+00
 -1      1712 0.00000E+00
 -1      1713 0.00000E+00
 -1      1715 0.00000E+00
 -1      1716 0.00000E+00
 -1      1718 0.00000E+00
 -1      1719 0.00000E+00
 -1      1721 0.00000E+00
 -1      1722 0.00000E+00
 -1      1724 0.00000E+00
 -1      1725 0.00000E+00
 -1      1727 0.00000E+00
 -1      1728 0.00000E+00
 -1      1730 0.00000E+00
 -1      1731 0.00000E+00
 -1      1733 0.00000E+00
 -1      1734 0.00000E+00
 -1      1736 0.00000E+00
 -1      1737 0.00000E+00
 -1      1739 0.00000E+00
 -1      1740 0.00000E+00
 -1      1742 0.00000E+00
 -1      1743 0.00000E+00
 -1      1745 0.00000E+00
 -1      1746 0.00000E+00
 -1      1748 0.00000E+00
 -1      1749 0.00000E+00
 -1      1751 0.00000E+00
 -1      1752 0.00000E+00
 -1      1754 0.00000E+00
 -1      1755 0.00000E+00
 -1      1757 0.00000E+00
 -1      1758 0.00000E+00
 -1      1760 0.00000E+00
 -1      1761 0.00000E+00
 -1      1763 0.00000E+00
 -1      1764 0.00000E+00
 -1      1766 0.00000E+00
 -1      1767 0.00000E+00
 -1      1769 0.00000E+00
 -1      1770 0.00000E+00
 -1      1772 0.00000E+00
 -1      1773 0.00000E+00
 -1      1775 0.00000E+00
 -1      1776 0.00000E+00
 -1      1778 0.00000E+00
 -1      1779 0.00000E+00
 -1      1781 0.00000E+00
 -1      1782 0.00000E+00
 -1      1784 0.00000E+00
 -1      1785 0.00000E+00
 -1      1787 0.00000E+00
 -1      1788 0.00000E+00
 -1      1790 0.00000E+00
 -1      1791 0.00000E+00
 -1      1793 0.00000E+00
 -1      1794 0.00000E+00
 -1      1796 0.00000E+00
 -1      1797 0.00000E+00
 -1      1799 0.00000E+00
 -1      1800 0.00000E+00
 -1      1802 0.00000E+00
 -1      1803 0.00000E+00
 -1      1805 0.00000E+00
 -1      1806 0.00000E+00
 -1      1808 0.00000E+00
 -1      1809 0.00000E+00
 -1      1811 0.00000E+00
 -1      1812 0.00000E+00
 -1      1814 0.00000E+00
 -1      1815 0.00000E+00
 -1      1817 0.00000E+00
 -1      1818 0.00000E+00
 -1      1820 0.00000E+00
 -1      1821 0.00000E+00
 -1      1823 0.00000E+00
 -1      1824 0.00000E+00
 -1      1826 0.00000E+00
 -1      1827 0.00000E+00
 -1      1829 0.00000E+00
 -1      1830 0.00000E+00
 -1      1832 0.00000E+00
 -1      1833 0.00000E+00
 -1      1835 0.00000E+00
 -1      1836 0.00000E+00
 -1      1838 0.00000E+00
 -1      1839 0.00000E+00
 -1      1841 0.00000E+00
 -1      1842 0.00000E+00
 -1      1844 0.00000E+00
 -1      1845 0.00000E+00
 -1      1847 0.00000E+00
 -1      1848 0.00000E+00
 -1      1850 0.00000E+00
 -1      1851 0.00000E+00
 -1      1853 0.00000E+00
 -1      1854 0.00000E+00
 -1      1856 0.00000E+00
 -1      1857 0.00000E+00
 -1      1859 0.00000E+00
 -1      1860 0.00000E+00
 -1      1862 0.00000E+00
 -1      1863 0.00000E+00
 -1      1865 0.00000E+00
 -1      1866 0.00000E+00
 -1      1868 0.00000E+00
 -1      1869 0.00000E+00
 -1      1871 0.00000E+00
 -1      1872 0.00000E+00
 -1      1874 0.00000E+00
 -1      1875 0.00000E+00
 -1      1877 0.00000E+00
 -1      1878 0.00000E+00
 -1      1880 0.00000E+00
 -1      1881 0.00000E+00
 -1      1883 0.00000E+00
 -1      1884 0.00000E+00
 -1      1886 0.00000E+00
 -1      1887 0.00000E+00
 -1      1889 0.00000E+00
 -1      1890 0.00000E+00
 -1      1892 0.00000E+00
 -1      1893 0.00000E+00
 -1      1895 0.00000E+00
 -1      1896 0.00000E+00
 -1      1898 0.00000E+00
 -1      1899 0.00000E+00
 -1      1901 0.00000E+00
 -1      1902 0.00000E+00
 -1      1904 0.00000E+00
 -1      1905 0.00000E+00
 -1      1907 0.00000E+00
 -1      1908 0.00000E+00
 -1      1910 0.00000E+00
 -1      1911 0.00000E+00
 -1      1913 0.00000E+00
 -1      1914 0.00000E+00
 -1      1916 0.00000E+00
 -1      1917 0.00000E+00
 -1      1919 0.00000E+00
 -1      1920 0.00000E+00
 -1      1922 0.00000E+00
 -1      1923 0.00000E+00
 -1      1925 0.00000E+00
 -1      1926 0.00000E+00
 -1      1928 0.00000E+00
 -1      1929 0.00000E+00
 -1      1931 0.00000E+00
 -1      1932 0.00000E+00
 -1      1934 0.00000E+00
 -1      1935 0.00000E+00
 -1      1937 0.00000E+00
 -1      1938 0.00000E+00
 -1      1940 0.00000E+00
 -1      1941 0.00000E+00
 -1      1943 0.00000E+00
 -1      1944 0.00000E+00
 -1      1946 0.00000E+00
 -1      1947 0.00000E+00
 -1      1949 0.00000E+00
 -1      1950 0.00000E+00
 -1      1952 0.00000E+00
 -1      1953 0.00000E+00
 -1      1955 0.00000E+00
 -1      1956 0.00000E+00
 -1      1958 0.00000E+00
 -1      1959 0.00000E+00
 -1      1961 0.00000E+00
 -1      1962 0.00000E+00
 -1      1964 0.00000E+00
 -1      1965 0.00000E+00
 -1      1967 0.00000E+00
 -1      1968 0.00000E+00
 -1      1970 0.00000E+00
 -1      1971 0.00000E+00
 -1      1973 0.00000E+00
 -1      1974 0.00000E+00
 -1      1976 0.00000E+00
 -1      1977 0.00000E+00
 -1      1979 0.00000E+00
 -1      1980 0.00000E+00
 -1      1982 0.00000E+00
 -1      1983 0.00000E+00
 -1      1985 0.00000E+00
 -1      1986 0.00000E+00
 -1      1988 0.00000E+00
 -1      1989 0.00000E+00
 -1      1991 0.00000E+00
 -1      1992 0.00000E+00
 -1      1994 0.00000E+00
 -1      1995 0.00000E+00
 -1      1997 0.00000E+00
 -1      1998 0.00000E+00
 -1      2000 0.00000E+00
 -1      2001 0.00000E+00
 -1      2003 0.00000E+00
 -1      2004 0.00000E+00
 -1      2006 0.00000E+00
 -1      2007 0.00000E+00
 -1      2009 0.00000E+00
 -1      2010 0.00000E+00
 -1      2012 0.00000E+00
 -1      2013 0.00000E+00
 -1      2015 0.00000E+00
 -1      2016 0.00000E+00
 -1      2018 0.00000E+00
 -1      2019 0.00000E+00
 -1      2021 0.00000E+00
 -1      2022 0.00000E+00
 -1      2024 0.00000E+00
 -1      2025 0.00000E+00
 -1      2027 0.00000E+00
 -1      2028 0.00000E+00
 -1      2030 0.00000E+00
 -1      2031 0.00000E+00
 -1      2033 0.00000E+00
 -1      2034 0.00000E+00
 -1      2036 0.00000E+00
 -1      2037 0.00000E+00
 -1      2039 0.00000E+00
 -1      2040 0.00000E+00
 -1      2042 0.00000E+00
 -1      2043 0.00000E+00
 -1      2045 0.00000E+00
 -1      2046 0.00000E+00
 -1      2048 0.00000E+00
 -1      2049 0.00000E+00
 -1      2051 0.00000E+00
 -1      2052 0.00000E+00
 -1      2054 0.00000E+00
 -1      2055 0.00000E+00
 -1      2057 0.00000E+00
 -1      2058 0.00000E+00
 -1      2060 0.00000E+00
 -1      2061 0.00000E+00
 -1      2063 0.00000E+00
 -1      2064 0.00000E+00
 -1      2066 0.00000E+00
 -1      2067 0.00000E+00
 -1      2069 0.00000E+00
 -1      2070 0.00000E+00
 -1      2072 0.00000E+00
 -1      2073 0.00000E+00
 -1      2075 0.00000E+00
 -1      2076 0.00000E+00
 -1      2078 0.00000E+00
 -1      2079 0.00000E+00
 -1      2081 0.00000E+00
 -1      2082 0.00000E+00
 -1      2084 0.00000E+00
 -1      2085 0.00000E+00
 -1      2087 0.00000E+00
 -1      2088 0.00000E+00
 -1      2090 0.00000E+00
 -1      2091 0.00000E+00
 -1      2093 0.00000E+00
 -1      2094 0.00000E+00
 -1      2096 0.00000E+00
 -1      2097 0.00000E+00
 -1      2099 0.00000E+00
 -1      2100 0.00000E+00
 -1      2102 0.00000E+00
 -1      2103 0.00000E+00
 -1      2105 0.00000E+00
 -1      2106 0.00000E+00
 -1      2108 0.00000E+00
 -1      2109 0.00000E+00
 -1      2111 0.00000E+00
 -1      2112 0.00000E+00
 -1      2114 0.00000E+00
 -1      2115 0.00000E+00
 -1      2117 0.00000E+00
 -1      2118 0.00000E+00
 -1      2120 0.00000E+00
 -1      2121 0.00000E+00
 -1      2123 0.00000E+00
 -1      2124 0.00000E+00
 -1      2126 0.00000E+00
 -1      2127 0.00000E+00
 -1      2129 0.00000E+00
 -1      2130 0.00000E+00
 -1      2132 0.00000E+00
 -1      2133 0.00000E+00
 -1      2135 0.00000E+00
 -1      2136 0.00000E+00
 -1      2138 0.00000E+00
 -1      2139 0.00000E+00
 -1      2141 0.00000E+00
 -1      2142 0.00000E+00
 -1      2144 0.00000E+00
 -1      2145 0.00000E+00
 -1      2147 0.00000E+00
 -1      2148 0.00000E+00
 -1      2150 0.00000E+00
 -1      2151 0.00000E+00
 -1      2153 0.00000E+00
 -1      2154 0.00000E+00
 -1      2156 0.00000E+00
 -1      2157 0.00000E+00
 -1      2159 0.00000E+00
 -1      2160 0.00000E+00
 -1      2162 0.00000E+00
 -1      2163 0.00000E+00
 -1      2165 0.00000E+00
 -1      2166 0.00000E+00
 -1      2168 0.00000E+00
 -1      2169 0.00000E+00
 -1      2171 0.00000E+00
 -1      2172 0.00000E+00
 -1      2174 0.00000E+00
 -1      2175 0.00000E+00
 -1      2177 0.00000E+00
 -1      2178 0.00000E+00
 -1      2180 0.00000E+00
 -1      2181 0.00000E+00
 -1      2183 0.00000E+00
 -1      2184 0.00000E+00
 -1      2186 0.00000E+00
 -1      2187 0.00000E+00
 -1      2189 0.00000E+00
 -1      2190 0.00000E+00
 -1      2192 0.00000E+00
 -1      2193 0.00000E+00
 -1      2195 0.00000E+00
 -1      2196 0.00000E+00
 -1      2198 0.00000E+00
 -1      2199 0.00000E+00
 -1      2201 0.00000E+00
 -1      2202 0.00000E+00
 -1      2204 0.00000E+00
 -1      2205 0.00000E+00
 -1      2207 0.00000E+00
 -1      2208 0.00000E+00
 -1      2210 0.00000E+00
 -1      2211 0.00000E+00
 -1      2213 0.00000E+00
 -1      2214 0.00000E+00
 -1      2216 0.00000E+00
 -1      2217 0.00000E+00
 -1      2219 0.00000E+00
 -1      2220 0.00000E+00
 -1      2222 0.00000E+00
 -1      2223 0.00000E+00
 -1      2225 0.00000E+00
 -1      2226 0.00000E+00
 -1      2228 0.00000E+00
 -1      2229 0.00000E+00
 -1      2231 0.00000E+00
 -1      2232 0.00000E+00
 -1      2234 0.00000E+00
 -1      2235 0.00000E+00
 -1      2237 0.00000E+00
 -1      2238 0.00000E+00
 -1      2240 0.00000E+00
 -1      2241 0.00000E+00
 -1      2243 0.00000E+00
 -1      2244 0.00000E+00
 -1      2246 0.00000E+00
 -1      2247 0.00000E+00
 -1      2249 0.00000E+00
 -1      2250 0.00000E+00
 -1      2252 0.00000E+00
 -1      2253 0.00000E+00
 -1      2255 0.00000E+00
 -1      2256 0.00000E+00
 -1      2258 0.00000E+00
 -1      2259 0.00000E+00
 -1      2261 0.00000E+00
 -1      2262 0.00000E+00
 -1      2264 0.00000E+00
 -1      2265 0.00000E+00
 -1      2267 0.00000E+00
 -1      2268 0.00000E+00
 -1      2270 0.00000E+00
 -1      2271 0.00000E+00
 -1      2273 0.00000E+00
 -1      2274 0.00000E+00
 -1      2276 0.00000E+00
 -1      2277 0.00000E+00
 -1      2279 0.00000E+00
 -1      2280 0.00000E+00
 -1      2282 0.00000E+00
 -1      2283 0.00000E+00
 -1      2285 0.00000E+00
 -1      2286 0.00000E+00
 -1      2288 0.00000E+00
 -1      2289 0.00000E+00
 -1      2291 0.00000E+00
 -1      2292 0.00000E+00
 -1      2294 0.00000E+00
 -3
    1PSTEP                        21           1           1          
    1PGM                1.000000E+00                                  
    1PGK                1.808098E+06                                  
    1PHID                         -1                                  
    1PSUBC                         0                                  
    1PMODE                         6                                  
  100CL  106 214.0085524         930                     2    6MODAL      1
 -4  DISP        4    1
 -5  D1          1    2    1    0
 -5  D2          1    2    2    0
 -5  D3          1    2    3    0
 -5  ALL         1    2    0    0    1ALL
 -1       404 0.00000E+00 0.00000E+00-2.11854E-04
 -1       406 0.00000E+00-0.00000E+00 2.11854E-04
 -1       407-2.99164E-02 1.53307E-01 6.87554E-02
 -1       409-2.99160E-02 1.42287E-01 6.87520E-02
 -1       410 7.03987E-14 1.52210E-01 6.85524E-13
 -1       412 5.79153E-14 1.43386E-01 6.85657E-13
 -1       413 1.43117E-03 1.47798E-01-2.81043E-03
 -1       415-1.43117E-03 1.47798E-01 2.81043E-03
 -1       424 0.00000E+00 0.00000E+00-1.12630E-15
 -1       426 0.00000E+00 0.00000E+00 1.12630E-15
 -1       427 0.00000E+00-7.17496E-16 0.00000E+00
 -1       429 0.00000E+00 7.17496E-16 0.00000E+00
 -1       438 2.99164E-02 1.53307E-01-6.87554E-02
 -1       440 2.99160E-02 1.42287E-01-6.87520E-02
 -1       441 0.00000E+00 0.00000E+00 2.11854E-04
 -1       443 0.00000E+00-0.00000E+00-2.11854E-04
 -1       444 0.00000E+00 5.60069E-16 0.00000E+00
 -1       446 0.00000E+00-5.60069E-16 0.00000E+00
 -1       447 0.00000E+00 0.00000E+00-8.79179E-16
 -1       449 0.00000E+00 0.00000E+00 8.79179E-16
 -1       458 1.43117E-03 1.47798E-01 2.81043E-03
 -1       460-1.43117E-03 1.47798E-01-2.81043E-03
 -1       461-2.17724E-13 1.52210E-01 6.90561E-13
 -1       463-2.11008E-13 1.43386E-01 6.94279E-13
 -1       472 0.00000E+00 0.00000E+00-2.11854E-04
 -1       474 0.00000E+00 0.00000E+00 2.11854E-04
 -1       475 2.99164E-02 1.53307E-01 6.87554E-02
 -1       477 2.99160E-02 1.42287E-01 6.87520E-02
 -1       478-2.99164E-02 1.53307E-01-6.87554E-02
 -1       480-2.99160E-02 1.42287E-01-6.87520E-02
 -1       481 0.00000E+00 0.00000E+00 2.11854E-04
 -1       483 0.00000E+00 0.00000E+00-2.11854E-04
 -1       484-6.68524E-03 6.28283E-03 1.21566E-03
 -1       486-7.00626E-03 5.98285E-03 1.39283E-03
 -1       487-1.13264E-02 1.74924E-02 3.00966E-03
 -1       489-1.14936E-02 1.68725E-02 3.17329E-03
 -1       490-1.40675E-02 3.34117E-02 4.69259E-03
 -1       492-1.43291E-02 3.24611E-02 4.76699E-03
 -1       493-1.48887E-02 5.09412E-02 6.62989E-03
 -1       495-1.51336E-02 4.96311E-02 6.61253E-03
 -1       496-1.39965E-02 6.84711E-02 8.67377E-03
 -1       498-1.42889E-02 6.67846E-02 8.62097E-03
 -1       499-1.16288E-02 8.39627E-02 1.10048E-02
 -1       501-1.19463E-02 8.18708E-02 1.08641E-02
 -1       502-8.04758E-03 9.60148E-02 1.35548E-02
 -1       504-8.40767E-03 9.34899E-02 1.34035E-02
 -1       505-3.63288E-03 1.03383E-01 1.64248E-02
 -1       507-4.03111E-03 1.00396E-01 1.62188E-02
 -1       508 1.26552E-03 1.05372E-01 1.95566E-02
 -1       510 8.26477E-04 1.01893E-01 1.93633E-02
 -1       511 6.22905E-03 1.01636E-01 2.29899E-02
 -1       513 5.75336E-03 9.76393E-02 2.27816E-02
 -1       514 1.08886E-02 9.23420E-02 2.66530E-02
 -1       516 1.03810E-02 8.78050E-02 2.64816E-02
 -1       517 1.48758E-02 7.80372E-02 3.05333E-02
 -1       519 1.43439E-02 7.29430E-02 3.03821E-02
 -1       520 1.78970E-02 5.96784E-02 3.45407E-02
 -1       522 1.73503E-02 5.40161E-02 3.44456E-02
 -1       523 1.97132E-02 3.85060E-02 3.86240E-02
 -1       525 1.91625E-02 3.22734E-02 3.85724E-02
 -1       526 2.01826E-02 1.59942E-02 4.26823E-02
 -1       528 1.96396E-02 9.19667E-03 4.26952E-02
 -1       529 1.92473E-02-6.27961E-03 4.66457E-02
 -1       531 1.87238E-02-1.36274E-02 4.67092E-02
 -1       532 1.69521E-02-2.67236E-02 5.04173E-02
 -1       534 1.64595E-02-3.45992E-02 5.05396E-02
 -1       535 1.34271E-02-4.38530E-02 5.39306E-02
 -1       537 1.29752E-02-5.22256E-02 5.40948E-02
 -1       538 8.88747E-03-5.63782E-02 5.71107E-02
 -1       540 8.48442E-03-6.52110E-02 5.73146E-02
 -1       541 3.60853E-03-6.32962E-02 5.99139E-02
 -1       543 3.26018E-03-7.25466E-02 6.01385E-02
 -1       544-2.08773E-03-6.39468E-02 6.23011E-02
 -1       546-2.37818E-03-7.35690E-02 6.25384E-02
 -1       547-7.86347E-03-5.80525E-02 6.42645E-02
 -1       549-8.09570E-03-6.79986E-02 6.44958E-02
 -1       550-1.33855E-02-4.57234E-02 6.58070E-02
 -1       552-1.35619E-02-5.59456E-02 6.60234E-02
 -1       553-1.83569E-02-2.74350E-02 6.69594E-02
 -1       555-1.84826E-02-3.78868E-02 6.71459E-02
 -1       556-2.25380E-02-3.97627E-03 6.77620E-02
 -1       558-2.26201E-02-1.46140E-02 6.79139E-02
 -1       559-2.57724E-02 2.36336E-02 6.82759E-02
 -1       561-2.58198E-02 1.28504E-02 6.83852E-02
 -1       562-2.80034E-02 5.42405E-02 6.85645E-02
 -1       564-2.80259E-02 4.33489E-02 6.86347E-02
 -1       565-2.92924E-02 8.66975E-02 6.87005E-02
 -1       567-2.92996E-02 7.57319E-02 6.87325E-02
 -1       568-2.98143E-02 1.19958E-01 6.87479E-02
 -1       570-2.98151E-02 1.08950E-01 6.87554E-02
 -1       571-1.49416E-02 1.53138E-01 3.25539E-02
 -1       573-1.49398E-02 1.42443E-01 3.25554E-02
 -1       574-4.09351E-14 4.94985E-03-8.27078E-14
 -1       576-2.03622E-14 4.86956E-03-8.17197E-14
 -1       577 4.12283E-04 4.90971E-03-2.55711E-05
 -1       579-4.12283E-04 4.90971E-03 2.55711E-05
 -1       588-5.20931E-14 1.69583E-02-1.79614E-13
 -1       590-4.53190E-14 1.67680E-02-1.79370E-13
 -1       591 6.09255E-04 1.68632E-02-6.06134E-05
 -1       593-6.09255E-04 1.68632E-02 6.06134E-05
 -1       602-6.84199E-14 3.27837E-02-2.55896E-13
 -1       604-5.59632E-14 3.24939E-02-2.55674E-13
 -1       605 7.37699E-04 3.26388E-02-9.23018E-05
 -1       607-7.37699E-04 3.26388E-02 9.23018E-05
 -1       616-7.74797E-14 5.05295E-02-3.35413E-13
 -1       618-6.88659E-14 5.01030E-02-3.34704E-13
 -1       619 7.72496E-04 5.03162E-02-1.35868E-04
 -1       621-7.72496E-04 5.03162E-02 1.35868E-04
 -1       630-8.46073E-14 6.81480E-02-4.22239E-13
 -1       632-7.07511E-14 6.75519E-02-4.21968E-13
 -1       633 7.20552E-04 6.78499E-02-1.89881E-04
 -1       635-7.20552E-04 6.78499E-02 1.89881E-04
 -1       644-7.92532E-14 8.37405E-02-5.22105E-13
 -1       646-6.64870E-14 8.29245E-02-5.22018E-13
 -1       647 5.93543E-04 8.33325E-02-2.59897E-04
 -1       649-5.93543E-04 8.33325E-02 2.59897E-04
 -1       658-6.63111E-14 9.58504E-02-6.13212E-13
 -1       660-5.53563E-14 9.47513E-02-6.14653E-13
 -1       661 4.11641E-04 9.53008E-02-3.50083E-04
 -1       663-4.11641E-04 9.53008E-02 3.50083E-04
 -1       672-4.89541E-14 1.03259E-01-6.73954E-13
 -1       674-4.51676E-14 1.01809E-01-6.75106E-13
 -1       675 1.81774E-04 1.02534E-01-4.61696E-04
 -1       677-1.81774E-04 1.02534E-01 4.61696E-04
 -1       686-3.66854E-14 1.05246E-01-7.06676E-13
 -1       688-3.40219E-14 1.03370E-01-7.06846E-13
 -1       689-6.50984E-05 1.04308E-01-5.97409E-04
 -1       691 6.50984E-05 1.04308E-01 5.97409E-04
 -1       700-2.73578E-14 1.01488E-01-7.43524E-13
 -1       702-2.14803E-14 9.91150E-02-7.44619E-13
 -1       703-3.20703E-04 1.00301E-01-7.55837E-04
 -1       705 3.20703E-04 1.00301E-01 7.55837E-04
 -1       714-1.10024E-14 9.21354E-02-7.86422E-13
 -1       716-6.03564E-15 8.91963E-02-7.87791E-13
 -1       717-5.55542E-04 9.06659E-02-9.36176E-04
 -1       719 5.55542E-04 9.06659E-02 9.36176E-04
 -1       728 1.20073E-14 7.77535E-02-8.06082E-13
 -1       730 1.12674E-14 7.41918E-02-8.06365E-13
 -1       731-7.59987E-04 7.59727E-02-1.13446E-03
 -1       733 7.59987E-04 7.59727E-02 1.13446E-03
 -1       742 3.52357E-14 5.92919E-02-7.90264E-13
 -1       744 3.04392E-14 5.50641E-02-7.92678E-13
 -1       745-9.12280E-04 5.71780E-02-1.34661E-03
 -1       747 9.12280E-04 5.71780E-02 1.34661E-03
 -1       756 5.74208E-14 3.80057E-02-7.51105E-13
 -1       758 5.09456E-14 3.30875E-02-7.52262E-13
 -1       759-1.00577E-03 3.55466E-02-1.56655E-03
 -1       761 1.00577E-03 3.55466E-02 1.56655E-03
 -1       770 7.97827E-14 1.53688E-02-6.89572E-13
 -1       772 6.94608E-14 9.75494E-03-6.91796E-13
 -1       773-1.02929E-03 1.25619E-02-1.78812E-03
 -1       775 1.02929E-03 1.25619E-02 1.78812E-03
 -1       784 9.76329E-14-7.02986E-03-6.12633E-13
 -1       786 8.70302E-14-1.33226E-02-6.12859E-13
 -1       787-9.83016E-04-1.01762E-02-2.00436E-03
 -1       789 9.83016E-04-1.01762E-02 2.00436E-03
 -1       798 1.17216E-13-2.75957E-02-5.20560E-13
 -1       800 1.03535E-13-3.45300E-02-5.21384E-13
 -1       801-8.67008E-04-3.10628E-02-2.20868E-03
 -1       803 8.67008E-04-3.10628E-02 2.20868E-03
 -1       812 1.35217E-13-4.48351E-02-4.16638E-13
 -1       814 1.20634E-13-5.23538E-02-4.16713E-13
 -1       815-6.89591E-04-4.85944E-02-2.39484E-03
 -1       817 6.89591E-04-4.85944E-02 2.39484E-03
 -1       826 1.45621E-13-5.74558E-02-3.11637E-13
 -1       828 1.32388E-13-6.54854E-02-3.12701E-13
 -1       829-4.60498E-04-6.14706E-02-2.55757E-03
 -1       831 4.60498E-04-6.14706E-02 2.55757E-03
 -1       840 1.49127E-13-6.44491E-02-2.11159E-13
 -1       842 1.34971E-13-7.29036E-02-2.10442E-13
 -1       843-1.94621E-04-6.86764E-02-2.69290E-03
 -1       845 1.94621E-04-6.86764E-02 2.69290E-03
 -1       854 1.47206E-13-6.51544E-02-9.78450E-14
 -1       856 1.30984E-13-7.39397E-02-9.93687E-14
 -1       857 9.22144E-05-6.95470E-02-2.79829E-03
 -1       859-9.22144E-05-6.95470E-02 2.79829E-03
 -1       868 1.38463E-13-5.92919E-02 1.33868E-14
 -1       870 1.24730E-13-6.83119E-02 1.40808E-14
 -1       871 3.82506E-04-6.38019E-02-2.87305E-03
 -1       873-3.82506E-04-6.38019E-02 2.87305E-03
 -1       882 1.26857E-13-4.69747E-02 1.12076E-13
 -1       884 1.15150E-13-5.61361E-02 1.10645E-13
 -1       885 6.59163E-04-5.15554E-02-2.91806E-03
 -1       887-6.59163E-04-5.15554E-02 2.91806E-03
 -1       896 1.15506E-13-2.86789E-02 2.02929E-13
 -1       898 1.02254E-13-3.78974E-02 2.05859E-13
 -1       899 9.07471E-04-3.32882E-02-2.93625E-03
 -1       901-9.07471E-04-3.32882E-02 2.93625E-03
 -1       910 1.04059E-13-5.20039E-03 2.93630E-13
 -1       912 9.27069E-14-1.44048E-02 2.91721E-13
 -1       913 1.11385E-03-9.80260E-03-2.93178E-03
 -1       915-1.11385E-03-9.80260E-03 2.93178E-03
 -1       924 9.52088E-14 2.24397E-02 3.71389E-13
 -1       926 8.47930E-14 1.33015E-02 3.71104E-13
 -1       927 1.27215E-03 1.78706E-02-2.91068E-03
 -1       929-1.27215E-03 1.78706E-02 2.91068E-03
 -1       938 8.71850E-14 5.30800E-02 4.48420E-13
 -1       940 7.66353E-14 4.40390E-02 4.48517E-13
 -1       941 1.37561E-03 4.85595E-02-2.87971E-03
 -1       943-1.37561E-03 4.85595E-02 2.87971E-03
 -1       952 7.97504E-14 8.55653E-02 5.26111E-13
 -1       954 6.78884E-14 7.66275E-02 5.28295E-13
 -1       955 1.43181E-03 8.10964E-02-2.84687E-03
 -1       957-1.43181E-03 8.10964E-02 2.84687E-03
 -1       966 7.26842E-14 1.18857E-01 6.06624E-13
 -1       968 6.18540E-14 1.10000E-01 6.04489E-13
 -1       969 1.44178E-03 1.14428E-01-2.82097E-03
 -1       971-1.44178E-03 1.14428E-01 2.82097E-03
 -1       980 0.00000E+00 0.00000E+00-8.16583E-05
 -1       982 0.00000E+00-0.00000E+00 8.16583E-05
 -1       983 1.49416E-02 1.53138E-01-3.25539E-02
 -1       985 1.49398E-02 1.42443E-01-3.25554E-02
 -1       986 6.68524E-03 6.28283E-03-1.21566E-03
 -1       988 7.00626E-03 5.98285E-03-1.39283E-03
 -1       989 1.13264E-02 1.74924E-02-3.00966E-03
 -1       991 1.14936E-02 1.68725E-02-3.17329E-03
 -1       992 1.40675E-02 3.34117E-02-4.69259E-03
 -1       994 1.43291E-02 3.24611E-02-4.76699E-03
 -1       995 1.48887E-02 5.09412E-02-6.62989E-03
 -1       997 1.51336E-02 4.96311E-02-6.61253E-03
 -1       998 1.39965E-02 6.84711E-02-8.67377E-03
 -1      1000 1.42889E-02 6.67846E-02-8.62097E-03
 -1      1001 1.16288E-02 8.39627E-02-1.10048E-02
 -1      1003 1.19463E-02 8.18708E-02-1.08641E-02
 -1      1004 8.04758E-03 9.60148E-02-1.35548E-02
 -1      1006 8.40767E-03 9.34899E-02-1.34035E-02
 -1      1007 3.63288E-03 1.03383E-01-1.64248E-02
 -1      1009 4.03111E-03 1.00396E-01-1.62188E-02
 -1      1010-1.26552E-03 1.05372E-01-1.95566E-02
 -1      1012-8.26477E-04 1.01893E-01-1.93633E-02
 -1      1013-6.22905E-03 1.01636E-01-2.29899E-02
 -1      1015-5.75336E-03 9.76393E-02-2.27816E-02
 -1      1016-1.08886E-02 9.23420E-02-2.66530E-02
 -1      1018-1.03810E-02 8.78050E-02-2.64816E-02
 -1      1019-1.48758E-02 7.80372E-02-3.05333E-02
 -1      1021-1.43439E-02 7.29430E-02-3.03821E-02
 -1      1022-1.78970E-02 5.96784E-02-3.45407E-02
 -1      1024-1.73503E-02 5.40161E-02-3.44456E-02
 -1      1025-1.97132E-02 3.85060E-02-3.86240E-02
 -1      1027-1.91625E-02 3.22734E-02-3.85724E-02
 -1      1028-2.01826E-02 1.59942E-02-4.26823E-02
 -1      1030-1.96396E-02 9.19667E-03-4.26952E-02
 -1      1031-1.92473E-02-6.27961E-03-4.66457E-02
 -1      1033-1.87238E-02-1.36274E-02-4.67092E-02
 -1      1034-1.69521E-02-2.67236E-02-5.04173E-02
 -1      1036-1.64595E-02-3.45992E-02-5.05396E-02
 -1      1037-1.34271E-02-4.38530E-02-5.39306E-02
 -1      1039-1.29752E-02-5.22256E-02-5.40948E-02
 -1      1040-8.88747E-03-5.63782E-02-5.71107E-02
 -1      1042-8.48442E-03-6.52110E-02-5.73146E-02
 -1      1043-3.60853E-03-6.32962E-02-5.99139E-02
 -1      1045-3.26018E-03-7.25466E-02-6.01385E-02
 -1      1046 2.08773E-03-6.39468E-02-6.23011E-02
 -1      1048 2.37818E-03-7.35690E-02-6.25384E-02
 -1      1049 7.86347E-03-5.80525E-02-6.42645E-02
 -1      1051 8.09570E-03-6.79986E-02-6.44958E-02
 -1      1052 1.33855E-02-4.57234E-02-6.58070E-02
 -1      1054 1.35619E-02-5.59456E-02-6.60234E-02
 -1      1055 1.83569E-02-2.74350E-02-6.69594E-02
 -1      1057 1.84826E-02-3.78868E-02-6.71459E-02
 -1      1058 2.25380E-02-3.97627E-03-6.77620E-02
 -1      1060 2.26201E-02-1.46140E-02-6.79139E-02
 -1      1061 2.57724E-02 2.36336E-02-6.82759E-02
 -1      1063 2.58198E-02 1.28504E-02-6.83852E-02
 -1      1064 2.80034E-02 5.42405E-02-6.85645E-02
 -1      1066 2.80259E-02 4.33489E-02-6.86347E-02
 -1      1067 2.92924E-02 8.66975E-02-6.87005E-02
 -1      1069 2.92996E-02 7.57319E-02-6.87325E-02
 -1      1070 2.98143E-02 1.19958E-01-6.87479E-02
 -1      1072 2.98151E-02 1.08950E-01-6.87554E-02
 -1      1073 0.00000E+00 0.00000E+00 8.16583E-05
 -1      1075 0.00000E+00-0.00000E+00-8.16583E-05
 -1      1076 0.00000E+00-2.19089E-16 0.00000E+00
 -1      1078 0.00000E+00 2.19089E-16 0.00000E+00
 -1      1079 0.00000E+00-7.08899E-17 0.00000E+00
 -1      1081 0.00000E+00 7.08899E-17 0.00000E+00
 -1      1082 0.00000E+00 1.06929E-16 0.00000E+00
 -1      1084 0.00000E+00-1.06929E-16 0.00000E+00
 -1      1085 4.12283E-04 4.90971E-03 2.55711E-05
 -1      1087-4.12283E-04 4.90971E-03-2.55711E-05
 -1      1088 3.15928E-14 4.94985E-03-6.13223E-14
 -1      1090 1.73763E-14 4.86956E-03-6.05151E-14
 -1      1099 6.09255E-04 1.68632E-02 6.06134E-05
 -1      1101-6.09255E-04 1.68632E-02-6.06134E-05
 -1      1102 4.77101E-14 1.69583E-02-1.53975E-13
 -1      1104 3.70806E-14 1.67680E-02-1.53532E-13
 -1      1113 7.37699E-04 3.26388E-02 9.23018E-05
 -1      1115-7.37699E-04 3.26388E-02-9.23018E-05
 -1      1116 6.07593E-14 3.27837E-02-2.53745E-13
 -1      1118 4.58741E-14 3.24939E-02-2.53641E-13
 -1      1127 7.72496E-04 5.03162E-02 1.35868E-04
 -1      1129-7.72496E-04 5.03162E-02-1.35868E-04
 -1      1130 6.18373E-14 5.05295E-02-3.56346E-13
 -1      1132 4.98443E-14 5.01030E-02-3.56340E-13
 -1      1141 7.20552E-04 6.78499E-02 1.89881E-04
 -1      1143-7.20552E-04 6.78499E-02-1.89881E-04
 -1      1144 5.89428E-14 6.81480E-02-4.54071E-13
 -1      1146 4.52794E-14 6.75519E-02-4.55021E-13
 -1      1155 5.93543E-04 8.33325E-02 2.59897E-04
 -1      1157-5.93543E-04 8.33325E-02-2.59897E-04
 -1      1158 4.80785E-14 8.37405E-02-5.43692E-13
 -1      1160 3.76342E-14 8.29245E-02-5.44660E-13
 -1      1169 4.11641E-04 9.53008E-02 3.50083E-04
 -1      1171-4.11641E-04 9.53008E-02-3.50083E-04
 -1      1172 3.48333E-14 9.58504E-02-6.05872E-13
 -1      1174 2.90115E-14 9.47513E-02-6.06853E-13
 -1      1183 1.81774E-04 1.02534E-01 4.61696E-04
 -1      1185-1.81774E-04 1.02534E-01-4.61696E-04
 -1      1186 2.48144E-14 1.03259E-01-6.51025E-13
 -1      1188 1.84930E-14 1.01809E-01-6.50989E-13
 -1      1197-6.50984E-05 1.04308E-01 5.97409E-04
 -1      1199 6.50984E-05 1.04308E-01-5.97409E-04
 -1      1200 1.27020E-14 1.05246E-01-7.05358E-13
 -1      1202 2.43692E-15 1.03370E-01-7.06984E-13
 -1      1211-3.20703E-04 1.00301E-01 7.55837E-04
 -1      1213 3.20703E-04 1.00301E-01-7.55837E-04
 -1      1214-9.49145E-15 1.01488E-01-7.58111E-13
 -1      1216-1.62362E-14 9.91150E-02-7.58245E-13
 -1      1225-5.55542E-04 9.06659E-02 9.36176E-04
 -1      1227 5.55542E-04 9.06659E-02-9.36176E-04
 -1      1228-3.35315E-14 9.21354E-02-7.80055E-13
 -1      1230-3.60934E-14 8.91963E-02-7.81960E-13
 -1      1239-7.59987E-04 7.59727E-02 1.13446E-03
 -1      1241 7.59987E-04 7.59727E-02-1.13446E-03
 -1      1242-5.77312E-14 7.77535E-02-7.73490E-13
 -1      1244-5.57406E-14 7.41918E-02-7.74591E-13
 -1      1253-9.12280E-04 5.71780E-02 1.34661E-03
 -1      1255 9.12280E-04 5.71780E-02-1.34661E-03
 -1      1256-8.33191E-14 5.92919E-02-7.45367E-13
 -1      1258-7.99600E-14 5.50641E-02-7.46038E-13
 -1      1267-1.00577E-03 3.55466E-02 1.56655E-03
 -1      1269 1.00577E-03 3.55466E-02-1.56655E-03
 -1      1270-1.11778E-13 3.80057E-02-7.07924E-13
 -1      1272-1.07501E-13 3.30875E-02-7.07555E-13
 -1      1281-1.02929E-03 1.25619E-02 1.78812E-03
 -1      1283 1.02929E-03 1.25619E-02-1.78812E-03
 -1      1284-1.43099E-13 1.53688E-02-6.49225E-13
 -1      1286-1.33201E-13 9.75494E-03-6.50235E-13
 -1      1295-9.83016E-04-1.01762E-02 2.00436E-03
 -1      1297 9.83016E-04-1.01762E-02-2.00436E-03
 -1      1298-1.68231E-13-7.02986E-03-5.65633E-13
 -1      1300-1.56051E-13-1.33226E-02-5.65885E-13
 -1      1309-8.67008E-04-3.10628E-02 2.20868E-03
 -1      1311 8.67008E-04-3.10628E-02-2.20868E-03
 -1      1312-1.85317E-13-2.75957E-02-4.77046E-13
 -1      1314-1.74284E-13-3.45300E-02-4.77652E-13
 -1      1323-6.89591E-04-4.85944E-02 2.39484E-03
 -1      1325 6.89591E-04-4.85944E-02-2.39484E-03
 -1      1326-1.97191E-13-4.48351E-02-3.96407E-13
 -1      1328-1.87259E-13-5.23538E-02-3.96967E-13
 -1      1337-4.60498E-04-6.14706E-02 2.55757E-03
 -1      1339 4.60498E-04-6.14706E-02-2.55757E-03
 -1      1340-2.05740E-13-5.74558E-02-3.10331E-13
 -1      1342-1.93184E-13-6.54854E-02-3.10849E-13
 -1      1351-1.94621E-04-6.86764E-02 2.69290E-03
 -1      1353 1.94621E-04-6.86764E-02-2.69290E-03
 -1      1354-2.11357E-13-6.44491E-02-2.11439E-13
 -1      1356-1.97607E-13-7.29036E-02-2.11722E-13
 -1      1365 9.22144E-05-6.95470E-02 2.79829E-03
 -1      1367-9.22144E-05-6.95470E-02-2.79829E-03
 -1      1368-2.15664E-13-6.51544E-02-1.09095E-13
 -1      1370-2.03150E-13-7.39397E-02-1.08350E-13
 -1      1379 3.82506E-04-6.38019E-02 2.87305E-03
 -1      1381-3.82506E-04-6.38019E-02-2.87305E-03
 -1      1382-2.23577E-13-5.92919E-02 1.33429E-14
 -1      1384-2.04022E-13-6.83119E-02 1.35245E-14
 -1      1393 6.59163E-04-5.15554E-02 2.91806E-03
 -1      1395-6.59163E-04-5.15554E-02-2.91806E-03
 -1      1396-2.25079E-13-4.69747E-02 1.50284E-13
 -1      1398-2.08286E-13-5.61361E-02 1.51232E-13
 -1      1407 9.07471E-04-3.32882E-02 2.93625E-03
 -1      1409-9.07471E-04-3.32882E-02-2.93625E-03
 -1      1410-2.24344E-13-2.86789E-02 2.59137E-13
 -1      1412-2.13673E-13-3.78974E-02 2.58914E-13
 -1      1421 1.11385E-03-9.80260E-03 2.93178E-03
 -1      1423-1.11385E-03-9.80260E-03-2.93178E-03
 -1      1424-2.25297E-13-5.20039E-03 3.32642E-13
 -1      1426-2.17272E-13-1.44048E-02 3.33561E-13
 -1      1435 1.27215E-03 1.78706E-02 2.91068E-03
 -1      1437-1.27215E-03 1.78706E-02-2.91068E-03
 -1      1438-2.29073E-13 2.24397E-02 4.09127E-13
 -1      1440-2.16418E-13 1.33015E-02 4.10447E-13
 -1      1449 1.37561E-03 4.85595E-02 2.87971E-03
 -1      1451-1.37561E-03 4.85595E-02-2.87971E-03
 -1      1452-2.28108E-13 5.30800E-02 5.00813E-13
 -1      1454-2.15155E-13 4.40390E-02 4.98471E-13
 -1      1463 1.43181E-03 8.10964E-02 2.84687E-03
 -1      1465-1.43181E-03 8.10964E-02-2.84687E-03
 -1      1466-2.21888E-13 8.55653E-02 5.73319E-13
 -1      1468-2.14302E-13 7.66275E-02 5.75249E-13
 -1      1477 1.44178E-03 1.14428E-01 2.82097E-03
 -1      1479-1.44178E-03 1.14428E-01-2.82097E-03
 -1      1480-2.19300E-13 1.18857E-01 6.34194E-13
 -1      1482-2.10989E-13 1.10000E-01 6.32854E-13
 -1      1491 1.43441E-03 9.79841E-02-1.47628E-03
 -1      1493-1.43441E-03 9.79841E-02 1.47628E-03
 -1      1494 1.43766E-03 8.07779E-02 8.14060E-13
 -1      1496-1.43766E-03 8.07779E-02 5.68650E-13
 -1      1497 1.43441E-03 9.79841E-02 1.47628E-03
 -1      1499-1.43441E-03 9.79841E-02-1.47628E-03
 -1      1500 6.68524E-03 6.28283E-03 1.21566E-03
 -1      1502 7.00626E-03 5.98285E-03 1.39283E-03
 -1      1503 1.13264E-02 1.74924E-02 3.00966E-03
 -1      1505 1.14936E-02 1.68725E-02 3.17329E-03
 -1      1506 1.40675E-02 3.34117E-02 4.69259E-03
 -1      1508 1.43291E-02 3.24611E-02 4.76699E-03
 -1      1509 1.48887E-02 5.09412E-02 6.62989E-03
 -1      1511 1.51336E-02 4.96311E-02 6.61253E-03
 -1      1512 1.39965E-02 6.84711E-02 8.67377E-03
 -1      1514 1.42889E-02 6.67846E-02 8.62097E-03
 -1      1515 1.16288E-02 8.39627E-02 1.10048E-02
 -1      1517 1.19463E-02 8.18708E-02 1.08641E-02
 -1      1518 8.04758E-03 9.60148E-02 1.35548E-02
 -1      1520 8.40767E-03 9.34899E-02 1.34035E-02
 -1      1521 3.63288E-03 1.03383E-01 1.64248E-02
 -1      1523 4.03111E-03 1.00396E-01 1.62188E-02
 -1      1524-1.26552E-03 1.05372E-01 1.95566E-02
 -1      1526-8.26477E-04 1.01893E-01 1.93633E-02
 -1      1527-6.22905E-03 1.01636E-01 2.29899E-02
 -1      1529-5.75336E-03 9.76393E-02 2.27816E-02
 -1      1530-1.08886E-02 9.23420E-02 2.66530E-02
 -1      1532-1.03810E-02 8.78050E-02 2.64816E-02
 -1      1533-1.48758E-02 7.80372E-02 3.05333E-02
 -1      1535-1.43439E-02 7.29430E-02 3.03821E-02
 -1      1536-1.78970E-02 5.96784E-02 3.45407E-02
 -1      1538-1.73503E-02 5.40161E-02 3.44456E-02
 -1      1539-1.97132E-02 3.85060E-02 3.86240E-02
 -1      1541-1.91625E-02 3.22734E-02 3.85724E-02
 -1      1542-2.01826E-02 1.59942E-02 4.26823E-02
 -1      1544-1.96396E-02 9.19667E-03 4.26952E-02
 -1      1545-1.92473E-02-6.27961E-03 4.66457E-02
 -1      1547-1.87238E-02-1.36274E-02 4.67092E-02
 -1      1548-1.69521E-02-2.67236E-02 5.04173E-02
 -1      1550-1.64595E-02-3.45992E-02 5.05396E-02
 -1      1551-1.34271E-02-4.38530E-02 5.39306E-02
 -1      1553-1.29752E-02-5.22256E-02 5.40948E-02
 -1      1554-8.88747E-03-5.63782E-02 5.71107E-02
 -1      1556-8.48442E-03-6.52110E-02 5.73146E-02
 -1      1557-3.60853E-03-6.32962E-02 5.99139E-02
 -1      1559-3.26018E-03-7.25466E-02 6.01385E-02
 -1      1560 2.08773E-03-6.39468E-02 6.23011E-02
 -1      1562 2.37818E-03-7.35690E-02 6.25384E-02
 -1      1563 7.86347E-03-5.80525E-02 6.42645E-02
 -1      1565 8.09570E-03-6.79986E-02 6.44958E-02
 -1      1566 1.33855E-02-4.57234E-02 6.58070E-02
 -1      1568 1.35619E-02-5.59456E-02 6.60234E-02
 -1      1569 1.83569E-02-2.74350E-02 6.69594E-02
 -1      1571 1.84826E-02-3.78868E-02 6.71459E-02
 -1      1572 2.25380E-02-3.97627E-03 6.77620E-02
 -1      1574 2.26201E-02-1.46140E-02 6.79139E-02
 -1      1575 2.57724E-02 2.36336E-02 6.82759E-02
 -1      1577 2.58198E-02 1.28504E-02 6.83852E-02
 -1      1578 2.80034E-02 5.42405E-02 6.85645E-02
 -1      1580 2.80259E-02 4.33489E-02 6.86347E-02
 -1      1581 2.92924E-02 8.66975E-02 6.87005E-02
 -1      1583 2.92996E-02 7.57319E-02 6.87325E-02
 -1      1584 2.98143E-02 1.19958E-01 6.87479E-02
 -1      1586 2.98151E-02 1.08950E-01 6.87554E-02
 -1      1587 1.49416E-02 1.53138E-01 3.25539E-02
 -1      1589 1.49398E-02 1.42443E-01 3.25554E-02
 -1      1590 0.00000E+00 0.00000E+00-8.16583E-05
 -1      1592 0.00000E+00 0.00000E+00 8.16583E-05
 -1      1593-1.49416E-02 1.53138E-01-3.25539E-02
 -1      1595-1.49398E-02 1.42443E-01-3.25554E-02
 -1      1596-6.68524E-03 6.28283E-03-1.21566E-03
 -1      1598-7.00626E-03 5.98285E-03-1.39283E-03
 -1      1599-1.13264E-02 1.74924E-02-3.00966E-03
 -1      1601-1.14936E-02 1.68725E-02-3.17329E-03
 -1      1602-1.40675E-02 3.34117E-02-4.69259E-03
 -1      1604-1.43291E-02 3.24611E-02-4.76699E-03
 -1      1605-1.48887E-02 5.09412E-02-6.62989E-03
 -1      1607-1.51336E-02 4.96311E-02-6.61253E-03
 -1      1608-1.39965E-02 6.84711E-02-8.67377E-03
 -1      1610-1.42889E-02 6.67846E-02-8.62097E-03
 -1      1611-1.16288E-02 8.39627E-02-1.10048E-02
 -1      1613-1.19463E-02 8.18708E-02-1.08641E-02
 -1      1614-8.04758E-03 9.60148E-02-1.35548E-02
 -1      1616-8.40767E-03 9.34899E-02-1.34035E-02
 -1      1617-3.63288E-03 1.03383E-01-1.64248E-02
 -1      1619-4.03111E-03 1.00396E-01-1.62188E-02
 -1      1620 1.26552E-03 1.05372E-01-1.95566E-02
 -1      1622 8.26477E-04 1.01893E-01-1.93633E-02
 -1      1623 6.22905E-03 1.01636E-01-2.29899E-02
 -1      1625 5.75336E-03 9.76393E-02-2.27816E-02
 -1      1626 1.08886E-02 9.23420E-02-2.66530E-02
 -1      1628 1.03810E-02 8.78050E-02-2.64816E-02
 -1      1629 1.48758E-02 7.80372E-02-3.05333E-02
 -1      1631 1.43439E-02 7.29430E-02-3.03821E-02
 -1      1632 1.78970E-02 5.96784E-02-3.45407E-02
 -1      1634 1.73503E-02 5.40161E-02-3.44456E-02
 -1      1635 1.97132E-02 3.85060E-02-3.86240E-02
 -1      1637 1.91625E-02 3.22734E-02-3.85724E-02
 -1      1638 2.01826E-02 1.59942E-02-4.26823E-02
 -1      1640 1.96396E-02 9.19667E-03-4.26952E-02
 -1      1641 1.92473E-02-6.27961E-03-4.66457E-02
 -1      1643 1.87238E-02-1.36274E-02-4.67092E-02
 -1      1644 1.69521E-02-2.67236E-02-5.04173E-02
 -1      1646 1.64595E-02-3.45992E-02-5.05396E-02
 -1      1647 1.34271E-02-4.38530E-02-5.39306E-02
 -1      1649 1.29752E-02-5.22256E-02-5.40948E-02
 -1      1650 8.88747E-03-5.63782E-02-5.71107E-02
 -1      1652 8.48442E-03-6.52110E-02-5.73146E-02
 -1      1653 3.60853E-03-6.32962E-02-5.99139E-02
 -1      1655 3.26018E-03-7.25466E-02-6.01385E-02
 -1      1656-2.08773E-03-6.39468E-02-6.23011E-02
 -1      1658-2.37818E-03-7.35690E-02-6.25384E-02
 -1      1659-7.86347E-03-5.80525E-02-6.42645E-02
 -1      1661-8.09570E-03-6.79986E-02-6.44958E-02
 -1      1662-1.33855E-02-4.57234E-02-6.58070E-02
 -1      1664-1.35619E-02-5.59456E-02-6.60234E-02
 -1      1665-1.83569E-02-2.74350E-02-6.69594E-02
 -1      1667-1.84826E-02-3.78868E-02-6.71459E-02
 -1      1668-2.25380E-02-3.97627E-03-6.77620E-02
 -1      1670-2.26201E-02-1.46140E-02-6.79139E-02
 -1      1671-2.57724E-02 2.36336E-02-6.82759E-02
 -1      1673-2.58198E-02 1.28504E-02-6.83852E-02
 -1      1674-2.80034E-02 5.42405E-02-6.85645E-02
 -1      1676-2.80259E-02 4.33489E-02-6.86347E-02
 -1      1677-2.92924E-02 8.66975E-02-6.87005E-02
 -1      1679-2.92996E-02 7.57319E-02-6.87325E-02
 -1      1680-2.98143E-02 1.19958E-01-6.87479E-02
 -1      1682-2.98151E-02 1.08950E-01-6.87554E-02
 -1      1683 0.00000E+00 0.00000E+00 8.16583E-05
 -1      1685 0.00000E+00 0.00000E+00-8.16583E-05
 -1      1686-2.94248E-03 5.26087E-03 4.02015E-04
 -1      1688-3.07474E-03 5.05680E-03 5.24996E-04
 -1      1689-5.54349E-03 1.72697E-02 1.15755E-03
 -1      1691-5.60995E-03 1.67523E-02 1.22720E-03
 -1      1692-6.78208E-03 3.30509E-02 1.79189E-03
 -1      1694-6.88828E-03 3.22507E-02 1.83085E-03
 -1      1695-7.27142E-03 5.09081E-02 2.57676E-03
 -1      1697-7.37551E-03 4.97956E-02 2.57837E-03
 -1      1698-6.83209E-03 6.84854E-02 3.43178E-03
 -1      1700-6.95912E-03 6.70335E-02 3.39794E-03
 -1      1701-5.68157E-03 8.41555E-02 4.43460E-03
 -1      1703-5.82663E-03 8.23350E-02 4.37887E-03
 -1      1704-3.93308E-03 9.62605E-02 5.59361E-03
 -1      1706-4.10251E-03 9.40318E-02 5.51231E-03
 -1      1707-1.76207E-03 1.03712E-01 6.92771E-03
 -1      1709-1.95637E-03 1.01040E-01 6.83718E-03
 -1      1710 6.40173E-04 1.05708E-01 8.44604E-03
 -1      1712 4.20574E-04 1.02552E-01 8.34709E-03
 -1      1713 3.08293E-03 1.01972E-01 1.01410E-02
 -1      1715 2.83937E-03 9.82968E-02 1.00459E-02
 -1      1716 5.37221E-03 9.26259E-02 1.19985E-02
 -1      1718 5.10790E-03 8.83987E-02 1.19124E-02
 -1      1719 7.33426E-03 7.82524E-02 1.39904E-02
 -1      1721 7.05354E-03 7.34488E-02 1.39202E-02
 -1      1722 8.81878E-03 5.97921E-02 1.60787E-02
 -1      1724 8.52760E-03 5.43940E-02 1.60307E-02
 -1      1725 9.71137E-03 3.85072E-02 1.82193E-02
 -1      1727 9.41633E-03 3.25083E-02 1.81955E-02
 -1      1728 9.93964E-03 1.58695E-02 2.03593E-02
 -1      1730 9.64813E-03 9.27297E-03 2.03641E-02
 -1      1731 9.47645E-03-6.52843E-03 2.24478E-02
 -1      1733 9.19579E-03-1.37069E-02 2.24785E-02
 -1      1734 8.34265E-03-2.70913E-02 2.44295E-02
 -1      1736 8.07995E-03-3.48261E-02 2.44875E-02
 -1      1737 6.60286E-03-4.43234E-02 2.62590E-02
 -1      1739 6.36436E-03-5.25777E-02 2.63378E-02
 -1      1740 4.36237E-03-5.69313E-02 2.78921E-02
 -1      1742 4.15320E-03-6.56603E-02 2.79897E-02
 -1      1743 1.75707E-03-6.39056E-02 2.92998E-02
 -1      1745 1.58080E-03-7.30572E-02 2.94076E-02
 -1      1746-1.05507E-03-6.45841E-02 3.04597E-02
 -1      1748-1.19654E-03-7.41023E-02 3.05736E-02
 -1      1749-3.90754E-03-5.86884E-02 3.13671E-02
 -1      1751-4.01416E-03-6.85151E-02 3.14782E-02
 -1      1752-6.63699E-03-4.63301E-02 3.20262E-02
 -1      1754-6.71061E-03-5.64081E-02 3.21305E-02
 -1      1755-9.09728E-03-2.79895E-02 3.24584E-02
 -1      1757-9.14137E-03-3.82648E-02 3.25486E-02
 -1      1758-1.11712E-02-4.45926E-03 3.26933E-02
 -1      1760-1.11909E-02-1.48835E-02 3.27671E-02
 -1      1761-1.27827E-02 2.32305E-02 3.27733E-02
 -1      1763-1.27841E-02 1.26987E-02 3.28275E-02
 -1      1764-1.39043E-02 5.39231E-02 3.27467E-02
 -1      1766-1.38951E-02 4.33170E-02 3.27822E-02
 -1      1767-1.45671E-02 8.64512E-02 3.26665E-02
 -1      1769-1.45538E-02 7.57961E-02 3.26851E-02
 -1      1770-1.48674E-02 1.19776E-01 3.25877E-02
 -1      1772-1.48593E-02 1.09091E-01 3.25959E-02
 -1      1773 2.94248E-03 5.26087E-03-4.02015E-04
 -1      1775 3.07474E-03 5.05680E-03-5.24996E-04
 -1      1776 5.54349E-03 1.72697E-02-1.15755E-03
 -1      1778 5.60995E-03 1.67523E-02-1.22720E-03
 -1      1779 6.78208E-03 3.30509E-02-1.79189E-03
 -1      1781 6.88828E-03 3.22507E-02-1.83085E-03
 -1      1782 7.27142E-03 5.09081E-02-2.57676E-03
 -1      1784 7.37551E-03 4.97956E-02-2.57837E-03
 -1      1785 6.83209E-03 6.84854E-02-3.43178E-03
 -1      1787 6.95912E-03 6.70335E-02-3.39794E-03
 -1      1788 5.68157E-03 8.41555E-02-4.43460E-03
 -1      1790 5.82663E-03 8.23350E-02-4.37887E-03
 -1      1791 3.93308E-03 9.62605E-02-5.59361E-03
 -1      1793 4.10251E-03 9.40318E-02-5.51231E-03
 -1      1794 1.76207E-03 1.03712E-01-6.92771E-03
 -1      1796 1.95637E-03 1.01040E-01-6.83718E-03
 -1      1797-6.40173E-04 1.05708E-01-8.44604E-03
 -1      1799-4.20574E-04 1.02552E-01-8.34709E-03
 -1      1800-3.08293E-03 1.01972E-01-1.01410E-02
 -1      1802-2.83937E-03 9.82968E-02-1.00459E-02
 -1      1803-5.37221E-03 9.26259E-02-1.19985E-02
 -1      1805-5.10790E-03 8.83987E-02-1.19124E-02
 -1      1806-7.33426E-03 7.82524E-02-1.39904E-02
 -1      1808-7.05354E-03 7.34488E-02-1.39202E-02
 -1      1809-8.81878E-03 5.97921E-02-1.60787E-02
 -1      1811-8.52760E-03 5.43940E-02-1.60307E-02
 -1      1812-9.71137E-03 3.85072E-02-1.82193E-02
 -1      1814-9.41633E-03 3.25083E-02-1.81955E-02
 -1      1815-9.93964E-03 1.58695E-02-2.03593E-02
 -1      1817-9.64813E-03 9.27297E-03-2.03641E-02
 -1      1818-9.47645E-03-6.52843E-03-2.24478E-02
 -1      1820-9.19579E-03-1.37069E-02-2.24785E-02
 -1      1821-8.34265E-03-2.70913E-02-2.44295E-02
 -1      1823-8.07995E-03-3.48261E-02-2.44875E-02
 -1      1824-6.60286E-03-4.43234E-02-2.62590E-02
 -1      1826-6.36436E-03-5.25777E-02-2.63378E-02
 -1      1827-4.36237E-03-5.69313E-02-2.78921E-02
 -1      1829-4.15320E-03-6.56603E-02-2.79897E-02
 -1      1830-1.75707E-03-6.39056E-02-2.92998E-02
 -1      1832-1.58080E-03-7.30572E-02-2.94076E-02
 -1      1833 1.05507E-03-6.45841E-02-3.04597E-02
 -1      1835 1.19654E-03-7.41023E-02-3.05736E-02
 -1      1836 3.90754E-03-5.86884E-02-3.13671E-02
 -1      1838 4.01416E-03-6.85151E-02-3.14782E-02
 -1      1839 6.63699E-03-4.63301E-02-3.20262E-02
 -1      1841 6.71061E-03-5.64081E-02-3.21305E-02
 -1      1842 9.09728E-03-2.79895E-02-3.24584E-02
 -1      1844 9.14137E-03-3.82648E-02-3.25486E-02
 -1      1845 1.11712E-02-4.45926E-03-3.26933E-02
 -1      1847 1.11909E-02-1.48835E-02-3.27671E-02
 -1      1848 1.27827E-02 2.32305E-02-3.27733E-02
 -1      1850 1.27841E-02 1.26987E-02-3.28275E-02
 -1      1851 1.39043E-02 5.39231E-02-3.27467E-02
 -1      1853 1.38951E-02 4.33170E-02-3.27822E-02
 -1      1854 1.45671E-02 8.64512E-02-3.26665E-02
 -1      1856 1.45538E-02 7.57961E-02-3.26851E-02
 -1      1857 1.48674E-02 1.19776E-01-3.25877E-02
 -1      1859 1.48593E-02 1.09091E-01-3.25959E-02
 -1      1860 4.15430E-04 4.77250E-03 1.54586E-05
 -1      1862-4.15430E-04 4.77250E-03-1.54586E-05
 -1      1863 6.11776E-04 1.66358E-02 3.82356E-05
 -1      1865-6.11776E-04 1.66358E-02-3.82356E-05
 -1      1866 7.35234E-04 3.22073E-02 5.39712E-05
 -1      1868-7.35234E-04 3.22073E-02-5.39712E-05
 -1      1869 7.64044E-04 4.95261E-02 6.42389E-05
 -1      1871-7.64044E-04 4.95261E-02-6.42389E-05
 -1      1872 7.01557E-04 6.64189E-02 6.33514E-05
 -1      1874-7.01557E-04 6.64189E-02-6.33514E-05
 -1      1875 5.62587E-04 8.09201E-02 4.76340E-05
 -1      1877-5.62587E-04 8.09201E-02-4.76340E-05
 -1      1878 3.64647E-04 9.14467E-02 1.38509E-05
 -1      1880-3.64647E-04 9.14467E-02-1.38509E-05
 -1      1881 1.19190E-04 9.67497E-02-4.10633E-05
 -1      1883-1.19190E-04 9.67497E-02 4.10633E-05
 -1      1884-1.45871E-04 9.60471E-02-1.18017E-04
 -1      1886 1.45871E-04 9.60471E-02 1.18017E-04
 -1      1887-4.17059E-04 8.90383E-02-2.17548E-04
 -1      1889 4.17059E-04 8.90383E-02 2.17548E-04
 -1      1890-6.67603E-04 7.58988E-02-3.37727E-04
 -1      1892 6.67603E-04 7.58988E-02 3.37727E-04
 -1      1893-8.83379E-04 5.72813E-02-4.76084E-04
 -1      1895 8.83379E-04 5.72813E-02 4.76084E-04
 -1      1896-1.04467E-03 3.42385E-02-6.28052E-04
 -1      1898 1.04467E-03 3.42385E-02 6.28052E-04
 -1      1899-1.14170E-03 8.16736E-03-7.88692E-04
 -1      1901 1.14170E-03 8.16736E-03 7.88692E-04
 -1      1902-1.16487E-03-1.93063E-02-9.51763E-04
 -1      1904 1.16487E-03-1.93063E-02 9.51763E-04
 -1      1905-1.11269E-03-4.64273E-02-1.11117E-03
 -1      1907 1.11269E-03-4.64273E-02 1.11117E-03
 -1      1908-9.86645E-04-7.14404E-02-1.26047E-03
 -1      1910 9.86645E-04-7.14404E-02 1.26047E-03
 -1      1911-7.94669E-04-9.27017E-02-1.39408E-03
 -1      1913 7.94669E-04-9.27017E-02 1.39408E-03
 -1      1914-5.47980E-04-1.08792E-01-1.50695E-03
 -1      1916 5.47980E-04-1.08792E-01 1.50695E-03
 -1      1917-2.62012E-04-1.18608E-01-1.59562E-03
 -1      1919 2.62012E-04-1.18608E-01 1.59562E-03
 -1      1920 4.58560E-05-1.21429E-01-1.65772E-03
 -1      1922-4.58560E-05-1.21429E-01 1.65772E-03
 -1      1923 3.57059E-04-1.16959E-01-1.69300E-03
 -1      1925-3.57059E-04-1.16959E-01 1.69300E-03
 -1      1926 6.53014E-04-1.05342E-01-1.70245E-03
 -1      1928-6.53014E-04-1.05342E-01 1.70245E-03
 -1      1929 9.17907E-04-8.71221E-02-1.68939E-03
 -1      1931-9.17907E-04-8.71221E-02 1.68939E-03
 -1      1932 1.13672E-03-6.32109E-02-1.65807E-03
 -1      1934-1.13672E-03-6.32109E-02 1.65807E-03
 -1      1935 1.30298E-03-3.47724E-02-1.61492E-03
 -1      1937-1.30298E-03-3.47724E-02 1.61492E-03
 -1      1938 1.40770E-03-3.15366E-03-1.56681E-03
 -1      1940-1.40770E-03-3.15366E-03 1.56681E-03
 -1      1941 1.46105E-03 3.03076E-02-1.52197E-03
 -1      1943-1.46105E-03 3.03076E-02 1.52197E-03
 -1      1944 1.45737E-03 6.43268E-02-1.48921E-03
 -1      1946-1.45737E-03 6.43268E-02 1.48921E-03
 -1      1947 4.18576E-04 4.97313E-03-7.19511E-14
 -1      1949-4.18576E-04 4.97313E-03-6.60956E-14
 -1      1950 6.14296E-04 1.70721E-02-1.62488E-13
 -1      1952-6.14296E-04 1.70721E-02-1.43042E-13
 -1      1953 7.32769E-04 3.28388E-02-2.66936E-13
 -1      1955-7.32769E-04 3.28388E-02-2.29910E-13
 -1      1956 7.55592E-04 5.02704E-02-3.75169E-13
 -1      1958-7.55592E-04 5.02704E-02-3.15754E-13
 -1      1959 6.82562E-04 6.71506E-02-4.81691E-13
 -1      1961-6.82562E-04 6.71506E-02-3.96454E-13
 -1      1962 5.31630E-04 8.14685E-02-5.82971E-13
 -1      1964-5.31630E-04 8.14685E-02-4.71699E-13
 -1      1965 3.17654E-04 9.15977E-02-6.69458E-13
 -1      1967-3.17654E-04 9.15977E-02-5.34128E-13
 -1      1968 5.66062E-05 9.62625E-02-7.39672E-13
 -1      1970-5.66062E-05 9.62625E-02-5.84664E-13
 -1      1971-2.26644E-04 9.46621E-02-7.97584E-13
 -1      1973 2.26644E-04 9.46621E-02-6.27012E-13
 -1      1974-5.13414E-04 8.64970E-02-8.44581E-13
 -1      1976 5.13414E-04 8.64970E-02-6.62644E-13
 -1      1977-7.79663E-04 7.19590E-02-8.77604E-13
 -1      1979 7.79663E-04 7.19590E-02-6.86118E-13
 -1      1980-1.00677E-03 5.17346E-02-8.87339E-13
 -1      1982 1.00677E-03 5.17346E-02-6.90718E-13
 -1      1983-1.17706E-03 2.69254E-02-8.72073E-13
 -1      1985 1.17706E-03 2.69254E-02-6.76494E-13
 -1      1986-1.27764E-03-1.01122E-03-8.31168E-13
 -1      1988 1.27764E-03-1.01122E-03-6.45164E-13
 -1      1989-1.30045E-03-3.03794E-02-7.60891E-13
 -1      1991 1.30045E-03-3.03794E-02-5.91215E-13
 -1      1992-1.24237E-03-5.93515E-02-6.68007E-13
 -1      1994 1.24237E-03-5.93515E-02-5.22030E-13
 -1      1995-1.10628E-03-8.60991E-02-5.62800E-13
 -1      1997 1.10628E-03-8.60991E-02-4.47233E-13
 -1      1998-8.99746E-04-1.08912E-01-4.51000E-13
 -1      2000 8.99746E-04-1.08912E-01-3.67527E-13
 -1      2001-6.35462E-04-1.26315E-01-3.33596E-13
 -1      2003 6.35462E-04-1.26315E-01-2.84617E-13
 -1      2004-3.29403E-04-1.37160E-01-2.12890E-13
 -1      2006 3.29403E-04-1.37160E-01-2.02590E-13
 -1      2007-5.02330E-07-1.40705E-01-8.29805E-14
 -1      2009 5.02330E-07-1.40705E-01-1.11087E-13
 -1      2010 3.31611E-04-1.36647E-01 4.63830E-14
 -1      2012-3.31611E-04-1.36647E-01-1.78173E-14
 -1      2013 6.46864E-04-1.25142E-01 1.73434E-13
 -1      2015-6.46864E-04-1.25142E-01 7.51968E-14
 -1      2016 9.28344E-04-1.06773E-01 2.92853E-13
 -1      2018-9.28344E-04-1.06773E-01 1.61298E-13
 -1      2019 1.15959E-03-8.25040E-02 3.96544E-13
 -1      2021-1.15959E-03-8.25040E-02 2.35013E-13
 -1      2022 1.33382E-03-5.35674E-02 4.90484E-13
 -1      2024-1.33382E-03-5.35674E-02 3.04919E-13
 -1      2025 1.43979E-03-2.13976E-02 5.83497E-13
 -1      2027-1.43979E-03-2.13976E-02 3.75987E-13
 -1      2028 1.49029E-03 1.25805E-02 6.65841E-13
 -1      2030-1.49029E-03 1.25805E-02 4.42542E-13
 -1      2031 1.47297E-03 4.69715E-02 7.40337E-13
 -1      2033-1.47297E-03 4.69715E-02 5.05103E-13
 -1      2034 4.15430E-04 4.77250E-03-1.54586E-05
 -1      2036-4.15430E-04 4.77250E-03 1.54586E-05
 -1      2037 6.11776E-04 1.66358E-02-3.82356E-05
 -1      2039-6.11776E-04 1.66358E-02 3.82356E-05
 -1      2040 7.35234E-04 3.22073E-02-5.39712E-05
 -1      2042-7.35234E-04 3.22073E-02 5.39712E-05
 -1      2043 7.64044E-04 4.95261E-02-6.42389E-05
 -1      2045-7.64044E-04 4.95261E-02 6.42389E-05
 -1      2046 7.01557E-04 6.64189E-02-6.33514E-05
 -1      2048-7.01557E-04 6.64189E-02 6.33514E-05
 -1      2049 5.62587E-04 8.09201E-02-4.76340E-05
 -1      2051-5.62587E-04 8.09201E-02 4.76340E-05
 -1      2052 3.64647E-04 9.14467E-02-1.38509E-05
 -1      2054-3.64647E-04 9.14467E-02 1.38509E-05
 -1      2055 1.19190E-04 9.67497E-02 4.10633E-05
 -1      2057-1.19190E-04 9.67497E-02-4.10633E-05
 -1      2058-1.45871E-04 9.60471E-02 1.18017E-04
 -1      2060 1.45871E-04 9.60471E-02-1.18017E-04
 -1      2061-4.17059E-04 8.90383E-02 2.17548E-04
 -1      2063 4.17059E-04 8.90383E-02-2.17548E-04
 -1      2064-6.67603E-04 7.58988E-02 3.37727E-04
 -1      2066 6.67603E-04 7.58988E-02-3.37727E-04
 -1      2067-8.83379E-04 5.72813E-02 4.76084E-04
 -1      2069 8.83379E-04 5.72813E-02-4.76084E-04
 -1      2070-1.04467E-03 3.42385E-02 6.28052E-04
 -1      2072 1.04467E-03 3.42385E-02-6.28052E-04
 -1      2073-1.14170E-03 8.16736E-03 7.88692E-04
 -1      2075 1.14170E-03 8.16736E-03-7.88692E-04
 -1      2076-1.16487E-03-1.93063E-02 9.51763E-04
 -1      2078 1.16487E-03-1.93063E-02-9.51763E-04
 -1      2079-1.11269E-03-4.64273E-02 1.11117E-03
 -1      2081 1.11269E-03-4.64273E-02-1.11117E-03
 -1      2082-9.86645E-04-7.14404E-02 1.26047E-03
 -1      2084 9.86645E-04-7.14404E-02-1.26047E-03
 -1      2085-7.94669E-04-9.27017E-02 1.39408E-03
 -1      2087 7.94669E-04-9.27017E-02-1.39408E-03
 -1      2088-5.47980E-04-1.08792E-01 1.50695E-03
 -1      2090 5.47980E-04-1.08792E-01-1.50695E-03
 -1      2091-2.62012E-04-1.18608E-01 1.59562E-03
 -1      2093 2.62012E-04-1.18608E-01-1.59562E-03
 -1      2094 4.58560E-05-1.21429E-01 1.65772E-03
 -1      2096-4.58560E-05-1.21429E-01-1.65772E-03
 -1      2097 3.57059E-04-1.16959E-01 1.69300E-03
 -1      2099-3.57059E-04-1.16959E-01-1.69300E-03
 -1      2100 6.53014E-04-1.05342E-01 1.70245E-03
 -1      2102-6.53014E-04-1.05342E-01-1.70245E-03
 -1      2103 9.17907E-04-8.71221E-02 1.68939E-03
 -1      2105-9.17907E-04-8.71221E-02-1.68939E-03
 -1      2106 1.13672E-03-6.32109E-02 1.65807E-03
 -1      2108-1.13672E-03-6.32109E-02-1.65807E-03
 -1      2109 1.30298E-03-3.47724E-02 1.61492E-03
 -1      2111-1.30298E-03-3.47724E-02-1.61492E-03
 -1      2112 1.40770E-03-3.15366E-03 1.56681E-03
 -1      2114-1.40770E-03-3.15366E-03-1.56681E-03
 -1      2115 1.46105E-03 3.03076E-02 1.52197E-03
 -1      2117-1.46105E-03 3.03076E-02-1.52197E-03
 -1      2118 1.45737E-03 6.43268E-02 1.48921E-03
 -1      2120-1.45737E-03 6.43268E-02-1.48921E-03
 -1      2121 2.94248E-03 5.26087E-03 4.02015E-04
 -1      2123 3.07474E-03 5.05680E-03 5.24996E-04
 -1      2124 5.54349E-03 1.72697E-02 1.15755E-03
 -1      2126 5.60995E-03 1.67523E-02 1.22720E-03
 -1      2127 6.78208E-03 3.30509E-02 1.79189E-03
 -1      2129 6.88828E-03 3.22507E-02 1.83085E-03
 -1      2130 7.27142E-03 5.09081E-02 2.57676E-03
 -1      2132 7.37551E-03 4.97956E-02 2.57837E-03
 -1      2133 6.83209E-03 6.84854E-02 3.43178E-03
 -1      2135 6.95912E-03 6.70335E-02 3.39794E-03
 -1      2136 5.68157E-03 8.41555E-02 4.43460E-03
 -1      2138 5.82663E-03 8.23350E-02 4.37887E-03
 -1      2139 3.93308E-03 9.62605E-02 5.59361E-03
 -1      2141 4.10251E-03 9.40318E-02 5.51231E-03
 -1      2142 1.76207E-03 1.03712E-01 6.92771E-03
 -1      2144 1.95637E-03 1.01040E-01 6.83718E-03
 -1      2145-6.40173E-04 1.05708E-01 8.44604E-03
 -1      2147-4.20574E-04 1.02552E-01 8.34709E-03
 -1      2148-3.08293E-03 1.01972E-01 1.01410E-02
 -1      2150-2.83937E-03 9.82968E-02 1.00459E-02
 -1      2151-5.37221E-03 9.26259E-02 1.19985E-02
 -1      2153-5.10790E-03 8.83987E-02 1.19124E-02
 -1      2154-7.33426E-03 7.82524E-02 1.39904E-02
 -1      2156-7.05354E-03 7.34488E-02 1.39202E-02
 -1      2157-8.81878E-03 5.97921E-02 1.60787E-02
 -1      2159-8.52760E-03 5.43940E-02 1.60307E-02
 -1      2160-9.71137E-03 3.85072E-02 1.82193E-02
 -1      2162-9.41633E-03 3.25083E-02 1.81955E-02
 -1      2163-9.93964E-03 1.58695E-02 2.03593E-02
 -1      2165-9.64813E-03 9.27297E-03 2.03641E-02
 -1      2166-9.47645E-03-6.52843E-03 2.24478E-02
 -1      2168-9.19579E-03-1.37069E-02 2.24785E-02
 -1      2169-8.34265E-03-2.70913E-02 2.44295E-02
 -1      2171-8.07995E-03-3.48261E-02 2.44875E-02
 -1      2172-6.60286E-03-4.43234E-02 2.62590E-02
 -1      2174-6.36436E-03-5.25777E-02 2.63378E-02
 -1      2175-4.36237E-03-5.69313E-02 2.78921E-02
 -1      2177-4.15320E-03-6.56603E-02 2.79897E-02
 -1      2178-1.75707E-03-6.39056E-02 2.92998E-02
 -1      2180-1.58080E-03-7.30572E-02 2.94076E-02
 -1      2181 1.05507E-03-6.45841E-02 3.04597E-02
 -1      2183 1.19654E-03-7.41023E-02 3.05736E-02
 -1      2184 3.90754E-03-5.86884E-02 3.13671E-02
 -1      2186 4.01416E-03-6.85151E-02 3.14782E-02
 -1      2187 6.63699E-03-4.63301E-02 3.20262E-02
 -1      2189 6.71061E-03-5.64081E-02 3.21305E-02
 -1      2190 9.09728E-03-2.79895E-02 3.24584E-02
 -1      2192 9.14137E-03-3.82648E-02 3.25486E-02
 -1      2193 1.11712E-02-4.45926E-03 3.26933E-02
 -1      2195 1.11909E-02-1.48835E-02 3.27671E-02
 -1      2196 1.27827E-02 2.32305E-02 3.27733E-02
 -1      2198 1.27841E-02 1.26987E-02 3.28275E-02
 -1      2199 1.39043E-02 5.39231E-02 3.27467E-02
 -1      2201 1.38951E-02 4.33170E-02 3.27822E-02
 -1      2202 1.45671E-02 8.64512E-02 3.26665E-02
 -1      2204 1.45538E-02 7.57961E-02 3.26851E-02
 -1      2205 1.48674E-02 1.19776E-01 3.25877E-02
 -1      2207 1.48593E-02 1.09091E-01 3.25959E-02
 -1      2208-2.94248E-03 5.26087E-03-4.02015E-04
 -1      2210-3.07474E-03 5.05680E-03-5.24996E-04
 -1      2211-5.54349E-03 1.72697E-02-1.15755E-03
 -1      2213-5.60995E-03 1.67523E-02-1.22720E-03
 -1      2214-6.78208E-03 3.30509E-02-1.79189E-03
 -1      2216-6.88828E-03 3.22507E-02-1.83085E-03
 -1      2217-7.27142E-03 5.09081E-02-2.57676E-03
 -1      2219-7.37551E-03 4.97956E-02-2.57837E-03
 -1      2220-6.83209E-03 6.84854E-02-3.43178E-03
 -1      2222-6.95912E-03 6.70335E-02-3.39794E-03
 -1      2223-5.68157E-03 8.41555E-02-4.43460E-03
 -1      2225-5.82663E-03 8.23350E-02-4.37887E-03
 -1      2226-3.93308E-03 9.62605E-02-5.59361E-03
 -1      2228-4.10251E-03 9.40318E-02-5.51231E-03
 -1      2229-1.76207E-03 1.03712E-01-6.92771E-03
 -1      2231-1.95637E-03 1.01040E-01-6.83718E-03
 -1      2232 6.40173E-04 1.05708E-01-8.44604E-03
 -1      2234 4.20574E-04 1.02552E-01-8.34709E-03
 -1      2235 3.08293E-03 1.01972E-01-1.01410E-02
 -1      2237 2.83937E-03 9.82968E-02-1.00459E-02
 -1      2238 5.37221E-03 9.26259E-02-1.19985E-02
 -1      2240 5.10790E-03 8.83987E-02-1.19124E-02
 -1      2241 7.33426E-03 7.82524E-02-1.39904E-02
 -1      2243 7.05354E-03 7.34488E-02-1.39202E-02
 -1      2244 8.81878E-03 5.97921E-02-1.60787E-02
 -1      2246 8.52760E-03 5.43940E-02-1.60307E-02
 -1      2247 9.71137E-03 3.85072E-02-1.82193E-02
 -1      2249 9.41633E-03 3.25083E-02-1.81955E-02
 -1      2250 9.93964E-03 1.58695E-02-2.03593E-02
 -1      2252 9.64813E-03 9.27297E-03-2.03641E-02
 -1      2253 9.47645E-03-6.52843E-03-2.24478E-02
 -1      2255 9.19579E-03-1.37069E-02-2.24785E-02
 -1      2256 8.34265E-03-2.70913E-02-2.44295E-02
 -1      2258 8.07995E-03-3.48261E-02-2.44875E-02
 -1      2259 6.60286E-03-4.43234E-02-2.62590E-02
 -1      2261 6.36436E-03-5.25777E-02-2.63378E-02
 -1      2262 4.36237E-03-5.69313E-02-2.78921E-02
 -1      2264 4.15320E-03-6.56603E-02-2.79897E-02
 -1      2265 1.75707E-03-6.39056E-02-2.92998E-02
 -1      2267 1.58080E-03-7.30572E-02-2.94076E-02
 -1      2268-1.05507E-03-6.45841E-02-3.04597E-02
 -1      2270-1.19654E-03-7.41023E-02-3.05736E-02
 -1      2271-3.90754E-03-5.86884E-02-3.13671E-02
 -1      2273-4.01416E-03-6.85151E-02-3.14782E-02
 -1      2274-6.63699E-03-4.63301E-02-3.20262E-02
 -1      2276-6.71061E-03-5.64081E-02-3.21305E-02
 -1      2277-9.09728E-03-2.79895E-02-3.24584E-02
 -1      2279-9.14137E-03-3.82648E-02-3.25486E-02
 -1      2280-1.11712E-02-4.45926E-03-3.26933E-02
 -1      2282-1.11909E-02-1.48835E-02-3.27671E-02
 -1      2283-1.27827E-02 2.32305E-02-3.27733E-02
 -1      2285-1.27841E-02 1.26987E-02-3.28275E-02
 -1      2286-1.39043E-02 5.39231E-02-3.27467E-02
 -1      2288-1.38951E-02 4.33170E-02-3.27822E-02
 -1      2289-1.45671E-02 8.64512E-02-3.26665E-02
 -1      2291-1.45538E-02 7.57961E-02-3.26851E-02
 -1      2292-1.48674E-02 1.19776E-01-3.25877E-02
 -1      2294-1.48593E-02 1.09091E-01-3.25959E-02
 -3
    1PSTEP                        22           1           1          
    1PGM                1.000000E+00                                  
    1PGK                1.808098E+06                                  
    1PHID                         -1                                  
    1PSUBC                         0                                  
    1PMODE                         6                                  
  100CL  106 214.0085524         930                     2    6MODAL      1
 -4  STRESS      6    1
 -5  SXX         1    4    1    1
 -5  SYY         1    4    2    2
 -5  SZZ         1    4    3    3
 -5  SXY         1    4    1    2
 -5  SYZ         1    4    2    3
 -5  SZX         1    4    3    1
 -1       404-1.06271E+10-9.19662E+08-1.39232E+07 1.11651E+09 5.85592E+05 3.59189E+07
 -1       406-1.06271E+10-9.19662E+08-1.39232E+07 1.11651E+09 5.85592E+05 3.59189E+07
 -1       407-1.85224E+08 7.96534E+06 4.73103E+05 7.89796E+07 1.16132E+07 1.36384E+05
 -1       409-1.85224E+08 7.96534E+06 4.73103E+05 7.89796E+07 1.16132E+07 1.36384E+05
 -1       410-7.49364E-03-2.13584E-03-8.30438E-04 2.00081E+08 4.17283E+07 6.50822E-05
 -1       412-7.49364E-03-2.13584E-03-8.30438E-04 2.00081E+08 4.17283E+07 6.50822E-05
 -1       413-3.10816E-03 9.56004E-04 1.00252E-02-1.98502E+06 1.96031E+07 8.23230E-04
 -1       415-3.10816E-03 9.56004E-04 1.00252E-02-1.98502E+06 1.96031E+07 8.23230E-04
 -1       424-5.83754E-02-8.12161E-03 1.78814E-05 1.36611E+09-9.34413E+06-2.73743E-03
 -1       426-5.83754E-02-8.12161E-03 1.78814E-05 1.36611E+09-9.34413E+06-2.73743E-03
 -1       427-4.49622E-02-2.41375E-04-6.53235E-03 2.32755E+07-7.92222E+06-5.54592E-02
 -1       429-4.49622E-02-2.41375E-04-6.53235E-03 2.32755E+07-7.92222E+06-5.54592E-02
 -1       438 1.85224E+08-7.96534E+06-4.73103E+05 7.89796E+07 1.16132E+07-1.36384E+05
 -1       440 1.85224E+08-7.96534E+06-4.73103E+05 7.89796E+07 1.16132E+07-1.36384E+05
 -1       441 1.06271E+10 9.19662E+08 1.39232E+07 1.11651E+09 5.85592E+05-3.59189E+07
 -1       443 1.06271E+10 9.19662E+08 1.39232E+07 1.11651E+09 5.85592E+05-3.59189E+07
 -1       444 3.35929E-02 2.28308E-04 1.26706E-02 2.32755E+07 7.92222E+06-4.18282E-02
 -1       446 3.35929E-02 2.28308E-04 1.26706E-02 2.32755E+07 7.92222E+06-4.18282E-02
 -1       447 4.80740E-02 5.42349E-03-4.42266E-05 1.36611E+09 9.34413E+06-1.47172E-03
 -1       449 4.80740E-02 5.42349E-03-4.42266E-05 1.36611E+09 9.34413E+06-1.47172E-03
 -1       458-2.85391E-04-1.05019E-03 2.06941E-03-1.98502E+06-1.96031E+07-2.99511E-03
 -1       460-2.85391E-04-1.05019E-03 2.06941E-03-1.98502E+06-1.96031E+07-2.99511E-03
 -1       461 2.61769E-03 4.74712E-03 3.32482E-05 2.00081E+08-4.17283E+07 2.33790E-05
 -1       463 2.61769E-03 4.74712E-03 3.32482E-05 2.00081E+08-4.17283E+07 2.33790E-05
 -1       472 1.06271E+10 9.19662E+08 1.39232E+07 1.11651E+09-5.85592E+05 3.59189E+07
 -1       474 1.06271E+10 9.19662E+08 1.39232E+07 1.11651E+09-5.85592E+05 3.59189E+07
 -1       475 1.85224E+08-7.96534E+06-4.73103E+05 7.89796E+07-1.16132E+07 1.36384E+05
 -1       477 1.85224E+08-7.96534E+06-4.73103E+05 7.89796E+07-1.16132E+07 1.36384E+05
 -1       478-1.85224E+08 7.96534E+06 4.73103E+05 7.89796E+07-1.16132E+07-1.36384E+05
 -1       480-1.85224E+08 7.96534E+06 4.73103E+05 7.89796E+07-1.16132E+07-1.36384E+05
 -1       481-1.06271E+10-9.19662E+08-1.39232E+07 1.11651E+09-5.85592E+05-3.59189E+07
 -1       483-1.06271E+10-9.19662E+08-1.39232E+07 1.11651E+09-5.85592E+05-3.59189E+07
 -1       484-8.98485E+09-2.22739E+08 2.81042E+04 8.43357E+08 2.19313E+06 1.23086E+07
 -1       486-8.98485E+09-2.22739E+08 2.81042E+04 8.43357E+08 2.19313E+06 1.23086E+07
 -1       487-5.83472E+09 1.18115E+08-3.69790E+06 7.02735E+08 3.70674E+06 4.23410E+05
 -1       489-5.83472E+09 1.18115E+08-3.69790E+06 7.02735E+08 3.70674E+06 4.23410E+05
 -1       490-2.82549E+09-5.82644E+07-1.30118E+06 7.41639E+08 4.68160E+06 6.67249E+06
 -1       492-2.82549E+09-5.82644E+07-1.30118E+06 7.41639E+08 4.68160E+06 6.67249E+06
 -1       493 6.39516E+06 2.85100E+07 1.15573E+06 6.39225E+08 6.43518E+06 4.08790E+06
 -1       495 6.39516E+06 2.85100E+07 1.15573E+06 6.39225E+08 6.43518E+06 4.08790E+06
 -1       496 2.51244E+09-1.31983E+07 3.18768E+05 5.70147E+08 7.58520E+06 5.93658E+06
 -1       498 2.51244E+09-1.31983E+07 3.18768E+05 5.70147E+08 7.58520E+06 5.93658E+06
 -1       499 4.61958E+09 7.56697E+06 3.56187E+06 4.51538E+08 8.78113E+06 5.74286E+06
 -1       501 4.61958E+09 7.56697E+06 3.56187E+06 4.51538E+08 8.78113E+06 5.74286E+06
 -1       502 6.22120E+09-3.08545E+06 2.17651E+06 3.23365E+08 9.65670E+06 6.60745E+06
 -1       504 6.22120E+09-3.08545E+06 2.17651E+06 3.23365E+08 9.65670E+06 6.60745E+06
 -1       505 7.25884E+09 3.40975E+06 4.57042E+06 1.78988E+08 1.02641E+07 7.00440E+06
 -1       507 7.25884E+09 3.40975E+06 4.57042E+06 1.78988E+08 1.02641E+07 7.00440E+06
 -1       508 7.68873E+09-2.82171E+05 3.12361E+06 2.97795E+07 1.06024E+07 7.61329E+06
 -1       510 7.68873E+09-2.82171E+05 3.12361E+06 2.97795E+07 1.06024E+07 7.61329E+06
 -1       511 7.50885E+09 2.70122E+06 4.39259E+06-1.16167E+08 1.05887E+07 8.07134E+06
 -1       513 7.50885E+09 2.70122E+06 4.39259E+06-1.16167E+08 1.05887E+07 8.07134E+06
 -1       514 6.74821E+09 1.18553E+06 2.85707E+06-2.50554E+08 1.03315E+07 8.49399E+06
 -1       516 6.74821E+09 1.18553E+06 2.85707E+06-2.50554E+08 1.03315E+07 8.49399E+06
 -1       517 5.47334E+09 2.87480E+06 3.15908E+06-3.64928E+08 9.76629E+06 8.79145E+06
 -1       519 5.47334E+09 2.87480E+06 3.15908E+06-3.64928E+08 9.76629E+06 8.79145E+06
 -1       520 3.78006E+09 2.34026E+06 1.53108E+06-4.52574E+08 9.03803E+06 8.95943E+06
 -1       522 3.78006E+09 2.34026E+06 1.53108E+06-4.52574E+08 9.03803E+06 8.95943E+06
 -1       523 1.79065E+09 3.40877E+06 1.18107E+06-5.08178E+08 8.12986E+06 8.97812E+06
 -1       525 1.79065E+09 3.40877E+06 1.18107E+06-5.08178E+08 8.12986E+06 8.97812E+06
 -1       526-3.56127E+08 3.34720E+06-4.18687E+05-5.28611E+08 7.19454E+06 8.83241E+06
 -1       528-3.56127E+08 3.34720E+06-4.18687E+05-5.28611E+08 7.19454E+06 8.83241E+06
 -1       529-2.51273E+09 4.08225E+06-1.05071E+06-5.13104E+08 6.25114E+06 8.52906E+06
 -1       531-2.51273E+09 4.08225E+06-1.05071E+06-5.13104E+08 6.25114E+06 8.52906E+06
 -1       532-4.53384E+09 4.21834E+06-2.41785E+06-4.63277E+08 5.43817E+06 8.06837E+06
 -1       534-4.53384E+09 4.21834E+06-2.41785E+06-4.63277E+08 5.43817E+06 8.06837E+06
 -1       535-6.28548E+09 4.73957E+06-2.97977E+06-3.83163E+08 4.78506E+06 7.47427E+06
 -1       537-6.28548E+09 4.73957E+06-2.97977E+06-3.83163E+08 4.78506E+06 7.47427E+06
 -1       538-7.65496E+09 4.92373E+06-3.90782E+06-2.78896E+08 4.39573E+06 6.76520E+06
 -1       540-7.65496E+09 4.92373E+06-3.90782E+06-2.78896E+08 4.39573E+06 6.76520E+06
 -1       541-8.55847E+09 5.27401E+06-4.13333E+06-1.58381E+08 4.28307E+06 5.97689E+06
 -1       543-8.55847E+09 5.27401E+06-4.13333E+06-1.58381E+08 4.28307E+06 5.97689E+06
 -1       544-8.94768E+09 5.43531E+06-4.49413E+06-3.08116E+07 4.49986E+06 5.13979E+06
 -1       546-8.94768E+09 5.43531E+06-4.49413E+06-3.08116E+07 4.49986E+06 5.13979E+06
 -1       547-8.81368E+09 5.62509E+06-4.25531E+06 9.39283E+07 5.02174E+06 4.29399E+06
 -1       549-8.81368E+09 5.62509E+06-4.25531E+06 9.39283E+07 5.02174E+06 4.29399E+06
 -1       550-8.18878E+09 5.77286E+06-4.05570E+06 2.05823E+08 5.83956E+06 3.47135E+06
 -1       552-8.18878E+09 5.77286E+06-4.05570E+06 2.05823E+08 5.83956E+06 3.47135E+06
 -1       553-7.14589E+09 5.74648E+06-3.38508E+06 2.95224E+08 6.88041E+06 2.70718E+06
 -1       555-7.14589E+09 5.74648E+06-3.38508E+06 2.95224E+08 6.88041E+06 2.70718E+06
 -1       556-5.79522E+09 6.07719E+06-2.78918E+06 3.53795E+08 8.06732E+06 2.02181E+06
 -1       558-5.79522E+09 6.07719E+06-2.78918E+06 3.53795E+08 8.06732E+06 2.02181E+06
 -1       559-4.27987E+09 5.55081E+06-1.86376E+06 3.73867E+08 9.27482E+06 1.43644E+06
 -1       561-4.27987E+09 5.55081E+06-1.86376E+06 3.73867E+08 9.27482E+06 1.43644E+06
 -1       562-2.76880E+09 6.53566E+06-1.17459E+06 3.50507E+08 1.03581E+07 9.49387E+05
 -1       564-2.76880E+09 6.53566E+06-1.17459E+06 3.50507E+08 1.03581E+07 9.49387E+05
 -1       565-1.44939E+09 5.53965E+06-2.86952E+05 2.80567E+08 1.11469E+07 5.51665E+05
 -1       567-1.44939E+09 5.53965E+06-2.86952E+05 2.80567E+08 1.11469E+07 5.51665E+05
 -1       568-5.23670E+08 5.02911E+06 1.66899E+05 1.56209E+08 1.15325E+07 2.56473E+05
 -1       570-5.23670E+08 5.02911E+06 1.66899E+05 1.56209E+08 1.15325E+07 2.56473E+05
 -1       571-1.38355E+08-1.30423E+07 1.02075E+05 1.39530E+08 2.66708E+07 4.30032E+04
 -1       573-1.38355E+08-1.30423E+07 1.02075E+05 1.39530E+08 2.66708E+07 4.30032E+04
 -1       574-4.89562E-02-3.10588E-03-6.64592E-06 1.63757E+09-3.54359E+06-4.86601E-04
 -1       576-4.89562E-02-3.10588E-03-6.64592E-06 1.63757E+09-3.54359E+06-4.86601E-04
 -1       577-3.73125E-02-2.63846E-05 4.22451E-03 1.04524E+07-1.29779E+06-5.61841E-02
 -1       579-3.73125E-02-2.63846E-05 4.22451E-03 1.04524E+07-1.29779E+06-5.61841E-02
 -1       588-3.39038E-02 5.85288E-04-8.34465E-06 1.72856E+09 4.55783E+06 3.58214E-04
 -1       590-3.39038E-02 5.85288E-04-8.34465E-06 1.72856E+09 4.55783E+06 3.58214E-04
 -1       591-2.63954E-02-2.11794E-05 1.49006E-02 3.25438E+06 1.21655E+07-5.17049E-02
 -1       593-2.63954E-02-2.11794E-05 1.49006E-02 3.25438E+06 1.21655E+07-5.17049E-02
 -1       602-2.58203E-02-4.99964E-04 8.47131E-06 1.56455E+09 6.65416E+06-2.57544E-04
 -1       604-2.58203E-02-4.99964E-04 8.47131E-06 1.56455E+09 6.65416E+06-2.57544E-04
 -1       605-2.14955E-02-1.71259E-04 4.79867E-03 4.91027E+06 2.10080E+07-4.61526E-02
 -1       607-2.14955E-02-1.71259E-04 4.79867E-03 4.91027E+06 2.10080E+07-4.61526E-02
 -1       616-1.61717E-02-1.75692E-04 1.01231E-04 1.46561E+09 9.50647E+06 9.49085E-05
 -1       618-1.61717E-02-1.75692E-04 1.01231E-04 1.46561E+09 9.50647E+06 9.49085E-05
 -1       619-1.48964E-02-6.14483E-04-1.11660E-02 5.24952E+06 2.82726E+07-4.62827E-02
 -1       621-1.48964E-02-6.14483E-04-1.11660E-02 5.24952E+06 2.82726E+07-4.62827E-02
 -1       630 2.58684E-05-9.80653E-04 9.57251E-05 1.25218E+09 1.26412E+07-1.16294E-05
 -1       632 2.58684E-05-9.80653E-04 9.57251E-05 1.25218E+09 1.26412E+07-1.16294E-05
 -1       633-1.85503E-03-4.91601E-04-1.39279E-02 5.63812E+06 3.61740E+07-4.89014E-02
 -1       635-1.85503E-03-4.91601E-04-1.39279E-02 5.63812E+06 3.61740E+07-4.89014E-02
 -1       644 1.61289E-02-1.15696E-03-1.96949E-04 1.01201E+09 1.50307E+07 2.27595E-04
 -1       646 1.61289E-02-1.15696E-03-1.96949E-04 1.01201E+09 1.50307E+07 2.27595E-04
 -1       647 1.27853E-02 1.29720E-04-6.95568E-04 5.88981E+06 4.18847E+07-4.89526E-02
 -1       649 1.27853E-02 1.29720E-04-6.95568E-04 5.88981E+06 4.18847E+07-4.89526E-02
 -1       658 2.53632E-02 5.52773E-04-3.22282E-04 7.18235E+08 1.76368E+07 1.53616E-04
 -1       660 2.53632E-02 5.52773E-04-3.22282E-04 7.18235E+08 1.76368E+07 1.53616E-04
 -1       661 2.10190E-02 5.55760E-04 1.47176E-02 7.02403E+06 4.61680E+07-4.02647E-02
 -1       663 2.10190E-02 5.55760E-04 1.47176E-02 7.02403E+06 4.61680E+07-4.02647E-02
 -1       672 2.63189E-02 1.92803E-03 3.15905E-06 3.99397E+08 1.94010E+07 2.41221E-04
 -1       674 2.63189E-02 1.92803E-03 3.15905E-06 3.99397E+08 1.94010E+07 2.41221E-04
 -1       675 2.08300E-02-1.66854E-04 1.40521E-02 7.11049E+06 4.78286E+07-2.79502E-02
 -1       677 2.08300E-02-1.66854E-04 1.40521E-02 7.11049E+06 4.78286E+07-2.79502E-02
 -1       686 2.52360E-02 2.50992E-03 3.83019E-04 6.69593E+07 2.10126E+07 1.69361E-04
 -1       688 2.52360E-02 2.50992E-03 3.83019E-04 6.69593E+07 2.10126E+07 1.69361E-04
 -1       689 1.93717E-02-9.69301E-04 2.42175E-03 8.37432E+06 4.69636E+07-2.45576E-02
 -1       691 1.93717E-02-9.69301E-04 2.42175E-03 8.37432E+06 4.69636E+07-2.45576E-02
 -1       700 2.85535E-02 7.02024E-04-1.10447E-04-2.57648E+08 2.18427E+07 7.43647E-05
 -1       702 2.85535E-02 7.02024E-04-1.10447E-04-2.57648E+08 2.18427E+07 7.43647E-05
 -1       703 2.43817E-02-9.19916E-04 1.61754E-03 8.52451E+06 4.32256E+07-2.87251E-02
 -1       705 2.43817E-02-9.19916E-04 1.61754E-03 8.52451E+06 4.32256E+07-2.87251E-02
 -1       714 3.58334E-02-2.18138E-03-2.09212E-05-5.56596E+08 2.23559E+07 1.05504E-04
 -1       716 3.58334E-02-2.18138E-03-2.09212E-05-5.56596E+08 2.23559E+07 1.05504E-04
 -1       717 3.27877E-02-9.84140E-04 1.47578E-02 9.49268E+06 3.68821E+07-2.50621E-02
 -1       719 3.27877E-02-9.84140E-04 1.47578E-02 9.49268E+06 3.68821E+07-2.50621E-02
 -1       728 4.17677E-02-2.01496E-03 6.82473E-05-8.10898E+08 2.22501E+07 1.88977E-04
 -1       730 4.17677E-02-2.01496E-03 6.82473E-05-8.10898E+08 2.22501E+07 1.88977E-04
 -1       731 3.77568E-02-7.72391E-04 2.55715E-02 9.58805E+06 2.81029E+07-1.22292E-02
 -1       733 3.77568E-02-7.72391E-04 2.55715E-02 9.58805E+06 2.81029E+07-1.22292E-02
 -1       742 4.41180E-02 1.07646E-04 3.34680E-05-1.00598E+09 2.18688E+07 1.09078E-04
 -1       744 4.41180E-02 1.07646E-04 3.34680E-05-1.00598E+09 2.18688E+07 1.09078E-04
 -1       745 4.01233E-02-3.26033E-04 2.67911E-02 1.00729E+07 1.74652E+07 2.24215E-04
 -1       747 4.01233E-02-3.26033E-04 2.67911E-02 1.00729E+07 1.74652E+07 2.24215E-04
 -1       756 4.23087E-02-2.25056E-04-2.08430E-04-1.12956E+09 2.11254E+07-2.23829E-05
 -1       758 4.23087E-02-2.25056E-04-2.08430E-04-1.12956E+09 2.11254E+07-2.23829E-05
 -1       759 4.08375E-02 9.75654E-04 2.48980E-02 9.90926E+06 5.50781E+06 1.03315E-02
 -1       761 4.08375E-02 9.75654E-04 2.48980E-02 9.90926E+06 5.50781E+06 1.03315E-02
 -1       770 3.75097E-02-3.39750E-03-8.52421E-05-1.17519E+09 2.02949E+07 6.40983E-06
 -1       772 3.75097E-02-3.39750E-03-8.52421E-05-1.17519E+09 2.02949E+07 6.40983E-06
 -1       773 3.67763E-02 4.74184E-04 2.35962E-02 9.84200E+06-6.98011E+06 1.81471E-02
 -1       775 3.67763E-02 4.74184E-04 2.35962E-02 9.84200E+06-6.98011E+06 1.81471E-02
 -1       784 3.53172E-02-6.02528E-03 2.06336E-04-1.14072E+09 1.94116E+07-1.24350E-04
 -1       786 3.53172E-02-6.02528E-03 2.06336E-04-1.14072E+09 1.94116E+07-1.24350E-04
 -1       787 3.22452E-02-2.46221E-04 2.22288E-02 9.29488E+06-1.92778E+07 2.14164E-02
 -1       789 3.22452E-02-2.46221E-04 2.22288E-02 9.29488E+06-1.92778E+07 2.14164E-02
 -1       798 3.56798E-02-4.67862E-03-3.81231E-04-1.03010E+09 1.86943E+07-9.70252E-06
 -1       800 3.56798E-02-4.67862E-03-3.81231E-04-1.03010E+09 1.86943E+07-9.70252E-06
 -1       801 3.05879E-02 5.90687E-04 1.85544E-02 8.70287E+06-3.05634E+07 2.18156E-02
 -1       803 3.05879E-02 5.90687E-04 1.85544E-02 8.70287E+06-3.05634E+07 2.18156E-02
 -1       812 2.98679E-02-4.18335E-04-1.56730E-04-8.52062E+08 1.82199E+07-4.72879E-06
 -1       814 2.98679E-02-4.18335E-04-1.56730E-04-8.52062E+08 1.82199E+07-4.72879E-06
 -1       815 2.49342E-02 6.02264E-05 1.21037E-02 7.77886E+06-4.01584E+07 1.91658E-02
 -1       817 2.49342E-02 6.02264E-05 1.21037E-02 7.77886E+06-4.01584E+07 1.91658E-02
 -1       826 1.63034E-02 3.10597E-03 9.22680E-05-6.20405E+08 1.81414E+07-4.81464E-05
 -1       828 1.63034E-02 3.10597E-03 9.22680E-05-6.20405E+08 1.81414E+07-4.81464E-05
 -1       829 1.38726E-02 1.21131E-05 8.39447E-03 6.78634E+06-4.74019E+07 1.44867E-02
 -1       831 1.38726E-02 1.21131E-05 8.39447E-03 6.78634E+06-4.74019E+07 1.44867E-02
 -1       840 1.34814E-03 4.09728E-03-1.63764E-04-3.52632E+08 1.85193E+07-7.74993E-05
 -1       842 1.34814E-03 4.09728E-03-1.63764E-04-3.52632E+08 1.85193E+07-7.74993E-05
 -1       843 1.91239E-03 1.18338E-03 7.08372E-03 5.61774E+06-5.18676E+07 1.56617E-02
 -1       845 1.91239E-03 1.18338E-03 7.08372E-03 5.61774E+06-5.18676E+07 1.56617E-02
 -1       854-1.07175E-02 2.22361E-03-5.02527E-04-6.91911E+07 1.94278E+07-1.75487E-05
 -1       856-1.07175E-02 2.22361E-03-5.02527E-04-6.91911E+07 1.94278E+07-1.75487E-05
 -1       857-8.74958E-03 3.89486E-04 2.27631E-03 4.42672E+06-5.32075E+07 1.94494E-02
 -1       859-8.74958E-03 3.89486E-04 2.27631E-03 4.42672E+06-5.32075E+07 1.94494E-02
 -1       868-1.83727E-02 5.96046E-04 9.54270E-05 2.07869E+08 2.08733E+07-7.97415E-05
 -1       870-1.83727E-02 5.96046E-04 9.54270E-05 2.07869E+08 2.08733E+07-7.97415E-05
 -1       871-1.58430E-02-2.51685E-04 2.38077E-04 3.23802E+06-5.13951E+07 1.68960E-02
 -1       873-1.58430E-02-2.51685E-04 2.38077E-04 3.23802E+06-5.13951E+07 1.68960E-02
 -1       882-2.31560E-02-8.57085E-04 6.39558E-05 4.56340E+08 2.28503E+07-2.63413E-05
 -1       884-2.31560E-02-8.57085E-04 6.39558E-05 4.56340E+08 2.28503E+07-2.63413E-05
 -1       885-1.87430E-02 3.94731E-04 7.19683E-03 2.08168E+06-4.64627E+07 1.26572E-02
 -1       887-1.87430E-02 3.94731E-04 7.19683E-03 2.08168E+06-4.64627E+07 1.26572E-02
 -1       896-2.37187E-02-2.75365E-03-7.70360E-04 6.54790E+08 2.52949E+07 1.34302E-04
 -1       898-2.37187E-02-2.75365E-03-7.70360E-04 6.54790E+08 2.52949E+07 1.34302E-04
 -1       899-1.75766E-02 1.63029E-04 1.50114E-02 1.14659E+06-3.88405E+07 9.29825E-03
 -1       901-1.75766E-02 1.63029E-04 1.50114E-02 1.14659E+06-3.88405E+07 9.29825E-03
 -1       910-1.99198E-02-2.07826E-03-5.71638E-04 7.84326E+08 2.81419E+07 9.88689E-05
 -1       912-1.99198E-02-2.07826E-03-5.71638E-04 7.84326E+08 2.81419E+07 9.88689E-05
 -1       913-1.31726E-02-9.78859E-05 1.92579E-02 2.26389E+05-2.89171E+07 3.98012E-03
 -1       915-1.31726E-02-9.78859E-05 1.92579E-02 2.26389E+05-2.89171E+07 3.98012E-03
 -1       924-1.69396E-02 5.20200E-04-1.65254E-04 8.28597E+08 3.12605E+07 1.21823E-04
 -1       926-1.69396E-02 5.20200E-04-1.65254E-04 8.28597E+08 3.12605E+07 1.21823E-04
 -1       927-9.86164E-03-7.21937E-04 2.39309E-02-1.72460E+05-1.75395E+07 8.19499E-04
 -1       929-9.86164E-03-7.21937E-04 2.39309E-02-1.72460E+05-1.75395E+07 8.19499E-04
 -1       938-1.67743E-02 5.05403E-04-1.05277E-04 7.76273E+08 3.45446E+07 1.11632E-04
 -1       940-1.67743E-02 5.05403E-04-1.05277E-04 7.76273E+08 3.45446E+07 1.11632E-04
 -1       941-8.10808E-03 3.54528E-04 2.77084E-02-7.36593E+05-5.43762E+06 1.05382E-04
 -1       943-8.10808E-03 3.54528E-04 2.77084E-02-7.36593E+05-5.43762E+06 1.05382E-04
 -1       952-1.63971E-02-2.54687E-03-3.01212E-04 6.16060E+08 3.77811E+07 6.93687E-05
 -1       954-1.63971E-02-2.54687E-03-3.01212E-04 6.16060E+08 3.77811E+07 6.93687E-05
 -1       955-7.15646E-03 1.20411E-03 2.37601E-02-3.39270E+05 6.20315E+06-6.94554E-04
 -1       957-7.15646E-03 1.20411E-03 2.37601E-02-3.39270E+05 6.20315E+06-6.94554E-04
 -1       966-1.15520E-02-3.24263E-03-6.94511E-04 3.53497E+08 4.05459E+07-3.10568E-05
 -1       968-1.15520E-02-3.24263E-03-6.94511E-04 3.53497E+08 4.05459E+07-3.10568E-05
 -1       969-5.18373E-03 6.53878E-04 1.45132E-02-5.58463E+05 1.55594E+07-1.15067E-05
 -1       971-5.18373E-03 6.53878E-04 1.45132E-02-5.58463E+05 1.55594E+07-1.15067E-05
 -1       980-6.95100E+09-6.58657E+08-1.14693E+06 1.24131E+09-4.37927E+06 1.26426E+07
 -1       982-6.95100E+09-6.58657E+08-1.14693E+06 1.24131E+09-4.37927E+06 1.26426E+07
 -1       983 1.38355E+08 1.30423E+07-1.02075E+05 1.39530E+08 2.66708E+07-4.30032E+04
 -1       985 1.38355E+08 1.30423E+07-1.02075E+05 1.39530E+08 2.66708E+07-4.30032E+04
 -1       986 8.98485E+09 2.22739E+08-2.81042E+04 8.43357E+08 2.19313E+06-1.23086E+07
 -1       988 8.98485E+09 2.22739E+08-2.81042E+04 8.43357E+08 2.19313E+06-1.23086E+07
 -1       989 5.83472E+09-1.18115E+08 3.69790E+06 7.02735E+08 3.70674E+06-4.23410E+05
 -1       991 5.83472E+09-1.18115E+08 3.69790E+06 7.02735E+08 3.70674E+06-4.23410E+05
 -1       992 2.82549E+09 5.82644E+07 1.30118E+06 7.41639E+08 4.68160E+06-6.67249E+06
 -1       994 2.82549E+09 5.82644E+07 1.30118E+06 7.41639E+08 4.68160E+06-6.67249E+06
 -1       995-6.39516E+06-2.85100E+07-1.15573E+06 6.39225E+08 6.43518E+06-4.08790E+06
 -1       997-6.39516E+06-2.85100E+07-1.15573E+06 6.39225E+08 6.43518E+06-4.08790E+06
 -1       998-2.51244E+09 1.31983E+07-3.18768E+05 5.70147E+08 7.58520E+06-5.93658E+06
 -1      1000-2.51244E+09 1.31983E+07-3.18768E+05 5.70147E+08 7.58520E+06-5.93658E+06
 -1      1001-4.61958E+09-7.56697E+06-3.56187E+06 4.51538E+08 8.78113E+06-5.74286E+06
 -1      1003-4.61958E+09-7.56697E+06-3.56187E+06 4.51538E+08 8.78113E+06-5.74286E+06
 -1      1004-6.22120E+09 3.08545E+06-2.17651E+06 3.23365E+08 9.65670E+06-6.60745E+06
 -1      1006-6.22120E+09 3.08545E+06-2.17651E+06 3.23365E+08 9.65670E+06-6.60745E+06
 -1      1007-7.25884E+09-3.40975E+06-4.57042E+06 1.78988E+08 1.02641E+07-7.00440E+06
 -1      1009-7.25884E+09-3.40975E+06-4.57042E+06 1.78988E+08 1.02641E+07-7.00440E+06
 -1      1010-7.68873E+09 2.82171E+05-3.12361E+06 2.97795E+07 1.06024E+07-7.61329E+06
 -1      1012-7.68873E+09 2.82171E+05-3.12361E+06 2.97795E+07 1.06024E+07-7.61329E+06
 -1      1013-7.50885E+09-2.70122E+06-4.39259E+06-1.16167E+08 1.05887E+07-8.07134E+06
 -1      1015-7.50885E+09-2.70122E+06-4.39259E+06-1.16167E+08 1.05887E+07-8.07134E+06
 -1      1016-6.74821E+09-1.18553E+06-2.85707E+06-2.50554E+08 1.03315E+07-8.49399E+06
 -1      1018-6.74821E+09-1.18553E+06-2.85707E+06-2.50554E+08 1.03315E+07-8.49399E+06
 -1      1019-5.47334E+09-2.87480E+06-3.15908E+06-3.64928E+08 9.76629E+06-8.79145E+06
 -1      1021-5.47334E+09-2.87480E+06-3.15908E+06-3.64928E+08 9.76629E+06-8.79145E+06
 -1      1022-3.78006E+09-2.34026E+06-1.53108E+06-4.52574E+08 9.03803E+06-8.95943E+06
 -1      1024-3.78006E+09-2.34026E+06-1.53108E+06-4.52574E+08 9.03803E+06-8.95943E+06
 -1      1025-1.79065E+09-3.40877E+06-1.18107E+06-5.08178E+08 8.12986E+06-8.97812E+06
 -1      1027-1.79065E+09-3.40877E+06-1.18107E+06-5.08178E+08 8.12986E+06-8.97812E+06
 -1      1028 3.56127E+08-3.34720E+06 4.18687E+05-5.28611E+08 7.19454E+06-8.83241E+06
 -1      1030 3.56127E+08-3.34720E+06 4.18687E+05-5.28611E+08 7.19454E+06-8.83241E+06
 -1      1031 2.51273E+09-4.08225E+06 1.05071E+06-5.13104E+08 6.25114E+06-8.52906E+06
 -1      1033 2.51273E+09-4.08225E+06 1.05071E+06-5.13104E+08 6.25114E+06-8.52906E+06
 -1      1034 4.53384E+09-4.21834E+06 2.41785E+06-4.63277E+08 5.43817E+06-8.06837E+06
 -1      1036 4.53384E+09-4.21834E+06 2.41785E+06-4.63277E+08 5.43817E+06-8.06837E+06
 -1      1037 6.28548E+09-4.73957E+06 2.97977E+06-3.83163E+08 4.78506E+06-7.47427E+06
 -1      1039 6.28548E+09-4.73957E+06 2.97977E+06-3.83163E+08 4.78506E+06-7.47427E+06
 -1      1040 7.65496E+09-4.92373E+06 3.90782E+06-2.78896E+08 4.39573E+06-6.76520E+06
 -1      1042 7.65496E+09-4.92373E+06 3.90782E+06-2.78896E+08 4.39573E+06-6.76520E+06
 -1      1043 8.55847E+09-5.27401E+06 4.13333E+06-1.58381E+08 4.28307E+06-5.97689E+06
 -1      1045 8.55847E+09-5.27401E+06 4.13333E+06-1.58381E+08 4.28307E+06-5.97689E+06
 -1      1046 8.94768E+09-5.43531E+06 4.49413E+06-3.08116E+07 4.49986E+06-5.13979E+06
 -1      1048 8.94768E+09-5.43531E+06 4.49413E+06-3.08116E+07 4.49986E+06-5.13979E+06
 -1      1049 8.81368E+09-5.62509E+06 4.25531E+06 9.39283E+07 5.02174E+06-4.29399E+06
 -1      1051 8.81368E+09-5.62509E+06 4.25531E+06 9.39283E+07 5.02174E+06-4.29399E+06
 -1      1052 8.18878E+09-5.77286E+06 4.05570E+06 2.05823E+08 5.83956E+06-3.47135E+06
 -1      1054 8.18878E+09-5.77286E+06 4.05570E+06 2.05823E+08 5.83956E+06-3.47135E+06
 -1      1055 7.14589E+09-5.74648E+06 3.38508E+06 2.95224E+08 6.88041E+06-2.70718E+06
 -1      1057 7.14589E+09-5.74648E+06 3.38508E+06 2.95224E+08 6.88041E+06-2.70718E+06
 -1      1058 5.79522E+09-6.07719E+06 2.78918E+06 3.53795E+08 8.06732E+06-2.02181E+06
 -1      1060 5.79522E+09-6.07719E+06 2.78918E+06 3.53795E+08 8.06732E+06-2.02181E+06
 -1      1061 4.27987E+09-5.55081E+06 1.86376E+06 3.73867E+08 9.27482E+06-1.43644E+06
 -1      1063 4.27987E+09-5.55081E+06 1.86376E+06 3.73867E+08 9.27482E+06-1.43644E+06
 -1      1064 2.76880E+09-6.53566E+06 1.17459E+06 3.50507E+08 1.03581E+07-9.49387E+05
 -1      1066 2.76880E+09-6.53566E+06 1.17459E+06 3.50507E+08 1.03581E+07-9.49387E+05
 -1      1067 1.44939E+09-5.53965E+06 2.86952E+05 2.80567E+08 1.11469E+07-5.51665E+05
 -1      1069 1.44939E+09-5.53965E+06 2.86952E+05 2.80567E+08 1.11469E+07-5.51665E+05
 -1      1070 5.23670E+08-5.02911E+06-1.66899E+05 1.56209E+08 1.15325E+07-2.56473E+05
 -1      1072 5.23670E+08-5.02911E+06-1.66899E+05 1.56209E+08 1.15325E+07-2.56473E+05
 -1      1073 6.95100E+09 6.58657E+08 1.14693E+06 1.24131E+09-4.37927E+06-1.26426E+07
 -1      1075 6.95100E+09 6.58657E+08 1.14693E+06 1.24131E+09-4.37927E+06-1.26426E+07
 -1      1076-2.84895E-02-3.40585E-05-1.63201E-03 2.13061E+07 2.53317E+05-5.52904E-02
 -1      1078-2.84895E-02-3.40585E-05-1.63201E-03 2.13061E+07 2.53317E+05-5.52904E-02
 -1      1079-4.13665E-03-4.60926E-05 5.14875E-03 1.93367E+07 2.29416E-04-5.30712E-02
 -1      1081-4.13665E-03-4.60926E-05 5.14875E-03 1.93367E+07 2.29416E-04-5.30712E-02
 -1      1082 1.86681E-02-1.85673E-05 9.84989E-03 2.13061E+07-2.53317E+05-4.64245E-02
 -1      1084 1.86681E-02-1.85673E-05 9.84989E-03 2.13061E+07-2.53317E+05-4.64245E-02
 -1      1085 2.95715E-02 3.83494E-05 9.35584E-03 1.04524E+07 1.29779E+06-4.61247E-02
 -1      1087 2.95715E-02 3.83494E-05 9.35584E-03 1.04524E+07 1.29779E+06-4.61247E-02
 -1      1088 4.27856E-02 1.87203E-03-1.81496E-05 1.63757E+09 3.54359E+06-1.97559E-04
 -1      1090 4.27856E-02 1.87203E-03-1.81496E-05 1.63757E+09 3.54359E+06-1.97559E-04
 -1      1099 2.10563E-02-4.41332E-05 1.72266E-03 3.25438E+06-1.21655E+07-5.09445E-02
 -1      1101 2.10563E-02-4.41332E-05 1.72266E-03 3.25438E+06-1.21655E+07-5.09445E-02
 -1      1102 2.91488E-02-3.31476E-04 5.07832E-05 1.72856E+09-4.55783E+06 2.63998E-04
 -1      1104 2.91488E-02-3.31476E-04 5.07832E-05 1.72856E+09-4.55783E+06 2.63998E-04
 -1      1113 9.71147E-03 2.23805E-04-4.88539E-03 4.91027E+06-2.10080E+07-5.10583E-02
 -1      1115 9.71147E-03 2.23805E-04-4.88539E-03 4.91027E+06-2.10080E+07-5.10583E-02
 -1      1116 1.30202E-02-3.58805E-04 1.54898E-05 1.56455E+09-6.65416E+06 8.50321E-06
 -1      1118 1.30202E-02-3.58805E-04 1.54898E-05 1.56455E+09-6.65416E+06 8.50321E-06
 -1      1127-3.18884E-03 2.78067E-04-1.11165E-02 5.24952E+06-2.82726E+07-4.90135E-02
 -1      1129-3.18884E-03 2.78067E-04-1.11165E-02 5.24952E+06-2.82726E+07-4.90135E-02
 -1      1130-1.15685E-03-1.28307E-03 5.65723E-05 1.46561E+09-9.50647E+06 2.46204E-04
 -1      1132-1.15685E-03-1.28307E-03 5.65723E-05 1.46561E+09-9.50647E+06 2.46204E-04
 -1      1141-1.43663E-02-6.90108E-06-1.96961E-02 5.63812E+06-3.61740E+07-4.58916E-02
 -1      1143-1.43663E-02-6.90108E-06-1.96961E-02 5.63812E+06-3.61740E+07-4.58916E-02
 -1      1144-1.24224E-02 8.83304E-04 5.67287E-05 1.25218E+09-1.26412E+07 5.62551E-05
 -1      1146-1.24224E-02 8.83304E-04 5.67287E-05 1.25218E+09-1.26412E+07 5.62551E-05
 -1      1155-2.19104E-02-5.05847E-04-2.37628E-02 5.88981E+06-4.18847E+07-3.75726E-02
 -1      1157-2.19104E-02-5.05847E-04-2.37628E-02 5.88981E+06-4.18847E+07-3.75726E-02
 -1      1158-1.88258E-02 2.30922E-03 2.26080E-04 1.01201E+09-1.50307E+07 7.05803E-06
 -1      1160-1.88258E-02 2.30922E-03 2.26080E-04 1.01201E+09-1.50307E+07 7.05803E-06
 -1      1169-2.34197E-02 3.07658E-04-1.45680E-02 7.02403E+06-4.61680E+07-2.56800E-02
 -1      1171-2.34197E-02 3.07658E-04-1.45680E-02 7.02403E+06-4.61680E+07-2.56800E-02
 -1      1172-2.08517E-02 9.72033E-04 1.55389E-04 7.18235E+08-1.76368E+07 1.89852E-05
 -1      1174-2.08517E-02 9.72033E-04 1.55389E-04 7.18235E+08-1.76368E+07 1.89852E-05
 -1      1183-2.41404E-02 4.49632E-04-2.18297E-03 7.11049E+06-4.78286E+07-2.34644E-02
 -1      1185-2.41404E-02 4.49632E-04-2.18297E-03 7.11049E+06-4.78286E+07-2.34644E-02
 -1      1186-2.56552E-02 7.25389E-05-6.00517E-05 3.99397E+08-1.94010E+07-6.99512E-05
 -1      1188-2.56552E-02 7.25389E-05-6.00517E-05 3.99397E+08-1.94010E+07-6.99512E-05
 -1      1197-2.93586E-02 7.98228E-04-2.64178E-03 8.37432E+06-4.69636E+07-2.69357E-02
 -1      1199-2.93586E-02 7.98228E-04-2.64178E-03 8.37432E+06-4.69636E+07-2.69357E-02
 -1      1200-3.57609E-02 6.94454E-04-6.33299E-05 6.69593E+07-2.10126E+07-3.09841E-04
 -1      1202-3.57609E-02 6.94454E-04-6.33299E-05 6.69593E+07-2.10126E+07-3.09841E-04
 -1      1211-3.33089E-02 1.24428E-03-8.86199E-03 8.52451E+06-4.32256E+07-2.26674E-02
 -1      1213-3.33089E-02 1.24428E-03-8.86199E-03 8.52451E+06-4.32256E+07-2.26674E-02
 -1      1214-4.28677E-02 2.02471E-03-7.27475E-05-2.57648E+08-2.18427E+07-3.19526E-04
 -1      1216-4.28677E-02 2.02471E-03-7.27475E-05-2.57648E+08-2.18427E+07-3.19526E-04
 -1      1225-3.24763E-02 5.19663E-05-5.50885E-03 9.49268E+06-3.68821E+07-1.24718E-02
 -1      1227-3.24763E-02 5.19663E-05-5.50885E-03 9.49268E+06-3.68821E+07-1.24718E-02
 -1      1228-4.47643E-02 2.78026E-03 1.94609E-05-5.56596E+08-2.23559E+07-3.87235E-04
 -1      1230-4.47643E-02 2.78026E-03 1.94609E-05-5.56596E+08-2.23559E+07-3.87235E-04
 -1      1239-3.29177E-02-8.03194E-05 7.62558E-03 9.58805E+06-2.81029E+07-4.25240E-03
 -1      1241-3.29177E-02-8.03194E-05 7.62558E-03 9.58805E+06-2.81029E+07-4.25240E-03
 -1      1242-4.89035E-02 1.74415E-03-1.88828E-04-8.10898E+08-2.22501E+07-3.19386E-04
 -1      1244-4.89035E-02 1.74415E-03-1.88828E-04-8.10898E+08-2.22501E+07-3.19386E-04
 -1      1253-3.68629E-02-1.34744E-04 1.93649E-02 1.00729E+07-1.74652E+07-7.36299E-04
 -1      1255-3.68629E-02-1.34744E-04 1.93649E-02 1.00729E+07-1.74652E+07-7.36299E-04
 -1      1256-5.50539E-02 1.42659E-03-2.94104E-04-1.00598E+09-2.18688E+07-2.62570E-04
 -1      1258-5.50539E-02 1.42659E-03-2.94104E-04-1.00598E+09-2.18688E+07-2.62570E-04
 -1      1267-3.94795E-02-2.62964E-04 2.20981E-02 9.90926E+06-5.50781E+06 3.42002E-03
 -1      1269-3.94795E-02-2.62964E-04 2.20981E-02 9.90926E+06-5.50781E+06 3.42002E-03
 -1      1270-5.65809E-02 3.27887E-03 1.68689E-04-1.12956E+09-2.11254E+07-2.73744E-04
 -1      1272-5.65809E-02 3.27887E-03 1.68689E-04-1.12956E+09-2.11254E+07-2.73744E-04
 -1      1281-3.69045E-02-2.93649E-04 2.10820E-02 9.84200E+06 6.98011E+06 1.20643E-02
 -1      1283-3.69045E-02-2.93649E-04 2.10820E-02 9.84200E+06 6.98011E+06 1.20643E-02
 -1      1284-5.17531E-02 3.08317E-03 5.00232E-04-1.17519E+09-2.02949E+07-5.20870E-05
 -1      1286-5.17531E-02 3.08317E-03 5.00232E-04-1.17519E+09-2.02949E+07-5.20870E-05
 -1      1295-2.98344E-02-3.27889E-04 2.24465E-02 9.29488E+06 1.92778E+07 1.67498E-02
 -1      1297-2.98344E-02-3.27889E-04 2.24465E-02 9.29488E+06 1.92778E+07 1.67498E-02
 -1      1298-4.30211E-02 3.63223E-04 4.07405E-04-1.14072E+09-1.94116E+07 5.53415E-06
 -1      1300-4.30211E-02 3.63223E-04 4.07405E-04-1.14072E+09-1.94116E+07 5.53415E-06
 -1      1309-2.16724E-02 1.08228E-04 1.93908E-02 8.70287E+06 3.05634E+07 1.31266E-02
 -1      1311-2.16724E-02 1.08228E-04 1.93908E-02 8.70287E+06 3.05634E+07 1.31266E-02
 -1      1312-3.24570E-02-6.03735E-04 3.63469E-04-1.03010E+09-1.86943E+07-9.21218E-06
 -1      1314-3.24570E-02-6.03735E-04 3.63469E-04-1.03010E+09-1.86943E+07-9.21218E-06
 -1      1323-1.30864E-02 6.63690E-04 8.92604E-03 7.77886E+06 4.01584E+07 9.67342E-03
 -1      1325-1.30864E-02 6.63690E-04 8.92604E-03 7.77886E+06 4.01584E+07 9.67342E-03
 -1      1326-2.19662E-02-1.65200E-03 2.07335E-04-8.52062E+08-1.82199E+07-4.27340E-05
 -1      1328-2.19662E-02-1.65200E-03 2.07335E-04-8.52062E+08-1.82199E+07-4.27340E-05
 -1      1337-7.21437E-03 5.90886E-04 1.35537E-05 6.78634E+06 4.74019E+07 1.13529E-02
 -1      1339-7.21437E-03 5.90886E-04 1.35537E-05 6.78634E+06 4.74019E+07 1.13529E-02
 -1      1340-1.50794E-02-4.85545E-03-2.69651E-04-6.20405E+08-1.81414E+07 7.66064E-05
 -1      1342-1.50794E-02-4.85545E-03-2.69651E-04-6.20405E+08-1.81414E+07 7.66064E-05
 -1      1351-6.73212E-03-3.18379E-04-5.98648E-03 5.61774E+06 5.18676E+07 1.38511E-02
 -1      1353-6.73212E-03-3.18379E-04-5.98648E-03 5.61774E+06 5.18676E+07 1.38511E-02
 -1      1354-1.24372E-02-5.34868E-03-2.81781E-04-3.52632E+08-1.85193E+07 3.24713E-05
 -1      1356-1.24372E-02-5.34868E-03-2.81781E-04-3.52632E+08-1.85193E+07 3.24713E-05
 -1      1365-6.75695E-03-2.79139E-04-8.93948E-03 4.42672E+06 5.32075E+07 1.77123E-02
 -1      1367-6.75695E-03-2.79139E-04-8.93948E-03 4.42672E+06 5.32075E+07 1.77123E-02
 -1      1368-1.04537E-02-2.58374E-03-1.69516E-04-6.91911E+07-1.94278E+07-2.45722E-04
 -1      1370-1.04537E-02-2.58374E-03-1.69516E-04-6.91911E+07-1.94278E+07-2.45722E-04
 -1      1379-4.94940E-03 6.48429E-04 2.91418E-03 3.23802E+06 5.13951E+07 2.45098E-02
 -1      1381-4.94940E-03 6.48429E-04 2.91418E-03 3.23802E+06 5.13951E+07 2.45098E-02
 -1      1382-8.23116E-03-2.22617E-03-1.60933E-04 2.07869E+08-2.08733E+07-1.24288E-04
 -1      1384-8.23116E-03-2.22617E-03-1.60933E-04 2.07869E+08-2.08733E+07-1.24288E-04
 -1      1393-3.86688E-03 6.69759E-04 2.39740E-02 2.08168E+06 4.64627E+07 2.10508E-02
 -1      1395-3.86688E-03 6.69759E-04 2.39740E-02 2.08168E+06 4.64627E+07 2.10508E-02
 -1      1396-6.96671E-03-3.08317E-03 8.44896E-05 4.56340E+08-2.28503E+07-2.26071E-04
 -1      1398-6.96671E-03-3.08317E-03 8.44896E-05 4.56340E+08-2.28503E+07-2.26071E-04
 -1      1407-3.42659E-03-8.05646E-06 2.91236E-02 1.14659E+06 3.88405E+07 5.97766E-03
 -1      1409-3.42659E-03-8.05646E-06 2.91236E-02 1.14659E+06 3.88405E+07 5.97766E-03
 -1      1410-6.00564E-03-1.05831E-03-1.47432E-04 6.54790E+08-2.52949E+07-1.56878E-04
 -1      1412-6.00564E-03-1.05831E-03-1.47432E-04 6.54790E+08-2.52949E+07-1.56878E-04
 -1      1421-1.89612E-03-1.25593E-04 1.69429E-02 2.26389E+05 2.89171E+07-1.36039E-03
 -1      1423-1.89612E-03-1.25593E-04 1.69429E-02 2.26389E+05 2.89171E+07-1.36039E-03
 -1      1424-3.43668E-03 1.56021E-03 1.10626E-04 7.84326E+08-2.81419E+07-1.25532E-04
 -1      1426-3.43668E-03 1.56021E-03 1.10626E-04 7.84326E+08-2.81419E+07-1.25532E-04
 -1      1435 1.82209E-03 7.87851E-04 1.11257E-02-1.72460E+05 1.75395E+07 3.19726E-03
 -1      1437 1.82209E-03 7.87851E-04 1.11257E-02-1.72460E+05 1.75395E+07 3.19726E-03
 -1      1438 2.94149E-04 1.72013E-03-2.43276E-04 8.28597E+08-3.12605E+07 1.47703E-04
 -1      1440 2.94149E-04 1.72013E-03-2.43276E-04 8.28597E+08-3.12605E+07 1.47703E-04
 -1      1449 5.79372E-03-4.97355E-04 1.60428E-02-7.36593E+05 5.43762E+06 3.50817E-03
 -1      1451 5.79372E-03-4.97355E-04 1.60428E-02-7.36593E+05 5.43762E+06 3.50817E-03
 -1      1452 3.98567E-03 5.55143E-04-4.93482E-04 7.76273E+08-3.45446E+07 1.25732E-04
 -1      1454 3.98567E-03 5.55143E-04-4.93482E-04 7.76273E+08-3.45446E+07 1.25732E-04
 -1      1463 6.10270E-03-1.14440E-03 1.69334E-02-3.39270E+05-6.20315E+06-3.27570E-03
 -1      1465 6.10270E-03-1.14440E-03 1.69334E-02-3.39270E+05-6.20315E+06-3.27570E-03
 -1      1466 5.67080E-03-4.78394E-04-1.64174E-04 6.16060E+08-3.77811E+07-8.11995E-05
 -1      1468 5.67080E-03-4.78394E-04-1.64174E-04 6.16060E+08-3.77811E+07-8.11995E-05
 -1      1477 2.37843E-03-4.82485E-04 8.44778E-03-5.58463E+05-1.55594E+07-4.77916E-03
 -1      1479 2.37843E-03-4.82485E-04 8.44778E-03-5.58463E+05-1.55594E+07-4.77916E-03
 -1      1480 4.01660E-03 1.87775E-03-2.05500E-04 3.53497E+08-4.05459E+07 1.20837E-04
 -1      1482 4.01660E-03 1.87775E-03-2.05500E-04 3.53497E+08-4.05459E+07 1.20837E-04
 -1      1491-2.52735E-03 3.80501E-04 1.14118E-02-2.27553E+06-6.14233E+06 2.27420E-04
 -1      1493-2.52735E-03 3.80501E-04 1.14118E-02-2.27553E+06-6.14233E+06 2.27420E-04
 -1      1494-1.47288E-03 9.44280E-06 1.12965E-02-2.56604E+06 1.65332E-03 1.88408E-04
 -1      1496-1.47288E-03 9.44280E-06 1.12965E-02-2.56604E+06 1.65332E-03 1.88408E-04
 -1      1497-6.42298E-04-4.18154E-04 5.93200E-03-2.27553E+06 6.14233E+06-1.12495E-03
 -1      1499-6.42298E-04-4.18154E-04 5.93200E-03-2.27553E+06 6.14233E+06-1.12495E-03
 -1      1500 8.98485E+09 2.22739E+08-2.81042E+04 8.43357E+08-2.19313E+06 1.23086E+07
 -1      1502 8.98485E+09 2.22739E+08-2.81042E+04 8.43357E+08-2.19313E+06 1.23086E+07
 -1      1503 5.83472E+09-1.18115E+08 3.69790E+06 7.02735E+08-3.70674E+06 4.23410E+05
 -1      1505 5.83472E+09-1.18115E+08 3.69790E+06 7.02735E+08-3.70674E+06 4.23410E+05
 -1      1506 2.82549E+09 5.82644E+07 1.30118E+06 7.41639E+08-4.68160E+06 6.67249E+06
 -1      1508 2.82549E+09 5.82644E+07 1.30118E+06 7.41639E+08-4.68160E+06 6.67249E+06
 -1      1509-6.39516E+06-2.85100E+07-1.15573E+06 6.39225E+08-6.43518E+06 4.08790E+06
 -1      1511-6.39516E+06-2.85100E+07-1.15573E+06 6.39225E+08-6.43518E+06 4.08790E+06
 -1      1512-2.51244E+09 1.31983E+07-3.18768E+05 5.70147E+08-7.58520E+06 5.93658E+06
 -1      1514-2.51244E+09 1.31983E+07-3.18768E+05 5.70147E+08-7.58520E+06 5.93658E+06
 -1      1515-4.61958E+09-7.56697E+06-3.56187E+06 4.51538E+08-8.78113E+06 5.74286E+06
 -1      1517-4.61958E+09-7.56697E+06-3.56187E+06 4.51538E+08-8.78113E+06 5.74286E+06
 -1      1518-6.22120E+09 3.08545E+06-2.17651E+06 3.23365E+08-9.65670E+06 6.60745E+06
 -1      1520-6.22120E+09 3.08545E+06-2.17651E+06 3.23365E+08-9.65670E+06 6.60745E+06
 -1      1521-7.25884E+09-3.40975E+06-4.57042E+06 1.78988E+08-1.02641E+07 7.00440E+06
 -1      1523-7.25884E+09-3.40975E+06-4.57042E+06 1.78988E+08-1.02641E+07 7.00440E+06
 -1      1524-7.68873E+09 2.82171E+05-3.12361E+06 2.97795E+07-1.06024E+07 7.61329E+06
 -1      1526-7.68873E+09 2.82171E+05-3.12361E+06 2.97795E+07-1.06024E+07 7.61329E+06
 -1      1527-7.50885E+09-2.70122E+06-4.39259E+06-1.16167E+08-1.05887E+07 8.07134E+06
 -1      1529-7.50885E+09-2.70122E+06-4.39259E+06-1.16167E+08-1.05887E+07 8.07134E+06
 -1      1530-6.74821E+09-1.18553E+06-2.85707E+06-2.50554E+08-1.03315E+07 8.49399E+06
 -1      1532-6.74821E+09-1.18553E+06-2.85707E+06-2.50554E+08-1.03315E+07 8.49399E+06
 -1      1533-5.47334E+09-2.87480E+06-3.15908E+06-3.64928E+08-9.76629E+06 8.79145E+06
 -1      1535-5.47334E+09-2.87480E+06-3.15908E+06-3.64928E+08-9.76629E+06 8.79145E+06
 -1      1536-3.78006E+09-2.34026E+06-1.53108E+06-4.52574E+08-9.03803E+06 8.95943E+06
 -1      1538-3.78006E+09-2.34026E+06-1.53108E+06-4.52574E+08-9.03803E+06 8.95943E+06
 -1      1539-1.79065E+09-3.40877E+06-1.18107E+06-5.08178E+08-8.12986E+06 8.97812E+06
 -1      1541-1.79065E+09-3.40877E+06-1.18107E+06-5.08178E+08-8.12986E+06 8.97812E+06
 -1      1542 3.56127E+08-3.34720E+06 4.18687E+05-5.28611E+08-7.19454E+06 8.83241E+06
 -1      1544 3.56127E+08-3.34720E+06 4.18687E+05-5.28611E+08-7.19454E+06 8.83241E+06
 -1      1545 2.51273E+09-4.08225E+06 1.05071E+06-5.13104E+08-6.25114E+06 8.52906E+06
 -1      1547 2.51273E+09-4.08225E+06 1.05071E+06-5.13104E+08-6.25114E+06 8.52906E+06
 -1      1548 4.53384E+09-4.21834E+06 2.41785E+06-4.63277E+08-5.43817E+06 8.06837E+06
 -1      1550 4.53384E+09-4.21834E+06 2.41785E+06-4.63277E+08-5.43817E+06 8.06837E+06
 -1      1551 6.28548E+09-4.73957E+06 2.97977E+06-3.83163E+08-4.78506E+06 7.47427E+06
 -1      1553 6.28548E+09-4.73957E+06 2.97977E+06-3.83163E+08-4.78506E+06 7.47427E+06
 -1      1554 7.65496E+09-4.92373E+06 3.90782E+06-2.78896E+08-4.39573E+06 6.76520E+06
 -1      1556 7.65496E+09-4.92373E+06 3.90782E+06-2.78896E+08-4.39573E+06 6.76520E+06
 -1      1557 8.55847E+09-5.27401E+06 4.13333E+06-1.58381E+08-4.28307E+06 5.97689E+06
 -1      1559 8.55847E+09-5.27401E+06 4.13333E+06-1.58381E+08-4.28307E+06 5.97689E+06
 -1      1560 8.94768E+09-5.43531E+06 4.49413E+06-3.08116E+07-4.49986E+06 5.13979E+06
 -1      1562 8.94768E+09-5.43531E+06 4.49413E+06-3.08116E+07-4.49986E+06 5.13979E+06
 -1      1563 8.81368E+09-5.62509E+06 4.25531E+06 9.39283E+07-5.02174E+06 4.29399E+06
 -1      1565 8.81368E+09-5.62509E+06 4.25531E+06 9.39283E+07-5.02174E+06 4.29399E+06
 -1      1566 8.18878E+09-5.77286E+06 4.05570E+06 2.05823E+08-5.83956E+06 3.47135E+06
 -1      1568 8.18878E+09-5.77286E+06 4.05570E+06 2.05823E+08-5.83956E+06 3.47135E+06
 -1      1569 7.14589E+09-5.74648E+06 3.38508E+06 2.95224E+08-6.88041E+06 2.70718E+06
 -1      1571 7.14589E+09-5.74648E+06 3.38508E+06 2.95224E+08-6.88041E+06 2.70718E+06
 -1      1572 5.79522E+09-6.07719E+06 2.78918E+06 3.53795E+08-8.06732E+06 2.02181E+06
 -1      1574 5.79522E+09-6.07719E+06 2.78918E+06 3.53795E+08-8.06732E+06 2.02181E+06
 -1      1575 4.27987E+09-5.55081E+06 1.86376E+06 3.73867E+08-9.27482E+06 1.43644E+06
 -1      1577 4.27987E+09-5.55081E+06 1.86376E+06 3.73867E+08-9.27482E+06 1.43644E+06
 -1      1578 2.76880E+09-6.53566E+06 1.17459E+06 3.50507E+08-1.03581E+07 9.49387E+05
 -1      1580 2.76880E+09-6.53566E+06 1.17459E+06 3.50507E+08-1.03581E+07 9.49387E+05
 -1      1581 1.44939E+09-5.53965E+06 2.86952E+05 2.80567E+08-1.11469E+07 5.51665E+05
 -1      1583 1.44939E+09-5.53965E+06 2.86952E+05 2.80567E+08-1.11469E+07 5.51665E+05
 -1      1584 5.23670E+08-5.02911E+06-1.66899E+05 1.56209E+08-1.15325E+07 2.56473E+05
 -1      1586 5.23670E+08-5.02911E+06-1.66899E+05 1.56209E+08-1.15325E+07 2.56473E+05
 -1      1587 1.38355E+08 1.30423E+07-1.02075E+05 1.39530E+08-2.66708E+07 4.30032E+04
 -1      1589 1.38355E+08 1.30423E+07-1.02075E+05 1.39530E+08-2.66708E+07 4.30032E+04
 -1      1590 6.95100E+09 6.58657E+08 1.14693E+06 1.24131E+09 4.37927E+06 1.26426E+07
 -1      1592 6.95100E+09 6.58657E+08 1.14693E+06 1.24131E+09 4.37927E+06 1.26426E+07
 -1      1593-1.38355E+08-1.30423E+07 1.02075E+05 1.39530E+08-2.66708E+07-4.30032E+04
 -1      1595-1.38355E+08-1.30423E+07 1.02075E+05 1.39530E+08-2.66708E+07-4.30032E+04
 -1      1596-8.98485E+09-2.22739E+08 2.81042E+04 8.43357E+08-2.19313E+06-1.23086E+07
 -1      1598-8.98485E+09-2.22739E+08 2.81042E+04 8.43357E+08-2.19313E+06-1.23086E+07
 -1      1599-5.83472E+09 1.18115E+08-3.69790E+06 7.02735E+08-3.70674E+06-4.23410E+05
 -1      1601-5.83472E+09 1.18115E+08-3.69790E+06 7.02735E+08-3.70674E+06-4.23410E+05
 -1      1602-2.82549E+09-5.82644E+07-1.30118E+06 7.41639E+08-4.68160E+06-6.67249E+06
 -1      1604-2.82549E+09-5.82644E+07-1.30118E+06 7.41639E+08-4.68160E+06-6.67249E+06
 -1      1605 6.39516E+06 2.85100E+07 1.15573E+06 6.39225E+08-6.43518E+06-4.08790E+06
 -1      1607 6.39516E+06 2.85100E+07 1.15573E+06 6.39225E+08-6.43518E+06-4.08790E+06
 -1      1608 2.51244E+09-1.31983E+07 3.18768E+05 5.70147E+08-7.58520E+06-5.93658E+06
 -1      1610 2.51244E+09-1.31983E+07 3.18768E+05 5.70147E+08-7.58520E+06-5.93658E+06
 -1      1611 4.61958E+09 7.56697E+06 3.56187E+06 4.51538E+08-8.78113E+06-5.74286E+06
 -1      1613 4.61958E+09 7.56697E+06 3.56187E+06 4.51538E+08-8.78113E+06-5.74286E+06
 -1      1614 6.22120E+09-3.08545E+06 2.17651E+06 3.23365E+08-9.65670E+06-6.60745E+06
 -1      1616 6.22120E+09-3.08545E+06 2.17651E+06 3.23365E+08-9.65670E+06-6.60745E+06
 -1      1617 7.25884E+09 3.40975E+06 4.57042E+06 1.78988E+08-1.02641E+07-7.00440E+06
 -1      1619 7.25884E+09 3.40975E+06 4.57042E+06 1.78988E+08-1.02641E+07-7.00440E+06
 -1      1620 7.68873E+09-2.82171E+05 3.12361E+06 2.97795E+07-1.06024E+07-7.61329E+06
 -1      1622 7.68873E+09-2.82171E+05 3.12361E+06 2.97795E+07-1.06024E+07-7.61329E+06
 -1      1623 7.50885E+09 2.70122E+06 4.39259E+06-1.16167E+08-1.05887E+07-8.07134E+06
 -1      1625 7.50885E+09 2.70122E+06 4.39259E+06-1.16167E+08-1.05887E+07-8.07134E+06
 -1      1626 6.74821E+09 1.18553E+06 2.85707E+06-2.50554E+08-1.03315E+07-8.49399E+06
 -1      1628 6.74821E+09 1.18553E+06 2.85707E+06-2.50554E+08-1.03315E+07-8.49399E+06
 -1      1629 5.47334E+09 2.87480E+06 3.15908E+06-3.64928E+08-9.76629E+06-8.79145E+06
 -1      1631 5.47334E+09 2.87480E+06 3.15908E+06-3.64928E+08-9.76629E+06-8.79145E+06
 -1      1632 3.78006E+09 2.34026E+06 1.53108E+06-4.52574E+08-9.03803E+06-8.95943E+06
 -1      1634 3.78006E+09 2.34026E+06 1.53108E+06-4.52574E+08-9.03803E+06-8.95943E+06
 -1      1635 1.79065E+09 3.40877E+06 1.18107E+06-5.08178E+08-8.12986E+06-8.97812E+06
 -1      1637 1.79065E+09 3.40877E+06 1.18107E+06-5.08178E+08-8.12986E+06-8.97812E+06
 -1      1638-3.56127E+08 3.34720E+06-4.18687E+05-5.28611E+08-7.19454E+06-8.83241E+06
 -1      1640-3.56127E+08 3.34720E+06-4.18687E+05-5.28611E+08-7.19454E+06-8.83241E+06
 -1      1641-2.51273E+09 4.08225E+06-1.05071E+06-5.13104E+08-6.25114E+06-8.52906E+06
 -1      1643-2.51273E+09 4.08225E+06-1.05071E+06-5.13104E+08-6.25114E+06-8.52906E+06
 -1      1644-4.53384E+09 4.21834E+06-2.41785E+06-4.63277E+08-5.43817E+06-8.06837E+06
 -1      1646-4.53384E+09 4.21834E+06-2.41785E+06-4.63277E+08-5.43817E+06-8.06837E+06
 -1      1647-6.28548E+09 4.73957E+06-2.97977E+06-3.83163E+08-4.78506E+06-7.47427E+06
 -1      1649-6.28548E+09 4.73957E+06-2.97977E+06-3.83163E+08-4.78506E+06-7.47427E+06
 -1      1650-7.65496E+09 4.92373E+06-3.90782E+06-2.78896E+08-4.39573E+06-6.76520E+06
 -1      1652-7.65496E+09 4.92373E+06-3.90782E+06-2.78896E+08-4.39573E+06-6.76520E+06
 -1      1653-8.55847E+09 5.27401E+06-4.13333E+06-1.58381E+08-4.28307E+06-5.97689E+06
 -1      1655-8.55847E+09 5.27401E+06-4.13333E+06-1.58381E+08-4.28307E+06-5.97689E+06
 -1      1656-8.94768E+09 5.43531E+06-4.49413E+06-3.08116E+07-4.49986E+06-5.13979E+06
 -1      1658-8.94768E+09 5.43531E+06-4.49413E+06-3.08116E+07-4.49986E+06-5.13979E+06
 -1      1659-8.81368E+09 5.62509E+06-4.25531E+06 9.39283E+07-5.02174E+06-4.29399E+06
 -1      1661-8.81368E+09 5.62509E+06-4.25531E+06 9.39283E+07-5.02174E+06-4.29399E+06
 -1      1662-8.18878E+09 5.77286E+06-4.05570E+06 2.05823E+08-5.83956E+06-3.47135E+06
 -1      1664-8.18878E+09 5.77286E+06-4.05570E+06 2.05823E+08-5.83956E+06-3.47135E+06
 -1      1665-7.14589E+09 5.74648E+06-3.38508E+06 2.95224E+08-6.88041E+06-2.70718E+06
 -1      1667-7.14589E+09 5.74648E+06-3.38508E+06 2.95224E+08-6.88041E+06-2.70718E+06
 -1      1668-5.79522E+09 6.07719E+06-2.78918E+06 3.53795E+08-8.06732E+06-2.02181E+06
 -1      1670-5.79522E+09 6.07719E+06-2.78918E+06 3.53795E+08-8.06732E+06-2.02181E+06
 -1      1671-4.27987E+09 5.55081E+06-1.86376E+06 3.73867E+08-9.27482E+06-1.43644E+06
 -1      1673-4.27987E+09 5.55081E+06-1.86376E+06 3.73867E+08-9.27482E+06-1.43644E+06
 -1      1674-2.76880E+09 6.53566E+06-1.17459E+06 3.50507E+08-1.03581E+07-9.49387E+05
 -1      1676-2.76880E+09 6.53566E+06-1.17459E+06 3.50507E+08-1.03581E+07-9.49387E+05
 -1      1677-1.44939E+09 5.53965E+06-2.86952E+05 2.80567E+08-1.11469E+07-5.51665E+05
 -1      1679-1.44939E+09 5.53965E+06-2.86952E+05 2.80567E+08-1.11469E+07-5.51665E+05
 -1      1680-5.23670E+08 5.02911E+06 1.66899E+05 1.56209E+08-1.15325E+07-2.56473E+05
 -1      1682-5.23670E+08 5.02911E+06 1.66899E+05 1.56209E+08-1.15325E+07-2.56473E+05
 -1      1683-6.95100E+09-6.58657E+08-1.14693E+06 1.24131E+09 4.37927E+06-1.26426E+07
 -1      1685-6.95100E+09-6.58657E+08-1.14693E+06 1.24131E+09 4.37927E+06-1.26426E+07
 -1      1686-5.97698E+09-1.79936E+08-2.93699E+05 1.24046E+09-6.75234E+05 2.77955E+06
 -1      1688-5.97698E+09-1.79936E+08-2.93699E+05 1.24046E+09-6.75234E+05 2.77955E+06
 -1      1689-3.91318E+09 8.57566E+07 2.88266E+05 1.21565E+09 4.13228E+06-2.57006E+06
 -1      1691-3.91318E+09 8.57566E+07 2.88266E+05 1.21565E+09 4.13228E+06-2.57006E+06
 -1      1692-1.87649E+09-4.70727E+07-1.28747E+05 1.15310E+09 5.66788E+06-8.24164E+03
 -1      1694-1.87649E+09-4.70727E+07-1.28747E+05 1.15310E+09 5.66788E+06-8.24164E+03
 -1      1695-1.59050E+07 4.12354E+06-9.55401E+04 1.05242E+09 7.97082E+06-1.12521E+06
 -1      1697-1.59050E+07 4.12354E+06-9.55401E+04 1.05242E+09 7.97082E+06-1.12521E+06
 -1      1698 1.66419E+09-1.98684E+07 1.47473E+05 9.11163E+08 1.01132E+07-5.22762E+05
 -1      1700 1.66419E+09-1.98684E+07 1.47473E+05 9.11163E+08 1.01132E+07-5.22762E+05
 -1      1701 3.05837E+09-1.70576E+07-2.02418E+05 7.31773E+08 1.19059E+07-6.02493E+05
 -1      1703 3.05837E+09-1.70576E+07-2.02418E+05 7.31773E+08 1.19059E+07-6.02493E+05
 -1      1704 4.12710E+09-2.02831E+07 1.44884E+05 5.20800E+08 1.36468E+07-3.51470E+05
 -1      1706 4.12710E+09-2.02831E+07 1.44884E+05 5.20800E+08 1.36468E+07-3.51470E+05
 -1      1707 4.81558E+09-2.16343E+07-1.33319E+05 2.89193E+08 1.48325E+07-1.81310E+05
 -1      1709 4.81558E+09-2.16343E+07-1.33319E+05 2.89193E+08 1.48325E+07-1.81310E+05
 -1      1710 5.10304E+09-2.08762E+07 6.47901E+04 4.83694E+07 1.58075E+07 3.21693E+04
 -1      1712 5.10304E+09-2.08762E+07 6.47901E+04 4.83694E+07 1.58075E+07 3.21693E+04
 -1      1713 4.98385E+09-1.92805E+07-4.42655E+04-1.86908E+08 1.62157E+07 2.45075E+05
 -1      1715 4.98385E+09-1.92805E+07-4.42655E+04-1.86908E+08 1.62157E+07 2.45075E+05
 -1      1716 4.47979E+09-1.60081E+07 3.96271E+03-4.03575E+08 1.63437E+07 4.32304E+05
 -1      1718 4.47979E+09-1.60081E+07 3.96271E+03-4.03575E+08 1.63437E+07 4.32304E+05
 -1      1719 3.63352E+09-1.14760E+07 1.92199E+04-5.87913E+08 1.60082E+07 6.01721E+05
 -1      1721 3.63352E+09-1.14760E+07 1.92199E+04-5.87913E+08 1.60082E+07 6.01721E+05
 -1      1722 2.50974E+09-6.05639E+06-2.27537E+04-7.29278E+08 1.54534E+07 7.18795E+05
 -1      1724 2.50974E+09-6.05639E+06-2.27537E+04-7.29278E+08 1.54534E+07 7.18795E+05
 -1      1725 1.18891E+09 2.31269E+05 5.72986E+04-8.18871E+08 1.46276E+07 7.93634E+05
 -1      1727 1.18891E+09 2.31269E+05 5.72986E+04-8.18871E+08 1.46276E+07 7.93634E+05
 -1      1728-2.36292E+08 6.66296E+06-2.52832E+04-8.51902E+08 1.37447E+07 8.04959E+05
 -1      1730-2.36292E+08 6.66296E+06-2.52832E+04-8.51902E+08 1.37447E+07 8.04959E+05
 -1      1731-1.66828E+09 1.31623E+07 7.82222E+04-8.26911E+08 1.28314E+07 7.62884E+05
 -1      1733-1.66828E+09 1.31623E+07 7.82222E+04-8.26911E+08 1.28314E+07 7.62884E+05
 -1      1734-3.01027E+09 1.90318E+07-1.59183E+04-7.46689E+08 1.20663E+07 6.60700E+05
 -1      1736-3.01027E+09 1.90318E+07-1.59183E+04-7.46689E+08 1.20663E+07 6.60700E+05
 -1      1737-4.17353E+09 2.41458E+07 8.78887E+04-6.17613E+08 1.15025E+07 5.11251E+05
 -1      1739-4.17353E+09 2.41458E+07 8.78887E+04-6.17613E+08 1.15025E+07 5.11251E+05
 -1      1740-5.08310E+09 2.79492E+07-3.87594E+03-4.49651E+08 1.12686E+07 3.19786E+05
 -1      1742-5.08310E+09 2.79492E+07-3.87594E+03-4.49651E+08 1.12686E+07 3.19786E+05
 -1      1743-5.68345E+09 3.04011E+07 8.90004E+04-2.55507E+08 1.14012E+07 1.02187E+05
 -1      1745-5.68345E+09 3.04011E+07 8.90004E+04-2.55507E+08 1.14012E+07 1.02187E+05
 -1      1746-5.94246E+09 3.11198E+07 5.37257E+03-5.00014E+07 1.19638E+07-1.27612E+05
 -1      1748-5.94246E+09 3.11198E+07 5.37257E+03-5.00014E+07 1.19638E+07-1.27612E+05
 -1      1749-5.85429E+09 3.02639E+07 8.20525E+04 1.50899E+08 1.29475E+07-3.53577E+05
 -1      1751-5.85429E+09 3.02639E+07 8.20525E+04 1.50899E+08 1.29475E+07-3.53577E+05
 -1      1752-5.44045E+09 2.76434E+07 1.00271E+04 3.31082E+08 1.43449E+07-5.55112E+05
 -1      1754-5.44045E+09 2.76434E+07 1.00271E+04 3.31082E+08 1.43449E+07-5.55112E+05
 -1      1755-4.74937E+09 2.35372E+07 6.60750E+04 4.75007E+08 1.60877E+07-7.22650E+05
 -1      1757-4.74937E+09 2.35372E+07 6.60750E+04 4.75007E+08 1.60877E+07-7.22650E+05
 -1      1758-3.85443E+09 1.82657E+07 1.10243E+04 5.69060E+08 1.81046E+07-8.24836E+05
 -1      1760-3.85443E+09 1.82657E+07 1.10243E+04 5.69060E+08 1.81046E+07-8.24836E+05
 -1      1761-2.85071E+09 1.13582E+07 4.14221E+04 6.01232E+08 2.02677E+07-8.74865E+05
 -1      1763-2.85071E+09 1.13582E+07 4.14221E+04 6.01232E+08 2.02677E+07-8.74865E+05
 -1      1764-1.85017E+09 5.05142E+06 3.67628E+03 5.63390E+08 2.24514E+07-8.01955E+05
 -1      1766-1.85017E+09 5.05142E+06 3.67628E+03 5.63390E+08 2.24514E+07-8.01955E+05
 -1      1767-9.79553E+08-3.70892E+06 2.80130E+04 4.48313E+08 2.44640E+07-7.01842E+05
 -1      1769-9.79553E+08-3.70892E+06 2.80130E+04 4.48313E+08 2.44640E+07-7.01842E+05
 -1      1770-3.65929E+08-1.16510E+07-6.14444E+04 2.54853E+08 2.60392E+07-3.28713E+05
 -1      1772-3.65929E+08-1.16510E+07-6.14444E+04 2.54853E+08 2.60392E+07-3.28713E+05
 -1      1773 5.97698E+09 1.79936E+08 2.93699E+05 1.24046E+09-6.75234E+05-2.77955E+06
 -1      1775 5.97698E+09 1.79936E+08 2.93699E+05 1.24046E+09-6.75234E+05-2.77955E+06
 -1      1776 3.91318E+09-8.57566E+07-2.88266E+05 1.21565E+09 4.13228E+06 2.57006E+06
 -1      1778 3.91318E+09-8.57566E+07-2.88266E+05 1.21565E+09 4.13228E+06 2.57006E+06
 -1      1779 1.87649E+09 4.70727E+07 1.28747E+05 1.15310E+09 5.66788E+06 8.24164E+03
 -1      1781 1.87649E+09 4.70727E+07 1.28747E+05 1.15310E+09 5.66788E+06 8.24164E+03
 -1      1782 1.59050E+07-4.12354E+06 9.55401E+04 1.05242E+09 7.97082E+06 1.12521E+06
 -1      1784 1.59050E+07-4.12354E+06 9.55401E+04 1.05242E+09 7.97082E+06 1.12521E+06
 -1      1785-1.66419E+09 1.98684E+07-1.47473E+05 9.11163E+08 1.01132E+07 5.22762E+05
 -1      1787-1.66419E+09 1.98684E+07-1.47473E+05 9.11163E+08 1.01132E+07 5.22762E+05
 -1      1788-3.05837E+09 1.70576E+07 2.02418E+05 7.31773E+08 1.19059E+07 6.02493E+05
 -1      1790-3.05837E+09 1.70576E+07 2.02418E+05 7.31773E+08 1.19059E+07 6.02493E+05
 -1      1791-4.12710E+09 2.02831E+07-1.44884E+05 5.20800E+08 1.36468E+07 3.51470E+05
 -1      1793-4.12710E+09 2.02831E+07-1.44884E+05 5.20800E+08 1.36468E+07 3.51470E+05
 -1      1794-4.81558E+09 2.16343E+07 1.33319E+05 2.89193E+08 1.48325E+07 1.81310E+05
 -1      1796-4.81558E+09 2.16343E+07 1.33319E+05 2.89193E+08 1.48325E+07 1.81310E+05
 -1      1797-5.10304E+09 2.08762E+07-6.47901E+04 4.83694E+07 1.58075E+07-3.21693E+04
 -1      1799-5.10304E+09 2.08762E+07-6.47901E+04 4.83694E+07 1.58075E+07-3.21693E+04
 -1      1800-4.98385E+09 1.92805E+07 4.42655E+04-1.86908E+08 1.62157E+07-2.45075E+05
 -1      1802-4.98385E+09 1.92805E+07 4.42655E+04-1.86908E+08 1.62157E+07-2.45075E+05
 -1      1803-4.47979E+09 1.60081E+07-3.96271E+03-4.03575E+08 1.63437E+07-4.32304E+05
 -1      1805-4.47979E+09 1.60081E+07-3.96271E+03-4.03575E+08 1.63437E+07-4.32304E+05
 -1      1806-3.63352E+09 1.14760E+07-1.92199E+04-5.87913E+08 1.60082E+07-6.01721E+05
 -1      1808-3.63352E+09 1.14760E+07-1.92199E+04-5.87913E+08 1.60082E+07-6.01721E+05
 -1      1809-2.50974E+09 6.05639E+06 2.27537E+04-7.29278E+08 1.54534E+07-7.18795E+05
 -1      1811-2.50974E+09 6.05639E+06 2.27537E+04-7.29278E+08 1.54534E+07-7.18795E+05
 -1      1812-1.18891E+09-2.31269E+05-5.72986E+04-8.18871E+08 1.46276E+07-7.93634E+05
 -1      1814-1.18891E+09-2.31269E+05-5.72986E+04-8.18871E+08 1.46276E+07-7.93634E+05
 -1      1815 2.36292E+08-6.66296E+06 2.52832E+04-8.51902E+08 1.37447E+07-8.04959E+05
 -1      1817 2.36292E+08-6.66296E+06 2.52832E+04-8.51902E+08 1.37447E+07-8.04959E+05
 -1      1818 1.66828E+09-1.31623E+07-7.82222E+04-8.26911E+08 1.28314E+07-7.62884E+05
 -1      1820 1.66828E+09-1.31623E+07-7.82222E+04-8.26911E+08 1.28314E+07-7.62884E+05
 -1      1821 3.01027E+09-1.90318E+07 1.59183E+04-7.46689E+08 1.20663E+07-6.60700E+05
 -1      1823 3.01027E+09-1.90318E+07 1.59183E+04-7.46689E+08 1.20663E+07-6.60700E+05
 -1      1824 4.17353E+09-2.41458E+07-8.78887E+04-6.17613E+08 1.15025E+07-5.11251E+05
 -1      1826 4.17353E+09-2.41458E+07-8.78887E+04-6.17613E+08 1.15025E+07-5.11251E+05
 -1      1827 5.08310E+09-2.79492E+07 3.87594E+03-4.49651E+08 1.12686E+07-3.19786E+05
 -1      1829 5.08310E+09-2.79492E+07 3.87594E+03-4.49651E+08 1.12686E+07-3.19786E+05
 -1      1830 5.68345E+09-3.04011E+07-8.90004E+04-2.55507E+08 1.14012E+07-1.02187E+05
 -1      1832 5.68345E+09-3.04011E+07-8.90004E+04-2.55507E+08 1.14012E+07-1.02187E+05
 -1      1833 5.94246E+09-3.11198E+07-5.37257E+03-5.00014E+07 1.19638E+07 1.27612E+05
 -1      1835 5.94246E+09-3.11198E+07-5.37257E+03-5.00014E+07 1.19638E+07 1.27612E+05
 -1      1836 5.85429E+09-3.02639E+07-8.20525E+04 1.50899E+08 1.29475E+07 3.53577E+05
 -1      1838 5.85429E+09-3.02639E+07-8.20525E+04 1.50899E+08 1.29475E+07 3.53577E+05
 -1      1839 5.44045E+09-2.76434E+07-1.00271E+04 3.31082E+08 1.43449E+07 5.55112E+05
 -1      1841 5.44045E+09-2.76434E+07-1.00271E+04 3.31082E+08 1.43449E+07 5.55112E+05
 -1      1842 4.74937E+09-2.35372E+07-6.60750E+04 4.75007E+08 1.60877E+07 7.22650E+05
 -1      1844 4.74937E+09-2.35372E+07-6.60750E+04 4.75007E+08 1.60877E+07 7.22650E+05
 -1      1845 3.85443E+09-1.82657E+07-1.10243E+04 5.69060E+08 1.81046E+07 8.24836E+05
 -1      1847 3.85443E+09-1.82657E+07-1.10243E+04 5.69060E+08 1.81046E+07 8.24836E+05
 -1      1848 2.85071E+09-1.13582E+07-4.14221E+04 6.01232E+08 2.02677E+07 8.74865E+05
 -1      1850 2.85071E+09-1.13582E+07-4.14221E+04 6.01232E+08 2.02677E+07 8.74865E+05
 -1      1851 1.85017E+09-5.05142E+06-3.67628E+03 5.63390E+08 2.24514E+07 8.01955E+05
 -1      1853 1.85017E+09-5.05142E+06-3.67628E+03 5.63390E+08 2.24514E+07 8.01955E+05
 -1      1854 9.79553E+08 3.70892E+06-2.80130E+04 4.48313E+08 2.44640E+07 7.01842E+05
 -1      1856 9.79553E+08 3.70892E+06-2.80130E+04 4.48313E+08 2.44640E+07 7.01842E+05
 -1      1857 3.65929E+08 1.16510E+07 6.14444E+04 2.54853E+08 2.60392E+07 3.28713E+05
 -1      1859 3.65929E+08 1.16510E+07 6.14444E+04 2.54853E+08 2.60392E+07 3.28713E+05
 -1      1860-2.61976E-02-1.66723E-05 6.07678E-03 1.08577E+07 2.73554E+06-5.67529E-02
 -1      1862-2.61976E-02-1.66723E-05 6.07678E-03 1.08577E+07 2.73554E+06-5.67529E-02
 -1      1863-2.17451E-02-1.50952E-04 1.28583E-02 3.61226E+06 6.92679E+06-5.51628E-02
 -1      1865-2.17451E-02-1.50952E-04 1.28583E-02 3.61226E+06 6.92679E+06-5.51628E-02
 -1      1866-1.73269E-02-1.20662E-04 2.91642E-03 4.69076E+06 1.02067E+07-5.08645E-02
 -1      1868-1.73269E-02-1.20662E-04 2.91642E-03 4.69076E+06 1.02067E+07-5.08645E-02
 -1      1869-1.09155E-02-1.61569E-04-1.13057E-02 4.52461E+06 1.35067E+07-4.93564E-02
 -1      1871-1.09155E-02-1.61569E-04-1.13057E-02 4.52461E+06 1.35067E+07-4.93564E-02
 -1      1872-1.26507E-03-1.08341E-04-1.34346E-02 3.79052E+06 1.62555E+07-5.00931E-02
 -1      1874-1.26507E-03-1.08341E-04-1.34346E-02 3.79052E+06 1.62555E+07-5.00931E-02
 -1      1875 7.50904E-03-3.34519E-05-1.79187E-03 2.92245E+06 1.82994E+07-4.84906E-02
 -1      1877 7.50904E-03-3.34519E-05-1.79187E-03 2.92245E+06 1.82994E+07-4.84906E-02
 -1      1878 1.11670E-02 1.22404E-04 1.16231E-02 2.35498E+06 1.95120E+07-4.03078E-02
 -1      1880 1.11670E-02 1.22404E-04 1.16231E-02 2.35498E+06 1.95120E+07-4.03078E-02
 -1      1881 1.13126E-02-3.05346E-04 1.15283E-02 9.71585E+05 1.96560E+07-3.03147E-02
 -1      1883 1.13126E-02-3.05346E-04 1.15283E-02 9.71585E+05 1.96560E+07-3.03147E-02
 -1      1884 1.27110E-02-1.02873E-03 1.34596E-03 3.03595E+05 1.87506E+07-2.73942E-02
 -1      1886 1.27110E-02-1.02873E-03 1.34596E-03 3.03595E+05 1.87506E+07-2.73942E-02
 -1      1887 1.78215E-02-8.25234E-04 2.23534E-05-1.02308E+06 1.66789E+07-2.96443E-02
 -1      1889 1.78215E-02-8.25234E-04 2.23534E-05-1.02308E+06 1.66789E+07-2.96443E-02
 -1      1890 2.31369E-02-8.22467E-04 1.14639E-02-1.72308E+06 1.35940E+07-2.49935E-02
 -1      1892 2.31369E-02-8.22467E-04 1.14639E-02-1.72308E+06 1.35940E+07-2.49935E-02
 -1      1893 2.57510E-02-1.01116E-03 2.23457E-02-2.70033E+06 9.54328E+06-1.26434E-02
 -1      1895 2.57510E-02-1.01116E-03 2.23457E-02-2.70033E+06 9.54328E+06-1.26434E-02
 -1      1896 2.77991E-02-5.21141E-04 2.52776E-02-3.18445E+06 4.79681E+06-6.84501E-04
 -1      1898 2.77991E-02-5.21141E-04 2.52776E-02-3.18445E+06 4.79681E+06-6.84501E-04
 -1      1899 2.87799E-02 3.20958E-04 2.41894E-02-3.66094E+06-4.56410E+05 9.46839E-03
 -1      1901 2.87799E-02 3.20958E-04 2.41894E-02-3.66094E+06-4.56410E+05 9.46839E-03
 -1      1902 2.55601E-02 1.43120E-04 2.36058E-02-3.73399E+06-5.87622E+06 1.74017E-02
 -1      1904 2.55601E-02 1.43120E-04 2.36058E-02-3.73399E+06-5.87622E+06 1.74017E-02
 -1      1905 2.08820E-02-4.02267E-04 2.34934E-02-3.66083E+06-1.12009E+07 2.02172E-02
 -1      1907 2.08820E-02-4.02267E-04 2.34934E-02-3.66083E+06-1.12009E+07 2.02172E-02
 -1      1908 1.91060E-02 7.66940E-05 2.07458E-02-3.26752E+06-1.60887E+07 1.97264E-02
 -1      1910 1.91060E-02 7.66940E-05 2.07458E-02-3.26752E+06-1.60887E+07 1.97264E-02
 -1      1911 1.70306E-02 2.15044E-04 1.40731E-02-2.71152E+06-2.02966E+07 1.71174E-02
 -1      1913 1.70306E-02 2.15044E-04 1.40731E-02-2.71152E+06-2.02966E+07 1.71174E-02
 -1      1914 1.06635E-02 4.77880E-04 7.71601E-03-1.94666E+06-2.35546E+07 1.35215E-02
 -1      1916 1.06635E-02 4.77880E-04 7.71601E-03-1.94666E+06-2.35546E+07 1.35215E-02
 -1      1917 1.12581E-03 9.71046E-04 3.47103E-03-1.08536E+06-2.57269E+07 1.55103E-02
 -1      1919 1.12581E-03 9.71046E-04 3.47103E-03-1.08536E+06-2.57269E+07 1.55103E-02
 -1      1920-7.66107E-03-2.07267E-04-5.68232E-04-1.65260E+05-2.66736E+07 1.98590E-02
 -1      1922-7.66107E-03-2.07267E-04-5.68232E-04-1.65260E+05-2.66736E+07 1.98590E-02
 -1      1923-1.32055E-02-1.50425E-04 1.14177E-04 7.55661E+05-2.64310E+07 1.87816E-02
 -1      1925-1.32055E-02-1.50425E-04 1.14177E-04 7.55661E+05-2.64310E+07 1.87816E-02
 -1      1926-1.66397E-02 6.78319E-05 7.94792E-03 1.53939E+06-2.50175E+07 1.51047E-02
 -1      1928-1.66397E-02 6.78319E-05 7.94792E-03 1.53939E+06-2.50175E+07 1.51047E-02
 -1      1929-1.62959E-02-7.64045E-04 1.62748E-02 2.28394E+06-2.26653E+07 1.00387E-02
 -1      1931-1.62959E-02-7.64045E-04 1.62748E-02 2.28394E+06-2.26653E+07 1.00387E-02
 -1      1932-1.17181E-02-8.19210E-04 2.12859E-02 2.60389E+06-1.95478E+07 3.97037E-03
 -1      1934-1.17181E-02-8.19210E-04 2.12859E-02 2.60389E+06-1.95478E+07 3.97037E-03
 -1      1935-7.70054E-03-5.65003E-05 2.58555E-02 3.05058E+06-1.60626E+07 1.66752E-03
 -1      1937-7.70054E-03-5.65003E-05 2.58555E-02 3.05058E+06-1.60626E+07 1.66752E-03
 -1      1938-6.10684E-03 6.17304E-04 2.88199E-02 2.54548E+06-1.25255E+07 9.66871E-04
 -1      1940-6.10684E-03 6.17304E-04 2.88199E-02 2.54548E+06-1.25255E+07 9.66871E-04
 -1      1941-5.50907E-03 9.42097E-04 2.55331E-02 2.82647E+06-9.38132E+06-6.98468E-04
 -1      1943-5.50907E-03 9.42097E-04 2.55331E-02 2.82647E+06-9.38132E+06-6.98468E-04
 -1      1944-3.89595E-03 9.00668E-04 1.67292E-02 9.55424E+05-7.12173E+06-5.01147E-04
 -1      1946-3.89595E-03 9.00668E-04 1.67292E-02 9.55424E+05-7.12173E+06-5.01147E-04
 -1      1947-6.30056E-03-4.82742E-05 8.08253E-03 1.12631E+07 1.14779E-04-5.62786E-02
 -1      1949-6.30056E-03-4.82742E-05 8.08253E-03 1.12631E+07 1.14779E-04-5.62786E-02
 -1      1950-8.02954E-03-1.74662E-04 8.06906E-03 3.97014E+06-2.14721E-05-5.94663E-02
 -1      1952-8.02954E-03-1.74662E-04 8.06906E-03 3.97014E+06-2.14721E-05-5.94663E-02
 -1      1953-6.84774E-03 1.42455E-05-1.49806E-03 4.47125E+06 2.34687E-06-5.71802E-02
 -1      1955-6.84774E-03 1.42455E-05-1.49806E-03 4.47125E+06 2.34687E-06-5.71802E-02
 -1      1956-5.21523E-03 2.76245E-04-1.22437E-02 3.79971E+06-5.03705E-05-5.32394E-02
 -1      1958-5.21523E-03 2.76245E-04-1.22437E-02 3.79971E+06-5.03705E-05-5.32394E-02
 -1      1959-3.16774E-03 5.21304E-04-1.49121E-02 1.94293E+06-2.67877E-04-5.05516E-02
 -1      1961-3.16774E-03 5.21304E-04-1.49121E-02 1.94293E+06-2.67877E-04-5.05516E-02
 -1      1962-3.22553E-03 4.53700E-04-8.16292E-03-4.49106E+04-4.01177E-04-4.52697E-02
 -1      1964-3.22553E-03 4.53700E-04-8.16292E-03-4.49106E+04-4.01177E-04-4.52697E-02
 -1      1965-5.98559E-03-1.56120E-04 2.20113E-03-2.31408E+06-4.74797E-04-3.67014E-02
 -1      1967-5.98559E-03-1.56120E-04 2.20113E-03-2.31408E+06-4.74797E-04-3.67014E-02
 -1      1968-6.04281E-03-2.49502E-04 6.22144E-03-5.16732E+06-5.17024E-04-3.10998E-02
 -1      1970-6.04281E-03-2.49502E-04 6.22144E-03-5.16732E+06-5.17024E-04-3.10998E-02
 -1      1971-2.42036E-03-1.20036E-04 6.21357E-04-7.76713E+06-3.46253E-04-3.03481E-02
 -1      1973-2.42036E-03-1.20036E-04 6.21357E-04-7.76713E+06-3.46253E-04-3.03481E-02
 -1      1974 1.58728E-03-2.28436E-04-2.89274E-03-1.05707E+07-2.19766E-04-2.93671E-02
 -1      1976 1.58728E-03-2.28436E-04-2.89274E-03-1.05707E+07-2.19766E-04-2.93671E-02
 -1      1977 3.64488E-03-3.15401E-04 4.24108E-03-1.29388E+07-4.02542E-04-2.22718E-02
 -1      1979 3.64488E-03-3.15401E-04 4.24108E-03-1.29388E+07-4.02542E-04-2.22718E-02
 -1      1980 3.16125E-03-6.77806E-04 1.52712E-02-1.49887E+07-7.53104E-04-1.12203E-02
 -1      1982 3.16125E-03-6.77806E-04 1.52712E-02-1.49887E+07-7.53104E-04-1.12203E-02
 -1      1983 2.78673E-03-2.15138E-04 2.21435E-02-1.64418E+07-9.77423E-04-1.91910E-03
 -1      1985 2.78673E-03-2.15138E-04 2.21435E-02-1.64418E+07-9.77423E-04-1.91910E-03
 -1      1986 3.07674E-03-7.32130E-05 2.35700E-02-1.72311E+07-1.03263E-03 6.59437E-03
 -1      1988 3.07674E-03-7.32130E-05 2.35700E-02-1.72311E+07-1.03263E-03 6.59437E-03
 -1      1989 1.64575E-03-4.72958E-04 2.34147E-02-1.73100E+07-8.37871E-04 1.42405E-02
 -1      1991 1.64575E-03-4.72958E-04 2.34147E-02-1.73100E+07-8.37871E-04 1.42405E-02
 -1      1992-1.24119E-03-2.48673E-04 2.43875E-02-1.66165E+07-3.54204E-04 1.67215E-02
 -1      1994-1.24119E-03-2.48673E-04 2.43875E-02-1.66165E+07-3.54204E-04 1.67215E-02
 -1      1995-1.15385E-03 3.18379E-04 2.27320E-02-1.52379E+07 1.08727E-04 1.50579E-02
 -1      1997-1.15385E-03 3.18379E-04 2.27320E-02-1.52379E+07 1.08727E-04 1.50579E-02
 -1      1998 2.79345E-03 4.05246E-04 1.47222E-02-1.32019E+07 5.38592E-04 1.30566E-02
 -1      2000 2.79345E-03 4.05246E-04 1.47222E-02-1.32019E+07 5.38592E-04 1.30566E-02
 -1      2001 3.96926E-03 4.17780E-04 4.10688E-03-1.06797E+07 7.52683E-04 1.22141E-02
 -1      2003 3.96926E-03 4.17780E-04 4.10688E-03-1.06797E+07 7.52683E-04 1.22141E-02
 -1      2004-3.07095E-04 5.00517E-04-3.69776E-03-7.78845E+06 1.00769E-03 1.58889E-02
 -1      2006-3.07095E-04 5.00517E-04-3.69776E-03-7.78845E+06 1.00769E-03 1.58889E-02
 -1      2007-4.73949E-03-3.23490E-04-6.05326E-03-4.75724E+06 1.56253E-03 2.14678E-02
 -1      2009-4.73949E-03-3.23490E-04-6.05326E-03-4.75724E+06 1.56253E-03 2.14678E-02
 -1      2010-8.47175E-03-2.81416E-04 3.06145E-04-1.72670E+06 1.51153E-03 2.37401E-02
 -1      2012-8.47175E-03-2.81416E-04 3.06145E-04-1.72670E+06 1.51153E-03 2.37401E-02
 -1      2013-1.33869E-02-6.37625E-04 1.19609E-02 9.97099E+05 1.50200E-03 2.04676E-02
 -1      2015-1.33869E-02-6.37625E-04 1.19609E-02 9.97099E+05 1.50200E-03 2.04676E-02
 -1      2016-1.38623E-02-1.13722E-03 1.99803E-02 3.42130E+06 1.45997E-03 1.11012E-02
 -1      2018-1.38623E-02-1.13722E-03 1.99803E-02 3.42130E+06 1.45997E-03 1.11012E-02
 -1      2019-8.23832E-03-8.04980E-04 2.26136E-02 4.98139E+06 1.35124E-03 3.61175E-03
 -1      2021-8.23832E-03-8.04980E-04 2.26136E-02 4.98139E+06 1.35124E-03 3.61175E-03
 -1      2022-3.31488E-03 1.49732E-04 2.46442E-02 6.27362E+06 1.39440E-03 3.42203E-03
 -1      2024-3.31488E-03 1.49732E-04 2.46442E-02 6.27362E+06 1.39440E-03 3.42203E-03
 -1      2025-1.86211E-03 3.93729E-04 2.66957E-02 5.82755E+06 1.29632E-03 3.29513E-03
 -1      2027-1.86211E-03 3.93729E-04 2.66957E-02 5.82755E+06 1.29632E-03 3.29513E-03
 -1      2028-2.20464E-03 7.20689E-04 2.45896E-02 5.99221E+06 1.10745E-03-7.83753E-06
 -1      2030-2.20464E-03 7.20689E-04 2.45896E-02 5.99221E+06 1.10745E-03-7.83753E-06
 -1      2031-2.04504E-03 8.45461E-04 1.66372E-02 2.46931E+06 1.22738E-03-6.90994E-04
 -1      2033-2.04504E-03 8.45461E-04 1.66372E-02 2.46931E+06 1.22738E-03-6.90994E-04
 -1      2034 1.60265E-02-2.56195E-05 8.79593E-03 1.08577E+07-2.73554E+06-5.06801E-02
 -1      2036 1.60265E-02-2.56195E-05 8.79593E-03 1.08577E+07-2.73554E+06-5.06801E-02
 -1      2037 1.10460E-02-5.63663E-05 3.52235E-03 3.61226E+06-6.92679E+06-5.56282E-02
 -1      2039 1.10460E-02-5.63663E-05 3.52235E-03 3.61226E+06-6.92679E+06-5.56282E-02
 -1      2040 4.58709E-03 1.61180E-04-4.45783E-03 4.69076E+06-1.02067E+07-5.49212E-02
 -1      2042 4.58709E-03 1.61180E-04-4.45783E-03 4.69076E+06-1.02067E+07-5.49212E-02
 -1      2043-3.34235E-03 2.69606E-04-1.20792E-02 4.52461E+06-1.35067E+07-5.15311E-02
 -1      2045-3.34235E-03 2.69606E-04-1.20792E-02 4.52461E+06-1.35067E+07-5.15311E-02
 -1      2046-1.00133E-02 3.80393E-04-1.82895E-02 3.79052E+06-1.62555E+07-4.78550E-02
 -1      2048-1.00133E-02 3.80393E-04-1.82895E-02 3.79052E+06-1.62555E+07-4.78550E-02
 -1      2049-1.52971E-02 2.99088E-04-1.86003E-02 2.92245E+06-1.82994E+07-4.00416E-02
 -1      2051-1.52971E-02 2.99088E-04-1.86003E-02 2.92245E+06-1.82994E+07-4.00416E-02
 -1      2052-1.83529E-02 1.53185E-04-9.34724E-03 2.35498E+06-1.95120E+07-2.93659E-02
 -1      2054-1.83529E-02 1.53185E-04-9.34724E-03 2.35498E+06-1.95120E+07-2.93659E-02
 -1      2055-1.90106E-02 1.97233E-04 6.27709E-04 9.71585E+05-1.96560E+07-2.64923E-02
 -1      2057-1.90106E-02 1.97233E-04 6.27709E-04 9.71585E+05-1.96560E+07-2.64923E-02
 -1      2058-2.01248E-02 8.23153E-04-8.34616E-04 3.03595E+05-1.87506E+07-2.87006E-02
 -1      2060-2.01248E-02 8.23153E-04-8.34616E-04 3.03595E+05-1.87506E+07-2.87006E-02
 -1      2061-2.06978E-02 7.58979E-04-6.53732E-03-1.02308E+06-1.66789E+07-2.54190E-02
 -1      2063-2.06978E-02 7.58979E-04-6.53732E-03-1.02308E+06-1.66789E+07-2.54190E-02
 -1      2064-1.93363E-02 4.09785E-05-2.59833E-03-1.72308E+06-1.35940E+07-1.60453E-02
 -1      2066-1.93363E-02 4.09785E-05-2.59833E-03-1.72308E+06-1.35940E+07-1.60453E-02
 -1      2067-2.01702E-02-9.30017E-05 9.52402E-03-2.70033E+06-9.54328E+06-6.81768E-03
 -1      2069-2.01702E-02-9.30017E-05 9.52402E-03-2.70033E+06-9.54328E+06-6.81768E-03
 -1      2070-2.33821E-02 7.56147E-05 1.99439E-02-3.18445E+06-4.79681E+06-1.49064E-03
 -1      2072-2.33821E-02 7.56147E-05 1.99439E-02-3.18445E+06-4.79681E+06-1.49064E-03
 -1      2073-2.50242E-02-3.78259E-05 2.28787E-02-3.66094E+06 4.56410E+05 4.00172E-03
 -1      2075-2.50242E-02-3.78259E-05 2.28787E-02-3.66094E+06 4.56410E+05 4.00172E-03
 -1      2076-2.39785E-02-5.25811E-04 2.21481E-02-3.73399E+06 5.87622E+06 1.19444E-02
 -1      2078-2.39785E-02-5.25811E-04 2.21481E-02-3.73399E+06 5.87622E+06 1.19444E-02
 -1      2079-2.09178E-02-1.33461E-04 2.32318E-02-3.66083E+06 1.12009E+07 1.55874E-02
 -1      2081-2.09178E-02-1.33461E-04 2.32318E-02-3.66083E+06 1.12009E+07 1.55874E-02
 -1      2082-1.58021E-02 5.91142E-04 2.09589E-02-3.26752E+06 1.60887E+07 1.28026E-02
 -1      2084-1.58021E-02 5.91142E-04 2.09589E-02-3.26752E+06 1.60887E+07 1.28026E-02
 -1      2085-8.31320E-03 5.52161E-04 1.11640E-02-2.71152E+06 2.02966E+07 1.03588E-02
 -1      2087-8.31320E-03 5.52161E-04 1.11640E-02-2.71152E+06 2.02966E+07 1.03588E-02
 -1      2088-3.36514E-03 2.41399E-04 5.94885E-04-1.94666E+06 2.35546E+07 1.16124E-02
 -1      2090-3.36514E-03 2.41399E-04 5.94885E-04-1.94666E+06 2.35546E+07 1.16124E-02
 -1      2091-3.84277E-03-3.80304E-05-6.62017E-03-1.08536E+06 2.57269E+07 1.51351E-02
 -1      2093-3.84277E-03-3.80304E-05-6.62017E-03-1.08536E+06 2.57269E+07 1.51351E-02
 -1      2094-4.83169E-03-6.10493E-05-8.81661E-03-1.65260E+05 2.66736E+07 2.01896E-02
 -1      2096-4.83169E-03-6.10493E-05-8.81661E-03-1.65260E+05 2.66736E+07 2.01896E-02
 -1      2097-5.66242E-03 6.73809E-05 1.76810E-03 7.55661E+05 2.64310E+07 2.56614E-02
 -1      2099-5.66242E-03 6.73809E-05 1.76810E-03 7.55661E+05 2.64310E+07 2.56614E-02
 -1      2100-8.05212E-03-1.73212E-04 1.95984E-02 1.53939E+06 2.50175E+07 2.22169E-02
 -1      2102-8.05212E-03-1.73212E-04 1.95984E-02 1.53939E+06 2.50175E+07 2.22169E-02
 -1      2103-8.06807E-03-2.95689E-04 2.57730E-02 2.28394E+06 2.26653E+07 8.70047E-03
 -1      2105-8.06807E-03-2.95689E-04 2.57730E-02 2.28394E+06 2.26653E+07 8.70047E-03
 -1      2106-4.05456E-03-9.75094E-05 1.94281E-02 2.60389E+06 1.95478E+07 9.51249E-04
 -1      2108-4.05456E-03-9.75094E-05 1.94281E-02 2.60389E+06 1.95478E+07 9.51249E-04
 -1      2109 3.65886E-04 2.39189E-04 1.63170E-02 3.05058E+06 1.60626E+07 3.76289E-03
 -1      2111 3.65886E-04 2.39189E-04 1.63170E-02 3.05058E+06 1.60626E+07 3.76289E-03
 -1      2112 3.08755E-03-2.94989E-04 1.97514E-02 2.54548E+06 1.25255E+07 4.13503E-03
 -1      2114 3.08755E-03-2.94989E-04 1.97514E-02 2.54548E+06 1.25255E+07 4.13503E-03
 -1      2115 2.77755E-03-1.91555E-04 1.94032E-02 2.82647E+06 9.38132E+06-1.29450E-03
 -1      2117 2.77755E-03-1.91555E-04 1.94032E-02 2.82647E+06 9.38132E+06-1.29450E-03
 -1      2118 4.48269E-04 3.04889E-05 1.13884E-02 9.55424E+05 7.12173E+06-2.58518E-03
 -1      2120 4.48269E-04 3.04889E-05 1.13884E-02 9.55424E+05 7.12173E+06-2.58518E-03
 -1      2121 5.97698E+09 1.79936E+08 2.93699E+05 1.24046E+09 6.75234E+05 2.77955E+06
 -1      2123 5.97698E+09 1.79936E+08 2.93699E+05 1.24046E+09 6.75234E+05 2.77955E+06
 -1      2124 3.91318E+09-8.57566E+07-2.88266E+05 1.21565E+09-4.13228E+06-2.57006E+06
 -1      2126 3.91318E+09-8.57566E+07-2.88266E+05 1.21565E+09-4.13228E+06-2.57006E+06
 -1      2127 1.87649E+09 4.70727E+07 1.28747E+05 1.15310E+09-5.66788E+06-8.24164E+03
 -1      2129 1.87649E+09 4.70727E+07 1.28747E+05 1.15310E+09-5.66788E+06-8.24164E+03
 -1      2130 1.59050E+07-4.12354E+06 9.55401E+04 1.05242E+09-7.97082E+06-1.12521E+06
 -1      2132 1.59050E+07-4.12354E+06 9.55401E+04 1.05242E+09-7.97082E+06-1.12521E+06
 -1      2133-1.66419E+09 1.98684E+07-1.47473E+05 9.11163E+08-1.01132E+07-5.22762E+05
 -1      2135-1.66419E+09 1.98684E+07-1.47473E+05 9.11163E+08-1.01132E+07-5.22762E+05
 -1      2136-3.05837E+09 1.70576E+07 2.02418E+05 7.31773E+08-1.19059E+07-6.02493E+05
 -1      2138-3.05837E+09 1.70576E+07 2.02418E+05 7.31773E+08-1.19059E+07-6.02493E+05
 -1      2139-4.12710E+09 2.02831E+07-1.44884E+05 5.20800E+08-1.36468E+07-3.51470E+05
 -1      2141-4.12710E+09 2.02831E+07-1.44884E+05 5.20800E+08-1.36468E+07-3.51470E+05
 -1      2142-4.81558E+09 2.16343E+07 1.33319E+05 2.89193E+08-1.48325E+07-1.81310E+05
 -1      2144-4.81558E+09 2.16343E+07 1.33319E+05 2.89193E+08-1.48325E+07-1.81310E+05
 -1      2145-5.10304E+09 2.08762E+07-6.47901E+04 4.83694E+07-1.58075E+07 3.21693E+04
 -1      2147-5.10304E+09 2.08762E+07-6.47901E+04 4.83694E+07-1.58075E+07 3.21693E+04
 -1      2148-4.98385E+09 1.92805E+07 4.42655E+04-1.86908E+08-1.62157E+07 2.45075E+05
 -1      2150-4.98385E+09 1.92805E+07 4.42655E+04-1.86908E+08-1.62157E+07 2.45075E+05
 -1      2151-4.47979E+09 1.60081E+07-3.96271E+03-4.03575E+08-1.63437E+07 4.32304E+05
 -1      2153-4.47979E+09 1.60081E+07-3.96271E+03-4.03575E+08-1.63437E+07 4.32304E+05
 -1      2154-3.63352E+09 1.14760E+07-1.92199E+04-5.87913E+08-1.60082E+07 6.01721E+05
 -1      2156-3.63352E+09 1.14760E+07-1.92199E+04-5.87913E+08-1.60082E+07 6.01721E+05
 -1      2157-2.50974E+09 6.05639E+06 2.27537E+04-7.29278E+08-1.54534E+07 7.18795E+05
 -1      2159-2.50974E+09 6.05639E+06 2.27537E+04-7.29278E+08-1.54534E+07 7.18795E+05
 -1      2160-1.18891E+09-2.31269E+05-5.72986E+04-8.18871E+08-1.46276E+07 7.93634E+05
 -1      2162-1.18891E+09-2.31269E+05-5.72986E+04-8.18871E+08-1.46276E+07 7.93634E+05
 -1      2163 2.36292E+08-6.66296E+06 2.52832E+04-8.51902E+08-1.37447E+07 8.04959E+05
 -1      2165 2.36292E+08-6.66296E+06 2.52832E+04-8.51902E+08-1.37447E+07 8.04959E+05
 -1      2166 1.66828E+09-1.31623E+07-7.82222E+04-8.26911E+08-1.28314E+07 7.62884E+05
 -1      2168 1.66828E+09-1.31623E+07-7.82222E+04-8.26911E+08-1.28314E+07 7.62884E+05
 -1      2169 3.01027E+09-1.90318E+07 1.59183E+04-7.46689E+08-1.20663E+07 6.60700E+05
 -1      2171 3.01027E+09-1.90318E+07 1.59183E+04-7.46689E+08-1.20663E+07 6.60700E+05
 -1      2172 4.17353E+09-2.41458E+07-8.78887E+04-6.17613E+08-1.15025E+07 5.11251E+05
 -1      2174 4.17353E+09-2.41458E+07-8.78887E+04-6.17613E+08-1.15025E+07 5.11251E+05
 -1      2175 5.08310E+09-2.79492E+07 3.87594E+03-4.49651E+08-1.12686E+07 3.19786E+05
 -1      2177 5.08310E+09-2.79492E+07 3.87594E+03-4.49651E+08-1.12686E+07 3.19786E+05
 -1      2178 5.68345E+09-3.04011E+07-8.90004E+04-2.55507E+08-1.14012E+07 1.02187E+05
 -1      2180 5.68345E+09-3.04011E+07-8.90004E+04-2.55507E+08-1.14012E+07 1.02187E+05
 -1      2181 5.94246E+09-3.11198E+07-5.37257E+03-5.00014E+07-1.19638E+07-1.27612E+05
 -1      2183 5.94246E+09-3.11198E+07-5.37257E+03-5.00014E+07-1.19638E+07-1.27612E+05
 -1      2184 5.85429E+09-3.02639E+07-8.20525E+04 1.50899E+08-1.29475E+07-3.53577E+05
 -1      2186 5.85429E+09-3.02639E+07-8.20525E+04 1.50899E+08-1.29475E+07-3.53577E+05
 -1      2187 5.44045E+09-2.76434E+07-1.00271E+04 3.31082E+08-1.43449E+07-5.55112E+05
 -1      2189 5.44045E+09-2.76434E+07-1.00271E+04 3.31082E+08-1.43449E+07-5.55112E+05
 -1      2190 4.74937E+09-2.35372E+07-6.60750E+04 4.75007E+08-1.60877E+07-7.22650E+05
 -1      2192 4.74937E+09-2.35372E+07-6.60750E+04 4.75007E+08-1.60877E+07-7.22650E+05
 -1      2193 3.85443E+09-1.82657E+07-1.10243E+04 5.69060E+08-1.81046E+07-8.24836E+05
 -1      2195 3.85443E+09-1.82657E+07-1.10243E+04 5.69060E+08-1.81046E+07-8.24836E+05
 -1      2196 2.85071E+09-1.13582E+07-4.14221E+04 6.01232E+08-2.02677E+07-8.74865E+05
 -1      2198 2.85071E+09-1.13582E+07-4.14221E+04 6.01232E+08-2.02677E+07-8.74865E+05
 -1      2199 1.85017E+09-5.05142E+06-3.67628E+03 5.63390E+08-2.24514E+07-8.01955E+05
 -1      2201 1.85017E+09-5.05142E+06-3.67628E+03 5.63390E+08-2.24514E+07-8.01955E+05
 -1      2202 9.79553E+08 3.70892E+06-2.80130E+04 4.48313E+08-2.44640E+07-7.01842E+05
 -1      2204 9.79553E+08 3.70892E+06-2.80130E+04 4.48313E+08-2.44640E+07-7.01842E+05
 -1      2205 3.65929E+08 1.16510E+07 6.14444E+04 2.54853E+08-2.60392E+07-3.28713E+05
 -1      2207 3.65929E+08 1.16510E+07 6.14444E+04 2.54853E+08-2.60392E+07-3.28713E+05
 -1      2208-5.97698E+09-1.79936E+08-2.93699E+05 1.24046E+09 6.75234E+05-2.77955E+06
 -1      2210-5.97698E+09-1.79936E+08-2.93699E+05 1.24046E+09 6.75234E+05-2.77955E+06
 -1      2211-3.91318E+09 8.57566E+07 2.88266E+05 1.21565E+09-4.13228E+06 2.57006E+06
 -1      2213-3.91318E+09 8.57566E+07 2.88266E+05 1.21565E+09-4.13228E+06 2.57006E+06
 -1      2214-1.87649E+09-4.70727E+07-1.28747E+05 1.15310E+09-5.66788E+06 8.24164E+03
 -1      2216-1.87649E+09-4.70727E+07-1.28747E+05 1.15310E+09-5.66788E+06 8.24164E+03
 -1      2217-1.59050E+07 4.12354E+06-9.55401E+04 1.05242E+09-7.97082E+06 1.12521E+06
 -1      2219-1.59050E+07 4.12354E+06-9.55401E+04 1.05242E+09-7.97082E+06 1.12521E+06
 -1      2220 1.66419E+09-1.98684E+07 1.47473E+05 9.11163E+08-1.01132E+07 5.22762E+05
 -1      2222 1.66419E+09-1.98684E+07 1.47473E+05 9.11163E+08-1.01132E+07 5.22762E+05
 -1      2223 3.05837E+09-1.70576E+07-2.02418E+05 7.31773E+08-1.19059E+07 6.02493E+05
 -1      2225 3.05837E+09-1.70576E+07-2.02418E+05 7.31773E+08-1.19059E+07 6.02493E+05
 -1      2226 4.12710E+09-2.02831E+07 1.44884E+05 5.20800E+08-1.36468E+07 3.51470E+05
 -1      2228 4.12710E+09-2.02831E+07 1.44884E+05 5.20800E+08-1.36468E+07 3.51470E+05
 -1      2229 4.81558E+09-2.16343E+07-1.33319E+05 2.89193E+08-1.48325E+07 1.81310E+05
 -1      2231 4.81558E+09-2.16343E+07-1.33319E+05 2.89193E+08-1.48325E+07 1.81310E+05
 -1      2232 5.10304E+09-2.08762E+07 6.47901E+04 4.83694E+07-1.58075E+07-3.21693E+04
 -1      2234 5.10304E+09-2.08762E+07 6.47901E+04 4.83694E+07-1.58075E+07-3.21693E+04
 -1      2235 4.98385E+09-1.92805E+07-4.42655E+04-1.86908E+08-1.62157E+07-2.45075E+05
 -1      2237 4.98385E+09-1.92805E+07-4.42655E+04-1.86908E+08-1.62157E+07-2.45075E+05
 -1      2238 4.47979E+09-1.60081E+07 3.96271E+03-4.03575E+08-1.63437E+07-4.32304E+05
 -1      2240 4.47979E+09-1.60081E+07 3.96271E+03-4.03575E+08-1.63437E+07-4.32304E+05
 -1      2241 3.63352E+09-1.14760E+07 1.92199E+04-5.87913E+08-1.60082E+07-6.01721E+05
 -1      2243 3.63352E+09-1.14760E+07 1.92199E+04-5.87913E+08-1.60082E+07-6.01721E+05
 -1      2244 2.50974E+09-6.05639E+06-2.27537E+04-7.29278E+08-1.54534E+07-7.18795E+05
 -1      2246 2.50974E+09-6.05639E+06-2.27537E+04-7.29278E+08-1.54534E+07-7.18795E+05
 -1      2247 1.18891E+09 2.31269E+05 5.72986E+04-8.18871E+08-1.46276E+07-7.93634E+05
 -1      2249 1.18891E+09 2.31269E+05 5.72986E+04-8.18871E+08-1.46276E+07-7.93634E+05
 -1      2250-2.36292E+08 6.66296E+06-2.52832E+04-8.51902E+08-1.37447E+07-8.04959E+05
 -1      2252-2.36292E+08 6.66296E+06-2.52832E+04-8.51902E+08-1.37447E+07-8.04959E+05
 -1      2253-1.66828E+09 1.31623E+07 7.82222E+04-8.26911E+08-1.28314E+07-7.62884E+05
 -1      2255-1.66828E+09 1.31623E+07 7.82222E+04-8.26911E+08-1.28314E+07-7.62884E+05
 -1      2256-3.01027E+09 1.90318E+07-1.59183E+04-7.46689E+08-1.20663E+07-6.60700E+05
 -1      2258-3.01027E+09 1.90318E+07-1.59183E+04-7.46689E+08-1.20663E+07-6.60700E+05
 -1      2259-4.17353E+09 2.41458E+07 8.78887E+04-6.17613E+08-1.15025E+07-5.11251E+05
 -1      2261-4.17353E+09 2.41458E+07 8.78887E+04-6.17613E+08-1.15025E+07-5.11251E+05
 -1      2262-5.08310E+09 2.79492E+07-3.87594E+03-4.49651E+08-1.12686E+07-3.19786E+05
 -1      2264-5.08310E+09 2.79492E+07-3.87594E+03-4.49651E+08-1.12686E+07-3.19786E+05
 -1      2265-5.68345E+09 3.04011E+07 8.90004E+04-2.55507E+08-1.14012E+07-1.02187E+05
 -1      2267-5.68345E+09 3.04011E+07 8.90004E+04-2.55507E+08-1.14012E+07-1.02187E+05
 -1      2268-5.94246E+09 3.11198E+07 5.37257E+03-5.00014E+07-1.19638E+07 1.27612E+05
 -1      2270-5.94246E+09 3.11198E+07 5.37257E+03-5.00014E+07-1.19638E+07 1.27612E+05
 -1      2271-5.85429E+09 3.02639E+07 8.20525E+04 1.50899E+08-1.29475E+07 3.53577E+05
 -1      2273-5.85429E+09 3.02639E+07 8.20525E+04 1.50899E+08-1.29475E+07 3.53577E+05
 -1      2274-5.44045E+09 2.76434E+07 1.00271E+04 3.31082E+08-1.43449E+07 5.55112E+05
 -1      2276-5.44045E+09 2.76434E+07 1.00271E+04 3.31082E+08-1.43449E+07 5.55112E+05
 -1      2277-4.74937E+09 2.35372E+07 6.60750E+04 4.75007E+08-1.60877E+07 7.22650E+05
 -1      2279-4.74937E+09 2.35372E+07 6.60750E+04 4.75007E+08-1.60877E+07 7.22650E+05
 -1      2280-3.85443E+09 1.82657E+07 1.10243E+04 5.69060E+08-1.81046E+07 8.24836E+05
 -1      2282-3.85443E+09 1.82657E+07 1.10243E+04 5.69060E+08-1.81046E+07 8.24836E+05
 -1      2283-2.85071E+09 1.13582E+07 4.14221E+04 6.01232E+08-2.02677E+07 8.74865E+05
 -1      2285-2.85071E+09 1.13582E+07 4.14221E+04 6.01232E+08-2.02677E+07 8.74865E+05
 -1      2286-1.85017E+09 5.05142E+06 3.67628E+03 5.63390E+08-2.24514E+07 8.01955E+05
 -1      2288-1.85017E+09 5.05142E+06 3.67628E+03 5.63390E+08-2.24514E+07 8.01955E+05
 -1      2289-9.79553E+08-3.70892E+06 2.80130E+04 4.48313E+08-2.44640E+07 7.01842E+05
 -1      2291-9.79553E+08-3.70892E+06 2.80130E+04 4.48313E+08-2.44640E+07 7.01842E+05
 -1      2292-3.65929E+08-1.16510E+07-6.14444E+04 2.54853E+08-2.60392E+07 3.28713E+05
 -1      2294-3.65929E+08-1.16510E+07-6.14444E+04 2.54853E+08-2.60392E+07 3.28713E+05
 -3
    1PSTEP                        23           1           1          
    1PGM                1.000000E+00                                  
    1PGK                1.808098E+06                                  
    1PHID                         -1                                  
    1PSUBC                         0                                  
    1PMODE                         6                                  
  100CL  106 214.0085524         930                     2    6MODAL      1
 -4  FORC        4    1
 -5  F1          1    2    1    0
 -5  F2          1    2    2    0
 -5  F3          1    2    3    0
 -5  ALL         1    2    0    0    1ALL
 -1       404 2.09046E+06-5.28170E+05-3.78679E+04
 -1       406 2.18886E+06-5.07301E+05-3.78679E+04
 -1       407-2.41257E+03 1.41323E+04 5.46058E+03
 -1       409-2.41257E+03 1.41323E+04 5.46058E+03
 -1       410-2.25768E-06-1.55234E+05 3.62896E-06
 -1       412-2.51967E-06 3.24708E+05-1.09675E-07
 -1       413-9.74808E-07-4.02798E+04-3.76699E+05
 -1       415-7.47169E-07-4.02798E+04 3.76699E+05
 -1       424 2.03828E-05-1.17219E+05-1.18967E-06
 -1       426 4.43835E-06-1.37209E+05-8.08547E-07
 -1       427-1.60742E+05-2.03004E+04 2.10585E+04
 -1       429 1.60742E+05-2.03004E+04-2.10585E+04
 -1       438 2.41257E+03 1.41323E+04-5.46058E+03
 -1       440 2.41257E+03 1.41323E+04-5.46058E+03
 -1       441-2.09046E+06-5.28170E+05 3.78679E+04
 -1       443-2.18886E+06-5.07301E+05 3.78679E+04
 -1       444-1.60742E+05-2.03004E+04-2.10585E+04
 -1       446 1.60742E+05-2.03004E+04 2.10585E+04
 -1       447-1.56716E-05-1.17219E+05-8.38618E-07
 -1       449-6.49766E-06-1.37209E+05-4.15052E-07
 -1       458-4.84590E-07-4.02798E+04 3.76699E+05
 -1       460-4.00445E-07-4.02798E+04-3.76699E+05
 -1       461 2.75070E-06-1.55234E+05 8.87681E-07
 -1       463 2.68650E-06 3.24708E+05 1.84836E-06
 -1       472-2.09046E+06-5.28170E+05-3.78679E+04
 -1       474-2.18886E+06-5.07301E+05-3.78679E+04
 -1       475 2.41257E+03 1.41323E+04 5.46058E+03
 -1       477 2.41257E+03 1.41323E+04 5.46058E+03
 -1       478-2.41257E+03 1.41323E+04-5.46058E+03
 -1       480-2.41257E+03 1.41323E+04-5.46058E+03
 -1       481 2.09046E+06-5.28170E+05 3.78679E+04
 -1       483 2.18886E+06-5.07301E+05 3.78679E+04
 -1       484-9.88781E+02 1.52989E+03 2.10697E+02
 -1       486-9.88781E+02 1.52989E+03 2.10697E+02
 -1       487-1.74773E+03 3.91428E+03 4.54751E+02
 -1       489-1.74773E+03 3.91428E+03 4.54751E+02
 -1       490-2.19306E+03 7.16769E+03 7.15809E+02
 -1       492-2.19306E+03 7.16769E+03 7.15809E+02
 -1       493-2.33729E+03 1.08389E+04 9.97013E+02
 -1       495-2.33729E+03 1.08389E+04 9.97013E+02
 -1       496-2.20827E+03 1.44853E+04 1.31129E+03
 -1       498-2.20827E+03 1.44853E+04 1.31129E+03
 -1       499-1.84219E+03 1.77197E+04 1.66461E+03
 -1       501-1.84219E+03 1.77197E+04 1.66461E+03
 -1       502-1.28594E+03 2.02153E+04 2.06430E+03
 -1       504-1.28594E+03 2.02153E+04 2.06430E+03
 -1       505-5.94191E+02 2.17233E+04 2.51395E+03
 -1       507-5.94191E+02 2.17233E+04 2.51395E+03
 -1       508 1.72826E+02 2.20836E+04 3.01512E+03
 -1       510 1.72826E+02 2.20836E+04 3.01512E+03
 -1       511 9.52688E+02 2.12302E+04 3.56592E+03
 -1       513 9.52688E+02 2.12302E+04 3.56592E+03
 -1       514 1.68426E+03 1.91929E+04 4.16142E+03
 -1       516 1.68426E+03 1.91929E+04 4.16142E+03
 -1       517 2.31137E+03 1.60921E+04 4.79353E+03
 -1       519 2.31137E+03 1.60921E+04 4.79353E+03
 -1       520 2.78615E+03 1.21287E+04 5.45148E+03
 -1       522 2.78615E+03 1.21287E+04 5.45148E+03
 -1       523 3.07194E+03 7.56907E+03 6.12230E+03
 -1       525 3.07194E+03 7.56907E+03 6.12230E+03
 -1       526 3.14545E+03 2.72581E+03 6.79156E+03
 -1       528 3.14545E+03 2.72581E+03 6.79156E+03
 -1       529 2.99811E+03-2.06392E+03 7.44422E+03
 -1       531 2.99811E+03-2.06392E+03 7.44422E+03
 -1       532 2.63637E+03-6.46159E+03 8.06551E+03
 -1       534 2.63637E+03-6.46159E+03 8.06551E+03
 -1       535 2.08102E+03-1.01501E+04 8.64180E+03
 -1       537 2.08102E+03-1.01501E+04 8.64180E+03
 -1       538 1.36548E+03-1.28550E+04 9.16145E+03
 -1       540 1.36548E+03-1.28550E+04 9.16145E+03
 -1       541 5.33295E+02-1.43619E+04 9.61553E+03
 -1       543 5.33295E+02-1.43619E+04 9.61553E+03
 -1       544-3.65239E+02-1.45299E+04 9.99832E+03
 -1       546-3.65239E+02-1.45299E+04 9.99832E+03
 -1       547-1.27688E+03-1.32993E+04 1.03077E+04
 -1       549-1.27688E+03-1.32993E+04 1.03077E+04
 -1       550-2.14957E+03-1.06926E+04 1.05451E+04
 -1       552-2.14957E+03-1.06926E+04 1.05451E+04
 -1       553-2.93669E+03-6.81040E+03 1.07156E+04
 -1       555-2.93669E+03-6.81040E+03 1.07156E+04
 -1       556-3.60098E+03-1.81922E+03 1.08274E+04
 -1       558-3.60098E+03-1.81922E+03 1.08274E+04
 -1       559-4.11819E+03 4.06505E+03 1.08913E+04
 -1       561-4.11819E+03 4.06505E+03 1.08913E+04
 -1       562-4.48010E+03 1.05997E+04 1.09197E+04
 -1       564-4.48010E+03 1.05997E+04 1.09197E+04
 -1       565-4.69676E+03 1.75410E+04 1.09262E+04
 -1       567-4.69676E+03 1.75410E+04 1.09262E+04
 -1       568-4.79819E+03 2.46741E+04 1.09234E+04
 -1       570-4.79819E+03 2.46741E+04 1.09234E+04
 -1       571-3.21566E+03 2.82639E+04 7.21599E+03
 -1       573-3.21566E+03 2.82639E+04 7.21599E+03
 -1       574-2.03119E-05-1.56189E+04-1.40445E-06
 -1       576-2.02872E-05 1.68111E+03-1.47415E-06
 -1       577 1.87769E-05 1.18961E+04-1.35785E+04
 -1       579 1.87801E-05 1.18961E+04 1.35785E+04
 -1       588-1.82963E-05-3.47988E+04 7.68750E-06
 -1       590-1.83344E-05 1.04533E+05 7.36523E-06
 -1       591 2.04708E-05-2.17566E+04-1.09360E+05
 -1       593 2.05034E-05-2.17566E+04 1.09360E+05
 -1       602-1.60295E-05-6.09149E+04 1.19908E-06
 -1       604-1.61497E-05 1.62536E+05 1.09774E-06
 -1       605 1.96737E-05-2.64894E+04-1.75383E+05
 -1       607 1.95538E-05-2.64894E+04 1.75383E+05
 -1       616-1.86517E-05-6.56758E+04-3.81803E-06
 -1       618-1.87448E-05 2.37374E+05-2.66738E-06
 -1       619 1.78236E-05-4.89600E+04-2.37859E+05
 -1       621 1.77566E-05-4.89600E+04 2.37859E+05
 -1       630-1.97503E-05-8.73314E+04-7.05026E-06
 -1       632-1.97329E-05 2.98141E+05-6.03676E-06
 -1       633 1.68694E-05-5.60689E+04-3.02551E+05
 -1       635 1.68971E-05-5.60689E+04 3.02551E+05
 -1       644-1.77133E-05-9.03364E+04-9.33141E-07
 -1       646-1.76989E-05 3.64632E+05-2.46523E-06
 -1       647 1.72234E-05-7.68459E+04-3.57097E+05
 -1       649 1.73242E-05-7.68459E+04 3.57097E+05
 -1       658-1.17070E-05-1.10889E+05 6.73755E-06
 -1       660-1.16473E-05 4.06297E+05 3.26652E-06
 -1       661 1.61811E-05-7.90432E+04-4.05931E+05
 -1       663 1.61185E-05-7.90432E+04 4.05931E+05
 -1       672-6.43194E-06-1.18281E+05 5.87334E-06
 -1       674-6.47959E-06 4.44720E+05 5.52321E-06
 -1       675 1.33495E-05-8.96677E+04-4.41890E+05
 -1       677 1.34487E-05-8.96677E+04 4.41890E+05
 -1       686-6.49890E-06-1.38502E+05-7.37541E-07
 -1       688-6.60332E-06 4.56224E+05 2.92091E-06
 -1       689 1.09084E-05-8.44412E+04-4.66791E+05
 -1       691 1.11831E-05-8.44412E+04 4.66791E+05
 -1       700-9.03873E-06-1.51571E+05 6.53725E-07
 -1       702-9.15213E-06 4.56964E+05-6.65425E-07
 -1       703 9.85660E-06-8.16552E+04-4.77629E+05
 -1       705 9.96002E-06-8.16552E+04 4.77629E+05
 -1       714-8.23648E-06-1.72563E+05 4.38541E-06
 -1       716-8.32102E-06 4.34564E+05 3.75306E-06
 -1       717 8.34193E-06-6.74761E+04-4.76524E+05
 -1       719 8.41487E-06-6.74761E+04 4.76524E+05
 -1       728-4.68040E-06-1.90197E+05 6.96443E-06
 -1       730-4.69594E-06 4.00206E+05 7.87774E-06
 -1       731 4.58060E-06-5.27114E+04-4.63398E+05
 -1       733 4.61706E-06-5.27114E+04 4.63398E+05
 -1       742-1.98006E-06-2.12173E+05 7.15925E-06
 -1       744-2.15651E-06 3.50202E+05 6.48552E-06
 -1       745-2.82737E-07-3.09627E+04-4.41399E+05
 -1       747-3.34648E-07-3.09627E+04 4.41399E+05
 -1       756 2.19840E-06-2.32397E+05 7.96820E-06
 -1       758 2.13556E-06 2.93209E+05 5.88098E-06
 -1       759-4.16748E-06-8.67005E+03-4.12540E+05
 -1       761-4.10937E-06-8.67005E+03 4.12540E+05
 -1       770 6.17235E-06-2.54464E+05 7.29312E-06
 -1       772 6.02613E-06 2.30592E+05 5.55639E-06
 -1       773-6.13973E-06 1.63746E+04-3.80713E+05
 -1       775-6.44237E-06 1.63746E+04 3.80713E+05
 -1       784 6.52842E-06-2.75034E+05 3.79542E-06
 -1       786 6.58821E-06 1.69621E+05 5.85548E-06
 -1       787-8.96634E-06 4.00455E+04-3.49002E+05
 -1       789-9.23594E-06 4.00455E+04 3.49002E+05
 -1       798 6.61095E-06-2.95634E+05 5.23776E-06
 -1       800 6.92202E-06 1.13739E+05 1.68273E-06
 -1       801-8.86745E-06 6.25703E+04-3.21310E+05
 -1       803-8.98633E-06 6.25703E+04 3.21310E+05
 -1       812 1.03348E-05-3.14361E+05 1.80882E-06
 -1       814 1.03254E-05 6.86905E+04 7.06168E-07
 -1       815-5.62037E-06 8.12329E+04-3.00651E+05
 -1       817-5.13658E-06 8.12329E+04 3.00651E+05
 -1       826 1.09961E-05-3.31806E+05 2.61193E-06
 -1       828 1.09558E-05 3.77656E+04 3.00442E-06
 -1       829-2.86097E-06 9.56434E+04-2.90071E+05
 -1       831-3.31056E-06 9.56434E+04 2.90071E+05
 -1       840 1.04550E-05-3.46824E+05 5.51137E-06
 -1       842 1.03782E-05 2.45350E+04 4.55308E-06
 -1       843-4.02858E-06 1.04193E+05-2.91473E+05
 -1       845-4.11271E-06 1.04193E+05 2.91473E+05
 -1       854 9.77005E-06-3.59704E+05 3.77593E-06
 -1       856 9.88101E-06 3.05957E+04-1.77751E-06
 -1       857-6.02211E-06 1.06718E+05-3.06340E+05
 -1       859-5.87738E-06 1.06718E+05 3.06340E+05
 -1       868 8.50977E-06-3.69565E+05-2.69734E-06
 -1       870 8.33335E-06 5.69161E+04-1.62493E-06
 -1       871-6.17839E-06 1.02501E+05-3.34738E+05
 -1       873-6.26181E-06 1.02501E+05 3.34738E+05
 -1       882 6.58287E-06-3.76935E+05 7.15855E-07
 -1       884 6.62734E-06 1.02434E+05 1.18528E-07
 -1       885-5.34439E-06 9.22538E+04-3.76249E+05
 -1       887-5.29019E-06 9.22538E+04 3.76249E+05
 -1       896 2.41968E-06-3.80348E+05 4.41942E-06
 -1       898 2.39883E-06 1.65981E+05-9.85621E-07
 -1       899-4.89436E-06 7.54723E+04-4.28805E+05
 -1       901-4.92629E-06 7.54723E+04 4.28805E+05
 -1       910-5.98905E-07-3.81612E+05 5.29943E-06
 -1       912-6.80085E-07 2.42918E+05-1.27616E-06
 -1       913-2.74484E-06 5.47918E+04-4.90183E+05
 -1       915-2.98116E-06 5.47918E+04 4.90183E+05
 -1       924-7.59485E-07-3.76511E+05 5.81448E-06
 -1       926-6.44360E-07 3.32277E+05 3.95862E-06
 -1       927-7.05774E-07 2.78243E+04-5.56316E+05
 -1       929-7.46050E-07 2.78243E+04 5.56316E+05
 -1       938-2.03622E-07-3.70855E+05 7.97113E-06
 -1       940 2.60123E-07 4.23287E+05 6.89678E-06
 -1       941-3.82197E-07 2.00048E+03-6.23309E+05
 -1       943-4.73095E-07 2.00048E+03 6.23309E+05
 -1       952-4.07886E-07-3.51889E+05 6.87056E-06
 -1       954-5.09172E-07 5.21200E+05 5.30278E-06
 -1       955 4.12888E-07-3.25506E+04-6.85273E+05
 -1       957 2.55523E-07-3.25506E+04 6.85273E+05
 -1       966-2.28992E-06-3.35038E+05 7.13528E-06
 -1       968-2.57385E-06 5.99434E+05-5.94639E-07
 -1       969-9.82528E-07-5.55968E+04-7.33451E+05
 -1       971-9.23989E-07-5.55968E+04 7.33451E+05
 -1       980 2.12367E+06-1.78191E+05 7.44048E+03
 -1       982 2.20327E+06-1.67318E+05 7.44048E+03
 -1       983 3.21566E+03 2.82639E+04-7.21599E+03
 -1       985 3.21566E+03 2.82639E+04-7.21599E+03
 -1       986 9.88781E+02 1.52989E+03-2.10697E+02
 -1       988 9.88781E+02 1.52989E+03-2.10697E+02
 -1       989 1.74773E+03 3.91428E+03-4.54751E+02
 -1       991 1.74773E+03 3.91428E+03-4.54751E+02
 -1       992 2.19306E+03 7.16769E+03-7.15809E+02
 -1       994 2.19306E+03 7.16769E+03-7.15809E+02
 -1       995 2.33729E+03 1.08389E+04-9.97013E+02
 -1       997 2.33729E+03 1.08389E+04-9.97013E+02
 -1       998 2.20827E+03 1.44853E+04-1.31129E+03
 -1      1000 2.20827E+03 1.44853E+04-1.31129E+03
 -1      1001 1.84219E+03 1.77197E+04-1.66461E+03
 -1      1003 1.84219E+03 1.77197E+04-1.66461E+03
 -1      1004 1.28594E+03 2.02153E+04-2.06430E+03
 -1      1006 1.28594E+03 2.02153E+04-2.06430E+03
 -1      1007 5.94191E+02 2.17233E+04-2.51395E+03
 -1      1009 5.94191E+02 2.17233E+04-2.51395E+03
 -1      1010-1.72826E+02 2.20836E+04-3.01512E+03
 -1      1012-1.72826E+02 2.20836E+04-3.01512E+03
 -1      1013-9.52688E+02 2.12302E+04-3.56592E+03
 -1      1015-9.52688E+02 2.12302E+04-3.56592E+03
 -1      1016-1.68426E+03 1.91929E+04-4.16142E+03
 -1      1018-1.68426E+03 1.91929E+04-4.16142E+03
 -1      1019-2.31137E+03 1.60921E+04-4.79353E+03
 -1      1021-2.31137E+03 1.60921E+04-4.79353E+03
 -1      1022-2.78615E+03 1.21287E+04-5.45148E+03
 -1      1024-2.78615E+03 1.21287E+04-5.45148E+03
 -1      1025-3.07194E+03 7.56907E+03-6.12230E+03
 -1      1027-3.07194E+03 7.56907E+03-6.12230E+03
 -1      1028-3.14545E+03 2.72581E+03-6.79156E+03
 -1      1030-3.14545E+03 2.72581E+03-6.79156E+03
 -1      1031-2.99811E+03-2.06392E+03-7.44422E+03
 -1      1033-2.99811E+03-2.06392E+03-7.44422E+03
 -1      1034-2.63637E+03-6.46159E+03-8.06551E+03
 -1      1036-2.63637E+03-6.46159E+03-8.06551E+03
 -1      1037-2.08102E+03-1.01501E+04-8.64180E+03
 -1      1039-2.08102E+03-1.01501E+04-8.64180E+03
 -1      1040-1.36548E+03-1.28550E+04-9.16145E+03
 -1      1042-1.36548E+03-1.28550E+04-9.16145E+03
 -1      1043-5.33295E+02-1.43619E+04-9.61553E+03
 -1      1045-5.33295E+02-1.43619E+04-9.61553E+03
 -1      1046 3.65239E+02-1.45299E+04-9.99832E+03
 -1      1048 3.65239E+02-1.45299E+04-9.99832E+03
 -1      1049 1.27688E+03-1.32993E+04-1.03077E+04
 -1      1051 1.27688E+03-1.32993E+04-1.03077E+04
 -1      1052 2.14957E+03-1.06926E+04-1.05451E+04
 -1      1054 2.14957E+03-1.06926E+04-1.05451E+04
 -1      1055 2.93669E+03-6.81040E+03-1.07156E+04
 -1      1057 2.93669E+03-6.81040E+03-1.07156E+04
 -1      1058 3.60098E+03-1.81922E+03-1.08274E+04
 -1      1060 3.60098E+03-1.81922E+03-1.08274E+04
 -1      1061 4.11819E+03 4.06505E+03-1.08913E+04
 -1      1063 4.11819E+03 4.06505E+03-1.08913E+04
 -1      1064 4.48010E+03 1.05997E+04-1.09197E+04
 -1      1066 4.48010E+03 1.05997E+04-1.09197E+04
 -1      1067 4.69676E+03 1.75410E+04-1.09262E+04
 -1      1069 4.69676E+03 1.75410E+04-1.09262E+04
 -1      1070 4.79819E+03 2.46741E+04-1.09234E+04
 -1      1072 4.79819E+03 2.46741E+04-1.09234E+04
 -1      1073-2.12367E+06-1.78191E+05-7.44048E+03
 -1      1075-2.20327E+06-1.67318E+05-7.44048E+03
 -1      1076-3.12416E+05 2.91793E+04-1.92897E+03
 -1      1078 3.12416E+05 2.91793E+04 1.92897E+03
 -1      1079-3.03349E+05-5.44044E+04 2.20275E-05
 -1      1081 3.03349E+05-5.44044E+04 2.17993E-05
 -1      1082-3.12416E+05 2.91793E+04 1.92897E+03
 -1      1084 3.12416E+05 2.91793E+04-1.92897E+03
 -1      1085-1.71529E-05 1.18961E+04 1.35785E+04
 -1      1087-1.71991E-05 1.18961E+04-1.35785E+04
 -1      1088 1.23698E-05-1.56189E+04-3.66817E-06
 -1      1090 1.23679E-05 1.68111E+03-3.53895E-06
 -1      1099-1.89539E-05-2.17566E+04 1.09360E+05
 -1      1101-1.90544E-05-2.17566E+04-1.09360E+05
 -1      1102 1.60592E-05-3.47988E+04 1.63392E-06
 -1      1104 1.60915E-05 1.04533E+05 1.10895E-06
 -1      1113-1.83483E-05-2.64894E+04 1.75383E+05
 -1      1115-1.84401E-05-2.64894E+04-1.75383E+05
 -1      1116 1.90825E-05-6.09149E+04-9.78922E-08
 -1      1118 1.91462E-05 1.62536E+05-3.23877E-07
 -1      1127-1.80260E-05-4.89600E+04 2.37859E+05
 -1      1129-1.81058E-05-4.89600E+04-2.37859E+05
 -1      1130 1.84348E-05-6.56758E+04 1.59196E-06
 -1      1132 1.84229E-05 2.37374E+05 1.11822E-06
 -1      1141-1.70456E-05-5.60689E+04 3.02551E+05
 -1      1143-1.70108E-05-5.60689E+04-3.02551E+05
 -1      1144 1.57082E-05-8.73314E+04 5.11491E-06
 -1      1146 1.57306E-05 2.98141E+05 4.15586E-06
 -1      1155-1.53519E-05-7.68459E+04 3.57097E+05
 -1      1157-1.52265E-05-7.68459E+04-3.57097E+05
 -1      1158 1.15118E-05-9.03364E+04 9.18958E-06
 -1      1160 1.15732E-05 3.64632E+05 6.76108E-06
 -1      1169-1.20684E-05-7.90432E+04 4.05931E+05
 -1      1171-1.20791E-05-7.90432E+04-4.05931E+05
 -1      1172 7.85574E-06-1.10889E+05 6.07564E-06
 -1      1174 7.87994E-06 4.06297E+05 4.31247E-06
 -1      1183-9.13333E-06-8.96677E+04 4.41890E+05
 -1      1185-8.91577E-06-8.96677E+04-4.41890E+05
 -1      1186 8.58514E-06-1.18281E+05 1.76925E-06
 -1      1188 8.70376E-06 4.44720E+05 2.63707E-06
 -1      1197-9.14117E-06-8.44412E+04 4.66791E+05
 -1      1199-9.07607E-06-8.44412E+04-4.66791E+05
 -1      1200 9.37025E-06-1.38502E+05 3.89895E-06
 -1      1202 9.36607E-06 4.56224E+05 3.87685E-06
 -1      1211-9.01689E-06-8.16552E+04 4.77629E+05
 -1      1213-9.17679E-06-8.16552E+04-4.77629E+05
 -1      1214 5.17158E-06-1.51571E+05 4.78930E-06
 -1      1216 5.26124E-06 4.56964E+05 5.84626E-06
 -1      1225-5.85666E-06-6.74761E+04 4.76524E+05
 -1      1227-6.06015E-06-6.74761E+04-4.76524E+05
 -1      1228 3.25483E-06-1.72563E+05 3.17511E-06
 -1      1230 3.22548E-06 4.34564E+05 2.31930E-06
 -1      1239-1.26219E-06-5.27114E+04 4.63398E+05
 -1      1241-1.40934E-06-5.27114E+04-4.63398E+05
 -1      1242 4.85885E-06-1.90197E+05-3.51869E-06
 -1      1244 4.81014E-06 4.00206E+05-1.94821E-06
 -1      1253 6.13575E-07-3.09627E+04 4.41399E+05
 -1      1255 6.55678E-07-3.09627E+04-4.41399E+05
 -1      1256 4.18033E-06-2.12173E+05-8.17052E-06
 -1      1258 3.99590E-06 3.50202E+05-5.30712E-06
 -1      1267 1.76836E-06-8.67005E+03 4.12540E+05
 -1      1269 1.70376E-06-8.67005E+03-4.12540E+05
 -1      1270-1.52329E-07-2.32397E+05-5.27788E-06
 -1      1272-4.10846E-08 2.93209E+05-5.91889E-06
 -1      1281 3.54008E-06 1.63746E+04 3.80713E+05
 -1      1283 3.46593E-06 1.63746E+04-3.80713E+05
 -1      1284-5.86867E-06-2.54464E+05-2.79219E-06
 -1      1286-5.84427E-06 2.30592E+05-7.31443E-06
 -1      1295 4.65743E-06 4.00455E+04 3.49002E+05
 -1      1297 4.80682E-06 4.00455E+04-3.49002E+05
 -1      1298-9.89466E-06-2.75034E+05-4.20952E-06
 -1      1300-9.88910E-06 1.69621E+05-7.50525E-06
 -1      1309 3.87727E-06 6.25703E+04 3.21310E+05
 -1      1311 3.82311E-06 6.25703E+04-3.21310E+05
 -1      1312-1.01550E-05-2.95634E+05-3.64299E-06
 -1      1314-1.00712E-05 1.13739E+05-6.88021E-06
 -1      1323 2.49420E-06 8.12329E+04 3.00651E+05
 -1      1325 2.32014E-06 8.12329E+04-3.00651E+05
 -1      1326-7.56930E-06-3.14361E+05-2.13613E-06
 -1      1328-7.41923E-06 6.86905E+04-4.05614E-06
 -1      1337 4.25073E-06 9.56434E+04 2.90071E+05
 -1      1339 4.34188E-06 9.56434E+04-2.90071E+05
 -1      1340-3.93210E-06-3.31806E+05-2.02163E-06
 -1      1342-4.10689E-06 3.77656E+04 3.15601E-07
 -1      1351 6.36830E-06 1.04193E+05 2.91473E+05
 -1      1353 6.35910E-06 1.04193E+05-2.91473E+05
 -1      1354-3.03710E-06-3.46824E+05-1.55758E-06
 -1      1356-3.06615E-06 2.45350E+04 1.00673E-06
 -1      1365 7.31343E-06 1.06718E+05 3.06340E+05
 -1      1367 7.21486E-06 1.06718E+05-3.06340E+05
 -1      1368-3.14454E-06-3.59704E+05 2.93374E-06
 -1      1370-3.27749E-06 3.05957E+04 5.07378E-06
 -1      1379 9.16749E-06 1.02501E+05 3.34738E+05
 -1      1381 9.09245E-06 1.02501E+05-3.34738E+05
 -1      1382-2.83669E-06-3.69565E+05 1.15486E-06
 -1      1384-2.82125E-06 5.69161E+04 2.83133E-06
 -1      1393 8.14429E-06 9.22538E+04 3.76249E+05
 -1      1395 8.34880E-06 9.22538E+04-3.76249E+05
 -1      1396-2.25943E-06-3.76935E+05-9.58749E-06
 -1      1398-2.58870E-06 1.02434E+05-9.63703E-06
 -1      1407 2.84134E-06 7.54723E+04 4.28805E+05
 -1      1409 2.80550E-06 7.54723E+04-4.28805E+05
 -1      1410-1.16577E-06-3.80348E+05-1.37443E-05
 -1      1412-1.23034E-06 1.65981E+05-1.24758E-05
 -1      1421-4.42679E-07 5.47918E+04 4.90183E+05
 -1      1423-5.14293E-07 5.47918E+04-4.90183E+05
 -1      1424-9.42943E-07-3.81612E+05-5.53983E-06
 -1      1426-2.71313E-07 2.42918E+05-5.93441E-06
 -1      1435-2.70788E-08 2.78243E+04 5.56316E+05
 -1      1437 1.35729E-07 2.78243E+04-5.56316E+05
 -1      1438-6.43454E-07-3.76511E+05-3.47155E-06
 -1      1440-6.77270E-07 3.32277E+05-4.92409E-07
 -1      1449 7.16928E-07 2.00048E+03 6.23309E+05
 -1      1451 4.09268E-07 2.00048E+03-6.23309E+05
 -1      1452 7.65532E-09-3.70855E+05-6.85532E-06
 -1      1454 1.40105E-07 4.23287E+05-3.94770E-06
 -1      1463-1.28115E-06-3.25506E+04 6.85273E+05
 -1      1465-7.09181E-07-3.25506E+04-6.85273E+05
 -1      1466 3.44885E-06-3.51889E+05-6.53840E-06
 -1      1468 3.91729E-06 5.21200E+05-3.93241E-06
 -1      1477-7.75741E-07-5.55968E+04 7.33451E+05
 -1      1479-2.41226E-07-5.55968E+04-7.33451E+05
 -1      1480 4.92017E-06-3.35038E+05-2.11844E-06
 -1      1482 4.93494E-06 5.99434E+05-1.17550E-06
 -1      1491-9.98682E-07 2.72585E+04-1.94327E-06
 -1      1493-7.58907E-07 2.72585E+04 1.31210E-06
 -1      1494-1.04531E-06 2.21288E+04-1.26564E-06
 -1      1496-8.51737E-07 2.21288E+04 2.00928E-06
 -1      1497 1.45423E-07 2.72585E+04 1.36978E-06
 -1      1499 6.64496E-07 2.72585E+04 1.62859E-06
 -1      1500 9.88781E+02 1.52989E+03 2.10697E+02
 -1      1502 9.88781E+02 1.52989E+03 2.10697E+02
 -1      1503 1.74773E+03 3.91428E+03 4.54751E+02
 -1      1505 1.74773E+03 3.91428E+03 4.54751E+02
 -1      1506 2.19306E+03 7.16769E+03 7.15809E+02
 -1      1508 2.19306E+03 7.16769E+03 7.15809E+02
 -1      1509 2.33729E+03 1.08389E+04 9.97013E+02
 -1      1511 2.33729E+03 1.08389E+04 9.97013E+02
 -1      1512 2.20827E+03 1.44853E+04 1.31129E+03
 -1      1514 2.20827E+03 1.44853E+04 1.31129E+03
 -1      1515 1.84219E+03 1.77197E+04 1.66461E+03
 -1      1517 1.84219E+03 1.77197E+04 1.66461E+03
 -1      1518 1.28594E+03 2.02153E+04 2.06430E+03
 -1      1520 1.28594E+03 2.02153E+04 2.06430E+03
 -1      1521 5.94191E+02 2.17233E+04 2.51395E+03
 -1      1523 5.94191E+02 2.17233E+04 2.51395E+03
 -1      1524-1.72826E+02 2.20836E+04 3.01512E+03
 -1      1526-1.72826E+02 2.20836E+04 3.01512E+03
 -1      1527-9.52688E+02 2.12302E+04 3.56592E+03
 -1      1529-9.52688E+02 2.12302E+04 3.56592E+03
 -1      1530-1.68426E+03 1.91929E+04 4.16142E+03
 -1      1532-1.68426E+03 1.91929E+04 4.16142E+03
 -1      1533-2.31137E+03 1.60921E+04 4.79353E+03
 -1      1535-2.31137E+03 1.60921E+04 4.79353E+03
 -1      1536-2.78615E+03 1.21287E+04 5.45148E+03
 -1      1538-2.78615E+03 1.21287E+04 5.45148E+03
 -1      1539-3.07194E+03 7.56907E+03 6.12230E+03
 -1      1541-3.07194E+03 7.56907E+03 6.12230E+03
 -1      1542-3.14545E+03 2.72581E+03 6.79156E+03
 -1      1544-3.14545E+03 2.72581E+03 6.79156E+03
 -1      1545-2.99811E+03-2.06392E+03 7.44422E+03
 -1      1547-2.99811E+03-2.06392E+03 7.44422E+03
 -1      1548-2.63637E+03-6.46159E+03 8.06551E+03
 -1      1550-2.63637E+03-6.46159E+03 8.06551E+03
 -1      1551-2.08102E+03-1.01501E+04 8.64180E+03
 -1      1553-2.08102E+03-1.01501E+04 8.64180E+03
 -1      1554-1.36548E+03-1.28550E+04 9.16145E+03
 -1      1556-1.36548E+03-1.28550E+04 9.16145E+03
 -1      1557-5.33295E+02-1.43619E+04 9.61553E+03
 -1      1559-5.33295E+02-1.43619E+04 9.61553E+03
 -1      1560 3.65239E+02-1.45299E+04 9.99832E+03
 -1      1562 3.65239E+02-1.45299E+04 9.99832E+03
 -1      1563 1.27688E+03-1.32993E+04 1.03077E+04
 -1      1565 1.27688E+03-1.32993E+04 1.03077E+04
 -1      1566 2.14957E+03-1.06926E+04 1.05451E+04
 -1      1568 2.14957E+03-1.06926E+04 1.05451E+04
 -1      1569 2.93669E+03-6.81040E+03 1.07156E+04
 -1      1571 2.93669E+03-6.81040E+03 1.07156E+04
 -1      1572 3.60098E+03-1.81922E+03 1.08274E+04
 -1      1574 3.60098E+03-1.81922E+03 1.08274E+04
 -1      1575 4.11819E+03 4.06505E+03 1.08913E+04
 -1      1577 4.11819E+03 4.06505E+03 1.08913E+04
 -1      1578 4.48010E+03 1.05997E+04 1.09197E+04
 -1      1580 4.48010E+03 1.05997E+04 1.09197E+04
 -1      1581 4.69676E+03 1.75410E+04 1.09262E+04
 -1      1583 4.69676E+03 1.75410E+04 1.09262E+04
 -1      1584 4.79819E+03 2.46741E+04 1.09234E+04
 -1      1586 4.79819E+03 2.46741E+04 1.09234E+04
 -1      1587 3.21566E+03 2.82639E+04 7.21599E+03
 -1      1589 3.21566E+03 2.82639E+04 7.21599E+03
 -1      1590-2.12367E+06-1.78191E+05 7.44048E+03
 -1      1592-2.20327E+06-1.67318E+05 7.44048E+03
 -1      1593-3.21566E+03 2.82639E+04-7.21599E+03
 -1      1595-3.21566E+03 2.82639E+04-7.21599E+03
 -1      1596-9.88781E+02 1.52989E+03-2.10697E+02
 -1      1598-9.88781E+02 1.52989E+03-2.10697E+02
 -1      1599-1.74773E+03 3.91428E+03-4.54751E+02
 -1      1601-1.74773E+03 3.91428E+03-4.54751E+02
 -1      1602-2.19306E+03 7.16769E+03-7.15809E+02
 -1      1604-2.19306E+03 7.16769E+03-7.15809E+02
 -1      1605-2.33729E+03 1.08389E+04-9.97013E+02
 -1      1607-2.33729E+03 1.08389E+04-9.97013E+02
 -1      1608-2.20827E+03 1.44853E+04-1.31129E+03
 -1      1610-2.20827E+03 1.44853E+04-1.31129E+03
 -1      1611-1.84219E+03 1.77197E+04-1.66461E+03
 -1      1613-1.84219E+03 1.77197E+04-1.66461E+03
 -1      1614-1.28594E+03 2.02153E+04-2.06430E+03
 -1      1616-1.28594E+03 2.02153E+04-2.06430E+03
 -1      1617-5.94191E+02 2.17233E+04-2.51395E+03
 -1      1619-5.94191E+02 2.17233E+04-2.51395E+03
 -1      1620 1.72826E+02 2.20836E+04-3.01512E+03
 -1      1622 1.72826E+02 2.20836E+04-3.01512E+03
 -1      1623 9.52688E+02 2.12302E+04-3.56592E+03
 -1      1625 9.52688E+02 2.12302E+04-3.56592E+03
 -1      1626 1.68426E+03 1.91929E+04-4.16142E+03
 -1      1628 1.68426E+03 1.91929E+04-4.16142E+03
 -1      1629 2.31137E+03 1.60921E+04-4.79353E+03
 -1      1631 2.31137E+03 1.60921E+04-4.79353E+03
 -1      1632 2.78615E+03 1.21287E+04-5.45148E+03
 -1      1634 2.78615E+03 1.21287E+04-5.45148E+03
 -1      1635 3.07194E+03 7.56907E+03-6.12230E+03
 -1      1637 3.07194E+03 7.56907E+03-6.12230E+03
 -1      1638 3.14545E+03 2.72581E+03-6.79156E+03
 -1      1640 3.14545E+03 2.72581E+03-6.79156E+03
 -1      1641 2.99811E+03-2.06392E+03-7.44422E+03
 -1      1643 2.99811E+03-2.06392E+03-7.44422E+03
 -1      1644 2.63637E+03-6.46159E+03-8.06551E+03
 -1      1646 2.63637E+03-6.46159E+03-8.06551E+03
 -1      1647 2.08102E+03-1.01501E+04-8.64180E+03
 -1      1649 2.08102E+03-1.01501E+04-8.64180E+03
 -1      1650 1.36548E+03-1.28550E+04-9.16145E+03
 -1      1652 1.36548E+03-1.28550E+04-9.16145E+03
 -1      1653 5.33295E+02-1.43619E+04-9.61553E+03
 -1      1655 5.33295E+02-1.43619E+04-9.61553E+03
 -1      1656-3.65239E+02-1.45299E+04-9.99832E+03
 -1      1658-3.65239E+02-1.45299E+04-9.99832E+03
 -1      1659-1.27688E+03-1.32993E+04-1.03077E+04
 -1      1661-1.27688E+03-1.32993E+04-1.03077E+04
 -1      1662-2.14957E+03-1.06926E+04-1.05451E+04
 -1      1664-2.14957E+03-1.06926E+04-1.05451E+04
 -1      1665-2.93669E+03-6.81040E+03-1.07156E+04
 -1      1667-2.93669E+03-6.81040E+03-1.07156E+04
 -1      1668-3.60098E+03-1.81922E+03-1.08274E+04
 -1      1670-3.60098E+03-1.81922E+03-1.08274E+04
 -1      1671-4.11819E+03 4.06505E+03-1.08913E+04
 -1      1673-4.11819E+03 4.06505E+03-1.08913E+04
 -1      1674-4.48010E+03 1.05997E+04-1.09197E+04
 -1      1676-4.48010E+03 1.05997E+04-1.09197E+04
 -1      1677-4.69676E+03 1.75410E+04-1.09262E+04
 -1      1679-4.69676E+03 1.75410E+04-1.09262E+04
 -1      1680-4.79819E+03 2.46741E+04-1.09234E+04
 -1      1682-4.79819E+03 2.46741E+04-1.09234E+04
 -1      1683 2.12367E+06-1.78191E+05-7.44048E+03
 -1      1685 2.20327E+06-1.67318E+05-7.44048E+03
 -1      1686-1.30119E+03 2.98525E+03 2.67805E+02
 -1      1688-1.30119E+03 2.98525E+03 2.67805E+02
 -1      1689-2.31351E+03 7.77037E+03 5.80307E+02
 -1      1691-2.31351E+03 7.77037E+03 5.80307E+02
 -1      1692-2.90902E+03 1.43115E+04 9.15009E+02
 -1      1694-2.90902E+03 1.43115E+04 9.15009E+02
 -1      1695-3.10194E+03 2.16773E+04 1.27675E+03
 -1      1697-3.10194E+03 2.16773E+04 1.27675E+03
 -1      1698-2.93226E+03 2.89945E+04 1.68352E+03
 -1      1700-2.93226E+03 2.89945E+04 1.68352E+03
 -1      1701-2.44635E+03 3.54826E+04 2.14374E+03
 -1      1703-2.44635E+03 3.54826E+04 2.14374E+03
 -1      1704-1.70761E+03 4.04886E+04 2.66775E+03
 -1      1706-1.70761E+03 4.04886E+04 2.66775E+03
 -1      1707-7.88357E+02 4.35144E+04 3.26073E+03
 -1      1709-7.88357E+02 4.35144E+04 3.26073E+03
 -1      1710 2.31101E+02 4.42388E+04 3.92504E+03
 -1      1712 2.31101E+02 4.42388E+04 3.92504E+03
 -1      1713 1.26776E+03 4.25304E+04 4.65826E+03
 -1      1715 1.26776E+03 4.25304E+04 4.65826E+03
 -1      1716 2.24029E+03 3.84487E+04 5.45372E+03
 -1      1718 2.24029E+03 3.84487E+04 5.45372E+03
 -1      1719 3.07396E+03 3.22351E+04 6.30035E+03
 -1      1721 3.07396E+03 3.22351E+04 6.30035E+03
 -1      1722 3.70511E+03 2.42925E+04 7.18333E+03
 -1      1724 3.70511E+03 2.42925E+04 7.18333E+03
 -1      1725 4.08495E+03 1.51546E+04 8.08478E+03
 -1      1727 4.08495E+03 1.51546E+04 8.08478E+03
 -1      1728 4.18252E+03 5.44803E+03 8.98477E+03
 -1      1730 4.18252E+03 5.44803E+03 8.98477E+03
 -1      1731 3.98641E+03-4.15157E+03 9.86250E+03
 -1      1733 3.98641E+03-4.15157E+03 9.86250E+03
 -1      1734 3.50516E+03-1.29658E+04 1.06975E+04
 -1      1736 3.50516E+03-1.29658E+04 1.06975E+04
 -1      1737 2.76641E+03-2.03592E+04 1.14710E+04
 -1      1739 2.76641E+03-2.03592E+04 1.14710E+04
 -1      1740 1.81461E+03-2.57818E+04 1.21668E+04
 -1      1742 1.81461E+03-2.57818E+04 1.21668E+04
 -1      1743 7.07629E+02-2.88040E+04 1.27726E+04
 -1      1745 7.07629E+02-2.88040E+04 1.27726E+04
 -1      1746-4.87667E+02-2.91437E+04 1.32806E+04
 -1      1748-4.87667E+02-2.91437E+04 1.32806E+04
 -1      1749-1.70050E+03-2.66810E+04 1.36877E+04
 -1      1751-1.70050E+03-2.66810E+04 1.36877E+04
 -1      1752-2.86169E+03-2.14619E+04 1.39963E+04
 -1      1754-2.86169E+03-2.14619E+04 1.39963E+04
 -1      1755-3.90925E+03-1.36877E+04 1.42135E+04
 -1      1757-3.90925E+03-1.36877E+04 1.42135E+04
 -1      1758-4.79372E+03-3.69270E+03 1.43509E+04
 -1      1760-4.79372E+03-3.69270E+03 1.43509E+04
 -1      1761-5.48291E+03 8.09007E+03 1.44237E+04
 -1      1763-5.48291E+03 8.09007E+03 1.44237E+04
 -1      1764-5.96597E+03 2.11735E+04 1.44498E+04
 -1      1766-5.96597E+03 2.11735E+04 1.44498E+04
 -1      1767-6.25648E+03 3.50686E+04 1.44482E+04
 -1      1769-6.25648E+03 3.50686E+04 1.44482E+04
 -1      1770-6.39412E+03 4.93436E+04 1.44375E+04
 -1      1772-6.39412E+03 4.93436E+04 1.44375E+04
 -1      1773 1.30119E+03 2.98525E+03-2.67805E+02
 -1      1775 1.30119E+03 2.98525E+03-2.67805E+02
 -1      1776 2.31351E+03 7.77037E+03-5.80307E+02
 -1      1778 2.31351E+03 7.77037E+03-5.80307E+02
 -1      1779 2.90902E+03 1.43115E+04-9.15009E+02
 -1      1781 2.90902E+03 1.43115E+04-9.15009E+02
 -1      1782 3.10194E+03 2.16773E+04-1.27675E+03
 -1      1784 3.10194E+03 2.16773E+04-1.27675E+03
 -1      1785 2.93226E+03 2.89945E+04-1.68352E+03
 -1      1787 2.93226E+03 2.89945E+04-1.68352E+03
 -1      1788 2.44635E+03 3.54826E+04-2.14374E+03
 -1      1790 2.44635E+03 3.54826E+04-2.14374E+03
 -1      1791 1.70761E+03 4.04886E+04-2.66775E+03
 -1      1793 1.70761E+03 4.04886E+04-2.66775E+03
 -1      1794 7.88357E+02 4.35144E+04-3.26073E+03
 -1      1796 7.88357E+02 4.35144E+04-3.26073E+03
 -1      1797-2.31101E+02 4.42388E+04-3.92504E+03
 -1      1799-2.31101E+02 4.42388E+04-3.92504E+03
 -1      1800-1.26776E+03 4.25304E+04-4.65826E+03
 -1      1802-1.26776E+03 4.25304E+04-4.65826E+03
 -1      1803-2.24029E+03 3.84487E+04-5.45372E+03
 -1      1805-2.24029E+03 3.84487E+04-5.45372E+03
 -1      1806-3.07396E+03 3.22351E+04-6.30035E+03
 -1      1808-3.07396E+03 3.22351E+04-6.30035E+03
 -1      1809-3.70511E+03 2.42925E+04-7.18333E+03
 -1      1811-3.70511E+03 2.42925E+04-7.18333E+03
 -1      1812-4.08495E+03 1.51546E+04-8.08478E+03
 -1      1814-4.08495E+03 1.51546E+04-8.08478E+03
 -1      1815-4.18252E+03 5.44803E+03-8.98477E+03
 -1      1817-4.18252E+03 5.44803E+03-8.98477E+03
 -1      1818-3.98641E+03-4.15157E+03-9.86250E+03
 -1      1820-3.98641E+03-4.15157E+03-9.86250E+03
 -1      1821-3.50516E+03-1.29658E+04-1.06975E+04
 -1      1823-3.50516E+03-1.29658E+04-1.06975E+04
 -1      1824-2.76641E+03-2.03592E+04-1.14710E+04
 -1      1826-2.76641E+03-2.03592E+04-1.14710E+04
 -1      1827-1.81461E+03-2.57818E+04-1.21668E+04
 -1      1829-1.81461E+03-2.57818E+04-1.21668E+04
 -1      1830-7.07629E+02-2.88040E+04-1.27726E+04
 -1      1832-7.07629E+02-2.88040E+04-1.27726E+04
 -1      1833 4.87667E+02-2.91437E+04-1.32806E+04
 -1      1835 4.87667E+02-2.91437E+04-1.32806E+04
 -1      1836 1.70050E+03-2.66810E+04-1.36877E+04
 -1      1838 1.70050E+03-2.66810E+04-1.36877E+04
 -1      1839 2.86169E+03-2.14619E+04-1.39963E+04
 -1      1841 2.86169E+03-2.14619E+04-1.39963E+04
 -1      1842 3.90925E+03-1.36877E+04-1.42135E+04
 -1      1844 3.90925E+03-1.36877E+04-1.42135E+04
 -1      1845 4.79372E+03-3.69270E+03-1.43509E+04
 -1      1847 4.79372E+03-3.69270E+03-1.43509E+04
 -1      1848 5.48291E+03 8.09007E+03-1.44237E+04
 -1      1850 5.48291E+03 8.09007E+03-1.44237E+04
 -1      1851 5.96597E+03 2.11735E+04-1.44498E+04
 -1      1853 5.96597E+03 2.11735E+04-1.44498E+04
 -1      1854 6.25648E+03 3.50686E+04-1.44482E+04
 -1      1856 6.25648E+03 3.50686E+04-1.44482E+04
 -1      1857 6.39412E+03 4.93436E+04-1.44375E+04
 -1      1859 6.39412E+03 4.93436E+04-1.44375E+04
 -1      1860 6.09884E-07 4.04578E+03-7.96178E-07
 -1      1862 6.52766E-07 4.04578E+03-1.08011E-06
 -1      1863 1.37380E-06 1.08231E+04 4.52146E-07
 -1      1865 1.40072E-06 1.08231E+04-1.82465E-07
 -1      1866 1.37806E-06 2.00884E+04 4.40278E-07
 -1      1868 1.23302E-06 2.00884E+04-1.12196E-07
 -1      1869-1.35248E-06 3.04021E+04 2.53437E-07
 -1      1871-1.65683E-06 3.04021E+04 4.09791E-07
 -1      1872-3.53174E-06 4.05086E+04 1.73225E-08
 -1      1874-3.48984E-06 4.05086E+04-1.35175E-07
 -1      1875-2.67434E-06 4.92422E+04-1.45288E-06
 -1      1877-2.57413E-06 4.92422E+04-1.29697E-06
 -1      1878 1.32304E-07 5.56356E+04-2.09843E-06
 -1      1880 2.43203E-08 5.56356E+04-1.69962E-06
 -1      1881 1.57857E-06 5.89515E+04-1.05276E-06
 -1      1883 1.68520E-06 5.89515E+04-2.11810E-06
 -1      1884 3.24778E-07 5.87169E+04 2.28887E-06
 -1      1886 2.58502E-07 5.87169E+04 1.67098E-06
 -1      1887-1.62448E-06 5.47474E+04 1.97885E-06
 -1      1889-1.87810E-06 5.47474E+04 1.80377E-06
 -1      1890-9.85297E-07 4.71471E+04-8.75985E-07
 -1      1892-7.38190E-07 4.71471E+04-1.96207E-06
 -1      1893-3.78640E-07 3.62968E+04-2.16514E-06
 -1      1895-2.43044E-07 3.62968E+04-3.96594E-06
 -1      1896-1.08376E-06 2.28223E+04-2.14953E-06
 -1      1898-9.21750E-07 2.28223E+04-4.34599E-06
 -1      1899 1.07717E-06 7.54858E+03-2.98352E-06
 -1      1901 8.46846E-07 7.54858E+03-4.83163E-06
 -1      1902 3.51231E-06-8.55873E+03-2.14939E-06
 -1      1904 3.08762E-06-8.55873E+03-2.27589E-06
 -1      1905 2.79766E-06-2.44601E+04 1.43697E-07
 -1      1907 2.76255E-06-2.44601E+04-2.12761E-06
 -1      1908 1.64364E-06-3.91133E+04-1.37842E-06
 -1      1910 1.83720E-06-3.91133E+04-2.53035E-06
 -1      1911 3.63062E-06-5.15431E+04-3.45655E-07
 -1      1913 3.28430E-06-5.15431E+04-4.53583E-08
 -1      1914 4.54267E-06-6.09066E+04 1.72545E-06
 -1      1916 4.77131E-06-6.09066E+04 1.75551E-06
 -1      1917 4.75417E-06-6.65475E+04 5.42859E-07
 -1      1919 4.90871E-06-6.65475E+04 1.46639E-06
 -1      1920 2.48937E-06-6.80372E+04 2.26841E-06
 -1      1922 2.20756E-06-6.80372E+04 1.38609E-06
 -1      1923 1.20296E-07-6.51987E+04 1.01331E-06
 -1      1925-3.68436E-07-6.51987E+04 1.87983E-06
 -1      1926-9.02814E-07-5.81118E+04 2.64579E-06
 -1      1928-7.19921E-07-5.81118E+04-7.14141E-07
 -1      1929-2.05068E-06-4.70987E+04 2.23097E-06
 -1      1931-2.01201E-06-4.70987E+04 1.29643E-06
 -1      1932-2.02736E-06-3.26906E+04 1.28766E-06
 -1      1934-2.47161E-06-3.26906E+04-5.23083E-07
 -1      1935-1.60823E-06-1.55769E+04-1.14331E-06
 -1      1937-1.53583E-06-1.55769E+04-3.28009E-06
 -1      1938-1.13198E-06 3.46204E+03-7.96059E-07
 -1      1940-1.20483E-06 3.46204E+03 2.10553E-06
 -1      1941-2.67195E-07 2.36307E+04-1.79293E-06
 -1      1943-5.21165E-07 2.36307E+04-1.03619E-06
 -1      1944-8.53400E-07 4.42081E+04-4.08797E-06
 -1      1946-5.95227E-07 4.42081E+04-1.35820E-06
 -1      1947 1.56030E-06 4.05859E+03 1.89987E-06
 -1      1949 1.56991E-06 4.05859E+03 1.81128E-06
 -1      1950 4.12998E-07 1.08491E+04 3.82756E-06
 -1      1952 3.28509E-07 1.08491E+04 3.41720E-06
 -1      1953 2.85229E-07 2.01099E+04 7.51746E-07
 -1      1955 1.16635E-07 2.01099E+04-1.15724E-08
 -1      1956-1.11614E-07 3.03795E+04-1.12204E-06
 -1      1958-1.97839E-07 3.03795E+04-1.52848E-06
 -1      1959-1.31016E-06 4.03824E+04 6.15076E-07
 -1      1961-1.36014E-06 4.03824E+04 8.23281E-08
 -1      1962-1.03889E-06 4.89320E+04 9.00999E-07
 -1      1964-8.10023E-07 4.89320E+04 1.46612E-06
 -1      1965-1.96989E-06 5.50428E+04 2.01698E-06
 -1      1967-2.00038E-06 5.50428E+04 3.20911E-06
 -1      1968-2.96967E-06 5.79638E+04 1.66909E-06
 -1      1970-3.07809E-06 5.79638E+04 5.84409E-07
 -1      1971-2.06657E-06 5.72152E+04-5.99361E-07
 -1      1973-1.90603E-06 5.72152E+04-7.76618E-07
 -1      1974-2.40633E-06 5.26128E+04-2.10515E-07
 -1      1976-2.51009E-06 5.26128E+04-4.45281E-07
 -1      1977-2.26373E-06 4.42688E+04-7.32678E-07
 -1      1979-2.35272E-06 4.42688E+04-1.04275E-06
 -1      1980-1.18446E-06 3.25801E+04-3.87343E-07
 -1      1982-1.30654E-06 3.25801E+04-1.61991E-06
 -1      1983-3.51200E-08 1.81953E+04-1.87853E-06
 -1      1985 1.51789E-07 1.81953E+04-2.05633E-06
 -1      1986 1.81886E-06 1.96757E+03-4.04412E-06
 -1      1988 1.55328E-06 1.96757E+03-5.44508E-06
 -1      1989 3.59933E-06-1.51050E+04-1.80258E-06
 -1      1991 3.51576E-06-1.51050E+04-2.59304E-06
 -1      1992 3.55136E-06-3.19491E+04 4.36983E-07
 -1      1994 3.88827E-06-3.19491E+04 1.10887E-06
 -1      1995 1.21141E-06-4.74886E+04 2.15588E-06
 -1      1997 1.22587E-06-4.74886E+04 6.01503E-08
 -1      1998-6.47124E-07-6.07176E+04 1.66226E-06
 -1      2000-8.14673E-07-6.07176E+04 1.26720E-06
 -1      2001 7.34727E-07-7.07667E+04 3.25830E-06
 -1      2003 8.70639E-07-7.07667E+04 2.86565E-06
 -1      2004 2.14025E-06-7.69600E+04 5.61671E-07
 -1      2006 2.10575E-06-7.69600E+04-1.44394E-06
 -1      2007 5.31710E-07-7.88569E+04-1.07328E-06
 -1      2009 3.92136E-07-7.88569E+04 4.03629E-06
 -1      2010-7.04769E-07-7.62774E+04-1.99425E-06
 -1      2012-8.88249E-07-7.62774E+04 1.06795E-06
 -1      2013-6.86334E-07-6.93075E+04-2.00017E-06
 -1      2015-2.97834E-07-6.93075E+04 6.27963E-07
 -1      2016-1.71482E-06-5.82851E+04 3.21474E-06
 -1      2018-1.71815E-06-5.82851E+04 2.10050E-06
 -1      2019-2.39231E-06-4.37652E+04 4.79189E-06
 -1      2021-2.59747E-06-4.37652E+04-9.10186E-08
 -1      2022-2.14355E-06-2.64687E+04 1.82198E-06
 -1      2024-2.09070E-06-2.64687E+04 1.52013E-06
 -1      2025-1.30891E-06-7.21359E+03 5.39336E-06
 -1      2027-1.37811E-06-7.21359E+03 3.24779E-06
 -1      2028-1.47683E-07 1.31619E+04 4.55761E-06
 -1      2030-1.48275E-07 1.31619E+04 2.51574E-06
 -1      2031-9.33625E-07 3.38918E+04-9.92929E-07
 -1      2033-8.86092E-07 3.38918E+04 4.22767E-06
 -1      2034-3.15952E-06 4.04578E+03 3.12804E-06
 -1      2036-3.23540E-06 4.04578E+03 3.17042E-06
 -1      2037-2.85055E-06 1.08231E+04 3.33323E-06
 -1      2039-3.01782E-06 1.08231E+04 3.18344E-06
 -1      2040 5.66130E-07 2.00884E+04-8.38176E-07
 -1      2042 3.88335E-07 2.00884E+04-1.35872E-06
 -1      2043 1.38576E-06 3.04021E+04-2.87479E-06
 -1      2045 1.30020E-06 3.04021E+04-3.31435E-06
 -1      2046 4.60207E-07 4.05086E+04-4.15541E-07
 -1      2048 4.56692E-07 4.05086E+04-9.03534E-07
 -1      2049-4.31251E-08 4.92422E+04-5.20120E-07
 -1      2051 2.29154E-07 4.92422E+04-2.90102E-07
 -1      2052-1.71858E-06 5.56356E+04 6.93091E-07
 -1      2054-1.74910E-06 5.56356E+04 1.62581E-06
 -1      2055-2.66728E-06 5.89515E+04 3.23378E-06
 -1      2057-2.40704E-06 5.89515E+04 4.33823E-06
 -1      2058-1.30185E-06 5.87169E+04 1.57700E-06
 -1      2060-1.05160E-06 5.87169E+04 1.49424E-06
 -1      2061-3.35666E-06 5.47474E+04-9.55665E-07
 -1      2063-3.58776E-06 5.47474E+04-1.41946E-06
 -1      2064-3.60760E-06 4.71471E+04-2.41943E-06
 -1      2066-4.12044E-06 4.71471E+04-2.14845E-06
 -1      2067-5.35315E-08 3.62968E+04-1.35283E-06
 -1      2069-2.55756E-07 3.62968E+04-7.43931E-07
 -1      2070 1.04304E-06 2.28223E+04-2.25204E-06
 -1      2072 1.09316E-06 2.28223E+04-8.14021E-07
 -1      2073 3.91636E-07 7.54858E+03-1.31814E-06
 -1      2075 4.92237E-07 7.54858E+03-3.88732E-06
 -1      2076-1.07205E-06-8.55873E+03-1.72244E-06
 -1      2078-9.63082E-07-8.55873E+03-3.31669E-06
 -1      2079-2.39880E-06-2.44601E+04 7.15017E-07
 -1      2081-2.40261E-06-2.44601E+04 1.08445E-06
 -1      2082-3.24128E-06-3.91133E+04 2.89062E-06
 -1      2084-3.47266E-06-3.91133E+04 3.53561E-06
 -1      2085-3.36675E-06-5.15431E+04 3.53241E-06
 -1      2087-3.81701E-06-5.15431E+04 1.80879E-06
 -1      2088-2.25637E-07-6.09066E+04-7.49684E-07
 -1      2090-5.60177E-07-6.09066E+04-5.72281E-07
 -1      2091 1.73119E-06-6.65475E+04-2.73937E-06
 -1      2093 1.67201E-06-6.65475E+04-3.59202E-06
 -1      2094 2.07571E-06-6.80372E+04-2.50865E-06
 -1      2096 1.40536E-06-6.80372E+04-1.28640E-06
 -1      2097 3.00888E-06-6.51987E+04-2.52020E-06
 -1      2099 3.21251E-06-6.51987E+04-3.07801E-06
 -1      2100 3.05050E-06-5.81118E+04 1.04957E-06
 -1      2102 3.53185E-06-5.81118E+04 9.66894E-07
 -1      2103 4.81750E-07-4.70987E+04 1.15881E-06
 -1      2105 2.26010E-07-4.70987E+04 3.86526E-06
 -1      2106-1.12437E-06-3.26906E+04 2.68924E-06
 -1      2108-1.29601E-06-3.26906E+04 3.26703E-06
 -1      2109-8.77290E-07-1.55769E+04 5.26982E-06
 -1      2111-8.35975E-07-1.55769E+04 1.98806E-07
 -1      2112 2.68114E-07 3.46204E+03 7.25367E-06
 -1      2114 7.47676E-08 3.46204E+03 2.66648E-06
 -1      2115 2.62722E-06 2.36307E+04 7.26294E-06
 -1      2117 3.19888E-06 2.36307E+04 2.00764E-06
 -1      2118 2.13656E-06 4.42081E+04 1.32069E-06
 -1      2120 3.09891E-06 4.42081E+04 3.28407E-07
 -1      2121 1.30119E+03 2.98525E+03 2.67805E+02
 -1      2123 1.30119E+03 2.98525E+03 2.67805E+02
 -1      2124 2.31351E+03 7.77037E+03 5.80307E+02
 -1      2126 2.31351E+03 7.77037E+03 5.80307E+02
 -1      2127 2.90902E+03 1.43115E+04 9.15009E+02
 -1      2129 2.90902E+03 1.43115E+04 9.15009E+02
 -1      2130 3.10194E+03 2.16773E+04 1.27675E+03
 -1      2132 3.10194E+03 2.16773E+04 1.27675E+03
 -1      2133 2.93226E+03 2.89945E+04 1.68352E+03
 -1      2135 2.93226E+03 2.89945E+04 1.68352E+03
 -1      2136 2.44635E+03 3.54826E+04 2.14374E+03
 -1      2138 2.44635E+03 3.54826E+04 2.14374E+03
 -1      2139 1.70761E+03 4.04886E+04 2.66775E+03
 -1      2141 1.70761E+03 4.04886E+04 2.66775E+03
 -1      2142 7.88357E+02 4.35144E+04 3.26073E+03
 -1      2144 7.88357E+02 4.35144E+04 3.26073E+03
 -1      2145-2.31101E+02 4.42388E+04 3.92504E+03
 -1      2147-2.31101E+02 4.42388E+04 3.92504E+03
 -1      2148-1.26776E+03 4.25304E+04 4.65826E+03
 -1      2150-1.26776E+03 4.25304E+04 4.65826E+03
 -1      2151-2.24029E+03 3.84487E+04 5.45372E+03
 -1      2153-2.24029E+03 3.84487E+04 5.45372E+03
 -1      2154-3.07396E+03 3.22351E+04 6.30035E+03
 -1      2156-3.07396E+03 3.22351E+04 6.30035E+03
 -1      2157-3.70511E+03 2.42925E+04 7.18333E+03
 -1      2159-3.70511E+03 2.42925E+04 7.18333E+03
 -1      2160-4.08495E+03 1.51546E+04 8.08478E+03
 -1      2162-4.08495E+03 1.51546E+04 8.08478E+03
 -1      2163-4.18252E+03 5.44803E+03 8.98477E+03
 -1      2165-4.18252E+03 5.44803E+03 8.98477E+03
 -1      2166-3.98641E+03-4.15157E+03 9.86250E+03
 -1      2168-3.98641E+03-4.15157E+03 9.86250E+03
 -1      2169-3.50516E+03-1.29658E+04 1.06975E+04
 -1      2171-3.50516E+03-1.29658E+04 1.06975E+04
 -1      2172-2.76641E+03-2.03592E+04 1.14710E+04
 -1      2174-2.76641E+03-2.03592E+04 1.14710E+04
 -1      2175-1.81461E+03-2.57818E+04 1.21668E+04
 -1      2177-1.81461E+03-2.57818E+04 1.21668E+04
 -1      2178-7.07629E+02-2.88040E+04 1.27726E+04
 -1      2180-7.07629E+02-2.88040E+04 1.27726E+04
 -1      2181 4.87667E+02-2.91437E+04 1.32806E+04
 -1      2183 4.87667E+02-2.91437E+04 1.32806E+04
 -1      2184 1.70050E+03-2.66810E+04 1.36877E+04
 -1      2186 1.70050E+03-2.66810E+04 1.36877E+04
 -1      2187 2.86169E+03-2.14619E+04 1.39963E+04
 -1      2189 2.86169E+03-2.14619E+04 1.39963E+04
 -1      2190 3.90925E+03-1.36877E+04 1.42135E+04
 -1      2192 3.90925E+03-1.36877E+04 1.42135E+04
 -1      2193 4.79372E+03-3.69270E+03 1.43509E+04
 -1      2195 4.79372E+03-3.69270E+03 1.43509E+04
 -1      2196 5.48291E+03 8.09007E+03 1.44237E+04
 -1      2198 5.48291E+03 8.09007E+03 1.44237E+04
 -1      2199 5.96597E+03 2.11735E+04 1.44498E+04
 -1      2201 5.96597E+03 2.11735E+04 1.44498E+04
 -1      2202 6.25648E+03 3.50686E+04 1.44482E+04
 -1      2204 6.25648E+03 3.50686E+04 1.44482E+04
 -1      2205 6.39412E+03 4.93436E+04 1.44375E+04
 -1      2207 6.39412E+03 4.93436E+04 1.44375E+04
 -1      2208-1.30119E+03 2.98525E+03-2.67805E+02
 -1      2210-1.30119E+03 2.98525E+03-2.67805E+02
 -1      2211-2.31351E+03 7.77037E+03-5.80307E+02
 -1      2213-2.31351E+03 7.77037E+03-5.80307E+02
 -1      2214-2.90902E+03 1.43115E+04-9.15009E+02
 -1      2216-2.90902E+03 1.43115E+04-9.15009E+02
 -1      2217-3.10194E+03 2.16773E+04-1.27675E+03
 -1      2219-3.10194E+03 2.16773E+04-1.27675E+03
 -1      2220-2.93226E+03 2.89945E+04-1.68352E+03
 -1      2222-2.93226E+03 2.89945E+04-1.68352E+03
 -1      2223-2.44635E+03 3.54826E+04-2.14374E+03
 -1      2225-2.44635E+03 3.54826E+04-2.14374E+03
 -1      2226-1.70761E+03 4.04886E+04-2.66775E+03
 -1      2228-1.70761E+03 4.04886E+04-2.66775E+03
 -1      2229-7.88357E+02 4.35144E+04-3.26073E+03
 -1      2231-7.88357E+02 4.35144E+04-3.26073E+03
 -1      2232 2.31101E+02 4.42388E+04-3.92504E+03
 -1      2234 2.31101E+02 4.42388E+04-3.92504E+03
 -1      2235 1.26776E+03 4.25304E+04-4.65826E+03
 -1      2237 1.26776E+03 4.25304E+04-4.65826E+03
 -1      2238 2.24029E+03 3.84487E+04-5.45372E+03
 -1      2240 2.24029E+03 3.84487E+04-5.45372E+03
 -1      2241 3.07396E+03 3.22351E+04-6.30035E+03
 -1      2243 3.07396E+03 3.22351E+04-6.30035E+03
 -1      2244 3.70511E+03 2.42925E+04-7.18333E+03
 -1      2246 3.70511E+03 2.42925E+04-7.18333E+03
 -1      2247 4.08495E+03 1.51546E+04-8.08478E+03
 -1      2249 4.08495E+03 1.51546E+04-8.08478E+03
 -1      2250 4.18252E+03 5.44803E+03-8.98477E+03
 -1      2252 4.18252E+03 5.44803E+03-8.98477E+03
 -1      2253 3.98641E+03-4.15157E+03-9.86250E+03
 -1      2255 3.98641E+03-4.15157E+03-9.86250E+03
 -1      2256 3.50516E+03-1.29658E+04-1.06975E+04
 -1      2258 3.50516E+03-1.29658E+04-1.06975E+04
 -1      2259 2.76641E+03-2.03592E+04-1.14710E+04
 -1      2261 2.76641E+03-2.03592E+04-1.14710E+04
 -1      2262 1.81461E+03-2.57818E+04-1.21668E+04
 -1      2264 1.81461E+03-2.57818E+04-1.21668E+04
 -1      2265 7.07629E+02-2.88040E+04-1.27726E+04
 -1      2267 7.07629E+02-2.88040E+04-1.27726E+04
 -1      2268-4.87667E+02-2.91437E+04-1.32806E+04
 -1      2270-4.87667E+02-2.91437E+04-1.32806E+04
 -1      2271-1.70050E+03-2.66810E+04-1.36877E+04
 -1      2273-1.70050E+03-2.66810E+04-1.36877E+04
 -1      2274-2.86169E+03-2.14619E+04-1.39963E+04
 -1      2276-2.86169E+03-2.14619E+04-1.39963E+04
 -1      2277-3.90925E+03-1.36877E+04-1.42135E+04
 -1      2279-3.90925E+03-1.36877E+04-1.42135E+04
 -1      2280-4.79372E+03-3.69270E+03-1.43509E+04
 -1      2282-4.79372E+03-3.69270E+03-1.43509E+04
 -1      2283-5.48291E+03 8.09007E+03-1.44237E+04
 -1      2285-5.48291E+03 8.09007E+03-1.44237E+04
 -1      2286-5.96597E+03 2.11735E+04-1.44498E+04
 -1      2288-5.96597E+03 2.11735E+04-1.44498E+04
 -1      2289-6.25648E+03 3.50686E+04-1.44482E+04
 -1      2291-6.25648E+03 3.50686E+04-1.44482E+04
 -1      2292-6.39412E+03 4.93436E+04-1.44375E+04
 -1      2294-6.39412E+03 4.93436E+04-1.44375E+04
 -3
    1PSTEP                        24           1           1          
    1PGM                1.000000E+00                                  
    1PGK                1.808098E+06                                  
    1PHID                         -1                                  
    1PSUBC                         0                                  
    1PMODE                         6                                  
  100CL  106 214.0085524         930                     2    6MODAL      1
 -4  ERROR       1    1
 -5  STR(%)      1    1    0    0
 -1       404 0.00000E+00
 -1       406 0.00000E+00
 -1       407 0.00000E+00
 -1       409 0.00000E+00
 -1       410 0.00000E+00
 -1       412 0.00000E+00
 -1       413 0.00000E+00
 -1       415 0.00000E+00
 -1       424 0.00000E+00
 -1       426 0.00000E+00
 -1       427 0.00000E+00
 -1       429 0.00000E+00
 -1       438 0.00000E+00
 -1       440 0.00000E+00
 -1       441 0.00000E+00
 -1       443 0.00000E+00
 -1       444 0.00000E+00
 -1       446 0.00000E+00
 -1       447 0.00000E+00
 -1       449 0.00000E+00
 -1       458 0.00000E+00
 -1       460 0.00000E+00
 -1       461 0.00000E+00
 -1       463 0.00000E+00
 -1       472 0.00000E+00
 -1       474 0.00000E+00
 -1       475 0.00000E+00
 -1       477 0.00000E+00
 -1       478 0.00000E+00
 -1       480 0.00000E+00
 -1       481 0.00000E+00
 -1       483 0.00000E+00
 -1       484 0.00000E+00
 -1       486 0.00000E+00
 -1       487 0.00000E+00
 -1       489 0.00000E+00
 -1       490 0.00000E+00
 -1       492 0.00000E+00
 -1       493 0.00000E+00
 -1       495 0.00000E+00
 -1       496 0.00000E+00
 -1       498 0.00000E+00
 -1       499 0.00000E+00
 -1       501 0.00000E+00
 -1       502 0.00000E+00
 -1       504 0.00000E+00
 -1       505 0.00000E+00
 -1       507 0.00000E+00
 -1       508 0.00000E+00
 -1       510 0.00000E+00
 -1       511 0.00000E+00
 -1       513 0.00000E+00
 -1       514 0.00000E+00
 -1       516 0.00000E+00
 -1       517 0.00000E+00
 -1       519 0.00000E+00
 -1       520 0.00000E+00
 -1       522 0.00000E+00
 -1       523 0.00000E+00
 -1       525 0.00000E+00
 -1       526 0.00000E+00
 -1       528 0.00000E+00
 -1       529 0.00000E+00
 -1       531 0.00000E+00
 -1       532 0.00000E+00
 -1       534 0.00000E+00
 -1       535 0.00000E+00
 -1       537 0.00000E+00
 -1       538 0.00000E+00
 -1       540 0.00000E+00
 -1       541 0.00000E+00
 -1       543 0.00000E+00
 -1       544 0.00000E+00
 -1       546 0.00000E+00
 -1       547 0.00000E+00
 -1       549 0.00000E+00
 -1       550 0.00000E+00
 -1       552 0.00000E+00
 -1       553 0.00000E+00
 -1       555 0.00000E+00
 -1       556 0.00000E+00
 -1       558 0.00000E+00
 -1       559 0.00000E+00
 -1       561 0.00000E+00
 -1       562 0.00000E+00
 -1       564 0.00000E+00
 -1       565 0.00000E+00
 -1       567 0.00000E+00
 -1       568 0.00000E+00
 -1       570 0.00000E+00
 -1       571 0.00000E+00
 -1       573 0.00000E+00
 -1       574 0.00000E+00
 -1       576 0.00000E+00
 -1       577 0.00000E+00
 -1       579 0.00000E+00
 -1       588 0.00000E+00
 -1       590 0.00000E+00
 -1       591 0.00000E+00
 -1       593 0.00000E+00
 -1       602 0.00000E+00
 -1       604 0.00000E+00
 -1       605 0.00000E+00
 -1       607 0.00000E+00
 -1       616 0.00000E+00
 -1       618 0.00000E+00
 -1       619 0.00000E+00
 -1       621 0.00000E+00
 -1       630 0.00000E+00
 -1       632 0.00000E+00
 -1       633 0.00000E+00
 -1       635 0.00000E+00
 -1       644 0.00000E+00
 -1       646 0.00000E+00
 -1       647 0.00000E+00
 -1       649 0.00000E+00
 -1       658 0.00000E+00
 -1       660 0.00000E+00
 -1       661 0.00000E+00
 -1       663 0.00000E+00
 -1       672 0.00000E+00
 -1       674 0.00000E+00
 -1       675 0.00000E+00
 -1       677 0.00000E+00
 -1       686 0.00000E+00
 -1       688 0.00000E+00
 -1       689 0.00000E+00
 -1       691 0.00000E+00
 -1       700 0.00000E+00
 -1       702 0.00000E+00
 -1       703 0.00000E+00
 -1       705 0.00000E+00
 -1       714 0.00000E+00
 -1       716 0.00000E+00
 -1       717 0.00000E+00
 -1       719 0.00000E+00
 -1       728 0.00000E+00
 -1       730 0.00000E+00
 -1       731 0.00000E+00
 -1       733 0.00000E+00
 -1       742 0.00000E+00
 -1       744 0.00000E+00
 -1       745 0.00000E+00
 -1       747 0.00000E+00
 -1       756 0.00000E+00
 -1       758 0.00000E+00
 -1       759 0.00000E+00
 -1       761 0.00000E+00
 -1       770 0.00000E+00
 -1       772 0.00000E+00
 -1       773 0.00000E+00
 -1       775 0.00000E+00
 -1       784 0.00000E+00
 -1       786 0.00000E+00
 -1       787 0.00000E+00
 -1       789 0.00000E+00
 -1       798 0.00000E+00
 -1       800 0.00000E+00
 -1       801 0.00000E+00
 -1       803 0.00000E+00
 -1       812 0.00000E+00
 -1       814 0.00000E+00
 -1       815 0.00000E+00
 -1       817 0.00000E+00
 -1       826 0.00000E+00
 -1       828 0.00000E+00
 -1       829 0.00000E+00
 -1       831 0.00000E+00
 -1       840 0.00000E+00
 -1       842 0.00000E+00
 -1       843 0.00000E+00
 -1       845 0.00000E+00
 -1       854 0.00000E+00
 -1       856 0.00000E+00
 -1       857 0.00000E+00
 -1       859 0.00000E+00
 -1       868 0.00000E+00
 -1       870 0.00000E+00
 -1       871 0.00000E+00
 -1       873 0.00000E+00
 -1       882 0.00000E+00
 -1       884 0.00000E+00
 -1       885 0.00000E+00
 -1       887 0.00000E+00
 -1       896 0.00000E+00
 -1       898 0.00000E+00
 -1       899 0.00000E+00
 -1       901 0.00000E+00
 -1       910 0.00000E+00
 -1       912 0.00000E+00
 -1       913 0.00000E+00
 -1       915 0.00000E+00
 -1       924 0.00000E+00
 -1       926 0.00000E+00
 -1       927 0.00000E+00
 -1       929 0.00000E+00
 -1       938 0.00000E+00
 -1       940 0.00000E+00
 -1       941 0.00000E+00
 -1       943 0.00000E+00
 -1       952 0.00000E+00
 -1       954 0.00000E+00
 -1       955 0.00000E+00
 -1       957 0.00000E+00
 -1       966 0.00000E+00
 -1       968 0.00000E+00
 -1       969 0.00000E+00
 -1       971 0.00000E+00
 -1       980 0.00000E+00
 -1       982 0.00000E+00
 -1       983 0.00000E+00
 -1       985 0.00000E+00
 -1       986 0.00000E+00
 -1       988 0.00000E+00
 -1       989 0.00000E+00
 -1       991 0.00000E+00
 -1       992 0.00000E+00
 -1       994 0.00000E+00
 -1       995 0.00000E+00
 -1       997 0.00000E+00
 -1       998 0.00000E+00
 -1      1000 0.00000E+00
 -1      1001 0.00000E+00
 -1      1003 0.00000E+00
 -1      1004 0.00000E+00
 -1      1006 0.00000E+00
 -1      1007 0.00000E+00
 -1      1009 0.00000E+00
 -1      1010 0.00000E+00
 -1      1012 0.00000E+00
 -1      1013 0.00000E+00
 -1      1015 0.00000E+00
 -1      1016 0.00000E+00
 -1      1018 0.00000E+00
 -1      1019 0.00000E+00
 -1      1021 0.00000E+00
 -1      1022 0.00000E+00
 -1      1024 0.00000E+00
 -1      1025 0.00000E+00
 -1      1027 0.00000E+00
 -1      1028 0.00000E+00
 -1      1030 0.00000E+00
 -1      1031 0.00000E+00
 -1      1033 0.00000E+00
 -1      1034 0.00000E+00
 -1      1036 0.00000E+00
 -1      1037 0.00000E+00
 -1      1039 0.00000E+00
 -1      1040 0.00000E+00
 -1      1042 0.00000E+00
 -1      1043 0.00000E+00
 -1      1045 0.00000E+00
 -1      1046 0.00000E+00
 -1      1048 0.00000E+00
 -1      1049 0.00000E+00
 -1      1051 0.00000E+00
 -1      1052 0.00000E+00
 -1      1054 0.00000E+00
 -1      1055 0.00000E+00
 -1      1057 0.00000E+00
 -1      1058 0.00000E+00
 -1      1060 0.00000E+00
 -1      1061 0.00000E+00
 -1      1063 0.00000E+00
 -1      1064 0.00000E+00
 -1      1066 0.00000E+00
 -1      1067 0.00000E+00
 -1      1069 0.00000E+00
 -1      1070 0.00000E+00
 -1      1072 0.00000E+00
 -1      1073 0.00000E+00
 -1      1075 0.00000E+00
 -1      1076 0.00000E+00
 -1      1078 0.00000E+00
 -1      1079 0.00000E+00
 -1      1081 0.00000E+00
 -1      1082 0.00000E+00
 -1      1084 0.00000E+00
 -1      1085 0.00000E+00
 -1      1087 0.00000E+00
 -1      1088 0.00000E+00
 -1      1090 0.00000E+00
 -1      1099 0.00000E+00
 -1      1101 0.00000E+00
 -1      1102 0.00000E+00
 -1      1104 0.00000E+00
 -1      1113 0.00000E+00
 -1      1115 0.00000E+00
 -1      1116 0.00000E+00
 -1      1118 0.00000E+00
 -1      1127 0.00000E+00
 -1      1129 0.00000E+00
 -1      1130 0.00000E+00
 -1      1132 0.00000E+00
 -1      1141 0.00000E+00
 -1      1143 0.00000E+00
 -1      1144 0.00000E+00
 -1      1146 0.00000E+00
 -1      1155 0.00000E+00
 -1      1157 0.00000E+00
 -1      1158 0.00000E+00
 -1      1160 0.00000E+00
 -1      1169 0.00000E+00
 -1      1171 0.00000E+00
 -1      1172 0.00000E+00
 -1      1174 0.00000E+00
 -1      1183 0.00000E+00
 -1      1185 0.00000E+00
 -1      1186 0.00000E+00
 -1      1188 0.00000E+00
 -1      1197 0.00000E+00
 -1      1199 0.00000E+00
 -1      1200 0.00000E+00
 -1      1202 0.00000E+00
 -1      1211 0.00000E+00
 -1      1213 0.00000E+00
 -1      1214 0.00000E+00
 -1      1216 0.00000E+00
 -1      1225 0.00000E+00
 -1      1227 0.00000E+00
 -1      1228 0.00000E+00
 -1      1230 0.00000E+00
 -1      1239 0.00000E+00
 -1      1241 0.00000E+00
 -1      1242 0.00000E+00
 -1      1244 0.00000E+00
 -1      1253 0.00000E+00
 -1      1255 0.00000E+00
 -1      1256 0.00000E+00
 -1      1258 0.00000E+00
 -1      1267 0.00000E+00
 -1      1269 0.00000E+00
 -1      1270 0.00000E+00
 -1      1272 0.00000E+00
 -1      1281 0.00000E+00
 -1      1283 0.00000E+00
 -1      1284 0.00000E+00
 -1      1286 0.00000E+00
 -1      1295 0.00000E+00
 -1      1297 0.00000E+00
 -1      1298 0.00000E+00
 -1      1300 0.00000E+00
 -1      1309 0.00000E+00
 -1      1311 0.00000E+00
 -1      1312 0.00000E+00
 -1      1314 0.00000E+00
 -1      1323 0.00000E+00
 -1      1325 0.00000E+00
 -1      1326 0.00000E+00
 -1      1328 0.00000E+00
 -1      1337 0.00000E+00
 -1      1339 0.00000E+00
 -1      1340 0.00000E+00
 -1      1342 0.00000E+00
 -1      1351 0.00000E+00
 -1      1353 0.00000E+00
 -1      1354 0.00000E+00
 -1      1356 0.00000E+00
 -1      1365 0.00000E+00
 -1      1367 0.00000E+00
 -1      1368 0.00000E+00
 -1      1370 0.00000E+00
 -1      1379 0.00000E+00
 -1      1381 0.00000E+00
 -1      1382 0.00000E+00
 -1      1384 0.00000E+00
 -1      1393 0.00000E+00
 -1      1395 0.00000E+00
 -1      1396 0.00000E+00
 -1      1398 0.00000E+00
 -1      1407 0.00000E+00
 -1      1409 0.00000E+00
 -1      1410 0.00000E+00
 -1      1412 0.00000E+00
 -1      1421 0.00000E+00
 -1      1423 0.00000E+00
 -1      1424 0.00000E+00
 -1      1426 0.00000E+00
 -1      1435 0.00000E+00
 -1      1437 0.00000E+00
 -1      1438 0.00000E+00
 -1      1440 0.00000E+00
 -1      1449 0.00000E+00
 -1      1451 0.00000E+00
 -1      1452 0.00000E+00
 -1      1454 0.00000E+00
 -1      1463 0.00000E+00
 -1      1465 0.00000E+00
 -1      1466 0.00000E+00
 -1      1468 0.00000E+00
 -1      1477 0.00000E+00
 -1      1479 0.00000E+00
 -1      1480 0.00000E+00
 -1      1482 0.00000E+00
 -1      1491 0.00000E+00
 -1      1493 0.00000E+00
 -1      1494 0.00000E+00
 -1      1496 0.00000E+00
 -1      1497 0.00000E+00
 -1      1499 0.00000E+00
 -1      1500 0.00000E+00
 -1      1502 0.00000E+00
 -1      1503 0.00000E+00
 -1      1505 0.00000E+00
 -1      1506 0.00000E+00
 -1      1508 0.00000E+00
 -1      1509 0.00000E+00
 -1      1511 0.00000E+00
 -1      1512 0.00000E+00
 -1      1514 0.00000E+00
 -1      1515 0.00000E+00
 -1      1517 0.00000E+00
 -1      1518 0.00000E+00
 -1      1520 0.00000E+00
 -1      1521 0.00000E+00
 -1      1523 0.00000E+00
 -1      1524 0.00000E+00
 -1      1526 0.00000E+00
 -1      1527 0.00000E+00
 -1      1529 0.00000E+00
 -1      1530 0.00000E+00
 -1      1532 0.00000E+00
 -1      1533 0.00000E+00
 -1      1535 0.00000E+00
 -1      1536 0.00000E+00
 -1      1538 0.00000E+00
 -1      1539 0.00000E+00
 -1      1541 0.00000E+00
 -1      1542 0.00000E+00
 -1      1544 0.00000E+00
 -1      1545 0.00000E+00
 -1      1547 0.00000E+00
 -1      1548 0.00000E+00
 -1      1550 0.00000E+00
 -1      1551 0.00000E+00
 -1      1553 0.00000E+00
 -1      1554 0.00000E+00
 -1      1556 0.00000E+00
 -1      1557 0.00000E+00
 -1      1559 0.00000E+00
 -1      1560 0.00000E+00
 -1      1562 0.00000E+00
 -1      1563 0.00000E+00
 -1      1565 0.00000E+00
 -1      1566 0.00000E+00
 -1      1568 0.00000E+00
 -1      1569 0.00000E+00
 -1      1571 0.00000E+00
 -1      1572 0.00000E+00
 -1      1574 0.00000E+00
 -1      1575 0.00000E+00
 -1      1577 0.00000E+00
 -1      1578 0.00000E+00
 -1      1580 0.00000E+00
 -1      1581 0.00000E+00
 -1      1583 0.00000E+00
 -1      1584 0.00000E+00
 -1      1586 0.00000E+00
 -1      1587 0.00000E+00
 -1      1589 0.00000E+00
 -1      1590 0.00000E+00
 -1      1592 0.00000E+00
 -1      1593 0.00000E+00
 -1      1595 0.00000E+00
 -1      1596 0.00000E+00
 -1      1598 0.00000E+00
 -1      1599 0.00000E+00
 -1      1601 0.00000E+00
 -1      1602 0.00000E+00
 -1      1604 0.00000E+00
 -1      1605 0.00000E+00
 -1      1607 0.00000E+00
 -1      1608 0.00000E+00
 -1      1610 0.00000E+00
 -1      1611 0.00000E+00
 -1      1613 0.00000E+00
 -1      1614 0.00000E+00
 -1      1616 0.00000E+00
 -1      1617 0.00000E+00
 -1      1619 0.00000E+00
 -1      1620 0.00000E+00
 -1      1622 0.00000E+00
 -1      1623 0.00000E+00
 -1      1625 0.00000E+00
 -1      1626 0.00000E+00
 -1      1628 0.00000E+00
 -1      1629 0.00000E+00
 -1      1631 0.00000E+00
 -1      1632 0.00000E+00
 -1      1634 0.00000E+00
 -1      1635 0.00000E+00
 -1      1637 0.00000E+00
 -1      1638 0.00000E+00
 -1      1640 0.00000E+00
 -1      1641 0.00000E+00
 -1      1643 0.00000E+00
 -1      1644 0.00000E+00
 -1      1646 0.00000E+00
 -1      1647 0.00000E+00
 -1      1649 0.00000E+00
 -1      1650 0.00000E+00
 -1      1652 0.00000E+00
 -1      1653 0.00000E+00
 -1      1655 0.00000E+00
 -1      1656 0.00000E+00
 -1      1658 0.00000E+00
 -1      1659 0.00000E+00
 -1      1661 0.00000E+00
 -1      1662 0.00000E+00
 -1      1664 0.00000E+00
 -1      1665 0.00000E+00
 -1      1667 0.00000E+00
 -1      1668 0.00000E+00
 -1      1670 0.00000E+00
 -1      1671 0.00000E+00
 -1      1673 0.00000E+00
 -1      1674 0.00000E+00
 -1      1676 0.00000E+00
 -1      1677 0.00000E+00
 -1      1679 0.00000E+00
 -1      1680 0.00000E+00
 -1      1682 0.00000E+00
 -1      1683 0.00000E+00
 -1      1685 0.00000E+00
 -1      1686 0.00000E+00
 -1      1688 0.00000E+00
 -1      1689 0.00000E+00
 -1      1691 0.00000E+00
 -1      1692 0.00000E+00
 -1      1694 0.00000E+00
 -1      1695 0.00000E+00
 -1      1697 0.00000E+00
 -1      1698 0.00000E+00
 -1      1700 0.00000E+00
 -1      1701 0.00000E+00
 -1      1703 0.00000E+00
 -1      1704 0.00000E+00
 -1      1706 0.00000E+00
 -1      1707 0.00000E+00
 -1      1709 0.00000E+00
 -1      1710 0.00000E+00
 -1      1712 0.00000E+00
 -1      1713 0.00000E+00
 -1      1715 0.00000E+00
 -1      1716 0.00000E+00
 -1      1718 0.00000E+00
 -1      1719 0.00000E+00
 -1      1721 0.00000E+00
 -1      1722 0.00000E+00
 -1      1724 0.00000E+00
 -1      1725 0.00000E+00
 -1      1727 0.00000E+00
 -1      1728 0.00000E+00
 -1      1730 0.00000E+00
 -1      1731 0.00000E+00
 -1      1733 0.00000E+00
 -1      1734 0.00000E+00
 -1      1736 0.00000E+00
 -1      1737 0.00000E+00
 -1      1739 0.00000E+00
 -1      1740 0.00000E+00
 -1      1742 0.00000E+00
 -1      1743 0.00000E+00
 -1      1745 0.00000E+00
 -1      1746 0.00000E+00
 -1      1748 0.00000E+00
 -1      1749 0.00000E+00
 -1      1751 0.00000E+00
 -1      1752 0.00000E+00
 -1      1754 0.00000E+00
 -1      1755 0.00000E+00
 -1      1757 0.00000E+00
 -1      1758 0.00000E+00
 -1      1760 0.00000E+00
 -1      1761 0.00000E+00
 -1      1763 0.00000E+00
 -1      1764 0.00000E+00
 -1      1766 0.00000E+00
 -1      1767 0.00000E+00
 -1      1769 0.00000E+00
 -1      1770 0.00000E+00
 -1      1772 0.00000E+00
 -1      1773 0.00000E+00
 -1      1775 0.00000E+00
 -1      1776 0.00000E+00
 -1      1778 0.00000E+00
 -1      1779 0.00000E+00
 -1      1781 0.00000E+00
 -1      1782 0.00000E+00
 -1      1784 0.00000E+00
 -1      1785 0.00000E+00
 -1      1787 0.00000E+00
 -1      1788 0.00000E+00
 -1      1790 0.00000E+00
 -1      1791 0.00000E+00
 -1      1793 0.00000E+00
 -1      1794 0.00000E+00
 -1      1796 0.00000E+00
 -1      1797 0.00000E+00
 -1      1799 0.00000E+00
 -1      1800 0.00000E+00
 -1      1802 0.00000E+00
 -1      1803 0.00000E+00
 -1      1805 0.00000E+00
 -1      1806 0.00000E+00
 -1      1808 0.00000E+00
 -1      1809 0.00000E+00
 -1      1811 0.00000E+00
 -1      1812 0.00000E+00
 -1      1814 0.00000E+00
 -1      1815 0.00000E+00
 -1      1817 0.00000E+00
 -1      1818 0.00000E+00
 -1      1820 0.00000E+00
 -1      1821 0.00000E+00
 -1      1823 0.00000E+00
 -1      1824 0.00000E+00
 -1      1826 0.00000E+00
 -1      1827 0.00000E+00
 -1      1829 0.00000E+00
 -1      1830 0.00000E+00
 -1      1832 0.00000E+00
 -1      1833 0.00000E+00
 -1      1835 0.00000E+00
 -1      1836 0.00000E+00
 -1      1838 0.00000E+00
 -1      1839 0.00000E+00
 -1      1841 0.00000E+00
 -1      1842 0.00000E+00
 -1      1844 0.00000E+00
 -1      1845 0.00000E+00
 -1      1847 0.00000E+00
 -1      1848 0.00000E+00
 -1      1850 0.00000E+00
 -1      1851 0.00000E+00
 -1      1853 0.00000E+00
 -1      1854 0.00000E+00
 -1      1856 0.00000E+00
 -1      1857 0.00000E+00
 -1      1859 0.00000E+00
 -1      1860 0.00000E+00
 -1      1862 0.00000E+00
 -1      1863 0.00000E+00
 -1      1865 0.00000E+00
 -1      1866 0.00000E+00
 -1      1868 0.00000E+00
 -1      1869 0.00000E+00
 -1      1871 0.00000E+00
 -1      1872 0.00000E+00
 -1      1874 0.00000E+00
 -1      1875 0.00000E+00
 -1      1877 0.00000E+00
 -1      1878 0.00000E+00
 -1      1880 0.00000E+00
 -1      1881 0.00000E+00
 -1      1883 0.00000E+00
 -1      1884 0.00000E+00
 -1      1886 0.00000E+00
 -1      1887 0.00000E+00
 -1      1889 0.00000E+00
 -1      1890 0.00000E+00
 -1      1892 0.00000E+00
 -1      1893 0.00000E+00
 -1      1895 0.00000E+00
 -1      1896 0.00000E+00
 -1      1898 0.00000E+00
 -1      1899 0.00000E+00
 -1      1901 0.00000E+00
 -1      1902 0.00000E+00
 -1      1904 0.00000E+00
 -1      1905 0.00000E+00
 -1      1907 0.00000E+00
 -1      1908 0.00000E+00
 -1      1910 0.00000E+00
 -1      1911 0.00000E+00
 -1      1913 0.00000E+00
 -1      1914 0.00000E+00
 -1      1916 0.00000E+00
 -1      1917 0.00000E+00
 -1      1919 0.00000E+00
 -1      1920 0.00000E+00
 -1      1922 0.00000E+00
 -1      1923 0.00000E+00
 -1      1925 0.00000E+00
 -1      1926 0.00000E+00
 -1      1928 0.00000E+00
 -1      1929 0.00000E+00
 -1      1931 0.00000E+00
 -1      1932 0.00000E+00
 -1      1934 0.00000E+00
 -1      1935 0.00000E+00
 -1      1937 0.00000E+00
 -1      1938 0.00000E+00
 -1      1940 0.00000E+00
 -1      1941 0.00000E+00
 -1      1943 0.00000E+00
 -1      1944 0.00000E+00
 -1      1946 0.00000E+00
 -1      1947 0.00000E+00
 -1      1949 0.00000E+00
 -1      1950 0.00000E+00
 -1      1952 0.00000E+00
 -1      1953 0.00000E+00
 -1      1955 0.00000E+00
 -1      1956 0.00000E+00
 -1      1958 0.00000E+00
 -1      1959 0.00000E+00
 -1      1961 0.00000E+00
 -1      1962 0.00000E+00
 -1      1964 0.00000E+00
 -1      1965 0.00000E+00
 -1      1967 0.00000E+00
 -1      1968 0.00000E+00
 -1      1970 0.00000E+00
 -1      1971 0.00000E+00
 -1      1973 0.00000E+00
 -1      1974 0.00000E+00
 -1      1976 0.00000E+00
 -1      1977 0.00000E+00
 -1      1979 0.00000E+00
 -1      1980 0.00000E+00
 -1      1982 0.00000E+00
 -1      1983 0.00000E+00
 -1      1985 0.00000E+00
 -1      1986 0.00000E+00
 -1      1988 0.00000E+00
 -1      1989 0.00000E+00
 -1      1991 0.00000E+00
 -1      1992 0.00000E+00
 -1      1994 0.00000E+00
 -1      1995 0.00000E+00
 -1      1997 0.00000E+00
 -1      1998 0.00000E+00
 -1      2000 0.00000E+00
 -1      2001 0.00000E+00
 -1      2003 0.00000E+00
 -1      2004 0.00000E+00
 -1      2006 0.00000E+00
 -1      2007 0.00000E+00
 -1      2009 0.00000E+00
 -1      2010 0.00000E+00
 -1      2012 0.00000E+00
 -1      2013 0.00000E+00
 -1      2015 0.00000E+00
 -1      2016 0.00000E+00
 -1      2018 0.00000E+00
 -1      2019 0.00000E+00
 -1      2021 0.00000E+00
 -1      2022 0.00000E+00
 -1      2024 0.00000E+00
 -1      2025 0.00000E+00
 -1      2027 0.00000E+00
 -1      2028 0.00000E+00
 -1      2030 0.00000E+00
 -1      2031 0.00000E+00
 -1      2033 0.00000E+00
 -1      2034 0.00000E+00
 -1      2036 0.00000E+00
 -1      2037 0.00000E+00
 -1      2039 0.00000E+00
 -1      2040 0.00000E+00
 -1      2042 0.00000E+00
 -1      2043 0.00000E+00
 -1      2045 0.00000E+00
 -1      2046 0.00000E+00
 -1      2048 0.00000E+00
 -1      2049 0.00000E+00
 -1      2051 0.00000E+00
 -1      2052 0.00000E+00
 -1      2054 0.00000E+00
 -1      2055 0.00000E+00
 -1      2057 0.00000E+00
 -1      2058 0.00000E+00
 -1      2060 0.00000E+00
 -1      2061 0.00000E+00
 -1      2063 0.00000E+00
 -1      2064 0.00000E+00
 -1      2066 0.00000E+00
 -1      2067 0.00000E+00
 -1      2069 0.00000E+00
 -1      2070 0.00000E+00
 -1      2072 0.00000E+00
 -1      2073 0.00000E+00
 -1      2075 0.00000E+00
 -1      2076 0.00000E+00
 -1      2078 0.00000E+00
 -1      2079 0.00000E+00
 -1      2081 0.00000E+00
 -1      2082 0.00000E+00
 -1      2084 0.00000E+00
 -1      2085 0.00000E+00
 -1      2087 0.00000E+00
 -1      2088 0.00000E+00
 -1      2090 0.00000E+00
 -1      2091 0.00000E+00
 -1      2093 0.00000E+00
 -1      2094 0.00000E+00
 -1      2096 0.00000E+00
 -1      2097 0.00000E+00
 -1      2099 0.00000E+00
 -1      2100 0.00000E+00
 -1      2102 0.00000E+00
 -1      2103 0.00000E+00
 -1      2105 0.00000E+00
 -1      2106 0.00000E+00
 -1      2108 0.00000E+00
 -1      2109 0.00000E+00
 -1      2111 0.00000E+00
 -1      2112 0.00000E+00
 -1      2114 0.00000E+00
 -1      2115 0.00000E+00
 -1      2117 0.00000E+00
 -1      2118 0.00000E+00
 -1      2120 0.00000E+00
 -1      2121 0.00000E+00
 -1      2123 0.00000E+00
 -1      2124 0.00000E+00
 -1      2126 0.00000E+00
 -1      2127 0.00000E+00
 -1      2129 0.00000E+00
 -1      2130 0.00000E+00
 -1      2132 0.00000E+00
 -1      2133 0.00000E+00
 -1      2135 0.00000E+00
 -1      2136 0.00000E+00
 -1      2138 0.00000E+00
 -1      2139 0.00000E+00
 -1      2141 0.00000E+00
 -1      2142 0.00000E+00
 -1      2144 0.00000E+00
 -1      2145 0.00000E+00
 -1      2147 0.00000E+00
 -1      2148 0.00000E+00
 -1      2150 0.00000E+00
 -1      2151 0.00000E+00
 -1      2153 0.00000E+00
 -1      2154 0.00000E+00
 -1      2156 0.00000E+00
 -1      2157 0.00000E+00
 -1      2159 0.00000E+00
 -1      2160 0.00000E+00
 -1      2162 0.00000E+00
 -1      2163 0.00000E+00
 -1      2165 0.00000E+00
 -1      2166 0.00000E+00
 -1      2168 0.00000E+00
 -1      2169 0.00000E+00
 -1      2171 0.00000E+00
 -1      2172 0.00000E+00
 -1      2174 0.00000E+00
 -1      2175 0.00000E+00
 -1      2177 0.00000E+00
 -1      2178 0.00000E+00
 -1      2180 0.00000E+00
 -1      2181 0.00000E+00
 -1      2183 0.00000E+00
 -1      2184 0.00000E+00
 -1      2186 0.00000E+00
 -1      2187 0.00000E+00
 -1      2189 0.00000E+00
 -1      2190 0.00000E+00
 -1      2192 0.00000E+00
 -1      2193 0.00000E+00
 -1      2195 0.00000E+00
 -1      2196 0.00000E+00
 -1      2198 0.00000E+00
 -1      2199 0.00000E+00
 -1      2201 0.00000E+00
 -1      2202 0.00000E+00
 -1      2204 0.00000E+00
 -1      2205 0.00000E+00
 -1      2207 0.00000E+00
 -1      2208 0.00000E+00
 -1      2210 0.00000E+00
 -1      2211 0.00000E+00
 -1      2213 0.00000E+00
 -1      2214 0.00000E+00
 -1      2216 0.00000E+00
 -1      2217 0.00000E+00
 -1      2219 0.00000E+00
 -1      2220 0.00000E+00
 -1      2222 0.00000E+00
 -1      2223 0.00000E+00
 -1      2225 0.00000E+00
 -1      2226 0.00000E+00
 -1      2228 0.00000E+00
 -1      2229 0.00000E+00
 -1      2231 0.00000E+00
 -1      2232 0.00000E+00
 -1      2234 0.00000E+00
 -1      2235 0.00000E+00
 -1      2237 0.00000E+00
 -1      2238 0.00000E+00
 -1      2240 0.00000E+00
 -1      2241 0.00000E+00
 -1      2243 0.00000E+00
 -1      2244 0.00000E+00
 -1      2246 0.00000E+00
 -1      2247 0.00000E+00
 -1      2249 0.00000E+00
 -1      2250 0.00000E+00
 -1      2252 0.00000E+00
 -1      2253 0.00000E+00
 -1      2255 0.00000E+00
 -1      2256 0.00000E+00
 -1      2258 0.00000E+00
 -1      2259 0.00000E+00
 -1      2261 0.00000E+00
 -1      2262 0.00000E+00
 -1      2264 0.00000E+00
 -1      2265 0.00000E+00
 -1      2267 0.00000E+00
 -1      2268 0.00000E+00
 -1      2270 0.00000E+00
 -1      2271 0.00000E+00
 -1      2273 0.00000E+00
 -1      2274 0.00000E+00
 -1      2276 0.00000E+00
 -1      2277 0.00000E+00
 -1      2279 0.00000E+00
 -1      2280 0.00000E+00
 -1      2282 0.00000E+00
 -1      2283 0.00000E+00
 -1      2285 0.00000E+00
 -1      2286 0.00000E+00
 -1      2288 0.00000E+00
 -1      2289 0.00000E+00
 -1      2291 0.00000E+00
 -1      2292 0.00000E+00
 -1      2294 0.00000E+00
 -3
    1PSTEP                        25           1           1          
    1PGM                1.000000E+00                                  
    1PGK                2.008104E+06                                  
    1PHID                         -1                                  
    1PSUBC                         0                                  
    1PMODE                         7                                  
  100CL  107 225.5346141         930                     2    7MODAL      1
 -4  DISP        4    1
 -5  D1          1    2    1    0
 -5  D2          1    2    2    0
 -5  D3          1    2    3    0
 -5  ALL         1    2    0    0    1ALL
 -1       404 0.00000E+00 0.00000E+00 1.81408E-04
 -1       406 0.00000E+00-0.00000E+00-1.81408E-04
 -1       407-1.06771E-02 1.45905E-01 3.44090E-02
 -1       409-1.07218E-02 1.41706E-01 3.44680E-02
 -1       410 1.33782E-13 1.46827E-01 5.63649E-13
 -1       412 1.22666E-13 1.39714E-01 5.64032E-13
 -1       413 4.14295E-04 1.43271E-01-2.26579E-03
 -1       415-4.14295E-04 1.43271E-01 2.26579E-03
 -1       424 0.00000E+00 0.00000E+00-5.37080E-16
 -1       426 0.00000E+00 0.00000E+00 5.37080E-16
 -1       427 0.00000E+00-3.42140E-16 0.00000E+00
 -1       429 0.00000E+00 3.42140E-16 0.00000E+00
 -1       438 1.06771E-02 1.45905E-01-3.44090E-02
 -1       440 1.07218E-02 1.41706E-01-3.44680E-02
 -1       441 0.00000E+00 0.00000E+00-1.81408E-04
 -1       443 0.00000E+00-0.00000E+00 1.81408E-04
 -1       444 0.00000E+00 3.16894E-16 0.00000E+00
 -1       446 0.00000E+00-3.16894E-16 0.00000E+00
 -1       447 0.00000E+00 0.00000E+00-4.97450E-16
 -1       449 0.00000E+00 0.00000E+00 4.97450E-16
 -1       458-4.14295E-04-1.43271E-01-2.26579E-03
 -1       460 4.14295E-04-1.43271E-01 2.26579E-03
 -1       461-1.43381E-13-1.46827E-01 5.63611E-13
 -1       463-1.36638E-13-1.39714E-01 5.65514E-13
 -1       472 0.00000E+00 0.00000E+00-1.81408E-04
 -1       474 0.00000E+00 0.00000E+00 1.81408E-04
 -1       475-1.06771E-02-1.45905E-01-3.44090E-02
 -1       477-1.07218E-02-1.41706E-01-3.44680E-02
 -1       478 1.06771E-02-1.45905E-01 3.44090E-02
 -1       480 1.07218E-02-1.41706E-01 3.44680E-02
 -1       481 0.00000E+00 0.00000E+00 1.81408E-04
 -1       483 0.00000E+00 0.00000E+00-1.81408E-04
 -1       484 5.30622E-03-5.64070E-03-3.25467E-03
 -1       486 6.13176E-03-5.05905E-03-3.38461E-03
 -1       487 9.11057E-03-1.50502E-02-7.89656E-03
 -1       489 9.55356E-03-1.38186E-02-8.02359E-03
 -1       490 1.13815E-02-2.80933E-02-1.20771E-02
 -1       492 1.20331E-02-2.62395E-02-1.21492E-02
 -1       493 1.25719E-02-4.26645E-02-1.65700E-02
 -1       495 1.31215E-02-4.02073E-02-1.65806E-02
 -1       496 1.27693E-02-5.79620E-02-2.07781E-02
 -1       498 1.33414E-02-5.49545E-02-2.07852E-02
 -1       499 1.22311E-02-7.28582E-02-2.48231E-02
 -1       501 1.27360E-02-6.93473E-02-2.47707E-02
 -1       502 1.10253E-02-8.66773E-02-2.83983E-02
 -1       504 1.14775E-02-8.27290E-02-2.83521E-02
 -1       505 9.32117E-03-9.86961E-02-3.14758E-02
 -1       507 9.68787E-03-9.43846E-02-3.13858E-02
 -1       508 7.19426E-03-1.08442E-01-3.38649E-02
 -1       510 7.46828E-03-1.03853E-01-3.37820E-02
 -1       511 4.76992E-03-1.15472E-01-3.55227E-02
 -1       513 4.93666E-03-1.10703E-01-3.54119E-02
 -1       514 2.13141E-03-1.19520E-01-3.63364E-02
 -1       516 2.18415E-03-1.14673E-01-3.62338E-02
 -1       517-6.15904E-04-1.20385E-01-3.62913E-02
 -1       519-6.81963E-04-1.15573E-01-3.61742E-02
 -1       520-3.38785E-03-1.18006E-01-3.53433E-02
 -1       522-3.57345E-03-1.13337E-01-3.52366E-02
 -1       523-6.09188E-03-1.12402E-01-3.35202E-02
 -1       525-6.39398E-03-1.07989E-01-3.34103E-02
 -1       526-8.65049E-03-1.03706E-01-3.08412E-02
 -1       528-9.06290E-03-9.96556E-02-3.07447E-02
 -1       529-1.09857E-02-9.21334E-02-2.73785E-02
 -1       531-1.14986E-02-8.85456E-02-2.72880E-02
 -1       532-1.30346E-02-7.79876E-02-2.32067E-02
 -1       534-1.36355E-02-7.49499E-02-2.31320E-02
 -1       535-1.47391E-02-6.16405E-02-1.84359E-02
 -1       537-1.54126E-02-5.92293E-02-1.83744E-02
 -1       538-1.60586E-02-4.35216E-02-1.31846E-02
 -1       540-1.67876E-02-4.17960E-02-1.31396E-02
 -1       541-1.69607E-02-2.41097E-02-7.58876E-03
 -1       543-1.77262E-02-2.31125E-02-7.56214E-03
 -1       544-1.74356E-02-3.89794E-03-1.79694E-03
 -1       546-1.82176E-02-3.65152E-03-1.78484E-03
 -1       547-1.74806E-02 1.65903E-02 4.04581E-03
 -1       549-1.82589E-02 1.60831E-02 4.03622E-03
 -1       550-1.71282E-02 3.68812E-02 9.77405E-03
 -1       552-1.78814E-02 3.56402E-02 9.75559E-03
 -1       553-1.64037E-02 5.64753E-02 1.52526E-02
 -1       555-1.71134E-02 5.45421E-02 1.52116E-02
 -1       556-1.54089E-02 7.50271E-02 2.03080E-02
 -1       558-1.60524E-02 7.24648E-02 2.02680E-02
 -1       559-1.41728E-02 9.21417E-02 2.48329E-02
 -1       561-1.47381E-02 8.90411E-02 2.47735E-02
 -1       562-1.29410E-02 1.07718E-01 2.86402E-02
 -1       564-1.33976E-02 1.04177E-01 2.85943E-02
 -1       565-1.16881E-02 1.21662E-01 3.16532E-02
 -1       567-1.20394E-02 1.17821E-01 3.16048E-02
 -1       568-1.08718E-02 1.34058E-01 3.36313E-02
 -1       570-1.10526E-02 1.29987E-01 3.35890E-02
 -1       571-5.32251E-03 1.46083E-01 1.96624E-02
 -1       573-5.35834E-03 1.41395E-01 1.95899E-02
 -1       574-2.15177E-14-4.57121E-03-3.84170E-14
 -1       576-1.21732E-14-4.26561E-03-3.77278E-14
 -1       577-3.68600E-04-4.41841E-03 9.73407E-05
 -1       579 3.68600E-04-4.41841E-03-9.73407E-05
 -1       588-3.02513E-14-1.46532E-02-8.58261E-14
 -1       590-2.63545E-14-1.37228E-02-8.56556E-14
 -1       591-4.69490E-04-1.41880E-02 2.96374E-04
 -1       593 4.69490E-04-1.41880E-02-2.96374E-04
 -1       602-4.03605E-14-2.77051E-02-1.30112E-13
 -1       604-3.29750E-14-2.60875E-02-1.29663E-13
 -1       605-6.09119E-04-2.68963E-02 5.15254E-04
 -1       607 6.09119E-04-2.68963E-02-5.15254E-04
 -1       616-4.51284E-14-4.25739E-02-1.77546E-13
 -1       618-3.97256E-14-4.01738E-02-1.77531E-13
 -1       619-6.28523E-04-4.13739E-02 7.64496E-04
 -1       621 6.28523E-04-4.13739E-02-7.64496E-04
 -1       630-4.86897E-14-5.80709E-02-2.26487E-13
 -1       632-4.12765E-14-5.48687E-02-2.26695E-13
 -1       633-6.55330E-04-5.64698E-02 1.01996E-03
 -1       635 6.55330E-04-5.64698E-02-1.01996E-03
 -1       644-4.69654E-14-7.32160E-02-2.78264E-13
 -1       646-4.05514E-14-6.92387E-02-2.78322E-13
 -1       647-6.05098E-04-7.12274E-02 1.26685E-03
 -1       649 6.05098E-04-7.12274E-02-1.26685E-03
 -1       658-4.23341E-14-8.72329E-02-3.26553E-13
 -1       660-3.61101E-14-8.25374E-02-3.26921E-13
 -1       661-5.57464E-04-8.48851E-02 1.49561E-03
 -1       663 5.57464E-04-8.48851E-02-1.49561E-03
 -1       672-3.49662E-14-9.94517E-02-3.67269E-13
 -1       674-3.05994E-14-9.41386E-02-3.67366E-13
 -1       675-4.59353E-04-9.67951E-02 1.69233E-03
 -1       677 4.59353E-04-9.67951E-02-1.69233E-03
 -1       686-2.68293E-14-1.09345E-01-3.98487E-13
 -1       688-2.32105E-14-1.03531E-01-3.99001E-13
 -1       689-3.61777E-04-1.06438E-01 1.85182E-03
 -1       691 3.61777E-04-1.06438E-01-1.85182E-03
 -1       700-1.78035E-14-1.16504E-01-4.25564E-13
 -1       702-1.44242E-14-1.10335E-01-4.25776E-13
 -1       703-2.34235E-04-1.13419E-01 1.96502E-03
 -1       705 2.34235E-04-1.13419E-01-1.96502E-03
 -1       714-6.26353E-15-1.20629E-01-4.47830E-13
 -1       716-3.80307E-15-1.14258E-01-4.48113E-13
 -1       717-1.08334E-04-1.17443E-01 2.02923E-03
 -1       719 1.08334E-04-1.17443E-01-2.02923E-03
 -1       728 7.47612E-15-1.21541E-01-4.59902E-13
 -1       730 7.92822E-15-1.15135E-01-4.60091E-13
 -1       731 3.16572E-05-1.18338E-01 2.04029E-03
 -1       733-3.16572E-05-1.18338E-01-2.04029E-03
 -1       742 2.20852E-14-1.19161E-01-4.58443E-13
 -1       744 2.08058E-14-1.12889E-01-4.60475E-13
 -1       745 1.65878E-04-1.16025E-01 1.99792E-03
 -1       747-1.65878E-04-1.16025E-01-1.99792E-03
 -1       756 3.66235E-14-1.13523E-01-4.48254E-13
 -1       758 3.47023E-14-1.07550E-01-4.48792E-13
 -1       759 3.01954E-04-1.10537E-01 1.90243E-03
 -1       761-3.01954E-04-1.10537E-01-1.90243E-03
 -1       770 5.24581E-14-1.04753E-01-4.25097E-13
 -1       772 4.77941E-14-9.92409E-02-4.26964E-13
 -1       773 4.26370E-04-1.01997E-01 1.75583E-03
 -1       775-4.26370E-04-1.01997E-01-1.75583E-03
 -1       784 6.65337E-14-9.30760E-02-3.92360E-13
 -1       786 6.18112E-14-8.81704E-02-3.92984E-13
 -1       787 5.43556E-04-9.06232E-02 1.56250E-03
 -1       789-5.43556E-04-9.06232E-02-1.56250E-03
 -1       798 8.16275E-14-7.87940E-02-3.51095E-13
 -1       800 7.50807E-14-7.46300E-02-3.51607E-13
 -1       801 6.42721E-04-7.67120E-02 1.32631E-03
 -1       803-6.42721E-04-7.67120E-02-1.32631E-03
 -1       812 9.58189E-14-6.22861E-02-3.01835E-13
 -1       814 8.86524E-14-5.89733E-02-3.02321E-13
 -1       815 7.28904E-04-6.06297E-02 1.05518E-03
 -1       817-7.28904E-04-6.06297E-02-1.05518E-03
 -1       826 1.08577E-13-4.39873E-02-2.45248E-13
 -1       828 1.00588E-13-4.16203E-02-2.46747E-13
 -1       829 7.91082E-04-4.28038E-02 7.53944E-04
 -1       831-7.91082E-04-4.28038E-02-7.53944E-04
 -1       840 1.19772E-13-2.43783E-02-1.80833E-13
 -1       842 1.09610E-13-2.30172E-02-1.80822E-13
 -1       843 8.38656E-04-2.36977E-02 4.33535E-04
 -1       845-8.38656E-04-2.36977E-02-4.33535E-04
 -1       854 1.27545E-13-3.96570E-03-1.03352E-13
 -1       856 1.16877E-13-3.65691E-03-1.04773E-13
 -1       857 8.56841E-04-3.81130E-03 9.83545E-05
 -1       859-8.56841E-04-3.81130E-03-9.83545E-05
 -1       868 1.32232E-13 1.67363E-02-2.48933E-14
 -1       870 1.22474E-13 1.59884E-02-2.56843E-14
 -1       871 8.64337E-04 1.63623E-02-2.38218E-04
 -1       873-8.64337E-04 1.63623E-02 2.38218E-04
 -1       882 1.35767E-13 3.72255E-02 5.48652E-14
 -1       884 1.25136E-13 3.54228E-02 5.30866E-14
 -1       885 8.37188E-04 3.63242E-02-5.74183E-04
 -1       887-8.37188E-04 3.63242E-02 5.74183E-04
 -1       896 1.37297E-13 5.70342E-02 1.35261E-13
 -1       898 1.26082E-13 5.42272E-02 1.37666E-13
 -1       899 8.10723E-04 5.56307E-02-8.94080E-04
 -1       901-8.10723E-04 5.56307E-02 8.94080E-04
 -1       910 1.36555E-13 7.57684E-02 2.14728E-13
 -1       912 1.27039E-13 7.19977E-02 2.12965E-13
 -1       913 7.44245E-04 7.38830E-02-1.20101E-03
 -1       915-7.44245E-04 7.38830E-02 1.20101E-03
 -1       924 1.36072E-13 9.30742E-02 2.84060E-13
 -1       926 1.27065E-13 8.84368E-02 2.83208E-13
 -1       927 6.97144E-04 9.07555E-02-1.47709E-03
 -1       929-6.97144E-04 9.07555E-02 1.47709E-03
 -1       938 1.35835E-13 1.08863E-01 3.52686E-13
 -1       940 1.26469E-13 1.03419E-01 3.53666E-13
 -1       941 6.12107E-04 1.06141E-01-1.73414E-03
 -1       943-6.12107E-04 1.06141E-01 1.73414E-03
 -1       952 1.35173E-13 1.22835E-01 4.24088E-13
 -1       954 1.24480E-13 1.16719E-01 4.26093E-13
 -1       955 5.54222E-04 1.19777E-01-1.94806E-03
 -1       957-5.54222E-04 1.19777E-01 1.94806E-03
 -1       966 1.33286E-13 1.35731E-01 4.94883E-13
 -1       968 1.24120E-13 1.29005E-01 4.93410E-13
 -1       969 5.16182E-04 1.32368E-01-2.14223E-03
 -1       971-5.16182E-04 1.32368E-01 2.14223E-03
 -1       980 0.00000E+00 0.00000E+00 6.96501E-05
 -1       982 0.00000E+00-0.00000E+00-6.96501E-05
 -1       983 5.32251E-03 1.46083E-01-1.96624E-02
 -1       985 5.35834E-03 1.41395E-01-1.95899E-02
 -1       986-5.30622E-03-5.64070E-03 3.25467E-03
 -1       988-6.13176E-03-5.05905E-03 3.38461E-03
 -1       989-9.11057E-03-1.50502E-02 7.89656E-03
 -1       991-9.55356E-03-1.38186E-02 8.02359E-03
 -1       992-1.13815E-02-2.80933E-02 1.20771E-02
 -1       994-1.20331E-02-2.62395E-02 1.21492E-02
 -1       995-1.25719E-02-4.26645E-02 1.65700E-02
 -1       997-1.31215E-02-4.02073E-02 1.65806E-02
 -1       998-1.27693E-02-5.79620E-02 2.07781E-02
 -1      1000-1.33414E-02-5.49545E-02 2.07852E-02
 -1      1001-1.22311E-02-7.28582E-02 2.48231E-02
 -1      1003-1.27360E-02-6.93473E-02 2.47707E-02
 -1      1004-1.10253E-02-8.66773E-02 2.83983E-02
 -1      1006-1.14775E-02-8.27290E-02 2.83521E-02
 -1      1007-9.32117E-03-9.86961E-02 3.14758E-02
 -1      1009-9.68787E-03-9.43846E-02 3.13858E-02
 -1      1010-7.19426E-03-1.08442E-01 3.38649E-02
 -1      1012-7.46828E-03-1.03853E-01 3.37820E-02
 -1      1013-4.76992E-03-1.15472E-01 3.55227E-02
 -1      1015-4.93666E-03-1.10703E-01 3.54119E-02
 -1      1016-2.13141E-03-1.19520E-01 3.63364E-02
 -1      1018-2.18415E-03-1.14673E-01 3.62338E-02
 -1      1019 6.15904E-04-1.20385E-01 3.62913E-02
 -1      1021 6.81963E-04-1.15573E-01 3.61742E-02
 -1      1022 3.38785E-03-1.18006E-01 3.53433E-02
 -1      1024 3.57345E-03-1.13337E-01 3.52366E-02
 -1      1025 6.09188E-03-1.12402E-01 3.35202E-02
 -1      1027 6.39398E-03-1.07989E-01 3.34103E-02
 -1      1028 8.65049E-03-1.03706E-01 3.08412E-02
 -1      1030 9.06290E-03-9.96556E-02 3.07447E-02
 -1      1031 1.09857E-02-9.21334E-02 2.73785E-02
 -1      1033 1.14986E-02-8.85456E-02 2.72880E-02
 -1      1034 1.30346E-02-7.79876E-02 2.32067E-02
 -1      1036 1.36355E-02-7.49499E-02 2.31320E-02
 -1      1037 1.47391E-02-6.16405E-02 1.84359E-02
 -1      1039 1.54126E-02-5.92293E-02 1.83744E-02
 -1      1040 1.60586E-02-4.35216E-02 1.31846E-02
 -1      1042 1.67876E-02-4.17960E-02 1.31396E-02
 -1      1043 1.69607E-02-2.41097E-02 7.58876E-03
 -1      1045 1.77262E-02-2.31125E-02 7.56214E-03
 -1      1046 1.74356E-02-3.89794E-03 1.79694E-03
 -1      1048 1.82176E-02-3.65152E-03 1.78484E-03
 -1      1049 1.74806E-02 1.65903E-02-4.04581E-03
 -1      1051 1.82589E-02 1.60831E-02-4.03622E-03
 -1      1052 1.71282E-02 3.68812E-02-9.77405E-03
 -1      1054 1.78814E-02 3.56402E-02-9.75559E-03
 -1      1055 1.64037E-02 5.64753E-02-1.52526E-02
 -1      1057 1.71134E-02 5.45421E-02-1.52116E-02
 -1      1058 1.54089E-02 7.50271E-02-2.03080E-02
 -1      1060 1.60524E-02 7.24648E-02-2.02680E-02
 -1      1061 1.41728E-02 9.21417E-02-2.48329E-02
 -1      1063 1.47381E-02 8.90411E-02-2.47735E-02
 -1      1064 1.29410E-02 1.07718E-01-2.86402E-02
 -1      1066 1.33976E-02 1.04177E-01-2.85943E-02
 -1      1067 1.16881E-02 1.21662E-01-3.16532E-02
 -1      1069 1.20394E-02 1.17821E-01-3.16048E-02
 -1      1070 1.08718E-02 1.34058E-01-3.36313E-02
 -1      1072 1.10526E-02 1.29987E-01-3.35890E-02
 -1      1073 0.00000E+00 0.00000E+00-6.96501E-05
 -1      1075 0.00000E+00-0.00000E+00 6.96501E-05
 -1      1076 0.00000E+00-1.37795E-16 0.00000E+00
 -1      1078 0.00000E+00 1.37795E-16 0.00000E+00
 -1      1079 0.00000E+00-1.00052E-17 0.00000E+00
 -1      1081 0.00000E+00 1.00052E-17 0.00000E+00
 -1      1082 0.00000E+00 1.29454E-16 0.00000E+00
 -1      1084 0.00000E+00-1.29454E-16 0.00000E+00
 -1      1085 3.68600E-04 4.41841E-03 9.73407E-05
 -1      1087-3.68600E-04 4.41841E-03-9.73407E-05
 -1      1088 2.02669E-14 4.57121E-03-3.43022E-14
 -1      1090 1.21698E-14 4.26561E-03-3.36053E-14
 -1      1099 4.69490E-04 1.41880E-02 2.96374E-04
 -1      1101-4.69490E-04 1.41880E-02-2.96374E-04
 -1      1102 3.06393E-14 1.46532E-02-8.08498E-14
 -1      1104 2.59977E-14 1.37228E-02-8.06338E-14
 -1      1113 6.09119E-04 2.68963E-02 5.15254E-04
 -1      1115-6.09119E-04 2.68963E-02-5.15254E-04
 -1      1116 4.06191E-14 2.77051E-02-1.29225E-13
 -1      1118 3.29939E-14 2.60875E-02-1.28978E-13
 -1      1127 6.28523E-04 4.13739E-02 7.64496E-04
 -1      1129-6.28523E-04 4.13739E-02-7.64496E-04
 -1      1130 4.45231E-14 4.25739E-02-1.81436E-13
 -1      1132 3.83758E-14 4.01738E-02-1.81255E-13
 -1      1141 6.55330E-04 5.64698E-02 1.01996E-03
 -1      1143-6.55330E-04 5.64698E-02-1.01996E-03
 -1      1144 4.65579E-14 5.80709E-02-2.32736E-13
 -1      1146 3.94080E-14 5.48687E-02-2.32748E-13
 -1      1155 6.05098E-04 7.12274E-02 1.26685E-03
 -1      1157-6.05098E-04 7.12274E-02-1.26685E-03
 -1      1158 4.45162E-14 7.32160E-02-2.82008E-13
 -1      1160 3.84972E-14 6.92387E-02-2.82340E-13
 -1      1169 5.57464E-04 8.48851E-02 1.49561E-03
 -1      1171-5.57464E-04 8.48851E-02-1.49561E-03
 -1      1172 4.05635E-14 8.72329E-02-3.24695E-13
 -1      1174 3.54312E-14 8.25374E-02-3.25147E-13
 -1      1183 4.59353E-04 9.67951E-02 1.69233E-03
 -1      1185-4.59353E-04 9.67951E-02-1.69233E-03
 -1      1186 3.53491E-14 9.94517E-02-3.62574E-13
 -1      1188 3.04698E-14 9.41386E-02-3.62853E-13
 -1      1197 3.61777E-04 1.06438E-01 1.85182E-03
 -1      1199-3.61777E-04 1.06438E-01-1.85182E-03
 -1      1200 2.81022E-14 1.09345E-01-3.99276E-13
 -1      1202 2.27721E-14 1.03531E-01-4.00543E-13
 -1      1211 2.34235E-04 1.13419E-01 1.96502E-03
 -1      1213-2.34235E-04 1.13419E-01-1.96502E-03
 -1      1214 1.69367E-14 1.16504E-01-4.30666E-13
 -1      1216 1.34713E-14 1.10335E-01-4.30964E-13
 -1      1225 1.08334E-04 1.17443E-01 2.02923E-03
 -1      1227-1.08334E-04 1.17443E-01-2.02923E-03
 -1      1228 4.76489E-15 1.20629E-01-4.48929E-13
 -1      1230 2.46718E-15 1.14258E-01-4.50469E-13
 -1      1239-3.16572E-05 1.18338E-01 2.04029E-03
 -1      1241 3.16572E-05 1.18338E-01-2.04029E-03
 -1      1242-8.99814E-15 1.21541E-01-4.55970E-13
 -1      1244-8.58588E-15 1.15135E-01-4.56307E-13
 -1      1253-1.65878E-04 1.16025E-01 1.99792E-03
 -1      1255 1.65878E-04 1.16025E-01-1.99792E-03
 -1      1256-2.28155E-14 1.19161E-01-4.52244E-13
 -1      1258-2.22491E-14 1.12889E-01-4.52019E-13
 -1      1267-3.01954E-04 1.10537E-01 1.90243E-03
 -1      1269 3.01954E-04 1.10537E-01-1.90243E-03
 -1      1270-3.79957E-14 1.13523E-01-4.42181E-13
 -1      1272-3.66876E-14 1.07550E-01-4.42167E-13
 -1      1281-4.26370E-04 1.01997E-01 1.75583E-03
 -1      1283 4.26370E-04 1.01997E-01-1.75583E-03
 -1      1284-5.50394E-14 1.04753E-01-4.19807E-13
 -1      1286-5.04187E-14 9.92409E-02-4.19744E-13
 -1      1295-5.43556E-04 9.06232E-02 1.56250E-03
 -1      1297 5.43556E-04 9.06232E-02-1.56250E-03
 -1      1298-6.96012E-14 9.30760E-02-3.85799E-13
 -1      1300-6.48763E-14 8.81704E-02-3.85626E-13
 -1      1309-6.42721E-04 7.67120E-02 1.32631E-03
 -1      1311 6.42721E-04 7.67120E-02-1.32631E-03
 -1      1312-8.35254E-14 7.87940E-02-3.44992E-13
 -1      1314-7.75593E-14 7.46300E-02-3.45900E-13
 -1      1323-7.28904E-04 6.06297E-02 1.05518E-03
 -1      1325 7.28904E-04 6.06297E-02-1.05518E-03
 -1      1326-9.55286E-14 6.22861E-02-3.00371E-13
 -1      1328-8.97789E-14 5.89733E-02-3.00801E-13
 -1      1337-7.91082E-04 4.28038E-02 7.53944E-04
 -1      1339 7.91082E-04 4.28038E-02-7.53944E-04
 -1      1340-1.07193E-13 4.39873E-02-2.47180E-13
 -1      1342-9.94321E-14 4.16203E-02-2.47258E-13
 -1      1351-8.38656E-04 2.36977E-02 4.33535E-04
 -1      1353 8.38656E-04 2.36977E-02-4.33535E-04
 -1      1354-1.17473E-13 2.43783E-02-1.80269E-13
 -1      1356-1.08131E-13 2.30172E-02-1.81039E-13
 -1      1365-8.56841E-04 3.81130E-03 9.83545E-05
 -1      1367 8.56841E-04 3.81130E-03-9.83545E-05
 -1      1368-1.24995E-13 3.96570E-03-1.10682E-13
 -1      1370-1.17166E-13 3.65691E-03-1.09586E-13
 -1      1379-8.64337E-04-1.63623E-02-2.38218E-04
 -1      1381 8.64337E-04-1.63623E-02 2.38218E-04
 -1      1382-1.34819E-13-1.67363E-02-2.91121E-14
 -1      1384-1.21934E-13-1.59884E-02-2.86126E-14
 -1      1393-8.37188E-04-3.63242E-02-5.74183E-04
 -1      1395 8.37188E-04-3.63242E-02 5.74183E-04
 -1      1396-1.39167E-13-3.72255E-02 6.32585E-14
 -1      1398-1.28265E-13-3.54228E-02 6.41048E-14
 -1      1407-8.10723E-04-5.56307E-02-8.94080E-04
 -1      1409 8.10723E-04-5.56307E-02 8.94080E-04
 -1      1410-1.42231E-13-5.70342E-02 1.47937E-13
 -1      1412-1.32091E-13-5.42272E-02 1.47181E-13
 -1      1421-7.44245E-04-7.38830E-02-1.20101E-03
 -1      1423 7.44245E-04-7.38830E-02 1.20101E-03
 -1      1424-1.43589E-13-7.57684E-02 2.19389E-13
 -1      1426-1.35097E-13-7.19977E-02 2.20302E-13
 -1      1435-6.97144E-04-9.07555E-02-1.47709E-03
 -1      1437 6.97144E-04-9.07555E-02 1.47709E-03
 -1      1438-1.46461E-13-9.30742E-02 2.91273E-13
 -1      1440-1.35827E-13-8.84368E-02 2.92580E-13
 -1      1449-6.12107E-04-1.06141E-01-1.73414E-03
 -1      1451 6.12107E-04-1.06141E-01 1.73414E-03
 -1      1452-1.46735E-13-1.08863E-01 3.71163E-13
 -1      1454-1.35983E-13-1.03419E-01 3.68510E-13
 -1      1463-5.54222E-04-1.19777E-01-1.94806E-03
 -1      1465 5.54222E-04-1.19777E-01 1.94806E-03
 -1      1466-1.44461E-13-1.22835E-01 4.39154E-13
 -1      1468-1.36675E-13-1.16719E-01 4.39726E-13
 -1      1477-5.16182E-04-1.32368E-01-2.14223E-03
 -1      1479 5.16182E-04-1.32368E-01 2.14223E-03
 -1      1480-1.44448E-13-1.35731E-01 5.02443E-13
 -1      1482-1.35335E-13-1.29005E-01 5.01948E-13
 -1      1491 2.13088E-04 7.80648E-02-3.30374E-03
 -1      1493-2.13088E-04 7.80648E-02 3.30374E-03
 -1      1494 4.86434E-14 4.90539E-12-3.38922E-03
 -1      1496-6.59993E-14 4.90416E-12 3.38922E-03
 -1      1497-2.13088E-04-7.80648E-02-3.30374E-03
 -1      1499 2.13088E-04-7.80648E-02 3.30374E-03
 -1      1500 5.30622E-03 5.64070E-03 3.25467E-03
 -1      1502 6.13176E-03 5.05905E-03 3.38461E-03
 -1      1503 9.11057E-03 1.50502E-02 7.89656E-03
 -1      1505 9.55356E-03 1.38186E-02 8.02359E-03
 -1      1506 1.13815E-02 2.80933E-02 1.20771E-02
 -1      1508 1.20331E-02 2.62395E-02 1.21492E-02
 -1      1509 1.25719E-02 4.26645E-02 1.65700E-02
 -1      1511 1.31215E-02 4.02073E-02 1.65806E-02
 -1      1512 1.27693E-02 5.79620E-02 2.07781E-02
 -1      1514 1.33414E-02 5.49545E-02 2.07852E-02
 -1      1515 1.22311E-02 7.28582E-02 2.48231E-02
 -1      1517 1.27360E-02 6.93473E-02 2.47707E-02
 -1      1518 1.10253E-02 8.66773E-02 2.83983E-02
 -1      1520 1.14775E-02 8.27290E-02 2.83521E-02
 -1      1521 9.32117E-03 9.86961E-02 3.14758E-02
 -1      1523 9.68787E-03 9.43846E-02 3.13858E-02
 -1      1524 7.19426E-03 1.08442E-01 3.38649E-02
 -1      1526 7.46828E-03 1.03853E-01 3.37820E-02
 -1      1527 4.76992E-03 1.15472E-01 3.55227E-02
 -1      1529 4.93666E-03 1.10703E-01 3.54119E-02
 -1      1530 2.13141E-03 1.19520E-01 3.63364E-02
 -1      1532 2.18415E-03 1.14673E-01 3.62338E-02
 -1      1533-6.15904E-04 1.20385E-01 3.62913E-02
 -1      1535-6.81963E-04 1.15573E-01 3.61742E-02
 -1      1536-3.38785E-03 1.18006E-01 3.53433E-02
 -1      1538-3.57345E-03 1.13337E-01 3.52366E-02
 -1      1539-6.09188E-03 1.12402E-01 3.35202E-02
 -1      1541-6.39398E-03 1.07989E-01 3.34103E-02
 -1      1542-8.65049E-03 1.03706E-01 3.08412E-02
 -1      1544-9.06290E-03 9.96556E-02 3.07447E-02
 -1      1545-1.09857E-02 9.21334E-02 2.73785E-02
 -1      1547-1.14986E-02 8.85456E-02 2.72880E-02
 -1      1548-1.30346E-02 7.79876E-02 2.32067E-02
 -1      1550-1.36355E-02 7.49499E-02 2.31320E-02
 -1      1551-1.47391E-02 6.16405E-02 1.84359E-02
 -1      1553-1.54126E-02 5.92293E-02 1.83744E-02
 -1      1554-1.60586E-02 4.35216E-02 1.31846E-02
 -1      1556-1.67876E-02 4.17960E-02 1.31396E-02
 -1      1557-1.69607E-02 2.41097E-02 7.58876E-03
 -1      1559-1.77262E-02 2.31125E-02 7.56214E-03
 -1      1560-1.74356E-02 3.89794E-03 1.79694E-03
 -1      1562-1.82176E-02 3.65152E-03 1.78484E-03
 -1      1563-1.74806E-02-1.65903E-02-4.04581E-03
 -1      1565-1.82589E-02-1.60831E-02-4.03622E-03
 -1      1566-1.71282E-02-3.68812E-02-9.77405E-03
 -1      1568-1.78814E-02-3.56402E-02-9.75559E-03
 -1      1569-1.64037E-02-5.64753E-02-1.52526E-02
 -1      1571-1.71134E-02-5.45421E-02-1.52116E-02
 -1      1572-1.54089E-02-7.50271E-02-2.03080E-02
 -1      1574-1.60524E-02-7.24648E-02-2.02680E-02
 -1      1575-1.41728E-02-9.21417E-02-2.48329E-02
 -1      1577-1.47381E-02-8.90411E-02-2.47735E-02
 -1      1578-1.29410E-02-1.07718E-01-2.86402E-02
 -1      1580-1.33976E-02-1.04177E-01-2.85943E-02
 -1      1581-1.16881E-02-1.21662E-01-3.16532E-02
 -1      1583-1.20394E-02-1.17821E-01-3.16048E-02
 -1      1584-1.08718E-02-1.34058E-01-3.36313E-02
 -1      1586-1.10526E-02-1.29987E-01-3.35890E-02
 -1      1587-5.32251E-03-1.46083E-01-1.96624E-02
 -1      1589-5.35834E-03-1.41395E-01-1.95899E-02
 -1      1590 0.00000E+00 0.00000E+00-6.96501E-05
 -1      1592 0.00000E+00 0.00000E+00 6.96501E-05
 -1      1593 5.32251E-03-1.46083E-01 1.96624E-02
 -1      1595 5.35834E-03-1.41395E-01 1.95899E-02
 -1      1596-5.30622E-03 5.64070E-03-3.25467E-03
 -1      1598-6.13176E-03 5.05905E-03-3.38461E-03
 -1      1599-9.11057E-03 1.50502E-02-7.89656E-03
 -1      1601-9.55356E-03 1.38186E-02-8.02359E-03
 -1      1602-1.13815E-02 2.80933E-02-1.20771E-02
 -1      1604-1.20331E-02 2.62395E-02-1.21492E-02
 -1      1605-1.25719E-02 4.26645E-02-1.65700E-02
 -1      1607-1.31215E-02 4.02073E-02-1.65806E-02
 -1      1608-1.27693E-02 5.79620E-02-2.07781E-02
 -1      1610-1.33414E-02 5.49545E-02-2.07852E-02
 -1      1611-1.22311E-02 7.28582E-02-2.48231E-02
 -1      1613-1.27360E-02 6.93473E-02-2.47707E-02
 -1      1614-1.10253E-02 8.66773E-02-2.83983E-02
 -1      1616-1.14775E-02 8.27290E-02-2.83521E-02
 -1      1617-9.32117E-03 9.86961E-02-3.14758E-02
 -1      1619-9.68787E-03 9.43846E-02-3.13858E-02
 -1      1620-7.19426E-03 1.08442E-01-3.38649E-02
 -1      1622-7.46828E-03 1.03853E-01-3.37820E-02
 -1      1623-4.76992E-03 1.15472E-01-3.55227E-02
 -1      1625-4.93666E-03 1.10703E-01-3.54119E-02
 -1      1626-2.13141E-03 1.19520E-01-3.63364E-02
 -1      1628-2.18415E-03 1.14673E-01-3.62338E-02
 -1      1629 6.15904E-04 1.20385E-01-3.62913E-02
 -1      1631 6.81963E-04 1.15573E-01-3.61742E-02
 -1      1632 3.38785E-03 1.18006E-01-3.53433E-02
 -1      1634 3.57345E-03 1.13337E-01-3.52366E-02
 -1      1635 6.09188E-03 1.12402E-01-3.35202E-02
 -1      1637 6.39398E-03 1.07989E-01-3.34103E-02
 -1      1638 8.65049E-03 1.03706E-01-3.08412E-02
 -1      1640 9.06290E-03 9.96556E-02-3.07447E-02
 -1      1641 1.09857E-02 9.21334E-02-2.73785E-02
 -1      1643 1.14986E-02 8.85456E-02-2.72880E-02
 -1      1644 1.30346E-02 7.79876E-02-2.32067E-02
 -1      1646 1.36355E-02 7.49499E-02-2.31320E-02
 -1      1647 1.47391E-02 6.16405E-02-1.84359E-02
 -1      1649 1.54126E-02 5.92293E-02-1.83744E-02
 -1      1650 1.60586E-02 4.35216E-02-1.31846E-02
 -1      1652 1.67876E-02 4.17960E-02-1.31396E-02
 -1      1653 1.69607E-02 2.41097E-02-7.58876E-03
 -1      1655 1.77262E-02 2.31125E-02-7.56214E-03
 -1      1656 1.74356E-02 3.89794E-03-1.79694E-03
 -1      1658 1.82176E-02 3.65152E-03-1.78484E-03
 -1      1659 1.74806E-02-1.65903E-02 4.04581E-03
 -1      1661 1.82589E-02-1.60831E-02 4.03622E-03
 -1      1662 1.71282E-02-3.68812E-02 9.77405E-03
 -1      1664 1.78814E-02-3.56402E-02 9.75559E-03
 -1      1665 1.64037E-02-5.64753E-02 1.52526E-02
 -1      1667 1.71134E-02-5.45421E-02 1.52116E-02
 -1      1668 1.54089E-02-7.50271E-02 2.03080E-02
 -1      1670 1.60524E-02-7.24648E-02 2.02680E-02
 -1      1671 1.41728E-02-9.21417E-02 2.48329E-02
 -1      1673 1.47381E-02-8.90411E-02 2.47735E-02
 -1      1674 1.29410E-02-1.07718E-01 2.86402E-02
 -1      1676 1.33976E-02-1.04177E-01 2.85943E-02
 -1      1677 1.16881E-02-1.21662E-01 3.16532E-02
 -1      1679 1.20394E-02-1.17821E-01 3.16048E-02
 -1      1680 1.08718E-02-1.34058E-01 3.36313E-02
 -1      1682 1.10526E-02-1.29987E-01 3.35890E-02
 -1      1683 0.00000E+00 0.00000E+00 6.96501E-05
 -1      1685 0.00000E+00 0.00000E+00-6.96501E-05
 -1      1686 2.28204E-03-4.84257E-03-1.36823E-03
 -1      1688 2.67767E-03-4.28501E-03-1.48043E-03
 -1      1689 4.46797E-03-1.49547E-02-3.71435E-03
 -1      1691 4.70272E-03-1.36593E-02-3.77477E-03
 -1      1692 5.51234E-03-2.78559E-02-5.83583E-03
 -1      1694 5.85495E-03-2.59511E-02-5.87414E-03
 -1      1695 6.17018E-03-4.26912E-02-8.24144E-03
 -1      1697 6.47776E-03-4.01560E-02-8.25889E-03
 -1      1698 6.27546E-03-5.80125E-02-1.05550E-02
 -1      1700 6.59433E-03-5.48774E-02-1.05473E-02
 -1      1701 6.02051E-03-7.30595E-02-1.28009E-02
 -1      1703 6.30985E-03-6.93691E-02-1.27844E-02
 -1      1704 5.43695E-03-8.69360E-02-1.48283E-02
 -1      1706 5.69598E-03-8.27405E-02-1.47929E-02
 -1      1707 4.59570E-03-9.90525E-02-1.65741E-02
 -1      1709 4.80943E-03-9.44368E-02-1.65329E-02
 -1      1710 3.55002E-03-1.08848E-01-1.79600E-02
 -1      1712 3.71100E-03-1.03898E-01-1.79078E-02
 -1      1713 2.35065E-03-1.15935E-01-1.89309E-02
 -1      1715 2.45219E-03-1.10763E-01-1.88746E-02
 -1      1716 1.04742E-03-1.20009E-01-1.94450E-02
 -1      1718 1.08448E-03-1.14727E-01-1.93846E-02
 -1      1719-3.12663E-04-1.20892E-01-1.94768E-02
 -1      1721-3.42049E-04-1.15630E-01-1.94144E-02
 -1      1722-1.68413E-03-1.18509E-01-1.90142E-02
 -1      1724-1.78081E-03-1.13388E-01-1.89535E-02
 -1      1725-3.02339E-03-1.12888E-01-1.80646E-02
 -1      1727-3.18530E-03-1.08038E-01-1.80046E-02
 -1      1728-4.29026E-03-1.04159E-01-1.66443E-02
 -1      1730-4.51410E-03-9.96990E-02-1.65906E-02
 -1      1731-5.44737E-03-9.25402E-02-1.47909E-02
 -1      1733-5.72742E-03-8.85841E-02-1.47403E-02
 -1      1734-6.46239E-03-7.83356E-02-1.25457E-02
 -1      1736-6.79178E-03-7.49836E-02-1.25052E-02
 -1      1737-7.30762E-03-6.19187E-02-9.97175E-03
 -1      1739-7.67772E-03-5.92567E-02-9.93588E-03
 -1      1740-7.96183E-03-4.37241E-02-7.12888E-03
 -1      1742-8.36316E-03-4.18212E-02-7.10631E-03
 -1      1743-8.41045E-03-2.42264E-02-4.09882E-03
 -1      1745-8.83260E-03-2.31310E-02-4.08057E-03
 -1      1746-8.64674E-03-3.93338E-03-9.50486E-04
 -1      1748-9.07862E-03-3.67485E-03-9.48229E-04
 -1      1749-8.67281E-03 1.66503E-02 2.22379E-03
 -1      1751-9.10391E-03 1.60667E-02 2.22457E-03
 -1      1752-8.49866E-03 3.70128E-02 5.35735E-03
 -1      1754-8.91700E-03 3.56022E-02 5.33968E-03
 -1      1755-8.15084E-03 5.67105E-02 8.35590E-03
 -1      1757-8.54838E-03 5.45116E-02 8.34303E-03
 -1      1758-7.64977E-03 7.53032E-02 1.11661E-02
 -1      1760-8.01288E-03 7.23785E-02 1.11326E-02
 -1      1761-7.07674E-03 9.25333E-02 1.36992E-02
 -1      1763-7.40388E-03 8.89612E-02 1.36798E-02
 -1      1764-6.42231E-03 1.08095E-01 1.59134E-02
 -1      1766-6.69291E-03 1.03996E-01 1.58769E-02
 -1      1767-5.90913E-03 1.22134E-01 1.77267E-02
 -1      1769-6.13248E-03 1.17622E-01 1.77035E-02
 -1      1770-5.44938E-03 1.34438E-01 1.90194E-02
 -1      1772-5.57730E-03 1.29747E-01 1.90247E-02
 -1      1773-2.28204E-03-4.84257E-03 1.36823E-03
 -1      1775-2.67767E-03-4.28501E-03 1.48043E-03
 -1      1776-4.46797E-03-1.49547E-02 3.71435E-03
 -1      1778-4.70272E-03-1.36593E-02 3.77477E-03
 -1      1779-5.51234E-03-2.78559E-02 5.83583E-03
 -1      1781-5.85495E-03-2.59511E-02 5.87414E-03
 -1      1782-6.17018E-03-4.26912E-02 8.24144E-03
 -1      1784-6.47776E-03-4.01560E-02 8.25889E-03
 -1      1785-6.27546E-03-5.80125E-02 1.05550E-02
 -1      1787-6.59433E-03-5.48774E-02 1.05473E-02
 -1      1788-6.02051E-03-7.30595E-02 1.28009E-02
 -1      1790-6.30985E-03-6.93691E-02 1.27844E-02
 -1      1791-5.43695E-03-8.69360E-02 1.48283E-02
 -1      1793-5.69598E-03-8.27405E-02 1.47929E-02
 -1      1794-4.59570E-03-9.90525E-02 1.65741E-02
 -1      1796-4.80943E-03-9.44368E-02 1.65329E-02
 -1      1797-3.55002E-03-1.08848E-01 1.79600E-02
 -1      1799-3.71100E-03-1.03898E-01 1.79078E-02
 -1      1800-2.35065E-03-1.15935E-01 1.89309E-02
 -1      1802-2.45219E-03-1.10763E-01 1.88746E-02
 -1      1803-1.04742E-03-1.20009E-01 1.94450E-02
 -1      1805-1.08448E-03-1.14727E-01 1.93846E-02
 -1      1806 3.12663E-04-1.20892E-01 1.94768E-02
 -1      1808 3.42049E-04-1.15630E-01 1.94144E-02
 -1      1809 1.68413E-03-1.18509E-01 1.90142E-02
 -1      1811 1.78081E-03-1.13388E-01 1.89535E-02
 -1      1812 3.02339E-03-1.12888E-01 1.80646E-02
 -1      1814 3.18530E-03-1.08038E-01 1.80046E-02
 -1      1815 4.29026E-03-1.04159E-01 1.66443E-02
 -1      1817 4.51410E-03-9.96990E-02 1.65906E-02
 -1      1818 5.44737E-03-9.25402E-02 1.47909E-02
 -1      1820 5.72742E-03-8.85841E-02 1.47403E-02
 -1      1821 6.46239E-03-7.83356E-02 1.25457E-02
 -1      1823 6.79178E-03-7.49836E-02 1.25052E-02
 -1      1824 7.30762E-03-6.19187E-02 9.97175E-03
 -1      1826 7.67772E-03-5.92567E-02 9.93588E-03
 -1      1827 7.96183E-03-4.37241E-02 7.12888E-03
 -1      1829 8.36316E-03-4.18212E-02 7.10631E-03
 -1      1830 8.41045E-03-2.42264E-02 4.09882E-03
 -1      1832 8.83260E-03-2.31310E-02 4.08057E-03
 -1      1833 8.64674E-03-3.93338E-03 9.50486E-04
 -1      1835 9.07862E-03-3.67485E-03 9.48229E-04
 -1      1836 8.67281E-03 1.66503E-02-2.22379E-03
 -1      1838 9.10391E-03 1.60667E-02-2.22457E-03
 -1      1839 8.49866E-03 3.70128E-02-5.35735E-03
 -1      1841 8.91700E-03 3.56022E-02-5.33968E-03
 -1      1842 8.15084E-03 5.67105E-02-8.35590E-03
 -1      1844 8.54838E-03 5.45116E-02-8.34303E-03
 -1      1845 7.64977E-03 7.53032E-02-1.11661E-02
 -1      1847 8.01288E-03 7.23785E-02-1.11326E-02
 -1      1848 7.07674E-03 9.25333E-02-1.36992E-02
 -1      1850 7.40388E-03 8.89612E-02-1.36798E-02
 -1      1851 6.42231E-03 1.08095E-01-1.59134E-02
 -1      1853 6.69291E-03 1.03996E-01-1.58769E-02
 -1      1854 5.90913E-03 1.22134E-01-1.77267E-02
 -1      1856 6.13248E-03 1.17622E-01-1.77035E-02
 -1      1857 5.44938E-03 1.34438E-01-1.90194E-02
 -1      1859 5.57730E-03 1.29747E-01-1.90247E-02
 -1      1860-2.13362E-04-2.52223E-03 6.78070E-05
 -1      1862 2.13362E-04-2.52223E-03-6.78070E-05
 -1      1863-2.52585E-04-7.87265E-03 2.53115E-04
 -1      1865 2.52585E-04-7.87265E-03-2.53115E-04
 -1      1866-3.35654E-04-1.46859E-02 5.37252E-04
 -1      1868 3.35654E-04-1.46859E-02-5.37252E-04
 -1      1869-3.41666E-04-2.24942E-02 8.63695E-04
 -1      1871 3.41666E-04-2.24942E-02-8.63695E-04
 -1      1872-3.59383E-04-3.05981E-02 1.20677E-03
 -1      1874 3.59383E-04-3.05981E-02-1.20677E-03
 -1      1875-3.30907E-04-3.85641E-02 1.54435E-03
 -1      1877 3.30907E-04-3.85641E-02-1.54435E-03
 -1      1878-3.06082E-04-4.59244E-02 1.85570E-03
 -1      1880 3.06082E-04-4.59244E-02-1.85570E-03
 -1      1881-2.52158E-04-5.23691E-02 2.12873E-03
 -1      1883 2.52158E-04-5.23691E-02-2.12873E-03
 -1      1884-1.99045E-04-5.75823E-02 2.34937E-03
 -1      1886 1.99045E-04-5.75823E-02-2.34937E-03
 -1      1887-1.28919E-04-6.13692E-02 2.51064E-03
 -1      1889 1.28919E-04-6.13692E-02-2.51064E-03
 -1      1890-5.97467E-05-6.35494E-02 2.60442E-03
 -1      1892 5.97467E-05-6.35494E-02-2.60442E-03
 -1      1893 1.74243E-05-6.40378E-02 2.62840E-03
 -1      1895-1.74243E-05-6.40378E-02-2.62840E-03
 -1      1896 9.14632E-05-6.27804E-02 2.57933E-03
 -1      1898-9.14632E-05-6.27804E-02-2.57933E-03
 -1      1899 1.66646E-04-5.97987E-02 2.45988E-03
 -1      1901-1.66646E-04-5.97987E-02-2.45988E-03
 -1      1902 2.35448E-04-5.51539E-02 2.27062E-03
 -1      1904-2.35448E-04-5.51539E-02-2.27062E-03
 -1      1905 3.00328E-04-4.89646E-02 2.01933E-03
 -1      1907-3.00328E-04-4.89646E-02-2.01933E-03
 -1      1908 3.55296E-04-4.13906E-02 1.70911E-03
 -1      1910-3.55296E-04-4.13906E-02-1.70911E-03
 -1      1911 4.03137E-04-3.26289E-02 1.35278E-03
 -1      1913-4.03137E-04-3.26289E-02-1.35278E-03
 -1      1914 4.37737E-04-2.29143E-02 9.54179E-04
 -1      1916-4.37737E-04-2.29143E-02-9.54179E-04
 -1      1917 4.64296E-04-1.24936E-02 5.30955E-04
 -1      1919-4.64296E-04-1.24936E-02-5.30955E-04
 -1      1920 4.74601E-04-1.64576E-03 8.51490E-05
 -1      1922-4.74601E-04-1.64576E-03-8.51490E-05
 -1      1923 4.78990E-04 9.37047E-03-3.60705E-04
 -1      1925-4.78990E-04 9.37047E-03 3.60705E-04
 -1      1926 4.64148E-04 2.02684E-02-8.10182E-04
 -1      1928-4.64148E-04 2.02684E-02 8.10182E-04
 -1      1929 4.49559E-04 3.08233E-02-1.23489E-03
 -1      1931-4.49559E-04 3.08233E-02 1.23489E-03
 -1      1932 4.12592E-04 4.07868E-02-1.65058E-03
 -1      1934-4.12592E-04 4.07868E-02 1.65058E-03
 -1      1935 3.85922E-04 5.00090E-02-2.01905E-03
 -1      1937-3.85922E-04 5.00090E-02 2.01905E-03
 -1      1938 3.37322E-04 5.83682E-02-2.38310E-03
 -1      1940-3.37322E-04 5.83682E-02 2.38310E-03
 -1      1941 3.03096E-04 6.57596E-02-2.68149E-03
 -1      1943-3.03096E-04 6.57596E-02 2.68149E-03
 -1      1944 2.75213E-04 7.24410E-02-3.02714E-03
 -1      1946-2.75213E-04 7.24410E-02 3.02714E-03
 -1      1947 2.52326E-14 2.93672E-13 1.50258E-04
 -1      1949-2.54007E-14 2.93631E-13-1.50258E-04
 -1      1950 2.69287E-14 8.98953E-13 4.20654E-04
 -1      1952-2.89248E-14 8.99005E-13-4.20654E-04
 -1      1953 3.33006E-14 1.62344E-12 7.25472E-04
 -1      1955-3.67280E-14 1.62350E-12-7.25472E-04
 -1      1956 3.13543E-14 2.40614E-12 1.06750E-03
 -1      1958-3.48094E-14 2.40608E-12-1.06750E-03
 -1      1959 2.91351E-14 3.14118E-12 1.42325E-03
 -1      1961-3.18765E-14 3.14114E-12-1.42325E-03
 -1      1962 2.30946E-14 3.77190E-12 1.76899E-03
 -1      1964-2.50327E-14 3.77188E-12-1.76899E-03
 -1      1965 1.39914E-14 4.22834E-12 2.09154E-03
 -1      1967-1.66889E-14 4.22850E-12-2.09154E-03
 -1      1968 3.84762E-15 4.47532E-12 2.37188E-03
 -1      1970-8.09097E-15 4.47518E-12-2.37188E-03
 -1      1971-8.13303E-15 4.48015E-12 2.59986E-03
 -1      1973 3.42218E-15 4.48056E-12-2.59986E-03
 -1      1974-1.85370E-14 4.22152E-12 2.76407E-03
 -1      1976 1.51760E-14 4.22128E-12-2.76407E-03
 -1      1977-2.79459E-14 3.71678E-12 2.85761E-03
 -1      1979 2.66009E-14 3.71744E-12-2.85761E-03
 -1      1980-3.56324E-14 2.99822E-12 2.87611E-03
 -1      1982 3.53181E-14 2.99802E-12-2.87611E-03
 -1      1983-4.20597E-14 2.10636E-12 2.81642E-03
 -1      1985 4.25909E-14 2.10583E-12-2.81642E-03
 -1      1986-4.69468E-14 1.07794E-12 2.68072E-03
 -1      1988 4.74573E-14 1.07771E-12-2.68072E-03
 -1      1989-4.58002E-14 3.42087E-15 2.46930E-03
 -1      1991 4.69145E-14 2.62984E-15-2.46930E-03
 -1      1992-4.67048E-14-1.06907E-12 2.19060E-03
 -1      1994 4.74681E-14-1.06910E-12-2.19060E-03
 -1      1995-4.20599E-14-2.08821E-12 1.84731E-03
 -1      1997 4.14444E-14-2.08839E-12-1.84731E-03
 -1      1998-3.47235E-14-2.95271E-12 1.45381E-03
 -1      2000 3.31705E-14-2.95238E-12-1.45381E-03
 -1      2001-2.32766E-14-3.60245E-12 1.01340E-03
 -1      2003 2.29445E-14-3.60331E-12-1.01340E-03
 -1      2004-1.22237E-14-4.00473E-12 5.46039E-04
 -1      2006 1.26971E-14-4.00402E-12-5.46039E-04
 -1      2007 2.27292E-15-4.11830E-12 5.32007E-05
 -1      2009-1.46194E-15-4.11954E-12-5.32007E-05
 -1      2010 1.71503E-14-3.90242E-12-4.39983E-04
 -1      2012-1.57760E-14-3.90256E-12 4.39983E-04
 -1      2013 2.66871E-14-3.39977E-12-9.36790E-04
 -1      2015-2.66865E-14-3.40066E-12 9.36790E-04
 -1      2016 3.64717E-14-2.65032E-12-1.40743E-03
 -1      2018-3.99112E-14-2.64907E-12 1.40743E-03
 -1      2019 4.36127E-14-1.66645E-12-1.86263E-03
 -1      2021-4.97510E-14-1.66759E-12 1.86263E-03
 -1      2022 5.00138E-14-5.02445E-13-2.26916E-03
 -1      2024-5.74818E-14-5.03181E-13 2.26916E-03
 -1      2025 5.35457E-14 7.97907E-13-2.64523E-03
 -1      2027-6.38638E-14 7.99395E-13 2.64523E-03
 -1      2028 5.40921E-14 2.17880E-12-2.95664E-03
 -1      2030-6.69152E-14 2.17889E-12 2.95664E-03
 -1      2031 5.02307E-14 3.55956E-12-3.21685E-03
 -1      2033-6.66342E-14 3.55994E-12 3.21685E-03
 -1      2034 2.13362E-04 2.52223E-03 6.78070E-05
 -1      2036-2.13362E-04 2.52223E-03-6.78070E-05
 -1      2037 2.52585E-04 7.87265E-03 2.53115E-04
 -1      2039-2.52585E-04 7.87265E-03-2.53115E-04
 -1      2040 3.35654E-04 1.46859E-02 5.37252E-04
 -1      2042-3.35654E-04 1.46859E-02-5.37252E-04
 -1      2043 3.41666E-04 2.24942E-02 8.63695E-04
 -1      2045-3.41666E-04 2.24942E-02-8.63695E-04
 -1      2046 3.59383E-04 3.05981E-02 1.20677E-03
 -1      2048-3.59383E-04 3.05981E-02-1.20677E-03
 -1      2049 3.30907E-04 3.85641E-02 1.54435E-03
 -1      2051-3.30907E-04 3.85641E-02-1.54435E-03
 -1      2052 3.06082E-04 4.59244E-02 1.85570E-03
 -1      2054-3.06082E-04 4.59244E-02-1.85570E-03
 -1      2055 2.52158E-04 5.23691E-02 2.12873E-03
 -1      2057-2.52158E-04 5.23691E-02-2.12873E-03
 -1      2058 1.99045E-04 5.75823E-02 2.34937E-03
 -1      2060-1.99045E-04 5.75823E-02-2.34937E-03
 -1      2061 1.28919E-04 6.13692E-02 2.51064E-03
 -1      2063-1.28919E-04 6.13692E-02-2.51064E-03
 -1      2064 5.97467E-05 6.35494E-02 2.60442E-03
 -1      2066-5.97467E-05 6.35494E-02-2.60442E-03
 -1      2067-1.74243E-05 6.40378E-02 2.62840E-03
 -1      2069 1.74243E-05 6.40378E-02-2.62840E-03
 -1      2070-9.14632E-05 6.27804E-02 2.57933E-03
 -1      2072 9.14632E-05 6.27804E-02-2.57933E-03
 -1      2073-1.66646E-04 5.97987E-02 2.45988E-03
 -1      2075 1.66646E-04 5.97987E-02-2.45988E-03
 -1      2076-2.35448E-04 5.51539E-02 2.27062E-03
 -1      2078 2.35448E-04 5.51539E-02-2.27062E-03
 -1      2079-3.00328E-04 4.89646E-02 2.01933E-03
 -1      2081 3.00328E-04 4.89646E-02-2.01933E-03
 -1      2082-3.55296E-04 4.13906E-02 1.70911E-03
 -1      2084 3.55296E-04 4.13906E-02-1.70911E-03
 -1      2085-4.03137E-04 3.26289E-02 1.35278E-03
 -1      2087 4.03137E-04 3.26289E-02-1.35278E-03
 -1      2088-4.37737E-04 2.29143E-02 9.54179E-04
 -1      2090 4.37737E-04 2.29143E-02-9.54179E-04
 -1      2091-4.64296E-04 1.24936E-02 5.30955E-04
 -1      2093 4.64296E-04 1.24936E-02-5.30955E-04
 -1      2094-4.74601E-04 1.64575E-03 8.51490E-05
 -1      2096 4.74601E-04 1.64575E-03-8.51490E-05
 -1      2097-4.78990E-04-9.37047E-03-3.60705E-04
 -1      2099 4.78990E-04-9.37047E-03 3.60705E-04
 -1      2100-4.64148E-04-2.02684E-02-8.10182E-04
 -1      2102 4.64148E-04-2.02684E-02 8.10182E-04
 -1      2103-4.49559E-04-3.08233E-02-1.23489E-03
 -1      2105 4.49559E-04-3.08233E-02 1.23489E-03
 -1      2106-4.12592E-04-4.07868E-02-1.65058E-03
 -1      2108 4.12592E-04-4.07868E-02 1.65058E-03
 -1      2109-3.85922E-04-5.00090E-02-2.01905E-03
 -1      2111 3.85922E-04-5.00090E-02 2.01905E-03
 -1      2112-3.37322E-04-5.83682E-02-2.38310E-03
 -1      2114 3.37322E-04-5.83682E-02 2.38310E-03
 -1      2115-3.03096E-04-6.57596E-02-2.68149E-03
 -1      2117 3.03096E-04-6.57596E-02 2.68149E-03
 -1      2118-2.75213E-04-7.24410E-02-3.02714E-03
 -1      2120 2.75213E-04-7.24410E-02 3.02714E-03
 -1      2121 2.28204E-03 4.84257E-03 1.36823E-03
 -1      2123 2.67767E-03 4.28501E-03 1.48043E-03
 -1      2124 4.46797E-03 1.49547E-02 3.71435E-03
 -1      2126 4.70272E-03 1.36593E-02 3.77477E-03
 -1      2127 5.51234E-03 2.78559E-02 5.83583E-03
 -1      2129 5.85495E-03 2.59511E-02 5.87414E-03
 -1      2130 6.17018E-03 4.26912E-02 8.24144E-03
 -1      2132 6.47776E-03 4.01560E-02 8.25889E-03
 -1      2133 6.27546E-03 5.80125E-02 1.05550E-02
 -1      2135 6.59433E-03 5.48774E-02 1.05473E-02
 -1      2136 6.02051E-03 7.30595E-02 1.28009E-02
 -1      2138 6.30985E-03 6.93691E-02 1.27844E-02
 -1      2139 5.43695E-03 8.69360E-02 1.48283E-02
 -1      2141 5.69598E-03 8.27405E-02 1.47929E-02
 -1      2142 4.59570E-03 9.90525E-02 1.65741E-02
 -1      2144 4.80943E-03 9.44368E-02 1.65329E-02
 -1      2145 3.55002E-03 1.08848E-01 1.79600E-02
 -1      2147 3.71100E-03 1.03898E-01 1.79078E-02
 -1      2148 2.35065E-03 1.15935E-01 1.89309E-02
 -1      2150 2.45219E-03 1.10763E-01 1.88746E-02
 -1      2151 1.04742E-03 1.20009E-01 1.94450E-02
 -1      2153 1.08448E-03 1.14727E-01 1.93846E-02
 -1      2154-3.12663E-04 1.20892E-01 1.94768E-02
 -1      2156-3.42049E-04 1.15630E-01 1.94144E-02
 -1      2157-1.68413E-03 1.18509E-01 1.90142E-02
 -1      2159-1.78081E-03 1.13388E-01 1.89535E-02
 -1      2160-3.02339E-03 1.12888E-01 1.80646E-02
 -1      2162-3.18530E-03 1.08038E-01 1.80046E-02
 -1      2163-4.29026E-03 1.04159E-01 1.66443E-02
 -1      2165-4.51410E-03 9.96990E-02 1.65906E-02
 -1      2166-5.44737E-03 9.25402E-02 1.47909E-02
 -1      2168-5.72742E-03 8.85841E-02 1.47403E-02
 -1      2169-6.46239E-03 7.83356E-02 1.25457E-02
 -1      2171-6.79178E-03 7.49836E-02 1.25052E-02
 -1      2172-7.30762E-03 6.19187E-02 9.97175E-03
 -1      2174-7.67772E-03 5.92567E-02 9.93588E-03
 -1      2175-7.96183E-03 4.37241E-02 7.12888E-03
 -1      2177-8.36316E-03 4.18212E-02 7.10631E-03
 -1      2178-8.41045E-03 2.42264E-02 4.09882E-03
 -1      2180-8.83260E-03 2.31310E-02 4.08057E-03
 -1      2181-8.64674E-03 3.93338E-03 9.50486E-04
 -1      2183-9.07862E-03 3.67485E-03 9.48229E-04
 -1      2184-8.67281E-03-1.66503E-02-2.22379E-03
 -1      2186-9.10391E-03-1.60667E-02-2.22457E-03
 -1      2187-8.49866E-03-3.70128E-02-5.35735E-03
 -1      2189-8.91700E-03-3.56022E-02-5.33968E-03
 -1      2190-8.15084E-03-5.67105E-02-8.35590E-03
 -1      2192-8.54838E-03-5.45116E-02-8.34303E-03
 -1      2193-7.64977E-03-7.53032E-02-1.11661E-02
 -1      2195-8.01288E-03-7.23785E-02-1.11326E-02
 -1      2196-7.07674E-03-9.25333E-02-1.36992E-02
 -1      2198-7.40388E-03-8.89612E-02-1.36798E-02
 -1      2199-6.42231E-03-1.08095E-01-1.59134E-02
 -1      2201-6.69291E-03-1.03996E-01-1.58769E-02
 -1      2202-5.90913E-03-1.22134E-01-1.77267E-02
 -1      2204-6.13248E-03-1.17622E-01-1.77035E-02
 -1      2205-5.44938E-03-1.34438E-01-1.90194E-02
 -1      2207-5.57730E-03-1.29747E-01-1.90247E-02
 -1      2208-2.28204E-03 4.84257E-03-1.36823E-03
 -1      2210-2.67767E-03 4.28501E-03-1.48043E-03
 -1      2211-4.46797E-03 1.49547E-02-3.71435E-03
 -1      2213-4.70272E-03 1.36593E-02-3.77477E-03
 -1      2214-5.51234E-03 2.78559E-02-5.83583E-03
 -1      2216-5.85495E-03 2.59511E-02-5.87414E-03
 -1      2217-6.17018E-03 4.26912E-02-8.24144E-03
 -1      2219-6.47776E-03 4.01560E-02-8.25889E-03
 -1      2220-6.27546E-03 5.80125E-02-1.05550E-02
 -1      2222-6.59433E-03 5.48774E-02-1.05473E-02
 -1      2223-6.02051E-03 7.30595E-02-1.28009E-02
 -1      2225-6.30985E-03 6.93691E-02-1.27844E-02
 -1      2226-5.43695E-03 8.69360E-02-1.48283E-02
 -1      2228-5.69598E-03 8.27405E-02-1.47929E-02
 -1      2229-4.59570E-03 9.90525E-02-1.65741E-02
 -1      2231-4.80943E-03 9.44368E-02-1.65329E-02
 -1      2232-3.55002E-03 1.08848E-01-1.79600E-02
 -1      2234-3.71100E-03 1.03898E-01-1.79078E-02
 -1      2235-2.35065E-03 1.15935E-01-1.89309E-02
 -1      2237-2.45219E-03 1.10763E-01-1.88746E-02
 -1      2238-1.04742E-03 1.20009E-01-1.94450E-02
 -1      2240-1.08448E-03 1.14727E-01-1.93846E-02
 -1      2241 3.12663E-04 1.20892E-01-1.94768E-02
 -1      2243 3.42049E-04 1.15630E-01-1.94144E-02
 -1      2244 1.68413E-03 1.18509E-01-1.90142E-02
 -1      2246 1.78081E-03 1.13388E-01-1.89535E-02
 -1      2247 3.02339E-03 1.12888E-01-1.80646E-02
 -1      2249 3.18530E-03 1.08038E-01-1.80046E-02
 -1      2250 4.29026E-03 1.04159E-01-1.66443E-02
 -1      2252 4.51410E-03 9.96990E-02-1.65906E-02
 -1      2253 5.44737E-03 9.25402E-02-1.47909E-02
 -1      2255 5.72742E-03 8.85841E-02-1.47403E-02
 -1      2256 6.46239E-03 7.83356E-02-1.25457E-02
 -1      2258 6.79178E-03 7.49836E-02-1.25052E-02
 -1      2259 7.30762E-03 6.19187E-02-9.97175E-03
 -1      2261 7.67772E-03 5.92567E-02-9.93588E-03
 -1      2262 7.96183E-03 4.37241E-02-7.12888E-03
 -1      2264 8.36316E-03 4.18212E-02-7.10631E-03
 -1      2265 8.41045E-03 2.42264E-02-4.09882E-03
 -1      2267 8.83260E-03 2.31310E-02-4.08057E-03
 -1      2268 8.64674E-03 3.93338E-03-9.50486E-04
 -1      2270 9.07862E-03 3.67485E-03-9.48229E-04
 -1      2271 8.67281E-03-1.66503E-02 2.22379E-03
 -1      2273 9.10391E-03-1.60667E-02 2.22457E-03
 -1      2274 8.49866E-03-3.70128E-02 5.35735E-03
 -1      2276 8.91700E-03-3.56022E-02 5.33968E-03
 -1      2277 8.15084E-03-5.67105E-02 8.35590E-03
 -1      2279 8.54838E-03-5.45116E-02 8.34303E-03
 -1      2280 7.64977E-03-7.53032E-02 1.11661E-02
 -1      2282 8.01288E-03-7.23785E-02 1.11326E-02
 -1      2283 7.07674E-03-9.25333E-02 1.36992E-02
 -1      2285 7.40388E-03-8.89612E-02 1.36798E-02
 -1      2286 6.42231E-03-1.08095E-01 1.59134E-02
 -1      2288 6.69291E-03-1.03996E-01 1.58769E-02
 -1      2289 5.90913E-03-1.22134E-01 1.77267E-02
 -1      2291 6.13248E-03-1.17622E-01 1.77035E-02
 -1      2292 5.44938E-03-1.34438E-01 1.90194E-02
 -1      2294 5.57730E-03-1.29747E-01 1.90247E-02
 -3
    1PSTEP                        26           1           1          
    1PGM                1.000000E+00                                  
    1PGK                2.008104E+06                                  
    1PHID                         -1                                  
    1PSUBC                         0                                  
    1PMODE                         7                                  
  100CL  107 225.5346141         930                     2    7MODAL      1
 -4  STRESS      6    1
 -5  SXX         1    4    1    1
 -5  SYY         1    4    2    2
 -5  SZZ         1    4    3    3
 -5  SXY         1    4    1    2
 -5  SYZ         1    4    2    3
 -5  SZX         1    4    3    1
 -1       404 8.86074E+09 8.27679E+08 1.21881E+07-1.09668E+09 3.02301E+06-8.92948E+07
 -1       406 8.86074E+09 8.27679E+08 1.21881E+07-1.09668E+09 3.02301E+06-8.92948E+07
 -1       407 4.98017E+08 1.40102E+08-4.93576E+06-2.37318E+08-1.46761E+07-3.63341E+06
 -1       409 4.98017E+08 1.40102E+08-4.93576E+06-2.37318E+08-1.46761E+07-3.63341E+06
 -1       410-1.71375E-03-1.02884E-03-4.72188E-04-6.33863E+08-4.33794E+07 9.59068E-05
 -1       412-1.71375E-03-1.02884E-03-4.72188E-04-6.33863E+08-4.33794E+07 9.59068E-05
 -1       413-5.64293E-04 1.55218E-04 2.32514E-03 1.18151E+07-1.05765E+08 2.81801E-04
 -1       415-5.64293E-04 1.55218E-04 2.32514E-03 1.18151E+07-1.05765E+08 2.81801E-04
 -1       424-3.29592E-02-4.22662E-03 2.31266E-05-1.40191E+09 1.28164E+07-1.29502E-03
 -1       426-3.29592E-02-4.22662E-03 2.31266E-05-1.40191E+09 1.28164E+07-1.29502E-03
 -1       427-2.52519E-02-1.24725E-04-5.06497E-03-7.01231E+07-9.75017E+06-2.52759E-02
 -1       429-2.52519E-02-1.24725E-04-5.06497E-03-7.01231E+07-9.75017E+06-2.52759E-02
 -1       438-4.98017E+08-1.40102E+08 4.93576E+06-2.37318E+08-1.46761E+07 3.63341E+06
 -1       440-4.98017E+08-1.40102E+08 4.93576E+06-2.37318E+08-1.46761E+07 3.63341E+06
 -1       441-8.86074E+09-8.27679E+08-1.21881E+07-1.09668E+09 3.02301E+06 8.92948E+07
 -1       443-8.86074E+09-8.27679E+08-1.21881E+07-1.09668E+09 3.02301E+06 8.92948E+07
 -1       444 2.43654E-02 7.68111E-05 6.58834E-03 7.01231E+07-9.75017E+06-2.26383E-02
 -1       446 2.43654E-02 7.68111E-05 6.58834E-03 7.01231E+07-9.75017E+06-2.26383E-02
 -1       447 3.22189E-02 3.90464E-03-1.41859E-05 1.40191E+09 1.28164E+07-1.03553E-03
 -1       449 3.22189E-02 3.90464E-03-1.41859E-05 1.40191E+09 1.28164E+07-1.03553E-03
 -1       458-5.38408E-04-3.84950E-04 1.87829E-04-1.18151E+07-1.05765E+08-6.10942E-04
 -1       460-5.38408E-04-3.84950E-04 1.87829E-04-1.18151E+07-1.05765E+08-6.10942E-04
 -1       461-3.15219E-04 1.26761E-03-3.16828E-04 6.33863E+08-4.33794E+07-1.31005E-05
 -1       463-3.15219E-04 1.26761E-03-3.16828E-04 6.33863E+08-4.33794E+07-1.31005E-05
 -1       472 8.86074E+09 8.27679E+08 1.21881E+07 1.09668E+09 3.02301E+06 8.92948E+07
 -1       474 8.86074E+09 8.27679E+08 1.21881E+07 1.09668E+09 3.02301E+06 8.92948E+07
 -1       475 4.98017E+08 1.40102E+08-4.93576E+06 2.37318E+08-1.46761E+07 3.63341E+06
 -1       477 4.98017E+08 1.40102E+08-4.93576E+06 2.37318E+08-1.46761E+07 3.63341E+06
 -1       478-4.98017E+08-1.40102E+08 4.93576E+06 2.37318E+08-1.46761E+07-3.63341E+06
 -1       480-4.98017E+08-1.40102E+08 4.93576E+06 2.37318E+08-1.46761E+07-3.63341E+06
 -1       481-8.86074E+09-8.27679E+08-1.21881E+07 1.09668E+09 3.02301E+06-8.92948E+07
 -1       483-8.86074E+09-8.27679E+08-1.21881E+07 1.09668E+09 3.02301E+06-8.92948E+07
 -1       484 7.37510E+09 2.29364E+08-1.15825E+06-7.66696E+08 1.31253E+06-3.00324E+07
 -1       486 7.37510E+09 2.29364E+08-1.15825E+06-7.66696E+08 1.31253E+06-3.00324E+07
 -1       487 4.80277E+09-7.94564E+07 2.48980E+06-4.99894E+08 8.57741E+05 2.31367E+05
 -1       489 4.80277E+09-7.94564E+07 2.48980E+06-4.99894E+08 8.57741E+05 2.31367E+05
 -1       490 2.77529E+09 5.65559E+07 1.21088E+06-4.65049E+08 1.77996E+06-1.45595E+07
 -1       492 2.77529E+09 5.65559E+07 1.21088E+06-4.65049E+08 1.77996E+06-1.45595E+07
 -1       493 1.09511E+09-2.26482E+07-6.99914E+05-3.52450E+08 1.96719E+06-6.86921E+06
 -1       495 1.09511E+09-2.26482E+07-6.99914E+05-3.52450E+08 1.96719E+06-6.86921E+06
 -1       496-2.72795E+08 3.20362E+06 8.52831E+05-3.02403E+08 3.60534E+06-9.85526E+06
 -1       498-2.72795E+08 3.20362E+06 8.52831E+05-3.02403E+08 3.60534E+06-9.85526E+06
 -1       499-1.40978E+09-2.09135E+07-1.71498E+06-2.44587E+08 5.18439E+06-7.31048E+06
 -1       501-1.40978E+09-2.09135E+07-1.71498E+06-2.44587E+08 5.18439E+06-7.31048E+06
 -1       502-2.33704E+09-1.72087E+07-5.23563E+04-1.99850E+08 7.15240E+06-7.07461E+06
 -1       504-2.33704E+09-1.72087E+07-5.23563E+04-1.99850E+08 7.15240E+06-7.07461E+06
 -1       505-3.08341E+09-2.78272E+07-2.07403E+06-1.57455E+08 9.01143E+06-5.39981E+06
 -1       507-3.08341E+09-2.78272E+07-2.07403E+06-1.57455E+08 9.01143E+06-5.39981E+06
 -1       508-3.65860E+09-2.78777E+07-8.11485E+05-1.17992E+08 1.06373E+07-4.08097E+06
 -1       510-3.65860E+09-2.78777E+07-8.11485E+05-1.17992E+08 1.06373E+07-4.08097E+06
 -1       511-4.07307E+09-3.31196E+07-2.18817E+06-8.01944E+07 1.20270E+07-2.34926E+06
 -1       513-4.07307E+09-3.31196E+07-2.18817E+06-8.01944E+07 1.20270E+07-2.34926E+06
 -1       514-4.33159E+09-3.31041E+07-1.28010E+06-4.37605E+07 1.29229E+07-5.98814E+05
 -1       516-4.33159E+09-3.31041E+07-1.28010E+06-4.37605E+07 1.29229E+07-5.98814E+05
 -1       517-4.44045E+09-3.48676E+07-2.13218E+06-8.66008E+06 1.34910E+07 1.25066E+06
 -1       519-4.44045E+09-3.48676E+07-2.13218E+06-8.66008E+06 1.34910E+07 1.25066E+06
 -1       520-4.40531E+09-3.36791E+07-1.45798E+06 2.46990E+07 1.35011E+07 3.10976E+06
 -1       522-4.40531E+09-3.36791E+07-1.45798E+06 2.46990E+07 1.35011E+07 3.10976E+06
 -1       523-4.23442E+09-3.27437E+07-1.90880E+06 5.59948E+07 1.31506E+07 4.91487E+06
 -1       525-4.23442E+09-3.27437E+07-1.90880E+06 5.59948E+07 1.31506E+07 4.91487E+06
 -1       526-3.93763E+09-3.00879E+07-1.38308E+06 8.45016E+07 1.22795E+07 6.63607E+06
 -1       528-3.93763E+09-3.00879E+07-1.38308E+06 8.45016E+07 1.22795E+07 6.63607E+06
 -1       529-3.52777E+09-2.69709E+07-1.52114E+06 1.09731E+08 1.10738E+07 8.19252E+06
 -1       531-3.52777E+09-2.69709E+07-1.52114E+06 1.09731E+08 1.10738E+07 8.19252E+06
 -1       532-3.02021E+09-2.30514E+07-1.11134E+06 1.30870E+08 9.43750E+06 9.56652E+06
 -1       534-3.02021E+09-2.30514E+07-1.11134E+06 1.30870E+08 9.43750E+06 9.56652E+06
 -1       535-2.43307E+09-1.81738E+07-9.89767E+05 1.47439E+08 7.53976E+06 1.06902E+07
 -1       537-2.43307E+09-1.81738E+07-9.89767E+05 1.47439E+08 7.53976E+06 1.06902E+07
 -1       538-1.78746E+09-1.36387E+07-7.14033E+05 1.58564E+08 5.32302E+06 1.15505E+07
 -1       540-1.78746E+09-1.36387E+07-7.14033E+05 1.58564E+08 5.32302E+06 1.15505E+07
 -1       541-1.10669E+09-7.27249E+06-3.55134E+05 1.63897E+08 2.94206E+06 1.21065E+07
 -1       543-1.10669E+09-7.27249E+06-3.55134E+05 1.63897E+08 2.94206E+06 1.21065E+07
 -1       544-4.17451E+08-3.27954E+06-2.75844E+05 1.62486E+08 3.47223E+05 1.23357E+07
 -1       546-4.17451E+08-3.27954E+06-2.75844E+05 1.62486E+08 3.47223E+05 1.23357E+07
 -1       547 2.51705E+08 4.55264E+06 3.21570E+05 1.53714E+08-2.33382E+06 1.22556E+07
 -1       549 2.51705E+08 4.55264E+06 3.21570E+05 1.53714E+08-2.33382E+06 1.22556E+07
 -1       550 8.68237E+08 6.56933E+06 1.09905E+05 1.37685E+08-5.15084E+06 1.17734E+07
 -1       552 8.68237E+08 6.56933E+06 1.09905E+05 1.37685E+08-5.15084E+06 1.17734E+07
 -1       553 1.39639E+09 1.50876E+07 9.53519E+05 1.09609E+08-8.07927E+06 1.10768E+07
 -1       555 1.39639E+09 1.50876E+07 9.53519E+05 1.09609E+08-8.07927E+06 1.10768E+07
 -1       556 1.79651E+09 1.64388E+07 3.50049E+05 7.88685E+07-1.10373E+07 9.78477E+06
 -1       558 1.79651E+09 1.64388E+07 3.50049E+05 7.88685E+07-1.10373E+07 9.78477E+06
 -1       559 2.01908E+09 1.74378E+07 1.39462E+06 1.86767E+07-1.43712E+07 8.64998E+06
 -1       561 2.01908E+09 1.74378E+07 1.39462E+06 1.86767E+07-1.43712E+07 8.64998E+06
 -1       562 2.01118E+09 3.38195E+07 4.47500E+05-2.47204E+07-1.70684E+07 6.30491E+06
 -1       564 2.01118E+09 3.38195E+07 4.47500E+05-2.47204E+07-1.70684E+07 6.30491E+06
 -1       565 1.70688E+09-1.28751E+06 1.07106E+06-1.30945E+08-2.05042E+07 5.38571E+06
 -1       567 1.70688E+09-1.28751E+06 1.07106E+06-1.30945E+08-2.05042E+07 5.38571E+06
 -1       568 9.84420E+08 5.16636E+07 1.54591E+06-2.39327E+08-1.89123E+07 1.50120E+06
 -1       570 9.84420E+08 5.16636E+07 1.54591E+06-2.39327E+08-1.89123E+07 1.50120E+06
 -1       571 4.25727E+08 3.50062E+08 3.98379E+06-4.35590E+08-2.90277E+07-2.29531E+06
 -1       573 4.25727E+08 3.50062E+08 3.98379E+06-4.35590E+08-2.90277E+07-2.29531E+06
 -1       574-2.87704E-02-1.44437E-03-2.72393E-05-1.47076E+09-2.71975E+06-2.12778E-04
 -1       576-2.87704E-02-1.44437E-03-2.72393E-05-1.47076E+09-2.71975E+06-2.12778E-04
 -1       577-2.17008E-02-4.11947E-05-1.08092E-03-2.63359E+07-2.47039E+07-2.58031E-02
 -1       579-2.17008E-02-4.11947E-05-1.08092E-03-2.63359E+07-2.47039E+07-2.58031E-02
 -1       588-2.08860E-02 6.76095E-04-4.14997E-05-1.27154E+09-1.75653E+07 1.81550E-04
 -1       590-2.08860E-02 6.76095E-04-4.14997E-05-1.27154E+09-1.75653E+07 1.81550E-04
 -1       591-1.57419E-02-9.17517E-06 3.47114E-03-1.94531E+07-4.04414E+07-2.46564E-02
 -1       593-1.57419E-02-9.17517E-06 3.47114E-03-1.94531E+07-4.04414E+07-2.46564E-02
 -1       602-1.48329E-02-1.14508E-04-6.22272E-05-9.69010E+08-1.24206E+07-9.67127E-05
 -1       604-1.48329E-02-1.14508E-04-6.22272E-05-9.69010E+08-1.24206E+07-9.67127E-05
 -1       605-1.12294E-02 1.51650E-04 2.05926E-03-3.19942E+07-3.69327E+07-2.29417E-02
 -1       607-1.12294E-02 1.51650E-04 2.05926E-03-3.19942E+07-3.69327E+07-2.29417E-02
 -1       616-8.89640E-03-2.01238E-04-1.70749E-05-8.23512E+08-1.01182E+07 7.38741E-05
 -1       618-8.89640E-03-2.01238E-04-1.70749E-05-8.23512E+08-1.01182E+07 7.38741E-05
 -1       619-6.66275E-03 1.13762E-04-1.04047E-03-2.79595E+07-3.11364E+07-2.25491E-02
 -1       621-6.66275E-03 1.13762E-04-1.04047E-03-2.79595E+07-3.11364E+07-2.25491E-02
 -1       630-1.45875E-03-1.97427E-04 7.20825E-05-6.64532E+08-7.09484E+06-2.11219E-05
 -1       632-1.45875E-03-1.97427E-04 7.20825E-05-6.64532E+08-7.09484E+06-2.11219E-05
 -1       633-8.82900E-04 4.24278E-04-1.43319E-03-3.23876E+07-2.40487E+07-2.24493E-02
 -1       635-8.82900E-04 4.24278E-04-1.43319E-03-3.23876E+07-2.40487E+07-2.24493E-02
 -1       644 5.62572E-03-2.68992E-04-7.19242E-05-5.52890E+08-3.40029E+06 7.50301E-05
 -1       646 5.62572E-03-2.68992E-04-7.19242E-05-5.52890E+08-3.40029E+06 7.50301E-05
 -1       647 5.03522E-03 6.51684E-04 1.02284E-03-2.70227E+07-1.59277E+07-2.19011E-02
 -1       649 5.03522E-03 6.51684E-04 1.02284E-03-2.70227E+07-1.59277E+07-2.19011E-02
 -1       658 1.10808E-02-2.26796E-05-1.39177E-05-4.45786E+08-1.40439E+06 3.27164E-05
 -1       660 1.10808E-02-2.26796E-05-1.39177E-05-4.45786E+08-1.40439E+06 3.27164E-05
 -1       661 9.37594E-03 7.49176E-04 4.00150E-03-2.68887E+07-9.31678E+06-1.95415E-02
 -1       663 9.37594E-03 7.49176E-04 4.00150E-03-2.68887E+07-9.31678E+06-1.95415E-02
 -1       672 1.47411E-02 3.06591E-04 1.14277E-04-3.53258E+08 1.32183E+06 4.64472E-05
 -1       674 1.47411E-02 3.06591E-04 1.14277E-04-3.53258E+08 1.32183E+06 4.64472E-05
 -1       675 1.17646E-02 3.01679E-05 4.03451E-03-2.05036E+07-2.72587E+06-1.63644E-02
 -1       677 1.17646E-02 3.01679E-05 4.03451E-03-2.05036E+07-2.72587E+06-1.63644E-02
 -1       686 1.76055E-02 3.21209E-04 2.71201E-04-2.63732E+08 2.66200E+06 1.69010E-05
 -1       688 1.76055E-02 3.21209E-04 2.71201E-04-2.63732E+08 2.66200E+06 1.69010E-05
 -1       689 1.35188E-02-9.51566E-04 1.65018E-03-1.72940E+07 2.27725E+06-1.43316E-02
 -1       691 1.35188E-02-9.51566E-04 1.65018E-03-1.72940E+07 2.27725E+06-1.43316E-02
 -1       700 2.08681E-02 5.42104E-05 6.27935E-05-1.79872E+08 4.32006E+06 1.07273E-05
 -1       702 2.08681E-02 5.42104E-05 6.27935E-05-1.79872E+08 4.32006E+06 1.07273E-05
 -1       703 1.64562E-02-7.63640E-04 1.04892E-03-1.03746E+07 6.73023E+06-1.34313E-02
 -1       705 1.64562E-02-7.63640E-04 1.04892E-03-1.03746E+07 6.73023E+06-1.34313E-02
 -1       714 2.45639E-02-1.53586E-04 1.42872E-04-9.78029E+07 5.07590E+06 1.05845E-05
 -1       716 2.45639E-02-1.53586E-04 1.42872E-04-9.78029E+07 5.07590E+06 1.05845E-05
 -1       717 1.97785E-02-5.87463E-04 2.97685E-03-5.36333E+06 9.86706E+06-1.11501E-02
 -1       719 1.97785E-02-5.87463E-04 2.97685E-03-5.36333E+06 9.86706E+06-1.11501E-02
 -1       728 2.74783E-02-8.94517E-05 1.62512E-04-1.98196E+07 5.84792E+06 4.49034E-05
 -1       730 2.74783E-02-8.94517E-05 1.62512E-04-1.98196E+07 5.84792E+06 4.49034E-05
 -1       731 2.22143E-02-5.07250E-06 4.96926E-03 1.63137E+06 1.23213E+07-7.18629E-03
 -1       733 2.22143E-02-5.07250E-06 4.96926E-03 1.63137E+06 1.23213E+07-7.18629E-03
 -1       742 2.92631E-02 3.02300E-04 1.69039E-04 5.51449E+07 6.04921E+06 4.82862E-05
 -1       744 2.92631E-02 3.02300E-04 1.69039E-04 5.51449E+07 6.04921E+06 4.82862E-05
 -1       745 2.38885E-02 6.25957E-04 5.70930E-03 7.30158E+06 1.36882E+07-3.62282E-03
 -1       747 2.38885E-02 6.25957E-04 5.70930E-03 7.30158E+06 1.36882E+07-3.62282E-03
 -1       756 2.96990E-02 2.03446E-04-1.49488E-04 1.24720E+08 6.10542E+06-5.20144E-06
 -1       758 2.96990E-02 2.03446E-04-1.49488E-04 1.24720E+08 6.10542E+06-5.20144E-06
 -1       759 2.49736E-02 1.52137E-03 6.21009E-03 1.38586E+07 1.44729E+07-3.66389E-04
 -1       761 2.49736E-02 1.52137E-03 6.21009E-03 1.38586E+07 1.44729E+07-3.66389E-04
 -1       770 2.92003E-02-6.61656E-04-2.41816E-04 1.88707E+08 5.81561E+06 3.75325E-05
 -1       772 2.92003E-02-6.61656E-04-2.41816E-04 1.88707E+08 5.81561E+06 3.75325E-05
 -1       773 2.42600E-02 7.51807E-04 5.60193E-03 1.92004E+07 1.43335E+07 2.77939E-03
 -1       775 2.42600E-02 7.51807E-04 5.60193E-03 1.92004E+07 1.43335E+07 2.77939E-03
 -1       784 2.90084E-02-1.51457E-03 2.05860E-04 2.44752E+08 5.30973E+06-1.96509E-05
 -1       786 2.90084E-02-1.51457E-03 2.05860E-04 2.44752E+08 5.30973E+06-1.96509E-05
 -1       787 2.31124E-02-4.55917E-04 3.96718E-03 2.48007E+07 1.38521E+07 4.37896E-03
 -1       789 2.31124E-02-4.55917E-04 3.96718E-03 2.48007E+07 1.38521E+07 4.37896E-03
 -1       798 2.88130E-02-1.33777E-03-2.33278E-04 2.92272E+08 4.64085E+06 7.73771E-05
 -1       800 2.88130E-02-1.33777E-03-2.33278E-04 2.92272E+08 4.64085E+06 7.73771E-05
 -1       801 2.30239E-02 1.11840E-04 3.61678E-03 2.89877E+07 1.25557E+07 5.31945E-03
 -1       803 2.30239E-02 1.11840E-04 3.61678E-03 2.89877E+07 1.25557E+07 5.31945E-03
 -1       812 2.71042E-02-4.58114E-04-2.11492E-04 3.28854E+08 3.73658E+06 3.14903E-05
 -1       814 2.71042E-02-4.58114E-04-2.11492E-04 3.28854E+08 3.73658E+06 3.14903E-05
 -1       815 2.18268E-02 3.15025E-04 4.48086E-03 3.32127E+07 1.12657E+07 5.91852E-03
 -1       817 2.18268E-02 3.15025E-04 4.48086E-03 3.32127E+07 1.12657E+07 5.91852E-03
 -1       826 2.34878E-02 3.09333E-04-4.04567E-05 3.54157E+08 2.84662E+06-7.98656E-06
 -1       828 2.34878E-02 3.09333E-04-4.04567E-05 3.54157E+08 2.84662E+06-7.98656E-06
 -1       829 1.88181E-02 2.17870E-04 4.91200E-03 3.55844E+07 9.19177E+06 6.94279E-03
 -1       831 1.88181E-02 2.17870E-04 4.91200E-03 3.55844E+07 9.19177E+06 6.94279E-03
 -1       840 1.82678E-02 6.18603E-04-2.90450E-04 3.65370E+08 1.73847E+06 5.00912E-06
 -1       842 1.82678E-02 6.18603E-04-2.90450E-04 3.65370E+08 1.73847E+06 5.00912E-06
 -1       843 1.48134E-02 7.97834E-04 3.53002E-03 3.82373E+07 7.59155E+06 1.05125E-02
 -1       845 1.48134E-02 7.97834E-04 3.53002E-03 3.82373E+07 7.59155E+06 1.05125E-02
 -1       854 1.28782E-02-9.43532E-05-5.34152E-04 3.62781E+08 8.14007E+05-3.55188E-05
 -1       856 1.28782E-02-9.43532E-05-5.34152E-04 3.62781E+08 8.14007E+05-3.55188E-05
 -1       857 1.04701E-02 6.94513E-04 1.13677E-03 3.82988E+07 5.06017E+06 1.29553E-02
 -1       859 1.04701E-02 6.94513E-04 1.13677E-03 3.82988E+07 5.06017E+06 1.29553E-02
 -1       868 8.74606E-03-1.81700E-04 5.43026E-05 3.42791E+08-2.50841E+05-1.24630E-04
 -1       870 8.74606E-03-1.81700E-04 5.43026E-05 3.42791E+08-2.50841E+05-1.24630E-04
 -1       871 6.49787E-03 2.80465E-05 4.92878E-04 3.95303E+07 3.64974E+06 1.23054E-02
 -1       873 6.49787E-03 2.80465E-05 4.92878E-04 3.95303E+07 3.64974E+06 1.23054E-02
 -1       882 4.71982E-03-1.43439E-04 1.30456E-04 3.05474E+08-1.06244E+06-5.22975E-05
 -1       884 4.71982E-03-1.43439E-04 1.30456E-04 3.05474E+08-1.06244E+06-5.22975E-05
 -1       885 3.32387E-03 2.43467E-04 9.84889E-04 3.69522E+07 6.94714E+05 1.20183E-02
 -1       887 3.32387E-03 2.43467E-04 9.84889E-04 3.69522E+07 6.94714E+05 1.20183E-02
 -1       896 1.47974E-03-7.24383E-04-6.30312E-04 2.48206E+08-1.75583E+06-2.24146E-06
 -1       898 1.47974E-03-7.24383E-04-6.30312E-04 2.48206E+08-1.75583E+06-2.24146E-06
 -1       899 1.00752E-03 2.20440E-04 4.26721E-04 3.73443E+07-1.21269E+05 1.02218E-02
 -1       901 1.00752E-03 2.20440E-04 4.26721E-04 3.73443E+07-1.21269E+05 1.02218E-02
 -1       910 6.02305E-05-6.90296E-04-5.64061E-04 1.63744E+08-2.65421E+06-1.66730E-05
 -1       912 6.02305E-05-6.90296E-04-5.64061E-04 1.63744E+08-2.65421E+06-1.66730E-05
 -1       913 2.80553E-04-1.19490E-05 1.23393E-03 3.21378E+07-4.46102E+06 5.43607E-03
 -1       915 2.80553E-04-1.19490E-05 1.23393E-03 3.21378E+07-4.46102E+06 5.43607E-03
 -1       924-7.59661E-04-3.78415E-04-3.46258E-04 6.21977E+07-2.66814E+06 3.13155E-05
 -1       926-7.59661E-04-3.78415E-04-3.46258E-04 6.21977E+07-2.66814E+06 3.13155E-05
 -1       927 1.13079E-04-6.96700E-04 4.86986E-03 3.23315E+07-4.71675E+06 2.62718E-03
 -1       929 1.13079E-04-6.96700E-04 4.86986E-03 3.23315E+07-4.71675E+06 2.62718E-03
 -1       938-1.82915E-03-2.13154E-04 3.06368E-05-9.32687E+07-5.74542E+06 7.99341E-05
 -1       940-1.82915E-03-2.13154E-04 3.06368E-05-9.32687E+07-5.74542E+06 7.99341E-05
 -1       941-6.15224E-05 3.58762E-04 7.94094E-03 2.62074E+07-1.50549E+07 2.09613E-03
 -1       943-6.15224E-05 3.58762E-04 7.94094E-03 2.62074E+07-1.50549E+07 2.09613E-03
 -1       952-2.58768E-03-6.29887E-04-7.53105E-05-2.64499E+08-6.46231E+06 8.70097E-05
 -1       954-2.58768E-03-6.29887E-04-7.53105E-05-2.64499E+08-6.46231E+06 8.70097E-05
 -1       955-3.21623E-04 1.68655E-03 6.56519E-03 2.42424E+07-1.74720E+07 7.39583E-04
 -1       957-3.21623E-04 1.68655E-03 6.56519E-03 2.42424E+07-1.74720E+07 7.39583E-04
 -1       966-2.22939E-03-1.07512E-03-5.57736E-04-4.83782E+08-2.39249E+07-2.41694E-05
 -1       968-2.22939E-03-1.07512E-03-5.57736E-04-4.83782E+08-2.39249E+07-2.41694E-05
 -1       969-6.83074E-04 7.12480E-04 3.36887E-03 2.63153E+07-5.35661E+07 4.46958E-05
 -1       971-6.83074E-04 7.12480E-04 3.36887E-03 2.63153E+07-5.35661E+07 4.46958E-05
 -1       980 5.80297E+09 6.54485E+08 1.02257E+06-1.24930E+09 7.91973E+06-3.63739E+07
 -1       982 5.80297E+09 6.54485E+08 1.02257E+06-1.24930E+09 7.91973E+06-3.63739E+07
 -1       983-4.25727E+08-3.50062E+08-3.98379E+06-4.35590E+08-2.90277E+07 2.29531E+06
 -1       985-4.25727E+08-3.50062E+08-3.98379E+06-4.35590E+08-2.90277E+07 2.29531E+06
 -1       986-7.37510E+09-2.29364E+08 1.15825E+06-7.66696E+08 1.31253E+06 3.00324E+07
 -1       988-7.37510E+09-2.29364E+08 1.15825E+06-7.66696E+08 1.31253E+06 3.00324E+07
 -1       989-4.80277E+09 7.94564E+07-2.48980E+06-4.99894E+08 8.57741E+05-2.31367E+05
 -1       991-4.80277E+09 7.94564E+07-2.48980E+06-4.99894E+08 8.57741E+05-2.31367E+05
 -1       992-2.77529E+09-5.65559E+07-1.21088E+06-4.65049E+08 1.77996E+06 1.45595E+07
 -1       994-2.77529E+09-5.65559E+07-1.21088E+06-4.65049E+08 1.77996E+06 1.45595E+07
 -1       995-1.09511E+09 2.26482E+07 6.99914E+05-3.52450E+08 1.96719E+06 6.86921E+06
 -1       997-1.09511E+09 2.26482E+07 6.99914E+05-3.52450E+08 1.96719E+06 6.86921E+06
 -1       998 2.72795E+08-3.20362E+06-8.52831E+05-3.02403E+08 3.60534E+06 9.85526E+06
 -1      1000 2.72795E+08-3.20362E+06-8.52831E+05-3.02403E+08 3.60534E+06 9.85526E+06
 -1      1001 1.40978E+09 2.09135E+07 1.71498E+06-2.44587E+08 5.18439E+06 7.31048E+06
 -1      1003 1.40978E+09 2.09135E+07 1.71498E+06-2.44587E+08 5.18439E+06 7.31048E+06
 -1      1004 2.33704E+09 1.72087E+07 5.23563E+04-1.99850E+08 7.15240E+06 7.07461E+06
 -1      1006 2.33704E+09 1.72087E+07 5.23563E+04-1.99850E+08 7.15240E+06 7.07461E+06
 -1      1007 3.08341E+09 2.78272E+07 2.07403E+06-1.57455E+08 9.01143E+06 5.39981E+06
 -1      1009 3.08341E+09 2.78272E+07 2.07403E+06-1.57455E+08 9.01143E+06 5.39981E+06
 -1      1010 3.65860E+09 2.78777E+07 8.11485E+05-1.17992E+08 1.06373E+07 4.08097E+06
 -1      1012 3.65860E+09 2.78777E+07 8.11485E+05-1.17992E+08 1.06373E+07 4.08097E+06
 -1      1013 4.07307E+09 3.31196E+07 2.18817E+06-8.01944E+07 1.20270E+07 2.34926E+06
 -1      1015 4.07307E+09 3.31196E+07 2.18817E+06-8.01944E+07 1.20270E+07 2.34926E+06
 -1      1016 4.33159E+09 3.31041E+07 1.28010E+06-4.37605E+07 1.29229E+07 5.98814E+05
 -1      1018 4.33159E+09 3.31041E+07 1.28010E+06-4.37605E+07 1.29229E+07 5.98814E+05
 -1      1019 4.44045E+09 3.48676E+07 2.13218E+06-8.66008E+06 1.34910E+07-1.25066E+06
 -1      1021 4.44045E+09 3.48676E+07 2.13218E+06-8.66008E+06 1.34910E+07-1.25066E+06
 -1      1022 4.40531E+09 3.36791E+07 1.45798E+06 2.46990E+07 1.35011E+07-3.10976E+06
 -1      1024 4.40531E+09 3.36791E+07 1.45798E+06 2.46990E+07 1.35011E+07-3.10976E+06
 -1      1025 4.23442E+09 3.27437E+07 1.90880E+06 5.59948E+07 1.31506E+07-4.91487E+06
 -1      1027 4.23442E+09 3.27437E+07 1.90880E+06 5.59948E+07 1.31506E+07-4.91487E+06
 -1      1028 3.93763E+09 3.00879E+07 1.38308E+06 8.45016E+07 1.22795E+07-6.63607E+06
 -1      1030 3.93763E+09 3.00879E+07 1.38308E+06 8.45016E+07 1.22795E+07-6.63607E+06
 -1      1031 3.52777E+09 2.69709E+07 1.52114E+06 1.09731E+08 1.10738E+07-8.19252E+06
 -1      1033 3.52777E+09 2.69709E+07 1.52114E+06 1.09731E+08 1.10738E+07-8.19252E+06
 -1      1034 3.02021E+09 2.30514E+07 1.11134E+06 1.30870E+08 9.43750E+06-9.56652E+06
 -1      1036 3.02021E+09 2.30514E+07 1.11134E+06 1.30870E+08 9.43750E+06-9.56652E+06
 -1      1037 2.43307E+09 1.81738E+07 9.89767E+05 1.47439E+08 7.53976E+06-1.06902E+07
 -1      1039 2.43307E+09 1.81738E+07 9.89767E+05 1.47439E+08 7.53976E+06-1.06902E+07
 -1      1040 1.78746E+09 1.36387E+07 7.14033E+05 1.58564E+08 5.32302E+06-1.15505E+07
 -1      1042 1.78746E+09 1.36387E+07 7.14033E+05 1.58564E+08 5.32302E+06-1.15505E+07
 -1      1043 1.10669E+09 7.27249E+06 3.55134E+05 1.63897E+08 2.94206E+06-1.21065E+07
 -1      1045 1.10669E+09 7.27249E+06 3.55134E+05 1.63897E+08 2.94206E+06-1.21065E+07
 -1      1046 4.17451E+08 3.27954E+06 2.75844E+05 1.62486E+08 3.47223E+05-1.23357E+07
 -1      1048 4.17451E+08 3.27954E+06 2.75844E+05 1.62486E+08 3.47223E+05-1.23357E+07
 -1      1049-2.51705E+08-4.55264E+06-3.21570E+05 1.53714E+08-2.33382E+06-1.22556E+07
 -1      1051-2.51705E+08-4.55264E+06-3.21570E+05 1.53714E+08-2.33382E+06-1.22556E+07
 -1      1052-8.68237E+08-6.56933E+06-1.09905E+05 1.37685E+08-5.15084E+06-1.17734E+07
 -1      1054-8.68237E+08-6.56933E+06-1.09905E+05 1.37685E+08-5.15084E+06-1.17734E+07
 -1      1055-1.39639E+09-1.50876E+07-9.53519E+05 1.09609E+08-8.07927E+06-1.10768E+07
 -1      1057-1.39639E+09-1.50876E+07-9.53519E+05 1.09609E+08-8.07927E+06-1.10768E+07
 -1      1058-1.79651E+09-1.64388E+07-3.50049E+05 7.88685E+07-1.10373E+07-9.78477E+06
 -1      1060-1.79651E+09-1.64388E+07-3.50049E+05 7.88685E+07-1.10373E+07-9.78477E+06
 -1      1061-2.01908E+09-1.74378E+07-1.39462E+06 1.86767E+07-1.43712E+07-8.64998E+06
 -1      1063-2.01908E+09-1.74378E+07-1.39462E+06 1.86767E+07-1.43712E+07-8.64998E+06
 -1      1064-2.01118E+09-3.38195E+07-4.47500E+05-2.47204E+07-1.70684E+07-6.30491E+06
 -1      1066-2.01118E+09-3.38195E+07-4.47500E+05-2.47204E+07-1.70684E+07-6.30491E+06
 -1      1067-1.70688E+09 1.28751E+06-1.07106E+06-1.30945E+08-2.05042E+07-5.38571E+06
 -1      1069-1.70688E+09 1.28751E+06-1.07106E+06-1.30945E+08-2.05042E+07-5.38571E+06
 -1      1070-9.84420E+08-5.16636E+07-1.54591E+06-2.39327E+08-1.89123E+07-1.50120E+06
 -1      1072-9.84420E+08-5.16636E+07-1.54591E+06-2.39327E+08-1.89123E+07-1.50120E+06
 -1      1073-5.80297E+09-6.54485E+08-1.02257E+06-1.24930E+09 7.91973E+06 3.63739E+07
 -1      1075-5.80297E+09-6.54485E+08-1.02257E+06-1.24930E+09 7.91973E+06 3.63739E+07
 -1      1076-1.57143E-02-4.50412E-05-2.68932E-03-4.33954E+07-7.58293E+06-2.56013E-02
 -1      1078-1.57143E-02-4.50412E-05-2.68932E-03-4.33954E+07-7.58293E+06-2.56013E-02
 -1      1079-6.83072E-05-4.28203E-05 1.22711E-03 4.16168E-03-5.41569E+06-2.55369E-02
 -1      1081-6.83072E-05-4.28203E-05 1.22711E-03 4.16168E-03-5.41569E+06-2.55369E-02
 -1      1082 1.52027E-02-2.17361E-05 4.67812E-03 4.33954E+07-7.58293E+06-2.38927E-02
 -1      1084 1.52027E-02-2.17361E-05 4.67812E-03 4.33954E+07-7.58293E+06-2.38927E-02
 -1      1085 2.16362E-02 9.67360E-05 4.07982E-03 2.63359E+07-2.47039E+07-2.38572E-02
 -1      1087 2.16362E-02 9.67360E-05 4.07982E-03 2.63359E+07-2.47039E+07-2.38572E-02
 -1      1088 2.88833E-02 1.25052E-03-2.26498E-06 1.47076E+09-2.71975E+06-1.57994E-04
 -1      1090 2.88833E-02 1.25052E-03-2.26498E-06 1.47076E+09-2.71975E+06-1.57994E-04
 -1      1099 1.62276E-02 1.10317E-04 2.66113E-04 1.94531E+07-4.04414E+07-2.44199E-02
 -1      1101 1.62276E-02 1.10317E-04 2.66113E-04 1.94531E+07-4.04414E+07-2.44199E-02
 -1      1102 2.13066E-02-5.74663E-04 5.61029E-05 1.27154E+09-1.75653E+07 1.56471E-04
 -1      1104 2.13066E-02-5.74663E-04 5.61029E-05 1.27154E+09-1.75653E+07 1.56471E-04
 -1      1113 1.04163E-02 1.23336E-04-1.32045E-03 3.19942E+07-3.69327E+07-2.37918E-02
 -1      1115 1.04163E-02 1.23336E-04-1.32045E-03 3.19942E+07-3.69327E+07-2.37918E-02
 -1      1116 1.35685E-02 4.89503E-06 1.11103E-04 9.69010E+08-1.24206E+07-3.46776E-05
 -1      1118 1.35685E-02 4.89503E-06 1.11103E-04 9.69010E+08-1.24206E+07-3.46776E-05
 -1      1127 4.59735E-03 1.90675E-04-2.56288E-03 2.79595E+07-3.11364E+07-2.30887E-02
 -1      1129 4.59735E-03 1.90675E-04-2.56288E-03 2.79595E+07-3.11364E+07-2.30887E-02
 -1      1130 6.67652E-03-2.21295E-04 9.02191E-05 8.23512E+08-1.01182E+07 9.40852E-05
 -1      1132 6.67652E-03-2.21295E-04 9.02191E-05 8.23512E+08-1.01182E+07 9.40852E-05
 -1      1141-6.57437E-04 1.53935E-04-4.30840E-03 3.23876E+07-2.40487E+07-2.17734E-02
 -1      1143-6.57437E-04 1.53935E-04-4.30840E-03 3.23876E+07-2.40487E+07-2.17734E-02
 -1      1144 3.56361E-04 1.36456E-04 3.04729E-05 6.64532E+08-7.09484E+06 1.40809E-05
 -1      1146 3.56361E-04 1.36456E-04 3.04729E-05 6.64532E+08-7.09484E+06 1.40809E-05
 -1      1155-5.17700E-03-4.08467E-04-4.96642E-03 2.70227E+07-1.59277E+07-1.94516E-02
 -1      1157-5.17700E-03-4.08467E-04-4.96642E-03 2.70227E+07-1.59277E+07-1.94516E-02
 -1      1158-4.64302E-03 4.56441E-04 1.22108E-04 5.52890E+08-3.40029E+06 3.30666E-05
 -1      1160-4.64302E-03 4.56441E-04 1.22108E-04 5.52890E+08-3.40029E+06 3.30666E-05
 -1      1169-8.32434E-03-2.88355E-04-3.28389E-03 2.68887E+07-9.31678E+06-1.64152E-02
 -1      1171-8.32434E-03-2.88355E-04-3.28389E-03 2.68887E+07-9.31678E+06-1.64152E-02
 -1      1172-8.57583E-03 2.59824E-04 2.22892E-04 4.45786E+08-1.40439E+06 3.39423E-05
 -1      1174-8.57583E-03 2.59824E-04 2.22892E-04 4.45786E+08-1.40439E+06 3.39423E-05
 -1      1183-1.12961E-02-3.23053E-04-1.82667E-03 2.05036E+07-2.72587E+06-1.54053E-02
 -1      1185-1.12961E-02-3.23053E-04-1.82667E-03 2.05036E+07-2.72587E+06-1.54053E-02
 -1      1186-1.29860E-02 9.03308E-05 1.72615E-04 3.53258E+08 1.32183E+06 2.59032E-05
 -1      1188-1.29860E-02 9.03308E-05 1.72615E-04 3.53258E+08 1.32183E+06 2.59032E-05
 -1      1197-1.48769E-02-2.21531E-04-3.11436E-03 1.72940E+07 2.27725E+06-1.48428E-02
 -1      1199-1.48769E-02-2.21531E-04-3.11436E-03 1.72940E+07 2.27725E+06-1.48428E-02
 -1      1200-1.82353E-02 2.79292E-04 6.77556E-05 2.63732E+08 2.66200E+06-4.00895E-05
 -1      1202-1.82353E-02 2.79292E-04 6.77556E-05 2.63732E+08 2.66200E+06-4.00895E-05
 -1      1211-1.75831E-02 1.05133E-04-4.75943E-03 1.03746E+07 6.73023E+06-1.21537E-02
 -1      1213-1.75831E-02 1.05133E-04-4.75943E-03 1.03746E+07 6.73023E+06-1.21537E-02
 -1      1214-2.23066E-02 6.03124E-04-4.67896E-05 1.79872E+08 4.32006E+06-4.41003E-05
 -1      1216-2.23066E-02 6.03124E-04-4.67896E-05 1.79872E+08 4.32006E+06-4.41003E-05
 -1      1225-1.88081E-02-1.00300E-04-3.75289E-03 5.36333E+06 9.86706E+06-8.36660E-03
 -1      1227-1.88081E-02-1.00300E-04-3.75289E-03 5.36333E+06 9.86706E+06-8.36660E-03
 -1      1228-2.47240E-02 6.82563E-04-6.52075E-05 9.78029E+07 5.07590E+06-1.05223E-04
 -1      1230-2.47240E-02 6.82563E-04-6.52075E-05 9.78029E+07 5.07590E+06-1.05223E-04
 -1      1239-2.00491E-02-1.04151E-04-2.70955E-04-1.63137E+06 1.23213E+07-5.24658E-03
 -1      1241-2.00491E-02-1.04151E-04-2.70955E-04-1.63137E+06 1.23213E+07-5.24658E-03
 -1      1242-2.72734E-02 3.73408E-04-1.00702E-04 1.98196E+07 5.84792E+06-2.40544E-05
 -1      1244-2.72734E-02 3.73408E-04-1.00702E-04 1.98196E+07 5.84792E+06-2.40544E-05
 -1      1253-2.18305E-02-3.35220E-04 2.29455E-03-7.30158E+06 1.36882E+07-3.83228E-03
 -1      1255-2.18305E-02-3.35220E-04 2.29455E-03-7.30158E+06 1.36882E+07-3.83228E-03
 -1      1256-2.97993E-02 1.69903E-04-5.98431E-05-5.51449E+07 6.04921E+06-4.39691E-05
 -1      1258-2.97993E-02 1.69903E-04-5.98431E-05-5.51449E+07 6.04921E+06-4.39691E-05
 -1      1267-2.29917E-02 6.05110E-06 2.33948E-03-1.38586E+07 1.44729E+07-1.88179E-03
 -1      1269-2.29917E-02 6.05110E-06 2.33948E-03-1.38586E+07 1.44729E+07-1.88179E-03
 -1      1270-3.09567E-02 5.21988E-04 2.69890E-04-1.24720E+08 6.10542E+06-9.23167E-05
 -1      1272-3.09567E-02 5.21988E-04 2.69890E-04-1.24720E+08 6.10542E+06-9.23167E-05
 -1      1281-2.29204E-02-5.04492E-05 2.15758E-03-1.92004E+07 1.43335E+07 1.42535E-03
 -1      1283-2.29204E-02-5.04492E-05 2.15758E-03-1.92004E+07 1.43335E+07 1.42535E-03
 -1      1284-3.04493E-02 6.49914E-04 3.05474E-04-1.88707E+08 5.81561E+06 3.63241E-05
 -1      1286-3.04493E-02 6.49914E-04 3.05474E-04-1.88707E+08 5.81561E+06 3.63241E-05
 -1      1295-2.16245E-02-7.26044E-05 2.80845E-03-2.48007E+07 1.38521E+07 3.18008E-03
 -1      1297-2.16245E-02-7.26044E-05 2.80845E-03-2.48007E+07 1.38521E+07 3.18008E-03
 -1      1298-2.88119E-02 3.23489E-04 1.93283E-04-2.44752E+08 5.30973E+06-3.04729E-06
 -1      1300-2.88119E-02 3.23489E-04 1.93283E-04-2.44752E+08 5.30973E+06-3.04729E-06
 -1      1309-2.00574E-02 6.85718E-05 1.55649E-03-2.89877E+07 1.25557E+07 3.20500E-03
 -1      1311-2.00574E-02 6.85718E-05 1.55649E-03-2.89877E+07 1.25557E+07 3.20500E-03
 -1      1312-2.64964E-02 2.70382E-04 4.01169E-04-2.92272E+08 4.64085E+06 3.67796E-05
 -1      1314-2.64964E-02 2.70382E-04 4.01169E-04-2.92272E+08 4.64085E+06 3.67796E-05
 -1      1323-1.80425E-02 4.01947E-06-1.87814E-03-3.32127E+07 1.12657E+07 3.90068E-03
 -1      1325-1.80425E-02 4.01947E-06-1.87814E-03-3.32127E+07 1.12657E+07 3.90068E-03
 -1      1326-2.38591E-02-2.12573E-04 2.68206E-04-3.28854E+08 3.73658E+06-7.25780E-05
 -1      1328-2.38591E-02-2.12573E-04 2.68206E-04-3.28854E+08 3.73658E+06-7.25780E-05
 -1      1337-1.57151E-02 5.49787E-04-3.43553E-03-3.55844E+07 9.19177E+06 6.91132E-03
 -1      1339-1.57151E-02 5.49787E-04-3.43553E-03-3.55844E+07 9.19177E+06 6.91132E-03
 -1      1340-2.14573E-02-1.33548E-03-3.83154E-04-3.54157E+08 2.84662E+06-3.34866E-05
 -1      1342-2.14573E-02-1.33548E-03-3.83154E-04-3.54157E+08 2.84662E+06-3.34866E-05
 -1      1351-1.44105E-02-1.51401E-04-4.10958E-03-3.82373E+07 7.59155E+06 9.54217E-03
 -1      1353-1.44105E-02-1.51401E-04-4.10958E-03-3.82373E+07 7.59155E+06 9.54217E-03
 -1      1354-1.90322E-02-1.21482E-03-2.87201E-04-3.65370E+08 1.73847E+06-5.16665E-05
 -1      1356-1.90322E-02-1.21482E-03-2.87201E-04-3.65370E+08 1.73847E+06-5.16665E-05
 -1      1365-1.27193E-02-8.13405E-04-4.97659E-03-3.82988E+07 5.06017E+06 1.11600E-02
 -1      1367-1.27193E-02-8.13405E-04-4.97659E-03-3.82988E+07 5.06017E+06 1.11600E-02
 -1      1368-1.63090E-02-4.27715E-04 1.01473E-04-3.62781E+08 8.14007E+05-2.44776E-04
 -1      1370-1.63090E-02-4.27715E-04 1.01473E-04-3.62781E+08 8.14007E+05-2.44776E-04
 -1      1379-9.53313E-03-3.10191E-04-3.21558E-04-3.95303E+07 3.64974E+06 1.47934E-02
 -1      1381-9.53313E-03-3.10191E-04-3.21558E-04-3.95303E+07 3.64974E+06 1.47934E-02
 -1      1382-1.32127E-02-5.60368E-04-4.77661E-05-3.42791E+08-2.50841E+05-9.78680E-05
 -1      1384-1.32127E-02-5.60368E-04-4.77661E-05-3.42791E+08-2.50841E+05-9.78680E-05
 -1      1393-6.38625E-03-3.89429E-04 7.65277E-03-3.69522E+07 6.94714E+05 1.44211E-02
 -1      1395-6.38625E-03-3.89429E-04 7.65277E-03-3.69522E+07 6.94714E+05 1.44211E-02
 -1      1396-9.53519E-03-6.48629E-04 3.93279E-04-3.05474E+08-1.06244E+06-2.01972E-04
 -1      1398-9.53519E-03-6.48629E-04 3.93279E-04-3.05474E+08-1.06244E+06-2.01972E-04
 -1      1407-4.10743E-03-7.84068E-04 9.34314E-03-3.73443E+07-1.21269E+05 8.22457E-03
 -1      1409-4.10743E-03-7.84068E-04 9.34314E-03-3.73443E+07-1.21269E+05 8.22457E-03
 -1      1410-6.57940E-03-3.25404E-04 1.12958E-04-2.48206E+08-1.75583E+06-7.64313E-05
 -1      1412-6.57940E-03-3.25404E-04 1.12958E-04-2.48206E+08-1.75583E+06-7.64313E-05
 -1      1421-2.51199E-03-4.07742E-04 4.80549E-03-3.21378E+07-4.46102E+06 4.08405E-03
 -1      1423-2.51199E-03-4.07742E-04 4.80549E-03-3.21378E+07-4.46102E+06 4.08405E-03
 -1      1424-4.19039E-03 4.00230E-04 8.44151E-05-1.63744E+08-2.65421E+06-1.61059E-04
 -1      1426-4.19039E-03 4.00230E-04 8.44151E-05-1.63744E+08-2.65421E+06-1.61059E-04
 -1      1435-4.99150E-04 4.96628E-04 3.55346E-03-3.23315E+07-4.71675E+06 4.44811E-03
 -1      1437-4.99150E-04 4.96628E-04 3.55346E-03-3.23315E+07-4.71675E+06 4.44811E-03
 -1      1438-2.12768E-03 4.28416E-04-3.30091E-04-6.21977E+07-2.66814E+06 8.02148E-06
 -1      1440-2.12768E-03 4.28416E-04-3.30091E-04-6.21977E+07-2.66814E+06 8.02148E-06
 -1      1449 1.56610E-03 6.77333E-05 6.81981E-03-2.62074E+07-1.50549E+07 3.45130E-03
 -1      1451 1.56610E-03 6.77333E-05 6.81981E-03-2.62074E+07-1.50549E+07 3.45130E-03
 -1      1452-1.39624E-04-2.22258E-04-5.23552E-04 9.32687E+07-5.74542E+06 2.49400E-05
 -1      1454-1.39624E-04-2.22258E-04-5.23552E-04 9.32687E+07-5.74542E+06 2.49400E-05
 -1      1463 1.62190E-03-5.92824E-04 7.43764E-03-2.42424E+07-1.74720E+07-4.55851E-04
 -1      1465 1.62190E-03-5.92824E-04 7.43764E-03-2.42424E+07-1.74720E+07-4.55851E-04
 -1      1466 9.29996E-04-8.73938E-04-1.71062E-04 2.64499E+08-6.46231E+06-8.92165E-05
 -1      1468 9.29996E-04-8.73938E-04-1.71062E-04 2.64499E+08-6.46231E+06-8.92165E-05
 -1      1477 2.35227E-04-4.41673E-04 3.26633E-03-2.63153E+07-5.35661E+07-1.41770E-03
 -1      1479 2.35227E-04-4.41673E-04 3.26633E-03-2.63153E+07-5.35661E+07-1.41770E-03
 -1      1480 1.79544E-04-6.96480E-05-5.47748E-04 4.83782E+08-2.39249E+07 1.19130E-04
 -1      1482 1.79544E-04-6.96480E-05-5.47748E-04 4.83782E+08-2.39249E+07 1.19130E-04
 -1      1491-2.51585E-04 3.23173E-04 3.19400E-03-5.01481E+06-6.82444E+07 1.29595E-04
 -1      1493-2.51585E-04 3.23173E-04 3.19400E-03-5.01481E+06-6.82444E+07 1.29595E-04
 -1      1494 8.86874E-05 5.57358E-04 3.34020E-03-9.75188E-05-3.07234E+07 5.12154E-05
 -1      1496 8.86874E-05 5.57358E-04 3.34020E-03-9.75188E-05-3.07234E+07 5.12154E-05
 -1      1497-2.11078E-04 1.19319E-04 1.40268E-03 5.01481E+06-6.82444E+07-2.42950E-04
 -1      1499-2.11078E-04 1.19319E-04 1.40268E-03 5.01481E+06-6.82444E+07-2.42950E-04
 -1      1500 7.37510E+09 2.29364E+08-1.15825E+06 7.66696E+08 1.31253E+06 3.00324E+07
 -1      1502 7.37510E+09 2.29364E+08-1.15825E+06 7.66696E+08 1.31253E+06 3.00324E+07
 -1      1503 4.80277E+09-7.94564E+07 2.48980E+06 4.99894E+08 8.57741E+05-2.31367E+05
 -1      1505 4.80277E+09-7.94564E+07 2.48980E+06 4.99894E+08 8.57741E+05-2.31367E+05
 -1      1506 2.77529E+09 5.65559E+07 1.21088E+06 4.65049E+08 1.77996E+06 1.45595E+07
 -1      1508 2.77529E+09 5.65559E+07 1.21088E+06 4.65049E+08 1.77996E+06 1.45595E+07
 -1      1509 1.09511E+09-2.26482E+07-6.99914E+05 3.52450E+08 1.96719E+06 6.86921E+06
 -1      1511 1.09511E+09-2.26482E+07-6.99914E+05 3.52450E+08 1.96719E+06 6.86921E+06
 -1      1512-2.72795E+08 3.20362E+06 8.52831E+05 3.02403E+08 3.60534E+06 9.85526E+06
 -1      1514-2.72795E+08 3.20362E+06 8.52831E+05 3.02403E+08 3.60534E+06 9.85526E+06
 -1      1515-1.40978E+09-2.09135E+07-1.71498E+06 2.44587E+08 5.18439E+06 7.31048E+06
 -1      1517-1.40978E+09-2.09135E+07-1.71498E+06 2.44587E+08 5.18439E+06 7.31048E+06
 -1      1518-2.33704E+09-1.72087E+07-5.23563E+04 1.99850E+08 7.15240E+06 7.07461E+06
 -1      1520-2.33704E+09-1.72087E+07-5.23563E+04 1.99850E+08 7.15240E+06 7.07461E+06
 -1      1521-3.08341E+09-2.78272E+07-2.07403E+06 1.57455E+08 9.01143E+06 5.39981E+06
 -1      1523-3.08341E+09-2.78272E+07-2.07403E+06 1.57455E+08 9.01143E+06 5.39981E+06
 -1      1524-3.65860E+09-2.78777E+07-8.11485E+05 1.17992E+08 1.06373E+07 4.08097E+06
 -1      1526-3.65860E+09-2.78777E+07-8.11485E+05 1.17992E+08 1.06373E+07 4.08097E+06
 -1      1527-4.07307E+09-3.31196E+07-2.18817E+06 8.01944E+07 1.20270E+07 2.34926E+06
 -1      1529-4.07307E+09-3.31196E+07-2.18817E+06 8.01944E+07 1.20270E+07 2.34926E+06
 -1      1530-4.33159E+09-3.31041E+07-1.28010E+06 4.37605E+07 1.29229E+07 5.98814E+05
 -1      1532-4.33159E+09-3.31041E+07-1.28010E+06 4.37605E+07 1.29229E+07 5.98814E+05
 -1      1533-4.44045E+09-3.48676E+07-2.13218E+06 8.66008E+06 1.34910E+07-1.25066E+06
 -1      1535-4.44045E+09-3.48676E+07-2.13218E+06 8.66008E+06 1.34910E+07-1.25066E+06
 -1      1536-4.40531E+09-3.36791E+07-1.45798E+06-2.46990E+07 1.35011E+07-3.10976E+06
 -1      1538-4.40531E+09-3.36791E+07-1.45798E+06-2.46990E+07 1.35011E+07-3.10976E+06
 -1      1539-4.23442E+09-3.27437E+07-1.90880E+06-5.59948E+07 1.31506E+07-4.91487E+06
 -1      1541-4.23442E+09-3.27437E+07-1.90880E+06-5.59948E+07 1.31506E+07-4.91487E+06
 -1      1542-3.93763E+09-3.00879E+07-1.38308E+06-8.45016E+07 1.22795E+07-6.63607E+06
 -1      1544-3.93763E+09-3.00879E+07-1.38308E+06-8.45016E+07 1.22795E+07-6.63607E+06
 -1      1545-3.52777E+09-2.69709E+07-1.52114E+06-1.09731E+08 1.10738E+07-8.19252E+06
 -1      1547-3.52777E+09-2.69709E+07-1.52114E+06-1.09731E+08 1.10738E+07-8.19252E+06
 -1      1548-3.02021E+09-2.30514E+07-1.11134E+06-1.30870E+08 9.43750E+06-9.56652E+06
 -1      1550-3.02021E+09-2.30514E+07-1.11134E+06-1.30870E+08 9.43750E+06-9.56652E+06
 -1      1551-2.43307E+09-1.81738E+07-9.89767E+05-1.47439E+08 7.53976E+06-1.06902E+07
 -1      1553-2.43307E+09-1.81738E+07-9.89767E+05-1.47439E+08 7.53976E+06-1.06902E+07
 -1      1554-1.78746E+09-1.36387E+07-7.14033E+05-1.58564E+08 5.32302E+06-1.15505E+07
 -1      1556-1.78746E+09-1.36387E+07-7.14033E+05-1.58564E+08 5.32302E+06-1.15505E+07
 -1      1557-1.10669E+09-7.27249E+06-3.55134E+05-1.63897E+08 2.94206E+06-1.21065E+07
 -1      1559-1.10669E+09-7.27249E+06-3.55134E+05-1.63897E+08 2.94206E+06-1.21065E+07
 -1      1560-4.17451E+08-3.27954E+06-2.75844E+05-1.62486E+08 3.47223E+05-1.23357E+07
 -1      1562-4.17451E+08-3.27954E+06-2.75844E+05-1.62486E+08 3.47223E+05-1.23357E+07
 -1      1563 2.51705E+08 4.55264E+06 3.21570E+05-1.53714E+08-2.33382E+06-1.22556E+07
 -1      1565 2.51705E+08 4.55264E+06 3.21570E+05-1.53714E+08-2.33382E+06-1.22556E+07
 -1      1566 8.68237E+08 6.56933E+06 1.09905E+05-1.37685E+08-5.15084E+06-1.17734E+07
 -1      1568 8.68237E+08 6.56933E+06 1.09905E+05-1.37685E+08-5.15084E+06-1.17734E+07
 -1      1569 1.39639E+09 1.50876E+07 9.53519E+05-1.09609E+08-8.07927E+06-1.10768E+07
 -1      1571 1.39639E+09 1.50876E+07 9.53519E+05-1.09609E+08-8.07927E+06-1.10768E+07
 -1      1572 1.79651E+09 1.64388E+07 3.50049E+05-7.88685E+07-1.10373E+07-9.78477E+06
 -1      1574 1.79651E+09 1.64388E+07 3.50049E+05-7.88685E+07-1.10373E+07-9.78477E+06
 -1      1575 2.01908E+09 1.74378E+07 1.39462E+06-1.86767E+07-1.43712E+07-8.64998E+06
 -1      1577 2.01908E+09 1.74378E+07 1.39462E+06-1.86767E+07-1.43712E+07-8.64998E+06
 -1      1578 2.01118E+09 3.38195E+07 4.47500E+05 2.47204E+07-1.70684E+07-6.30491E+06
 -1      1580 2.01118E+09 3.38195E+07 4.47500E+05 2.47204E+07-1.70684E+07-6.30491E+06
 -1      1581 1.70688E+09-1.28751E+06 1.07106E+06 1.30945E+08-2.05042E+07-5.38571E+06
 -1      1583 1.70688E+09-1.28751E+06 1.07106E+06 1.30945E+08-2.05042E+07-5.38571E+06
 -1      1584 9.84420E+08 5.16636E+07 1.54591E+06 2.39327E+08-1.89123E+07-1.50120E+06
 -1      1586 9.84420E+08 5.16636E+07 1.54591E+06 2.39327E+08-1.89123E+07-1.50120E+06
 -1      1587 4.25727E+08 3.50062E+08 3.98379E+06 4.35590E+08-2.90277E+07 2.29531E+06
 -1      1589 4.25727E+08 3.50062E+08 3.98379E+06 4.35590E+08-2.90277E+07 2.29531E+06
 -1      1590 5.80297E+09 6.54485E+08 1.02257E+06 1.24930E+09 7.91973E+06 3.63739E+07
 -1      1592 5.80297E+09 6.54485E+08 1.02257E+06 1.24930E+09 7.91973E+06 3.63739E+07
 -1      1593-4.25727E+08-3.50062E+08-3.98379E+06 4.35590E+08-2.90277E+07-2.29531E+06
 -1      1595-4.25727E+08-3.50062E+08-3.98379E+06 4.35590E+08-2.90277E+07-2.29531E+06
 -1      1596-7.37510E+09-2.29364E+08 1.15825E+06 7.66696E+08 1.31253E+06-3.00324E+07
 -1      1598-7.37510E+09-2.29364E+08 1.15825E+06 7.66696E+08 1.31253E+06-3.00324E+07
 -1      1599-4.80277E+09 7.94564E+07-2.48980E+06 4.99894E+08 8.57741E+05 2.31367E+05
 -1      1601-4.80277E+09 7.94564E+07-2.48980E+06 4.99894E+08 8.57741E+05 2.31367E+05
 -1      1602-2.77529E+09-5.65559E+07-1.21088E+06 4.65049E+08 1.77996E+06-1.45595E+07
 -1      1604-2.77529E+09-5.65559E+07-1.21088E+06 4.65049E+08 1.77996E+06-1.45595E+07
 -1      1605-1.09511E+09 2.26482E+07 6.99914E+05 3.52450E+08 1.96719E+06-6.86921E+06
 -1      1607-1.09511E+09 2.26482E+07 6.99914E+05 3.52450E+08 1.96719E+06-6.86921E+06
 -1      1608 2.72795E+08-3.20362E+06-8.52831E+05 3.02403E+08 3.60534E+06-9.85526E+06
 -1      1610 2.72795E+08-3.20362E+06-8.52831E+05 3.02403E+08 3.60534E+06-9.85526E+06
 -1      1611 1.40978E+09 2.09135E+07 1.71498E+06 2.44587E+08 5.18439E+06-7.31048E+06
 -1      1613 1.40978E+09 2.09135E+07 1.71498E+06 2.44587E+08 5.18439E+06-7.31048E+06
 -1      1614 2.33704E+09 1.72087E+07 5.23563E+04 1.99850E+08 7.15240E+06-7.07461E+06
 -1      1616 2.33704E+09 1.72087E+07 5.23563E+04 1.99850E+08 7.15240E+06-7.07461E+06
 -1      1617 3.08341E+09 2.78272E+07 2.07403E+06 1.57455E+08 9.01143E+06-5.39981E+06
 -1      1619 3.08341E+09 2.78272E+07 2.07403E+06 1.57455E+08 9.01143E+06-5.39981E+06
 -1      1620 3.65860E+09 2.78777E+07 8.11485E+05 1.17992E+08 1.06373E+07-4.08097E+06
 -1      1622 3.65860E+09 2.78777E+07 8.11485E+05 1.17992E+08 1.06373E+07-4.08097E+06
 -1      1623 4.07307E+09 3.31196E+07 2.18817E+06 8.01944E+07 1.20270E+07-2.34926E+06
 -1      1625 4.07307E+09 3.31196E+07 2.18817E+06 8.01944E+07 1.20270E+07-2.34926E+06
 -1      1626 4.33159E+09 3.31041E+07 1.28010E+06 4.37605E+07 1.29229E+07-5.98814E+05
 -1      1628 4.33159E+09 3.31041E+07 1.28010E+06 4.37605E+07 1.29229E+07-5.98814E+05
 -1      1629 4.44045E+09 3.48676E+07 2.13218E+06 8.66008E+06 1.34910E+07 1.25066E+06
 -1      1631 4.44045E+09 3.48676E+07 2.13218E+06 8.66008E+06 1.34910E+07 1.25066E+06
 -1      1632 4.40531E+09 3.36791E+07 1.45798E+06-2.46990E+07 1.35011E+07 3.10976E+06
 -1      1634 4.40531E+09 3.36791E+07 1.45798E+06-2.46990E+07 1.35011E+07 3.10976E+06
 -1      1635 4.23442E+09 3.27437E+07 1.90880E+06-5.59948E+07 1.31506E+07 4.91487E+06
 -1      1637 4.23442E+09 3.27437E+07 1.90880E+06-5.59948E+07 1.31506E+07 4.91487E+06
 -1      1638 3.93763E+09 3.00879E+07 1.38308E+06-8.45016E+07 1.22795E+07 6.63607E+06
 -1      1640 3.93763E+09 3.00879E+07 1.38308E+06-8.45016E+07 1.22795E+07 6.63607E+06
 -1      1641 3.52777E+09 2.69709E+07 1.52114E+06-1.09731E+08 1.10738E+07 8.19252E+06
 -1      1643 3.52777E+09 2.69709E+07 1.52114E+06-1.09731E+08 1.10738E+07 8.19252E+06
 -1      1644 3.02021E+09 2.30514E+07 1.11134E+06-1.30870E+08 9.43750E+06 9.56652E+06
 -1      1646 3.02021E+09 2.30514E+07 1.11134E+06-1.30870E+08 9.43750E+06 9.56652E+06
 -1      1647 2.43307E+09 1.81738E+07 9.89767E+05-1.47439E+08 7.53976E+06 1.06902E+07
 -1      1649 2.43307E+09 1.81738E+07 9.89767E+05-1.47439E+08 7.53976E+06 1.06902E+07
 -1      1650 1.78746E+09 1.36387E+07 7.14033E+05-1.58564E+08 5.32302E+06 1.15505E+07
 -1      1652 1.78746E+09 1.36387E+07 7.14033E+05-1.58564E+08 5.32302E+06 1.15505E+07
 -1      1653 1.10669E+09 7.27249E+06 3.55134E+05-1.63897E+08 2.94206E+06 1.21065E+07
 -1      1655 1.10669E+09 7.27249E+06 3.55134E+05-1.63897E+08 2.94206E+06 1.21065E+07
 -1      1656 4.17451E+08 3.27954E+06 2.75844E+05-1.62486E+08 3.47223E+05 1.23357E+07
 -1      1658 4.17451E+08 3.27954E+06 2.75844E+05-1.62486E+08 3.47223E+05 1.23357E+07
 -1      1659-2.51705E+08-4.55264E+06-3.21570E+05-1.53714E+08-2.33382E+06 1.22556E+07
 -1      1661-2.51705E+08-4.55264E+06-3.21570E+05-1.53714E+08-2.33382E+06 1.22556E+07
 -1      1662-8.68237E+08-6.56933E+06-1.09905E+05-1.37685E+08-5.15084E+06 1.17734E+07
 -1      1664-8.68237E+08-6.56933E+06-1.09905E+05-1.37685E+08-5.15084E+06 1.17734E+07
 -1      1665-1.39639E+09-1.50876E+07-9.53519E+05-1.09609E+08-8.07927E+06 1.10768E+07
 -1      1667-1.39639E+09-1.50876E+07-9.53519E+05-1.09609E+08-8.07927E+06 1.10768E+07
 -1      1668-1.79651E+09-1.64388E+07-3.50049E+05-7.88685E+07-1.10373E+07 9.78477E+06
 -1      1670-1.79651E+09-1.64388E+07-3.50049E+05-7.88685E+07-1.10373E+07 9.78477E+06
 -1      1671-2.01908E+09-1.74378E+07-1.39462E+06-1.86767E+07-1.43712E+07 8.64998E+06
 -1      1673-2.01908E+09-1.74378E+07-1.39462E+06-1.86767E+07-1.43712E+07 8.64998E+06
 -1      1674-2.01118E+09-3.38195E+07-4.47500E+05 2.47204E+07-1.70684E+07 6.30491E+06
 -1      1676-2.01118E+09-3.38195E+07-4.47500E+05 2.47204E+07-1.70684E+07 6.30491E+06
 -1      1677-1.70688E+09 1.28751E+06-1.07106E+06 1.30945E+08-2.05042E+07 5.38571E+06
 -1      1679-1.70688E+09 1.28751E+06-1.07106E+06 1.30945E+08-2.05042E+07 5.38571E+06
 -1      1680-9.84420E+08-5.16636E+07-1.54591E+06 2.39327E+08-1.89123E+07 1.50120E+06
 -1      1682-9.84420E+08-5.16636E+07-1.54591E+06 2.39327E+08-1.89123E+07 1.50120E+06
 -1      1683-5.80297E+09-6.54485E+08-1.02257E+06 1.24930E+09 7.91973E+06-3.63739E+07
 -1      1685-5.80297E+09-6.54485E+08-1.02257E+06 1.24930E+09 7.91973E+06-3.63739E+07
 -1      1686 4.93206E+09 2.49439E+08 8.50506E+05-1.11873E+09-7.03609E+05-9.41252E+06
 -1      1688 4.93206E+09 2.49439E+08 8.50506E+05-1.11873E+09-7.03609E+05-9.41252E+06
 -1      1689 3.24985E+09-1.34349E+07-1.38661E+05-8.85719E+08-8.35378E+06 4.40684E+06
 -1      1691 3.24985E+09-1.34349E+07-1.38661E+05-8.85719E+08-8.35378E+06 4.40684E+06
 -1      1692 1.85373E+09 6.11199E+07 9.57491E+04-7.17029E+08-5.32030E+06-3.15097E+06
 -1      1694 1.85373E+09 6.11199E+07 9.57491E+04-7.17029E+08-5.32030E+06-3.15097E+06
 -1      1695 7.48761E+08 1.46073E+06 2.05964E+05-5.87981E+08-4.07550E+06-1.95143E+05
 -1      1697 7.48761E+08 1.46073E+06 2.05964E+05-5.87981E+08-4.07550E+06-1.95143E+05
 -1      1698-1.80010E+08-4.11803E+06-2.89910E+05-4.83467E+08-1.74475E+06-1.87075E+06
 -1      1700-1.80010E+08-4.11803E+06-2.89910E+05-4.83467E+08-1.74475E+06-1.87075E+06
 -1      1701-9.36164E+08-2.24875E+07 1.40860E+05-3.98739E+08 8.92048E+05-1.21673E+06
 -1      1703-9.36164E+08-2.24875E+07 1.40860E+05-3.98739E+08 8.92048E+05-1.21673E+06
 -1      1704-1.56032E+09-3.45080E+07-3.25554E+05-3.22818E+08 2.87401E+06-1.40606E+06
 -1      1706-1.56032E+09-3.45080E+07-3.25554E+05-3.22818E+08 2.87401E+06-1.40606E+06
 -1      1707-2.05883E+09-4.46941E+07-4.46866E+04-2.55357E+08 5.16663E+06-1.14207E+06
 -1      1709-2.05883E+09-4.46941E+07-4.46866E+04-2.55357E+08 5.16663E+06-1.14207E+06
 -1      1710-2.44490E+09-5.25519E+07-2.79771E+05-1.90862E+08 6.64966E+06-9.47268E+05
 -1      1712-2.44490E+09-5.25519E+07-2.79771E+05-1.90862E+08 6.64966E+06-9.47268E+05
 -1      1713-2.72202E+09-5.84139E+07-1.90848E+05-1.30033E+08 8.17353E+06-6.98669E+05
 -1      1715-2.72202E+09-5.84139E+07-1.90848E+05-1.30033E+08 8.17353E+06-6.98669E+05
 -1      1716-2.89555E+09-6.17932E+07-2.33397E+05-7.07817E+07 8.99939E+06-4.06510E+05
 -1      1718-2.89555E+09-6.17932E+07-2.33397E+05-7.07817E+07 8.99939E+06-4.06510E+05
 -1      1719-2.96838E+09-6.34527E+07-2.70300E+05-1.42398E+07 9.66945E+06-1.36177E+05
 -1      1721-2.96838E+09-6.34527E+07-2.70300E+05-1.42398E+07 9.66945E+06-1.36177E+05
 -1      1722-2.94522E+09-6.27465E+07-1.88050E+05 3.99220E+07 9.77514E+06 1.65029E+05
 -1      1724-2.94522E+09-6.27465E+07-1.88050E+05 3.99220E+07 9.77514E+06 1.65029E+05
 -1      1725-2.83102E+09-6.04009E+07-2.95718E+05 9.03576E+07 9.62802E+06 4.29880E+05
 -1      1727-2.83102E+09-6.04009E+07-2.95718E+05 9.03576E+07 9.62802E+06 4.29880E+05
 -1      1728-2.63275E+09-5.60511E+07-1.30096E+05 1.36604E+08 9.04756E+06 6.99834E+05
 -1      1730-2.63275E+09-5.60511E+07-1.30096E+05 1.36604E+08 9.04756E+06 6.99834E+05
 -1      1731-2.35881E+09-5.02363E+07-2.86900E+05 1.77242E+08 8.19177E+06 9.27056E+05
 -1      1733-2.35881E+09-5.02363E+07-2.86900E+05 1.77242E+08 8.19177E+06 9.27056E+05
 -1      1734-2.01951E+09-4.29424E+07-4.77240E+04 2.11571E+08 7.03917E+06 1.13929E+06
 -1      1736-2.01951E+09-4.29424E+07-4.77240E+04 2.11571E+08 7.03917E+06 1.13929E+06
 -1      1737-1.62713E+09-3.44924E+07-2.65091E+05 2.38147E+08 5.63817E+06 1.30560E+06
 -1      1739-1.62713E+09-3.44924E+07-2.65091E+05 2.38147E+08 5.63817E+06 1.30560E+06
 -1      1740-1.19547E+09-2.53096E+07 6.78694E+04 2.56361E+08 4.08482E+06 1.44142E+06
 -1      1742-1.19547E+09-2.53096E+07 6.78694E+04 2.56361E+08 4.08482E+06 1.44142E+06
 -1      1743-7.40669E+08-1.53041E+07-2.54358E+05 2.64634E+08 2.34026E+06 1.54016E+06
 -1      1745-7.40669E+08-1.53041E+07-2.54358E+05 2.64634E+08 2.34026E+06 1.54016E+06
 -1      1746-2.79857E+08-5.62257E+06 2.25072E+05 2.62634E+08 5.80615E+05 1.58728E+06
 -1      1748-2.79857E+08-5.62257E+06 2.25072E+05 2.62634E+08 5.80615E+05 1.58728E+06
 -1      1749 1.67026E+08 4.47479E+06-2.83621E+05 2.48253E+08-1.29233E+06 1.64254E+06
 -1      1751 1.67026E+08 4.47479E+06-2.83621E+05 2.48253E+08-1.29233E+06 1.64254E+06
 -1      1752 5.78750E+08 1.36033E+07 4.32704E+05 2.21579E+08-3.10664E+06 1.58818E+06
 -1      1754 5.78750E+08 1.36033E+07 4.32704E+05 2.21579E+08-3.10664E+06 1.58818E+06
 -1      1755 9.31781E+08 2.00801E+07-3.80090E+05 1.78907E+08-4.91755E+06 1.68656E+06
 -1      1757 9.31781E+08 2.00801E+07-3.80090E+05 1.78907E+08-4.91755E+06 1.68656E+06
 -1      1758 1.19686E+09 3.24270E+07 6.72538E+05 1.21306E+08-6.84576E+06 1.49113E+06
 -1      1760 1.19686E+09 3.24270E+07 6.72538E+05 1.21306E+08-6.84576E+06 1.49113E+06
 -1      1761 1.34688E+09 1.98713E+07-4.82456E+05 4.04372E+07-8.51966E+06 1.84284E+06
 -1      1763 1.34688E+09 1.98713E+07-4.82456E+05 4.04372E+07-8.51966E+06 1.84284E+06
 -1      1764 1.33882E+09 6.01516E+07 6.62463E+05-5.89946E+07-1.14069E+07 1.36405E+06
 -1      1766 1.33882E+09 6.01516E+07 6.62463E+05-5.89946E+07-1.14069E+07 1.36405E+06
 -1      1767 1.12200E+09-1.87878E+07 1.35570E+05-1.97722E+08-1.34833E+07 2.34083E+06
 -1      1769 1.12200E+09-1.87878E+07 1.35570E+05-1.97722E+08-1.34833E+07 2.34083E+06
 -1      1770 6.91009E+08 9.53589E+07-1.41955E+06-3.61555E+08-2.14186E+07 1.11681E+06
 -1      1772 6.91009E+08 9.53589E+07-1.41955E+06-3.61555E+08-2.14186E+07 1.11681E+06
 -1      1773-4.93206E+09-2.49439E+08-8.50506E+05-1.11873E+09-7.03609E+05 9.41252E+06
 -1      1775-4.93206E+09-2.49439E+08-8.50506E+05-1.11873E+09-7.03609E+05 9.41252E+06
 -1      1776-3.24985E+09 1.34349E+07 1.38661E+05-8.85719E+08-8.35378E+06-4.40684E+06
 -1      1778-3.24985E+09 1.34349E+07 1.38661E+05-8.85719E+08-8.35378E+06-4.40684E+06
 -1      1779-1.85373E+09-6.11199E+07-9.57491E+04-7.17029E+08-5.32030E+06 3.15097E+06
 -1      1781-1.85373E+09-6.11199E+07-9.57491E+04-7.17029E+08-5.32030E+06 3.15097E+06
 -1      1782-7.48761E+08-1.46073E+06-2.05964E+05-5.87981E+08-4.07550E+06 1.95143E+05
 -1      1784-7.48761E+08-1.46073E+06-2.05964E+05-5.87981E+08-4.07550E+06 1.95143E+05
 -1      1785 1.80010E+08 4.11803E+06 2.89910E+05-4.83467E+08-1.74475E+06 1.87075E+06
 -1      1787 1.80010E+08 4.11803E+06 2.89910E+05-4.83467E+08-1.74475E+06 1.87075E+06
 -1      1788 9.36164E+08 2.24875E+07-1.40860E+05-3.98739E+08 8.92048E+05 1.21673E+06
 -1      1790 9.36164E+08 2.24875E+07-1.40860E+05-3.98739E+08 8.92048E+05 1.21673E+06
 -1      1791 1.56032E+09 3.45080E+07 3.25554E+05-3.22818E+08 2.87401E+06 1.40606E+06
 -1      1793 1.56032E+09 3.45080E+07 3.25554E+05-3.22818E+08 2.87401E+06 1.40606E+06
 -1      1794 2.05883E+09 4.46941E+07 4.46866E+04-2.55357E+08 5.16663E+06 1.14207E+06
 -1      1796 2.05883E+09 4.46941E+07 4.46866E+04-2.55357E+08 5.16663E+06 1.14207E+06
 -1      1797 2.44490E+09 5.25519E+07 2.79771E+05-1.90862E+08 6.64966E+06 9.47268E+05
 -1      1799 2.44490E+09 5.25519E+07 2.79771E+05-1.90862E+08 6.64966E+06 9.47268E+05
 -1      1800 2.72202E+09 5.84139E+07 1.90848E+05-1.30033E+08 8.17353E+06 6.98669E+05
 -1      1802 2.72202E+09 5.84139E+07 1.90848E+05-1.30033E+08 8.17353E+06 6.98669E+05
 -1      1803 2.89555E+09 6.17932E+07 2.33397E+05-7.07817E+07 8.99939E+06 4.06510E+05
 -1      1805 2.89555E+09 6.17932E+07 2.33397E+05-7.07817E+07 8.99939E+06 4.06510E+05
 -1      1806 2.96838E+09 6.34527E+07 2.70300E+05-1.42398E+07 9.66945E+06 1.36177E+05
 -1      1808 2.96838E+09 6.34527E+07 2.70300E+05-1.42398E+07 9.66945E+06 1.36177E+05
 -1      1809 2.94522E+09 6.27465E+07 1.88050E+05 3.99220E+07 9.77514E+06-1.65029E+05
 -1      1811 2.94522E+09 6.27465E+07 1.88050E+05 3.99220E+07 9.77514E+06-1.65029E+05
 -1      1812 2.83102E+09 6.04009E+07 2.95718E+05 9.03576E+07 9.62802E+06-4.29880E+05
 -1      1814 2.83102E+09 6.04009E+07 2.95718E+05 9.03576E+07 9.62802E+06-4.29880E+05
 -1      1815 2.63275E+09 5.60511E+07 1.30096E+05 1.36604E+08 9.04756E+06-6.99834E+05
 -1      1817 2.63275E+09 5.60511E+07 1.30096E+05 1.36604E+08 9.04756E+06-6.99834E+05
 -1      1818 2.35881E+09 5.02363E+07 2.86900E+05 1.77242E+08 8.19177E+06-9.27056E+05
 -1      1820 2.35881E+09 5.02363E+07 2.86900E+05 1.77242E+08 8.19177E+06-9.27056E+05
 -1      1821 2.01951E+09 4.29424E+07 4.77240E+04 2.11571E+08 7.03917E+06-1.13929E+06
 -1      1823 2.01951E+09 4.29424E+07 4.77240E+04 2.11571E+08 7.03917E+06-1.13929E+06
 -1      1824 1.62713E+09 3.44924E+07 2.65091E+05 2.38147E+08 5.63817E+06-1.30560E+06
 -1      1826 1.62713E+09 3.44924E+07 2.65091E+05 2.38147E+08 5.63817E+06-1.30560E+06
 -1      1827 1.19547E+09 2.53096E+07-6.78694E+04 2.56361E+08 4.08482E+06-1.44142E+06
 -1      1829 1.19547E+09 2.53096E+07-6.78694E+04 2.56361E+08 4.08482E+06-1.44142E+06
 -1      1830 7.40669E+08 1.53041E+07 2.54358E+05 2.64634E+08 2.34026E+06-1.54016E+06
 -1      1832 7.40669E+08 1.53041E+07 2.54358E+05 2.64634E+08 2.34026E+06-1.54016E+06
 -1      1833 2.79857E+08 5.62257E+06-2.25072E+05 2.62634E+08 5.80615E+05-1.58728E+06
 -1      1835 2.79857E+08 5.62257E+06-2.25072E+05 2.62634E+08 5.80615E+05-1.58728E+06
 -1      1836-1.67026E+08-4.47479E+06 2.83621E+05 2.48253E+08-1.29233E+06-1.64254E+06
 -1      1838-1.67026E+08-4.47479E+06 2.83621E+05 2.48253E+08-1.29233E+06-1.64254E+06
 -1      1839-5.78750E+08-1.36033E+07-4.32704E+05 2.21579E+08-3.10664E+06-1.58818E+06
 -1      1841-5.78750E+08-1.36033E+07-4.32704E+05 2.21579E+08-3.10664E+06-1.58818E+06
 -1      1842-9.31781E+08-2.00801E+07 3.80090E+05 1.78907E+08-4.91755E+06-1.68656E+06
 -1      1844-9.31781E+08-2.00801E+07 3.80090E+05 1.78907E+08-4.91755E+06-1.68656E+06
 -1      1845-1.19686E+09-3.24270E+07-6.72538E+05 1.21306E+08-6.84576E+06-1.49113E+06
 -1      1847-1.19686E+09-3.24270E+07-6.72538E+05 1.21306E+08-6.84576E+06-1.49113E+06
 -1      1848-1.34688E+09-1.98713E+07 4.82456E+05 4.04372E+07-8.51966E+06-1.84284E+06
 -1      1850-1.34688E+09-1.98713E+07 4.82456E+05 4.04372E+07-8.51966E+06-1.84284E+06
 -1      1851-1.33882E+09-6.01516E+07-6.62463E+05-5.89946E+07-1.14069E+07-1.36405E+06
 -1      1853-1.33882E+09-6.01516E+07-6.62463E+05-5.89946E+07-1.14069E+07-1.36405E+06
 -1      1854-1.12200E+09 1.87878E+07-1.35570E+05-1.97722E+08-1.34833E+07-2.34083E+06
 -1      1856-1.12200E+09 1.87878E+07-1.35570E+05-1.97722E+08-1.34833E+07-2.34083E+06
 -1      1857-6.91009E+08-9.53589E+07 1.41955E+06-3.61555E+08-2.14186E+07-1.11681E+06
 -1      1859-6.91009E+08-9.53589E+07 1.41955E+06-3.61555E+08-2.14186E+07-1.11681E+06
 -1      1860-1.42195E-02-4.33897E-05-3.54043E-05-1.05127E+07-1.12100E+07-2.65217E-02
 -1      1862-1.42195E-02-4.33897E-05-3.54043E-05-1.05127E+07-1.12100E+07-2.65217E-02
 -1      1863-1.11274E-02-2.12412E-05 2.94504E-03-2.01841E+05-1.35685E+07-2.64561E-02
 -1      1865-1.11274E-02-2.12412E-05 2.94504E-03-2.01841E+05-1.35685E+07-2.64561E-02
 -1      1866-7.88133E-03 1.49144E-04 1.50065E-03-6.48108E+06-1.01235E+07-2.50608E-02
 -1      1868-7.88133E-03 1.49144E-04 1.50065E-03-6.48108E+06-1.01235E+07-2.50608E-02
 -1      1869-4.33720E-03 4.17428E-04-1.16863E-03-2.33459E+06-5.84368E+06-2.41658E-02
 -1      1871-4.33720E-03 4.17428E-04-1.16863E-03-2.33459E+06-5.84368E+06-2.41658E-02
 -1      1872-2.72326E-04 6.48772E-04-1.45088E-03-5.24298E+06-1.10373E+06-2.36452E-02
 -1      1874-2.72326E-04 6.48772E-04-1.45088E-03-5.24298E+06-1.10373E+06-2.36452E-02
 -1      1875 3.43766E-03 6.25616E-04 7.46042E-04-2.68823E+06 3.78134E+06-2.27241E-02
 -1      1877 3.43766E-03 6.25616E-04 7.46042E-04-2.68823E+06 3.78134E+06-2.27241E-02
 -1      1878 5.86589E-03 4.14627E-04 3.24891E-03-4.05738E+06 8.02775E+06-2.03955E-02
 -1      1880 5.86589E-03 4.14627E-04 3.24891E-03-4.05738E+06 8.02775E+06-2.03955E-02
 -1      1881 7.34819E-03-3.91352E-04 3.04350E-03-2.20159E+06 1.19850E+07-1.76023E-02
 -1      1883 7.34819E-03-3.91352E-04 3.04350E-03-2.20159E+06 1.19850E+07-1.76023E-02
 -1      1884 9.08048E-03-7.49839E-04 8.54551E-04-2.59245E+06 1.50789E+07-1.56163E-02
 -1      1886 9.08048E-03-7.49839E-04 8.54551E-04-2.59245E+06 1.50789E+07-1.56163E-02
 -1      1887 1.15709E-02-2.84847E-04 3.02714E-04-1.12586E+06 1.76363E+07-1.41985E-02
 -1      1889 1.15709E-02-2.84847E-04 3.02714E-04-1.12586E+06 1.76363E+07-1.41985E-02
 -1      1890 1.37034E-02-3.49418E-04 1.99613E-03-9.25809E+05 1.92762E+07-1.16007E-02
 -1      1892 1.37034E-02-3.49418E-04 1.99613E-03-9.25809E+05 1.92762E+07-1.16007E-02
 -1      1893 1.51338E-02-2.33190E-04 3.94527E-03 3.07282E+05 2.03111E+07-7.65210E-03
 -1      1895 1.51338E-02-2.33190E-04 3.94527E-03 3.07282E+05 2.03111E+07-7.65210E-03
 -1      1896 1.63724E-02 4.84170E-04 4.90356E-03 7.93584E+05 2.04080E+07-4.12332E-03
 -1      1898 1.63724E-02 4.84170E-04 4.90356E-03 7.93584E+05 2.04080E+07-4.12332E-03
 -1      1899 1.70212E-02 9.15832E-04 5.14960E-03 1.85570E+06 1.99841E+07-7.48874E-04
 -1      1901 1.70212E-02 9.15832E-04 5.14960E-03 1.85570E+06 1.99841E+07-7.48874E-04
 -1      1902 1.64104E-02 1.76080E-04 4.84889E-03 2.39348E+06 1.86153E+07 2.46153E-03
 -1      1904 1.64104E-02 1.76080E-04 4.84889E-03 2.39348E+06 1.86153E+07 2.46153E-03
 -1      1905 1.54498E-02-6.83453E-04 4.11009E-03 3.29874E+06 1.69442E+07 3.96580E-03
 -1      1907 1.54498E-02-6.83453E-04 4.11009E-03 3.29874E+06 1.69442E+07 3.96580E-03
 -1      1908 1.52657E-02-1.89854E-04 3.62750E-03 3.70103E+06 1.43204E+07 4.82067E-03
 -1      1910 1.52657E-02-1.89854E-04 3.62750E-03 3.70103E+06 1.43204E+07 4.82067E-03
 -1      1911 1.46519E-02 1.96772E-04 3.50947E-03 4.46001E+06 1.17443E+07 5.71981E-03
 -1      1913 1.46519E-02 1.96772E-04 3.50947E-03 4.46001E+06 1.17443E+07 5.71981E-03
 -1      1914 1.27403E-02 2.79134E-04 3.35439E-03 4.56264E+06 8.17014E+06 7.06560E-03
 -1      1916 1.27403E-02 2.79134E-04 3.35439E-03 4.56264E+06 8.17014E+06 7.06560E-03
 -1      1917 9.79661E-03 5.26987E-04 2.00355E-03 5.22404E+06 5.13873E+06 1.07867E-02
 -1      1919 9.79661E-03 5.26987E-04 2.00355E-03 5.22404E+06 5.13873E+06 1.07867E-02
 -1      1920 6.52985E-03-3.01116E-04-3.16944E-04 4.85634E+06 9.51624E+05 1.35880E-02
 -1      1922 6.52985E-03-3.01116E-04-3.16944E-04 4.85634E+06 9.51624E+05 1.35880E-02
 -1      1923 3.85332E-03-5.03726E-05-6.79459E-04 5.54676E+06-2.01435E+06 1.34848E-02
 -1      1925 3.85332E-03-5.03726E-05-6.79459E-04 5.54676E+06-2.01435E+06 1.34848E-02
 -1      1926 1.36923E-03 1.92985E-04 4.20361E-04 4.50053E+06-6.55846E+06 1.32222E-02
 -1      1928 1.36923E-03 1.92985E-04 4.20361E-04 4.50053E+06-6.55846E+06 1.32222E-02
 -1      1929-2.75962E-04-5.93027E-04 8.24961E-04 5.43113E+06-8.91454E+06 1.08240E-02
 -1      1931-2.75962E-04-5.93027E-04 8.24961E-04 5.43113E+06-8.91454E+06 1.08240E-02
 -1      1932-2.36553E-04-7.65757E-04 1.91953E-03 3.51610E+06-1.39274E+07 5.93603E-03
 -1      1934-2.36553E-04-7.65757E-04 1.91953E-03 3.51610E+06-1.39274E+07 5.93603E-03
 -1      1935 8.91289E-05 9.09679E-05 5.26561E-03 4.71560E+06-1.51862E+07 3.34510E-03
 -1      1937 8.91289E-05 9.09679E-05 5.26561E-03 4.71560E+06-1.51862E+07 3.34510E-03
 -1      1938-2.04203E-04 8.26332E-04 7.81587E-03 2.40671E+06-2.21333E+07 2.41410E-03
 -1      1940-2.04203E-04 8.26332E-04 7.81587E-03 2.40671E+06-2.21333E+07 2.41410E-03
 -1      1941-4.29030E-04 1.26840E-03 7.14394E-03 2.17264E+06-2.24209E+07 6.68079E-04
 -1      1943-4.29030E-04 1.26840E-03 7.14394E-03 2.17264E+06-2.24209E+07 6.68079E-04
 -1      1944-3.23856E-04 1.15172E-03 4.70693E-03 3.33664E+06-3.81288E+07-3.40714E-05
 -1      1946-3.23856E-04 1.15172E-03 4.70693E-03 3.33664E+06-3.81288E+07-3.40714E-05
 -1      1947-4.95145E-04-6.18434E-05 1.80638E-03 1.39128E-03 2.28383E+06-2.70498E-02
 -1      1949-4.95145E-04-6.18434E-05 1.80638E-03 1.39128E-03 2.28383E+06-2.70498E-02
 -1      1950-7.95277E-04 6.80163E-05 1.91286E-03 6.55032E-05 1.33044E+07-2.84183E-02
 -1      1952-7.95277E-04 6.80163E-05 1.91286E-03 6.55032E-05 1.33044E+07-2.84183E-02
 -1      1953-5.53760E-04 2.46075E-04 1.77806E-04 6.90333E-04 1.66858E+07-2.74734E-02
 -1      1955-5.53760E-04 2.46075E-04 1.77806E-04 6.90333E-04 1.66858E+07-2.74734E-02
 -1      1956-2.11461E-04 4.26380E-04-1.81017E-03 2.20396E-04 1.94490E+07-2.59264E-02
 -1      1958-2.11461E-04 4.26380E-04-1.81017E-03 2.20396E-04 1.94490E+07-2.59264E-02
 -1      1959 2.42151E-04 6.14057E-04-2.26356E-03 3.30525E-04 2.18413E+07-2.46694E-02
 -1      1961 2.42151E-04 6.14057E-04-2.26356E-03 3.30525E-04 2.18413E+07-2.46694E-02
 -1      1962 1.22887E-04 4.51524E-04-1.01572E-03 2.07786E-04 2.34904E+07-2.29311E-02
 -1      1964 1.22887E-04 4.51524E-04-1.01572E-03 2.07786E-04 2.34904E+07-2.29311E-02
 -1      1965-6.27805E-04 1.45319E-05 8.27383E-04 6.51525E-05 2.53723E+07-2.04333E-02
 -1      1967-6.27805E-04 1.45319E-05 8.27383E-04 6.51525E-05 2.53723E+07-2.04333E-02
 -1      1968-7.68912E-04-3.59985E-04 1.17196E-03 9.03732E-05 2.66960E+07-1.85039E-02
 -1      1970-7.68912E-04-3.59985E-04 1.17196E-03 9.03732E-05 2.66960E+07-1.85039E-02
 -1      1971 4.03774E-05-1.61520E-04-4.37975E-04-1.27292E-04 2.78806E+07-1.69445E-02
 -1      1973 4.03774E-05-1.61520E-04-4.37975E-04-1.27292E-04 2.78806E+07-1.69445E-02
 -1      1974 1.08921E-03 2.46731E-04-1.47277E-03-1.94861E-04 2.85423E+07-1.47491E-02
 -1      1976 1.08921E-03 2.46731E-04-1.47277E-03-1.94861E-04 2.85423E+07-1.47491E-02
 -1      1977 1.52380E-03 2.03414E-04-2.96713E-04-3.20673E-04 2.86853E+07-1.14720E-02
 -1      1979 1.52380E-03 2.03414E-04-2.96713E-04-3.20673E-04 2.86853E+07-1.14720E-02
 -1      1980 1.27421E-03-1.96727E-04 1.77745E-03-3.11338E-04 2.83009E+07-7.66302E-03
 -1      1982 1.27421E-03-1.96727E-04 1.77745E-03-3.11338E-04 2.83009E+07-7.66302E-03
 -1      1983 1.23202E-03 2.61625E-04 3.32545E-03-3.83014E-04 2.71278E+07-4.63740E-03
 -1      1985 1.23202E-03 2.61625E-04 3.32545E-03-3.83014E-04 2.71278E+07-4.63740E-03
 -1      1986 1.18120E-03 2.54115E-04 3.58163E-03-6.07246E-04 2.54954E+07-1.50866E-03
 -1      1988 1.18120E-03 2.54115E-04 3.58163E-03-6.07246E-04 2.54954E+07-1.50866E-03
 -1      1989 7.11541E-04-3.71731E-04 3.30589E-03-2.48979E-04 2.28972E+07 1.61080E-03
 -1      1991 7.11541E-04-3.71731E-04 3.30589E-03-2.48979E-04 2.28972E+07 1.61080E-03
 -1      1992 1.75522E-04-4.22443E-04 3.52772E-03-6.15654E-04 2.00363E+07 3.02857E-03
 -1      1994 1.75522E-04-4.22443E-04 3.52772E-03-6.15654E-04 2.00363E+07 3.02857E-03
 -1      1995 3.03332E-04-1.59306E-04 3.24702E-03-4.61249E-04 1.60851E+07 3.71209E-03
 -1      1997 3.03332E-04-1.59306E-04 3.24702E-03-4.61249E-04 1.60851E+07 3.71209E-03
 -1      1998 1.06200E-03-1.33679E-04 1.60554E-03-4.58168E-04 1.22229E+07 5.12424E-03
 -1      2000 1.06200E-03-1.33679E-04 1.60554E-03-4.58168E-04 1.22229E+07 5.12424E-03
 -1      2001 1.10277E-03-7.47821E-05-5.30488E-05-2.37771E-04 7.14852E+06 7.27172E-03
 -1      2003 1.10277E-03-7.47821E-05-5.30488E-05-2.37771E-04 7.14852E+06 7.27172E-03
 -1      2004 2.01536E-04 1.75075E-04-1.26314E-03-3.70739E-04 2.68591E+06 1.11364E-02
 -1      2006 2.01536E-04 1.75075E-04-1.26314E-03-3.70739E-04 2.68591E+06 1.11364E-02
 -1      2007-5.69692E-04-6.00087E-04-2.86644E-03-1.10690E-04-3.15692E+06 1.42292E-02
 -1      2009-5.69692E-04-6.00087E-04-2.86644E-03-1.10690E-04-3.15692E+06 1.42292E-02
 -1      2010-1.30683E-03-4.55742E-04-2.03427E-03 1.86770E-04-7.67844E+06 1.54848E-02
 -1      2012-1.30683E-03-4.55742E-04-2.03427E-03 1.86770E-04-7.67844E+06 1.54848E-02
 -1      2013-2.46506E-03-5.97204E-05 1.51292E-03-5.15608E-05-1.38116E+07 1.52501E-02
 -1      2015-2.46506E-03-5.97204E-05 1.51292E-03-5.15608E-05-1.38116E+07 1.52501E-02
 -1      2016-2.48366E-03-5.01507E-04 3.61752E-03 1.84527E-04-1.77078E+07 1.12430E-02
 -1      2018-2.48366E-03-5.01507E-04 3.61752E-03 1.84527E-04-1.77078E+07 1.12430E-02
 -1      2019-9.22068E-04-8.89302E-04 4.27813E-03 1.47119E-04-2.33937E+07 6.28953E-03
 -1      2021-9.22068E-04-8.89302E-04 4.27813E-03 1.47119E-04-2.33937E+07 6.28953E-03
 -1      2022 1.78238E-04 4.79091E-04 6.19909E-03 2.43234E-04-2.56557E+07 4.41757E-03
 -1      2024 1.78238E-04 4.79091E-04 6.19909E-03 2.43234E-04-2.56557E+07 4.41757E-03
 -1      2025-2.61331E-05 8.25887E-04 7.83874E-03 3.11608E-04-2.92116E+07 3.16920E-03
 -1      2027-2.61331E-05 8.25887E-04 7.83874E-03 3.11608E-04-2.92116E+07 3.16920E-03
 -1      2028-3.58541E-04 1.06230E-03 7.58945E-03 3.13291E-04-2.73698E+07 6.29257E-04
 -1      2030-3.58541E-04 1.06230E-03 7.58945E-03 3.13291E-04-2.73698E+07 6.29257E-04
 -1      2031-1.26034E-04 1.56312E-03 5.26883E-03-8.82801E-06-2.26915E+07-2.32431E-04
 -1      2033-1.26034E-04 1.56312E-03 5.26883E-03-8.82801E-06-2.26915E+07-2.32431E-04
 -1      2034 1.36920E-02 9.31696E-06 3.34123E-03 1.05127E+07-1.12100E+07-2.53582E-02
 -1      2036 1.36920E-02 9.31696E-06 3.34123E-03 1.05127E+07-1.12100E+07-2.53582E-02
 -1      2037 1.05750E-02 1.39828E-04 8.36449E-04 2.01841E+05-1.35685E+07-2.65003E-02
 -1      2039 1.05750E-02 1.39828E-04 8.36449E-04 2.01841E+05-1.35685E+07-2.65003E-02
 -1      2040 6.92104E-03 2.34424E-04-9.53439E-04 6.48108E+06-1.01235E+07-2.57794E-02
 -1      2042 6.92104E-03 2.34424E-04-9.53439E-04 6.48108E+06-1.01235E+07-2.57794E-02
 -1      2043 3.09304E-03 1.61170E-04-2.44321E-03 2.33459E+06-5.84368E+06-2.45794E-02
 -1      2045 3.09304E-03 1.61170E-04-2.44321E-03 2.33459E+06-5.84368E+06-2.45794E-02
 -1      2046-2.55692E-04 2.54391E-04-3.68347E-03 5.24298E+06-1.10373E+06-2.31356E-02
 -1      2048-2.55692E-04 2.54391E-04-3.68347E-03 5.24298E+06-1.10373E+06-2.31356E-02
 -1      2049-3.38567E-03-5.24829E-05-3.73356E-03 2.68823E+06 3.78134E+06-2.08833E-02
 -1      2051-3.38567E-03-5.24829E-05-3.73356E-03 2.68823E+06 3.78134E+06-2.08833E-02
 -1      2052-5.96789E-03-1.69685E-04-2.06272E-03 4.05738E+06 8.02775E+06-1.80162E-02
 -1      2054-5.96789E-03-1.69685E-04-2.06272E-03 4.05738E+06 8.02775E+06-1.80162E-02
 -1      2055-7.88285E-03-1.15076E-04-7.67622E-04 2.20159E+06 1.19850E+07-1.67865E-02
 -1      2057-7.88285E-03-1.15076E-04-7.67622E-04 2.20159E+06 1.19850E+07-1.67865E-02
 -1      2058-9.71917E-03 1.77093E-06-2.02462E-03 2.59245E+06 1.50789E+07-1.59154E-02
 -1      2060-9.71917E-03 1.77093E-06-2.02462E-03 2.59245E+06 1.50789E+07-1.59154E-02
 -1      2061-1.10451E-02 2.02325E-04-3.63074E-03 1.12586E+06 1.76363E+07-1.33431E-02
 -1      2063-1.10451E-02 2.02325E-04-3.63074E-03 1.12586E+06 1.76363E+07-1.33431E-02
 -1      2064-1.16944E-02 2.08950E-04-2.68086E-03 9.25809E+05 1.92762E+07-9.62964E-03
 -1      2066-1.16944E-02 2.08950E-04-2.68086E-03 9.25809E+05 1.92762E+07-9.62964E-03
 -1      2067-1.27770E-02-1.81490E-05 1.81333E-04-3.07282E+05 2.03111E+07-6.22735E-03
 -1      2069-1.27770E-02-1.81490E-05 1.81333E-04-3.07282E+05 2.03111E+07-6.22735E-03
 -1      2070-1.41114E-02-7.71765E-05 2.42382E-03-7.93584E+05 2.04080E+07-4.24163E-03
 -1      2072-1.41114E-02-7.71765E-05 2.42382E-03-7.93584E+05 2.04080E+07-4.24163E-03
 -1      2073-1.48490E-02 1.01994E-04 2.70681E-03-1.85570E+06 1.99841E+07-1.88388E-03
 -1      2075-1.48490E-02 1.01994E-04 2.70681E-03-1.85570E+06 1.99841E+07-1.88388E-03
 -1      2076-1.50290E-02-1.97131E-04 2.33675E-03-2.39348E+06 1.86153E+07 1.25164E-03
 -1      2078-1.50290E-02-1.97131E-04 2.33675E-03-2.39348E+06 1.86153E+07 1.25164E-03
 -1      2079-1.45303E-02-3.24983E-06 2.80546E-03-3.29874E+06 1.69442E+07 2.84229E-03
 -1      2081-1.45303E-02-3.24983E-06 2.80546E-03-3.29874E+06 1.69442E+07 2.84229E-03
 -1      2082-1.34791E-02 1.20754E-04 2.20615E-03-3.70103E+06 1.43204E+07 3.15364E-03
 -1      2084-1.34791E-02 1.20754E-04 2.20615E-03-3.70103E+06 1.43204E+07 3.15364E-03
 -1      2085-1.16977E-02-1.70929E-04-6.02571E-04-4.46001E+06 1.17443E+07 4.31403E-03
 -1      2087-1.16977E-02-1.70929E-04-6.02571E-04-4.46001E+06 1.17443E+07 4.31403E-03
 -1      2088-1.00860E-02 2.99124E-05-2.66920E-03-4.56264E+06 8.17014E+06 7.13317E-03
 -1      2090-1.00860E-02 2.99124E-05-2.66920E-03-4.56264E+06 8.17014E+06 7.13317E-03
 -1      2091-9.39364E-03-2.86958E-05-3.55647E-03-5.22404E+06 5.13873E+06 1.03771E-02
 -1      2093-9.39364E-03-2.86958E-05-3.55647E-03-5.22404E+06 5.13873E+06 1.03771E-02
 -1      2094-8.22412E-03-3.58417E-04-4.46941E-03-4.85634E+06 9.51624E+05 1.26988E-02
 -1      2096-8.22412E-03-3.58417E-04-4.46941E-03-4.85634E+06 9.51624E+05 1.26988E-02
 -1      2097-6.67779E-03-5.46441E-04-1.26915E-03-5.54676E+06-2.01435E+06 1.55494E-02
 -1      2099-6.67779E-03-5.46441E-04-1.26915E-03-5.54676E+06-2.01435E+06 1.55494E-02
 -1      2100-5.36548E-03-3.25686E-04 5.41139E-03-4.50053E+06-6.55846E+06 1.52476E-02
 -1      2102-5.36548E-03-3.25686E-04 5.41139E-03-4.50053E+06-6.55846E+06 1.52476E-02
 -1      2103-3.75766E-03-1.90293E-04 7.67750E-03-5.43113E+06-8.91454E+06 9.64217E-03
 -1      2105-3.75766E-03-1.90293E-04 7.67750E-03-5.43113E+06-8.91454E+06 9.64217E-03
 -1      2106-1.80123E-03-3.33390E-04 5.37831E-03-3.51610E+06-1.39274E+07 5.11355E-03
 -1      2108-1.80123E-03-3.33390E-04 5.37831E-03-3.51610E+06-1.39274E+07 5.11355E-03
 -1      2109-1.03926E-04 2.88088E-04 5.14514E-03-4.71560E+06-1.51862E+07 4.61012E-03
 -1      2111-1.03926E-04 2.88088E-04 5.14514E-03-4.71560E+06-1.51862E+07 4.61012E-03
 -1      2112 9.30360E-04 2.12803E-04 7.40325E-03-2.40671E+06-2.21333E+07 3.52882E-03
 -1      2114 9.30360E-04 2.12803E-04 7.40325E-03-2.40671E+06-2.21333E+07 3.52882E-03
 -1      2115 7.20626E-04 3.40761E-04 7.44693E-03-2.17264E+06-2.24209E+07 1.03044E-04
 -1      2117 7.20626E-04 3.40761E-04 7.44693E-03-2.17264E+06-2.24209E+07 1.03044E-04
 -1      2118-2.61008E-05 5.46806E-04 3.87950E-03-3.33664E+06-3.81288E+07-8.84859E-04
 -1      2120-2.61008E-05 5.46806E-04 3.87950E-03-3.33664E+06-3.81288E+07-8.84859E-04
 -1      2121 4.93206E+09 2.49439E+08 8.50506E+05 1.11873E+09-7.03609E+05 9.41252E+06
 -1      2123 4.93206E+09 2.49439E+08 8.50506E+05 1.11873E+09-7.03609E+05 9.41252E+06
 -1      2124 3.24985E+09-1.34349E+07-1.38661E+05 8.85719E+08-8.35378E+06-4.40684E+06
 -1      2126 3.24985E+09-1.34349E+07-1.38661E+05 8.85719E+08-8.35378E+06-4.40684E+06
 -1      2127 1.85373E+09 6.11199E+07 9.57491E+04 7.17029E+08-5.32030E+06 3.15097E+06
 -1      2129 1.85373E+09 6.11199E+07 9.57491E+04 7.17029E+08-5.32030E+06 3.15097E+06
 -1      2130 7.48761E+08 1.46073E+06 2.05964E+05 5.87981E+08-4.07550E+06 1.95143E+05
 -1      2132 7.48761E+08 1.46073E+06 2.05964E+05 5.87981E+08-4.07550E+06 1.95143E+05
 -1      2133-1.80010E+08-4.11803E+06-2.89910E+05 4.83467E+08-1.74475E+06 1.87075E+06
 -1      2135-1.80010E+08-4.11803E+06-2.89910E+05 4.83467E+08-1.74475E+06 1.87075E+06
 -1      2136-9.36164E+08-2.24875E+07 1.40860E+05 3.98739E+08 8.92048E+05 1.21673E+06
 -1      2138-9.36164E+08-2.24875E+07 1.40860E+05 3.98739E+08 8.92048E+05 1.21673E+06
 -1      2139-1.56032E+09-3.45080E+07-3.25554E+05 3.22818E+08 2.87401E+06 1.40606E+06
 -1      2141-1.56032E+09-3.45080E+07-3.25554E+05 3.22818E+08 2.87401E+06 1.40606E+06
 -1      2142-2.05883E+09-4.46941E+07-4.46866E+04 2.55357E+08 5.16663E+06 1.14207E+06
 -1      2144-2.05883E+09-4.46941E+07-4.46866E+04 2.55357E+08 5.16663E+06 1.14207E+06
 -1      2145-2.44490E+09-5.25519E+07-2.79771E+05 1.90862E+08 6.64966E+06 9.47268E+05
 -1      2147-2.44490E+09-5.25519E+07-2.79771E+05 1.90862E+08 6.64966E+06 9.47268E+05
 -1      2148-2.72202E+09-5.84139E+07-1.90848E+05 1.30033E+08 8.17353E+06 6.98669E+05
 -1      2150-2.72202E+09-5.84139E+07-1.90848E+05 1.30033E+08 8.17353E+06 6.98669E+05
 -1      2151-2.89555E+09-6.17932E+07-2.33397E+05 7.07817E+07 8.99939E+06 4.06510E+05
 -1      2153-2.89555E+09-6.17932E+07-2.33397E+05 7.07817E+07 8.99939E+06 4.06510E+05
 -1      2154-2.96838E+09-6.34527E+07-2.70300E+05 1.42398E+07 9.66945E+06 1.36177E+05
 -1      2156-2.96838E+09-6.34527E+07-2.70300E+05 1.42398E+07 9.66945E+06 1.36177E+05
 -1      2157-2.94522E+09-6.27465E+07-1.88050E+05-3.99220E+07 9.77514E+06-1.65029E+05
 -1      2159-2.94522E+09-6.27465E+07-1.88050E+05-3.99220E+07 9.77514E+06-1.65029E+05
 -1      2160-2.83102E+09-6.04009E+07-2.95718E+05-9.03576E+07 9.62802E+06-4.29880E+05
 -1      2162-2.83102E+09-6.04009E+07-2.95718E+05-9.03576E+07 9.62802E+06-4.29880E+05
 -1      2163-2.63275E+09-5.60511E+07-1.30096E+05-1.36604E+08 9.04756E+06-6.99834E+05
 -1      2165-2.63275E+09-5.60511E+07-1.30096E+05-1.36604E+08 9.04756E+06-6.99834E+05
 -1      2166-2.35881E+09-5.02363E+07-2.86900E+05-1.77242E+08 8.19177E+06-9.27056E+05
 -1      2168-2.35881E+09-5.02363E+07-2.86900E+05-1.77242E+08 8.19177E+06-9.27056E+05
 -1      2169-2.01951E+09-4.29424E+07-4.77240E+04-2.11571E+08 7.03917E+06-1.13929E+06
 -1      2171-2.01951E+09-4.29424E+07-4.77240E+04-2.11571E+08 7.03917E+06-1.13929E+06
 -1      2172-1.62713E+09-3.44924E+07-2.65091E+05-2.38147E+08 5.63817E+06-1.30560E+06
 -1      2174-1.62713E+09-3.44924E+07-2.65091E+05-2.38147E+08 5.63817E+06-1.30560E+06
 -1      2175-1.19547E+09-2.53096E+07 6.78694E+04-2.56361E+08 4.08482E+06-1.44142E+06
 -1      2177-1.19547E+09-2.53096E+07 6.78694E+04-2.56361E+08 4.08482E+06-1.44142E+06
 -1      2178-7.40669E+08-1.53041E+07-2.54358E+05-2.64634E+08 2.34026E+06-1.54016E+06
 -1      2180-7.40669E+08-1.53041E+07-2.54358E+05-2.64634E+08 2.34026E+06-1.54016E+06
 -1      2181-2.79857E+08-5.62257E+06 2.25072E+05-2.62634E+08 5.80615E+05-1.58728E+06
 -1      2183-2.79857E+08-5.62257E+06 2.25072E+05-2.62634E+08 5.80615E+05-1.58728E+06
 -1      2184 1.67026E+08 4.47479E+06-2.83621E+05-2.48253E+08-1.29233E+06-1.64254E+06
 -1      2186 1.67026E+08 4.47479E+06-2.83621E+05-2.48253E+08-1.29233E+06-1.64254E+06
 -1      2187 5.78750E+08 1.36033E+07 4.32704E+05-2.21579E+08-3.10664E+06-1.58818E+06
 -1      2189 5.78750E+08 1.36033E+07 4.32704E+05-2.21579E+08-3.10664E+06-1.58818E+06
 -1      2190 9.31781E+08 2.00801E+07-3.80090E+05-1.78907E+08-4.91755E+06-1.68656E+06
 -1      2192 9.31781E+08 2.00801E+07-3.80090E+05-1.78907E+08-4.91755E+06-1.68656E+06
 -1      2193 1.19686E+09 3.24270E+07 6.72538E+05-1.21306E+08-6.84576E+06-1.49113E+06
 -1      2195 1.19686E+09 3.24270E+07 6.72538E+05-1.21306E+08-6.84576E+06-1.49113E+06
 -1      2196 1.34688E+09 1.98713E+07-4.82456E+05-4.04372E+07-8.51966E+06-1.84284E+06
 -1      2198 1.34688E+09 1.98713E+07-4.82456E+05-4.04372E+07-8.51966E+06-1.84284E+06
 -1      2199 1.33882E+09 6.01516E+07 6.62463E+05 5.89946E+07-1.14069E+07-1.36405E+06
 -1      2201 1.33882E+09 6.01516E+07 6.62463E+05 5.89946E+07-1.14069E+07-1.36405E+06
 -1      2202 1.12200E+09-1.87878E+07 1.35570E+05 1.97722E+08-1.34833E+07-2.34083E+06
 -1      2204 1.12200E+09-1.87878E+07 1.35570E+05 1.97722E+08-1.34833E+07-2.34083E+06
 -1      2205 6.91009E+08 9.53589E+07-1.41955E+06 3.61555E+08-2.14186E+07-1.11681E+06
 -1      2207 6.91009E+08 9.53589E+07-1.41955E+06 3.61555E+08-2.14186E+07-1.11681E+06
 -1      2208-4.93206E+09-2.49439E+08-8.50506E+05 1.11873E+09-7.03609E+05-9.41252E+06
 -1      2210-4.93206E+09-2.49439E+08-8.50506E+05 1.11873E+09-7.03609E+05-9.41252E+06
 -1      2211-3.24985E+09 1.34349E+07 1.38661E+05 8.85719E+08-8.35378E+06 4.40684E+06
 -1      2213-3.24985E+09 1.34349E+07 1.38661E+05 8.85719E+08-8.35378E+06 4.40684E+06
 -1      2214-1.85373E+09-6.11199E+07-9.57491E+04 7.17029E+08-5.32030E+06-3.15097E+06
 -1      2216-1.85373E+09-6.11199E+07-9.57491E+04 7.17029E+08-5.32030E+06-3.15097E+06
 -1      2217-7.48761E+08-1.46073E+06-2.05964E+05 5.87981E+08-4.07550E+06-1.95143E+05
 -1      2219-7.48761E+08-1.46073E+06-2.05964E+05 5.87981E+08-4.07550E+06-1.95143E+05
 -1      2220 1.80010E+08 4.11803E+06 2.89910E+05 4.83467E+08-1.74475E+06-1.87075E+06
 -1      2222 1.80010E+08 4.11803E+06 2.89910E+05 4.83467E+08-1.74475E+06-1.87075E+06
 -1      2223 9.36164E+08 2.24875E+07-1.40860E+05 3.98739E+08 8.92048E+05-1.21673E+06
 -1      2225 9.36164E+08 2.24875E+07-1.40860E+05 3.98739E+08 8.92048E+05-1.21673E+06
 -1      2226 1.56032E+09 3.45080E+07 3.25554E+05 3.22818E+08 2.87401E+06-1.40606E+06
 -1      2228 1.56032E+09 3.45080E+07 3.25554E+05 3.22818E+08 2.87401E+06-1.40606E+06
 -1      2229 2.05883E+09 4.46941E+07 4.46866E+04 2.55357E+08 5.16663E+06-1.14207E+06
 -1      2231 2.05883E+09 4.46941E+07 4.46866E+04 2.55357E+08 5.16663E+06-1.14207E+06
 -1      2232 2.44490E+09 5.25519E+07 2.79771E+05 1.90862E+08 6.64966E+06-9.47268E+05
 -1      2234 2.44490E+09 5.25519E+07 2.79771E+05 1.90862E+08 6.64966E+06-9.47268E+05
 -1      2235 2.72202E+09 5.84139E+07 1.90848E+05 1.30033E+08 8.17353E+06-6.98669E+05
 -1      2237 2.72202E+09 5.84139E+07 1.90848E+05 1.30033E+08 8.17353E+06-6.98669E+05
 -1      2238 2.89555E+09 6.17932E+07 2.33397E+05 7.07817E+07 8.99939E+06-4.06510E+05
 -1      2240 2.89555E+09 6.17932E+07 2.33397E+05 7.07817E+07 8.99939E+06-4.06510E+05
 -1      2241 2.96838E+09 6.34527E+07 2.70300E+05 1.42398E+07 9.66945E+06-1.36177E+05
 -1      2243 2.96838E+09 6.34527E+07 2.70300E+05 1.42398E+07 9.66945E+06-1.36177E+05
 -1      2244 2.94522E+09 6.27465E+07 1.88050E+05-3.99220E+07 9.77514E+06 1.65029E+05
 -1      2246 2.94522E+09 6.27465E+07 1.88050E+05-3.99220E+07 9.77514E+06 1.65029E+05
 -1      2247 2.83102E+09 6.04009E+07 2.95718E+05-9.03576E+07 9.62802E+06 4.29880E+05
 -1      2249 2.83102E+09 6.04009E+07 2.95718E+05-9.03576E+07 9.62802E+06 4.29880E+05
 -1      2250 2.63275E+09 5.60511E+07 1.30096E+05-1.36604E+08 9.04756E+06 6.99834E+05
 -1      2252 2.63275E+09 5.60511E+07 1.30096E+05-1.36604E+08 9.04756E+06 6.99834E+05
 -1      2253 2.35881E+09 5.02363E+07 2.86900E+05-1.77242E+08 8.19177E+06 9.27056E+05
 -1      2255 2.35881E+09 5.02363E+07 2.86900E+05-1.77242E+08 8.19177E+06 9.27056E+05
 -1      2256 2.01951E+09 4.29424E+07 4.77240E+04-2.11571E+08 7.03917E+06 1.13929E+06
 -1      2258 2.01951E+09 4.29424E+07 4.77240E+04-2.11571E+08 7.03917E+06 1.13929E+06
 -1      2259 1.62713E+09 3.44924E+07 2.65091E+05-2.38147E+08 5.63817E+06 1.30560E+06
 -1      2261 1.62713E+09 3.44924E+07 2.65091E+05-2.38147E+08 5.63817E+06 1.30560E+06
 -1      2262 1.19547E+09 2.53096E+07-6.78694E+04-2.56361E+08 4.08482E+06 1.44142E+06
 -1      2264 1.19547E+09 2.53096E+07-6.78694E+04-2.56361E+08 4.08482E+06 1.44142E+06
 -1      2265 7.40669E+08 1.53041E+07 2.54358E+05-2.64634E+08 2.34026E+06 1.54016E+06
 -1      2267 7.40669E+08 1.53041E+07 2.54358E+05-2.64634E+08 2.34026E+06 1.54016E+06
 -1      2268 2.79857E+08 5.62257E+06-2.25072E+05-2.62634E+08 5.80615E+05 1.58728E+06
 -1      2270 2.79857E+08 5.62257E+06-2.25072E+05-2.62634E+08 5.80615E+05 1.58728E+06
 -1      2271-1.67026E+08-4.47479E+06 2.83621E+05-2.48253E+08-1.29233E+06 1.64254E+06
 -1      2273-1.67026E+08-4.47479E+06 2.83621E+05-2.48253E+08-1.29233E+06 1.64254E+06
 -1      2274-5.78750E+08-1.36033E+07-4.32704E+05-2.21579E+08-3.10664E+06 1.58818E+06
 -1      2276-5.78750E+08-1.36033E+07-4.32704E+05-2.21579E+08-3.10664E+06 1.58818E+06
 -1      2277-9.31781E+08-2.00801E+07 3.80090E+05-1.78907E+08-4.91755E+06 1.68656E+06
 -1      2279-9.31781E+08-2.00801E+07 3.80090E+05-1.78907E+08-4.91755E+06 1.68656E+06
 -1      2280-1.19686E+09-3.24270E+07-6.72538E+05-1.21306E+08-6.84576E+06 1.49113E+06
 -1      2282-1.19686E+09-3.24270E+07-6.72538E+05-1.21306E+08-6.84576E+06 1.49113E+06
 -1      2283-1.34688E+09-1.98713E+07 4.82456E+05-4.04372E+07-8.51966E+06 1.84284E+06
 -1      2285-1.34688E+09-1.98713E+07 4.82456E+05-4.04372E+07-8.51966E+06 1.84284E+06
 -1      2286-1.33882E+09-6.01516E+07-6.62463E+05 5.89946E+07-1.14069E+07 1.36405E+06
 -1      2288-1.33882E+09-6.01516E+07-6.62463E+05 5.89946E+07-1.14069E+07 1.36405E+06
 -1      2289-1.12200E+09 1.87878E+07-1.35570E+05 1.97722E+08-1.34833E+07 2.34083E+06
 -1      2291-1.12200E+09 1.87878E+07-1.35570E+05 1.97722E+08-1.34833E+07 2.34083E+06
 -1      2292-6.91009E+08-9.53589E+07 1.41955E+06 3.61555E+08-2.14186E+07 1.11681E+06
 -1      2294-6.91009E+08-9.53589E+07 1.41955E+06 3.61555E+08-2.14186E+07 1.11681E+06
 -3
    1PSTEP                        27           1           1          
    1PGM                1.000000E+00                                  
    1PGK                2.008104E+06                                  
    1PHID                         -1                                  
    1PSUBC                         0                                  
    1PMODE                         7                                  
  100CL  107 225.5346141         930                     2    7MODAL      1
 -4  FORC        4    1
 -5  F1          1    2    1    0
 -5  F2          1    2    2    0
 -5  F3          1    2    3    0
 -5  ALL         1    2    0    0    1ALL
 -1       404-1.71736E+06 4.95084E+05 8.80970E+04
 -1       406-1.96564E+06 4.57698E+05 8.80970E+04
 -1       407-9.73065E+02 1.65091E+04 3.19304E+03
 -1       409-9.73065E+02 1.65091E+04 3.19304E+03
 -1       410-4.71364E-07-3.27581E+05 1.70070E-06
 -1       412-6.71376E-07-9.28989E+05-3.15617E-07
 -1       413-3.85089E-07 6.79346E+05 4.72035E+05
 -1       415 9.27421E-08 6.79346E+05-4.72035E+05
 -1       424 1.12077E-05 9.43257E+04-3.36679E-07
 -1       426 3.77824E-06 8.50389E+04-1.22187E-07
 -1       427 2.47412E+05 2.52107E+05 3.91378E+03
 -1       429-2.47412E+05 2.52107E+05-3.91378E+03
 -1       438 9.73065E+02 1.65091E+04-3.19304E+03
 -1       440 9.73065E+02 1.65091E+04-3.19304E+03
 -1       441 1.71736E+06 4.95084E+05-8.80970E+04
 -1       443 1.96564E+06 4.57698E+05-8.80970E+04
 -1       444-2.47412E+05-2.52107E+05 3.91378E+03
 -1       446 2.47412E+05-2.52107E+05-3.91378E+03
 -1       447-1.06526E-05-9.43257E+04-2.17917E-07
 -1       449-4.59404E-06-8.50389E+04-6.18437E-08
 -1       458-2.29678E-07-6.79346E+05 4.72035E+05
 -1       460-2.08969E-07-6.79346E+05-4.72035E+05
 -1       461 6.28480E-07 3.27581E+05 2.98982E-07
 -1       463 4.47686E-07 9.28989E+05 2.30164E-06
 -1       472-1.71736E+06-4.95084E+05-8.80970E+04
 -1       474-1.96564E+06-4.57698E+05-8.80970E+04
 -1       475-9.73065E+02-1.65091E+04-3.19304E+03
 -1       477-9.73065E+02-1.65091E+04-3.19304E+03
 -1       478 9.73065E+02-1.65091E+04 3.19304E+03
 -1       480 9.73065E+02-1.65091E+04 3.19304E+03
 -1       481 1.71736E+06-4.95084E+05 8.80970E+04
 -1       483 1.96564E+06-4.57698E+05 8.80970E+04
 -1       484 9.07217E+02-1.45348E+03-6.34214E+02
 -1       486 9.07217E+02-1.45348E+03-6.34214E+02
 -1       487 1.59880E+03-3.63503E+03-1.38024E+03
 -1       489 1.59880E+03-3.63503E+03-1.38024E+03
 -1       490 2.03109E+03-6.57601E+03-2.16864E+03
 -1       492 2.03109E+03-6.57601E+03-2.16864E+03
 -1       493 2.25113E+03-9.95622E+03-2.96125E+03
 -1       495 2.25113E+03-9.95622E+03-2.96125E+03
 -1       496 2.29833E+03-1.34962E+04-3.74319E+03
 -1       498 2.29833E+03-1.34962E+04-3.74319E+03
 -1       499 2.20274E+03-1.69705E+04-4.47989E+03
 -1       501 2.20274E+03-1.69705E+04-4.47989E+03
 -1       502 1.98984E+03-2.01908E+04-5.14568E+03
 -1       504 1.98984E+03-2.01908E+04-5.14568E+03
 -1       505 1.68167E+03-2.30022E+04-5.71327E+03
 -1       507 1.68167E+03-2.30022E+04-5.71327E+03
 -1       508 1.29836E+03-2.52806E+04-6.16089E+03
 -1       510 1.29836E+03-2.52806E+04-6.16089E+03
 -1       511 8.58732E+02-2.69294E+04-6.46998E+03
 -1       513 8.58732E+02-2.69294E+04-6.46998E+03
 -1       514 3.80838E+02-2.78795E+04-6.62711E+03
 -1       516 3.80838E+02-2.78795E+04-6.62711E+03
 -1       517-1.17968E+02-2.80877E+04-6.62359E+03
 -1       519-1.17968E+02-2.80877E+04-6.62359E+03
 -1       520-6.20964E+02-2.75363E+04-6.45586E+03
 -1       522-6.20964E+02-2.75363E+04-6.45586E+03
 -1       523-1.11226E+03-2.62318E+04-6.12542E+03
 -1       525-1.11226E+03-2.62318E+04-6.12542E+03
 -1       526-1.57695E+03-2.42037E+04-5.63869E+03
 -1       528-1.57695E+03-2.42037E+04-5.63869E+03
 -1       529-2.00147E+03-2.15032E+04-5.00675E+03
 -1       531-2.00147E+03-2.15032E+04-5.00675E+03
 -1       532-2.37382E+03-1.82006E+04-4.24496E+03
 -1       534-2.37382E+03-1.82006E+04-4.24496E+03
 -1       535-2.68393E+03-1.43827E+04-3.37246E+03
 -1       537-2.68393E+03-1.43827E+04-3.37246E+03
 -1       538-2.92394E+03-1.01502E+04-2.41156E+03
 -1       540-2.92394E+03-1.01502E+04-2.41156E+03
 -1       541-3.08853E+03-5.61386E+03-1.38709E+03
 -1       543-3.08853E+03-5.61386E+03-1.38709E+03
 -1       544-3.17522E+03-8.90374E+02-3.25610E+02
 -1       546-3.17522E+03-8.90374E+02-3.25610E+02
 -1       547-3.18469E+03 3.90177E+03 7.45267E+02
 -1       549-3.18469E+03 3.90177E+03 7.45267E+02
 -1       550-3.12105E+03 8.64722E+03 1.79777E+03
 -1       552-3.12105E+03 8.64722E+03 1.79777E+03
 -1       553-2.99235E+03 1.32392E+04 2.80450E+03
 -1       555-2.99235E+03 1.32392E+04 2.80450E+03
 -1       556-2.81091E+03 1.75856E+04 3.73925E+03
 -1       558-2.81091E+03 1.75856E+04 3.73925E+03
 -1       559-2.59402E+03 2.16145E+04 4.57677E+03
 -1       561-2.59402E+03 2.16145E+04 4.57677E+03
 -1       562-2.36519E+03 2.52860E+04 5.29280E+03
 -1       564-2.36519E+03 2.52860E+04 5.29280E+03
 -1       565-2.15384E+03 2.85899E+04 5.86054E+03
 -1       567-2.15384E+03 2.85899E+04 5.86054E+03
 -1       568-2.00133E+03 3.15840E+04 6.24480E+03
 -1       570-2.00133E+03 3.15840E+04 6.24480E+03
 -1       571-1.29788E+03 3.30125E+04 4.34963E+03
 -1       573-1.29788E+03 3.30125E+04 4.34963E+03
 -1       574-9.10769E-06-2.37984E+05-1.25225E-06
 -1       576-9.11865E-06-3.79404E+05-1.42942E-06
 -1       577 8.78467E-06 3.04390E+05 1.10998E+05
 -1       579 8.78104E-06 3.04390E+05-1.10998E+05
 -1       588-8.87326E-06-9.41096E+04 2.44540E-06
 -1       590-8.92678E-06-3.60318E+05 1.93838E-06
 -1       591 9.32635E-06 2.16120E+05 2.08943E+05
 -1       593 9.33832E-06 2.16120E+05-2.08943E+05
 -1       602-8.18750E-06-1.66320E+04 6.04867E-07
 -1       604-8.25679E-06-2.26546E+05 1.46725E-07
 -1       605 8.94468E-06 1.01324E+05 1.64758E+05
 -1       607 8.92717E-06 1.01324E+05-1.64758E+05
 -1       616-8.74590E-06-2.68267E+04 1.07530E-07
 -1       618-8.74974E-06-1.58932E+05-1.44317E-07
 -1       619 8.48946E-06 6.21279E+04 1.03687E+05
 -1       621 8.55413E-06 6.21279E+04-1.03687E+05
 -1       630-8.73918E-06-1.65848E+03-1.12947E-06
 -1       632-8.72542E-06-3.91249E+04-6.29946E-07
 -1       633 7.96598E-06-2.13401E+04 2.94068E+04
 -1       635 7.99681E-06-2.13401E+04-2.94068E+04
 -1       644-8.10374E-06-3.60426E+04 2.59659E-07
 -1       646-8.05018E-06 3.07091E+04-3.55294E-07
 -1       647 8.03828E-06-4.98337E+04-5.23923E+04
 -1       649 7.94870E-06-4.98337E+04 5.23923E+04
 -1       658-6.62379E-06-3.72383E+04 1.16754E-06
 -1       660-6.59401E-06 1.19675E+05 9.47463E-07
 -1       661 7.48895E-06-1.03699E+05-1.23159E+05
 -1       663 7.46041E-06-1.03699E+05 1.23159E+05
 -1       672-5.17560E-06-6.79078E+04 1.07795E-06
 -1       674-5.27374E-06 1.76132E+05 2.22444E-06
 -1       675 6.71316E-06-1.25304E+05-1.91543E+05
 -1       677 6.78818E-06-1.25304E+05 1.91543E+05
 -1       686-4.75691E-06-7.70045E+04-3.21888E-07
 -1       688-4.88827E-06 2.34986E+05 2.00496E-06
 -1       689 5.67345E-06-1.57243E+05-2.44876E+05
 -1       691 5.79719E-06-1.57243E+05 2.44876E+05
 -1       700-4.72052E-06-9.79029E+04 1.87607E-07
 -1       702-4.75311E-06 2.71107E+05 8.71648E-07
 -1       703 4.84029E-06-1.69965E+05-2.89630E+05
 -1       705 4.83956E-06-1.69965E+05 2.89630E+05
 -1       714-3.95275E-06-1.04891E+05 2.04088E-07
 -1       716-4.04162E-06 3.01753E+05 1.60132E-06
 -1       717 4.02341E-06-1.84739E+05-3.19168E+05
 -1       719 3.95202E-06-1.84739E+05 3.19168E+05
 -1       728-2.65115E-06-1.14791E+05 5.61199E-07
 -1       730-2.71269E-06 3.15078E+05 2.23023E-06
 -1       731 2.56829E-06-1.87099E+05-3.37397E+05
 -1       733 2.59621E-06-1.87099E+05 3.37397E+05
 -1       742-1.79229E-06-1.15256E+05 9.52286E-07
 -1       744-1.90072E-06 3.19569E+05 1.56151E-06
 -1       745 1.34008E-06-1.87406E+05-3.41287E+05
 -1       747 1.21296E-06-1.87406E+05 3.41287E+05
 -1       756-3.92983E-07-1.14491E+05 2.58625E-06
 -1       758-4.02774E-07 3.10607E+05 1.27101E-06
 -1       759 1.67247E-08-1.79268E+05-3.33653E+05
 -1       761-1.14508E-07-1.79268E+05 3.33653E+05
 -1       770 8.44561E-07-1.07264E+05 3.42056E-06
 -1       772 6.40943E-07 2.91927E+05 4.39145E-07
 -1       773-5.12416E-07-1.67260E+05-3.13319E+05
 -1       775-9.08068E-07-1.67260E+05 3.13319E+05
 -1       784 1.37917E-06-9.70095E+04-3.14595E-07
 -1       786 1.40619E-06 2.63618E+05 1.47489E-06
 -1       787-1.78431E-06-1.49866E+05-2.83050E+05
 -1       789-1.96376E-06-1.49866E+05 2.83050E+05
 -1       798 1.60269E-06-8.28282E+04 1.64350E-06
 -1       800 1.84435E-06 2.26075E+05-4.33155E-07
 -1       801-2.20283E-06-1.27954E+05-2.42453E+05
 -1       803-2.30439E-06-1.27954E+05 2.42453E+05
 -1       812 3.03964E-06-6.47280E+04 2.17952E-06
 -1       814 3.00926E-06 1.83531E+05 2.99855E-07
 -1       815-2.15197E-06-1.03903E+05-1.94854E+05
 -1       817-1.78333E-06-1.03903E+05 1.94854E+05
 -1       826 3.81046E-06-4.54204E+04 3.07856E-06
 -1       828 3.71498E-06 1.32655E+05 2.06829E-06
 -1       829-1.76785E-06-7.50042E+04-1.39768E+05
 -1       831-2.36747E-06-7.50042E+04 1.39768E+05
 -1       840 4.97451E-06-2.10699E+04 3.95856E-06
 -1       842 4.97117E-06 8.29084E+04 1.59758E-06
 -1       843-3.40173E-06-4.82500E+04-8.16109E+04
 -1       845-3.41347E-06-4.82500E+04 8.16109E+04
 -1       854 5.27911E-06 1.16102E+03 2.95693E-06
 -1       856 5.41861E-06 2.48304E+04-2.55796E-06
 -1       857-4.59882E-06-1.56899E+04-1.85777E+04
 -1       859-4.26878E-06-1.56899E+04 1.85777E+04
 -1       868 5.05797E-06 3.11687E+04-3.49502E-07
 -1       870 4.87218E-06-2.33985E+04-2.59336E-07
 -1       871-4.42263E-06 8.26975E+03 4.28289E+04
 -1       873-4.51660E-06 8.26975E+03-4.28289E+04
 -1       882 4.84340E-06 5.46873E+04 1.52171E-07
 -1       884 4.92629E-06-8.34566E+04 2.79977E-07
 -1       885-4.45555E-06 4.12433E+04 1.08427E+05
 -1       887-4.45622E-06 4.12433E+04-1.08427E+05
 -1       896 3.49604E-06 9.29652E+04 6.02171E-07
 -1       898 3.50280E-06-1.19533E+05-3.54479E-06
 -1       899-3.93321E-06 5.43696E+04 1.66786E+05
 -1       901-3.81911E-06 5.43696E+04-1.66786E+05
 -1       910 1.83301E-06 1.18228E+05 1.66214E-06
 -1       912 1.70803E-06-1.81736E+05-4.49578E-06
 -1       913-2.36237E-06 8.63009E+04 2.35437E+05
 -1       915-2.42327E-06 8.63009E+04-2.35437E+05
 -1       924 9.35937E-07 1.77269E+05 2.88172E-06
 -1       926 9.44898E-07-1.91284E+05-7.64125E-07
 -1       927-1.09253E-06 7.40299E+04 2.89272E+05
 -1       929-1.14949E-06 7.40299E+04-2.89272E+05
 -1       938 6.37260E-07 2.11400E+05 2.26819E-06
 -1       940 1.13192E-06-2.77102E+05 3.12168E-06
 -1       941-7.99045E-07 1.11220E+05 3.83417E+05
 -1       943-9.94678E-07 1.11220E+05-3.83417E+05
 -1       952 3.29736E-07 3.36011E+05 2.14284E-06
 -1       954 3.38873E-07-2.42748E+05 2.67960E-06
 -1       955-3.97740E-08 4.19514E+04 4.54258E+05
 -1       957-1.44934E-07 4.19514E+04-4.54258E+05
 -1       966-2.70202E-07 4.29364E+05 3.43391E-06
 -1       968-4.25807E-07-4.48583E+05-2.51651E-06
 -1       969-2.82908E-07 1.07379E+05 6.89086E+05
 -1       971 1.04233E-07 1.07379E+05-6.89086E+05
 -1       980-1.72302E+06 2.58732E+05-3.91451E+03
 -1       982-1.94941E+06 2.16702E+05-3.91451E+03
 -1       983 1.29788E+03 3.30125E+04-4.34963E+03
 -1       985 1.29788E+03 3.30125E+04-4.34963E+03
 -1       986-9.07217E+02-1.45348E+03 6.34214E+02
 -1       988-9.07217E+02-1.45348E+03 6.34214E+02
 -1       989-1.59880E+03-3.63503E+03 1.38024E+03
 -1       991-1.59880E+03-3.63503E+03 1.38024E+03
 -1       992-2.03109E+03-6.57601E+03 2.16864E+03
 -1       994-2.03109E+03-6.57601E+03 2.16864E+03
 -1       995-2.25113E+03-9.95622E+03 2.96125E+03
 -1       997-2.25113E+03-9.95622E+03 2.96125E+03
 -1       998-2.29833E+03-1.34962E+04 3.74319E+03
 -1      1000-2.29833E+03-1.34962E+04 3.74319E+03
 -1      1001-2.20274E+03-1.69705E+04 4.47989E+03
 -1      1003-2.20274E+03-1.69705E+04 4.47989E+03
 -1      1004-1.98984E+03-2.01908E+04 5.14568E+03
 -1      1006-1.98984E+03-2.01908E+04 5.14568E+03
 -1      1007-1.68167E+03-2.30022E+04 5.71327E+03
 -1      1009-1.68167E+03-2.30022E+04 5.71327E+03
 -1      1010-1.29836E+03-2.52806E+04 6.16089E+03
 -1      1012-1.29836E+03-2.52806E+04 6.16089E+03
 -1      1013-8.58732E+02-2.69294E+04 6.46998E+03
 -1      1015-8.58732E+02-2.69294E+04 6.46998E+03
 -1      1016-3.80838E+02-2.78795E+04 6.62711E+03
 -1      1018-3.80838E+02-2.78795E+04 6.62711E+03
 -1      1019 1.17968E+02-2.80877E+04 6.62359E+03
 -1      1021 1.17968E+02-2.80877E+04 6.62359E+03
 -1      1022 6.20964E+02-2.75363E+04 6.45586E+03
 -1      1024 6.20964E+02-2.75363E+04 6.45586E+03
 -1      1025 1.11226E+03-2.62318E+04 6.12542E+03
 -1      1027 1.11226E+03-2.62318E+04 6.12542E+03
 -1      1028 1.57695E+03-2.42037E+04 5.63869E+03
 -1      1030 1.57695E+03-2.42037E+04 5.63869E+03
 -1      1031 2.00147E+03-2.15032E+04 5.00675E+03
 -1      1033 2.00147E+03-2.15032E+04 5.00675E+03
 -1      1034 2.37382E+03-1.82006E+04 4.24496E+03
 -1      1036 2.37382E+03-1.82006E+04 4.24496E+03
 -1      1037 2.68393E+03-1.43827E+04 3.37246E+03
 -1      1039 2.68393E+03-1.43827E+04 3.37246E+03
 -1      1040 2.92394E+03-1.01502E+04 2.41156E+03
 -1      1042 2.92394E+03-1.01502E+04 2.41156E+03
 -1      1043 3.08853E+03-5.61386E+03 1.38709E+03
 -1      1045 3.08853E+03-5.61386E+03 1.38709E+03
 -1      1046 3.17522E+03-8.90374E+02 3.25610E+02
 -1      1048 3.17522E+03-8.90374E+02 3.25610E+02
 -1      1049 3.18469E+03 3.90177E+03-7.45267E+02
 -1      1051 3.18469E+03 3.90177E+03-7.45267E+02
 -1      1052 3.12105E+03 8.64722E+03-1.79777E+03
 -1      1054 3.12105E+03 8.64722E+03-1.79777E+03
 -1      1055 2.99235E+03 1.32392E+04-2.80450E+03
 -1      1057 2.99235E+03 1.32392E+04-2.80450E+03
 -1      1058 2.81091E+03 1.75856E+04-3.73925E+03
 -1      1060 2.81091E+03 1.75856E+04-3.73925E+03
 -1      1061 2.59402E+03 2.16145E+04-4.57677E+03
 -1      1063 2.59402E+03 2.16145E+04-4.57677E+03
 -1      1064 2.36519E+03 2.52860E+04-5.29280E+03
 -1      1066 2.36519E+03 2.52860E+04-5.29280E+03
 -1      1067 2.15384E+03 2.85899E+04-5.86054E+03
 -1      1069 2.15384E+03 2.85899E+04-5.86054E+03
 -1      1070 2.00133E+03 3.15840E+04-6.24480E+03
 -1      1072 2.00133E+03 3.15840E+04-6.24480E+03
 -1      1073 1.72302E+06 2.58732E+05 3.91451E+03
 -1      1075 1.94941E+06 2.16702E+05 3.91451E+03
 -1      1076 3.15517E+05 9.52951E+04-9.56502E+03
 -1      1078-3.15517E+05 9.52951E+04 9.56502E+03
 -1      1079-3.25044E-05-1.08778E-05-2.69576E+04
 -1      1081 3.21114E-05-1.12706E-05 2.69576E+04
 -1      1082-3.15517E+05-9.52951E+04-9.56502E+03
 -1      1084 3.15517E+05-9.52951E+04 9.56502E+03
 -1      1085-8.56372E-06-3.04390E+05 1.10998E+05
 -1      1087-8.50021E-06-3.04390E+05-1.10998E+05
 -1      1088 7.48823E-06 2.37984E+05-1.84691E-06
 -1      1090 7.53166E-06 3.79404E+05-1.75446E-06
 -1      1099-9.04307E-06-2.16120E+05 2.08943E+05
 -1      1101-8.94268E-06-2.16120E+05-2.08943E+05
 -1      1102 8.34080E-06 9.41096E+04 1.27977E-06
 -1      1104 8.42381E-06 3.60318E+05 6.63736E-07
 -1      1113-8.73767E-06-1.01324E+05 1.64758E+05
 -1      1115-8.56494E-06-1.01324E+05-1.64758E+05
 -1      1116 8.79076E-06 1.66320E+04 2.83079E-07
 -1      1118 8.88894E-06 2.26546E+05-7.21557E-07
 -1      1127-8.53726E-06-6.21279E+04 1.03687E+05
 -1      1129-8.60602E-06-6.21279E+04-1.03687E+05
 -1      1130 8.66124E-06 2.68267E+04 8.86891E-07
 -1      1132 8.73162E-06 1.58932E+05 1.14455E-07
 -1      1141-7.96662E-06 2.13401E+04 2.94068E+04
 -1      1143-8.14701E-06 2.13401E+04-2.94068E+04
 -1      1144 7.82426E-06 1.65848E+03 1.13095E-06
 -1      1146 7.83498E-06 3.91249E+04 8.47016E-07
 -1      1155-7.40688E-06 4.98337E+04-5.23923E+04
 -1      1157-7.50754E-06 4.98337E+04 5.23923E+04
 -1      1158 6.72793E-06 3.60426E+04 2.31472E-06
 -1      1160 6.74962E-06-3.07091E+04 1.06619E-06
 -1      1169-6.57163E-06 1.03699E+05-1.23159E+05
 -1      1171-6.60361E-06 1.03699E+05 1.23159E+05
 -1      1172 5.78166E-06 3.72383E+04 2.08602E-06
 -1      1174 5.75357E-06-1.19675E+05-9.14777E-08
 -1      1183-5.70302E-06 1.25304E+05-1.91543E+05
 -1      1185-5.57076E-06 1.25304E+05 1.91543E+05
 -1      1186 5.60604E-06 6.79078E+04 1.77215E-06
 -1      1188 5.64764E-06-1.76132E+05 2.09416E-07
 -1      1197-5.29374E-06 1.57243E+05-2.44876E+05
 -1      1199-5.33864E-06 1.57243E+05 2.44876E+05
 -1      1200 5.37242E-06 7.70045E+04 2.75350E-06
 -1      1202 5.33668E-06-2.34986E+05 1.57609E-06
 -1      1211-4.64630E-06 1.69965E+05-2.89630E+05
 -1      1213-4.66215E-06 1.69965E+05 2.89630E+05
 -1      1214 3.76940E-06 9.79029E+04 2.36971E-06
 -1      1216 3.84205E-06-2.71107E+05 2.86501E-06
 -1      1225-3.39566E-06 1.84739E+05-3.19168E+05
 -1      1227-3.50335E-06 1.84739E+05 3.19168E+05
 -1      1228 2.81716E-06 1.04891E+05 1.97130E-06
 -1      1230 2.86147E-06-3.01753E+05 1.88913E-06
 -1      1239-1.75905E-06 1.87099E+05-3.37397E+05
 -1      1241-1.99349E-06 1.87099E+05 3.37397E+05
 -1      1242 2.77828E-06 1.14791E+05-2.98968E-07
 -1      1244 2.76173E-06-3.15078E+05 7.19169E-07
 -1      1253-1.27034E-06 1.87406E+05-3.41287E+05
 -1      1255-1.23449E-06 1.87406E+05 3.41287E+05
 -1      1256 2.28755E-06 1.15256E+05-1.58305E-06
 -1      1258 2.12802E-06-3.19569E+05-5.54625E-07
 -1      1267-6.01810E-07 1.79268E+05-3.33653E+05
 -1      1269-5.95342E-07 1.79268E+05 3.33653E+05
 -1      1270 8.77898E-07 1.14491E+05 1.20708E-06
 -1      1272 1.01854E-06-3.10607E+05-8.38417E-07
 -1      1281 3.75629E-07 1.67260E+05-3.13319E+05
 -1      1283 2.86733E-07 1.67260E+05 3.13319E+05
 -1      1284-7.73681E-07 1.07264E+05 1.01490E-06
 -1      1286-7.54947E-07-2.91927E+05-1.32481E-06
 -1      1295 7.05059E-07 1.49866E+05-2.83050E+05
 -1      1297 9.69180E-07 1.49866E+05 2.83050E+05
 -1      1298-1.91134E-06 9.70095E+04-1.69671E-07
 -1      1300-2.05732E-06-2.63618E+05-1.44887E-06
 -1      1309 1.17581E-06 1.27954E+05-2.42453E+05
 -1      1311 1.00170E-06 1.27954E+05 2.42453E+05
 -1      1312-2.37741E-06 8.28282E+04 2.00364E-06
 -1      1314-2.41927E-06-2.26075E+05-1.83634E-06
 -1      1323 1.30292E-06 1.03903E+05-1.94854E+05
 -1      1325 1.03152E-06 1.03903E+05 1.94854E+05
 -1      1326-2.38639E-06 6.47280E+04 2.49253E-06
 -1      1328-2.19869E-06-1.83531E+05 1.07922E-07
 -1      1337 2.39204E-06 7.50042E+04-1.39768E+05
 -1      1339 2.51246E-06 7.50042E+04 1.39768E+05
 -1      1340-2.37785E-06 4.54204E+04 1.64106E-07
 -1      1342-2.55231E-06-1.32655E+05 3.81817E-06
 -1      1351 3.86193E-06 4.82500E+04-8.16109E+04
 -1      1353 3.89515E-06 4.82500E+04 8.16109E+04
 -1      1354-3.20107E-06 2.10699E+04-3.72717E-07
 -1      1356-3.20375E-06-8.29084E+04 1.97353E-06
 -1      1365 4.23398E-06 1.56899E+04-1.85777E+04
 -1      1367 4.28393E-06 1.56899E+04 1.85777E+04
 -1      1368-3.28386E-06-1.16102E+03 2.70900E-06
 -1      1370-3.42745E-06-2.48304E+04 2.68036E-06
 -1      1379 5.15908E-06-8.26975E+03 4.28289E+04
 -1      1381 5.21776E-06-8.26975E+03-4.28289E+04
 -1      1382-3.98082E-06-3.11687E+04 9.39012E-07
 -1      1384-3.94560E-06 2.33985E+04 1.83466E-06
 -1      1393 5.27528E-06-4.12433E+04 1.08427E+05
 -1      1395 5.22826E-06-4.12433E+04-1.08427E+05
 -1      1396-4.05379E-06-5.46873E+04-2.56724E-06
 -1      1398-4.36916E-06 8.34566E+04-5.43663E-06
 -1      1407 3.23843E-06-5.43696E+04 1.66786E+05
 -1      1409 3.09856E-06-5.43696E+04-1.66786E+05
 -1      1410-2.72156E-06-9.29652E+04-4.06402E-06
 -1      1412-2.83026E-06 1.19533E+05-5.46278E-06
 -1      1421 1.76314E-06-8.63009E+04 2.35437E+05
 -1      1423 1.63984E-06-8.63009E+04-2.35437E+05
 -1      1424-2.39794E-06-1.18228E+05-1.59805E-06
 -1      1426-1.73654E-06 1.81736E+05-1.74416E-06
 -1      1435 1.06944E-06-7.40299E+04 2.89272E+05
 -1      1437 1.15835E-06-7.40299E+04-2.89272E+05
 -1      1438-1.41366E-06-1.77269E+05-2.39085E-06
 -1      1440-1.46930E-06 1.91284E+05 1.39734E-06
 -1      1449 1.18613E-06-1.11220E+05 3.83417E+05
 -1      1451 8.90922E-07-1.11220E+05-3.83417E+05
 -1      1452-9.69716E-07-2.11400E+05-4.90615E-06
 -1      1454-1.01683E-06 2.77102E+05-1.86033E-06
 -1      1463-2.49363E-07-4.19514E+04 4.54258E+05
 -1      1465 2.95437E-07-4.19514E+04-4.54258E+05
 -1      1466 4.27197E-07-3.36011E+05-4.01734E-06
 -1      1468 7.44952E-07 2.42748E+05-2.12850E-06
 -1      1477-2.49735E-07-1.07379E+05 6.89086E+05
 -1      1479 1.49409E-07-1.07379E+05-6.89086E+05
 -1      1480 1.10373E-06-4.29364E+05-2.70943E-06
 -1      1482 9.72956E-07 4.48583E+05 1.89013E-06
 -1      1491-2.68223E-07 2.44296E+04-2.05817E-06
 -1      1493 3.85680E-08 2.44296E+04 1.79449E-06
 -1      1494 2.45900E-08-1.71067E-06-2.09231E-06
 -1      1496 2.78678E-08 2.68320E-06 2.32458E-06
 -1      1497-1.18213E-07-2.44296E+04 8.50621E-07
 -1      1499 2.30615E-07-2.44296E+04 8.53928E-07
 -1      1500 9.07217E+02 1.45348E+03 6.34214E+02
 -1      1502 9.07217E+02 1.45348E+03 6.34214E+02
 -1      1503 1.59880E+03 3.63503E+03 1.38024E+03
 -1      1505 1.59880E+03 3.63503E+03 1.38024E+03
 -1      1506 2.03109E+03 6.57601E+03 2.16864E+03
 -1      1508 2.03109E+03 6.57601E+03 2.16864E+03
 -1      1509 2.25113E+03 9.95622E+03 2.96125E+03
 -1      1511 2.25113E+03 9.95622E+03 2.96125E+03
 -1      1512 2.29833E+03 1.34962E+04 3.74319E+03
 -1      1514 2.29833E+03 1.34962E+04 3.74319E+03
 -1      1515 2.20274E+03 1.69705E+04 4.47989E+03
 -1      1517 2.20274E+03 1.69705E+04 4.47989E+03
 -1      1518 1.98984E+03 2.01908E+04 5.14568E+03
 -1      1520 1.98984E+03 2.01908E+04 5.14568E+03
 -1      1521 1.68167E+03 2.30022E+04 5.71327E+03
 -1      1523 1.68167E+03 2.30022E+04 5.71327E+03
 -1      1524 1.29836E+03 2.52806E+04 6.16089E+03
 -1      1526 1.29836E+03 2.52806E+04 6.16089E+03
 -1      1527 8.58732E+02 2.69294E+04 6.46998E+03
 -1      1529 8.58732E+02 2.69294E+04 6.46998E+03
 -1      1530 3.80838E+02 2.78795E+04 6.62711E+03
 -1      1532 3.80838E+02 2.78795E+04 6.62711E+03
 -1      1533-1.17968E+02 2.80877E+04 6.62359E+03
 -1      1535-1.17968E+02 2.80877E+04 6.62359E+03
 -1      1536-6.20964E+02 2.75363E+04 6.45586E+03
 -1      1538-6.20964E+02 2.75363E+04 6.45586E+03
 -1      1539-1.11226E+03 2.62318E+04 6.12542E+03
 -1      1541-1.11226E+03 2.62318E+04 6.12542E+03
 -1      1542-1.57695E+03 2.42037E+04 5.63869E+03
 -1      1544-1.57695E+03 2.42037E+04 5.63869E+03
 -1      1545-2.00147E+03 2.15032E+04 5.00675E+03
 -1      1547-2.00147E+03 2.15032E+04 5.00675E+03
 -1      1548-2.37382E+03 1.82006E+04 4.24496E+03
 -1      1550-2.37382E+03 1.82006E+04 4.24496E+03
 -1      1551-2.68393E+03 1.43827E+04 3.37246E+03
 -1      1553-2.68393E+03 1.43827E+04 3.37246E+03
 -1      1554-2.92394E+03 1.01502E+04 2.41156E+03
 -1      1556-2.92394E+03 1.01502E+04 2.41156E+03
 -1      1557-3.08853E+03 5.61386E+03 1.38709E+03
 -1      1559-3.08853E+03 5.61386E+03 1.38709E+03
 -1      1560-3.17522E+03 8.90374E+02 3.25610E+02
 -1      1562-3.17522E+03 8.90374E+02 3.25610E+02
 -1      1563-3.18469E+03-3.90177E+03-7.45267E+02
 -1      1565-3.18469E+03-3.90177E+03-7.45267E+02
 -1      1566-3.12105E+03-8.64722E+03-1.79777E+03
 -1      1568-3.12105E+03-8.64722E+03-1.79777E+03
 -1      1569-2.99235E+03-1.32392E+04-2.80450E+03
 -1      1571-2.99235E+03-1.32392E+04-2.80450E+03
 -1      1572-2.81091E+03-1.75856E+04-3.73925E+03
 -1      1574-2.81091E+03-1.75856E+04-3.73925E+03
 -1      1575-2.59402E+03-2.16145E+04-4.57677E+03
 -1      1577-2.59402E+03-2.16145E+04-4.57677E+03
 -1      1578-2.36519E+03-2.52860E+04-5.29280E+03
 -1      1580-2.36519E+03-2.52860E+04-5.29280E+03
 -1      1581-2.15384E+03-2.85899E+04-5.86054E+03
 -1      1583-2.15384E+03-2.85899E+04-5.86054E+03
 -1      1584-2.00133E+03-3.15840E+04-6.24480E+03
 -1      1586-2.00133E+03-3.15840E+04-6.24480E+03
 -1      1587-1.29788E+03-3.30125E+04-4.34963E+03
 -1      1589-1.29788E+03-3.30125E+04-4.34963E+03
 -1      1590-1.72302E+06-2.58732E+05 3.91451E+03
 -1      1592-1.94941E+06-2.16702E+05 3.91451E+03
 -1      1593 1.29788E+03-3.30125E+04 4.34963E+03
 -1      1595 1.29788E+03-3.30125E+04 4.34963E+03
 -1      1596-9.07217E+02 1.45348E+03-6.34214E+02
 -1      1598-9.07217E+02 1.45348E+03-6.34214E+02
 -1      1599-1.59880E+03 3.63503E+03-1.38024E+03
 -1      1601-1.59880E+03 3.63503E+03-1.38024E+03
 -1      1602-2.03109E+03 6.57601E+03-2.16864E+03
 -1      1604-2.03109E+03 6.57601E+03-2.16864E+03
 -1      1605-2.25113E+03 9.95622E+03-2.96125E+03
 -1      1607-2.25113E+03 9.95622E+03-2.96125E+03
 -1      1608-2.29833E+03 1.34962E+04-3.74319E+03
 -1      1610-2.29833E+03 1.34962E+04-3.74319E+03
 -1      1611-2.20274E+03 1.69705E+04-4.47989E+03
 -1      1613-2.20274E+03 1.69705E+04-4.47989E+03
 -1      1614-1.98984E+03 2.01908E+04-5.14568E+03
 -1      1616-1.98984E+03 2.01908E+04-5.14568E+03
 -1      1617-1.68167E+03 2.30022E+04-5.71327E+03
 -1      1619-1.68167E+03 2.30022E+04-5.71327E+03
 -1      1620-1.29836E+03 2.52806E+04-6.16089E+03
 -1      1622-1.29836E+03 2.52806E+04-6.16089E+03
 -1      1623-8.58732E+02 2.69294E+04-6.46998E+03
 -1      1625-8.58732E+02 2.69294E+04-6.46998E+03
 -1      1626-3.80838E+02 2.78795E+04-6.62711E+03
 -1      1628-3.80838E+02 2.78795E+04-6.62711E+03
 -1      1629 1.17968E+02 2.80877E+04-6.62359E+03
 -1      1631 1.17968E+02 2.80877E+04-6.62359E+03
 -1      1632 6.20964E+02 2.75363E+04-6.45586E+03
 -1      1634 6.20964E+02 2.75363E+04-6.45586E+03
 -1      1635 1.11226E+03 2.62318E+04-6.12542E+03
 -1      1637 1.11226E+03 2.62318E+04-6.12542E+03
 -1      1638 1.57695E+03 2.42037E+04-5.63869E+03
 -1      1640 1.57695E+03 2.42037E+04-5.63869E+03
 -1      1641 2.00147E+03 2.15032E+04-5.00675E+03
 -1      1643 2.00147E+03 2.15032E+04-5.00675E+03
 -1      1644 2.37382E+03 1.82006E+04-4.24496E+03
 -1      1646 2.37382E+03 1.82006E+04-4.24496E+03
 -1      1647 2.68393E+03 1.43827E+04-3.37246E+03
 -1      1649 2.68393E+03 1.43827E+04-3.37246E+03
 -1      1650 2.92394E+03 1.01502E+04-2.41156E+03
 -1      1652 2.92394E+03 1.01502E+04-2.41156E+03
 -1      1653 3.08853E+03 5.61386E+03-1.38709E+03
 -1      1655 3.08853E+03 5.61386E+03-1.38709E+03
 -1      1656 3.17522E+03 8.90374E+02-3.25610E+02
 -1      1658 3.17522E+03 8.90374E+02-3.25610E+02
 -1      1659 3.18469E+03-3.90177E+03 7.45267E+02
 -1      1661 3.18469E+03-3.90177E+03 7.45267E+02
 -1      1662 3.12105E+03-8.64722E+03 1.79777E+03
 -1      1664 3.12105E+03-8.64722E+03 1.79777E+03
 -1      1665 2.99235E+03-1.32392E+04 2.80450E+03
 -1      1667 2.99235E+03-1.32392E+04 2.80450E+03
 -1      1668 2.81091E+03-1.75856E+04 3.73925E+03
 -1      1670 2.81091E+03-1.75856E+04 3.73925E+03
 -1      1671 2.59402E+03-2.16145E+04 4.57677E+03
 -1      1673 2.59402E+03-2.16145E+04 4.57677E+03
 -1      1674 2.36519E+03-2.52860E+04 5.29280E+03
 -1      1676 2.36519E+03-2.52860E+04 5.29280E+03
 -1      1677 2.15384E+03-2.85899E+04 5.86054E+03
 -1      1679 2.15384E+03-2.85899E+04 5.86054E+03
 -1      1680 2.00133E+03-3.15840E+04 6.24480E+03
 -1      1682 2.00133E+03-3.15840E+04 6.24480E+03
 -1      1683 1.72302E+06-2.58732E+05-3.91451E+03
 -1      1685 1.94941E+06-2.16702E+05-3.91451E+03
 -1      1686 1.19286E+03-2.84383E+03-8.31524E+02
 -1      1688 1.19286E+03-2.84383E+03-8.31524E+02
 -1      1689 2.11754E+03-7.21935E+03-1.82220E+03
 -1      1691 2.11754E+03-7.21935E+03-1.82220E+03
 -1      1692 2.69775E+03-1.31266E+04-2.87803E+03
 -1      1694 2.69775E+03-1.31266E+04-2.87803E+03
 -1      1695 2.99229E+03-1.99010E+04-3.94602E+03
 -1      1697 2.99229E+03-1.99010E+04-3.94602E+03
 -1      1698 3.05723E+03-2.69950E+04-5.00443E+03
 -1      1700 3.05723E+03-2.69950E+04-5.00443E+03
 -1      1701 2.93089E+03-3.39543E+04-6.00454E+03
 -1      1703 2.93089E+03-3.39543E+04-6.00454E+03
 -1      1704 2.64824E+03-4.04038E+04-6.91035E+03
 -1      1706 2.64824E+03-4.04038E+04-6.91035E+03
 -1      1707 2.23836E+03-4.60339E+04-7.68396E+03
 -1      1709 2.23836E+03-4.60339E+04-7.68396E+03
 -1      1710 1.72825E+03-5.05960E+04-8.29535E+03
 -1      1712 1.72825E+03-5.05960E+04-8.29535E+03
 -1      1713 1.14301E+03-5.38977E+04-8.71906E+03
 -1      1715 1.14301E+03-5.38977E+04-8.71906E+03
 -1      1716 5.06707E+02-5.58003E+04-8.93676E+03
 -1      1718 5.06707E+02-5.58003E+04-8.93676E+03
 -1      1719-1.57508E+02-5.62179E+04-8.93658E+03
 -1      1721-1.57508E+02-5.62179E+04-8.93658E+03
 -1      1722-8.27354E+02-5.51147E+04-8.71374E+03
 -1      1724-8.27354E+02-5.51147E+04-8.71374E+03
 -1      1725-1.48164E+03-5.25040E+04-8.27025E+03
 -1      1727-1.48164E+03-5.25040E+04-8.27025E+03
 -1      1728-2.10054E+03-4.84451E+04-7.61487E+03
 -1      1730-2.10054E+03-4.84451E+04-7.61487E+03
 -1      1731-2.66595E+03-4.30402E+04-6.76264E+03
 -1      1733-2.66595E+03-4.30402E+04-6.76264E+03
 -1      1734-3.16190E+03-3.64300E+04-5.73440E+03
 -1      1736-3.16190E+03-3.64300E+04-5.73440E+03
 -1      1737-3.57498E+03-2.87887E+04-4.55606E+03
 -1      1739-3.57498E+03-2.87887E+04-4.55606E+03
 -1      1740-3.89472E+03-2.03176E+04-3.25784E+03
 -1      1742-3.89472E+03-2.03176E+04-3.25784E+03
 -1      1743-4.11405E+03-1.12383E+04-1.87328E+03
 -1      1745-4.11405E+03-1.12383E+04-1.87328E+03
 -1      1746-4.22968E+03-1.78476E+03-4.38260E+02
 -1      1748-4.22968E+03-1.78476E+03-4.38260E+02
 -1      1749-4.24250E+03 7.80588E+03 1.01004E+03
 -1      1751-4.24250E+03 7.80588E+03 1.01004E+03
 -1      1752-4.15810E+03 1.73027E+04 2.43432E+03
 -1      1754-4.15810E+03 1.73027E+04 2.43432E+03
 -1      1755-3.98705E+03 2.64917E+04 3.79796E+03
 -1      1757-3.98705E+03 2.64917E+04 3.79796E+03
 -1      1758-3.74618E+03 3.51880E+04 5.06611E+03
 -1      1760-3.74618E+03 3.51880E+04 5.06611E+03
 -1      1761-3.45798E+03 4.32486E+04 6.20546E+03
 -1      1763-3.45798E+03 4.32486E+04 6.20546E+03
 -1      1764-3.15454E+03 5.05896E+04 7.18398E+03
 -1      1766-3.15454E+03 5.05896E+04 7.18398E+03
 -1      1767-2.87544E+03 5.71981E+04 7.96577E+03
 -1      1769-2.87544E+03 5.71981E+04 7.96577E+03
 -1      1770-2.67132E+03 6.31737E+04 8.50080E+03
 -1      1772-2.67132E+03 6.31737E+04 8.50080E+03
 -1      1773-1.19286E+03-2.84383E+03 8.31524E+02
 -1      1775-1.19286E+03-2.84383E+03 8.31524E+02
 -1      1776-2.11754E+03-7.21935E+03 1.82220E+03
 -1      1778-2.11754E+03-7.21935E+03 1.82220E+03
 -1      1779-2.69775E+03-1.31266E+04 2.87803E+03
 -1      1781-2.69775E+03-1.31266E+04 2.87803E+03
 -1      1782-2.99229E+03-1.99010E+04 3.94602E+03
 -1      1784-2.99229E+03-1.99010E+04 3.94602E+03
 -1      1785-3.05723E+03-2.69950E+04 5.00443E+03
 -1      1787-3.05723E+03-2.69950E+04 5.00443E+03
 -1      1788-2.93089E+03-3.39543E+04 6.00454E+03
 -1      1790-2.93089E+03-3.39543E+04 6.00454E+03
 -1      1791-2.64824E+03-4.04038E+04 6.91035E+03
 -1      1793-2.64824E+03-4.04038E+04 6.91035E+03
 -1      1794-2.23836E+03-4.60339E+04 7.68396E+03
 -1      1796-2.23836E+03-4.60339E+04 7.68396E+03
 -1      1797-1.72825E+03-5.05960E+04 8.29535E+03
 -1      1799-1.72825E+03-5.05960E+04 8.29535E+03
 -1      1800-1.14301E+03-5.38977E+04 8.71906E+03
 -1      1802-1.14301E+03-5.38977E+04 8.71906E+03
 -1      1803-5.06707E+02-5.58003E+04 8.93676E+03
 -1      1805-5.06707E+02-5.58003E+04 8.93676E+03
 -1      1806 1.57508E+02-5.62179E+04 8.93658E+03
 -1      1808 1.57508E+02-5.62179E+04 8.93658E+03
 -1      1809 8.27354E+02-5.51147E+04 8.71374E+03
 -1      1811 8.27354E+02-5.51147E+04 8.71374E+03
 -1      1812 1.48164E+03-5.25040E+04 8.27025E+03
 -1      1814 1.48164E+03-5.25040E+04 8.27025E+03
 -1      1815 2.10054E+03-4.84451E+04 7.61487E+03
 -1      1817 2.10054E+03-4.84451E+04 7.61487E+03
 -1      1818 2.66595E+03-4.30402E+04 6.76264E+03
 -1      1820 2.66595E+03-4.30402E+04 6.76264E+03
 -1      1821 3.16190E+03-3.64300E+04 5.73440E+03
 -1      1823 3.16190E+03-3.64300E+04 5.73440E+03
 -1      1824 3.57498E+03-2.87887E+04 4.55606E+03
 -1      1826 3.57498E+03-2.87887E+04 4.55606E+03
 -1      1827 3.89472E+03-2.03176E+04 3.25784E+03
 -1      1829 3.89472E+03-2.03176E+04 3.25784E+03
 -1      1830 4.11405E+03-1.12383E+04 1.87328E+03
 -1      1832 4.11405E+03-1.12383E+04 1.87328E+03
 -1      1833 4.22968E+03-1.78476E+03 4.38260E+02
 -1      1835 4.22968E+03-1.78476E+03 4.38260E+02
 -1      1836 4.24250E+03 7.80588E+03-1.01004E+03
 -1      1838 4.24250E+03 7.80588E+03-1.01004E+03
 -1      1839 4.15810E+03 1.73027E+04-2.43432E+03
 -1      1841 4.15810E+03 1.73027E+04-2.43432E+03
 -1      1842 3.98705E+03 2.64917E+04-3.79796E+03
 -1      1844 3.98705E+03 2.64917E+04-3.79796E+03
 -1      1845 3.74618E+03 3.51880E+04-5.06611E+03
 -1      1847 3.74618E+03 3.51880E+04-5.06611E+03
 -1      1848 3.45798E+03 4.32486E+04-6.20546E+03
 -1      1850 3.45798E+03 4.32486E+04-6.20546E+03
 -1      1851 3.15454E+03 5.05896E+04-7.18398E+03
 -1      1853 3.15454E+03 5.05896E+04-7.18398E+03
 -1      1854 2.87544E+03 5.71981E+04-7.96577E+03
 -1      1856 2.87544E+03 5.71981E+04-7.96577E+03
 -1      1857 2.67132E+03 6.31737E+04-8.50080E+03
 -1      1859 2.67132E+03 6.31737E+04-8.50080E+03
 -1      1860 1.22197E-07-2.06990E+03-1.04066E-07
 -1      1862 1.43521E-07-2.06990E+03-2.80588E-07
 -1      1863 2.76470E-07-5.32090E+03 1.83420E-07
 -1      1865 2.93001E-07-5.32090E+03-1.73194E-07
 -1      1866 2.51904E-07-9.69439E+03 1.88114E-07
 -1      1868 1.80919E-07-9.69439E+03-3.69765E-07
 -1      1869-2.39364E-07-1.46861E+04 1.89947E-07
 -1      1871-4.78739E-07-1.46861E+04-4.46152E-07
 -1      1872-7.12648E-07-1.99135E+04-5.16545E-08
 -1      1874-9.07897E-07-1.99135E+04-2.54775E-07
 -1      1875-4.41272E-07-2.50422E+04-5.63354E-07
 -1      1877-5.82939E-07-2.50422E+04-4.50466E-07
 -1      1878 1.65119E-08-2.97975E+04-2.04510E-07
 -1      1880 7.50615E-08-2.97975E+04-1.04516E-06
 -1      1881 3.08638E-07-3.39512E+04 3.82007E-07
 -1      1883 6.33264E-07-3.39512E+04-1.03274E-06
 -1      1884 1.82281E-08-3.73189E+04 2.71131E-07
 -1      1886-1.72295E-08-3.73189E+04 9.09722E-08
 -1      1887-4.46700E-07-3.97576E+04-2.45073E-07
 -1      1889-4.24105E-07-3.97576E+04 1.21836E-07
 -1      1890-2.11045E-07-4.11639E+04-8.22519E-07
 -1      1892-2.24898E-07-4.11639E+04-4.90289E-07
 -1      1893-2.49838E-07-4.14731E+04-1.11200E-07
 -1      1895 6.60584E-08-4.14731E+04-1.78832E-06
 -1      1896-2.80321E-07-4.06582E+04 4.85294E-07
 -1      1898-2.24929E-07-4.06582E+04-1.71067E-06
 -1      1899 5.93202E-07-3.87281E+04-2.86518E-08
 -1      1901 1.91143E-07-3.87281E+04-1.42837E-06
 -1      1902 1.00669E-06-3.57260E+04 7.52007E-08
 -1      1904 5.79217E-07-3.57260E+04-6.94377E-07
 -1      1905 5.92533E-07-3.17270E+04 9.19306E-07
 -1      1907 5.53749E-07-3.17270E+04-1.72310E-06
 -1      1908 2.46214E-07-2.68349E+04-5.95501E-08
 -1      1910 4.42717E-07-2.68349E+04-1.75730E-06
 -1      1911 1.23731E-06-2.11781E+04 9.66018E-07
 -1      1913 7.20926E-07-2.11781E+04 7.75222E-07
 -1      1914 9.64137E-07-1.49055E+04 4.14863E-07
 -1      1916 8.41711E-07-1.49055E+04 2.89904E-07
 -1      1917 9.70613E-07-8.18084E+03-1.42175E-06
 -1      1919 1.45625E-06-8.18084E+03-5.17530E-08
 -1      1920 5.88657E-07-1.17720E+03 1.15885E-06
 -1      1922 7.15801E-07-1.17720E+03 4.41682E-07
 -1      1923 2.96552E-07 5.92956E+03 1.06919E-06
 -1      1925-2.32793E-07 5.92956E+03 1.87587E-06
 -1      1926-7.26316E-08 1.29679E+04 2.58706E-06
 -1      1928-2.25816E-08 1.29679E+04-1.21309E-06
 -1      1929-4.55934E-07 1.97789E+04 1.98471E-06
 -1      1931-8.93388E-08 1.97789E+04 7.36213E-07
 -1      1932-7.52726E-07 2.62222E+04 2.61354E-06
 -1      1934-6.45643E-07 2.62222E+04 6.26976E-07
 -1      1935-4.38625E-07 3.21921E+04 4.98930E-07
 -1      1937-2.32357E-07 3.21921E+04-1.44858E-06
 -1      1938-1.05678E-07 3.76124E+04-1.72988E-07
 -1      1940-1.26427E-07 3.76124E+04 3.04724E-06
 -1      1941 5.93354E-09 4.24799E+04-7.06863E-07
 -1      1943-1.99118E-07 4.24799E+04 5.39207E-07
 -1      1944 1.44364E-08 4.68213E+04-3.05806E-06
 -1      1946 2.39020E-07 4.68213E+04 8.63074E-08
 -1      1947 2.71638E-07 2.07694E-07 4.29032E-07
 -1      1949 3.95959E-07-1.07348E-06 2.99191E-07
 -1      1950-2.11712E-08-2.52863E-07 9.02084E-07
 -1      1952 9.74487E-08 1.23343E-06 6.26132E-07
 -1      1953 6.32720E-08-1.47700E-06 3.78576E-07
 -1      1955 5.99630E-09 3.53301E-06-3.86511E-07
 -1      1956 9.99480E-08-2.65104E-06 8.58802E-08
 -1      1958-2.33726E-07 5.67213E-06-7.84768E-07
 -1      1959-1.87038E-07-3.88217E-06 4.31904E-07
 -1      1961-4.14972E-07 8.21003E-06-1.05962E-07
 -1      1962-1.21152E-07-1.01371E-06 2.43790E-07
 -1      1964-1.16545E-07 7.93308E-06 3.37907E-07
 -1      1965-4.43755E-07 2.74083E-06 3.72011E-07
 -1      1967-4.33703E-07 3.36411E-06 5.84071E-07
 -1      1968-5.67260E-07 5.97501E-06 1.41682E-07
 -1      1970-5.63578E-07-1.46345E-06 1.98216E-07
 -1      1971-5.76774E-07 4.98948E-06-8.38106E-07
 -1      1973-4.59557E-07 2.58846E-06-2.06023E-07
 -1      1974-5.76700E-07-1.59805E-06-3.21529E-07
 -1      1976-5.52020E-07 2.83793E-06-1.59330E-07
 -1      1977-2.64527E-07-2.29274E-06-8.20279E-07
 -1      1979-4.75231E-07 3.10366E-06-8.00344E-09
 -1      1980-2.77096E-07 4.24389E-06-5.00543E-07
 -1      1982-4.62232E-07-7.01402E-09-7.34808E-07
 -1      1983-5.94810E-09 1.34924E-06-4.30569E-07
 -1      1985-2.83580E-08 5.62224E-06-1.82153E-07
 -1      1986 5.38164E-07-2.15402E-06-5.03067E-07
 -1      1988 2.57218E-07 2.55588E-06-2.49461E-06
 -1      1989 8.94379E-07 4.59868E-06 8.51906E-07
 -1      1991 6.59449E-07-4.28121E-06-1.17675E-06
 -1      1992 5.59539E-07 6.47608E-06 4.35171E-07
 -1      1994 1.05532E-06-1.91051E-06 4.10719E-07
 -1      1995 2.54472E-07-6.67463E-07 1.30089E-06
 -1      1997 2.77273E-07-4.12536E-06-1.37462E-06
 -1      1998 2.72757E-09 2.87936E-07-1.60509E-07
 -1      2000-2.24231E-07-1.64650E-06-7.69857E-07
 -1      2001 1.28504E-07 1.38839E-06 1.59777E-06
 -1      2003 1.89936E-07-1.77023E-06 8.06286E-07
 -1      2004 2.97131E-07-2.87804E-06-1.02324E-07
 -1      2006 5.23199E-07 1.96464E-06-2.37448E-06
 -1      2007 3.00887E-08 5.18690E-06-2.15825E-06
 -1      2009 3.94935E-07-9.31173E-06 4.04879E-06
 -1      2010-3.62743E-07 3.03894E-06-2.05471E-06
 -1      2012-3.46593E-07-6.34886E-06 1.33110E-06
 -1      2013-2.25064E-07 3.19522E-06-1.90394E-06
 -1      2015-1.23724E-07 1.85019E-07-8.20110E-08
 -1      2016-2.26065E-07-9.75651E-08 1.48037E-06
 -1      2018-3.28805E-07-7.59353E-06-4.03401E-07
 -1      2019-5.04800E-07 7.08091E-06 2.87479E-06
 -1      2021-7.08396E-07-1.27876E-05-2.52383E-06
 -1      2022-5.79407E-07-3.80812E-06-2.36251E-07
 -1      2024-2.75336E-07 4.42804E-06-6.43650E-07
 -1      2025-2.74649E-07-9.27063E-06 2.34237E-06
 -1      2027-5.56865E-08 1.03351E-05-9.58350E-08
 -1      2028 7.58246E-09-8.55172E-06 1.93582E-06
 -1      2030 1.41144E-07 1.29401E-05-2.48332E-07
 -1      2031-1.35925E-07-1.22323E-05-2.23694E-06
 -1      2033-2.99372E-07 1.97688E-05 3.97995E-06
 -1      2034-7.62352E-07 2.06990E+03 6.86385E-07
 -1      2036-6.18277E-07 2.06990E+03 6.25427E-07
 -1      2037-7.65860E-07 5.32090E+03 6.94942E-07
 -1      2039-5.27380E-07 5.32090E+03 6.31149E-07
 -1      2040 5.44392E-08 9.69439E+03-2.70084E-08
 -1      2042 2.45744E-07 9.69439E+03-5.09877E-07
 -1      2043 3.77579E-07 1.46861E+04-2.58213E-07
 -1      2045 1.79064E-07 1.46861E+04-9.17393E-07
 -1      2046 3.24025E-07 1.99135E+04 1.67331E-07
 -1      2048-1.90930E-08 1.99135E+04-3.65735E-07
 -1      2049 1.65644E-07 2.50422E+04-1.65699E-07
 -1      2051 9.67611E-08 2.50422E+04-3.50366E-07
 -1      2052-2.17864E-07 2.97975E+04-3.22243E-07
 -1      2054-3.13879E-07 2.97975E+04 3.75117E-07
 -1      2055-6.08614E-07 3.39512E+04-7.81529E-09
 -1      2057-3.98331E-07 3.39512E+04 1.88881E-06
 -1      2058-2.36364E-07 3.73189E+04-4.09893E-07
 -1      2060-2.40582E-07 3.73189E+04 5.93435E-07
 -1      2061-7.62308E-07 3.97576E+04-5.35548E-07
 -1      2063-9.41379E-07 3.97576E+04-2.76115E-07
 -1      2064-6.63808E-07 4.11639E+04-1.56248E-06
 -1      2066-1.00736E-06 4.11639E+04-2.51552E-07
 -1      2067 2.90146E-07 4.14731E+04-1.39937E-06
 -1      2069-2.05036E-07 4.14731E+04 2.98659E-07
 -1      2070 2.04131E-07 4.06582E+04-1.61655E-06
 -1      2072 4.26735E-08 4.06582E+04-9.86652E-08
 -1      2073 9.91504E-08 3.87281E+04 8.92638E-07
 -1      2075 1.66249E-07 3.87281E+04-2.60781E-06
 -1      2076-9.96224E-08 3.57260E+04 1.25360E-07
 -1      2078-1.11826E-07 3.57260E+04-2.44595E-06
 -1      2079-7.85255E-07 3.17270E+04-7.35867E-07
 -1      2081-4.83517E-07 3.17270E+04 1.75523E-07
 -1      2082-5.51006E-07 2.68349E+04-1.26729E-07
 -1      2084-7.41333E-07 2.68349E+04 9.37576E-07
 -1      2085-5.82805E-07 2.11781E+04 1.28669E-06
 -1      2087-1.16806E-06 2.11781E+04-4.09611E-07
 -1      2088 1.99116E-08 1.49055E+04-7.96546E-07
 -1      2090-2.66823E-07 1.49055E+04-8.87856E-07
 -1      2091 3.68880E-07 8.18084E+03-5.61888E-07
 -1      2093 5.39783E-07 8.18084E+03-1.56346E-06
 -1      2094 4.89058E-07 1.17720E+03-8.11608E-07
 -1      2096 2.47874E-07 1.17720E+03 1.04660E-06
 -1      2097 3.18671E-07-5.92956E+03-2.58292E-06
 -1      2099 6.60511E-07-5.92956E+03-2.86900E-06
 -1      2100 4.42527E-07-1.29679E+04 2.86367E-07
 -1      2102 6.69243E-07-1.29679E+04-1.68966E-07
 -1      2103 4.27748E-07-1.97789E+04-1.90799E-07
 -1      2105-4.33301E-08-1.97789E+04 1.99378E-06
 -1      2106-1.53030E-07-2.62222E+04 1.70302E-06
 -1      2108-5.87261E-07-2.62222E+04 1.82928E-06
 -1      2109-3.63465E-07-3.21921E+04 4.14037E-06
 -1      2111-3.20988E-07-3.21921E+04-1.48301E-06
 -1      2112-6.32922E-08-3.76124E+04 4.06571E-06
 -1      2114 1.79757E-08-3.76124E+04-8.33057E-07
 -1      2115 6.07929E-07-4.24799E+04 4.14959E-06
 -1      2117 1.39437E-06-4.24799E+04-8.28517E-07
 -1      2118 1.10590E-07-4.68213E+04 7.93698E-08
 -1      2120 7.38112E-07-4.68213E+04-1.33155E-06
 -1      2121 1.19286E+03 2.84383E+03 8.31524E+02
 -1      2123 1.19286E+03 2.84383E+03 8.31524E+02
 -1      2124 2.11754E+03 7.21935E+03 1.82220E+03
 -1      2126 2.11754E+03 7.21935E+03 1.82220E+03
 -1      2127 2.69775E+03 1.31266E+04 2.87803E+03
 -1      2129 2.69775E+03 1.31266E+04 2.87803E+03
 -1      2130 2.99229E+03 1.99010E+04 3.94602E+03
 -1      2132 2.99229E+03 1.99010E+04 3.94602E+03
 -1      2133 3.05723E+03 2.69950E+04 5.00443E+03
 -1      2135 3.05723E+03 2.69950E+04 5.00443E+03
 -1      2136 2.93089E+03 3.39543E+04 6.00454E+03
 -1      2138 2.93089E+03 3.39543E+04 6.00454E+03
 -1      2139 2.64824E+03 4.04038E+04 6.91035E+03
 -1      2141 2.64824E+03 4.04038E+04 6.91035E+03
 -1      2142 2.23836E+03 4.60339E+04 7.68396E+03
 -1      2144 2.23836E+03 4.60339E+04 7.68396E+03
 -1      2145 1.72825E+03 5.05960E+04 8.29535E+03
 -1      2147 1.72825E+03 5.05960E+04 8.29535E+03
 -1      2148 1.14301E+03 5.38977E+04 8.71906E+03
 -1      2150 1.14301E+03 5.38977E+04 8.71906E+03
 -1      2151 5.06707E+02 5.58003E+04 8.93676E+03
 -1      2153 5.06707E+02 5.58003E+04 8.93676E+03
 -1      2154-1.57508E+02 5.62179E+04 8.93658E+03
 -1      2156-1.57508E+02 5.62179E+04 8.93658E+03
 -1      2157-8.27354E+02 5.51147E+04 8.71374E+03
 -1      2159-8.27354E+02 5.51147E+04 8.71374E+03
 -1      2160-1.48164E+03 5.25040E+04 8.27025E+03
 -1      2162-1.48164E+03 5.25040E+04 8.27025E+03
 -1      2163-2.10054E+03 4.84451E+04 7.61487E+03
 -1      2165-2.10054E+03 4.84451E+04 7.61487E+03
 -1      2166-2.66595E+03 4.30402E+04 6.76264E+03
 -1      2168-2.66595E+03 4.30402E+04 6.76264E+03
 -1      2169-3.16190E+03 3.64300E+04 5.73440E+03
 -1      2171-3.16190E+03 3.64300E+04 5.73440E+03
 -1      2172-3.57498E+03 2.87887E+04 4.55606E+03
 -1      2174-3.57498E+03 2.87887E+04 4.55606E+03
 -1      2175-3.89472E+03 2.03176E+04 3.25784E+03
 -1      2177-3.89472E+03 2.03176E+04 3.25784E+03
 -1      2178-4.11405E+03 1.12383E+04 1.87328E+03
 -1      2180-4.11405E+03 1.12383E+04 1.87328E+03
 -1      2181-4.22968E+03 1.78476E+03 4.38260E+02
 -1      2183-4.22968E+03 1.78476E+03 4.38260E+02
 -1      2184-4.24250E+03-7.80588E+03-1.01004E+03
 -1      2186-4.24250E+03-7.80588E+03-1.01004E+03
 -1      2187-4.15810E+03-1.73027E+04-2.43432E+03
 -1      2189-4.15810E+03-1.73027E+04-2.43432E+03
 -1      2190-3.98705E+03-2.64917E+04-3.79796E+03
 -1      2192-3.98705E+03-2.64917E+04-3.79796E+03
 -1      2193-3.74618E+03-3.51880E+04-5.06611E+03
 -1      2195-3.74618E+03-3.51880E+04-5.06611E+03
 -1      2196-3.45798E+03-4.32486E+04-6.20546E+03
 -1      2198-3.45798E+03-4.32486E+04-6.20546E+03
 -1      2199-3.15454E+03-5.05896E+04-7.18398E+03
 -1      2201-3.15454E+03-5.05896E+04-7.18398E+03
 -1      2202-2.87544E+03-5.71981E+04-7.96577E+03
 -1      2204-2.87544E+03-5.71981E+04-7.96577E+03
 -1      2205-2.67132E+03-6.31737E+04-8.50080E+03
 -1      2207-2.67132E+03-6.31737E+04-8.50080E+03
 -1      2208-1.19286E+03 2.84383E+03-8.31524E+02
 -1      2210-1.19286E+03 2.84383E+03-8.31524E+02
 -1      2211-2.11754E+03 7.21935E+03-1.82220E+03
 -1      2213-2.11754E+03 7.21935E+03-1.82220E+03
 -1      2214-2.69775E+03 1.31266E+04-2.87803E+03
 -1      2216-2.69775E+03 1.31266E+04-2.87803E+03
 -1      2217-2.99229E+03 1.99010E+04-3.94602E+03
 -1      2219-2.99229E+03 1.99010E+04-3.94602E+03
 -1      2220-3.05723E+03 2.69950E+04-5.00443E+03
 -1      2222-3.05723E+03 2.69950E+04-5.00443E+03
 -1      2223-2.93089E+03 3.39543E+04-6.00454E+03
 -1      2225-2.93089E+03 3.39543E+04-6.00454E+03
 -1      2226-2.64824E+03 4.04038E+04-6.91035E+03
 -1      2228-2.64824E+03 4.04038E+04-6.91035E+03
 -1      2229-2.23836E+03 4.60339E+04-7.68396E+03
 -1      2231-2.23836E+03 4.60339E+04-7.68396E+03
 -1      2232-1.72825E+03 5.05960E+04-8.29535E+03
 -1      2234-1.72825E+03 5.05960E+04-8.29535E+03
 -1      2235-1.14301E+03 5.38977E+04-8.71906E+03
 -1      2237-1.14301E+03 5.38977E+04-8.71906E+03
 -1      2238-5.06707E+02 5.58003E+04-8.93676E+03
 -1      2240-5.06707E+02 5.58003E+04-8.93676E+03
 -1      2241 1.57508E+02 5.62179E+04-8.93658E+03
 -1      2243 1.57508E+02 5.62179E+04-8.93658E+03
 -1      2244 8.27354E+02 5.51147E+04-8.71374E+03
 -1      2246 8.27354E+02 5.51147E+04-8.71374E+03
 -1      2247 1.48164E+03 5.25040E+04-8.27025E+03
 -1      2249 1.48164E+03 5.25040E+04-8.27025E+03
 -1      2250 2.10054E+03 4.84451E+04-7.61487E+03
 -1      2252 2.10054E+03 4.84451E+04-7.61487E+03
 -1      2253 2.66595E+03 4.30402E+04-6.76264E+03
 -1      2255 2.66595E+03 4.30402E+04-6.76264E+03
 -1      2256 3.16190E+03 3.64300E+04-5.73440E+03
 -1      2258 3.16190E+03 3.64300E+04-5.73440E+03
 -1      2259 3.57498E+03 2.87887E+04-4.55606E+03
 -1      2261 3.57498E+03 2.87887E+04-4.55606E+03
 -1      2262 3.89472E+03 2.03176E+04-3.25784E+03
 -1      2264 3.89472E+03 2.03176E+04-3.25784E+03
 -1      2265 4.11405E+03 1.12383E+04-1.87328E+03
 -1      2267 4.11405E+03 1.12383E+04-1.87328E+03
 -1      2268 4.22968E+03 1.78476E+03-4.38260E+02
 -1      2270 4.22968E+03 1.78476E+03-4.38260E+02
 -1      2271 4.24250E+03-7.80588E+03 1.01004E+03
 -1      2273 4.24250E+03-7.80588E+03 1.01004E+03
 -1      2274 4.15810E+03-1.73027E+04 2.43432E+03
 -1      2276 4.15810E+03-1.73027E+04 2.43432E+03
 -1      2277 3.98705E+03-2.64917E+04 3.79796E+03
 -1      2279 3.98705E+03-2.64917E+04 3.79796E+03
 -1      2280 3.74618E+03-3.51880E+04 5.06611E+03
 -1      2282 3.74618E+03-3.51880E+04 5.06611E+03
 -1      2283 3.45798E+03-4.32486E+04 6.20546E+03
 -1      2285 3.45798E+03-4.32486E+04 6.20546E+03
 -1      2286 3.15454E+03-5.05896E+04 7.18398E+03
 -1      2288 3.15454E+03-5.05896E+04 7.18398E+03
 -1      2289 2.87544E+03-5.71981E+04 7.96577E+03
 -1      2291 2.87544E+03-5.71981E+04 7.96577E+03
 -1      2292 2.67132E+03-6.31737E+04 8.50080E+03
 -1      2294 2.67132E+03-6.31737E+04 8.50080E+03
 -3
    1PSTEP                        28           1           1          
    1PGM                1.000000E+00                                  
    1PGK                2.008104E+06                                  
    1PHID                         -1                                  
    1PSUBC                         0                                  
    1PMODE                         7                                  
  100CL  107 225.5346141         930                     2    7MODAL      1
 -4  ERROR       1    1
 -5  STR(%)      1    1    0    0
 -1       404 0.00000E+00
 -1       406 0.00000E+00
 -1       407 0.00000E+00
 -1       409 0.00000E+00
 -1       410 0.00000E+00
 -1       412 0.00000E+00
 -1       413 0.00000E+00
 -1       415 0.00000E+00
 -1       424 0.00000E+00
 -1       426 0.00000E+00
 -1       427 0.00000E+00
 -1       429 0.00000E+00
 -1       438 0.00000E+00
 -1       440 0.00000E+00
 -1       441 0.00000E+00
 -1       443 0.00000E+00
 -1       444 0.00000E+00
 -1       446 0.00000E+00
 -1       447 0.00000E+00
 -1       449 0.00000E+00
 -1       458 0.00000E+00
 -1       460 0.00000E+00
 -1       461 0.00000E+00
 -1       463 0.00000E+00
 -1       472 0.00000E+00
 -1       474 0.00000E+00
 -1       475 0.00000E+00
 -1       477 0.00000E+00
 -1       478 0.00000E+00
 -1       480 0.00000E+00
 -1       481 0.00000E+00
 -1       483 0.00000E+00
 -1       484 0.00000E+00
 -1       486 0.00000E+00
 -1       487 0.00000E+00
 -1       489 0.00000E+00
 -1       490 0.00000E+00
 -1       492 0.00000E+00
 -1       493 0.00000E+00
 -1       495 0.00000E+00
 -1       496 0.00000E+00
 -1       498 0.00000E+00
 -1       499 0.00000E+00
 -1       501 0.00000E+00
 -1       502 0.00000E+00
 -1       504 0.00000E+00
 -1       505 0.00000E+00
 -1       507 0.00000E+00
 -1       508 0.00000E+00
 -1       510 0.00000E+00
 -1       511 0.00000E+00
 -1       513 0.00000E+00
 -1       514 0.00000E+00
 -1       516 0.00000E+00
 -1       517 0.00000E+00
 -1       519 0.00000E+00
 -1       520 0.00000E+00
 -1       522 0.00000E+00
 -1       523 0.00000E+00
 -1       525 0.00000E+00
 -1       526 0.00000E+00
 -1       528 0.00000E+00
 -1       529 0.00000E+00
 -1       531 0.00000E+00
 -1       532 0.00000E+00
 -1       534 0.00000E+00
 -1       535 0.00000E+00
 -1       537 0.00000E+00
 -1       538 0.00000E+00
 -1       540 0.00000E+00
 -1       541 0.00000E+00
 -1       543 0.00000E+00
 -1       544 0.00000E+00
 -1       546 0.00000E+00
 -1       547 0.00000E+00
 -1       549 0.00000E+00
 -1       550 0.00000E+00
 -1       552 0.00000E+00
 -1       553 0.00000E+00
 -1       555 0.00000E+00
 -1       556 0.00000E+00
 -1       558 0.00000E+00
 -1       559 0.00000E+00
 -1       561 0.00000E+00
 -1       562 0.00000E+00
 -1       564 0.00000E+00
 -1       565 0.00000E+00
 -1       567 0.00000E+00
 -1       568 0.00000E+00
 -1       570 0.00000E+00
 -1       571 0.00000E+00
 -1       573 0.00000E+00
 -1       574 0.00000E+00
 -1       576 0.00000E+00
 -1       577 0.00000E+00
 -1       579 0.00000E+00
 -1       588 0.00000E+00
 -1       590 0.00000E+00
 -1       591 0.00000E+00
 -1       593 0.00000E+00
 -1       602 0.00000E+00
 -1       604 0.00000E+00
 -1       605 0.00000E+00
 -1       607 0.00000E+00
 -1       616 0.00000E+00
 -1       618 0.00000E+00
 -1       619 0.00000E+00
 -1       621 0.00000E+00
 -1       630 0.00000E+00
 -1       632 0.00000E+00
 -1       633 0.00000E+00
 -1       635 0.00000E+00
 -1       644 0.00000E+00
 -1       646 0.00000E+00
 -1       647 0.00000E+00
 -1       649 0.00000E+00
 -1       658 0.00000E+00
 -1       660 0.00000E+00
 -1       661 0.00000E+00
 -1       663 0.00000E+00
 -1       672 0.00000E+00
 -1       674 0.00000E+00
 -1       675 0.00000E+00
 -1       677 0.00000E+00
 -1       686 0.00000E+00
 -1       688 0.00000E+00
 -1       689 0.00000E+00
 -1       691 0.00000E+00
 -1       700 0.00000E+00
 -1       702 0.00000E+00
 -1       703 0.00000E+00
 -1       705 0.00000E+00
 -1       714 0.00000E+00
 -1       716 0.00000E+00
 -1       717 0.00000E+00
 -1       719 0.00000E+00
 -1       728 0.00000E+00
 -1       730 0.00000E+00
 -1       731 0.00000E+00
 -1       733 0.00000E+00
 -1       742 0.00000E+00
 -1       744 0.00000E+00
 -1       745 0.00000E+00
 -1       747 0.00000E+00
 -1       756 0.00000E+00
 -1       758 0.00000E+00
 -1       759 0.00000E+00
 -1       761 0.00000E+00
 -1       770 0.00000E+00
 -1       772 0.00000E+00
 -1       773 0.00000E+00
 -1       775 0.00000E+00
 -1       784 0.00000E+00
 -1       786 0.00000E+00
 -1       787 0.00000E+00
 -1       789 0.00000E+00
 -1       798 0.00000E+00
 -1       800 0.00000E+00
 -1       801 0.00000E+00
 -1       803 0.00000E+00
 -1       812 0.00000E+00
 -1       814 0.00000E+00
 -1       815 0.00000E+00
 -1       817 0.00000E+00
 -1       826 0.00000E+00
 -1       828 0.00000E+00
 -1       829 0.00000E+00
 -1       831 0.00000E+00
 -1       840 0.00000E+00
 -1       842 0.00000E+00
 -1       843 0.00000E+00
 -1       845 0.00000E+00
 -1       854 0.00000E+00
 -1       856 0.00000E+00
 -1       857 0.00000E+00
 -1       859 0.00000E+00
 -1       868 0.00000E+00
 -1       870 0.00000E+00
 -1       871 0.00000E+00
 -1       873 0.00000E+00
 -1       882 0.00000E+00
 -1       884 0.00000E+00
 -1       885 0.00000E+00
 -1       887 0.00000E+00
 -1       896 0.00000E+00
 -1       898 0.00000E+00
 -1       899 0.00000E+00
 -1       901 0.00000E+00
 -1       910 0.00000E+00
 -1       912 0.00000E+00
 -1       913 0.00000E+00
 -1       915 0.00000E+00
 -1       924 0.00000E+00
 -1       926 0.00000E+00
 -1       927 0.00000E+00
 -1       929 0.00000E+00
 -1       938 0.00000E+00
 -1       940 0.00000E+00
 -1       941 0.00000E+00
 -1       943 0.00000E+00
 -1       952 0.00000E+00
 -1       954 0.00000E+00
 -1       955 0.00000E+00
 -1       957 0.00000E+00
 -1       966 0.00000E+00
 -1       968 0.00000E+00
 -1       969 0.00000E+00
 -1       971 0.00000E+00
 -1       980 0.00000E+00
 -1       982 0.00000E+00
 -1       983 0.00000E+00
 -1       985 0.00000E+00
 -1       986 0.00000E+00
 -1       988 0.00000E+00
 -1       989 0.00000E+00
 -1       991 0.00000E+00
 -1       992 0.00000E+00
 -1       994 0.00000E+00
 -1       995 0.00000E+00
 -1       997 0.00000E+00
 -1       998 0.00000E+00
 -1      1000 0.00000E+00
 -1      1001 0.00000E+00
 -1      1003 0.00000E+00
 -1      1004 0.00000E+00
 -1      1006 0.00000E+00
 -1      1007 0.00000E+00
 -1      1009 0.00000E+00
 -1      1010 0.00000E+00
 -1      1012 0.00000E+00
 -1      1013 0.00000E+00
 -1      1015 0.00000E+00
 -1      1016 0.00000E+00
 -1      1018 0.00000E+00
 -1      1019 0.00000E+00
 -1      1021 0.00000E+00
 -1      1022 0.00000E+00
 -1      1024 0.00000E+00
 -1      1025 0.00000E+00
 -1      1027 0.00000E+00
 -1      1028 0.00000E+00
 -1      1030 0.00000E+00
 -1      1031 0.00000E+00
 -1      1033 0.00000E+00
 -1      1034 0.00000E+00
 -1      1036 0.00000E+00
 -1      1037 0.00000E+00
 -1      1039 0.00000E+00
 -1      1040 0.00000E+00
 -1      1042 0.00000E+00
 -1      1043 0.00000E+00
 -1      1045 0.00000E+00
 -1      1046 0.00000E+00
 -1      1048 0.00000E+00
 -1      1049 0.00000E+00
 -1      1051 0.00000E+00
 -1      1052 0.00000E+00
 -1      1054 0.00000E+00
 -1      1055 0.00000E+00
 -1      1057 0.00000E+00
 -1      1058 0.00000E+00
 -1      1060 0.00000E+00
 -1      1061 0.00000E+00
 -1      1063 0.00000E+00
 -1      1064 0.00000E+00
 -1      1066 0.00000E+00
 -1      1067 0.00000E+00
 -1      1069 0.00000E+00
 -1      1070 0.00000E+00
 -1      1072 0.00000E+00
 -1      1073 0.00000E+00
 -1      1075 0.00000E+00
 -1      1076 0.00000E+00
 -1      1078 0.00000E+00
 -1      1079 0.00000E+00
 -1      1081 0.00000E+00
 -1      1082 0.00000E+00
 -1      1084 0.00000E+00
 -1      1085 0.00000E+00
 -1      1087 0.00000E+00
 -1      1088 0.00000E+00
 -1      1090 0.00000E+00
 -1      1099 0.00000E+00
 -1      1101 0.00000E+00
 -1      1102 0.00000E+00
 -1      1104 0.00000E+00
 -1      1113 0.00000E+00
 -1      1115 0.00000E+00
 -1      1116 0.00000E+00
 -1      1118 0.00000E+00
 -1      1127 0.00000E+00
 -1      1129 0.00000E+00
 -1      1130 0.00000E+00
 -1      1132 0.00000E+00
 -1      1141 0.00000E+00
 -1      1143 0.00000E+00
 -1      1144 0.00000E+00
 -1      1146 0.00000E+00
 -1      1155 0.00000E+00
 -1      1157 0.00000E+00
 -1      1158 0.00000E+00
 -1      1160 0.00000E+00
 -1      1169 0.00000E+00
 -1      1171 0.00000E+00
 -1      1172 0.00000E+00
 -1      1174 0.00000E+00
 -1      1183 0.00000E+00
 -1      1185 0.00000E+00
 -1      1186 0.00000E+00
 -1      1188 0.00000E+00
 -1      1197 0.00000E+00
 -1      1199 0.00000E+00
 -1      1200 0.00000E+00
 -1      1202 0.00000E+00
 -1      1211 0.00000E+00
 -1      1213 0.00000E+00
 -1      1214 0.00000E+00
 -1      1216 0.00000E+00
 -1      1225 0.00000E+00
 -1      1227 0.00000E+00
 -1      1228 0.00000E+00
 -1      1230 0.00000E+00
 -1      1239 0.00000E+00
 -1      1241 0.00000E+00
 -1      1242 0.00000E+00
 -1      1244 0.00000E+00
 -1      1253 0.00000E+00
 -1      1255 0.00000E+00
 -1      1256 0.00000E+00
 -1      1258 0.00000E+00
 -1      1267 0.00000E+00
 -1      1269 0.00000E+00
 -1      1270 0.00000E+00
 -1      1272 0.00000E+00
 -1      1281 0.00000E+00
 -1      1283 0.00000E+00
 -1      1284 0.00000E+00
 -1      1286 0.00000E+00
 -1      1295 0.00000E+00
 -1      1297 0.00000E+00
 -1      1298 0.00000E+00
 -1      1300 0.00000E+00
 -1      1309 0.00000E+00
 -1      1311 0.00000E+00
 -1      1312 0.00000E+00
 -1      1314 0.00000E+00
 -1      1323 0.00000E+00
 -1      1325 0.00000E+00
 -1      1326 0.00000E+00
 -1      1328 0.00000E+00
 -1      1337 0.00000E+00
 -1      1339 0.00000E+00
 -1      1340 0.00000E+00
 -1      1342 0.00000E+00
 -1      1351 0.00000E+00
 -1      1353 0.00000E+00
 -1      1354 0.00000E+00
 -1      1356 0.00000E+00
 -1      1365 0.00000E+00
 -1      1367 0.00000E+00
 -1      1368 0.00000E+00
 -1      1370 0.00000E+00
 -1      1379 0.00000E+00
 -1      1381 0.00000E+00
 -1      1382 0.00000E+00
 -1      1384 0.00000E+00
 -1      1393 0.00000E+00
 -1      1395 0.00000E+00
 -1      1396 0.00000E+00
 -1      1398 0.00000E+00
 -1      1407 0.00000E+00
 -1      1409 0.00000E+00
 -1      1410 0.00000E+00
 -1      1412 0.00000E+00
 -1      1421 0.00000E+00
 -1      1423 0.00000E+00
 -1      1424 0.00000E+00
 -1      1426 0.00000E+00
 -1      1435 0.00000E+00
 -1      1437 0.00000E+00
 -1      1438 0.00000E+00
 -1      1440 0.00000E+00
 -1      1449 0.00000E+00
 -1      1451 0.00000E+00
 -1      1452 0.00000E+00
 -1      1454 0.00000E+00
 -1      1463 0.00000E+00
 -1      1465 0.00000E+00
 -1      1466 0.00000E+00
 -1      1468 0.00000E+00
 -1      1477 0.00000E+00
 -1      1479 0.00000E+00
 -1      1480 0.00000E+00
 -1      1482 0.00000E+00
 -1      1491 0.00000E+00
 -1      1493 0.00000E+00
 -1      1494 0.00000E+00
 -1      1496 0.00000E+00
 -1      1497 0.00000E+00
 -1      1499 0.00000E+00
 -1      1500 0.00000E+00
 -1      1502 0.00000E+00
 -1      1503 0.00000E+00
 -1      1505 0.00000E+00
 -1      1506 0.00000E+00
 -1      1508 0.00000E+00
 -1      1509 0.00000E+00
 -1      1511 0.00000E+00
 -1      1512 0.00000E+00
 -1      1514 0.00000E+00
 -1      1515 0.00000E+00
 -1      1517 0.00000E+00
 -1      1518 0.00000E+00
 -1      1520 0.00000E+00
 -1      1521 0.00000E+00
 -1      1523 0.00000E+00
 -1      1524 0.00000E+00
 -1      1526 0.00000E+00
 -1      1527 0.00000E+00
 -1      1529 0.00000E+00
 -1      1530 0.00000E+00
 -1      1532 0.00000E+00
 -1      1533 0.00000E+00
 -1      1535 0.00000E+00
 -1      1536 0.00000E+00
 -1      1538 0.00000E+00
 -1      1539 0.00000E+00
 -1      1541 0.00000E+00
 -1      1542 0.00000E+00
 -1      1544 0.00000E+00
 -1      1545 0.00000E+00
 -1      1547 0.00000E+00
 -1      1548 0.00000E+00
 -1      1550 0.00000E+00
 -1      1551 0.00000E+00
 -1      1553 0.00000E+00
 -1      1554 0.00000E+00
 -1      1556 0.00000E+00
 -1      1557 0.00000E+00
 -1      1559 0.00000E+00
 -1      1560 0.00000E+00
 -1      1562 0.00000E+00
 -1      1563 0.00000E+00
 -1      1565 0.00000E+00
 -1      1566 0.00000E+00
 -1      1568 0.00000E+00
 -1      1569 0.00000E+00
 -1      1571 0.00000E+00
 -1      1572 0.00000E+00
 -1      1574 0.00000E+00
 -1      1575 0.00000E+00
 -1      1577 0.00000E+00
 -1      1578 0.00000E+00
 -1      1580 0.00000E+00
 -1      1581 0.00000E+00
 -1      1583 0.00000E+00
 -1      1584 0.00000E+00
 -1      1586 0.00000E+00
 -1      1587 0.00000E+00
 -1      1589 0.00000E+00
 -1      1590 0.00000E+00
 -1      1592 0.00000E+00
 -1      1593 0.00000E+00
 -1      1595 0.00000E+00
 -1      1596 0.00000E+00
 -1      1598 0.00000E+00
 -1      1599 0.00000E+00
 -1      1601 0.00000E+00
 -1      1602 0.00000E+00
 -1      1604 0.00000E+00
 -1      1605 0.00000E+00
 -1      1607 0.00000E+00
 -1      1608 0.00000E+00
 -1      1610 0.00000E+00
 -1      1611 0.00000E+00
 -1      1613 0.00000E+00
 -1      1614 0.00000E+00
 -1      1616 0.00000E+00
 -1      1617 0.00000E+00
 -1      1619 0.00000E+00
 -1      1620 0.00000E+00
 -1      1622 0.00000E+00
 -1      1623 0.00000E+00
 -1      1625 0.00000E+00
 -1      1626 0.00000E+00
 -1      1628 0.00000E+00
 -1      1629 0.00000E+00
 -1      1631 0.00000E+00
 -1      1632 0.00000E+00
 -1      1634 0.00000E+00
 -1      1635 0.00000E+00
 -1      1637 0.00000E+00
 -1      1638 0.00000E+00
 -1      1640 0.00000E+00
 -1      1641 0.00000E+00
 -1      1643 0.00000E+00
 -1      1644 0.00000E+00
 -1      1646 0.00000E+00
 -1      1647 0.00000E+00
 -1      1649 0.00000E+00
 -1      1650 0.00000E+00
 -1      1652 0.00000E+00
 -1      1653 0.00000E+00
 -1      1655 0.00000E+00
 -1      1656 0.00000E+00
 -1      1658 0.00000E+00
 -1      1659 0.00000E+00
 -1      1661 0.00000E+00
 -1      1662 0.00000E+00
 -1      1664 0.00000E+00
 -1      1665 0.00000E+00
 -1      1667 0.00000E+00
 -1      1668 0.00000E+00
 -1      1670 0.00000E+00
 -1      1671 0.00000E+00
 -1      1673 0.00000E+00
 -1      1674 0.00000E+00
 -1      1676 0.00000E+00
 -1      1677 0.00000E+00
 -1      1679 0.00000E+00
 -1      1680 0.00000E+00
 -1      1682 0.00000E+00
 -1      1683 0.00000E+00
 -1      1685 0.00000E+00
 -1      1686 0.00000E+00
 -1      1688 0.00000E+00
 -1      1689 0.00000E+00
 -1      1691 0.00000E+00
 -1      1692 0.00000E+00
 -1      1694 0.00000E+00
 -1      1695 0.00000E+00
 -1      1697 0.00000E+00
 -1      1698 0.00000E+00
 -1      1700 0.00000E+00
 -1      1701 0.00000E+00
 -1      1703 0.00000E+00
 -1      1704 0.00000E+00
 -1      1706 0.00000E+00
 -1      1707 0.00000E+00
 -1      1709 0.00000E+00
 -1      1710 0.00000E+00
 -1      1712 0.00000E+00
 -1      1713 0.00000E+00
 -1      1715 0.00000E+00
 -1      1716 0.00000E+00
 -1      1718 0.00000E+00
 -1      1719 0.00000E+00
 -1      1721 0.00000E+00
 -1      1722 0.00000E+00
 -1      1724 0.00000E+00
 -1      1725 0.00000E+00
 -1      1727 0.00000E+00
 -1      1728 0.00000E+00
 -1      1730 0.00000E+00
 -1      1731 0.00000E+00
 -1      1733 0.00000E+00
 -1      1734 0.00000E+00
 -1      1736 0.00000E+00
 -1      1737 0.00000E+00
 -1      1739 0.00000E+00
 -1      1740 0.00000E+00
 -1      1742 0.00000E+00
 -1      1743 0.00000E+00
 -1      1745 0.00000E+00
 -1      1746 0.00000E+00
 -1      1748 0.00000E+00
 -1      1749 0.00000E+00
 -1      1751 0.00000E+00
 -1      1752 0.00000E+00
 -1      1754 0.00000E+00
 -1      1755 0.00000E+00
 -1      1757 0.00000E+00
 -1      1758 0.00000E+00
 -1      1760 0.00000E+00
 -1      1761 0.00000E+00
 -1      1763 0.00000E+00
 -1      1764 0.00000E+00
 -1      1766 0.00000E+00
 -1      1767 0.00000E+00
 -1      1769 0.00000E+00
 -1      1770 0.00000E+00
 -1      1772 0.00000E+00
 -1      1773 0.00000E+00
 -1      1775 0.00000E+00
 -1      1776 0.00000E+00
 -1      1778 0.00000E+00
 -1      1779 0.00000E+00
 -1      1781 0.00000E+00
 -1      1782 0.00000E+00
 -1      1784 0.00000E+00
 -1      1785 0.00000E+00
 -1      1787 0.00000E+00
 -1      1788 0.00000E+00
 -1      1790 0.00000E+00
 -1      1791 0.00000E+00
 -1      1793 0.00000E+00
 -1      1794 0.00000E+00
 -1      1796 0.00000E+00
 -1      1797 0.00000E+00
 -1      1799 0.00000E+00
 -1      1800 0.00000E+00
 -1      1802 0.00000E+00
 -1      1803 0.00000E+00
 -1      1805 0.00000E+00
 -1      1806 0.00000E+00
 -1      1808 0.00000E+00
 -1      1809 0.00000E+00
 -1      1811 0.00000E+00
 -1      1812 0.00000E+00
 -1      1814 0.00000E+00
 -1      1815 0.00000E+00
 -1      1817 0.00000E+00
 -1      1818 0.00000E+00
 -1      1820 0.00000E+00
 -1      1821 0.00000E+00
 -1      1823 0.00000E+00
 -1      1824 0.00000E+00
 -1      1826 0.00000E+00
 -1      1827 0.00000E+00
 -1      1829 0.00000E+00
 -1      1830 0.00000E+00
 -1      1832 0.00000E+00
 -1      1833 0.00000E+00
 -1      1835 0.00000E+00
 -1      1836 0.00000E+00
 -1      1838 0.00000E+00
 -1      1839 0.00000E+00
 -1      1841 0.00000E+00
 -1      1842 0.00000E+00
 -1      1844 0.00000E+00
 -1      1845 0.00000E+00
 -1      1847 0.00000E+00
 -1      1848 0.00000E+00
 -1      1850 0.00000E+00
 -1      1851 0.00000E+00
 -1      1853 0.00000E+00
 -1      1854 0.00000E+00
 -1      1856 0.00000E+00
 -1      1857 0.00000E+00
 -1      1859 0.00000E+00
 -1      1860 0.00000E+00
 -1      1862 0.00000E+00
 -1      1863 0.00000E+00
 -1      1865 0.00000E+00
 -1      1866 0.00000E+00
 -1      1868 0.00000E+00
 -1      1869 0.00000E+00
 -1      1871 0.00000E+00
 -1      1872 0.00000E+00
 -1      1874 0.00000E+00
 -1      1875 0.00000E+00
 -1      1877 0.00000E+00
 -1      1878 0.00000E+00
 -1      1880 0.00000E+00
 -1      1881 0.00000E+00
 -1      1883 0.00000E+00
 -1      1884 0.00000E+00
 -1      1886 0.00000E+00
 -1      1887 0.00000E+00
 -1      1889 0.00000E+00
 -1      1890 0.00000E+00
 -1      1892 0.00000E+00
 -1      1893 0.00000E+00
 -1      1895 0.00000E+00
 -1      1896 0.00000E+00
 -1      1898 0.00000E+00
 -1      1899 0.00000E+00
 -1      1901 0.00000E+00
 -1      1902 0.00000E+00
 -1      1904 0.00000E+00
 -1      1905 0.00000E+00
 -1      1907 0.00000E+00
 -1      1908 0.00000E+00
 -1      1910 0.00000E+00
 -1      1911 0.00000E+00
 -1      1913 0.00000E+00
 -1      1914 0.00000E+00
 -1      1916 0.00000E+00
 -1      1917 0.00000E+00
 -1      1919 0.00000E+00
 -1      1920 0.00000E+00
 -1      1922 0.00000E+00
 -1      1923 0.00000E+00
 -1      1925 0.00000E+00
 -1      1926 0.00000E+00
 -1      1928 0.00000E+00
 -1      1929 0.00000E+00
 -1      1931 0.00000E+00
 -1      1932 0.00000E+00
 -1      1934 0.00000E+00
 -1      1935 0.00000E+00
 -1      1937 0.00000E+00
 -1      1938 0.00000E+00
 -1      1940 0.00000E+00
 -1      1941 0.00000E+00
 -1      1943 0.00000E+00
 -1      1944 0.00000E+00
 -1      1946 0.00000E+00
 -1      1947 0.00000E+00
 -1      1949 0.00000E+00
 -1      1950 0.00000E+00
 -1      1952 0.00000E+00
 -1      1953 0.00000E+00
 -1      1955 0.00000E+00
 -1      1956 0.00000E+00
 -1      1958 0.00000E+00
 -1      1959 0.00000E+00
 -1      1961 0.00000E+00
 -1      1962 0.00000E+00
 -1      1964 0.00000E+00
 -1      1965 0.00000E+00
 -1      1967 0.00000E+00
 -1      1968 0.00000E+00
 -1      1970 0.00000E+00
 -1      1971 0.00000E+00
 -1      1973 0.00000E+00
 -1      1974 0.00000E+00
 -1      1976 0.00000E+00
 -1      1977 0.00000E+00
 -1      1979 0.00000E+00
 -1      1980 0.00000E+00
 -1      1982 0.00000E+00
 -1      1983 0.00000E+00
 -1      1985 0.00000E+00
 -1      1986 0.00000E+00
 -1      1988 0.00000E+00
 -1      1989 0.00000E+00
 -1      1991 0.00000E+00
 -1      1992 0.00000E+00
 -1      1994 0.00000E+00
 -1      1995 0.00000E+00
 -1      1997 0.00000E+00
 -1      1998 0.00000E+00
 -1      2000 0.00000E+00
 -1      2001 0.00000E+00
 -1      2003 0.00000E+00
 -1      2004 0.00000E+00
 -1      2006 0.00000E+00
 -1      2007 0.00000E+00
 -1      2009 0.00000E+00
 -1      2010 0.00000E+00
 -1      2012 0.00000E+00
 -1      2013 0.00000E+00
 -1      2015 0.00000E+00
 -1      2016 0.00000E+00
 -1      2018 0.00000E+00
 -1      2019 0.00000E+00
 -1      2021 0.00000E+00
 -1      2022 0.00000E+00
 -1      2024 0.00000E+00
 -1      2025 0.00000E+00
 -1      2027 0.00000E+00
 -1      2028 0.00000E+00
 -1      2030 0.00000E+00
 -1      2031 0.00000E+00
 -1      2033 0.00000E+00
 -1      2034 0.00000E+00
 -1      2036 0.00000E+00
 -1      2037 0.00000E+00
 -1      2039 0.00000E+00
 -1      2040 0.00000E+00
 -1      2042 0.00000E+00
 -1      2043 0.00000E+00
 -1      2045 0.00000E+00
 -1      2046 0.00000E+00
 -1      2048 0.00000E+00
 -1      2049 0.00000E+00
 -1      2051 0.00000E+00
 -1      2052 0.00000E+00
 -1      2054 0.00000E+00
 -1      2055 0.00000E+00
 -1      2057 0.00000E+00
 -1      2058 0.00000E+00
 -1      2060 0.00000E+00
 -1      2061 0.00000E+00
 -1      2063 0.00000E+00
 -1      2064 0.00000E+00
 -1      2066 0.00000E+00
 -1      2067 0.00000E+00
 -1      2069 0.00000E+00
 -1      2070 0.00000E+00
 -1      2072 0.00000E+00
 -1      2073 0.00000E+00
 -1      2075 0.00000E+00
 -1      2076 0.00000E+00
 -1      2078 0.00000E+00
 -1      2079 0.00000E+00
 -1      2081 0.00000E+00
 -1      2082 0.00000E+00
 -1      2084 0.00000E+00
 -1      2085 0.00000E+00
 -1      2087 0.00000E+00
 -1      2088 0.00000E+00
 -1      2090 0.00000E+00
 -1      2091 0.00000E+00
 -1      2093 0.00000E+00
 -1      2094 0.00000E+00
 -1      2096 0.00000E+00
 -1      2097 0.00000E+00
 -1      2099 0.00000E+00
 -1      2100 0.00000E+00
 -1      2102 0.00000E+00
 -1      2103 0.00000E+00
 -1      2105 0.00000E+00
 -1      2106 0.00000E+00
 -1      2108 0.00000E+00
 -1      2109 0.00000E+00
 -1      2111 0.00000E+00
 -1      2112 0.00000E+00
 -1      2114 0.00000E+00
 -1      2115 0.00000E+00
 -1      2117 0.00000E+00
 -1      2118 0.00000E+00
 -1      2120 0.00000E+00
 -1      2121 0.00000E+00
 -1      2123 0.00000E+00
 -1      2124 0.00000E+00
 -1      2126 0.00000E+00
 -1      2127 0.00000E+00
 -1      2129 0.00000E+00
 -1      2130 0.00000E+00
 -1      2132 0.00000E+00
 -1      2133 0.00000E+00
 -1      2135 0.00000E+00
 -1      2136 0.00000E+00
 -1      2138 0.00000E+00
 -1      2139 0.00000E+00
 -1      2141 0.00000E+00
 -1      2142 0.00000E+00
 -1      2144 0.00000E+00
 -1      2145 0.00000E+00
 -1      2147 0.00000E+00
 -1      2148 0.00000E+00
 -1      2150 0.00000E+00
 -1      2151 0.00000E+00
 -1      2153 0.00000E+00
 -1      2154 0.00000E+00
 -1      2156 0.00000E+00
 -1      2157 0.00000E+00
 -1      2159 0.00000E+00
 -1      2160 0.00000E+00
 -1      2162 0.00000E+00
 -1      2163 0.00000E+00
 -1      2165 0.00000E+00
 -1      2166 0.00000E+00
 -1      2168 0.00000E+00
 -1      2169 0.00000E+00
 -1      2171 0.00000E+00
 -1      2172 0.00000E+00
 -1      2174 0.00000E+00
 -1      2175 0.00000E+00
 -1      2177 0.00000E+00
 -1      2178 0.00000E+00
 -1      2180 0.00000E+00
 -1      2181 0.00000E+00
 -1      2183 0.00000E+00
 -1      2184 0.00000E+00
 -1      2186 0.00000E+00
 -1      2187 0.00000E+00
 -1      2189 0.00000E+00
 -1      2190 0.00000E+00
 -1      2192 0.00000E+00
 -1      2193 0.00000E+00
 -1      2195 0.00000E+00
 -1      2196 0.00000E+00
 -1      2198 0.00000E+00
 -1      2199 0.00000E+00
 -1      2201 0.00000E+00
 -1      2202 0.00000E+00
 -1      2204 0.00000E+00
 -1      2205 0.00000E+00
 -1      2207 0.00000E+00
 -1      2208 0.00000E+00
 -1      2210 0.00000E+00
 -1      2211 0.00000E+00
 -1      2213 0.00000E+00
 -1      2214 0.00000E+00
 -1      2216 0.00000E+00
 -1      2217 0.00000E+00
 -1      2219 0.00000E+00
 -1      2220 0.00000E+00
 -1      2222 0.00000E+00
 -1      2223 0.00000E+00
 -1      2225 0.00000E+00
 -1      2226 0.00000E+00
 -1      2228 0.00000E+00
 -1      2229 0.00000E+00
 -1      2231 0.00000E+00
 -1      2232 0.00000E+00
 -1      2234 0.00000E+00
 -1      2235 0.00000E+00
 -1      2237 0.00000E+00
 -1      2238 0.00000E+00
 -1      2240 0.00000E+00
 -1      2241 0.00000E+00
 -1      2243 0.00000E+00
 -1      2244 0.00000E+00
 -1      2246 0.00000E+00
 -1      2247 0.00000E+00
 -1      2249 0.00000E+00
 -1      2250 0.00000E+00
 -1      2252 0.00000E+00
 -1      2253 0.00000E+00
 -1      2255 0.00000E+00
 -1      2256 0.00000E+00
 -1      2258 0.00000E+00
 -1      2259 0.00000E+00
 -1      2261 0.00000E+00
 -1      2262 0.00000E+00
 -1      2264 0.00000E+00
 -1      2265 0.00000E+00
 -1      2267 0.00000E+00
 -1      2268 0.00000E+00
 -1      2270 0.00000E+00
 -1      2271 0.00000E+00
 -1      2273 0.00000E+00
 -1      2274 0.00000E+00
 -1      2276 0.00000E+00
 -1      2277 0.00000E+00
 -1      2279 0.00000E+00
 -1      2280 0.00000E+00
 -1      2282 0.00000E+00
 -1      2283 0.00000E+00
 -1      2285 0.00000E+00
 -1      2286 0.00000E+00
 -1      2288 0.00000E+00
 -1      2289 0.00000E+00
 -1      2291 0.00000E+00
 -1      2292 0.00000E+00
 -1      2294 0.00000E+00
 -3
    1PSTEP                        29           1           1          
    1PGM                1.000000E+00                                  
    1PGK                2.509314E+06                                  
    1PHID                         -1                                  
    1PSUBC                         0                                  
    1PMODE                         8                                  
  100CL  108 252.1143700         930                     2    8MODAL      1
 -4  DISP        4    1
 -5  D1          1    2    1    0
 -5  D2          1    2    2    0
 -5  D3          1    2    3    0
 -5  ALL         1    2    0    0    1ALL
 -1       404 0.00000E+00 0.00000E+00-9.69611E-05
 -1       406 0.00000E+00-0.00000E+00 9.69611E-05
 -1       407 3.27999E-02 1.97849E-03 1.36614E-01
 -1       409 3.06002E-02-1.92084E-03 1.36633E-01
 -1       410 3.28689E-02-2.04994E-12 1.17214E-01
 -1       412 3.07089E-02-2.03057E-12 1.17228E-01
 -1       413 3.17889E-02-4.36789E-06 1.17221E-01
 -1       415 3.17889E-02 4.36789E-06 1.17221E-01
 -1       424 0.00000E+00 0.00000E+00-1.08899E-04
 -1       426 0.00000E+00 0.00000E+00 1.08899E-04
 -1       427 0.00000E+00-6.93727E-05 0.00000E+00
 -1       429 0.00000E+00 6.93727E-05 0.00000E+00
 -1       438 3.27999E-02-1.97849E-03 1.36614E-01
 -1       440 3.06002E-02 1.92084E-03 1.36633E-01
 -1       441 0.00000E+00 0.00000E+00-9.69611E-05
 -1       443 0.00000E+00-0.00000E+00 9.69611E-05
 -1       444 0.00000E+00 6.93727E-05 0.00000E+00
 -1       446 0.00000E+00-6.93727E-05 0.00000E+00
 -1       447 0.00000E+00 0.00000E+00-1.08899E-04
 -1       449 0.00000E+00 0.00000E+00 1.08899E-04
 -1       458-3.17889E-02 4.36789E-06 1.17221E-01
 -1       460-3.17889E-02-4.36789E-06 1.17221E-01
 -1       461-3.28689E-02-9.13807E-13 1.17214E-01
 -1       463-3.07089E-02-9.52915E-13 1.17228E-01
 -1       472 0.00000E+00 0.00000E+00-9.69611E-05
 -1       474 0.00000E+00 0.00000E+00 9.69611E-05
 -1       475-3.27999E-02 1.97849E-03 1.36614E-01
 -1       477-3.06002E-02-1.92084E-03 1.36633E-01
 -1       478-3.27999E-02-1.97849E-03 1.36614E-01
 -1       480-3.06002E-02 1.92084E-03 1.36633E-01
 -1       481 0.00000E+00 0.00000E+00-9.69611E-05
 -1       483 0.00000E+00 0.00000E+00 9.69611E-05
 -1       484-3.92974E-03 6.66406E-04-8.19438E-03
 -1       486-1.85524E-03 1.41332E-03-8.10160E-03
 -1       487-5.76733E-03-5.01151E-05-2.09807E-02
 -1       489-4.43357E-03 1.16641E-03-2.08904E-02
 -1       490-7.95961E-03-5.58245E-04-3.25861E-02
 -1       492-6.24250E-03 1.37407E-03-3.25228E-02
 -1       493-9.17154E-03-1.05169E-03-4.55680E-02
 -1       495-7.46245E-03 1.55785E-03-4.55420E-02
 -1       496-9.81805E-03-1.53188E-03-5.83749E-02
 -1       498-8.14053E-03 1.71882E-03-5.83601E-02
 -1       499-9.89717E-03-2.00049E-03-7.10032E-02
 -1       501-8.23814E-03 1.87435E-03-7.10249E-02
 -1       502-9.36852E-03-2.41283E-03-8.29441E-02
 -1       504-7.86497E-03 2.01251E-03-8.29775E-02
 -1       505-8.35788E-03-2.79613E-03-9.38113E-02
 -1       507-6.98522E-03 2.13004E-03-9.38743E-02
 -1       508-6.84409E-03-3.11544E-03-1.03288E-01
 -1       510-5.70416E-03 2.22130E-03-1.03362E-01
 -1       511-4.93530E-03-3.38201E-03-1.11015E-01
 -1       513-4.02624E-03 2.28316E-03-1.11111E-01
 -1       514-2.65330E-03-3.57660E-03-1.16754E-01
 -1       516-2.03783E-03 2.31028E-03-1.16857E-01
 -1       517-9.02120E-05-3.70275E-03-1.20247E-01
 -1       519 2.25212E-04 2.30045E-03-1.20366E-01
 -1       520 2.70572E-03-3.75042E-03-1.21346E-01
 -1       522 2.68782E-03 2.25003E-03-1.21468E-01
 -1       523 5.65166E-03-3.72194E-03-1.19914E-01
 -1       525 5.29810E-03 2.15813E-03-1.20044E-01
 -1       526 8.68769E-03-3.61343E-03-1.15906E-01
 -1       528 7.98811E-03 2.02329E-03-1.16035E-01
 -1       529 1.17389E-02-3.42903E-03-1.09313E-01
 -1       531 1.07015E-02 1.84650E-03-1.09443E-01
 -1       532 1.47447E-02-3.16980E-03-1.00202E-01
 -1       534 1.33781E-02 1.62862E-03-1.00326E-01
 -1       535 1.76406E-02-2.84298E-03-8.86811E-02
 -1       537 1.59655E-02 1.37285E-03-8.88007E-02
 -1       538 2.03736E-02-2.45397E-03-7.49267E-02
 -1       540 1.84144E-02 1.08254E-03-7.50357E-02
 -1       541 2.28935E-02-2.01362E-03-5.91535E-02
 -1       543 2.06833E-02 7.63199E-04-5.92536E-02
 -1       544 2.51617E-02-1.53117E-03-4.16306E-02
 -1       546 2.27372E-02 4.20842E-04-4.17169E-02
 -1       547 2.71465E-02-1.02135E-03-2.26585E-02
 -1       549 2.45506E-02 6.32233E-05-2.27331E-02
 -1       550 2.88284E-02-4.96720E-04-2.57844E-03
 -1       552 2.61066E-02-3.00306E-04-2.63760E-03
 -1       553 3.01977E-02 2.36479E-05 1.82489E-02
 -1       555 2.73994E-02-6.60418E-04 1.82026E-02
 -1       556 3.12565E-02 5.24842E-04 3.94339E-02
 -1       558 2.84335E-02-1.00222E-03 3.94027E-02
 -1       559 3.20219E-02 9.81041E-04 6.05865E-02
 -1       561 2.92240E-02-1.31783E-03 6.05671E-02
 -1       562 3.25109E-02 1.37949E-03 8.12805E-02
 -1       564 2.97991E-02-1.57988E-03 8.12742E-02
 -1       565 3.27897E-02 1.68335E-03 1.01147E-01
 -1       567 3.01964E-02-1.78804E-03 1.01149E-01
 -1       568 3.28410E-02 1.87136E-03 1.19668E-01
 -1       570 3.04732E-02-1.92033E-03 1.19679E-01
 -1       571 3.28246E-02 1.94811E-03 1.23724E-01
 -1       573 3.06447E-02-1.89486E-03 1.23704E-01
 -1       574-4.20653E-03-1.60439E-14-6.71822E-03
 -1       576-2.59645E-03-1.87616E-14-6.58430E-03
 -1       577-3.40149E-03-4.26564E-05-6.65126E-03
 -1       579-3.40149E-03 4.26564E-05-6.65126E-03
 -1       588-6.31450E-03-4.79151E-14-1.52834E-02
 -1       590-5.56203E-03-5.02772E-14-1.52133E-02
 -1       591-5.93826E-03-2.23403E-05-1.52483E-02
 -1       593-5.93826E-03 2.23403E-05-1.52483E-02
 -1       602-8.53425E-03-8.32714E-14-2.40083E-02
 -1       604-7.07037E-03-8.08612E-14-2.39431E-02
 -1       605-7.80231E-03-2.07630E-05-2.39757E-02
 -1       607-7.80231E-03 2.07630E-05-2.39757E-02
 -1       616-9.58523E-03-1.27180E-13-3.37789E-02
 -1       618-8.43195E-03-1.22884E-13-3.37495E-02
 -1       619-9.00859E-03-9.38527E-06-3.37642E-02
 -1       621-9.00859E-03 9.38527E-06-3.37642E-02
 -1       630-1.03487E-02-1.64712E-13-4.35859E-02
 -1       632-8.94991E-03-1.63109E-13-4.35778E-02
 -1       633-9.64933E-03-2.59142E-06-4.35819E-02
 -1       635-9.64933E-03 2.59142E-06-4.35819E-02
 -1       644-1.02987E-02-1.80243E-13-5.34129E-02
 -1       646-9.08516E-03-1.83494E-13-5.34304E-02
 -1       647-9.69191E-03 5.54873E-06-5.34217E-02
 -1       649-9.69191E-03-5.54873E-06-5.34217E-02
 -1       658-9.81354E-03-1.73744E-13-6.27286E-02
 -1       660-8.58096E-03-1.83873E-13-6.27685E-02
 -1       661-9.19725E-03 1.27089E-05-6.27486E-02
 -1       663-9.19725E-03-1.27089E-05-6.27486E-02
 -1       672-8.71944E-03-1.45824E-13-7.13219E-02
 -1       674-7.67206E-03-1.63929E-13-7.13819E-02
 -1       675-8.19575E-03 1.91212E-05-7.13519E-02
 -1       677-8.19575E-03-1.91212E-05-7.13519E-02
 -1       686-7.20589E-03-9.34664E-14-7.88340E-02
 -1       688-6.27202E-03-1.15908E-13-7.89132E-02
 -1       689-6.73895E-03 2.52388E-05-7.88736E-02
 -1       691-6.73895E-03-2.52388E-05-7.88736E-02
 -1       700-5.23587E-03-2.73530E-14-8.50456E-02
 -1       702-4.52059E-03-5.34297E-14-8.51401E-02
 -1       703-4.87823E-03 3.01017E-05-8.50929E-02
 -1       705-4.87823E-03-3.01017E-05-8.50929E-02
 -1       714-2.93244E-03 3.68948E-14-8.97045E-02
 -1       716-2.41414E-03 3.35083E-15-8.98130E-02
 -1       717-2.67329E-03 3.45600E-05-8.97588E-02
 -1       719-2.67329E-03-3.45600E-05-8.97588E-02
 -1       728-3.19152E-04 9.89528E-14-9.26440E-02
 -1       730-5.26287E-05 5.40637E-14-9.27624E-02
 -1       731-1.85891E-04 3.77261E-05-9.27032E-02
 -1       733-1.85891E-04-3.77261E-05-9.27032E-02
 -1       742 2.50748E-03 1.74120E-13-9.37089E-02
 -1       744 2.52852E-03 1.21782E-13-9.38353E-02
 -1       745 2.51800E-03 4.02704E-05-9.37721E-02
 -1       747 2.51800E-03-4.02704E-05-9.37721E-02
 -1       756 5.49656E-03 2.85863E-13-9.28101E-02
 -1       758 5.24701E-03 2.33777E-13-9.29407E-02
 -1       759 5.37179E-03 4.16047E-05-9.28754E-02
 -1       761 5.37179E-03-4.16047E-05-9.28754E-02
 -1       770 8.56500E-03 4.23624E-13-8.98893E-02
 -1       772 8.05111E-03 3.80067E-13-9.00218E-02
 -1       773 8.30806E-03 4.21867E-05-8.99556E-02
 -1       775 8.30806E-03-4.21867E-05-8.99556E-02
 -1       784 1.16527E-02 5.69832E-13-8.49442E-02
 -1       786 1.08695E-02 5.38615E-13-8.50751E-02
 -1       787 1.12611E-02 4.16887E-05-8.50097E-02
 -1       789 1.12611E-02-4.16887E-05-8.50097E-02
 -1       798 1.46876E-02 7.05204E-13-7.80100E-02
 -1       800 1.36477E-02 6.86058E-13-7.81369E-02
 -1       801 1.41676E-02 4.04311E-05-7.80734E-02
 -1       803 1.41676E-02-4.04311E-05-7.80734E-02
 -1       812 1.76120E-02 8.09650E-13-6.91695E-02
 -1       814 1.63254E-02 8.00562E-13-6.92896E-02
 -1       815 1.69687E-02 3.82654E-05-6.92296E-02
 -1       817 1.69687E-02-3.82654E-05-6.92296E-02
 -1       826 2.03674E-02 8.68310E-13-5.85420E-02
 -1       828 1.88544E-02 8.67084E-13-5.86533E-02
 -1       829 1.96109E-02 3.54510E-05-5.85976E-02
 -1       831 1.96109E-02-3.54510E-05-5.85976E-02
 -1       840 2.29066E-02 8.68165E-13-4.62851E-02
 -1       842 2.11885E-02 8.75899E-13-4.63854E-02
 -1       843 2.20476E-02 3.19451E-05-4.63353E-02
 -1       845 2.20476E-02-3.19451E-05-4.63353E-02
 -1       854 2.51883E-02 8.05348E-13-3.25858E-02
 -1       856 2.32923E-02 8.20573E-13-3.26737E-02
 -1       857 2.42403E-02 2.79990E-05-3.26297E-02
 -1       859 2.42403E-02-2.79990E-05-3.26297E-02
 -1       868 2.71823E-02 6.77786E-13-1.76582E-02
 -1       870 2.51369E-02 6.95088E-13-1.77323E-02
 -1       871 2.61596E-02 2.36241E-05-1.76953E-02
 -1       873 2.61596E-02-2.36241E-05-1.76953E-02
 -1       882 2.88679E-02 4.94361E-13-1.73460E-03
 -1       884 2.67050E-02 5.11834E-13-1.79452E-03
 -1       885 2.77865E-02 1.90854E-05-1.76456E-03
 -1       887 2.77865E-02-1.90854E-05-1.76456E-03
 -1       896 3.02366E-02 2.53033E-13 1.49386E-02
 -1       898 2.79879E-02 2.70506E-13 1.48933E-02
 -1       899 2.91123E-02 1.44269E-05 1.49159E-02
 -1       901 2.91123E-02-1.44269E-05 1.49159E-02
 -1       910 3.12909E-02-5.03964E-14 3.21102E-02
 -1       912 2.89896E-02-3.29953E-14 3.20791E-02
 -1       913 3.01402E-02 9.90453E-06 3.20946E-02
 -1       915 3.01402E-02-9.90453E-06 3.20946E-02
 -1       924 3.20475E-02-4.14805E-13 4.95315E-02
 -1       926 2.97234E-02-3.97677E-13 4.95138E-02
 -1       927 3.08855E-02 5.63659E-06 4.95226E-02
 -1       929 3.08855E-02-5.63659E-06 4.95226E-02
 -1       938 3.25310E-02-8.15391E-13 6.69592E-02
 -1       940 3.02171E-02-8.00424E-13 6.69537E-02
 -1       941 3.13740E-02 1.75980E-06 6.69564E-02
 -1       943 3.13740E-02-1.75980E-06 6.69564E-02
 -1       952 3.27873E-02-1.22655E-12 8.41809E-02
 -1       954 3.05020E-02-1.21278E-12 8.41855E-02
 -1       955 3.16446E-02-1.47120E-06 8.41832E-02
 -1       957 3.16446E-02 1.47120E-06 8.41832E-02
 -1       966 3.28602E-02-1.63969E-12 1.00974E-01
 -1       968 3.06442E-02-1.62315E-12 1.00986E-01
 -1       969 3.17522E-02-3.96243E-06 1.00980E-01
 -1       971 3.17522E-02 3.96243E-06 1.00980E-01
 -1       980 0.00000E+00 0.00000E+00-7.01194E-05
 -1       982 0.00000E+00-0.00000E+00 7.01194E-05
 -1       983 3.28246E-02-1.94811E-03 1.23724E-01
 -1       985 3.06447E-02 1.89486E-03 1.23704E-01
 -1       986-3.92974E-03-6.66406E-04-8.19438E-03
 -1       988-1.85524E-03-1.41332E-03-8.10160E-03
 -1       989-5.76733E-03 5.01151E-05-2.09807E-02
 -1       991-4.43357E-03-1.16641E-03-2.08904E-02
 -1       992-7.95961E-03 5.58245E-04-3.25861E-02
 -1       994-6.24250E-03-1.37407E-03-3.25228E-02
 -1       995-9.17154E-03 1.05169E-03-4.55680E-02
 -1       997-7.46245E-03-1.55785E-03-4.55420E-02
 -1       998-9.81805E-03 1.53188E-03-5.83749E-02
 -1      1000-8.14053E-03-1.71882E-03-5.83601E-02
 -1      1001-9.89717E-03 2.00049E-03-7.10032E-02
 -1      1003-8.23814E-03-1.87435E-03-7.10249E-02
 -1      1004-9.36852E-03 2.41283E-03-8.29441E-02
 -1      1006-7.86497E-03-2.01251E-03-8.29775E-02
 -1      1007-8.35788E-03 2.79613E-03-9.38113E-02
 -1      1009-6.98522E-03-2.13004E-03-9.38743E-02
 -1      1010-6.84409E-03 3.11544E-03-1.03288E-01
 -1      1012-5.70416E-03-2.22130E-03-1.03362E-01
 -1      1013-4.93530E-03 3.38201E-03-1.11015E-01
 -1      1015-4.02624E-03-2.28316E-03-1.11111E-01
 -1      1016-2.65330E-03 3.57660E-03-1.16754E-01
 -1      1018-2.03783E-03-2.31028E-03-1.16857E-01
 -1      1019-9.02120E-05 3.70275E-03-1.20247E-01
 -1      1021 2.25212E-04-2.30045E-03-1.20366E-01
 -1      1022 2.70572E-03 3.75042E-03-1.21346E-01
 -1      1024 2.68782E-03-2.25003E-03-1.21468E-01
 -1      1025 5.65166E-03 3.72194E-03-1.19914E-01
 -1      1027 5.29810E-03-2.15813E-03-1.20044E-01
 -1      1028 8.68769E-03 3.61343E-03-1.15906E-01
 -1      1030 7.98811E-03-2.02329E-03-1.16035E-01
 -1      1031 1.17389E-02 3.42903E-03-1.09313E-01
 -1      1033 1.07015E-02-1.84650E-03-1.09443E-01
 -1      1034 1.47447E-02 3.16980E-03-1.00202E-01
 -1      1036 1.33781E-02-1.62862E-03-1.00326E-01
 -1      1037 1.76406E-02 2.84298E-03-8.86811E-02
 -1      1039 1.59655E-02-1.37285E-03-8.88007E-02
 -1      1040 2.03736E-02 2.45397E-03-7.49267E-02
 -1      1042 1.84144E-02-1.08254E-03-7.50357E-02
 -1      1043 2.28935E-02 2.01362E-03-5.91535E-02
 -1      1045 2.06833E-02-7.63199E-04-5.92536E-02
 -1      1046 2.51617E-02 1.53117E-03-4.16306E-02
 -1      1048 2.27372E-02-4.20842E-04-4.17169E-02
 -1      1049 2.71465E-02 1.02135E-03-2.26585E-02
 -1      1051 2.45506E-02-6.32233E-05-2.27331E-02
 -1      1052 2.88284E-02 4.96720E-04-2.57844E-03
 -1      1054 2.61066E-02 3.00306E-04-2.63760E-03
 -1      1055 3.01977E-02-2.36479E-05 1.82489E-02
 -1      1057 2.73994E-02 6.60418E-04 1.82026E-02
 -1      1058 3.12565E-02-5.24842E-04 3.94339E-02
 -1      1060 2.84335E-02 1.00222E-03 3.94027E-02
 -1      1061 3.20219E-02-9.81041E-04 6.05865E-02
 -1      1063 2.92240E-02 1.31783E-03 6.05671E-02
 -1      1064 3.25109E-02-1.37949E-03 8.12805E-02
 -1      1066 2.97991E-02 1.57988E-03 8.12742E-02
 -1      1067 3.27897E-02-1.68335E-03 1.01147E-01
 -1      1069 3.01964E-02 1.78804E-03 1.01149E-01
 -1      1070 3.28410E-02-1.87136E-03 1.19668E-01
 -1      1072 3.04732E-02 1.92033E-03 1.19679E-01
 -1      1073 0.00000E+00 0.00000E+00-7.01194E-05
 -1      1075 0.00000E+00-0.00000E+00 7.01194E-05
 -1      1076 0.00000E+00-2.36505E-05 0.00000E+00
 -1      1078 0.00000E+00 2.36505E-05 0.00000E+00
 -1      1079 0.00000E+00 4.33410E-17 0.00000E+00
 -1      1081 0.00000E+00-4.33410E-17 0.00000E+00
 -1      1082 0.00000E+00 2.36505E-05 0.00000E+00
 -1      1084 0.00000E+00-2.36505E-05 0.00000E+00
 -1      1085 3.40149E-03 4.26564E-05-6.65126E-03
 -1      1087 3.40149E-03-4.26564E-05-6.65126E-03
 -1      1088 4.20653E-03-2.38104E-14-6.71822E-03
 -1      1090 2.59645E-03-2.42323E-14-6.58430E-03
 -1      1099 5.93826E-03 2.23403E-05-1.52483E-02
 -1      1101 5.93826E-03-2.23403E-05-1.52483E-02
 -1      1102 6.31450E-03-8.75544E-14-1.52834E-02
 -1      1104 5.56203E-03-8.83457E-14-1.52133E-02
 -1      1113 7.80231E-03 2.07630E-05-2.39757E-02
 -1      1115 7.80231E-03-2.07630E-05-2.39757E-02
 -1      1116 8.53425E-03-1.84257E-13-2.40083E-02
 -1      1118 7.07037E-03-1.82717E-13-2.39431E-02
 -1      1127 9.00859E-03 9.38527E-06-3.37642E-02
 -1      1129 9.00859E-03-9.38527E-06-3.37642E-02
 -1      1130 9.58523E-03-3.28587E-13-3.37789E-02
 -1      1132 8.43195E-03-3.22598E-13-3.37495E-02
 -1      1141 9.64933E-03 2.59142E-06-4.35819E-02
 -1      1143 9.64933E-03-2.59142E-06-4.35819E-02
 -1      1144 1.03487E-02-5.13475E-13-4.35859E-02
 -1      1146 8.94991E-03-5.00901E-13-4.35778E-02
 -1      1155 9.69191E-03-5.54873E-06-5.34217E-02
 -1      1157 9.69191E-03 5.54873E-06-5.34217E-02
 -1      1158 1.02987E-02-7.17632E-13-5.34129E-02
 -1      1160 9.08516E-03-6.95842E-13-5.34304E-02
 -1      1169 9.19725E-03-1.27089E-05-6.27486E-02
 -1      1171 9.19725E-03 1.27089E-05-6.27486E-02
 -1      1172 9.81354E-03-9.21953E-13-6.27286E-02
 -1      1174 8.58096E-03-8.90202E-13-6.27685E-02
 -1      1183 8.19575E-03-1.91212E-05-7.13519E-02
 -1      1185 8.19575E-03 1.91212E-05-7.13519E-02
 -1      1186 8.71944E-03-1.09314E-12-7.13219E-02
 -1      1188 7.67206E-03-1.05394E-12-7.13819E-02
 -1      1197 6.73895E-03-2.52388E-05-7.88736E-02
 -1      1199 6.73895E-03 2.52388E-05-7.88736E-02
 -1      1200 7.20589E-03-1.21035E-12-7.88340E-02
 -1      1202 6.27202E-03-1.16619E-12-7.89132E-02
 -1      1211 4.87823E-03-3.01017E-05-8.50929E-02
 -1      1213 4.87823E-03 3.01017E-05-8.50929E-02
 -1      1214 5.23587E-03-1.27921E-12-8.50456E-02
 -1      1216 4.52059E-03-1.23184E-12-8.51401E-02
 -1      1225 2.67329E-03-3.45600E-05-8.97588E-02
 -1      1227 2.67329E-03 3.45600E-05-8.97588E-02
 -1      1228 2.93244E-03-1.30154E-12-8.97045E-02
 -1      1230 2.41414E-03-1.25129E-12-8.98130E-02
 -1      1239 1.85891E-04-3.77261E-05-9.27032E-02
 -1      1241 1.85891E-04 3.77261E-05-9.27032E-02
 -1      1242 3.19152E-04-1.26461E-12-9.26440E-02
 -1      1244 5.26287E-05-1.21187E-12-9.27624E-02
 -1      1253-2.51800E-03-4.02704E-05-9.37721E-02
 -1      1255-2.51800E-03 4.02704E-05-9.37721E-02
 -1      1256-2.50748E-03-1.14541E-12-9.37089E-02
 -1      1258-2.52852E-03-1.09283E-12-9.38353E-02
 -1      1267-5.37179E-03-4.16047E-05-9.28754E-02
 -1      1269-5.37179E-03 4.16047E-05-9.28754E-02
 -1      1270-5.49656E-03-9.40080E-13-9.28101E-02
 -1      1272-5.24701E-03-8.88263E-13-9.29407E-02
 -1      1281-8.30806E-03-4.21867E-05-8.99556E-02
 -1      1283-8.30806E-03 4.21867E-05-8.99556E-02
 -1      1284-8.56500E-03-6.73137E-13-8.98893E-02
 -1      1286-8.05111E-03-6.25602E-13-9.00218E-02
 -1      1295-1.12611E-02-4.16887E-05-8.50097E-02
 -1      1297-1.12611E-02 4.16887E-05-8.50097E-02
 -1      1298-1.16527E-02-3.67450E-13-8.49442E-02
 -1      1300-1.08695E-02-3.30755E-13-8.50751E-02
 -1      1309-1.41676E-02-4.04311E-05-7.80734E-02
 -1      1311-1.41676E-02 4.04311E-05-7.80734E-02
 -1      1312-1.46876E-02-3.88209E-14-7.80100E-02
 -1      1314-1.36477E-02-1.40951E-14-7.81369E-02
 -1      1323-1.69687E-02-3.82654E-05-6.92296E-02
 -1      1325-1.69687E-02 3.82654E-05-6.92296E-02
 -1      1326-1.76120E-02 2.92315E-13-6.91695E-02
 -1      1328-1.63254E-02 3.05835E-13-6.92896E-02
 -1      1337-1.96109E-02-3.54510E-05-5.85976E-02
 -1      1339-1.96109E-02 3.54510E-05-5.85976E-02
 -1      1340-2.03674E-02 5.97034E-13-5.85420E-02
 -1      1342-1.88544E-02 5.99731E-13-5.86533E-02
 -1      1351-2.20476E-02-3.19451E-05-4.63353E-02
 -1      1353-2.20476E-02 3.19451E-05-4.63353E-02
 -1      1354-2.29066E-02 8.56403E-13-4.62851E-02
 -1      1356-2.11885E-02 8.55929E-13-4.63854E-02
 -1      1365-2.42403E-02-2.79990E-05-3.26297E-02
 -1      1367-2.42403E-02 2.79990E-05-3.26297E-02
 -1      1368-2.51883E-02 1.04612E-12-3.25858E-02
 -1      1370-2.32923E-02 1.04504E-12-3.26737E-02
 -1      1379-2.61596E-02-2.36241E-05-1.76953E-02
 -1      1381-2.61596E-02 2.36241E-05-1.76953E-02
 -1      1382-2.71823E-02 1.13641E-12-1.76582E-02
 -1      1384-2.51369E-02 1.13007E-12-1.77323E-02
 -1      1393-2.77865E-02-1.90854E-05-1.76456E-03
 -1      1395-2.77865E-02 1.90854E-05-1.76456E-03
 -1      1396-2.88679E-02 1.13128E-12-1.73460E-03
 -1      1398-2.67050E-02 1.11522E-12-1.79452E-03
 -1      1407-2.91123E-02-1.44269E-05 1.49159E-02
 -1      1409-2.91123E-02 1.44269E-05 1.49159E-02
 -1      1410-3.02366E-02 1.04073E-12 1.49386E-02
 -1      1412-2.79879E-02 1.02111E-12 1.48933E-02
 -1      1421-3.01402E-02-9.90453E-06 3.20946E-02
 -1      1423-3.01402E-02 9.90453E-06 3.20946E-02
 -1      1424-3.12909E-02 8.63962E-13 3.21102E-02
 -1      1426-2.89896E-02 8.42104E-13 3.20791E-02
 -1      1435-3.08855E-02-5.63659E-06 4.95226E-02
 -1      1437-3.08855E-02 5.63659E-06 4.95226E-02
 -1      1438-3.20475E-02 5.99269E-13 4.95315E-02
 -1      1440-2.97234E-02 5.71596E-13 4.95138E-02
 -1      1449-3.13740E-02-1.75980E-06 6.69564E-02
 -1      1451-3.13740E-02 1.75980E-06 6.69564E-02
 -1      1452-3.25310E-02 2.61516E-13 6.69592E-02
 -1      1454-3.02171E-02 2.26938E-13 6.69537E-02
 -1      1463-3.16446E-02 1.47120E-06 8.41832E-02
 -1      1465-3.16446E-02-1.47120E-06 8.41832E-02
 -1      1466-3.27873E-02-1.25065E-13 8.41809E-02
 -1      1468-3.05020E-02-1.62245E-13 8.41855E-02
 -1      1477-3.17522E-02 3.96243E-06 1.00980E-01
 -1      1479-3.17522E-02-3.96243E-06 1.00980E-01
 -1      1480-3.28602E-02-5.20277E-13 1.00974E-01
 -1      1482-3.06442E-02-5.59038E-13 1.00986E-01
 -1      1491 1.59095E-02-2.40939E-06 1.16981E-01
 -1      1493 1.59095E-02 2.40939E-06 1.16981E-01
 -1      1494-8.07657E-14-1.70280E-12 1.16895E-01
 -1      1496-4.40342E-14-1.70154E-12 1.16895E-01
 -1      1497-1.59095E-02 2.40939E-06 1.16981E-01
 -1      1499-1.59095E-02-2.40939E-06 1.16981E-01
 -1      1500 3.92974E-03 6.66406E-04-8.19438E-03
 -1      1502 1.85524E-03 1.41332E-03-8.10160E-03
 -1      1503 5.76733E-03-5.01151E-05-2.09807E-02
 -1      1505 4.43357E-03 1.16641E-03-2.08904E-02
 -1      1506 7.95961E-03-5.58245E-04-3.25861E-02
 -1      1508 6.24250E-03 1.37407E-03-3.25228E-02
 -1      1509 9.17154E-03-1.05169E-03-4.55680E-02
 -1      1511 7.46245E-03 1.55785E-03-4.55420E-02
 -1      1512 9.81805E-03-1.53188E-03-5.83749E-02
 -1      1514 8.14053E-03 1.71882E-03-5.83601E-02
 -1      1515 9.89717E-03-2.00049E-03-7.10032E-02
 -1      1517 8.23814E-03 1.87435E-03-7.10249E-02
 -1      1518 9.36852E-03-2.41283E-03-8.29441E-02
 -1      1520 7.86497E-03 2.01251E-03-8.29775E-02
 -1      1521 8.35788E-03-2.79613E-03-9.38113E-02
 -1      1523 6.98522E-03 2.13004E-03-9.38743E-02
 -1      1524 6.84409E-03-3.11544E-03-1.03288E-01
 -1      1526 5.70416E-03 2.22130E-03-1.03362E-01
 -1      1527 4.93530E-03-3.38201E-03-1.11015E-01
 -1      1529 4.02624E-03 2.28316E-03-1.11111E-01
 -1      1530 2.65330E-03-3.57660E-03-1.16754E-01
 -1      1532 2.03783E-03 2.31028E-03-1.16857E-01
 -1      1533 9.02120E-05-3.70275E-03-1.20247E-01
 -1      1535-2.25212E-04 2.30045E-03-1.20366E-01
 -1      1536-2.70572E-03-3.75042E-03-1.21346E-01
 -1      1538-2.68782E-03 2.25003E-03-1.21468E-01
 -1      1539-5.65166E-03-3.72194E-03-1.19914E-01
 -1      1541-5.29810E-03 2.15813E-03-1.20044E-01
 -1      1542-8.68769E-03-3.61343E-03-1.15906E-01
 -1      1544-7.98811E-03 2.02329E-03-1.16035E-01
 -1      1545-1.17389E-02-3.42903E-03-1.09313E-01
 -1      1547-1.07015E-02 1.84650E-03-1.09443E-01
 -1      1548-1.47447E-02-3.16980E-03-1.00202E-01
 -1      1550-1.33781E-02 1.62862E-03-1.00326E-01
 -1      1551-1.76406E-02-2.84298E-03-8.86811E-02
 -1      1553-1.59655E-02 1.37285E-03-8.88007E-02
 -1      1554-2.03736E-02-2.45397E-03-7.49267E-02
 -1      1556-1.84144E-02 1.08254E-03-7.50357E-02
 -1      1557-2.28935E-02-2.01362E-03-5.91535E-02
 -1      1559-2.06833E-02 7.63199E-04-5.92536E-02
 -1      1560-2.51617E-02-1.53117E-03-4.16306E-02
 -1      1562-2.27372E-02 4.20842E-04-4.17169E-02
 -1      1563-2.71465E-02-1.02135E-03-2.26585E-02
 -1      1565-2.45506E-02 6.32233E-05-2.27331E-02
 -1      1566-2.88284E-02-4.96720E-04-2.57844E-03
 -1      1568-2.61066E-02-3.00306E-04-2.63760E-03
 -1      1569-3.01977E-02 2.36479E-05 1.82489E-02
 -1      1571-2.73994E-02-6.60418E-04 1.82026E-02
 -1      1572-3.12565E-02 5.24842E-04 3.94339E-02
 -1      1574-2.84335E-02-1.00222E-03 3.94027E-02
 -1      1575-3.20219E-02 9.81041E-04 6.05865E-02
 -1      1577-2.92240E-02-1.31783E-03 6.05671E-02
 -1      1578-3.25109E-02 1.37949E-03 8.12805E-02
 -1      1580-2.97991E-02-1.57988E-03 8.12742E-02
 -1      1581-3.27897E-02 1.68335E-03 1.01147E-01
 -1      1583-3.01964E-02-1.78804E-03 1.01149E-01
 -1      1584-3.28410E-02 1.87136E-03 1.19668E-01
 -1      1586-3.04732E-02-1.92033E-03 1.19679E-01
 -1      1587-3.28246E-02 1.94811E-03 1.23724E-01
 -1      1589-3.06447E-02-1.89486E-03 1.23704E-01
 -1      1590 0.00000E+00 0.00000E+00-7.01194E-05
 -1      1592 0.00000E+00 0.00000E+00 7.01194E-05
 -1      1593-3.28246E-02-1.94811E-03 1.23724E-01
 -1      1595-3.06447E-02 1.89486E-03 1.23704E-01
 -1      1596 3.92974E-03-6.66406E-04-8.19438E-03
 -1      1598 1.85524E-03-1.41332E-03-8.10160E-03
 -1      1599 5.76733E-03 5.01151E-05-2.09807E-02
 -1      1601 4.43357E-03-1.16641E-03-2.08904E-02
 -1      1602 7.95961E-03 5.58245E-04-3.25861E-02
 -1      1604 6.24250E-03-1.37407E-03-3.25228E-02
 -1      1605 9.17154E-03 1.05169E-03-4.55680E-02
 -1      1607 7.46245E-03-1.55785E-03-4.55420E-02
 -1      1608 9.81805E-03 1.53188E-03-5.83749E-02
 -1      1610 8.14053E-03-1.71882E-03-5.83601E-02
 -1      1611 9.89717E-03 2.00049E-03-7.10032E-02
 -1      1613 8.23814E-03-1.87435E-03-7.10249E-02
 -1      1614 9.36852E-03 2.41283E-03-8.29441E-02
 -1      1616 7.86497E-03-2.01251E-03-8.29775E-02
 -1      1617 8.35788E-03 2.79613E-03-9.38113E-02
 -1      1619 6.98522E-03-2.13004E-03-9.38743E-02
 -1      1620 6.84409E-03 3.11544E-03-1.03288E-01
 -1      1622 5.70416E-03-2.22130E-03-1.03362E-01
 -1      1623 4.93530E-03 3.38201E-03-1.11015E-01
 -1      1625 4.02624E-03-2.28316E-03-1.11111E-01
 -1      1626 2.65330E-03 3.57660E-03-1.16754E-01
 -1      1628 2.03783E-03-2.31028E-03-1.16857E-01
 -1      1629 9.02120E-05 3.70275E-03-1.20247E-01
 -1      1631-2.25212E-04-2.30045E-03-1.20366E-01
 -1      1632-2.70572E-03 3.75042E-03-1.21346E-01
 -1      1634-2.68782E-03-2.25003E-03-1.21468E-01
 -1      1635-5.65166E-03 3.72194E-03-1.19914E-01
 -1      1637-5.29810E-03-2.15813E-03-1.20044E-01
 -1      1638-8.68769E-03 3.61343E-03-1.15906E-01
 -1      1640-7.98811E-03-2.02329E-03-1.16035E-01
 -1      1641-1.17389E-02 3.42903E-03-1.09313E-01
 -1      1643-1.07015E-02-1.84650E-03-1.09443E-01
 -1      1644-1.47447E-02 3.16980E-03-1.00202E-01
 -1      1646-1.33781E-02-1.62862E-03-1.00326E-01
 -1      1647-1.76406E-02 2.84298E-03-8.86811E-02
 -1      1649-1.59655E-02-1.37285E-03-8.88007E-02
 -1      1650-2.03736E-02 2.45397E-03-7.49267E-02
 -1      1652-1.84144E-02-1.08254E-03-7.50357E-02
 -1      1653-2.28935E-02 2.01362E-03-5.91535E-02
 -1      1655-2.06833E-02-7.63199E-04-5.92536E-02
 -1      1656-2.51617E-02 1.53117E-03-4.16306E-02
 -1      1658-2.27372E-02-4.20842E-04-4.17169E-02
 -1      1659-2.71465E-02 1.02135E-03-2.26585E-02
 -1      1661-2.45506E-02-6.32233E-05-2.27331E-02
 -1      1662-2.88284E-02 4.96720E-04-2.57844E-03
 -1      1664-2.61066E-02 3.00306E-04-2.63760E-03
 -1      1665-3.01977E-02-2.36479E-05 1.82489E-02
 -1      1667-2.73994E-02 6.60418E-04 1.82026E-02
 -1      1668-3.12565E-02-5.24842E-04 3.94339E-02
 -1      1670-2.84335E-02 1.00222E-03 3.94027E-02
 -1      1671-3.20219E-02-9.81041E-04 6.05865E-02
 -1      1673-2.92240E-02 1.31783E-03 6.05671E-02
 -1      1674-3.25109E-02-1.37949E-03 8.12805E-02
 -1      1676-2.97991E-02 1.57988E-03 8.12742E-02
 -1      1677-3.27897E-02-1.68335E-03 1.01147E-01
 -1      1679-3.01964E-02 1.78804E-03 1.01149E-01
 -1      1680-3.28410E-02-1.87136E-03 1.19668E-01
 -1      1682-3.04732E-02 1.92033E-03 1.19679E-01
 -1      1683 0.00000E+00 0.00000E+00-7.01194E-05
 -1      1685 0.00000E+00 0.00000E+00 7.01194E-05
 -1      1686-3.74000E-03 4.59967E-04-6.75164E-03
 -1      1688-1.89772E-03 5.62418E-04-6.65447E-03
 -1      1689-6.01581E-03-2.14625E-04-1.71977E-02
 -1      1691-4.97270E-03 8.50306E-04-1.71092E-02
 -1      1692-8.05399E-03-6.37797E-04-2.66392E-02
 -1      1694-6.46350E-03 9.84428E-04-2.65692E-02
 -1      1695-9.25828E-03-9.62075E-04-3.75582E-02
 -1      1697-7.82710E-03 1.24370E-03-3.75161E-02
 -1      1698-9.94658E-03-1.36744E-03-4.82611E-02
 -1      1700-8.40840E-03 1.43999E-03-4.82387E-02
 -1      1701-9.97597E-03-1.68865E-03-5.90245E-02
 -1      1703-8.53970E-03 1.62850E-03-5.90255E-02
 -1      1704-9.47603E-03-2.02415E-03-6.91639E-02
 -1      1706-8.10796E-03 1.81212E-03-6.91820E-02
 -1      1707-8.43531E-03-2.29911E-03-7.85036E-02
 -1      1709-7.22529E-03 1.96142E-03-7.85425E-02
 -1      1710-6.93318E-03-2.55140E-03-8.66443E-02
 -1      1712-5.89627E-03 2.09383E-03-8.66966E-02
 -1      1713-5.00703E-03-2.74525E-03-9.33529E-02
 -1      1715-4.19486E-03 2.18785E-03-9.34220E-02
 -1      1716-2.72808E-03-2.89430E-03-9.83621E-02
 -1      1718-2.16119E-03 2.25060E-03-9.84408E-02
 -1      1719-1.54423E-04-2.98176E-03-1.01488E-01
 -1      1721 1.36551E-04 2.27113E-03-1.01578E-01
 -1      1722 2.64214E-03-3.01203E-03-1.02569E-01
 -1      1724 2.64371E-03 2.25129E-03-1.02665E-01
 -1      1725 5.59487E-03-2.97828E-03-1.01506E-01
 -1      1727 5.29331E-03 2.18662E-03-1.01608E-01
 -1      1728 8.63268E-03-2.88280E-03-9.82414E-02
 -1      1730 8.02594E-03 2.07778E-03-9.83448E-02
 -1      1731 1.16883E-02-2.72480E-03-9.27722E-02
 -1      1733 1.07780E-02 1.92452E-03-9.28772E-02
 -1      1734 1.46958E-02-2.50750E-03-8.51428E-02
 -1      1736 1.34925E-02 1.72832E-03-8.52448E-02
 -1      1737 1.75944E-02-2.23453E-03-7.54444E-02
 -1      1739 1.61136E-02 1.49214E-03-7.55436E-02
 -1      1740 2.03285E-02-1.91125E-03-6.38140E-02
 -1      1742 1.85925E-02 1.21903E-03-6.39067E-02
 -1      1743 2.28499E-02-1.54494E-03-5.04269E-02
 -1      1745 2.08857E-02 9.14916E-04-5.05133E-02
 -1      1746 2.51186E-02-1.14334E-03-3.54962E-02
 -1      1748 2.29584E-02 5.84378E-04-3.55738E-02
 -1      1749 2.71042E-02-7.17149E-04-1.92626E-02
 -1      1751 2.47835E-02 2.36542E-04-1.93319E-02
 -1      1752 2.87864E-02-2.76313E-04-1.99322E-03
 -1      1754 2.63440E-02-1.23014E-04-2.05268E-03
 -1      1755 3.01565E-02 1.65123E-04 1.60313E-02
 -1      1757 2.76330E-02-4.81031E-04 1.59807E-02
 -1      1758 3.12169E-02 5.95215E-04 3.45145E-02
 -1      1760 2.86548E-02-8.31902E-04 3.44732E-02
 -1      1761 3.19836E-02 9.95848E-04 5.31681E-02
 -1      1763 2.94226E-02-1.15699E-03 5.31347E-02
 -1      1764 3.24818E-02 1.35339E-03 7.16842E-02
 -1      1766 2.99689E-02-1.44984E-03 7.16572E-02
 -1      1767 3.27539E-02 1.64727E-03 8.98146E-02
 -1      1769 3.03146E-02-1.68402E-03 8.97932E-02
 -1      1770 3.28410E-02 1.83158E-03 1.07204E-01
 -1      1772 3.05491E-02-1.86267E-03 1.07186E-01
 -1      1773-3.74000E-03-4.59967E-04-6.75164E-03
 -1      1775-1.89772E-03-5.62418E-04-6.65447E-03
 -1      1776-6.01581E-03 2.14625E-04-1.71977E-02
 -1      1778-4.97270E-03-8.50306E-04-1.71092E-02
 -1      1779-8.05399E-03 6.37797E-04-2.66392E-02
 -1      1781-6.46350E-03-9.84428E-04-2.65692E-02
 -1      1782-9.25828E-03 9.62075E-04-3.75582E-02
 -1      1784-7.82710E-03-1.24370E-03-3.75161E-02
 -1      1785-9.94658E-03 1.36744E-03-4.82611E-02
 -1      1787-8.40840E-03-1.43999E-03-4.82387E-02
 -1      1788-9.97597E-03 1.68865E-03-5.90245E-02
 -1      1790-8.53970E-03-1.62850E-03-5.90255E-02
 -1      1791-9.47603E-03 2.02415E-03-6.91639E-02
 -1      1793-8.10796E-03-1.81212E-03-6.91820E-02
 -1      1794-8.43531E-03 2.29911E-03-7.85036E-02
 -1      1796-7.22529E-03-1.96142E-03-7.85425E-02
 -1      1797-6.93318E-03 2.55140E-03-8.66443E-02
 -1      1799-5.89627E-03-2.09383E-03-8.66966E-02
 -1      1800-5.00703E-03 2.74525E-03-9.33529E-02
 -1      1802-4.19486E-03-2.18785E-03-9.34220E-02
 -1      1803-2.72808E-03 2.89430E-03-9.83621E-02
 -1      1805-2.16119E-03-2.25060E-03-9.84408E-02
 -1      1806-1.54423E-04 2.98176E-03-1.01488E-01
 -1      1808 1.36551E-04-2.27113E-03-1.01578E-01
 -1      1809 2.64214E-03 3.01203E-03-1.02569E-01
 -1      1811 2.64371E-03-2.25129E-03-1.02665E-01
 -1      1812 5.59487E-03 2.97828E-03-1.01506E-01
 -1      1814 5.29331E-03-2.18662E-03-1.01608E-01
 -1      1815 8.63268E-03 2.88280E-03-9.82414E-02
 -1      1817 8.02594E-03-2.07778E-03-9.83448E-02
 -1      1818 1.16883E-02 2.72480E-03-9.27722E-02
 -1      1820 1.07780E-02-1.92452E-03-9.28772E-02
 -1      1821 1.46958E-02 2.50750E-03-8.51428E-02
 -1      1823 1.34925E-02-1.72832E-03-8.52448E-02
 -1      1824 1.75944E-02 2.23453E-03-7.54444E-02
 -1      1826 1.61136E-02-1.49214E-03-7.55436E-02
 -1      1827 2.03285E-02 1.91125E-03-6.38140E-02
 -1      1829 1.85925E-02-1.21903E-03-6.39067E-02
 -1      1830 2.28499E-02 1.54494E-03-5.04269E-02
 -1      1832 2.08857E-02-9.14916E-04-5.05133E-02
 -1      1833 2.51186E-02 1.14334E-03-3.54962E-02
 -1      1835 2.29584E-02-5.84378E-04-3.55738E-02
 -1      1836 2.71042E-02 7.17149E-04-1.92626E-02
 -1      1838 2.47835E-02-2.36542E-04-1.93319E-02
 -1      1839 2.87864E-02 2.76313E-04-1.99322E-03
 -1      1841 2.63440E-02 1.23014E-04-2.05268E-03
 -1      1842 3.01565E-02-1.65123E-04 1.60313E-02
 -1      1844 2.76330E-02 4.81031E-04 1.59807E-02
 -1      1845 3.12169E-02-5.95215E-04 3.45145E-02
 -1      1847 2.86548E-02 8.31902E-04 3.44732E-02
 -1      1848 3.19836E-02-9.95848E-04 5.31681E-02
 -1      1850 2.94226E-02 1.15699E-03 5.31347E-02
 -1      1851 3.24818E-02-1.35339E-03 7.16842E-02
 -1      1853 2.99689E-02 1.44984E-03 7.16572E-02
 -1      1854 3.27539E-02-1.64727E-03 8.98146E-02
 -1      1856 3.03146E-02 1.68402E-03 8.97932E-02
 -1      1857 3.28410E-02-1.83158E-03 1.07204E-01
 -1      1859 3.05491E-02 1.86267E-03 1.07186E-01
 -1      1860-1.24826E-03-2.12414E-05-6.29003E-03
 -1      1862-1.24826E-03 2.12414E-05-6.29003E-03
 -1      1863-2.52734E-03-1.51010E-05-1.45294E-02
 -1      1865-2.52734E-03 1.51010E-05-1.45294E-02
 -1      1866-3.52226E-03-8.75719E-06-2.36617E-02
 -1      1868-3.52226E-03 8.75719E-06-2.36617E-02
 -1      1869-4.15227E-03-5.24248E-06-3.34312E-02
 -1      1871-4.15227E-03 5.24248E-06-3.34312E-02
 -1      1872-4.48561E-03-1.06388E-06-4.34372E-02
 -1      1874-4.48561E-03 1.06388E-06-4.34372E-02
 -1      1875-4.52839E-03 2.97761E-06-5.33421E-02
 -1      1877-4.52839E-03-2.97761E-06-5.33421E-02
 -1      1878-4.30496E-03 6.38517E-06-6.27907E-02
 -1      1880-4.30496E-03-6.38517E-06-6.27907E-02
 -1      1881-3.83173E-03 9.94274E-06-7.14699E-02
 -1      1883-3.83173E-03-9.94274E-06-7.14699E-02
 -1      1884-3.13455E-03 1.27170E-05-7.90815E-02
 -1      1886-3.13455E-03-1.27170E-05-7.90815E-02
 -1      1887-2.23816E-03 1.54577E-05-8.53662E-02
 -1      1889-2.23816E-03-1.54577E-05-8.53662E-02
 -1      1890-1.17210E-03 1.74782E-05-9.00968E-02
 -1      1892-1.17210E-03-1.74782E-05-9.00968E-02
 -1      1893 3.35993E-05 1.92588E-05-9.30887E-02
 -1      1895 3.35993E-05-1.92588E-05-9.30887E-02
 -1      1896 1.34663E-03 2.04011E-05-9.41986E-02
 -1      1898 1.34663E-03-2.04011E-05-9.41986E-02
 -1      1899 2.73454E-03 2.11741E-05-9.33290E-02
 -1      1901 2.73454E-03-2.11741E-05-9.33290E-02
 -1      1902 4.16443E-03 2.13826E-05-9.04275E-02
 -1      1904 4.16443E-03-2.13826E-05-9.04275E-02
 -1      1905 5.60431E-03 2.11785E-05-8.54884E-02
 -1      1907 5.60431E-03-2.11785E-05-8.54884E-02
 -1      1908 7.02336E-03 2.04864E-05-7.85503E-02
 -1      1910 7.02336E-03-2.04864E-05-7.85503E-02
 -1      1911 8.39295E-03 1.94133E-05-6.96953E-02
 -1      1913 8.39295E-03-1.94133E-05-6.96953E-02
 -1      1914 9.68706E-03 1.79423E-05-5.90452E-02
 -1      1916 9.68706E-03-1.79423E-05-5.90452E-02
 -1      1917 1.08832E-02 1.61831E-05-4.67582E-02
 -1      1919 1.08832E-02-1.61831E-05-4.67582E-02
 -1      1920 1.19626E-02 1.41357E-05-3.30236E-02
 -1      1922 1.19626E-02-1.41357E-05-3.30236E-02
 -1      1923 1.29113E-02 1.19381E-05-1.80569E-02
 -1      1925 1.29113E-02-1.19381E-05-1.80569E-02
 -1      1926 1.37200E-02 9.58295E-06-2.09308E-03
 -1      1928 1.37200E-02-9.58295E-06-2.09308E-03
 -1      1929 1.43850E-02 7.24141E-06 1.46198E-02
 -1      1931 1.43850E-02-7.24141E-06 1.46198E-02
 -1      1932 1.49079E-02 4.89926E-06 3.18282E-02
 -1      1934 1.49079E-02-4.89926E-06 3.18282E-02
 -1      1935 1.52967E-02 2.73051E-06 4.92799E-02
 -1      1937 1.52967E-02-2.73051E-06 4.92799E-02
 -1      1938 1.55651E-02 7.52365E-07 6.67325E-02
 -1      1940 1.55651E-02-7.52366E-07 6.67325E-02
 -1      1941 1.57366E-02-9.12982E-07 8.39600E-02
 -1      1943 1.57366E-02 9.12980E-07 8.39600E-02
 -1      1944 1.58407E-02-1.89121E-06 1.00760E-01
 -1      1946 1.58407E-02 1.89121E-06 1.00760E-01
 -1      1947-4.37953E-15-3.08364E-14-6.22776E-03
 -1      1949 9.35883E-16-3.08052E-14-6.22776E-03
 -1      1950-7.28481E-15-6.82093E-14-1.43135E-02
 -1      1952-6.22506E-15-6.81330E-14-1.43135E-02
 -1      1953-1.36163E-14-1.11102E-13-2.35207E-02
 -1      1955-7.93658E-15-1.10943E-13-2.35207E-02
 -1      1956-1.79839E-14-2.18124E-13-3.33298E-02
 -1      1958-5.66279E-15-2.17881E-13-3.33298E-02
 -1      1959-1.76196E-14-3.67470E-13-4.33769E-02
 -1      1961-4.61046E-15-3.67387E-13-4.33769E-02
 -1      1962-1.72202E-14-5.22749E-13-5.33135E-02
 -1      1964-3.82029E-15-5.22790E-13-5.33135E-02
 -1      1965-1.94801E-14-6.85119E-13-6.27954E-02
 -1      1967-5.21068E-15-6.85341E-13-6.27954E-02
 -1      1968-2.04342E-14-8.16791E-13-7.15028E-02
 -1      1970-1.20105E-14-8.16375E-13-7.15028E-02
 -1      1971-1.96852E-14-8.84376E-13-7.91409E-02
 -1      1973-1.65377E-14-8.84848E-13-7.91409E-02
 -1      1974-1.80168E-14-9.12340E-13-8.54483E-02
 -1      1976-1.64213E-14-9.12409E-13-8.54483E-02
 -1      1977-1.53480E-14-9.17454E-13-9.01988E-02
 -1      1979-1.57209E-14-9.17939E-13-9.01988E-02
 -1      1980-1.48284E-14-9.09585E-13-9.32070E-02
 -1      1982-1.52014E-14-9.09120E-13-9.32070E-02
 -1      1983-1.11213E-14-8.47829E-13-9.43298E-02
 -1      1985-2.08861E-14-8.47288E-13-9.43298E-02
 -1      1986-6.45664E-15-6.69565E-13-9.34697E-02
 -1      1988-2.72577E-14-6.69364E-13-9.34697E-02
 -1      1989-5.91541E-15-4.16760E-13-9.05744E-02
 -1      1991-2.88086E-14-4.16504E-13-9.05744E-02
 -1      1992-7.03257E-15-1.36571E-13-8.56383E-02
 -1      1994-3.23526E-14-1.36086E-13-8.56383E-02
 -1      1995-1.21101E-14 1.51740E-13-7.87003E-02
 -1      1997-3.62575E-14 1.51712E-13-7.87003E-02
 -1      1998-1.79561E-14 4.02414E-13-6.98426E-02
 -1      2000-3.70797E-14 4.02595E-13-6.98426E-02
 -1      2001-2.04003E-14 5.91601E-13-5.91876E-02
 -1      2003-3.38340E-14 5.91956E-13-5.91876E-02
 -1      2004-1.82753E-14 7.44450E-13-4.68938E-02
 -1      2006-3.14280E-14 7.44557E-13-4.68938E-02
 -1      2007-2.25948E-14 8.40154E-13-3.31510E-02
 -1      2009-2.63435E-14 8.41157E-13-3.31510E-02
 -1      2010-3.09232E-14 8.16000E-13-1.81752E-02
 -1      2012-2.27388E-14 8.16097E-13-1.81752E-02
 -1      2013-3.79002E-14 6.99649E-13-2.20211E-03
 -1      2015-2.57069E-14 7.00426E-13-2.20211E-03
 -1      2016-4.72226E-14 5.40547E-13 1.45198E-02
 -1      2018-3.13759E-14 5.40207E-13 1.45198E-02
 -1      2019-5.89494E-14 3.05499E-13 3.17360E-02
 -1      2021-3.42296E-14 3.06186E-13 3.17360E-02
 -1      2022-6.79756E-14-2.56826E-14 4.91939E-02
 -1      2024-3.54647E-14-2.48222E-14 4.91939E-02
 -1      2025-7.32613E-14-4.25538E-13 6.66495E-02
 -1      2027-3.60971E-14-4.27224E-13 6.66495E-02
 -1      2028-7.66799E-14-8.60083E-13 8.38754E-02
 -1      2030-3.89059E-14-8.59715E-13 8.38754E-02
 -1      2031-7.80129E-14-1.28311E-12 1.00672E-01
 -1      2033-4.28594E-14-1.28401E-12 1.00672E-01
 -1      2034 1.24826E-03 2.12414E-05-6.29003E-03
 -1      2036 1.24826E-03-2.12414E-05-6.29003E-03
 -1      2037 2.52734E-03 1.51010E-05-1.45294E-02
 -1      2039 2.52734E-03-1.51010E-05-1.45294E-02
 -1      2040 3.52226E-03 8.75719E-06-2.36617E-02
 -1      2042 3.52226E-03-8.75719E-06-2.36617E-02
 -1      2043 4.15227E-03 5.24248E-06-3.34312E-02
 -1      2045 4.15227E-03-5.24248E-06-3.34312E-02
 -1      2046 4.48561E-03 1.06388E-06-4.34372E-02
 -1      2048 4.48561E-03-1.06388E-06-4.34372E-02
 -1      2049 4.52839E-03-2.97761E-06-5.33421E-02
 -1      2051 4.52839E-03 2.97761E-06-5.33421E-02
 -1      2052 4.30496E-03-6.38517E-06-6.27907E-02
 -1      2054 4.30496E-03 6.38517E-06-6.27907E-02
 -1      2055 3.83173E-03-9.94274E-06-7.14699E-02
 -1      2057 3.83173E-03 9.94274E-06-7.14699E-02
 -1      2058 3.13455E-03-1.27170E-05-7.90815E-02
 -1      2060 3.13455E-03 1.27170E-05-7.90815E-02
 -1      2061 2.23816E-03-1.54577E-05-8.53662E-02
 -1      2063 2.23816E-03 1.54577E-05-8.53662E-02
 -1      2064 1.17210E-03-1.74782E-05-9.00968E-02
 -1      2066 1.17210E-03 1.74782E-05-9.00968E-02
 -1      2067-3.35993E-05-1.92588E-05-9.30887E-02
 -1      2069-3.35993E-05 1.92588E-05-9.30887E-02
 -1      2070-1.34663E-03-2.04011E-05-9.41986E-02
 -1      2072-1.34663E-03 2.04011E-05-9.41986E-02
 -1      2073-2.73454E-03-2.11741E-05-9.33290E-02
 -1      2075-2.73454E-03 2.11741E-05-9.33290E-02
 -1      2076-4.16443E-03-2.13826E-05-9.04275E-02
 -1      2078-4.16443E-03 2.13826E-05-9.04275E-02
 -1      2079-5.60431E-03-2.11785E-05-8.54884E-02
 -1      2081-5.60431E-03 2.11785E-05-8.54884E-02
 -1      2082-7.02336E-03-2.04864E-05-7.85503E-02
 -1      2084-7.02336E-03 2.04864E-05-7.85503E-02
 -1      2085-8.39295E-03-1.94133E-05-6.96953E-02
 -1      2087-8.39295E-03 1.94133E-05-6.96953E-02
 -1      2088-9.68706E-03-1.79423E-05-5.90452E-02
 -1      2090-9.68706E-03 1.79423E-05-5.90452E-02
 -1      2091-1.08832E-02-1.61831E-05-4.67582E-02
 -1      2093-1.08832E-02 1.61831E-05-4.67582E-02
 -1      2094-1.19626E-02-1.41356E-05-3.30236E-02
 -1      2096-1.19626E-02 1.41357E-05-3.30236E-02
 -1      2097-1.29113E-02-1.19381E-05-1.80569E-02
 -1      2099-1.29113E-02 1.19381E-05-1.80569E-02
 -1      2100-1.37200E-02-9.58295E-06-2.09308E-03
 -1      2102-1.37200E-02 9.58295E-06-2.09308E-03
 -1      2103-1.43850E-02-7.24141E-06 1.46198E-02
 -1      2105-1.43850E-02 7.24141E-06 1.46198E-02
 -1      2106-1.49079E-02-4.89926E-06 3.18282E-02
 -1      2108-1.49079E-02 4.89926E-06 3.18282E-02
 -1      2109-1.52967E-02-2.73051E-06 4.92799E-02
 -1      2111-1.52967E-02 2.73051E-06 4.92799E-02
 -1      2112-1.55651E-02-7.52366E-07 6.67325E-02
 -1      2114-1.55651E-02 7.52365E-07 6.67325E-02
 -1      2115-1.57366E-02 9.12981E-07 8.39600E-02
 -1      2117-1.57366E-02-9.12982E-07 8.39600E-02
 -1      2118-1.58407E-02 1.89121E-06 1.00760E-01
 -1      2120-1.58407E-02-1.89121E-06 1.00760E-01
 -1      2121 3.74000E-03 4.59967E-04-6.75164E-03
 -1      2123 1.89772E-03 5.62418E-04-6.65447E-03
 -1      2124 6.01581E-03-2.14625E-04-1.71977E-02
 -1      2126 4.97270E-03 8.50306E-04-1.71092E-02
 -1      2127 8.05399E-03-6.37797E-04-2.66392E-02
 -1      2129 6.46350E-03 9.84428E-04-2.65692E-02
 -1      2130 9.25828E-03-9.62075E-04-3.75582E-02
 -1      2132 7.82710E-03 1.24370E-03-3.75161E-02
 -1      2133 9.94658E-03-1.36744E-03-4.82611E-02
 -1      2135 8.40840E-03 1.43999E-03-4.82387E-02
 -1      2136 9.97597E-03-1.68865E-03-5.90245E-02
 -1      2138 8.53970E-03 1.62850E-03-5.90255E-02
 -1      2139 9.47603E-03-2.02415E-03-6.91639E-02
 -1      2141 8.10796E-03 1.81212E-03-6.91820E-02
 -1      2142 8.43531E-03-2.29911E-03-7.85036E-02
 -1      2144 7.22529E-03 1.96142E-03-7.85425E-02
 -1      2145 6.93318E-03-2.55140E-03-8.66443E-02
 -1      2147 5.89627E-03 2.09383E-03-8.66966E-02
 -1      2148 5.00703E-03-2.74525E-03-9.33529E-02
 -1      2150 4.19486E-03 2.18785E-03-9.34220E-02
 -1      2151 2.72808E-03-2.89430E-03-9.83621E-02
 -1      2153 2.16119E-03 2.25060E-03-9.84408E-02
 -1      2154 1.54423E-04-2.98176E-03-1.01488E-01
 -1      2156-1.36551E-04 2.27113E-03-1.01578E-01
 -1      2157-2.64214E-03-3.01203E-03-1.02569E-01
 -1      2159-2.64371E-03 2.25129E-03-1.02665E-01
 -1      2160-5.59487E-03-2.97828E-03-1.01506E-01
 -1      2162-5.29331E-03 2.18662E-03-1.01608E-01
 -1      2163-8.63268E-03-2.88280E-03-9.82414E-02
 -1      2165-8.02594E-03 2.07778E-03-9.83448E-02
 -1      2166-1.16883E-02-2.72480E-03-9.27722E-02
 -1      2168-1.07780E-02 1.92452E-03-9.28772E-02
 -1      2169-1.46958E-02-2.50750E-03-8.51428E-02
 -1      2171-1.34925E-02 1.72832E-03-8.52448E-02
 -1      2172-1.75944E-02-2.23453E-03-7.54444E-02
 -1      2174-1.61136E-02 1.49214E-03-7.55436E-02
 -1      2175-2.03285E-02-1.91125E-03-6.38140E-02
 -1      2177-1.85925E-02 1.21903E-03-6.39067E-02
 -1      2178-2.28499E-02-1.54494E-03-5.04269E-02
 -1      2180-2.08857E-02 9.14916E-04-5.05133E-02
 -1      2181-2.51186E-02-1.14334E-03-3.54962E-02
 -1      2183-2.29584E-02 5.84378E-04-3.55738E-02
 -1      2184-2.71042E-02-7.17149E-04-1.92626E-02
 -1      2186-2.47835E-02 2.36542E-04-1.93319E-02
 -1      2187-2.87864E-02-2.76313E-04-1.99322E-03
 -1      2189-2.63440E-02-1.23014E-04-2.05268E-03
 -1      2190-3.01565E-02 1.65123E-04 1.60313E-02
 -1      2192-2.76330E-02-4.81031E-04 1.59807E-02
 -1      2193-3.12169E-02 5.95215E-04 3.45145E-02
 -1      2195-2.86548E-02-8.31902E-04 3.44732E-02
 -1      2196-3.19836E-02 9.95848E-04 5.31681E-02
 -1      2198-2.94226E-02-1.15699E-03 5.31347E-02
 -1      2199-3.24818E-02 1.35339E-03 7.16842E-02
 -1      2201-2.99689E-02-1.44984E-03 7.16572E-02
 -1      2202-3.27539E-02 1.64727E-03 8.98146E-02
 -1      2204-3.03146E-02-1.68402E-03 8.97932E-02
 -1      2205-3.28410E-02 1.83158E-03 1.07204E-01
 -1      2207-3.05491E-02-1.86267E-03 1.07186E-01
 -1      2208 3.74000E-03-4.59967E-04-6.75164E-03
 -1      2210 1.89772E-03-5.62418E-04-6.65447E-03
 -1      2211 6.01581E-03 2.14625E-04-1.71977E-02
 -1      2213 4.97270E-03-8.50306E-04-1.71092E-02
 -1      2214 8.05399E-03 6.37797E-04-2.66392E-02
 -1      2216 6.46350E-03-9.84428E-04-2.65692E-02
 -1      2217 9.25828E-03 9.62075E-04-3.75582E-02
 -1      2219 7.82710E-03-1.24370E-03-3.75161E-02
 -1      2220 9.94658E-03 1.36744E-03-4.82611E-02
 -1      2222 8.40840E-03-1.43999E-03-4.82387E-02
 -1      2223 9.97597E-03 1.68865E-03-5.90245E-02
 -1      2225 8.53970E-03-1.62850E-03-5.90255E-02
 -1      2226 9.47603E-03 2.02415E-03-6.91639E-02
 -1      2228 8.10796E-03-1.81212E-03-6.91820E-02
 -1      2229 8.43531E-03 2.29911E-03-7.85036E-02
 -1      2231 7.22529E-03-1.96142E-03-7.85425E-02
 -1      2232 6.93318E-03 2.55140E-03-8.66443E-02
 -1      2234 5.89627E-03-2.09383E-03-8.66966E-02
 -1      2235 5.00703E-03 2.74525E-03-9.33529E-02
 -1      2237 4.19486E-03-2.18785E-03-9.34220E-02
 -1      2238 2.72808E-03 2.89430E-03-9.83621E-02
 -1      2240 2.16119E-03-2.25060E-03-9.84408E-02
 -1      2241 1.54423E-04 2.98176E-03-1.01488E-01
 -1      2243-1.36551E-04-2.27113E-03-1.01578E-01
 -1      2244-2.64214E-03 3.01203E-03-1.02569E-01
 -1      2246-2.64371E-03-2.25129E-03-1.02665E-01
 -1      2247-5.59487E-03 2.97828E-03-1.01506E-01
 -1      2249-5.29331E-03-2.18662E-03-1.01608E-01
 -1      2250-8.63268E-03 2.88280E-03-9.82414E-02
 -1      2252-8.02594E-03-2.07778E-03-9.83448E-02
 -1      2253-1.16883E-02 2.72480E-03-9.27722E-02
 -1      2255-1.07780E-02-1.92452E-03-9.28772E-02
 -1      2256-1.46958E-02 2.50750E-03-8.51428E-02
 -1      2258-1.34925E-02-1.72832E-03-8.52448E-02
 -1      2259-1.75944E-02 2.23453E-03-7.54444E-02
 -1      2261-1.61136E-02-1.49214E-03-7.55436E-02
 -1      2262-2.03285E-02 1.91125E-03-6.38140E-02
 -1      2264-1.85925E-02-1.21903E-03-6.39067E-02
 -1      2265-2.28499E-02 1.54494E-03-5.04269E-02
 -1      2267-2.08857E-02-9.14916E-04-5.05133E-02
 -1      2268-2.51186E-02 1.14334E-03-3.54962E-02
 -1      2270-2.29584E-02-5.84378E-04-3.55738E-02
 -1      2271-2.71042E-02 7.17149E-04-1.92626E-02
 -1      2273-2.47835E-02-2.36542E-04-1.93319E-02
 -1      2274-2.87864E-02 2.76313E-04-1.99322E-03
 -1      2276-2.63440E-02 1.23014E-04-2.05268E-03
 -1      2277-3.01565E-02-1.65123E-04 1.60313E-02
 -1      2279-2.76330E-02 4.81031E-04 1.59807E-02
 -1      2280-3.12169E-02-5.95215E-04 3.45145E-02
 -1      2282-2.86548E-02 8.31902E-04 3.44732E-02
 -1      2283-3.19836E-02-9.95848E-04 5.31681E-02
 -1      2285-2.94226E-02 1.15699E-03 5.31347E-02
 -1      2286-3.24818E-02-1.35339E-03 7.16842E-02
 -1      2288-2.99689E-02 1.44984E-03 7.16572E-02
 -1      2289-3.27539E-02-1.64727E-03 8.98146E-02
 -1      2291-3.03146E-02 1.68402E-03 8.97932E-02
 -1      2292-3.28410E-02-1.83158E-03 1.07204E-01
 -1      2294-3.05491E-02 1.86267E-03 1.07186E-01
 -3
    1PSTEP                        30           1           1          
    1PGM                1.000000E+00                                  
    1PGK                2.509314E+06                                  
    1PHID                         -1                                  
    1PSUBC                         0                                  
    1PMODE                         8                                  
  100CL  108 252.1143700         930                     2    8MODAL      1
 -4  STRESS      6    1
 -5  SXX         1    4    1    1
 -5  SYY         1    4    2    2
 -5  SZZ         1    4    3    3
 -5  SXY         1    4    1    2
 -5  SYZ         1    4    2    3
 -5  SZX         1    4    3    1
 -1       404-6.18521E+09-6.23297E+08-4.33695E+06 5.60310E+08-2.63205E+07-1.39104E+08
 -1       406-6.18521E+09-6.23297E+08-4.33695E+06 5.60310E+08-2.63205E+07-1.39104E+08
 -1       407 8.95227E+07 1.07017E+07-1.41655E+06-2.66212E+07 6.36220E+06-4.14297E+06
 -1       409 8.95227E+07 1.07017E+07-1.41655E+06-2.66212E+07 6.36220E+06-4.14297E+06
 -1       410 9.81682E+07 5.64321E+07 3.78291E+06-2.21235E-03-7.81268E-04-3.58001E+06
 -1       412 9.81682E+07 5.64321E+07 3.78291E+06-2.21235E-03-7.81268E-04-3.58001E+06
 -1       413-4.05580E+07-7.18708E+06-4.97448E+08-5.32439E-05 1.84409E-04 2.71188E+08
 -1       415-4.05580E+07-7.18708E+06-4.97448E+08-5.32439E-05 1.84409E-04 2.71188E+08
 -1       424-6.78231E+09-8.40654E+08 4.18759E+06-7.07543E-03-7.11605E-05-2.29304E+08
 -1       426-6.78231E+09-8.40654E+08 4.18759E+06-7.07543E-03-7.11605E-05-2.29304E+08
 -1       427-5.24810E+09-1.87612E+07-1.20076E+09-3.08737E-04-9.66676E-05-4.35672E+09
 -1       429-5.24810E+09-1.87612E+07-1.20076E+09-3.08737E-04-9.66676E-05-4.35672E+09
 -1       438 8.95227E+07 1.07017E+07-1.41655E+06 2.66212E+07-6.36220E+06-4.14297E+06
 -1       440 8.95227E+07 1.07017E+07-1.41655E+06 2.66212E+07-6.36220E+06-4.14297E+06
 -1       441-6.18521E+09-6.23297E+08-4.33695E+06-5.60310E+08 2.63205E+07-1.39104E+08
 -1       443-6.18521E+09-6.23297E+08-4.33695E+06-5.60310E+08 2.63205E+07-1.39104E+08
 -1       444 5.24810E+09 1.87612E+07 1.20076E+09 4.38229E-05 8.56595E-05-4.35672E+09
 -1       446 5.24810E+09 1.87612E+07 1.20076E+09 4.38229E-05 8.56595E-05-4.35672E+09
 -1       447 6.78231E+09 8.40654E+08-4.18759E+06-3.97146E-03 1.67735E-04-2.29304E+08
 -1       449 6.78231E+09 8.40654E+08-4.18759E+06-3.97146E-03 1.67735E-04-2.29304E+08
 -1       458 4.05580E+07 7.18708E+06 4.97448E+08-2.84943E-05 2.39981E-03 2.71188E+08
 -1       460 4.05580E+07 7.18708E+06 4.97448E+08-2.84943E-05 2.39981E-03 2.71188E+08
 -1       461-9.81682E+07-5.64321E+07-3.78291E+06-3.51220E-03 1.54348E-03-3.58001E+06
 -1       463-9.81682E+07-5.64321E+07-3.78291E+06-3.51220E-03 1.54348E-03-3.58001E+06
 -1       472 6.18521E+09 6.23297E+08 4.33695E+06 5.60310E+08 2.63205E+07-1.39104E+08
 -1       474 6.18521E+09 6.23297E+08 4.33695E+06 5.60310E+08 2.63205E+07-1.39104E+08
 -1       475-8.95227E+07-1.07017E+07 1.41655E+06-2.66212E+07-6.36220E+06-4.14297E+06
 -1       477-8.95227E+07-1.07017E+07 1.41655E+06-2.66212E+07-6.36220E+06-4.14297E+06
 -1       478-8.95227E+07-1.07017E+07 1.41655E+06 2.66212E+07 6.36220E+06-4.14297E+06
 -1       480-8.95227E+07-1.07017E+07 1.41655E+06 2.66212E+07 6.36220E+06-4.14297E+06
 -1       481 6.18521E+09 6.23297E+08 4.33695E+06-5.60310E+08-2.63205E+07-1.39104E+08
 -1       483 6.18521E+09 6.23297E+08 4.33695E+06-5.60310E+08-2.63205E+07-1.39104E+08
 -1       484-5.61268E+09-1.69489E+08 1.29783E+06 2.87510E+08-1.71971E+07-5.50403E+07
 -1       486-5.61268E+09-1.69489E+08 1.29783E+06 2.87510E+08-1.71971E+07-5.50403E+07
 -1       487-4.51122E+09 9.77237E+07-3.55852E+05 1.95302E+08-6.59727E+06 1.12749E+07
 -1       489-4.51122E+09 9.77237E+07-3.55852E+05 1.95302E+08-6.59727E+06 1.12749E+07
 -1       490-3.29833E+09-3.07507E+07 5.78869E+04 3.22151E+08-1.07975E+07-1.38302E+07
 -1       492-3.29833E+09-3.07507E+07 5.78869E+04 3.22151E+08-1.07975E+07-1.38302E+07
 -1       493-1.99162E+09 5.14690E+06 8.48534E+05 2.71073E+08-1.40756E+07-7.48919E+06
 -1       495-1.99162E+09 5.14690E+06 8.48534E+05 2.71073E+08-1.40756E+07-7.48919E+06
 -1       496-7.71162E+08-5.40898E+06 1.48469E+04 2.66133E+08-1.62223E+07-6.49226E+06
 -1       498-7.71162E+08-5.40898E+06 1.48469E+04 2.66133E+08-1.62223E+07-6.49226E+06
 -1       499 3.92391E+08-2.08745E+06 9.83223E+05 2.50226E+08-1.97816E+07-8.57070E+06
 -1       501 3.92391E+08-2.08745E+06 9.83223E+05 2.50226E+08-1.97816E+07-8.57070E+06
 -1       502 1.48091E+09-5.35230E+06 3.41378E+05 2.31315E+08-2.15557E+07-5.23352E+06
 -1       504 1.48091E+09-5.35230E+06 3.41378E+05 2.31315E+08-2.15557E+07-5.23352E+06
 -1       505 2.47699E+09-4.21292E+06 1.05377E+06 2.09551E+08-2.40689E+07-6.61544E+06
 -1       507 2.47699E+09-4.21292E+06 1.05377E+06 2.09551E+08-2.40689E+07-6.61544E+06
 -1       508 3.36899E+09-5.87106E+06 5.97185E+05 1.85467E+08-2.53845E+07-3.98107E+06
 -1       510 3.36899E+09-5.87106E+06 5.97185E+05 1.85467E+08-2.53845E+07-3.98107E+06
 -1       511 4.14545E+09-5.58119E+06 1.11820E+06 1.59027E+08-2.68159E+07-4.05847E+06
 -1       513 4.14545E+09-5.58119E+06 1.11820E+06 1.59027E+08-2.68159E+07-4.05847E+06
 -1       514 4.79696E+09-6.38450E+06 7.69688E+05 1.31023E+08-2.73853E+07-1.99475E+06
 -1       516 4.79696E+09-6.38450E+06 7.69688E+05 1.31023E+08-2.73853E+07-1.99475E+06
 -1       517 5.31666E+09-6.27190E+06 1.13952E+06 1.01763E+08-2.77367E+07-1.24614E+06
 -1       519 5.31666E+09-6.27190E+06 1.13952E+06 1.01763E+08-2.77367E+07-1.24614E+06
 -1       520 5.70000E+09-6.57427E+06 8.52993E+05 7.19508E+07-2.73669E+07 5.32954E+05
 -1       522 5.70000E+09-6.57427E+06 8.52993E+05 7.19508E+07-2.73669E+07 5.32954E+05
 -1       523 5.94537E+09-6.35372E+06 1.09743E+06 4.21169E+07-2.66304E+07 1.68601E+06
 -1       525 5.94537E+09-6.35372E+06 1.09743E+06 4.21169E+07-2.66304E+07 1.68601E+06
 -1       526 6.05393E+09-6.27965E+06 8.41737E+05 1.29484E+07-2.52498E+07 3.28618E+06
 -1       528 6.05393E+09-6.27965E+06 8.41737E+05 1.29484E+07-2.52498E+07 3.28618E+06
 -1       529 6.02993E+09-5.84426E+06 9.82180E+05-1.49454E+07-2.34706E+07 4.54781E+06
 -1       531 6.02993E+09-5.84426E+06 9.82180E+05-1.49454E+07-2.34706E+07 4.54781E+06
 -1       532 5.88050E+09-5.45346E+06 7.36483E+05-4.09040E+07-2.11312E+07 5.94670E+06
 -1       534 5.88050E+09-5.45346E+06 7.36483E+05-4.09040E+07-2.11312E+07 5.94670E+06
 -1       535 5.61574E+09-4.77266E+06 7.92705E+05-6.43217E+07-1.84512E+07 7.09804E+06
 -1       537 5.61574E+09-4.77266E+06 7.92705E+05-6.43217E+07-1.84512E+07 7.09804E+06
 -1       538 5.24850E+09-4.12208E+06 5.44480E+05-8.46076E+07-1.53369E+07 8.21022E+06
 -1       540 5.24850E+09-4.12208E+06 5.44480E+05-8.46076E+07-1.53369E+07 8.21022E+06
 -1       541 4.79427E+09-3.19789E+06 5.35815E+05-1.01217E+08-1.20215E+07 9.07498E+06
 -1       543 4.79427E+09-3.19789E+06 5.35815E+05-1.01217E+08-1.20215E+07 9.07498E+06
 -1       544 4.27086E+09-2.37156E+06 2.79244E+05-1.13682E+08-8.46179E+06 9.78977E+06
 -1       546 4.27086E+09-2.37156E+06 2.79244E+05-1.13682E+08-8.46179E+06 9.78977E+06
 -1       547 3.69820E+09-1.20147E+06 2.24748E+05-1.21547E+08-4.91852E+06 1.02182E+07
 -1       549 3.69820E+09-1.20147E+06 2.24748E+05-1.21547E+08-4.91852E+06 1.02182E+07
 -1       550 3.09789E+09-3.51374E+05-4.00266E+04-1.24541E+08-1.41223E+06 1.04099E+07
 -1       552 3.09789E+09-3.51374E+05-4.00266E+04-1.24541E+08-1.41223E+06 1.04099E+07
 -1       553 2.49308E+09 1.15226E+06-1.23419E+05-1.22254E+08 1.78958E+06 1.02843E+07
 -1       555 2.49308E+09 1.15226E+06-1.23419E+05-1.22254E+08 1.78958E+06 1.02843E+07
 -1       556 1.90758E+09 1.71105E+06-3.89762E+05-1.14726E+08 4.53584E+06 9.76730E+06
 -1       558 1.90758E+09 1.71105E+06-3.89762E+05-1.14726E+08 4.53584E+06 9.76730E+06
 -1       559 1.36567E+09 3.59312E+06-4.84921E+05-1.02099E+08 6.64379E+06 9.09738E+06
 -1       561 1.36567E+09 3.59312E+06-4.84921E+05-1.02099E+08 6.64379E+06 9.09738E+06
 -1       562 8.94365E+08 4.72266E+06-7.60276E+05-8.15642E+07 7.71787E+06 7.35748E+06
 -1       564 8.94365E+08 4.72266E+06-7.60276E+05-8.15642E+07 7.71787E+06 7.35748E+06
 -1       565 5.10727E+08 2.64125E+06-8.14642E+05-6.37018E+07 7.90602E+06 6.86780E+06
 -1       567 5.10727E+08 2.64125E+06-8.14642E+05-6.37018E+07 7.90602E+06 6.86780E+06
 -1       568 2.15497E+08 6.41153E+06-1.02315E+06-4.26564E+07 7.03938E+06 1.81763E+06
 -1       570 2.15497E+08 6.41153E+06-1.02315E+06-4.26564E+07 7.03938E+06 1.81763E+06
 -1       571 9.38455E+07 3.35669E+07 1.18318E+06-5.47721E+07 6.87696E+07-3.86149E+06
 -1       573 9.38455E+07 3.35669E+07 1.18318E+06-5.47721E+07 6.87696E+07-3.86149E+06
 -1       574-6.07960E+09-2.59853E+08 1.43272E+06-6.42103E-03 2.36938E-04-3.60322E+07
 -1       576-6.07960E+09-2.59853E+08 1.43272E+06-6.42103E-03 2.36938E-04-3.60322E+07
 -1       577-4.63677E+09-5.20764E+06-6.35882E+08-8.86303E-05 2.04985E-04-4.45450E+09
 -1       579-4.63677E+09-5.20764E+06-6.35882E+08-8.86303E-05 2.04985E-04-4.45450E+09
 -1       588-4.59268E+09 1.62391E+08-8.39812E+04-3.61666E-03 7.05045E-04 3.51517E+07
 -1       590-4.59268E+09 1.62391E+08-8.39812E+04-3.61666E-03 7.05045E-04 3.51517E+07
 -1       591-3.48457E+09 1.35072E+06 6.43507E+07 7.69496E-05 9.23671E-04-4.32942E+09
 -1       593-3.48457E+09 1.35072E+06 6.43507E+07 7.69496E-05 9.23671E-04-4.32942E+09
 -1       602-3.22075E+09-2.70170E+07-9.72026E+05-4.22505E-03 5.52182E-04-1.05352E+07
 -1       604-3.22075E+09-2.70170E+07-9.72026E+05-4.22505E-03 5.52182E-04-1.05352E+07
 -1       605-2.41816E+09-2.44074E+05 1.56398E+08 4.13504E-05 1.16429E-03-4.15765E+09
 -1       607-2.41816E+09-2.44074E+05 1.56398E+08 4.13504E-05 1.16429E-03-4.15765E+09
 -1       616-1.98420E+09-2.25798E+07-1.34864E+06-7.55757E-03 6.13704E-05 1.66709E+07
 -1       618-1.98420E+09-2.25798E+07-1.34864E+06-7.55757E-03 6.13704E-05 1.66709E+07
 -1       619-1.42564E+09 2.48326E+06 1.63515E+08 9.65613E-05 4.89753E-04-4.08395E+09
 -1       621-1.42564E+09 2.48326E+06 1.63515E+08 9.65613E-05 4.89753E-04-4.08395E+09
 -1       630-7.36779E+08-7.53080E+06-1.08893E+06-5.89547E-03-1.78782E-04-7.10277E+05
 -1       632-7.36779E+08-7.53080E+06-1.08893E+06-5.89547E-03-1.78782E-04-7.10277E+05
 -1       633-4.88879E+08 1.95608E+06 2.22481E+08 2.10188E-04-1.03671E-04-3.88117E+09
 -1       635-4.88879E+08 1.95608E+06 2.22481E+08 2.10188E-04-1.03671E-04-3.88117E+09
 -1       644 4.32432E+08-2.23875E+07-1.91443E+06-2.56729E-03-2.35952E-04 9.73268E+06
 -1       646 4.32432E+08-2.23875E+07-1.91443E+06-2.56729E-03-2.35952E-04 9.73268E+06
 -1       647 4.12013E+08 3.91425E+06 2.62198E+08 3.30405E-04-3.91501E-04-3.66233E+09
 -1       649 4.12013E+08 3.91425E+06 2.62198E+08 3.30405E-04-3.91501E-04-3.66233E+09
 -1       658 1.52791E+09-2.16174E+07-1.82103E+06-1.22586E-03-5.75580E-04 2.13593E+06
 -1       660 1.52791E+09-2.16174E+07-1.82103E+06-1.22586E-03-5.75580E-04 2.13593E+06
 -1       661 1.24567E+09 4.25995E+06 3.10530E+08 3.00979E-04-1.02625E-03-3.38140E+09
 -1       663 1.24567E+09 4.25995E+06 3.10530E+08 3.00979E-04-1.02625E-03-3.38140E+09
 -1       672 2.53011E+09-2.62293E+07-2.30677E+06 1.58873E-03-9.10733E-04 6.09574E+06
 -1       674 2.53011E+09-2.62293E+07-2.30677E+06 1.58873E-03-9.10733E-04 6.09574E+06
 -1       675 2.01163E+09 5.32499E+06 3.49858E+08 2.82204E-04-1.57412E-03-3.06741E+09
 -1       677 2.01163E+09 5.32499E+06 3.49858E+08 2.82204E-04-1.57412E-03-3.06741E+09
 -1       686 3.42790E+09-2.83003E+07-2.38054E+06 5.38050E-03-1.21786E-03 2.20162E+06
 -1       688 3.42790E+09-2.83003E+07-2.38054E+06 5.38050E-03-1.21786E-03 2.20162E+06
 -1       689 2.69617E+09 5.95352E+06 3.86882E+08 2.91808E-04-1.98718E-03-2.71069E+09
 -1       691 2.69617E+09 5.95352E+06 3.86882E+08 2.91808E-04-1.98718E-03-2.71069E+09
 -1       700 4.20871E+09-3.08824E+07-2.65654E+06 3.23601E-03-1.66902E-03 3.34985E+06
 -1       702 4.20871E+09-3.08824E+07-2.65654E+06 3.23601E-03-1.66902E-03 3.34985E+06
 -1       703 3.29149E+09 6.57324E+06 4.15856E+08 1.72770E-04-2.55613E-03-2.32510E+09
 -1       705 3.29149E+09 6.57324E+06 4.15856E+08 1.72770E-04-2.55613E-03-2.32510E+09
 -1       714 4.86376E+09-3.23554E+07-2.72710E+06-3.92349E-03-1.29688E-03 9.38731E+05
 -1       716 4.86376E+09-3.23554E+07-2.72710E+06-3.92349E-03-1.29688E-03 9.38731E+05
 -1       717 3.78975E+09 7.05986E+06 4.38272E+08 1.29324E-04-2.30257E-03-1.91239E+09
 -1       719 3.78975E+09 7.05986E+06 4.38272E+08 1.29324E-04-2.30257E-03-1.91239E+09
 -1       728 5.38548E+09-3.35315E+07-2.85123E+06-7.56282E-03-4.79743E-04 7.80966E+05
 -1       730 5.38548E+09-3.35315E+07-2.85123E+06-7.56282E-03-4.79743E-04 7.80966E+05
 -1       731 4.18548E+09 7.35536E+06 4.51703E+08 5.92686E-06-1.42826E-03-1.48340E+09
 -1       733 4.18548E+09 7.35536E+06 4.51703E+08 5.92686E-06-1.42826E-03-1.48340E+09
 -1       742 5.76962E+09-3.38313E+07-2.84810E+06-1.73164E-03 1.21053E-04-1.00602E+06
 -1       744 5.76962E+09-3.38313E+07-2.84810E+06-1.73164E-03 1.21053E-04-1.00602E+06
 -1       745 4.47498E+09 7.55486E+06 4.56447E+08-7.69173E-05-8.28199E-04-1.04454E+09
 -1       747 4.47498E+09 7.55486E+06 4.56447E+08-7.69173E-05-8.28199E-04-1.04454E+09
 -1       756 6.01422E+09-3.35471E+07-2.83210E+06 8.33470E-03 6.56288E-04-1.75683E+06
 -1       758 6.01422E+09-3.35471E+07-2.83210E+06 8.33470E-03 6.56288E-04-1.75683E+06
 -1       759 4.65680E+09 7.52952E+06 4.51403E+08-9.84639E-05-1.53391E-04-6.06145E+08
 -1       761 4.65680E+09 7.52952E+06 4.51403E+08-9.84639E-05-1.53391E-04-6.06145E+08
 -1       770 6.12060E+09-3.24544E+07-2.72486E+06 1.42132E-02 3.28984E-04-3.22944E+06
 -1       772 6.12060E+09-3.24544E+07-2.72486E+06 1.42132E-02 3.28984E-04-3.22944E+06
 -1       773 4.73177E+09 7.39611E+06 4.36761E+08-2.46318E-04-2.93052E-04-1.76676E+08
 -1       775 4.73177E+09 7.39611E+06 4.36761E+08-2.46318E-04-2.93052E-04-1.76676E+08
 -1       784 6.09286E+09-3.06873E+07-2.57572E+06 1.49652E-02-5.28507E-04-4.18493E+06
 -1       786 6.09286E+09-3.06873E+07-2.57572E+06 1.49652E-02-5.28507E-04-4.18493E+06
 -1       787 4.70299E+09 7.04763E+06 4.12207E+08-2.07928E-04-1.08973E-03 2.33793E+08
 -1       789 4.70299E+09 7.04763E+06 4.12207E+08-2.07928E-04-1.08973E-03 2.33793E+08
 -1       798 5.93827E+09-2.81654E+07-2.35361E+06 1.22042E-02-4.88151E-04-5.41352E+06
 -1       800 5.93827E+09-2.81654E+07-2.35361E+06 1.22042E-02-4.88151E-04-5.41352E+06
 -1       801 4.57596E+09 6.58130E+06 3.78149E+08-3.34873E-04-7.41965E-04 6.16277E+08
 -1       803 4.57596E+09 6.58130E+06 3.78149E+08-3.34873E-04-7.41965E-04 6.16277E+08
 -1       812 5.66690E+09-2.49945E+07-2.08431E+06 8.57703E-03 1.30586E-04-6.32794E+06
 -1       814 5.66690E+09-2.49945E+07-2.08431E+06 8.57703E-03 1.30586E-04-6.32794E+06
 -1       815 4.35839E+09 5.92971E+06 3.34853E+08-2.61666E-04 8.48253E-04 9.61400E+08
 -1       817 4.35839E+09 5.92971E+06 3.34853E+08-2.61666E-04 8.48253E-04 9.61400E+08
 -1       826 5.29178E+09-2.11480E+07-1.75017E+06 4.92184E-03 4.45276E-04-7.27681E+06
 -1       828 5.29178E+09-2.11480E+07-1.75017E+06 4.92184E-03 4.45276E-04-7.27681E+06
 -1       829 4.06021E+09 5.16165E+06 2.83028E+08-2.68042E-04 1.50939E-03 1.26073E+09
 -1       831 4.06021E+09 5.16165E+06 2.83028E+08-2.68042E-04 1.50939E-03 1.26073E+09
 -1       840 4.82843E+09-1.67670E+07-1.38224E+06 9.41649E-04 8.91089E-05-7.97082E+06
 -1       842 4.82843E+09-1.67670E+07-1.38224E+06 9.41649E-04 8.91089E-05-7.97082E+06
 -1       843 3.69337E+09 4.25483E+06 2.23398E+08-2.08497E-04 1.07337E-03 1.50619E+09
 -1       845 3.69337E+09 4.25483E+06 2.23398E+08-2.08497E-04 1.07337E-03 1.50619E+09
 -1       854 4.29490E+09-1.18098E+07-9.48983E+05-2.69935E-03-3.27023E-04-8.55873E+06
 -1       856 4.29490E+09-1.18098E+07-9.48983E+05-2.69935E-03-3.27023E-04-8.55873E+06
 -1       857 3.27164E+09 3.23970E+06 1.56948E+08-2.73026E-04 7.08607E-04 1.69075E+09
 -1       859 3.27164E+09 3.23970E+06 1.56948E+08-2.73026E-04 7.08607E-04 1.69075E+09
 -1       868 3.71117E+09-6.51575E+06-5.12306E+05-3.84292E-03-1.54754E-04-8.88344E+06
 -1       870 3.71117E+09-6.51575E+06-5.12306E+05-3.84292E-03-1.54754E-04-8.88344E+06
 -1       871 2.81046E+09 2.15200E+06 8.47665E+07-1.42716E-04 7.55003E-04 1.80821E+09
 -1       873 2.81046E+09 2.15200E+06 8.47665E+07-1.42716E-04 7.55003E-04 1.80821E+09
 -1       882 3.09918E+09-7.62568E+05-1.57730E+02-3.20718E-03 3.34588E-04-9.01145E+06
 -1       884 3.09918E+09-7.62568E+05-1.57730E+02-3.20718E-03 3.34588E-04-9.01145E+06
 -1       885 2.32653E+09 9.60708E+05 7.98270E+06-8.32335E-05 1.39051E-03 1.85353E+09
 -1       887 2.32653E+09 9.60708E+05 7.98270E+06-8.32335E-05 1.39051E-03 1.85353E+09
 -1       896 2.48200E+09 5.17138E+06 4.69036E+05-4.79048E-03 2.65162E-04-8.82000E+06
 -1       898 2.48200E+09 5.17138E+06 4.69036E+05-4.79048E-03 2.65162E-04-8.82000E+06
 -1       899 1.83773E+09-2.11268E+05-7.19790E+07-1.57569E-04 1.05588E-03 1.82278E+09
 -1       901 1.83773E+09-2.11268E+05-7.19790E+07-1.57569E-04 1.05588E-03 1.82278E+09
 -1       910 1.88394E+09 1.10818E+07 1.03946E+06-1.02314E-02 3.08249E-04-8.39366E+06
 -1       912 1.88394E+09 1.10818E+07 1.03946E+06-1.02314E-02 3.08249E-04-8.39366E+06
 -1       913 1.36286E+09-1.50759E+06-1.54220E+08-8.65312E-05 1.20274E-03 1.71354E+09
 -1       915 1.36286E+09-1.50759E+06-1.54220E+08-8.65312E-05 1.20274E-03 1.71354E+09
 -1       924 1.33035E+09 1.72209E+07 1.47989E+06-1.45191E-02 8.79627E-04-7.47898E+06
 -1       926 1.33035E+09 1.72209E+07 1.47989E+06-1.45191E-02 8.79627E-04-7.47898E+06
 -1       927 9.20941E+08-2.61575E+06-2.36779E+08-1.90984E-04 2.38370E-03 1.52398E+09
 -1       929 9.20941E+08-2.61575E+06-2.36779E+08-1.90984E-04 2.38370E-03 1.52398E+09
 -1       938 8.43269E+08 2.56624E+07 2.13895E+06-1.22172E-02 1.33948E-03-6.47893E+06
 -1       940 8.43269E+08 2.56624E+07 2.13895E+06-1.22172E-02 1.33948E-03-6.47893E+06
 -1       941 5.31889E+08-4.02671E+06-3.21327E+08-2.15865E-05 2.89793E-03 1.25715E+09
 -1       943 5.31889E+08-4.02671E+06-3.21327E+08-2.15865E-05 2.89793E-03 1.25715E+09
 -1       952 4.51573E+08 1.89424E+07 2.47225E+06-7.04388E-03 1.27811E-03-4.32434E+06
 -1       954 4.51573E+08 1.89424E+07 2.47225E+06-7.04388E-03 1.27811E-03-4.32434E+06
 -1       955 2.21032E+08-4.90198E+06-4.02397E+08-1.88526E-05 2.68113E-03 9.11519E+08
 -1       957 2.21032E+08-4.90198E+06-4.02397E+08-1.88526E-05 2.68113E-03 9.11519E+08
 -1       966 1.91287E+08 3.15945E+07 2.86254E+06-3.44327E-03 7.79033E-05-3.03727E+06
 -1       968 1.91287E+08 3.15945E+07 2.86254E+06-3.44327E-03 7.79033E-05-3.03727E+06
 -1       969 2.41948E+07-5.92531E+06-4.68600E+08 2.65823E-06 1.26593E-03 4.94409E+08
 -1       971 2.41948E+07-5.92531E+06-4.68600E+08 2.65823E-06 1.26593E-03 4.94409E+08
 -1       980-6.48376E+09-7.31975E+08-7.46783E+04 6.44813E+08 4.02197E+07-1.84204E+08
 -1       982-6.48376E+09-7.31975E+08-7.46783E+04 6.44813E+08 4.02197E+07-1.84204E+08
 -1       983 9.38455E+07 3.35669E+07 1.18318E+06 5.47721E+07-6.87696E+07-3.86149E+06
 -1       985 9.38455E+07 3.35669E+07 1.18318E+06 5.47721E+07-6.87696E+07-3.86149E+06
 -1       986-5.61268E+09-1.69489E+08 1.29783E+06-2.87510E+08 1.71971E+07-5.50403E+07
 -1       988-5.61268E+09-1.69489E+08 1.29783E+06-2.87510E+08 1.71971E+07-5.50403E+07
 -1       989-4.51122E+09 9.77237E+07-3.55852E+05-1.95302E+08 6.59727E+06 1.12749E+07
 -1       991-4.51122E+09 9.77237E+07-3.55852E+05-1.95302E+08 6.59727E+06 1.12749E+07
 -1       992-3.29833E+09-3.07507E+07 5.78869E+04-3.22151E+08 1.07975E+07-1.38302E+07
 -1       994-3.29833E+09-3.07507E+07 5.78869E+04-3.22151E+08 1.07975E+07-1.38302E+07
 -1       995-1.99162E+09 5.14690E+06 8.48534E+05-2.71073E+08 1.40756E+07-7.48919E+06
 -1       997-1.99162E+09 5.14690E+06 8.48534E+05-2.71073E+08 1.40756E+07-7.48919E+06
 -1       998-7.71162E+08-5.40898E+06 1.48469E+04-2.66133E+08 1.62223E+07-6.49226E+06
 -1      1000-7.71162E+08-5.40898E+06 1.48469E+04-2.66133E+08 1.62223E+07-6.49226E+06
 -1      1001 3.92391E+08-2.08745E+06 9.83223E+05-2.50226E+08 1.97816E+07-8.57070E+06
 -1      1003 3.92391E+08-2.08745E+06 9.83223E+05-2.50226E+08 1.97816E+07-8.57070E+06
 -1      1004 1.48091E+09-5.35230E+06 3.41378E+05-2.31315E+08 2.15557E+07-5.23352E+06
 -1      1006 1.48091E+09-5.35230E+06 3.41378E+05-2.31315E+08 2.15557E+07-5.23352E+06
 -1      1007 2.47699E+09-4.21292E+06 1.05377E+06-2.09551E+08 2.40689E+07-6.61544E+06
 -1      1009 2.47699E+09-4.21292E+06 1.05377E+06-2.09551E+08 2.40689E+07-6.61544E+06
 -1      1010 3.36899E+09-5.87106E+06 5.97185E+05-1.85467E+08 2.53845E+07-3.98107E+06
 -1      1012 3.36899E+09-5.87106E+06 5.97185E+05-1.85467E+08 2.53845E+07-3.98107E+06
 -1      1013 4.14545E+09-5.58119E+06 1.11820E+06-1.59027E+08 2.68159E+07-4.05847E+06
 -1      1015 4.14545E+09-5.58119E+06 1.11820E+06-1.59027E+08 2.68159E+07-4.05847E+06
 -1      1016 4.79696E+09-6.38450E+06 7.69688E+05-1.31023E+08 2.73853E+07-1.99475E+06
 -1      1018 4.79696E+09-6.38450E+06 7.69688E+05-1.31023E+08 2.73853E+07-1.99475E+06
 -1      1019 5.31666E+09-6.27190E+06 1.13952E+06-1.01763E+08 2.77367E+07-1.24614E+06
 -1      1021 5.31666E+09-6.27190E+06 1.13952E+06-1.01763E+08 2.77367E+07-1.24614E+06
 -1      1022 5.70000E+09-6.57427E+06 8.52993E+05-7.19508E+07 2.73669E+07 5.32954E+05
 -1      1024 5.70000E+09-6.57427E+06 8.52993E+05-7.19508E+07 2.73669E+07 5.32954E+05
 -1      1025 5.94537E+09-6.35372E+06 1.09743E+06-4.21169E+07 2.66304E+07 1.68601E+06
 -1      1027 5.94537E+09-6.35372E+06 1.09743E+06-4.21169E+07 2.66304E+07 1.68601E+06
 -1      1028 6.05393E+09-6.27965E+06 8.41737E+05-1.29484E+07 2.52498E+07 3.28618E+06
 -1      1030 6.05393E+09-6.27965E+06 8.41737E+05-1.29484E+07 2.52498E+07 3.28618E+06
 -1      1031 6.02993E+09-5.84426E+06 9.82180E+05 1.49454E+07 2.34706E+07 4.54781E+06
 -1      1033 6.02993E+09-5.84426E+06 9.82180E+05 1.49454E+07 2.34706E+07 4.54781E+06
 -1      1034 5.88050E+09-5.45346E+06 7.36483E+05 4.09040E+07 2.11312E+07 5.94670E+06
 -1      1036 5.88050E+09-5.45346E+06 7.36483E+05 4.09040E+07 2.11312E+07 5.94670E+06
 -1      1037 5.61574E+09-4.77266E+06 7.92705E+05 6.43217E+07 1.84512E+07 7.09804E+06
 -1      1039 5.61574E+09-4.77266E+06 7.92705E+05 6.43217E+07 1.84512E+07 7.09804E+06
 -1      1040 5.24850E+09-4.12208E+06 5.44480E+05 8.46076E+07 1.53369E+07 8.21022E+06
 -1      1042 5.24850E+09-4.12208E+06 5.44480E+05 8.46076E+07 1.53369E+07 8.21022E+06
 -1      1043 4.79427E+09-3.19789E+06 5.35815E+05 1.01217E+08 1.20215E+07 9.07498E+06
 -1      1045 4.79427E+09-3.19789E+06 5.35815E+05 1.01217E+08 1.20215E+07 9.07498E+06
 -1      1046 4.27086E+09-2.37156E+06 2.79244E+05 1.13682E+08 8.46179E+06 9.78977E+06
 -1      1048 4.27086E+09-2.37156E+06 2.79244E+05 1.13682E+08 8.46179E+06 9.78977E+06
 -1      1049 3.69820E+09-1.20147E+06 2.24748E+05 1.21547E+08 4.91852E+06 1.02182E+07
 -1      1051 3.69820E+09-1.20147E+06 2.24748E+05 1.21547E+08 4.91852E+06 1.02182E+07
 -1      1052 3.09789E+09-3.51374E+05-4.00266E+04 1.24541E+08 1.41223E+06 1.04099E+07
 -1      1054 3.09789E+09-3.51374E+05-4.00266E+04 1.24541E+08 1.41223E+06 1.04099E+07
 -1      1055 2.49308E+09 1.15226E+06-1.23419E+05 1.22254E+08-1.78958E+06 1.02843E+07
 -1      1057 2.49308E+09 1.15226E+06-1.23419E+05 1.22254E+08-1.78958E+06 1.02843E+07
 -1      1058 1.90758E+09 1.71105E+06-3.89762E+05 1.14726E+08-4.53584E+06 9.76730E+06
 -1      1060 1.90758E+09 1.71105E+06-3.89762E+05 1.14726E+08-4.53584E+06 9.76730E+06
 -1      1061 1.36567E+09 3.59312E+06-4.84921E+05 1.02099E+08-6.64379E+06 9.09738E+06
 -1      1063 1.36567E+09 3.59312E+06-4.84921E+05 1.02099E+08-6.64379E+06 9.09738E+06
 -1      1064 8.94365E+08 4.72266E+06-7.60276E+05 8.15642E+07-7.71787E+06 7.35748E+06
 -1      1066 8.94365E+08 4.72266E+06-7.60276E+05 8.15642E+07-7.71787E+06 7.35748E+06
 -1      1067 5.10727E+08 2.64125E+06-8.14642E+05 6.37018E+07-7.90602E+06 6.86780E+06
 -1      1069 5.10727E+08 2.64125E+06-8.14642E+05 6.37018E+07-7.90602E+06 6.86780E+06
 -1      1070 2.15497E+08 6.41153E+06-1.02315E+06 4.26564E+07-7.03938E+06 1.81763E+06
 -1      1072 2.15497E+08 6.41153E+06-1.02315E+06 4.26564E+07-7.03938E+06 1.81763E+06
 -1      1073-6.48376E+09-7.31975E+08-7.46783E+04-6.44813E+08-4.02197E+07-1.84204E+08
 -1      1075-6.48376E+09-7.31975E+08-7.46783E+04-6.44813E+08-4.02197E+07-1.84204E+08
 -1      1076-3.32927E+09 3.12454E+05-7.76347E+08-7.35484E-04-3.25709E-05-4.45394E+09
 -1      1078-3.32927E+09 3.12454E+05-7.76347E+08-7.35484E-04-3.25709E-05-4.45394E+09
 -1      1079-3.22831E-03-2.34246E-05 4.15951E-03-8.28404E-04-1.24694E-05-4.55115E+09
 -1      1081-3.22831E-03-2.34246E-05 4.15951E-03-8.28404E-04-1.24694E-05-4.55115E+09
 -1      1082 3.32927E+09-3.12454E+05 7.76347E+08-2.25377E-04 1.45974E-05-4.45394E+09
 -1      1084 3.32927E+09-3.12454E+05 7.76347E+08-2.25377E-04 1.45974E-05-4.45394E+09
 -1      1085 4.63677E+09 5.20764E+06 6.35882E+08-8.97156E-05-3.19714E-04-4.45450E+09
 -1      1087 4.63677E+09 5.20764E+06 6.35882E+08-8.97156E-05-3.19714E-04-4.45450E+09
 -1      1088 6.07960E+09 2.59853E+08-1.43272E+06-3.85088E-03-1.29382E-04-3.60322E+07
 -1      1090 6.07960E+09 2.59853E+08-1.43272E+06-3.85088E-03-1.29382E-04-3.60322E+07
 -1      1099 3.48457E+09-1.35072E+06-6.43507E+07-4.47429E-05-1.59623E-03-4.32942E+09
 -1      1101 3.48457E+09-1.35072E+06-6.43507E+07-4.47429E-05-1.59623E-03-4.32942E+09
 -1      1102 4.59268E+09-1.62391E+08 8.39812E+04-1.68794E-03-1.02030E-03 3.51517E+07
 -1      1104 4.59268E+09-1.62391E+08 8.39812E+04-1.68794E-03-1.02030E-03 3.51517E+07
 -1      1113 2.41816E+09 2.44074E+05-1.56398E+08-2.66124E-06-2.42142E-03-4.15765E+09
 -1      1115 2.41816E+09 2.44074E+05-1.56398E+08-2.66124E-06-2.42142E-03-4.15765E+09
 -1      1116 3.22075E+09 2.70170E+07 9.72026E+05-3.58161E-03-1.54796E-03-1.05352E+07
 -1      1118 3.22075E+09 2.70170E+07 9.72026E+05-3.58161E-03-1.54796E-03-1.05352E+07
 -1      1127 1.42564E+09-2.48326E+06-1.63515E+08-1.18629E-04-1.64838E-03-4.08395E+09
 -1      1129 1.42564E+09-2.48326E+06-1.63515E+08-1.18629E-04-1.64838E-03-4.08395E+09
 -1      1130 1.98420E+09 2.25798E+07 1.34864E+06-1.11687E-02-1.11838E-03 1.66709E+07
 -1      1132 1.98420E+09 2.25798E+07 1.34864E+06-1.11687E-02-1.11838E-03 1.66709E+07
 -1      1141 4.88879E+08-1.95608E+06-2.22481E+08-7.65560E-05-3.52195E-04-3.88117E+09
 -1      1143 4.88879E+08-1.95608E+06-2.22481E+08-7.65560E-05-3.52195E-04-3.88117E+09
 -1      1144 7.36779E+08 7.53080E+06 1.08893E+06-1.64933E-02-4.70499E-04-7.10277E+05
 -1      1146 7.36779E+08 7.53080E+06 1.08893E+06-1.64933E-02-4.70499E-04-7.10277E+05
 -1      1155-4.12013E+08-3.91425E+06-2.62198E+08-1.33968E-04 8.66427E-04-3.66233E+09
 -1      1157-4.12013E+08-3.91425E+06-2.62198E+08-1.33968E-04 8.66427E-04-3.66233E+09
 -1      1158-4.32432E+08 2.23875E+07 1.91443E+06-1.93188E-02 2.07927E-04 9.73268E+06
 -1      1160-4.32432E+08 2.23875E+07 1.91443E+06-1.93188E-02 2.07927E-04 9.73268E+06
 -1      1169-1.24567E+09-4.25995E+06-3.10530E+08-1.68853E-04 2.34583E-03-3.38140E+09
 -1      1171-1.24567E+09-4.25995E+06-3.10530E+08-1.68853E-04 2.34583E-03-3.38140E+09
 -1      1172-1.52791E+09 2.16174E+07 1.82103E+06-1.73608E-02 1.23747E-03 2.13593E+06
 -1      1174-1.52791E+09 2.16174E+07 1.82103E+06-1.73608E-02 1.23747E-03 2.13593E+06
 -1      1183-2.01163E+09-5.32499E+06-3.49858E+08-1.17360E-04 3.27748E-03-3.06741E+09
 -1      1185-2.01163E+09-5.32499E+06-3.49858E+08-1.17360E-04 3.27748E-03-3.06741E+09
 -1      1186-2.53011E+09 2.62293E+07 2.30677E+06-9.20454E-03 1.76093E-03 6.09574E+06
 -1      1188-2.53011E+09 2.62293E+07 2.30677E+06-9.20454E-03 1.76093E-03 6.09574E+06
 -1      1197-2.69617E+09-5.95352E+06-3.86882E+08-5.71800E-05 2.95352E-03-2.71069E+09
 -1      1199-2.69617E+09-5.95352E+06-3.86882E+08-5.71800E-05 2.95352E-03-2.71069E+09
 -1      1200-3.42790E+09 2.83003E+07 2.38054E+06-3.80541E-03 1.44315E-03 2.20162E+06
 -1      1202-3.42790E+09 2.83003E+07 2.38054E+06-3.80541E-03 1.44315E-03 2.20162E+06
 -1      1211-3.29149E+09-6.57324E+06-4.15856E+08-1.16235E-04 2.47746E-03-2.32510E+09
 -1      1213-3.29149E+09-6.57324E+06-4.15856E+08-1.16235E-04 2.47746E-03-2.32510E+09
 -1      1214-4.20871E+09 3.08824E+07 2.65654E+06-6.11478E-03 1.17526E-03 3.34985E+06
 -1      1216-4.20871E+09 3.08824E+07 2.65654E+06-6.11478E-03 1.17526E-03 3.34985E+06
 -1      1225-3.78975E+09-7.05986E+06-4.38272E+08-9.16887E-06 2.71198E-03-1.91239E+09
 -1      1227-3.78975E+09-7.05986E+06-4.38272E+08-9.16887E-06 2.71198E-03-1.91239E+09
 -1      1228-4.86376E+09 3.23554E+07 2.72710E+06-9.45280E-03 1.36581E-03 9.38731E+05
 -1      1230-4.86376E+09 3.23554E+07 2.72710E+06-9.45280E-03 1.36581E-03 9.38731E+05
 -1      1239-4.18548E+09-7.35536E+06-4.51703E+08 1.59126E-05 3.54773E-03-1.48340E+09
 -1      1241-4.18548E+09-7.35536E+06-4.51703E+08 1.59126E-05 3.54773E-03-1.48340E+09
 -1      1242-5.38548E+09 3.35315E+07 2.85123E+06-5.18077E-03 1.96886E-03 7.80966E+05
 -1      1244-5.38548E+09 3.35315E+07 2.85123E+06-5.18077E-03 1.96886E-03 7.80966E+05
 -1      1253-4.47498E+09-7.55486E+06-4.56447E+08 1.01507E-04 4.07979E-03-1.04454E+09
 -1      1255-4.47498E+09-7.55486E+06-4.56447E+08 1.01507E-04 4.07979E-03-1.04454E+09
 -1      1256-5.76962E+09 3.38313E+07 2.84810E+06 6.15522E-03 2.27094E-03-1.00602E+06
 -1      1258-5.76962E+09 3.38313E+07 2.84810E+06 6.15522E-03 2.27094E-03-1.00602E+06
 -1      1267-4.65680E+09-7.52952E+06-4.51403E+08 1.16782E-04 4.11173E-03-6.06145E+08
 -1      1269-4.65680E+09-7.52952E+06-4.51403E+08 1.16782E-04 4.11173E-03-6.06145E+08
 -1      1270-6.01422E+09 3.35471E+07 2.83210E+06 1.32926E-02 2.42002E-03-1.75683E+06
 -1      1272-6.01422E+09 3.35471E+07 2.83210E+06 1.32926E-02 2.42002E-03-1.75683E+06
 -1      1281-4.73177E+09-7.39611E+06-4.36761E+08 8.23849E-05 3.89798E-03-1.76676E+08
 -1      1283-4.73177E+09-7.39611E+06-4.36761E+08 8.23849E-05 3.89798E-03-1.76676E+08
 -1      1284-6.12060E+09 3.24544E+07 2.72486E+06 1.29667E-02 2.38078E-03-3.22944E+06
 -1      1286-6.12060E+09 3.24544E+07 2.72486E+06 1.29667E-02 2.38078E-03-3.22944E+06
 -1      1295-4.70299E+09-7.04763E+06-4.12207E+08 1.04455E-04 3.07448E-03 2.33793E+08
 -1      1297-4.70299E+09-7.04763E+06-4.12207E+08 1.04455E-04 3.07448E-03 2.33793E+08
 -1      1298-6.09286E+09 3.06873E+07 2.57572E+06 1.37461E-02 1.81306E-03-4.18493E+06
 -1      1300-6.09286E+09 3.06873E+07 2.57572E+06 1.37461E-02 1.81306E-03-4.18493E+06
 -1      1309-4.57596E+09-6.58130E+06-3.78149E+08 2.09262E-04 1.84626E-03 6.16277E+08
 -1      1311-4.57596E+09-6.58130E+06-3.78149E+08 2.09262E-04 1.84626E-03 6.16277E+08
 -1      1312-5.93827E+09 2.81654E+07 2.35361E+06 1.74600E-02 8.46837E-04-5.41352E+06
 -1      1314-5.93827E+09 2.81654E+07 2.35361E+06 1.74600E-02 8.46837E-04-5.41352E+06
 -1      1323-4.35839E+09-5.92971E+06-3.34853E+08 3.28009E-04-3.14423E-05 9.61400E+08
 -1      1325-4.35839E+09-5.92971E+06-3.34853E+08 3.28009E-04-3.14423E-05 9.61400E+08
 -1      1326-5.66690E+09 2.49945E+07 2.08431E+06 1.80934E-02-3.88946E-04-6.32794E+06
 -1      1328-5.66690E+09 2.49945E+07 2.08431E+06 1.80934E-02-3.88946E-04-6.32794E+06
 -1      1337-4.06021E+09-5.16165E+06-2.83028E+08 1.81033E-04-1.26946E-03 1.26073E+09
 -1      1339-4.06021E+09-5.16165E+06-2.83028E+08 1.81033E-04-1.26946E-03 1.26073E+09
 -1      1340-5.29178E+09 2.11480E+07 1.75017E+06 1.76142E-02-1.21141E-03-7.27681E+06
 -1      1342-5.29178E+09 2.11480E+07 1.75017E+06 1.76142E-02-1.21141E-03-7.27681E+06
 -1      1351-3.69337E+09-4.25483E+06-2.23398E+08 3.29833E-04-5.63977E-04 1.50619E+09
 -1      1353-3.69337E+09-4.25483E+06-2.23398E+08 3.29833E-04-5.63977E-04 1.50619E+09
 -1      1354-4.82843E+09 1.67670E+07 1.38224E+06 1.70956E-02-6.73944E-04-7.97082E+06
 -1      1356-4.82843E+09 1.67670E+07 1.38224E+06 1.70956E-02-6.73944E-04-7.97082E+06
 -1      1365-3.27164E+09-3.23970E+06-1.56948E+08 1.86780E-04 7.58002E-04 1.69075E+09
 -1      1367-3.27164E+09-3.23970E+06-1.56948E+08 1.86780E-04 7.58002E-04 1.69075E+09
 -1      1368-4.29490E+09 1.18098E+07 9.48983E+05 8.88519E-03 7.15135E-04-8.55873E+06
 -1      1370-4.29490E+09 1.18098E+07 9.48983E+05 8.88519E-03 7.15135E-04-8.55873E+06
 -1      1379-2.81046E+09-2.15200E+06-8.47665E+07 1.70107E-04 8.17291E-04 1.80821E+09
 -1      1381-2.81046E+09-2.15200E+06-8.47665E+07 1.70107E-04 8.17291E-04 1.80821E+09
 -1      1382-3.71117E+09 6.51575E+06 5.12306E+05-1.81819E-03 7.68867E-04-8.88344E+06
 -1      1384-3.71117E+09 6.51575E+06 5.12306E+05-1.81819E-03 7.68867E-04-8.88344E+06
 -1      1393-2.32653E+09-9.60708E+05-7.98270E+06 1.37882E-04-2.25174E-05 1.85353E+09
 -1      1395-2.32653E+09-9.60708E+05-7.98270E+06 1.37882E-04-2.25174E-05 1.85353E+09
 -1      1396-3.09918E+09 7.62568E+05 1.57730E+02-3.97275E-03 5.33131E-05-9.01145E+06
 -1      1398-3.09918E+09 7.62568E+05 1.57730E+02-3.97275E-03 5.33131E-05-9.01145E+06
 -1      1407-1.83773E+09 2.11268E+05 7.19790E+07 1.72350E-04-1.67370E-04 1.82278E+09
 -1      1409-1.83773E+09 2.11268E+05 7.19790E+07 1.72350E-04-1.67370E-04 1.82278E+09
 -1      1410-2.48200E+09-5.17138E+06-4.69036E+05-2.51262E-03 1.30865E-04-8.82000E+06
 -1      1412-2.48200E+09-5.17138E+06-4.69036E+05-2.51262E-03 1.30865E-04-8.82000E+06
 -1      1421-1.36286E+09 1.50759E+06 1.54220E+08 1.04956E-04 5.51518E-05 1.71354E+09
 -1      1423-1.36286E+09 1.50759E+06 1.54220E+08 1.04956E-04 5.51518E-05 1.71354E+09
 -1      1424-1.88394E+09-1.10818E+07-1.03946E+06-6.62838E-03 3.43975E-04-8.39366E+06
 -1      1426-1.88394E+09-1.10818E+07-1.03946E+06-6.62838E-03 3.43975E-04-8.39366E+06
 -1      1435-9.20941E+08 2.61575E+06 2.36779E+08 1.35324E-04-3.60434E-04 1.52398E+09
 -1      1437-9.20941E+08 2.61575E+06 2.36779E+08 1.35324E-04-3.60434E-04 1.52398E+09
 -1      1438-1.33035E+09-1.72209E+07-1.47989E+06-1.40008E-02-2.24151E-05-7.47898E+06
 -1      1440-1.33035E+09-1.72209E+07-1.47989E+06-1.40008E-02-2.24151E-05-7.47898E+06
 -1      1449-5.31889E+08 4.02671E+06 3.21327E+08 9.31138E-05-7.41996E-05 1.25715E+09
 -1      1451-5.31889E+08 4.02671E+06 3.21327E+08 9.31138E-05-7.41996E-05 1.25715E+09
 -1      1452-8.43269E+08-2.56624E+07-2.13895E+06-1.84347E-02 7.56606E-06-6.47893E+06
 -1      1454-8.43269E+08-2.56624E+07-2.13895E+06-1.84347E-02 7.56606E-06-6.47893E+06
 -1      1463-2.21032E+08 4.90198E+06 4.02397E+08-7.15286E-05 1.41753E-03 9.11519E+08
 -1      1465-2.21032E+08 4.90198E+06 4.02397E+08-7.15286E-05 1.41753E-03 9.11519E+08
 -1      1466-4.51573E+08-1.89424E+07-2.47225E+06-1.54736E-02 8.69259E-04-4.32434E+06
 -1      1468-4.51573E+08-1.89424E+07-2.47225E+06-1.54736E-02 8.69259E-04-4.32434E+06
 -1      1477-2.41948E+07 5.92531E+06 4.68600E+08 8.51921E-05 2.27602E-03 4.94409E+08
 -1      1479-2.41948E+07 5.92531E+06 4.68600E+08 8.51921E-05 2.27602E-03 4.94409E+08
 -1      1480-1.91287E+08-3.15945E+07-2.86254E+06-7.49562E-03 1.44091E-03-3.03727E+06
 -1      1482-1.91287E+08-3.15945E+07-2.86254E+06-7.49562E-03 1.44091E-03-3.03727E+06
 -1      1491-9.11463E+06-5.80739E+04-3.35616E+08-2.32593E-05-2.68164E-04 2.75574E+08
 -1      1493-9.11463E+06-5.80739E+04-3.35616E+08-2.32593E-05-2.68164E-04 2.75574E+08
 -1      1494-8.58545E-04 5.55363E-04 9.09503E-03-1.27352E-04-4.89771E-04 2.79961E+08
 -1      1496-8.58545E-04 5.55363E-04 9.09503E-03-1.27352E-04-4.89771E-04 2.79961E+08
 -1      1497 9.11463E+06 5.80739E+04 3.35616E+08-1.44962E-04 1.07050E-03 2.75574E+08
 -1      1499 9.11463E+06 5.80739E+04 3.35616E+08-1.44962E-04 1.07050E-03 2.75574E+08
 -1      1500 5.61268E+09 1.69489E+08-1.29783E+06 2.87510E+08 1.71971E+07-5.50403E+07
 -1      1502 5.61268E+09 1.69489E+08-1.29783E+06 2.87510E+08 1.71971E+07-5.50403E+07
 -1      1503 4.51122E+09-9.77237E+07 3.55852E+05 1.95302E+08 6.59727E+06 1.12749E+07
 -1      1505 4.51122E+09-9.77237E+07 3.55852E+05 1.95302E+08 6.59727E+06 1.12749E+07
 -1      1506 3.29833E+09 3.07507E+07-5.78869E+04 3.22151E+08 1.07975E+07-1.38302E+07
 -1      1508 3.29833E+09 3.07507E+07-5.78869E+04 3.22151E+08 1.07975E+07-1.38302E+07
 -1      1509 1.99162E+09-5.14690E+06-8.48534E+05 2.71073E+08 1.40756E+07-7.48919E+06
 -1      1511 1.99162E+09-5.14690E+06-8.48534E+05 2.71073E+08 1.40756E+07-7.48919E+06
 -1      1512 7.71162E+08 5.40898E+06-1.48469E+04 2.66133E+08 1.62223E+07-6.49226E+06
 -1      1514 7.71162E+08 5.40898E+06-1.48469E+04 2.66133E+08 1.62223E+07-6.49226E+06
 -1      1515-3.92391E+08 2.08745E+06-9.83223E+05 2.50226E+08 1.97816E+07-8.57070E+06
 -1      1517-3.92391E+08 2.08745E+06-9.83223E+05 2.50226E+08 1.97816E+07-8.57070E+06
 -1      1518-1.48091E+09 5.35230E+06-3.41378E+05 2.31315E+08 2.15557E+07-5.23352E+06
 -1      1520-1.48091E+09 5.35230E+06-3.41378E+05 2.31315E+08 2.15557E+07-5.23352E+06
 -1      1521-2.47699E+09 4.21292E+06-1.05377E+06 2.09551E+08 2.40689E+07-6.61544E+06
 -1      1523-2.47699E+09 4.21292E+06-1.05377E+06 2.09551E+08 2.40689E+07-6.61544E+06
 -1      1524-3.36899E+09 5.87106E+06-5.97185E+05 1.85467E+08 2.53845E+07-3.98107E+06
 -1      1526-3.36899E+09 5.87106E+06-5.97185E+05 1.85467E+08 2.53845E+07-3.98107E+06
 -1      1527-4.14545E+09 5.58119E+06-1.11820E+06 1.59027E+08 2.68159E+07-4.05847E+06
 -1      1529-4.14545E+09 5.58119E+06-1.11820E+06 1.59027E+08 2.68159E+07-4.05847E+06
 -1      1530-4.79696E+09 6.38450E+06-7.69688E+05 1.31023E+08 2.73853E+07-1.99475E+06
 -1      1532-4.79696E+09 6.38450E+06-7.69688E+05 1.31023E+08 2.73853E+07-1.99475E+06
 -1      1533-5.31666E+09 6.27190E+06-1.13952E+06 1.01763E+08 2.77367E+07-1.24614E+06
 -1      1535-5.31666E+09 6.27190E+06-1.13952E+06 1.01763E+08 2.77367E+07-1.24614E+06
 -1      1536-5.70000E+09 6.57427E+06-8.52993E+05 7.19508E+07 2.73669E+07 5.32954E+05
 -1      1538-5.70000E+09 6.57427E+06-8.52993E+05 7.19508E+07 2.73669E+07 5.32954E+05
 -1      1539-5.94537E+09 6.35372E+06-1.09743E+06 4.21169E+07 2.66304E+07 1.68601E+06
 -1      1541-5.94537E+09 6.35372E+06-1.09743E+06 4.21169E+07 2.66304E+07 1.68601E+06
 -1      1542-6.05393E+09 6.27965E+06-8.41737E+05 1.29484E+07 2.52498E+07 3.28618E+06
 -1      1544-6.05393E+09 6.27965E+06-8.41737E+05 1.29484E+07 2.52498E+07 3.28618E+06
 -1      1545-6.02993E+09 5.84426E+06-9.82180E+05-1.49454E+07 2.34706E+07 4.54781E+06
 -1      1547-6.02993E+09 5.84426E+06-9.82180E+05-1.49454E+07 2.34706E+07 4.54781E+06
 -1      1548-5.88050E+09 5.45346E+06-7.36483E+05-4.09040E+07 2.11312E+07 5.94670E+06
 -1      1550-5.88050E+09 5.45346E+06-7.36483E+05-4.09040E+07 2.11312E+07 5.94670E+06
 -1      1551-5.61574E+09 4.77266E+06-7.92705E+05-6.43217E+07 1.84512E+07 7.09804E+06
 -1      1553-5.61574E+09 4.77266E+06-7.92705E+05-6.43217E+07 1.84512E+07 7.09804E+06
 -1      1554-5.24850E+09 4.12208E+06-5.44480E+05-8.46076E+07 1.53369E+07 8.21022E+06
 -1      1556-5.24850E+09 4.12208E+06-5.44480E+05-8.46076E+07 1.53369E+07 8.21022E+06
 -1      1557-4.79427E+09 3.19789E+06-5.35815E+05-1.01217E+08 1.20215E+07 9.07498E+06
 -1      1559-4.79427E+09 3.19789E+06-5.35815E+05-1.01217E+08 1.20215E+07 9.07498E+06
 -1      1560-4.27086E+09 2.37156E+06-2.79244E+05-1.13682E+08 8.46179E+06 9.78977E+06
 -1      1562-4.27086E+09 2.37156E+06-2.79244E+05-1.13682E+08 8.46179E+06 9.78977E+06
 -1      1563-3.69820E+09 1.20147E+06-2.24748E+05-1.21547E+08 4.91852E+06 1.02182E+07
 -1      1565-3.69820E+09 1.20147E+06-2.24748E+05-1.21547E+08 4.91852E+06 1.02182E+07
 -1      1566-3.09789E+09 3.51374E+05 4.00266E+04-1.24541E+08 1.41223E+06 1.04099E+07
 -1      1568-3.09789E+09 3.51374E+05 4.00266E+04-1.24541E+08 1.41223E+06 1.04099E+07
 -1      1569-2.49308E+09-1.15226E+06 1.23419E+05-1.22254E+08-1.78958E+06 1.02843E+07
 -1      1571-2.49308E+09-1.15226E+06 1.23419E+05-1.22254E+08-1.78958E+06 1.02843E+07
 -1      1572-1.90758E+09-1.71105E+06 3.89762E+05-1.14726E+08-4.53584E+06 9.76730E+06
 -1      1574-1.90758E+09-1.71105E+06 3.89762E+05-1.14726E+08-4.53584E+06 9.76730E+06
 -1      1575-1.36567E+09-3.59312E+06 4.84921E+05-1.02099E+08-6.64379E+06 9.09738E+06
 -1      1577-1.36567E+09-3.59312E+06 4.84921E+05-1.02099E+08-6.64379E+06 9.09738E+06
 -1      1578-8.94365E+08-4.72266E+06 7.60276E+05-8.15642E+07-7.71787E+06 7.35748E+06
 -1      1580-8.94365E+08-4.72266E+06 7.60276E+05-8.15642E+07-7.71787E+06 7.35748E+06
 -1      1581-5.10727E+08-2.64125E+06 8.14642E+05-6.37018E+07-7.90602E+06 6.86780E+06
 -1      1583-5.10727E+08-2.64125E+06 8.14642E+05-6.37018E+07-7.90602E+06 6.86780E+06
 -1      1584-2.15497E+08-6.41153E+06 1.02315E+06-4.26564E+07-7.03938E+06 1.81763E+06
 -1      1586-2.15497E+08-6.41153E+06 1.02315E+06-4.26564E+07-7.03938E+06 1.81763E+06
 -1      1587-9.38455E+07-3.35669E+07-1.18318E+06-5.47721E+07-6.87696E+07-3.86149E+06
 -1      1589-9.38455E+07-3.35669E+07-1.18318E+06-5.47721E+07-6.87696E+07-3.86149E+06
 -1      1590 6.48376E+09 7.31975E+08 7.46783E+04 6.44813E+08-4.02197E+07-1.84204E+08
 -1      1592 6.48376E+09 7.31975E+08 7.46783E+04 6.44813E+08-4.02197E+07-1.84204E+08
 -1      1593-9.38455E+07-3.35669E+07-1.18318E+06 5.47721E+07 6.87696E+07-3.86149E+06
 -1      1595-9.38455E+07-3.35669E+07-1.18318E+06 5.47721E+07 6.87696E+07-3.86149E+06
 -1      1596 5.61268E+09 1.69489E+08-1.29783E+06-2.87510E+08-1.71971E+07-5.50403E+07
 -1      1598 5.61268E+09 1.69489E+08-1.29783E+06-2.87510E+08-1.71971E+07-5.50403E+07
 -1      1599 4.51122E+09-9.77237E+07 3.55852E+05-1.95302E+08-6.59727E+06 1.12749E+07
 -1      1601 4.51122E+09-9.77237E+07 3.55852E+05-1.95302E+08-6.59727E+06 1.12749E+07
 -1      1602 3.29833E+09 3.07507E+07-5.78869E+04-3.22151E+08-1.07975E+07-1.38302E+07
 -1      1604 3.29833E+09 3.07507E+07-5.78869E+04-3.22151E+08-1.07975E+07-1.38302E+07
 -1      1605 1.99162E+09-5.14690E+06-8.48534E+05-2.71073E+08-1.40756E+07-7.48919E+06
 -1      1607 1.99162E+09-5.14690E+06-8.48534E+05-2.71073E+08-1.40756E+07-7.48919E+06
 -1      1608 7.71162E+08 5.40898E+06-1.48469E+04-2.66133E+08-1.62223E+07-6.49226E+06
 -1      1610 7.71162E+08 5.40898E+06-1.48469E+04-2.66133E+08-1.62223E+07-6.49226E+06
 -1      1611-3.92391E+08 2.08745E+06-9.83223E+05-2.50226E+08-1.97816E+07-8.57070E+06
 -1      1613-3.92391E+08 2.08745E+06-9.83223E+05-2.50226E+08-1.97816E+07-8.57070E+06
 -1      1614-1.48091E+09 5.35230E+06-3.41378E+05-2.31315E+08-2.15557E+07-5.23352E+06
 -1      1616-1.48091E+09 5.35230E+06-3.41378E+05-2.31315E+08-2.15557E+07-5.23352E+06
 -1      1617-2.47699E+09 4.21292E+06-1.05377E+06-2.09551E+08-2.40689E+07-6.61544E+06
 -1      1619-2.47699E+09 4.21292E+06-1.05377E+06-2.09551E+08-2.40689E+07-6.61544E+06
 -1      1620-3.36899E+09 5.87106E+06-5.97185E+05-1.85467E+08-2.53845E+07-3.98107E+06
 -1      1622-3.36899E+09 5.87106E+06-5.97185E+05-1.85467E+08-2.53845E+07-3.98107E+06
 -1      1623-4.14545E+09 5.58119E+06-1.11820E+06-1.59027E+08-2.68159E+07-4.05847E+06
 -1      1625-4.14545E+09 5.58119E+06-1.11820E+06-1.59027E+08-2.68159E+07-4.05847E+06
 -1      1626-4.79696E+09 6.38450E+06-7.69688E+05-1.31023E+08-2.73853E+07-1.99475E+06
 -1      1628-4.79696E+09 6.38450E+06-7.69688E+05-1.31023E+08-2.73853E+07-1.99475E+06
 -1      1629-5.31666E+09 6.27190E+06-1.13952E+06-1.01763E+08-2.77367E+07-1.24614E+06
 -1      1631-5.31666E+09 6.27190E+06-1.13952E+06-1.01763E+08-2.77367E+07-1.24614E+06
 -1      1632-5.70000E+09 6.57427E+06-8.52993E+05-7.19508E+07-2.73669E+07 5.32954E+05
 -1      1634-5.70000E+09 6.57427E+06-8.52993E+05-7.19508E+07-2.73669E+07 5.32954E+05
 -1      1635-5.94537E+09 6.35372E+06-1.09743E+06-4.21169E+07-2.66304E+07 1.68601E+06
 -1      1637-5.94537E+09 6.35372E+06-1.09743E+06-4.21169E+07-2.66304E+07 1.68601E+06
 -1      1638-6.05393E+09 6.27965E+06-8.41737E+05-1.29484E+07-2.52498E+07 3.28618E+06
 -1      1640-6.05393E+09 6.27965E+06-8.41737E+05-1.29484E+07-2.52498E+07 3.28618E+06
 -1      1641-6.02993E+09 5.84426E+06-9.82180E+05 1.49454E+07-2.34706E+07 4.54781E+06
 -1      1643-6.02993E+09 5.84426E+06-9.82180E+05 1.49454E+07-2.34706E+07 4.54781E+06
 -1      1644-5.88050E+09 5.45346E+06-7.36483E+05 4.09040E+07-2.11312E+07 5.94670E+06
 -1      1646-5.88050E+09 5.45346E+06-7.36483E+05 4.09040E+07-2.11312E+07 5.94670E+06
 -1      1647-5.61574E+09 4.77266E+06-7.92705E+05 6.43217E+07-1.84512E+07 7.09804E+06
 -1      1649-5.61574E+09 4.77266E+06-7.92705E+05 6.43217E+07-1.84512E+07 7.09804E+06
 -1      1650-5.24850E+09 4.12208E+06-5.44480E+05 8.46076E+07-1.53369E+07 8.21022E+06
 -1      1652-5.24850E+09 4.12208E+06-5.44480E+05 8.46076E+07-1.53369E+07 8.21022E+06
 -1      1653-4.79427E+09 3.19789E+06-5.35815E+05 1.01217E+08-1.20215E+07 9.07498E+06
 -1      1655-4.79427E+09 3.19789E+06-5.35815E+05 1.01217E+08-1.20215E+07 9.07498E+06
 -1      1656-4.27086E+09 2.37156E+06-2.79244E+05 1.13682E+08-8.46179E+06 9.78977E+06
 -1      1658-4.27086E+09 2.37156E+06-2.79244E+05 1.13682E+08-8.46179E+06 9.78977E+06
 -1      1659-3.69820E+09 1.20147E+06-2.24748E+05 1.21547E+08-4.91852E+06 1.02182E+07
 -1      1661-3.69820E+09 1.20147E+06-2.24748E+05 1.21547E+08-4.91852E+06 1.02182E+07
 -1      1662-3.09789E+09 3.51374E+05 4.00266E+04 1.24541E+08-1.41223E+06 1.04099E+07
 -1      1664-3.09789E+09 3.51374E+05 4.00266E+04 1.24541E+08-1.41223E+06 1.04099E+07
 -1      1665-2.49308E+09-1.15226E+06 1.23419E+05 1.22254E+08 1.78958E+06 1.02843E+07
 -1      1667-2.49308E+09-1.15226E+06 1.23419E+05 1.22254E+08 1.78958E+06 1.02843E+07
 -1      1668-1.90758E+09-1.71105E+06 3.89762E+05 1.14726E+08 4.53584E+06 9.76730E+06
 -1      1670-1.90758E+09-1.71105E+06 3.89762E+05 1.14726E+08 4.53584E+06 9.76730E+06
 -1      1671-1.36567E+09-3.59312E+06 4.84921E+05 1.02099E+08 6.64379E+06 9.09738E+06
 -1      1673-1.36567E+09-3.59312E+06 4.84921E+05 1.02099E+08 6.64379E+06 9.09738E+06
 -1      1674-8.94365E+08-4.72266E+06 7.60276E+05 8.15642E+07 7.71787E+06 7.35748E+06
 -1      1676-8.94365E+08-4.72266E+06 7.60276E+05 8.15642E+07 7.71787E+06 7.35748E+06
 -1      1677-5.10727E+08-2.64125E+06 8.14642E+05 6.37018E+07 7.90602E+06 6.86780E+06
 -1      1679-5.10727E+08-2.64125E+06 8.14642E+05 6.37018E+07 7.90602E+06 6.86780E+06
 -1      1680-2.15497E+08-6.41153E+06 1.02315E+06 4.26564E+07 7.03938E+06 1.81763E+06
 -1      1682-2.15497E+08-6.41153E+06 1.02315E+06 4.26564E+07 7.03938E+06 1.81763E+06
 -1      1683 6.48376E+09 7.31975E+08 7.46783E+04-6.44813E+08 4.02197E+07-1.84204E+08
 -1      1685 6.48376E+09 7.31975E+08 7.46783E+04-6.44813E+08 4.02197E+07-1.84204E+08
 -1      1686-5.84614E+09-2.14671E+08 1.36527E+06 5.36899E+08 1.55617E+07-4.55362E+07
 -1      1688-5.84614E+09-2.14671E+08 1.36527E+06 5.36899E+08 1.55617E+07-4.55362E+07
 -1      1689-4.55195E+09 1.30058E+08-2.19917E+05 5.15447E+08-1.81766E+07 2.32133E+07
 -1      1691-4.55195E+09 1.30058E+08-2.19917E+05 5.15447E+08-1.81766E+07 2.32133E+07
 -1      1692-3.25954E+09-2.88838E+07-4.57069E+05 5.91260E+08-2.25598E+07-1.21827E+07
 -1      1694-3.25954E+09-2.88838E+07-4.57069E+05 5.91260E+08-2.25598E+07-1.21827E+07
 -1      1695-1.98791E+09-8.71644E+06-2.50054E+05 5.58575E+08-3.10645E+07 4.59086E+06
 -1      1697-1.98791E+09-8.71644E+06-2.50054E+05 5.58575E+08-3.10645E+07 4.59086E+06
 -1      1698-7.53971E+08-6.46989E+06-5.37044E+05 5.29455E+08-4.16217E+07-3.60127E+06
 -1      1700-7.53971E+08-6.46989E+06-5.37044E+05 5.29455E+08-4.16217E+07-3.60127E+06
 -1      1701 4.12412E+08-1.22375E+07-4.65605E+05 5.02312E+08-4.78070E+07 5.80990E+05
 -1      1703 4.12412E+08-1.22375E+07-4.65605E+05 5.02312E+08-4.78070E+07 5.80990E+05
 -1      1704 1.50441E+09-1.34848E+07-7.39825E+05 4.62875E+08-5.70105E+07-1.54879E+06
 -1      1706 1.50441E+09-1.34848E+07-7.39825E+05 4.62875E+08-5.70105E+07-1.54879E+06
 -1      1707 2.50355E+09-1.52211E+07-6.26502E+05 4.20032E+08-6.27027E+07-2.59850E+05
 -1      1709 2.50355E+09-1.52211E+07-6.26502E+05 4.20032E+08-6.27027E+07-2.59850E+05
 -1      1710 3.39845E+09-1.70857E+07-8.91680E+05 3.71333E+08-6.93471E+07-8.89729E+05
 -1      1712 3.39845E+09-1.70857E+07-8.91680E+05 3.71333E+08-6.93471E+07-8.89729E+05
 -1      1713 4.17708E+09-1.82318E+07-7.69171E+05 3.18581E+08-7.35377E+07-3.54311E+05
 -1      1715 4.17708E+09-1.82318E+07-7.69171E+05 3.18581E+08-7.35377E+07-3.54311E+05
 -1      1716 4.83036E+09-1.93700E+07-9.78705E+05 2.62288E+08-7.72507E+07-5.28008E+05
 -1      1718 4.83036E+09-1.93700E+07-9.78705E+05 2.62288E+08-7.72507E+07-5.28008E+05
 -1      1719 5.35107E+09-1.99017E+07-8.55857E+05 2.03704E+08-7.89746E+07-2.32587E+05
 -1      1721 5.35107E+09-1.99017E+07-8.55857E+05 2.03704E+08-7.89746E+07-2.32587E+05
 -1      1722 5.73481E+09-2.02028E+07-9.97551E+05 1.43864E+08-7.94720E+07-2.36532E+05
 -1      1724 5.73481E+09-2.02028E+07-9.97551E+05 1.43864E+08-7.94720E+07-2.36532E+05
 -1      1725 5.97979E+09-1.99504E+07-8.67336E+05 8.40624E+07-7.81522E+07-3.54085E+04
 -1      1727 5.97979E+09-1.99504E+07-8.67336E+05 8.40624E+07-7.81522E+07-3.54085E+04
 -1      1728 6.08727E+09-1.93670E+07-9.41559E+05 2.55317E+07-7.52894E+07 2.83708E+04
 -1      1730 6.08727E+09-1.93670E+07-9.41559E+05 2.55317E+07-7.52894E+07 2.83708E+04
 -1      1731 6.06140E+09-1.82658E+07-7.96771E+05-3.04116E+07-7.07353E+07 1.81440E+05
 -1      1733 6.06140E+09-1.82658E+07-7.96771E+05-3.04116E+07-7.07353E+07 1.81440E+05
 -1      1734 5.90938E+09-1.68094E+07-8.08564E+05-8.25018E+07-6.46018E+07 2.66588E+05
 -1      1736 5.90938E+09-1.68094E+07-8.08564E+05-8.25018E+07-6.46018E+07 2.66588E+05
 -1      1737 5.64132E+09-1.48836E+07-6.45801E+05-1.29491E+08-5.69807E+07 3.85049E+05
 -1      1739 5.64132E+09-1.48836E+07-6.45801E+05-1.29491E+08-5.69807E+07 3.85049E+05
 -1      1740 5.27014E+09-1.26350E+07-6.02846E+05-1.70204E+08-4.79444E+07 4.66706E+05
 -1      1742 5.27014E+09-1.26350E+07-6.02846E+05-1.70204E+08-4.79444E+07 4.66706E+05
 -1      1743 4.81135E+09-9.98245E+06-4.23212E+05-2.03564E+08-3.77540E+07 5.52084E+05
 -1      1745 4.81135E+09-9.98245E+06-4.23212E+05-2.03564E+08-3.77540E+07 5.52084E+05
 -1      1746 4.28288E+09-7.09070E+06-3.34870E+05-2.28583E+08-2.64626E+07 6.15522E+05
 -1      1748 4.28288E+09-7.09070E+06-3.34870E+05-2.28583E+08-2.64626E+07 6.15522E+05
 -1      1749 3.70469E+09-3.85861E+06-1.43779E+05-2.44448E+08-1.45009E+07 6.67383E+05
 -1      1751 3.70469E+09-3.85861E+06-1.43779E+05-2.44448E+08-1.45009E+07 6.67383E+05
 -1      1752 3.09853E+09-5.56971E+05-2.00922E+04-2.50443E+08-1.85829E+06 6.99242E+05
 -1      1754 3.09853E+09-5.56971E+05-2.00922E+04-2.50443E+08-1.85829E+06 6.99242E+05
 -1      1755 2.48754E+09 3.16182E+06 1.72808E+05-2.46005E+08 1.08064E+07 7.32155E+05
 -1      1757 2.48754E+09 3.16182E+06 1.72808E+05-2.46005E+08 1.08064E+07 7.32155E+05
 -1      1758 1.89576E+09 6.39642E+06 3.24851E+05-2.30978E+08 2.36622E+07 6.86822E+05
 -1      1760 1.89576E+09 6.39642E+06 3.24851E+05-2.30978E+08 2.36622E+07 6.86822E+05
 -1      1761 1.34801E+09 1.04070E+07 4.97487E+05-2.05030E+08 3.57243E+07 8.09199E+05
 -1      1763 1.34801E+09 1.04070E+07 4.97487E+05-2.05030E+08 3.57243E+07 8.09199E+05
 -1      1764 8.68817E+08 1.51925E+07 6.89336E+05-1.66912E+08 4.73275E+07 4.39277E+05
 -1      1766 8.68817E+08 1.51925E+07 6.89336E+05-1.66912E+08 4.73275E+07 4.39277E+05
 -1      1767 4.81150E+08 1.07918E+07 8.28806E+05-1.24263E+08 5.72625E+07 1.27173E+06
 -1      1769 4.81150E+08 1.07918E+07 8.28806E+05-1.24263E+08 5.72625E+07 1.27173E+06
 -1      1770 2.03392E+08 1.90030E+07 9.19693E+05-7.93600E+07 6.47687E+07-6.09823E+05
 -1      1772 2.03392E+08 1.90030E+07 9.19693E+05-7.93600E+07 6.47687E+07-6.09823E+05
 -1      1773-5.84614E+09-2.14671E+08 1.36527E+06-5.36899E+08-1.55617E+07-4.55362E+07
 -1      1775-5.84614E+09-2.14671E+08 1.36527E+06-5.36899E+08-1.55617E+07-4.55362E+07
 -1      1776-4.55195E+09 1.30058E+08-2.19917E+05-5.15447E+08 1.81766E+07 2.32133E+07
 -1      1778-4.55195E+09 1.30058E+08-2.19917E+05-5.15447E+08 1.81766E+07 2.32133E+07
 -1      1779-3.25954E+09-2.88838E+07-4.57069E+05-5.91260E+08 2.25598E+07-1.21827E+07
 -1      1781-3.25954E+09-2.88838E+07-4.57069E+05-5.91260E+08 2.25598E+07-1.21827E+07
 -1      1782-1.98791E+09-8.71644E+06-2.50054E+05-5.58575E+08 3.10645E+07 4.59086E+06
 -1      1784-1.98791E+09-8.71644E+06-2.50054E+05-5.58575E+08 3.10645E+07 4.59086E+06
 -1      1785-7.53971E+08-6.46989E+06-5.37044E+05-5.29455E+08 4.16217E+07-3.60127E+06
 -1      1787-7.53971E+08-6.46989E+06-5.37044E+05-5.29455E+08 4.16217E+07-3.60127E+06
 -1      1788 4.12412E+08-1.22375E+07-4.65605E+05-5.02312E+08 4.78070E+07 5.80990E+05
 -1      1790 4.12412E+08-1.22375E+07-4.65605E+05-5.02312E+08 4.78070E+07 5.80990E+05
 -1      1791 1.50441E+09-1.34848E+07-7.39825E+05-4.62875E+08 5.70105E+07-1.54879E+06
 -1      1793 1.50441E+09-1.34848E+07-7.39825E+05-4.62875E+08 5.70105E+07-1.54879E+06
 -1      1794 2.50355E+09-1.52211E+07-6.26502E+05-4.20032E+08 6.27027E+07-2.59850E+05
 -1      1796 2.50355E+09-1.52211E+07-6.26502E+05-4.20032E+08 6.27027E+07-2.59850E+05
 -1      1797 3.39845E+09-1.70857E+07-8.91680E+05-3.71333E+08 6.93471E+07-8.89729E+05
 -1      1799 3.39845E+09-1.70857E+07-8.91680E+05-3.71333E+08 6.93471E+07-8.89729E+05
 -1      1800 4.17708E+09-1.82318E+07-7.69171E+05-3.18581E+08 7.35377E+07-3.54311E+05
 -1      1802 4.17708E+09-1.82318E+07-7.69171E+05-3.18581E+08 7.35377E+07-3.54311E+05
 -1      1803 4.83036E+09-1.93700E+07-9.78705E+05-2.62288E+08 7.72507E+07-5.28008E+05
 -1      1805 4.83036E+09-1.93700E+07-9.78705E+05-2.62288E+08 7.72507E+07-5.28008E+05
 -1      1806 5.35107E+09-1.99017E+07-8.55857E+05-2.03704E+08 7.89746E+07-2.32587E+05
 -1      1808 5.35107E+09-1.99017E+07-8.55857E+05-2.03704E+08 7.89746E+07-2.32587E+05
 -1      1809 5.73481E+09-2.02028E+07-9.97551E+05-1.43864E+08 7.94720E+07-2.36532E+05
 -1      1811 5.73481E+09-2.02028E+07-9.97551E+05-1.43864E+08 7.94720E+07-2.36532E+05
 -1      1812 5.97979E+09-1.99504E+07-8.67336E+05-8.40624E+07 7.81522E+07-3.54085E+04
 -1      1814 5.97979E+09-1.99504E+07-8.67336E+05-8.40624E+07 7.81522E+07-3.54085E+04
 -1      1815 6.08727E+09-1.93670E+07-9.41559E+05-2.55317E+07 7.52894E+07 2.83708E+04
 -1      1817 6.08727E+09-1.93670E+07-9.41559E+05-2.55317E+07 7.52894E+07 2.83708E+04
 -1      1818 6.06140E+09-1.82658E+07-7.96771E+05 3.04116E+07 7.07353E+07 1.81440E+05
 -1      1820 6.06140E+09-1.82658E+07-7.96771E+05 3.04116E+07 7.07353E+07 1.81440E+05
 -1      1821 5.90938E+09-1.68094E+07-8.08564E+05 8.25018E+07 6.46018E+07 2.66588E+05
 -1      1823 5.90938E+09-1.68094E+07-8.08564E+05 8.25018E+07 6.46018E+07 2.66588E+05
 -1      1824 5.64132E+09-1.48836E+07-6.45801E+05 1.29491E+08 5.69807E+07 3.85049E+05
 -1      1826 5.64132E+09-1.48836E+07-6.45801E+05 1.29491E+08 5.69807E+07 3.85049E+05
 -1      1827 5.27014E+09-1.26350E+07-6.02846E+05 1.70204E+08 4.79444E+07 4.66706E+05
 -1      1829 5.27014E+09-1.26350E+07-6.02846E+05 1.70204E+08 4.79444E+07 4.66706E+05
 -1      1830 4.81135E+09-9.98245E+06-4.23212E+05 2.03564E+08 3.77540E+07 5.52084E+05
 -1      1832 4.81135E+09-9.98245E+06-4.23212E+05 2.03564E+08 3.77540E+07 5.52084E+05
 -1      1833 4.28288E+09-7.09070E+06-3.34870E+05 2.28583E+08 2.64626E+07 6.15522E+05
 -1      1835 4.28288E+09-7.09070E+06-3.34870E+05 2.28583E+08 2.64626E+07 6.15522E+05
 -1      1836 3.70469E+09-3.85861E+06-1.43779E+05 2.44448E+08 1.45009E+07 6.67383E+05
 -1      1838 3.70469E+09-3.85861E+06-1.43779E+05 2.44448E+08 1.45009E+07 6.67383E+05
 -1      1839 3.09853E+09-5.56971E+05-2.00922E+04 2.50443E+08 1.85829E+06 6.99242E+05
 -1      1841 3.09853E+09-5.56971E+05-2.00922E+04 2.50443E+08 1.85829E+06 6.99242E+05
 -1      1842 2.48754E+09 3.16182E+06 1.72808E+05 2.46005E+08-1.08064E+07 7.32155E+05
 -1      1844 2.48754E+09 3.16182E+06 1.72808E+05 2.46005E+08-1.08064E+07 7.32155E+05
 -1      1845 1.89576E+09 6.39642E+06 3.24851E+05 2.30978E+08-2.36622E+07 6.86822E+05
 -1      1847 1.89576E+09 6.39642E+06 3.24851E+05 2.30978E+08-2.36622E+07 6.86822E+05
 -1      1848 1.34801E+09 1.04070E+07 4.97487E+05 2.05030E+08-3.57243E+07 8.09199E+05
 -1      1850 1.34801E+09 1.04070E+07 4.97487E+05 2.05030E+08-3.57243E+07 8.09199E+05
 -1      1851 8.68817E+08 1.51925E+07 6.89336E+05 1.66912E+08-4.73275E+07 4.39277E+05
 -1      1853 8.68817E+08 1.51925E+07 6.89336E+05 1.66912E+08-4.73275E+07 4.39277E+05
 -1      1854 4.81150E+08 1.07918E+07 8.28806E+05 1.24263E+08-5.72625E+07 1.27173E+06
 -1      1856 4.81150E+08 1.07918E+07 8.28806E+05 1.24263E+08-5.72625E+07 1.27173E+06
 -1      1857 2.03392E+08 1.90030E+07 9.19693E+05 7.93600E+07-6.47687E+07-6.09823E+05
 -1      1859 2.03392E+08 1.90030E+07 9.19693E+05 7.93600E+07-6.47687E+07-6.09823E+05
 -1      1860-3.01685E+09-4.56122E+03-4.37326E+08-2.21627E-04-1.36393E-05-4.63206E+09
 -1      1862-3.01685E+09-4.56122E+03-4.37326E+08-2.21627E-04-1.36393E-05-4.63206E+09
 -1      1863-2.34365E+09-1.62498E+05 1.82342E+07 1.72737E-04-4.91674E-05-4.67254E+09
 -1      1865-2.34365E+09-1.62498E+05 1.82342E+07 1.72737E-04-4.91674E-05-4.67254E+09
 -1      1866-1.62585E+09 1.09681E+05 1.10555E+08 4.70163E-05-1.59607E-04-4.52148E+09
 -1      1868-1.62585E+09 1.09681E+05 1.10555E+08 4.70163E-05-1.59607E-04-4.52148E+09
 -1      1869-9.56272E+08-1.41567E+04 1.14424E+08-5.23900E-05-3.51371E-04-4.39632E+09
 -1      1871-9.56272E+08-1.41567E+04 1.14424E+08-5.23900E-05-3.51371E-04-4.39632E+09
 -1      1872-3.31670E+08 9.69613E+03 1.50550E+08 1.06059E-06-5.44961E-04-4.18624E+09
 -1      1874-3.31670E+08 9.69613E+03 1.50550E+08 1.06059E-06-5.44961E-04-4.18624E+09
 -1      1875 2.67051E+08 4.79967E+04 1.78423E+08 5.33927E-05-7.00435E-04-3.94376E+09
 -1      1877 2.67051E+08 4.79967E+04 1.78423E+08 5.33927E-05-7.00435E-04-3.94376E+09
 -1      1878 8.21707E+08 8.59440E+03 2.10710E+08-1.02693E-04-8.47012E-04-3.64402E+09
 -1      1880 8.21707E+08 8.59440E+03 2.10710E+08-1.02693E-04-8.47012E-04-3.64402E+09
 -1      1881 1.33108E+09 6.09386E+04 2.37662E+08-1.54035E-05-8.81356E-04-3.30389E+09
 -1      1883 1.33108E+09 6.09386E+04 2.37662E+08-1.54035E-05-8.81356E-04-3.30389E+09
 -1      1884 1.78627E+09 2.60533E+04 2.62633E+08 5.64116E-05-1.19416E-03-2.92053E+09
 -1      1886 1.78627E+09 2.60533E+04 2.62633E+08 5.64116E-05-1.19416E-03-2.92053E+09
 -1      1887 2.18227E+09 6.31809E+04 2.82423E+08-2.87170E-05-1.55497E-03-2.50435E+09
 -1      1889 2.18227E+09 6.31809E+04 2.82423E+08-2.87170E-05-1.55497E-03-2.50435E+09
 -1      1890 2.51370E+09 4.16020E+04 2.97568E+08 1.98568E-05-1.48213E-03-2.05995E+09
 -1      1892 2.51370E+09 4.16020E+04 2.97568E+08 1.98568E-05-1.48213E-03-2.05995E+09
 -1      1893 2.77709E+09 6.27463E+04 3.06746E+08-1.90759E-04-1.19231E-03-1.59731E+09
 -1      1895 2.77709E+09 6.27463E+04 3.06746E+08-1.90759E-04-1.19231E-03-1.59731E+09
 -1      1896 2.96988E+09 5.05026E+04 3.09930E+08-9.53442E-05-9.55037E-04-1.12443E+09
 -1      1898 2.96988E+09 5.05026E+04 3.09930E+08-9.53442E-05-9.55037E-04-1.12443E+09
 -1      1899 3.09121E+09 6.01542E+04 3.06535E+08 1.84423E-04-8.54651E-04-6.51757E+08
 -1      1901 3.09121E+09 6.01542E+04 3.06535E+08 1.84423E-04-8.54651E-04-6.51757E+08
 -1      1902 3.14156E+09 5.22823E+04 2.96574E+08 2.22773E-05-8.80715E-04-1.88868E+08
 -1      1904 3.14156E+09 5.22823E+04 2.96574E+08 2.22773E-05-8.80715E-04-1.88868E+08
 -1      1905 3.12307E+09 5.46273E+04 2.79917E+08 1.39831E-04-8.42184E-04 2.53692E+08
 -1      1907 3.12307E+09 5.46273E+04 2.79917E+08 1.39831E-04-8.42184E-04 2.53692E+08
 -1      1908 3.03933E+09 4.75338E+04 2.56780E+08 9.91973E-05-7.03750E-04 6.66017E+08
 -1      1910 3.03933E+09 4.75338E+04 2.56780E+08 9.91973E-05-7.03750E-04 6.66017E+08
 -1      1911 2.89553E+09 4.57032E+04 2.27388E+08 7.49272E-06-5.66572E-04 1.03815E+09
 -1      1913 2.89553E+09 4.57032E+04 2.27388E+08 7.49272E-06-5.66572E-04 1.03815E+09
 -1      1914 2.69823E+09 3.72039E+04 1.92191E+08-9.72067E-05-5.63727E-04 1.36090E+09
 -1      1916 2.69823E+09 3.72039E+04 1.92191E+08-9.72067E-05-5.63727E-04 1.36090E+09
 -1      1917 2.45539E+09 3.34727E+04 1.51702E+08 1.09878E-04-5.39692E-04 1.62563E+09
 -1      1919 2.45539E+09 3.34727E+04 1.51702E+08 1.09878E-04-5.39692E-04 1.62563E+09
 -1      1920 2.17615E+09 2.25275E+04 1.06577E+08-4.08890E-05-3.62438E-04 1.82472E+09
 -1      1922 2.17615E+09 2.25275E+04 1.06577E+08-4.08890E-05-3.62438E-04 1.82472E+09
 -1      1923 1.87078E+09 1.84254E+04 5.75546E+07-1.18926E-04-3.32652E-04 1.95150E+09
 -1      1925 1.87078E+09 1.84254E+04 5.75546E+07-1.18926E-04-3.32652E-04 1.95150E+09
 -1      1926 1.55039E+09 5.13833E+03 5.41825E+06 2.31117E-06-2.36770E-04 2.00054E+09
 -1      1928 1.55039E+09 5.13833E+03 5.41825E+06 2.31117E-06-2.36770E-04 2.00054E+09
 -1      1929 1.22685E+09 1.10104E+03-4.89162E+07-3.34930E-05-1.20465E-04 1.96760E+09
 -1      1931 1.22685E+09 1.10104E+03-4.89162E+07-3.34930E-05-1.20465E-04 1.96760E+09
 -1      1932 9.12683E+08-1.27024E+04-1.04741E+08-1.73448E-05 4.47752E-05 1.84990E+09
 -1      1934 9.12683E+08-1.27024E+04-1.04741E+08-1.73448E-05 4.47752E-05 1.84990E+09
 -1      1935 6.20545E+08-1.82708E+04-1.61101E+08-1.09818E-04 1.58137E-04 1.64556E+09
 -1      1937 6.20545E+08-1.82708E+04-1.61101E+08-1.09818E-04 1.58137E-04 1.64556E+09
 -1      1938 3.64552E+08-2.83933E+04-2.18853E+08 4.74584E-05 1.29003E-04 1.35531E+09
 -1      1940 3.64552E+08-2.83933E+04-2.18853E+08 4.74584E-05 1.29003E-04 1.35531E+09
 -1      1941 1.61607E+08-4.37742E+04-2.74431E+08-2.48386E-05 2.54833E-04 9.77872E+08
 -1      1943 1.61607E+08-4.37742E+04-2.74431E+08-2.48386E-05 2.54833E-04 9.77872E+08
 -1      1944 3.32795E+07-2.83212E+04-3.17988E+08-6.44711E-06 4.69466E-05 5.21111E+08
 -1      1946 3.32795E+07-2.83212E+04-3.17988E+08-6.44711E-06 4.69466E-05 5.21111E+08
 -1      1947-5.00590E-03-1.11669E-04 6.49701E-03-2.37866E-04 6.78167E-05-4.80962E+09
 -1      1949-5.00590E-03-1.11669E-04 6.49701E-03-2.37866E-04 6.78167E-05-4.80962E+09
 -1      1950-6.39606E-03-1.54987E-04 6.44368E-03 2.50497E-04 1.86737E-04-5.01565E+09
 -1      1952-6.39606E-03-1.54987E-04 6.44368E-03 2.50497E-04 1.86737E-04-5.01565E+09
 -1      1953-5.46992E-03-1.24052E-04-1.59802E-03 6.25096E-05 2.33109E-04-4.88530E+09
 -1      1955-5.46992E-03-1.24052E-04-1.59802E-03 6.25096E-05 2.33109E-04-4.88530E+09
 -1      1956-4.26869E-03-1.05865E-04-1.04867E-02-1.96325E-04 1.54891E-04-4.70869E+09
 -1      1958-4.26869E-03-1.05865E-04-1.04867E-02-1.96325E-04 1.54891E-04-4.70869E+09
 -1      1959-2.71521E-03 2.45796E-04-1.25621E-02-9.41228E-05-5.46436E-06-4.49132E+09
 -1      1961-2.71521E-03 2.45796E-04-1.25621E-02-9.41228E-05-5.46436E-06-4.49132E+09
 -1      1962-2.73377E-03 2.37935E-04-7.34536E-03-1.04286E-04-2.39872E-04-4.22520E+09
 -1      1964-2.73377E-03 2.37935E-04-7.34536E-03-1.04286E-04-2.39872E-04-4.22520E+09
 -1      1965-4.48823E-03 2.20500E-04 7.75732E-04-3.09812E-04-3.44536E-04-3.90663E+09
 -1      1967-4.48823E-03 2.20500E-04 7.75732E-04-3.09812E-04-3.44536E-04-3.90663E+09
 -1      1968-4.39867E-03 3.38562E-04 4.11519E-03-9.74793E-05-2.04564E-04-3.54037E+09
 -1      1970-4.39867E-03 3.38562E-04 4.11519E-03-9.74793E-05-2.04564E-04-3.54037E+09
 -1      1971-1.79258E-03 2.91944E-04 2.21573E-04 1.30619E-05-1.83998E-04-3.13037E+09
 -1      1973-1.79258E-03 2.91944E-04 2.21573E-04 1.30619E-05-1.83998E-04-3.13037E+09
 -1      1974 1.19352E-03 2.12401E-04-2.14867E-03-7.38551E-05-2.14302E-04-2.68359E+09
 -1      1976 1.19352E-03 2.12401E-04-2.14867E-03-7.38551E-05-2.14302E-04-2.68359E+09
 -1      1977 2.89512E-03 8.53837E-06 3.48527E-03-1.42307E-05-3.88291E-04-2.20751E+09
 -1      1979 2.89512E-03 8.53837E-06 3.48527E-03-1.42307E-05-3.88291E-04-2.20751E+09
 -1      1980 2.68972E-03 1.22011E-04 1.23042E-02-2.96508E-04-5.59731E-04-1.71121E+09
 -1      1982 2.68972E-03 1.22011E-04 1.23042E-02-2.96508E-04-5.59731E-04-1.71121E+09
 -1      1983 2.20466E-03 1.00076E-04 1.72260E-02-5.18505E-05-4.47868E-04-1.20433E+09
 -1      1985 2.20466E-03 1.00076E-04 1.72260E-02-5.18505E-05-4.47868E-04-1.20433E+09
 -1      1986 2.83611E-03 1.85937E-04 1.75693E-02 2.90264E-04-6.20854E-04-6.97368E+08
 -1      1988 2.83611E-03 1.85937E-04 1.75693E-02 2.90264E-04-6.20854E-04-6.97368E+08
 -1      1989 1.88756E-03 3.30061E-04 1.73047E-02 8.65617E-05-7.78324E-04-2.01061E+08
 -1      1991 1.88756E-03 3.30061E-04 1.73047E-02 8.65617E-05-7.78324E-04-2.01061E+08
 -1      1992-1.12677E-03 1.01119E-04 1.81881E-02 1.86652E-04-5.68611E-04 2.73590E+08
 -1      1994-1.12677E-03 1.01119E-04 1.81881E-02 1.86652E-04-5.68611E-04 2.73590E+08
 -1      1995-1.39958E-03-3.63588E-05 1.67740E-02 1.90010E-04-3.09788E-04 7.15757E+08
 -1      1997-1.39958E-03-3.63588E-05 1.67740E-02 1.90010E-04-3.09788E-04 7.15757E+08
 -1      1998 2.06989E-03 1.68979E-04 1.02832E-02 7.54146E-05-1.48658E-04 1.11490E+09
 -1      2000 2.06989E-03 1.68979E-04 1.02832E-02 7.54146E-05-1.48658E-04 1.11490E+09
 -1      2001 3.27861E-03-8.93176E-05 7.84129E-04-1.01116E-04 2.37846E-05 1.46107E+09
 -1      2003 3.27861E-03-8.93176E-05 7.84129E-04-1.01116E-04 2.37846E-05 1.46107E+09
 -1      2004-5.81741E-05-1.65716E-04-5.89509E-03 2.66302E-04-2.97766E-06 1.74507E+09
 -1      2006-5.81741E-05-1.65716E-04-5.89509E-03 2.66302E-04-2.97766E-06 1.74507E+09
 -1      2007-3.65281E-03 6.48171E-04-4.96145E-03 8.87234E-05-3.02675E-04 1.95869E+09
 -1      2009-3.65281E-03 6.48171E-04-4.96145E-03 8.87234E-05-3.02675E-04 1.95869E+09
 -1      2010-6.81657E-03 4.06429E-04 1.86934E-03-2.07030E-04-2.83686E-04 2.09480E+09
 -1      2012-6.81657E-03 4.06429E-04 1.86934E-03-2.07030E-04-2.83686E-04 2.09480E+09
 -1      2013-1.04087E-02 6.89924E-05 1.00557E-02-1.58919E-05-1.69183E-04 2.14755E+09
 -1      2015-1.04087E-02 6.89924E-05 1.00557E-02-1.58919E-05-1.69183E-04 2.14755E+09
 -1      2016-1.09299E-02 3.27624E-04 1.58175E-02 1.43666E-04-1.54474E-05 2.11241E+09
 -1      2018-1.09299E-02 3.27624E-04 1.58175E-02 1.43666E-04-1.54474E-05 2.11241E+09
 -1      2019-7.07038E-03 7.60388E-04 1.72739E-02-2.21019E-05 1.04944E-04 1.98626E+09
 -1      2021-7.07038E-03 7.60388E-04 1.72739E-02-2.21019E-05 1.04944E-04 1.98626E+09
 -1      2022-2.98788E-03 3.20803E-05 1.64557E-02-1.31140E-04-4.10179E-05 1.76714E+09
 -1      2024-2.98788E-03 3.20803E-05 1.64557E-02-1.31140E-04-4.10179E-05 1.76714E+09
 -1      2025-1.16007E-03-3.14598E-04 1.64287E-02-1.71025E-04-3.26479E-04 1.45347E+09
 -1      2027-1.16007E-03-3.14598E-04 1.64287E-02-1.71025E-04-3.26479E-04 1.45347E+09
 -1      2028-1.10409E-03-1.94096E-04 1.51571E-02-1.37978E-04-6.16253E-04 1.04422E+09
 -1      2030-1.10409E-03-1.94096E-04 1.51571E-02-1.37978E-04-6.16253E-04 1.04422E+09
 -1      2031-1.17724E-03-2.20086E-04 1.12498E-02 6.74657E-05-5.98516E-04 5.47813E+08
 -1      2033-1.17724E-03-2.20086E-04 1.12498E-02 6.74657E-05-5.98516E-04 5.47813E+08
 -1      2034 3.01685E+09 4.56122E+03 4.37326E+08-1.05412E-04 2.40915E-05-4.63206E+09
 -1      2036 3.01685E+09 4.56122E+03 4.37326E+08-1.05412E-04 2.40915E-05-4.63206E+09
 -1      2037 2.34365E+09 1.62498E+05-1.82342E+07 9.38629E-05-1.00374E-04-4.67254E+09
 -1      2039 2.34365E+09 1.62498E+05-1.82342E+07 9.38629E-05-1.00374E-04-4.67254E+09
 -1      2040 1.62585E+09-1.09681E+05-1.10555E+08 3.48379E-05-2.35848E-04-4.52148E+09
 -1      2042 1.62585E+09-1.09681E+05-1.10555E+08 3.48379E-05-2.35848E-04-4.52148E+09
 -1      2043 9.56272E+08 1.41567E+04-1.14424E+08-1.54969E-04-7.30489E-05-4.39632E+09
 -1      2045 9.56272E+08 1.41567E+04-1.14424E+08-1.54969E-04-7.30489E-05-4.39632E+09
 -1      2046 3.31670E+08-9.69613E+03-1.50550E+08-2.83675E-05 3.11563E-04-4.18624E+09
 -1      2048 3.31670E+08-9.69613E+03-1.50550E+08-2.83675E-05 3.11563E-04-4.18624E+09
 -1      2049-2.67051E+08-4.79967E+04-1.78423E+08-5.94601E-05 6.98026E-04-3.94376E+09
 -1      2051-2.67051E+08-4.79967E+04-1.78423E+08-5.94601E-05 6.98026E-04-3.94376E+09
 -1      2052-8.21707E+08-8.59440E+03-2.10710E+08-1.41055E-04 1.16227E-03-3.64402E+09
 -1      2054-8.21707E+08-8.59440E+03-2.10710E+08-1.41055E-04 1.16227E-03-3.64402E+09
 -1      2055-1.33108E+09-6.09386E+04-2.37662E+08 3.46206E-07 1.52847E-03-3.30389E+09
 -1      2057-1.33108E+09-6.09386E+04-2.37662E+08 3.46206E-07 1.52847E-03-3.30389E+09
 -1      2058-1.78627E+09-2.60533E+04-2.62633E+08 7.39642E-05 1.49333E-03-2.92053E+09
 -1      2060-1.78627E+09-2.60533E+04-2.62633E+08 7.39642E-05 1.49333E-03-2.92053E+09
 -1      2061-2.18227E+09-6.31809E+04-2.82423E+08-1.68701E-05 1.30133E-03-2.50435E+09
 -1      2063-2.18227E+09-6.31809E+04-2.82423E+08-1.68701E-05 1.30133E-03-2.50435E+09
 -1      2064-2.51370E+09-4.16020E+04-2.97568E+08 2.59902E-05 1.29854E-03-2.05995E+09
 -1      2066-2.51370E+09-4.16020E+04-2.97568E+08 2.59902E-05 1.29854E-03-2.05995E+09
 -1      2067-2.77709E+09-6.27463E+04-3.06746E+08-9.48291E-05 1.69232E-03-1.59731E+09
 -1      2069-2.77709E+09-6.27463E+04-3.06746E+08-9.48291E-05 1.69232E-03-1.59731E+09
 -1      2070-2.96988E+09-5.05026E+04-3.09930E+08 5.57886E-05 2.13297E-03-1.12443E+09
 -1      2072-2.96988E+09-5.05026E+04-3.09930E+08 5.57886E-05 2.13297E-03-1.12443E+09
 -1      2073-3.09121E+09-6.01542E+04-3.06535E+08 1.15000E-04 2.21296E-03-6.51757E+08
 -1      2075-3.09121E+09-6.01542E+04-3.06535E+08 1.15000E-04 2.21296E-03-6.51757E+08
 -1      2076-3.14156E+09-5.22823E+04-2.96574E+08-1.76824E-05 1.90486E-03-1.88868E+08
 -1      2078-3.14156E+09-5.22823E+04-2.96574E+08-1.76824E-05 1.90486E-03-1.88868E+08
 -1      2079-3.12307E+09-5.46273E+04-2.79917E+08-4.91614E-06 1.26595E-03 2.53692E+08
 -1      2081-3.12307E+09-5.46273E+04-2.79917E+08-4.91614E-06 1.26595E-03 2.53692E+08
 -1      2082-3.03933E+09-4.75338E+04-2.56780E+08 2.80075E-05 9.46109E-04 6.66017E+08
 -1      2084-3.03933E+09-4.75338E+04-2.56780E+08 2.80075E-05 9.46109E-04 6.66017E+08
 -1      2085-2.89553E+09-4.57032E+04-2.27388E+08 1.01093E-04 8.26319E-04 1.03815E+09
 -1      2087-2.89553E+09-4.57032E+04-2.27388E+08 1.01093E-04 8.26319E-04 1.03815E+09
 -1      2088-2.69823E+09-3.72039E+04-1.92191E+08-4.74144E-05 7.07475E-04 1.36090E+09
 -1      2090-2.69823E+09-3.72039E+04-1.92191E+08-4.74144E-05 7.07475E-04 1.36090E+09
 -1      2091-2.45539E+09-3.34727E+04-1.51702E+08 2.17092E-04 7.91411E-04 1.62563E+09
 -1      2093-2.45539E+09-3.34727E+04-1.51702E+08 2.17092E-04 7.91411E-04 1.62563E+09
 -1      2094-2.17615E+09-2.25275E+04-1.06577E+08 8.64893E-05 7.93068E-04 1.82472E+09
 -1      2096-2.17615E+09-2.25275E+04-1.06577E+08 8.64893E-05 7.93068E-04 1.82472E+09
 -1      2097-1.87078E+09-1.84254E+04-5.75546E+07-7.44080E-05 8.35112E-04 1.95150E+09
 -1      2099-1.87078E+09-1.84254E+04-5.75546E+07-7.44080E-05 8.35112E-04 1.95150E+09
 -1      2100-1.55039E+09-5.13833E+03-5.41825E+06 9.12119E-06 7.51583E-04 2.00054E+09
 -1      2102-1.55039E+09-5.13833E+03-5.41825E+06 9.12119E-06 7.51583E-04 2.00054E+09
 -1      2103-1.22685E+09-1.10104E+03 4.89162E+07 1.84550E-04 5.49272E-04 1.96760E+09
 -1      2105-1.22685E+09-1.10104E+03 4.89162E+07 1.84550E-04 5.49272E-04 1.96760E+09
 -1      2106-9.12683E+08 1.27024E+04 1.04741E+08 4.45514E-06 6.89116E-04 1.84990E+09
 -1      2108-9.12683E+08 1.27024E+04 1.04741E+08 4.45514E-06 6.89116E-04 1.84990E+09
 -1      2109-6.20545E+08 1.82708E+04 1.61101E+08-4.91514E-05 8.12479E-04 1.64556E+09
 -1      2111-6.20545E+08 1.82708E+04 1.61101E+08-4.91514E-05 8.12479E-04 1.64556E+09
 -1      2112-3.64552E+08 2.83933E+04 2.18853E+08-1.82719E-04 9.56384E-04 1.35531E+09
 -1      2114-3.64552E+08 2.83933E+04 2.18853E+08-1.82719E-04 9.56384E-04 1.35531E+09
 -1      2115-1.61607E+08 4.37742E+04 2.74431E+08-1.58330E-04 1.17824E-03 9.77872E+08
 -1      2117-1.61607E+08 4.37742E+04 2.74431E+08-1.58330E-04 1.17824E-03 9.77872E+08
 -1      2118-3.32795E+07 2.83212E+04 3.17988E+08 1.17838E-04 1.12551E-03 5.21111E+08
 -1      2120-3.32795E+07 2.83212E+04 3.17988E+08 1.17838E-04 1.12551E-03 5.21111E+08
 -1      2121 5.84614E+09 2.14671E+08-1.36527E+06 5.36899E+08-1.55617E+07-4.55362E+07
 -1      2123 5.84614E+09 2.14671E+08-1.36527E+06 5.36899E+08-1.55617E+07-4.55362E+07
 -1      2124 4.55195E+09-1.30058E+08 2.19917E+05 5.15447E+08 1.81766E+07 2.32133E+07
 -1      2126 4.55195E+09-1.30058E+08 2.19917E+05 5.15447E+08 1.81766E+07 2.32133E+07
 -1      2127 3.25954E+09 2.88838E+07 4.57069E+05 5.91260E+08 2.25598E+07-1.21827E+07
 -1      2129 3.25954E+09 2.88838E+07 4.57069E+05 5.91260E+08 2.25598E+07-1.21827E+07
 -1      2130 1.98791E+09 8.71644E+06 2.50054E+05 5.58575E+08 3.10645E+07 4.59086E+06
 -1      2132 1.98791E+09 8.71644E+06 2.50054E+05 5.58575E+08 3.10645E+07 4.59086E+06
 -1      2133 7.53971E+08 6.46989E+06 5.37044E+05 5.29455E+08 4.16217E+07-3.60127E+06
 -1      2135 7.53971E+08 6.46989E+06 5.37044E+05 5.29455E+08 4.16217E+07-3.60127E+06
 -1      2136-4.12412E+08 1.22375E+07 4.65605E+05 5.02312E+08 4.78070E+07 5.80990E+05
 -1      2138-4.12412E+08 1.22375E+07 4.65605E+05 5.02312E+08 4.78070E+07 5.80990E+05
 -1      2139-1.50441E+09 1.34848E+07 7.39825E+05 4.62875E+08 5.70105E+07-1.54879E+06
 -1      2141-1.50441E+09 1.34848E+07 7.39825E+05 4.62875E+08 5.70105E+07-1.54879E+06
 -1      2142-2.50355E+09 1.52211E+07 6.26502E+05 4.20032E+08 6.27027E+07-2.59850E+05
 -1      2144-2.50355E+09 1.52211E+07 6.26502E+05 4.20032E+08 6.27027E+07-2.59850E+05
 -1      2145-3.39845E+09 1.70857E+07 8.91680E+05 3.71333E+08 6.93471E+07-8.89729E+05
 -1      2147-3.39845E+09 1.70857E+07 8.91680E+05 3.71333E+08 6.93471E+07-8.89729E+05
 -1      2148-4.17708E+09 1.82318E+07 7.69171E+05 3.18581E+08 7.35377E+07-3.54311E+05
 -1      2150-4.17708E+09 1.82318E+07 7.69171E+05 3.18581E+08 7.35377E+07-3.54311E+05
 -1      2151-4.83036E+09 1.93700E+07 9.78705E+05 2.62288E+08 7.72507E+07-5.28008E+05
 -1      2153-4.83036E+09 1.93700E+07 9.78705E+05 2.62288E+08 7.72507E+07-5.28008E+05
 -1      2154-5.35107E+09 1.99017E+07 8.55857E+05 2.03704E+08 7.89746E+07-2.32587E+05
 -1      2156-5.35107E+09 1.99017E+07 8.55857E+05 2.03704E+08 7.89746E+07-2.32587E+05
 -1      2157-5.73481E+09 2.02028E+07 9.97551E+05 1.43864E+08 7.94720E+07-2.36532E+05
 -1      2159-5.73481E+09 2.02028E+07 9.97551E+05 1.43864E+08 7.94720E+07-2.36532E+05
 -1      2160-5.97979E+09 1.99504E+07 8.67336E+05 8.40624E+07 7.81522E+07-3.54085E+04
 -1      2162-5.97979E+09 1.99504E+07 8.67336E+05 8.40624E+07 7.81522E+07-3.54085E+04
 -1      2163-6.08727E+09 1.93670E+07 9.41559E+05 2.55317E+07 7.52894E+07 2.83708E+04
 -1      2165-6.08727E+09 1.93670E+07 9.41559E+05 2.55317E+07 7.52894E+07 2.83708E+04
 -1      2166-6.06140E+09 1.82658E+07 7.96771E+05-3.04116E+07 7.07353E+07 1.81440E+05
 -1      2168-6.06140E+09 1.82658E+07 7.96771E+05-3.04116E+07 7.07353E+07 1.81440E+05
 -1      2169-5.90938E+09 1.68094E+07 8.08564E+05-8.25018E+07 6.46018E+07 2.66588E+05
 -1      2171-5.90938E+09 1.68094E+07 8.08564E+05-8.25018E+07 6.46018E+07 2.66588E+05
 -1      2172-5.64132E+09 1.48836E+07 6.45801E+05-1.29491E+08 5.69807E+07 3.85049E+05
 -1      2174-5.64132E+09 1.48836E+07 6.45801E+05-1.29491E+08 5.69807E+07 3.85049E+05
 -1      2175-5.27014E+09 1.26350E+07 6.02846E+05-1.70204E+08 4.79444E+07 4.66706E+05
 -1      2177-5.27014E+09 1.26350E+07 6.02846E+05-1.70204E+08 4.79444E+07 4.66706E+05
 -1      2178-4.81135E+09 9.98245E+06 4.23212E+05-2.03564E+08 3.77540E+07 5.52084E+05
 -1      2180-4.81135E+09 9.98245E+06 4.23212E+05-2.03564E+08 3.77540E+07 5.52084E+05
 -1      2181-4.28288E+09 7.09070E+06 3.34870E+05-2.28583E+08 2.64626E+07 6.15522E+05
 -1      2183-4.28288E+09 7.09070E+06 3.34870E+05-2.28583E+08 2.64626E+07 6.15522E+05
 -1      2184-3.70469E+09 3.85861E+06 1.43779E+05-2.44448E+08 1.45009E+07 6.67383E+05
 -1      2186-3.70469E+09 3.85861E+06 1.43779E+05-2.44448E+08 1.45009E+07 6.67383E+05
 -1      2187-3.09853E+09 5.56971E+05 2.00922E+04-2.50443E+08 1.85829E+06 6.99242E+05
 -1      2189-3.09853E+09 5.56971E+05 2.00922E+04-2.50443E+08 1.85829E+06 6.99242E+05
 -1      2190-2.48754E+09-3.16182E+06-1.72808E+05-2.46005E+08-1.08064E+07 7.32155E+05
 -1      2192-2.48754E+09-3.16182E+06-1.72808E+05-2.46005E+08-1.08064E+07 7.32155E+05
 -1      2193-1.89576E+09-6.39642E+06-3.24851E+05-2.30978E+08-2.36622E+07 6.86822E+05
 -1      2195-1.89576E+09-6.39642E+06-3.24851E+05-2.30978E+08-2.36622E+07 6.86822E+05
 -1      2196-1.34801E+09-1.04070E+07-4.97487E+05-2.05030E+08-3.57243E+07 8.09199E+05
 -1      2198-1.34801E+09-1.04070E+07-4.97487E+05-2.05030E+08-3.57243E+07 8.09199E+05
 -1      2199-8.68817E+08-1.51925E+07-6.89336E+05-1.66912E+08-4.73275E+07 4.39277E+05
 -1      2201-8.68817E+08-1.51925E+07-6.89336E+05-1.66912E+08-4.73275E+07 4.39277E+05
 -1      2202-4.81150E+08-1.07918E+07-8.28806E+05-1.24263E+08-5.72625E+07 1.27173E+06
 -1      2204-4.81150E+08-1.07918E+07-8.28806E+05-1.24263E+08-5.72625E+07 1.27173E+06
 -1      2205-2.03392E+08-1.90030E+07-9.19693E+05-7.93600E+07-6.47687E+07-6.09823E+05
 -1      2207-2.03392E+08-1.90030E+07-9.19693E+05-7.93600E+07-6.47687E+07-6.09823E+05
 -1      2208 5.84614E+09 2.14671E+08-1.36527E+06-5.36899E+08 1.55617E+07-4.55362E+07
 -1      2210 5.84614E+09 2.14671E+08-1.36527E+06-5.36899E+08 1.55617E+07-4.55362E+07
 -1      2211 4.55195E+09-1.30058E+08 2.19917E+05-5.15447E+08-1.81766E+07 2.32133E+07
 -1      2213 4.55195E+09-1.30058E+08 2.19917E+05-5.15447E+08-1.81766E+07 2.32133E+07
 -1      2214 3.25954E+09 2.88838E+07 4.57069E+05-5.91260E+08-2.25598E+07-1.21827E+07
 -1      2216 3.25954E+09 2.88838E+07 4.57069E+05-5.91260E+08-2.25598E+07-1.21827E+07
 -1      2217 1.98791E+09 8.71644E+06 2.50054E+05-5.58575E+08-3.10645E+07 4.59086E+06
 -1      2219 1.98791E+09 8.71644E+06 2.50054E+05-5.58575E+08-3.10645E+07 4.59086E+06
 -1      2220 7.53971E+08 6.46989E+06 5.37044E+05-5.29455E+08-4.16217E+07-3.60127E+06
 -1      2222 7.53971E+08 6.46989E+06 5.37044E+05-5.29455E+08-4.16217E+07-3.60127E+06
 -1      2223-4.12412E+08 1.22375E+07 4.65605E+05-5.02312E+08-4.78070E+07 5.80990E+05
 -1      2225-4.12412E+08 1.22375E+07 4.65605E+05-5.02312E+08-4.78070E+07 5.80990E+05
 -1      2226-1.50441E+09 1.34848E+07 7.39825E+05-4.62875E+08-5.70105E+07-1.54879E+06
 -1      2228-1.50441E+09 1.34848E+07 7.39825E+05-4.62875E+08-5.70105E+07-1.54879E+06
 -1      2229-2.50355E+09 1.52211E+07 6.26502E+05-4.20032E+08-6.27027E+07-2.59850E+05
 -1      2231-2.50355E+09 1.52211E+07 6.26502E+05-4.20032E+08-6.27027E+07-2.59850E+05
 -1      2232-3.39845E+09 1.70857E+07 8.91680E+05-3.71333E+08-6.93471E+07-8.89729E+05
 -1      2234-3.39845E+09 1.70857E+07 8.91680E+05-3.71333E+08-6.93471E+07-8.89729E+05
 -1      2235-4.17708E+09 1.82318E+07 7.69171E+05-3.18581E+08-7.35377E+07-3.54311E+05
 -1      2237-4.17708E+09 1.82318E+07 7.69171E+05-3.18581E+08-7.35377E+07-3.54311E+05
 -1      2238-4.83036E+09 1.93700E+07 9.78705E+05-2.62288E+08-7.72507E+07-5.28008E+05
 -1      2240-4.83036E+09 1.93700E+07 9.78705E+05-2.62288E+08-7.72507E+07-5.28008E+05
 -1      2241-5.35107E+09 1.99017E+07 8.55857E+05-2.03704E+08-7.89746E+07-2.32587E+05
 -1      2243-5.35107E+09 1.99017E+07 8.55857E+05-2.03704E+08-7.89746E+07-2.32587E+05
 -1      2244-5.73481E+09 2.02028E+07 9.97551E+05-1.43864E+08-7.94720E+07-2.36532E+05
 -1      2246-5.73481E+09 2.02028E+07 9.97551E+05-1.43864E+08-7.94720E+07-2.36532E+05
 -1      2247-5.97979E+09 1.99504E+07 8.67336E+05-8.40624E+07-7.81522E+07-3.54085E+04
 -1      2249-5.97979E+09 1.99504E+07 8.67336E+05-8.40624E+07-7.81522E+07-3.54085E+04
 -1      2250-6.08727E+09 1.93670E+07 9.41559E+05-2.55317E+07-7.52894E+07 2.83708E+04
 -1      2252-6.08727E+09 1.93670E+07 9.41559E+05-2.55317E+07-7.52894E+07 2.83708E+04
 -1      2253-6.06140E+09 1.82658E+07 7.96771E+05 3.04116E+07-7.07353E+07 1.81440E+05
 -1      2255-6.06140E+09 1.82658E+07 7.96771E+05 3.04116E+07-7.07353E+07 1.81440E+05
 -1      2256-5.90938E+09 1.68094E+07 8.08564E+05 8.25018E+07-6.46018E+07 2.66588E+05
 -1      2258-5.90938E+09 1.68094E+07 8.08564E+05 8.25018E+07-6.46018E+07 2.66588E+05
 -1      2259-5.64132E+09 1.48836E+07 6.45801E+05 1.29491E+08-5.69807E+07 3.85049E+05
 -1      2261-5.64132E+09 1.48836E+07 6.45801E+05 1.29491E+08-5.69807E+07 3.85049E+05
 -1      2262-5.27014E+09 1.26350E+07 6.02846E+05 1.70204E+08-4.79444E+07 4.66706E+05
 -1      2264-5.27014E+09 1.26350E+07 6.02846E+05 1.70204E+08-4.79444E+07 4.66706E+05
 -1      2265-4.81135E+09 9.98245E+06 4.23212E+05 2.03564E+08-3.77540E+07 5.52084E+05
 -1      2267-4.81135E+09 9.98245E+06 4.23212E+05 2.03564E+08-3.77540E+07 5.52084E+05
 -1      2268-4.28288E+09 7.09070E+06 3.34870E+05 2.28583E+08-2.64626E+07 6.15522E+05
 -1      2270-4.28288E+09 7.09070E+06 3.34870E+05 2.28583E+08-2.64626E+07 6.15522E+05
 -1      2271-3.70469E+09 3.85861E+06 1.43779E+05 2.44448E+08-1.45009E+07 6.67383E+05
 -1      2273-3.70469E+09 3.85861E+06 1.43779E+05 2.44448E+08-1.45009E+07 6.67383E+05
 -1      2274-3.09853E+09 5.56971E+05 2.00922E+04 2.50443E+08-1.85829E+06 6.99242E+05
 -1      2276-3.09853E+09 5.56971E+05 2.00922E+04 2.50443E+08-1.85829E+06 6.99242E+05
 -1      2277-2.48754E+09-3.16182E+06-1.72808E+05 2.46005E+08 1.08064E+07 7.32155E+05
 -1      2279-2.48754E+09-3.16182E+06-1.72808E+05 2.46005E+08 1.08064E+07 7.32155E+05
 -1      2280-1.89576E+09-6.39642E+06-3.24851E+05 2.30978E+08 2.36622E+07 6.86822E+05
 -1      2282-1.89576E+09-6.39642E+06-3.24851E+05 2.30978E+08 2.36622E+07 6.86822E+05
 -1      2283-1.34801E+09-1.04070E+07-4.97487E+05 2.05030E+08 3.57243E+07 8.09199E+05
 -1      2285-1.34801E+09-1.04070E+07-4.97487E+05 2.05030E+08 3.57243E+07 8.09199E+05
 -1      2286-8.68817E+08-1.51925E+07-6.89336E+05 1.66912E+08 4.73275E+07 4.39277E+05
 -1      2288-8.68817E+08-1.51925E+07-6.89336E+05 1.66912E+08 4.73275E+07 4.39277E+05
 -1      2289-4.81150E+08-1.07918E+07-8.28806E+05 1.24263E+08 5.72625E+07 1.27173E+06
 -1      2291-4.81150E+08-1.07918E+07-8.28806E+05 1.24263E+08 5.72625E+07 1.27173E+06
 -1      2292-2.03392E+08-1.90030E+07-9.19693E+05 7.93600E+07 6.47687E+07-6.09823E+05
 -1      2294-2.03392E+08-1.90030E+07-9.19693E+05 7.93600E+07 6.47687E+07-6.09823E+05
 -3
    1PSTEP                        31           1           1          
    1PGM                1.000000E+00                                  
    1PGK                2.509314E+06                                  
    1PHID                         -1                                  
    1PSUBC                         0                                  
    1PMODE                         8                                  
  100CL  108 252.1143700         930                     2    8MODAL      1
 -4  FORC        4    1
 -5  F1          1    2    1    0
 -5  F2          1    2    2    0
 -5  F3          1    2    3    0
 -5  ALL         1    2    0    0    1ALL
 -1       404 1.36379E+06-2.69883E+05 6.82893E+04
 -1       406 8.98885E+05-3.62049E+05 6.82893E+04
 -1       407 4.74127E+03 5.76374E-01 1.82194E+04
 -1       409 4.74127E+03 5.76373E-01 1.82194E+04
 -1       410 8.55608E+04-8.12085E-07-1.22223E+05
 -1       412 8.55608E+04 1.75342E-07-1.00095E+05
 -1       413-7.10199E+04 1.73679E+04 1.67827E+05
 -1       415-7.10199E+04-1.73679E+04 1.67827E+05
 -1       424 2.26288E+06 1.21276E-06-2.67922E+04
 -1       426 9.63192E+05 1.30331E-06 1.39329E+04
 -1       427 2.33182E+06 3.19644E+04 1.23961E+06
 -1       429 2.33182E+06-3.19644E+04 1.23961E+06
 -1       438 4.74127E+03-5.76373E-01 1.82194E+04
 -1       440 4.74127E+03-5.76374E-01 1.82194E+04
 -1       441 1.36379E+06 2.69883E+05 6.82893E+04
 -1       443 8.98885E+05 3.62049E+05 6.82893E+04
 -1       444-2.33182E+06-3.19644E+04 1.23961E+06
 -1       446-2.33182E+06 3.19644E+04 1.23961E+06
 -1       447-2.26288E+06-4.88299E-07-2.67922E+04
 -1       449-9.63192E+05-9.71622E-07 1.39329E+04
 -1       458 7.10199E+04-1.73679E+04 1.67827E+05
 -1       460 7.10199E+04 1.73679E+04 1.67827E+05
 -1       461-8.55608E+04 3.01069E-06-1.22223E+05
 -1       463-8.55608E+04-8.20948E-06-1.00095E+05
 -1       472-1.36379E+06-2.69883E+05 6.82893E+04
 -1       474-8.98885E+05-3.62049E+05 6.82893E+04
 -1       475-4.74127E+03 5.76374E-01 1.82194E+04
 -1       477-4.74127E+03 5.76373E-01 1.82194E+04
 -1       478-4.74127E+03-5.76373E-01 1.82194E+04
 -1       480-4.74127E+03-5.76373E-01 1.82194E+04
 -1       481-1.36379E+06 2.69883E+05 6.82893E+04
 -1       483-8.98885E+05 3.62049E+05 6.82893E+04
 -1       484-8.23355E+02 1.48764E+02-2.53509E+03
 -1       486-8.23355E+02 1.48764E+02-2.53509E+03
 -1       487-1.54296E+03 1.45254E+02-5.61636E+03
 -1       489-1.54296E+03 1.45254E+02-5.61636E+03
 -1       490-2.10066E+03 9.09589E+01-8.95619E+03
 -1       492-2.10066E+03 9.09589E+01-8.95619E+03
 -1       493-2.47694E+03 5.60469E+01-1.24139E+04
 -1       495-2.47694E+03 5.60469E+01-1.24139E+04
 -1       496-2.67374E+03 2.09499E+01-1.59442E+04
 -1       498-2.67374E+03 2.09499E+01-1.59442E+04
 -1       499-2.70058E+03-1.35645E+01-1.94019E+04
 -1       501-2.70058E+03-1.35645E+01-1.94019E+04
 -1       502-2.56702E+03-4.51509E+01-2.26869E+04
 -1       504-2.56702E+03-4.51509E+01-2.26869E+04
 -1       505-2.28492E+03-7.42603E+01-2.56856E+04
 -1       507-2.28492E+03-7.42603E+01-2.56856E+04
 -1       508-1.86833E+03-1.00284E+02-2.83013E+04
 -1       510-1.86833E+03-1.00284E+02-2.83013E+04
 -1       511-1.33287E+03-1.22923E+02-3.04439E+04
 -1       513-1.33287E+03-1.22923E+02-3.04439E+04
 -1       514-6.95692E+02-1.41902E+02-3.20370E+04
 -1       516-6.95692E+02-1.41902E+02-3.20370E+04
 -1       517 2.49288E+01-1.57006E+02-3.30170E+04
 -1       519 2.49288E+01-1.57006E+02-3.30170E+04
 -1       520 8.09875E+02-1.68106E+02-3.33353E+04
 -1       522 8.09875E+02-1.68106E+02-3.33353E+04
 -1       523 1.63961E+03-1.75147E+02-3.29590E+04
 -1       525 1.63961E+03-1.75147E+02-3.29590E+04
 -1       526 2.49454E+03-1.78164E+02-3.18710E+04
 -1       528 2.49454E+03-1.78164E+02-3.18710E+04
 -1       529 3.35549E+03-1.77277E+02-3.00708E+04
 -1       531 3.35549E+03-1.77277E+02-3.00708E+04
 -1       532 4.20407E+03-1.72694E+02-2.75738E+04
 -1       534 4.20407E+03-1.72694E+02-2.75738E+04
 -1       535 5.02313E+03-1.64710E+02-2.44107E+04
 -1       537 5.02313E+03-1.64710E+02-2.44107E+04
 -1       538 5.79715E+03-1.53701E+02-2.06271E+04
 -1       540 5.79715E+03-1.53701E+02-2.06271E+04
 -1       541 6.51263E+03-1.40118E+02-1.62820E+04
 -1       543 6.51263E+03-1.40118E+02-1.62820E+04
 -1       544 7.15844E+03-1.24486E+02-1.14462E+04
 -1       546 7.15844E+03-1.24486E+02-1.14462E+04
 -1       547 7.72614E+03-1.07384E+02-6.20116E+03
 -1       549 7.72614E+03-1.07384E+02-6.20116E+03
 -1       550 8.21025E+03-8.94526E+01-6.36594E+02
 -1       552 8.21025E+03-8.94526E+01-6.36594E+02
 -1       553 8.60848E+03-7.13468E+01 5.15105E+03
 -1       555 8.60848E+03-7.13468E+01 5.15105E+03
 -1       556 8.92189E+03-5.38263E+01 1.10610E+04
 -1       558 8.92189E+03-5.38263E+01 1.10610E+04
 -1       559 9.15495E+03-3.75223E+01 1.69895E+04
 -1       561 9.15495E+03-3.75223E+01 1.69895E+04
 -1       562 9.31578E+03-2.30553E+01 2.28329E+04
 -1       564 9.31578E+03-2.30553E+01 2.28329E+04
 -1       565 9.41574E+03-1.23366E+01 2.84851E+04
 -1       567 9.41574E+03-1.23365E+01 2.84851E+04
 -1       568 9.46731E+03-3.56534E+00 3.38441E+04
 -1       570 9.46731E+03-3.56534E+00 3.38441E+04
 -1       571 9.48943E+03 9.90611E-01 3.50142E+04
 -1       573 9.48943E+03 9.90610E-01 3.50142E+04
 -1       574-1.54434E+06-3.32032E-06-3.32438E+05
 -1       576-1.54434E+06-1.48763E-06-3.12364E+05
 -1       577 1.54161E+06 1.57557E+04 3.15033E+05
 -1       579 1.54161E+06-1.57557E+04 3.15033E+05
 -1       588-1.58598E+06-5.21486E-06 2.07120E+05
 -1       590-1.58598E+06 1.04731E-06 1.96870E+05
 -1       591 1.58094E+06-8.04483E+03-2.17983E+05
 -1       593 1.58094E+06 8.04483E+03-2.17983E+05
 -1       602-1.53229E+06 2.89091E-06-2.91784E+04
 -1       604-1.53229E+06 8.63270E-06-3.63049E+04
 -1       605 1.52552E+06-5.59343E+03 7.24234E+03
 -1       607 1.52552E+06 5.59343E+03 7.24234E+03
 -1       616-1.52988E+06 4.66044E-06 1.23009E+05
 -1       618-1.52988E+06 4.63862E-06 1.05192E+05
 -1       619 1.52198E+06-1.39838E+04-1.49660E+05
 -1       621 1.52198E+06 1.39838E+04-1.49660E+05
 -1       630-1.43728E+06 2.50106E-06 7.48426E+04
 -1       632-1.43728E+06-2.29299E-06 6.12262E+04
 -1       633 1.42879E+06-1.06872E+04-1.13936E+05
 -1       635 1.42879E+06 1.06872E+04-1.13936E+05
 -1       644-1.36440E+06 5.09274E-06 1.35750E+05
 -1       646-1.36440E+06-2.66680E-06 1.12693E+05
 -1       647 1.35584E+06-1.80971E+04-1.80333E+05
 -1       649 1.35584E+06 1.80971E+04-1.80333E+05
 -1       658-1.25719E+06 7.71479E-06 1.33742E+05
 -1       660-1.25719E+06-5.99962E-06 1.10692E+05
 -1       661 1.24907E+06-1.80917E+04-1.88074E+05
 -1       663 1.24907E+06 1.80917E+04-1.88074E+05
 -1       672-1.14129E+06 6.96453E-06 1.66138E+05
 -1       674-1.14129E+06-1.29995E-05 1.38182E+05
 -1       675 1.13405E+06-2.19425E+04-2.26956E+05
 -1       677 1.13405E+06 2.19425E+04-2.26956E+05
 -1       686-1.00808E+06 9.84270E-06 1.74213E+05
 -1       688-1.00808E+06-1.40696E-05 1.44397E+05
 -1       689 1.00215E+06-2.34022E+04-2.41934E+05
 -1       691 1.00215E+06 2.34022E+04-2.41934E+05
 -1       700-8.64530E+05 1.45813E-05 1.93072E+05
 -1       702-8.64530E+05-1.34141E-05 1.60622E+05
 -1       703 8.60266E+05-2.54693E+04-2.65929E+05
 -1       705 8.60266E+05 2.54693E+04-2.65929E+05
 -1       714-7.10561E+05 1.35030E-05 1.99645E+05
 -1       716-7.10561E+05-1.08467E-05 1.65699E+05
 -1       717 7.08280E+05-2.66437E+04-2.76595E+05
 -1       719 7.08280E+05 2.66437E+04-2.76595E+05
 -1       728-5.50569E+05 5.86331E-06 2.08161E+05
 -1       730-5.50569E+05-1.12378E-05 1.73164E+05
 -1       731 5.50528E+05-2.74684E+04-2.87621E+05
 -1       733 5.50528E+05 2.74684E+04-2.87621E+05
 -1       742-3.86784E+05-3.76106E-06 2.08682E+05
 -1       744-3.86784E+05-1.43412E-05 1.73350E+05
 -1       745 3.89181E+05-2.77315E+04-2.89057E+05
 -1       747 3.89181E+05 2.77315E+04-2.89057E+05
 -1       756-2.23143E+05-2.75428E-06 2.07397E+05
 -1       758-2.23143E+05-6.64546E-06 1.72540E+05
 -1       759 2.28115E+05-2.73591E+04-2.87035E+05
 -1       761 2.28115E+05 2.73591E+04-2.87035E+05
 -1       770-6.27838E+04 1.47345E-06 1.99921E+05
 -1       772-6.27838E+04-3.27318E-06 1.66177E+05
 -1       773 7.04063E+04-2.64852E+04-2.77032E+05
 -1       775 7.04063E+04 2.64852E+04-2.77032E+05
 -1       784 9.05453E+04 4.95140E-06 1.89113E+05
 -1       786 9.05453E+04-5.80184E-06 1.57365E+05
 -1       787-8.02547E+04-2.49188E+04-2.62023E+05
 -1       789-8.02547E+04 2.49188E+04-2.62023E+05
 -1       798 2.33451E+05 6.99084E-06 1.73134E+05
 -1       800 2.33451E+05-1.25616E-06 1.44006E+05
 -1       801-2.20532E+05-2.28622E+04-2.40080E+05
 -1       803-2.20532E+05 2.28622E+04-2.40080E+05
 -1       812 3.62495E+05 5.41791E-06 1.53497E+05
 -1       814 3.62495E+05 5.26097E-06 1.27791E+05
 -1       815-3.47042E+05-2.01758E+04-2.12890E+05
 -1       817-3.47042E+05 2.01758E+04-2.12890E+05
 -1       826 4.74441E+05 1.61759E-06 1.29544E+05
 -1       828 4.74441E+05 5.77168E-06 1.07873E+05
 -1       829-4.56595E+05-1.70097E+04-1.79829E+05
 -1       831-4.56595E+05 1.70097E+04-1.79829E+05
 -1       840 5.66410E+05 2.15258E-06 1.02358E+05
 -1       842 5.66410E+05 4.59326E-06 8.53209E+04
 -1       843-5.46354E+05-1.33723E+04-1.42137E+05
 -1       845-5.46354E+05 1.33723E+04-1.42137E+05
 -1       854 6.35587E+05 5.83372E-06 7.17560E+04
 -1       856 6.35587E+05 5.61015E-06 5.99630E+04
 -1       857-6.13539E+05-9.25617E+03-9.98348E+04
 -1       859-6.13539E+05 9.25617E+03-9.98348E+04
 -1       868 6.79938E+05 5.24535E-07 3.88617E+04
 -1       870 6.79938E+05 1.91661E-06 3.25822E+04
 -1       871-6.56143E+05-4.92864E+03-5.41020E+04
 -1       873-6.56143E+05 4.92864E+03-5.41020E+04
 -1       882 6.97209E+05-3.27326E-06 3.53865E+03
 -1       884 6.97209E+05 3.29957E-06 3.43542E+03
 -1       885-6.71929E+05-8.10222E+01-5.24513E+03
 -1       887-6.71929E+05 8.10222E+01-5.24513E+03
 -1       896 6.86404E+05-2.87419E-07-3.28574E+04
 -1       898 6.86404E+05 6.69829E-06-2.69958E+04
 -1       899-6.59906E+05 4.60064E+03 4.55559E+04
 -1       901-6.59906E+05-4.60064E+03 4.55559E+04
 -1       910 6.46259E+05 6.56757E-07-7.04346E+04
 -1       912 6.46259E+05 9.53683E-06-5.77378E+04
 -1       913-6.18811E+05 9.96552E+03 9.76005E+04
 -1       915-6.18811E+05-9.96552E+03 9.76005E+04
 -1       924 5.76152E+05-6.45585E-06-1.08275E+05
 -1       926 5.76152E+05 9.87292E-06-8.98688E+04
 -1       927-5.48005E+05 1.44469E+04 1.50701E+05
 -1       929-5.48005E+05-1.44469E+04 1.50701E+05
 -1       938 4.77317E+05-1.19786E-05-1.44521E+05
 -1       940 4.77317E+05 9.42919E-06-1.18385E+05
 -1       941-4.48699E+05 2.05141E+04 2.01168E+05
 -1       943-4.48699E+05-2.05141E+04 2.01168E+05
 -1       952 3.52215E+05-1.08378E-05-1.84558E+05
 -1       954 3.52215E+05 9.49953E-06-1.53908E+05
 -1       955-3.23316E+05 2.40564E+04 2.56756E+05
 -1       957-3.23316E+05-2.40564E+04 2.56756E+05
 -1       966 2.09361E+05-4.79017E-06-2.07665E+05
 -1       968 2.09361E+05 4.50025E-06-1.71628E+05
 -1       969-1.80322E+05 2.82846E+04 2.94478E+05
 -1       971-1.80322E+05-2.82846E+04 2.94478E+05
 -1       980 2.55840E+06-3.40577E+05 4.68293E+04
 -1       982 1.44365E+06-1.96507E+05 4.68293E+04
 -1       983 9.48943E+03-9.90612E-01 3.50142E+04
 -1       985 9.48943E+03-9.90612E-01 3.50142E+04
 -1       986-8.23355E+02-1.48764E+02-2.53509E+03
 -1       988-8.23355E+02-1.48764E+02-2.53509E+03
 -1       989-1.54296E+03-1.45254E+02-5.61636E+03
 -1       991-1.54296E+03-1.45254E+02-5.61636E+03
 -1       992-2.10066E+03-9.09589E+01-8.95619E+03
 -1       994-2.10066E+03-9.09589E+01-8.95619E+03
 -1       995-2.47694E+03-5.60469E+01-1.24139E+04
 -1       997-2.47694E+03-5.60469E+01-1.24139E+04
 -1       998-2.67374E+03-2.09499E+01-1.59442E+04
 -1      1000-2.67374E+03-2.09499E+01-1.59442E+04
 -1      1001-2.70058E+03 1.35645E+01-1.94019E+04
 -1      1003-2.70058E+03 1.35645E+01-1.94019E+04
 -1      1004-2.56702E+03 4.51509E+01-2.26869E+04
 -1      1006-2.56702E+03 4.51509E+01-2.26869E+04
 -1      1007-2.28492E+03 7.42603E+01-2.56856E+04
 -1      1009-2.28492E+03 7.42603E+01-2.56856E+04
 -1      1010-1.86833E+03 1.00284E+02-2.83013E+04
 -1      1012-1.86833E+03 1.00284E+02-2.83013E+04
 -1      1013-1.33287E+03 1.22923E+02-3.04439E+04
 -1      1015-1.33287E+03 1.22923E+02-3.04439E+04
 -1      1016-6.95692E+02 1.41902E+02-3.20370E+04
 -1      1018-6.95692E+02 1.41902E+02-3.20370E+04
 -1      1019 2.49288E+01 1.57006E+02-3.30170E+04
 -1      1021 2.49288E+01 1.57006E+02-3.30170E+04
 -1      1022 8.09875E+02 1.68106E+02-3.33353E+04
 -1      1024 8.09875E+02 1.68106E+02-3.33353E+04
 -1      1025 1.63961E+03 1.75147E+02-3.29590E+04
 -1      1027 1.63961E+03 1.75147E+02-3.29590E+04
 -1      1028 2.49454E+03 1.78164E+02-3.18710E+04
 -1      1030 2.49454E+03 1.78164E+02-3.18710E+04
 -1      1031 3.35549E+03 1.77277E+02-3.00708E+04
 -1      1033 3.35549E+03 1.77277E+02-3.00708E+04
 -1      1034 4.20407E+03 1.72694E+02-2.75738E+04
 -1      1036 4.20407E+03 1.72694E+02-2.75738E+04
 -1      1037 5.02313E+03 1.64710E+02-2.44107E+04
 -1      1039 5.02313E+03 1.64710E+02-2.44107E+04
 -1      1040 5.79715E+03 1.53701E+02-2.06271E+04
 -1      1042 5.79715E+03 1.53701E+02-2.06271E+04
 -1      1043 6.51263E+03 1.40118E+02-1.62820E+04
 -1      1045 6.51263E+03 1.40118E+02-1.62820E+04
 -1      1046 7.15844E+03 1.24486E+02-1.14462E+04
 -1      1048 7.15844E+03 1.24486E+02-1.14462E+04
 -1      1049 7.72614E+03 1.07384E+02-6.20116E+03
 -1      1051 7.72614E+03 1.07384E+02-6.20116E+03
 -1      1052 8.21025E+03 8.94526E+01-6.36594E+02
 -1      1054 8.21025E+03 8.94526E+01-6.36594E+02
 -1      1055 8.60848E+03 7.13468E+01 5.15105E+03
 -1      1057 8.60848E+03 7.13468E+01 5.15105E+03
 -1      1058 8.92189E+03 5.38263E+01 1.10610E+04
 -1      1060 8.92189E+03 5.38263E+01 1.10610E+04
 -1      1061 9.15495E+03 3.75223E+01 1.69895E+04
 -1      1063 9.15495E+03 3.75223E+01 1.69895E+04
 -1      1064 9.31578E+03 2.30553E+01 2.28329E+04
 -1      1066 9.31578E+03 2.30553E+01 2.28329E+04
 -1      1067 9.41574E+03 1.23366E+01 2.84851E+04
 -1      1069 9.41574E+03 1.23366E+01 2.84851E+04
 -1      1070 9.46731E+03 3.56534E+00 3.38441E+04
 -1      1072 9.46731E+03 3.56534E+00 3.38441E+04
 -1      1073 2.55840E+06 3.40577E+05 4.68293E+04
 -1      1075 1.44365E+06 1.96507E+05 4.68293E+04
 -1      1076 1.36126E+06 2.29876E-06 1.69565E+06
 -1      1078 1.36126E+06 1.79369E-06 1.69565E+06
 -1      1079 5.84788E-06 1.01992E-06 1.79023E+06
 -1      1081-4.89153E-06 7.12065E-07 1.79023E+06
 -1      1082-1.36126E+06-3.93280E-07 1.69565E+06
 -1      1084-1.36126E+06 5.72722E-08 1.69565E+06
 -1      1085-1.54161E+06-1.57557E+04 3.15033E+05
 -1      1087-1.54161E+06 1.57557E+04 3.15033E+05
 -1      1088 1.54434E+06-3.17027E-06-3.32438E+05
 -1      1090 1.54434E+06-8.86550E-07-3.12364E+05
 -1      1099-1.58094E+06 8.04483E+03-2.17983E+05
 -1      1101-1.58094E+06-8.04483E+03-2.17983E+05
 -1      1102 1.58598E+06-5.63686E-06 2.07120E+05
 -1      1104 1.58598E+06 5.69305E-06 1.96870E+05
 -1      1113-1.52552E+06 5.59343E+03 7.24234E+03
 -1      1115-1.52552E+06-5.59343E+03 7.24234E+03
 -1      1116 1.53229E+06-1.66766E-06-2.91784E+04
 -1      1118 1.53229E+06 1.48626E-05-3.63049E+04
 -1      1127-1.52198E+06 1.39838E+04-1.49660E+05
 -1      1129-1.52198E+06-1.39838E+04-1.49660E+05
 -1      1130 1.52988E+06-1.54959E-06 1.23009E+05
 -1      1132 1.52988E+06 9.28327E-06 1.05192E+05
 -1      1141-1.42879E+06 1.06872E+04-1.13936E+05
 -1      1143-1.42879E+06-1.06872E+04-1.13936E+05
 -1      1144 1.43728E+06-2.20263E-06 7.48426E+04
 -1      1146 1.43728E+06-6.61164E-07 6.12262E+04
 -1      1155-1.35584E+06 1.80971E+04-1.80333E+05
 -1      1157-1.35584E+06-1.80971E+04-1.80333E+05
 -1      1158 1.36440E+06 3.78798E-06 1.35750E+05
 -1      1160 1.36440E+06-4.47679E-06 1.12693E+05
 -1      1169-1.24907E+06 1.80917E+04-1.88074E+05
 -1      1171-1.24907E+06-1.80917E+04-1.88074E+05
 -1      1172 1.25719E+06 6.99039E-06 1.33742E+05
 -1      1174 1.25719E+06-1.39646E-05 1.10692E+05
 -1      1183-1.13405E+06 2.19425E+04-2.26956E+05
 -1      1185-1.13405E+06-2.19425E+04-2.26956E+05
 -1      1186 1.14129E+06 7.64651E-06 1.66138E+05
 -1      1188 1.14129E+06-2.09319E-05 1.38182E+05
 -1      1197-1.00215E+06 2.34022E+04-2.41934E+05
 -1      1199-1.00215E+06-2.34022E+04-2.41934E+05
 -1      1200 1.00808E+06 1.22068E-05 1.74213E+05
 -1      1202 1.00808E+06-1.50477E-05 1.44397E+05
 -1      1211-8.60266E+05 2.54693E+04-2.65929E+05
 -1      1213-8.60266E+05-2.54693E+04-2.65929E+05
 -1      1214 8.64530E+05 1.58714E-05 1.93072E+05
 -1      1216 8.64530E+05-1.01247E-05 1.60622E+05
 -1      1225-7.08280E+05 2.66437E+04-2.76595E+05
 -1      1227-7.08280E+05-2.66437E+04-2.76595E+05
 -1      1228 7.10561E+05 1.59133E-05 1.99645E+05
 -1      1230 7.10561E+05-1.33126E-05 1.65699E+05
 -1      1239-5.50528E+05 2.74684E+04-2.87621E+05
 -1      1241-5.50528E+05-2.74684E+04-2.87621E+05
 -1      1242 5.50569E+05 1.30789E-05 2.08161E+05
 -1      1244 5.50569E+05-2.29746E-05 1.73164E+05
 -1      1253-3.89181E+05 2.77315E+04-2.89057E+05
 -1      1255-3.89181E+05-2.77315E+04-2.89057E+05
 -1      1256 3.86784E+05 1.23353E-05 2.08682E+05
 -1      1258 3.86784E+05-2.75938E-05 1.73350E+05
 -1      1267-2.28115E+05 2.73591E+04-2.87035E+05
 -1      1269-2.28115E+05-2.73591E+04-2.87035E+05
 -1      1270 2.23143E+05 1.82188E-05 2.07397E+05
 -1      1272 2.23143E+05-2.20125E-05 1.72540E+05
 -1      1281-7.04063E+04 2.64852E+04-2.77032E+05
 -1      1283-7.04063E+04-2.64852E+04-2.77032E+05
 -1      1284 6.27838E+04 2.08383E-05 1.99921E+05
 -1      1286 6.27838E+04-1.67914E-05 1.66177E+05
 -1      1295 8.02547E+04 2.49188E+04-2.62023E+05
 -1      1297 8.02547E+04-2.49188E+04-2.62023E+05
 -1      1298-9.05453E+04 1.52892E-05 1.89113E+05
 -1      1300-9.05453E+04-1.52121E-05 1.57365E+05
 -1      1309 2.20532E+05 2.28622E+04-2.40080E+05
 -1      1311 2.20532E+05-2.28622E+04-2.40080E+05
 -1      1312-2.33451E+05 8.25738E-06 1.73134E+05
 -1      1314-2.33451E+05-9.93682E-06 1.44006E+05
 -1      1323 3.47042E+05 2.01758E+04-2.12890E+05
 -1      1325 3.47042E+05-2.01758E+04-2.12890E+05
 -1      1326-3.62495E+05 2.26677E-06 1.53497E+05
 -1      1328-3.62495E+05-6.48202E-07 1.27791E+05
 -1      1337 4.56595E+05 1.70097E+04-1.79829E+05
 -1      1339 4.56595E+05-1.70097E+04-1.79829E+05
 -1      1340-4.74441E+05-5.15877E-06 1.29544E+05
 -1      1342-4.74441E+05 8.36117E-07 1.07873E+05
 -1      1351 5.46354E+05 1.33723E+04-1.42137E+05
 -1      1353 5.46354E+05-1.33723E+04-1.42137E+05
 -1      1354-5.66410E+05-1.28653E-06 1.02358E+05
 -1      1356-5.66410E+05 9.29953E-07 8.53209E+04
 -1      1365 6.13539E+05 9.25617E+03-9.98348E+04
 -1      1367 6.13539E+05-9.25617E+03-9.98348E+04
 -1      1368-6.35587E+05 1.16230E-05 7.17560E+04
 -1      1370-6.35587E+05 1.55799E-06 5.99630E+04
 -1      1379 6.56143E+05 4.92864E+03-5.41020E+04
 -1      1381 6.56143E+05-4.92864E+03-5.41020E+04
 -1      1382-6.79938E+05 8.13235E-06 3.88617E+04
 -1      1384-6.79938E+05-2.66915E-06 3.25822E+04
 -1      1393 6.71929E+05 8.10222E+01-5.24513E+03
 -1      1395 6.71929E+05-8.10222E+01-5.24513E+03
 -1      1396-6.97209E+05-4.86347E-07 3.53865E+03
 -1      1398-6.97209E+05-5.73339E-06 3.43542E+03
 -1      1407 6.59906E+05-4.60064E+03 4.55559E+04
 -1      1409 6.59906E+05 4.60064E+03 4.55559E+04
 -1      1410-6.86404E+05 2.35350E-06-3.28574E+04
 -1      1412-6.86404E+05-1.93896E-06-2.69958E+04
 -1      1421 6.18811E+05-9.96552E+03 9.76005E+04
 -1      1423 6.18811E+05 9.96552E+03 9.76005E+04
 -1      1424-6.46259E+05 7.66502E-06-7.04346E+04
 -1      1426-6.46259E+05 2.80929E-06-5.77378E+04
 -1      1435 5.48005E+05-1.44469E+04 1.50701E+05
 -1      1437 5.48005E+05 1.44469E+04 1.50701E+05
 -1      1438-5.76152E+05 5.74581E-06-1.08275E+05
 -1      1440-5.76152E+05 3.89787E-06-8.98688E+04
 -1      1449 4.48699E+05-2.05141E+04 2.01168E+05
 -1      1451 4.48699E+05 2.05141E+04 2.01168E+05
 -1      1452-4.77317E+05 3.27693E-06-1.44521E+05
 -1      1454-4.77317E+05-6.76031E-07-1.18385E+05
 -1      1463 3.23316E+05-2.40564E+04 2.56756E+05
 -1      1465 3.23316E+05 2.40564E+04 2.56756E+05
 -1      1466-3.52215E+05 2.81592E-06-1.84558E+05
 -1      1468-3.52215E+05-1.06333E-05-1.53908E+05
 -1      1477 1.80322E+05-2.82846E+04 2.94478E+05
 -1      1479 1.80322E+05 2.82846E+04 2.94478E+05
 -1      1480-2.09361E+05 6.23476E-06-2.07665E+05
 -1      1482-2.09361E+05-1.45730E-05-1.71628E+05
 -1      1491 6.72541E+03-3.77704E-06 4.61228E+04
 -1      1493 6.72541E+03 3.47092E-06 4.61228E+04
 -1      1494-6.77561E-07-5.93405E-06 4.60893E+04
 -1      1496-8.11551E-07 9.49070E-07 4.60893E+04
 -1      1497-6.72541E+03-3.58933E-07 4.61228E+04
 -1      1499-6.72541E+03 5.25617E-07 4.61228E+04
 -1      1500 8.23355E+02 1.48764E+02-2.53509E+03
 -1      1502 8.23355E+02 1.48764E+02-2.53509E+03
 -1      1503 1.54296E+03 1.45254E+02-5.61636E+03
 -1      1505 1.54296E+03 1.45254E+02-5.61636E+03
 -1      1506 2.10066E+03 9.09589E+01-8.95619E+03
 -1      1508 2.10066E+03 9.09589E+01-8.95619E+03
 -1      1509 2.47694E+03 5.60469E+01-1.24139E+04
 -1      1511 2.47694E+03 5.60469E+01-1.24139E+04
 -1      1512 2.67374E+03 2.09499E+01-1.59442E+04
 -1      1514 2.67374E+03 2.09499E+01-1.59442E+04
 -1      1515 2.70058E+03-1.35645E+01-1.94019E+04
 -1      1517 2.70058E+03-1.35645E+01-1.94019E+04
 -1      1518 2.56702E+03-4.51509E+01-2.26869E+04
 -1      1520 2.56702E+03-4.51509E+01-2.26869E+04
 -1      1521 2.28492E+03-7.42603E+01-2.56856E+04
 -1      1523 2.28492E+03-7.42603E+01-2.56856E+04
 -1      1524 1.86833E+03-1.00284E+02-2.83013E+04
 -1      1526 1.86833E+03-1.00284E+02-2.83013E+04
 -1      1527 1.33287E+03-1.22923E+02-3.04439E+04
 -1      1529 1.33287E+03-1.22923E+02-3.04439E+04
 -1      1530 6.95692E+02-1.41902E+02-3.20370E+04
 -1      1532 6.95692E+02-1.41902E+02-3.20370E+04
 -1      1533-2.49288E+01-1.57006E+02-3.30170E+04
 -1      1535-2.49288E+01-1.57006E+02-3.30170E+04
 -1      1536-8.09875E+02-1.68106E+02-3.33353E+04
 -1      1538-8.09875E+02-1.68106E+02-3.33353E+04
 -1      1539-1.63961E+03-1.75147E+02-3.29590E+04
 -1      1541-1.63961E+03-1.75147E+02-3.29590E+04
 -1      1542-2.49454E+03-1.78164E+02-3.18710E+04
 -1      1544-2.49454E+03-1.78164E+02-3.18710E+04
 -1      1545-3.35549E+03-1.77277E+02-3.00708E+04
 -1      1547-3.35549E+03-1.77277E+02-3.00708E+04
 -1      1548-4.20407E+03-1.72694E+02-2.75738E+04
 -1      1550-4.20407E+03-1.72694E+02-2.75738E+04
 -1      1551-5.02313E+03-1.64710E+02-2.44107E+04
 -1      1553-5.02313E+03-1.64710E+02-2.44107E+04
 -1      1554-5.79715E+03-1.53701E+02-2.06271E+04
 -1      1556-5.79715E+03-1.53701E+02-2.06271E+04
 -1      1557-6.51263E+03-1.40118E+02-1.62820E+04
 -1      1559-6.51263E+03-1.40118E+02-1.62820E+04
 -1      1560-7.15844E+03-1.24486E+02-1.14462E+04
 -1      1562-7.15844E+03-1.24486E+02-1.14462E+04
 -1      1563-7.72614E+03-1.07384E+02-6.20116E+03
 -1      1565-7.72614E+03-1.07384E+02-6.20116E+03
 -1      1566-8.21025E+03-8.94526E+01-6.36594E+02
 -1      1568-8.21025E+03-8.94526E+01-6.36594E+02
 -1      1569-8.60848E+03-7.13468E+01 5.15105E+03
 -1      1571-8.60848E+03-7.13468E+01 5.15105E+03
 -1      1572-8.92189E+03-5.38263E+01 1.10610E+04
 -1      1574-8.92189E+03-5.38263E+01 1.10610E+04
 -1      1575-9.15495E+03-3.75223E+01 1.69895E+04
 -1      1577-9.15495E+03-3.75223E+01 1.69895E+04
 -1      1578-9.31578E+03-2.30553E+01 2.28329E+04
 -1      1580-9.31578E+03-2.30553E+01 2.28329E+04
 -1      1581-9.41574E+03-1.23366E+01 2.84851E+04
 -1      1583-9.41574E+03-1.23366E+01 2.84851E+04
 -1      1584-9.46731E+03-3.56534E+00 3.38441E+04
 -1      1586-9.46731E+03-3.56534E+00 3.38441E+04
 -1      1587-9.48943E+03 9.90611E-01 3.50142E+04
 -1      1589-9.48943E+03 9.90610E-01 3.50142E+04
 -1      1590-2.55840E+06-3.40577E+05 4.68293E+04
 -1      1592-1.44365E+06-1.96507E+05 4.68293E+04
 -1      1593-9.48943E+03-9.90610E-01 3.50142E+04
 -1      1595-9.48943E+03-9.90612E-01 3.50142E+04
 -1      1596 8.23355E+02-1.48764E+02-2.53509E+03
 -1      1598 8.23355E+02-1.48764E+02-2.53509E+03
 -1      1599 1.54296E+03-1.45254E+02-5.61636E+03
 -1      1601 1.54296E+03-1.45254E+02-5.61636E+03
 -1      1602 2.10066E+03-9.09589E+01-8.95619E+03
 -1      1604 2.10066E+03-9.09589E+01-8.95619E+03
 -1      1605 2.47694E+03-5.60469E+01-1.24139E+04
 -1      1607 2.47694E+03-5.60469E+01-1.24139E+04
 -1      1608 2.67374E+03-2.09499E+01-1.59442E+04
 -1      1610 2.67374E+03-2.09499E+01-1.59442E+04
 -1      1611 2.70058E+03 1.35645E+01-1.94019E+04
 -1      1613 2.70058E+03 1.35645E+01-1.94019E+04
 -1      1614 2.56702E+03 4.51509E+01-2.26869E+04
 -1      1616 2.56702E+03 4.51509E+01-2.26869E+04
 -1      1617 2.28492E+03 7.42603E+01-2.56856E+04
 -1      1619 2.28492E+03 7.42603E+01-2.56856E+04
 -1      1620 1.86833E+03 1.00284E+02-2.83013E+04
 -1      1622 1.86833E+03 1.00284E+02-2.83013E+04
 -1      1623 1.33287E+03 1.22923E+02-3.04439E+04
 -1      1625 1.33287E+03 1.22923E+02-3.04439E+04
 -1      1626 6.95692E+02 1.41902E+02-3.20370E+04
 -1      1628 6.95692E+02 1.41902E+02-3.20370E+04
 -1      1629-2.49288E+01 1.57006E+02-3.30170E+04
 -1      1631-2.49288E+01 1.57006E+02-3.30170E+04
 -1      1632-8.09875E+02 1.68106E+02-3.33353E+04
 -1      1634-8.09875E+02 1.68106E+02-3.33353E+04
 -1      1635-1.63961E+03 1.75147E+02-3.29590E+04
 -1      1637-1.63961E+03 1.75147E+02-3.29590E+04
 -1      1638-2.49454E+03 1.78164E+02-3.18710E+04
 -1      1640-2.49454E+03 1.78164E+02-3.18710E+04
 -1      1641-3.35549E+03 1.77277E+02-3.00708E+04
 -1      1643-3.35549E+03 1.77277E+02-3.00708E+04
 -1      1644-4.20407E+03 1.72694E+02-2.75738E+04
 -1      1646-4.20407E+03 1.72694E+02-2.75738E+04
 -1      1647-5.02313E+03 1.64710E+02-2.44107E+04
 -1      1649-5.02313E+03 1.64710E+02-2.44107E+04
 -1      1650-5.79715E+03 1.53701E+02-2.06271E+04
 -1      1652-5.79715E+03 1.53701E+02-2.06271E+04
 -1      1653-6.51263E+03 1.40118E+02-1.62820E+04
 -1      1655-6.51263E+03 1.40118E+02-1.62820E+04
 -1      1656-7.15844E+03 1.24486E+02-1.14462E+04
 -1      1658-7.15844E+03 1.24486E+02-1.14462E+04
 -1      1659-7.72614E+03 1.07384E+02-6.20116E+03
 -1      1661-7.72614E+03 1.07384E+02-6.20116E+03
 -1      1662-8.21025E+03 8.94526E+01-6.36594E+02
 -1      1664-8.21025E+03 8.94526E+01-6.36594E+02
 -1      1665-8.60848E+03 7.13468E+01 5.15105E+03
 -1      1667-8.60848E+03 7.13468E+01 5.15105E+03
 -1      1668-8.92189E+03 5.38263E+01 1.10610E+04
 -1      1670-8.92189E+03 5.38263E+01 1.10610E+04
 -1      1671-9.15495E+03 3.75223E+01 1.69895E+04
 -1      1673-9.15495E+03 3.75223E+01 1.69895E+04
 -1      1674-9.31578E+03 2.30553E+01 2.28329E+04
 -1      1676-9.31578E+03 2.30553E+01 2.28329E+04
 -1      1677-9.41574E+03 1.23365E+01 2.84851E+04
 -1      1679-9.41574E+03 1.23365E+01 2.84851E+04
 -1      1680-9.46731E+03 3.56534E+00 3.38441E+04
 -1      1682-9.46731E+03 3.56534E+00 3.38441E+04
 -1      1683-2.55840E+06 3.40577E+05 4.68293E+04
 -1      1685-1.44365E+06 1.96507E+05 4.68293E+04
 -1      1686-1.71611E+03 1.98882E+02-4.74556E+03
 -1      1688-1.71611E+03 1.98882E+02-4.74556E+03
 -1      1689-3.19385E+03 1.94624E+02-1.04306E+04
 -1      1691-3.19385E+03 1.94624E+02-1.04306E+04
 -1      1692-4.31096E+03 1.21073E+02-1.66172E+04
 -1      1694-4.31096E+03 1.21073E+02-1.66172E+04
 -1      1695-5.05688E+03 7.44162E+01-2.30722E+04
 -1      1697-5.05688E+03 7.44162E+01-2.30722E+04
 -1      1698-5.44680E+03 2.78039E+01-2.96838E+04
 -1      1700-5.44680E+03 2.78039E+01-2.96838E+04
 -1      1701-5.49462E+03-1.84220E+01-3.61794E+04
 -1      1703-5.49462E+03-1.84220E+01-3.61794E+04
 -1      1704-5.22040E+03-6.05187E+01-4.23632E+04
 -1      1706-5.22040E+03-6.05187E+01-4.23632E+04
 -1      1707-4.64814E+03-9.94085E+01-4.80188E+04
 -1      1709-4.64814E+03-9.94085E+01-4.80188E+04
 -1      1710-3.80590E+03-1.34131E+02-5.29616E+04
 -1      1712-3.80590E+03-1.34131E+02-5.29616E+04
 -1      1713-2.72511E+03-1.64358E+02-5.70197E+04
 -1      1715-2.72511E+03-1.64358E+02-5.70197E+04
 -1      1716-1.44023E+03-1.89682E+02-6.00477E+04
 -1      1718-1.44023E+03-1.89682E+02-6.00477E+04
 -1      1719 1.19656E+01-2.09840E+02-6.19246E+04
 -1      1721 1.19656E+01-2.09840E+02-6.19246E+04
 -1      1722 1.59305E+03-2.24643E+02-6.25580E+04
 -1      1724 1.59305E+03-2.24643E+02-6.25580E+04
 -1      1725 3.26370E+03-2.34028E+02-6.18846E+04
 -1      1727 3.26370E+03-2.34028E+02-6.18846E+04
 -1      1728 4.98453E+03-2.38034E+02-5.98715E+04
 -1      1730 4.98453E+03-2.38034E+02-5.98715E+04
 -1      1731 6.71690E+03-2.36824E+02-5.65165E+04
 -1      1733 6.71690E+03-2.36824E+02-5.65165E+04
 -1      1734 8.42382E+03-2.30677E+02-5.18470E+04
 -1      1736 8.42382E+03-2.30677E+02-5.18470E+04
 -1      1737 1.00707E+04-2.19984E+02-4.59196E+04
 -1      1739 1.00707E+04-2.19984E+02-4.59196E+04
 -1      1740 1.16264E+04-2.05248E+02-3.88180E+04
 -1      1742 1.16264E+04-2.05248E+02-3.88180E+04
 -1      1743 1.30636E+04-1.87073E+02-3.06506E+04
 -1      1745 1.30636E+04-1.87073E+02-3.06506E+04
 -1      1746 1.43600E+04-1.66155E+02-2.15478E+04
 -1      1748 1.43600E+04-1.66155E+02-2.15478E+04
 -1      1749 1.54983E+04-1.43274E+02-1.16586E+04
 -1      1751 1.54983E+04-1.43274E+02-1.16586E+04
 -1      1752 1.64677E+04-1.19279E+02-1.14688E+03
 -1      1754 1.64677E+04-1.19279E+02-1.14688E+03
 -1      1755 1.72634E+04-9.50524E+01 9.81222E+03
 -1      1757 1.72634E+04-9.50524E+01 9.81222E+03
 -1      1758 1.78874E+04-7.15972E+01 2.10372E+04
 -1      1760 1.78874E+04-7.15972E+01 2.10372E+04
 -1      1761 1.83488E+04-4.97772E+01 3.23427E+04
 -1      1763 1.83488E+04-4.97772E+01 3.23427E+04
 -1      1764 1.86634E+04-3.03622E+01 4.35469E+04
 -1      1766 1.86634E+04-3.03622E+01 4.35469E+04
 -1      1767 1.88546E+04-1.60955E+01 5.44667E+04
 -1      1769 1.88546E+04-1.60955E+01 5.44667E+04
 -1      1770 1.89507E+04-4.41957E+00 6.49300E+04
 -1      1772 1.89507E+04-4.41958E+00 6.49300E+04
 -1      1773-1.71611E+03-1.98882E+02-4.74556E+03
 -1      1775-1.71611E+03-1.98882E+02-4.74556E+03
 -1      1776-3.19385E+03-1.94624E+02-1.04306E+04
 -1      1778-3.19385E+03-1.94624E+02-1.04306E+04
 -1      1779-4.31096E+03-1.21073E+02-1.66172E+04
 -1      1781-4.31096E+03-1.21073E+02-1.66172E+04
 -1      1782-5.05688E+03-7.44162E+01-2.30722E+04
 -1      1784-5.05688E+03-7.44162E+01-2.30722E+04
 -1      1785-5.44680E+03-2.78039E+01-2.96838E+04
 -1      1787-5.44680E+03-2.78039E+01-2.96838E+04
 -1      1788-5.49462E+03 1.84220E+01-3.61794E+04
 -1      1790-5.49462E+03 1.84220E+01-3.61794E+04
 -1      1791-5.22040E+03 6.05187E+01-4.23632E+04
 -1      1793-5.22040E+03 6.05187E+01-4.23632E+04
 -1      1794-4.64814E+03 9.94085E+01-4.80188E+04
 -1      1796-4.64814E+03 9.94085E+01-4.80188E+04
 -1      1797-3.80590E+03 1.34131E+02-5.29616E+04
 -1      1799-3.80590E+03 1.34131E+02-5.29616E+04
 -1      1800-2.72511E+03 1.64358E+02-5.70197E+04
 -1      1802-2.72511E+03 1.64358E+02-5.70197E+04
 -1      1803-1.44023E+03 1.89682E+02-6.00477E+04
 -1      1805-1.44023E+03 1.89682E+02-6.00477E+04
 -1      1806 1.19656E+01 2.09840E+02-6.19246E+04
 -1      1808 1.19656E+01 2.09840E+02-6.19246E+04
 -1      1809 1.59305E+03 2.24643E+02-6.25580E+04
 -1      1811 1.59305E+03 2.24643E+02-6.25580E+04
 -1      1812 3.26370E+03 2.34028E+02-6.18846E+04
 -1      1814 3.26370E+03 2.34028E+02-6.18846E+04
 -1      1815 4.98453E+03 2.38034E+02-5.98715E+04
 -1      1817 4.98453E+03 2.38034E+02-5.98715E+04
 -1      1818 6.71690E+03 2.36824E+02-5.65165E+04
 -1      1820 6.71690E+03 2.36824E+02-5.65165E+04
 -1      1821 8.42382E+03 2.30677E+02-5.18470E+04
 -1      1823 8.42382E+03 2.30677E+02-5.18470E+04
 -1      1824 1.00707E+04 2.19984E+02-4.59196E+04
 -1      1826 1.00707E+04 2.19984E+02-4.59196E+04
 -1      1827 1.16264E+04 2.05248E+02-3.88180E+04
 -1      1829 1.16264E+04 2.05248E+02-3.88180E+04
 -1      1830 1.30636E+04 1.87073E+02-3.06506E+04
 -1      1832 1.30636E+04 1.87073E+02-3.06506E+04
 -1      1833 1.43600E+04 1.66155E+02-2.15478E+04
 -1      1835 1.43600E+04 1.66155E+02-2.15478E+04
 -1      1836 1.54983E+04 1.43274E+02-1.16586E+04
 -1      1838 1.54983E+04 1.43274E+02-1.16586E+04
 -1      1839 1.64677E+04 1.19279E+02-1.14688E+03
 -1      1841 1.64677E+04 1.19279E+02-1.14688E+03
 -1      1842 1.72634E+04 9.50524E+01 9.81222E+03
 -1      1844 1.72634E+04 9.50524E+01 9.81222E+03
 -1      1845 1.78874E+04 7.15972E+01 2.10372E+04
 -1      1847 1.78874E+04 7.15972E+01 2.10372E+04
 -1      1848 1.83488E+04 4.97772E+01 3.23427E+04
 -1      1850 1.83488E+04 4.97772E+01 3.23427E+04
 -1      1851 1.86634E+04 3.03622E+01 4.35469E+04
 -1      1853 1.86634E+04 3.03622E+01 4.35469E+04
 -1      1854 1.88546E+04 1.60955E+01 5.44667E+04
 -1      1856 1.88546E+04 1.60955E+01 5.44667E+04
 -1      1857 1.89507E+04 4.41957E+00 6.49300E+04
 -1      1859 1.89507E+04 4.41957E+00 6.49300E+04
 -1      1860-1.20642E+03-1.08349E-06-5.79884E+03
 -1      1862-1.20642E+03-3.69280E-06-5.79884E+03
 -1      1863-2.26211E+03 1.52236E-07-1.25740E+04
 -1      1865-2.26211E+03-4.07789E-06-1.25740E+04
 -1      1866-3.07043E+03 4.24442E-06-2.02340E+04
 -1      1868-3.07043E+03-1.23873E-06-2.02340E+04
 -1      1869-3.60479E+03 2.32209E-06-2.84051E+04
 -1      1871-3.60479E+03 6.79394E-07-2.84051E+04
 -1      1872-3.88056E+03-2.20393E-06-3.67946E+04
 -1      1874-3.88056E+03 2.89049E-06-3.67946E+04
 -1      1875-3.91350E+03-2.39142E-06-4.50930E+04
 -1      1877-3.91350E+03 5.01579E-06-4.50930E+04
 -1      1878-3.71747E+03-1.28460E-06-5.30162E+04
 -1      1880-3.71747E+03 5.16633E-06-5.30162E+04
 -1      1881-3.31045E+03-4.76215E-06-6.02914E+04
 -1      1883-3.31045E+03 2.59897E-06-6.02914E+04
 -1      1884-2.71204E+03-5.07837E-06-6.66722E+04
 -1      1886-2.71204E+03 5.23068E-06-6.66722E+04
 -1      1887-1.94468E+03-3.96186E-06-7.19371E+04
 -1      1889-1.94468E+03 2.99741E-06-7.19371E+04
 -1      1890-1.03274E+03-3.82489E-06-7.58962E+04
 -1      1892-1.03274E+03 4.85126E-06-7.58962E+04
 -1      1893-2.30920E+00-1.73354E-06-7.83929E+04
 -1      1895-2.30920E+00 3.83038E-06-7.83929E+04
 -1      1896 1.11937E+03 5.80219E-07-7.93068E+04
 -1      1898 1.11937E+03-7.96452E-06-7.93068E+04
 -1      1899 2.30442E+03 2.82709E-06-7.85552E+04
 -1      1901 2.30442E+03-6.32558E-06-7.85552E+04
 -1      1902 3.52489E+03 1.58997E-06-7.60939E+04
 -1      1904 3.52489E+03-2.82647E-07-7.60939E+04
 -1      1905 4.75340E+03-3.35766E-06-7.19176E+04
 -1      1907 4.75340E+03 5.05443E-07-7.19176E+04
 -1      1908 5.96370E+03 3.14850E-06-6.60588E+04
 -1      1910 5.96370E+03-3.63676E-07-6.60588E+04
 -1      1911 7.13130E+03 3.03358E-06-5.85859E+04
 -1      1913 7.13130E+03 3.99705E-06-5.85859E+04
 -1      1914 8.23401E+03 7.66151E-07-4.96014E+04
 -1      1916 8.23401E+03 2.74949E-06-4.96014E+04
 -1      1917 9.25253E+03 2.50616E-06-3.92379E+04
 -1      1919 9.25253E+03-1.91190E-07-3.92379E+04
 -1      1920 1.01709E+04 2.94435E-07-2.76544E+04
 -1      1922 1.01709E+04 8.61838E-06-2.76544E+04
 -1      1923 1.09772E+04-2.71644E-06-1.50319E+04
 -1      1925 1.09772E+04 1.92727E-06-1.50319E+04
 -1      1926 1.16633E+04 4.98910E-06-1.56776E+03
 -1      1928 1.16633E+04 9.88785E-07-1.56776E+03
 -1      1929 1.22260E+04-6.47571E-06 1.25298E+04
 -1      1931 1.22260E+04 4.26655E-06 1.25298E+04
 -1      1932 1.26668E+04-4.68400E-06 2.70477E+04
 -1      1934 1.26668E+04 4.78383E-06 2.70477E+04
 -1      1935 1.29921E+04-6.29646E-07 4.17745E+04
 -1      1937 1.29921E+04 1.05089E-06 4.17745E+04
 -1      1938 1.32138E+04 3.28541E-06 5.65066E+04
 -1      1940 1.32138E+04-4.11862E-07 5.65066E+04
 -1      1941 1.33497E+04 6.43624E-06 7.10543E+04
 -1      1943 1.33497E+04 2.46063E-06 7.10543E+04
 -1      1944 1.34249E+04-8.92724E-07 8.52525E+04
 -1      1946 1.34249E+04 2.15788E-06 8.52525E+04
 -1      1947 1.30749E-06-1.02110E-06-5.70452E+03
 -1      1949 1.26392E-06-3.14716E-06-5.70452E+03
 -1      1950 3.01745E-07 5.81059E-07-1.24285E+04
 -1      1952 2.50937E-07-2.35365E-06-1.24285E+04
 -1      1953 2.00842E-07 3.40502E-06-2.01134E+04
 -1      1955 2.89471E-07 1.07832E-06-2.01134E+04
 -1      1956-2.11344E-07 2.64719E-06-2.83241E+04
 -1      1958-8.94583E-08 6.60580E-07-2.83241E+04
 -1      1959-1.06646E-06-2.21419E-06-3.67442E+04
 -1      1961-1.00289E-06 2.47475E-06-3.67442E+04
 -1      1962-8.14540E-07-1.02631E-06-4.50732E+04
 -1      1964-8.05284E-07 3.38507E-06-4.50732E+04
 -1      1965-1.54363E-06-3.63324E-06-5.30234E+04
 -1      1967-1.79266E-06 2.28252E-07-5.30234E+04
 -1      1968-2.30374E-06-6.08394E-06-6.03240E+04
 -1      1970-2.50086E-06 1.47823E-06-6.03240E+04
 -1      1971-1.51200E-06-4.33445E-06-6.67273E+04
 -1      1973-1.83078E-06 5.07037E-07-6.67273E+04
 -1      1974-1.71890E-06-3.29317E-06-7.20122E+04
 -1      1976-1.96547E-06 7.76754E-07-7.20122E+04
 -1      1977-2.10304E-06 9.38277E-07-7.59883E+04
 -1      1979-2.00630E-06 3.00858E-07-7.59883E+04
 -1      1980-1.00084E-06-2.66199E-06-7.84991E+04
 -1      1982-7.43470E-07 1.05513E-06-7.84991E+04
 -1      1983 5.12364E-08-7.19001E-06-7.94240E+04
 -1      1985 1.25016E-07-3.65044E-06-7.94240E+04
 -1      1986 1.30749E-06-6.06151E-06-7.86804E+04
 -1      1988 1.26171E-06-1.46198E-06-7.86804E+04
 -1      1989 3.12739E-06-5.54819E-06-7.62242E+04
 -1      1991 2.87172E-06 2.00262E-06-7.62242E+04
 -1      1992 3.22495E-06-2.16441E-06-7.20501E+04
 -1      1994 2.87457E-06 1.22817E-06-7.20501E+04
 -1      1995 9.87968E-07 3.15296E-06-6.61909E+04
 -1      1997 9.95749E-07 2.74816E-06-6.61909E+04
 -1      1998-7.36588E-07-1.14242E-06-5.87153E+04
 -1      2000-4.89847E-07 2.88196E-06-5.87153E+04
 -1      2001 7.29501E-07-2.28602E-06-4.97259E+04
 -1      2003 7.14806E-07-3.26120E-06-4.97259E+04
 -1      2004 1.80011E-06-1.14558E-06-3.93558E+04
 -1      2006 1.48239E-06-4.37822E-06-3.93558E+04
 -1      2007 1.57032E-07-5.92801E-06-2.77646E+04
 -1      2009 8.33946E-08 8.76067E-06-2.77646E+04
 -1      2010-5.38915E-07-3.62809E-06-1.51335E+04
 -1      2012-2.78786E-07 4.53959E-06-1.51335E+04
 -1      2013-4.93417E-07-6.47290E-06-1.66047E+03
 -1      2015-3.58568E-07-3.56663E-06-1.66047E+03
 -1      2016-1.34169E-06-2.90738E-06 1.24457E+04
 -1      2018-1.29522E-06 3.06352E-06 1.24457E+04
 -1      2019-2.04083E-06-7.26667E-06 2.69714E+04
 -1      2021-1.74638E-06 9.48966E-06 2.69714E+04
 -1      2022-1.64452E-06-2.25068E-06 4.17044E+04
 -1      2024-1.76828E-06 4.22013E-07 4.17044E+04
 -1      2025-1.13606E-06 3.91953E-06 5.64404E+04
 -1      2027-1.19716E-06-5.31763E-06 5.64404E+04
 -1      2028-3.80485E-07-6.04392E-07 7.09892E+04
 -1      2030-3.88661E-07-3.39926E-06 7.09892E+04
 -1      2031-8.46783E-07 2.48570E-06 8.51864E+04
 -1      2033-7.90479E-07-3.44108E-06 8.51864E+04
 -1      2034 1.20642E+03-9.04554E-08-5.79884E+03
 -1      2036 1.20642E+03-1.77490E-07-5.79884E+03
 -1      2037 2.26211E+03 1.16444E-06-1.25740E+04
 -1      2039 2.26211E+03 1.39245E-06-1.25740E+04
 -1      2040 3.07043E+03 3.11002E-06-2.02340E+04
 -1      2042 3.07043E+03 3.35824E-06-2.02340E+04
 -1      2043 3.60479E+03 2.02142E-06-2.84051E+04
 -1      2045 3.60479E+03 9.89908E-07-2.84051E+04
 -1      2046 3.88056E+03-1.34912E-06-3.67946E+04
 -1      2048 3.88056E+03 8.29881E-07-3.67946E+04
 -1      2049 3.91350E+03-1.40053E-06-4.50930E+04
 -1      2051 3.91350E+03 1.94507E-06-4.50930E+04
 -1      2052 3.71747E+03-1.81416E-06-5.30162E+04
 -1      2054 3.71747E+03-1.44592E-06-5.30162E+04
 -1      2055 3.31045E+03-8.99817E-07-6.02914E+04
 -1      2057 3.31045E+03-4.41855E-06-6.02914E+04
 -1      2058 2.71204E+03-5.24832E-08-6.66722E+04
 -1      2060 2.71204E+03-1.65603E-06-6.66722E+04
 -1      2061 1.94468E+03 8.51759E-07-7.19371E+04
 -1      2063 1.94468E+03 1.59306E-07-7.19371E+04
 -1      2064 1.03274E+03 1.47714E-06-7.58962E+04
 -1      2066 1.03274E+03-3.78314E-06-7.58962E+04
 -1      2067 2.30920E+00 9.74027E-07-7.83929E+04
 -1      2069 2.30920E+00-5.11859E-06-7.83929E+04
 -1      2070-1.11937E+03-4.19278E-06-7.93068E+04
 -1      2072-1.11937E+03-2.07086E-06-7.93068E+04
 -1      2073-2.30442E+03-1.55496E-06-7.85552E+04
 -1      2075-2.30442E+03 1.99301E-06-7.85552E+04
 -1      2076-3.52489E+03-2.79131E-07-7.60939E+04
 -1      2078-3.52489E+03-1.68601E-06-7.60939E+04
 -1      2079-4.75340E+03 3.91378E-06-7.19176E+04
 -1      2081-4.75340E+03-3.70136E-06-7.19176E+04
 -1      2082-5.96370E+03-1.80852E-06-6.60588E+04
 -1      2084-5.96370E+03-4.46620E-06-6.60588E+04
 -1      2085-7.13130E+03 1.29979E-06-5.85859E+04
 -1      2087-7.13130E+03-1.28756E-06-5.85859E+04
 -1      2088-8.23401E+03 6.25559E-06-4.96014E+04
 -1      2090-8.23401E+03-6.98493E-06-4.96014E+04
 -1      2091-9.25253E+03 3.12104E-06-3.92379E+04
 -1      2093-9.25253E+03-3.85929E-06-3.92379E+04
 -1      2094-1.01709E+04 2.92629E-06-2.76544E+04
 -1      2096-1.01709E+04 2.08639E-06-2.76544E+04
 -1      2097-1.09772E+04-2.98500E-06-1.50319E+04
 -1      2099-1.09772E+04 4.73412E-06-1.50319E+04
 -1      2100-1.16633E+04-5.12699E-07-1.56776E+03
 -1      2102-1.16633E+04 9.95774E-07-1.56776E+03
 -1      2103-1.22260E+04-1.05155E-06 1.25298E+04
 -1      2105-1.22260E+04 2.94555E-07 1.25298E+04
 -1      2106-1.26668E+04 2.69942E-06 2.70477E+04
 -1      2108-1.26668E+04 4.99782E-06 2.70477E+04
 -1      2109-1.29921E+04 4.65550E-06 4.17745E+04
 -1      2111-1.29921E+04 2.48923E-06 4.17745E+04
 -1      2112-1.32138E+04-2.80717E-06 5.65066E+04
 -1      2114-1.32138E+04 5.62439E-06 5.65066E+04
 -1      2115-1.33497E+04-8.37847E-06 7.10543E+04
 -1      2117-1.33497E+04-3.35879E-06 7.10543E+04
 -1      2118-1.34249E+04 6.27831E-07 8.52525E+04
 -1      2120-1.34249E+04-1.89699E-06 8.52525E+04
 -1      2121 1.71611E+03 1.98882E+02-4.74556E+03
 -1      2123 1.71611E+03 1.98882E+02-4.74556E+03
 -1      2124 3.19385E+03 1.94624E+02-1.04306E+04
 -1      2126 3.19385E+03 1.94624E+02-1.04306E+04
 -1      2127 4.31096E+03 1.21073E+02-1.66172E+04
 -1      2129 4.31096E+03 1.21073E+02-1.66172E+04
 -1      2130 5.05688E+03 7.44162E+01-2.30722E+04
 -1      2132 5.05688E+03 7.44162E+01-2.30722E+04
 -1      2133 5.44680E+03 2.78039E+01-2.96838E+04
 -1      2135 5.44680E+03 2.78039E+01-2.96838E+04
 -1      2136 5.49462E+03-1.84220E+01-3.61794E+04
 -1      2138 5.49462E+03-1.84220E+01-3.61794E+04
 -1      2139 5.22040E+03-6.05187E+01-4.23632E+04
 -1      2141 5.22040E+03-6.05187E+01-4.23632E+04
 -1      2142 4.64814E+03-9.94085E+01-4.80188E+04
 -1      2144 4.64814E+03-9.94085E+01-4.80188E+04
 -1      2145 3.80590E+03-1.34131E+02-5.29616E+04
 -1      2147 3.80590E+03-1.34131E+02-5.29616E+04
 -1      2148 2.72511E+03-1.64358E+02-5.70197E+04
 -1      2150 2.72511E+03-1.64358E+02-5.70197E+04
 -1      2151 1.44023E+03-1.89682E+02-6.00477E+04
 -1      2153 1.44023E+03-1.89682E+02-6.00477E+04
 -1      2154-1.19656E+01-2.09840E+02-6.19246E+04
 -1      2156-1.19656E+01-2.09840E+02-6.19246E+04
 -1      2157-1.59305E+03-2.24643E+02-6.25580E+04
 -1      2159-1.59305E+03-2.24643E+02-6.25580E+04
 -1      2160-3.26370E+03-2.34028E+02-6.18846E+04
 -1      2162-3.26370E+03-2.34028E+02-6.18846E+04
 -1      2163-4.98453E+03-2.38034E+02-5.98715E+04
 -1      2165-4.98453E+03-2.38034E+02-5.98715E+04
 -1      2166-6.71690E+03-2.36824E+02-5.65165E+04
 -1      2168-6.71690E+03-2.36824E+02-5.65165E+04
 -1      2169-8.42382E+03-2.30677E+02-5.18470E+04
 -1      2171-8.42382E+03-2.30677E+02-5.18470E+04
 -1      2172-1.00707E+04-2.19984E+02-4.59196E+04
 -1      2174-1.00707E+04-2.19984E+02-4.59196E+04
 -1      2175-1.16264E+04-2.05248E+02-3.88180E+04
 -1      2177-1.16264E+04-2.05248E+02-3.88180E+04
 -1      2178-1.30636E+04-1.87073E+02-3.06506E+04
 -1      2180-1.30636E+04-1.87073E+02-3.06506E+04
 -1      2181-1.43600E+04-1.66155E+02-2.15478E+04
 -1      2183-1.43600E+04-1.66155E+02-2.15478E+04
 -1      2184-1.54983E+04-1.43274E+02-1.16586E+04
 -1      2186-1.54983E+04-1.43274E+02-1.16586E+04
 -1      2187-1.64677E+04-1.19279E+02-1.14688E+03
 -1      2189-1.64677E+04-1.19279E+02-1.14688E+03
 -1      2190-1.72634E+04-9.50524E+01 9.81222E+03
 -1      2192-1.72634E+04-9.50524E+01 9.81222E+03
 -1      2193-1.78874E+04-7.15972E+01 2.10372E+04
 -1      2195-1.78874E+04-7.15972E+01 2.10372E+04
 -1      2196-1.83488E+04-4.97772E+01 3.23427E+04
 -1      2198-1.83488E+04-4.97772E+01 3.23427E+04
 -1      2199-1.86634E+04-3.03622E+01 4.35469E+04
 -1      2201-1.86634E+04-3.03622E+01 4.35469E+04
 -1      2202-1.88546E+04-1.60955E+01 5.44667E+04
 -1      2204-1.88546E+04-1.60955E+01 5.44667E+04
 -1      2205-1.89507E+04-4.41958E+00 6.49300E+04
 -1      2207-1.89507E+04-4.41957E+00 6.49300E+04
 -1      2208 1.71611E+03-1.98882E+02-4.74556E+03
 -1      2210 1.71611E+03-1.98882E+02-4.74556E+03
 -1      2211 3.19385E+03-1.94624E+02-1.04306E+04
 -1      2213 3.19385E+03-1.94624E+02-1.04306E+04
 -1      2214 4.31096E+03-1.21073E+02-1.66172E+04
 -1      2216 4.31096E+03-1.21073E+02-1.66172E+04
 -1      2217 5.05688E+03-7.44162E+01-2.30722E+04
 -1      2219 5.05688E+03-7.44162E+01-2.30722E+04
 -1      2220 5.44680E+03-2.78039E+01-2.96838E+04
 -1      2222 5.44680E+03-2.78039E+01-2.96838E+04
 -1      2223 5.49462E+03 1.84220E+01-3.61794E+04
 -1      2225 5.49462E+03 1.84220E+01-3.61794E+04
 -1      2226 5.22040E+03 6.05187E+01-4.23632E+04
 -1      2228 5.22040E+03 6.05187E+01-4.23632E+04
 -1      2229 4.64814E+03 9.94085E+01-4.80188E+04
 -1      2231 4.64814E+03 9.94085E+01-4.80188E+04
 -1      2232 3.80590E+03 1.34131E+02-5.29616E+04
 -1      2234 3.80590E+03 1.34131E+02-5.29616E+04
 -1      2235 2.72511E+03 1.64358E+02-5.70197E+04
 -1      2237 2.72511E+03 1.64358E+02-5.70197E+04
 -1      2238 1.44023E+03 1.89682E+02-6.00477E+04
 -1      2240 1.44023E+03 1.89682E+02-6.00477E+04
 -1      2241-1.19656E+01 2.09840E+02-6.19246E+04
 -1      2243-1.19656E+01 2.09840E+02-6.19246E+04
 -1      2244-1.59305E+03 2.24643E+02-6.25580E+04
 -1      2246-1.59305E+03 2.24643E+02-6.25580E+04
 -1      2247-3.26370E+03 2.34028E+02-6.18846E+04
 -1      2249-3.26370E+03 2.34028E+02-6.18846E+04
 -1      2250-4.98453E+03 2.38034E+02-5.98715E+04
 -1      2252-4.98453E+03 2.38034E+02-5.98715E+04
 -1      2253-6.71690E+03 2.36824E+02-5.65165E+04
 -1      2255-6.71690E+03 2.36824E+02-5.65165E+04
 -1      2256-8.42382E+03 2.30677E+02-5.18470E+04
 -1      2258-8.42382E+03 2.30677E+02-5.18470E+04
 -1      2259-1.00707E+04 2.19984E+02-4.59196E+04
 -1      2261-1.00707E+04 2.19984E+02-4.59196E+04
 -1      2262-1.16264E+04 2.05248E+02-3.88180E+04
 -1      2264-1.16264E+04 2.05248E+02-3.88180E+04
 -1      2265-1.30636E+04 1.87073E+02-3.06506E+04
 -1      2267-1.30636E+04 1.87073E+02-3.06506E+04
 -1      2268-1.43600E+04 1.66155E+02-2.15478E+04
 -1      2270-1.43600E+04 1.66155E+02-2.15478E+04
 -1      2271-1.54983E+04 1.43274E+02-1.16586E+04
 -1      2273-1.54983E+04 1.43274E+02-1.16586E+04
 -1      2274-1.64677E+04 1.19279E+02-1.14688E+03
 -1      2276-1.64677E+04 1.19279E+02-1.14688E+03
 -1      2277-1.72634E+04 9.50524E+01 9.81222E+03
 -1      2279-1.72634E+04 9.50524E+01 9.81222E+03
 -1      2280-1.78874E+04 7.15972E+01 2.10372E+04
 -1      2282-1.78874E+04 7.15972E+01 2.10372E+04
 -1      2283-1.83488E+04 4.97772E+01 3.23427E+04
 -1      2285-1.83488E+04 4.97772E+01 3.23427E+04
 -1      2286-1.86634E+04 3.03622E+01 4.35469E+04
 -1      2288-1.86634E+04 3.03622E+01 4.35469E+04
 -1      2289-1.88546E+04 1.60955E+01 5.44667E+04
 -1      2291-1.88546E+04 1.60955E+01 5.44667E+04
 -1      2292-1.89507E+04 4.41957E+00 6.49300E+04
 -1      2294-1.89507E+04 4.41957E+00 6.49300E+04
 -3
    1PSTEP                        32           1           1          
    1PGM                1.000000E+00                                  
    1PGK                2.509314E+06                                  
    1PHID                         -1                                  
    1PSUBC                         0                                  
    1PMODE                         8                                  
  100CL  108 252.1143700         930                     2    8MODAL      1
 -4  ERROR       1    1
 -5  STR(%)      1    1    0    0
 -1       404 0.00000E+00
 -1       406 0.00000E+00
 -1       407 0.00000E+00
 -1       409 0.00000E+00
 -1       410 0.00000E+00
 -1       412 0.00000E+00
 -1       413 0.00000E+00
 -1       415 0.00000E+00
 -1       424 0.00000E+00
 -1       426 0.00000E+00
 -1       427 0.00000E+00
 -1       429 0.00000E+00
 -1       438 0.00000E+00
 -1       440 0.00000E+00
 -1       441 0.00000E+00
 -1       443 0.00000E+00
 -1       444 0.00000E+00
 -1       446 0.00000E+00
 -1       447 0.00000E+00
 -1       449 0.00000E+00
 -1       458 0.00000E+00
 -1       460 0.00000E+00
 -1       461 0.00000E+00
 -1       463 0.00000E+00
 -1       472 0.00000E+00
 -1       474 0.00000E+00
 -1       475 0.00000E+00
 -1       477 0.00000E+00
 -1       478 0.00000E+00
 -1       480 0.00000E+00
 -1       481 0.00000E+00
 -1       483 0.00000E+00
 -1       484 0.00000E+00
 -1       486 0.00000E+00
 -1       487 0.00000E+00
 -1       489 0.00000E+00
 -1       490 0.00000E+00
 -1       492 0.00000E+00
 -1       493 0.00000E+00
 -1       495 0.00000E+00
 -1       496 0.00000E+00
 -1       498 0.00000E+00
 -1       499 0.00000E+00
 -1       501 0.00000E+00
 -1       502 0.00000E+00
 -1       504 0.00000E+00
 -1       505 0.00000E+00
 -1       507 0.00000E+00
 -1       508 0.00000E+00
 -1       510 0.00000E+00
 -1       511 0.00000E+00
 -1       513 0.00000E+00
 -1       514 0.00000E+00
 -1       516 0.00000E+00
 -1       517 0.00000E+00
 -1       519 0.00000E+00
 -1       520 0.00000E+00
 -1       522 0.00000E+00
 -1       523 0.00000E+00
 -1       525 0.00000E+00
 -1       526 0.00000E+00
 -1       528 0.00000E+00
 -1       529 0.00000E+00
 -1       531 0.00000E+00
 -1       532 0.00000E+00
 -1       534 0.00000E+00
 -1       535 0.00000E+00
 -1       537 0.00000E+00
 -1       538 0.00000E+00
 -1       540 0.00000E+00
 -1       541 0.00000E+00
 -1       543 0.00000E+00
 -1       544 0.00000E+00
 -1       546 0.00000E+00
 -1       547 0.00000E+00
 -1       549 0.00000E+00
 -1       550 0.00000E+00
 -1       552 0.00000E+00
 -1       553 0.00000E+00
 -1       555 0.00000E+00
 -1       556 0.00000E+00
 -1       558 0.00000E+00
 -1       559 0.00000E+00
 -1       561 0.00000E+00
 -1       562 0.00000E+00
 -1       564 0.00000E+00
 -1       565 0.00000E+00
 -1       567 0.00000E+00
 -1       568 0.00000E+00
 -1       570 0.00000E+00
 -1       571 0.00000E+00
 -1       573 0.00000E+00
 -1       574 0.00000E+00
 -1       576 0.00000E+00
 -1       577 0.00000E+00
 -1       579 0.00000E+00
 -1       588 0.00000E+00
 -1       590 0.00000E+00
 -1       591 0.00000E+00
 -1       593 0.00000E+00
 -1       602 0.00000E+00
 -1       604 0.00000E+00
 -1       605 0.00000E+00
 -1       607 0.00000E+00
 -1       616 0.00000E+00
 -1       618 0.00000E+00
 -1       619 0.00000E+00
 -1       621 0.00000E+00
 -1       630 0.00000E+00
 -1       632 0.00000E+00
 -1       633 0.00000E+00
 -1       635 0.00000E+00
 -1       644 0.00000E+00
 -1       646 0.00000E+00
 -1       647 0.00000E+00
 -1       649 0.00000E+00
 -1       658 0.00000E+00
 -1       660 0.00000E+00
 -1       661 0.00000E+00
 -1       663 0.00000E+00
 -1       672 0.00000E+00
 -1       674 0.00000E+00
 -1       675 0.00000E+00
 -1       677 0.00000E+00
 -1       686 0.00000E+00
 -1       688 0.00000E+00
 -1       689 0.00000E+00
 -1       691 0.00000E+00
 -1       700 0.00000E+00
 -1       702 0.00000E+00
 -1       703 0.00000E+00
 -1       705 0.00000E+00
 -1       714 0.00000E+00
 -1       716 0.00000E+00
 -1       717 0.00000E+00
 -1       719 0.00000E+00
 -1       728 0.00000E+00
 -1       730 0.00000E+00
 -1       731 0.00000E+00
 -1       733 0.00000E+00
 -1       742 0.00000E+00
 -1       744 0.00000E+00
 -1       745 0.00000E+00
 -1       747 0.00000E+00
 -1       756 0.00000E+00
 -1       758 0.00000E+00
 -1       759 0.00000E+00
 -1       761 0.00000E+00
 -1       770 0.00000E+00
 -1       772 0.00000E+00
 -1       773 0.00000E+00
 -1       775 0.00000E+00
 -1       784 0.00000E+00
 -1       786 0.00000E+00
 -1       787 0.00000E+00
 -1       789 0.00000E+00
 -1       798 0.00000E+00
 -1       800 0.00000E+00
 -1       801 0.00000E+00
 -1       803 0.00000E+00
 -1       812 0.00000E+00
 -1       814 0.00000E+00
 -1       815 0.00000E+00
 -1       817 0.00000E+00
 -1       826 0.00000E+00
 -1       828 0.00000E+00
 -1       829 0.00000E+00
 -1       831 0.00000E+00
 -1       840 0.00000E+00
 -1       842 0.00000E+00
 -1       843 0.00000E+00
 -1       845 0.00000E+00
 -1       854 0.00000E+00
 -1       856 0.00000E+00
 -1       857 0.00000E+00
 -1       859 0.00000E+00
 -1       868 0.00000E+00
 -1       870 0.00000E+00
 -1       871 0.00000E+00
 -1       873 0.00000E+00
 -1       882 0.00000E+00
 -1       884 0.00000E+00
 -1       885 0.00000E+00
 -1       887 0.00000E+00
 -1       896 0.00000E+00
 -1       898 0.00000E+00
 -1       899 0.00000E+00
 -1       901 0.00000E+00
 -1       910 0.00000E+00
 -1       912 0.00000E+00
 -1       913 0.00000E+00
 -1       915 0.00000E+00
 -1       924 0.00000E+00
 -1       926 0.00000E+00
 -1       927 0.00000E+00
 -1       929 0.00000E+00
 -1       938 0.00000E+00
 -1       940 0.00000E+00
 -1       941 0.00000E+00
 -1       943 0.00000E+00
 -1       952 0.00000E+00
 -1       954 0.00000E+00
 -1       955 0.00000E+00
 -1       957 0.00000E+00
 -1       966 0.00000E+00
 -1       968 0.00000E+00
 -1       969 0.00000E+00
 -1       971 0.00000E+00
 -1       980 0.00000E+00
 -1       982 0.00000E+00
 -1       983 0.00000E+00
 -1       985 0.00000E+00
 -1       986 0.00000E+00
 -1       988 0.00000E+00
 -1       989 0.00000E+00
 -1       991 0.00000E+00
 -1       992 0.00000E+00
 -1       994 0.00000E+00
 -1       995 0.00000E+00
 -1       997 0.00000E+00
 -1       998 0.00000E+00
 -1      1000 0.00000E+00
 -1      1001 0.00000E+00
 -1      1003 0.00000E+00
 -1      1004 0.00000E+00
 -1      1006 0.00000E+00
 -1      1007 0.00000E+00
 -1      1009 0.00000E+00
 -1      1010 0.00000E+00
 -1      1012 0.00000E+00
 -1      1013 0.00000E+00
 -1      1015 0.00000E+00
 -1      1016 0.00000E+00
 -1      1018 0.00000E+00
 -1      1019 0.00000E+00
 -1      1021 0.00000E+00
 -1      1022 0.00000E+00
 -1      1024 0.00000E+00
 -1      1025 0.00000E+00
 -1      1027 0.00000E+00
 -1      1028 0.00000E+00
 -1      1030 0.00000E+00
 -1      1031 0.00000E+00
 -1      1033 0.00000E+00
 -1      1034 0.00000E+00
 -1      1036 0.00000E+00
 -1      1037 0.00000E+00
 -1      1039 0.00000E+00
 -1      1040 0.00000E+00
 -1      1042 0.00000E+00
 -1      1043 0.00000E+00
 -1      1045 0.00000E+00
 -1      1046 0.00000E+00
 -1      1048 0.00000E+00
 -1      1049 0.00000E+00
 -1      1051 0.00000E+00
 -1      1052 0.00000E+00
 -1      1054 0.00000E+00
 -1      1055 0.00000E+00
 -1      1057 0.00000E+00
 -1      1058 0.00000E+00
 -1      1060 0.00000E+00
 -1      1061 0.00000E+00
 -1      1063 0.00000E+00
 -1      1064 0.00000E+00
 -1      1066 0.00000E+00
 -1      1067 0.00000E+00
 -1      1069 0.00000E+00
 -1      1070 0.00000E+00
 -1      1072 0.00000E+00
 -1      1073 0.00000E+00
 -1      1075 0.00000E+00
 -1      1076 0.00000E+00
 -1      1078 0.00000E+00
 -1      1079 0.00000E+00
 -1      1081 0.00000E+00
 -1      1082 0.00000E+00
 -1      1084 0.00000E+00
 -1      1085 0.00000E+00
 -1      1087 0.00000E+00
 -1      1088 0.00000E+00
 -1      1090 0.00000E+00
 -1      1099 0.00000E+00
 -1      1101 0.00000E+00
 -1      1102 0.00000E+00
 -1      1104 0.00000E+00
 -1      1113 0.00000E+00
 -1      1115 0.00000E+00
 -1      1116 0.00000E+00
 -1      1118 0.00000E+00
 -1      1127 0.00000E+00
 -1      1129 0.00000E+00
 -1      1130 0.00000E+00
 -1      1132 0.00000E+00
 -1      1141 0.00000E+00
 -1      1143 0.00000E+00
 -1      1144 0.00000E+00
 -1      1146 0.00000E+00
 -1      1155 0.00000E+00
 -1      1157 0.00000E+00
 -1      1158 0.00000E+00
 -1      1160 0.00000E+00
 -1      1169 0.00000E+00
 -1      1171 0.00000E+00
 -1      1172 0.00000E+00
 -1      1174 0.00000E+00
 -1      1183 0.00000E+00
 -1      1185 0.00000E+00
 -1      1186 0.00000E+00
 -1      1188 0.00000E+00
 -1      1197 0.00000E+00
 -1      1199 0.00000E+00
 -1      1200 0.00000E+00
 -1      1202 0.00000E+00
 -1      1211 0.00000E+00
 -1      1213 0.00000E+00
 -1      1214 0.00000E+00
 -1      1216 0.00000E+00
 -1      1225 0.00000E+00
 -1      1227 0.00000E+00
 -1      1228 0.00000E+00
 -1      1230 0.00000E+00
 -1      1239 0.00000E+00
 -1      1241 0.00000E+00
 -1      1242 0.00000E+00
 -1      1244 0.00000E+00
 -1      1253 0.00000E+00
 -1      1255 0.00000E+00
 -1      1256 0.00000E+00
 -1      1258 0.00000E+00
 -1      1267 0.00000E+00
 -1      1269 0.00000E+00
 -1      1270 0.00000E+00
 -1      1272 0.00000E+00
 -1      1281 0.00000E+00
 -1      1283 0.00000E+00
 -1      1284 0.00000E+00
 -1      1286 0.00000E+00
 -1      1295 0.00000E+00
 -1      1297 0.00000E+00
 -1      1298 0.00000E+00
 -1      1300 0.00000E+00
 -1      1309 0.00000E+00
 -1      1311 0.00000E+00
 -1      1312 0.00000E+00
 -1      1314 0.00000E+00
 -1      1323 0.00000E+00
 -1      1325 0.00000E+00
 -1      1326 0.00000E+00
 -1      1328 0.00000E+00
 -1      1337 0.00000E+00
 -1      1339 0.00000E+00
 -1      1340 0.00000E+00
 -1      1342 0.00000E+00
 -1      1351 0.00000E+00
 -1      1353 0.00000E+00
 -1      1354 0.00000E+00
 -1      1356 0.00000E+00
 -1      1365 0.00000E+00
 -1      1367 0.00000E+00
 -1      1368 0.00000E+00
 -1      1370 0.00000E+00
 -1      1379 0.00000E+00
 -1      1381 0.00000E+00
 -1      1382 0.00000E+00
 -1      1384 0.00000E+00
 -1      1393 0.00000E+00
 -1      1395 0.00000E+00
 -1      1396 0.00000E+00
 -1      1398 0.00000E+00
 -1      1407 0.00000E+00
 -1      1409 0.00000E+00
 -1      1410 0.00000E+00
 -1      1412 0.00000E+00
 -1      1421 0.00000E+00
 -1      1423 0.00000E+00
 -1      1424 0.00000E+00
 -1      1426 0.00000E+00
 -1      1435 0.00000E+00
 -1      1437 0.00000E+00
 -1      1438 0.00000E+00
 -1      1440 0.00000E+00
 -1      1449 0.00000E+00
 -1      1451 0.00000E+00
 -1      1452 0.00000E+00
 -1      1454 0.00000E+00
 -1      1463 0.00000E+00
 -1      1465 0.00000E+00
 -1      1466 0.00000E+00
 -1      1468 0.00000E+00
 -1      1477 0.00000E+00
 -1      1479 0.00000E+00
 -1      1480 0.00000E+00
 -1      1482 0.00000E+00
 -1      1491 0.00000E+00
 -1      1493 0.00000E+00
 -1      1494 0.00000E+00
 -1      1496 0.00000E+00
 -1      1497 0.00000E+00
 -1      1499 0.00000E+00
 -1      1500 0.00000E+00
 -1      1502 0.00000E+00
 -1      1503 0.00000E+00
 -1      1505 0.00000E+00
 -1      1506 0.00000E+00
 -1      1508 0.00000E+00
 -1      1509 0.00000E+00
 -1      1511 0.00000E+00
 -1      1512 0.00000E+00
 -1      1514 0.00000E+00
 -1      1515 0.00000E+00
 -1      1517 0.00000E+00
 -1      1518 0.00000E+00
 -1      1520 0.00000E+00
 -1      1521 0.00000E+00
 -1      1523 0.00000E+00
 -1      1524 0.00000E+00
 -1      1526 0.00000E+00
 -1      1527 0.00000E+00
 -1      1529 0.00000E+00
 -1      1530 0.00000E+00
 -1      1532 0.00000E+00
 -1      1533 0.00000E+00
 -1      1535 0.00000E+00
 -1      1536 0.00000E+00
 -1      1538 0.00000E+00
 -1      1539 0.00000E+00
 -1      1541 0.00000E+00
 -1      1542 0.00000E+00
 -1      1544 0.00000E+00
 -1      1545 0.00000E+00
 -1      1547 0.00000E+00
 -1      1548 0.00000E+00
 -1      1550 0.00000E+00
 -1      1551 0.00000E+00
 -1      1553 0.00000E+00
 -1      1554 0.00000E+00
 -1      1556 0.00000E+00
 -1      1557 0.00000E+00
 -1      1559 0.00000E+00
 -1      1560 0.00000E+00
 -1      1562 0.00000E+00
 -1      1563 0.00000E+00
 -1      1565 0.00000E+00
 -1      1566 0.00000E+00
 -1      1568 0.00000E+00
 -1      1569 0.00000E+00
 -1      1571 0.00000E+00
 -1      1572 0.00000E+00
 -1      1574 0.00000E+00
 -1      1575 0.00000E+00
 -1      1577 0.00000E+00
 -1      1578 0.00000E+00
 -1      1580 0.00000E+00
 -1      1581 0.00000E+00
 -1      1583 0.00000E+00
 -1      1584 0.00000E+00
 -1      1586 0.00000E+00
 -1      1587 0.00000E+00
 -1      1589 0.00000E+00
 -1      1590 0.00000E+00
 -1      1592 0.00000E+00
 -1      1593 0.00000E+00
 -1      1595 0.00000E+00
 -1      1596 0.00000E+00
 -1      1598 0.00000E+00
 -1      1599 0.00000E+00
 -1      1601 0.00000E+00
 -1      1602 0.00000E+00
 -1      1604 0.00000E+00
 -1      1605 0.00000E+00
 -1      1607 0.00000E+00
 -1      1608 0.00000E+00
 -1      1610 0.00000E+00
 -1      1611 0.00000E+00
 -1      1613 0.00000E+00
 -1      1614 0.00000E+00
 -1      1616 0.00000E+00
 -1      1617 0.00000E+00
 -1      1619 0.00000E+00
 -1      1620 0.00000E+00
 -1      1622 0.00000E+00
 -1      1623 0.00000E+00
 -1      1625 0.00000E+00
 -1      1626 0.00000E+00
 -1      1628 0.00000E+00
 -1      1629 0.00000E+00
 -1      1631 0.00000E+00
 -1      1632 0.00000E+00
 -1      1634 0.00000E+00
 -1      1635 0.00000E+00
 -1      1637 0.00000E+00
 -1      1638 0.00000E+00
 -1      1640 0.00000E+00
 -1      1641 0.00000E+00
 -1      1643 0.00000E+00
 -1      1644 0.00000E+00
 -1      1646 0.00000E+00
 -1      1647 0.00000E+00
 -1      1649 0.00000E+00
 -1      1650 0.00000E+00
 -1      1652 0.00000E+00
 -1      1653 0.00000E+00
 -1      1655 0.00000E+00
 -1      1656 0.00000E+00
 -1      1658 0.00000E+00
 -1      1659 0.00000E+00
 -1      1661 0.00000E+00
 -1      1662 0.00000E+00
 -1      1664 0.00000E+00
 -1      1665 0.00000E+00
 -1      1667 0.00000E+00
 -1      1668 0.00000E+00
 -1      1670 0.00000E+00
 -1      1671 0.00000E+00
 -1      1673 0.00000E+00
 -1      1674 0.00000E+00
 -1      1676 0.00000E+00
 -1      1677 0.00000E+00
 -1      1679 0.00000E+00
 -1      1680 0.00000E+00
 -1      1682 0.00000E+00
 -1      1683 0.00000E+00
 -1      1685 0.00000E+00
 -1      1686 0.00000E+00
 -1      1688 0.00000E+00
 -1      1689 0.00000E+00
 -1      1691 0.00000E+00
 -1      1692 0.00000E+00
 -1      1694 0.00000E+00
 -1      1695 0.00000E+00
 -1      1697 0.00000E+00
 -1      1698 0.00000E+00
 -1      1700 0.00000E+00
 -1      1701 0.00000E+00
 -1      1703 0.00000E+00
 -1      1704 0.00000E+00
 -1      1706 0.00000E+00
 -1      1707 0.00000E+00
 -1      1709 0.00000E+00
 -1      1710 0.00000E+00
 -1      1712 0.00000E+00
 -1      1713 0.00000E+00
 -1      1715 0.00000E+00
 -1      1716 0.00000E+00
 -1      1718 0.00000E+00
 -1      1719 0.00000E+00
 -1      1721 0.00000E+00
 -1      1722 0.00000E+00
 -1      1724 0.00000E+00
 -1      1725 0.00000E+00
 -1      1727 0.00000E+00
 -1      1728 0.00000E+00
 -1      1730 0.00000E+00
 -1      1731 0.00000E+00
 -1      1733 0.00000E+00
 -1      1734 0.00000E+00
 -1      1736 0.00000E+00
 -1      1737 0.00000E+00
 -1      1739 0.00000E+00
 -1      1740 0.00000E+00
 -1      1742 0.00000E+00
 -1      1743 0.00000E+00
 -1      1745 0.00000E+00
 -1      1746 0.00000E+00
 -1      1748 0.00000E+00
 -1      1749 0.00000E+00
 -1      1751 0.00000E+00
 -1      1752 0.00000E+00
 -1      1754 0.00000E+00
 -1      1755 0.00000E+00
 -1      1757 0.00000E+00
 -1      1758 0.00000E+00
 -1      1760 0.00000E+00
 -1      1761 0.00000E+00
 -1      1763 0.00000E+00
 -1      1764 0.00000E+00
 -1      1766 0.00000E+00
 -1      1767 0.00000E+00
 -1      1769 0.00000E+00
 -1      1770 0.00000E+00
 -1      1772 0.00000E+00
 -1      1773 0.00000E+00
 -1      1775 0.00000E+00
 -1      1776 0.00000E+00
 -1      1778 0.00000E+00
 -1      1779 0.00000E+00
 -1      1781 0.00000E+00
 -1      1782 0.00000E+00
 -1      1784 0.00000E+00
 -1      1785 0.00000E+00
 -1      1787 0.00000E+00
 -1      1788 0.00000E+00
 -1      1790 0.00000E+00
 -1      1791 0.00000E+00
 -1      1793 0.00000E+00
 -1      1794 0.00000E+00
 -1      1796 0.00000E+00
 -1      1797 0.00000E+00
 -1      1799 0.00000E+00
 -1      1800 0.00000E+00
 -1      1802 0.00000E+00
 -1      1803 0.00000E+00
 -1      1805 0.00000E+00
 -1      1806 0.00000E+00
 -1      1808 0.00000E+00
 -1      1809 0.00000E+00
 -1      1811 0.00000E+00
 -1      1812 0.00000E+00
 -1      1814 0.00000E+00
 -1      1815 0.00000E+00
 -1      1817 0.00000E+00
 -1      1818 0.00000E+00
 -1      1820 0.00000E+00
 -1      1821 0.00000E+00
 -1      1823 0.00000E+00
 -1      1824 0.00000E+00
 -1      1826 0.00000E+00
 -1      1827 0.00000E+00
 -1      1829 0.00000E+00
 -1      1830 0.00000E+00
 -1      1832 0.00000E+00
 -1      1833 0.00000E+00
 -1      1835 0.00000E+00
 -1      1836 0.00000E+00
 -1      1838 0.00000E+00
 -1      1839 0.00000E+00
 -1      1841 0.00000E+00
 -1      1842 0.00000E+00
 -1      1844 0.00000E+00
 -1      1845 0.00000E+00
 -1      1847 0.00000E+00
 -1      1848 0.00000E+00
 -1      1850 0.00000E+00
 -1      1851 0.00000E+00
 -1      1853 0.00000E+00
 -1      1854 0.00000E+00
 -1      1856 0.00000E+00
 -1      1857 0.00000E+00
 -1      1859 0.00000E+00
 -1      1860 0.00000E+00
 -1      1862 0.00000E+00
 -1      1863 0.00000E+00
 -1      1865 0.00000E+00
 -1      1866 0.00000E+00
 -1      1868 0.00000E+00
 -1      1869 0.00000E+00
 -1      1871 0.00000E+00
 -1      1872 0.00000E+00
 -1      1874 0.00000E+00
 -1      1875 0.00000E+00
 -1      1877 0.00000E+00
 -1      1878 0.00000E+00
 -1      1880 0.00000E+00
 -1      1881 0.00000E+00
 -1      1883 0.00000E+00
 -1      1884 0.00000E+00
 -1      1886 0.00000E+00
 -1      1887 0.00000E+00
 -1      1889 0.00000E+00
 -1      1890 0.00000E+00
 -1      1892 0.00000E+00
 -1      1893 0.00000E+00
 -1      1895 0.00000E+00
 -1      1896 0.00000E+00
 -1      1898 0.00000E+00
 -1      1899 0.00000E+00
 -1      1901 0.00000E+00
 -1      1902 0.00000E+00
 -1      1904 0.00000E+00
 -1      1905 0.00000E+00
 -1      1907 0.00000E+00
 -1      1908 0.00000E+00
 -1      1910 0.00000E+00
 -1      1911 0.00000E+00
 -1      1913 0.00000E+00
 -1      1914 0.00000E+00
 -1      1916 0.00000E+00
 -1      1917 0.00000E+00
 -1      1919 0.00000E+00
 -1      1920 0.00000E+00
 -1      1922 0.00000E+00
 -1      1923 0.00000E+00
 -1      1925 0.00000E+00
 -1      1926 0.00000E+00
 -1      1928 0.00000E+00
 -1      1929 0.00000E+00
 -1      1931 0.00000E+00
 -1      1932 0.00000E+00
 -1      1934 0.00000E+00
 -1      1935 0.00000E+00
 -1      1937 0.00000E+00
 -1      1938 0.00000E+00
 -1      1940 0.00000E+00
 -1      1941 0.00000E+00
 -1      1943 0.00000E+00
 -1      1944 0.00000E+00
 -1      1946 0.00000E+00
 -1      1947 0.00000E+00
 -1      1949 0.00000E+00
 -1      1950 0.00000E+00
 -1      1952 0.00000E+00
 -1      1953 0.00000E+00
 -1      1955 0.00000E+00
 -1      1956 0.00000E+00
 -1      1958 0.00000E+00
 -1      1959 0.00000E+00
 -1      1961 0.00000E+00
 -1      1962 0.00000E+00
 -1      1964 0.00000E+00
 -1      1965 0.00000E+00
 -1      1967 0.00000E+00
 -1      1968 0.00000E+00
 -1      1970 0.00000E+00
 -1      1971 0.00000E+00
 -1      1973 0.00000E+00
 -1      1974 0.00000E+00
 -1      1976 0.00000E+00
 -1      1977 0.00000E+00
 -1      1979 0.00000E+00
 -1      1980 0.00000E+00
 -1      1982 0.00000E+00
 -1      1983 0.00000E+00
 -1      1985 0.00000E+00
 -1      1986 0.00000E+00
 -1      1988 0.00000E+00
 -1      1989 0.00000E+00
 -1      1991 0.00000E+00
 -1      1992 0.00000E+00
 -1      1994 0.00000E+00
 -1      1995 0.00000E+00
 -1      1997 0.00000E+00
 -1      1998 0.00000E+00
 -1      2000 0.00000E+00
 -1      2001 0.00000E+00
 -1      2003 0.00000E+00
 -1      2004 0.00000E+00
 -1      2006 0.00000E+00
 -1      2007 0.00000E+00
 -1      2009 0.00000E+00
 -1      2010 0.00000E+00
 -1      2012 0.00000E+00
 -1      2013 0.00000E+00
 -1      2015 0.00000E+00
 -1      2016 0.00000E+00
 -1      2018 0.00000E+00
 -1      2019 0.00000E+00
 -1      2021 0.00000E+00
 -1      2022 0.00000E+00
 -1      2024 0.00000E+00
 -1      2025 0.00000E+00
 -1      2027 0.00000E+00
 -1      2028 0.00000E+00
 -1      2030 0.00000E+00
 -1      2031 0.00000E+00
 -1      2033 0.00000E+00
 -1      2034 0.00000E+00
 -1      2036 0.00000E+00
 -1      2037 0.00000E+00
 -1      2039 0.00000E+00
 -1      2040 0.00000E+00
 -1      2042 0.00000E+00
 -1      2043 0.00000E+00
 -1      2045 0.00000E+00
 -1      2046 0.00000E+00
 -1      2048 0.00000E+00
 -1      2049 0.00000E+00
 -1      2051 0.00000E+00
 -1      2052 0.00000E+00
 -1      2054 0.00000E+00
 -1      2055 0.00000E+00
 -1      2057 0.00000E+00
 -1      2058 0.00000E+00
 -1      2060 0.00000E+00
 -1      2061 0.00000E+00
 -1      2063 0.00000E+00
 -1      2064 0.00000E+00
 -1      2066 0.00000E+00
 -1      2067 0.00000E+00
 -1      2069 0.00000E+00
 -1      2070 0.00000E+00
 -1      2072 0.00000E+00
 -1      2073 0.00000E+00
 -1      2075 0.00000E+00
 -1      2076 0.00000E+00
 -1      2078 0.00000E+00
 -1      2079 0.00000E+00
 -1      2081 0.00000E+00
 -1      2082 0.00000E+00
 -1      2084 0.00000E+00
 -1      2085 0.00000E+00
 -1      2087 0.00000E+00
 -1      2088 0.00000E+00
 -1      2090 0.00000E+00
 -1      2091 0.00000E+00
 -1      2093 0.00000E+00
 -1      2094 0.00000E+00
 -1      2096 0.00000E+00
 -1      2097 0.00000E+00
 -1      2099 0.00000E+00
 -1      2100 0.00000E+00
 -1      2102 0.00000E+00
 -1      2103 0.00000E+00
 -1      2105 0.00000E+00
 -1      2106 0.00000E+00
 -1      2108 0.00000E+00
 -1      2109 0.00000E+00
 -1      2111 0.00000E+00
 -1      2112 0.00000E+00
 -1      2114 0.00000E+00
 -1      2115 0.00000E+00
 -1      2117 0.00000E+00
 -1      2118 0.00000E+00
 -1      2120 0.00000E+00
 -1      2121 0.00000E+00
 -1      2123 0.00000E+00
 -1      2124 0.00000E+00
 -1      2126 0.00000E+00
 -1      2127 0.00000E+00
 -1      2129 0.00000E+00
 -1      2130 0.00000E+00
 -1      2132 0.00000E+00
 -1      2133 0.00000E+00
 -1      2135 0.00000E+00
 -1      2136 0.00000E+00
 -1      2138 0.00000E+00
 -1      2139 0.00000E+00
 -1      2141 0.00000E+00
 -1      2142 0.00000E+00
 -1      2144 0.00000E+00
 -1      2145 0.00000E+00
 -1      2147 0.00000E+00
 -1      2148 0.00000E+00
 -1      2150 0.00000E+00
 -1      2151 0.00000E+00
 -1      2153 0.00000E+00
 -1      2154 0.00000E+00
 -1      2156 0.00000E+00
 -1      2157 0.00000E+00
 -1      2159 0.00000E+00
 -1      2160 0.00000E+00
 -1      2162 0.00000E+00
 -1      2163 0.00000E+00
 -1      2165 0.00000E+00
 -1      2166 0.00000E+00
 -1      2168 0.00000E+00
 -1      2169 0.00000E+00
 -1      2171 0.00000E+00
 -1      2172 0.00000E+00
 -1      2174 0.00000E+00
 -1      2175 0.00000E+00
 -1      2177 0.00000E+00
 -1      2178 0.00000E+00
 -1      2180 0.00000E+00
 -1      2181 0.00000E+00
 -1      2183 0.00000E+00
 -1      2184 0.00000E+00
 -1      2186 0.00000E+00
 -1      2187 0.00000E+00
 -1      2189 0.00000E+00
 -1      2190 0.00000E+00
 -1      2192 0.00000E+00
 -1      2193 0.00000E+00
 -1      2195 0.00000E+00
 -1      2196 0.00000E+00
 -1      2198 0.00000E+00
 -1      2199 0.00000E+00
 -1      2201 0.00000E+00
 -1      2202 0.00000E+00
 -1      2204 0.00000E+00
 -1      2205 0.00000E+00
 -1      2207 0.00000E+00
 -1      2208 0.00000E+00
 -1      2210 0.00000E+00
 -1      2211 0.00000E+00
 -1      2213 0.00000E+00
 -1      2214 0.00000E+00
 -1      2216 0.00000E+00
 -1      2217 0.00000E+00
 -1      2219 0.00000E+00
 -1      2220 0.00000E+00
 -1      2222 0.00000E+00
 -1      2223 0.00000E+00
 -1      2225 0.00000E+00
 -1      2226 0.00000E+00
 -1      2228 0.00000E+00
 -1      2229 0.00000E+00
 -1      2231 0.00000E+00
 -1      2232 0.00000E+00
 -1      2234 0.00000E+00
 -1      2235 0.00000E+00
 -1      2237 0.00000E+00
 -1      2238 0.00000E+00
 -1      2240 0.00000E+00
 -1      2241 0.00000E+00
 -1      2243 0.00000E+00
 -1      2244 0.00000E+00
 -1      2246 0.00000E+00
 -1      2247 0.00000E+00
 -1      2249 0.00000E+00
 -1      2250 0.00000E+00
 -1      2252 0.00000E+00
 -1      2253 0.00000E+00
 -1      2255 0.00000E+00
 -1      2256 0.00000E+00
 -1      2258 0.00000E+00
 -1      2259 0.00000E+00
 -1      2261 0.00000E+00
 -1      2262 0.00000E+00
 -1      2264 0.00000E+00
 -1      2265 0.00000E+00
 -1      2267 0.00000E+00
 -1      2268 0.00000E+00
 -1      2270 0.00000E+00
 -1      2271 0.00000E+00
 -1      2273 0.00000E+00
 -1      2274 0.00000E+00
 -1      2276 0.00000E+00
 -1      2277 0.00000E+00
 -1      2279 0.00000E+00
 -1      2280 0.00000E+00
 -1      2282 0.00000E+00
 -1      2283 0.00000E+00
 -1      2285 0.00000E+00
 -1      2286 0.00000E+00
 -1      2288 0.00000E+00
 -1      2289 0.00000E+00
 -1      2291 0.00000E+00
 -1      2292 0.00000E+00
 -1      2294 0.00000E+00
 -3
    1PSTEP                        33           1           1          
    1PGM                1.000000E+00                                  
    1PGK                4.632248E+06                                  
    1PHID                         -1                                  
    1PSUBC                         0                                  
    1PMODE                         9                                  
  100CL  109 342.5437285         930                     2    9MODAL      1
 -4  DISP        4    1
 -5  D1          1    2    1    0
 -5  D2          1    2    2    0
 -5  D3          1    2    3    0
 -5  ALL         1    2    0    0    1ALL
 -1       404 0.00000E+00 0.00000E+00-7.38342E-06
 -1       406 0.00000E+00-0.00000E+00 7.38342E-06
 -1       407 1.17868E-04-9.18829E-03-2.39496E-01
 -1       409 1.33877E-04 3.31134E-02-2.39496E-01
 -1       410 1.83985E-13 2.70246E-04 2.54538E-13
 -1       412 1.78586E-13 2.36520E-02 2.55332E-13
 -1       413-5.05026E-06 1.19611E-02 7.44751E-03
 -1       415 5.05026E-06 1.19611E-02-7.44751E-03
 -1       424 0.00000E+00 0.00000E+00 3.06517E-16
 -1       426 0.00000E+00 0.00000E+00-3.06517E-16
 -1       427 0.00000E+00 1.95262E-16 0.00000E+00
 -1       429 0.00000E+00-1.95262E-16 0.00000E+00
 -1       438-1.17868E-04-9.18829E-03 2.39496E-01
 -1       440-1.33877E-04 3.31134E-02 2.39496E-01
 -1       441 0.00000E+00 0.00000E+00 7.38342E-06
 -1       443 0.00000E+00-0.00000E+00-7.38342E-06
 -1       444 0.00000E+00 3.00759E-17 0.00000E+00
 -1       446 0.00000E+00-3.00759E-17 0.00000E+00
 -1       447 0.00000E+00 0.00000E+00-4.72122E-17
 -1       449 0.00000E+00 0.00000E+00 4.72122E-17
 -1       458 5.05026E-06-1.19611E-02 7.44751E-03
 -1       460-5.05026E-06-1.19611E-02-7.44751E-03
 -1       461 4.08327E-15-2.70246E-04 2.50146E-13
 -1       463 9.35043E-15-2.36520E-02 2.50717E-13
 -1       472 0.00000E+00 0.00000E+00 7.38342E-06
 -1       474 0.00000E+00 0.00000E+00-7.38342E-06
 -1       475 1.17868E-04 9.18829E-03 2.39496E-01
 -1       477 1.33877E-04-3.31134E-02 2.39496E-01
 -1       478-1.17868E-04 9.18829E-03-2.39496E-01
 -1       480-1.33877E-04-3.31134E-02-2.39496E-01
 -1       481 0.00000E+00 0.00000E+00-7.38342E-06
 -1       483 0.00000E+00 0.00000E+00 7.38342E-06
 -1       484-1.46247E-03-8.83284E-04-1.02650E-02
 -1       486 1.08313E-03 1.15884E-03-1.02588E-02
 -1       487-9.81269E-04-1.67169E-03-2.42060E-02
 -1       489 2.82577E-04 2.57024E-03-2.42018E-02
 -1       490-1.40716E-03-2.26780E-03-3.61471E-02
 -1       492 4.60037E-04 4.12859E-03-3.61408E-02
 -1       493-1.35357E-03-2.77851E-03-4.88587E-02
 -1       495 1.89716E-04 5.82304E-03-4.88559E-02
 -1       496-1.50737E-03-3.14023E-03-6.09625E-02
 -1       498 1.59328E-04 7.61041E-03-6.09582E-02
 -1       499-1.52947E-03-3.41140E-03-7.30833E-02
 -1       501 3.82600E-05 9.47740E-03-7.30809E-02
 -1       502-1.58928E-03-3.58470E-03-8.48795E-02
 -1       504-1.94085E-05 1.13967E-02-8.48771E-02
 -1       505-1.60006E-03-3.68355E-03-9.64715E-02
 -1       507-8.14110E-05 1.33483E-02-9.64700E-02
 -1       508-1.60505E-03-3.72816E-03-1.07762E-01
 -1       510-1.18222E-04 1.53082E-02-1.07761E-01
 -1       511-1.58084E-03-3.73110E-03-1.18757E-01
 -1       513-1.39485E-04 1.72511E-02-1.18757E-01
 -1       514-1.53978E-03-3.72051E-03-1.29416E-01
 -1       516-1.43019E-04 1.91546E-02-1.29417E-01
 -1       517-1.47596E-03-3.70712E-03-1.39722E-01
 -1       519-1.28477E-04 2.09921E-02-1.39723E-01
 -1       520-1.39472E-03-3.71726E-03-1.49646E-01
 -1       522-9.94012E-05 2.27435E-02-1.49648E-01
 -1       523-1.29608E-03-3.75999E-03-1.59169E-01
 -1       525-5.57627E-05 2.43858E-02-1.59171E-01
 -1       526-1.18426E-03-3.85484E-03-1.68265E-01
 -1       528-2.36974E-06 2.59036E-02-1.68268E-01
 -1       529-1.06185E-03-4.00650E-03-1.76913E-01
 -1       531 5.90468E-05 2.72807E-02-1.76916E-01
 -1       532-9.33111E-04-4.22515E-03-1.85090E-01
 -1       534 1.23469E-04 2.85094E-02-1.85093E-01
 -1       535-8.01673E-04-4.50872E-03-1.92775E-01
 -1       537 1.88005E-04 2.95824E-02-1.92778E-01
 -1       538-6.71602E-04-4.85733E-03-1.99945E-01
 -1       540 2.48048E-04 3.05003E-02-1.99948E-01
 -1       541-5.46488E-04-5.26133E-03-2.06580E-01
 -1       543 3.00557E-04 3.12653E-02-2.06582E-01
 -1       544-4.29558E-04-5.71193E-03-2.12658E-01
 -1       546 3.41982E-04 3.18859E-02-2.12660E-01
 -1       547-3.23526E-04-6.19303E-03-2.18160E-01
 -1       549 3.70116E-04 3.23721E-02-2.18161E-01
 -1       550-2.29986E-04-6.68981E-03-2.23067E-01
 -1       552 3.83036E-04 3.27381E-02-2.23068E-01
 -1       553-1.50427E-04-7.18256E-03-2.27361E-01
 -1       555 3.80187E-04 3.29986E-02-2.27362E-01
 -1       556-8.36690E-05-7.65468E-03-2.31026E-01
 -1       558 3.61541E-04 3.31693E-02-2.31026E-01
 -1       559-3.08759E-05-8.08708E-03-2.34049E-01
 -1       561 3.29083E-04 3.32654E-02-2.34048E-01
 -1       562 1.46361E-05-8.46579E-03-2.36412E-01
 -1       564 2.83753E-04 3.33003E-02-2.36411E-01
 -1       565 4.79558E-05-8.77903E-03-2.38117E-01
 -1       567 2.33386E-04 3.32833E-02-2.38116E-01
 -1       568 8.82476E-05-9.01648E-03-2.39130E-01
 -1       570 1.71737E-04 3.32244E-02-2.39128E-01
 -1       571 5.70311E-05-7.50595E-03-1.04034E-01
 -1       573 6.48426E-05 3.14290E-02-1.04035E-01
 -1       574 8.30808E-15-4.10069E-04 2.91057E-14
 -1       576 4.86965E-16 5.63927E-04 2.92990E-14
 -1       577 4.04621E-05 7.69288E-05 3.10236E-04
 -1       579-4.04621E-05 7.69288E-05-3.10236E-04
 -1       588 3.43260E-15-7.32526E-04 5.72170E-14
 -1       590 2.78812E-15 1.67187E-03 5.76009E-14
 -1       591-3.19939E-06 4.69674E-04 7.65846E-04
 -1       593 3.19939E-06 4.69674E-04-7.65846E-04
 -1       602 3.39424E-15-9.05640E-04 6.14228E-14
 -1       604 3.20464E-15 2.66873E-03 6.15448E-14
 -1       605 5.37508E-05 8.81544E-04 1.13850E-03
 -1       607-5.37508E-05 8.81544E-04-1.13850E-03
 -1       616 6.87552E-15-8.70658E-04 6.18783E-14
 -1       618 7.18615E-15 3.93699E-03 6.09367E-14
 -1       619 1.42833E-05 1.53317E-03 1.53132E-03
 -1       621-1.42833E-05 1.53317E-03-1.53132E-03
 -1       630 1.00747E-14-7.94119E-04 7.07166E-14
 -1       632 7.52932E-15 5.20260E-03 7.06356E-14
 -1       633 5.43761E-05 2.20424E-03 1.91007E-03
 -1       635-5.43761E-05 2.20424E-03-1.91007E-03
 -1       644 7.54917E-15-5.44356E-04 9.46815E-14
 -1       646 3.48367E-15 6.61462E-03 9.51701E-14
 -1       647 3.00543E-05 3.03513E-03 2.28027E-03
 -1       649-3.00543E-05 3.03513E-03-2.28027E-03
 -1       658 2.73382E-16-2.68202E-04 1.17549E-13
 -1       660-1.69586E-15 8.04429E-03 1.18432E-13
 -1       661 5.35273E-05 3.88805E-03 2.64768E-03
 -1       663-5.35273E-05 3.88805E-03-2.64768E-03
 -1       672-6.98196E-15 1.20118E-04 1.11267E-13
 -1       674-1.96922E-15 9.54287E-03 1.12032E-13
 -1       675 3.98449E-05 4.83149E-03 3.00132E-03
 -1       677-3.98449E-05 4.83149E-03-3.00132E-03
 -1       686-3.44358E-15 5.20063E-04 8.40657E-14
 -1       688 8.41494E-16 1.10415E-02 8.43274E-14
 -1       689 5.18579E-05 5.78076E-03 3.35126E-03
 -1       691-5.18579E-05 5.78076E-03-3.35126E-03
 -1       700 7.30622E-15 9.72142E-04 8.01865E-14
 -1       702 5.13521E-15 1.25478E-02 7.99042E-14
 -1       703 4.35993E-05 6.75999E-03 3.68707E-03
 -1       705-4.35993E-05 6.75999E-03-3.68707E-03
 -1       714 1.26580E-14 1.40933E-03 1.01050E-13
 -1       716 9.45280E-15 1.40190E-02 1.01413E-13
 -1       717 4.82536E-05 7.71418E-03 4.01642E-03
 -1       719-4.82536E-05 7.71418E-03-4.01642E-03
 -1       728 1.20611E-14 1.84487E-03 1.13647E-13
 -1       730 1.24332E-14 1.54449E-02 1.13061E-13
 -1       731 4.20805E-05 8.64488E-03 4.33186E-03
 -1       733-4.20805E-05 8.64488E-03-4.33186E-03
 -1       742 1.19578E-14 2.23390E-03 1.03972E-13
 -1       744 1.50449E-14 1.67960E-02 1.03376E-13
 -1       745 4.20708E-05 9.51495E-03 4.63830E-03
 -1       747-4.20708E-05 9.51495E-03-4.63830E-03
 -1       756 1.31261E-14 2.57756E-03 8.11127E-14
 -1       758 1.67459E-14 1.80577E-02 8.02998E-14
 -1       759 3.63585E-05 1.03176E-02 4.93071E-03
 -1       761-3.63585E-05 1.03176E-02-4.93071E-03
 -1       770 1.58191E-14 2.84742E-03 5.42896E-14
 -1       772 1.90904E-14 1.92107E-02 5.28747E-14
 -1       773 3.35206E-05 1.10291E-02 5.21202E-03
 -1       775-3.35206E-05 1.10291E-02-5.21202E-03
 -1       784 2.06738E-14 3.04270E-03 2.74739E-14
 -1       786 2.37420E-14 2.02435E-02 2.62054E-14
 -1       787 2.78007E-05 1.16431E-02 5.47878E-03
 -1       789-2.78007E-05 1.16431E-02-5.47878E-03
 -1       798 2.33458E-14 3.14891E-03-2.58901E-15
 -1       800 2.77245E-14 2.11466E-02-3.29518E-15
 -1       801 2.35318E-05 1.21478E-02 5.73260E-03
 -1       803-2.35318E-05 1.21478E-02-5.73260E-03
 -1       812 2.55891E-14 3.16932E-03-3.44435E-14
 -1       814 2.96167E-14 2.19154E-02-3.53201E-14
 -1       815 1.80031E-05 1.25424E-02 5.97099E-03
 -1       817-1.80031E-05 1.25424E-02-5.97099E-03
 -1       826 3.53739E-14 3.10171E-03-5.32858E-14
 -1       828 3.62910E-14 2.25503E-02-5.51101E-14
 -1       829 1.34438E-05 1.28260E-02 6.19474E-03
 -1       831-1.34438E-05 1.28260E-02-6.19474E-03
 -1       840 5.21259E-14 2.95586E-03-5.11198E-14
 -1       842 5.00840E-14 2.30549E-02-5.22454E-14
 -1       843 8.59186E-06 1.30054E-02 6.40190E-03
 -1       845-8.59186E-06 1.30054E-02-6.40190E-03
 -1       854 7.02040E-14 2.73956E-03-4.01911E-14
 -1       856 6.94134E-14 2.34379E-02-4.06999E-14
 -1       857 4.64563E-06 1.30887E-02 6.59281E-03
 -1       859-4.64563E-06 1.30887E-02-6.59281E-03
 -1       868 9.09232E-14 2.46873E-03-2.50017E-14
 -1       870 8.88427E-14 2.37102E-02-2.72413E-14
 -1       871 9.52164E-07 1.30895E-02 6.76579E-03
 -1       873-9.52164E-07 1.30895E-02-6.76579E-03
 -1       882 1.12986E-13 2.15774E-03 7.44627E-15
 -1       884 1.06980E-13 2.38865E-02 5.65577E-15
 -1       885-1.77160E-06 1.30221E-02 6.92102E-03
 -1       887 1.77160E-06 1.30221E-02-6.92102E-03
 -1       896 1.30940E-13 1.82611E-03 4.86964E-14
 -1       898 1.26130E-13 2.39816E-02 4.95826E-14
 -1       899-4.03971E-06 1.29039E-02 7.05694E-03
 -1       901 4.03971E-06 1.29039E-02-7.05694E-03
 -1       910 1.44243E-13 1.49009E-03 8.72391E-14
 -1       912 1.40252E-13 2.40125E-02 8.61777E-14
 -1       913-5.30046E-06 1.27513E-02 7.17380E-03
 -1       915 5.30046E-06 1.27513E-02-7.17380E-03
 -1       924 1.54124E-13 1.16932E-03 1.21194E-13
 -1       926 1.50420E-13 2.39942E-02 1.20248E-13
 -1       927-6.20648E-06 1.25817E-02 7.27013E-03
 -1       929 6.20648E-06 1.25817E-02-7.27013E-03
 -1       938 1.64686E-13 8.75584E-04 1.55416E-13
 -1       940 1.59721E-13 2.39397E-02 1.56147E-13
 -1       941-6.23583E-06 1.24076E-02 7.34633E-03
 -1       943 6.23583E-06 1.24076E-02-7.34633E-03
 -1       952 1.72969E-13 6.26260E-04 1.93946E-13
 -1       954 1.68230E-13 2.38626E-02 1.94226E-13
 -1       955-6.11117E-06 1.22445E-02 7.40122E-03
 -1       957 6.11117E-06 1.22445E-02-7.40122E-03
 -1       966 1.79409E-13 4.19176E-04 2.23267E-13
 -1       968 1.76279E-13 2.37613E-02 2.23878E-13
 -1       969-5.86936E-06 1.20902E-02 7.43489E-03
 -1       971 5.86936E-06 1.20902E-02-7.43489E-03
 -1       980 0.00000E+00 0.00000E+00-2.49754E-07
 -1       982 0.00000E+00-0.00000E+00 2.49754E-07
 -1       983-5.70311E-05-7.50595E-03 1.04034E-01
 -1       985-6.48426E-05 3.14290E-02 1.04035E-01
 -1       986 1.46247E-03-8.83284E-04 1.02650E-02
 -1       988-1.08313E-03 1.15884E-03 1.02588E-02
 -1       989 9.81269E-04-1.67169E-03 2.42060E-02
 -1       991-2.82577E-04 2.57024E-03 2.42018E-02
 -1       992 1.40716E-03-2.26780E-03 3.61471E-02
 -1       994-4.60037E-04 4.12859E-03 3.61408E-02
 -1       995 1.35357E-03-2.77851E-03 4.88587E-02
 -1       997-1.89716E-04 5.82304E-03 4.88559E-02
 -1       998 1.50737E-03-3.14023E-03 6.09625E-02
 -1      1000-1.59328E-04 7.61041E-03 6.09582E-02
 -1      1001 1.52947E-03-3.41140E-03 7.30833E-02
 -1      1003-3.82600E-05 9.47740E-03 7.30809E-02
 -1      1004 1.58928E-03-3.58470E-03 8.48795E-02
 -1      1006 1.94085E-05 1.13967E-02 8.48771E-02
 -1      1007 1.60006E-03-3.68355E-03 9.64715E-02
 -1      1009 8.14110E-05 1.33483E-02 9.64700E-02
 -1      1010 1.60505E-03-3.72816E-03 1.07762E-01
 -1      1012 1.18222E-04 1.53082E-02 1.07761E-01
 -1      1013 1.58084E-03-3.73110E-03 1.18757E-01
 -1      1015 1.39485E-04 1.72511E-02 1.18757E-01
 -1      1016 1.53978E-03-3.72051E-03 1.29416E-01
 -1      1018 1.43019E-04 1.91546E-02 1.29417E-01
 -1      1019 1.47596E-03-3.70712E-03 1.39722E-01
 -1      1021 1.28477E-04 2.09921E-02 1.39723E-01
 -1      1022 1.39472E-03-3.71726E-03 1.49646E-01
 -1      1024 9.94012E-05 2.27435E-02 1.49648E-01
 -1      1025 1.29608E-03-3.75999E-03 1.59169E-01
 -1      1027 5.57627E-05 2.43858E-02 1.59171E-01
 -1      1028 1.18426E-03-3.85484E-03 1.68265E-01
 -1      1030 2.36974E-06 2.59036E-02 1.68268E-01
 -1      1031 1.06185E-03-4.00650E-03 1.76913E-01
 -1      1033-5.90468E-05 2.72807E-02 1.76916E-01
 -1      1034 9.33111E-04-4.22515E-03 1.85090E-01
 -1      1036-1.23469E-04 2.85094E-02 1.85093E-01
 -1      1037 8.01673E-04-4.50872E-03 1.92775E-01
 -1      1039-1.88005E-04 2.95824E-02 1.92778E-01
 -1      1040 6.71602E-04-4.85733E-03 1.99945E-01
 -1      1042-2.48048E-04 3.05003E-02 1.99948E-01
 -1      1043 5.46488E-04-5.26133E-03 2.06580E-01
 -1      1045-3.00557E-04 3.12653E-02 2.06582E-01
 -1      1046 4.29558E-04-5.71193E-03 2.12658E-01
 -1      1048-3.41982E-04 3.18859E-02 2.12660E-01
 -1      1049 3.23526E-04-6.19303E-03 2.18160E-01
 -1      1051-3.70116E-04 3.23721E-02 2.18161E-01
 -1      1052 2.29986E-04-6.68981E-03 2.23067E-01
 -1      1054-3.83036E-04 3.27381E-02 2.23068E-01
 -1      1055 1.50427E-04-7.18256E-03 2.27361E-01
 -1      1057-3.80187E-04 3.29986E-02 2.27362E-01
 -1      1058 8.36690E-05-7.65468E-03 2.31026E-01
 -1      1060-3.61541E-04 3.31693E-02 2.31026E-01
 -1      1061 3.08759E-05-8.08708E-03 2.34049E-01
 -1      1063-3.29083E-04 3.32654E-02 2.34048E-01
 -1      1064-1.46361E-05-8.46579E-03 2.36412E-01
 -1      1066-2.83753E-04 3.33003E-02 2.36411E-01
 -1      1067-4.79558E-05-8.77903E-03 2.38117E-01
 -1      1069-2.33386E-04 3.32833E-02 2.38116E-01
 -1      1070-8.82476E-05-9.01648E-03 2.39130E-01
 -1      1072-1.71737E-04 3.32244E-02 2.39128E-01
 -1      1073 0.00000E+00 0.00000E+00 2.49754E-07
 -1      1075 0.00000E+00-0.00000E+00-2.49754E-07
 -1      1076 0.00000E+00 7.31701E-17 0.00000E+00
 -1      1078 0.00000E+00-7.31701E-17 0.00000E+00
 -1      1079 0.00000E+00-3.13877E-17 0.00000E+00
 -1      1081 0.00000E+00 3.13877E-17 0.00000E+00
 -1      1082 0.00000E+00 1.08596E-16 0.00000E+00
 -1      1084 0.00000E+00-1.08596E-16 0.00000E+00
 -1      1085-4.04621E-05-7.69288E-05 3.10236E-04
 -1      1087 4.04621E-05-7.69288E-05-3.10236E-04
 -1      1088 3.53818E-15 4.10069E-04 4.56691E-15
 -1      1090 4.32879E-15-5.63927E-04 4.78325E-15
 -1      1099 3.19939E-06-4.69674E-04 7.65846E-04
 -1      1101-3.19939E-06-4.69674E-04-7.65846E-04
 -1      1102 4.15339E-15 7.32526E-04 2.71724E-14
 -1      1104 9.09643E-15-1.67187E-03 2.71487E-14
 -1      1113-5.37508E-05-8.81544E-04 1.13850E-03
 -1      1115 5.37508E-05-8.81544E-04-1.13850E-03
 -1      1116 8.87985E-15 9.05640E-04 5.83648E-14
 -1      1118 1.24156E-14-2.66873E-03 5.88730E-14
 -1      1127-1.42833E-05-1.53317E-03 1.53132E-03
 -1      1129 1.42833E-05-1.53317E-03-1.53132E-03
 -1      1130 1.65251E-14 8.70658E-04 8.37827E-14
 -1      1132 1.94877E-14-3.93699E-03 8.42808E-14
 -1      1141-5.43761E-05-2.20424E-03 1.91007E-03
 -1      1143 5.43761E-05-2.20424E-03-1.91007E-03
 -1      1144 2.54430E-14 7.94119E-04 1.04668E-13
 -1      1146 2.84375E-14-5.20260E-03 1.05276E-13
 -1      1155-3.00543E-05-3.03513E-03 2.28027E-03
 -1      1157 3.00543E-05-3.03513E-03-2.28027E-03
 -1      1158 3.59510E-14 5.44356E-04 1.18140E-13
 -1      1160 3.70531E-14-6.61462E-03 1.18629E-13
 -1      1169-5.35273E-05-3.88805E-03 2.64768E-03
 -1      1171 5.35273E-05-3.88805E-03-2.64768E-03
 -1      1172 4.49423E-14 2.68202E-04 1.06496E-13
 -1      1174 4.08641E-14-8.04429E-03 1.07277E-13
 -1      1183-3.98449E-05-4.83149E-03 3.00132E-03
 -1      1185 3.98449E-05-4.83149E-03-3.00132E-03
 -1      1186 4.46976E-14-1.20118E-04 8.27969E-14
 -1      1188 4.25521E-14-9.54287E-03 8.21545E-14
 -1      1197-5.18579E-05-5.78076E-03 3.35126E-03
 -1      1199 5.18579E-05-5.78076E-03-3.35126E-03
 -1      1200 4.26080E-14-5.20063E-04 8.07883E-14
 -1      1202 4.60927E-14-1.10415E-02 8.03398E-14
 -1      1211-4.35993E-05-6.75999E-03 3.68707E-03
 -1      1213 4.35993E-05-6.75999E-03-3.68707E-03
 -1      1214 4.71956E-14-9.72142E-04 9.31461E-14
 -1      1216 5.03408E-14-1.25478E-02 9.29862E-14
 -1      1225-4.82536E-05-7.71418E-03 4.01642E-03
 -1      1227 4.82536E-05-7.71418E-03-4.01642E-03
 -1      1228 5.24753E-14-1.40933E-03 9.16395E-14
 -1      1230 5.19238E-14-1.40190E-02 9.16583E-14
 -1      1239-4.20805E-05-8.64488E-03 4.33186E-03
 -1      1241 4.20805E-05-8.64488E-03-4.33186E-03
 -1      1242 5.44004E-14-1.84487E-03 7.40967E-14
 -1      1244 5.30570E-14-1.54449E-02 7.53948E-14
 -1      1253-4.20708E-05-9.51495E-03 4.63830E-03
 -1      1255 4.20708E-05-9.51495E-03-4.63830E-03
 -1      1256 5.86046E-14-2.23390E-03 5.18408E-14
 -1      1258 5.61231E-14-1.67960E-02 5.24925E-14
 -1      1267-3.63585E-05-1.03176E-02 4.93071E-03
 -1      1269 3.63585E-05-1.03176E-02-4.93071E-03
 -1      1270 6.48991E-14-2.57756E-03 3.22231E-14
 -1      1272 6.37636E-14-1.80577E-02 3.30372E-14
 -1      1281-3.35206E-05-1.10291E-02 5.21202E-03
 -1      1283 3.35206E-05-1.10291E-02-5.21202E-03
 -1      1284 7.33280E-14-2.84742E-03 1.07952E-14
 -1      1286 7.05846E-14-1.92107E-02 1.26582E-14
 -1      1295-2.78007E-05-1.16431E-02 5.47878E-03
 -1      1297 2.78007E-05-1.16431E-02-5.47878E-03
 -1      1298 7.81835E-14-3.04270E-03-2.59416E-14
 -1      1300 7.18683E-14-2.02435E-02-2.48928E-14
 -1      1309-2.35318E-05-1.21478E-02 5.73260E-03
 -1      1311 2.35318E-05-1.21478E-02-5.73260E-03
 -1      1312 7.20862E-14-3.14891E-03-5.42932E-14
 -1      1314 7.08931E-14-2.11466E-02-5.46462E-14
 -1      1323-1.80031E-05-1.25424E-02 5.97099E-03
 -1      1325 1.80031E-05-1.25424E-02-5.97099E-03
 -1      1326 6.33304E-14-3.16932E-03-5.93969E-14
 -1      1328 6.33222E-14-2.19154E-02-5.89268E-14
 -1      1337-1.34438E-05-1.28260E-02 6.19474E-03
 -1      1339 1.34438E-05-1.28260E-02-6.19474E-03
 -1      1340 5.06418E-14-3.10171E-03-5.49866E-14
 -1      1342 5.08048E-14-2.25503E-02-5.53696E-14
 -1      1351-8.59186E-06-1.30054E-02 6.40190E-03
 -1      1353 8.59186E-06-1.30054E-02-6.40190E-03
 -1      1354 3.71575E-14-2.95586E-03-4.27350E-14
 -1      1356 3.94479E-14-2.30549E-02-4.20722E-14
 -1      1365-4.64563E-06-1.30887E-02 6.59281E-03
 -1      1367 4.64563E-06-1.30887E-02-6.59281E-03
 -1      1368 2.92944E-14-2.73956E-03-2.98445E-14
 -1      1370 2.90964E-14-2.34379E-02-3.02047E-14
 -1      1379-9.52164E-07-1.30895E-02 6.76579E-03
 -1      1381 9.52164E-07-1.30895E-02-6.76579E-03
 -1      1382 2.24411E-14-2.46873E-03-3.09967E-14
 -1      1384 2.14751E-14-2.37102E-02-3.02668E-14
 -1      1393 1.77160E-06-1.30221E-02 6.92102E-03
 -1      1395-1.77160E-06-1.30221E-02-6.92102E-03
 -1      1396 1.69366E-14-2.15774E-03-3.12846E-14
 -1      1398 1.66338E-14-2.38865E-02-3.09781E-14
 -1      1407 4.03971E-06-1.29039E-02 7.05694E-03
 -1      1409-4.03971E-06-1.29039E-02-7.05694E-03
 -1      1410 1.24579E-14-1.82611E-03-7.81978E-15
 -1      1412 1.78581E-14-2.39816E-02-9.34704E-15
 -1      1421 5.30046E-06-1.27513E-02 7.17380E-03
 -1      1423-5.30046E-06-1.27513E-02-7.17380E-03
 -1      1424 1.19736E-14-1.49009E-03 3.81891E-14
 -1      1426 1.95186E-14-2.40125E-02 3.90130E-14
 -1      1435 6.20648E-06-1.25817E-02 7.27013E-03
 -1      1437-6.20648E-06-1.25817E-02-7.27013E-03
 -1      1438 1.36803E-14-1.16932E-03 8.41708E-14
 -1      1440 1.80062E-14-2.39942E-02 8.48052E-14
 -1      1449 6.23583E-06-1.24076E-02 7.34633E-03
 -1      1451-6.23583E-06-1.24076E-02-7.34633E-03
 -1      1452 1.32155E-14-8.75584E-04 1.14869E-13
 -1      1454 1.57197E-14-2.39397E-02 1.13074E-13
 -1      1463 6.11117E-06-1.22445E-02 7.40122E-03
 -1      1465-6.11117E-06-1.22445E-02-7.40122E-03
 -1      1466 8.12893E-15-6.26260E-04 1.49337E-13
 -1      1468 1.40582E-14-2.38626E-02 1.49778E-13
 -1      1477 5.86936E-06-1.20902E-02 7.43489E-03
 -1      1479-5.86936E-06-1.20902E-02-7.43489E-03
 -1      1480 3.74214E-15-4.19176E-04 2.01917E-13
 -1      1482 1.16345E-14-2.37613E-02 2.00096E-13
 -1      1491-1.50539E-06 7.80035E-02-1.73867E-03
 -1      1493 1.50539E-06 7.80035E-02 1.73867E-03
 -1      1494 1.20586E-13 1.93524E-12-4.93604E-03
 -1      1496 8.42625E-14 1.93458E-12 4.93604E-03
 -1      1497 1.50539E-06-7.80035E-02-1.73867E-03
 -1      1499-1.50539E-06-7.80035E-02 1.73867E-03
 -1      1500-1.46247E-03 8.83284E-04 1.02650E-02
 -1      1502 1.08313E-03-1.15884E-03 1.02588E-02
 -1      1503-9.81269E-04 1.67169E-03 2.42060E-02
 -1      1505 2.82577E-04-2.57024E-03 2.42018E-02
 -1      1506-1.40716E-03 2.26780E-03 3.61471E-02
 -1      1508 4.60037E-04-4.12859E-03 3.61408E-02
 -1      1509-1.35357E-03 2.77851E-03 4.88587E-02
 -1      1511 1.89716E-04-5.82304E-03 4.88559E-02
 -1      1512-1.50737E-03 3.14023E-03 6.09625E-02
 -1      1514 1.59328E-04-7.61041E-03 6.09582E-02
 -1      1515-1.52947E-03 3.41140E-03 7.30833E-02
 -1      1517 3.82600E-05-9.47740E-03 7.30809E-02
 -1      1518-1.58928E-03 3.58470E-03 8.48795E-02
 -1      1520-1.94085E-05-1.13967E-02 8.48771E-02
 -1      1521-1.60006E-03 3.68355E-03 9.64715E-02
 -1      1523-8.14110E-05-1.33483E-02 9.64700E-02
 -1      1524-1.60505E-03 3.72816E-03 1.07762E-01
 -1      1526-1.18222E-04-1.53082E-02 1.07761E-01
 -1      1527-1.58084E-03 3.73110E-03 1.18757E-01
 -1      1529-1.39485E-04-1.72511E-02 1.18757E-01
 -1      1530-1.53978E-03 3.72051E-03 1.29416E-01
 -1      1532-1.43019E-04-1.91546E-02 1.29417E-01
 -1      1533-1.47596E-03 3.70712E-03 1.39722E-01
 -1      1535-1.28477E-04-2.09921E-02 1.39723E-01
 -1      1536-1.39472E-03 3.71726E-03 1.49646E-01
 -1      1538-9.94012E-05-2.27435E-02 1.49648E-01
 -1      1539-1.29608E-03 3.75999E-03 1.59169E-01
 -1      1541-5.57627E-05-2.43858E-02 1.59171E-01
 -1      1542-1.18426E-03 3.85484E-03 1.68265E-01
 -1      1544-2.36974E-06-2.59036E-02 1.68268E-01
 -1      1545-1.06185E-03 4.00650E-03 1.76913E-01
 -1      1547 5.90468E-05-2.72807E-02 1.76916E-01
 -1      1548-9.33111E-04 4.22515E-03 1.85090E-01
 -1      1550 1.23469E-04-2.85094E-02 1.85093E-01
 -1      1551-8.01673E-04 4.50872E-03 1.92775E-01
 -1      1553 1.88005E-04-2.95824E-02 1.92778E-01
 -1      1554-6.71602E-04 4.85733E-03 1.99945E-01
 -1      1556 2.48048E-04-3.05003E-02 1.99948E-01
 -1      1557-5.46488E-04 5.26133E-03 2.06580E-01
 -1      1559 3.00557E-04-3.12653E-02 2.06582E-01
 -1      1560-4.29558E-04 5.71193E-03 2.12658E-01
 -1      1562 3.41982E-04-3.18859E-02 2.12660E-01
 -1      1563-3.23526E-04 6.19303E-03 2.18160E-01
 -1      1565 3.70116E-04-3.23721E-02 2.18161E-01
 -1      1566-2.29986E-04 6.68981E-03 2.23067E-01
 -1      1568 3.83036E-04-3.27381E-02 2.23068E-01
 -1      1569-1.50427E-04 7.18256E-03 2.27361E-01
 -1      1571 3.80187E-04-3.29986E-02 2.27362E-01
 -1      1572-8.36690E-05 7.65468E-03 2.31026E-01
 -1      1574 3.61541E-04-3.31693E-02 2.31026E-01
 -1      1575-3.08759E-05 8.08708E-03 2.34049E-01
 -1      1577 3.29083E-04-3.32654E-02 2.34048E-01
 -1      1578 1.46361E-05 8.46579E-03 2.36412E-01
 -1      1580 2.83753E-04-3.33003E-02 2.36411E-01
 -1      1581 4.79558E-05 8.77903E-03 2.38117E-01
 -1      1583 2.33386E-04-3.32833E-02 2.38116E-01
 -1      1584 8.82476E-05 9.01648E-03 2.39130E-01
 -1      1586 1.71737E-04-3.32244E-02 2.39128E-01
 -1      1587 5.70311E-05 7.50595E-03 1.04034E-01
 -1      1589 6.48426E-05-3.14290E-02 1.04035E-01
 -1      1590 0.00000E+00 0.00000E+00 2.49754E-07
 -1      1592 0.00000E+00 0.00000E+00-2.49754E-07
 -1      1593-5.70311E-05 7.50595E-03-1.04034E-01
 -1      1595-6.48426E-05-3.14290E-02-1.04035E-01
 -1      1596 1.46247E-03 8.83284E-04-1.02650E-02
 -1      1598-1.08313E-03-1.15884E-03-1.02588E-02
 -1      1599 9.81269E-04 1.67169E-03-2.42060E-02
 -1      1601-2.82577E-04-2.57024E-03-2.42018E-02
 -1      1602 1.40716E-03 2.26780E-03-3.61471E-02
 -1      1604-4.60037E-04-4.12859E-03-3.61408E-02
 -1      1605 1.35357E-03 2.77851E-03-4.88587E-02
 -1      1607-1.89716E-04-5.82304E-03-4.88559E-02
 -1      1608 1.50737E-03 3.14023E-03-6.09625E-02
 -1      1610-1.59328E-04-7.61041E-03-6.09582E-02
 -1      1611 1.52947E-03 3.41140E-03-7.30833E-02
 -1      1613-3.82600E-05-9.47740E-03-7.30809E-02
 -1      1614 1.58928E-03 3.58470E-03-8.48795E-02
 -1      1616 1.94085E-05-1.13967E-02-8.48771E-02
 -1      1617 1.60006E-03 3.68355E-03-9.64715E-02
 -1      1619 8.14110E-05-1.33483E-02-9.64700E-02
 -1      1620 1.60505E-03 3.72816E-03-1.07762E-01
 -1      1622 1.18222E-04-1.53082E-02-1.07761E-01
 -1      1623 1.58084E-03 3.73110E-03-1.18757E-01
 -1      1625 1.39485E-04-1.72511E-02-1.18757E-01
 -1      1626 1.53978E-03 3.72051E-03-1.29416E-01
 -1      1628 1.43019E-04-1.91546E-02-1.29417E-01
 -1      1629 1.47596E-03 3.70712E-03-1.39722E-01
 -1      1631 1.28477E-04-2.09921E-02-1.39723E-01
 -1      1632 1.39472E-03 3.71726E-03-1.49646E-01
 -1      1634 9.94012E-05-2.27435E-02-1.49648E-01
 -1      1635 1.29608E-03 3.75999E-03-1.59169E-01
 -1      1637 5.57627E-05-2.43858E-02-1.59171E-01
 -1      1638 1.18426E-03 3.85484E-03-1.68265E-01
 -1      1640 2.36974E-06-2.59036E-02-1.68268E-01
 -1      1641 1.06185E-03 4.00650E-03-1.76913E-01
 -1      1643-5.90468E-05-2.72807E-02-1.76916E-01
 -1      1644 9.33111E-04 4.22515E-03-1.85090E-01
 -1      1646-1.23469E-04-2.85094E-02-1.85093E-01
 -1      1647 8.01673E-04 4.50872E-03-1.92775E-01
 -1      1649-1.88005E-04-2.95824E-02-1.92778E-01
 -1      1650 6.71602E-04 4.85733E-03-1.99945E-01
 -1      1652-2.48048E-04-3.05003E-02-1.99948E-01
 -1      1653 5.46488E-04 5.26133E-03-2.06580E-01
 -1      1655-3.00557E-04-3.12653E-02-2.06582E-01
 -1      1656 4.29558E-04 5.71193E-03-2.12658E-01
 -1      1658-3.41982E-04-3.18859E-02-2.12660E-01
 -1      1659 3.23526E-04 6.19303E-03-2.18160E-01
 -1      1661-3.70116E-04-3.23721E-02-2.18161E-01
 -1      1662 2.29986E-04 6.68981E-03-2.23067E-01
 -1      1664-3.83036E-04-3.27381E-02-2.23068E-01
 -1      1665 1.50427E-04 7.18256E-03-2.27361E-01
 -1      1667-3.80187E-04-3.29986E-02-2.27362E-01
 -1      1668 8.36690E-05 7.65468E-03-2.31026E-01
 -1      1670-3.61541E-04-3.31693E-02-2.31026E-01
 -1      1671 3.08759E-05 8.08708E-03-2.34049E-01
 -1      1673-3.29083E-04-3.32654E-02-2.34048E-01
 -1      1674-1.46361E-05 8.46579E-03-2.36412E-01
 -1      1676-2.83753E-04-3.33003E-02-2.36411E-01
 -1      1677-4.79558E-05 8.77903E-03-2.38117E-01
 -1      1679-2.33386E-04-3.32833E-02-2.38116E-01
 -1      1680-8.82476E-05 9.01648E-03-2.39130E-01
 -1      1682-1.71737E-04-3.32244E-02-2.39128E-01
 -1      1683 0.00000E+00 0.00000E+00-2.49754E-07
 -1      1685 0.00000E+00 0.00000E+00 2.49754E-07
 -1      1686-6.78812E-04-6.90091E-04-4.20832E-03
 -1      1688 4.93492E-04 9.01964E-04-4.20537E-03
 -1      1689-4.56507E-04-1.50684E-03-1.06101E-02
 -1      1691 1.15102E-04 2.39603E-03-1.06052E-02
 -1      1692-6.50981E-04-2.02356E-03-1.57011E-02
 -1      1694 1.84306E-04 3.85057E-03-1.57005E-02
 -1      1695-6.39266E-04-2.44401E-03-2.12985E-02
 -1      1697 5.66637E-05 5.47155E-03-2.12955E-02
 -1      1698-7.03388E-04-2.73107E-03-2.65188E-02
 -1      1700 3.83784E-05 7.18418E-03-2.65179E-02
 -1      1701-7.25239E-04-2.90738E-03-3.17916E-02
 -1      1703-2.11723E-05 8.95685E-03-3.17906E-02
 -1      1704-7.47777E-04-2.99964E-03-3.68948E-02
 -1      1706-4.85724E-05 1.08038E-02-3.68941E-02
 -1      1707-7.59747E-04-3.01089E-03-4.19191E-02
 -1      1709-7.97289E-05 1.26650E-02-4.19195E-02
 -1      1710-7.58927E-04-2.97307E-03-4.68062E-02
 -1      1712-9.59960E-05 1.45521E-02-4.68062E-02
 -1      1713-7.50935E-04-2.89467E-03-5.15663E-02
 -1      1715-1.06547E-04 1.64122E-02-5.15677E-02
 -1      1716-7.29583E-04-2.80464E-03-5.61806E-02
 -1      1718-1.06316E-04 1.82442E-02-5.61817E-02
 -1      1719-7.00703E-04-2.71568E-03-6.06416E-02
 -1      1721-9.85716E-05 2.00060E-02-6.06440E-02
 -1      1722-6.60731E-04-2.65195E-03-6.49396E-02
 -1      1724-8.22594E-05 2.16894E-02-6.49416E-02
 -1      1725-6.14070E-04-2.62547E-03-6.90638E-02
 -1      1727-5.96361E-05 2.32628E-02-6.90669E-02
 -1      1728-5.59687E-04-2.65359E-03-7.30061E-02
 -1      1730-3.13050E-05 2.47174E-02-7.30089E-02
 -1      1731-5.01062E-04-2.74338E-03-7.67557E-02
 -1      1733 4.81853E-07 2.60327E-02-7.67592E-02
 -1      1734-4.38726E-04-2.90345E-03-8.03042E-02
 -1      1736 3.43027E-05 2.72042E-02-8.03074E-02
 -1      1737-3.75567E-04-3.13334E-03-8.36411E-02
 -1      1739 6.79058E-05 2.82225E-02-8.36447E-02
 -1      1740-3.12812E-04-3.43214E-03-8.67579E-02
 -1      1742 9.96203E-05 2.90901E-02-8.67611E-02
 -1      1743-2.52748E-04-3.79121E-03-8.96443E-02
 -1      1745 1.27477E-04 2.98080E-02-8.96477E-02
 -1      1746-1.96626E-04-4.20105E-03-9.22916E-02
 -1      1748 1.50051E-04 3.03860E-02-9.22945E-02
 -1      1749-1.45942E-04-4.64621E-03-9.46903E-02
 -1      1751 1.66012E-04 3.08332E-02-9.46932E-02
 -1      1752-1.01479E-04-5.11126E-03-9.68319E-02
 -1      1754 1.74539E-04 3.11650E-02-9.68343E-02
 -1      1755-6.37206E-05-5.57708E-03-9.87081E-02
 -1      1757 1.75378E-04 3.13949E-02-9.87105E-02
 -1      1758-3.26894E-05-6.02624E-03-1.00311E-01
 -1      1760 1.68229E-04 3.15406E-02-1.00313E-01
 -1      1761-7.68445E-06-6.44052E-03-1.01635E-01
 -1      1763 1.54879E-04 3.16151E-02-1.01637E-01
 -1      1764 1.23417E-05-6.80469E-03-1.02671E-01
 -1      1766 1.34169E-04 3.16346E-02-1.02673E-01
 -1      1767 2.85243E-05-7.10790E-03-1.03422E-01
 -1      1769 1.12662E-04 3.16060E-02-1.03423E-01
 -1      1770 4.65461E-05-7.33850E-03-1.03866E-01
 -1      1772 8.44958E-05 3.15393E-02-1.03868E-01
 -1      1773 6.78812E-04-6.90091E-04 4.20832E-03
 -1      1775-4.93492E-04 9.01964E-04 4.20537E-03
 -1      1776 4.56507E-04-1.50684E-03 1.06101E-02
 -1      1778-1.15102E-04 2.39603E-03 1.06052E-02
 -1      1779 6.50981E-04-2.02356E-03 1.57011E-02
 -1      1781-1.84306E-04 3.85057E-03 1.57005E-02
 -1      1782 6.39266E-04-2.44401E-03 2.12985E-02
 -1      1784-5.66637E-05 5.47155E-03 2.12955E-02
 -1      1785 7.03388E-04-2.73107E-03 2.65188E-02
 -1      1787-3.83784E-05 7.18418E-03 2.65179E-02
 -1      1788 7.25239E-04-2.90738E-03 3.17916E-02
 -1      1790 2.11723E-05 8.95685E-03 3.17906E-02
 -1      1791 7.47777E-04-2.99964E-03 3.68948E-02
 -1      1793 4.85724E-05 1.08038E-02 3.68941E-02
 -1      1794 7.59747E-04-3.01089E-03 4.19191E-02
 -1      1796 7.97289E-05 1.26650E-02 4.19195E-02
 -1      1797 7.58927E-04-2.97307E-03 4.68062E-02
 -1      1799 9.59960E-05 1.45521E-02 4.68062E-02
 -1      1800 7.50935E-04-2.89467E-03 5.15663E-02
 -1      1802 1.06547E-04 1.64122E-02 5.15677E-02
 -1      1803 7.29583E-04-2.80464E-03 5.61806E-02
 -1      1805 1.06316E-04 1.82442E-02 5.61817E-02
 -1      1806 7.00703E-04-2.71568E-03 6.06416E-02
 -1      1808 9.85716E-05 2.00060E-02 6.06440E-02
 -1      1809 6.60731E-04-2.65195E-03 6.49396E-02
 -1      1811 8.22594E-05 2.16894E-02 6.49416E-02
 -1      1812 6.14070E-04-2.62547E-03 6.90638E-02
 -1      1814 5.96361E-05 2.32628E-02 6.90669E-02
 -1      1815 5.59687E-04-2.65359E-03 7.30061E-02
 -1      1817 3.13050E-05 2.47174E-02 7.30089E-02
 -1      1818 5.01062E-04-2.74338E-03 7.67557E-02
 -1      1820-4.81853E-07 2.60327E-02 7.67592E-02
 -1      1821 4.38726E-04-2.90345E-03 8.03042E-02
 -1      1823-3.43027E-05 2.72042E-02 8.03074E-02
 -1      1824 3.75567E-04-3.13334E-03 8.36411E-02
 -1      1826-6.79058E-05 2.82225E-02 8.36447E-02
 -1      1827 3.12812E-04-3.43214E-03 8.67579E-02
 -1      1829-9.96203E-05 2.90901E-02 8.67611E-02
 -1      1830 2.52748E-04-3.79121E-03 8.96443E-02
 -1      1832-1.27477E-04 2.98080E-02 8.96477E-02
 -1      1833 1.96626E-04-4.20105E-03 9.22916E-02
 -1      1835-1.50051E-04 3.03860E-02 9.22945E-02
 -1      1836 1.45942E-04-4.64621E-03 9.46903E-02
 -1      1838-1.66012E-04 3.08332E-02 9.46932E-02
 -1      1839 1.01479E-04-5.11126E-03 9.68319E-02
 -1      1841-1.74539E-04 3.11650E-02 9.68343E-02
 -1      1842 6.37206E-05-5.57708E-03 9.87081E-02
 -1      1844-1.75378E-04 3.13949E-02 9.87105E-02
 -1      1845 3.26894E-05-6.02624E-03 1.00311E-01
 -1      1847-1.68229E-04 3.15406E-02 1.00313E-01
 -1      1848 7.68445E-06-6.44052E-03 1.01635E-01
 -1      1850-1.54879E-04 3.16151E-02 1.01637E-01
 -1      1851-1.23417E-05-6.80469E-03 1.02671E-01
 -1      1853-1.34169E-04 3.16346E-02 1.02673E-01
 -1      1854-2.85243E-05-7.10790E-03 1.03422E-01
 -1      1856-1.12662E-04 3.16060E-02 1.03423E-01
 -1      1857-4.65461E-05-7.33850E-03 1.03866E-01
 -1      1859-8.44958E-05 3.15393E-02 1.03868E-01
 -1      1860 2.56690E-04 3.49970E-03-2.33062E-05
 -1      1862-2.56690E-04 3.49970E-03 2.33062E-05
 -1      1863 1.01563E-04 7.53932E-03-1.49663E-04
 -1      1865-1.01563E-04 7.53932E-03 1.49663E-04
 -1      1866 2.06974E-04 1.13738E-02-2.36124E-04
 -1      1868-2.06974E-04 1.13738E-02 2.36124E-04
 -1      1869 1.41598E-04 1.54531E-02-3.26599E-04
 -1      1871-1.41598E-04 1.54531E-02 3.26599E-04
 -1      1872 1.86467E-04 1.94227E-02-4.22697E-04
 -1      1874-1.86467E-04 1.94227E-02 4.22697E-04
 -1      1875 1.56973E-04 2.34917E-02-5.12361E-04
 -1      1877-1.56973E-04 2.34917E-02 5.12361E-04
 -1      1878 1.75515E-04 2.74781E-02-6.08081E-04
 -1      1880-1.75515E-04 2.74781E-02 6.08081E-04
 -1      1881 1.60348E-04 3.14732E-02-6.99081E-04
 -1      1883-1.60348E-04 3.14732E-02 6.99081E-04
 -1      1884 1.66355E-04 3.53767E-02-7.92042E-04
 -1      1886-1.66355E-04 3.53767E-02 7.92042E-04
 -1      1887 1.56466E-04 3.92219E-02-8.81446E-04
 -1      1889-1.56466E-04 3.92219E-02 8.81446E-04
 -1      1890 1.55820E-04 4.29482E-02-9.69727E-04
 -1      1892-1.55820E-04 4.29482E-02 9.69727E-04
 -1      1893 1.47362E-04 4.65615E-02-1.05430E-03
 -1      1895-1.47362E-04 4.65615E-02 1.05430E-03
 -1      1896 1.42795E-04 5.00227E-02-1.13568E-03
 -1      1898-1.42795E-04 5.00227E-02 1.13568E-03
 -1      1899 1.34241E-04 5.33263E-02-1.21263E-03
 -1      1901-1.34241E-04 5.33263E-02 1.21263E-03
 -1      1902 1.27234E-04 5.64463E-02-1.28500E-03
 -1      1904-1.27234E-04 5.64463E-02 1.28500E-03
 -1      1905 1.18161E-04 5.93748E-02-1.35217E-03
 -1      1907-1.18161E-04 5.93748E-02 1.35217E-03
 -1      1908 1.09693E-04 6.20958E-02-1.41392E-03
 -1      1910-1.09693E-04 6.20958E-02 1.41392E-03
 -1      1911 1.00210E-04 6.46036E-02-1.47001E-03
 -1      1913-1.00210E-04 6.46036E-02 1.47001E-03
 -1      1914 9.10360E-05 6.68902E-02-1.52030E-03
 -1      1916-9.10360E-05 6.68902E-02 1.52030E-03
 -1      1917 8.14670E-05 6.89541E-02-1.56486E-03
 -1      1919-8.14670E-05 6.89541E-02 1.56486E-03
 -1      1920 7.21811E-05 7.07941E-02-1.60370E-03
 -1      1922-7.21811E-05 7.07941E-02 1.60370E-03
 -1      1923 6.28781E-05 7.24129E-02-1.63711E-03
 -1      1925-6.28781E-05 7.24129E-02 1.63711E-03
 -1      1926 5.38928E-05 7.38140E-02-1.66522E-03
 -1      1928-5.38928E-05 7.38140E-02 1.66522E-03
 -1      1929 4.51152E-05 7.50031E-02-1.68845E-03
 -1      1931-4.51152E-05 7.50031E-02 1.68845E-03
 -1      1932 3.66070E-05 7.59859E-02-1.70698E-03
 -1      1934-3.66070E-05 7.59859E-02 1.70698E-03
 -1      1935 2.84907E-05 7.67693E-02-1.72125E-03
 -1      1937-2.84907E-05 7.67693E-02 1.72125E-03
 -1      1938 2.02869E-05 7.73581E-02-1.73132E-03
 -1      1940-2.02869E-05 7.73581E-02 1.73132E-03
 -1      1941 1.29926E-05 7.77594E-02-1.73773E-03
 -1      1943-1.29926E-05 7.77594E-02 1.73773E-03
 -1      1944 4.25292E-06 7.79709E-02-1.73956E-03
 -1      1946-4.25292E-06 7.79709E-02 1.73956E-03
 -1      1947 4.53413E-16-2.88103E-14-2.74292E-04
 -1      1949 5.55762E-15-2.88866E-14 2.74292E-04
 -1      1950 5.13554E-15-1.19012E-13-4.95402E-04
 -1      1952 1.63957E-14-1.19110E-13 4.95402E-04
 -1      1953 1.30920E-14-2.23724E-13-7.37234E-04
 -1      1955 2.11654E-14-2.23883E-13 7.37234E-04
 -1      1956 2.11133E-14-2.44653E-13-9.94312E-04
 -1      1958 1.76935E-14-2.45101E-13 9.94312E-04
 -1      1959 2.27435E-14-1.79981E-13-1.24031E-03
 -1      1961 1.56873E-14-1.79988E-13 1.24031E-03
 -1      1962 2.49678E-14-6.82093E-14-1.49618E-03
 -1      1964 1.33001E-14-6.81122E-14 1.49618E-03
 -1      1965 3.12615E-14 1.00836E-13-1.74430E-03
 -1      1967 1.41033E-14 1.00947E-13 1.74430E-03
 -1      1968 3.60447E-14 2.77472E-13-1.99281E-03
 -1      1970 2.24972E-14 2.77445E-13 1.99281E-03
 -1      1971 3.82288E-14 4.16583E-13-2.23606E-03
 -1      1973 2.77044E-14 4.17166E-13 2.23606E-03
 -1      1974 3.91224E-14 5.55708E-13-2.47399E-03
 -1      1976 2.53914E-14 5.55764E-13 2.47399E-03
 -1      1977 3.68672E-14 7.05005E-13-2.70610E-03
 -1      1979 2.38681E-14 7.05366E-13 2.70610E-03
 -1      1980 3.74093E-14 8.55802E-13-2.92964E-03
 -1      1982 2.30180E-14 8.55080E-13 2.92964E-03
 -1      1983 3.50414E-14 9.66366E-13-3.14542E-03
 -1      1985 2.91971E-14 9.65894E-13 3.14542E-03
 -1      1986 2.95250E-14 9.45743E-13-3.35050E-03
 -1      1988 3.80772E-14 9.45397E-13 3.35050E-03
 -1      1989 2.89872E-14 8.24842E-13-3.54571E-03
 -1      1991 4.07452E-14 8.23863E-13 3.54571E-03
 -1      1992 3.10620E-14 6.65010E-13-3.72873E-03
 -1      1994 4.58349E-14 6.64344E-13 3.72873E-03
 -1      1995 3.69357E-14 4.75425E-13-3.90015E-03
 -1      1997 5.34590E-14 4.75148E-13 3.90015E-03
 -1      1998 4.44159E-14 2.99177E-13-4.05841E-03
 -1      2000 5.69440E-14 2.98941E-13 4.05841E-03
 -1      2001 4.53249E-14 1.57163E-13-4.20393E-03
 -1      2003 5.60871E-14 1.56541E-13 4.20393E-03
 -1      2004 4.06619E-14 9.85323E-16-4.33583E-03
 -1      2006 5.55632E-14 5.89806E-16 4.33583E-03
 -1      2007 4.39822E-14-1.35152E-13-4.45446E-03
 -1      2009 5.18925E-14-1.35454E-13 4.45446E-03
 -1      2010 5.29021E-14-1.67893E-13-4.55948E-03
 -1      2012 4.96200E-14-1.68456E-13 4.55948E-03
 -1      2013 6.22384E-14-1.11057E-13-4.65119E-03
 -1      2015 5.43558E-14-1.11959E-13 4.65119E-03
 -1      2016 7.37604E-14-1.59144E-14-4.72968E-03
 -1      2018 6.40616E-14-1.53037E-14 4.72968E-03
 -1      2019 8.88562E-14 1.50161E-13-4.79510E-03
 -1      2021 6.94332E-14 1.49740E-13 4.79510E-03
 -1      2022 1.00760E-13 4.28591E-13-4.84792E-03
 -1      2024 7.18141E-14 4.28109E-13 4.84792E-03
 -1      2025 1.07734E-13 7.86104E-13-4.88799E-03
 -1      2027 7.40033E-14 7.87613E-13 4.88799E-03
 -1      2028 1.11862E-13 1.17012E-12-4.91611E-03
 -1      2030 7.94920E-14 1.16939E-12 4.91611E-03
 -1      2031 1.15699E-13 1.53881E-12-4.93200E-03
 -1      2033 8.41913E-14 1.54061E-12 4.93200E-03
 -1      2034-2.56690E-04-3.49970E-03-2.33062E-05
 -1      2036 2.56690E-04-3.49970E-03 2.33062E-05
 -1      2037-1.01563E-04-7.53932E-03-1.49663E-04
 -1      2039 1.01563E-04-7.53932E-03 1.49663E-04
 -1      2040-2.06974E-04-1.13738E-02-2.36124E-04
 -1      2042 2.06974E-04-1.13738E-02 2.36124E-04
 -1      2043-1.41598E-04-1.54531E-02-3.26599E-04
 -1      2045 1.41598E-04-1.54531E-02 3.26599E-04
 -1      2046-1.86467E-04-1.94227E-02-4.22697E-04
 -1      2048 1.86467E-04-1.94227E-02 4.22697E-04
 -1      2049-1.56973E-04-2.34917E-02-5.12361E-04
 -1      2051 1.56973E-04-2.34917E-02 5.12361E-04
 -1      2052-1.75515E-04-2.74781E-02-6.08081E-04
 -1      2054 1.75515E-04-2.74781E-02 6.08081E-04
 -1      2055-1.60348E-04-3.14732E-02-6.99081E-04
 -1      2057 1.60348E-04-3.14732E-02 6.99081E-04
 -1      2058-1.66355E-04-3.53767E-02-7.92042E-04
 -1      2060 1.66355E-04-3.53767E-02 7.92042E-04
 -1      2061-1.56466E-04-3.92219E-02-8.81446E-04
 -1      2063 1.56466E-04-3.92219E-02 8.81446E-04
 -1      2064-1.55820E-04-4.29482E-02-9.69727E-04
 -1      2066 1.55820E-04-4.29482E-02 9.69727E-04
 -1      2067-1.47362E-04-4.65615E-02-1.05430E-03
 -1      2069 1.47362E-04-4.65615E-02 1.05430E-03
 -1      2070-1.42795E-04-5.00227E-02-1.13568E-03
 -1      2072 1.42795E-04-5.00227E-02 1.13568E-03
 -1      2073-1.34241E-04-5.33263E-02-1.21263E-03
 -1      2075 1.34241E-04-5.33263E-02 1.21263E-03
 -1      2076-1.27234E-04-5.64463E-02-1.28500E-03
 -1      2078 1.27234E-04-5.64463E-02 1.28500E-03
 -1      2079-1.18161E-04-5.93748E-02-1.35217E-03
 -1      2081 1.18161E-04-5.93748E-02 1.35217E-03
 -1      2082-1.09693E-04-6.20958E-02-1.41392E-03
 -1      2084 1.09693E-04-6.20958E-02 1.41392E-03
 -1      2085-1.00210E-04-6.46036E-02-1.47001E-03
 -1      2087 1.00210E-04-6.46036E-02 1.47001E-03
 -1      2088-9.10360E-05-6.68902E-02-1.52030E-03
 -1      2090 9.10360E-05-6.68902E-02 1.52030E-03
 -1      2091-8.14670E-05-6.89541E-02-1.56486E-03
 -1      2093 8.14670E-05-6.89541E-02 1.56486E-03
 -1      2094-7.21811E-05-7.07941E-02-1.60370E-03
 -1      2096 7.21811E-05-7.07941E-02 1.60370E-03
 -1      2097-6.28781E-05-7.24129E-02-1.63711E-03
 -1      2099 6.28781E-05-7.24129E-02 1.63711E-03
 -1      2100-5.38928E-05-7.38140E-02-1.66522E-03
 -1      2102 5.38928E-05-7.38140E-02 1.66522E-03
 -1      2103-4.51152E-05-7.50031E-02-1.68845E-03
 -1      2105 4.51152E-05-7.50031E-02 1.68845E-03
 -1      2106-3.66070E-05-7.59859E-02-1.70698E-03
 -1      2108 3.66070E-05-7.59859E-02 1.70698E-03
 -1      2109-2.84907E-05-7.67693E-02-1.72125E-03
 -1      2111 2.84907E-05-7.67693E-02 1.72125E-03
 -1      2112-2.02869E-05-7.73581E-02-1.73132E-03
 -1      2114 2.02869E-05-7.73581E-02 1.73132E-03
 -1      2115-1.29926E-05-7.77594E-02-1.73773E-03
 -1      2117 1.29926E-05-7.77594E-02 1.73773E-03
 -1      2118-4.25292E-06-7.79709E-02-1.73956E-03
 -1      2120 4.25292E-06-7.79709E-02 1.73956E-03
 -1      2121-6.78812E-04 6.90091E-04 4.20832E-03
 -1      2123 4.93492E-04-9.01964E-04 4.20537E-03
 -1      2124-4.56507E-04 1.50684E-03 1.06101E-02
 -1      2126 1.15102E-04-2.39603E-03 1.06052E-02
 -1      2127-6.50981E-04 2.02356E-03 1.57011E-02
 -1      2129 1.84306E-04-3.85057E-03 1.57005E-02
 -1      2130-6.39266E-04 2.44401E-03 2.12985E-02
 -1      2132 5.66637E-05-5.47155E-03 2.12955E-02
 -1      2133-7.03388E-04 2.73107E-03 2.65188E-02
 -1      2135 3.83784E-05-7.18418E-03 2.65179E-02
 -1      2136-7.25239E-04 2.90738E-03 3.17916E-02
 -1      2138-2.11723E-05-8.95685E-03 3.17906E-02
 -1      2139-7.47777E-04 2.99964E-03 3.68948E-02
 -1      2141-4.85724E-05-1.08038E-02 3.68941E-02
 -1      2142-7.59747E-04 3.01089E-03 4.19191E-02
 -1      2144-7.97289E-05-1.26650E-02 4.19195E-02
 -1      2145-7.58927E-04 2.97307E-03 4.68062E-02
 -1      2147-9.59960E-05-1.45521E-02 4.68062E-02
 -1      2148-7.50935E-04 2.89467E-03 5.15663E-02
 -1      2150-1.06547E-04-1.64122E-02 5.15677E-02
 -1      2151-7.29583E-04 2.80464E-03 5.61806E-02
 -1      2153-1.06316E-04-1.82442E-02 5.61817E-02
 -1      2154-7.00703E-04 2.71568E-03 6.06416E-02
 -1      2156-9.85716E-05-2.00060E-02 6.06440E-02
 -1      2157-6.60731E-04 2.65195E-03 6.49396E-02
 -1      2159-8.22594E-05-2.16894E-02 6.49416E-02
 -1      2160-6.14070E-04 2.62547E-03 6.90638E-02
 -1      2162-5.96361E-05-2.32628E-02 6.90669E-02
 -1      2163-5.59687E-04 2.65359E-03 7.30061E-02
 -1      2165-3.13050E-05-2.47174E-02 7.30089E-02
 -1      2166-5.01062E-04 2.74338E-03 7.67557E-02
 -1      2168 4.81853E-07-2.60327E-02 7.67592E-02
 -1      2169-4.38726E-04 2.90345E-03 8.03042E-02
 -1      2171 3.43027E-05-2.72042E-02 8.03074E-02
 -1      2172-3.75567E-04 3.13334E-03 8.36411E-02
 -1      2174 6.79058E-05-2.82225E-02 8.36447E-02
 -1      2175-3.12812E-04 3.43214E-03 8.67579E-02
 -1      2177 9.96203E-05-2.90901E-02 8.67611E-02
 -1      2178-2.52748E-04 3.79121E-03 8.96443E-02
 -1      2180 1.27477E-04-2.98080E-02 8.96477E-02
 -1      2181-1.96626E-04 4.20105E-03 9.22916E-02
 -1      2183 1.50051E-04-3.03860E-02 9.22945E-02
 -1      2184-1.45942E-04 4.64621E-03 9.46903E-02
 -1      2186 1.66012E-04-3.08332E-02 9.46932E-02
 -1      2187-1.01479E-04 5.11126E-03 9.68319E-02
 -1      2189 1.74539E-04-3.11650E-02 9.68343E-02
 -1      2190-6.37206E-05 5.57708E-03 9.87081E-02
 -1      2192 1.75378E-04-3.13949E-02 9.87105E-02
 -1      2193-3.26894E-05 6.02624E-03 1.00311E-01
 -1      2195 1.68229E-04-3.15406E-02 1.00313E-01
 -1      2196-7.68445E-06 6.44052E-03 1.01635E-01
 -1      2198 1.54879E-04-3.16151E-02 1.01637E-01
 -1      2199 1.23417E-05 6.80469E-03 1.02671E-01
 -1      2201 1.34169E-04-3.16346E-02 1.02673E-01
 -1      2202 2.85243E-05 7.10790E-03 1.03422E-01
 -1      2204 1.12662E-04-3.16060E-02 1.03423E-01
 -1      2205 4.65461E-05 7.33850E-03 1.03866E-01
 -1      2207 8.44958E-05-3.15393E-02 1.03868E-01
 -1      2208 6.78812E-04 6.90091E-04-4.20832E-03
 -1      2210-4.93492E-04-9.01964E-04-4.20537E-03
 -1      2211 4.56507E-04 1.50684E-03-1.06101E-02
 -1      2213-1.15102E-04-2.39603E-03-1.06052E-02
 -1      2214 6.50981E-04 2.02356E-03-1.57011E-02
 -1      2216-1.84306E-04-3.85057E-03-1.57005E-02
 -1      2217 6.39266E-04 2.44401E-03-2.12985E-02
 -1      2219-5.66637E-05-5.47155E-03-2.12955E-02
 -1      2220 7.03388E-04 2.73107E-03-2.65188E-02
 -1      2222-3.83784E-05-7.18418E-03-2.65179E-02
 -1      2223 7.25239E-04 2.90738E-03-3.17916E-02
 -1      2225 2.11723E-05-8.95685E-03-3.17906E-02
 -1      2226 7.47777E-04 2.99964E-03-3.68948E-02
 -1      2228 4.85724E-05-1.08038E-02-3.68941E-02
 -1      2229 7.59747E-04 3.01089E-03-4.19191E-02
 -1      2231 7.97289E-05-1.26650E-02-4.19195E-02
 -1      2232 7.58927E-04 2.97307E-03-4.68062E-02
 -1      2234 9.59960E-05-1.45521E-02-4.68062E-02
 -1      2235 7.50935E-04 2.89467E-03-5.15663E-02
 -1      2237 1.06547E-04-1.64122E-02-5.15677E-02
 -1      2238 7.29583E-04 2.80464E-03-5.61806E-02
 -1      2240 1.06316E-04-1.82442E-02-5.61817E-02
 -1      2241 7.00703E-04 2.71568E-03-6.06416E-02
 -1      2243 9.85716E-05-2.00060E-02-6.06440E-02
 -1      2244 6.60731E-04 2.65195E-03-6.49396E-02
 -1      2246 8.22594E-05-2.16894E-02-6.49416E-02
 -1      2247 6.14070E-04 2.62547E-03-6.90638E-02
 -1      2249 5.96361E-05-2.32628E-02-6.90669E-02
 -1      2250 5.59687E-04 2.65359E-03-7.30061E-02
 -1      2252 3.13050E-05-2.47174E-02-7.30089E-02
 -1      2253 5.01062E-04 2.74338E-03-7.67557E-02
 -1      2255-4.81853E-07-2.60327E-02-7.67592E-02
 -1      2256 4.38726E-04 2.90345E-03-8.03042E-02
 -1      2258-3.43027E-05-2.72042E-02-8.03074E-02
 -1      2259 3.75567E-04 3.13334E-03-8.36411E-02
 -1      2261-6.79058E-05-2.82225E-02-8.36447E-02
 -1      2262 3.12812E-04 3.43214E-03-8.67579E-02
 -1      2264-9.96203E-05-2.90901E-02-8.67611E-02
 -1      2265 2.52748E-04 3.79121E-03-8.96443E-02
 -1      2267-1.27477E-04-2.98080E-02-8.96477E-02
 -1      2268 1.96626E-04 4.20105E-03-9.22916E-02
 -1      2270-1.50051E-04-3.03860E-02-9.22945E-02
 -1      2271 1.45942E-04 4.64621E-03-9.46903E-02
 -1      2273-1.66012E-04-3.08332E-02-9.46932E-02
 -1      2274 1.01479E-04 5.11126E-03-9.68319E-02
 -1      2276-1.74539E-04-3.11650E-02-9.68343E-02
 -1      2277 6.37206E-05 5.57708E-03-9.87081E-02
 -1      2279-1.75378E-04-3.13949E-02-9.87105E-02
 -1      2280 3.26894E-05 6.02624E-03-1.00311E-01
 -1      2282-1.68229E-04-3.15406E-02-1.00313E-01
 -1      2283 7.68445E-06 6.44052E-03-1.01635E-01
 -1      2285-1.54879E-04-3.16151E-02-1.01637E-01
 -1      2286-1.23417E-05 6.80469E-03-1.02671E-01
 -1      2288-1.34169E-04-3.16346E-02-1.02673E-01
 -1      2289-2.85243E-05 7.10790E-03-1.03422E-01
 -1      2291-1.12662E-04-3.16060E-02-1.03423E-01
 -1      2292-4.65461E-05 7.33850E-03-1.03866E-01
 -1      2294-8.44958E-05-3.15393E-02-1.03868E-01
 -3
    1PSTEP                        34           1           1          
    1PGM                1.000000E+00                                  
    1PGK                4.632248E+06                                  
    1PHID                         -1                                  
    1PSUBC                         0                                  
    1PMODE                         9                                  
  100CL  109 342.5437285         930                     2    9MODAL      1
 -4  STRESS      6    1
 -5  SXX         1    4    1    1
 -5  SYY         1    4    2    2
 -5  SZZ         1    4    3    3
 -5  SXY         1    4    1    2
 -5  SYZ         1    4    2    3
 -5  SZX         1    4    3    1
 -1       404-3.01531E+08-1.63424E+07-5.98186E+05 1.13610E+07 1.70511E+06-2.82181E+08
 -1       406-3.01531E+08-1.63424E+07-5.98186E+05 1.13610E+07 1.70511E+06-2.82181E+08
 -1       407-6.50583E+06 8.80493E+06-2.73959E+04 2.95246E+06-1.18115E+08 1.40021E+06
 -1       409-6.50583E+06 8.80493E+06-2.73959E+04 2.95246E+06-1.18115E+08 1.40021E+06
 -1       410 7.29033E-03 5.16618E-04-8.93176E-05 5.26337E+06-3.05754E+08 3.40298E-05
 -1       412 7.29033E-03 5.16618E-04-8.93176E-05 5.26337E+06-3.05754E+08 3.40298E-05
 -1       413 4.21017E-03-6.38558E-04-5.21182E-03-5.96151E+05-2.76015E+08-1.89247E-03
 -1       415 4.21017E-03-6.38558E-04-5.21182E-03-5.96151E+05-2.76015E+08-1.89247E-03
 -1       424 6.19207E-03 1.81683E-03-8.86619E-07-9.30705E+06 6.27398E+07 9.19975E-04
 -1       426 6.19207E-03 1.81683E-03-8.86619E-07-9.30705E+06 6.27398E+07 9.19975E-04
 -1       427 4.75134E-03 1.48078E-04-3.45661E-03 4.90174E+07 3.48842E+07 2.03505E-02
 -1       429 4.75134E-03 1.48078E-04-3.45661E-03 4.90174E+07 3.48842E+07 2.03505E-02
 -1       438 6.50583E+06-8.80493E+06 2.73959E+04 2.95246E+06-1.18115E+08-1.40021E+06
 -1       440 6.50583E+06-8.80493E+06 2.73959E+04 2.95246E+06-1.18115E+08-1.40021E+06
 -1       441 3.01531E+08 1.63424E+07 5.98186E+05 1.13610E+07 1.70511E+06 2.82181E+08
 -1       443 3.01531E+08 1.63424E+07 5.98186E+05 1.13610E+07 1.70511E+06 2.82181E+08
 -1       444 1.10205E-02-1.07680E-04-2.76267E-03-4.90174E+07 3.48842E+07 4.70638E-03
 -1       446 1.10205E-02-1.07680E-04-2.76267E-03-4.90174E+07 3.48842E+07 4.70638E-03
 -1       447 8.30403E-03 1.63590E-03 4.17493E-05 9.30705E+06 6.27398E+07-4.50879E-04
 -1       449 8.30403E-03 1.63590E-03 4.17493E-05 9.30705E+06 6.27398E+07-4.50879E-04
 -1       458-1.07008E-03-9.93574E-04-3.17442E-03 5.96151E+05-2.76015E+08 2.66841E-03
 -1       460-1.07008E-03-9.93574E-04-3.17442E-03 5.96151E+05-2.76015E+08 2.66841E-03
 -1       461-3.46720E-03-4.18406E-03-3.08632E-04-5.26337E+06-3.05754E+08-1.08119E-04
 -1       463-3.46720E-03-4.18406E-03-3.08632E-04-5.26337E+06-3.05754E+08-1.08119E-04
 -1       472-3.01531E+08-1.63424E+07-5.98186E+05-1.13610E+07 1.70511E+06 2.82181E+08
 -1       474-3.01531E+08-1.63424E+07-5.98186E+05-1.13610E+07 1.70511E+06 2.82181E+08
 -1       475-6.50583E+06 8.80493E+06-2.73959E+04-2.95246E+06-1.18115E+08-1.40021E+06
 -1       477-6.50583E+06 8.80493E+06-2.73959E+04-2.95246E+06-1.18115E+08-1.40021E+06
 -1       478 6.50583E+06-8.80493E+06 2.73959E+04-2.95246E+06-1.18115E+08 1.40021E+06
 -1       480 6.50583E+06-8.80493E+06 2.73959E+04-2.95246E+06-1.18115E+08 1.40021E+06
 -1       481 3.01531E+08 1.63424E+07 5.98186E+05-1.13610E+07 1.70511E+06-2.82181E+08
 -1       483 3.01531E+08 1.63424E+07 5.98186E+05-1.13610E+07 1.70511E+06-2.82181E+08
 -1       484-2.73760E+08-2.39018E+06-5.67680E+04 1.32702E+07-7.96299E+06-9.56211E+07
 -1       486-2.73760E+08-2.39018E+06-5.67680E+04 1.32702E+07-7.96299E+06-9.56211E+07
 -1       487-2.22599E+08 9.89438E+05 5.62991E+03 1.14697E+07-1.50078E+07-1.67811E+05
 -1       489-2.22599E+08 9.89438E+05 5.62991E+03 1.14697E+07-1.50078E+07-1.67811E+05
 -1       490-1.85780E+08-1.01747E+06-1.84734E+05 6.39881E+06-1.69650E+07-4.70448E+07
 -1       492-1.85780E+08-1.01747E+06-1.84734E+05 6.39881E+06-1.69650E+07-4.70448E+07
 -1       493-1.56549E+08 2.51129E+06 6.52541E+03 6.72809E+06-2.44948E+07-2.37632E+07
 -1       495-1.56549E+08 2.51129E+06 6.52541E+03 6.72809E+06-2.44948E+07-2.37632E+07
 -1       496-1.28728E+08 8.03991E+05-1.27718E+05 6.14976E+06-2.93339E+07-3.45269E+07
 -1       498-1.28728E+08 8.03991E+05-1.27718E+05 6.14976E+06-2.93339E+07-3.45269E+07
 -1       499-1.01941E+08 3.22412E+06-3.59919E+04 6.02390E+06-3.58020E+07-2.86228E+07
 -1       501-1.01941E+08 3.22412E+06-3.59919E+04 6.02390E+06-3.58020E+07-2.86228E+07
 -1       502-7.35294E+07 2.89047E+06-7.46459E+04 6.73962E+06-4.15541E+07-3.06026E+07
 -1       504-7.35294E+07 2.89047E+06-7.46459E+04 6.73962E+06-4.15541E+07-3.06026E+07
 -1       505-4.42107E+07 4.19814E+06-5.39963E+04 6.63535E+06-4.73439E+07-2.87292E+07
 -1       507-4.42107E+07 4.19814E+06-5.39963E+04 6.63535E+06-4.73439E+07-2.87292E+07
 -1       508-1.35271E+07 4.69668E+06-3.99181E+04 7.14572E+06-5.31887E+07-2.85369E+07
 -1       510-1.35271E+07 4.69668E+06-3.99181E+04 7.14572E+06-5.31887E+07-2.85369E+07
 -1       511 1.72531E+07 5.49327E+06-5.03265E+04 6.87196E+06-5.85637E+07-2.74924E+07
 -1       513 1.72531E+07 5.49327E+06-5.03265E+04 6.87196E+06-5.85637E+07-2.74924E+07
 -1       514 4.75700E+07 6.25781E+06-1.81000E+04 6.77460E+06-6.41547E+07-2.67089E+07
 -1       516 4.75700E+07 6.25781E+06-1.81000E+04 6.77460E+06-6.41547E+07-2.67089E+07
 -1       517 7.59665E+07 6.86959E+06-3.65301E+04 6.09708E+06-6.91803E+07-2.57453E+07
 -1       519 7.59665E+07 6.86959E+06-3.65301E+04 6.09708E+06-6.91803E+07-2.57453E+07
 -1       520 1.01553E+08 7.62021E+06-5.16903E+03 5.37052E+06-7.43631E+07-2.47430E+07
 -1       522 1.01553E+08 7.62021E+06-5.16903E+03 5.37052E+06-7.43631E+07-2.47430E+07
 -1       523 1.23049E+08 8.13482E+06-2.26159E+04 4.25301E+06-7.90102E+07-2.36950E+07
 -1       525 1.23049E+08 8.13482E+06-2.26159E+04 4.25301E+06-7.90102E+07-2.36950E+07
 -1       526 1.39696E+08 8.76028E+06-7.92678E+01 3.05020E+06-8.37052E+07-2.25605E+07
 -1       528 1.39696E+08 8.76028E+06-7.92678E+01 3.05020E+06-8.37052E+07-2.25605E+07
 -1       529 1.50680E+08 9.17209E+06-1.52075E+04 1.64021E+06-8.79157E+07-2.13974E+07
 -1       531 1.50680E+08 9.17209E+06-1.52075E+04 1.64021E+06-8.79157E+07-2.13974E+07
 -1       532 1.55680E+08 9.63529E+06-3.15243E+03 2.21499E+05-9.20727E+07-2.01510E+07
 -1       534 1.55680E+08 9.63529E+06-3.15243E+03 2.21499E+05-9.20727E+07-2.01510E+07
 -1       535 1.54518E+08 9.92312E+06-1.75357E+04-1.22044E+06-9.57877E+07-1.88719E+07
 -1       537 1.54518E+08 9.92312E+06-1.75357E+04-1.22044E+06-9.57877E+07-1.88719E+07
 -1       538 1.47471E+08 1.02241E+07-1.43368E+04-2.54395E+06-9.93712E+07-1.75202E+07
 -1       540 1.47471E+08 1.02241E+07-1.43368E+04-2.54395E+06-9.93712E+07-1.75202E+07
 -1       541 1.35036E+08 1.03791E+07-2.98516E+04-3.71989E+06-1.02542E+08-1.61316E+07
 -1       543 1.35036E+08 1.03791E+07-2.98516E+04-3.71989E+06-1.02542E+08-1.61316E+07
 -1       544 1.18092E+08 1.05438E+07-3.21567E+04-4.64866E+06-1.05526E+08-1.46793E+07
 -1       546 1.18092E+08 1.05438E+07-3.21567E+04-4.64866E+06-1.05526E+08-1.46793E+07
 -1       547 9.77263E+07 1.05762E+07-4.99557E+04-5.28633E+06-1.08115E+08-1.31938E+07
 -1       549 9.77263E+07 1.05762E+07-4.99557E+04-5.28633E+06-1.08115E+08-1.31938E+07
 -1       550 7.53007E+07 1.06439E+07-5.34394E+04-5.59456E+06-1.10481E+08-1.16432E+07
 -1       552 7.53007E+07 1.06439E+07-5.34394E+04-5.59456E+06-1.10481E+08-1.16432E+07
 -1       553 5.23246E+07 1.05997E+07-7.38586E+04-5.47322E+06-1.12466E+08-1.00876E+07
 -1       555 5.23246E+07 1.05997E+07-7.38586E+04-5.47322E+06-1.12466E+08-1.00876E+07
 -1       556 3.04439E+07 1.05667E+07-7.36596E+04-5.06858E+06-1.14199E+08-8.42290E+06
 -1       558 3.04439E+07 1.05667E+07-7.36596E+04-5.06858E+06-1.14199E+08-8.42290E+06
 -1       559 1.14222E+07 1.06171E+07-9.61908E+04-3.99054E+06-1.15567E+08-6.87456E+06
 -1       561 1.14222E+07 1.06171E+07-9.61908E+04-3.99054E+06-1.15567E+08-6.87456E+06
 -1       562-2.94520E+06 1.02863E+07-8.91384E+04-2.88171E+06-1.16654E+08-4.99034E+06
 -1       564-2.94520E+06 1.02863E+07-8.91384E+04-2.88171E+06-1.16654E+08-4.99034E+06
 -1       565-1.09332E+07 1.08009E+07-1.05115E+05-8.84081E+05-1.17418E+08-3.72297E+06
 -1       567-1.09332E+07 1.08009E+07-1.05115E+05-8.84081E+05-1.17418E+08-3.72297E+06
 -1       568-9.81360E+06 1.01984E+07-1.14796E+05 1.91806E+06-1.17888E+08-1.13475E+06
 -1       570-9.81360E+06 1.01984E+07-1.14796E+05 1.91806E+06-1.17888E+08-1.13475E+06
 -1       571-1.80738E+06 1.72153E+07 1.41302E+04 4.10792E+06-2.11934E+08 1.10785E+06
 -1       573-1.80738E+06 1.72153E+07 1.41302E+04 4.10792E+06-2.11934E+08 1.10785E+06
 -1       574 2.45270E-03 1.33777E-03 4.07230E-05 2.48580E+07 1.98548E+07 2.12128E-04
 -1       576 2.45270E-03 1.33777E-03 4.07230E-05 2.48580E+07 1.98548E+07 2.12128E-04
 -1       577 2.08599E-03-4.34222E-05-1.05446E-02-9.14302E+06 1.56457E+07 2.02162E-02
 -1       579 2.08599E-03-4.34222E-05-1.05446E-02-9.14302E+06 1.56457E+07 2.02162E-02
 -1       588-2.63453E-05 8.26885E-04 7.83736E-05 2.60614E+07-3.34554E+07-7.02664E-05
 -1       590-2.63453E-05 8.26885E-04 7.83736E-05 2.60614E+07-3.34554E+07-7.02664E-05
 -1       591 9.48051E-04-2.66967E-04-1.62220E-02-1.93332E+07-2.11386E+07 1.63118E-02
 -1       593 9.48051E-04-2.66967E-04-1.62220E-02-1.93332E+07-2.11386E+07 1.63118E-02
 -1       602 4.21641E-03 3.11526E-04-7.60453E-05 1.39202E+07-4.21272E+07 1.37800E-04
 -1       604 4.21641E-03 3.11526E-04-7.60453E-05 1.39202E+07-4.21272E+07 1.37800E-04
 -1       605 5.73763E-03-1.84744E-04-3.95762E-03-8.56611E+06-3.73129E+07 1.21168E-02
 -1       607 5.73763E-03-1.84744E-04-3.95762E-03-8.56611E+06-3.73129E+07 1.21168E-02
 -1       616 5.27654E-03 1.57262E-04-2.07834E-05 1.68911E+07-6.05926E+07 4.86206E-05
 -1       618 5.27654E-03 1.57262E-04-2.07834E-05 1.68911E+07-6.05926E+07 4.86206E-05
 -1       619 7.62051E-03 7.12397E-05 1.35929E-02-1.73227E+07-5.13015E+07 1.33821E-02
 -1       621 7.62051E-03 7.12397E-05 1.35929E-02-1.73227E+07-5.13015E+07 1.33821E-02
 -1       630-1.35750E-03 1.10741E-03 6.71674E-05 1.18021E+07-7.81665E+07-1.55540E-05
 -1       632-1.35750E-03 1.10741E-03 6.71674E-05 1.18021E+07-7.81665E+07-1.55540E-05
 -1       633 1.68787E-03 3.02787E-04 1.70891E-02-9.65388E+06-6.90875E+07 1.81577E-02
 -1       635 1.68787E-03 3.02787E-04 1.70891E-02-9.65388E+06-6.90875E+07 1.81577E-02
 -1       644-8.72531E-03 1.17982E-03 9.60496E-05 1.55320E+07-9.17366E+07-1.25820E-04
 -1       646-8.72531E-03 1.17982E-03 9.60496E-05 1.55320E+07-9.17366E+07-1.25820E-04
 -1       647-6.29063E-03-7.70954E-05 2.24015E-03-1.49548E+07-8.15525E+07 2.08412E-02
 -1       649-6.29063E-03-7.70954E-05 2.24015E-03-1.49548E+07-8.15525E+07 2.08412E-02
 -1       658-8.92631E-03-4.60995E-04 1.06245E-04 1.35156E+07-1.09038E+08-8.79206E-05
 -1       660-8.92631E-03-4.60995E-04 1.06245E-04 1.35156E+07-1.09038E+08-8.79206E-05
 -1       661-7.87192E-03-3.27248E-04-1.51979E-02-1.03353E+07-9.72421E+07 1.40247E-02
 -1       663-7.87192E-03-3.27248E-04-1.51979E-02-1.03353E+07-9.72421E+07 1.40247E-02
 -1       672-5.30570E-04-2.24386E-03 2.38526E-04 1.61329E+07-1.22400E+08-1.84949E-04
 -1       674-5.30570E-04-2.24386E-03 2.38526E-04 1.61329E+07-1.22400E+08-1.84949E-04
 -1       675-5.30212E-04-2.22660E-04-1.30836E-02-1.31056E+07-1.10174E+08 2.87536E-03
 -1       677-5.30212E-04-2.22660E-04-1.30836E-02-1.31056E+07-1.10174E+08 2.87536E-03
 -1       686 8.94854E-03-3.36958E-03 3.43734E-04 1.51096E+07-1.38243E+08-1.38503E-04
 -1       688 8.94854E-03-3.36958E-03 3.43734E-04 1.51096E+07-1.38243E+08-1.38503E-04
 -1       689 7.38328E-03-3.38663E-04 1.93088E-03-1.04527E+07-1.24160E+08 3.72293E-03
 -1       691 7.38328E-03-3.38663E-04 1.93088E-03-1.04527E+07-1.24160E+08 3.72293E-03
 -1       700 1.14730E-02-1.67500E-03 5.80619E-05 1.60457E+07-1.51541E+08-3.94415E-05
 -1       702 1.14730E-02-1.67500E-03 5.80619E-05 1.60457E+07-1.51541E+08-3.94415E-05
 -1       703 6.50451E-03-5.93641E-04 2.96031E-03-1.17363E+07-1.36992E+08 1.45167E-02
 -1       705 6.50451E-03-5.93641E-04 2.96031E-03-1.17363E+07-1.36992E+08 1.45167E-02
 -1       714 7.96775E-03 2.26558E-03 3.78334E-04 1.47205E+07-1.66006E+08-1.13840E-04
 -1       716 7.96775E-03 2.26558E-03 3.78334E-04 1.47205E+07-1.66006E+08-1.13840E-04
 -1       717 1.01426E-04-1.02865E-03-1.34584E-02-1.02000E+07-1.49754E+08 1.59556E-02
 -1       719 1.01426E-04-1.02865E-03-1.34584E-02-1.02000E+07-1.49754E+08 1.59556E-02
 -1       728 4.14194E-03 2.46965E-03 3.38022E-04 1.39765E+07-1.78832E+08-1.54893E-04
 -1       730 4.14194E-03 2.46965E-03 3.38022E-04 1.39765E+07-1.78832E+08-1.54893E-04
 -1       731-3.14447E-03-9.02821E-05-2.64747E-02-1.06846E+07-1.61963E+08 6.08772E-03
 -1       733-3.14447E-03-9.02821E-05-2.64747E-02-1.06846E+07-1.61963E+08 6.08772E-03
 -1       742 3.04779E-03 3.03965E-05 9.15583E-06 1.18143E+07-1.92026E+08-7.12471E-05
 -1       744 3.04779E-03 3.03965E-05 9.15583E-06 1.18143E+07-1.92026E+08-7.12471E-05
 -1       745-4.16482E-03 6.33135E-04-2.66179E-02-9.74361E+06-1.73669E+08-4.63845E-03
 -1       747-4.16482E-03 6.33135E-04-2.66179E-02-9.74361E+06-1.73669E+08-4.63845E-03
 -1       756 5.45413E-03 4.77604E-04-1.00197E-04 9.69309E+06-2.04036E+08 2.05273E-05
 -1       758 5.45413E-03 4.77604E-04-1.00197E-04 9.69309E+06-2.04036E+08 2.05273E-05
 -1       759-4.08610E-03 8.16593E-04-2.18107E-02-9.81161E+06-1.84952E+08-1.25448E-02
 -1       761-4.08610E-03 8.16593E-04-2.18107E-02-9.81161E+06-1.84952E+08-1.25448E-02
 -1       770 1.00891E-02 3.82408E-03-1.01072E-04 6.74764E+06-2.15964E+08 5.59753E-05
 -1       772 1.00891E-02 3.82408E-03-1.01072E-04 6.74764E+06-2.15964E+08 5.59753E-05
 -1       773-3.54799E-04 1.04732E-03-2.06540E-02-9.16618E+06-1.95588E+08-1.70306E-02
 -1       775-3.54799E-04 1.04732E-03-2.06540E-02-9.16618E+06-1.95588E+08-1.70306E-02
 -1       784 1.06426E-02 6.22533E-03 1.60916E-04 3.78212E+06-2.26916E+08 1.37521E-04
 -1       786 1.06426E-02 6.22533E-03 1.60916E-04 3.78212E+06-2.26916E+08 1.37521E-04
 -1       787 2.69729E-03 4.05640E-04-2.26587E-02-9.00739E+06-2.05767E+08-1.82057E-02
 -1       789 2.69729E-03 4.05640E-04-2.26587E-02-9.00739E+06-2.05767E+08-1.82057E-02
 -1       798 6.95323E-03 4.45660E-03-1.26872E-04 4.89360E+05-2.37526E+08 1.34998E-04
 -1       800 6.95323E-03 4.45660E-03-1.26872E-04 4.89360E+05-2.37526E+08 1.34998E-04
 -1       801 2.99659E-03 4.26968E-04-1.91565E-02-8.48388E+06-2.15250E+08-1.68356E-02
 -1       803 2.99659E-03 4.26968E-04-1.91565E-02-8.48388E+06-2.15250E+08-1.68356E-02
 -1       812 1.02381E-02-3.92242E-04-4.37092E-04-2.63932E+06-2.47243E+08 5.78659E-05
 -1       814 1.02381E-02-3.92242E-04-4.37092E-04-2.63932E+06-2.47243E+08 5.78659E-05
 -1       815 6.89323E-03 7.46931E-05-8.97572E-03-8.17995E+06-2.24206E+08-1.17501E-02
 -1       817 6.89323E-03 7.46931E-05-8.97572E-03-8.17995E+06-2.24206E+08-1.17501E-02
 -1       826 2.22340E-02-4.31020E-03-2.93564E-04-5.65584E+06-2.56459E+08 3.00184E-05
 -1       828 2.22340E-02-4.31020E-03-2.93564E-04-5.65584E+06-2.56459E+08 3.00184E-05
 -1       829 1.63126E-02-5.22007E-04-1.86835E-03-7.67383E+06-2.32442E+08-3.25215E-03
 -1       831 1.63126E-02-5.22007E-04-1.86835E-03-7.67383E+06-2.32442E+08-3.25215E-03
 -1       840 3.33305E-02-5.16586E-03-3.94336E-04-8.23549E+06-2.64804E+08 6.64825E-05
 -1       842 3.33305E-02-5.16586E-03-3.94336E-04-8.23549E+06-2.64804E+08 6.64825E-05
 -1       843 2.61891E-02 2.46336E-04-8.68117E-04-7.25278E+06-2.40085E+08 2.00475E-03
 -1       845 2.61891E-02 2.46336E-04-8.68117E-04-7.25278E+06-2.40085E+08 2.00475E-03
 -1       854 3.97262E-02-3.54280E-03-1.99542E-04-1.03371E+07-2.72553E+08-6.76387E-05
 -1       856 3.97262E-02-3.54280E-03-1.99542E-04-1.03371E+07-2.72553E+08-6.76387E-05
 -1       857 3.22124E-02-9.50456E-05 3.83298E-04-6.69990E+06-2.46994E+08 1.12459E-03
 -1       859 3.22124E-02-9.50456E-05 3.83298E-04-6.69990E+06-2.46994E+08 1.12459E-03
 -1       868 4.17872E-02-1.10444E-03 4.35449E-05-1.17513E+07-2.79417E+08-1.68836E-04
 -1       870 4.17872E-02-1.10444E-03 4.35449E-05-1.17513E+07-2.79417E+08-1.68836E-04
 -1       871 3.38734E-02-4.05358E-04 2.52609E-04-6.16996E+06-2.53254E+08 2.03485E-03
 -1       873 3.38734E-02-4.05358E-04 2.52609E-04-6.16996E+06-2.53254E+08 2.03485E-03
 -1       882 4.00714E-02 1.26330E-03-2.95796E-04-1.24111E+07-2.85638E+08-1.13457E-04
 -1       884 4.00714E-02 1.26330E-03-2.95796E-04-1.24111E+07-2.85638E+08-1.13457E-04
 -1       885 3.18690E-02 7.98310E-04-9.19618E-03-5.53385E+06-2.58771E+08 5.81639E-03
 -1       887 3.18690E-02 7.98310E-04-9.19618E-03-5.53385E+06-2.58771E+08 5.81639E-03
 -1       896 3.42925E-02 3.38048E-03-1.75809E-04-1.22446E+07-2.90933E+08-2.08347E-04
 -1       898 3.42925E-02 3.38048E-03-1.75809E-04-1.22446E+07-2.90933E+08-2.08347E-04
 -1       899 2.49544E-02 6.52495E-05-2.19974E-02-4.90383E+06-2.63591E+08 6.07937E-03
 -1       901 2.49544E-02 6.52495E-05-2.19974E-02-4.90383E+06-2.63591E+08 6.07937E-03
 -1       910 2.58127E-02 2.32972E-03-2.54929E-04-1.10883E+07-2.95575E+08-1.30654E-04
 -1       912 2.58127E-02 2.32972E-03-2.54929E-04-1.10883E+07-2.95575E+08-1.30654E-04
 -1       913 1.66323E-02-6.60665E-04-2.64312E-02-4.17234E+06-2.67669E+08 3.46197E-03
 -1       915 1.66323E-02-6.60665E-04-2.64312E-02-4.17234E+06-2.67669E+08 3.46197E-03
 -1       924 2.04463E-02-1.16492E-03-3.20094E-04-9.16593E+06-2.99240E+08-1.01617E-04
 -1       926 2.04463E-02-1.16492E-03-3.20094E-04-9.16593E+06-2.99240E+08-1.01617E-04
 -1       927 1.19571E-02-9.63939E-04-2.54287E-02-3.45871E+06-2.70998E+08 1.78219E-03
 -1       929 1.19571E-02-9.63939E-04-2.54287E-02-3.45871E+06-2.70998E+08 1.78219E-03
 -1       938 1.90348E-02-9.67574E-04 5.89308E-05-5.96634E+06-3.02222E+08 3.27688E-05
 -1       940 1.90348E-02-9.67574E-04 5.89308E-05-5.96634E+06-3.02222E+08 3.27688E-05
 -1       941 1.00653E-02-3.28948E-04-2.50534E-02-2.65526E+06-2.73557E+08 2.01590E-03
 -1       943 1.00653E-02-3.28948E-04-2.50534E-02-2.65526E+06-2.73557E+08 2.01590E-03
 -1       952 1.80415E-02 2.96909E-03 3.02033E-05-1.98416E+06-3.04262E+08 4.72880E-05
 -1       954 1.80415E-02 2.96909E-03 3.02033E-05-1.98416E+06-3.04262E+08 4.72880E-05
 -1       955 8.74360E-03-4.60611E-05-2.20311E-02-1.86064E+06-2.75355E+08 2.35069E-04
 -1       957 8.74360E-03-4.60611E-05-2.20311E-02-1.86064E+06-2.75355E+08 2.35069E-04
 -1       966 1.23125E-02 2.83130E-03-1.06187E-04 2.55352E+06-3.05225E+08-6.37424E-05
 -1       968 1.23125E-02 2.83130E-03-1.06187E-04 2.55352E+06-3.05225E+08-6.37424E-05
 -1       969 6.11755E-03-9.10623E-04-1.21062E-02-1.09149E+06-2.76046E+08-1.97646E-03
 -1       971 6.11755E-03-9.10623E-04-1.21062E-02-1.09149E+06-2.76046E+08-1.97646E-03
 -1       980-1.92850E+08 1.31972E+07 2.05382E+05 1.02697E+06 3.22225E+07-1.13826E+08
 -1       982-1.92850E+08 1.31972E+07 2.05382E+05 1.02697E+06 3.22225E+07-1.13826E+08
 -1       983 1.80738E+06-1.72153E+07-1.41302E+04 4.10792E+06-2.11934E+08-1.10785E+06
 -1       985 1.80738E+06-1.72153E+07-1.41302E+04 4.10792E+06-2.11934E+08-1.10785E+06
 -1       986 2.73760E+08 2.39018E+06 5.67680E+04 1.32702E+07-7.96299E+06 9.56211E+07
 -1       988 2.73760E+08 2.39018E+06 5.67680E+04 1.32702E+07-7.96299E+06 9.56211E+07
 -1       989 2.22599E+08-9.89438E+05-5.62991E+03 1.14697E+07-1.50078E+07 1.67811E+05
 -1       991 2.22599E+08-9.89438E+05-5.62991E+03 1.14697E+07-1.50078E+07 1.67811E+05
 -1       992 1.85780E+08 1.01747E+06 1.84734E+05 6.39881E+06-1.69650E+07 4.70448E+07
 -1       994 1.85780E+08 1.01747E+06 1.84734E+05 6.39881E+06-1.69650E+07 4.70448E+07
 -1       995 1.56549E+08-2.51129E+06-6.52541E+03 6.72809E+06-2.44948E+07 2.37632E+07
 -1       997 1.56549E+08-2.51129E+06-6.52541E+03 6.72809E+06-2.44948E+07 2.37632E+07
 -1       998 1.28728E+08-8.03991E+05 1.27718E+05 6.14976E+06-2.93339E+07 3.45269E+07
 -1      1000 1.28728E+08-8.03991E+05 1.27718E+05 6.14976E+06-2.93339E+07 3.45269E+07
 -1      1001 1.01941E+08-3.22412E+06 3.59919E+04 6.02390E+06-3.58020E+07 2.86228E+07
 -1      1003 1.01941E+08-3.22412E+06 3.59919E+04 6.02390E+06-3.58020E+07 2.86228E+07
 -1      1004 7.35294E+07-2.89047E+06 7.46459E+04 6.73962E+06-4.15541E+07 3.06026E+07
 -1      1006 7.35294E+07-2.89047E+06 7.46459E+04 6.73962E+06-4.15541E+07 3.06026E+07
 -1      1007 4.42107E+07-4.19814E+06 5.39963E+04 6.63535E+06-4.73439E+07 2.87292E+07
 -1      1009 4.42107E+07-4.19814E+06 5.39963E+04 6.63535E+06-4.73439E+07 2.87292E+07
 -1      1010 1.35271E+07-4.69668E+06 3.99181E+04 7.14572E+06-5.31887E+07 2.85369E+07
 -1      1012 1.35271E+07-4.69668E+06 3.99181E+04 7.14572E+06-5.31887E+07 2.85369E+07
 -1      1013-1.72531E+07-5.49327E+06 5.03265E+04 6.87196E+06-5.85637E+07 2.74924E+07
 -1      1015-1.72531E+07-5.49327E+06 5.03265E+04 6.87196E+06-5.85637E+07 2.74924E+07
 -1      1016-4.75700E+07-6.25781E+06 1.81000E+04 6.77460E+06-6.41547E+07 2.67089E+07
 -1      1018-4.75700E+07-6.25781E+06 1.81000E+04 6.77460E+06-6.41547E+07 2.67089E+07
 -1      1019-7.59665E+07-6.86959E+06 3.65301E+04 6.09708E+06-6.91803E+07 2.57453E+07
 -1      1021-7.59665E+07-6.86959E+06 3.65301E+04 6.09708E+06-6.91803E+07 2.57453E+07
 -1      1022-1.01553E+08-7.62021E+06 5.16903E+03 5.37052E+06-7.43631E+07 2.47430E+07
 -1      1024-1.01553E+08-7.62021E+06 5.16903E+03 5.37052E+06-7.43631E+07 2.47430E+07
 -1      1025-1.23049E+08-8.13482E+06 2.26159E+04 4.25301E+06-7.90102E+07 2.36950E+07
 -1      1027-1.23049E+08-8.13482E+06 2.26159E+04 4.25301E+06-7.90102E+07 2.36950E+07
 -1      1028-1.39696E+08-8.76028E+06 7.92694E+01 3.05020E+06-8.37052E+07 2.25605E+07
 -1      1030-1.39696E+08-8.76028E+06 7.92694E+01 3.05020E+06-8.37052E+07 2.25605E+07
 -1      1031-1.50680E+08-9.17209E+06 1.52075E+04 1.64021E+06-8.79157E+07 2.13974E+07
 -1      1033-1.50680E+08-9.17209E+06 1.52075E+04 1.64021E+06-8.79157E+07 2.13974E+07
 -1      1034-1.55680E+08-9.63529E+06 3.15243E+03 2.21499E+05-9.20727E+07 2.01510E+07
 -1      1036-1.55680E+08-9.63529E+06 3.15243E+03 2.21499E+05-9.20727E+07 2.01510E+07
 -1      1037-1.54518E+08-9.92312E+06 1.75357E+04-1.22044E+06-9.57877E+07 1.88719E+07
 -1      1039-1.54518E+08-9.92312E+06 1.75357E+04-1.22044E+06-9.57877E+07 1.88719E+07
 -1      1040-1.47471E+08-1.02241E+07 1.43368E+04-2.54395E+06-9.93712E+07 1.75202E+07
 -1      1042-1.47471E+08-1.02241E+07 1.43368E+04-2.54395E+06-9.93712E+07 1.75202E+07
 -1      1043-1.35036E+08-1.03791E+07 2.98516E+04-3.71989E+06-1.02542E+08 1.61316E+07
 -1      1045-1.35036E+08-1.03791E+07 2.98516E+04-3.71989E+06-1.02542E+08 1.61316E+07
 -1      1046-1.18092E+08-1.05438E+07 3.21567E+04-4.64866E+06-1.05526E+08 1.46793E+07
 -1      1048-1.18092E+08-1.05438E+07 3.21567E+04-4.64866E+06-1.05526E+08 1.46793E+07
 -1      1049-9.77263E+07-1.05762E+07 4.99557E+04-5.28633E+06-1.08115E+08 1.31938E+07
 -1      1051-9.77263E+07-1.05762E+07 4.99557E+04-5.28633E+06-1.08115E+08 1.31938E+07
 -1      1052-7.53007E+07-1.06439E+07 5.34394E+04-5.59456E+06-1.10481E+08 1.16432E+07
 -1      1054-7.53007E+07-1.06439E+07 5.34394E+04-5.59456E+06-1.10481E+08 1.16432E+07
 -1      1055-5.23246E+07-1.05997E+07 7.38586E+04-5.47322E+06-1.12466E+08 1.00876E+07
 -1      1057-5.23246E+07-1.05997E+07 7.38586E+04-5.47322E+06-1.12466E+08 1.00876E+07
 -1      1058-3.04439E+07-1.05667E+07 7.36596E+04-5.06858E+06-1.14199E+08 8.42290E+06
 -1      1060-3.04439E+07-1.05667E+07 7.36596E+04-5.06858E+06-1.14199E+08 8.42290E+06
 -1      1061-1.14222E+07-1.06171E+07 9.61908E+04-3.99054E+06-1.15567E+08 6.87456E+06
 -1      1063-1.14222E+07-1.06171E+07 9.61908E+04-3.99054E+06-1.15567E+08 6.87456E+06
 -1      1064 2.94520E+06-1.02863E+07 8.91384E+04-2.88171E+06-1.16654E+08 4.99034E+06
 -1      1066 2.94520E+06-1.02863E+07 8.91384E+04-2.88171E+06-1.16654E+08 4.99034E+06
 -1      1067 1.09332E+07-1.08009E+07 1.05115E+05-8.84081E+05-1.17418E+08 3.72297E+06
 -1      1069 1.09332E+07-1.08009E+07 1.05115E+05-8.84081E+05-1.17418E+08 3.72297E+06
 -1      1070 9.81360E+06-1.01984E+07 1.14796E+05 1.91806E+06-1.17888E+08 1.13475E+06
 -1      1072 9.81360E+06-1.01984E+07 1.14796E+05 1.91806E+06-1.17888E+08 1.13475E+06
 -1      1073 1.92850E+08-1.31972E+07-2.05382E+05 1.02697E+06 3.22225E+07 1.13826E+08
 -1      1075 1.92850E+08-1.31972E+07-2.05382E+05 1.02697E+06 3.22225E+07 1.13826E+08
 -1      1076 3.50402E-03 6.54620E-05-5.09528E-03 1.28486E+08 9.51424E+06 1.90406E-02
 -1      1078 3.50402E-03 6.54620E-05-5.09528E-03 1.28486E+08 9.51424E+06 1.90406E-02
 -1      1079 5.91870E-03 2.53413E-05-5.61215E-03-1.85072E-05-1.58558E+07 1.53799E-02
 -1      1081 5.91870E-03 2.53413E-05-5.61215E-03-1.85072E-05-1.58558E+07 1.53799E-02
 -1      1082 1.03006E-02-1.99220E-05-3.62652E-03-1.28486E+08 9.51424E+06 8.86774E-03
 -1      1084 1.03006E-02-1.99220E-05-3.62652E-03-1.28486E+08 9.51424E+06 8.86774E-03
 -1      1085 9.40824E-03-8.71081E-05-4.50623E-03 9.14302E+06 1.56457E+07 8.59284E-03
 -1      1087 9.40824E-03-8.71081E-05-4.50623E-03 9.14302E+06 1.56457E+07 8.59284E-03
 -1      1088 7.26576E-03 1.85927E-04-1.51265E-05-2.48580E+07 1.98548E+07-9.31732E-05
 -1      1090 7.26576E-03 1.85927E-04-1.51265E-05-2.48580E+07 1.98548E+07-9.31732E-05
 -1      1099 7.60933E-03 3.09933E-05-2.75565E-03 1.93332E+07-2.11386E+07 1.55638E-02
 -1      1101 7.60933E-03 3.09933E-05-2.75565E-03 1.93332E+07-2.11386E+07 1.55638E-02
 -1      1102 8.10849E-03-1.18370E-03-1.16627E-04-2.60614E+07-3.34554E+07 5.14910E-05
 -1      1104 8.10849E-03-1.18370E-03-1.16627E-04-2.60614E+07-3.34554E+07 5.14910E-05
 -1      1113 1.02468E-02 1.30083E-04 3.78700E-03 8.56611E+06-3.73129E+07 1.78301E-02
 -1      1115 1.02468E-02 1.30083E-04 3.78700E-03 8.56611E+06-3.73129E+07 1.78301E-02
 -1      1116 1.32133E-02 6.59653E-04-3.79914E-05-1.39202E+07-4.21272E+07-6.74650E-05
 -1      1118 1.32133E-02 6.59653E-04-3.79914E-05-1.39202E+07-4.21272E+07-6.74650E-05
 -1      1127 1.53707E-02 6.60060E-06 1.03557E-02 1.73227E+07-5.13015E+07 1.62997E-02
 -1      1129 1.53707E-02 6.60060E-06 1.03557E-02 1.73227E+07-5.13015E+07 1.62997E-02
 -1      1130 1.74821E-02 1.71393E-03 1.76430E-05-1.68911E+07-6.05926E+07-9.75188E-05
 -1      1132 1.74821E-02 1.71393E-03 1.76430E-05-1.68911E+07-6.05926E+07-9.75188E-05
 -1      1141 1.90105E-02 1.33402E-05 1.91923E-02 9.65388E+06-6.90875E+07 1.49169E-02
 -1      1143 1.90105E-02 1.33402E-05 1.91923E-02 9.65388E+06-6.90875E+07 1.49169E-02
 -1      1144 1.83170E-02-9.30834E-04 9.72208E-06-1.18021E+07-7.81665E+07-3.29250E-05
 -1      1146 1.83170E-02-9.30834E-04 9.72208E-06-1.18021E+07-7.81665E+07-3.29250E-05
 -1      1155 1.89586E-02 7.80798E-05 2.39287E-02 1.49548E+07-8.15525E+07 8.04524E-03
 -1      1157 1.89586E-02 7.80798E-05 2.39287E-02 1.49548E+07-8.15525E+07 8.04524E-03
 -1      1158 1.45049E-02-2.51653E-03-6.07735E-06-1.55320E+07-9.17366E+07 9.17055E-05
 -1      1160 1.45049E-02-2.51653E-03-6.07735E-06-1.55320E+07-9.17366E+07 9.17055E-05
 -1      1169 1.30055E-02 2.81758E-04 1.36187E-02 1.03353E+07-9.72421E+07-2.63396E-03
 -1      1171 1.30055E-02 2.81758E-04 1.36187E-02 1.03353E+07-9.72421E+07-2.63396E-03
 -1      1172 6.27542E-03-1.01432E-03-8.40953E-05-1.35156E+07-1.09038E+08 2.57120E-05
 -1      1174 6.27542E-03-1.01432E-03-8.40953E-05-1.35156E+07-1.09038E+08 2.57120E-05
 -1      1183 6.39939E-03 7.33312E-04-2.28413E-03 1.31056E+07-1.10174E+08-2.42873E-03
 -1      1185 6.39939E-03 7.33312E-04-2.28413E-03 1.31056E+07-1.10174E+08-2.42873E-03
 -1      1186 2.28783E-03 2.36691E-04 1.10102E-04-1.61329E+07-1.22400E+08 1.30376E-04
 -1      1188 2.28783E-03 2.36691E-04 1.10102E-04-1.61329E+07-1.22400E+08 1.30376E-04
 -1      1197 5.87550E-03 4.40690E-04-4.17338E-03 1.04527E+07-1.24160E+08 6.14305E-03
 -1      1199 5.87550E-03 4.40690E-04-4.17338E-03 1.04527E+07-1.24160E+08 6.14305E-03
 -1      1200 5.61954E-03-3.37150E-04 8.22375E-05-1.51096E+07-1.38243E+08 3.28424E-04
 -1      1202 5.61954E-03-3.37150E-04 8.22375E-05-1.51096E+07-1.38243E+08 3.28424E-04
 -1      1211 5.71100E-03 3.96129E-04 2.75926E-03 1.17363E+07-1.36992E+08 7.39169E-03
 -1      1213 5.71100E-03 3.96129E-04 2.75926E-03 1.17363E+07-1.36992E+08 7.39169E-03
 -1      1214 7.03532E-03-2.12889E-03-2.10816E-04-1.60457E+07-1.51541E+08 3.59948E-04
 -1      1216 7.03532E-03-2.12889E-03-2.10816E-04-1.60457E+07-1.51541E+08 3.59948E-04
 -1      1225 9.63779E-04 7.49823E-04 2.92181E-04 1.02000E+07-1.49754E+08 1.39491E-03
 -1      1227 9.63779E-04 7.49823E-04 2.92181E-04 1.02000E+07-1.49754E+08 1.39491E-03
 -1      1228 4.40663E-03-3.08911E-03-1.90282E-04-1.47205E+07-1.66006E+08 3.15531E-04
 -1      1230 4.40663E-03-3.08911E-03-1.90282E-04-1.47205E+07-1.66006E+08 3.15531E-04
 -1      1239-7.30733E-04 7.57912E-04-1.20529E-02 1.06846E+07-1.61963E+08-2.99356E-03
 -1      1241-7.30733E-04 7.57912E-04-1.20529E-02 1.06846E+07-1.61963E+08-2.99356E-03
 -1      1242 5.63702E-03-1.81443E-03-9.82229E-05-1.39765E+07-1.78832E+08 3.53502E-04
 -1      1244 5.63702E-03-1.81443E-03-9.82229E-05-1.39765E+07-1.78832E+08 3.53502E-04
 -1      1253 2.70443E-03 1.79278E-04-2.41004E-02 9.74361E+06-1.73669E+08-3.44412E-03
 -1      1255 2.70443E-03 1.79278E-04-2.41004E-02 9.74361E+06-1.73669E+08-3.44412E-03
 -1      1256 1.08961E-02-1.72738E-03 2.08244E-05-1.18143E+07-1.92026E+08 2.06664E-04
 -1      1258 1.08961E-02-1.72738E-03 2.08244E-05-1.18143E+07-1.92026E+08 2.06664E-04
 -1      1267 5.43296E-03-1.00619E-04-2.71402E-02 9.81161E+06-1.84952E+08-4.20455E-03
 -1      1269 5.43296E-03-1.00619E-04-2.71402E-02 9.81161E+06-1.84952E+08-4.20455E-03
 -1      1270 1.25135E-02-4.26988E-03 1.06719E-04-9.69309E+06-2.04036E+08 1.68695E-04
 -1      1272 1.25135E-02-4.26988E-03 1.06719E-04-9.69309E+06-2.04036E+08 1.68695E-04
 -1      1281 3.39965E-03 6.29757E-04-2.43820E-02 9.16618E+06-1.95588E+08-1.04679E-02
 -1      1283 3.39965E-03 6.29757E-04-2.43820E-02 9.16618E+06-1.95588E+08-1.04679E-02
 -1      1284 7.80169E-03-3.61917E-03-6.99600E-05-6.74764E+06-2.15964E+08 1.22389E-04
 -1      1286 7.80169E-03-3.61917E-03-6.99600E-05-6.74764E+06-2.15964E+08 1.22389E-04
 -1      1295-3.68463E-03 7.21908E-04-2.55393E-02 9.00739E+06-2.05767E+08-1.41899E-02
 -1      1297-3.68463E-03 7.21908E-04-2.55393E-02 9.00739E+06-2.05767E+08-1.41899E-02
 -1      1298-6.26251E-04 4.54286E-04 1.30730E-05-3.78212E+06-2.26916E+08-7.06166E-05
 -1      1300-6.26251E-04 4.54286E-04 1.30730E-05-3.78212E+06-2.26916E+08-7.06166E-05
 -1      1309-1.19762E-02-3.61667E-04-2.42014E-02 8.48388E+06-2.15250E+08-7.83997E-03
 -1      1311-1.19762E-02-3.61667E-04-2.42014E-02 8.48388E+06-2.15250E+08-7.83997E-03
 -1      1312-1.06019E-02 1.66927E-03-1.15318E-04-4.89360E+05-2.37526E+08 7.27894E-05
 -1      1314-1.06019E-02 1.66927E-03-1.15318E-04-4.89360E+05-2.37526E+08 7.27894E-05
 -1      1323-1.94436E-02-2.10975E-04-1.46774E-02 8.17995E+06-2.24206E+08-8.20442E-04
 -1      1325-1.94436E-02-2.10975E-04-1.46774E-02 8.17995E+06-2.24206E+08-8.20442E-04
 -1      1326-1.97548E-02 2.32752E-03-1.53549E-04 2.63932E+06-2.47243E+08-8.02837E-05
 -1      1328-1.97548E-02 2.32752E-03-1.53549E-04 2.63932E+06-2.47243E+08-8.02837E-05
 -1      1337-2.26879E-02 3.06257E-04-4.42425E-03 7.67383E+06-2.32442E+08 2.74571E-03
 -1      1339-2.26879E-02 3.06257E-04-4.42425E-03 7.67383E+06-2.32442E+08 2.74571E-03
 -1      1340-2.31651E-02 5.65120E-03-7.08513E-05 5.65584E+06-2.56459E+08-2.08348E-04
 -1      1342-2.31651E-02 5.65120E-03-7.08513E-05 5.65584E+06-2.56459E+08-2.08348E-04
 -1      1351-1.92279E-02-3.42602E-04 4.40791E-03 7.25278E+06-2.40085E+08 3.64415E-03
 -1      1353-1.92279E-02-3.42602E-04 4.40791E-03 7.25278E+06-2.40085E+08 3.64415E-03
 -1      1354-2.02299E-02 6.13124E-03 1.24089E-05 8.23549E+06-2.64804E+08-1.20988E-04
 -1      1356-2.02299E-02 6.13124E-03 1.24089E-05 8.23549E+06-2.64804E+08-1.20988E-04
 -1      1365-1.37511E-02-3.19932E-04 8.33263E-03 6.69990E+06-2.46994E+08-9.71988E-04
 -1      1367-1.37511E-02-3.19932E-04 8.33263E-03 6.69990E+06-2.46994E+08-9.71988E-04
 -1      1368-1.64968E-02 2.66763E-03 5.05522E-06 1.03371E+07-2.72553E+08-1.10724E-04
 -1      1370-1.64968E-02 2.66763E-03 5.05522E-06 1.03371E+07-2.72553E+08-1.10724E-04
 -1      1379-8.89762E-03-1.30396E-04-1.32920E-03 6.16996E+06-2.53254E+08-5.15043E-03
 -1      1381-8.89762E-03-1.30396E-04-1.32920E-03 6.16996E+06-2.53254E+08-5.15043E-03
 -1      1382-1.22781E-02 2.24441E-03-1.79408E-04 1.17513E+07-2.79417E+08 2.23839E-05
 -1      1384-1.22781E-02 2.24441E-03-1.79408E-04 1.17513E+07-2.79417E+08 2.23839E-05
 -1      1393-3.28211E-03 8.84207E-05-1.75618E-02 5.53385E+06-2.58771E+08-1.60701E-03
 -1      1395-3.28211E-03 8.84207E-05-1.75618E-02 5.53385E+06-2.58771E+08-1.60701E-03
 -1      1396-5.83637E-03 3.41812E-03 4.52492E-05 1.24111E+07-2.85638E+08 7.95163E-06
 -1      1398-5.83637E-03 3.41812E-03 4.52492E-05 1.24111E+07-2.85638E+08 7.95163E-06
 -1      1407 6.49976E-04-3.30285E-05-2.26759E-02 4.90383E+06-2.63591E+08 6.90022E-03
 -1      1409 6.49976E-04-3.30285E-05-2.26759E-02 4.90383E+06-2.63591E+08 6.90022E-03
 -1      1410-1.04360E-03 7.55400E-04-1.93033E-04 1.22446E+07-2.90933E+08 4.93191E-05
 -1      1412-1.04360E-03 7.55400E-04-1.93033E-04 1.22446E+07-2.90933E+08 4.93191E-05
 -1      1421 8.49265E-04 1.54583E-04-1.38565E-02 4.17234E+06-2.67669E+08 9.61066E-03
 -1      1423 8.49265E-04 1.54583E-04-1.38565E-02 4.17234E+06-2.67669E+08 9.61066E-03
 -1      1424-2.74107E-04-1.68265E-03-7.91913E-05 1.10883E+07-2.95575E+08-8.43299E-05
 -1      1426-2.74107E-04-1.68265E-03-7.91913E-05 1.10883E+07-2.95575E+08-8.43299E-05
 -1      1435-1.31882E-03 9.71010E-04-6.48009E-03 3.45871E+06-2.70998E+08 2.33476E-03
 -1      1437-1.31882E-03 9.71010E-04-6.48009E-03 3.45871E+06-2.70998E+08 2.33476E-03
 -1      1438-2.41079E-03-1.82807E-03-3.16733E-04 9.16593E+06-2.99240E+08-1.86086E-04
 -1      1440-2.41079E-03-1.82807E-03-3.16733E-04 9.16593E+06-2.99240E+08-1.86086E-04
 -1      1449-4.94023E-03 2.14236E-04-9.88877E-03 2.65526E+06-2.73557E+08-1.95418E-03
 -1      1451-4.94023E-03 2.14236E-04-9.88877E-03 2.65526E+06-2.73557E+08-1.95418E-03
 -1      1452-5.12316E-03-1.63692E-03 8.44710E-05 5.96634E+06-3.02222E+08-1.69001E-04
 -1      1454-5.12316E-03-1.63692E-03 8.44710E-05 5.96634E+06-3.02222E+08-1.69001E-04
 -1      1463-6.40246E-03-7.48180E-04-1.24118E-02 1.86064E+06-2.75355E+08 2.22285E-03
 -1      1465-6.40246E-03-7.48180E-04-1.24118E-02 1.86064E+06-2.75355E+08 2.22285E-03
 -1      1466-6.32254E-03-8.12974E-04 1.73719E-04 1.98416E+06-3.04262E+08-2.35476E-05
 -1      1468-6.32254E-03-8.12974E-04 1.73719E-04 1.98416E+06-3.04262E+08-2.35476E-05
 -1      1477-3.42472E-03-8.40003E-04-6.99142E-03 1.09149E+06-2.76046E+08 3.98705E-03
 -1      1479-3.42472E-03-8.40003E-04-6.99142E-03 1.09149E+06-2.76046E+08 3.98705E-03
 -1      1480-4.97635E-03-2.17935E-03-5.58987E-04-2.55352E+06-3.05225E+08 5.53859E-05
 -1      1482-4.97635E-03-2.17935E-03-5.58987E-04-2.55352E+06-3.05225E+08 5.53859E-05
 -1      1491 2.90823E-03-9.91240E-04-7.51410E-03-1.64006E+05-2.96546E+08-1.13444E-03
 -1      1493 2.90823E-03-9.91240E-04-7.51410E-03-1.64006E+05-2.96546E+08-1.13444E-03
 -1      1494 1.13502E-03-1.04664E-03-9.76593E-03 4.07161E-04-3.17077E+08-1.00388E-03
 -1      1496 1.13502E-03-1.04664E-03-9.76593E-03 4.07161E-04-3.17077E+08-1.00388E-03
 -1      1497-2.03162E-04-8.71466E-04-6.44495E-03 1.64006E+05-2.96546E+08 5.18535E-04
 -1      1499-2.03162E-04-8.71466E-04-6.44495E-03 1.64006E+05-2.96546E+08 5.18535E-04
 -1      1500-2.73760E+08-2.39018E+06-5.67680E+04-1.32702E+07-7.96299E+06 9.56211E+07
 -1      1502-2.73760E+08-2.39018E+06-5.67680E+04-1.32702E+07-7.96299E+06 9.56211E+07
 -1      1503-2.22599E+08 9.89438E+05 5.62991E+03-1.14697E+07-1.50078E+07 1.67811E+05
 -1      1505-2.22599E+08 9.89438E+05 5.62991E+03-1.14697E+07-1.50078E+07 1.67811E+05
 -1      1506-1.85780E+08-1.01747E+06-1.84734E+05-6.39881E+06-1.69650E+07 4.70448E+07
 -1      1508-1.85780E+08-1.01747E+06-1.84734E+05-6.39881E+06-1.69650E+07 4.70448E+07
 -1      1509-1.56549E+08 2.51129E+06 6.52541E+03-6.72809E+06-2.44948E+07 2.37632E+07
 -1      1511-1.56549E+08 2.51129E+06 6.52541E+03-6.72809E+06-2.44948E+07 2.37632E+07
 -1      1512-1.28728E+08 8.03991E+05-1.27718E+05-6.14976E+06-2.93339E+07 3.45269E+07
 -1      1514-1.28728E+08 8.03991E+05-1.27718E+05-6.14976E+06-2.93339E+07 3.45269E+07
 -1      1515-1.01941E+08 3.22412E+06-3.59919E+04-6.02390E+06-3.58020E+07 2.86228E+07
 -1      1517-1.01941E+08 3.22412E+06-3.59919E+04-6.02390E+06-3.58020E+07 2.86228E+07
 -1      1518-7.35294E+07 2.89047E+06-7.46459E+04-6.73962E+06-4.15541E+07 3.06026E+07
 -1      1520-7.35294E+07 2.89047E+06-7.46459E+04-6.73962E+06-4.15541E+07 3.06026E+07
 -1      1521-4.42107E+07 4.19814E+06-5.39963E+04-6.63535E+06-4.73439E+07 2.87292E+07
 -1      1523-4.42107E+07 4.19814E+06-5.39963E+04-6.63535E+06-4.73439E+07 2.87292E+07
 -1      1524-1.35271E+07 4.69668E+06-3.99181E+04-7.14572E+06-5.31887E+07 2.85369E+07
 -1      1526-1.35271E+07 4.69668E+06-3.99181E+04-7.14572E+06-5.31887E+07 2.85369E+07
 -1      1527 1.72531E+07 5.49327E+06-5.03265E+04-6.87196E+06-5.85637E+07 2.74924E+07
 -1      1529 1.72531E+07 5.49327E+06-5.03265E+04-6.87196E+06-5.85637E+07 2.74924E+07
 -1      1530 4.75700E+07 6.25781E+06-1.81000E+04-6.77460E+06-6.41547E+07 2.67089E+07
 -1      1532 4.75700E+07 6.25781E+06-1.81000E+04-6.77460E+06-6.41547E+07 2.67089E+07
 -1      1533 7.59665E+07 6.86959E+06-3.65301E+04-6.09708E+06-6.91803E+07 2.57453E+07
 -1      1535 7.59665E+07 6.86959E+06-3.65301E+04-6.09708E+06-6.91803E+07 2.57453E+07
 -1      1536 1.01553E+08 7.62021E+06-5.16903E+03-5.37052E+06-7.43631E+07 2.47430E+07
 -1      1538 1.01553E+08 7.62021E+06-5.16903E+03-5.37052E+06-7.43631E+07 2.47430E+07
 -1      1539 1.23049E+08 8.13482E+06-2.26159E+04-4.25301E+06-7.90102E+07 2.36950E+07
 -1      1541 1.23049E+08 8.13482E+06-2.26159E+04-4.25301E+06-7.90102E+07 2.36950E+07
 -1      1542 1.39696E+08 8.76028E+06-7.92682E+01-3.05020E+06-8.37052E+07 2.25605E+07
 -1      1544 1.39696E+08 8.76028E+06-7.92682E+01-3.05020E+06-8.37052E+07 2.25605E+07
 -1      1545 1.50680E+08 9.17209E+06-1.52075E+04-1.64021E+06-8.79157E+07 2.13974E+07
 -1      1547 1.50680E+08 9.17209E+06-1.52075E+04-1.64021E+06-8.79157E+07 2.13974E+07
 -1      1548 1.55680E+08 9.63529E+06-3.15243E+03-2.21499E+05-9.20727E+07 2.01510E+07
 -1      1550 1.55680E+08 9.63529E+06-3.15243E+03-2.21499E+05-9.20727E+07 2.01510E+07
 -1      1551 1.54518E+08 9.92312E+06-1.75357E+04 1.22044E+06-9.57877E+07 1.88719E+07
 -1      1553 1.54518E+08 9.92312E+06-1.75357E+04 1.22044E+06-9.57877E+07 1.88719E+07
 -1      1554 1.47471E+08 1.02241E+07-1.43368E+04 2.54395E+06-9.93712E+07 1.75202E+07
 -1      1556 1.47471E+08 1.02241E+07-1.43368E+04 2.54395E+06-9.93712E+07 1.75202E+07
 -1      1557 1.35036E+08 1.03791E+07-2.98516E+04 3.71989E+06-1.02542E+08 1.61316E+07
 -1      1559 1.35036E+08 1.03791E+07-2.98516E+04 3.71989E+06-1.02542E+08 1.61316E+07
 -1      1560 1.18092E+08 1.05438E+07-3.21567E+04 4.64866E+06-1.05526E+08 1.46793E+07
 -1      1562 1.18092E+08 1.05438E+07-3.21567E+04 4.64866E+06-1.05526E+08 1.46793E+07
 -1      1563 9.77263E+07 1.05762E+07-4.99557E+04 5.28633E+06-1.08115E+08 1.31938E+07
 -1      1565 9.77263E+07 1.05762E+07-4.99557E+04 5.28633E+06-1.08115E+08 1.31938E+07
 -1      1566 7.53007E+07 1.06439E+07-5.34394E+04 5.59456E+06-1.10481E+08 1.16432E+07
 -1      1568 7.53007E+07 1.06439E+07-5.34394E+04 5.59456E+06-1.10481E+08 1.16432E+07
 -1      1569 5.23246E+07 1.05997E+07-7.38586E+04 5.47322E+06-1.12466E+08 1.00876E+07
 -1      1571 5.23246E+07 1.05997E+07-7.38586E+04 5.47322E+06-1.12466E+08 1.00876E+07
 -1      1572 3.04439E+07 1.05667E+07-7.36596E+04 5.06858E+06-1.14199E+08 8.42290E+06
 -1      1574 3.04439E+07 1.05667E+07-7.36596E+04 5.06858E+06-1.14199E+08 8.42290E+06
 -1      1575 1.14222E+07 1.06171E+07-9.61908E+04 3.99054E+06-1.15567E+08 6.87456E+06
 -1      1577 1.14222E+07 1.06171E+07-9.61908E+04 3.99054E+06-1.15567E+08 6.87456E+06
 -1      1578-2.94520E+06 1.02863E+07-8.91384E+04 2.88171E+06-1.16654E+08 4.99034E+06
 -1      1580-2.94520E+06 1.02863E+07-8.91384E+04 2.88171E+06-1.16654E+08 4.99034E+06
 -1      1581-1.09332E+07 1.08009E+07-1.05115E+05 8.84081E+05-1.17418E+08 3.72297E+06
 -1      1583-1.09332E+07 1.08009E+07-1.05115E+05 8.84081E+05-1.17418E+08 3.72297E+06
 -1      1584-9.81360E+06 1.01984E+07-1.14796E+05-1.91806E+06-1.17888E+08 1.13475E+06
 -1      1586-9.81360E+06 1.01984E+07-1.14796E+05-1.91806E+06-1.17888E+08 1.13475E+06
 -1      1587-1.80738E+06 1.72153E+07 1.41302E+04-4.10792E+06-2.11934E+08-1.10785E+06
 -1      1589-1.80738E+06 1.72153E+07 1.41302E+04-4.10792E+06-2.11934E+08-1.10785E+06
 -1      1590-1.92850E+08 1.31972E+07 2.05382E+05-1.02697E+06 3.22225E+07 1.13826E+08
 -1      1592-1.92850E+08 1.31972E+07 2.05382E+05-1.02697E+06 3.22225E+07 1.13826E+08
 -1      1593 1.80738E+06-1.72153E+07-1.41302E+04-4.10792E+06-2.11934E+08 1.10785E+06
 -1      1595 1.80738E+06-1.72153E+07-1.41302E+04-4.10792E+06-2.11934E+08 1.10785E+06
 -1      1596 2.73760E+08 2.39018E+06 5.67680E+04-1.32702E+07-7.96299E+06-9.56211E+07
 -1      1598 2.73760E+08 2.39018E+06 5.67680E+04-1.32702E+07-7.96299E+06-9.56211E+07
 -1      1599 2.22599E+08-9.89438E+05-5.62991E+03-1.14697E+07-1.50078E+07-1.67811E+05
 -1      1601 2.22599E+08-9.89438E+05-5.62991E+03-1.14697E+07-1.50078E+07-1.67811E+05
 -1      1602 1.85780E+08 1.01747E+06 1.84734E+05-6.39881E+06-1.69650E+07-4.70448E+07
 -1      1604 1.85780E+08 1.01747E+06 1.84734E+05-6.39881E+06-1.69650E+07-4.70448E+07
 -1      1605 1.56549E+08-2.51129E+06-6.52541E+03-6.72809E+06-2.44948E+07-2.37632E+07
 -1      1607 1.56549E+08-2.51129E+06-6.52541E+03-6.72809E+06-2.44948E+07-2.37632E+07
 -1      1608 1.28728E+08-8.03991E+05 1.27718E+05-6.14976E+06-2.93339E+07-3.45269E+07
 -1      1610 1.28728E+08-8.03991E+05 1.27718E+05-6.14976E+06-2.93339E+07-3.45269E+07
 -1      1611 1.01941E+08-3.22412E+06 3.59919E+04-6.02390E+06-3.58020E+07-2.86228E+07
 -1      1613 1.01941E+08-3.22412E+06 3.59919E+04-6.02390E+06-3.58020E+07-2.86228E+07
 -1      1614 7.35294E+07-2.89047E+06 7.46459E+04-6.73962E+06-4.15541E+07-3.06026E+07
 -1      1616 7.35294E+07-2.89047E+06 7.46459E+04-6.73962E+06-4.15541E+07-3.06026E+07
 -1      1617 4.42107E+07-4.19814E+06 5.39963E+04-6.63535E+06-4.73439E+07-2.87292E+07
 -1      1619 4.42107E+07-4.19814E+06 5.39963E+04-6.63535E+06-4.73439E+07-2.87292E+07
 -1      1620 1.35271E+07-4.69668E+06 3.99181E+04-7.14572E+06-5.31887E+07-2.85369E+07
 -1      1622 1.35271E+07-4.69668E+06 3.99181E+04-7.14572E+06-5.31887E+07-2.85369E+07
 -1      1623-1.72531E+07-5.49327E+06 5.03265E+04-6.87196E+06-5.85637E+07-2.74924E+07
 -1      1625-1.72531E+07-5.49327E+06 5.03265E+04-6.87196E+06-5.85637E+07-2.74924E+07
 -1      1626-4.75700E+07-6.25781E+06 1.81000E+04-6.77460E+06-6.41547E+07-2.67089E+07
 -1      1628-4.75700E+07-6.25781E+06 1.81000E+04-6.77460E+06-6.41547E+07-2.67089E+07
 -1      1629-7.59665E+07-6.86959E+06 3.65301E+04-6.09708E+06-6.91803E+07-2.57453E+07
 -1      1631-7.59665E+07-6.86959E+06 3.65301E+04-6.09708E+06-6.91803E+07-2.57453E+07
 -1      1632-1.01553E+08-7.62021E+06 5.16903E+03-5.37052E+06-7.43631E+07-2.47430E+07
 -1      1634-1.01553E+08-7.62021E+06 5.16903E+03-5.37052E+06-7.43631E+07-2.47430E+07
 -1      1635-1.23049E+08-8.13482E+06 2.26159E+04-4.25301E+06-7.90102E+07-2.36950E+07
 -1      1637-1.23049E+08-8.13482E+06 2.26159E+04-4.25301E+06-7.90102E+07-2.36950E+07
 -1      1638-1.39696E+08-8.76028E+06 7.92701E+01-3.05020E+06-8.37052E+07-2.25605E+07
 -1      1640-1.39696E+08-8.76028E+06 7.92701E+01-3.05020E+06-8.37052E+07-2.25605E+07
 -1      1641-1.50680E+08-9.17209E+06 1.52075E+04-1.64021E+06-8.79157E+07-2.13974E+07
 -1      1643-1.50680E+08-9.17209E+06 1.52075E+04-1.64021E+06-8.79157E+07-2.13974E+07
 -1      1644-1.55680E+08-9.63529E+06 3.15243E+03-2.21499E+05-9.20727E+07-2.01510E+07
 -1      1646-1.55680E+08-9.63529E+06 3.15243E+03-2.21499E+05-9.20727E+07-2.01510E+07
 -1      1647-1.54518E+08-9.92312E+06 1.75357E+04 1.22044E+06-9.57877E+07-1.88719E+07
 -1      1649-1.54518E+08-9.92312E+06 1.75357E+04 1.22044E+06-9.57877E+07-1.88719E+07
 -1      1650-1.47471E+08-1.02241E+07 1.43368E+04 2.54395E+06-9.93712E+07-1.75202E+07
 -1      1652-1.47471E+08-1.02241E+07 1.43368E+04 2.54395E+06-9.93712E+07-1.75202E+07
 -1      1653-1.35036E+08-1.03791E+07 2.98516E+04 3.71989E+06-1.02542E+08-1.61316E+07
 -1      1655-1.35036E+08-1.03791E+07 2.98516E+04 3.71989E+06-1.02542E+08-1.61316E+07
 -1      1656-1.18092E+08-1.05438E+07 3.21567E+04 4.64866E+06-1.05526E+08-1.46793E+07
 -1      1658-1.18092E+08-1.05438E+07 3.21567E+04 4.64866E+06-1.05526E+08-1.46793E+07
 -1      1659-9.77263E+07-1.05762E+07 4.99557E+04 5.28633E+06-1.08115E+08-1.31938E+07
 -1      1661-9.77263E+07-1.05762E+07 4.99557E+04 5.28633E+06-1.08115E+08-1.31938E+07
 -1      1662-7.53007E+07-1.06439E+07 5.34394E+04 5.59456E+06-1.10481E+08-1.16432E+07
 -1      1664-7.53007E+07-1.06439E+07 5.34394E+04 5.59456E+06-1.10481E+08-1.16432E+07
 -1      1665-5.23246E+07-1.05997E+07 7.38586E+04 5.47322E+06-1.12466E+08-1.00876E+07
 -1      1667-5.23246E+07-1.05997E+07 7.38586E+04 5.47322E+06-1.12466E+08-1.00876E+07
 -1      1668-3.04439E+07-1.05667E+07 7.36596E+04 5.06858E+06-1.14199E+08-8.42290E+06
 -1      1670-3.04439E+07-1.05667E+07 7.36596E+04 5.06858E+06-1.14199E+08-8.42290E+06
 -1      1671-1.14222E+07-1.06171E+07 9.61908E+04 3.99054E+06-1.15567E+08-6.87456E+06
 -1      1673-1.14222E+07-1.06171E+07 9.61908E+04 3.99054E+06-1.15567E+08-6.87456E+06
 -1      1674 2.94520E+06-1.02863E+07 8.91384E+04 2.88171E+06-1.16654E+08-4.99034E+06
 -1      1676 2.94520E+06-1.02863E+07 8.91384E+04 2.88171E+06-1.16654E+08-4.99034E+06
 -1      1677 1.09332E+07-1.08009E+07 1.05115E+05 8.84081E+05-1.17418E+08-3.72297E+06
 -1      1679 1.09332E+07-1.08009E+07 1.05115E+05 8.84081E+05-1.17418E+08-3.72297E+06
 -1      1680 9.81360E+06-1.01984E+07 1.14796E+05-1.91806E+06-1.17888E+08-1.13475E+06
 -1      1682 9.81360E+06-1.01984E+07 1.14796E+05-1.91806E+06-1.17888E+08-1.13475E+06
 -1      1683 1.92850E+08-1.31972E+07-2.05382E+05-1.02697E+06 3.22225E+07-1.13826E+08
 -1      1685 1.92850E+08-1.31972E+07-2.05382E+05-1.02697E+06 3.22225E+07-1.13826E+08
 -1      1686-1.79762E+08 5.17048E+06 2.84644E+04 1.90641E+07 5.94589E+06-2.83125E+07
 -1      1688-1.79762E+08 5.17048E+06 2.84644E+04 1.90641E+07 5.94589E+06-2.83125E+07
 -1      1689-1.49859E+08-4.80724E+06-1.33812E+05 1.87655E+07-2.42316E+07 1.76543E+07
 -1      1691-1.49859E+08-4.80724E+06-1.33812E+05 1.87655E+07-2.42316E+07 1.76543E+07
 -1      1692-1.23846E+08 1.61426E+06 1.21156E+05 1.01595E+07-2.95461E+07-4.08068E+06
 -1      1694-1.23846E+08 1.61426E+06 1.21156E+05 1.01595E+07-2.95461E+07-4.08068E+06
 -1      1695-1.03934E+08 2.56983E+06-7.13963E+04 1.18096E+07-4.25437E+07 6.13462E+06
 -1      1697-1.03934E+08 2.56983E+06-7.13963E+04 1.18096E+07-4.25437E+07 6.13462E+06
 -1      1698-8.50876E+07 2.87558E+06 5.05285E+04 8.97592E+06-5.37502E+07 1.47916E+06
 -1      1700-8.50876E+07 2.87558E+06 5.05285E+04 8.97592E+06-5.37502E+07 1.47916E+06
 -1      1701-6.69068E+07 5.92515E+06 8.63634E+03 1.07779E+07-6.37693E+07 3.47015E+06
 -1      1703-6.69068E+07 5.92515E+06 8.63634E+03 1.07779E+07-6.37693E+07 3.47015E+06
 -1      1704-4.76129E+07 5.95299E+06 1.02633E+04 1.01276E+07-7.52963E+07 2.60242E+06
 -1      1706-4.76129E+07 5.95299E+06 1.02633E+04 1.01276E+07-7.52963E+07 2.60242E+06
 -1      1707-2.78342E+07 8.55137E+06 5.04500E+04 1.13841E+07-8.48717E+07 2.83613E+06
 -1      1709-2.78342E+07 8.55137E+06 5.04500E+04 1.13841E+07-8.48717E+07 2.83613E+06
 -1      1710-7.06980E+06 9.18236E+06 3.12362E+03 1.11277E+07-9.57158E+07 2.70354E+06
 -1      1712-7.06980E+06 9.18236E+06 3.12362E+03 1.11277E+07-9.57158E+07 2.70354E+06
 -1      1713 1.36924E+07 1.12168E+07 6.80146E+04 1.14588E+07-1.05052E+08 2.61189E+06
 -1      1715 1.36924E+07 1.12168E+07 6.80146E+04 1.14588E+07-1.05052E+08 2.61189E+06
 -1      1716 3.41540E+07 1.22052E+07 1.22148E+04 1.07476E+07-1.15081E+08 2.56943E+06
 -1      1718 3.41540E+07 1.22052E+07 1.22148E+04 1.07476E+07-1.15081E+08 2.56943E+06
 -1      1719 5.33283E+07 1.38440E+07 7.47832E+04 1.00368E+07-1.24006E+08 2.43477E+06
 -1      1721 5.33283E+07 1.38440E+07 7.47832E+04 1.00368E+07-1.24006E+08 2.43477E+06
 -1      1722 7.05960E+07 1.49104E+07 2.64240E+04 8.59241E+06-1.33194E+08 2.37000E+06
 -1      1724 7.05960E+07 1.49104E+07 2.64240E+04 8.59241E+06-1.33194E+08 2.37000E+06
 -1      1725 8.51499E+07 1.62302E+07 7.75562E+04 6.97305E+06-1.41523E+08 2.23392E+06
 -1      1727 8.51499E+07 1.62302E+07 7.75562E+04 6.97305E+06-1.41523E+08 2.23392E+06
 -1      1728 9.64272E+07 1.71939E+07 4.01796E+04 4.89892E+06-1.49835E+08 2.13924E+06
 -1      1730 9.64272E+07 1.71939E+07 4.01796E+04 4.89892E+06-1.49835E+08 2.13924E+06
 -1      1731 1.03940E+08 1.82084E+07 7.90127E+04 2.71116E+06-1.57416E+08 2.00214E+06
 -1      1733 1.03940E+08 1.82084E+07 7.90127E+04 2.71116E+06-1.57416E+08 2.00214E+06
 -1      1734 1.07422E+08 1.89685E+07 5.10901E+04 3.55429E+05-1.64799E+08 1.88521E+06
 -1      1736 1.07422E+08 1.89685E+07 5.10901E+04 3.55429E+05-1.64799E+08 1.88521E+06
 -1      1737 1.06801E+08 1.96814E+07 7.99580E+04-1.92988E+06-1.71515E+08 1.74476E+06
 -1      1739 1.06801E+08 1.96814E+07 7.99580E+04-1.92988E+06-1.71515E+08 1.74476E+06
 -1      1740 1.02220E+08 2.01988E+07 5.83952E+04-4.09989E+06-1.77915E+08 1.61284E+06
 -1      1742 1.02220E+08 2.01988E+07 5.83952E+04-4.09989E+06-1.77915E+08 1.61284E+06
 -1      1743 9.40476E+07 2.06318E+07 8.06152E+04-5.97769E+06-1.83673E+08 1.46877E+06
 -1      1745 9.40476E+07 2.06318E+07 8.06152E+04-5.97769E+06-1.83673E+08 1.46877E+06
 -1      1746 8.28395E+07 2.09174E+07 6.21204E+04-7.49289E+06-1.89040E+08 1.32742E+06
 -1      1748 8.28395E+07 2.09174E+07 6.21204E+04-7.49289E+06-1.89040E+08 1.32742E+06
 -1      1749 6.93476E+07 2.11228E+07 8.12515E+04-8.51881E+06-1.93766E+08 1.17996E+06
 -1      1751 6.93476E+07 2.11228E+07 8.12515E+04-8.51881E+06-1.93766E+08 1.17996E+06
 -1      1752 5.44658E+07 2.12149E+07 6.26553E+04-9.00281E+06-1.98060E+08 1.03518E+06
 -1      1754 5.44658E+07 2.12149E+07 6.26553E+04-9.00281E+06-1.98060E+08 1.03518E+06
 -1      1755 3.91996E+07 2.13033E+07 8.22796E+04-8.85890E+06-2.01700E+08 8.79855E+05
 -1      1757 3.91996E+07 2.13033E+07 8.22796E+04-8.85890E+06-2.01700E+08 8.79855E+05
 -1      1758 2.46863E+07 2.11858E+07 6.09619E+04-8.07844E+06-2.04887E+08 7.46866E+05
 -1      1760 2.46863E+07 2.11858E+07 6.09619E+04-8.07844E+06-2.04887E+08 7.46866E+05
 -1      1761 1.20317E+07 2.14461E+07 8.28958E+04-6.57823E+06-2.07404E+08 5.55878E+05
 -1      1763 1.20317E+07 2.14461E+07 8.28958E+04-6.57823E+06-2.07404E+08 5.55878E+05
 -1      1764 2.47954E+06 2.08388E+07 6.20418E+04-4.42402E+06-2.09438E+08 4.96020E+05
 -1      1766 2.47954E+06 2.08388E+07 6.20418E+04-4.42402E+06-2.09438E+08 4.96020E+05
 -1      1767-2.51392E+06 2.18855E+07 7.24594E+04-1.43412E+06-2.10840E+08 1.43821E+05
 -1      1769-2.51392E+06 2.18855E+07 7.24594E+04-1.43412E+06-2.10840E+08 1.43821E+05
 -1      1770-2.75041E+06 2.05861E+07 9.28420E+04 2.23579E+06-2.11557E+08 4.17703E+05
 -1      1772-2.75041E+06 2.05861E+07 9.28420E+04 2.23579E+06-2.11557E+08 4.17703E+05
 -1      1773 1.79762E+08-5.17048E+06-2.84644E+04 1.90641E+07 5.94589E+06 2.83125E+07
 -1      1775 1.79762E+08-5.17048E+06-2.84644E+04 1.90641E+07 5.94589E+06 2.83125E+07
 -1      1776 1.49859E+08 4.80724E+06 1.33812E+05 1.87655E+07-2.42316E+07-1.76543E+07
 -1      1778 1.49859E+08 4.80724E+06 1.33812E+05 1.87655E+07-2.42316E+07-1.76543E+07
 -1      1779 1.23846E+08-1.61426E+06-1.21156E+05 1.01595E+07-2.95461E+07 4.08068E+06
 -1      1781 1.23846E+08-1.61426E+06-1.21156E+05 1.01595E+07-2.95461E+07 4.08068E+06
 -1      1782 1.03934E+08-2.56983E+06 7.13963E+04 1.18096E+07-4.25437E+07-6.13462E+06
 -1      1784 1.03934E+08-2.56983E+06 7.13963E+04 1.18096E+07-4.25437E+07-6.13462E+06
 -1      1785 8.50876E+07-2.87558E+06-5.05285E+04 8.97592E+06-5.37502E+07-1.47916E+06
 -1      1787 8.50876E+07-2.87558E+06-5.05285E+04 8.97592E+06-5.37502E+07-1.47916E+06
 -1      1788 6.69068E+07-5.92515E+06-8.63634E+03 1.07779E+07-6.37693E+07-3.47015E+06
 -1      1790 6.69068E+07-5.92515E+06-8.63634E+03 1.07779E+07-6.37693E+07-3.47015E+06
 -1      1791 4.76129E+07-5.95299E+06-1.02633E+04 1.01276E+07-7.52963E+07-2.60242E+06
 -1      1793 4.76129E+07-5.95299E+06-1.02633E+04 1.01276E+07-7.52963E+07-2.60242E+06
 -1      1794 2.78342E+07-8.55137E+06-5.04500E+04 1.13841E+07-8.48717E+07-2.83613E+06
 -1      1796 2.78342E+07-8.55137E+06-5.04500E+04 1.13841E+07-8.48717E+07-2.83613E+06
 -1      1797 7.06980E+06-9.18236E+06-3.12362E+03 1.11277E+07-9.57158E+07-2.70354E+06
 -1      1799 7.06980E+06-9.18236E+06-3.12362E+03 1.11277E+07-9.57158E+07-2.70354E+06
 -1      1800-1.36924E+07-1.12168E+07-6.80146E+04 1.14588E+07-1.05052E+08-2.61189E+06
 -1      1802-1.36924E+07-1.12168E+07-6.80146E+04 1.14588E+07-1.05052E+08-2.61189E+06
 -1      1803-3.41540E+07-1.22052E+07-1.22148E+04 1.07476E+07-1.15081E+08-2.56943E+06
 -1      1805-3.41540E+07-1.22052E+07-1.22148E+04 1.07476E+07-1.15081E+08-2.56943E+06
 -1      1806-5.33283E+07-1.38440E+07-7.47832E+04 1.00368E+07-1.24006E+08-2.43477E+06
 -1      1808-5.33283E+07-1.38440E+07-7.47832E+04 1.00368E+07-1.24006E+08-2.43477E+06
 -1      1809-7.05960E+07-1.49104E+07-2.64240E+04 8.59241E+06-1.33194E+08-2.37000E+06
 -1      1811-7.05960E+07-1.49104E+07-2.64240E+04 8.59241E+06-1.33194E+08-2.37000E+06
 -1      1812-8.51499E+07-1.62302E+07-7.75562E+04 6.97305E+06-1.41523E+08-2.23392E+06
 -1      1814-8.51499E+07-1.62302E+07-7.75562E+04 6.97305E+06-1.41523E+08-2.23392E+06
 -1      1815-9.64272E+07-1.71939E+07-4.01796E+04 4.89892E+06-1.49835E+08-2.13924E+06
 -1      1817-9.64272E+07-1.71939E+07-4.01796E+04 4.89892E+06-1.49835E+08-2.13924E+06
 -1      1818-1.03940E+08-1.82084E+07-7.90127E+04 2.71116E+06-1.57416E+08-2.00214E+06
 -1      1820-1.03940E+08-1.82084E+07-7.90127E+04 2.71116E+06-1.57416E+08-2.00214E+06
 -1      1821-1.07422E+08-1.89685E+07-5.10901E+04 3.55429E+05-1.64799E+08-1.88521E+06
 -1      1823-1.07422E+08-1.89685E+07-5.10901E+04 3.55429E+05-1.64799E+08-1.88521E+06
 -1      1824-1.06801E+08-1.96814E+07-7.99580E+04-1.92988E+06-1.71515E+08-1.74476E+06
 -1      1826-1.06801E+08-1.96814E+07-7.99580E+04-1.92988E+06-1.71515E+08-1.74476E+06
 -1      1827-1.02220E+08-2.01988E+07-5.83952E+04-4.09989E+06-1.77915E+08-1.61284E+06
 -1      1829-1.02220E+08-2.01988E+07-5.83952E+04-4.09989E+06-1.77915E+08-1.61284E+06
 -1      1830-9.40476E+07-2.06318E+07-8.06152E+04-5.97769E+06-1.83673E+08-1.46877E+06
 -1      1832-9.40476E+07-2.06318E+07-8.06152E+04-5.97769E+06-1.83673E+08-1.46877E+06
 -1      1833-8.28395E+07-2.09174E+07-6.21204E+04-7.49289E+06-1.89040E+08-1.32742E+06
 -1      1835-8.28395E+07-2.09174E+07-6.21204E+04-7.49289E+06-1.89040E+08-1.32742E+06
 -1      1836-6.93476E+07-2.11228E+07-8.12515E+04-8.51881E+06-1.93766E+08-1.17996E+06
 -1      1838-6.93476E+07-2.11228E+07-8.12515E+04-8.51881E+06-1.93766E+08-1.17996E+06
 -1      1839-5.44658E+07-2.12149E+07-6.26553E+04-9.00281E+06-1.98060E+08-1.03518E+06
 -1      1841-5.44658E+07-2.12149E+07-6.26553E+04-9.00281E+06-1.98060E+08-1.03518E+06
 -1      1842-3.91996E+07-2.13033E+07-8.22796E+04-8.85890E+06-2.01700E+08-8.79855E+05
 -1      1844-3.91996E+07-2.13033E+07-8.22796E+04-8.85890E+06-2.01700E+08-8.79855E+05
 -1      1845-2.46863E+07-2.11858E+07-6.09619E+04-8.07844E+06-2.04887E+08-7.46866E+05
 -1      1847-2.46863E+07-2.11858E+07-6.09619E+04-8.07844E+06-2.04887E+08-7.46866E+05
 -1      1848-1.20317E+07-2.14461E+07-8.28958E+04-6.57823E+06-2.07404E+08-5.55878E+05
 -1      1850-1.20317E+07-2.14461E+07-8.28958E+04-6.57823E+06-2.07404E+08-5.55878E+05
 -1      1851-2.47954E+06-2.08388E+07-6.20418E+04-4.42402E+06-2.09438E+08-4.96020E+05
 -1      1853-2.47954E+06-2.08388E+07-6.20418E+04-4.42402E+06-2.09438E+08-4.96020E+05
 -1      1854 2.51392E+06-2.18855E+07-7.24594E+04-1.43412E+06-2.10840E+08-1.43821E+05
 -1      1856 2.51392E+06-2.18855E+07-7.24594E+04-1.43412E+06-2.10840E+08-1.43821E+05
 -1      1857 2.75041E+06-2.05861E+07-9.28420E+04 2.23579E+06-2.11557E+08-4.17703E+05
 -1      1859 2.75041E+06-2.05861E+07-9.28420E+04 2.23579E+06-2.11557E+08-4.17703E+05
 -1      1860 4.04498E-03 4.43532E-05-1.08009E-02 3.46846E+07-3.99798E+06 1.90288E-02
 -1      1862 4.04498E-03 4.43532E-05-1.08009E-02 3.46846E+07-3.99798E+06 1.90288E-02
 -1      1863 5.57326E-03-2.07566E-05-1.43694E-02 2.52276E+06-2.79416E+07 1.69216E-02
 -1      1865 5.57326E-03-2.07566E-05-1.43694E-02 2.52276E+06-2.79416E+07 1.69216E-02
 -1      1866 7.46056E-03-2.13950E-04-2.31288E-03 2.32779E+07-4.32526E+07 1.39435E-02
 -1      1868 7.46056E-03-2.13950E-04-2.31288E-03 2.32779E+07-4.32526E+07 1.39435E-02
 -1      1869 6.65396E-03-1.05551E-04 1.35366E-02 9.60968E+06-5.88099E+07 1.38273E-02
 -1      1871 6.65396E-03-1.05551E-04 1.35366E-02 9.60968E+06-5.88099E+07 1.38273E-02
 -1      1872 1.65690E-03 9.33114E-05 1.61061E-02 1.84284E+07-7.50216E+07 1.66429E-02
 -1      1874 1.65690E-03 9.33114E-05 1.61061E-02 1.84284E+07-7.50216E+07 1.66429E-02
 -1      1875-2.68092E-03-3.27407E-05 2.87050E-03 1.22871E+07-8.95552E+07 1.75724E-02
 -1      1877-2.68092E-03-3.27407E-05 2.87050E-03 1.22871E+07-8.95552E+07 1.75724E-02
 -1      1878-1.64709E-03-1.02156E-04-1.22864E-02 1.60398E+07-1.04985E+08 1.15250E-02
 -1      1880-1.64709E-03-1.02156E-04-1.22864E-02 1.60398E+07-1.04985E+08 1.15250E-02
 -1      1881 2.77135E-03-3.37472E-04-1.14784E-02 1.30758E+07-1.19245E+08 3.50803E-03
 -1      1883 2.77135E-03-3.37472E-04-1.14784E-02 1.30758E+07-1.19245E+08 3.50803E-03
 -1      1884 5.01237E-03-5.12638E-04 9.48400E-04 1.45640E+07-1.33755E+08 5.12358E-03
 -1      1886 5.01237E-03-5.12638E-04 9.48400E-04 1.45640E+07-1.33755E+08 5.12358E-03
 -1      1887 2.57825E-03-3.58992E-04 2.72407E-03 1.29591E+07-1.47508E+08 1.40911E-02
 -1      1889 2.57825E-03-3.58992E-04 2.72407E-03 1.29591E+07-1.47508E+08 1.40911E-02
 -1      1890-1.19303E-03-5.65880E-04-1.11751E-02 1.33810E+07-1.61083E+08 1.48078E-02
 -1      1892-1.19303E-03-5.65880E-04-1.11751E-02 1.33810E+07-1.61083E+08 1.48078E-02
 -1      1893-2.72868E-03-3.34622E-04-2.42369E-02 1.23481E+07-1.74058E+08 5.81936E-03
 -1      1895-2.72868E-03-3.34622E-04-2.42369E-02 1.23481E+07-1.74058E+08 5.81936E-03
 -1      1896-3.98194E-03 3.09501E-04-2.64709E-02 1.22382E+07-1.86624E+08-3.88960E-03
 -1      1898-3.98194E-03 3.09501E-04-2.64709E-02 1.22382E+07-1.86624E+08-3.88960E-03
 -1      1899-4.94908E-03 4.90897E-04-2.33060E-02 1.14301E+07-1.98607E+08-1.14697E-02
 -1      1901-4.94908E-03 4.90897E-04-2.33060E-02 1.14301E+07-1.98607E+08-1.14697E-02
 -1      1902-1.86636E-03 2.78698E-04-2.26274E-02 1.10369E+07-2.10049E+08-1.60859E-02
 -1      1904-1.86636E-03 2.78698E-04-2.26274E-02 1.10369E+07-2.10049E+08-1.60859E-02
 -1      1905 2.71452E-03 3.78617E-04-2.45437E-02 1.03013E+07-2.20876E+08-1.67368E-02
 -1      1907 2.71452E-03 3.78617E-04-2.45437E-02 1.03013E+07-2.20876E+08-1.67368E-02
 -1      1908 3.94219E-03 8.59664E-04-2.24193E-02 9.74727E+06-2.31074E+08-1.41220E-02
 -1      1910 3.94219E-03 8.59664E-04-2.24193E-02 9.74727E+06-2.31074E+08-1.41220E-02
 -1      1911 4.27782E-03 7.61839E-05-1.35052E-02 9.02078E+06-2.40613E+08-8.42820E-03
 -1      1913 4.27782E-03 7.61839E-05-1.35052E-02 9.02078E+06-2.40613E+08-8.42820E-03
 -1      1914 9.10242E-03-3.31751E-04-3.28185E-03 8.37058E+06-2.49460E+08-7.37629E-04
 -1      1916 9.10242E-03-3.31751E-04-3.28185E-03 8.37058E+06-2.49460E+08-7.37629E-04
 -1      1917 1.74137E-02 3.18572E-04 1.95999E-03 7.63089E+06-2.57606E+08 3.36841E-03
 -1      1919 1.74137E-02 3.18572E-04 1.95999E-03 7.63089E+06-2.57606E+08 3.36841E-03
 -1      1920 2.34129E-02-2.34012E-04 2.36633E-03 6.92160E+06-2.65015E+08 1.93424E-03
 -1      1922 2.34129E-02-2.34012E-04 2.36633E-03 6.92160E+06-2.65015E+08 1.93424E-03
 -1      1923 2.56692E-02-1.99561E-04-1.21278E-03 6.16536E+06-2.71689E+08 1.67933E-03
 -1      1925 2.56692E-02-1.99561E-04-1.21278E-03 6.16536E+06-2.71689E+08 1.67933E-03
 -1      1926 2.56533E-02 4.33104E-04-1.11729E-02 5.41882E+06-2.77593E+08 4.67191E-03
 -1      1928 2.56533E-02 4.33104E-04-1.11729E-02 5.41882E+06-2.77593E+08 4.67191E-03
 -1      1929 2.16182E-02-2.72957E-04-2.27903E-02 4.65283E+06-2.82738E+08 6.14658E-03
 -1      1931 2.16182E-02-2.72957E-04-2.27903E-02 4.65283E+06-2.82738E+08 6.14658E-03
 -1      1932 1.45742E-02-5.89161E-04-2.77971E-02 3.87705E+06-2.87089E+08 4.34341E-03
 -1      1934 1.45742E-02-5.89161E-04-2.77971E-02 3.87705E+06-2.87089E+08 4.34341E-03
 -1      1935 9.48826E-03 7.67642E-05-2.74955E-02 3.12287E+06-2.90666E+08 1.72637E-03
 -1      1937 9.48826E-03 7.67642E-05-2.74955E-02 3.12287E+06-2.90666E+08 1.72637E-03
 -1      1938 7.25309E-03 2.17069E-04-2.71533E-02 2.29542E+06-2.93416E+08 9.32218E-04
 -1      1940 7.25309E-03 2.17069E-04-2.71533E-02 2.29542E+06-2.93416E+08 9.32218E-04
 -1      1941 6.41111E-03-2.90965E-04-2.38178E-02 1.62505E+06-2.95405E+08-2.97321E-05
 -1      1943 6.41111E-03-2.90965E-04-2.38178E-02 1.62505E+06-2.95405E+08-2.97321E-05
 -1      1944 4.59245E-03-7.61623E-04-1.38925E-02 6.31399E+05-2.96420E+08-1.16898E-03
 -1      1946 4.59245E-03-7.61623E-04-1.38925E-02 6.31399E+05-2.96420E+08-1.16898E-03
 -1      1947 8.42827E-03 6.42263E-05-9.03926E-03-4.03579E-05-2.36417E+07 1.66523E-02
 -1      1949 8.42827E-03 6.42263E-05-9.03926E-03-4.03579E-05-2.36417E+07 1.66523E-02
 -1      1950 1.03580E-02 6.35398E-05-9.20736E-03-3.47409E-04-3.47446E+07 1.85445E-02
 -1      1952 1.03580E-02 6.35398E-05-9.20736E-03-3.47409E-04-3.47446E+07 1.85445E-02
 -1      1953 8.98344E-03-1.53957E-04 1.61843E-03-2.87020E-04-4.91924E+07 1.76131E-02
 -1      1955 8.98344E-03-1.53957E-04 1.61843E-03-2.87020E-04-4.91924E+07 1.76131E-02
 -1      1956 7.36100E-03-1.33172E-04 1.37831E-02 2.19557E-04-6.63184E+07 1.51469E-02
 -1      1958 7.36100E-03-1.33172E-04 1.37831E-02 2.19557E-04-6.63184E+07 1.51469E-02
 -1      1959 5.15969E-03-2.54425E-04 1.65850E-02 8.04933E-05-8.09556E+07 1.42876E-02
 -1      1961 5.15969E-03-2.54425E-04 1.65850E-02 8.04933E-05-8.09556E+07 1.42876E-02
 -1      1962 5.01384E-03-3.55876E-04 8.61671E-03 1.49012E-04-9.75580E+07 1.12017E-02
 -1      1964 5.01384E-03-3.55876E-04 8.61671E-03 1.49012E-04-9.75580E+07 1.12017E-02
 -1      1965 7.83504E-03-5.80207E-05-3.44390E-03 4.40866E-04-1.12728E+08 4.90545E-03
 -1      1967 7.83504E-03-5.80207E-05-3.44390E-03 4.40866E-04-1.12728E+08 4.90545E-03
 -1      1968 7.85621E-03-6.41758E-05-8.20613E-03 1.82353E-04-1.28315E+08 2.24936E-03
 -1      1970 7.85621E-03-6.41758E-05-8.20613E-03 1.82353E-04-1.28315E+08 2.24936E-03
 -1      1971 3.63915E-03-3.63714E-04-2.03965E-03 3.60776E-05-1.43349E+08 6.57075E-03
 -1      1973 3.63915E-03-3.63714E-04-2.03965E-03 3.60776E-05-1.43349E+08 6.57075E-03
 -1      1974-8.64548E-04-2.32108E-04 1.98020E-03 2.61944E-04-1.58024E+08 1.22120E-02
 -1      1976-8.64548E-04-2.32108E-04 1.98020E-03 2.61944E-04-1.58024E+08 1.22120E-02
 -1      1977-3.06826E-03 3.31696E-04-5.86789E-03 9.19141E-05-1.72413E+08 1.06123E-02
 -1      1979-3.06826E-03 3.31696E-04-5.86789E-03 9.19141E-05-1.72413E+08 1.06123E-02
 -1      1980-2.84991E-03 5.68392E-07-1.83780E-02 3.85590E-04-1.86153E+08 3.52838E-03
 -1      1982-2.84991E-03 5.68392E-07-1.83780E-02 3.85590E-04-1.86153E+08 3.52838E-03
 -1      1983-2.56486E-03-3.16902E-04-2.53995E-02 2.49749E-04-1.99578E+08-2.63676E-03
 -1      1985-2.56486E-03-3.16902E-04-2.53995E-02 2.49749E-04-1.99578E+08-2.63676E-03
 -1      1986-3.35107E-03-1.09757E-04-2.60022E-02-2.35423E-04-2.12262E+08-7.89000E-03
 -1      1988-3.35107E-03-1.09757E-04-2.60022E-02-2.35423E-04-2.12262E+08-7.89000E-03
 -1      1989-1.93773E-03 3.22324E-05-2.56576E-02-4.38001E-06-2.24510E+08-1.24232E-02
 -1      1991-1.93773E-03 3.22324E-05-2.56576E-02-4.38001E-06-2.24510E+08-1.24232E-02
 -1      1992 2.00053E-03 4.53163E-04-2.70919E-02-2.80924E-05-2.35985E+08-1.28157E-02
 -1      1994 2.00053E-03 4.53163E-04-2.70919E-02-2.80924E-05-2.35985E+08-1.28157E-02
 -1      1995 2.45694E-03 5.01317E-04-2.59137E-02-1.11283E-04-2.46899E+08-8.62667E-03
 -1      1997 2.45694E-03 5.01317E-04-2.59137E-02-1.11283E-04-2.46899E+08-8.62667E-03
 -1      1998-2.40277E-03-3.53389E-04-1.74338E-02 1.21932E-04-2.57020E+08-2.67860E-03
 -1      2000-2.40277E-03-3.53389E-04-1.74338E-02 1.21932E-04-2.57020E+08-2.67860E-03
 -1      2001-4.38453E-03-3.63040E-04-3.71908E-03 2.17663E-04-2.66478E+08 2.70846E-03
 -1      2003-4.38453E-03-3.63040E-04-3.71908E-03 2.17663E-04-2.66478E+08 2.70846E-03
 -1      2004 3.83623E-04 3.16212E-04 6.81966E-03-2.66249E-04-2.75127E+08 4.06857E-03
 -1      2006 3.83623E-04 3.16212E-04 6.81966E-03-2.66249E-04-2.75127E+08 4.06857E-03
 -1      2007 5.65088E-03-3.31022E-04 6.66827E-03-9.92361E-05-2.83036E+08 5.36648E-04
 -1      2009 5.65088E-03-3.31022E-04 6.66827E-03-9.92361E-05-2.83036E+08 5.36648E-04
 -1      2010 1.01018E-02-2.35921E-04-2.35962E-03 2.47910E-04-2.90125E+08-1.96057E-03
 -1      2012 1.01018E-02-2.35921E-04-2.35962E-03 2.47910E-04-2.90125E+08-1.96057E-03
 -1      2013 1.49593E-02 7.61847E-05-1.38091E-02 1.53844E-04-2.96414E+08 6.99155E-04
 -1      2015 1.49593E-02 7.61847E-05-1.38091E-02 1.53844E-04-2.96414E+08 6.99155E-04
 -1      2016 1.55869E-02-1.79490E-04-2.20199E-02-1.63336E-04-3.01885E+08 5.28808E-03
 -1      2018 1.55869E-02-1.79490E-04-2.20199E-02-1.63336E-04-3.01885E+08 5.28808E-03
 -1      2019 1.01580E-02-4.07161E-04-2.43040E-02 4.63505E-05-3.06509E+08 5.59751E-03
 -1      2021 1.01580E-02-4.07161E-04-2.43040E-02 4.63505E-05-3.06509E+08 5.59751E-03
 -1      2022 4.33643E-03 2.86950E-04-2.36874E-02 1.92742E-04-3.10334E+08 1.05182E-03
 -1      2024 4.33643E-03 2.86950E-04-2.36874E-02 1.92742E-04-3.10334E+08 1.05182E-03
 -1      2025 1.99523E-03 2.74879E-04-2.42465E-02 2.11092E-04-3.13274E+08-1.80248E-03
 -1      2027 1.99523E-03 2.74879E-04-2.42465E-02 2.11092E-04-3.13274E+08-1.80248E-03
 -1      2028 2.18129E-03-1.62419E-04-2.22176E-02 5.72361E-05-3.15455E+08-1.28956E-03
 -1      2030 2.18129E-03-1.62419E-04-2.22176E-02 5.72361E-05-3.15455E+08-1.28956E-03
 -1      2031 1.92767E-03-2.48815E-04-1.45248E-02-1.36856E-05-3.16793E+08-8.49267E-04
 -1      2033 1.92767E-03-2.48815E-04-1.45248E-02-1.36856E-05-3.16793E+08-8.49267E-04
 -1      2034 1.01304E-02-4.53921E-05-5.76385E-03-3.46846E+07-3.99798E+06 1.20280E-02
 -1      2036 1.01304E-02-4.53921E-05-5.76385E-03-3.46846E+07-3.99798E+06 1.20280E-02
 -1      2037 9.06342E-03-3.36904E-05-4.32683E-03-2.52276E+06-2.79416E+07 1.75607E-02
 -1      2039 9.06342E-03-3.36904E-05-4.32683E-03-2.52276E+06-2.79416E+07 1.75607E-02
 -1      2040 9.51512E-03 3.26618E-05 3.84600E-03-2.32779E+07-4.32526E+07 1.86431E-02
 -1      2042 9.51512E-03 3.26618E-05 3.84600E-03-2.32779E+07-4.32526E+07 1.86431E-02
 -1      2043 1.22027E-02 1.12993E-05 1.22208E-02-9.60968E+06-5.88099E+07 1.61604E-02
 -1      2045 1.22027E-02 1.12993E-05 1.22208E-02-9.60968E+06-5.88099E+07 1.61604E-02
 -1      2046 1.38520E-02-1.89673E-04 1.86196E-02-1.84284E+07-7.50216E+07 1.41820E-02
 -1      2048 1.38520E-02-1.89673E-04 1.86196E-02-1.84284E+07-7.50216E+07 1.41820E-02
 -1      2049 1.40287E-02-3.22643E-04 1.88306E-02-1.22871E+07-8.95552E+07 8.07251E-03
 -1      2051 1.40287E-02-3.22643E-04 1.88306E-02-1.22871E+07-8.95552E+07 8.07251E-03
 -1      2052 1.20489E-02 2.13902E-05 8.05287E-03-1.60398E+07-1.04985E+08-9.24187E-04
 -1      2054 1.20489E-02 2.13902E-05 8.05287E-03-1.60398E+07-1.04985E+08-9.24187E-04
 -1      2055 8.01944E-03 5.28622E-04-4.41162E-03-1.30758E+07-1.19245E+08-1.03535E-03
 -1      2057 8.01944E-03 5.28622E-04-4.41162E-03-1.30758E+07-1.19245E+08-1.03535E-03
 -1      2058 5.25617E-03 1.99937E-04-4.10930E-03-1.45640E+07-1.33755E+08 6.38016E-03
 -1      2060 5.25617E-03 1.99937E-04-4.10930E-03-1.45640E+07-1.33755E+08 6.38016E-03
 -1      2061 2.66496E-03 2.81286E-05 2.11592E-03-1.29591E+07-1.47508E+08 9.07517E-03
 -1      2063 2.66496E-03 2.81286E-05 2.11592E-03-1.29591E+07-1.47508E+08 9.07517E-03
 -1      2064-1.34263E-03 7.58162E-04-1.27589E-03-1.33810E+07-1.61083E+08 4.47977E-03
 -1      2066-1.34263E-03 7.58162E-04-1.27589E-03-1.33810E+07-1.61083E+08 4.47977E-03
 -1      2067-2.05884E-03 6.69005E-04-1.34049E-02-1.23481E+07-1.74058E+08-7.43906E-04
 -1      2069-2.05884E-03 6.69005E-04-1.34049E-02-1.23481E+07-1.74058E+08-7.43906E-04
 -1      2070 6.86889E-04-2.20196E-04-2.42877E-02-1.22382E+07-1.86624E+08-2.78845E-03
 -1      2072 6.86889E-04-2.20196E-04-2.42877E-02-1.22382E+07-1.86624E+08-2.78845E-03
 -1      2073 2.27144E-03-2.42667E-04-2.71716E-02-1.14301E+07-1.98607E+08-4.79493E-03
 -1      2075 2.27144E-03-2.42667E-04-2.71716E-02-1.14301E+07-1.98607E+08-4.79493E-03
 -1      2076 1.45106E-03 5.92075E-04-2.55483E-02-1.10369E+07-2.10049E+08-1.00865E-02
 -1      2078 1.45106E-03 5.92075E-04-2.55483E-02-1.10369E+07-2.10049E+08-1.00865E-02
 -1      2079-1.20766E-03 6.38320E-04-2.66471E-02-1.03013E+07-2.20876E+08-1.22767E-02
 -1      2081-1.20766E-03 6.38320E-04-2.66471E-02-1.03013E+07-2.20876E+08-1.22767E-02
 -1      2082-5.97503E-03-3.25696E-04-2.51733E-02-9.74727E+06-2.31074E+08-6.84244E-03
 -1      2084-5.97503E-03-3.25696E-04-2.51733E-02-9.74727E+06-2.31074E+08-6.84244E-03
 -1      2085-1.29558E-02-4.97714E-04-1.57552E-02-9.02078E+06-2.40613E+08-5.35645E-04
 -1      2087-1.29558E-02-4.97714E-04-1.57552E-02-9.02078E+06-2.40613E+08-5.35645E-04
 -1      2088-1.66746E-02-1.39163E-04-3.58353E-03-8.37058E+06-2.49460E+08 3.19287E-03
 -1      2090-1.66746E-02-1.39163E-04-3.58353E-03-8.37058E+06-2.49460E+08 3.19287E-03
 -1      2091-1.35494E-02-5.04935E-05 6.62957E-03-7.63089E+06-2.57606E+08 3.52461E-03
 -1      2093-1.35494E-02-5.04935E-05 6.62957E-03-7.63089E+06-2.57606E+08 3.52461E-03
 -1      2094-8.53141E-03-3.04498E-04 8.65990E-03-6.92160E+06-2.65015E+08-1.32129E-03
 -1      2096-8.53141E-03-3.04498E-04 8.65990E-03-6.92160E+06-2.65015E+08-1.32129E-03
 -1      2097-3.07945E-03-3.04236E-04-1.68513E-03-6.16536E+06-2.71689E+08-5.19770E-03
 -1      2099-3.07945E-03-3.04236E-04-1.68513E-03-6.16536E+06-2.71689E+08-5.19770E-03
 -1      2100 3.59940E-03 8.64463E-05-1.60152E-02-5.41882E+06-2.77593E+08-1.86806E-03
 -1      2102 3.59940E-03 8.64463E-05-1.60152E-02-5.41882E+06-2.77593E+08-1.86806E-03
 -1      2103 6.77091E-03 1.09577E-04-2.15662E-02-4.65283E+06-2.82738E+08 5.63130E-03
 -1      2105 6.77091E-03 1.09577E-04-2.15662E-02-4.65283E+06-2.82738E+08 5.63130E-03
 -1      2106 4.32460E-03-7.10408E-05-1.66507E-02-3.87705E+06-2.87089E+08 7.79041E-03
 -1      2108 4.32460E-03-7.10408E-05-1.66507E-02-3.87705E+06-2.87089E+08 7.79041E-03
 -1      2109 1.67296E-04 2.13721E-04-1.21463E-02-3.12287E+06-2.90666E+08 1.38393E-03
 -1      2111 1.67296E-04 2.13721E-04-1.21463E-02-3.12287E+06-2.90666E+08 1.38393E-03
 -1      2112-2.69534E-03 4.53225E-07-1.45643E-02-2.29542E+06-2.93416E+08-2.70384E-03
 -1      2114-2.69534E-03 4.53225E-07-1.45643E-02-2.29542E+06-2.93416E+08-2.70384E-03
 -1      2115-3.05925E-03-2.68576E-04-1.56212E-02-1.62505E+06-2.95405E+08-3.08702E-05
 -1      2117-3.05925E-03-2.68576E-04-1.56212E-02-1.62505E+06-2.95405E+08-3.08702E-05
 -1      2118-1.31837E-03-3.62505E-04-1.01812E-02-6.31399E+05-2.96420E+08 1.32500E-03
 -1      2120-1.31837E-03-3.62505E-04-1.01812E-02-6.31399E+05-2.96420E+08 1.32500E-03
 -1      2121-1.79762E+08 5.17048E+06 2.84644E+04-1.90641E+07 5.94589E+06 2.83125E+07
 -1      2123-1.79762E+08 5.17048E+06 2.84644E+04-1.90641E+07 5.94589E+06 2.83125E+07
 -1      2124-1.49859E+08-4.80724E+06-1.33812E+05-1.87655E+07-2.42316E+07-1.76543E+07
 -1      2126-1.49859E+08-4.80724E+06-1.33812E+05-1.87655E+07-2.42316E+07-1.76543E+07
 -1      2127-1.23846E+08 1.61426E+06 1.21156E+05-1.01595E+07-2.95461E+07 4.08068E+06
 -1      2129-1.23846E+08 1.61426E+06 1.21156E+05-1.01595E+07-2.95461E+07 4.08068E+06
 -1      2130-1.03934E+08 2.56983E+06-7.13963E+04-1.18096E+07-4.25437E+07-6.13462E+06
 -1      2132-1.03934E+08 2.56983E+06-7.13963E+04-1.18096E+07-4.25437E+07-6.13462E+06
 -1      2133-8.50876E+07 2.87558E+06 5.05285E+04-8.97592E+06-5.37502E+07-1.47916E+06
 -1      2135-8.50876E+07 2.87558E+06 5.05285E+04-8.97592E+06-5.37502E+07-1.47916E+06
 -1      2136-6.69068E+07 5.92515E+06 8.63634E+03-1.07779E+07-6.37693E+07-3.47015E+06
 -1      2138-6.69068E+07 5.92515E+06 8.63634E+03-1.07779E+07-6.37693E+07-3.47015E+06
 -1      2139-4.76129E+07 5.95299E+06 1.02633E+04-1.01276E+07-7.52963E+07-2.60242E+06
 -1      2141-4.76129E+07 5.95299E+06 1.02633E+04-1.01276E+07-7.52963E+07-2.60242E+06
 -1      2142-2.78342E+07 8.55137E+06 5.04500E+04-1.13841E+07-8.48717E+07-2.83613E+06
 -1      2144-2.78342E+07 8.55137E+06 5.04500E+04-1.13841E+07-8.48717E+07-2.83613E+06
 -1      2145-7.06980E+06 9.18236E+06 3.12362E+03-1.11277E+07-9.57158E+07-2.70354E+06
 -1      2147-7.06980E+06 9.18236E+06 3.12362E+03-1.11277E+07-9.57158E+07-2.70354E+06
 -1      2148 1.36924E+07 1.12168E+07 6.80146E+04-1.14588E+07-1.05052E+08-2.61189E+06
 -1      2150 1.36924E+07 1.12168E+07 6.80146E+04-1.14588E+07-1.05052E+08-2.61189E+06
 -1      2151 3.41540E+07 1.22052E+07 1.22148E+04-1.07476E+07-1.15081E+08-2.56943E+06
 -1      2153 3.41540E+07 1.22052E+07 1.22148E+04-1.07476E+07-1.15081E+08-2.56943E+06
 -1      2154 5.33283E+07 1.38440E+07 7.47832E+04-1.00368E+07-1.24006E+08-2.43477E+06
 -1      2156 5.33283E+07 1.38440E+07 7.47832E+04-1.00368E+07-1.24006E+08-2.43477E+06
 -1      2157 7.05960E+07 1.49104E+07 2.64240E+04-8.59241E+06-1.33194E+08-2.37000E+06
 -1      2159 7.05960E+07 1.49104E+07 2.64240E+04-8.59241E+06-1.33194E+08-2.37000E+06
 -1      2160 8.51499E+07 1.62302E+07 7.75562E+04-6.97305E+06-1.41523E+08-2.23392E+06
 -1      2162 8.51499E+07 1.62302E+07 7.75562E+04-6.97305E+06-1.41523E+08-2.23392E+06
 -1      2163 9.64272E+07 1.71939E+07 4.01796E+04-4.89892E+06-1.49835E+08-2.13924E+06
 -1      2165 9.64272E+07 1.71939E+07 4.01796E+04-4.89892E+06-1.49835E+08-2.13924E+06
 -1      2166 1.03940E+08 1.82084E+07 7.90127E+04-2.71116E+06-1.57416E+08-2.00214E+06
 -1      2168 1.03940E+08 1.82084E+07 7.90127E+04-2.71116E+06-1.57416E+08-2.00214E+06
 -1      2169 1.07422E+08 1.89685E+07 5.10901E+04-3.55429E+05-1.64799E+08-1.88521E+06
 -1      2171 1.07422E+08 1.89685E+07 5.10901E+04-3.55429E+05-1.64799E+08-1.88521E+06
 -1      2172 1.06801E+08 1.96814E+07 7.99580E+04 1.92988E+06-1.71515E+08-1.74476E+06
 -1      2174 1.06801E+08 1.96814E+07 7.99580E+04 1.92988E+06-1.71515E+08-1.74476E+06
 -1      2175 1.02220E+08 2.01988E+07 5.83952E+04 4.09989E+06-1.77915E+08-1.61284E+06
 -1      2177 1.02220E+08 2.01988E+07 5.83952E+04 4.09989E+06-1.77915E+08-1.61284E+06
 -1      2178 9.40476E+07 2.06318E+07 8.06152E+04 5.97769E+06-1.83673E+08-1.46877E+06
 -1      2180 9.40476E+07 2.06318E+07 8.06152E+04 5.97769E+06-1.83673E+08-1.46877E+06
 -1      2181 8.28395E+07 2.09174E+07 6.21204E+04 7.49289E+06-1.89040E+08-1.32742E+06
 -1      2183 8.28395E+07 2.09174E+07 6.21204E+04 7.49289E+06-1.89040E+08-1.32742E+06
 -1      2184 6.93476E+07 2.11228E+07 8.12515E+04 8.51881E+06-1.93766E+08-1.17996E+06
 -1      2186 6.93476E+07 2.11228E+07 8.12515E+04 8.51881E+06-1.93766E+08-1.17996E+06
 -1      2187 5.44658E+07 2.12149E+07 6.26553E+04 9.00281E+06-1.98060E+08-1.03518E+06
 -1      2189 5.44658E+07 2.12149E+07 6.26553E+04 9.00281E+06-1.98060E+08-1.03518E+06
 -1      2190 3.91996E+07 2.13033E+07 8.22796E+04 8.85890E+06-2.01700E+08-8.79855E+05
 -1      2192 3.91996E+07 2.13033E+07 8.22796E+04 8.85890E+06-2.01700E+08-8.79855E+05
 -1      2193 2.46863E+07 2.11858E+07 6.09619E+04 8.07844E+06-2.04887E+08-7.46866E+05
 -1      2195 2.46863E+07 2.11858E+07 6.09619E+04 8.07844E+06-2.04887E+08-7.46866E+05
 -1      2196 1.20317E+07 2.14461E+07 8.28958E+04 6.57823E+06-2.07404E+08-5.55878E+05
 -1      2198 1.20317E+07 2.14461E+07 8.28958E+04 6.57823E+06-2.07404E+08-5.55878E+05
 -1      2199 2.47954E+06 2.08388E+07 6.20418E+04 4.42402E+06-2.09438E+08-4.96020E+05
 -1      2201 2.47954E+06 2.08388E+07 6.20418E+04 4.42402E+06-2.09438E+08-4.96020E+05
 -1      2202-2.51392E+06 2.18855E+07 7.24594E+04 1.43412E+06-2.10840E+08-1.43821E+05
 -1      2204-2.51392E+06 2.18855E+07 7.24594E+04 1.43412E+06-2.10840E+08-1.43821E+05
 -1      2205-2.75041E+06 2.05861E+07 9.28420E+04-2.23579E+06-2.11557E+08-4.17703E+05
 -1      2207-2.75041E+06 2.05861E+07 9.28420E+04-2.23579E+06-2.11557E+08-4.17703E+05
 -1      2208 1.79762E+08-5.17048E+06-2.84644E+04-1.90641E+07 5.94589E+06-2.83125E+07
 -1      2210 1.79762E+08-5.17048E+06-2.84644E+04-1.90641E+07 5.94589E+06-2.83125E+07
 -1      2211 1.49859E+08 4.80724E+06 1.33812E+05-1.87655E+07-2.42316E+07 1.76543E+07
 -1      2213 1.49859E+08 4.80724E+06 1.33812E+05-1.87655E+07-2.42316E+07 1.76543E+07
 -1      2214 1.23846E+08-1.61426E+06-1.21156E+05-1.01595E+07-2.95461E+07-4.08068E+06
 -1      2216 1.23846E+08-1.61426E+06-1.21156E+05-1.01595E+07-2.95461E+07-4.08068E+06
 -1      2217 1.03934E+08-2.56983E+06 7.13963E+04-1.18096E+07-4.25437E+07 6.13462E+06
 -1      2219 1.03934E+08-2.56983E+06 7.13963E+04-1.18096E+07-4.25437E+07 6.13462E+06
 -1      2220 8.50876E+07-2.87558E+06-5.05285E+04-8.97592E+06-5.37502E+07 1.47916E+06
 -1      2222 8.50876E+07-2.87558E+06-5.05285E+04-8.97592E+06-5.37502E+07 1.47916E+06
 -1      2223 6.69068E+07-5.92515E+06-8.63634E+03-1.07779E+07-6.37693E+07 3.47015E+06
 -1      2225 6.69068E+07-5.92515E+06-8.63634E+03-1.07779E+07-6.37693E+07 3.47015E+06
 -1      2226 4.76129E+07-5.95299E+06-1.02633E+04-1.01276E+07-7.52963E+07 2.60242E+06
 -1      2228 4.76129E+07-5.95299E+06-1.02633E+04-1.01276E+07-7.52963E+07 2.60242E+06
 -1      2229 2.78342E+07-8.55137E+06-5.04500E+04-1.13841E+07-8.48717E+07 2.83613E+06
 -1      2231 2.78342E+07-8.55137E+06-5.04500E+04-1.13841E+07-8.48717E+07 2.83613E+06
 -1      2232 7.06980E+06-9.18236E+06-3.12362E+03-1.11277E+07-9.57158E+07 2.70354E+06
 -1      2234 7.06980E+06-9.18236E+06-3.12362E+03-1.11277E+07-9.57158E+07 2.70354E+06
 -1      2235-1.36924E+07-1.12168E+07-6.80146E+04-1.14588E+07-1.05052E+08 2.61189E+06
 -1      2237-1.36924E+07-1.12168E+07-6.80146E+04-1.14588E+07-1.05052E+08 2.61189E+06
 -1      2238-3.41540E+07-1.22052E+07-1.22148E+04-1.07476E+07-1.15081E+08 2.56943E+06
 -1      2240-3.41540E+07-1.22052E+07-1.22148E+04-1.07476E+07-1.15081E+08 2.56943E+06
 -1      2241-5.33283E+07-1.38440E+07-7.47832E+04-1.00368E+07-1.24006E+08 2.43477E+06
 -1      2243-5.33283E+07-1.38440E+07-7.47832E+04-1.00368E+07-1.24006E+08 2.43477E+06
 -1      2244-7.05960E+07-1.49104E+07-2.64240E+04-8.59241E+06-1.33194E+08 2.37000E+06
 -1      2246-7.05960E+07-1.49104E+07-2.64240E+04-8.59241E+06-1.33194E+08 2.37000E+06
 -1      2247-8.51499E+07-1.62302E+07-7.75562E+04-6.97305E+06-1.41523E+08 2.23392E+06
 -1      2249-8.51499E+07-1.62302E+07-7.75562E+04-6.97305E+06-1.41523E+08 2.23392E+06
 -1      2250-9.64272E+07-1.71939E+07-4.01796E+04-4.89892E+06-1.49835E+08 2.13924E+06
 -1      2252-9.64272E+07-1.71939E+07-4.01796E+04-4.89892E+06-1.49835E+08 2.13924E+06
 -1      2253-1.03940E+08-1.82084E+07-7.90127E+04-2.71116E+06-1.57416E+08 2.00214E+06
 -1      2255-1.03940E+08-1.82084E+07-7.90127E+04-2.71116E+06-1.57416E+08 2.00214E+06
 -1      2256-1.07422E+08-1.89685E+07-5.10901E+04-3.55429E+05-1.64799E+08 1.88521E+06
 -1      2258-1.07422E+08-1.89685E+07-5.10901E+04-3.55429E+05-1.64799E+08 1.88521E+06
 -1      2259-1.06801E+08-1.96814E+07-7.99580E+04 1.92988E+06-1.71515E+08 1.74476E+06
 -1      2261-1.06801E+08-1.96814E+07-7.99580E+04 1.92988E+06-1.71515E+08 1.74476E+06
 -1      2262-1.02220E+08-2.01988E+07-5.83952E+04 4.09989E+06-1.77915E+08 1.61284E+06
 -1      2264-1.02220E+08-2.01988E+07-5.83952E+04 4.09989E+06-1.77915E+08 1.61284E+06
 -1      2265-9.40476E+07-2.06318E+07-8.06152E+04 5.97769E+06-1.83673E+08 1.46877E+06
 -1      2267-9.40476E+07-2.06318E+07-8.06152E+04 5.97769E+06-1.83673E+08 1.46877E+06
 -1      2268-8.28395E+07-2.09174E+07-6.21204E+04 7.49289E+06-1.89040E+08 1.32742E+06
 -1      2270-8.28395E+07-2.09174E+07-6.21204E+04 7.49289E+06-1.89040E+08 1.32742E+06
 -1      2271-6.93476E+07-2.11228E+07-8.12515E+04 8.51881E+06-1.93766E+08 1.17996E+06
 -1      2273-6.93476E+07-2.11228E+07-8.12515E+04 8.51881E+06-1.93766E+08 1.17996E+06
 -1      2274-5.44658E+07-2.12149E+07-6.26553E+04 9.00281E+06-1.98060E+08 1.03518E+06
 -1      2276-5.44658E+07-2.12149E+07-6.26553E+04 9.00281E+06-1.98060E+08 1.03518E+06
 -1      2277-3.91996E+07-2.13033E+07-8.22796E+04 8.85890E+06-2.01700E+08 8.79855E+05
 -1      2279-3.91996E+07-2.13033E+07-8.22796E+04 8.85890E+06-2.01700E+08 8.79855E+05
 -1      2280-2.46863E+07-2.11858E+07-6.09619E+04 8.07844E+06-2.04887E+08 7.46866E+05
 -1      2282-2.46863E+07-2.11858E+07-6.09619E+04 8.07844E+06-2.04887E+08 7.46866E+05
 -1      2283-1.20317E+07-2.14461E+07-8.28958E+04 6.57823E+06-2.07404E+08 5.55878E+05
 -1      2285-1.20317E+07-2.14461E+07-8.28958E+04 6.57823E+06-2.07404E+08 5.55878E+05
 -1      2286-2.47954E+06-2.08388E+07-6.20418E+04 4.42402E+06-2.09438E+08 4.96020E+05
 -1      2288-2.47954E+06-2.08388E+07-6.20418E+04 4.42402E+06-2.09438E+08 4.96020E+05
 -1      2289 2.51392E+06-2.18855E+07-7.24594E+04 1.43412E+06-2.10840E+08 1.43821E+05
 -1      2291 2.51392E+06-2.18855E+07-7.24594E+04 1.43412E+06-2.10840E+08 1.43821E+05
 -1      2292 2.75041E+06-2.05861E+07-9.28420E+04-2.23579E+06-2.11557E+08 4.17703E+05
 -1      2294 2.75041E+06-2.05861E+07-9.28420E+04-2.23579E+06-2.11557E+08 4.17703E+05
 -3
    1PSTEP                        35           1           1          
    1PGM                1.000000E+00                                  
    1PGK                4.632248E+06                                  
    1PHID                         -1                                  
    1PSUBC                         0                                  
    1PMODE                         9                                  
  100CL  109 342.5437285         930                     2    9MODAL      1
 -4  FORC        4    1
 -5  F1          1    2    1    0
 -5  F2          1    2    2    0
 -5  F3          1    2    3    0
 -5  ALL         1    2    0    0    1ALL
 -1       404 4.42951E+05 6.00867E+04 2.78295E+05
 -1       406-3.36166E+05-7.70389E+04 2.78295E+05
 -1       407 2.63929E+01 3.32246E+03-4.73931E+04
 -1       409 2.63929E+01 3.32246E+03-4.73931E+04
 -1       410 2.24458E-06 1.87580E+06 1.37962E-07
 -1       412 1.81799E-06-1.90569E+06 4.16580E-08
 -1       413 1.36852E-06 3.91776E+04 2.96803E+06
 -1       415 1.55349E-06 3.91776E+04-2.96803E+06
 -1       424-2.90435E-06-6.54029E+04 1.11617E-06
 -1       426 2.76234E-06 1.78630E+04 9.70346E-07
 -1       427-1.59360E+05 4.06039E+05-1.22761E+05
 -1       429 1.59360E+05 4.06039E+05 1.22761E+05
 -1       438-2.63929E+01 3.32246E+03 4.73931E+04
 -1       440-2.63929E+01 3.32246E+03 4.73931E+04
 -1       441-4.42951E+05 6.00867E+04-2.78295E+05
 -1       443 3.36166E+05-7.70389E+04-2.78295E+05
 -1       444 1.59360E+05-4.06039E+05-1.22761E+05
 -1       446-1.59360E+05-4.06039E+05 1.22761E+05
 -1       447-3.09705E-06 6.54029E+04 4.77591E-07
 -1       449-1.28536E-06-1.78630E+04 2.60308E-07
 -1       458-3.90594E-09-3.91776E+04 2.96803E+06
 -1       460 1.67158E-07-3.91776E+04-2.96803E+06
 -1       461-3.01857E-06-1.87580E+06-6.86743E-07
 -1       463-3.09286E-06 1.90569E+06 9.20066E-07
 -1       472 4.42951E+05-6.00867E+04-2.78295E+05
 -1       474-3.36166E+05 7.70389E+04-2.78295E+05
 -1       475 2.63929E+01-3.32246E+03 4.73931E+04
 -1       477 2.63929E+01-3.32246E+03 4.73931E+04
 -1       478-2.63929E+01-3.32246E+03-4.73931E+04
 -1       480-2.63929E+01-3.32246E+03-4.73931E+04
 -1       481-4.42951E+05-6.00867E+04 2.78295E+05
 -1       483 3.36166E+05 7.70389E+04 2.78295E+05
 -1       484-7.48812E+01 9.53554E+01-4.40080E+03
 -1       486-7.48812E+01 9.53554E+01-4.40080E+03
 -1       487-1.40091E+02 2.67528E+02-9.38414E+03
 -1       489-1.40091E+02 2.67528E+02-9.38414E+03
 -1       490-1.93781E+02 5.25874E+02-1.44041E+04
 -1       492-1.93781E+02 5.25874E+02-1.44041E+04
 -1       493-2.38846E+02 8.54466E+02-1.93039E+04
 -1       495-2.38846E+02 8.54466E+02-1.93039E+04
 -1       496-2.76484E+02 1.24377E+03-2.41606E+04
 -1       498-2.76484E+02 1.24377E+03-2.41606E+04
 -1       499-3.06968E+02 1.68339E+03-2.89248E+04
 -1       501-3.06968E+02 1.68339E+03-2.89248E+04
 -1       502-3.30277E+02 2.16304E+03-3.36060E+04
 -1       504-3.30277E+02 2.16304E+03-3.36060E+04
 -1       505-3.46034E+02 2.67203E+03-3.81837E+04
 -1       507-3.46034E+02 2.67203E+03-3.81837E+04
 -1       508-3.53973E+02 3.19881E+03-4.26521E+04
 -1       510-3.53973E+02 3.19881E+03-4.26521E+04
 -1       511-3.53881E+02 3.73151E+03-4.69986E+04
 -1       513-3.53881E+02 3.73151E+03-4.69986E+04
 -1       514-3.45819E+02 4.25797E+03-5.12146E+04
 -1       516-3.45819E+02 4.25797E+03-5.12146E+04
 -1       517-3.30090E+02 4.76632E+03-5.52897E+04
 -1       519-3.30090E+02 4.76632E+03-5.52897E+04
 -1       520-3.07318E+02 5.24534E+03-5.92150E+04
 -1       522-3.07318E+02 5.24534E+03-5.92150E+04
 -1       523-2.78405E+02 5.68496E+03-6.29812E+04
 -1       525-2.78405E+02 5.68496E+03-6.29812E+04
 -1       526-2.44522E+02 6.07671E+03-6.65794E+04
 -1       528-2.44522E+02 6.07671E+03-6.65794E+04
 -1       529-2.07046E+02 6.41404E+03-7.00007E+04
 -1       531-2.07046E+02 6.41404E+03-7.00007E+04
 -1       532-1.67504E+02 6.69264E+03-7.32364E+04
 -1       534-1.67504E+02 6.69264E+03-7.32364E+04
 -1       535-1.27486E+02 6.91062E+03-7.62777E+04
 -1       537-1.27486E+02 6.91062E+03-7.62777E+04
 -1       538-8.85703E+01 7.06849E+03-7.91160E+04
 -1       540-8.85703E+01 7.06849E+03-7.91160E+04
 -1       541-5.22340E+01 7.16914E+03-8.17430E+04
 -1       543-5.22340E+01 7.16914E+03-8.17430E+04
 -1       544-1.97727E+01 7.21758E+03-8.41503E+04
 -1       546-1.97727E+01 7.21758E+03-8.41503E+04
 -1       547 7.77582E+00 7.22063E+03-8.63299E+04
 -1       549 7.77582E+00 7.22063E+03-8.63299E+04
 -1       550 2.96944E+01 7.18649E+03-8.82744E+04
 -1       552 2.96944E+01 7.18649E+03-8.82744E+04
 -1       553 4.56431E+01 7.12417E+03-8.99764E+04
 -1       555 4.56431E+01 7.12417E+03-8.99764E+04
 -1       556 5.56974E+01 7.04292E+03-9.14297E+04
 -1       558 5.56974E+01 7.04292E+03-9.14297E+04
 -1       559 6.03735E+01 6.95161E+03-9.26280E+04
 -1       561 6.03735E+01 6.95161E+03-9.26280E+04
 -1       562 6.06708E+01 6.85790E+03-9.35669E+04
 -1       564 6.06708E+01 6.85790E+03-9.35669E+04
 -1       565 5.80218E+01 6.76794E+03-9.42411E+04
 -1       567 5.80218E+01 6.76794E+03-9.42411E+04
 -1       568 5.44740E+01 6.68476E+03-9.46488E+04
 -1       570 5.44740E+01 6.68476E+03-9.46488E+04
 -1       571 3.51227E+01 6.64387E+03-6.17452E+04
 -1       573 3.51227E+01 6.64387E+03-6.17452E+04
 -1       574 7.99457E-06 7.74003E+03-1.62587E-06
 -1       576 8.06524E-06-9.65169E+04-1.09365E-06
 -1       577-6.24969E-06 4.60469E+04 8.18296E+04
 -1       579-6.25358E-06 4.60469E+04-8.18296E+04
 -1       588 5.27121E-06 4.02727E+05-7.00381E-06
 -1       590 5.27436E-06-3.16806E+05-6.05100E-06
 -1       591-7.78862E-06-3.93221E+04 5.64750E+05
 -1       593-7.75949E-06-3.93221E+04-5.64750E+05
 -1       602 3.45223E-06 5.24772E+05-1.05633E-06
 -1       604 3.31466E-06-5.78350E+05-1.60749E-06
 -1       605-7.52177E-06 3.26699E+04 8.65823E+05
 -1       607-7.47283E-06 3.26699E+04-8.65823E+05
 -1       616 6.57776E-06 7.66045E+05 4.80216E-06
 -1       618 6.47007E-06-7.37016E+05 4.09808E-06
 -1       619-5.54646E-06-6.18263E+03 1.17973E+06
 -1       621-5.42403E-06-6.18263E+03-1.17973E+06
 -1       630 8.73770E-06 9.36504E+05 7.41264E-06
 -1       632 8.78415E-06-9.76911E+05 7.96739E-06
 -1       633-5.46396E-06 3.11638E+04 1.50181E+06
 -1       635-5.43795E-06 3.11638E+04-1.50181E+06
 -1       644 7.04716E-06 1.14040E+06 2.33972E-06
 -1       646 7.13912E-06-1.14385E+06 3.41640E-06
 -1       647-6.72680E-06 1.54496E+04 1.79287E+06
 -1       649-6.69396E-06 1.54496E+04-1.79287E+06
 -1       658 1.40307E-06 1.31857E+06-6.16895E-06
 -1       660 1.51030E-06-1.35810E+06-4.78127E-06
 -1       661-6.65040E-06 3.63540E+04 2.10088E+06
 -1       663-6.55823E-06 3.63540E+04-2.10088E+06
 -1       672-3.46659E-06 1.50734E+06-6.51608E-06
 -1       674-3.39366E-06-1.53193E+06-3.93042E-06
 -1       675-4.65260E-06 3.18165E+04 2.38548E+06
 -1       677-4.49516E-06 3.18165E+04-2.38548E+06
 -1       686-1.34528E-06 1.68210E+06-3.50548E-07
 -1       688-1.39928E-06-1.72670E+06 2.96148E-06
 -1       689-3.72679E-06 4.47827E+04 2.67551E+06
 -1       691-3.57351E-06 4.47827E+04-2.67551E+06
 -1       700 3.53056E-06 1.85903E+06 2.37847E-06
 -1       702 3.53196E-06-1.89919E+06 2.84122E-06
 -1       703-4.51870E-06 4.55021E+04 2.94976E+06
 -1       705-4.45852E-06 4.55021E+04-2.94976E+06
 -1       714 4.54963E-06 2.02587E+06-4.74305E-06
 -1       716 4.55759E-06-2.07812E+06-1.00871E-06
 -1       717-4.56853E-06 5.44322E+04 3.22115E+06
 -1       719-4.65243E-06 5.44322E+04-3.22115E+06
 -1       728 2.65472E-06 2.19053E+06-8.81911E-06
 -1       730 2.60546E-06-2.24311E+06-6.07559E-06
 -1       731-2.33914E-06 5.73854E+04 3.47989E+06
 -1       733-2.65308E-06 5.73854E+04-3.47989E+06
 -1       742 6.86020E-07 2.34658E+06-6.47819E-06
 -1       744 7.30333E-07-2.40712E+06-6.71181E-06
 -1       745 2.07929E-06 6.40132E+04 3.73110E+06
 -1       747 1.86017E-06 6.40132E+04-3.73110E+06
 -1       756-2.43753E-06 2.49777E+06-4.29209E-06
 -1       758-2.35987E-06-2.56053E+06-5.60845E-06
 -1       759 4.80049E-06 6.76048E+04 3.97018E+06
 -1       761 4.67369E-06 6.76048E+04-3.97018E+06
 -1       770-5.76346E-06 2.64076E+06-3.75037E-06
 -1       772-5.87189E-06-2.70907E+06-5.35785E-06
 -1       773 6.51271E-06 7.26583E+04 4.19899E+06
 -1       775 6.15899E-06 7.26583E+04-4.19899E+06
 -1       784-4.92298E-06 2.77714E+06-5.53234E-06
 -1       786-4.85673E-06-2.84810E+06-4.67883E-06
 -1       787 8.38753E-06 7.60415E+04 4.41516E+06
 -1       789 8.03381E-06 7.60415E+04-4.41516E+06
 -1       798-4.68987E-06 2.90519E+06-2.68407E-06
 -1       800-4.45536E-06-2.98007E+06-4.11724E-06
 -1       801 7.22507E-06 7.98207E+04 4.61925E+06
 -1       803 7.20490E-06 7.98207E+04-4.61925E+06
 -1       812-7.81587E-06 3.02542E+06 2.70211E-06
 -1       814-7.81131E-06-3.10269E+06-1.62581E-06
 -1       815 2.30518E-06 8.25790E+04 4.80985E+06
 -1       817 2.51546E-06 8.25790E+04-4.80985E+06
 -1       826-7.47915E-06 3.13699E+06 2.92414E-06
 -1       828-7.55016E-06-3.21694E+06-6.07560E-07
 -1       829-1.35269E-06 8.52452E+04 4.98710E+06
 -1       831-1.68693E-06 8.52452E+04-4.98710E+06
 -1       840-4.28013E-06 3.23987E+06 1.32695E-06
 -1       842-4.30429E-06-3.32165E+06-2.56738E-06
 -1       843-2.60964E-06 8.72378E+04 5.15003E+06
 -1       845-2.55175E-06 8.72378E+04-5.15003E+06
 -1       854-2.87519E-06 3.33370E+06 6.65300E-07
 -1       856-2.83507E-06-3.41720E+06-9.94624E-07
 -1       857-1.26607E-06 8.89469E+04 5.29868E+06
 -1       859-1.10928E-06 8.89469E+04-5.29868E+06
 -1       868-1.61920E-06 3.41816E+06 2.76016E-06
 -1       870-1.85467E-06-3.50294E+06 2.25283E-06
 -1       871-6.92848E-07 9.02233E+04 5.43226E+06
 -1       873-9.22832E-07 9.02233E+04-5.43226E+06
 -1       882 9.59704E-08 3.49328E+06 1.59071E-06
 -1       884-3.71027E-08-3.57904E+06-1.69323E-06
 -1       885-1.19061E-06 9.11694E+04 5.55095E+06
 -1       887-1.24643E-06 9.11694E+04-5.55095E+06
 -1       896 3.29064E-06 3.55842E+06-4.88922E-06
 -1       898 3.21771E-06-3.64509E+06-5.45006E-06
 -1       899-4.95534E-08 9.19174E+04 5.65392E+06
 -1       901 2.15966E-08 9.19174E+04-5.65392E+06
 -1       910 4.10601E-06 3.61408E+06-4.17739E-06
 -1       912 4.23103E-06-3.70120E+06-6.76915E-06
 -1       913 1.51807E-07 9.23111E+04 5.74164E+06
 -1       915-1.43803E-07 9.23111E+04-5.74164E+06
 -1       924 2.01270E-06 3.65909E+06-2.66402E-06
 -1       926 2.13117E-06-3.74718E+06-5.87815E-06
 -1       927-4.73073E-07 9.28506E+04 5.81306E+06
 -1       929-4.56184E-07 9.28506E+04-5.81306E+06
 -1       938 8.49435E-07 3.69462E+06-5.70496E-06
 -1       940 1.23098E-06-3.78270E+06-4.50754E-06
 -1       941-4.10079E-07 9.28230E+04 5.86882E+06
 -1       943-5.28679E-07 9.28230E+04-5.86882E+06
 -1       952 1.50648E-07 3.71868E+06-4.50918E-06
 -1       954 8.62494E-08-3.80863E+06-3.82648E-06
 -1       955 2.08507E-07 9.36666E+04 5.90806E+06
 -1       957 1.70815E-07 9.36666E+04-5.90806E+06
 -1       966 2.55584E-06 3.73255E+06-1.75099E-06
 -1       968 2.08013E-06-3.82185E+06-2.13182E-06
 -1       969 1.38481E-06 9.32074E+04 5.92932E+06
 -1       971 1.92482E-06 9.32074E+04-5.92932E+06
 -1       980 4.02383E+05 6.74835E+04-1.65147E+04
 -1       982-2.99515E+05-2.80092E+04-1.65147E+04
 -1       983-3.51227E+01 6.64387E+03 6.17452E+04
 -1       985-3.51227E+01 6.64387E+03 6.17452E+04
 -1       986 7.48812E+01 9.53554E+01 4.40080E+03
 -1       988 7.48812E+01 9.53554E+01 4.40080E+03
 -1       989 1.40091E+02 2.67528E+02 9.38414E+03
 -1       991 1.40091E+02 2.67528E+02 9.38414E+03
 -1       992 1.93781E+02 5.25874E+02 1.44041E+04
 -1       994 1.93781E+02 5.25874E+02 1.44041E+04
 -1       995 2.38846E+02 8.54466E+02 1.93039E+04
 -1       997 2.38846E+02 8.54466E+02 1.93039E+04
 -1       998 2.76484E+02 1.24377E+03 2.41606E+04
 -1      1000 2.76484E+02 1.24377E+03 2.41606E+04
 -1      1001 3.06968E+02 1.68339E+03 2.89248E+04
 -1      1003 3.06968E+02 1.68339E+03 2.89248E+04
 -1      1004 3.30277E+02 2.16304E+03 3.36060E+04
 -1      1006 3.30277E+02 2.16304E+03 3.36060E+04
 -1      1007 3.46034E+02 2.67203E+03 3.81837E+04
 -1      1009 3.46034E+02 2.67203E+03 3.81837E+04
 -1      1010 3.53973E+02 3.19881E+03 4.26521E+04
 -1      1012 3.53973E+02 3.19881E+03 4.26521E+04
 -1      1013 3.53881E+02 3.73151E+03 4.69986E+04
 -1      1015 3.53881E+02 3.73151E+03 4.69986E+04
 -1      1016 3.45819E+02 4.25797E+03 5.12146E+04
 -1      1018 3.45819E+02 4.25797E+03 5.12146E+04
 -1      1019 3.30090E+02 4.76632E+03 5.52897E+04
 -1      1021 3.30090E+02 4.76632E+03 5.52897E+04
 -1      1022 3.07318E+02 5.24534E+03 5.92150E+04
 -1      1024 3.07318E+02 5.24534E+03 5.92150E+04
 -1      1025 2.78405E+02 5.68496E+03 6.29812E+04
 -1      1027 2.78405E+02 5.68496E+03 6.29812E+04
 -1      1028 2.44522E+02 6.07671E+03 6.65794E+04
 -1      1030 2.44522E+02 6.07671E+03 6.65794E+04
 -1      1031 2.07046E+02 6.41404E+03 7.00007E+04
 -1      1033 2.07046E+02 6.41404E+03 7.00007E+04
 -1      1034 1.67504E+02 6.69264E+03 7.32364E+04
 -1      1036 1.67504E+02 6.69264E+03 7.32364E+04
 -1      1037 1.27486E+02 6.91062E+03 7.62777E+04
 -1      1039 1.27486E+02 6.91062E+03 7.62777E+04
 -1      1040 8.85703E+01 7.06849E+03 7.91160E+04
 -1      1042 8.85703E+01 7.06849E+03 7.91160E+04
 -1      1043 5.22340E+01 7.16914E+03 8.17430E+04
 -1      1045 5.22340E+01 7.16914E+03 8.17430E+04
 -1      1046 1.97727E+01 7.21758E+03 8.41503E+04
 -1      1048 1.97727E+01 7.21758E+03 8.41503E+04
 -1      1049-7.77582E+00 7.22063E+03 8.63299E+04
 -1      1051-7.77582E+00 7.22063E+03 8.63299E+04
 -1      1052-2.96944E+01 7.18649E+03 8.82744E+04
 -1      1054-2.96944E+01 7.18649E+03 8.82744E+04
 -1      1055-4.56431E+01 7.12417E+03 8.99764E+04
 -1      1057-4.56431E+01 7.12417E+03 8.99764E+04
 -1      1058-5.56974E+01 7.04292E+03 9.14297E+04
 -1      1060-5.56974E+01 7.04292E+03 9.14297E+04
 -1      1061-6.03735E+01 6.95161E+03 9.26280E+04
 -1      1063-6.03735E+01 6.95161E+03 9.26280E+04
 -1      1064-6.06708E+01 6.85790E+03 9.35669E+04
 -1      1066-6.06708E+01 6.85790E+03 9.35669E+04
 -1      1067-5.80218E+01 6.76794E+03 9.42411E+04
 -1      1069-5.80218E+01 6.76794E+03 9.42411E+04
 -1      1070-5.44740E+01 6.68476E+03 9.46488E+04
 -1      1072-5.44740E+01 6.68476E+03 9.46488E+04
 -1      1073-4.02383E+05 6.74835E+04 1.65147E+04
 -1      1075 2.99515E+05-2.80092E+04 1.65147E+04
 -1      1076-7.11052E+05-9.02028E+05-4.62494E+04
 -1      1078 7.11052E+05-9.02028E+05 4.62494E+04
 -1      1079-3.35240E-08 1.27726E-06 1.53023E+05
 -1      1081-2.42993E-06 1.59610E-06-1.53023E+05
 -1      1082 7.11052E+05 9.02028E+05-4.62494E+04
 -1      1084-7.11052E+05 9.02028E+05 4.62494E+04
 -1      1085 4.40941E-06-4.60469E+04 8.18296E+04
 -1      1087 4.46519E-06-4.60469E+04-8.18296E+04
 -1      1088 1.18765E-06-7.74003E+03 6.86808E-07
 -1      1090 1.25491E-06 9.65169E+04 8.68588E-07
 -1      1099 6.10749E-06 3.93221E+04 5.64750E+05
 -1      1101 6.18173E-06 3.93221E+04-5.64750E+05
 -1      1102-2.74880E-06-4.02727E+05 1.92657E-07
 -1      1104-2.69724E-06 3.16806E+05 1.14123E-06
 -1      1113 6.06553E-06-3.26699E+04 8.65823E+05
 -1      1115 6.08698E-06-3.26699E+04-8.65823E+05
 -1      1116-6.91714E-06-5.24772E+05-2.34038E-07
 -1      1118-6.96978E-06 5.78350E+05 2.56070E-07
 -1      1127 5.96710E-06 6.18263E+03 1.17973E+06
 -1      1129 5.89729E-06 6.18263E+03-1.17973E+06
 -1      1130-6.22000E-06-7.66045E+05-1.93502E-07
 -1      1132-6.25285E-06 7.37016E+05-2.71519E-07
 -1      1141 5.65993E-06-3.11638E+04 1.50181E+06
 -1      1143 5.56610E-06-3.11638E+04-1.50181E+06
 -1      1144-4.09279E-06-9.36504E+05-4.21594E-06
 -1      1146-4.19487E-06 9.76911E+05-4.12783E-06
 -1      1155 4.62279E-06-1.54496E+04 1.79287E+06
 -1      1157 4.49396E-06-1.54496E+04-1.79287E+06
 -1      1158-1.50275E-07-1.14040E+06-7.53827E-06
 -1      1160-2.56370E-07 1.14385E+06-7.32226E-06
 -1      1169 1.88750E-06-3.63540E+04 2.10088E+06
 -1      1171 1.77102E-06-3.63540E+04-2.10088E+06
 -1      1172 3.14091E-06-1.31857E+06-5.21354E-06
 -1      1174 3.04280E-06 1.35810E+06-4.03752E-06
 -1      1183-1.34041E-07-3.18165E+04 2.38548E+06
 -1      1185-3.14467E-07-3.18165E+04-2.38548E+06
 -1      1186 6.90366E-07-1.50734E+06 1.53336E-07
 -1      1188 6.78637E-07 1.53193E+06-1.25270E-06
 -1      1197 1.14229E-06-4.47827E+04 2.67551E+06
 -1      1199 1.18067E-06-4.47827E+04-2.67551E+06
 -1      1200-1.63777E-06-1.68210E+06 3.02287E-08
 -1      1202-1.57249E-06 1.72670E+06-1.04685E-06
 -1      1211 3.41300E-06-4.55021E+04 2.94976E+06
 -1      1213 3.65129E-06-4.55021E+04-2.94976E+06
 -1      1214 1.01631E-06-1.85903E+06-2.95813E-06
 -1      1216 1.02879E-06 1.89919E+06-1.22537E-06
 -1      1225 2.12733E-06-5.44322E+04 3.22115E+06
 -1      1227 1.93764E-06-5.44322E+04-3.22115E+06
 -1      1228 1.19497E-06-2.02587E+06-7.41868E-07
 -1      1230 1.20698E-06 2.07812E+06 9.57382E-07
 -1      1239-1.27636E-06-5.73854E+04 3.47989E+06
 -1      1241-1.86005E-06-5.73854E+04-3.47989E+06
 -1      1242-2.35663E-06-2.19053E+06 4.00086E-06
 -1      1244-2.34842E-06 2.24311E+06 5.64363E-06
 -1      1253-2.38119E-06-6.40132E+04 3.73110E+06
 -1      1255-2.25844E-06-6.40132E+04-3.73110E+06
 -1      1256-3.18763E-06-2.34658E+06 7.89732E-06
 -1      1258-3.25316E-06 2.40712E+06 8.00713E-06
 -1      1267-2.35263E-06-6.76048E+04 3.97018E+06
 -1      1269-2.15154E-06-6.76048E+04-3.97018E+06
 -1      1270 1.85816E-07-2.49777E+06 7.99402E-06
 -1      1272 3.10998E-07 2.56053E+06 7.45350E-06
 -1      1281-2.88174E-06-7.26583E+04 4.19899E+06
 -1      1283-3.00584E-06-7.26583E+04-4.19899E+06
 -1      1284 5.52763E-06-2.64076E+06 4.41063E-06
 -1      1286 5.49182E-06 2.70907E+06 6.15318E-06
 -1      1295-3.51265E-06-7.60415E+04 4.41516E+06
 -1      1297-3.37465E-06-7.60415E+04-4.41516E+06
 -1      1298 9.39361E-06-2.77714E+06 5.50320E-06
 -1      1300 9.26791E-06 2.84810E+06 6.04223E-06
 -1      1309-1.58518E-06-7.98207E+04 4.61925E+06
 -1      1311-1.72505E-06-7.98207E+04-4.61925E+06
 -1      1312 8.82628E-06-2.90519E+06 6.71077E-06
 -1      1314 8.78129E-06 2.98007E+06 7.63627E-06
 -1      1323 1.07878E-06-8.25790E+04 4.80985E+06
 -1      1325 8.04816E-07-8.25790E+04-4.80985E+06
 -1      1326 4.71736E-06-3.02542E+06 5.21172E-06
 -1      1328 4.70615E-06 3.10269E+06 7.09808E-06
 -1      1337 7.28139E-07-8.52452E+04 4.98710E+06
 -1      1339 8.87645E-07-8.52452E+04-4.98710E+06
 -1      1340-1.17453E-06-3.13699E+06 4.41399E-06
 -1      1342-1.27340E-06 3.21694E+06 5.02787E-06
 -1      1351-2.31515E-07-8.72378E+04 5.15003E+06
 -1      1353-1.23237E-07-8.72378E+04-5.15003E+06
 -1      1354-3.70823E-06-3.23987E+06 1.85228E-07
 -1      1356-3.75804E-06 3.32165E+06 6.63163E-07
 -1      1365-1.16980E-06-8.89469E+04 5.29868E+06
 -1      1367-1.42981E-06-8.89469E+04-5.29868E+06
 -1      1368-3.36375E-06-3.33370E+06-2.98999E-06
 -1      1370-3.51971E-06 3.41720E+06-3.07834E-06
 -1      1379-2.54580E-06-9.02233E+04 5.43226E+06
 -1      1381-2.61128E-06-9.02233E+04-5.43226E+06
 -1      1382-5.01310E-06-3.41816E+06-2.00281E-06
 -1      1384-5.07274E-06 3.50294E+06 1.70374E-07
 -1      1393-1.58785E-06-9.11694E+04 5.55095E+06
 -1      1395-1.75873E-06-9.11694E+04-5.55095E+06
 -1      1396-5.33086E-06-3.49328E+06 5.08813E-06
 -1      1398-5.60464E-06 3.57904E+06 4.89293E-06
 -1      1407 2.17964E-06-9.19174E+04 5.65392E+06
 -1      1409 2.07989E-06-9.19174E+04-5.65392E+06
 -1      1410-3.92412E-06-3.55842E+06 8.65308E-06
 -1      1412-4.08258E-06 3.64509E+06 9.44317E-06
 -1      1421 3.89040E-06-9.23111E+04 5.74164E+06
 -1      1423 3.84224E-06-9.23111E+04-5.74164E+06
 -1      1424-2.95836E-06-3.61408E+06 4.91029E-06
 -1      1426-2.69339E-06 3.70120E+06 6.16584E-06
 -1      1435 1.62725E-06-9.28506E+04 5.81306E+06
 -1      1437 1.56745E-06-9.28506E+04-5.81306E+06
 -1      1438-1.27475E-06-3.65909E+06-1.68400E-06
 -1      1440-1.22181E-06 3.74718E+06 1.61071E-06
 -1      1449 5.31892E-07-9.28230E+04 5.86882E+06
 -1      1451 3.16163E-07-9.28230E+04-5.86882E+06
 -1      1452-1.30085E-06-3.69462E+06 1.38582E-06
 -1      1454-1.33075E-06 3.78270E+06-4.16363E-07
 -1      1463 6.35542E-07-9.36666E+04 5.90806E+06
 -1      1465 8.13958E-07-9.36666E+04-5.90806E+06
 -1      1466-3.63635E-06-3.71868E+06 3.88061E-06
 -1      1468-3.67769E-06 3.80863E+06 2.68135E-06
 -1      1477 2.35340E-07-9.32074E+04 5.92932E+06
 -1      1479 5.55106E-07-9.32074E+04-5.92932E+06
 -1      1480-5.47640E-06-3.73255E+06-6.43870E-07
 -1      1482-5.68278E-06 3.82185E+06 3.33029E-06
 -1      1491 6.19337E-07 3.28359E+04-1.78610E-07
 -1      1493 8.72644E-07 3.28359E+04 1.26236E-06
 -1      1494 5.15114E-07 1.04762E-05-1.21575E-06
 -1      1496 1.39092E-06-7.14013E-07 7.28798E-07
 -1      1497-1.30004E-06-3.28359E+04-8.57687E-07
 -1      1499-5.30525E-07-3.28359E+04-6.16427E-07
 -1      1500-7.48812E+01-9.53554E+01 4.40080E+03
 -1      1502-7.48812E+01-9.53554E+01 4.40080E+03
 -1      1503-1.40091E+02-2.67528E+02 9.38414E+03
 -1      1505-1.40091E+02-2.67528E+02 9.38414E+03
 -1      1506-1.93781E+02-5.25874E+02 1.44041E+04
 -1      1508-1.93781E+02-5.25874E+02 1.44041E+04
 -1      1509-2.38846E+02-8.54466E+02 1.93039E+04
 -1      1511-2.38846E+02-8.54466E+02 1.93039E+04
 -1      1512-2.76484E+02-1.24377E+03 2.41606E+04
 -1      1514-2.76484E+02-1.24377E+03 2.41606E+04
 -1      1515-3.06968E+02-1.68339E+03 2.89248E+04
 -1      1517-3.06968E+02-1.68339E+03 2.89248E+04
 -1      1518-3.30277E+02-2.16304E+03 3.36060E+04
 -1      1520-3.30277E+02-2.16304E+03 3.36060E+04
 -1      1521-3.46034E+02-2.67203E+03 3.81837E+04
 -1      1523-3.46034E+02-2.67203E+03 3.81837E+04
 -1      1524-3.53973E+02-3.19881E+03 4.26521E+04
 -1      1526-3.53973E+02-3.19881E+03 4.26521E+04
 -1      1527-3.53881E+02-3.73151E+03 4.69986E+04
 -1      1529-3.53881E+02-3.73151E+03 4.69986E+04
 -1      1530-3.45819E+02-4.25797E+03 5.12146E+04
 -1      1532-3.45819E+02-4.25797E+03 5.12146E+04
 -1      1533-3.30090E+02-4.76632E+03 5.52897E+04
 -1      1535-3.30090E+02-4.76632E+03 5.52897E+04
 -1      1536-3.07318E+02-5.24534E+03 5.92150E+04
 -1      1538-3.07318E+02-5.24534E+03 5.92150E+04
 -1      1539-2.78405E+02-5.68496E+03 6.29812E+04
 -1      1541-2.78405E+02-5.68496E+03 6.29812E+04
 -1      1542-2.44522E+02-6.07671E+03 6.65794E+04
 -1      1544-2.44522E+02-6.07671E+03 6.65794E+04
 -1      1545-2.07046E+02-6.41404E+03 7.00007E+04
 -1      1547-2.07046E+02-6.41404E+03 7.00007E+04
 -1      1548-1.67504E+02-6.69264E+03 7.32364E+04
 -1      1550-1.67504E+02-6.69264E+03 7.32364E+04
 -1      1551-1.27486E+02-6.91062E+03 7.62777E+04
 -1      1553-1.27486E+02-6.91062E+03 7.62777E+04
 -1      1554-8.85703E+01-7.06849E+03 7.91160E+04
 -1      1556-8.85703E+01-7.06849E+03 7.91160E+04
 -1      1557-5.22340E+01-7.16914E+03 8.17430E+04
 -1      1559-5.22340E+01-7.16914E+03 8.17430E+04
 -1      1560-1.97727E+01-7.21758E+03 8.41503E+04
 -1      1562-1.97727E+01-7.21758E+03 8.41503E+04
 -1      1563 7.77582E+00-7.22063E+03 8.63299E+04
 -1      1565 7.77582E+00-7.22063E+03 8.63299E+04
 -1      1566 2.96944E+01-7.18649E+03 8.82744E+04
 -1      1568 2.96944E+01-7.18649E+03 8.82744E+04
 -1      1569 4.56431E+01-7.12417E+03 8.99764E+04
 -1      1571 4.56431E+01-7.12417E+03 8.99764E+04
 -1      1572 5.56974E+01-7.04292E+03 9.14297E+04
 -1      1574 5.56974E+01-7.04292E+03 9.14297E+04
 -1      1575 6.03735E+01-6.95161E+03 9.26280E+04
 -1      1577 6.03735E+01-6.95161E+03 9.26280E+04
 -1      1578 6.06708E+01-6.85790E+03 9.35669E+04
 -1      1580 6.06708E+01-6.85790E+03 9.35669E+04
 -1      1581 5.80218E+01-6.76794E+03 9.42411E+04
 -1      1583 5.80218E+01-6.76794E+03 9.42411E+04
 -1      1584 5.44740E+01-6.68476E+03 9.46488E+04
 -1      1586 5.44740E+01-6.68476E+03 9.46488E+04
 -1      1587 3.51227E+01-6.64387E+03 6.17452E+04
 -1      1589 3.51227E+01-6.64387E+03 6.17452E+04
 -1      1590 4.02383E+05-6.74835E+04 1.65147E+04
 -1      1592-2.99515E+05 2.80092E+04 1.65147E+04
 -1      1593-3.51227E+01-6.64387E+03-6.17452E+04
 -1      1595-3.51227E+01-6.64387E+03-6.17452E+04
 -1      1596 7.48812E+01-9.53554E+01-4.40080E+03
 -1      1598 7.48812E+01-9.53554E+01-4.40080E+03
 -1      1599 1.40091E+02-2.67528E+02-9.38414E+03
 -1      1601 1.40091E+02-2.67528E+02-9.38414E+03
 -1      1602 1.93781E+02-5.25874E+02-1.44041E+04
 -1      1604 1.93781E+02-5.25874E+02-1.44041E+04
 -1      1605 2.38846E+02-8.54466E+02-1.93039E+04
 -1      1607 2.38846E+02-8.54466E+02-1.93039E+04
 -1      1608 2.76484E+02-1.24377E+03-2.41606E+04
 -1      1610 2.76484E+02-1.24377E+03-2.41606E+04
 -1      1611 3.06968E+02-1.68339E+03-2.89248E+04
 -1      1613 3.06968E+02-1.68339E+03-2.89248E+04
 -1      1614 3.30277E+02-2.16304E+03-3.36060E+04
 -1      1616 3.30277E+02-2.16304E+03-3.36060E+04
 -1      1617 3.46034E+02-2.67203E+03-3.81837E+04
 -1      1619 3.46034E+02-2.67203E+03-3.81837E+04
 -1      1620 3.53973E+02-3.19881E+03-4.26521E+04
 -1      1622 3.53973E+02-3.19881E+03-4.26521E+04
 -1      1623 3.53881E+02-3.73151E+03-4.69986E+04
 -1      1625 3.53881E+02-3.73151E+03-4.69986E+04
 -1      1626 3.45819E+02-4.25797E+03-5.12146E+04
 -1      1628 3.45819E+02-4.25797E+03-5.12146E+04
 -1      1629 3.30090E+02-4.76632E+03-5.52897E+04
 -1      1631 3.30090E+02-4.76632E+03-5.52897E+04
 -1      1632 3.07318E+02-5.24534E+03-5.92150E+04
 -1      1634 3.07318E+02-5.24534E+03-5.92150E+04
 -1      1635 2.78405E+02-5.68496E+03-6.29812E+04
 -1      1637 2.78405E+02-5.68496E+03-6.29812E+04
 -1      1638 2.44522E+02-6.07671E+03-6.65794E+04
 -1      1640 2.44522E+02-6.07671E+03-6.65794E+04
 -1      1641 2.07046E+02-6.41404E+03-7.00007E+04
 -1      1643 2.07046E+02-6.41404E+03-7.00007E+04
 -1      1644 1.67504E+02-6.69264E+03-7.32364E+04
 -1      1646 1.67504E+02-6.69264E+03-7.32364E+04
 -1      1647 1.27486E+02-6.91062E+03-7.62777E+04
 -1      1649 1.27486E+02-6.91062E+03-7.62777E+04
 -1      1650 8.85703E+01-7.06849E+03-7.91160E+04
 -1      1652 8.85703E+01-7.06849E+03-7.91160E+04
 -1      1653 5.22340E+01-7.16914E+03-8.17430E+04
 -1      1655 5.22340E+01-7.16914E+03-8.17430E+04
 -1      1656 1.97727E+01-7.21758E+03-8.41503E+04
 -1      1658 1.97727E+01-7.21758E+03-8.41503E+04
 -1      1659-7.77582E+00-7.22063E+03-8.63299E+04
 -1      1661-7.77582E+00-7.22063E+03-8.63299E+04
 -1      1662-2.96944E+01-7.18649E+03-8.82744E+04
 -1      1664-2.96944E+01-7.18649E+03-8.82744E+04
 -1      1665-4.56431E+01-7.12417E+03-8.99764E+04
 -1      1667-4.56431E+01-7.12417E+03-8.99764E+04
 -1      1668-5.56974E+01-7.04292E+03-9.14297E+04
 -1      1670-5.56974E+01-7.04292E+03-9.14297E+04
 -1      1671-6.03735E+01-6.95161E+03-9.26280E+04
 -1      1673-6.03735E+01-6.95161E+03-9.26280E+04
 -1      1674-6.06708E+01-6.85790E+03-9.35669E+04
 -1      1676-6.06708E+01-6.85790E+03-9.35669E+04
 -1      1677-5.80218E+01-6.76794E+03-9.42411E+04
 -1      1679-5.80218E+01-6.76794E+03-9.42411E+04
 -1      1680-5.44740E+01-6.68476E+03-9.46488E+04
 -1      1682-5.44740E+01-6.68476E+03-9.46488E+04
 -1      1683-4.02383E+05-6.74835E+04-1.65147E+04
 -1      1685 2.99515E+05 2.80092E+04-1.65147E+04
 -1      1686-9.94586E+01 1.83718E+02-5.71390E+03
 -1      1688-9.94586E+01 1.83718E+02-5.71390E+03
 -1      1689-1.86164E+02 5.30299E+02-1.22230E+04
 -1      1691-1.86164E+02 5.30299E+02-1.22230E+04
 -1      1692-2.57891E+02 1.04716E+03-1.87744E+04
 -1      1694-2.57891E+02 1.04716E+03-1.87744E+04
 -1      1695-3.18127E+02 1.70494E+03-2.51588E+04
 -1      1697-3.18127E+02 1.70494E+03-2.51588E+04
 -1      1698-3.68265E+02 2.48419E+03-3.14867E+04
 -1      1700-3.68265E+02 2.48419E+03-3.14867E+04
 -1      1701-4.08936E+02 3.36370E+03-3.76916E+04
 -1      1703-4.08936E+02 3.36370E+03-3.76916E+04
 -1      1704-4.39991E+02 4.32369E+03-4.37883E+04
 -1      1706-4.39991E+02 4.32369E+03-4.37883E+04
 -1      1707-4.60982E+02 5.34207E+03-4.97494E+04
 -1      1709-4.60982E+02 5.34207E+03-4.97494E+04
 -1      1710-4.71564E+02 6.39627E+03-5.55681E+04
 -1      1712-4.71564E+02 6.39627E+03-5.55681E+04
 -1      1713-4.71438E+02 7.46218E+03-6.12278E+04
 -1      1715-4.71438E+02 7.46218E+03-6.12278E+04
 -1      1716-4.60709E+02 8.51570E+03-6.67175E+04
 -1      1718-4.60709E+02 8.51570E+03-6.67175E+04
 -1      1719-4.39765E+02 9.53290E+03-7.20239E+04
 -1      1721-4.39765E+02 9.53290E+03-7.20239E+04
 -1      1722-4.09451E+02 1.04914E+04-7.71353E+04
 -1      1724-4.09451E+02 1.04914E+04-7.71353E+04
 -1      1725-3.70957E+02 1.13710E+04-8.20398E+04
 -1      1727-3.70957E+02 1.13710E+04-8.20398E+04
 -1      1728-3.25852E+02 1.21548E+04-8.67259E+04
 -1      1730-3.25852E+02 1.21548E+04-8.67259E+04
 -1      1731-2.75961E+02 1.28296E+04-9.11820E+04
 -1      1733-2.75961E+02 1.28296E+04-9.11820E+04
 -1      1734-2.23320E+02 1.33869E+04-9.53968E+04
 -1      1736-2.23320E+02 1.33869E+04-9.53968E+04
 -1      1737-1.70043E+02 1.38227E+04-9.93590E+04
 -1      1739-1.70043E+02 1.38227E+04-9.93590E+04
 -1      1740-1.18231E+02 1.41382E+04-1.03057E+05
 -1      1742-1.18231E+02 1.41382E+04-1.03057E+05
 -1      1743-6.98482E+01 1.43392E+04-1.06481E+05
 -1      1745-6.98482E+01 1.43392E+04-1.06481E+05
 -1      1746-2.66191E+01 1.44356E+04-1.09618E+05
 -1      1748-2.66191E+01 1.44356E+04-1.09618E+05
 -1      1749 1.00755E+01 1.44412E+04-1.12460E+05
 -1      1751 1.00755E+01 1.44412E+04-1.12460E+05
 -1      1752 3.92848E+01 1.43724E+04-1.14995E+05
 -1      1754 3.92848E+01 1.43724E+04-1.14995E+05
 -1      1755 6.05513E+01 1.42472E+04-1.17214E+05
 -1      1757 6.05513E+01 1.42472E+04-1.17214E+05
 -1      1758 7.39887E+01 1.40842E+04-1.19110E+05
 -1      1760 7.39887E+01 1.40842E+04-1.19110E+05
 -1      1761 8.02701E+01 1.39011E+04-1.20673E+05
 -1      1763 8.02701E+01 1.39011E+04-1.20673E+05
 -1      1764 8.07388E+01 1.37134E+04-1.21898E+05
 -1      1766 8.07388E+01 1.37134E+04-1.21898E+05
 -1      1767 7.73485E+01 1.35332E+04-1.22778E+05
 -1      1769 7.73485E+01 1.35332E+04-1.22778E+05
 -1      1770 7.26002E+01 1.33670E+04-1.23311E+05
 -1      1772 7.26002E+01 1.33670E+04-1.23311E+05
 -1      1773 9.94586E+01 1.83718E+02 5.71390E+03
 -1      1775 9.94586E+01 1.83718E+02 5.71390E+03
 -1      1776 1.86164E+02 5.30299E+02 1.22230E+04
 -1      1778 1.86164E+02 5.30299E+02 1.22230E+04
 -1      1779 2.57891E+02 1.04716E+03 1.87744E+04
 -1      1781 2.57891E+02 1.04716E+03 1.87744E+04
 -1      1782 3.18127E+02 1.70494E+03 2.51588E+04
 -1      1784 3.18127E+02 1.70494E+03 2.51588E+04
 -1      1785 3.68265E+02 2.48419E+03 3.14867E+04
 -1      1787 3.68265E+02 2.48419E+03 3.14867E+04
 -1      1788 4.08936E+02 3.36370E+03 3.76916E+04
 -1      1790 4.08936E+02 3.36370E+03 3.76916E+04
 -1      1791 4.39991E+02 4.32369E+03 4.37883E+04
 -1      1793 4.39991E+02 4.32369E+03 4.37883E+04
 -1      1794 4.60982E+02 5.34207E+03 4.97494E+04
 -1      1796 4.60982E+02 5.34207E+03 4.97494E+04
 -1      1797 4.71564E+02 6.39627E+03 5.55681E+04
 -1      1799 4.71564E+02 6.39627E+03 5.55681E+04
 -1      1800 4.71437E+02 7.46218E+03 6.12278E+04
 -1      1802 4.71437E+02 7.46218E+03 6.12278E+04
 -1      1803 4.60709E+02 8.51570E+03 6.67175E+04
 -1      1805 4.60709E+02 8.51570E+03 6.67175E+04
 -1      1806 4.39765E+02 9.53290E+03 7.20239E+04
 -1      1808 4.39765E+02 9.53290E+03 7.20239E+04
 -1      1809 4.09451E+02 1.04914E+04 7.71353E+04
 -1      1811 4.09451E+02 1.04914E+04 7.71353E+04
 -1      1812 3.70957E+02 1.13710E+04 8.20398E+04
 -1      1814 3.70957E+02 1.13710E+04 8.20398E+04
 -1      1815 3.25852E+02 1.21548E+04 8.67259E+04
 -1      1817 3.25852E+02 1.21548E+04 8.67259E+04
 -1      1818 2.75961E+02 1.28296E+04 9.11820E+04
 -1      1820 2.75961E+02 1.28296E+04 9.11820E+04
 -1      1821 2.23320E+02 1.33869E+04 9.53968E+04
 -1      1823 2.23320E+02 1.33869E+04 9.53968E+04
 -1      1824 1.70043E+02 1.38227E+04 9.93590E+04
 -1      1826 1.70043E+02 1.38227E+04 9.93590E+04
 -1      1827 1.18231E+02 1.41382E+04 1.03057E+05
 -1      1829 1.18231E+02 1.41382E+04 1.03057E+05
 -1      1830 6.98482E+01 1.43392E+04 1.06481E+05
 -1      1832 6.98482E+01 1.43392E+04 1.06481E+05
 -1      1833 2.66191E+01 1.44356E+04 1.09618E+05
 -1      1835 2.66191E+01 1.44356E+04 1.09618E+05
 -1      1836-1.00755E+01 1.44412E+04 1.12460E+05
 -1      1838-1.00755E+01 1.44412E+04 1.12460E+05
 -1      1839-3.92848E+01 1.43724E+04 1.14995E+05
 -1      1841-3.92848E+01 1.43724E+04 1.14995E+05
 -1      1842-6.05513E+01 1.42472E+04 1.17214E+05
 -1      1844-6.05513E+01 1.42472E+04 1.17214E+05
 -1      1845-7.39887E+01 1.40842E+04 1.19110E+05
 -1      1847-7.39887E+01 1.40842E+04 1.19110E+05
 -1      1848-8.02701E+01 1.39011E+04 1.20673E+05
 -1      1850-8.02701E+01 1.39011E+04 1.20673E+05
 -1      1851-8.07389E+01 1.37134E+04 1.21898E+05
 -1      1853-8.07388E+01 1.37134E+04 1.21898E+05
 -1      1854-7.73485E+01 1.35332E+04 1.22778E+05
 -1      1856-7.73485E+01 1.35332E+04 1.22778E+05
 -1      1857-7.26002E+01 1.33670E+04 1.23311E+05
 -1      1859-7.26002E+01 1.33670E+04 1.23311E+05
 -1      1860-7.45265E-07 2.90255E+03 9.83542E-07
 -1      1862-7.36389E-07 2.90255E+03 9.95806E-07
 -1      1863-1.54695E-06 6.03967E+03-1.82019E-07
 -1      1865-1.49971E-06 6.03967E+03-4.23981E-07
 -1      1866-1.52177E-06 9.30801E+03-4.53951E-07
 -1      1868-1.52151E-06 9.30801E+03-8.15035E-07
 -1      1869 1.78654E-06 1.26611E+04-8.71540E-07
 -1      1871 1.55441E-06 1.26611E+04-9.15181E-07
 -1      1872 4.00391E-06 1.60815E+04-3.86262E-07
 -1      1874 3.94508E-06 1.60815E+04-6.85086E-07
 -1      1875 2.99190E-06 1.95384E+04 8.93055E-07
 -1      1877 2.94688E-06 1.95384E+04 5.39079E-07
 -1      1878-1.20048E-07 2.30130E+04 1.78186E-06
 -1      1880 1.05839E-07 2.30130E+04 6.83678E-07
 -1      1881-1.97581E-06 2.64773E+04 1.98175E-06
 -1      1883-1.67549E-06 2.64773E+04 3.16344E-07
 -1      1884-2.61933E-07 2.99090E+04-2.36844E-06
 -1      1886-1.07457E-07 2.99090E+04-3.04709E-06
 -1      1887 1.93386E-06 3.32808E+04-3.77978E-06
 -1      1889 1.84464E-06 3.32808E+04-3.00196E-06
 -1      1890 1.13483E-06 3.65683E+04 6.97135E-07
 -1      1892 9.83301E-07 3.65683E+04 7.55772E-07
 -1      1893 6.96145E-07 3.97458E+04 3.60986E-06
 -1      1895 1.85262E-07 3.97458E+04 1.28755E-06
 -1      1896 1.33755E-06 4.27902E+04 4.92132E-06
 -1      1898 8.71881E-07 4.27902E+04 2.55492E-06
 -1      1899-6.49055E-07 4.56793E+04 4.12931E-06
 -1      1901-9.63122E-07 4.56793E+04 4.60731E-06
 -1      1902-3.58524E-06 4.83945E+04 1.70937E-06
 -1      1904-3.76967E-06 4.83945E+04 3.71911E-06
 -1      1905-2.94695E-06 5.09198E+04 5.40495E-07
 -1      1907-3.34934E-06 5.09198E+04 1.11772E-06
 -1      1908-1.98875E-06 5.32432E+04 3.31333E-07
 -1      1910-1.83056E-06 5.32432E+04 1.90692E-06
 -1      1911-2.98701E-06 5.53564E+04 1.26754E-06
 -1      1913-3.06949E-06 5.53564E+04 2.19338E-06
 -1      1914-5.78904E-06 5.72553E+04-2.05662E-06
 -1      1916-5.72422E-06 5.72553E+04-2.24653E-06
 -1      1917-5.50034E-06 5.89396E+04-3.87398E-06
 -1      1919-5.03674E-06 5.89396E+04-3.19071E-06
 -1      1920-1.92344E-06 6.04125E+04-7.27456E-07
 -1      1922-1.98955E-06 6.04125E+04-1.35298E-06
 -1      1923 2.58364E-07 6.16805E+04 1.00868E-06
 -1      1925 1.24243E-07 6.16805E+04 1.16867E-06
 -1      1926 1.13125E-06 6.27523E+04 1.36638E-06
 -1      1928 1.32673E-06 6.27523E+04-6.80800E-07
 -1      1929 2.45039E-06 6.36385E+04 5.25529E-07
 -1      1931 2.62243E-06 6.36385E+04 1.11738E-07
 -1      1932 2.24713E-06 6.43503E+04 3.56666E-06
 -1      1934 2.35934E-06 6.43503E+04 2.20498E-06
 -1      1935 1.72738E-06 6.48986E+04 3.70180E-06
 -1      1937 1.39432E-06 6.48986E+04 1.53761E-06
 -1      1938 1.82333E-06 6.52938E+04 1.58713E-06
 -1      1940 1.14163E-06 6.52938E+04 2.13151E-06
 -1      1941 4.54034E-07 6.55431E+04 1.93191E-06
 -1      1943 4.57537E-07 6.55431E+04 2.43934E-06
 -1      1944 7.93911E-07 6.56518E+04 1.18281E-06
 -1      1946 1.27378E-06 6.56518E+04 2.07795E-06
 -1      1947-1.88444E-06 2.46743E-06-2.22707E-06
 -1      1949-1.77167E-06 3.58186E-06-2.21578E-06
 -1      1950-4.75855E-07 6.02302E-07-4.13713E-06
 -1      1952-3.43454E-07 1.70319E-06-4.40277E-06
 -1      1953-2.53280E-07-2.00117E-06-5.46042E-07
 -1      1955-3.40118E-07-5.12746E-06-1.19143E-06
 -1      1956 1.82082E-07-2.19508E-06 1.61356E-06
 -1      1958 3.92183E-08-5.22412E-06 6.79160E-07
 -1      1959 1.57668E-06 4.20650E-07-2.62582E-07
 -1      1961 1.42914E-06-4.12714E-06-1.28576E-06
 -1      1962 1.28342E-06 7.31347E-07-1.64368E-06
 -1      1964 1.18600E-06-5.83628E-06-2.40507E-06
 -1      1965 2.25916E-06 1.78051E-06-3.07686E-06
 -1      1967 2.22313E-06 9.46691E-07-3.86081E-06
 -1      1968 3.49221E-06 3.01466E-06-1.44288E-06
 -1      1970 3.55460E-06 1.67449E-06-2.02339E-06
 -1      1971 2.19584E-06 4.47513E-06-4.59717E-07
 -1      1973 2.77431E-06-1.57994E-06-4.93830E-07
 -1      1974 2.62151E-06 4.19495E-06-1.24572E-06
 -1      1976 2.68217E-06-3.03705E-07-6.87796E-07
 -1      1977 3.15549E-06-3.22529E-06-6.65037E-07
 -1      1979 2.50438E-06 3.87570E-06 3.45994E-07
 -1      1980 1.89677E-06 5.30027E-07-8.08999E-07
 -1      1982 8.69906E-07-1.40495E-06-4.27601E-07
 -1      1983 2.04840E-07 1.06771E-05 1.20704E-06
 -1      1985-3.19411E-07 2.76156E-06 1.81843E-06
 -1      1986-1.89463E-06 7.28702E-06 3.57622E-06
 -1      1988-1.61058E-06 3.70934E-06 4.34179E-06
 -1      1989-4.42160E-06 3.05287E-06 1.61539E-06
 -1      1991-4.17561E-06 1.08773E-06 3.27501E-06
 -1      1992-4.48420E-06-1.70303E-06-1.71974E-06
 -1      1994-4.21526E-06 5.39578E-06 2.39959E-07
 -1      1995-1.59238E-06-7.31478E-06-1.86843E-06
 -1      1997-1.29566E-06 1.54914E-06-2.06070E-06
 -1      1998 1.13369E-06 2.08526E-06-3.22396E-06
 -1      2000 1.07149E-06-5.89041E-06-3.96475E-06
 -1      2001-1.23129E-06 1.02618E-05-2.20764E-06
 -1      2003-1.09043E-06 1.61252E-06-2.55574E-06
 -1      2004-2.42782E-06 2.54573E-07-3.86903E-07
 -1      2006-2.39170E-06 5.95124E-06-1.79625E-06
 -1      2007 1.18768E-07 2.13965E-06-1.90077E-06
 -1      2009-8.63909E-08-4.73871E-06 1.03494E-06
 -1      2010 5.14685E-07 2.27917E-06-8.96642E-07
 -1      2012 8.28222E-07-3.34024E-06 4.63517E-07
 -1      2013 4.48513E-07 3.80063E-06-1.31465E-06
 -1      2015 8.78428E-07 3.56235E-06-7.35007E-07
 -1      2016 1.88308E-06 2.71903E-06-2.16979E-06
 -1      2018 1.98902E-06 1.84659E-07-3.45082E-06
 -1      2019 2.73804E-06 3.31397E-06-1.64428E-06
 -1      2021 2.70685E-06-5.97068E-06-4.45903E-06
 -1      2022 2.43118E-06-2.40129E-07-2.80955E-06
 -1      2024 2.29529E-06 4.03899E-06-3.37409E-06
 -1      2025 2.04351E-06-2.70966E-06-3.42611E-06
 -1      2027 1.42669E-06 5.21571E-06-4.85611E-06
 -1      2028 3.50288E-07 6.46290E-06-3.45163E-06
 -1      2030 4.45396E-07 1.30721E-06-3.87447E-06
 -1      2031 4.24223E-07-1.51967E-06-2.01314E-06
 -1      2033 1.68205E-06-3.20803E-06 6.67138E-07
 -1      2034 3.67048E-06-2.90255E+03-3.66436E-06
 -1      2036 3.82028E-06-2.90255E+03-3.80431E-06
 -1      2037 3.30793E-06-6.03967E+03-3.79925E-06
 -1      2039 3.50546E-06-6.03967E+03-4.17444E-06
 -1      2040-5.82249E-07-9.30801E+03 1.23715E-06
 -1      2042-6.73767E-07-9.30801E+03 6.96302E-07
 -1      2043-1.55996E-06-1.26611E+04 3.90707E-06
 -1      2045-1.63184E-06-1.26611E+04 3.11442E-06
 -1      2046-4.63112E-07-1.60815E+04 1.09538E-06
 -1      2048-5.63896E-07-1.60815E+04 1.75161E-07
 -1      2049 8.23931E-08-1.95384E+04 7.81656E-08
 -1      2051-1.24478E-07-1.95384E+04-6.55877E-07
 -1      2052 2.28653E-06-2.30130E+04-2.48806E-06
 -1      2054 1.98741E-06-2.30130E+04-2.41340E-06
 -1      2055 2.74059E-06-2.64773E+04-5.20436E-06
 -1      2057 2.93031E-06-2.64773E+04-4.42982E-06
 -1      2058 1.28313E-06-2.99090E+04-2.63291E-06
 -1      2060 1.41972E-06-2.99090E+04-2.77050E-06
 -1      2061 3.87062E-06-3.32808E+04 7.81511E-07
 -1      2063 3.92081E-06-3.32808E+04 3.95754E-07
 -1      2064 4.83906E-06-3.65683E+04 1.23546E-06
 -1      2066 4.33760E-06-3.65683E+04 1.54167E-06
 -1      2067 8.73328E-07-3.97458E+04-4.83706E-07
 -1      2069-4.45046E-07-3.97458E+04 6.56626E-07
 -1      2070-1.10988E-06-4.27902E+04-7.55870E-07
 -1      2072-1.36667E-06-4.27902E+04 1.03375E-06
 -1      2073-7.21900E-07-4.56793E+04 2.42584E-06
 -1      2075-1.72707E-07-4.56793E+04 1.77304E-06
 -1      2076 1.15932E-06-4.83945E+04 2.05120E-06
 -1      2078 1.26829E-06-4.83945E+04 1.23398E-06
 -1      2079 2.55666E-06-5.09198E+04-2.50201E-06
 -1      2081 3.03324E-06-5.09198E+04-1.63013E-06
 -1      2082 3.80021E-06-5.32432E+04-4.33734E-06
 -1      2084 3.83573E-06-5.32432E+04-4.03958E-06
 -1      2085 4.22907E-06-5.53564E+04-2.41363E-06
 -1      2087 3.72876E-06-5.53564E+04-4.76596E-06
 -1      2088 4.43207E-07-5.72553E+04-6.41812E-08
 -1      2090 2.01104E-07-5.72553E+04-5.40487E-07
 -1      2091-2.02469E-06-5.89396E+04 4.18269E-06
 -1      2093-1.82941E-06-5.89396E+04 2.88100E-06
 -1      2094-1.93759E-06-6.04125E+04 3.20369E-06
 -1      2096-2.37942E-06-6.04125E+04 3.45495E-06
 -1      2097-4.19577E-06-6.16805E+04-5.94195E-07
 -1      2099-4.10048E-06-6.16805E+04-1.27439E-06
 -1      2100-3.92647E-06-6.27523E+04-1.22561E-06
 -1      2102-3.65214E-06-6.27523E+04-9.59772E-07
 -1      2103-2.19217E-07-6.36385E+04-2.97034E-06
 -1      2105-4.09023E-07-6.36385E+04-1.11425E-06
 -1      2106 1.29079E-06-6.43503E+04-1.02911E-06
 -1      2108 1.01560E-06-6.43503E+04-9.65038E-07
 -1      2109 9.04530E-07-6.48986E+04-3.14254E-07
 -1      2111 6.80177E-07-6.48986E+04-2.59244E-06
 -1      2112-3.34537E-08-6.52938E+04-3.50289E-06
 -1      2114-4.72922E-07-6.52938E+04-5.54881E-06
 -1      2115-2.93139E-06-6.55431E+04-3.17748E-06
 -1      2117-2.29455E-06-6.55431E+04-5.03796E-06
 -1      2118-3.66681E-06-6.56518E+04-2.45223E-06
 -1      2120-2.64978E-06-6.56518E+04-3.05624E-06
 -1      2121-9.94586E+01-1.83718E+02 5.71390E+03
 -1      2123-9.94586E+01-1.83718E+02 5.71390E+03
 -1      2124-1.86164E+02-5.30299E+02 1.22230E+04
 -1      2126-1.86164E+02-5.30299E+02 1.22230E+04
 -1      2127-2.57891E+02-1.04716E+03 1.87744E+04
 -1      2129-2.57891E+02-1.04716E+03 1.87744E+04
 -1      2130-3.18127E+02-1.70494E+03 2.51588E+04
 -1      2132-3.18127E+02-1.70494E+03 2.51588E+04
 -1      2133-3.68265E+02-2.48419E+03 3.14867E+04
 -1      2135-3.68265E+02-2.48419E+03 3.14867E+04
 -1      2136-4.08936E+02-3.36370E+03 3.76916E+04
 -1      2138-4.08936E+02-3.36370E+03 3.76916E+04
 -1      2139-4.39991E+02-4.32369E+03 4.37883E+04
 -1      2141-4.39991E+02-4.32369E+03 4.37883E+04
 -1      2142-4.60982E+02-5.34207E+03 4.97494E+04
 -1      2144-4.60982E+02-5.34207E+03 4.97494E+04
 -1      2145-4.71564E+02-6.39627E+03 5.55681E+04
 -1      2147-4.71564E+02-6.39627E+03 5.55681E+04
 -1      2148-4.71438E+02-7.46218E+03 6.12278E+04
 -1      2150-4.71438E+02-7.46218E+03 6.12278E+04
 -1      2151-4.60709E+02-8.51570E+03 6.67175E+04
 -1      2153-4.60709E+02-8.51570E+03 6.67175E+04
 -1      2154-4.39765E+02-9.53290E+03 7.20239E+04
 -1      2156-4.39765E+02-9.53290E+03 7.20239E+04
 -1      2157-4.09451E+02-1.04914E+04 7.71353E+04
 -1      2159-4.09451E+02-1.04914E+04 7.71353E+04
 -1      2160-3.70957E+02-1.13710E+04 8.20398E+04
 -1      2162-3.70957E+02-1.13710E+04 8.20398E+04
 -1      2163-3.25852E+02-1.21548E+04 8.67259E+04
 -1      2165-3.25852E+02-1.21548E+04 8.67259E+04
 -1      2166-2.75961E+02-1.28296E+04 9.11820E+04
 -1      2168-2.75961E+02-1.28296E+04 9.11820E+04
 -1      2169-2.23320E+02-1.33869E+04 9.53968E+04
 -1      2171-2.23320E+02-1.33869E+04 9.53968E+04
 -1      2172-1.70043E+02-1.38227E+04 9.93590E+04
 -1      2174-1.70043E+02-1.38227E+04 9.93590E+04
 -1      2175-1.18231E+02-1.41382E+04 1.03057E+05
 -1      2177-1.18231E+02-1.41382E+04 1.03057E+05
 -1      2178-6.98482E+01-1.43392E+04 1.06481E+05
 -1      2180-6.98482E+01-1.43392E+04 1.06481E+05
 -1      2181-2.66191E+01-1.44356E+04 1.09618E+05
 -1      2183-2.66191E+01-1.44356E+04 1.09618E+05
 -1      2184 1.00755E+01-1.44412E+04 1.12460E+05
 -1      2186 1.00755E+01-1.44412E+04 1.12460E+05
 -1      2187 3.92848E+01-1.43724E+04 1.14995E+05
 -1      2189 3.92848E+01-1.43724E+04 1.14995E+05
 -1      2190 6.05513E+01-1.42472E+04 1.17214E+05
 -1      2192 6.05513E+01-1.42472E+04 1.17214E+05
 -1      2193 7.39887E+01-1.40842E+04 1.19110E+05
 -1      2195 7.39887E+01-1.40842E+04 1.19110E+05
 -1      2196 8.02701E+01-1.39011E+04 1.20673E+05
 -1      2198 8.02701E+01-1.39011E+04 1.20673E+05
 -1      2199 8.07389E+01-1.37134E+04 1.21898E+05
 -1      2201 8.07389E+01-1.37134E+04 1.21898E+05
 -1      2202 7.73485E+01-1.35332E+04 1.22778E+05
 -1      2204 7.73485E+01-1.35332E+04 1.22778E+05
 -1      2205 7.26002E+01-1.33670E+04 1.23311E+05
 -1      2207 7.26002E+01-1.33670E+04 1.23311E+05
 -1      2208 9.94586E+01-1.83718E+02-5.71390E+03
 -1      2210 9.94586E+01-1.83718E+02-5.71390E+03
 -1      2211 1.86164E+02-5.30299E+02-1.22230E+04
 -1      2213 1.86164E+02-5.30299E+02-1.22230E+04
 -1      2214 2.57891E+02-1.04716E+03-1.87744E+04
 -1      2216 2.57891E+02-1.04716E+03-1.87744E+04
 -1      2217 3.18127E+02-1.70494E+03-2.51588E+04
 -1      2219 3.18127E+02-1.70494E+03-2.51588E+04
 -1      2220 3.68265E+02-2.48419E+03-3.14867E+04
 -1      2222 3.68265E+02-2.48419E+03-3.14867E+04
 -1      2223 4.08936E+02-3.36370E+03-3.76916E+04
 -1      2225 4.08936E+02-3.36370E+03-3.76916E+04
 -1      2226 4.39991E+02-4.32369E+03-4.37883E+04
 -1      2228 4.39991E+02-4.32369E+03-4.37883E+04
 -1      2229 4.60982E+02-5.34207E+03-4.97494E+04
 -1      2231 4.60982E+02-5.34207E+03-4.97494E+04
 -1      2232 4.71564E+02-6.39627E+03-5.55681E+04
 -1      2234 4.71564E+02-6.39627E+03-5.55681E+04
 -1      2235 4.71438E+02-7.46218E+03-6.12278E+04
 -1      2237 4.71438E+02-7.46218E+03-6.12278E+04
 -1      2238 4.60709E+02-8.51570E+03-6.67175E+04
 -1      2240 4.60709E+02-8.51570E+03-6.67175E+04
 -1      2241 4.39765E+02-9.53290E+03-7.20239E+04
 -1      2243 4.39765E+02-9.53290E+03-7.20239E+04
 -1      2244 4.09451E+02-1.04914E+04-7.71353E+04
 -1      2246 4.09451E+02-1.04914E+04-7.71353E+04
 -1      2247 3.70957E+02-1.13710E+04-8.20398E+04
 -1      2249 3.70957E+02-1.13710E+04-8.20398E+04
 -1      2250 3.25852E+02-1.21548E+04-8.67259E+04
 -1      2252 3.25852E+02-1.21548E+04-8.67259E+04
 -1      2253 2.75961E+02-1.28296E+04-9.11820E+04
 -1      2255 2.75961E+02-1.28296E+04-9.11820E+04
 -1      2256 2.23320E+02-1.33869E+04-9.53968E+04
 -1      2258 2.23320E+02-1.33869E+04-9.53968E+04
 -1      2259 1.70043E+02-1.38227E+04-9.93590E+04
 -1      2261 1.70043E+02-1.38227E+04-9.93590E+04
 -1      2262 1.18231E+02-1.41382E+04-1.03057E+05
 -1      2264 1.18231E+02-1.41382E+04-1.03057E+05
 -1      2265 6.98482E+01-1.43392E+04-1.06481E+05
 -1      2267 6.98482E+01-1.43392E+04-1.06481E+05
 -1      2268 2.66191E+01-1.44356E+04-1.09618E+05
 -1      2270 2.66191E+01-1.44356E+04-1.09618E+05
 -1      2271-1.00755E+01-1.44412E+04-1.12460E+05
 -1      2273-1.00755E+01-1.44412E+04-1.12460E+05
 -1      2274-3.92848E+01-1.43724E+04-1.14995E+05
 -1      2276-3.92848E+01-1.43724E+04-1.14995E+05
 -1      2277-6.05513E+01-1.42472E+04-1.17214E+05
 -1      2279-6.05513E+01-1.42472E+04-1.17214E+05
 -1      2280-7.39887E+01-1.40842E+04-1.19110E+05
 -1      2282-7.39887E+01-1.40842E+04-1.19110E+05
 -1      2283-8.02701E+01-1.39011E+04-1.20673E+05
 -1      2285-8.02701E+01-1.39011E+04-1.20673E+05
 -1      2286-8.07389E+01-1.37134E+04-1.21898E+05
 -1      2288-8.07389E+01-1.37134E+04-1.21898E+05
 -1      2289-7.73485E+01-1.35332E+04-1.22778E+05
 -1      2291-7.73485E+01-1.35332E+04-1.22778E+05
 -1      2292-7.26002E+01-1.33670E+04-1.23311E+05
 -1      2294-7.26002E+01-1.33670E+04-1.23311E+05
 -3
    1PSTEP                        36           1           1          
    1PGM                1.000000E+00                                  
    1PGK                4.632248E+06                                  
    1PHID                         -1                                  
    1PSUBC                         0                                  
    1PMODE                         9                                  
  100CL  109 342.5437285         930                     2    9MODAL      1
 -4  ERROR       1    1
 -5  STR(%)      1    1    0    0
 -1       404 0.00000E+00
 -1       406 0.00000E+00
 -1       407 0.00000E+00
 -1       409 0.00000E+00
 -1       410 0.00000E+00
 -1       412 0.00000E+00
 -1       413 0.00000E+00
 -1       415 0.00000E+00
 -1       424 0.00000E+00
 -1       426 0.00000E+00
 -1       427 0.00000E+00
 -1       429 0.00000E+00
 -1       438 0.00000E+00
 -1       440 0.00000E+00
 -1       441 0.00000E+00
 -1       443 0.00000E+00
 -1       444 0.00000E+00
 -1       446 0.00000E+00
 -1       447 0.00000E+00
 -1       449 0.00000E+00
 -1       458 0.00000E+00
 -1       460 0.00000E+00
 -1       461 0.00000E+00
 -1       463 0.00000E+00
 -1       472 0.00000E+00
 -1       474 0.00000E+00
 -1       475 0.00000E+00
 -1       477 0.00000E+00
 -1       478 0.00000E+00
 -1       480 0.00000E+00
 -1       481 0.00000E+00
 -1       483 0.00000E+00
 -1       484 0.00000E+00
 -1       486 0.00000E+00
 -1       487 0.00000E+00
 -1       489 0.00000E+00
 -1       490 0.00000E+00
 -1       492 0.00000E+00
 -1       493 0.00000E+00
 -1       495 0.00000E+00
 -1       496 0.00000E+00
 -1       498 0.00000E+00
 -1       499 0.00000E+00
 -1       501 0.00000E+00
 -1       502 0.00000E+00
 -1       504 0.00000E+00
 -1       505 0.00000E+00
 -1       507 0.00000E+00
 -1       508 0.00000E+00
 -1       510 0.00000E+00
 -1       511 0.00000E+00
 -1       513 0.00000E+00
 -1       514 0.00000E+00
 -1       516 0.00000E+00
 -1       517 0.00000E+00
 -1       519 0.00000E+00
 -1       520 0.00000E+00
 -1       522 0.00000E+00
 -1       523 0.00000E+00
 -1       525 0.00000E+00
 -1       526 0.00000E+00
 -1       528 0.00000E+00
 -1       529 0.00000E+00
 -1       531 0.00000E+00
 -1       532 0.00000E+00
 -1       534 0.00000E+00
 -1       535 0.00000E+00
 -1       537 0.00000E+00
 -1       538 0.00000E+00
 -1       540 0.00000E+00
 -1       541 0.00000E+00
 -1       543 0.00000E+00
 -1       544 0.00000E+00
 -1       546 0.00000E+00
 -1       547 0.00000E+00
 -1       549 0.00000E+00
 -1       550 0.00000E+00
 -1       552 0.00000E+00
 -1       553 0.00000E+00
 -1       555 0.00000E+00
 -1       556 0.00000E+00
 -1       558 0.00000E+00
 -1       559 0.00000E+00
 -1       561 0.00000E+00
 -1       562 0.00000E+00
 -1       564 0.00000E+00
 -1       565 0.00000E+00
 -1       567 0.00000E+00
 -1       568 0.00000E+00
 -1       570 0.00000E+00
 -1       571 0.00000E+00
 -1       573 0.00000E+00
 -1       574 0.00000E+00
 -1       576 0.00000E+00
 -1       577 0.00000E+00
 -1       579 0.00000E+00
 -1       588 0.00000E+00
 -1       590 0.00000E+00
 -1       591 0.00000E+00
 -1       593 0.00000E+00
 -1       602 0.00000E+00
 -1       604 0.00000E+00
 -1       605 0.00000E+00
 -1       607 0.00000E+00
 -1       616 0.00000E+00
 -1       618 0.00000E+00
 -1       619 0.00000E+00
 -1       621 0.00000E+00
 -1       630 0.00000E+00
 -1       632 0.00000E+00
 -1       633 0.00000E+00
 -1       635 0.00000E+00
 -1       644 0.00000E+00
 -1       646 0.00000E+00
 -1       647 0.00000E+00
 -1       649 0.00000E+00
 -1       658 0.00000E+00
 -1       660 0.00000E+00
 -1       661 0.00000E+00
 -1       663 0.00000E+00
 -1       672 0.00000E+00
 -1       674 0.00000E+00
 -1       675 0.00000E+00
 -1       677 0.00000E+00
 -1       686 0.00000E+00
 -1       688 0.00000E+00
 -1       689 0.00000E+00
 -1       691 0.00000E+00
 -1       700 0.00000E+00
 -1       702 0.00000E+00
 -1       703 0.00000E+00
 -1       705 0.00000E+00
 -1       714 0.00000E+00
 -1       716 0.00000E+00
 -1       717 0.00000E+00
 -1       719 0.00000E+00
 -1       728 0.00000E+00
 -1       730 0.00000E+00
 -1       731 0.00000E+00
 -1       733 0.00000E+00
 -1       742 0.00000E+00
 -1       744 0.00000E+00
 -1       745 0.00000E+00
 -1       747 0.00000E+00
 -1       756 0.00000E+00
 -1       758 0.00000E+00
 -1       759 0.00000E+00
 -1       761 0.00000E+00
 -1       770 0.00000E+00
 -1       772 0.00000E+00
 -1       773 0.00000E+00
 -1       775 0.00000E+00
 -1       784 0.00000E+00
 -1       786 0.00000E+00
 -1       787 0.00000E+00
 -1       789 0.00000E+00
 -1       798 0.00000E+00
 -1       800 0.00000E+00
 -1       801 0.00000E+00
 -1       803 0.00000E+00
 -1       812 0.00000E+00
 -1       814 0.00000E+00
 -1       815 0.00000E+00
 -1       817 0.00000E+00
 -1       826 0.00000E+00
 -1       828 0.00000E+00
 -1       829 0.00000E+00
 -1       831 0.00000E+00
 -1       840 0.00000E+00
 -1       842 0.00000E+00
 -1       843 0.00000E+00
 -1       845 0.00000E+00
 -1       854 0.00000E+00
 -1       856 0.00000E+00
 -1       857 0.00000E+00
 -1       859 0.00000E+00
 -1       868 0.00000E+00
 -1       870 0.00000E+00
 -1       871 0.00000E+00
 -1       873 0.00000E+00
 -1       882 0.00000E+00
 -1       884 0.00000E+00
 -1       885 0.00000E+00
 -1       887 0.00000E+00
 -1       896 0.00000E+00
 -1       898 0.00000E+00
 -1       899 0.00000E+00
 -1       901 0.00000E+00
 -1       910 0.00000E+00
 -1       912 0.00000E+00
 -1       913 0.00000E+00
 -1       915 0.00000E+00
 -1       924 0.00000E+00
 -1       926 0.00000E+00
 -1       927 0.00000E+00
 -1       929 0.00000E+00
 -1       938 0.00000E+00
 -1       940 0.00000E+00
 -1       941 0.00000E+00
 -1       943 0.00000E+00
 -1       952 0.00000E+00
 -1       954 0.00000E+00
 -1       955 0.00000E+00
 -1       957 0.00000E+00
 -1       966 0.00000E+00
 -1       968 0.00000E+00
 -1       969 0.00000E+00
 -1       971 0.00000E+00
 -1       980 0.00000E+00
 -1       982 0.00000E+00
 -1       983 0.00000E+00
 -1       985 0.00000E+00
 -1       986 0.00000E+00
 -1       988 0.00000E+00
 -1       989 0.00000E+00
 -1       991 0.00000E+00
 -1       992 0.00000E+00
 -1       994 0.00000E+00
 -1       995 0.00000E+00
 -1       997 0.00000E+00
 -1       998 0.00000E+00
 -1      1000 0.00000E+00
 -1      1001 0.00000E+00
 -1      1003 0.00000E+00
 -1      1004 0.00000E+00
 -1      1006 0.00000E+00
 -1      1007 0.00000E+00
 -1      1009 0.00000E+00
 -1      1010 0.00000E+00
 -1      1012 0.00000E+00
 -1      1013 0.00000E+00
 -1      1015 0.00000E+00
 -1      1016 0.00000E+00
 -1      1018 0.00000E+00
 -1      1019 0.00000E+00
 -1      1021 0.00000E+00
 -1      1022 0.00000E+00
 -1      1024 0.00000E+00
 -1      1025 0.00000E+00
 -1      1027 0.00000E+00
 -1      1028 0.00000E+00
 -1      1030 0.00000E+00
 -1      1031 0.00000E+00
 -1      1033 0.00000E+00
 -1      1034 0.00000E+00
 -1      1036 0.00000E+00
 -1      1037 0.00000E+00
 -1      1039 0.00000E+00
 -1      1040 0.00000E+00
 -1      1042 0.00000E+00
 -1      1043 0.00000E+00
 -1      1045 0.00000E+00
 -1      1046 0.00000E+00
 -1      1048 0.00000E+00
 -1      1049 0.00000E+00
 -1      1051 0.00000E+00
 -1      1052 0.00000E+00
 -1      1054 0.00000E+00
 -1      1055 0.00000E+00
 -1      1057 0.00000E+00
 -1      1058 0.00000E+00
 -1      1060 0.00000E+00
 -1      1061 0.00000E+00
 -1      1063 0.00000E+00
 -1      1064 0.00000E+00
 -1      1066 0.00000E+00
 -1      1067 0.00000E+00
 -1      1069 0.00000E+00
 -1      1070 0.00000E+00
 -1      1072 0.00000E+00
 -1      1073 0.00000E+00
 -1      1075 0.00000E+00
 -1      1076 0.00000E+00
 -1      1078 0.00000E+00
 -1      1079 0.00000E+00
 -1      1081 0.00000E+00
 -1      1082 0.00000E+00
 -1      1084 0.00000E+00
 -1      1085 0.00000E+00
 -1      1087 0.00000E+00
 -1      1088 0.00000E+00
 -1      1090 0.00000E+00
 -1      1099 0.00000E+00
 -1      1101 0.00000E+00
 -1      1102 0.00000E+00
 -1      1104 0.00000E+00
 -1      1113 0.00000E+00
 -1      1115 0.00000E+00
 -1      1116 0.00000E+00
 -1      1118 0.00000E+00
 -1      1127 0.00000E+00
 -1      1129 0.00000E+00
 -1      1130 0.00000E+00
 -1      1132 0.00000E+00
 -1      1141 0.00000E+00
 -1      1143 0.00000E+00
 -1      1144 0.00000E+00
 -1      1146 0.00000E+00
 -1      1155 0.00000E+00
 -1      1157 0.00000E+00
 -1      1158 0.00000E+00
 -1      1160 0.00000E+00
 -1      1169 0.00000E+00
 -1      1171 0.00000E+00
 -1      1172 0.00000E+00
 -1      1174 0.00000E+00
 -1      1183 0.00000E+00
 -1      1185 0.00000E+00
 -1      1186 0.00000E+00
 -1      1188 0.00000E+00
 -1      1197 0.00000E+00
 -1      1199 0.00000E+00
 -1      1200 0.00000E+00
 -1      1202 0.00000E+00
 -1      1211 0.00000E+00
 -1      1213 0.00000E+00
 -1      1214 0.00000E+00
 -1      1216 0.00000E+00
 -1      1225 0.00000E+00
 -1      1227 0.00000E+00
 -1      1228 0.00000E+00
 -1      1230 0.00000E+00
 -1      1239 0.00000E+00
 -1      1241 0.00000E+00
 -1      1242 0.00000E+00
 -1      1244 0.00000E+00
 -1      1253 0.00000E+00
 -1      1255 0.00000E+00
 -1      1256 0.00000E+00
 -1      1258 0.00000E+00
 -1      1267 0.00000E+00
 -1      1269 0.00000E+00
 -1      1270 0.00000E+00
 -1      1272 0.00000E+00
 -1      1281 0.00000E+00
 -1      1283 0.00000E+00
 -1      1284 0.00000E+00
 -1      1286 0.00000E+00
 -1      1295 0.00000E+00
 -1      1297 0.00000E+00
 -1      1298 0.00000E+00
 -1      1300 0.00000E+00
 -1      1309 0.00000E+00
 -1      1311 0.00000E+00
 -1      1312 0.00000E+00
 -1      1314 0.00000E+00
 -1      1323 0.00000E+00
 -1      1325 0.00000E+00
 -1      1326 0.00000E+00
 -1      1328 0.00000E+00
 -1      1337 0.00000E+00
 -1      1339 0.00000E+00
 -1      1340 0.00000E+00
 -1      1342 0.00000E+00
 -1      1351 0.00000E+00
 -1      1353 0.00000E+00
 -1      1354 0.00000E+00
 -1      1356 0.00000E+00
 -1      1365 0.00000E+00
 -1      1367 0.00000E+00
 -1      1368 0.00000E+00
 -1      1370 0.00000E+00
 -1      1379 0.00000E+00
 -1      1381 0.00000E+00
 -1      1382 0.00000E+00
 -1      1384 0.00000E+00
 -1      1393 0.00000E+00
 -1      1395 0.00000E+00
 -1      1396 0.00000E+00
 -1      1398 0.00000E+00
 -1      1407 0.00000E+00
 -1      1409 0.00000E+00
 -1      1410 0.00000E+00
 -1      1412 0.00000E+00
 -1      1421 0.00000E+00
 -1      1423 0.00000E+00
 -1      1424 0.00000E+00
 -1      1426 0.00000E+00
 -1      1435 0.00000E+00
 -1      1437 0.00000E+00
 -1      1438 0.00000E+00
 -1      1440 0.00000E+00
 -1      1449 0.00000E+00
 -1      1451 0.00000E+00
 -1      1452 0.00000E+00
 -1      1454 0.00000E+00
 -1      1463 0.00000E+00
 -1      1465 0.00000E+00
 -1      1466 0.00000E+00
 -1      1468 0.00000E+00
 -1      1477 0.00000E+00
 -1      1479 0.00000E+00
 -1      1480 0.00000E+00
 -1      1482 0.00000E+00
 -1      1491 0.00000E+00
 -1      1493 0.00000E+00
 -1      1494 0.00000E+00
 -1      1496 0.00000E+00
 -1      1497 0.00000E+00
 -1      1499 0.00000E+00
 -1      1500 0.00000E+00
 -1      1502 0.00000E+00
 -1      1503 0.00000E+00
 -1      1505 0.00000E+00
 -1      1506 0.00000E+00
 -1      1508 0.00000E+00
 -1      1509 0.00000E+00
 -1      1511 0.00000E+00
 -1      1512 0.00000E+00
 -1      1514 0.00000E+00
 -1      1515 0.00000E+00
 -1      1517 0.00000E+00
 -1      1518 0.00000E+00
 -1      1520 0.00000E+00
 -1      1521 0.00000E+00
 -1      1523 0.00000E+00
 -1      1524 0.00000E+00
 -1      1526 0.00000E+00
 -1      1527 0.00000E+00
 -1      1529 0.00000E+00
 -1      1530 0.00000E+00
 -1      1532 0.00000E+00
 -1      1533 0.00000E+00
 -1      1535 0.00000E+00
 -1      1536 0.00000E+00
 -1      1538 0.00000E+00
 -1      1539 0.00000E+00
 -1      1541 0.00000E+00
 -1      1542 0.00000E+00
 -1      1544 0.00000E+00
 -1      1545 0.00000E+00
 -1      1547 0.00000E+00
 -1      1548 0.00000E+00
 -1      1550 0.00000E+00
 -1      1551 0.00000E+00
 -1      1553 0.00000E+00
 -1      1554 0.00000E+00
 -1      1556 0.00000E+00
 -1      1557 0.00000E+00
 -1      1559 0.00000E+00
 -1      1560 0.00000E+00
 -1      1562 0.00000E+00
 -1      1563 0.00000E+00
 -1      1565 0.00000E+00
 -1      1566 0.00000E+00
 -1      1568 0.00000E+00
 -1      1569 0.00000E+00
 -1      1571 0.00000E+00
 -1      1572 0.00000E+00
 -1      1574 0.00000E+00
 -1      1575 0.00000E+00
 -1      1577 0.00000E+00
 -1      1578 0.00000E+00
 -1      1580 0.00000E+00
 -1      1581 0.00000E+00
 -1      1583 0.00000E+00
 -1      1584 0.00000E+00
 -1      1586 0.00000E+00
 -1      1587 0.00000E+00
 -1      1589 0.00000E+00
 -1      1590 0.00000E+00
 -1      1592 0.00000E+00
 -1      1593 0.00000E+00
 -1      1595 0.00000E+00
 -1      1596 0.00000E+00
 -1      1598 0.00000E+00
 -1      1599 0.00000E+00
 -1      1601 0.00000E+00
 -1      1602 0.00000E+00
 -1      1604 0.00000E+00
 -1      1605 0.00000E+00
 -1      1607 0.00000E+00
 -1      1608 0.00000E+00
 -1      1610 0.00000E+00
 -1      1611 0.00000E+00
 -1      1613 0.00000E+00
 -1      1614 0.00000E+00
 -1      1616 0.00000E+00
 -1      1617 0.00000E+00
 -1      1619 0.00000E+00
 -1      1620 0.00000E+00
 -1      1622 0.00000E+00
 -1      1623 0.00000E+00
 -1      1625 0.00000E+00
 -1      1626 0.00000E+00
 -1      1628 0.00000E+00
 -1      1629 0.00000E+00
 -1      1631 0.00000E+00
 -1      1632 0.00000E+00
 -1      1634 0.00000E+00
 -1      1635 0.00000E+00
 -1      1637 0.00000E+00
 -1      1638 0.00000E+00
 -1      1640 0.00000E+00
 -1      1641 0.00000E+00
 -1      1643 0.00000E+00
 -1      1644 0.00000E+00
 -1      1646 0.00000E+00
 -1      1647 0.00000E+00
 -1      1649 0.00000E+00
 -1      1650 0.00000E+00
 -1      1652 0.00000E+00
 -1      1653 0.00000E+00
 -1      1655 0.00000E+00
 -1      1656 0.00000E+00
 -1      1658 0.00000E+00
 -1      1659 0.00000E+00
 -1      1661 0.00000E+00
 -1      1662 0.00000E+00
 -1      1664 0.00000E+00
 -1      1665 0.00000E+00
 -1      1667 0.00000E+00
 -1      1668 0.00000E+00
 -1      1670 0.00000E+00
 -1      1671 0.00000E+00
 -1      1673 0.00000E+00
 -1      1674 0.00000E+00
 -1      1676 0.00000E+00
 -1      1677 0.00000E+00
 -1      1679 0.00000E+00
 -1      1680 0.00000E+00
 -1      1682 0.00000E+00
 -1      1683 0.00000E+00
 -1      1685 0.00000E+00
 -1      1686 0.00000E+00
 -1      1688 0.00000E+00
 -1      1689 0.00000E+00
 -1      1691 0.00000E+00
 -1      1692 0.00000E+00
 -1      1694 0.00000E+00
 -1      1695 0.00000E+00
 -1      1697 0.00000E+00
 -1      1698 0.00000E+00
 -1      1700 0.00000E+00
 -1      1701 0.00000E+00
 -1      1703 0.00000E+00
 -1      1704 0.00000E+00
 -1      1706 0.00000E+00
 -1      1707 0.00000E+00
 -1      1709 0.00000E+00
 -1      1710 0.00000E+00
 -1      1712 0.00000E+00
 -1      1713 0.00000E+00
 -1      1715 0.00000E+00
 -1      1716 0.00000E+00
 -1      1718 0.00000E+00
 -1      1719 0.00000E+00
 -1      1721 0.00000E+00
 -1      1722 0.00000E+00
 -1      1724 0.00000E+00
 -1      1725 0.00000E+00
 -1      1727 0.00000E+00
 -1      1728 0.00000E+00
 -1      1730 0.00000E+00
 -1      1731 0.00000E+00
 -1      1733 0.00000E+00
 -1      1734 0.00000E+00
 -1      1736 0.00000E+00
 -1      1737 0.00000E+00
 -1      1739 0.00000E+00
 -1      1740 0.00000E+00
 -1      1742 0.00000E+00
 -1      1743 0.00000E+00
 -1      1745 0.00000E+00
 -1      1746 0.00000E+00
 -1      1748 0.00000E+00
 -1      1749 0.00000E+00
 -1      1751 0.00000E+00
 -1      1752 0.00000E+00
 -1      1754 0.00000E+00
 -1      1755 0.00000E+00
 -1      1757 0.00000E+00
 -1      1758 0.00000E+00
 -1      1760 0.00000E+00
 -1      1761 0.00000E+00
 -1      1763 0.00000E+00
 -1      1764 0.00000E+00
 -1      1766 0.00000E+00
 -1      1767 0.00000E+00
 -1      1769 0.00000E+00
 -1      1770 0.00000E+00
 -1      1772 0.00000E+00
 -1      1773 0.00000E+00
 -1      1775 0.00000E+00
 -1      1776 0.00000E+00
 -1      1778 0.00000E+00
 -1      1779 0.00000E+00
 -1      1781 0.00000E+00
 -1      1782 0.00000E+00
 -1      1784 0.00000E+00
 -1      1785 0.00000E+00
 -1      1787 0.00000E+00
 -1      1788 0.00000E+00
 -1      1790 0.00000E+00
 -1      1791 0.00000E+00
 -1      1793 0.00000E+00
 -1      1794 0.00000E+00
 -1      1796 0.00000E+00
 -1      1797 0.00000E+00
 -1      1799 0.00000E+00
 -1      1800 0.00000E+00
 -1      1802 0.00000E+00
 -1      1803 0.00000E+00
 -1      1805 0.00000E+00
 -1      1806 0.00000E+00
 -1      1808 0.00000E+00
 -1      1809 0.00000E+00
 -1      1811 0.00000E+00
 -1      1812 0.00000E+00
 -1      1814 0.00000E+00
 -1      1815 0.00000E+00
 -1      1817 0.00000E+00
 -1      1818 0.00000E+00
 -1      1820 0.00000E+00
 -1      1821 0.00000E+00
 -1      1823 0.00000E+00
 -1      1824 0.00000E+00
 -1      1826 0.00000E+00
 -1      1827 0.00000E+00
 -1      1829 0.00000E+00
 -1      1830 0.00000E+00
 -1      1832 0.00000E+00
 -1      1833 0.00000E+00
 -1      1835 0.00000E+00
 -1      1836 0.00000E+00
 -1      1838 0.00000E+00
 -1      1839 0.00000E+00
 -1      1841 0.00000E+00
 -1      1842 0.00000E+00
 -1      1844 0.00000E+00
 -1      1845 0.00000E+00
 -1      1847 0.00000E+00
 -1      1848 0.00000E+00
 -1      1850 0.00000E+00
 -1      1851 0.00000E+00
 -1      1853 0.00000E+00
 -1      1854 0.00000E+00
 -1      1856 0.00000E+00
 -1      1857 0.00000E+00
 -1      1859 0.00000E+00
 -1      1860 0.00000E+00
 -1      1862 0.00000E+00
 -1      1863 0.00000E+00
 -1      1865 0.00000E+00
 -1      1866 0.00000E+00
 -1      1868 0.00000E+00
 -1      1869 0.00000E+00
 -1      1871 0.00000E+00
 -1      1872 0.00000E+00
 -1      1874 0.00000E+00
 -1      1875 0.00000E+00
 -1      1877 0.00000E+00
 -1      1878 0.00000E+00
 -1      1880 0.00000E+00
 -1      1881 0.00000E+00
 -1      1883 0.00000E+00
 -1      1884 0.00000E+00
 -1      1886 0.00000E+00
 -1      1887 0.00000E+00
 -1      1889 0.00000E+00
 -1      1890 0.00000E+00
 -1      1892 0.00000E+00
 -1      1893 0.00000E+00
 -1      1895 0.00000E+00
 -1      1896 0.00000E+00
 -1      1898 0.00000E+00
 -1      1899 0.00000E+00
 -1      1901 0.00000E+00
 -1      1902 0.00000E+00
 -1      1904 0.00000E+00
 -1      1905 0.00000E+00
 -1      1907 0.00000E+00
 -1      1908 0.00000E+00
 -1      1910 0.00000E+00
 -1      1911 0.00000E+00
 -1      1913 0.00000E+00
 -1      1914 0.00000E+00
 -1      1916 0.00000E+00
 -1      1917 0.00000E+00
 -1      1919 0.00000E+00
 -1      1920 0.00000E+00
 -1      1922 0.00000E+00
 -1      1923 0.00000E+00
 -1      1925 0.00000E+00
 -1      1926 0.00000E+00
 -1      1928 0.00000E+00
 -1      1929 0.00000E+00
 -1      1931 0.00000E+00
 -1      1932 0.00000E+00
 -1      1934 0.00000E+00
 -1      1935 0.00000E+00
 -1      1937 0.00000E+00
 -1      1938 0.00000E+00
 -1      1940 0.00000E+00
 -1      1941 0.00000E+00
 -1      1943 0.00000E+00
 -1      1944 0.00000E+00
 -1      1946 0.00000E+00
 -1      1947 0.00000E+00
 -1      1949 0.00000E+00
 -1      1950 0.00000E+00
 -1      1952 0.00000E+00
 -1      1953 0.00000E+00
 -1      1955 0.00000E+00
 -1      1956 0.00000E+00
 -1      1958 0.00000E+00
 -1      1959 0.00000E+00
 -1      1961 0.00000E+00
 -1      1962 0.00000E+00
 -1      1964 0.00000E+00
 -1      1965 0.00000E+00
 -1      1967 0.00000E+00
 -1      1968 0.00000E+00
 -1      1970 0.00000E+00
 -1      1971 0.00000E+00
 -1      1973 0.00000E+00
 -1      1974 0.00000E+00
 -1      1976 0.00000E+00
 -1      1977 0.00000E+00
 -1      1979 0.00000E+00
 -1      1980 0.00000E+00
 -1      1982 0.00000E+00
 -1      1983 0.00000E+00
 -1      1985 0.00000E+00
 -1      1986 0.00000E+00
 -1      1988 0.00000E+00
 -1      1989 0.00000E+00
 -1      1991 0.00000E+00
 -1      1992 0.00000E+00
 -1      1994 0.00000E+00
 -1      1995 0.00000E+00
 -1      1997 0.00000E+00
 -1      1998 0.00000E+00
 -1      2000 0.00000E+00
 -1      2001 0.00000E+00
 -1      2003 0.00000E+00
 -1      2004 0.00000E+00
 -1      2006 0.00000E+00
 -1      2007 0.00000E+00
 -1      2009 0.00000E+00
 -1      2010 0.00000E+00
 -1      2012 0.00000E+00
 -1      2013 0.00000E+00
 -1      2015 0.00000E+00
 -1      2016 0.00000E+00
 -1      2018 0.00000E+00
 -1      2019 0.00000E+00
 -1      2021 0.00000E+00
 -1      2022 0.00000E+00
 -1      2024 0.00000E+00
 -1      2025 0.00000E+00
 -1      2027 0.00000E+00
 -1      2028 0.00000E+00
 -1      2030 0.00000E+00
 -1      2031 0.00000E+00
 -1      2033 0.00000E+00
 -1      2034 0.00000E+00
 -1      2036 0.00000E+00
 -1      2037 0.00000E+00
 -1      2039 0.00000E+00
 -1      2040 0.00000E+00
 -1      2042 0.00000E+00
 -1      2043 0.00000E+00
 -1      2045 0.00000E+00
 -1      2046 0.00000E+00
 -1      2048 0.00000E+00
 -1      2049 0.00000E+00
 -1      2051 0.00000E+00
 -1      2052 0.00000E+00
 -1      2054 0.00000E+00
 -1      2055 0.00000E+00
 -1      2057 0.00000E+00
 -1      2058 0.00000E+00
 -1      2060 0.00000E+00
 -1      2061 0.00000E+00
 -1      2063 0.00000E+00
 -1      2064 0.00000E+00
 -1      2066 0.00000E+00
 -1      2067 0.00000E+00
 -1      2069 0.00000E+00
 -1      2070 0.00000E+00
 -1      2072 0.00000E+00
 -1      2073 0.00000E+00
 -1      2075 0.00000E+00
 -1      2076 0.00000E+00
 -1      2078 0.00000E+00
 -1      2079 0.00000E+00
 -1      2081 0.00000E+00
 -1      2082 0.00000E+00
 -1      2084 0.00000E+00
 -1      2085 0.00000E+00
 -1      2087 0.00000E+00
 -1      2088 0.00000E+00
 -1      2090 0.00000E+00
 -1      2091 0.00000E+00
 -1      2093 0.00000E+00
 -1      2094 0.00000E+00
 -1      2096 0.00000E+00
 -1      2097 0.00000E+00
 -1      2099 0.00000E+00
 -1      2100 0.00000E+00
 -1      2102 0.00000E+00
 -1      2103 0.00000E+00
 -1      2105 0.00000E+00
 -1      2106 0.00000E+00
 -1      2108 0.00000E+00
 -1      2109 0.00000E+00
 -1      2111 0.00000E+00
 -1      2112 0.00000E+00
 -1      2114 0.00000E+00
 -1      2115 0.00000E+00
 -1      2117 0.00000E+00
 -1      2118 0.00000E+00
 -1      2120 0.00000E+00
 -1      2121 0.00000E+00
 -1      2123 0.00000E+00
 -1      2124 0.00000E+00
 -1      2126 0.00000E+00
 -1      2127 0.00000E+00
 -1      2129 0.00000E+00
 -1      2130 0.00000E+00
 -1      2132 0.00000E+00
 -1      2133 0.00000E+00
 -1      2135 0.00000E+00
 -1      2136 0.00000E+00
 -1      2138 0.00000E+00
 -1      2139 0.00000E+00
 -1      2141 0.00000E+00
 -1      2142 0.00000E+00
 -1      2144 0.00000E+00
 -1      2145 0.00000E+00
 -1      2147 0.00000E+00
 -1      2148 0.00000E+00
 -1      2150 0.00000E+00
 -1      2151 0.00000E+00
 -1      2153 0.00000E+00
 -1      2154 0.00000E+00
 -1      2156 0.00000E+00
 -1      2157 0.00000E+00
 -1      2159 0.00000E+00
 -1      2160 0.00000E+00
 -1      2162 0.00000E+00
 -1      2163 0.00000E+00
 -1      2165 0.00000E+00
 -1      2166 0.00000E+00
 -1      2168 0.00000E+00
 -1      2169 0.00000E+00
 -1      2171 0.00000E+00
 -1      2172 0.00000E+00
 -1      2174 0.00000E+00
 -1      2175 0.00000E+00
 -1      2177 0.00000E+00
 -1      2178 0.00000E+00
 -1      2180 0.00000E+00
 -1      2181 0.00000E+00
 -1      2183 0.00000E+00
 -1      2184 0.00000E+00
 -1      2186 0.00000E+00
 -1      2187 0.00000E+00
 -1      2189 0.00000E+00
 -1      2190 0.00000E+00
 -1      2192 0.00000E+00
 -1      2193 0.00000E+00
 -1      2195 0.00000E+00
 -1      2196 0.00000E+00
 -1      2198 0.00000E+00
 -1      2199 0.00000E+00
 -1      2201 0.00000E+00
 -1      2202 0.00000E+00
 -1      2204 0.00000E+00
 -1      2205 0.00000E+00
 -1      2207 0.00000E+00
 -1      2208 0.00000E+00
 -1      2210 0.00000E+00
 -1      2211 0.00000E+00
 -1      2213 0.00000E+00
 -1      2214 0.00000E+00
 -1      2216 0.00000E+00
 -1      2217 0.00000E+00
 -1      2219 0.00000E+00
 -1      2220 0.00000E+00
 -1      2222 0.00000E+00
 -1      2223 0.00000E+00
 -1      2225 0.00000E+00
 -1      2226 0.00000E+00
 -1      2228 0.00000E+00
 -1      2229 0.00000E+00
 -1      2231 0.00000E+00
 -1      2232 0.00000E+00
 -1      2234 0.00000E+00
 -1      2235 0.00000E+00
 -1      2237 0.00000E+00
 -1      2238 0.00000E+00
 -1      2240 0.00000E+00
 -1      2241 0.00000E+00
 -1      2243 0.00000E+00
 -1      2244 0.00000E+00
 -1      2246 0.00000E+00
 -1      2247 0.00000E+00
 -1      2249 0.00000E+00
 -1      2250 0.00000E+00
 -1      2252 0.00000E+00
 -1      2253 0.00000E+00
 -1      2255 0.00000E+00
 -1      2256 0.00000E+00
 -1      2258 0.00000E+00
 -1      2259 0.00000E+00
 -1      2261 0.00000E+00
 -1      2262 0.00000E+00
 -1      2264 0.00000E+00
 -1      2265 0.00000E+00
 -1      2267 0.00000E+00
 -1      2268 0.00000E+00
 -1      2270 0.00000E+00
 -1      2271 0.00000E+00
 -1      2273 0.00000E+00
 -1      2274 0.00000E+00
 -1      2276 0.00000E+00
 -1      2277 0.00000E+00
 -1      2279 0.00000E+00
 -1      2280 0.00000E+00
 -1      2282 0.00000E+00
 -1      2283 0.00000E+00
 -1      2285 0.00000E+00
 -1      2286 0.00000E+00
 -1      2288 0.00000E+00
 -1      2289 0.00000E+00
 -1      2291 0.00000E+00
 -1      2292 0.00000E+00
 -1      2294 0.00000E+00
 -3
    1PSTEP                        37           1           1          
    1PGM                1.000000E+00                                  
    1PGK                6.352517E+06                                  
    1PHID                         -1                                  
    1PSUBC                         0                                  
    1PMODE                        10                                  
  100CL  110 401.1372984         930                     2   10MODAL      1
 -4  DISP        4    1
 -5  D1          1    2    1    0
 -5  D2          1    2    2    0
 -5  D3          1    2    3    0
 -5  ALL         1    2    0    0    1ALL
 -1       404 0.00000E+00 0.00000E+00-3.86365E-04
 -1       406 0.00000E+00-0.00000E+00 3.86365E-04
 -1       407 4.08437E-02-1.20604E-01 4.12629E-02
 -1       409 4.08079E-02-1.27076E-01 4.12752E-02
 -1       410-1.49866E-12-1.21083E-01-1.32569E-12
 -1       412-1.46636E-12-1.26665E-01-1.32791E-12
 -1       413-1.95933E-03-1.23874E-01-1.77791E-03
 -1       415 1.95933E-03-1.23874E-01 1.77791E-03
 -1       424 0.00000E+00 0.00000E+00-2.31867E-15
 -1       426 0.00000E+00 0.00000E+00 2.31867E-15
 -1       427 0.00000E+00-1.47708E-15 0.00000E+00
 -1       429 0.00000E+00 1.47708E-15 0.00000E+00
 -1       438-4.08437E-02-1.20604E-01-4.12629E-02
 -1       440-4.08079E-02-1.27076E-01-4.12752E-02
 -1       441 0.00000E+00 0.00000E+00 3.86365E-04
 -1       443 0.00000E+00-0.00000E+00-3.86365E-04
 -1       444 0.00000E+00-2.33238E-16 0.00000E+00
 -1       446 0.00000E+00 2.33238E-16 0.00000E+00
 -1       447 0.00000E+00 0.00000E+00 3.66129E-16
 -1       449 0.00000E+00 0.00000E+00-3.66129E-16
 -1       458-1.95933E-03-1.23874E-01 1.77791E-03
 -1       460 1.95933E-03-1.23874E-01-1.77791E-03
 -1       461-4.78301E-13-1.21083E-01-1.28273E-12
 -1       463-5.12469E-13-1.26665E-01-1.28557E-12
 -1       472 0.00000E+00 0.00000E+00-3.86365E-04
 -1       474 0.00000E+00 0.00000E+00 3.86365E-04
 -1       475-4.08437E-02-1.20604E-01 4.12629E-02
 -1       477-4.08079E-02-1.27076E-01 4.12752E-02
 -1       478 4.08437E-02-1.20604E-01-4.12629E-02
 -1       480 4.08079E-02-1.27076E-01-4.12752E-02
 -1       481 0.00000E+00 0.00000E+00 3.86365E-04
 -1       483 0.00000E+00 0.00000E+00-3.86365E-04
 -1       484-1.22359E-02 1.07567E-02-7.87707E-03
 -1       486-1.02796E-02 1.18895E-02-7.62970E-03
 -1       487-1.71043E-02 2.83882E-02-1.82302E-02
 -1       489-1.62169E-02 3.07294E-02-1.80989E-02
 -1       490-1.81093E-02 5.03191E-02-2.60712E-02
 -1       492-1.69048E-02 5.37281E-02-2.61221E-02
 -1       493-1.43635E-02 6.96725E-02-3.32874E-02
 -1       495-1.35965E-02 7.40460E-02-3.35419E-02
 -1       496-7.63080E-03 8.29874E-02-3.84992E-02
 -1       498-7.00658E-03 8.81028E-02-3.87997E-02
 -1       499 1.14450E-03 8.68482E-02-4.18801E-02
 -1       501 1.44084E-03 9.24942E-02-4.22909E-02
 -1       502 1.03900E-02 8.01013E-02-4.31921E-02
 -1       504 1.04310E-02 8.60376E-02-4.35399E-02
 -1       505 1.87449E-02 6.28929E-02-4.24954E-02
 -1       507 1.85119E-02 6.88825E-02-4.28242E-02
 -1       508 2.49534E-02 3.71372E-02-4.00176E-02
 -1       510 2.44987E-02 4.29617E-02-4.01973E-02
 -1       511 2.80941E-02 5.90468E-03-3.60201E-02
 -1       513 2.74608E-02 1.13629E-02-3.60917E-02
 -1       514 2.76857E-02-2.68389E-02-3.09528E-02
 -1       516 2.69359E-02-2.19072E-02-3.08476E-02
 -1       517 2.37162E-02-5.68820E-02-2.52053E-02
 -1       519 2.29100E-02-5.26077E-02-2.49818E-02
 -1       520 1.66740E-02-8.02783E-02-1.92473E-02
 -1       522 1.58681E-02-7.67466E-02-1.88945E-02
 -1       523 7.44563E-03-9.39167E-02-1.34172E-02
 -1       525 6.68613E-03-9.11831E-02-1.30127E-02
 -1       526-2.77118E-03-9.59198E-02-8.02742E-03
 -1       528-3.45360E-03-9.40034E-02-7.59633E-03
 -1       529-1.26525E-02-8.59163E-02-3.22001E-03
 -1       531-1.32435E-02-8.48169E-02-2.84156E-03
 -1       532-2.08992E-02-6.50917E-02 9.37966E-04
 -1       534-2.14020E-02-6.47890E-02 1.23367E-03
 -1       535-2.64250E-02-3.60523E-02 4.53273E-03
 -1       537-2.68564E-02-3.65203E-02 4.68949E-03
 -1       538-2.84820E-02-2.49105E-03 7.70368E-03
 -1       540-2.88697E-02-3.69840E-03 7.71461E-03
 -1       541-2.67683E-02 3.12746E-02 1.06725E-02
 -1       543-2.71436E-02 2.93565E-02 1.05215E-02
 -1       544-2.14547E-02 6.08565E-02 1.36426E-02
 -1       546-2.18474E-02 5.82551E-02 1.33584E-02
 -1       547-1.31622E-02 8.23384E-02 1.68069E-02
 -1       549-1.35940E-02 7.90797E-02 1.64128E-02
 -1       550-2.87010E-03 9.27691E-02 2.02628E-02
 -1       552-3.35030E-03 8.88820E-02 1.98147E-02
 -1       553 8.22430E-03 9.04953E-02 2.40290E-02
 -1       555 7.70131E-03 8.60160E-02 2.35701E-02
 -1       556 1.88747E-02 7.53419E-02 2.79896E-02
 -1       558 1.83326E-02 7.03187E-02 2.75773E-02
 -1       559 2.79807E-02 4.85355E-02 3.19449E-02
 -1       561 2.74523E-02 4.30326E-02 3.16144E-02
 -1       562 3.47478E-02 1.24841E-02 3.55767E-02
 -1       564 3.42876E-02 6.58273E-03 3.53552E-02
 -1       565 3.88753E-02-2.97590E-02 3.85691E-02
 -1       567 3.85164E-02-3.59648E-02 3.84588E-02
 -1       568 4.05535E-02-7.49346E-02 4.05094E-02
 -1       570 4.03798E-02-8.13356E-02 4.04877E-02
 -1       571 2.03613E-02-1.20650E-01 1.99044E-02
 -1       573 2.03368E-02-1.26996E-01 1.98927E-02
 -1       574-8.25372E-14 8.61955E-03-1.58698E-13
 -1       576-4.35702E-14 9.99744E-03-1.56850E-13
 -1       577 9.22325E-04 9.30849E-03 4.38884E-04
 -1       579-9.22325E-04 9.30849E-03-4.38884E-04
 -1       588-1.03407E-13 2.80061E-02-3.16816E-13
 -1       590-9.82030E-14 3.12128E-02-3.16719E-13
 -1       591 9.70221E-04 2.96095E-02 1.02139E-03
 -1       593-9.70221E-04 2.96095E-02-1.02139E-03
 -1       602-1.40243E-13 4.97209E-02-3.86895E-13
 -1       604-1.30561E-13 5.43284E-02-3.86136E-13
 -1       605 1.07666E-03 5.20247E-02 1.46757E-03
 -1       607-1.07666E-03 5.20247E-02-1.46757E-03
 -1       616-1.74344E-13 6.97923E-02-4.39941E-13
 -1       618-1.72268E-13 7.56504E-02-4.36913E-13
 -1       619 8.07492E-04 7.27213E-02 1.86590E-03
 -1       621-8.07492E-04 7.27213E-02-1.86590E-03
 -1       630-2.08110E-13 8.32263E-02-5.05692E-13
 -1       632-1.95643E-13 8.99435E-02-5.03750E-13
 -1       633 4.55385E-04 8.65849E-02 2.13955E-03
 -1       635-4.55385E-04 8.65849E-02-2.13955E-03
 -1       644-2.18354E-13 8.73947E-02-6.02219E-13
 -1       646-2.06403E-13 9.45551E-02-6.02678E-13
 -1       647-4.01226E-05 9.09749E-02 2.28073E-03
 -1       649 4.01226E-05 9.09749E-02-2.28073E-03
 -1       658-2.13573E-13 8.07011E-02-6.69959E-13
 -1       660-2.10234E-13 8.78795E-02-6.72023E-13
 -1       661-5.35419E-04 8.42903E-02 2.28647E-03
 -1       663 5.35419E-04 8.42903E-02-2.28647E-03
 -1       672-2.07783E-13 6.35459E-02-6.38767E-13
 -1       674-2.25510E-13 7.03000E-02-6.40224E-13
 -1       675-9.93739E-04 6.69230E-02 2.15128E-03
 -1       677 9.93739E-04 6.69230E-02-2.15128E-03
 -1       686-2.30947E-13 3.77091E-02-5.34301E-13
 -1       688-2.49031E-13 4.36928E-02-5.33762E-13
 -1       689-1.32814E-03 4.07009E-02 1.90591E-03
 -1       691 1.32814E-03 4.07009E-02-1.90591E-03
 -1       700-2.73656E-13 6.36911E-03-4.69589E-13
 -1       702-2.77639E-13 1.12924E-02-4.69466E-13
 -1       703-1.50208E-03 8.83076E-03 1.56816E-03
 -1       705 1.50208E-03 8.83076E-03-1.56816E-03
 -1       714-3.04770E-13-2.65406E-02-4.50326E-13
 -1       716-3.08504E-13-2.28221E-02-4.50329E-13
 -1       717-1.48271E-03-2.46813E-02 1.18439E-03
 -1       719 1.48271E-03-2.46813E-02-1.18439E-03
 -1       728-3.24710E-13-5.67481E-02-3.94575E-13
 -1       730-3.38457E-13-5.42811E-02-3.93170E-13
 -1       731-1.27421E-03-5.55146E-02 7.85766E-04
 -1       733 1.27421E-03-5.55146E-02-7.85766E-04
 -1       742-3.50012E-13-8.03069E-02-2.72030E-13
 -1       744-3.72092E-13-7.90003E-02-2.69439E-13
 -1       745-8.99813E-04-7.96536E-02 4.16167E-04
 -1       747 8.99813E-04-7.96536E-02-4.16167E-04
 -1       756-3.83213E-13-9.40710E-02-9.81873E-14
 -1       758-4.09278E-13-9.37532E-02-9.64070E-14
 -1       759-4.08882E-04-9.39121E-02 1.01222E-04
 -1       761 4.08882E-04-9.39121E-02-1.01222E-04
 -1       770-4.29502E-13-9.61604E-02 8.61686E-14
 -1       772-4.51848E-13-9.65817E-02 9.08565E-14
 -1       773 1.35937E-04-9.63710E-02-1.34198E-04
 -1       775-1.35937E-04-9.63710E-02 1.34198E-04
 -1       784-4.86310E-13-8.61903E-02 2.61243E-13
 -1       786-5.07392E-13-8.70842E-02 2.65932E-13
 -1       787 6.63017E-04-8.66373E-02-2.84728E-04
 -1       789-6.63017E-04-8.66373E-02 2.84728E-04
 -1       798-5.43338E-13-6.53536E-02 4.33335E-13
 -1       800-5.65865E-13-6.64598E-02 4.36608E-13
 -1       801 1.10368E-03-6.59067E-02-3.52344E-04
 -1       803-1.10368E-03-6.59067E-02 3.52344E-04
 -1       812-6.05105E-13-3.62616E-02 5.86294E-13
 -1       814-6.22344E-13-3.73755E-02 5.89863E-13
 -1       815 1.39950E-03-3.68186E-02-3.54811E-04
 -1       817-1.39950E-03-3.68186E-02 3.54811E-04
 -1       826-6.90214E-13-2.62437E-03 6.70348E-13
 -1       828-6.94359E-13-3.61659E-03 6.75853E-13
 -1       829 1.51102E-03-3.12048E-03-3.16039E-04
 -1       831-1.51102E-03-3.12048E-03 3.16039E-04
 -1       840-7.93192E-13 3.12250E-02 6.68732E-13
 -1       842-7.86933E-13 3.03872E-02 6.73167E-13
 -1       843 1.42196E-03 3.08061E-02-2.66845E-04
 -1       845-1.42196E-03 3.08061E-02 2.66845E-04
 -1       854-8.99692E-13 6.08797E-02 6.21840E-13
 -1       856-8.94858E-13 6.01333E-02 6.28563E-13
 -1       857 1.14203E-03 6.05065E-02-2.37735E-04
 -1       859-1.14203E-03 6.05065E-02 2.37735E-04
 -1       868-1.01426E-12 8.24074E-02 5.38572E-13
 -1       870-9.99917E-13 8.16068E-02 5.43695E-13
 -1       871 7.04112E-04 8.20071E-02-2.54994E-04
 -1       873-7.04112E-04 8.20071E-02 2.54994E-04
 -1       882-1.12811E-12 9.28490E-02 3.68034E-13
 -1       884-1.10031E-12 9.17891E-02 3.75566E-13
 -1       885 1.62189E-04 9.23190E-02-3.37600E-04
 -1       887-1.62189E-04 9.23190E-02 3.37600E-04
 -1       896-1.22630E-12 9.05412E-02 1.44908E-13
 -1       898-1.19779E-12 8.89987E-02 1.46158E-13
 -1       899-4.21517E-04 8.97699E-02-4.91315E-04
 -1       901 4.21517E-04 8.97699E-02 4.91315E-04
 -1       910-1.30518E-12 7.53212E-02-9.74308E-14
 -1       912-1.27572E-12 7.30872E-02-9.20635E-14
 -1       913-9.75046E-04 7.42042E-02-7.11564E-04
 -1       915 9.75046E-04 7.42042E-02 7.11564E-04
 -1       924-1.36633E-12 4.84122E-02-3.45603E-13
 -1       926-1.33542E-12 4.53437E-02-3.43792E-13
 -1       927-1.44602E-03 4.68779E-02-9.77371E-04
 -1       929 1.44602E-03 4.68779E-02 9.77371E-04
 -1       938-1.41861E-12 1.22484E-02-6.02495E-13
 -1       940-1.38533E-12 8.29367E-03-6.02024E-13
 -1       941-1.77731E-03 1.02710E-02-1.25966E-03
 -1       943 1.77731E-03 1.02710E-02 1.25966E-03
 -1       952-1.45778E-12-3.01006E-02-8.63120E-13
 -1       954-1.42461E-12-3.48658E-02-8.64623E-13
 -1       955-1.96946E-03-3.24832E-02-1.51781E-03
 -1       957 1.96946E-03-3.24832E-02 1.51781E-03
 -1       966-1.48364E-12-7.53880E-02-1.10133E-12
 -1       968-1.45505E-12-8.07395E-02-1.10109E-12
 -1       969-2.00079E-03-7.80637E-02-1.70457E-03
 -1       971 2.00079E-03-7.80637E-02 1.70457E-03
 -1       980 0.00000E+00 0.00000E+00-1.22781E-04
 -1       982 0.00000E+00-0.00000E+00 1.22781E-04
 -1       983-2.03613E-02-1.20650E-01-1.99044E-02
 -1       985-2.03368E-02-1.26996E-01-1.98927E-02
 -1       986 1.22359E-02 1.07567E-02 7.87707E-03
 -1       988 1.02796E-02 1.18895E-02 7.62970E-03
 -1       989 1.71043E-02 2.83882E-02 1.82302E-02
 -1       991 1.62169E-02 3.07294E-02 1.80989E-02
 -1       992 1.81093E-02 5.03191E-02 2.60712E-02
 -1       994 1.69048E-02 5.37281E-02 2.61221E-02
 -1       995 1.43635E-02 6.96725E-02 3.32874E-02
 -1       997 1.35965E-02 7.40460E-02 3.35419E-02
 -1       998 7.63080E-03 8.29874E-02 3.84992E-02
 -1      1000 7.00658E-03 8.81028E-02 3.87997E-02
 -1      1001-1.14450E-03 8.68482E-02 4.18801E-02
 -1      1003-1.44084E-03 9.24942E-02 4.22909E-02
 -1      1004-1.03900E-02 8.01013E-02 4.31921E-02
 -1      1006-1.04310E-02 8.60376E-02 4.35399E-02
 -1      1007-1.87449E-02 6.28929E-02 4.24954E-02
 -1      1009-1.85119E-02 6.88825E-02 4.28242E-02
 -1      1010-2.49534E-02 3.71372E-02 4.00176E-02
 -1      1012-2.44987E-02 4.29617E-02 4.01973E-02
 -1      1013-2.80941E-02 5.90468E-03 3.60201E-02
 -1      1015-2.74608E-02 1.13629E-02 3.60917E-02
 -1      1016-2.76857E-02-2.68389E-02 3.09528E-02
 -1      1018-2.69359E-02-2.19072E-02 3.08476E-02
 -1      1019-2.37162E-02-5.68820E-02 2.52053E-02
 -1      1021-2.29100E-02-5.26077E-02 2.49818E-02
 -1      1022-1.66740E-02-8.02783E-02 1.92473E-02
 -1      1024-1.58681E-02-7.67466E-02 1.88945E-02
 -1      1025-7.44563E-03-9.39167E-02 1.34172E-02
 -1      1027-6.68613E-03-9.11831E-02 1.30127E-02
 -1      1028 2.77118E-03-9.59198E-02 8.02742E-03
 -1      1030 3.45360E-03-9.40034E-02 7.59633E-03
 -1      1031 1.26525E-02-8.59163E-02 3.22001E-03
 -1      1033 1.32435E-02-8.48169E-02 2.84156E-03
 -1      1034 2.08992E-02-6.50917E-02-9.37966E-04
 -1      1036 2.14020E-02-6.47890E-02-1.23367E-03
 -1      1037 2.64250E-02-3.60523E-02-4.53273E-03
 -1      1039 2.68564E-02-3.65203E-02-4.68949E-03
 -1      1040 2.84820E-02-2.49105E-03-7.70368E-03
 -1      1042 2.88697E-02-3.69840E-03-7.71461E-03
 -1      1043 2.67683E-02 3.12746E-02-1.06725E-02
 -1      1045 2.71436E-02 2.93565E-02-1.05215E-02
 -1      1046 2.14547E-02 6.08565E-02-1.36426E-02
 -1      1048 2.18474E-02 5.82551E-02-1.33584E-02
 -1      1049 1.31622E-02 8.23384E-02-1.68069E-02
 -1      1051 1.35940E-02 7.90797E-02-1.64128E-02
 -1      1052 2.87010E-03 9.27691E-02-2.02628E-02
 -1      1054 3.35030E-03 8.88820E-02-1.98147E-02
 -1      1055-8.22430E-03 9.04953E-02-2.40290E-02
 -1      1057-7.70131E-03 8.60160E-02-2.35701E-02
 -1      1058-1.88747E-02 7.53419E-02-2.79896E-02
 -1      1060-1.83326E-02 7.03187E-02-2.75773E-02
 -1      1061-2.79807E-02 4.85355E-02-3.19449E-02
 -1      1063-2.74523E-02 4.30326E-02-3.16144E-02
 -1      1064-3.47478E-02 1.24841E-02-3.55767E-02
 -1      1066-3.42876E-02 6.58273E-03-3.53552E-02
 -1      1067-3.88753E-02-2.97590E-02-3.85691E-02
 -1      1069-3.85164E-02-3.59648E-02-3.84588E-02
 -1      1070-4.05535E-02-7.49346E-02-4.05094E-02
 -1      1072-4.03798E-02-8.13356E-02-4.04877E-02
 -1      1073 0.00000E+00 0.00000E+00 1.22781E-04
 -1      1075 0.00000E+00-0.00000E+00-1.22781E-04
 -1      1076 0.00000E+00-6.39828E-16 0.00000E+00
 -1      1078 0.00000E+00 6.39828E-16 0.00000E+00
 -1      1079 0.00000E+00-5.08206E-16 0.00000E+00
 -1      1081 0.00000E+00 5.08206E-16 0.00000E+00
 -1      1082 0.00000E+00-7.56841E-16 0.00000E+00
 -1      1084 0.00000E+00 7.56841E-16 0.00000E+00
 -1      1085 9.22325E-04 9.30849E-03-4.38884E-04
 -1      1087-9.22325E-04 9.30849E-03 4.38884E-04
 -1      1088-2.39519E-14 8.61955E-03-5.72460E-14
 -1      1090-3.62743E-14 9.99744E-03-5.90776E-14
 -1      1099 9.70221E-04 2.96095E-02-1.02139E-03
 -1      1101-9.70221E-04 2.96095E-02 1.02139E-03
 -1      1102-5.79431E-14 2.80061E-02-1.86946E-13
 -1      1104-7.82743E-14 3.12128E-02-1.88615E-13
 -1      1113 1.07666E-03 5.20247E-02-1.46757E-03
 -1      1115-1.07666E-03 5.20247E-02 1.46757E-03
 -1      1116-1.07134E-13 4.97209E-02-3.34299E-13
 -1      1118-1.24920E-13 5.43284E-02-3.37143E-13
 -1      1127 8.07492E-04 7.27213E-02-1.86590E-03
 -1      1129-8.07492E-04 7.27213E-02 1.86590E-03
 -1      1130-1.70308E-13 6.97923E-02-4.62998E-13
 -1      1132-1.85331E-13 7.56504E-02-4.66169E-13
 -1      1141 4.55385E-04 8.65849E-02-2.13955E-03
 -1      1143-4.55385E-04 8.65849E-02 2.13955E-03
 -1      1144-2.42180E-13 8.32263E-02-5.66560E-13
 -1      1146-2.55623E-13 8.99435E-02-5.71349E-13
 -1      1155-4.01226E-05 9.09749E-02-2.28073E-03
 -1      1157 4.01226E-05 9.09749E-02 2.28073E-03
 -1      1158-3.22113E-13 8.73947E-02-6.30438E-13
 -1      1160-3.27603E-13 9.45551E-02-6.34252E-13
 -1      1169-5.35419E-04 8.42903E-02-2.28647E-03
 -1      1171 5.35419E-04 8.42903E-02 2.28647E-03
 -1      1172-3.99860E-13 8.07011E-02-6.02044E-13
 -1      1174-3.88565E-13 8.78795E-02-6.06864E-13
 -1      1183-9.93739E-04 6.69230E-02-2.15128E-03
 -1      1185 9.93739E-04 6.69230E-02 2.15128E-03
 -1      1186-4.52560E-13 6.35459E-02-5.20752E-13
 -1      1188-4.44525E-13 7.03000E-02-5.21470E-13
 -1      1197-1.32814E-03 4.07009E-02-1.90591E-03
 -1      1199 1.32814E-03 4.07009E-02 1.90591E-03
 -1      1200-4.99004E-13 3.77091E-02-4.80793E-13
 -1      1202-5.04898E-13 4.36928E-02-4.82576E-13
 -1      1211-1.50208E-03 8.83076E-03-1.56816E-03
 -1      1213 1.50208E-03 8.83076E-03 1.56816E-03
 -1      1214-5.62623E-13 6.36911E-03-4.57775E-13
 -1      1216-5.63402E-13 1.12924E-02-4.59255E-13
 -1      1225-1.48271E-03-2.46813E-02-1.18439E-03
 -1      1227 1.48271E-03-2.46813E-02 1.18439E-03
 -1      1228-6.23277E-13-2.65406E-02-3.71841E-13
 -1      1230-6.12248E-13-2.28221E-02-3.74357E-13
 -1      1239-1.27421E-03-5.55146E-02-7.85766E-04
 -1      1241 1.27421E-03-5.55146E-02 7.85766E-04
 -1      1242-6.69977E-13-5.67481E-02-2.28921E-13
 -1      1244-6.54612E-13-5.42811E-02-2.32592E-13
 -1      1253-8.99813E-04-7.96536E-02-4.16167E-04
 -1      1255 8.99813E-04-7.96536E-02 4.16167E-04
 -1      1256-7.15550E-13-8.03069E-02-6.13409E-14
 -1      1258-6.96862E-13-7.90003E-02-6.48932E-14
 -1      1267-4.08882E-04-9.39121E-02-1.01222E-04
 -1      1269 4.08882E-04-9.39121E-02 1.01222E-04
 -1      1270-7.59879E-13-9.40710E-02 1.01689E-13
 -1      1272-7.43540E-13-9.37532E-02 1.00580E-13
 -1      1281 1.35937E-04-9.63710E-02 1.34198E-04
 -1      1283-1.35937E-04-9.63710E-02-1.34198E-04
 -1      1284-8.01127E-13-9.61604E-02 2.74133E-13
 -1      1286-7.79860E-13-9.65817E-02 2.69391E-13
 -1      1295 6.63017E-04-8.66373E-02 2.84728E-04
 -1      1297-6.63017E-04-8.66373E-02-2.84728E-04
 -1      1298-8.22757E-13-8.61903E-02 4.73701E-13
 -1      1300-7.95247E-13-8.70842E-02 4.72133E-13
 -1      1309 1.10368E-03-6.59067E-02 3.52344E-04
 -1      1311-1.10368E-03-6.59067E-02-3.52344E-04
 -1      1312-8.08311E-13-6.53536E-02 6.32388E-13
 -1      1314-7.95685E-13-6.64598E-02 6.33714E-13
 -1      1323 1.39950E-03-3.68186E-02 3.54811E-04
 -1      1325-1.39950E-03-3.68186E-02-3.54811E-04
 -1      1326-7.77974E-13-3.62616E-02 7.01951E-13
 -1      1328-7.73617E-13-3.73755E-02 7.03161E-13
 -1      1337 1.51102E-03-3.12048E-03 3.16039E-04
 -1      1339-1.51102E-03-3.12048E-03-3.16039E-04
 -1      1340-7.33892E-13-2.62437E-03 7.21648E-13
 -1      1342-7.31419E-13-3.61659E-03 7.24556E-13
 -1      1351 1.42196E-03 3.08061E-02 2.66845E-04
 -1      1353-1.42196E-03 3.08061E-02-2.66845E-04
 -1      1354-6.82308E-13 3.12250E-02 6.99955E-13
 -1      1356-6.88425E-13 3.03872E-02 7.00078E-13
 -1      1365 1.14203E-03 6.05065E-02 2.37735E-04
 -1      1367-1.14203E-03 6.05065E-02-2.37735E-04
 -1      1368-6.40498E-13 6.08797E-02 6.42911E-13
 -1      1370-6.47007E-13 6.01333E-02 6.43185E-13
 -1      1379 7.04112E-04 8.20071E-02 2.54994E-04
 -1      1381-7.04112E-04 8.20071E-02-2.54994E-04
 -1      1382-6.03985E-13 8.24074E-02 5.91313E-13
 -1      1384-6.08337E-13 8.16068E-02 5.91644E-13
 -1      1393 1.62189E-04 9.23190E-02 3.37600E-04
 -1      1395-1.62189E-04 9.23190E-02-3.37600E-04
 -1      1396-5.67970E-13 9.28490E-02 5.18349E-13
 -1      1398-5.79387E-13 9.17891E-02 5.19889E-13
 -1      1407-4.21517E-04 8.97699E-02 4.91315E-04
 -1      1409 4.21517E-04 8.97699E-02-4.91315E-04
 -1      1410-5.35420E-13 9.05412E-02 3.47266E-13
 -1      1412-5.67752E-13 8.89987E-02 3.48810E-13
 -1      1421-9.75046E-04 7.42042E-02 7.11564E-04
 -1      1423 9.75046E-04 7.42042E-02-7.11564E-04
 -1      1424-5.18717E-13 7.53212E-02 7.90713E-14
 -1      1426-5.57894E-13 7.30872E-02 7.91667E-14
 -1      1435-1.44602E-03 4.68779E-02 9.77371E-04
 -1      1437 1.44602E-03 4.68779E-02-9.77371E-04
 -1      1438-5.12381E-13 4.84122E-02-1.94649E-13
 -1      1440-5.44254E-13 4.53437E-02-1.97288E-13
 -1      1449-1.77731E-03 1.02710E-02 1.25966E-03
 -1      1451 1.77731E-03 1.02710E-02-1.25966E-03
 -1      1452-5.03192E-13 1.22484E-02-4.44654E-13
 -1      1454-5.32700E-13 8.29367E-03-4.40527E-13
 -1      1463-1.96946E-03-3.24832E-02 1.51781E-03
 -1      1465 1.96946E-03-3.24832E-02-1.51781E-03
 -1      1466-4.87490E-13-3.01006E-02-7.07331E-13
 -1      1468-5.25109E-13-3.48658E-02-7.08273E-13
 -1      1477-2.00079E-03-7.80637E-02 1.70457E-03
 -1      1479 2.00079E-03-7.80637E-02-1.70457E-03
 -1      1480-4.77092E-13-7.53880E-02-1.00394E-12
 -1      1482-5.17860E-13-8.07395E-02-1.00216E-12
 -1      1491-1.97560E-03-1.53209E-01-7.37325E-04
 -1      1493 1.97560E-03-1.53209E-01 7.37325E-04
 -1      1494-1.99187E-03-1.61698E-01-1.40032E-12
 -1      1496 1.99187E-03-1.61698E-01-1.18533E-12
 -1      1497-1.97560E-03-1.53209E-01 7.37325E-04
 -1      1499 1.97560E-03-1.53209E-01-7.37325E-04
 -1      1500 1.22359E-02 1.07567E-02-7.87707E-03
 -1      1502 1.02796E-02 1.18895E-02-7.62970E-03
 -1      1503 1.71043E-02 2.83882E-02-1.82302E-02
 -1      1505 1.62169E-02 3.07294E-02-1.80989E-02
 -1      1506 1.81093E-02 5.03191E-02-2.60712E-02
 -1      1508 1.69048E-02 5.37281E-02-2.61221E-02
 -1      1509 1.43635E-02 6.96725E-02-3.32874E-02
 -1      1511 1.35965E-02 7.40460E-02-3.35419E-02
 -1      1512 7.63080E-03 8.29874E-02-3.84992E-02
 -1      1514 7.00658E-03 8.81028E-02-3.87997E-02
 -1      1515-1.14450E-03 8.68482E-02-4.18801E-02
 -1      1517-1.44084E-03 9.24942E-02-4.22909E-02
 -1      1518-1.03900E-02 8.01013E-02-4.31921E-02
 -1      1520-1.04310E-02 8.60376E-02-4.35399E-02
 -1      1521-1.87449E-02 6.28929E-02-4.24954E-02
 -1      1523-1.85119E-02 6.88825E-02-4.28242E-02
 -1      1524-2.49534E-02 3.71372E-02-4.00176E-02
 -1      1526-2.44987E-02 4.29617E-02-4.01973E-02
 -1      1527-2.80941E-02 5.90468E-03-3.60201E-02
 -1      1529-2.74608E-02 1.13629E-02-3.60917E-02
 -1      1530-2.76857E-02-2.68389E-02-3.09528E-02
 -1      1532-2.69359E-02-2.19072E-02-3.08476E-02
 -1      1533-2.37162E-02-5.68820E-02-2.52053E-02
 -1      1535-2.29100E-02-5.26077E-02-2.49818E-02
 -1      1536-1.66740E-02-8.02783E-02-1.92473E-02
 -1      1538-1.58681E-02-7.67466E-02-1.88945E-02
 -1      1539-7.44563E-03-9.39167E-02-1.34172E-02
 -1      1541-6.68613E-03-9.11831E-02-1.30127E-02
 -1      1542 2.77118E-03-9.59198E-02-8.02742E-03
 -1      1544 3.45360E-03-9.40034E-02-7.59633E-03
 -1      1545 1.26525E-02-8.59163E-02-3.22001E-03
 -1      1547 1.32435E-02-8.48169E-02-2.84156E-03
 -1      1548 2.08992E-02-6.50917E-02 9.37966E-04
 -1      1550 2.14020E-02-6.47890E-02 1.23367E-03
 -1      1551 2.64250E-02-3.60523E-02 4.53273E-03
 -1      1553 2.68564E-02-3.65203E-02 4.68949E-03
 -1      1554 2.84820E-02-2.49105E-03 7.70368E-03
 -1      1556 2.88697E-02-3.69840E-03 7.71461E-03
 -1      1557 2.67683E-02 3.12746E-02 1.06725E-02
 -1      1559 2.71436E-02 2.93565E-02 1.05215E-02
 -1      1560 2.14547E-02 6.08565E-02 1.36426E-02
 -1      1562 2.18474E-02 5.82551E-02 1.33584E-02
 -1      1563 1.31622E-02 8.23384E-02 1.68069E-02
 -1      1565 1.35940E-02 7.90797E-02 1.64128E-02
 -1      1566 2.87010E-03 9.27691E-02 2.02628E-02
 -1      1568 3.35030E-03 8.88820E-02 1.98147E-02
 -1      1569-8.22430E-03 9.04953E-02 2.40290E-02
 -1      1571-7.70131E-03 8.60160E-02 2.35701E-02
 -1      1572-1.88747E-02 7.53419E-02 2.79896E-02
 -1      1574-1.83326E-02 7.03187E-02 2.75773E-02
 -1      1575-2.79807E-02 4.85355E-02 3.19449E-02
 -1      1577-2.74523E-02 4.30326E-02 3.16144E-02
 -1      1578-3.47478E-02 1.24841E-02 3.55767E-02
 -1      1580-3.42876E-02 6.58273E-03 3.53552E-02
 -1      1581-3.88753E-02-2.97590E-02 3.85691E-02
 -1      1583-3.85164E-02-3.59648E-02 3.84588E-02
 -1      1584-4.05535E-02-7.49346E-02 4.05094E-02
 -1      1586-4.03798E-02-8.13356E-02 4.04877E-02
 -1      1587-2.03613E-02-1.20650E-01 1.99044E-02
 -1      1589-2.03368E-02-1.26996E-01 1.98927E-02
 -1      1590 0.00000E+00 0.00000E+00-1.22781E-04
 -1      1592 0.00000E+00 0.00000E+00 1.22781E-04
 -1      1593 2.03613E-02-1.20650E-01-1.99044E-02
 -1      1595 2.03368E-02-1.26996E-01-1.98927E-02
 -1      1596-1.22359E-02 1.07567E-02 7.87707E-03
 -1      1598-1.02796E-02 1.18895E-02 7.62970E-03
 -1      1599-1.71043E-02 2.83882E-02 1.82302E-02
 -1      1601-1.62169E-02 3.07294E-02 1.80989E-02
 -1      1602-1.81093E-02 5.03191E-02 2.60712E-02
 -1      1604-1.69048E-02 5.37281E-02 2.61221E-02
 -1      1605-1.43635E-02 6.96725E-02 3.32874E-02
 -1      1607-1.35965E-02 7.40460E-02 3.35419E-02
 -1      1608-7.63080E-03 8.29874E-02 3.84992E-02
 -1      1610-7.00658E-03 8.81028E-02 3.87997E-02
 -1      1611 1.14450E-03 8.68482E-02 4.18801E-02
 -1      1613 1.44084E-03 9.24942E-02 4.22909E-02
 -1      1614 1.03900E-02 8.01013E-02 4.31921E-02
 -1      1616 1.04310E-02 8.60376E-02 4.35399E-02
 -1      1617 1.87449E-02 6.28929E-02 4.24954E-02
 -1      1619 1.85119E-02 6.88825E-02 4.28242E-02
 -1      1620 2.49534E-02 3.71372E-02 4.00176E-02
 -1      1622 2.44987E-02 4.29617E-02 4.01973E-02
 -1      1623 2.80941E-02 5.90468E-03 3.60201E-02
 -1      1625 2.74608E-02 1.13629E-02 3.60917E-02
 -1      1626 2.76857E-02-2.68389E-02 3.09528E-02
 -1      1628 2.69359E-02-2.19072E-02 3.08476E-02
 -1      1629 2.37162E-02-5.68820E-02 2.52053E-02
 -1      1631 2.29100E-02-5.26077E-02 2.49818E-02
 -1      1632 1.66740E-02-8.02783E-02 1.92473E-02
 -1      1634 1.58681E-02-7.67466E-02 1.88945E-02
 -1      1635 7.44563E-03-9.39167E-02 1.34172E-02
 -1      1637 6.68613E-03-9.11831E-02 1.30127E-02
 -1      1638-2.77118E-03-9.59198E-02 8.02742E-03
 -1      1640-3.45360E-03-9.40034E-02 7.59633E-03
 -1      1641-1.26525E-02-8.59163E-02 3.22001E-03
 -1      1643-1.32435E-02-8.48169E-02 2.84156E-03
 -1      1644-2.08992E-02-6.50917E-02-9.37966E-04
 -1      1646-2.14020E-02-6.47890E-02-1.23367E-03
 -1      1647-2.64250E-02-3.60523E-02-4.53273E-03
 -1      1649-2.68564E-02-3.65203E-02-4.68949E-03
 -1      1650-2.84820E-02-2.49105E-03-7.70368E-03
 -1      1652-2.88697E-02-3.69840E-03-7.71461E-03
 -1      1653-2.67683E-02 3.12746E-02-1.06725E-02
 -1      1655-2.71436E-02 2.93565E-02-1.05215E-02
 -1      1656-2.14547E-02 6.08565E-02-1.36426E-02
 -1      1658-2.18474E-02 5.82551E-02-1.33584E-02
 -1      1659-1.31622E-02 8.23384E-02-1.68069E-02
 -1      1661-1.35940E-02 7.90797E-02-1.64128E-02
 -1      1662-2.87010E-03 9.27691E-02-2.02628E-02
 -1      1664-3.35030E-03 8.88820E-02-1.98147E-02
 -1      1665 8.22430E-03 9.04953E-02-2.40290E-02
 -1      1667 7.70131E-03 8.60160E-02-2.35701E-02
 -1      1668 1.88747E-02 7.53419E-02-2.79896E-02
 -1      1670 1.83326E-02 7.03187E-02-2.75773E-02
 -1      1671 2.79807E-02 4.85355E-02-3.19449E-02
 -1      1673 2.74523E-02 4.30326E-02-3.16144E-02
 -1      1674 3.47478E-02 1.24841E-02-3.55767E-02
 -1      1676 3.42876E-02 6.58273E-03-3.53552E-02
 -1      1677 3.88753E-02-2.97590E-02-3.85691E-02
 -1      1679 3.85164E-02-3.59648E-02-3.84588E-02
 -1      1680 4.05535E-02-7.49346E-02-4.05094E-02
 -1      1682 4.03798E-02-8.13356E-02-4.04877E-02
 -1      1683 0.00000E+00 0.00000E+00 1.22781E-04
 -1      1685 0.00000E+00 0.00000E+00-1.22781E-04
 -1      1686-5.22416E-03 9.24229E-03-4.14629E-03
 -1      1688-4.13466E-03 1.03313E-02-3.96827E-03
 -1      1689-8.18401E-03 2.82839E-02-9.86614E-03
 -1      1691-7.69844E-03 3.09388E-02-9.79596E-03
 -1      1692-8.50722E-03 5.00677E-02-1.40197E-02
 -1      1694-7.85072E-03 5.39091E-02-1.40471E-02
 -1      1695-6.86753E-03 7.00530E-02-1.79209E-02
 -1      1697-6.45443E-03 7.49455E-02-1.80094E-02
 -1      1698-3.57803E-03 8.34440E-02-2.05808E-02
 -1      1700-3.25727E-03 8.91378E-02-2.07315E-02
 -1      1701 6.31208E-04 8.75237E-02-2.22371E-02
 -1      1703 7.64546E-04 9.37349E-02-2.24033E-02
 -1      1704 5.11667E-03 8.07260E-02-2.26370E-02
 -1      1706 5.09606E-03 8.71874E-02-2.28052E-02
 -1      1707 9.15767E-03 6.34380E-02-2.19120E-02
 -1      1709 8.98041E-03 6.98544E-02-2.20488E-02
 -1      1710 1.21663E-02 3.74563E-02-2.01505E-02
 -1      1712 1.18624E-02 4.35868E-02-2.02370E-02
 -1      1713 1.36831E-02 5.96782E-03-1.75833E-02
 -1      1715 1.32848E-02 1.15830E-02-1.76080E-02
 -1      1716 1.34767E-02-2.70755E-02-1.44727E-02
 -1      1718 1.30235E-02-2.21343E-02-1.44259E-02
 -1      1719 1.15401E-02-5.73863E-02-1.11075E-02
 -1      1721 1.10727E-02-5.32413E-02-1.10004E-02
 -1      1722 8.11000E-03-8.10027E-02-7.77295E-03
 -1      1724 7.66436E-03-7.77081E-02-7.61134E-03
 -1      1725 3.61821E-03-9.47670E-02-4.69975E-03
 -1      1727 3.22357E-03-9.23404E-02-4.51193E-03
 -1      1728-1.35351E-03-9.67945E-02-2.06568E-03
 -1      1730-1.67970E-03-9.52063E-02-1.86791E-03
 -1      1731-6.16063E-03-8.67007E-02 5.11131E-05
 -1      1733-6.41228E-03-8.59030E-02 2.25456E-04
 -1      1734-1.01714E-02-6.56876E-02 1.64511E-03
 -1      1736-1.03552E-02-6.56158E-02 1.78047E-03
 -1      1737-1.28572E-02-3.63795E-02 2.80689E-03
 -1      1739-1.29894E-02-3.69745E-02 2.87842E-03
 -1      1740-1.38539E-02-2.50724E-03 3.67548E-03
 -1      1742-1.39581E-02-3.71838E-03 3.67953E-03
 -1      1743-1.30146E-02 3.15772E-02 4.43923E-03
 -1      1745-1.31172E-02 2.97809E-02 4.36853E-03
 -1      1746-1.04209E-02 6.14415E-02 5.27893E-03
 -1      1748-1.05468E-02 5.90731E-02 5.14661E-03
 -1      1749-6.37550E-03 8.31403E-02 6.35971E-03
 -1      1751-6.54353E-03 8.01978E-02 6.17614E-03
 -1      1752-1.35167E-03 9.36908E-02 7.78025E-03
 -1      1754-1.57145E-03 9.01641E-02 7.57129E-03
 -1      1755 4.06751E-03 9.14362E-02 9.57474E-03
 -1      1757 3.79750E-03 8.73208E-02 9.35920E-03
 -1      1758 9.28039E-03 7.61928E-02 1.16777E-02
 -1      1760 8.97523E-03 7.14977E-02 1.14832E-02
 -1      1761 1.37535E-02 4.92213E-02 1.39558E-02
 -1      1763 1.34360E-02 4.39860E-02 1.37949E-02
 -1      1764 1.71054E-02 1.29347E-02 1.61758E-02
 -1      1766 1.68152E-02 7.23068E-03 1.60652E-02
 -1      1767 1.91914E-02-2.95306E-02 1.81002E-02
 -1      1769 1.89555E-02-3.55895E-02 1.80339E-02
 -1      1770 2.01468E-02-7.49344E-02 1.93926E-02
 -1      1772 2.00297E-02-8.12050E-02 1.93630E-02
 -1      1773 5.22416E-03 9.24229E-03 4.14629E-03
 -1      1775 4.13466E-03 1.03313E-02 3.96827E-03
 -1      1776 8.18401E-03 2.82839E-02 9.86614E-03
 -1      1778 7.69844E-03 3.09388E-02 9.79596E-03
 -1      1779 8.50722E-03 5.00677E-02 1.40197E-02
 -1      1781 7.85072E-03 5.39091E-02 1.40471E-02
 -1      1782 6.86753E-03 7.00530E-02 1.79209E-02
 -1      1784 6.45443E-03 7.49455E-02 1.80094E-02
 -1      1785 3.57803E-03 8.34440E-02 2.05808E-02
 -1      1787 3.25727E-03 8.91378E-02 2.07315E-02
 -1      1788-6.31208E-04 8.75237E-02 2.22371E-02
 -1      1790-7.64546E-04 9.37349E-02 2.24033E-02
 -1      1791-5.11667E-03 8.07260E-02 2.26370E-02
 -1      1793-5.09606E-03 8.71874E-02 2.28052E-02
 -1      1794-9.15767E-03 6.34380E-02 2.19120E-02
 -1      1796-8.98041E-03 6.98544E-02 2.20488E-02
 -1      1797-1.21663E-02 3.74563E-02 2.01505E-02
 -1      1799-1.18624E-02 4.35868E-02 2.02370E-02
 -1      1800-1.36831E-02 5.96782E-03 1.75833E-02
 -1      1802-1.32848E-02 1.15830E-02 1.76080E-02
 -1      1803-1.34767E-02-2.70755E-02 1.44727E-02
 -1      1805-1.30235E-02-2.21343E-02 1.44259E-02
 -1      1806-1.15401E-02-5.73863E-02 1.11075E-02
 -1      1808-1.10727E-02-5.32413E-02 1.10004E-02
 -1      1809-8.11000E-03-8.10027E-02 7.77295E-03
 -1      1811-7.66436E-03-7.77081E-02 7.61134E-03
 -1      1812-3.61821E-03-9.47670E-02 4.69975E-03
 -1      1814-3.22357E-03-9.23404E-02 4.51193E-03
 -1      1815 1.35351E-03-9.67945E-02 2.06568E-03
 -1      1817 1.67970E-03-9.52063E-02 1.86791E-03
 -1      1818 6.16063E-03-8.67007E-02-5.11131E-05
 -1      1820 6.41228E-03-8.59030E-02-2.25456E-04
 -1      1821 1.01714E-02-6.56876E-02-1.64511E-03
 -1      1823 1.03552E-02-6.56158E-02-1.78047E-03
 -1      1824 1.28572E-02-3.63795E-02-2.80689E-03
 -1      1826 1.29894E-02-3.69745E-02-2.87842E-03
 -1      1827 1.38539E-02-2.50724E-03-3.67548E-03
 -1      1829 1.39581E-02-3.71838E-03-3.67953E-03
 -1      1830 1.30146E-02 3.15772E-02-4.43923E-03
 -1      1832 1.31172E-02 2.97809E-02-4.36853E-03
 -1      1833 1.04209E-02 6.14415E-02-5.27893E-03
 -1      1835 1.05468E-02 5.90731E-02-5.14661E-03
 -1      1836 6.37550E-03 8.31403E-02-6.35971E-03
 -1      1838 6.54353E-03 8.01978E-02-6.17614E-03
 -1      1839 1.35167E-03 9.36908E-02-7.78025E-03
 -1      1841 1.57145E-03 9.01641E-02-7.57129E-03
 -1      1842-4.06751E-03 9.14362E-02-9.57474E-03
 -1      1844-3.79750E-03 8.73208E-02-9.35920E-03
 -1      1845-9.28039E-03 7.61928E-02-1.16777E-02
 -1      1847-8.97523E-03 7.14977E-02-1.14832E-02
 -1      1848-1.37535E-02 4.92213E-02-1.39558E-02
 -1      1850-1.34360E-02 4.39860E-02-1.37949E-02
 -1      1851-1.71054E-02 1.29347E-02-1.61758E-02
 -1      1853-1.68152E-02 7.23068E-03-1.60652E-02
 -1      1854-1.91914E-02-2.95306E-02-1.81002E-02
 -1      1856-1.89555E-02-3.55895E-02-1.80339E-02
 -1      1857-2.01468E-02-7.49344E-02-1.93926E-02
 -1      1859-2.00297E-02-8.12050E-02-1.93630E-02
 -1      1860 1.42790E-03 1.83001E-02 3.30426E-04
 -1      1862-1.42790E-03 1.83001E-02-3.30426E-04
 -1      1863 1.17229E-03 5.00257E-02 7.26180E-04
 -1      1865-1.17229E-03 5.00257E-02-7.26180E-04
 -1      1866 1.38960E-03 8.12512E-02 1.04171E-03
 -1      1868-1.38960E-03 8.12512E-02-1.04171E-03
 -1      1869 9.70006E-04 1.09821E-01 1.30844E-03
 -1      1871-9.70006E-04 1.09821E-01-1.30844E-03
 -1      1872 5.84649E-04 1.28725E-01 1.47671E-03
 -1      1874-5.84649E-04 1.28725E-01-1.47671E-03
 -1      1875-2.74807E-05 1.35619E-01 1.54149E-03
 -1      1877 2.74807E-05 1.35619E-01-1.54149E-03
 -1      1878-5.98279E-04 1.28347E-01 1.49474E-03
 -1      1880 5.98279E-04 1.28347E-01-1.49474E-03
 -1      1881-1.14587E-03 1.07664E-01 1.34091E-03
 -1      1883 1.14587E-03 1.07664E-01-1.34091E-03
 -1      1884-1.53915E-03 7.56956E-02 1.10175E-03
 -1      1886 1.53915E-03 7.56956E-02-1.10175E-03
 -1      1887-1.75497E-03 3.63849E-02 7.99965E-04
 -1      1889 1.75497E-03 3.63849E-02-7.99965E-04
 -1      1890-1.74612E-03-5.47984E-03 4.73935E-04
 -1      1892 1.74612E-03-5.47984E-03-4.73935E-04
 -1      1893-1.52269E-03-4.46738E-02 1.55135E-04
 -1      1895 1.52269E-03-4.46738E-02-1.55135E-04
 -1      1896-1.10808E-03-7.63659E-02-1.19201E-04
 -1      1898 1.10808E-03-7.63659E-02 1.19201E-04
 -1      1899-5.59693E-04-9.66847E-02-3.25367E-04
 -1      1901 5.59693E-04-9.66847E-02 3.25367E-04
 -1      1902 5.22439E-05-1.03273E-01-4.43709E-04
 -1      1904-5.22439E-05-1.03273E-01 4.43709E-04
 -1      1905 6.46227E-04-9.55766E-02-4.71188E-04
 -1      1907-6.46227E-04-9.55766E-02 4.71188E-04
 -1      1908 1.14455E-03-7.49292E-02-4.13451E-04
 -1      1910-1.14455E-03-7.49292E-02 4.13451E-04
 -1      1911 1.48102E-03-4.43751E-02-2.90111E-04
 -1      1913-1.48102E-03-4.43751E-02 2.90111E-04
 -1      1914 1.61094E-03-8.27461E-03-1.27397E-04
 -1      1916-1.61094E-03-8.27461E-03 1.27397E-04
 -1      1917 1.51601E-03 2.82640E-02 4.25488E-05
 -1      1919-1.51601E-03 2.82640E-02-4.25488E-05
 -1      1920 1.20747E-03 6.00485E-02 1.87741E-04
 -1      1922-1.20747E-03 6.00485E-02-1.87741E-04
 -1      1923 7.22827E-04 8.24663E-02 2.80666E-04
 -1      1925-7.22827E-04 8.24663E-02-2.80666E-04
 -1      1926 1.23990E-04 9.20857E-02 3.01196E-04
 -1      1928-1.23990E-04 9.20857E-02-3.01196E-04
 -1      1929-5.18399E-04 8.70511E-02 2.41993E-04
 -1      1931 5.18399E-04 8.70511E-02-2.41993E-04
 -1      1932-1.12037E-03 6.73433E-02 1.06682E-04
 -1      1934 1.12037E-03 6.73433E-02-1.06682E-04
 -1      1935-1.62440E-03 3.46298E-02-8.58113E-05
 -1      1937 1.62440E-03 3.46298E-02 8.58113E-05
 -1      1938-1.95672E-03-7.86374E-03-3.07045E-04
 -1      1940 1.95672E-03-7.86374E-03 3.07045E-04
 -1      1941-2.12981E-03-5.61641E-02-5.18500E-04
 -1      1943 2.12981E-03-5.61641E-02 5.18500E-04
 -1      1944-2.08593E-03-1.05767E-01-6.75407E-04
 -1      1946 2.08593E-03-1.05767E-01 6.75407E-04
 -1      1947 1.93348E-03 2.20613E-02-1.07250E-13
 -1      1949-1.93348E-03 2.20613E-02-1.14529E-13
 -1      1950 1.37437E-03 5.85190E-02-2.19413E-13
 -1      1952-1.37437E-03 5.85190E-02-2.34880E-13
 -1      1953 1.70254E-03 9.33081E-02-3.42362E-13
 -1      1955-1.70254E-03 9.33081E-02-3.60413E-13
 -1      1956 1.13252E-03 1.25036E-01-4.53703E-13
 -1      1958-1.13252E-03 1.25036E-01-4.66328E-13
 -1      1959 7.13913E-04 1.45842E-01-5.43524E-13
 -1      1961-7.13913E-04 1.45842E-01-5.42729E-13
 -1      1962-1.48388E-05 1.53523E-01-6.08898E-13
 -1      1964 1.48388E-05 1.53523E-01-5.88335E-13
 -1      1965-6.61140E-04 1.45682E-01-6.26811E-13
 -1      1967 6.61140E-04 1.45682E-01-5.87370E-13
 -1      1968-1.29800E-03 1.23245E-01-5.99812E-13
 -1      1970 1.29800E-03 1.23245E-01-5.50081E-13
 -1      1971-1.75017E-03 8.84903E-02-5.47361E-13
 -1      1973 1.75017E-03 8.84903E-02-4.95402E-13
 -1      1974-2.00785E-03 4.57076E-02-4.90288E-13
 -1      1976 2.00785E-03 4.57076E-02-4.36172E-13
 -1      1977-2.00952E-03 5.69091E-05-4.24358E-13
 -1      1979 2.00952E-03 5.69091E-05-3.64795E-13
 -1      1980-1.77117E-03-4.28136E-02-3.26916E-13
 -1      1982 1.77117E-03-4.28136E-02-2.59998E-13
 -1      1983-1.31635E-03-7.76917E-02-1.96086E-13
 -1      1985 1.31635E-03-7.76917E-02-1.31960E-13
 -1      1986-7.10505E-04-1.00393E-01-3.57353E-14
 -1      1988 7.10505E-04-1.00393E-01 2.00291E-14
 -1      1989-3.14492E-05-1.08364E-01 1.55743E-13
 -1      1991 3.14492E-05-1.08364E-01 1.99334E-13
 -1      1992 6.29436E-04-1.00990E-01 3.57339E-13
 -1      1994-6.29436E-04-1.00990E-01 3.82087E-13
 -1      1995 1.18543E-03-7.96904E-02 5.29146E-13
 -1      1997-1.18543E-03-7.96904E-02 5.38344E-13
 -1      1998 1.56254E-03-4.77206E-02 6.52811E-13
 -1      2000-1.56254E-03-4.77206E-02 6.51347E-13
 -1      2001 1.71086E-03-9.75276E-03 7.15504E-13
 -1      2003-1.71086E-03-9.75276E-03 7.05522E-13
 -1      2004 1.61007E-03 2.87387E-02 7.18287E-13
 -1      2006-1.61007E-03 2.87387E-02 7.04013E-13
 -1      2007 1.27291E-03 6.21923E-02 6.73905E-13
 -1      2009-1.27291E-03 6.21923E-02 6.59195E-13
 -1      2010 7.41541E-04 8.56745E-02 5.83839E-13
 -1      2012-7.41541E-04 8.56745E-02 5.76837E-13
 -1      2013 8.57918E-05 9.55296E-02 4.40281E-13
 -1      2015-8.57918E-05 9.55296E-02 4.48945E-13
 -1      2016-6.15281E-04 8.98058E-02 2.39701E-13
 -1      2018 6.15281E-04 8.98058E-02 2.69733E-13
 -1      2019-1.26570E-03 6.85430E-02-1.09717E-14
 -1      2021 1.26570E-03 6.85430E-02 4.68939E-14
 -1      2022-1.80278E-03 3.36064E-02-2.83405E-13
 -1      2024 1.80278E-03 3.36064E-02-1.91867E-13
 -1      2025-2.13612E-03-1.14218E-02-5.63584E-13
 -1      2027 2.13612E-03-1.14218E-02-4.27592E-13
 -1      2028-2.29016E-03-6.21575E-02-8.52172E-13
 -1      2030 2.29016E-03-6.21575E-02-6.73392E-13
 -1      2031-2.17107E-03-1.13538E-01-1.13688E-12
 -1      2033 2.17107E-03-1.13538E-01-9.33253E-13
 -1      2034 1.42790E-03 1.83001E-02-3.30426E-04
 -1      2036-1.42790E-03 1.83001E-02 3.30426E-04
 -1      2037 1.17229E-03 5.00257E-02-7.26180E-04
 -1      2039-1.17229E-03 5.00257E-02 7.26180E-04
 -1      2040 1.38960E-03 8.12512E-02-1.04171E-03
 -1      2042-1.38960E-03 8.12512E-02 1.04171E-03
 -1      2043 9.70006E-04 1.09821E-01-1.30844E-03
 -1      2045-9.70006E-04 1.09821E-01 1.30844E-03
 -1      2046 5.84649E-04 1.28725E-01-1.47671E-03
 -1      2048-5.84649E-04 1.28725E-01 1.47671E-03
 -1      2049-2.74807E-05 1.35619E-01-1.54149E-03
 -1      2051 2.74807E-05 1.35619E-01 1.54149E-03
 -1      2052-5.98279E-04 1.28347E-01-1.49474E-03
 -1      2054 5.98279E-04 1.28347E-01 1.49474E-03
 -1      2055-1.14587E-03 1.07664E-01-1.34091E-03
 -1      2057 1.14587E-03 1.07664E-01 1.34091E-03
 -1      2058-1.53915E-03 7.56956E-02-1.10175E-03
 -1      2060 1.53915E-03 7.56956E-02 1.10175E-03
 -1      2061-1.75497E-03 3.63849E-02-7.99965E-04
 -1      2063 1.75497E-03 3.63849E-02 7.99965E-04
 -1      2064-1.74612E-03-5.47984E-03-4.73935E-04
 -1      2066 1.74612E-03-5.47984E-03 4.73935E-04
 -1      2067-1.52269E-03-4.46738E-02-1.55135E-04
 -1      2069 1.52269E-03-4.46738E-02 1.55135E-04
 -1      2070-1.10808E-03-7.63659E-02 1.19201E-04
 -1      2072 1.10808E-03-7.63659E-02-1.19201E-04
 -1      2073-5.59693E-04-9.66847E-02 3.25367E-04
 -1      2075 5.59693E-04-9.66847E-02-3.25367E-04
 -1      2076 5.22439E-05-1.03273E-01 4.43709E-04
 -1      2078-5.22439E-05-1.03273E-01-4.43709E-04
 -1      2079 6.46227E-04-9.55766E-02 4.71188E-04
 -1      2081-6.46227E-04-9.55766E-02-4.71188E-04
 -1      2082 1.14455E-03-7.49292E-02 4.13451E-04
 -1      2084-1.14455E-03-7.49292E-02-4.13451E-04
 -1      2085 1.48102E-03-4.43751E-02 2.90111E-04
 -1      2087-1.48102E-03-4.43751E-02-2.90111E-04
 -1      2088 1.61094E-03-8.27461E-03 1.27397E-04
 -1      2090-1.61094E-03-8.27461E-03-1.27397E-04
 -1      2091 1.51601E-03 2.82640E-02-4.25488E-05
 -1      2093-1.51601E-03 2.82640E-02 4.25488E-05
 -1      2094 1.20747E-03 6.00485E-02-1.87741E-04
 -1      2096-1.20747E-03 6.00485E-02 1.87741E-04
 -1      2097 7.22827E-04 8.24663E-02-2.80666E-04
 -1      2099-7.22827E-04 8.24663E-02 2.80666E-04
 -1      2100 1.23990E-04 9.20857E-02-3.01196E-04
 -1      2102-1.23990E-04 9.20857E-02 3.01196E-04
 -1      2103-5.18399E-04 8.70511E-02-2.41993E-04
 -1      2105 5.18399E-04 8.70511E-02 2.41993E-04
 -1      2106-1.12037E-03 6.73433E-02-1.06682E-04
 -1      2108 1.12037E-03 6.73433E-02 1.06682E-04
 -1      2109-1.62440E-03 3.46298E-02 8.58113E-05
 -1      2111 1.62440E-03 3.46298E-02-8.58113E-05
 -1      2112-1.95672E-03-7.86374E-03 3.07045E-04
 -1      2114 1.95672E-03-7.86374E-03-3.07045E-04
 -1      2115-2.12981E-03-5.61641E-02 5.18500E-04
 -1      2117 2.12981E-03-5.61641E-02-5.18500E-04
 -1      2118-2.08593E-03-1.05767E-01 6.75407E-04
 -1      2120 2.08593E-03-1.05767E-01-6.75407E-04
 -1      2121 5.22416E-03 9.24229E-03-4.14629E-03
 -1      2123 4.13466E-03 1.03313E-02-3.96827E-03
 -1      2124 8.18401E-03 2.82839E-02-9.86614E-03
 -1      2126 7.69844E-03 3.09388E-02-9.79596E-03
 -1      2127 8.50722E-03 5.00677E-02-1.40197E-02
 -1      2129 7.85072E-03 5.39091E-02-1.40471E-02
 -1      2130 6.86753E-03 7.00530E-02-1.79209E-02
 -1      2132 6.45443E-03 7.49455E-02-1.80094E-02
 -1      2133 3.57803E-03 8.34440E-02-2.05808E-02
 -1      2135 3.25727E-03 8.91378E-02-2.07315E-02
 -1      2136-6.31208E-04 8.75237E-02-2.22371E-02
 -1      2138-7.64546E-04 9.37349E-02-2.24033E-02
 -1      2139-5.11667E-03 8.07260E-02-2.26370E-02
 -1      2141-5.09606E-03 8.71874E-02-2.28052E-02
 -1      2142-9.15767E-03 6.34380E-02-2.19120E-02
 -1      2144-8.98041E-03 6.98544E-02-2.20488E-02
 -1      2145-1.21663E-02 3.74563E-02-2.01505E-02
 -1      2147-1.18624E-02 4.35868E-02-2.02370E-02
 -1      2148-1.36831E-02 5.96782E-03-1.75833E-02
 -1      2150-1.32848E-02 1.15830E-02-1.76080E-02
 -1      2151-1.34767E-02-2.70755E-02-1.44727E-02
 -1      2153-1.30235E-02-2.21343E-02-1.44259E-02
 -1      2154-1.15401E-02-5.73863E-02-1.11075E-02
 -1      2156-1.10727E-02-5.32413E-02-1.10004E-02
 -1      2157-8.11000E-03-8.10027E-02-7.77295E-03
 -1      2159-7.66436E-03-7.77081E-02-7.61134E-03
 -1      2160-3.61821E-03-9.47670E-02-4.69975E-03
 -1      2162-3.22357E-03-9.23404E-02-4.51193E-03
 -1      2163 1.35351E-03-9.67945E-02-2.06568E-03
 -1      2165 1.67970E-03-9.52063E-02-1.86791E-03
 -1      2166 6.16063E-03-8.67007E-02 5.11131E-05
 -1      2168 6.41228E-03-8.59030E-02 2.25456E-04
 -1      2169 1.01714E-02-6.56876E-02 1.64511E-03
 -1      2171 1.03552E-02-6.56158E-02 1.78047E-03
 -1      2172 1.28572E-02-3.63795E-02 2.80689E-03
 -1      2174 1.29894E-02-3.69745E-02 2.87842E-03
 -1      2175 1.38539E-02-2.50724E-03 3.67548E-03
 -1      2177 1.39581E-02-3.71838E-03 3.67953E-03
 -1      2178 1.30146E-02 3.15772E-02 4.43923E-03
 -1      2180 1.31172E-02 2.97809E-02 4.36853E-03
 -1      2181 1.04209E-02 6.14415E-02 5.27893E-03
 -1      2183 1.05468E-02 5.90731E-02 5.14661E-03
 -1      2184 6.37550E-03 8.31403E-02 6.35971E-03
 -1      2186 6.54353E-03 8.01978E-02 6.17614E-03
 -1      2187 1.35167E-03 9.36908E-02 7.78025E-03
 -1      2189 1.57145E-03 9.01641E-02 7.57129E-03
 -1      2190-4.06751E-03 9.14362E-02 9.57474E-03
 -1      2192-3.79750E-03 8.73208E-02 9.35920E-03
 -1      2193-9.28039E-03 7.61928E-02 1.16777E-02
 -1      2195-8.97523E-03 7.14977E-02 1.14832E-02
 -1      2196-1.37535E-02 4.92213E-02 1.39558E-02
 -1      2198-1.34360E-02 4.39860E-02 1.37949E-02
 -1      2199-1.71054E-02 1.29347E-02 1.61758E-02
 -1      2201-1.68152E-02 7.23068E-03 1.60652E-02
 -1      2202-1.91914E-02-2.95306E-02 1.81002E-02
 -1      2204-1.89555E-02-3.55895E-02 1.80339E-02
 -1      2205-2.01468E-02-7.49344E-02 1.93926E-02
 -1      2207-2.00297E-02-8.12050E-02 1.93630E-02
 -1      2208-5.22416E-03 9.24229E-03 4.14629E-03
 -1      2210-4.13466E-03 1.03313E-02 3.96827E-03
 -1      2211-8.18401E-03 2.82839E-02 9.86614E-03
 -1      2213-7.69844E-03 3.09388E-02 9.79596E-03
 -1      2214-8.50722E-03 5.00677E-02 1.40197E-02
 -1      2216-7.85072E-03 5.39091E-02 1.40471E-02
 -1      2217-6.86753E-03 7.00530E-02 1.79209E-02
 -1      2219-6.45443E-03 7.49455E-02 1.80094E-02
 -1      2220-3.57803E-03 8.34440E-02 2.05808E-02
 -1      2222-3.25727E-03 8.91378E-02 2.07315E-02
 -1      2223 6.31208E-04 8.75237E-02 2.22371E-02
 -1      2225 7.64546E-04 9.37349E-02 2.24033E-02
 -1      2226 5.11667E-03 8.07260E-02 2.26370E-02
 -1      2228 5.09606E-03 8.71874E-02 2.28052E-02
 -1      2229 9.15767E-03 6.34380E-02 2.19120E-02
 -1      2231 8.98041E-03 6.98544E-02 2.20488E-02
 -1      2232 1.21663E-02 3.74563E-02 2.01505E-02
 -1      2234 1.18624E-02 4.35868E-02 2.02370E-02
 -1      2235 1.36831E-02 5.96782E-03 1.75833E-02
 -1      2237 1.32848E-02 1.15830E-02 1.76080E-02
 -1      2238 1.34767E-02-2.70755E-02 1.44727E-02
 -1      2240 1.30235E-02-2.21343E-02 1.44259E-02
 -1      2241 1.15401E-02-5.73863E-02 1.11075E-02
 -1      2243 1.10727E-02-5.32413E-02 1.10004E-02
 -1      2244 8.11000E-03-8.10027E-02 7.77295E-03
 -1      2246 7.66436E-03-7.77081E-02 7.61134E-03
 -1      2247 3.61821E-03-9.47670E-02 4.69975E-03
 -1      2249 3.22357E-03-9.23404E-02 4.51193E-03
 -1      2250-1.35351E-03-9.67945E-02 2.06568E-03
 -1      2252-1.67970E-03-9.52063E-02 1.86791E-03
 -1      2253-6.16063E-03-8.67007E-02-5.11131E-05
 -1      2255-6.41228E-03-8.59030E-02-2.25456E-04
 -1      2256-1.01714E-02-6.56876E-02-1.64511E-03
 -1      2258-1.03552E-02-6.56158E-02-1.78047E-03
 -1      2259-1.28572E-02-3.63795E-02-2.80689E-03
 -1      2261-1.29894E-02-3.69745E-02-2.87842E-03
 -1      2262-1.38539E-02-2.50724E-03-3.67548E-03
 -1      2264-1.39581E-02-3.71838E-03-3.67953E-03
 -1      2265-1.30146E-02 3.15772E-02-4.43923E-03
 -1      2267-1.31172E-02 2.97809E-02-4.36853E-03
 -1      2268-1.04209E-02 6.14415E-02-5.27893E-03
 -1      2270-1.05468E-02 5.90731E-02-5.14661E-03
 -1      2271-6.37550E-03 8.31403E-02-6.35971E-03
 -1      2273-6.54353E-03 8.01978E-02-6.17614E-03
 -1      2274-1.35167E-03 9.36908E-02-7.78025E-03
 -1      2276-1.57145E-03 9.01641E-02-7.57129E-03
 -1      2277 4.06751E-03 9.14362E-02-9.57474E-03
 -1      2279 3.79750E-03 8.73208E-02-9.35920E-03
 -1      2280 9.28039E-03 7.61928E-02-1.16777E-02
 -1      2282 8.97523E-03 7.14977E-02-1.14832E-02
 -1      2283 1.37535E-02 4.92213E-02-1.39558E-02
 -1      2285 1.34360E-02 4.39860E-02-1.37949E-02
 -1      2286 1.71054E-02 1.29347E-02-1.61758E-02
 -1      2288 1.68152E-02 7.23068E-03-1.60652E-02
 -1      2289 1.91914E-02-2.95306E-02-1.81002E-02
 -1      2291 1.89555E-02-3.55895E-02-1.80339E-02
 -1      2292 2.01468E-02-7.49344E-02-1.93926E-02
 -1      2294 2.00297E-02-8.12050E-02-1.93630E-02
 -3
    1PSTEP                        38           1           1          
    1PGM                1.000000E+00                                  
    1PGK                6.352517E+06                                  
    1PHID                         -1                                  
    1PSUBC                         0                                  
    1PMODE                        10                                  
  100CL  110 401.1372984         930                     2   10MODAL      1
 -4  STRESS      6    1
 -5  SXX         1    4    1    1
 -5  SYY         1    4    2    2
 -5  SZZ         1    4    3    3
 -5  SXY         1    4    1    2
 -5  SYZ         1    4    2    3
 -5  SZX         1    4    3    1
 -1       404-1.72194E+10-1.58962E+09-2.83968E+07 2.62154E+09 6.30979E+06-2.14067E+08
 -1       406-1.72194E+10-1.58962E+09-2.83968E+07 2.62154E+09 6.30979E+06-2.14067E+08
 -1       407 6.51263E+08 2.74722E+06-1.71916E+06-2.70231E+08 6.86966E+06-3.58488E+06
 -1       409 6.51263E+08 2.74722E+06-1.71916E+06-2.70231E+08 6.86966E+06-3.58488E+06
 -1       410-2.76484E-02-4.64323E-03 3.96982E-04-6.87784E+08 2.29815E+07-8.00217E-05
 -1       412-2.76484E-02-4.64323E-03 3.96982E-04-6.87784E+08 2.29815E+07-8.00217E-05
 -1       413-1.11939E-02 7.82667E-04 5.11062E-02 9.13526E+06-4.75872E+07-6.25882E-03
 -1       415-1.11939E-02 7.82667E-04 5.11062E-02 9.13526E+06-4.75872E+07-6.25882E-03
 -1       424-1.20951E-01-1.82524E-02 7.86781E-06 3.51210E+09 4.87313E+07-5.05833E-03
 -1       426-1.20951E-01-1.82524E-02 7.86781E-06 3.51210E+09 4.87313E+07-5.05833E-03
 -1       427-1.10739E-01-2.86573E-04-1.10637E-02 1.13240E+08 1.86506E+07-1.09234E-01
 -1       429-1.10739E-01-2.86573E-04-1.10637E-02 1.13240E+08 1.86506E+07-1.09234E-01
 -1       438-6.51263E+08-2.74722E+06 1.71916E+06-2.70231E+08 6.86966E+06 3.58488E+06
 -1       440-6.51263E+08-2.74722E+06 1.71916E+06-2.70231E+08 6.86966E+06 3.58488E+06
 -1       441 1.72194E+10 1.58962E+09 2.83968E+07 2.62154E+09 6.30979E+06 2.14067E+08
 -1       443 1.72194E+10 1.58962E+09 2.83968E+07 2.62154E+09 6.30979E+06 2.14067E+08
 -1       444-8.31220E-02 3.06609E-04 2.30948E-03 1.13240E+08-1.86506E+07-4.94684E-02
 -1       446-8.31220E-02 3.06609E-04 2.30948E-03 1.13240E+08-1.86506E+07-4.94684E-02
 -1       447-7.10921E-02-1.16003E-02-1.04427E-04 3.51210E+09-4.87313E+07 5.17575E-04
 -1       449-7.10921E-02-1.16003E-02-1.04427E-04 3.51210E+09-4.87313E+07 5.17575E-04
 -1       458 5.48688E-04 2.18142E-03 6.72270E-03 9.13526E+06 4.75872E+07-1.52561E-02
 -1       460 5.48688E-04 2.18142E-03 6.72270E-03 9.13526E+06 4.75872E+07-1.52561E-02
 -1       461 8.49155E-03 1.26300E-02 2.29672E-04-6.87784E+08-2.29815E+07 4.26852E-04
 -1       463 8.49155E-03 1.26300E-02 2.29672E-04-6.87784E+08-2.29815E+07 4.26852E-04
 -1       472 1.72194E+10 1.58962E+09 2.83968E+07 2.62154E+09-6.30979E+06-2.14067E+08
 -1       474 1.72194E+10 1.58962E+09 2.83968E+07 2.62154E+09-6.30979E+06-2.14067E+08
 -1       475-6.51263E+08-2.74722E+06 1.71916E+06-2.70231E+08-6.86966E+06-3.58488E+06
 -1       477-6.51263E+08-2.74722E+06 1.71916E+06-2.70231E+08-6.86966E+06-3.58488E+06
 -1       478 6.51263E+08 2.74722E+06-1.71916E+06-2.70231E+08-6.86966E+06 3.58488E+06
 -1       480 6.51263E+08 2.74722E+06-1.71916E+06-2.70231E+08-6.86966E+06 3.58488E+06
 -1       481-1.72194E+10-1.58962E+09-2.83968E+07 2.62154E+09-6.30979E+06 2.14067E+08
 -1       483-1.72194E+10-1.58962E+09-2.83968E+07 2.62154E+09-6.30979E+06 2.14067E+08
 -1       484-1.30315E+10-3.85823E+08 7.89031E+05 2.13163E+09 3.25115E+06-7.05565E+07
 -1       486-1.30315E+10-3.85823E+08 7.89031E+05 2.13163E+09 3.25115E+06-7.05565E+07
 -1       487-5.06149E+09 1.91474E+08-2.58560E+06 1.77724E+09 6.33479E+06 4.77169E+06
 -1       489-5.06149E+09 1.91474E+08-2.58560E+06 1.77724E+09 6.33479E+06 4.77169E+06
 -1       490 2.04620E+09-1.11824E+08 9.37908E+05 1.63341E+09 1.28525E+07-2.89666E+07
 -1       492 2.04620E+09-1.11824E+08 9.37908E+05 1.63341E+09 1.28525E+07-2.89666E+07
 -1       493 7.86223E+09 3.84008E+07 7.07442E+06 1.19074E+09 1.38195E+07-8.36186E+06
 -1       495 7.86223E+09 3.84008E+07 7.07442E+06 1.19074E+09 1.38195E+07-8.36186E+06
 -1       496 1.18704E+10-4.20257E+07 5.01021E+06 7.39326E+08 1.56755E+07-1.28775E+07
 -1       498 1.18704E+10-4.20257E+07 5.01021E+06 7.39326E+08 1.56755E+07-1.28775E+07
 -1       499 1.37853E+10-2.20991E+06 1.00445E+07 1.92157E+08 1.51106E+07-4.70599E+06
 -1       501 1.37853E+10-2.20991E+06 1.00445E+07 1.92157E+08 1.51106E+07-4.70599E+06
 -1       502 1.34908E+10-2.37641E+07 6.10033E+06-3.28736E+08 1.35191E+07-2.30903E+06
 -1       504 1.34908E+10-2.37641E+07 6.10033E+06-3.28736E+08 1.35191E+07-2.30903E+06
 -1       505 1.11415E+10-1.07362E+07 7.90212E+06-7.94317E+08 1.07530E+07 2.63106E+06
 -1       507 1.11415E+10-1.07362E+07 7.90212E+06-7.94317E+08 1.07530E+07 2.63106E+06
 -1       508 7.11732E+09-1.54998E+07 2.95840E+06-1.13511E+09 6.83634E+06 5.84866E+06
 -1       510 7.11732E+09-1.54998E+07 2.95840E+06-1.13511E+09 6.83634E+06 5.84866E+06
 -1       511 2.00378E+09-8.90382E+06 2.29488E+06-1.31812E+09 2.66474E+06 8.97733E+06
 -1       513 2.00378E+09-8.90382E+06 2.29488E+06-1.31812E+09 2.66474E+06 8.97733E+06
 -1       514-3.49032E+09-8.40236E+06-2.61443E+06-1.31872E+09-1.85369E+06 1.10938E+07
 -1       516-3.49032E+09-8.40236E+06-2.61443E+06-1.31872E+09-1.85369E+06 1.10938E+07
 -1       517-8.61374E+09-3.87353E+06-3.96651E+06-1.14082E+09-5.65942E+06 1.24764E+07
 -1       519-8.61374E+09-3.87353E+06-3.96651E+06-1.14082E+09-5.65942E+06 1.24764E+07
 -1       520-1.26726E+10-2.21016E+06-7.50456E+06-8.08056E+08-8.80842E+06 1.30702E+07
 -1       522-1.26726E+10-2.21016E+06-7.50456E+06-8.08056E+08-8.80842E+06 1.30702E+07
 -1       523-1.51154E+10 7.20770E+05-7.82854E+06-3.65401E+08-1.04960E+07 1.29949E+07
 -1       525-1.51154E+10 7.20770E+05-7.82854E+06-3.65401E+08-1.04960E+07 1.29949E+07
 -1       526-1.56058E+10 1.73169E+06-9.01479E+06 1.29079E+08-1.08996E+07 1.24590E+07
 -1       528-1.56058E+10 1.73169E+06-9.01479E+06 1.29079E+08-1.08996E+07 1.24590E+07
 -1       529-1.40634E+10 2.97907E+06-7.43045E+06 6.10370E+08-9.67054E+06 1.16138E+07
 -1       531-1.40634E+10 2.97907E+06-7.43045E+06 6.10370E+08-9.67054E+06 1.16138E+07
 -1       532-1.06740E+10 2.79705E+06-6.22709E+06 1.01582E+09-7.22474E+06 1.07112E+07
 -1       534-1.06740E+10 2.79705E+06-6.22709E+06 1.01582E+09-7.22474E+06 1.07112E+07
 -1       535-5.86327E+09 2.72071E+06-3.02956E+06 1.29283E+09-3.67231E+06 9.87746E+06
 -1       537-5.86327E+09 2.72071E+06-3.02956E+06 1.29283E+09-3.67231E+06 9.87746E+06
 -1       538-2.40006E+08 1.74012E+06-4.38869E+05 1.40623E+09 3.82318E+05 9.27741E+06
 -1       540-2.40006E+08 1.74012E+06-4.38869E+05 1.40623E+09 3.82318E+05 9.27741E+06
 -1       541 5.48594E+09 1.22419E+06 3.13052E+06 1.34258E+09 4.54906E+06 8.93132E+06
 -1       543 5.48594E+09 1.22419E+06 3.13052E+06 1.34258E+09 4.54906E+06 8.93132E+06
 -1       544 1.05985E+10 3.18119E+05 5.52551E+06 1.11255E+09 8.23874E+06 8.85032E+06
 -1       546 1.05985E+10 3.18119E+05 5.52551E+06 1.11255E+09 8.23874E+06 8.85032E+06
 -1       547 1.44732E+10 4.00019E+05 7.96254E+06 7.49292E+08 1.10624E+07 8.93586E+06
 -1       549 1.44732E+10 4.00019E+05 7.96254E+06 7.49292E+08 1.10624E+07 8.93586E+06
 -1       550 1.66625E+10 2.43439E+05 8.78441E+06 3.04982E+08 1.27021E+07 9.03921E+06
 -1       552 1.66625E+10 2.43439E+05 8.78441E+06 3.04982E+08 1.27021E+07 9.03921E+06
 -1       553 1.69625E+10 1.78386E+06 9.11858E+06-1.55709E+08 1.30394E+07 9.05702E+06
 -1       555 1.69625E+10 1.78386E+06 9.11858E+06-1.55709E+08 1.30394E+07 9.05702E+06
 -1       556 1.54463E+10 1.91739E+06 7.92088E+06-5.64095E+08 1.22070E+07 8.64728E+06
 -1       558 1.54463E+10 1.91739E+06 7.92088E+06-5.64095E+08 1.22070E+07 8.64728E+06
 -1       559 1.24705E+10 5.85377E+06 6.22829E+06-8.52566E+08 1.05405E+07 8.08562E+06
 -1       561 1.24705E+10 5.85377E+06 6.22829E+06-8.52566E+08 1.05405E+07 8.08562E+06
 -1       562 8.64285E+09 4.08454E+06 3.79289E+06-9.67167E+08 8.59777E+06 6.37878E+06
 -1       564 8.64285E+09 4.08454E+06 3.79289E+06-9.67167E+08 8.59777E+06 6.37878E+06
 -1       565 4.76861E+09 9.48629E+06 1.25555E+06-8.69971E+08 7.24175E+06 5.52212E+06
 -1       567 4.76861E+09 9.48629E+06 1.25555E+06-8.69971E+08 7.24175E+06 5.52212E+06
 -1       568 1.79142E+09 1.26012E+07-9.07050E+05-5.17190E+08 6.73096E+06 1.31428E+06
 -1       570 1.79142E+09 1.26012E+07-9.07050E+05-5.17190E+08 6.73096E+06 1.31428E+06
 -1       571 4.93754E+08 1.04536E+08 1.47140E+04-4.79007E+08 1.49256E+07-2.55097E+06
 -1       573 4.93754E+08 1.04536E+08 1.47140E+04-4.79007E+08 1.49256E+07-2.55097E+06
 -1       574-1.02843E-01-8.21680E-03-1.19209E-04 4.19521E+09 2.09719E+07-8.64773E-04
 -1       576-1.02843E-01-8.21680E-03-1.19209E-04 4.19521E+09 2.09719E+07-8.64773E-04
 -1       577-9.68688E-02 1.01402E-04 1.89472E-02 1.32729E+07 3.79745E+07-1.07132E-01
 -1       579-9.68688E-02 1.01402E-04 1.89472E-02 1.32729E+07 3.79745E+07-1.07132E-01
 -1       588-7.94810E-02-4.18678E-04-3.68282E-04 4.25033E+09-9.56049E+06 7.87501E-04
 -1       590-7.94810E-02-4.18678E-04-3.68282E-04 4.25033E+09-9.56049E+06 7.87501E-04
 -1       591-8.14766E-02 2.40371E-04 4.80441E-02-3.31986E+07 5.78293E+07-8.84189E-02
 -1       593-8.14766E-02 2.40371E-04 4.80441E-02-3.31986E+07 5.78293E+07-8.84189E-02
 -1       602-7.71465E-02-1.75984E-03-1.59666E-04 3.47296E+09-5.86942E+06-4.25521E-04
 -1       604-7.71465E-02-1.75984E-03-1.59666E-04 3.47296E+09-5.86942E+06-4.25521E-04
 -1       605-8.36495E-02-2.93912E-04 1.51350E-02-5.92869E+06 7.71070E+07-6.88191E-02
 -1       607-8.36495E-02-2.93912E-04 1.51350E-02-5.92869E+06 7.71070E+07-6.88191E-02
 -1       616-6.94131E-02-8.27193E-04 4.52101E-04 2.72356E+09-8.02393E+06 2.07121E-04
 -1       618-6.94131E-02-8.27193E-04 4.52101E-04 2.72356E+09-8.02393E+06 2.07121E-04
 -1       619-7.97138E-02-7.50730E-04-3.59425E-02-1.49013E+07 1.04290E+08-6.79651E-02
 -1       621-7.97138E-02-7.50730E-04-3.59425E-02-1.49013E+07 1.04290E+08-6.79651E-02
 -1       630-4.22237E-02-3.20572E-03 3.06070E-04 1.60383E+09-1.06326E+07 1.98189E-04
 -1       632-4.22237E-02-3.20572E-03 3.06070E-04 1.60383E+09-1.06326E+07 1.98189E-04
 -1       633-5.58051E-02-4.86025E-04-4.42029E-02-3.63976E+06 1.14896E+08-7.61358E-02
 -1       635-5.58051E-02-4.86025E-04-4.42029E-02-3.63976E+06 1.14896E+08-7.61358E-02
 -1       644-1.52712E-02-3.80129E-03-2.24710E-05 4.49388E+08-1.22151E+07 6.66102E-04
 -1       646-1.52712E-02-3.80129E-03-2.24710E-05 4.49388E+08-1.22151E+07 6.66102E-04
 -1       647-2.81752E-02-7.13537E-04-4.71143E-04-2.28245E+06 1.16803E+08-7.50269E-02
 -1       649-2.81752E-02-7.13537E-04-4.71143E-04-2.28245E+06 1.16803E+08-7.50269E-02
 -1       658-1.01538E-02 6.04033E-04-3.25501E-04-7.34164E+08-1.78460E+07 5.34555E-04
 -1       660-1.01538E-02 6.04033E-04-3.25501E-04-7.34164E+08-1.78460E+07 5.34555E-04
 -1       661-1.97205E-02-3.29181E-04 4.85437E-02 4.73931E+06 1.03320E+08-4.59286E-02
 -1       663-1.97205E-02-3.29181E-04 4.85437E-02 4.73931E+06 1.03320E+08-4.59286E-02
 -1       672-3.08589E-02 5.52279E-03-3.19421E-04-1.75102E+09-2.28448E+07 8.09271E-04
 -1       674-3.08589E-02 5.52279E-03-3.19421E-04-1.75102E+09-2.28448E+07 8.09271E-04
 -1       675-3.67317E-02 9.64156E-04 4.49193E-02 8.18469E+06 7.64838E+07-7.55258E-03
 -1       677-3.67317E-02 9.64156E-04 4.49193E-02 8.18469E+06 7.64838E+07-7.55258E-03
 -1       686-5.67917E-02 8.79857E-03-6.14226E-05-2.51360E+09-3.06317E+07 5.94461E-04
 -1       688-5.67917E-02 8.79857E-03-6.14226E-05-2.51360E+09-3.06317E+07 5.94461E-04
 -1       689-5.75229E-02 9.73141E-04 8.09491E-03 1.25425E+07 3.94486E+07-1.42929E-03
 -1       691-5.75229E-02 9.73141E-04 8.09491E-03 1.25425E+07 3.94486E+07-1.42929E-03
 -1       700-6.72384E-02 4.07925E-03-2.07059E-04-2.91517E+09-3.72928E+07 2.76967E-04
 -1       702-6.72384E-02 4.07925E-03-2.07059E-04-2.91517E+09-3.72928E+07 2.76967E-04
 -1       703-5.69385E-02 1.49948E-03 7.51639E-03 1.47080E+07-4.81301E+06-2.04354E-02
 -1       705-5.69385E-02 1.49948E-03 7.51639E-03 1.47080E+07-4.81301E+06-2.04354E-02
 -1       714-6.39101E-02-6.17475E-03-4.69975E-04-2.91892E+09-4.42740E+07 4.69727E-04
 -1       716-6.39101E-02-6.17475E-03-4.69975E-04-2.91892E+09-4.42740E+07 4.69727E-04
 -1       717-4.41152E-02 1.81857E-03 5.13040E-02 1.61050E+07-4.94456E+07-1.57419E-02
 -1       719-4.41152E-02 1.81857E-03 5.13040E-02 1.61050E+07-4.94456E+07-1.57419E-02
 -1       728-6.18361E-02-6.68418E-03-8.90195E-05-2.52412E+09-4.86206E+07 4.97469E-04
 -1       730-6.18361E-02-6.68418E-03-8.90195E-05-2.52412E+09-4.86206E+07 4.97469E-04
 -1       731-4.07771E-02-1.08810E-04 8.90644E-02 1.57803E+07-9.01918E+07 1.63152E-02
 -1       733-4.07771E-02-1.08810E-04 8.90644E-02 1.57803E+07-9.01918E+07 1.63152E-02
 -1       742-6.90486E-02 6.07371E-05 6.73532E-06-1.78825E+09-5.08561E+07 1.91919E-04
 -1       744-6.90486E-02 6.07371E-05 6.73532E-06-1.78825E+09-5.08561E+07 1.91919E-04
 -1       745-4.46199E-02-1.01663E-03 9.37669E-02 1.44409E+07-1.20538E+08 5.12651E-02
 -1       747-4.46199E-02-1.01663E-03 9.37669E-02 1.44409E+07-1.20538E+08 5.12651E-02
 -1       756-8.70631E-02-5.77092E-04 2.93493E-04-8.08020E+08-4.91249E+07-3.89167E-05
 -1       758-8.70631E-02-5.77092E-04 2.93493E-04-8.08020E+08-4.91249E+07-3.89167E-05
 -1       759-5.33795E-02-8.86847E-04 7.99553E-02 1.20383E+07-1.37387E+08 7.72166E-02
 -1       761-5.33795E-02-8.86847E-04 7.99553E-02 1.20383E+07-1.37387E+08 7.72166E-02
 -1       770-1.11619E-01-9.49836E-03 2.80261E-04 2.86390E+08-4.39492E+07-3.69616E-04
 -1       772-1.11619E-01-9.49836E-03 2.80261E-04 2.86390E+08-4.39492E+07-3.69616E-04
 -1       773-7.28251E-02-1.46081E-03 7.27741E-02 9.18006E+06-1.37480E+08 8.87352E-02
 -1       775-7.28251E-02-1.46081E-03 7.27741E-02 9.18006E+06-1.37480E+08 8.87352E-02
 -1       784-1.24493E-01-1.60275E-02-8.03471E-05 1.35200E+09-3.47161E+07-5.33863E-04
 -1       786-1.24493E-01-1.60275E-02-8.03471E-05 1.35200E+09-3.47161E+07-5.33863E-04
 -1       787-9.02934E-02-8.20051E-04 7.33380E-02 6.17606E+06-1.21087E+08 8.88491E-02
 -1       789-9.02934E-02-8.20051E-04 7.33380E-02 6.17606E+06-1.21087E+08 8.88491E-02
 -1       798-1.25064E-01-1.15428E-02 4.98414E-04 2.24953E+09-2.24239E+07-4.64438E-04
 -1       800-1.25064E-01-1.15428E-02 4.98414E-04 2.24953E+09-2.24239E+07-4.64438E-04
 -1       801-9.90518E-02-1.40087E-03 5.77005E-02 3.54791E+06-8.94551E+07 7.97560E-02
 -1       803-9.90518E-02-1.40087E-03 5.77005E-02 3.54791E+06-8.94551E+07 7.97560E-02
 -1       812-1.41837E-01 1.43874E-03 5.24700E-04 2.86299E+09-7.58819E+06-2.36931E-04
 -1       814-1.41837E-01 1.43874E-03 5.24700E-04 2.86299E+09-7.58819E+06-2.36931E-04
 -1       815-1.15094E-01-8.27777E-04 2.65612E-02 1.60533E+06-4.66040E+07 5.63312E-02
 -1       817-1.15094E-01-8.27777E-04 2.65612E-02 1.60533E+06-4.66040E+07 5.63312E-02
 -1       826-1.77622E-01 1.22030E-02 2.16112E-04 3.11414E+09 8.35997E+06-1.28632E-04
 -1       828-1.77622E-01 1.22030E-02 2.16112E-04 3.11414E+09 8.35997E+06-1.28632E-04
 -1       829-1.42813E-01-3.94504E-06 9.15283E-03 6.37665E+05 2.56367E+06 2.33455E-02
 -1       831-1.42813E-01-3.94504E-06 9.15283E-03 6.37665E+05 2.56367E+06 2.33455E-02
 -1       840-2.08384E-01 1.40927E-02 3.16605E-04 2.97369E+09 2.42245E+07-1.54885E-04
 -1       842-2.08384E-01 1.40927E-02 3.16605E-04 2.97369E+09 2.42245E+07-1.54885E-04
 -1       843-1.68595E-01-6.66317E-04 9.31068E-03 7.00468E+05 5.19694E+07 3.29323E-03
 -1       845-1.68595E-01-6.66317E-04 9.31068E-03 7.00468E+05 5.19694E+07 3.29323E-03
 -1       854-2.24280E-01 9.75871E-03 2.89202E-04 2.46475E+09 3.85861E+07 2.77615E-04
 -1       856-2.24280E-01 9.75871E-03 2.89202E-04 2.46475E+09 3.85861E+07 2.77615E-04
 -1       857-1.83313E-01-1.80132E-04 3.50067E-03 1.79283E+06 9.55934E+07-3.76723E-04
 -1       859-1.83313E-01-1.80132E-04 3.50067E-03 1.79283E+06 9.55934E+07-3.76723E-04
 -1       868-2.25265E-01 3.74430E-03-1.31071E-04 1.66149E+09 5.01980E+07 4.57151E-04
 -1       870-2.25265E-01 3.74430E-03-1.31071E-04 1.66149E+09 5.01980E+07 4.57151E-04
 -1       871-1.84156E-01 1.43189E-04 7.58597E-04 3.55172E+06 1.28194E+08-1.29602E-02
 -1       873-1.84156E-01 1.43189E-04 7.58597E-04 3.55172E+06 1.28194E+08-1.29602E-02
 -1       882-2.12651E-01-2.70468E-03 3.32117E-04 6.78641E+08 5.82239E+07 5.20832E-04
 -1       884-2.12651E-01-2.70468E-03 3.32117E-04 6.78641E+08 5.82239E+07 5.20832E-04
 -1       885-1.70872E-01-9.15950E-04 2.79303E-02 5.90083E+06 1.45609E+08-3.36254E-02
 -1       887-1.70872E-01-9.15950E-04 2.79303E-02 5.90083E+06 1.45609E+08-3.36254E-02
 -1       896-1.85117E-01-8.25930E-03 5.12779E-04-3.39861E+08 6.18919E+07 8.94652E-04
 -1       898-1.85117E-01-8.25930E-03 5.12779E-04-3.39861E+08 6.18919E+07 8.94652E-04
 -1       899-1.41791E-01 2.95449E-04 6.64590E-02 7.85362E+06 1.46049E+08-4.32636E-02
 -1       901-1.41791E-01 2.95449E-04 6.64590E-02 7.85362E+06 1.46049E+08-4.32636E-02
 -1       910-1.47384E-01-5.76597E-03 5.98848E-04-1.24170E+09 6.13366E+07 7.61650E-04
 -1       912-1.47384E-01-5.76597E-03 5.98848E-04-1.24170E+09 6.13366E+07 7.61650E-04
 -1       913-1.06122E-01 1.26473E-03 8.51575E-02 9.93198E+06 1.29241E+08-4.31042E-02
 -1       915-1.06122E-01 1.26473E-03 8.51575E-02 9.93198E+06 1.29241E+08-4.31042E-02
 -1       924-1.16276E-01 2.63703E-03 6.73115E-04-1.87809E+09 5.64339E+07 6.24691E-04
 -1       926-1.16276E-01 2.63703E-03 6.73115E-04-1.87809E+09 5.64339E+07 6.24691E-04
 -1       927-7.83024E-02 1.42830E-03 9.02132E-02 9.96466E+06 9.77855E+07-4.02072E-02
 -1       929-7.83024E-02 1.42830E-03 9.02132E-02 9.96466E+06 9.77855E+07-4.02072E-02
 -1       938-9.51557E-02 1.46922E-03-3.01093E-04-2.13020E+09 4.83299E+07 3.10209E-04
 -1       940-9.51557E-02 1.46922E-03-3.01093E-04-2.13020E+09 4.83299E+07 3.10209E-04
 -1       941-5.72968E-02 1.19274E-03 9.39909E-02 1.03887E+07 5.59162E+07-3.70200E-02
 -1       943-5.72968E-02 1.19274E-03 9.39909E-02 1.03887E+07 5.59162E+07-3.70200E-02
 -1       952-7.59320E-02-8.43114E-03-1.41785E-04-1.89527E+09 3.76438E+07 1.36452E-04
 -1       954-7.59320E-02-8.43114E-03-1.41785E-04-1.89527E+09 3.76438E+07 1.36452E-04
 -1       955-3.97658E-02 3.75413E-05 8.72197E-02 6.53220E+06 9.55479E+06-2.71908E-02
 -1       957-3.97658E-02 3.75413E-05 8.72197E-02 6.53220E+06 9.55479E+06-2.71908E-02
 -1       966-4.68719E-02-8.98468E-03 5.24871E-04-1.16455E+09 2.69361E+07 2.17428E-04
 -1       968-4.68719E-02-8.98468E-03 5.24871E-04-1.16455E+09 2.69361E+07 2.17428E-04
 -1       969-2.15624E-02 8.19324E-04 6.51719E-02 4.98861E+06-3.03418E+07-1.25509E-02
 -1       971-2.15624E-02 8.19324E-04 6.51719E-02 4.98861E+06-3.03418E+07-1.25509E-02
 -1       980-1.11197E+10-9.85743E+08-8.38103E+05 3.06682E+09 2.75205E+07-1.11499E+08
 -1       982-1.11197E+10-9.85743E+08-8.38103E+05 3.06682E+09 2.75205E+07-1.11499E+08
 -1       983-4.93754E+08-1.04536E+08-1.47140E+04-4.79007E+08 1.49256E+07 2.55097E+06
 -1       985-4.93754E+08-1.04536E+08-1.47140E+04-4.79007E+08 1.49256E+07 2.55097E+06
 -1       986 1.30315E+10 3.85823E+08-7.89031E+05 2.13163E+09 3.25115E+06 7.05565E+07
 -1       988 1.30315E+10 3.85823E+08-7.89031E+05 2.13163E+09 3.25115E+06 7.05565E+07
 -1       989 5.06149E+09-1.91474E+08 2.58560E+06 1.77724E+09 6.33479E+06-4.77169E+06
 -1       991 5.06149E+09-1.91474E+08 2.58560E+06 1.77724E+09 6.33479E+06-4.77169E+06
 -1       992-2.04620E+09 1.11824E+08-9.37908E+05 1.63341E+09 1.28525E+07 2.89666E+07
 -1       994-2.04620E+09 1.11824E+08-9.37908E+05 1.63341E+09 1.28525E+07 2.89666E+07
 -1       995-7.86223E+09-3.84008E+07-7.07442E+06 1.19074E+09 1.38195E+07 8.36186E+06
 -1       997-7.86223E+09-3.84008E+07-7.07442E+06 1.19074E+09 1.38195E+07 8.36186E+06
 -1       998-1.18704E+10 4.20257E+07-5.01021E+06 7.39326E+08 1.56755E+07 1.28775E+07
 -1      1000-1.18704E+10 4.20257E+07-5.01021E+06 7.39326E+08 1.56755E+07 1.28775E+07
 -1      1001-1.37853E+10 2.20991E+06-1.00445E+07 1.92157E+08 1.51106E+07 4.70599E+06
 -1      1003-1.37853E+10 2.20991E+06-1.00445E+07 1.92157E+08 1.51106E+07 4.70599E+06
 -1      1004-1.34908E+10 2.37641E+07-6.10033E+06-3.28736E+08 1.35191E+07 2.30903E+06
 -1      1006-1.34908E+10 2.37641E+07-6.10033E+06-3.28736E+08 1.35191E+07 2.30903E+06
 -1      1007-1.11415E+10 1.07362E+07-7.90212E+06-7.94317E+08 1.07530E+07-2.63106E+06
 -1      1009-1.11415E+10 1.07362E+07-7.90212E+06-7.94317E+08 1.07530E+07-2.63106E+06
 -1      1010-7.11732E+09 1.54998E+07-2.95840E+06-1.13511E+09 6.83634E+06-5.84866E+06
 -1      1012-7.11732E+09 1.54998E+07-2.95840E+06-1.13511E+09 6.83634E+06-5.84866E+06
 -1      1013-2.00378E+09 8.90382E+06-2.29488E+06-1.31812E+09 2.66474E+06-8.97733E+06
 -1      1015-2.00378E+09 8.90382E+06-2.29488E+06-1.31812E+09 2.66474E+06-8.97733E+06
 -1      1016 3.49032E+09 8.40236E+06 2.61443E+06-1.31872E+09-1.85369E+06-1.10938E+07
 -1      1018 3.49032E+09 8.40236E+06 2.61443E+06-1.31872E+09-1.85369E+06-1.10938E+07
 -1      1019 8.61374E+09 3.87353E+06 3.96651E+06-1.14082E+09-5.65942E+06-1.24764E+07
 -1      1021 8.61374E+09 3.87353E+06 3.96651E+06-1.14082E+09-5.65942E+06-1.24764E+07
 -1      1022 1.26726E+10 2.21016E+06 7.50456E+06-8.08056E+08-8.80842E+06-1.30702E+07
 -1      1024 1.26726E+10 2.21016E+06 7.50456E+06-8.08056E+08-8.80842E+06-1.30702E+07
 -1      1025 1.51154E+10-7.20770E+05 7.82854E+06-3.65401E+08-1.04960E+07-1.29949E+07
 -1      1027 1.51154E+10-7.20770E+05 7.82854E+06-3.65401E+08-1.04960E+07-1.29949E+07
 -1      1028 1.56058E+10-1.73169E+06 9.01479E+06 1.29079E+08-1.08996E+07-1.24590E+07
 -1      1030 1.56058E+10-1.73169E+06 9.01479E+06 1.29079E+08-1.08996E+07-1.24590E+07
 -1      1031 1.40634E+10-2.97907E+06 7.43045E+06 6.10370E+08-9.67054E+06-1.16138E+07
 -1      1033 1.40634E+10-2.97907E+06 7.43045E+06 6.10370E+08-9.67054E+06-1.16138E+07
 -1      1034 1.06740E+10-2.79705E+06 6.22709E+06 1.01582E+09-7.22474E+06-1.07112E+07
 -1      1036 1.06740E+10-2.79705E+06 6.22709E+06 1.01582E+09-7.22474E+06-1.07112E+07
 -1      1037 5.86327E+09-2.72071E+06 3.02956E+06 1.29283E+09-3.67231E+06-9.87746E+06
 -1      1039 5.86327E+09-2.72071E+06 3.02956E+06 1.29283E+09-3.67231E+06-9.87746E+06
 -1      1040 2.40006E+08-1.74012E+06 4.38869E+05 1.40623E+09 3.82318E+05-9.27741E+06
 -1      1042 2.40006E+08-1.74012E+06 4.38869E+05 1.40623E+09 3.82318E+05-9.27741E+06
 -1      1043-5.48594E+09-1.22419E+06-3.13052E+06 1.34258E+09 4.54906E+06-8.93132E+06
 -1      1045-5.48594E+09-1.22419E+06-3.13052E+06 1.34258E+09 4.54906E+06-8.93132E+06
 -1      1046-1.05985E+10-3.18119E+05-5.52551E+06 1.11255E+09 8.23874E+06-8.85032E+06
 -1      1048-1.05985E+10-3.18119E+05-5.52551E+06 1.11255E+09 8.23874E+06-8.85032E+06
 -1      1049-1.44732E+10-4.00019E+05-7.96254E+06 7.49292E+08 1.10624E+07-8.93586E+06
 -1      1051-1.44732E+10-4.00019E+05-7.96254E+06 7.49292E+08 1.10624E+07-8.93586E+06
 -1      1052-1.66625E+10-2.43439E+05-8.78441E+06 3.04982E+08 1.27021E+07-9.03921E+06
 -1      1054-1.66625E+10-2.43439E+05-8.78441E+06 3.04982E+08 1.27021E+07-9.03921E+06
 -1      1055-1.69625E+10-1.78386E+06-9.11858E+06-1.55709E+08 1.30394E+07-9.05702E+06
 -1      1057-1.69625E+10-1.78386E+06-9.11858E+06-1.55709E+08 1.30394E+07-9.05702E+06
 -1      1058-1.54463E+10-1.91739E+06-7.92088E+06-5.64095E+08 1.22070E+07-8.64728E+06
 -1      1060-1.54463E+10-1.91739E+06-7.92088E+06-5.64095E+08 1.22070E+07-8.64728E+06
 -1      1061-1.24705E+10-5.85377E+06-6.22829E+06-8.52566E+08 1.05405E+07-8.08562E+06
 -1      1063-1.24705E+10-5.85377E+06-6.22829E+06-8.52566E+08 1.05405E+07-8.08562E+06
 -1      1064-8.64285E+09-4.08454E+06-3.79289E+06-9.67167E+08 8.59777E+06-6.37878E+06
 -1      1066-8.64285E+09-4.08454E+06-3.79289E+06-9.67167E+08 8.59777E+06-6.37878E+06
 -1      1067-4.76861E+09-9.48629E+06-1.25555E+06-8.69971E+08 7.24175E+06-5.52212E+06
 -1      1069-4.76861E+09-9.48629E+06-1.25555E+06-8.69971E+08 7.24175E+06-5.52212E+06
 -1      1070-1.79142E+09-1.26012E+07 9.07050E+05-5.17190E+08 6.73096E+06-1.31428E+06
 -1      1072-1.79142E+09-1.26012E+07 9.07050E+05-5.17190E+08 6.73096E+06-1.31428E+06
 -1      1073 1.11197E+10 9.85743E+08 8.38103E+05 3.06682E+09 2.75205E+07 1.11499E+08
 -1      1075 1.11197E+10 9.85743E+08 8.38103E+05 3.06682E+09 2.75205E+07 1.11499E+08
 -1      1076-9.72270E-02 1.23588E-04-4.51823E-03 3.14189E+08-7.03797E+06-1.05014E-01
 -1      1078-9.72270E-02 1.23588E-04-4.51823E-03 3.14189E+08-7.03797E+06-1.05014E-01
 -1      1079-8.98304E-02 1.00334E-04 6.75302E-04 5.15138E+08-1.61137E-05-9.14752E-02
 -1      1081-8.98304E-02 1.00334E-04 6.75302E-04 5.15138E+08-1.61137E-05-9.14752E-02
 -1      1082-8.95341E-02-1.32362E-05 8.16421E-04 3.14189E+08 7.03797E+06-6.58124E-02
 -1      1084-8.95341E-02-1.32362E-05 8.16421E-04 3.14189E+08 7.03797E+06-6.58124E-02
 -1      1085-8.64051E-02-3.20025E-05 8.85485E-03 1.32729E+07-3.79745E+07-6.40714E-02
 -1      1087-8.64051E-02-3.20025E-05 8.85485E-03 1.32729E+07-3.79745E+07-6.40714E-02
 -1      1088-7.64284E-02-4.24254E-03-2.90871E-05 4.19521E+09-2.09719E+07 1.94546E-04
 -1      1090-7.64284E-02-4.24254E-03-2.90871E-05 4.19521E+09-2.09719E+07 1.94546E-04
 -1      1099-9.42998E-02-2.26010E-04 4.48432E-03-3.31986E+07-5.78293E+07-8.48970E-02
 -1      1101-9.42998E-02-2.26010E-04 4.48432E-03-3.31986E+07-5.78293E+07-8.48970E-02
 -1      1102-9.26134E-02 3.49646E-03 1.73084E-04 4.25033E+09 9.56049E+06 1.33317E-04
 -1      1104-9.26134E-02 3.49646E-03 1.73084E-04 4.25033E+09 9.56049E+06 1.33317E-04
 -1      1113-1.10548E-01 5.82167E-05-1.56239E-02-5.92869E+06-7.71070E+07-8.75823E-02
 -1      1115-1.10548E-01 5.82167E-05-1.56239E-02-5.92869E+06-7.71070E+07-8.75823E-02
 -1      1116-1.17864E-01-1.37723E-03-1.33403E-04 3.47296E+09 5.86942E+06 3.25480E-04
 -1      1118-1.17864E-01-1.37723E-03-1.33403E-04 3.47296E+09 5.86942E+06 3.25480E-04
 -1      1127-1.32263E-01 2.20817E-04-3.73538E-02-1.49013E+07-1.04290E+08-7.91992E-02
 -1      1129-1.32263E-01 2.20817E-04-3.73538E-02-1.49013E+07-1.04290E+08-7.91992E-02
 -1      1130-1.39684E-01-4.19533E-03-6.36578E-05 2.72356E+09 8.02393E+06 4.07516E-04
 -1      1132-1.39684E-01-4.19533E-03-6.36578E-05 2.72356E+09 8.02393E+06 4.07516E-04
 -1      1141-1.48768E-01-8.27297E-04-6.59978E-02-3.63976E+06-1.14896E+08-6.80392E-02
 -1      1143-1.48768E-01-8.27297E-04-6.59978E-02-3.63976E+06-1.14896E+08-6.80392E-02
 -1      1144-1.50056E-01 3.16137E-03 1.78814E-04 1.60383E+09 1.06326E+07 1.39097E-04
 -1      1146-1.50056E-01 3.16137E-03 1.78814E-04 1.60383E+09 1.06326E+07 1.39097E-04
 -1      1155-1.52885E-01-2.15705E-03-7.98363E-02-2.28245E+06-1.16803E+08-3.98104E-02
 -1      1157-1.52885E-01-2.15705E-03-7.98363E-02-2.28245E+06-1.16803E+08-3.98104E-02
 -1      1158-1.45126E-01 7.33352E-03 3.93629E-04 4.49388E+08 1.22151E+07-3.11557E-04
 -1      1160-1.45126E-01 7.33352E-03 3.93629E-04 4.49388E+08 1.22151E+07-3.11557E-04
 -1      1169-1.37768E-01-1.96614E-03-4.87748E-02 4.73931E+06-1.03320E+08-1.62500E-03
 -1      1171-1.37768E-01-1.96614E-03-4.87748E-02 4.73931E+06-1.03320E+08-1.62500E-03
 -1      1172-1.25314E-01 3.28332E-03 4.88579E-04-7.34164E+08 1.78460E+07-2.37534E-04
 -1      1174-1.25314E-01 3.28332E-03 4.88579E-04-7.34164E+08 1.78460E+07-2.37534E-04
 -1      1183-1.18431E-01-2.25694E-03-3.02276E-03 8.18469E+06-7.64838E+07 5.33577E-03
 -1      1185-1.18431E-01-2.25694E-03-3.02276E-03 8.18469E+06-7.64838E+07 5.33577E-03
 -1      1186-1.13861E-01 1.53840E-04-6.78897E-05-1.75102E+09 2.28448E+07-5.89409E-04
 -1      1188-1.13861E-01 1.53840E-04-6.78897E-05-1.75102E+09 2.28448E+07-5.89409E-04
 -1      1197-1.13379E-01-1.07537E-03 2.39178E-03 1.25425E+07-3.94486E+07-9.66263E-03
 -1      1199-1.13379E-01-1.07537E-03 2.39178E-03 1.25425E+07-3.94486E+07-9.66263E-03
 -1      1200-1.19369E-01 1.96320E-03-1.19567E-04-2.51360E+09 3.06317E+07-1.26816E-03
 -1      1202-1.19369E-01 1.96320E-03-1.19567E-04-2.51360E+09 3.06317E+07-1.26816E-03
 -1      1211-1.06690E-01-3.45959E-04-1.37667E-02 1.47080E+07 4.81301E+06-2.82921E-03
 -1      1213-1.06690E-01-3.45959E-04-1.37667E-02 1.47080E+07 4.81301E+06-2.82921E-03
 -1      1214-1.17178E-01 6.27325E-03 2.23454E-04-2.91517E+09 3.72928E+07-1.38673E-03
 -1      1216-1.17178E-01 6.27325E-03 2.23454E-04-2.91517E+09 3.72928E+07-1.38673E-03
 -1      1225-8.57173E-02-1.71762E-03-5.31212E-04 1.61050E+07 4.94456E+07 2.25562E-02
 -1      1227-8.57173E-02-1.71762E-03-5.31212E-04 1.61050E+07 4.94456E+07 2.25562E-02
 -1      1228-1.00996E-01 8.59575E-03 4.60651E-04-2.91892E+09 4.42740E+07-1.39888E-03
 -1      1230-1.00996E-01 8.59575E-03 4.60651E-04-2.91892E+09 4.42740E+07-1.39888E-03
 -1      1239-7.04339E-02-1.79847E-03 4.01140E-02 1.57803E+07 9.01918E+07 4.11102E-02
 -1      1241-7.04339E-02-1.79847E-03 4.01140E-02 1.57803E+07 9.01918E+07 4.11102E-02
 -1      1242-9.25374E-02 5.48941E-03 1.97560E-04-2.52412E+09 4.86206E+07-1.47804E-03
 -1      1244-9.25374E-02 5.48941E-03 1.97560E-04-2.52412E+09 4.86206E+07-1.47804E-03
 -1      1253-6.73639E-02-9.16951E-04 7.75191E-02 1.44409E+07 1.20538E+08 4.74025E-02
 -1      1255-6.73639E-02-9.16951E-04 7.75191E-02 1.44409E+07 1.20538E+08 4.74025E-02
 -1      1256-9.24780E-02 5.20658E-03 4.03523E-05-1.78825E+09 5.08561E+07-1.09344E-03
 -1      1258-9.24780E-02 5.20658E-03 4.03523E-05-1.78825E+09 5.08561E+07-1.09344E-03
 -1      1267-6.08353E-02-5.91545E-04 9.05715E-02 1.20383E+07 1.37387E+08 5.36854E-02
 -1      1269-6.08353E-02-5.91545E-04 9.05715E-02 1.20383E+07 1.37387E+08 5.36854E-02
 -1      1270-8.08673E-02 1.11173E-02-1.44482E-04-8.08020E+08 4.91249E+07-9.31432E-04
 -1      1272-8.08673E-02 1.11173E-02-1.44482E-04-8.08020E+08 4.91249E+07-9.31432E-04
 -1      1281-4.01816E-02-1.02921E-03 8.97529E-02 9.18006E+06 1.37480E+08 7.10743E-02
 -1      1283-4.01816E-02-1.02921E-03 8.97529E-02 9.18006E+06 1.37480E+08 7.10743E-02
 -1      1284-5.14381E-02 9.31019E-03 1.12772E-04 2.86390E+08 4.39492E+07-6.39823E-04
 -1      1286-5.14381E-02 9.31019E-03 1.12772E-04 2.86390E+08 4.39492E+07-6.39823E-04
 -1      1295-7.13367E-03-9.14701E-04 9.65662E-02 6.17606E+06 1.21087E+08 7.69040E-02
 -1      1297-7.13367E-03-9.14701E-04 9.65662E-02 6.17606E+06 1.21087E+08 7.69040E-02
 -1      1298-1.23854E-02-1.10376E-03-3.08752E-04 1.35200E+09 3.47161E+07-7.56262E-05
 -1      1300-1.23854E-02-1.10376E-03-3.08752E-04 1.35200E+09 3.47161E+07-7.56262E-05
 -1      1309 2.73124E-02 1.40114E-03 9.22218E-02 3.54791E+06 8.94551E+07 5.29172E-02
 -1      1311 2.73124E-02 1.40114E-03 9.22218E-02 3.54791E+06 8.94551E+07 5.29172E-02
 -1      1312 2.90594E-02-4.67533E-03-5.73993E-04 2.24953E+09 2.24239E+07-2.56615E-04
 -1      1314 2.90594E-02-4.67533E-03-5.73993E-04 2.24953E+09 2.24239E+07-2.56615E-04
 -1      1323 5.73448E-02 1.20437E-03 6.32917E-02 1.60533E+06 4.66040E+07 2.59701E-02
 -1      1325 5.73448E-02 1.20437E-03 6.32917E-02 1.60533E+06 4.66040E+07 2.59701E-02
 -1      1326 6.59921E-02-6.69295E-03-4.32193E-04 2.86299E+09 7.58819E+06 9.83584E-05
 -1      1328 6.59921E-02-6.69295E-03-4.32193E-04 2.86299E+09 7.58819E+06 9.83584E-05
 -1      1337 7.40056E-02-6.18306E-04 3.35221E-02 6.37665E+05-2.56367E+06 1.00893E-02
 -1      1339 7.40056E-02-6.18306E-04 3.35221E-02 6.37665E+05-2.56367E+06 1.00893E-02
 -1      1340 8.55809E-02-1.56158E-02-3.08156E-05 3.11414E+09-8.35997E+06 5.45579E-04
 -1      1342 8.55809E-02-1.56158E-02-3.08156E-05 3.11414E+09-8.35997E+06 5.45579E-04
 -1      1351 7.12022E-02 7.93429E-04 1.06737E-02 7.00468E+05-5.19694E+07-3.25954E-04
 -1      1353 7.12022E-02 7.93429E-04 1.06737E-02 7.00468E+05-5.19694E+07-3.25954E-04
 -1      1354 8.57902E-02-1.69414E-02 1.42425E-04 2.97369E+09-2.42245E+07 3.68320E-04
 -1      1356 8.57902E-02-1.69414E-02 1.42425E-04 2.97369E+09-2.42245E+07 3.68320E-04
 -1      1365 6.08928E-02 1.08848E-03-5.32125E-04 1.79283E+06-9.55934E+07 1.97008E-03
 -1      1367 6.08928E-02 1.08848E-03-5.32125E-04 1.79283E+06-9.55934E+07 1.97008E-03
 -1      1368 8.02028E-02-7.71433E-03 2.82824E-05 2.46475E+09-3.85861E+07 1.99835E-04
 -1      1370 8.02028E-02-7.71433E-03 2.82824E-05 2.46475E+09-3.85861E+07 1.99835E-04
 -1      1379 5.04894E-02 1.16211E-03 2.61261E-02 3.55172E+06-1.28194E+08 6.48030E-03
 -1      1381 5.04894E-02 1.16211E-03 2.61261E-02 3.55172E+06-1.28194E+08 6.48030E-03
 -1      1382 7.03630E-02-6.48785E-03 2.11537E-04 1.66149E+09-5.01980E+07 3.36440E-05
 -1      1384 7.03630E-02-6.48785E-03 2.11537E-04 1.66149E+09-5.01980E+07 3.36440E-05
 -1      1393 3.65266E-02 1.89282E-03 7.46989E-02 5.90083E+06-1.45609E+08-1.17650E-02
 -1      1395 3.65266E-02 1.89282E-03 7.46989E-02 5.90083E+06-1.45609E+08-1.17650E-02
 -1      1396 5.24111E-02-9.45932E-03-6.78539E-04 6.78641E+08-5.82239E+07 3.25418E-05
 -1      1398 5.24111E-02-9.45932E-03-6.78539E-04 6.78641E+08-5.82239E+07 3.25418E-05
 -1      1407 2.30131E-02 1.19092E-03 8.75825E-02 7.85362E+06-1.46049E+08-4.61978E-02
 -1      1409 2.30131E-02 1.19092E-03 8.75825E-02 7.85362E+06-1.46049E+08-4.61978E-02
 -1      1410 3.55542E-02-2.59507E-03-2.36273E-04-3.39861E+08-6.18919E+07-7.72362E-05
 -1      1412 3.55542E-02-2.59507E-03-2.36273E-04-3.39861E+08-6.18919E+07-7.72362E-05
 -1      1421 1.65102E-02-2.80395E-04 5.86387E-02 9.93198E+06-1.29241E+08-5.83875E-02
 -1      1423 1.65102E-02-2.80395E-04 5.86387E-02 9.93198E+06-1.29241E+08-5.83875E-02
 -1      1424 2.66948E-02 4.40872E-03 2.31445E-04-1.24170E+09-6.13366E+07 3.78479E-04
 -1      1426 2.66948E-02 4.40872E-03 2.31445E-04-1.24170E+09-6.13366E+07 3.78479E-04
 -1      1435 1.65869E-02-1.22832E-03 3.66631E-02 9.96466E+06-9.77855E+07-3.98976E-02
 -1      1437 1.65869E-02-1.22832E-03 3.66631E-02 9.96466E+06-9.77855E+07-3.98976E-02
 -1      1438 2.43781E-02 5.19073E-03 4.42207E-04-1.87809E+09-5.64339E+07 7.13102E-04
 -1      1440 2.43781E-02 5.19073E-03 4.42207E-04-1.87809E+09-5.64339E+07 7.13102E-04
 -1      1449 2.01142E-02-1.11236E-05 4.09235E-02 1.03887E+07-5.59162E+07-2.73266E-02
 -1      1451 2.01142E-02-1.11236E-05 4.09235E-02 1.03887E+07-5.59162E+07-2.73266E-02
 -1      1452 2.41323E-02 4.54196E-03 5.45919E-04-2.13020E+09-4.83299E+07 6.55305E-04
 -1      1454 2.41323E-02 4.54196E-03 5.45919E-04-2.13020E+09-4.83299E+07 6.55305E-04
 -1      1463 1.82537E-02 1.73104E-03 4.10625E-02 6.53220E+06-9.55479E+06-3.06612E-02
 -1      1465 1.82537E-02 1.73104E-03 4.10625E-02 6.53220E+06-9.55479E+06-3.06612E-02
 -1      1466 2.08654E-02 2.22484E-03 3.41982E-05-1.89527E+09-3.76438E+07 2.72256E-04
 -1      1468 2.08654E-02 2.22484E-03 3.41982E-05-1.89527E+09-3.76438E+07 2.72256E-04
 -1      1477 7.40185E-03 2.06147E-03 2.06084E-02 4.98861E+06 3.03418E+07-2.42447E-02
 -1      1479 7.40185E-03 2.06147E-03 2.06084E-02 4.98861E+06 3.03418E+07-2.42447E-02
 -1      1480 1.32521E-02 6.39136E-03 1.06059E-04-1.16455E+09-2.69361E+07 7.22805E-05
 -1      1482 1.32521E-02 6.39136E-03 1.06059E-04-1.16455E+09-2.69361E+07 7.22805E-05
 -1      1491-9.48131E-03 1.89350E-03 5.02987E-02 1.09356E+07 1.01435E+07-7.61969E-03
 -1      1493-9.48131E-03 1.89350E-03 5.02987E-02 1.09356E+07 1.01435E+07-7.61969E-03
 -1      1494-5.92032E-03 1.68007E-03 4.26068E-02 1.27360E+07-4.89608E-03-6.87853E-03
 -1      1496-5.92032E-03 1.68007E-03 4.26068E-02 1.27360E+07-4.89608E-03-6.87853E-03
 -1      1497-1.76160E-03 1.26861E-03 2.12226E-02 1.09356E+07-1.01435E+07-1.00163E-02
 -1      1499-1.76160E-03 1.26861E-03 2.12226E-02 1.09356E+07-1.01435E+07-1.00163E-02
 -1      1500 1.30315E+10 3.85823E+08-7.89031E+05 2.13163E+09-3.25115E+06-7.05565E+07
 -1      1502 1.30315E+10 3.85823E+08-7.89031E+05 2.13163E+09-3.25115E+06-7.05565E+07
 -1      1503 5.06149E+09-1.91474E+08 2.58560E+06 1.77724E+09-6.33479E+06 4.77169E+06
 -1      1505 5.06149E+09-1.91474E+08 2.58560E+06 1.77724E+09-6.33479E+06 4.77169E+06
 -1      1506-2.04620E+09 1.11824E+08-9.37908E+05 1.63341E+09-1.28525E+07-2.89666E+07
 -1      1508-2.04620E+09 1.11824E+08-9.37908E+05 1.63341E+09-1.28525E+07-2.89666E+07
 -1      1509-7.86223E+09-3.84008E+07-7.07442E+06 1.19074E+09-1.38195E+07-8.36186E+06
 -1      1511-7.86223E+09-3.84008E+07-7.07442E+06 1.19074E+09-1.38195E+07-8.36186E+06
 -1      1512-1.18704E+10 4.20257E+07-5.01021E+06 7.39326E+08-1.56755E+07-1.28775E+07
 -1      1514-1.18704E+10 4.20257E+07-5.01021E+06 7.39326E+08-1.56755E+07-1.28775E+07
 -1      1515-1.37853E+10 2.20991E+06-1.00445E+07 1.92157E+08-1.51106E+07-4.70599E+06
 -1      1517-1.37853E+10 2.20991E+06-1.00445E+07 1.92157E+08-1.51106E+07-4.70599E+06
 -1      1518-1.34908E+10 2.37641E+07-6.10033E+06-3.28736E+08-1.35191E+07-2.30903E+06
 -1      1520-1.34908E+10 2.37641E+07-6.10033E+06-3.28736E+08-1.35191E+07-2.30903E+06
 -1      1521-1.11415E+10 1.07362E+07-7.90212E+06-7.94317E+08-1.07530E+07 2.63106E+06
 -1      1523-1.11415E+10 1.07362E+07-7.90212E+06-7.94317E+08-1.07530E+07 2.63106E+06
 -1      1524-7.11732E+09 1.54998E+07-2.95840E+06-1.13511E+09-6.83634E+06 5.84866E+06
 -1      1526-7.11732E+09 1.54998E+07-2.95840E+06-1.13511E+09-6.83634E+06 5.84866E+06
 -1      1527-2.00378E+09 8.90382E+06-2.29488E+06-1.31812E+09-2.66474E+06 8.97733E+06
 -1      1529-2.00378E+09 8.90382E+06-2.29488E+06-1.31812E+09-2.66474E+06 8.97733E+06
 -1      1530 3.49032E+09 8.40236E+06 2.61443E+06-1.31872E+09 1.85369E+06 1.10938E+07
 -1      1532 3.49032E+09 8.40236E+06 2.61443E+06-1.31872E+09 1.85369E+06 1.10938E+07
 -1      1533 8.61374E+09 3.87353E+06 3.96651E+06-1.14082E+09 5.65942E+06 1.24764E+07
 -1      1535 8.61374E+09 3.87353E+06 3.96651E+06-1.14082E+09 5.65942E+06 1.24764E+07
 -1      1536 1.26726E+10 2.21016E+06 7.50456E+06-8.08056E+08 8.80842E+06 1.30702E+07
 -1      1538 1.26726E+10 2.21016E+06 7.50456E+06-8.08056E+08 8.80842E+06 1.30702E+07
 -1      1539 1.51154E+10-7.20770E+05 7.82854E+06-3.65401E+08 1.04960E+07 1.29949E+07
 -1      1541 1.51154E+10-7.20770E+05 7.82854E+06-3.65401E+08 1.04960E+07 1.29949E+07
 -1      1542 1.56058E+10-1.73169E+06 9.01479E+06 1.29079E+08 1.08996E+07 1.24590E+07
 -1      1544 1.56058E+10-1.73169E+06 9.01479E+06 1.29079E+08 1.08996E+07 1.24590E+07
 -1      1545 1.40634E+10-2.97907E+06 7.43045E+06 6.10370E+08 9.67054E+06 1.16138E+07
 -1      1547 1.40634E+10-2.97907E+06 7.43045E+06 6.10370E+08 9.67054E+06 1.16138E+07
 -1      1548 1.06740E+10-2.79705E+06 6.22709E+06 1.01582E+09 7.22474E+06 1.07112E+07
 -1      1550 1.06740E+10-2.79705E+06 6.22709E+06 1.01582E+09 7.22474E+06 1.07112E+07
 -1      1551 5.86327E+09-2.72071E+06 3.02956E+06 1.29283E+09 3.67231E+06 9.87746E+06
 -1      1553 5.86327E+09-2.72071E+06 3.02956E+06 1.29283E+09 3.67231E+06 9.87746E+06
 -1      1554 2.40006E+08-1.74012E+06 4.38869E+05 1.40623E+09-3.82318E+05 9.27741E+06
 -1      1556 2.40006E+08-1.74012E+06 4.38869E+05 1.40623E+09-3.82318E+05 9.27741E+06
 -1      1557-5.48594E+09-1.22419E+06-3.13052E+06 1.34258E+09-4.54906E+06 8.93132E+06
 -1      1559-5.48594E+09-1.22419E+06-3.13052E+06 1.34258E+09-4.54906E+06 8.93132E+06
 -1      1560-1.05985E+10-3.18119E+05-5.52551E+06 1.11255E+09-8.23874E+06 8.85032E+06
 -1      1562-1.05985E+10-3.18119E+05-5.52551E+06 1.11255E+09-8.23874E+06 8.85032E+06
 -1      1563-1.44732E+10-4.00019E+05-7.96254E+06 7.49292E+08-1.10624E+07 8.93586E+06
 -1      1565-1.44732E+10-4.00019E+05-7.96254E+06 7.49292E+08-1.10624E+07 8.93586E+06
 -1      1566-1.66625E+10-2.43439E+05-8.78441E+06 3.04982E+08-1.27021E+07 9.03921E+06
 -1      1568-1.66625E+10-2.43439E+05-8.78441E+06 3.04982E+08-1.27021E+07 9.03921E+06
 -1      1569-1.69625E+10-1.78386E+06-9.11858E+06-1.55709E+08-1.30394E+07 9.05702E+06
 -1      1571-1.69625E+10-1.78386E+06-9.11858E+06-1.55709E+08-1.30394E+07 9.05702E+06
 -1      1572-1.54463E+10-1.91739E+06-7.92088E+06-5.64095E+08-1.22070E+07 8.64728E+06
 -1      1574-1.54463E+10-1.91739E+06-7.92088E+06-5.64095E+08-1.22070E+07 8.64728E+06
 -1      1575-1.24705E+10-5.85377E+06-6.22829E+06-8.52566E+08-1.05405E+07 8.08562E+06
 -1      1577-1.24705E+10-5.85377E+06-6.22829E+06-8.52566E+08-1.05405E+07 8.08562E+06
 -1      1578-8.64285E+09-4.08454E+06-3.79289E+06-9.67167E+08-8.59777E+06 6.37878E+06
 -1      1580-8.64285E+09-4.08454E+06-3.79289E+06-9.67167E+08-8.59777E+06 6.37878E+06
 -1      1581-4.76861E+09-9.48629E+06-1.25555E+06-8.69971E+08-7.24175E+06 5.52212E+06
 -1      1583-4.76861E+09-9.48629E+06-1.25555E+06-8.69971E+08-7.24175E+06 5.52212E+06
 -1      1584-1.79142E+09-1.26012E+07 9.07050E+05-5.17190E+08-6.73096E+06 1.31428E+06
 -1      1586-1.79142E+09-1.26012E+07 9.07050E+05-5.17190E+08-6.73096E+06 1.31428E+06
 -1      1587-4.93754E+08-1.04536E+08-1.47140E+04-4.79007E+08-1.49256E+07-2.55097E+06
 -1      1589-4.93754E+08-1.04536E+08-1.47140E+04-4.79007E+08-1.49256E+07-2.55097E+06
 -1      1590 1.11197E+10 9.85743E+08 8.38103E+05 3.06682E+09-2.75205E+07-1.11499E+08
 -1      1592 1.11197E+10 9.85743E+08 8.38103E+05 3.06682E+09-2.75205E+07-1.11499E+08
 -1      1593 4.93754E+08 1.04536E+08 1.47140E+04-4.79007E+08-1.49256E+07 2.55097E+06
 -1      1595 4.93754E+08 1.04536E+08 1.47140E+04-4.79007E+08-1.49256E+07 2.55097E+06
 -1      1596-1.30315E+10-3.85823E+08 7.89031E+05 2.13163E+09-3.25115E+06 7.05565E+07
 -1      1598-1.30315E+10-3.85823E+08 7.89031E+05 2.13163E+09-3.25115E+06 7.05565E+07
 -1      1599-5.06149E+09 1.91474E+08-2.58560E+06 1.77724E+09-6.33479E+06-4.77169E+06
 -1      1601-5.06149E+09 1.91474E+08-2.58560E+06 1.77724E+09-6.33479E+06-4.77169E+06
 -1      1602 2.04620E+09-1.11824E+08 9.37908E+05 1.63341E+09-1.28525E+07 2.89666E+07
 -1      1604 2.04620E+09-1.11824E+08 9.37908E+05 1.63341E+09-1.28525E+07 2.89666E+07
 -1      1605 7.86223E+09 3.84008E+07 7.07442E+06 1.19074E+09-1.38195E+07 8.36186E+06
 -1      1607 7.86223E+09 3.84008E+07 7.07442E+06 1.19074E+09-1.38195E+07 8.36186E+06
 -1      1608 1.18704E+10-4.20257E+07 5.01021E+06 7.39326E+08-1.56755E+07 1.28775E+07
 -1      1610 1.18704E+10-4.20257E+07 5.01021E+06 7.39326E+08-1.56755E+07 1.28775E+07
 -1      1611 1.37853E+10-2.20991E+06 1.00445E+07 1.92157E+08-1.51106E+07 4.70599E+06
 -1      1613 1.37853E+10-2.20991E+06 1.00445E+07 1.92157E+08-1.51106E+07 4.70599E+06
 -1      1614 1.34908E+10-2.37641E+07 6.10033E+06-3.28736E+08-1.35191E+07 2.30903E+06
 -1      1616 1.34908E+10-2.37641E+07 6.10033E+06-3.28736E+08-1.35191E+07 2.30903E+06
 -1      1617 1.11415E+10-1.07362E+07 7.90212E+06-7.94317E+08-1.07530E+07-2.63106E+06
 -1      1619 1.11415E+10-1.07362E+07 7.90212E+06-7.94317E+08-1.07530E+07-2.63106E+06
 -1      1620 7.11732E+09-1.54998E+07 2.95840E+06-1.13511E+09-6.83634E+06-5.84866E+06
 -1      1622 7.11732E+09-1.54998E+07 2.95840E+06-1.13511E+09-6.83634E+06-5.84866E+06
 -1      1623 2.00378E+09-8.90382E+06 2.29488E+06-1.31812E+09-2.66474E+06-8.97733E+06
 -1      1625 2.00378E+09-8.90382E+06 2.29488E+06-1.31812E+09-2.66474E+06-8.97733E+06
 -1      1626-3.49032E+09-8.40236E+06-2.61443E+06-1.31872E+09 1.85369E+06-1.10938E+07
 -1      1628-3.49032E+09-8.40236E+06-2.61443E+06-1.31872E+09 1.85369E+06-1.10938E+07
 -1      1629-8.61374E+09-3.87353E+06-3.96651E+06-1.14082E+09 5.65942E+06-1.24764E+07
 -1      1631-8.61374E+09-3.87353E+06-3.96651E+06-1.14082E+09 5.65942E+06-1.24764E+07
 -1      1632-1.26726E+10-2.21016E+06-7.50456E+06-8.08056E+08 8.80842E+06-1.30702E+07
 -1      1634-1.26726E+10-2.21016E+06-7.50456E+06-8.08056E+08 8.80842E+06-1.30702E+07
 -1      1635-1.51154E+10 7.20770E+05-7.82854E+06-3.65401E+08 1.04960E+07-1.29949E+07
 -1      1637-1.51154E+10 7.20770E+05-7.82854E+06-3.65401E+08 1.04960E+07-1.29949E+07
 -1      1638-1.56058E+10 1.73169E+06-9.01479E+06 1.29079E+08 1.08996E+07-1.24590E+07
 -1      1640-1.56058E+10 1.73169E+06-9.01479E+06 1.29079E+08 1.08996E+07-1.24590E+07
 -1      1641-1.40634E+10 2.97907E+06-7.43045E+06 6.10370E+08 9.67054E+06-1.16138E+07
 -1      1643-1.40634E+10 2.97907E+06-7.43045E+06 6.10370E+08 9.67054E+06-1.16138E+07
 -1      1644-1.06740E+10 2.79705E+06-6.22709E+06 1.01582E+09 7.22474E+06-1.07112E+07
 -1      1646-1.06740E+10 2.79705E+06-6.22709E+06 1.01582E+09 7.22474E+06-1.07112E+07
 -1      1647-5.86327E+09 2.72071E+06-3.02956E+06 1.29283E+09 3.67231E+06-9.87746E+06
 -1      1649-5.86327E+09 2.72071E+06-3.02956E+06 1.29283E+09 3.67231E+06-9.87746E+06
 -1      1650-2.40006E+08 1.74012E+06-4.38869E+05 1.40623E+09-3.82318E+05-9.27741E+06
 -1      1652-2.40006E+08 1.74012E+06-4.38869E+05 1.40623E+09-3.82318E+05-9.27741E+06
 -1      1653 5.48594E+09 1.22419E+06 3.13052E+06 1.34258E+09-4.54906E+06-8.93132E+06
 -1      1655 5.48594E+09 1.22419E+06 3.13052E+06 1.34258E+09-4.54906E+06-8.93132E+06
 -1      1656 1.05985E+10 3.18119E+05 5.52551E+06 1.11255E+09-8.23874E+06-8.85032E+06
 -1      1658 1.05985E+10 3.18119E+05 5.52551E+06 1.11255E+09-8.23874E+06-8.85032E+06
 -1      1659 1.44732E+10 4.00019E+05 7.96254E+06 7.49292E+08-1.10624E+07-8.93586E+06
 -1      1661 1.44732E+10 4.00019E+05 7.96254E+06 7.49292E+08-1.10624E+07-8.93586E+06
 -1      1662 1.66625E+10 2.43439E+05 8.78441E+06 3.04982E+08-1.27021E+07-9.03921E+06
 -1      1664 1.66625E+10 2.43439E+05 8.78441E+06 3.04982E+08-1.27021E+07-9.03921E+06
 -1      1665 1.69625E+10 1.78386E+06 9.11858E+06-1.55709E+08-1.30394E+07-9.05702E+06
 -1      1667 1.69625E+10 1.78386E+06 9.11858E+06-1.55709E+08-1.30394E+07-9.05702E+06
 -1      1668 1.54463E+10 1.91739E+06 7.92088E+06-5.64095E+08-1.22070E+07-8.64728E+06
 -1      1670 1.54463E+10 1.91739E+06 7.92088E+06-5.64095E+08-1.22070E+07-8.64728E+06
 -1      1671 1.24705E+10 5.85377E+06 6.22829E+06-8.52566E+08-1.05405E+07-8.08562E+06
 -1      1673 1.24705E+10 5.85377E+06 6.22829E+06-8.52566E+08-1.05405E+07-8.08562E+06
 -1      1674 8.64285E+09 4.08454E+06 3.79289E+06-9.67167E+08-8.59777E+06-6.37878E+06
 -1      1676 8.64285E+09 4.08454E+06 3.79289E+06-9.67167E+08-8.59777E+06-6.37878E+06
 -1      1677 4.76861E+09 9.48629E+06 1.25555E+06-8.69971E+08-7.24175E+06-5.52212E+06
 -1      1679 4.76861E+09 9.48629E+06 1.25555E+06-8.69971E+08-7.24175E+06-5.52212E+06
 -1      1680 1.79142E+09 1.26012E+07-9.07050E+05-5.17190E+08-6.73096E+06-1.31428E+06
 -1      1682 1.79142E+09 1.26012E+07-9.07050E+05-5.17190E+08-6.73096E+06-1.31428E+06
 -1      1683-1.11197E+10-9.85743E+08-8.38103E+05 3.06682E+09-2.75205E+07 1.11499E+08
 -1      1685-1.11197E+10-9.85743E+08-8.38103E+05 3.06682E+09-2.75205E+07 1.11499E+08
 -1      1686-8.62251E+09-2.66051E+08-4.56902E+05 3.16342E+09 1.21115E+07-3.14738E+07
 -1      1688-8.62251E+09-2.66051E+08-4.56902E+05 3.16342E+09 1.21115E+07-3.14738E+07
 -1      1689-3.45409E+09 7.91015E+07-3.52789E+05 3.01378E+09-1.61285E+06 1.12082E+07
 -1      1691-3.45409E+09 7.91015E+07-3.52789E+05 3.01378E+09-1.61285E+06 1.12082E+07
 -1      1692 1.33604E+09-1.32828E+08 2.88259E+05 2.55319E+09 3.49155E+06-8.69460E+06
 -1      1694 1.33604E+09-1.32828E+08 2.88259E+05 2.55319E+09 3.49155E+06-8.69460E+06
 -1      1695 5.15382E+09-6.70617E+07-6.67540E+05 1.95715E+09 2.89778E+06 1.55168E+06
 -1      1697 5.15382E+09-6.70617E+07-6.67540E+05 1.95715E+09 2.89778E+06 1.55168E+06
 -1      1698 7.83468E+09-1.26100E+08 1.41237E+05 1.17158E+09 2.52144E+06-1.91526E+06
 -1      1700 7.83468E+09-1.26100E+08 1.41237E+05 1.17158E+09 2.52144E+06-1.91526E+06
 -1      1701 9.09551E+09-1.11190E+08-4.86052E+05 3.20773E+08 1.44776E+06 1.11254E+06
 -1      1703 9.09551E+09-1.11190E+08-4.86052E+05 3.20773E+08 1.44776E+06 1.11254E+06
 -1      1704 8.91083E+09-1.15468E+08-9.63856E+04-5.31450E+08-2.16345E+06 1.31404E+06
 -1      1706 8.91083E+09-1.15468E+08-9.63856E+04-5.31450E+08-2.16345E+06 1.31404E+06
 -1      1707 7.35651E+09-9.30752E+07-2.31457E+05-1.27267E+09-6.04593E+06 2.57865E+06
 -1      1709 7.35651E+09-9.30752E+07-2.31457E+05-1.27267E+09-6.04593E+06 2.57865E+06
 -1      1710 4.69861E+09-6.92979E+07-1.88107E+05-1.82436E+09-1.18977E+07 3.10260E+06
 -1      1712 4.69861E+09-6.92979E+07-1.88107E+05-1.82436E+09-1.18977E+07 3.10260E+06
 -1      1713 1.31678E+09-3.49753E+07-7.57114E+03-2.11664E+09-1.73140E+07 3.42548E+06
 -1      1715 1.31678E+09-3.49753E+07-7.57114E+03-2.11664E+09-1.73140E+07 3.42548E+06
 -1      1716-2.31544E+09-9.40737E+05-1.50833E+05-2.11882E+09-2.30638E+07 3.31098E+06
 -1      1718-2.31544E+09-9.40737E+05-1.50833E+05-2.11882E+09-2.30638E+07 3.31098E+06
 -1      1719-5.70367E+09 3.24826E+07 1.59801E+05-1.83247E+09-2.71400E+07 2.77253E+06
 -1      1721-5.70367E+09 3.24826E+07 1.59801E+05-1.83247E+09-2.71400E+07 2.77253E+06
 -1      1722-8.38714E+09 5.88745E+07-6.89873E+04-1.29815E+09-2.98323E+07 1.92261E+06
 -1      1724-8.38714E+09 5.88745E+07-6.89873E+04-1.29815E+09-2.98323E+07 1.92261E+06
 -1      1725-1.00021E+10 7.65805E+07 2.49286E+05-5.86711E+08-2.98105E+07 7.95958E+05
 -1      1727-1.00021E+10 7.65805E+07 2.49286E+05-5.86711E+08-2.98105E+07 7.95958E+05
 -1      1728-1.03252E+10 8.26045E+07-1.63893E+04 2.07734E+08-2.74244E+07-4.03811E+05
 -1      1730-1.03252E+10 8.26045E+07-1.63893E+04 2.07734E+08-2.74244E+07-4.03811E+05
 -1      1731-9.30381E+09 7.72100E+07 2.49270E+05 9.81183E+08-2.21933E+07-1.58242E+06
 -1      1733-9.30381E+09 7.72100E+07 2.49270E+05 9.81183E+08-2.21933E+07-1.58242E+06
 -1      1734-7.06040E+09 6.09339E+07-2.56821E+04 1.63267E+09-1.48243E+07-2.54384E+06
 -1      1736-7.06040E+09 6.09339E+07-2.56821E+04 1.63267E+09-1.48243E+07-2.54384E+06
 -1      1737-3.87674E+09 3.66772E+07 1.75172E+05 2.07791E+09-5.63025E+06-3.20555E+06
 -1      1739-3.87674E+09 3.66772E+07 1.75172E+05 2.07791E+09-5.63025E+06-3.20555E+06
 -1      1740-1.55336E+08 7.71865E+06-8.36372E+04 2.26019E+09 4.37114E+06-3.45093E+06
 -1      1742-1.55336E+08 7.71865E+06-8.36372E+04 2.26019E+09 4.37114E+06-3.45093E+06
 -1      1743 3.63418E+09-2.15852E+07 7.18542E+04 2.15813E+09 1.43868E+07-3.27711E+06
 -1      1745 3.63418E+09-2.15852E+07 7.18542E+04 2.15813E+09 1.43868E+07-3.27711E+06
 -1      1746 7.01841E+09-4.69889E+07-1.47055E+05 1.78865E+09 2.34124E+07-2.68724E+06
 -1      1748 7.01841E+09-4.69889E+07-1.47055E+05 1.78865E+09 2.34124E+07-2.68724E+06
 -1      1749 9.58421E+09-6.48883E+07-1.37637E+03 1.20539E+09 3.06302E+07-1.77385E+06
 -1      1751 9.58421E+09-6.48883E+07-1.37637E+03 1.20539E+09 3.06302E+07-1.77385E+06
 -1      1752 1.10361E+10-7.21522E+07-1.72108E+05 4.91811E+08 3.54630E+07-6.63517E+05
 -1      1754 1.10361E+10-7.21522E+07-1.72108E+05 4.91811E+08 3.54630E+07-6.63517E+05
 -1      1755 1.12391E+10-6.75471E+07 6.27705E+03-2.47785E+08 3.74657E+07 5.25538E+05
 -1      1757 1.12391E+10-6.75471E+07 6.27705E+03-2.47785E+08 3.74657E+07 5.25538E+05
 -1      1758 1.02425E+10-5.15093E+07-1.41218E+05-9.02899E+08 3.67718E+07 1.51498E+06
 -1      1760 1.02425E+10-5.15093E+07-1.41218E+05-9.02899E+08 3.67718E+07 1.51498E+06
 -1      1761 8.28262E+09-2.30138E+07 1.10510E+05-1.36533E+09 3.34872E+07 2.41105E+06
 -1      1763 8.28262E+09-2.30138E+07 1.10510E+05-1.36533E+09 3.34872E+07 2.41105E+06
 -1      1764 5.76102E+09 8.75177E+06-4.94474E+04-1.54868E+09 2.84639E+07 2.44542E+06
 -1      1766 5.76102E+09 8.75177E+06-4.94474E+04-1.54868E+09 2.84639E+07 2.44542E+06
 -1      1767 3.21950E+09 5.21814E+07 2.20469E+05-1.38262E+09 2.24428E+07 2.86905E+06
 -1      1769 3.21950E+09 5.21814E+07 2.20469E+05-1.38262E+09 2.24428E+07 2.86905E+06
 -1      1770 1.25670E+09 9.27465E+07 2.51416E+05-8.40870E+08 1.68335E+07 6.08920E+05
 -1      1772 1.25670E+09 9.27465E+07 2.51416E+05-8.40870E+08 1.68335E+07 6.08920E+05
 -1      1773 8.62251E+09 2.66051E+08 4.56902E+05 3.16342E+09 1.21115E+07 3.14738E+07
 -1      1775 8.62251E+09 2.66051E+08 4.56902E+05 3.16342E+09 1.21115E+07 3.14738E+07
 -1      1776 3.45409E+09-7.91015E+07 3.52789E+05 3.01378E+09-1.61285E+06-1.12082E+07
 -1      1778 3.45409E+09-7.91015E+07 3.52789E+05 3.01378E+09-1.61285E+06-1.12082E+07
 -1      1779-1.33604E+09 1.32828E+08-2.88259E+05 2.55319E+09 3.49155E+06 8.69460E+06
 -1      1781-1.33604E+09 1.32828E+08-2.88259E+05 2.55319E+09 3.49155E+06 8.69460E+06
 -1      1782-5.15382E+09 6.70617E+07 6.67540E+05 1.95715E+09 2.89778E+06-1.55168E+06
 -1      1784-5.15382E+09 6.70617E+07 6.67540E+05 1.95715E+09 2.89778E+06-1.55168E+06
 -1      1785-7.83468E+09 1.26100E+08-1.41237E+05 1.17158E+09 2.52144E+06 1.91526E+06
 -1      1787-7.83468E+09 1.26100E+08-1.41237E+05 1.17158E+09 2.52144E+06 1.91526E+06
 -1      1788-9.09551E+09 1.11190E+08 4.86052E+05 3.20773E+08 1.44776E+06-1.11254E+06
 -1      1790-9.09551E+09 1.11190E+08 4.86052E+05 3.20773E+08 1.44776E+06-1.11254E+06
 -1      1791-8.91083E+09 1.15468E+08 9.63856E+04-5.31450E+08-2.16345E+06-1.31404E+06
 -1      1793-8.91083E+09 1.15468E+08 9.63856E+04-5.31450E+08-2.16345E+06-1.31404E+06
 -1      1794-7.35651E+09 9.30752E+07 2.31457E+05-1.27267E+09-6.04593E+06-2.57865E+06
 -1      1796-7.35651E+09 9.30752E+07 2.31457E+05-1.27267E+09-6.04593E+06-2.57865E+06
 -1      1797-4.69861E+09 6.92979E+07 1.88107E+05-1.82436E+09-1.18977E+07-3.10260E+06
 -1      1799-4.69861E+09 6.92979E+07 1.88107E+05-1.82436E+09-1.18977E+07-3.10260E+06
 -1      1800-1.31678E+09 3.49753E+07 7.57114E+03-2.11664E+09-1.73140E+07-3.42548E+06
 -1      1802-1.31678E+09 3.49753E+07 7.57114E+03-2.11664E+09-1.73140E+07-3.42548E+06
 -1      1803 2.31544E+09 9.40737E+05 1.50833E+05-2.11882E+09-2.30638E+07-3.31098E+06
 -1      1805 2.31544E+09 9.40737E+05 1.50833E+05-2.11882E+09-2.30638E+07-3.31098E+06
 -1      1806 5.70367E+09-3.24826E+07-1.59801E+05-1.83247E+09-2.71400E+07-2.77253E+06
 -1      1808 5.70367E+09-3.24826E+07-1.59801E+05-1.83247E+09-2.71400E+07-2.77253E+06
 -1      1809 8.38714E+09-5.88745E+07 6.89873E+04-1.29815E+09-2.98323E+07-1.92261E+06
 -1      1811 8.38714E+09-5.88745E+07 6.89873E+04-1.29815E+09-2.98323E+07-1.92261E+06
 -1      1812 1.00021E+10-7.65805E+07-2.49286E+05-5.86711E+08-2.98105E+07-7.95958E+05
 -1      1814 1.00021E+10-7.65805E+07-2.49286E+05-5.86711E+08-2.98105E+07-7.95958E+05
 -1      1815 1.03252E+10-8.26045E+07 1.63893E+04 2.07734E+08-2.74244E+07 4.03811E+05
 -1      1817 1.03252E+10-8.26045E+07 1.63893E+04 2.07734E+08-2.74244E+07 4.03811E+05
 -1      1818 9.30381E+09-7.72100E+07-2.49270E+05 9.81183E+08-2.21933E+07 1.58242E+06
 -1      1820 9.30381E+09-7.72100E+07-2.49270E+05 9.81183E+08-2.21933E+07 1.58242E+06
 -1      1821 7.06040E+09-6.09339E+07 2.56821E+04 1.63267E+09-1.48243E+07 2.54384E+06
 -1      1823 7.06040E+09-6.09339E+07 2.56821E+04 1.63267E+09-1.48243E+07 2.54384E+06
 -1      1824 3.87674E+09-3.66772E+07-1.75172E+05 2.07791E+09-5.63025E+06 3.20555E+06
 -1      1826 3.87674E+09-3.66772E+07-1.75172E+05 2.07791E+09-5.63025E+06 3.20555E+06
 -1      1827 1.55336E+08-7.71865E+06 8.36372E+04 2.26019E+09 4.37114E+06 3.45093E+06
 -1      1829 1.55336E+08-7.71865E+06 8.36372E+04 2.26019E+09 4.37114E+06 3.45093E+06
 -1      1830-3.63418E+09 2.15852E+07-7.18542E+04 2.15813E+09 1.43868E+07 3.27711E+06
 -1      1832-3.63418E+09 2.15852E+07-7.18542E+04 2.15813E+09 1.43868E+07 3.27711E+06
 -1      1833-7.01841E+09 4.69889E+07 1.47055E+05 1.78865E+09 2.34124E+07 2.68724E+06
 -1      1835-7.01841E+09 4.69889E+07 1.47055E+05 1.78865E+09 2.34124E+07 2.68724E+06
 -1      1836-9.58421E+09 6.48883E+07 1.37638E+03 1.20539E+09 3.06302E+07 1.77385E+06
 -1      1838-9.58421E+09 6.48883E+07 1.37638E+03 1.20539E+09 3.06302E+07 1.77385E+06
 -1      1839-1.10361E+10 7.21522E+07 1.72108E+05 4.91811E+08 3.54630E+07 6.63517E+05
 -1      1841-1.10361E+10 7.21522E+07 1.72108E+05 4.91811E+08 3.54630E+07 6.63517E+05
 -1      1842-1.12391E+10 6.75471E+07-6.27705E+03-2.47785E+08 3.74657E+07-5.25538E+05
 -1      1844-1.12391E+10 6.75471E+07-6.27705E+03-2.47785E+08 3.74657E+07-5.25538E+05
 -1      1845-1.02425E+10 5.15093E+07 1.41218E+05-9.02899E+08 3.67718E+07-1.51498E+06
 -1      1847-1.02425E+10 5.15093E+07 1.41218E+05-9.02899E+08 3.67718E+07-1.51498E+06
 -1      1848-8.28262E+09 2.30138E+07-1.10510E+05-1.36533E+09 3.34872E+07-2.41105E+06
 -1      1850-8.28262E+09 2.30138E+07-1.10510E+05-1.36533E+09 3.34872E+07-2.41105E+06
 -1      1851-5.76102E+09-8.75177E+06 4.94474E+04-1.54868E+09 2.84639E+07-2.44542E+06
 -1      1853-5.76102E+09-8.75177E+06 4.94474E+04-1.54868E+09 2.84639E+07-2.44542E+06
 -1      1854-3.21950E+09-5.21814E+07-2.20469E+05-1.38262E+09 2.24428E+07-2.86905E+06
 -1      1856-3.21950E+09-5.21814E+07-2.20469E+05-1.38262E+09 2.24428E+07-2.86905E+06
 -1      1857-1.25670E+09-9.27465E+07-2.51416E+05-8.40870E+08 1.68335E+07-6.08920E+05
 -1      1859-1.25670E+09-9.27465E+07-2.51416E+05-8.40870E+08 1.68335E+07-6.08920E+05
 -1      1860-9.61914E-02 1.23356E-04 1.93144E-02 8.34341E+07 7.60244E+06-1.04367E-01
 -1      1862-9.61914E-02 1.23356E-04 1.93144E-02 8.34341E+07 7.60244E+06-1.04367E-01
 -1      1863-9.43252E-02-2.24399E-04 4.02060E-02-2.34374E+07 2.50357E+07-9.32181E-02
 -1      1865-9.43252E-02-2.24399E-04 4.02060E-02-2.34374E+07 2.50357E+07-9.32181E-02
 -1      1866-9.19955E-02-4.97609E-04 8.54109E-03 3.15644E+07 3.23241E+07-7.77716E-02
 -1      1868-9.19955E-02-4.97609E-04 8.54109E-03 3.15644E+07 3.23241E+07-7.77716E-02
 -1      1869-8.24448E-02-4.66331E-04-3.70820E-02-1.69674E+06 4.12027E+07-7.23070E-02
 -1      1871-8.24448E-02-4.66331E-04-3.70820E-02-1.69674E+06 4.12027E+07-7.23070E-02
 -1      1872-6.30477E-02-5.44207E-04-4.39155E-02 1.12388E+07 4.45406E+07-7.41471E-02
 -1      1874-6.30477E-02-5.44207E-04-4.39155E-02 1.12388E+07 4.45406E+07-7.41471E-02
 -1      1875-4.74412E-02-1.53140E-03-6.00260E-03-2.04834E+06 4.42015E+07-6.75916E-02
 -1      1877-4.74412E-02-1.53140E-03-6.00260E-03-2.04834E+06 4.42015E+07-6.75916E-02
 -1      1878-4.69165E-02-1.14926E-03 3.70627E-02-1.15015E+06 3.92396E+07-4.03398E-02
 -1      1880-4.69165E-02-1.14926E-03 3.70627E-02-1.15015E+06 3.92396E+07-4.03398E-02
 -1      1881-5.61518E-02 8.49155E-04 3.73774E-02-7.64748E+06 2.97736E+07-9.39476E-03
 -1      1883-5.61518E-02 8.49155E-04 3.73774E-02-7.64748E+06 2.97736E+07-9.39476E-03
 -1      1884-6.12505E-02 1.27479E-03 7.22282E-03-8.79519E+06 1.74443E+07-4.51244E-03
 -1      1886-6.12505E-02 1.27479E-03 7.22282E-03-8.79519E+06 1.74443E+07-4.51244E-03
 -1      1887-5.50560E-02 1.18439E-03 5.07910E-03-1.11345E+07 2.74541E+06-1.82464E-02
 -1      1889-5.50560E-02 1.18439E-03 5.07910E-03-1.11345E+07 2.74541E+06-1.82464E-02
 -1      1890-4.69590E-02 1.11302E-03 4.35192E-02-1.06341E+07-1.17171E+07-1.09428E-02
 -1      1892-4.69590E-02 1.11302E-03 4.35192E-02-1.06341E+07-1.17171E+07-1.09428E-02
 -1      1893-4.61331E-02 3.28613E-04 8.16176E-02-9.47488E+06-2.50268E+07 1.98733E-02
 -1      1895-4.61331E-02 3.28613E-04 8.16176E-02-9.47488E+06-2.50268E+07 1.98733E-02
 -1      1896-4.68915E-02-6.72657E-04 9.15895E-02-6.63028E+06-3.48066E+07 5.23827E-02
 -1      1898-4.68915E-02-6.72657E-04 9.15895E-02-6.63028E+06-3.48066E+07 5.23827E-02
 -1      1899-4.91513E-02-4.31031E-04 8.34637E-02-3.14934E+06-4.04282E+07 7.74161E-02
 -1      1901-4.91513E-02-4.31031E-04 8.34637E-02-3.14934E+06-4.04282E+07 7.74161E-02
 -1      1902-6.25170E-02 2.87674E-04 7.94076E-02 8.89810E+05-4.06326E+07 8.96837E-02
 -1      1904-6.25170E-02 2.87674E-04 7.94076E-02 8.89810E+05-4.06326E+07 8.96837E-02
 -1      1905-7.95291E-02-1.44381E-05 8.11518E-02 4.74063E+06-3.57318E+07 8.79419E-02
 -1      1907-7.95291E-02-1.44381E-05 8.11518E-02 4.74063E+06-3.57318E+07 8.79419E-02
 -1      1908-8.65477E-02-1.31490E-03 7.01577E-02 8.02187E+06-2.59517E+07 7.46047E-02
 -1      1910-8.65477E-02-1.31490E-03 7.01577E-02 8.02187E+06-2.59517E+07 7.46047E-02
 -1      1911-9.00841E-02-3.66379E-04 4.22165E-02 1.02363E+07-1.26579E+07 4.93889E-02
 -1      1913-9.00841E-02-3.66379E-04 4.22165E-02 1.02363E+07-1.26579E+07 4.93889E-02
 -1      1914-1.03900E-01 5.81428E-04 1.60011E-02 1.11432E+07 2.72695E+06 1.84674E-02
 -1      1916-1.03900E-01 5.81428E-04 1.60011E-02 1.11432E+07 2.72695E+06 1.84674E-02
 -1      1917-1.25177E-01-3.08504E-04 4.13634E-03 1.05868E+07 1.83044E+07 4.06155E-04
 -1      1919-1.25177E-01-3.08504E-04 4.13634E-03 1.05868E+07 1.83044E+07 4.06155E-04
 -1      1920-1.39172E-01 1.54543E-04 8.48409E-04 8.72763E+06 3.22605E+07-2.96452E-03
 -1      1922-1.39172E-01 1.54543E-04 8.48409E-04 8.72763E+06 3.22605E+07-2.96452E-03
 -1      1923-1.41198E-01 3.47415E-04 8.29672E-03 5.65924E+06 4.30604E+07-1.28347E-02
 -1      1925-1.41198E-01 3.47415E-04 8.29672E-03 5.65924E+06 4.30604E+07-1.28347E-02
 -1      1926-1.34916E-01 7.76747E-06 3.67092E-02 2.15848E+06 4.94425E+07-3.18877E-02
 -1      1928-1.34916E-01 7.76747E-06 3.67092E-02 2.15848E+06 4.94425E+07-3.18877E-02
 -1      1929-1.16255E-01 9.11735E-04 7.14216E-02-2.00298E+06 5.10458E+07-4.55526E-02
 -1      1931-1.16255E-01 9.11735E-04 7.14216E-02-2.00298E+06 5.10458E+07-4.55526E-02
 -1      1932-8.74562E-02 1.18951E-03 9.00612E-02-4.85408E+06 4.78204E+07-4.80564E-02
 -1      1934-8.74562E-02 1.18951E-03 9.00612E-02-4.85408E+06 4.78204E+07-4.80564E-02
 -1      1935-6.21932E-02 4.30206E-04 9.52720E-02-8.51017E+06 4.08490E+07-4.28338E-02
 -1      1937-6.21932E-02 4.30206E-04 9.52720E-02-8.51017E+06 4.08490E+07-4.28338E-02
 -1      1938-4.44114E-02 3.25407E-04 9.74247E-02-7.89099E+06 3.14527E+07-3.70570E-02
 -1      1940-4.44114E-02 3.25407E-04 9.74247E-02-7.89099E+06 3.14527E+07-3.70570E-02
 -1      1941-3.13336E-02 7.71614E-04 8.92780E-02-1.07530E+07 2.15925E+07-2.84404E-02
 -1      1943-3.13336E-02 7.71614E-04 8.92780E-02-1.07530E+07 2.15925E+07-2.84404E-02
 -1      1944-1.76558E-02 1.61031E-03 6.53785E-02-3.29315E+06 1.37729E+07-1.48020E-02
 -1      1946-1.76558E-02 1.61031E-03 6.53785E-02-3.29315E+06 1.37729E+07-1.48020E-02
 -1      1947-9.87275E-02 1.98346E-05 1.51522E-02 1.53595E+08 4.03733E-04-9.61708E-02
 -1      1949-9.87275E-02 1.98346E-05 1.51522E-02 1.53595E+08 4.03733E-04-9.61708E-02
 -1      1950-1.06221E-01-2.64867E-04 2.26096E-02-1.36761E+07 1.03445E-03-1.00188E-01
 -1      1952-1.06221E-01-2.64867E-04 2.26096E-02-1.36761E+07 1.03445E-03-1.00188E-01
 -1      1953-1.01730E-01-3.99386E-04-5.91606E-03 6.90576E+07 1.36525E-03-9.23878E-02
 -1      1955-1.01730E-01-3.99386E-04-5.91606E-03 6.90576E+07 1.36525E-03-9.23878E-02
 -1      1956-9.47804E-02-1.64555E-04-4.09933E-02 1.15078E+07 1.19040E-03-7.98269E-02
 -1      1958-9.47804E-02-1.64555E-04-4.09933E-02 1.15078E+07 1.19040E-03-7.98269E-02
 -1      1959-8.69172E-02 5.32683E-05-5.03064E-02 2.61173E+07 5.80064E-04-7.01353E-02
 -1      1961-8.69172E-02 5.32683E-05-5.03064E-02 2.61173E+07 5.80064E-04-7.01353E-02
 -1      1962-8.59935E-02-5.73117E-04-2.85268E-02-1.81423E+06-3.25622E-04-5.16871E-02
 -1      1964-8.59935E-02-5.73117E-04-2.85268E-02-1.81423E+06-3.25622E-04-5.16871E-02
 -1      1965-9.24649E-02-1.01601E-03 6.23333E-03-7.03960E+06-9.91436E-04-2.36920E-02
 -1      1967-9.24649E-02-1.01601E-03 6.23333E-03-7.03960E+06-9.91436E-04-2.36920E-02
 -1      1968-9.04932E-02-3.45289E-05 2.17552E-02-2.34796E+07-1.02282E-03-6.43861E-03
 -1      1970-9.04932E-02-3.45289E-05 2.17552E-02-2.34796E+07-1.02282E-03-6.43861E-03
 -1      1971-7.69098E-02 1.07759E-03 7.75996E-03-3.01329E+07-7.71178E-04-8.06385E-03
 -1      1973-7.69098E-02 1.07759E-03 7.75996E-03-3.01329E+07-7.71178E-04-8.06385E-03
 -1      1974-6.25207E-02 7.21460E-04-3.17486E-05-3.69771E+07-7.24941E-04-1.24007E-02
 -1      1976-6.25207E-02 7.21460E-04-3.17486E-05-3.69771E+07-7.24941E-04-1.24007E-02
 -1      1977-5.45364E-02-7.25941E-04 2.48125E-02-3.73732E+07-1.40687E-03 2.03745E-03
 -1      1979-5.45364E-02-7.25941E-04 2.48125E-02-3.73732E+07-1.40687E-03 2.03745E-03
 -1      1980-5.36653E-02-5.56575E-04 6.25737E-02-3.47300E+07-2.57054E-03 2.90810E-02
 -1      1982-5.36653E-02-5.56575E-04 6.25737E-02-3.47300E+07-2.57054E-03 2.90810E-02
 -1      1983-5.27946E-02-1.36880E-04 8.52897E-02-2.77014E+07-3.27362E-03 5.21509E-02
 -1      1985-5.27946E-02-1.36880E-04 8.52897E-02-2.77014E+07-3.27362E-03 5.21509E-02
 -1      1986-4.82839E-02-6.15521E-05 8.96565E-02-1.83370E+07-3.42462E-03 7.08370E-02
 -1      1988-4.82839E-02-6.15521E-05 8.96565E-02-1.83370E+07-3.42462E-03 7.08370E-02
 -1      1989-4.91677E-02 3.89439E-04 9.00230E-02-7.40044E+06-3.34784E-03 8.33834E-02
 -1      1991-4.91677E-02 3.89439E-04 9.00230E-02-7.40044E+06-3.34784E-03 8.33834E-02
 -1      1992-5.65202E-02-4.60663E-05 9.32039E-02 3.30519E+06-2.51417E-03 8.02789E-02
 -1      1994-5.65202E-02-4.60663E-05 9.32039E-02 3.30519E+06-2.51417E-03 8.02789E-02
 -1      1995-5.42477E-02-1.93979E-04 8.69411E-02 1.24958E+07-1.66075E-03 6.14700E-02
 -1      1997-5.42477E-02-1.93979E-04 8.69411E-02 1.24958E+07-1.66075E-03 6.14700E-02
 -1      1998-3.81206E-02 5.27916E-04 6.04167E-02 1.88672E+07-1.31733E-03 3.57562E-02
 -1      2000-3.81206E-02 5.27916E-04 6.04167E-02 1.88672E+07-1.31733E-03 3.57562E-02
 -1      2001-3.02013E-02 6.00181E-04 2.33035E-02 2.16487E+07-1.23090E-03 1.15759E-02
 -1      2003-3.02013E-02 6.00181E-04 2.33035E-02 2.16487E+07-1.23090E-03 1.15759E-02
 -1      2004-4.01239E-02 1.88117E-04-3.48865E-03 2.04731E+07-1.31336E-03-6.94055E-04
 -1      2006-4.01239E-02 1.88117E-04-3.48865E-03 2.04731E+07-1.31336E-03-6.94055E-04
 -1      2007-5.09224E-02 9.96472E-04-4.47022E-03 1.56624E+07-1.82882E-03-3.62917E-04
 -1      2009-5.09224E-02 9.96472E-04-4.47022E-03 1.56624E+07-1.82882E-03-3.62917E-04
 -1      2010-5.90630E-02 1.11712E-03 1.91106E-02 7.76675E+06-1.94196E-03-3.97634E-03
 -1      2012-5.90630E-02 1.11712E-03 1.91106E-02 7.76675E+06-1.94196E-03-3.97634E-03
 -1      2013-6.89951E-02 6.27319E-04 5.18904E-02-1.58387E+06-2.19066E-03-2.22326E-02
 -1      2015-6.89951E-02 6.27319E-04 5.18904E-02-1.58387E+06-2.19066E-03-2.22326E-02
 -1      2016-6.75855E-02 6.01167E-04 7.59233E-02-1.18596E+07-2.35767E-03-4.54699E-02
 -1      2018-6.75855E-02 6.01167E-04 7.59233E-02-1.18596E+07-2.35767E-03-4.54699E-02
 -1      2019-4.91406E-02 1.10971E-03 8.38870E-02-1.96401E+07-2.66598E-03-5.38017E-02
 -1      2021-4.91406E-02 1.10971E-03 8.38870E-02-1.96401E+07-2.66598E-03-5.38017E-02
 -1      2022-2.94035E-02 2.63811E-04 8.42418E-02-2.69850E+07-3.40066E-03-4.35494E-02
 -1      2024-2.94035E-02 2.63811E-04 8.42418E-02-2.69850E+07-3.40066E-03-4.35494E-02
 -1      2025-1.83975E-02 5.71851E-04 8.56479E-02-2.61707E+07-4.47456E-03-3.27837E-02
 -1      2027-1.83975E-02 5.71851E-04 8.56479E-02-2.61707E+07-4.47456E-03-3.27837E-02
 -1      2028-1.42042E-02 1.15027E-03 7.86178E-02-2.80382E+07-5.41870E-03-2.67140E-02
 -1      2030-1.42042E-02 1.15027E-03 7.86178E-02-2.80382E+07-5.41870E-03-2.67140E-02
 -1      2031-9.70133E-03 7.85342E-04 5.64616E-02-1.15749E+07-5.07011E-03-1.51559E-02
 -1      2033-9.70133E-03 7.85342E-04 5.64616E-02-1.15749E+07-5.07011E-03-1.51559E-02
 -1      2034-9.41731E-02-6.88214E-05 9.73881E-03 8.34341E+07-7.60244E+06-7.74054E-02
 -1      2036-9.41731E-02-6.88214E-05 9.73881E-03 8.34341E+07-7.60244E+06-7.74054E-02
 -1      2037-9.97838E-02-3.32876E-05 8.66782E-03-2.34374E+07-2.50357E+07-9.36279E-02
 -1      2039-9.97838E-02-3.32876E-05 8.66782E-03-2.34374E+07-2.50357E+07-9.36279E-02
 -1      2040-1.06833E-01-1.96245E-05-1.47016E-02 3.15644E+07-3.23241E+07-9.28168E-02
 -1      2042-1.06833E-01-1.96245E-05-1.47016E-02 3.15644E+07-3.23241E+07-9.28168E-02
 -1      2043-1.18324E-01 3.68189E-05-4.05594E-02-1.69674E+06-4.12027E+07-8.11020E-02
 -1      2045-1.18324E-01 3.68189E-05-4.05594E-02-1.69674E+06-4.12027E+07-8.11020E-02
 -1      2046-1.26156E-01-5.91856E-05-6.14913E-02 1.12388E+07-4.45406E+07-6.80757E-02
 -1      2048-1.26156E-01-5.91856E-05-6.14913E-02 1.12388E+07-4.45406E+07-6.80757E-02
 -1      2049-1.29082E-01-4.77005E-04-6.26780E-02-2.04834E+06-4.42015E+07-4.15143E-02
 -1      2051-1.29082E-01-4.77005E-04-6.26780E-02-2.04834E+06-4.42015E+07-4.15143E-02
 -1      2052-1.24293E-01-1.01441E-03-3.09449E-02-1.15015E+06-3.92396E+07-7.12900E-03
 -1      2054-1.24293E-01-1.01441E-03-3.09449E-02-1.15015E+06-3.92396E+07-7.12900E-03
 -1      2055-1.11923E-01-1.53007E-03 5.32606E-03-7.64748E+06-2.97736E+07 1.84775E-03
 -1      2057-1.11923E-01-1.53007E-03 5.32606E-03-7.64748E+06-2.97736E+07 1.84775E-03
 -1      2058-1.01110E-01-2.48323E-04 5.78048E-03-8.79519E+06-1.74443E+07-9.09737E-03
 -1      2060-1.01110E-01-2.48323E-04 5.78048E-03-8.79519E+06-1.74443E+07-9.09737E-03
 -1      2061-8.92787E-02 1.13828E-04-8.23602E-03-1.11345E+07-2.74541E+06-5.78663E-03
 -1      2063-8.92787E-02 1.13828E-04-8.23602E-03-1.11345E+07-2.74541E+06-5.78663E-03
 -1      2064-7.24936E-02-1.78848E-03 6.67962E-03-1.06341E+07 1.17171E+07 1.63874E-02
 -1      2066-7.24936E-02-1.78848E-03 6.67962E-03-1.06341E+07 1.17171E+07 1.63874E-02
 -1      2067-6.31377E-02-1.83883E-03 4.55452E-02-9.47488E+06 2.50268E+07 3.79204E-02
 -1      2069-6.31377E-02-1.83883E-03 4.55452E-02-9.47488E+06 2.50268E+07 3.79204E-02
 -1      2070-6.18950E-02-4.31011E-04 7.93432E-02-6.63028E+06 3.48066E+07 4.91020E-02
 -1      2072-6.18950E-02-4.31011E-04 7.93432E-02-6.63028E+06 3.48066E+07 4.91020E-02
 -1      2073-5.62400E-02-3.69717E-04 9.14562E-02-3.14934E+06 4.04282E+07 5.88719E-02
 -1      2075-5.62400E-02-3.69717E-04 9.14562E-02-3.14934E+06 4.04282E+07 5.88719E-02
 -1      2076-4.31541E-02-1.14325E-03 9.18790E-02 8.89810E+05 4.06326E+07 7.36044E-02
 -1      2078-4.31541E-02-1.14325E-03 9.18790E-02 8.89810E+05 4.06326E+07 7.36044E-02
 -1      2079-2.57047E-02-8.99004E-04 9.70041E-02 4.74063E+06 3.57318E+07 7.52136E-02
 -1      2081-2.57047E-02-8.99004E-04 9.70041E-02 4.74063E+06 3.57318E+07 7.52136E-02
 -1      2082-3.56969E-03 1.12106E-03 9.17446E-02 8.02187E+06 2.59517E+07 5.32019E-02
 -1      2084-3.56969E-03 1.12106E-03 9.17446E-02 8.02187E+06 2.59517E+07 5.32019E-02
 -1      2085 2.30889E-02 1.08259E-03 6.31266E-02 1.02363E+07 1.26579E+07 2.75180E-02
 -1      2087 2.30889E-02 1.08259E-03 6.31266E-02 1.02363E+07 1.26579E+07 2.75180E-02
 -1      2088 3.92951E-02-2.92373E-04 2.86398E-02 1.11432E+07-2.72695E+06 9.82588E-03
 -1      2090 3.92951E-02-2.92373E-04 2.86398E-02 1.11432E+07-2.72695E+06 9.82588E-03
 -1      2091 3.63567E-02 5.60177E-04 2.36718E-03 1.05868E+07-1.83044E+07 3.83425E-04
 -1      2093 3.63567E-02 5.60177E-04 2.36718E-03 1.05868E+07-1.83044E+07 3.83425E-04
 -1      2094 2.70396E-02 1.29611E-03-3.83436E-03 8.72763E+06-3.22605E+07 3.39828E-03
 -1      2096 2.70396E-02 1.29611E-03-3.83436E-03 8.72763E+06-3.22605E+07 3.39828E-03
 -1      2097 1.53016E-02 1.42235E-03 2.42562E-02 5.65924E+06-4.30604E+07 5.61840E-03
 -1      2099 1.53016E-02 1.42235E-03 2.42562E-02 5.65924E+06-4.30604E+07 5.61840E-03
 -1      2100-1.25175E-03 1.10798E-03 6.64958E-02 2.15848E+06-4.94425E+07-1.30402E-02
 -1      2102-1.25175E-03 1.10798E-03 6.64958E-02 2.15848E+06-4.94425E+07-1.30402E-02
 -1      2103-1.07191E-02 4.32619E-04 8.15223E-02-2.00298E+06-5.10458E+07-4.46481E-02
 -1      2105-1.07191E-02 4.32619E-04 8.15223E-02-2.00298E+06-5.10458E+07-4.46481E-02
 -1      2106-6.49008E-03 4.12356E-04 6.57239E-02-4.85408E+06-4.78204E+07-5.64912E-02
 -1      2108-6.49008E-03 4.12356E-04 6.57239E-02-4.85408E+06-4.78204E+07-5.64912E-02
 -1      2109 1.93198E-03-6.64094E-05 5.24079E-02-8.51017E+06-4.08490E+07-4.07680E-02
 -1      2111 1.93198E-03-6.64094E-05 5.24079E-02-8.51017E+06-4.08490E+07-4.07680E-02
 -1      2112 7.42260E-03 8.37252E-04 5.56804E-02-7.89099E+06-3.14527E+07-2.79000E-02
 -1      2114 7.42260E-03 8.37252E-04 5.56804E-02-7.89099E+06-3.14527E+07-2.79000E-02
 -1      2115 6.37334E-03 1.26295E-03 5.34809E-02-1.07530E+07-2.15925E+07-2.71996E-02
 -1      2117 6.37334E-03 1.26295E-03 5.34809E-02-1.07530E+07-2.15925E+07-2.71996E-02
 -1      2118 8.74211E-04 6.15423E-04 3.39732E-02-3.29315E+06-1.37729E+07-1.87517E-02
 -1      2120 8.74211E-04 6.15423E-04 3.39732E-02-3.29315E+06-1.37729E+07-1.87517E-02
 -1      2121 8.62251E+09 2.66051E+08 4.56902E+05 3.16342E+09-1.21115E+07-3.14738E+07
 -1      2123 8.62251E+09 2.66051E+08 4.56902E+05 3.16342E+09-1.21115E+07-3.14738E+07
 -1      2124 3.45409E+09-7.91015E+07 3.52789E+05 3.01378E+09 1.61285E+06 1.12082E+07
 -1      2126 3.45409E+09-7.91015E+07 3.52789E+05 3.01378E+09 1.61285E+06 1.12082E+07
 -1      2127-1.33604E+09 1.32828E+08-2.88259E+05 2.55319E+09-3.49155E+06-8.69460E+06
 -1      2129-1.33604E+09 1.32828E+08-2.88259E+05 2.55319E+09-3.49155E+06-8.69460E+06
 -1      2130-5.15382E+09 6.70617E+07 6.67540E+05 1.95715E+09-2.89778E+06 1.55168E+06
 -1      2132-5.15382E+09 6.70617E+07 6.67540E+05 1.95715E+09-2.89778E+06 1.55168E+06
 -1      2133-7.83468E+09 1.26100E+08-1.41237E+05 1.17158E+09-2.52144E+06-1.91526E+06
 -1      2135-7.83468E+09 1.26100E+08-1.41237E+05 1.17158E+09-2.52144E+06-1.91526E+06
 -1      2136-9.09551E+09 1.11190E+08 4.86052E+05 3.20773E+08-1.44776E+06 1.11254E+06
 -1      2138-9.09551E+09 1.11190E+08 4.86052E+05 3.20773E+08-1.44776E+06 1.11254E+06
 -1      2139-8.91083E+09 1.15468E+08 9.63856E+04-5.31450E+08 2.16345E+06 1.31404E+06
 -1      2141-8.91083E+09 1.15468E+08 9.63856E+04-5.31450E+08 2.16345E+06 1.31404E+06
 -1      2142-7.35651E+09 9.30752E+07 2.31457E+05-1.27267E+09 6.04593E+06 2.57865E+06
 -1      2144-7.35651E+09 9.30752E+07 2.31457E+05-1.27267E+09 6.04593E+06 2.57865E+06
 -1      2145-4.69861E+09 6.92979E+07 1.88107E+05-1.82436E+09 1.18977E+07 3.10260E+06
 -1      2147-4.69861E+09 6.92979E+07 1.88107E+05-1.82436E+09 1.18977E+07 3.10260E+06
 -1      2148-1.31678E+09 3.49753E+07 7.57114E+03-2.11664E+09 1.73140E+07 3.42548E+06
 -1      2150-1.31678E+09 3.49753E+07 7.57114E+03-2.11664E+09 1.73140E+07 3.42548E+06
 -1      2151 2.31544E+09 9.40737E+05 1.50833E+05-2.11882E+09 2.30638E+07 3.31098E+06
 -1      2153 2.31544E+09 9.40737E+05 1.50833E+05-2.11882E+09 2.30638E+07 3.31098E+06
 -1      2154 5.70367E+09-3.24826E+07-1.59801E+05-1.83247E+09 2.71400E+07 2.77253E+06
 -1      2156 5.70367E+09-3.24826E+07-1.59801E+05-1.83247E+09 2.71400E+07 2.77253E+06
 -1      2157 8.38714E+09-5.88745E+07 6.89873E+04-1.29815E+09 2.98323E+07 1.92261E+06
 -1      2159 8.38714E+09-5.88745E+07 6.89873E+04-1.29815E+09 2.98323E+07 1.92261E+06
 -1      2160 1.00021E+10-7.65805E+07-2.49286E+05-5.86711E+08 2.98105E+07 7.95958E+05
 -1      2162 1.00021E+10-7.65805E+07-2.49286E+05-5.86711E+08 2.98105E+07 7.95958E+05
 -1      2163 1.03252E+10-8.26045E+07 1.63893E+04 2.07734E+08 2.74244E+07-4.03811E+05
 -1      2165 1.03252E+10-8.26045E+07 1.63893E+04 2.07734E+08 2.74244E+07-4.03811E+05
 -1      2166 9.30381E+09-7.72100E+07-2.49270E+05 9.81183E+08 2.21933E+07-1.58242E+06
 -1      2168 9.30381E+09-7.72100E+07-2.49270E+05 9.81183E+08 2.21933E+07-1.58242E+06
 -1      2169 7.06040E+09-6.09339E+07 2.56821E+04 1.63267E+09 1.48243E+07-2.54384E+06
 -1      2171 7.06040E+09-6.09339E+07 2.56821E+04 1.63267E+09 1.48243E+07-2.54384E+06
 -1      2172 3.87674E+09-3.66772E+07-1.75172E+05 2.07791E+09 5.63025E+06-3.20555E+06
 -1      2174 3.87674E+09-3.66772E+07-1.75172E+05 2.07791E+09 5.63025E+06-3.20555E+06
 -1      2175 1.55336E+08-7.71865E+06 8.36372E+04 2.26019E+09-4.37114E+06-3.45093E+06
 -1      2177 1.55336E+08-7.71865E+06 8.36372E+04 2.26019E+09-4.37114E+06-3.45093E+06
 -1      2178-3.63418E+09 2.15852E+07-7.18542E+04 2.15813E+09-1.43868E+07-3.27711E+06
 -1      2180-3.63418E+09 2.15852E+07-7.18542E+04 2.15813E+09-1.43868E+07-3.27711E+06
 -1      2181-7.01841E+09 4.69889E+07 1.47055E+05 1.78865E+09-2.34124E+07-2.68724E+06
 -1      2183-7.01841E+09 4.69889E+07 1.47055E+05 1.78865E+09-2.34124E+07-2.68724E+06
 -1      2184-9.58421E+09 6.48883E+07 1.37638E+03 1.20539E+09-3.06302E+07-1.77385E+06
 -1      2186-9.58421E+09 6.48883E+07 1.37638E+03 1.20539E+09-3.06302E+07-1.77385E+06
 -1      2187-1.10361E+10 7.21522E+07 1.72108E+05 4.91811E+08-3.54630E+07-6.63517E+05
 -1      2189-1.10361E+10 7.21522E+07 1.72108E+05 4.91811E+08-3.54630E+07-6.63517E+05
 -1      2190-1.12391E+10 6.75471E+07-6.27705E+03-2.47785E+08-3.74657E+07 5.25538E+05
 -1      2192-1.12391E+10 6.75471E+07-6.27705E+03-2.47785E+08-3.74657E+07 5.25538E+05
 -1      2193-1.02425E+10 5.15093E+07 1.41218E+05-9.02899E+08-3.67718E+07 1.51498E+06
 -1      2195-1.02425E+10 5.15093E+07 1.41218E+05-9.02899E+08-3.67718E+07 1.51498E+06
 -1      2196-8.28262E+09 2.30138E+07-1.10510E+05-1.36533E+09-3.34872E+07 2.41105E+06
 -1      2198-8.28262E+09 2.30138E+07-1.10510E+05-1.36533E+09-3.34872E+07 2.41105E+06
 -1      2199-5.76102E+09-8.75177E+06 4.94474E+04-1.54868E+09-2.84639E+07 2.44542E+06
 -1      2201-5.76102E+09-8.75177E+06 4.94474E+04-1.54868E+09-2.84639E+07 2.44542E+06
 -1      2202-3.21950E+09-5.21814E+07-2.20469E+05-1.38262E+09-2.24428E+07 2.86905E+06
 -1      2204-3.21950E+09-5.21814E+07-2.20469E+05-1.38262E+09-2.24428E+07 2.86905E+06
 -1      2205-1.25670E+09-9.27465E+07-2.51416E+05-8.40870E+08-1.68335E+07 6.08920E+05
 -1      2207-1.25670E+09-9.27465E+07-2.51416E+05-8.40870E+08-1.68335E+07 6.08920E+05
 -1      2208-8.62251E+09-2.66051E+08-4.56902E+05 3.16342E+09-1.21115E+07 3.14738E+07
 -1      2210-8.62251E+09-2.66051E+08-4.56902E+05 3.16342E+09-1.21115E+07 3.14738E+07
 -1      2211-3.45409E+09 7.91015E+07-3.52789E+05 3.01378E+09 1.61285E+06-1.12082E+07
 -1      2213-3.45409E+09 7.91015E+07-3.52789E+05 3.01378E+09 1.61285E+06-1.12082E+07
 -1      2214 1.33604E+09-1.32828E+08 2.88259E+05 2.55319E+09-3.49155E+06 8.69460E+06
 -1      2216 1.33604E+09-1.32828E+08 2.88259E+05 2.55319E+09-3.49155E+06 8.69460E+06
 -1      2217 5.15382E+09-6.70617E+07-6.67540E+05 1.95715E+09-2.89778E+06-1.55168E+06
 -1      2219 5.15382E+09-6.70617E+07-6.67540E+05 1.95715E+09-2.89778E+06-1.55168E+06
 -1      2220 7.83468E+09-1.26100E+08 1.41237E+05 1.17158E+09-2.52144E+06 1.91526E+06
 -1      2222 7.83468E+09-1.26100E+08 1.41237E+05 1.17158E+09-2.52144E+06 1.91526E+06
 -1      2223 9.09551E+09-1.11190E+08-4.86052E+05 3.20773E+08-1.44776E+06-1.11254E+06
 -1      2225 9.09551E+09-1.11190E+08-4.86052E+05 3.20773E+08-1.44776E+06-1.11254E+06
 -1      2226 8.91083E+09-1.15468E+08-9.63856E+04-5.31450E+08 2.16345E+06-1.31404E+06
 -1      2228 8.91083E+09-1.15468E+08-9.63856E+04-5.31450E+08 2.16345E+06-1.31404E+06
 -1      2229 7.35651E+09-9.30752E+07-2.31457E+05-1.27267E+09 6.04593E+06-2.57865E+06
 -1      2231 7.35651E+09-9.30752E+07-2.31457E+05-1.27267E+09 6.04593E+06-2.57865E+06
 -1      2232 4.69861E+09-6.92979E+07-1.88107E+05-1.82436E+09 1.18977E+07-3.10260E+06
 -1      2234 4.69861E+09-6.92979E+07-1.88107E+05-1.82436E+09 1.18977E+07-3.10260E+06
 -1      2235 1.31678E+09-3.49753E+07-7.57114E+03-2.11664E+09 1.73140E+07-3.42548E+06
 -1      2237 1.31678E+09-3.49753E+07-7.57114E+03-2.11664E+09 1.73140E+07-3.42548E+06
 -1      2238-2.31544E+09-9.40737E+05-1.50833E+05-2.11882E+09 2.30638E+07-3.31098E+06
 -1      2240-2.31544E+09-9.40737E+05-1.50833E+05-2.11882E+09 2.30638E+07-3.31098E+06
 -1      2241-5.70367E+09 3.24826E+07 1.59801E+05-1.83247E+09 2.71400E+07-2.77253E+06
 -1      2243-5.70367E+09 3.24826E+07 1.59801E+05-1.83247E+09 2.71400E+07-2.77253E+06
 -1      2244-8.38714E+09 5.88745E+07-6.89873E+04-1.29815E+09 2.98323E+07-1.92261E+06
 -1      2246-8.38714E+09 5.88745E+07-6.89873E+04-1.29815E+09 2.98323E+07-1.92261E+06
 -1      2247-1.00021E+10 7.65805E+07 2.49286E+05-5.86711E+08 2.98105E+07-7.95958E+05
 -1      2249-1.00021E+10 7.65805E+07 2.49286E+05-5.86711E+08 2.98105E+07-7.95958E+05
 -1      2250-1.03252E+10 8.26045E+07-1.63893E+04 2.07734E+08 2.74244E+07 4.03811E+05
 -1      2252-1.03252E+10 8.26045E+07-1.63893E+04 2.07734E+08 2.74244E+07 4.03811E+05
 -1      2253-9.30381E+09 7.72100E+07 2.49270E+05 9.81183E+08 2.21933E+07 1.58242E+06
 -1      2255-9.30381E+09 7.72100E+07 2.49270E+05 9.81183E+08 2.21933E+07 1.58242E+06
 -1      2256-7.06040E+09 6.09339E+07-2.56821E+04 1.63267E+09 1.48243E+07 2.54384E+06
 -1      2258-7.06040E+09 6.09339E+07-2.56821E+04 1.63267E+09 1.48243E+07 2.54384E+06
 -1      2259-3.87674E+09 3.66772E+07 1.75172E+05 2.07791E+09 5.63025E+06 3.20555E+06
 -1      2261-3.87674E+09 3.66772E+07 1.75172E+05 2.07791E+09 5.63025E+06 3.20555E+06
 -1      2262-1.55336E+08 7.71865E+06-8.36372E+04 2.26019E+09-4.37114E+06 3.45093E+06
 -1      2264-1.55336E+08 7.71865E+06-8.36372E+04 2.26019E+09-4.37114E+06 3.45093E+06
 -1      2265 3.63418E+09-2.15852E+07 7.18542E+04 2.15813E+09-1.43868E+07 3.27711E+06
 -1      2267 3.63418E+09-2.15852E+07 7.18542E+04 2.15813E+09-1.43868E+07 3.27711E+06
 -1      2268 7.01841E+09-4.69889E+07-1.47055E+05 1.78865E+09-2.34124E+07 2.68724E+06
 -1      2270 7.01841E+09-4.69889E+07-1.47055E+05 1.78865E+09-2.34124E+07 2.68724E+06
 -1      2271 9.58421E+09-6.48883E+07-1.37638E+03 1.20539E+09-3.06302E+07 1.77385E+06
 -1      2273 9.58421E+09-6.48883E+07-1.37638E+03 1.20539E+09-3.06302E+07 1.77385E+06
 -1      2274 1.10361E+10-7.21522E+07-1.72108E+05 4.91811E+08-3.54630E+07 6.63517E+05
 -1      2276 1.10361E+10-7.21522E+07-1.72108E+05 4.91811E+08-3.54630E+07 6.63517E+05
 -1      2277 1.12391E+10-6.75471E+07 6.27705E+03-2.47785E+08-3.74657E+07-5.25538E+05
 -1      2279 1.12391E+10-6.75471E+07 6.27705E+03-2.47785E+08-3.74657E+07-5.25538E+05
 -1      2280 1.02425E+10-5.15093E+07-1.41218E+05-9.02899E+08-3.67718E+07-1.51498E+06
 -1      2282 1.02425E+10-5.15093E+07-1.41218E+05-9.02899E+08-3.67718E+07-1.51498E+06
 -1      2283 8.28262E+09-2.30138E+07 1.10510E+05-1.36533E+09-3.34872E+07-2.41105E+06
 -1      2285 8.28262E+09-2.30138E+07 1.10510E+05-1.36533E+09-3.34872E+07-2.41105E+06
 -1      2286 5.76102E+09 8.75177E+06-4.94474E+04-1.54868E+09-2.84639E+07-2.44542E+06
 -1      2288 5.76102E+09 8.75177E+06-4.94474E+04-1.54868E+09-2.84639E+07-2.44542E+06
 -1      2289 3.21950E+09 5.21814E+07 2.20469E+05-1.38262E+09-2.24428E+07-2.86905E+06
 -1      2291 3.21950E+09 5.21814E+07 2.20469E+05-1.38262E+09-2.24428E+07-2.86905E+06
 -1      2292 1.25670E+09 9.27465E+07 2.51416E+05-8.40870E+08-1.68335E+07-6.08920E+05
 -1      2294 1.25670E+09 9.27465E+07 2.51416E+05-8.40870E+08-1.68335E+07-6.08920E+05
 -3
    1PSTEP                        39           1           1          
    1PGM                1.000000E+00                                  
    1PGK                6.352517E+06                                  
    1PHID                         -1                                  
    1PSUBC                         0                                  
    1PMODE                        10                                  
  100CL  110 401.1372984         930                     2   10MODAL      1
 -4  FORC        4    1
 -5  F1          1    2    1    0
 -5  F2          1    2    2    0
 -5  F3          1    2    3    0
 -5  ALL         1    2    0    0    1ALL
 -1       404 4.05502E+06-9.58240E+05 1.78005E+05
 -1       406 3.45523E+06-1.03023E+06 1.78005E+05
 -1       407 1.15241E+04-3.82341E+04 1.14592E+04
 -1       409 1.15241E+04-3.82341E+04 1.14592E+04
 -1       410-1.03388E-05-4.51749E+05 8.26075E-06
 -1       412-1.01365E-05-2.53444E+05 9.15171E-06
 -1       413-9.75921E-07 2.14364E+05-1.55647E+05
 -1       415-1.35302E-06 2.14364E+05 1.55647E+05
 -1       424 4.13922E-05-7.85890E+05-5.21609E-06
 -1       426 1.08653E-05-7.57975E+05-4.57456E-06
 -1       427-5.74291E+05 1.08570E+06-1.41943E+05
 -1       429 5.74291E+05 1.08570E+06 1.41943E+05
 -1       438-1.15241E+04-3.82341E+04-1.14592E+04
 -1       440-1.15241E+04-3.82341E+04-1.14592E+04
 -1       441-4.05502E+06-9.58240E+05-1.78005E+05
 -1       443-3.45523E+06-1.03023E+06-1.78005E+05
 -1       444-5.74291E+05 1.08570E+06 1.41943E+05
 -1       446 5.74291E+05 1.08570E+06-1.41943E+05
 -1       447 2.23527E-05-7.85890E+05-3.01008E-06
 -1       449 2.28528E-05-7.57975E+05-2.27512E-06
 -1       458-2.40291E-06 2.14364E+05 1.55647E+05
 -1       460-2.38413E-06 2.14364E+05-1.55647E+05
 -1       461 9.42036E-06-4.51749E+05 1.94086E-06
 -1       463 9.40334E-06-2.53444E+05-9.44544E-08
 -1       472-4.05502E+06-9.58240E+05 1.78005E+05
 -1       474-3.45523E+06-1.03023E+06 1.78005E+05
 -1       475-1.15241E+04-3.82341E+04 1.14592E+04
 -1       477-1.15241E+04-3.82341E+04 1.14592E+04
 -1       478 1.15241E+04-3.82341E+04-1.14592E+04
 -1       480 1.15241E+04-3.82341E+04-1.14592E+04
 -1       481 4.05502E+06-9.58240E+05-1.78005E+05
 -1       483 3.45523E+06-1.03023E+06-1.78005E+05
 -1       484-5.34659E+03 9.59858E+03-4.88657E+03
 -1       486-5.34659E+03 9.59858E+03-4.88657E+03
 -1       487-8.59857E+03 2.30485E+04-1.02179E+04
 -1       489-8.59857E+03 2.30485E+04-1.02179E+04
 -1       490-9.14652E+03 3.89616E+04-1.51127E+04
 -1       492-9.14652E+03 3.89616E+04-1.51127E+04
 -1       493-7.35626E+03 5.34473E+04-1.91418E+04
 -1       495-7.35626E+03 5.34473E+04-1.91418E+04
 -1       496-3.79845E+03 6.32708E+04-2.21903E+04
 -1       498-3.79845E+03 6.32708E+04-2.21903E+04
 -1       499 8.29460E+02 6.62181E+04-2.40655E+04
 -1       501 8.29460E+02 6.62181E+04-2.40655E+04
 -1       502 5.74852E+03 6.12407E+04-2.47297E+04
 -1       504 5.74852E+03 6.12407E+04-2.47297E+04
 -1       505 1.01914E+04 4.85339E+04-2.42041E+04
 -1       507 1.01914E+04 4.85339E+04-2.42041E+04
 -1       508 1.34847E+04 2.94504E+04-2.26161E+04
 -1       510 1.34847E+04 2.94504E+04-2.26161E+04
 -1       511 1.51305E+04 6.28715E+03-2.01603E+04
 -1       513 1.51305E+04 6.28715E+03-2.01603E+04
 -1       514 1.48634E+04-1.80446E+04-1.70877E+04
 -1       516 1.48634E+04-1.80446E+04-1.70877E+04
 -1       517 1.26818E+04-4.04205E+04-1.36710E+04
 -1       519 1.26818E+04-4.04205E+04-1.36710E+04
 -1       520 8.84432E+03-5.79283E+04-1.01765E+04
 -1       522 8.84432E+03-5.79283E+04-1.01765E+04
 -1       523 3.83439E+03-6.82605E+04-6.83358E+03
 -1       525 3.83439E+03-6.82605E+04-6.83358E+03
 -1       526-1.70460E+03-7.00269E+04-3.81241E+03
 -1       528-1.70460E+03-7.00269E+04-3.81241E+03
 -1       529-7.05403E+03-6.29452E+04-1.20847E+03
 -1       531-7.05403E+03-6.29452E+04-1.20847E+03
 -1       532-1.15143E+04-4.78855E+04 9.61703E+02
 -1       534-1.15143E+04-4.78855E+04 9.61703E+02
 -1       535-1.44962E+04-2.67657E+04 2.75421E+03
 -1       537-1.44962E+04-2.67657E+04 2.75421E+03
 -1       538-1.55968E+04-2.30841E+03 4.28172E+03
 -1       540-1.55968E+04-2.30841E+03 4.28172E+03
 -1       541-1.46512E+04 2.23037E+04 5.68982E+03
 -1       543-1.46512E+04 2.23037E+04 5.68982E+03
 -1       544-1.17513E+04 4.38321E+04 7.12914E+03
 -1       546-1.17513E+04 4.38321E+04 7.12914E+03
 -1       547-7.23106E+03 5.93885E+04 8.72699E+03
 -1       549-7.23106E+03 5.93885E+04 8.72699E+03
 -1       550-1.61751E+03 6.67913E+04 1.05626E+04
 -1       552-1.61751E+03 6.67913E+04 1.05626E+04
 -1       553 4.44478E+03 6.48202E+04 1.26490E+04
 -1       555 4.44478E+03 6.48202E+04 1.26490E+04
 -1       556 1.02877E+04 5.33344E+04 1.49246E+04
 -1       558 1.02877E+04 5.33344E+04 1.49246E+04
 -1       559 1.53206E+04 3.32355E+04 1.72546E+04
 -1       561 1.53206E+04 3.32355E+04 1.72546E+04
 -1       562 1.91268E+04 6.26696E+03 1.94460E+04
 -1       564 1.91268E+04 6.26696E+03 1.94460E+04
 -1       565 2.15442E+04-2.53178E+04 2.12652E+04
 -1       567 2.15442E+04-2.53178E+04 2.12652E+04
 -1       568 2.27259E+04-5.92155E+04 2.24842E+04
 -1       570 2.27259E+04-5.92155E+04 2.24842E+04
 -1       571 1.53523E+04-7.64647E+04 1.51775E+04
 -1       573 1.53523E+04-7.64647E+04 1.51775E+04
 -1       574-3.96097E-05-3.94785E+05 4.45430E-07
 -1       576-3.96251E-05-1.88372E+05-8.03145E-07
 -1       577 3.49851E-05 3.28095E+05-1.62010E+05
 -1       579 3.49252E-05 3.28095E+05 1.62010E+05
 -1       588-3.03930E-05 3.86517E+05 2.52330E-05
 -1       590-3.02965E-05 5.34327E+05 2.10394E-05
 -1       591 3.70716E-05-3.71780E+05-1.16014E+05
 -1       593 3.69796E-05-3.71780E+05 1.16014E+05
 -1       602-2.27810E-05 1.83436E+05 5.81023E-06
 -1       604-2.26422E-05 3.90484E+05 3.90740E-06
 -1       605 3.34501E-05-1.38004E+05-1.62509E+05
 -1       607 3.33784E-05-1.38004E+05 1.62509E+05
 -1       616-2.99514E-05 4.67686E+05-1.39625E-05
 -1       618-2.97737E-05 7.44829E+05-8.87261E-06
 -1       619 2.68013E-05-4.03195E+05-2.17525E+05
 -1       621 2.67894E-05-4.03195E+05 2.17525E+05
 -1       630-3.31999E-05 4.62978E+05-2.21816E-05
 -1       632-3.30737E-05 7.39125E+05-1.87741E-05
 -1       633 2.43787E-05-3.61163E+05-2.16744E+05
 -1       635 2.42335E-05-3.61163E+05 2.16744E+05
 -1       644-2.62628E-05 5.68584E+05-3.46912E-06
 -1       646-2.62341E-05 8.06902E+05-4.18022E-06
 -1       647 2.50684E-05-4.36297E+05-1.87052E+05
 -1       649 2.50439E-05-4.36297E+05 1.87052E+05
 -1       658-7.20266E-06 5.57023E+05 2.01140E-05
 -1       660-7.14215E-06 6.76136E+05 1.58036E-05
 -1       661 2.03203E-05-3.82433E+05-9.34895E+04
 -1       663 2.04594E-05-3.82433E+05 9.34895E+04
 -1       672 8.74337E-06 5.51943E+05 1.93161E-05
 -1       674 9.05134E-06 4.96624E+05 1.52483E-05
 -1       675 1.19707E-05-3.35577E+05 4.34190E+04
 -1       677 1.19771E-05-3.35577E+05-4.34190E+04
 -1       686 6.82803E-06 4.87655E+05 2.47118E-06
 -1       688 6.92706E-06 2.06718E+05 1.68537E-06
 -1       689 6.24341E-06-2.27150E+05 2.20503E+05
 -1       691 6.13426E-06-2.27150E+05-2.20503E+05
 -1       700-2.76950E-06 4.11429E+05 1.27305E-06
 -1       702-2.87695E-06-1.15382E+05-1.25681E-06
 -1       703 5.10951E-06-1.11633E+05 4.13485E+05
 -1       705 4.88576E-06-1.11633E+05-4.13485E+05
 -1       714-2.71343E-06 3.10292E+05 1.59663E-05
 -1       716-2.62517E-06-4.54501E+05 1.09198E-05
 -1       717 2.30270E-06 2.03383E+04 6.00274E+05
 -1       719 2.28341E-06 2.03383E+04-6.00274E+05
 -1       728 5.06480E-06 2.08438E+05 2.64609E-05
 -1       730 5.18033E-06-7.52713E+05 2.57194E-05
 -1       731-6.20500E-06 1.38925E+05 7.54392E+05
 -1       733-5.99776E-06 1.38925E+05-7.54392E+05
 -1       742 1.20666E-05 1.08497E+05 2.71013E-05
 -1       744 1.21448E-05-9.78028E+05 2.79411E-05
 -1       745-1.99092E-05 2.37284E+05 8.52796E+05
 -1       747-1.99764E-05 2.37284E+05-8.52796E+05
 -1       756 2.20162E-05 2.40038E+04 1.91963E-05
 -1       758 2.20877E-05-1.09414E+06 2.18786E-05
 -1       759-2.89222E-05 2.98798E+05 8.77616E+05
 -1       761-2.89364E-05 2.98798E+05-8.77616E+05
 -1       770 3.09737E-05-4.19298E+04 1.49484E-05
 -1       772 3.10292E-05-1.08542E+06 1.89196E-05
 -1       773-3.32166E-05 3.19114E+05 8.19019E+05
 -1       775-3.26017E-05 3.19114E+05-8.19019E+05
 -1       784 2.73228E-05-8.47279E+04 1.82984E-05
 -1       786 2.71540E-05-9.47290E+05 1.88085E-05
 -1       787-3.72214E-05 2.94717E+05 6.77011E+05
 -1       789-3.64735E-05 2.94717E+05-6.77011E+05
 -1       798 2.46045E-05-1.06590E+05 7.90070E-06
 -1       800 2.42820E-05-6.94396E+05 1.27643E-05
 -1       801-3.22136E-05 2.30964E+05 4.61360E+05
 -1       803-3.19357E-05 2.30964E+05-4.61360E+05
 -1       812 2.94398E-05-1.10780E+05-5.33210E-06
 -1       814 2.93889E-05-3.54086E+05-9.80649E-08
 -1       815-1.58663E-05 1.36347E+05 1.90967E+05
 -1       817-1.61518E-05 1.36347E+05-1.90967E+05
 -1       826 2.48075E-05-1.04762E+05-3.69279E-06
 -1       828 2.48224E-05 3.34699E+04-3.21415E-07
 -1       829-2.57514E-06 2.49925E+04-1.08496E+05
 -1       831-1.66806E-06 2.49925E+04 1.08496E+05
 -1       840 1.40554E-05-9.63433E+04 4.17118E-06
 -1       842 1.42116E-05 4.23003E+05 7.43673E-06
 -1       843 2.74608E-06-8.78990E+04-4.07626E+05
 -1       845 2.86344E-06-8.78990E+04 4.07626E+05
 -1       854 7.11577E-06-9.43860E+04 9.09707E-08
 -1       856 7.02118E-06 7.67666E+05 4.28530E-06
 -1       857 2.33576E-06-1.86005E+05-6.76610E+05
 -1       859 1.97874E-06-1.86005E+05 6.76610E+05
 -1       868 5.99713E-07-1.06869E+05-6.17920E-06
 -1       870 7.65693E-07 1.02626E+06-6.82800E-06
 -1       871 3.87077E-06-2.55010E+05-8.89376E+05
 -1       873 3.91029E-06-2.55010E+05 8.89376E+05
 -1       882-8.06193E-06-1.38386E+05-1.48459E-06
 -1       884-8.02460E-06 1.16874E+06 3.59405E-06
 -1       885 8.77097E-06-2.85327E+05-1.02594E+06
 -1       887 8.72207E-06-2.85327E+05 1.02594E+06
 -1       896-2.02919E-05-1.95289E+05 1.41046E-05
 -1       898-2.00854E-05 1.17561E+06 1.71589E-05
 -1       899 8.93944E-06-2.68326E+05-1.07600E+06
 -1       901 8.55040E-06-2.68326E+05 1.07600E+06
 -1       910-2.48017E-05-2.71168E+05 1.63413E-05
 -1       912-2.49660E-05 1.05259E+06 2.32047E-05
 -1       913 1.04342E-05-2.10466E+05-1.03899E+06
 -1       915 1.11865E-05-2.10466E+05 1.03899E+06
 -1       924-2.01993E-05-3.77631E+05 1.78598E-05
 -1       926-2.02956E-05 8.01115E+05 2.36536E-05
 -1       927 1.22910E-05-1.03318E+05-9.25179E+05
 -1       929 1.26665E-05-1.03318E+05 9.25179E+05
 -1       938-1.61391E-05-4.86107E+05 2.57714E-05
 -1       940-1.66157E-05 4.76958E+05 2.22398E-05
 -1       941 1.08779E-05 1.73549E+04-7.55895E+05
 -1       943 1.14212E-05 1.73549E+04 7.55895E+05
 -1       952-1.28141E-05-6.41379E+05 2.33003E-05
 -1       954-1.25083E-05 7.03565E+04 2.00924E-05
 -1       955 7.65171E-06 1.87097E+05-5.58630E+05
 -1       957 8.22031E-06 1.87097E+05 5.58630E+05
 -1       966-1.55103E-05-7.68851E+05 1.59050E-05
 -1       968-1.52305E-05-2.79402E+05 2.00939E-05
 -1       969 1.08624E-06 3.07499E+05-3.84160E+05
 -1       971 2.50537E-07 3.07499E+05 3.84160E+05
 -1       980 3.93558E+06-4.53879E+05 6.21945E+04
 -1       982 3.27344E+06-5.11907E+05 6.21945E+04
 -1       983-1.53523E+04-7.64647E+04-1.51775E+04
 -1       985-1.53523E+04-7.64647E+04-1.51775E+04
 -1       986 5.34659E+03 9.59858E+03 4.88657E+03
 -1       988 5.34659E+03 9.59858E+03 4.88657E+03
 -1       989 8.59857E+03 2.30485E+04 1.02179E+04
 -1       991 8.59857E+03 2.30485E+04 1.02179E+04
 -1       992 9.14652E+03 3.89616E+04 1.51127E+04
 -1       994 9.14652E+03 3.89616E+04 1.51127E+04
 -1       995 7.35626E+03 5.34473E+04 1.91418E+04
 -1       997 7.35626E+03 5.34473E+04 1.91418E+04
 -1       998 3.79845E+03 6.32708E+04 2.21903E+04
 -1      1000 3.79845E+03 6.32708E+04 2.21903E+04
 -1      1001-8.29460E+02 6.62181E+04 2.40655E+04
 -1      1003-8.29460E+02 6.62181E+04 2.40655E+04
 -1      1004-5.74852E+03 6.12407E+04 2.47297E+04
 -1      1006-5.74852E+03 6.12407E+04 2.47297E+04
 -1      1007-1.01914E+04 4.85339E+04 2.42041E+04
 -1      1009-1.01914E+04 4.85339E+04 2.42041E+04
 -1      1010-1.34847E+04 2.94504E+04 2.26161E+04
 -1      1012-1.34847E+04 2.94504E+04 2.26161E+04
 -1      1013-1.51305E+04 6.28715E+03 2.01603E+04
 -1      1015-1.51305E+04 6.28715E+03 2.01603E+04
 -1      1016-1.48634E+04-1.80446E+04 1.70877E+04
 -1      1018-1.48634E+04-1.80446E+04 1.70877E+04
 -1      1019-1.26818E+04-4.04205E+04 1.36710E+04
 -1      1021-1.26818E+04-4.04205E+04 1.36710E+04
 -1      1022-8.84432E+03-5.79283E+04 1.01765E+04
 -1      1024-8.84432E+03-5.79283E+04 1.01765E+04
 -1      1025-3.83439E+03-6.82605E+04 6.83358E+03
 -1      1027-3.83439E+03-6.82605E+04 6.83358E+03
 -1      1028 1.70460E+03-7.00269E+04 3.81241E+03
 -1      1030 1.70460E+03-7.00269E+04 3.81241E+03
 -1      1031 7.05403E+03-6.29452E+04 1.20847E+03
 -1      1033 7.05403E+03-6.29452E+04 1.20847E+03
 -1      1034 1.15143E+04-4.78855E+04-9.61703E+02
 -1      1036 1.15143E+04-4.78855E+04-9.61703E+02
 -1      1037 1.44962E+04-2.67657E+04-2.75421E+03
 -1      1039 1.44962E+04-2.67657E+04-2.75421E+03
 -1      1040 1.55968E+04-2.30841E+03-4.28172E+03
 -1      1042 1.55968E+04-2.30841E+03-4.28172E+03
 -1      1043 1.46512E+04 2.23037E+04-5.68982E+03
 -1      1045 1.46512E+04 2.23037E+04-5.68982E+03
 -1      1046 1.17513E+04 4.38321E+04-7.12914E+03
 -1      1048 1.17513E+04 4.38321E+04-7.12914E+03
 -1      1049 7.23106E+03 5.93885E+04-8.72699E+03
 -1      1051 7.23106E+03 5.93885E+04-8.72699E+03
 -1      1052 1.61751E+03 6.67913E+04-1.05626E+04
 -1      1054 1.61751E+03 6.67913E+04-1.05626E+04
 -1      1055-4.44478E+03 6.48202E+04-1.26490E+04
 -1      1057-4.44478E+03 6.48202E+04-1.26490E+04
 -1      1058-1.02877E+04 5.33344E+04-1.49246E+04
 -1      1060-1.02877E+04 5.33344E+04-1.49246E+04
 -1      1061-1.53206E+04 3.32355E+04-1.72546E+04
 -1      1063-1.53206E+04 3.32355E+04-1.72546E+04
 -1      1064-1.91268E+04 6.26696E+03-1.94460E+04
 -1      1066-1.91268E+04 6.26696E+03-1.94460E+04
 -1      1067-2.15442E+04-2.53178E+04-2.12652E+04
 -1      1069-2.15442E+04-2.53178E+04-2.12652E+04
 -1      1070-2.27259E+04-5.92155E+04-2.24842E+04
 -1      1072-2.27259E+04-5.92155E+04-2.24842E+04
 -1      1073-3.93558E+06-4.53879E+05-6.21945E+04
 -1      1075-3.27344E+06-5.11907E+05-6.21945E+04
 -1      1076-2.27861E+06-7.72112E+05-1.01066E+05
 -1      1078 2.27861E+06-7.72112E+05 1.01066E+05
 -1      1079-3.40863E+06-1.16758E+06 3.92553E-05
 -1      1081 3.40863E+06-1.16758E+06 4.08655E-05
 -1      1082-2.27861E+06-7.72112E+05 1.01066E+05
 -1      1084 2.27861E+06-7.72112E+05-1.01066E+05
 -1      1085-2.54241E-05 3.28095E+05 1.62010E+05
 -1      1087-2.53728E-05 3.28095E+05-1.62010E+05
 -1      1088 1.04122E-05-3.94785E+05-4.44626E-06
 -1      1090 1.03742E-05-1.88372E+05-4.35817E-06
 -1      1099-3.24555E-05-3.71780E+05 1.16014E+05
 -1      1101-3.23240E-05-3.71780E+05-1.16014E+05
 -1      1102 2.30528E-05 3.86517E+05 1.21142E-06
 -1      1104 2.29988E-05 5.34327E+05-3.10535E-07
 -1      1113-3.13927E-05-1.38004E+05 1.62509E+05
 -1      1115-3.12540E-05-1.38004E+05-1.62509E+05
 -1      1116 3.30993E-05 1.83436E+05 1.03310E-06
 -1      1118 3.31643E-05 3.90484E+05 1.88875E-06
 -1      1127-2.89120E-05-4.03195E+05 2.17525E+05
 -1      1129-2.89127E-05-4.03195E+05-2.17525E+05
 -1      1130 2.90414E-05 4.67686E+05 4.35810E-06
 -1      1132 2.90485E-05 7.44829E+05 4.68094E-06
 -1      1141-2.57018E-05-3.61163E+05 2.16744E+05
 -1      1143-2.54699E-05-3.61163E+05-2.16744E+05
 -1      1144 2.07590E-05 4.62978E+05 1.87551E-05
 -1      1146 2.08290E-05 7.39125E+05 1.59365E-05
 -1      1155-1.95225E-05-4.36297E+05 1.87052E+05
 -1      1157-1.91673E-05-4.36297E+05-1.87052E+05
 -1      1158 6.73080E-06 5.68584E+05 2.91003E-05
 -1      1160 6.76878E-06 8.06902E+05 2.48528E-05
 -1      1169-8.93805E-06-3.82433E+05 9.34895E+04
 -1      1171-9.01515E-06-3.82433E+05-9.34895E+04
 -1      1172-5.30468E-06 5.57023E+05 2.03886E-05
 -1      1174-5.26595E-06 6.76136E+05 1.44773E-05
 -1      1183-5.10787E-07-3.35577E+05-4.34190E+04
 -1      1185-1.87505E-07-3.35577E+05 4.34190E+04
 -1      1186-2.16571E-06 5.51943E+05 3.54603E-06
 -1      1188-2.31202E-06 4.96624E+05 5.06770E-06
 -1      1197-1.19033E-06-2.27150E+05-2.20503E+05
 -1      1199-1.39171E-06-2.27150E+05 2.20503E+05
 -1      1200 1.21064E-06 4.87655E+05 5.01111E-06
 -1      1202 9.04172E-07 2.06718E+05 6.37809E-06
 -1      1211-3.67119E-06-1.11633E+05-4.13485E+05
 -1      1213-4.23717E-06-1.11633E+05 4.13485E+05
 -1      1214-9.31907E-06 4.11429E+05 1.04011E-05
 -1      1216-9.43419E-06-1.15382E+05 8.80332E-06
 -1      1225 3.21122E-06 2.03383E+04-6.00274E+05
 -1      1227 3.65176E-06 2.03383E+04 6.00274E+05
 -1      1228-1.33178E-05 3.10292E+05 2.39866E-06
 -1      1230-1.33614E-05-4.54501E+05-2.19077E-06
 -1      1239 1.51405E-05 1.38925E+05-7.54392E+05
 -1      1241 1.57027E-05 1.38925E+05 7.54392E+05
 -1      1242-6.65611E-06 2.08438E+05-1.43841E-05
 -1      1244-6.61195E-06-7.52713E+05-1.73964E-05
 -1      1253 2.00267E-05 2.37284E+05-8.52796E+05
 -1      1255 1.91197E-05 2.37284E+05 8.52796E+05
 -1      1256-6.52342E-06 1.08497E+05-2.53557E-05
 -1      1258-6.42479E-06-9.78028E+05-2.68742E-05
 -1      1267 2.08600E-05 2.98798E+05-8.77616E+05
 -1      1269 1.99604E-05 2.98798E+05 8.77616E+05
 -1      1270-1.69047E-05 2.40038E+04-2.79490E-05
 -1      1272-1.71825E-05-1.09414E+06-2.65042E-05
 -1      1281 2.25524E-05 3.19114E+05-8.19019E+05
 -1      1283 2.27057E-05 3.19114E+05 8.19019E+05
 -1      1284-3.14628E-05-4.19298E+04-2.24420E-05
 -1      1286-3.15154E-05-1.08542E+06-2.58917E-05
 -1      1295 2.29297E-05 2.94717E+05-6.77011E+05
 -1      1297 2.25779E-05 2.94717E+05 6.77011E+05
 -1      1298-4.03014E-05-8.47279E+04-2.87114E-05
 -1      1300-4.02263E-05-9.47290E+05-2.67585E-05
 -1      1309 1.53010E-05 2.30964E+05-4.61360E+05
 -1      1311 1.56017E-05 2.30964E+05 4.61360E+05
 -1      1312-3.65525E-05-1.06590E+05-3.36240E-05
 -1      1314-3.64095E-05-6.94396E+05-2.79516E-05
 -1      1323 5.65334E-06 1.36347E+05-1.90967E+05
 -1      1325 5.85079E-06 1.36347E+05 1.90967E+05
 -1      1326-2.26229E-05-1.10780E+05-2.77385E-05
 -1      1328-2.26628E-05-3.54086E+05-2.38240E-05
 -1      1337 3.77520E-06 2.49925E+04 1.08496E+05
 -1      1339 3.29199E-06 2.49925E+04-1.08496E+05
 -1      1340-4.42120E-06-1.04762E+05-2.08876E-05
 -1      1342-4.30752E-06 3.34699E+04-1.96434E-05
 -1      1351 3.18021E-06-8.78990E+04 4.07626E+05
 -1      1353 3.02957E-06-8.78990E+04-4.07626E+05
 -1      1354 5.54431E-06-9.63433E+04-1.03144E-05
 -1      1356 5.52054E-06 4.23003E+05-1.23397E-05
 -1      1365 2.70029E-06-1.86005E+05 6.76610E+05
 -1      1367 2.85591E-06-1.86005E+05-6.76610E+05
 -1      1368 8.26665E-06-9.43860E+04-4.92743E-07
 -1      1370 8.45175E-06 7.67666E+05-1.44278E-06
 -1      1379 3.27843E-06-2.55010E+05 8.89376E+05
 -1      1381 3.21040E-06-2.55010E+05-8.89376E+05
 -1      1382 1.53368E-05-1.06869E+05-3.90550E-06
 -1      1384 1.54201E-05 1.02626E+06-6.35845E-06
 -1      1393-2.56906E-06-2.85327E+05 1.02594E+06
 -1      1395-2.34725E-06-2.85327E+05-1.02594E+06
 -1      1396 1.96942E-05-1.38386E+05-2.91657E-05
 -1      1398 2.00745E-05 1.16874E+06-2.26490E-05
 -1      1407-1.59725E-05-2.68326E+05 1.07600E+06
 -1      1409-1.59236E-05-2.68326E+05-1.07600E+06
 -1      1410 1.94355E-05-1.95289E+05-3.67395E-05
 -1      1412 1.99240E-05 1.17561E+06-3.40570E-05
 -1      1421-2.25680E-05-2.10466E+05 1.03899E+06
 -1      1423-2.26509E-05-2.10466E+05-1.03899E+06
 -1      1424 1.86161E-05-2.71168E+05-2.03733E-05
 -1      1426 1.83884E-05 1.05259E+06-2.27596E-05
 -1      1435-1.72952E-05-1.03318E+05 9.25179E+05
 -1      1437-1.73544E-05-1.03318E+05-9.25179E+05
 -1      1438 1.48033E-05-3.77631E+05-5.01544E-06
 -1      1440 1.48684E-05 8.01115E+05-1.09681E-05
 -1      1449-1.33177E-05 1.73549E+04 7.55895E+05
 -1      1451-1.28118E-05 1.73549E+04-7.55895E+05
 -1      1452 1.39230E-05-4.86107E+05-6.25705E-06
 -1      1454 1.39803E-05 4.76958E+05-8.92798E-06
 -1      1463-1.11521E-05 1.87097E+05 5.58630E+05
 -1      1465-1.13663E-05 1.87097E+05-5.58630E+05
 -1      1466 1.80861E-05-6.41379E+05-9.56713E-06
 -1      1468 1.81710E-05 7.03565E+04-1.07382E-05
 -1      1477-6.36103E-06 3.07499E+05 3.84160E+05
 -1      1479-6.54464E-06 3.07499E+05-3.84160E+05
 -1      1480 1.87365E-05-7.68851E+05-4.26690E-06
 -1      1482 1.89458E-05-2.79402E+05-4.35009E-06
 -1      1491-3.47046E-06-1.33365E+05-1.16071E-06
 -1      1493-3.86424E-06-1.33365E+05-3.87901E-06
 -1      1494-3.48707E-06-1.43188E+05 1.13897E-06
 -1      1496-4.33050E-06-1.43188E+05-1.99533E-06
 -1      1497 1.60680E-06-1.33365E+05 1.55604E-06
 -1      1499 1.32331E-06-1.33365E+05 1.01530E-06
 -1      1500 5.34659E+03 9.59858E+03-4.88657E+03
 -1      1502 5.34659E+03 9.59858E+03-4.88657E+03
 -1      1503 8.59857E+03 2.30485E+04-1.02179E+04
 -1      1505 8.59857E+03 2.30485E+04-1.02179E+04
 -1      1506 9.14652E+03 3.89616E+04-1.51127E+04
 -1      1508 9.14652E+03 3.89616E+04-1.51127E+04
 -1      1509 7.35626E+03 5.34473E+04-1.91418E+04
 -1      1511 7.35626E+03 5.34473E+04-1.91418E+04
 -1      1512 3.79845E+03 6.32708E+04-2.21903E+04
 -1      1514 3.79845E+03 6.32708E+04-2.21903E+04
 -1      1515-8.29460E+02 6.62181E+04-2.40655E+04
 -1      1517-8.29460E+02 6.62181E+04-2.40655E+04
 -1      1518-5.74852E+03 6.12407E+04-2.47297E+04
 -1      1520-5.74852E+03 6.12407E+04-2.47297E+04
 -1      1521-1.01914E+04 4.85339E+04-2.42041E+04
 -1      1523-1.01914E+04 4.85339E+04-2.42041E+04
 -1      1524-1.34847E+04 2.94504E+04-2.26161E+04
 -1      1526-1.34847E+04 2.94504E+04-2.26161E+04
 -1      1527-1.51305E+04 6.28715E+03-2.01603E+04
 -1      1529-1.51305E+04 6.28715E+03-2.01603E+04
 -1      1530-1.48634E+04-1.80446E+04-1.70877E+04
 -1      1532-1.48634E+04-1.80446E+04-1.70877E+04
 -1      1533-1.26818E+04-4.04205E+04-1.36710E+04
 -1      1535-1.26818E+04-4.04205E+04-1.36710E+04
 -1      1536-8.84432E+03-5.79283E+04-1.01765E+04
 -1      1538-8.84432E+03-5.79283E+04-1.01765E+04
 -1      1539-3.83439E+03-6.82605E+04-6.83358E+03
 -1      1541-3.83439E+03-6.82605E+04-6.83358E+03
 -1      1542 1.70460E+03-7.00269E+04-3.81241E+03
 -1      1544 1.70460E+03-7.00269E+04-3.81241E+03
 -1      1545 7.05403E+03-6.29452E+04-1.20847E+03
 -1      1547 7.05403E+03-6.29452E+04-1.20847E+03
 -1      1548 1.15143E+04-4.78855E+04 9.61703E+02
 -1      1550 1.15143E+04-4.78855E+04 9.61703E+02
 -1      1551 1.44962E+04-2.67657E+04 2.75421E+03
 -1      1553 1.44962E+04-2.67657E+04 2.75421E+03
 -1      1554 1.55968E+04-2.30841E+03 4.28172E+03
 -1      1556 1.55968E+04-2.30841E+03 4.28172E+03
 -1      1557 1.46512E+04 2.23037E+04 5.68982E+03
 -1      1559 1.46512E+04 2.23037E+04 5.68982E+03
 -1      1560 1.17513E+04 4.38321E+04 7.12914E+03
 -1      1562 1.17513E+04 4.38321E+04 7.12914E+03
 -1      1563 7.23106E+03 5.93885E+04 8.72699E+03
 -1      1565 7.23106E+03 5.93885E+04 8.72699E+03
 -1      1566 1.61751E+03 6.67913E+04 1.05626E+04
 -1      1568 1.61751E+03 6.67913E+04 1.05626E+04
 -1      1569-4.44478E+03 6.48202E+04 1.26490E+04
 -1      1571-4.44478E+03 6.48202E+04 1.26490E+04
 -1      1572-1.02877E+04 5.33344E+04 1.49246E+04
 -1      1574-1.02877E+04 5.33344E+04 1.49246E+04
 -1      1575-1.53206E+04 3.32355E+04 1.72546E+04
 -1      1577-1.53206E+04 3.32355E+04 1.72546E+04
 -1      1578-1.91268E+04 6.26696E+03 1.94460E+04
 -1      1580-1.91268E+04 6.26696E+03 1.94460E+04
 -1      1581-2.15442E+04-2.53178E+04 2.12652E+04
 -1      1583-2.15442E+04-2.53178E+04 2.12652E+04
 -1      1584-2.27259E+04-5.92155E+04 2.24842E+04
 -1      1586-2.27259E+04-5.92155E+04 2.24842E+04
 -1      1587-1.53523E+04-7.64647E+04 1.51775E+04
 -1      1589-1.53523E+04-7.64647E+04 1.51775E+04
 -1      1590-3.93558E+06-4.53879E+05 6.21945E+04
 -1      1592-3.27344E+06-5.11907E+05 6.21945E+04
 -1      1593 1.53523E+04-7.64647E+04-1.51775E+04
 -1      1595 1.53523E+04-7.64647E+04-1.51775E+04
 -1      1596-5.34659E+03 9.59858E+03 4.88657E+03
 -1      1598-5.34659E+03 9.59858E+03 4.88657E+03
 -1      1599-8.59857E+03 2.30485E+04 1.02179E+04
 -1      1601-8.59857E+03 2.30485E+04 1.02179E+04
 -1      1602-9.14652E+03 3.89616E+04 1.51127E+04
 -1      1604-9.14652E+03 3.89616E+04 1.51127E+04
 -1      1605-7.35626E+03 5.34473E+04 1.91418E+04
 -1      1607-7.35626E+03 5.34473E+04 1.91418E+04
 -1      1608-3.79845E+03 6.32708E+04 2.21903E+04
 -1      1610-3.79845E+03 6.32708E+04 2.21903E+04
 -1      1611 8.29460E+02 6.62181E+04 2.40655E+04
 -1      1613 8.29460E+02 6.62181E+04 2.40655E+04
 -1      1614 5.74852E+03 6.12407E+04 2.47297E+04
 -1      1616 5.74852E+03 6.12407E+04 2.47297E+04
 -1      1617 1.01914E+04 4.85339E+04 2.42041E+04
 -1      1619 1.01914E+04 4.85339E+04 2.42041E+04
 -1      1620 1.34847E+04 2.94504E+04 2.26161E+04
 -1      1622 1.34847E+04 2.94504E+04 2.26161E+04
 -1      1623 1.51305E+04 6.28715E+03 2.01603E+04
 -1      1625 1.51305E+04 6.28715E+03 2.01603E+04
 -1      1626 1.48634E+04-1.80446E+04 1.70877E+04
 -1      1628 1.48634E+04-1.80446E+04 1.70877E+04
 -1      1629 1.26818E+04-4.04205E+04 1.36710E+04
 -1      1631 1.26818E+04-4.04205E+04 1.36710E+04
 -1      1632 8.84432E+03-5.79283E+04 1.01765E+04
 -1      1634 8.84432E+03-5.79283E+04 1.01765E+04
 -1      1635 3.83439E+03-6.82605E+04 6.83358E+03
 -1      1637 3.83439E+03-6.82605E+04 6.83358E+03
 -1      1638-1.70460E+03-7.00269E+04 3.81241E+03
 -1      1640-1.70460E+03-7.00269E+04 3.81241E+03
 -1      1641-7.05403E+03-6.29452E+04 1.20847E+03
 -1      1643-7.05403E+03-6.29452E+04 1.20847E+03
 -1      1644-1.15143E+04-4.78855E+04-9.61703E+02
 -1      1646-1.15143E+04-4.78855E+04-9.61703E+02
 -1      1647-1.44962E+04-2.67657E+04-2.75421E+03
 -1      1649-1.44962E+04-2.67657E+04-2.75421E+03
 -1      1650-1.55968E+04-2.30841E+03-4.28172E+03
 -1      1652-1.55968E+04-2.30841E+03-4.28172E+03
 -1      1653-1.46512E+04 2.23037E+04-5.68982E+03
 -1      1655-1.46512E+04 2.23037E+04-5.68982E+03
 -1      1656-1.17513E+04 4.38321E+04-7.12914E+03
 -1      1658-1.17513E+04 4.38321E+04-7.12914E+03
 -1      1659-7.23106E+03 5.93885E+04-8.72699E+03
 -1      1661-7.23106E+03 5.93885E+04-8.72699E+03
 -1      1662-1.61751E+03 6.67913E+04-1.05626E+04
 -1      1664-1.61751E+03 6.67913E+04-1.05626E+04
 -1      1665 4.44478E+03 6.48202E+04-1.26490E+04
 -1      1667 4.44478E+03 6.48202E+04-1.26490E+04
 -1      1668 1.02877E+04 5.33344E+04-1.49246E+04
 -1      1670 1.02877E+04 5.33344E+04-1.49246E+04
 -1      1671 1.53206E+04 3.32355E+04-1.72546E+04
 -1      1673 1.53206E+04 3.32355E+04-1.72546E+04
 -1      1674 1.91268E+04 6.26696E+03-1.94460E+04
 -1      1676 1.91268E+04 6.26696E+03-1.94460E+04
 -1      1677 2.15442E+04-2.53178E+04-2.12652E+04
 -1      1679 2.15442E+04-2.53178E+04-2.12652E+04
 -1      1680 2.27259E+04-5.92155E+04-2.24842E+04
 -1      1682 2.27259E+04-5.92155E+04-2.24842E+04
 -1      1683 3.93558E+06-4.53879E+05-6.21945E+04
 -1      1685 3.27344E+06-5.11907E+05-6.21945E+04
 -1      1686-6.98438E+03 1.88205E+04-6.58548E+03
 -1      1688-6.98438E+03 1.88205E+04-6.58548E+03
 -1      1689-1.13195E+04 4.59160E+04-1.37919E+04
 -1      1691-1.13195E+04 4.59160E+04-1.37919E+04
 -1      1692-1.20775E+04 7.80099E+04-2.04012E+04
 -1      1694-1.20775E+04 7.80099E+04-2.04012E+04
 -1      1695-9.71529E+03 1.07156E+05-2.58273E+04
 -1      1697-9.71529E+03 1.07156E+05-2.58273E+04
 -1      1698-5.01007E+03 1.26944E+05-2.99151E+04
 -1      1700-5.01007E+03 1.26944E+05-2.99151E+04
 -1      1701 1.12147E+03 1.32897E+05-3.23981E+04
 -1      1703 1.12147E+03 1.32897E+05-3.23981E+04
 -1      1704 7.63999E+03 1.22934E+05-3.32256E+04
 -1      1706 7.63999E+03 1.22934E+05-3.32256E+04
 -1      1707 1.35294E+04 9.74411E+04-3.24286E+04
 -1      1709 1.35294E+04 9.74411E+04-3.24286E+04
 -1      1710 1.78946E+04 5.91408E+04-3.01862E+04
 -1      1712 1.78946E+04 5.91408E+04-3.01862E+04
 -1      1713 2.00753E+04 1.26441E+04-2.67715E+04
 -1      1715 2.00753E+04 1.26441E+04-2.67715E+04
 -1      1716 1.97191E+04-3.62018E+04-2.25358E+04
 -1      1718 1.97191E+04-3.62018E+04-2.25358E+04
 -1      1719 1.68236E+04-8.11240E+04-1.78601E+04
 -1      1721 1.68236E+04-8.11240E+04-1.78601E+04
 -1      1722 1.17319E+04-1.16274E+05-1.31154E+04
 -1      1724 1.17319E+04-1.16274E+05-1.31154E+04
 -1      1725 5.08520E+03-1.37020E+05-8.62006E+03
 -1      1727 5.08520E+03-1.37020E+05-8.62006E+03
 -1      1728-2.26303E+03-1.40570E+05-4.60775E+03
 -1      1730-2.26303E+03-1.40570E+05-4.60775E+03
 -1      1731-9.35951E+03-1.26356E+05-1.20633E+03
 -1      1733-9.35951E+03-1.26356E+05-1.20633E+03
 -1      1734-1.52762E+04-9.61247E+04 1.56821E+03
 -1      1736-1.52762E+04-9.61247E+04 1.56821E+03
 -1      1737-1.92312E+04-5.37260E+04 3.80274E+03
 -1      1739-1.92312E+04-5.37260E+04 3.80274E+03
 -1      1740-2.06902E+04-4.62564E+03 5.66405E+03
 -1      1742-2.06902E+04-4.62564E+03 5.66405E+03
 -1      1743-1.94340E+04 4.47879E+04 7.36529E+03
 -1      1745-1.94340E+04 4.47879E+04 7.36529E+03
 -1      1746-1.55848E+04 8.80134E+04 9.12642E+03
 -1      1748-1.55848E+04 8.80134E+04 9.12642E+03
 -1      1749-9.58498E+03 1.19254E+05 1.11339E+04
 -1      1751-9.58498E+03 1.19254E+05 1.11339E+04
 -1      1752-2.13348E+03 1.34132E+05 1.35056E+04
 -1      1754-2.13348E+03 1.34132E+05 1.35056E+04
 -1      1755 5.91513E+03 1.30198E+05 1.62644E+04
 -1      1757 5.91513E+03 1.30198E+05 1.62644E+04
 -1      1758 1.36753E+04 1.07176E+05 1.93271E+04
 -1      1760 1.36753E+04 1.07176E+05 1.93271E+04
 -1      1761 2.03644E+04 6.68780E+04 2.25041E+04
 -1      1763 2.03644E+04 6.68780E+04 2.25041E+04
 -1      1764 2.54307E+04 1.28130E+04 2.55223E+04
 -1      1766 2.54307E+04 1.28130E+04 2.55223E+04
 -1      1767 2.86629E+04-5.04873E+04 2.80466E+04
 -1      1769 2.86629E+04-5.04873E+04 2.80466E+04
 -1      1770 3.02615E+04-1.18385E+05 2.97474E+04
 -1      1772 3.02615E+04-1.18385E+05 2.97474E+04
 -1      1773 6.98438E+03 1.88205E+04 6.58548E+03
 -1      1775 6.98438E+03 1.88205E+04 6.58548E+03
 -1      1776 1.13195E+04 4.59160E+04 1.37919E+04
 -1      1778 1.13195E+04 4.59160E+04 1.37919E+04
 -1      1779 1.20775E+04 7.80099E+04 2.04012E+04
 -1      1781 1.20775E+04 7.80099E+04 2.04012E+04
 -1      1782 9.71529E+03 1.07156E+05 2.58273E+04
 -1      1784 9.71529E+03 1.07156E+05 2.58273E+04
 -1      1785 5.01007E+03 1.26944E+05 2.99151E+04
 -1      1787 5.01007E+03 1.26944E+05 2.99151E+04
 -1      1788-1.12147E+03 1.32897E+05 3.23981E+04
 -1      1790-1.12147E+03 1.32897E+05 3.23981E+04
 -1      1791-7.63999E+03 1.22934E+05 3.32256E+04
 -1      1793-7.63999E+03 1.22934E+05 3.32256E+04
 -1      1794-1.35294E+04 9.74411E+04 3.24286E+04
 -1      1796-1.35294E+04 9.74411E+04 3.24286E+04
 -1      1797-1.78946E+04 5.91408E+04 3.01862E+04
 -1      1799-1.78946E+04 5.91408E+04 3.01862E+04
 -1      1800-2.00753E+04 1.26441E+04 2.67715E+04
 -1      1802-2.00753E+04 1.26441E+04 2.67715E+04
 -1      1803-1.97191E+04-3.62018E+04 2.25358E+04
 -1      1805-1.97191E+04-3.62018E+04 2.25358E+04
 -1      1806-1.68236E+04-8.11240E+04 1.78601E+04
 -1      1808-1.68236E+04-8.11240E+04 1.78601E+04
 -1      1809-1.17319E+04-1.16274E+05 1.31154E+04
 -1      1811-1.17319E+04-1.16274E+05 1.31154E+04
 -1      1812-5.08520E+03-1.37020E+05 8.62006E+03
 -1      1814-5.08520E+03-1.37020E+05 8.62006E+03
 -1      1815 2.26303E+03-1.40570E+05 4.60775E+03
 -1      1817 2.26303E+03-1.40570E+05 4.60775E+03
 -1      1818 9.35951E+03-1.26356E+05 1.20633E+03
 -1      1820 9.35951E+03-1.26356E+05 1.20633E+03
 -1      1821 1.52762E+04-9.61247E+04-1.56821E+03
 -1      1823 1.52762E+04-9.61247E+04-1.56821E+03
 -1      1824 1.92312E+04-5.37260E+04-3.80274E+03
 -1      1826 1.92312E+04-5.37260E+04-3.80274E+03
 -1      1827 2.06902E+04-4.62564E+03-5.66405E+03
 -1      1829 2.06902E+04-4.62564E+03-5.66405E+03
 -1      1830 1.94340E+04 4.47879E+04-7.36529E+03
 -1      1832 1.94340E+04 4.47879E+04-7.36529E+03
 -1      1833 1.55848E+04 8.80134E+04-9.12642E+03
 -1      1835 1.55848E+04 8.80134E+04-9.12642E+03
 -1      1836 9.58498E+03 1.19254E+05-1.11339E+04
 -1      1838 9.58498E+03 1.19254E+05-1.11339E+04
 -1      1839 2.13348E+03 1.34132E+05-1.35056E+04
 -1      1841 2.13348E+03 1.34132E+05-1.35056E+04
 -1      1842-5.91513E+03 1.30198E+05-1.62644E+04
 -1      1844-5.91513E+03 1.30198E+05-1.62644E+04
 -1      1845-1.36753E+04 1.07176E+05-1.93271E+04
 -1      1847-1.36753E+04 1.07176E+05-1.93271E+04
 -1      1848-2.03644E+04 6.68780E+04-2.25041E+04
 -1      1850-2.03644E+04 6.68780E+04-2.25041E+04
 -1      1851-2.54307E+04 1.28130E+04-2.55223E+04
 -1      1853-2.54307E+04 1.28130E+04-2.55223E+04
 -1      1854-2.86629E+04-5.04873E+04-2.80466E+04
 -1      1856-2.86629E+04-5.04873E+04-2.80466E+04
 -1      1857-3.02615E+04-1.18385E+05-2.97474E+04
 -1      1859-3.02615E+04-1.18385E+05-2.97474E+04
 -1      1860 1.97053E-06 4.34380E+04-3.07002E-06
 -1      1862 1.82608E-06 4.34380E+04-2.99760E-06
 -1      1863 4.18843E-06 1.00804E+05-1.87516E-07
 -1      1865 3.94775E-06 1.00804E+05 3.25483E-07
 -1      1866 3.90926E-06 1.63670E+05 4.55584E-07
 -1      1868 3.85131E-06 1.63670E+05 8.65541E-07
 -1      1869-5.22018E-06 2.18786E+05 1.83472E-06
 -1      1871-4.82259E-06 2.18786E+05 1.14088E-06
 -1      1872-1.07805E-05 2.56362E+05 9.19531E-07
 -1      1874-1.07332E-05 2.56362E+05-3.53254E-07
 -1      1875-7.93933E-06 2.69110E+05-2.96807E-06
 -1      1877-8.05928E-06 2.69110E+05-3.36100E-06
 -1      1878-6.12328E-07 2.53906E+05-6.09935E-06
 -1      1880-7.76303E-07 2.53906E+05-3.17559E-06
 -1      1881 4.23385E-06 2.11513E+05-6.39357E-06
 -1      1883 4.41237E-06 2.11513E+05-2.15752E-06
 -1      1884 1.11799E-07 1.46612E+05 5.63922E-06
 -1      1886-1.51670E-07 1.46612E+05 6.72646E-06
 -1      1887-5.34471E-06 6.69575E+04 7.57873E-06
 -1      1889-5.96205E-06 6.69575E+04 7.00224E-06
 -1      1890-3.16794E-06-1.76282E+04-4.04139E-06
 -1      1892-3.30237E-06-1.76282E+04-3.85925E-06
 -1      1893-1.74494E-06-9.66289E+04-9.35558E-06
 -1      1895-1.86509E-06-9.66289E+04-6.90135E-06
 -1      1896-3.53355E-06-1.60219E+05-1.22798E-05
 -1      1898-3.59935E-06-1.60219E+05-1.00578E-05
 -1      1899 1.43154E-06-2.00586E+05-1.29115E-05
 -1      1901 1.38330E-06-2.00586E+05-1.15027E-05
 -1      1902 8.88619E-06-2.12957E+05-7.90570E-06
 -1      1904 9.16414E-06-2.12957E+05-7.44930E-06
 -1      1905 6.95057E-06-1.96243E+05-3.61852E-06
 -1      1907 8.17928E-06-1.96243E+05-1.25976E-06
 -1      1908 4.12373E-06-1.53180E+05-3.12787E-06
 -1      1910 4.52208E-06-1.53180E+05-2.69562E-06
 -1      1911 7.26615E-06-8.99875E+04-2.87905E-06
 -1      1913 7.62228E-06-8.99875E+04-2.23023E-06
 -1      1914 1.35487E-05-1.55544E+04 6.51810E-06
 -1      1916 1.43942E-05-1.55544E+04 7.36048E-06
 -1      1917 1.27849E-05 5.97077E+04 1.06225E-05
 -1      1919 1.27425E-05 5.97077E+04 9.11724E-06
 -1      1920 4.23477E-06 1.25210E+05 4.25360E-06
 -1      1922 4.15204E-06 1.25210E+05 4.57913E-06
 -1      1923-2.46608E-06 1.71549E+05-6.15826E-07
 -1      1925-1.96845E-06 1.71549E+05-1.14034E-06
 -1      1926-5.01512E-06 1.91691E+05-1.32570E-06
 -1      1928-4.99670E-06 1.91691E+05 2.23578E-06
 -1      1929-8.51308E-06 1.81837E+05 2.22972E-08
 -1      1931-9.02708E-06 1.81837E+05 9.66891E-07
 -1      1932-8.55308E-06 1.41830E+05-7.69383E-06
 -1      1934-8.27922E-06 1.41830E+05-5.33296E-06
 -1      1935-7.33290E-06 7.50560E+04-9.44723E-06
 -1      1937-6.15693E-06 7.50560E+04-5.22585E-06
 -1      1938-7.39234E-06-1.21932E+04-4.33661E-06
 -1      1940-5.55285E-06-1.21932E+04-5.74138E-06
 -1      1941-4.37221E-06-1.11765E+05-6.10584E-06
 -1      1943-3.28595E-06-1.11765E+05-7.70501E-06
 -1      1944-5.64218E-06-2.15130E+05-5.64353E-06
 -1      1946-5.34013E-06-2.15130E+05-8.27408E-06
 -1      1947 4.81375E-06 5.07306E+04 5.58110E-06
 -1      1949 4.62275E-06 5.07306E+04 5.79867E-06
 -1      1950 1.02869E-06 1.15794E+05 1.06150E-05
 -1      1952 7.37004E-07 1.15794E+05 1.10359E-05
 -1      1953 6.24648E-07 1.85621E+05 1.15223E-06
 -1      1955 5.72763E-07 1.85621E+05 1.30022E-06
 -1      1956-1.09169E-06 2.46283E+05-3.63377E-06
 -1      1958-8.65183E-07 2.46283E+05-4.61410E-06
 -1      1959-4.21847E-06 2.87639E+05 1.36739E-06
 -1      1961-4.25879E-06 2.87639E+05-1.44914E-07
 -1      1962-3.49815E-06 3.02045E+05 3.80493E-06
 -1      1964-3.62016E-06 3.02045E+05 3.14298E-06
 -1      1965-6.86896E-06 2.86292E+05 6.69054E-06
 -1      1967-6.80502E-06 2.86292E+05 8.57697E-06
 -1      1968-1.03655E-05 2.41241E+05 1.56710E-06
 -1      1970-9.93284E-06 2.41241E+05 5.21451E-06
 -1      1971-6.99521E-06 1.71911E+05 3.07336E-08
 -1      1973-7.63214E-06 1.71911E+05 7.90977E-07
 -1      1974-7.67579E-06 8.65618E+04 1.59755E-06
 -1      1976-8.11743E-06 8.65618E+04 1.16081E-06
 -1      1977-8.57436E-06-4.35313E+03-2.29702E-08
 -1      1979-8.08870E-06-4.35313E+03-2.26028E-06
 -1      1980-4.80348E-06-8.96463E+04 1.88025E-07
 -1      1982-4.08533E-06-8.96463E+04-1.06724E-07
 -1      1983-8.06800E-07-1.58860E+05-4.70348E-06
 -1      1985-5.57309E-07-1.58860E+05-5.24976E-06
 -1      1986 3.98438E-06-2.03667E+05-1.27764E-05
 -1      1988 3.45374E-06-2.03667E+05-1.03160E-05
 -1      1989 1.02187E-05-2.18964E+05-7.04840E-06
 -1      1991 9.76866E-06-2.18964E+05-6.10182E-06
 -1      1992 1.05062E-05-2.03544E+05 3.05807E-06
 -1      1994 1.02731E-05-2.03544E+05 2.03859E-06
 -1      1995 2.83764E-06-1.60260E+05 4.87399E-06
 -1      1997 2.58516E-06-1.60260E+05 6.91106E-06
 -1      1998-3.78627E-06-9.56457E+04 8.75587E-06
 -1      2000-4.14870E-06-9.56457E+04 1.16571E-05
 -1      2001 1.68712E-06-1.90702E+04 7.28316E-06
 -1      2003 1.54571E-06-1.90702E+04 8.57900E-06
 -1      2004 4.97869E-06 5.84906E+04 2.93820E-06
 -1      2006 5.09444E-06 5.84906E+04 4.92364E-06
 -1      2007-7.19030E-07 1.25877E+05 5.36566E-06
 -1      2009-8.89213E-07 1.25877E+05-3.09665E-07
 -1      2010-3.71086E-06 1.73189E+05 3.05049E-06
 -1      2012-3.24805E-06 1.73189E+05 3.67868E-07
 -1      2013-3.12320E-06 1.93048E+05 4.09438E-06
 -1      2015-3.20648E-06 1.93048E+05 2.75621E-06
 -1      2016-6.46139E-06 1.81518E+05 7.87781E-06
 -1      2018-6.58501E-06 1.81518E+05 9.33533E-06
 -1      2019-9.32095E-06 1.38539E+05 6.54392E-06
 -1      2021-9.05167E-06 1.38539E+05 1.11730E-05
 -1      2022-8.59239E-06 6.78329E+04 7.68200E-06
 -1      2024-8.42530E-06 6.78329E+04 8.11358E-06
 -1      2025-6.98276E-06-2.37632E+04 9.60741E-06
 -1      2027-6.25939E-06-2.37632E+04 1.13788E-05
 -1      2028-3.72329E-06-1.27380E+05 8.65196E-06
 -1      2030-2.66405E-06-1.27380E+05 8.75962E-06
 -1      2031-4.60817E-06-2.33685E+05 2.57415E-06
 -1      2033-5.28164E-06-2.33685E+05-2.05148E-06
 -1      2034-9.94945E-06 4.34380E+04 9.57160E-06
 -1      2036-1.00021E-05 4.34380E+04 9.83739E-06
 -1      2037-9.35960E-06 1.00804E+05 1.00035E-05
 -1      2039-9.32799E-06 1.00804E+05 9.90033E-06
 -1      2040 1.15004E-06 1.63670E+05-3.41990E-06
 -1      2042 1.46075E-06 1.63670E+05-3.78114E-06
 -1      2043 3.66426E-06 2.18786E+05-1.02583E-05
 -1      2045 3.49228E-06 2.18786E+05-1.07778E-05
 -1      2046 7.91350E-07 2.56362E+05-3.05104E-06
 -1      2048 1.05267E-06 2.56362E+05-3.23433E-06
 -1      2049-8.04908E-07 2.69110E+05-1.04414E-06
 -1      2051-4.14935E-07 2.69110E+05-7.32193E-07
 -1      2052-6.65436E-06 2.53906E+05 4.95514E-06
 -1      2054-6.47556E-06 2.53906E+05 5.07937E-06
 -1      2055-8.45613E-06 2.11513E+05 1.14494E-05
 -1      2057-8.55828E-06 2.11513E+05 1.15623E-05
 -1      2058-4.64432E-06 1.46612E+05 5.47137E-06
 -1      2060-4.72296E-06 1.46612E+05 6.50261E-06
 -1      2061-1.13020E-05 6.69575E+04-2.59825E-06
 -1      2063-1.14561E-05 6.69575E+04-2.71208E-06
 -1      2064-1.33443E-05-1.76282E+04-4.56618E-06
 -1      2066-1.27943E-05-1.76282E+04-5.61328E-06
 -1      2067-2.32429E-06-9.66289E+04-9.98125E-07
 -1      2069-1.01992E-06-9.66289E+04-1.91492E-06
 -1      2070 2.75784E-06-1.60219E+05-1.23331E-06
 -1      2072 2.01467E-06-1.60219E+05-1.78679E-06
 -1      2073 6.40272E-07-2.00586E+05-8.14849E-06
 -1      2075-1.07059E-06-2.00586E+05-4.27537E-06
 -1      2076-4.48286E-06-2.12957E+05-5.47884E-06
 -1      2078-4.81669E-06-2.12957E+05-2.93038E-06
 -1      2079-8.08640E-06-1.96243E+05 6.31794E-06
 -1      2081-9.31782E-06-1.96243E+05 5.03599E-06
 -1      2082-1.13438E-05-1.53180E+05 1.30349E-05
 -1      2084-1.17962E-05-1.53180E+05 1.21856E-05
 -1      2085-1.17737E-05-8.99875E+04 8.15902E-06
 -1      2087-1.18877E-05-8.99875E+04 1.24065E-05
 -1      2088-2.37634E-06-1.55544E+04 1.65807E-06
 -1      2090-2.62495E-06-1.55544E+04 2.46221E-06
 -1      2091 3.70251E-06 5.97077E+04-7.99404E-06
 -1      2093 3.18000E-06 5.97077E+04-6.92613E-06
 -1      2094 4.52190E-06 1.25210E+05-6.20978E-06
 -1      2096 4.72092E-06 1.25210E+05-7.01743E-06
 -1      2097 9.21666E-06 1.71549E+05 2.38707E-06
 -1      2099 9.36306E-06 1.71549E+05 3.73432E-06
 -1      2100 8.96347E-06 1.91691E+05 5.00441E-06
 -1      2102 8.67739E-06 1.91691E+05 4.68405E-06
 -1      2103-3.11347E-07 1.81837E+05 7.82975E-06
 -1      2105-1.96642E-07 1.81837E+05 5.44462E-06
 -1      2106-4.75692E-06 1.41830E+05 3.87399E-06
 -1      2108-4.55588E-06 1.41830E+05 3.77575E-06
 -1      2109-3.69645E-06 7.50560E+04 2.75344E-06
 -1      2111-3.86500E-06 7.50560E+04 6.30787E-06
 -1      2112-1.33616E-06-1.21932E+04 1.00688E-05
 -1      2114-9.42268E-07-1.21932E+04 1.37923E-05
 -1      2115 5.84580E-06-1.11765E+05 8.26421E-06
 -1      2117 5.76524E-06-1.11765E+05 1.14894E-05
 -1      2118 7.00600E-06-2.15130E+05 4.46668E-06
 -1      2120 6.38169E-06-2.15130E+05 5.79319E-06
 -1      2121 6.98438E+03 1.88205E+04-6.58548E+03
 -1      2123 6.98438E+03 1.88205E+04-6.58548E+03
 -1      2124 1.13195E+04 4.59160E+04-1.37919E+04
 -1      2126 1.13195E+04 4.59160E+04-1.37919E+04
 -1      2127 1.20775E+04 7.80099E+04-2.04012E+04
 -1      2129 1.20775E+04 7.80099E+04-2.04012E+04
 -1      2130 9.71529E+03 1.07156E+05-2.58273E+04
 -1      2132 9.71529E+03 1.07156E+05-2.58273E+04
 -1      2133 5.01007E+03 1.26944E+05-2.99151E+04
 -1      2135 5.01007E+03 1.26944E+05-2.99151E+04
 -1      2136-1.12147E+03 1.32897E+05-3.23981E+04
 -1      2138-1.12147E+03 1.32897E+05-3.23981E+04
 -1      2139-7.63999E+03 1.22934E+05-3.32256E+04
 -1      2141-7.63999E+03 1.22934E+05-3.32256E+04
 -1      2142-1.35294E+04 9.74411E+04-3.24286E+04
 -1      2144-1.35294E+04 9.74411E+04-3.24286E+04
 -1      2145-1.78946E+04 5.91408E+04-3.01862E+04
 -1      2147-1.78946E+04 5.91408E+04-3.01862E+04
 -1      2148-2.00753E+04 1.26441E+04-2.67715E+04
 -1      2150-2.00753E+04 1.26441E+04-2.67715E+04
 -1      2151-1.97191E+04-3.62018E+04-2.25358E+04
 -1      2153-1.97191E+04-3.62018E+04-2.25358E+04
 -1      2154-1.68236E+04-8.11240E+04-1.78601E+04
 -1      2156-1.68236E+04-8.11240E+04-1.78601E+04
 -1      2157-1.17319E+04-1.16274E+05-1.31154E+04
 -1      2159-1.17319E+04-1.16274E+05-1.31154E+04
 -1      2160-5.08520E+03-1.37020E+05-8.62006E+03
 -1      2162-5.08520E+03-1.37020E+05-8.62006E+03
 -1      2163 2.26303E+03-1.40570E+05-4.60775E+03
 -1      2165 2.26303E+03-1.40570E+05-4.60775E+03
 -1      2166 9.35951E+03-1.26356E+05-1.20633E+03
 -1      2168 9.35951E+03-1.26356E+05-1.20633E+03
 -1      2169 1.52762E+04-9.61247E+04 1.56821E+03
 -1      2171 1.52762E+04-9.61247E+04 1.56821E+03
 -1      2172 1.92312E+04-5.37260E+04 3.80274E+03
 -1      2174 1.92312E+04-5.37260E+04 3.80274E+03
 -1      2175 2.06902E+04-4.62564E+03 5.66405E+03
 -1      2177 2.06902E+04-4.62564E+03 5.66405E+03
 -1      2178 1.94340E+04 4.47879E+04 7.36529E+03
 -1      2180 1.94340E+04 4.47879E+04 7.36529E+03
 -1      2181 1.55848E+04 8.80134E+04 9.12642E+03
 -1      2183 1.55848E+04 8.80134E+04 9.12642E+03
 -1      2184 9.58498E+03 1.19254E+05 1.11339E+04
 -1      2186 9.58498E+03 1.19254E+05 1.11339E+04
 -1      2187 2.13348E+03 1.34132E+05 1.35056E+04
 -1      2189 2.13348E+03 1.34132E+05 1.35056E+04
 -1      2190-5.91513E+03 1.30198E+05 1.62644E+04
 -1      2192-5.91513E+03 1.30198E+05 1.62644E+04
 -1      2193-1.36753E+04 1.07176E+05 1.93271E+04
 -1      2195-1.36753E+04 1.07176E+05 1.93271E+04
 -1      2196-2.03644E+04 6.68780E+04 2.25041E+04
 -1      2198-2.03644E+04 6.68780E+04 2.25041E+04
 -1      2199-2.54307E+04 1.28130E+04 2.55223E+04
 -1      2201-2.54307E+04 1.28130E+04 2.55223E+04
 -1      2202-2.86629E+04-5.04873E+04 2.80466E+04
 -1      2204-2.86629E+04-5.04873E+04 2.80466E+04
 -1      2205-3.02615E+04-1.18385E+05 2.97474E+04
 -1      2207-3.02615E+04-1.18385E+05 2.97474E+04
 -1      2208-6.98438E+03 1.88205E+04 6.58548E+03
 -1      2210-6.98438E+03 1.88205E+04 6.58548E+03
 -1      2211-1.13195E+04 4.59160E+04 1.37919E+04
 -1      2213-1.13195E+04 4.59160E+04 1.37919E+04
 -1      2214-1.20775E+04 7.80099E+04 2.04012E+04
 -1      2216-1.20775E+04 7.80099E+04 2.04012E+04
 -1      2217-9.71529E+03 1.07156E+05 2.58273E+04
 -1      2219-9.71529E+03 1.07156E+05 2.58273E+04
 -1      2220-5.01007E+03 1.26944E+05 2.99151E+04
 -1      2222-5.01007E+03 1.26944E+05 2.99151E+04
 -1      2223 1.12147E+03 1.32897E+05 3.23981E+04
 -1      2225 1.12147E+03 1.32897E+05 3.23981E+04
 -1      2226 7.63999E+03 1.22934E+05 3.32256E+04
 -1      2228 7.63999E+03 1.22934E+05 3.32256E+04
 -1      2229 1.35294E+04 9.74411E+04 3.24286E+04
 -1      2231 1.35294E+04 9.74411E+04 3.24286E+04
 -1      2232 1.78946E+04 5.91408E+04 3.01862E+04
 -1      2234 1.78946E+04 5.91408E+04 3.01862E+04
 -1      2235 2.00753E+04 1.26441E+04 2.67715E+04
 -1      2237 2.00753E+04 1.26441E+04 2.67715E+04
 -1      2238 1.97191E+04-3.62018E+04 2.25358E+04
 -1      2240 1.97191E+04-3.62018E+04 2.25358E+04
 -1      2241 1.68236E+04-8.11240E+04 1.78601E+04
 -1      2243 1.68236E+04-8.11240E+04 1.78601E+04
 -1      2244 1.17319E+04-1.16274E+05 1.31154E+04
 -1      2246 1.17319E+04-1.16274E+05 1.31154E+04
 -1      2247 5.08520E+03-1.37020E+05 8.62006E+03
 -1      2249 5.08520E+03-1.37020E+05 8.62006E+03
 -1      2250-2.26303E+03-1.40570E+05 4.60775E+03
 -1      2252-2.26303E+03-1.40570E+05 4.60775E+03
 -1      2253-9.35951E+03-1.26356E+05 1.20633E+03
 -1      2255-9.35951E+03-1.26356E+05 1.20633E+03
 -1      2256-1.52762E+04-9.61247E+04-1.56821E+03
 -1      2258-1.52762E+04-9.61247E+04-1.56821E+03
 -1      2259-1.92312E+04-5.37260E+04-3.80274E+03
 -1      2261-1.92312E+04-5.37260E+04-3.80274E+03
 -1      2262-2.06902E+04-4.62564E+03-5.66405E+03
 -1      2264-2.06902E+04-4.62564E+03-5.66405E+03
 -1      2265-1.94340E+04 4.47879E+04-7.36529E+03
 -1      2267-1.94340E+04 4.47879E+04-7.36529E+03
 -1      2268-1.55848E+04 8.80134E+04-9.12642E+03
 -1      2270-1.55848E+04 8.80134E+04-9.12642E+03
 -1      2271-9.58498E+03 1.19254E+05-1.11339E+04
 -1      2273-9.58498E+03 1.19254E+05-1.11339E+04
 -1      2274-2.13348E+03 1.34132E+05-1.35056E+04
 -1      2276-2.13348E+03 1.34132E+05-1.35056E+04
 -1      2277 5.91513E+03 1.30198E+05-1.62644E+04
 -1      2279 5.91513E+03 1.30198E+05-1.62644E+04
 -1      2280 1.36753E+04 1.07176E+05-1.93271E+04
 -1      2282 1.36753E+04 1.07176E+05-1.93271E+04
 -1      2283 2.03644E+04 6.68780E+04-2.25041E+04
 -1      2285 2.03644E+04 6.68780E+04-2.25041E+04
 -1      2286 2.54307E+04 1.28130E+04-2.55223E+04
 -1      2288 2.54307E+04 1.28130E+04-2.55223E+04
 -1      2289 2.86629E+04-5.04873E+04-2.80466E+04
 -1      2291 2.86629E+04-5.04873E+04-2.80466E+04
 -1      2292 3.02615E+04-1.18385E+05-2.97474E+04
 -1      2294 3.02615E+04-1.18385E+05-2.97474E+04
 -3
    1PSTEP                        40           1           1          
    1PGM                1.000000E+00                                  
    1PGK                6.352517E+06                                  
    1PHID                         -1                                  
    1PSUBC                         0                                  
    1PMODE                        10                                  
  100CL  110 401.1372984         930                     2   10MODAL      1
 -4  ERROR       1    1
 -5  STR(%)      1    1    0    0
 -1       404 0.00000E+00
 -1       406 0.00000E+00
 -1       407 0.00000E+00
 -1       409 0.00000E+00
 -1       410 0.00000E+00
 -1       412 0.00000E+00
 -1       413 0.00000E+00
 -1       415 0.00000E+00
 -1       424 0.00000E+00
 -1       426 0.00000E+00
 -1       427 0.00000E+00
 -1       429 0.00000E+00
 -1       438 0.00000E+00
 -1       440 0.00000E+00
 -1       441 0.00000E+00
 -1       443 0.00000E+00
 -1       444 0.00000E+00
 -1       446 0.00000E+00
 -1       447 0.00000E+00
 -1       449 0.00000E+00
 -1       458 0.00000E+00
 -1       460 0.00000E+00
 -1       461 0.00000E+00
 -1       463 0.00000E+00
 -1       472 0.00000E+00
 -1       474 0.00000E+00
 -1       475 0.00000E+00
 -1       477 0.00000E+00
 -1       478 0.00000E+00
 -1       480 0.00000E+00
 -1       481 0.00000E+00
 -1       483 0.00000E+00
 -1       484 0.00000E+00
 -1       486 0.00000E+00
 -1       487 0.00000E+00
 -1       489 0.00000E+00
 -1       490 0.00000E+00
 -1       492 0.00000E+00
 -1       493 0.00000E+00
 -1       495 0.00000E+00
 -1       496 0.00000E+00
 -1       498 0.00000E+00
 -1       499 0.00000E+00
 -1       501 0.00000E+00
 -1       502 0.00000E+00
 -1       504 0.00000E+00
 -1       505 0.00000E+00
 -1       507 0.00000E+00
 -1       508 0.00000E+00
 -1       510 0.00000E+00
 -1       511 0.00000E+00
 -1       513 0.00000E+00
 -1       514 0.00000E+00
 -1       516 0.00000E+00
 -1       517 0.00000E+00
 -1       519 0.00000E+00
 -1       520 0.00000E+00
 -1       522 0.00000E+00
 -1       523 0.00000E+00
 -1       525 0.00000E+00
 -1       526 0.00000E+00
 -1       528 0.00000E+00
 -1       529 0.00000E+00
 -1       531 0.00000E+00
 -1       532 0.00000E+00
 -1       534 0.00000E+00
 -1       535 0.00000E+00
 -1       537 0.00000E+00
 -1       538 0.00000E+00
 -1       540 0.00000E+00
 -1       541 0.00000E+00
 -1       543 0.00000E+00
 -1       544 0.00000E+00
 -1       546 0.00000E+00
 -1       547 0.00000E+00
 -1       549 0.00000E+00
 -1       550 0.00000E+00
 -1       552 0.00000E+00
 -1       553 0.00000E+00
 -1       555 0.00000E+00
 -1       556 0.00000E+00
 -1       558 0.00000E+00
 -1       559 0.00000E+00
 -1       561 0.00000E+00
 -1       562 0.00000E+00
 -1       564 0.00000E+00
 -1       565 0.00000E+00
 -1       567 0.00000E+00
 -1       568 0.00000E+00
 -1       570 0.00000E+00
 -1       571 0.00000E+00
 -1       573 0.00000E+00
 -1       574 0.00000E+00
 -1       576 0.00000E+00
 -1       577 0.00000E+00
 -1       579 0.00000E+00
 -1       588 0.00000E+00
 -1       590 0.00000E+00
 -1       591 0.00000E+00
 -1       593 0.00000E+00
 -1       602 0.00000E+00
 -1       604 0.00000E+00
 -1       605 0.00000E+00
 -1       607 0.00000E+00
 -1       616 0.00000E+00
 -1       618 0.00000E+00
 -1       619 0.00000E+00
 -1       621 0.00000E+00
 -1       630 0.00000E+00
 -1       632 0.00000E+00
 -1       633 0.00000E+00
 -1       635 0.00000E+00
 -1       644 0.00000E+00
 -1       646 0.00000E+00
 -1       647 0.00000E+00
 -1       649 0.00000E+00
 -1       658 0.00000E+00
 -1       660 0.00000E+00
 -1       661 0.00000E+00
 -1       663 0.00000E+00
 -1       672 0.00000E+00
 -1       674 0.00000E+00
 -1       675 0.00000E+00
 -1       677 0.00000E+00
 -1       686 0.00000E+00
 -1       688 0.00000E+00
 -1       689 0.00000E+00
 -1       691 0.00000E+00
 -1       700 0.00000E+00
 -1       702 0.00000E+00
 -1       703 0.00000E+00
 -1       705 0.00000E+00
 -1       714 0.00000E+00
 -1       716 0.00000E+00
 -1       717 0.00000E+00
 -1       719 0.00000E+00
 -1       728 0.00000E+00
 -1       730 0.00000E+00
 -1       731 0.00000E+00
 -1       733 0.00000E+00
 -1       742 0.00000E+00
 -1       744 0.00000E+00
 -1       745 0.00000E+00
 -1       747 0.00000E+00
 -1       756 0.00000E+00
 -1       758 0.00000E+00
 -1       759 0.00000E+00
 -1       761 0.00000E+00
 -1       770 0.00000E+00
 -1       772 0.00000E+00
 -1       773 0.00000E+00
 -1       775 0.00000E+00
 -1       784 0.00000E+00
 -1       786 0.00000E+00
 -1       787 0.00000E+00
 -1       789 0.00000E+00
 -1       798 0.00000E+00
 -1       800 0.00000E+00
 -1       801 0.00000E+00
 -1       803 0.00000E+00
 -1       812 0.00000E+00
 -1       814 0.00000E+00
 -1       815 0.00000E+00
 -1       817 0.00000E+00
 -1       826 0.00000E+00
 -1       828 0.00000E+00
 -1       829 0.00000E+00
 -1       831 0.00000E+00
 -1       840 0.00000E+00
 -1       842 0.00000E+00
 -1       843 0.00000E+00
 -1       845 0.00000E+00
 -1       854 0.00000E+00
 -1       856 0.00000E+00
 -1       857 0.00000E+00
 -1       859 0.00000E+00
 -1       868 0.00000E+00
 -1       870 0.00000E+00
 -1       871 0.00000E+00
 -1       873 0.00000E+00
 -1       882 0.00000E+00
 -1       884 0.00000E+00
 -1       885 0.00000E+00
 -1       887 0.00000E+00
 -1       896 0.00000E+00
 -1       898 0.00000E+00
 -1       899 0.00000E+00
 -1       901 0.00000E+00
 -1       910 0.00000E+00
 -1       912 0.00000E+00
 -1       913 0.00000E+00
 -1       915 0.00000E+00
 -1       924 0.00000E+00
 -1       926 0.00000E+00
 -1       927 0.00000E+00
 -1       929 0.00000E+00
 -1       938 0.00000E+00
 -1       940 0.00000E+00
 -1       941 0.00000E+00
 -1       943 0.00000E+00
 -1       952 0.00000E+00
 -1       954 0.00000E+00
 -1       955 0.00000E+00
 -1       957 0.00000E+00
 -1       966 0.00000E+00
 -1       968 0.00000E+00
 -1       969 0.00000E+00
 -1       971 0.00000E+00
 -1       980 0.00000E+00
 -1       982 0.00000E+00
 -1       983 0.00000E+00
 -1       985 0.00000E+00
 -1       986 0.00000E+00
 -1       988 0.00000E+00
 -1       989 0.00000E+00
 -1       991 0.00000E+00
 -1       992 0.00000E+00
 -1       994 0.00000E+00
 -1       995 0.00000E+00
 -1       997 0.00000E+00
 -1       998 0.00000E+00
 -1      1000 0.00000E+00
 -1      1001 0.00000E+00
 -1      1003 0.00000E+00
 -1      1004 0.00000E+00
 -1      1006 0.00000E+00
 -1      1007 0.00000E+00
 -1      1009 0.00000E+00
 -1      1010 0.00000E+00
 -1      1012 0.00000E+00
 -1      1013 0.00000E+00
 -1      1015 0.00000E+00
 -1      1016 0.00000E+00
 -1      1018 0.00000E+00
 -1      1019 0.00000E+00
 -1      1021 0.00000E+00
 -1      1022 0.00000E+00
 -1      1024 0.00000E+00
 -1      1025 0.00000E+00
 -1      1027 0.00000E+00
 -1      1028 0.00000E+00
 -1      1030 0.00000E+00
 -1      1031 0.00000E+00
 -1      1033 0.00000E+00
 -1      1034 0.00000E+00
 -1      1036 0.00000E+00
 -1      1037 0.00000E+00
 -1      1039 0.00000E+00
 -1      1040 0.00000E+00
 -1      1042 0.00000E+00
 -1      1043 0.00000E+00
 -1      1045 0.00000E+00
 -1      1046 0.00000E+00
 -1      1048 0.00000E+00
 -1      1049 0.00000E+00
 -1      1051 0.00000E+00
 -1      1052 0.00000E+00
 -1      1054 0.00000E+00
 -1      1055 0.00000E+00
 -1      1057 0.00000E+00
 -1      1058 0.00000E+00
 -1      1060 0.00000E+00
 -1      1061 0.00000E+00
 -1      1063 0.00000E+00
 -1      1064 0.00000E+00
 -1      1066 0.00000E+00
 -1      1067 0.00000E+00
 -1      1069 0.00000E+00
 -1      1070 0.00000E+00
 -1      1072 0.00000E+00
 -1      1073 0.00000E+00
 -1      1075 0.00000E+00
 -1      1076 0.00000E+00
 -1      1078 0.00000E+00
 -1      1079 0.00000E+00
 -1      1081 0.00000E+00
 -1      1082 0.00000E+00
 -1      1084 0.00000E+00
 -1      1085 0.00000E+00
 -1      1087 0.00000E+00
 -1      1088 0.00000E+00
 -1      1090 0.00000E+00
 -1      1099 0.00000E+00
 -1      1101 0.00000E+00
 -1      1102 0.00000E+00
 -1      1104 0.00000E+00
 -1      1113 0.00000E+00
 -1      1115 0.00000E+00
 -1      1116 0.00000E+00
 -1      1118 0.00000E+00
 -1      1127 0.00000E+00
 -1      1129 0.00000E+00
 -1      1130 0.00000E+00
 -1      1132 0.00000E+00
 -1      1141 0.00000E+00
 -1      1143 0.00000E+00
 -1      1144 0.00000E+00
 -1      1146 0.00000E+00
 -1      1155 0.00000E+00
 -1      1157 0.00000E+00
 -1      1158 0.00000E+00
 -1      1160 0.00000E+00
 -1      1169 0.00000E+00
 -1      1171 0.00000E+00
 -1      1172 0.00000E+00
 -1      1174 0.00000E+00
 -1      1183 0.00000E+00
 -1      1185 0.00000E+00
 -1      1186 0.00000E+00
 -1      1188 0.00000E+00
 -1      1197 0.00000E+00
 -1      1199 0.00000E+00
 -1      1200 0.00000E+00
 -1      1202 0.00000E+00
 -1      1211 0.00000E+00
 -1      1213 0.00000E+00
 -1      1214 0.00000E+00
 -1      1216 0.00000E+00
 -1      1225 0.00000E+00
 -1      1227 0.00000E+00
 -1      1228 0.00000E+00
 -1      1230 0.00000E+00
 -1      1239 0.00000E+00
 -1      1241 0.00000E+00
 -1      1242 0.00000E+00
 -1      1244 0.00000E+00
 -1      1253 0.00000E+00
 -1      1255 0.00000E+00
 -1      1256 0.00000E+00
 -1      1258 0.00000E+00
 -1      1267 0.00000E+00
 -1      1269 0.00000E+00
 -1      1270 0.00000E+00
 -1      1272 0.00000E+00
 -1      1281 0.00000E+00
 -1      1283 0.00000E+00
 -1      1284 0.00000E+00
 -1      1286 0.00000E+00
 -1      1295 0.00000E+00
 -1      1297 0.00000E+00
 -1      1298 0.00000E+00
 -1      1300 0.00000E+00
 -1      1309 0.00000E+00
 -1      1311 0.00000E+00
 -1      1312 0.00000E+00
 -1      1314 0.00000E+00
 -1      1323 0.00000E+00
 -1      1325 0.00000E+00
 -1      1326 0.00000E+00
 -1      1328 0.00000E+00
 -1      1337 0.00000E+00
 -1      1339 0.00000E+00
 -1      1340 0.00000E+00
 -1      1342 0.00000E+00
 -1      1351 0.00000E+00
 -1      1353 0.00000E+00
 -1      1354 0.00000E+00
 -1      1356 0.00000E+00
 -1      1365 0.00000E+00
 -1      1367 0.00000E+00
 -1      1368 0.00000E+00
 -1      1370 0.00000E+00
 -1      1379 0.00000E+00
 -1      1381 0.00000E+00
 -1      1382 0.00000E+00
 -1      1384 0.00000E+00
 -1      1393 0.00000E+00
 -1      1395 0.00000E+00
 -1      1396 0.00000E+00
 -1      1398 0.00000E+00
 -1      1407 0.00000E+00
 -1      1409 0.00000E+00
 -1      1410 0.00000E+00
 -1      1412 0.00000E+00
 -1      1421 0.00000E+00
 -1      1423 0.00000E+00
 -1      1424 0.00000E+00
 -1      1426 0.00000E+00
 -1      1435 0.00000E+00
 -1      1437 0.00000E+00
 -1      1438 0.00000E+00
 -1      1440 0.00000E+00
 -1      1449 0.00000E+00
 -1      1451 0.00000E+00
 -1      1452 0.00000E+00
 -1      1454 0.00000E+00
 -1      1463 0.00000E+00
 -1      1465 0.00000E+00
 -1      1466 0.00000E+00
 -1      1468 0.00000E+00
 -1      1477 0.00000E+00
 -1      1479 0.00000E+00
 -1      1480 0.00000E+00
 -1      1482 0.00000E+00
 -1      1491 0.00000E+00
 -1      1493 0.00000E+00
 -1      1494 0.00000E+00
 -1      1496 0.00000E+00
 -1      1497 0.00000E+00
 -1      1499 0.00000E+00
 -1      1500 0.00000E+00
 -1      1502 0.00000E+00
 -1      1503 0.00000E+00
 -1      1505 0.00000E+00
 -1      1506 0.00000E+00
 -1      1508 0.00000E+00
 -1      1509 0.00000E+00
 -1      1511 0.00000E+00
 -1      1512 0.00000E+00
 -1      1514 0.00000E+00
 -1      1515 0.00000E+00
 -1      1517 0.00000E+00
 -1      1518 0.00000E+00
 -1      1520 0.00000E+00
 -1      1521 0.00000E+00
 -1      1523 0.00000E+00
 -1      1524 0.00000E+00
 -1      1526 0.00000E+00
 -1      1527 0.00000E+00
 -1      1529 0.00000E+00
 -1      1530 0.00000E+00
 -1      1532 0.00000E+00
 -1      1533 0.00000E+00
 -1      1535 0.00000E+00
 -1      1536 0.00000E+00
 -1      1538 0.00000E+00
 -1      1539 0.00000E+00
 -1      1541 0.00000E+00
 -1      1542 0.00000E+00
 -1      1544 0.00000E+00
 -1      1545 0.00000E+00
 -1      1547 0.00000E+00
 -1      1548 0.00000E+00
 -1      1550 0.00000E+00
 -1      1551 0.00000E+00
 -1      1553 0.00000E+00
 -1      1554 0.00000E+00
 -1      1556 0.00000E+00
 -1      1557 0.00000E+00
 -1      1559 0.00000E+00
 -1      1560 0.00000E+00
 -1      1562 0.00000E+00
 -1      1563 0.00000E+00
 -1      1565 0.00000E+00
 -1      1566 0.00000E+00
 -1      1568 0.00000E+00
 -1      1569 0.00000E+00
 -1      1571 0.00000E+00
 -1      1572 0.00000E+00
 -1      1574 0.00000E+00
 -1      1575 0.00000E+00
 -1      1577 0.00000E+00
 -1      1578 0.00000E+00
 -1      1580 0.00000E+00
 -1      1581 0.00000E+00
 -1      1583 0.00000E+00
 -1      1584 0.00000E+00
 -1      1586 0.00000E+00
 -1      1587 0.00000E+00
 -1      1589 0.00000E+00
 -1      1590 0.00000E+00
 -1      1592 0.00000E+00
 -1      1593 0.00000E+00
 -1      1595 0.00000E+00
 -1      1596 0.00000E+00
 -1      1598 0.00000E+00
 -1      1599 0.00000E+00
 -1      1601 0.00000E+00
 -1      1602 0.00000E+00
 -1      1604 0.00000E+00
 -1      1605 0.00000E+00
 -1      1607 0.00000E+00
 -1      1608 0.00000E+00
 -1      1610 0.00000E+00
 -1      1611 0.00000E+00
 -1      1613 0.00000E+00
 -1      1614 0.00000E+00
 -1      1616 0.00000E+00
 -1      1617 0.00000E+00
 -1      1619 0.00000E+00
 -1      1620 0.00000E+00
 -1      1622 0.00000E+00
 -1      1623 0.00000E+00
 -1      1625 0.00000E+00
 -1      1626 0.00000E+00
 -1      1628 0.00000E+00
 -1      1629 0.00000E+00
 -1      1631 0.00000E+00
 -1      1632 0.00000E+00
 -1      1634 0.00000E+00
 -1      1635 0.00000E+00
 -1      1637 0.00000E+00
 -1      1638 0.00000E+00
 -1      1640 0.00000E+00
 -1      1641 0.00000E+00
 -1      1643 0.00000E+00
 -1      1644 0.00000E+00
 -1      1646 0.00000E+00
 -1      1647 0.00000E+00
 -1      1649 0.00000E+00
 -1      1650 0.00000E+00
 -1      1652 0.00000E+00
 -1      1653 0.00000E+00
 -1      1655 0.00000E+00
 -1      1656 0.00000E+00
 -1      1658 0.00000E+00
 -1      1659 0.00000E+00
 -1      1661 0.00000E+00
 -1      1662 0.00000E+00
 -1      1664 0.00000E+00
 -1      1665 0.00000E+00
 -1      1667 0.00000E+00
 -1      1668 0.00000E+00
 -1      1670 0.00000E+00
 -1      1671 0.00000E+00
 -1      1673 0.00000E+00
 -1      1674 0.00000E+00
 -1      1676 0.00000E+00
 -1      1677 0.00000E+00
 -1      1679 0.00000E+00
 -1      1680 0.00000E+00
 -1      1682 0.00000E+00
 -1      1683 0.00000E+00
 -1      1685 0.00000E+00
 -1      1686 0.00000E+00
 -1      1688 0.00000E+00
 -1      1689 0.00000E+00
 -1      1691 0.00000E+00
 -1      1692 0.00000E+00
 -1      1694 0.00000E+00
 -1      1695 0.00000E+00
 -1      1697 0.00000E+00
 -1      1698 0.00000E+00
 -1      1700 0.00000E+00
 -1      1701 0.00000E+00
 -1      1703 0.00000E+00
 -1      1704 0.00000E+00
 -1      1706 0.00000E+00
 -1      1707 0.00000E+00
 -1      1709 0.00000E+00
 -1      1710 0.00000E+00
 -1      1712 0.00000E+00
 -1      1713 0.00000E+00
 -1      1715 0.00000E+00
 -1      1716 0.00000E+00
 -1      1718 0.00000E+00
 -1      1719 0.00000E+00
 -1      1721 0.00000E+00
 -1      1722 0.00000E+00
 -1      1724 0.00000E+00
 -1      1725 0.00000E+00
 -1      1727 0.00000E+00
 -1      1728 0.00000E+00
 -1      1730 0.00000E+00
 -1      1731 0.00000E+00
 -1      1733 0.00000E+00
 -1      1734 0.00000E+00
 -1      1736 0.00000E+00
 -1      1737 0.00000E+00
 -1      1739 0.00000E+00
 -1      1740 0.00000E+00
 -1      1742 0.00000E+00
 -1      1743 0.00000E+00
 -1      1745 0.00000E+00
 -1      1746 0.00000E+00
 -1      1748 0.00000E+00
 -1      1749 0.00000E+00
 -1      1751 0.00000E+00
 -1      1752 0.00000E+00
 -1      1754 0.00000E+00
 -1      1755 0.00000E+00
 -1      1757 0.00000E+00
 -1      1758 0.00000E+00
 -1      1760 0.00000E+00
 -1      1761 0.00000E+00
 -1      1763 0.00000E+00
 -1      1764 0.00000E+00
 -1      1766 0.00000E+00
 -1      1767 0.00000E+00
 -1      1769 0.00000E+00
 -1      1770 0.00000E+00
 -1      1772 0.00000E+00
 -1      1773 0.00000E+00
 -1      1775 0.00000E+00
 -1      1776 0.00000E+00
 -1      1778 0.00000E+00
 -1      1779 0.00000E+00
 -1      1781 0.00000E+00
 -1      1782 0.00000E+00
 -1      1784 0.00000E+00
 -1      1785 0.00000E+00
 -1      1787 0.00000E+00
 -1      1788 0.00000E+00
 -1      1790 0.00000E+00
 -1      1791 0.00000E+00
 -1      1793 0.00000E+00
 -1      1794 0.00000E+00
 -1      1796 0.00000E+00
 -1      1797 0.00000E+00
 -1      1799 0.00000E+00
 -1      1800 0.00000E+00
 -1      1802 0.00000E+00
 -1      1803 0.00000E+00
 -1      1805 0.00000E+00
 -1      1806 0.00000E+00
 -1      1808 0.00000E+00
 -1      1809 0.00000E+00
 -1      1811 0.00000E+00
 -1      1812 0.00000E+00
 -1      1814 0.00000E+00
 -1      1815 0.00000E+00
 -1      1817 0.00000E+00
 -1      1818 0.00000E+00
 -1      1820 0.00000E+00
 -1      1821 0.00000E+00
 -1      1823 0.00000E+00
 -1      1824 0.00000E+00
 -1      1826 0.00000E+00
 -1      1827 0.00000E+00
 -1      1829 0.00000E+00
 -1      1830 0.00000E+00
 -1      1832 0.00000E+00
 -1      1833 0.00000E+00
 -1      1835 0.00000E+00
 -1      1836 0.00000E+00
 -1      1838 0.00000E+00
 -1      1839 0.00000E+00
 -1      1841 0.00000E+00
 -1      1842 0.00000E+00
 -1      1844 0.00000E+00
 -1      1845 0.00000E+00
 -1      1847 0.00000E+00
 -1      1848 0.00000E+00
 -1      1850 0.00000E+00
 -1      1851 0.00000E+00
 -1      1853 0.00000E+00
 -1      1854 0.00000E+00
 -1      1856 0.00000E+00
 -1      1857 0.00000E+00
 -1      1859 0.00000E+00
 -1      1860 0.00000E+00
 -1      1862 0.00000E+00
 -1      1863 0.00000E+00
 -1      1865 0.00000E+00
 -1      1866 0.00000E+00
 -1      1868 0.00000E+00
 -1      1869 0.00000E+00
 -1      1871 0.00000E+00
 -1      1872 0.00000E+00
 -1      1874 0.00000E+00
 -1      1875 0.00000E+00
 -1      1877 0.00000E+00
 -1      1878 0.00000E+00
 -1      1880 0.00000E+00
 -1      1881 0.00000E+00
 -1      1883 0.00000E+00
 -1      1884 0.00000E+00
 -1      1886 0.00000E+00
 -1      1887 0.00000E+00
 -1      1889 0.00000E+00
 -1      1890 0.00000E+00
 -1      1892 0.00000E+00
 -1      1893 0.00000E+00
 -1      1895 0.00000E+00
 -1      1896 0.00000E+00
 -1      1898 0.00000E+00
 -1      1899 0.00000E+00
 -1      1901 0.00000E+00
 -1      1902 0.00000E+00
 -1      1904 0.00000E+00
 -1      1905 0.00000E+00
 -1      1907 0.00000E+00
 -1      1908 0.00000E+00
 -1      1910 0.00000E+00
 -1      1911 0.00000E+00
 -1      1913 0.00000E+00
 -1      1914 0.00000E+00
 -1      1916 0.00000E+00
 -1      1917 0.00000E+00
 -1      1919 0.00000E+00
 -1      1920 0.00000E+00
 -1      1922 0.00000E+00
 -1      1923 0.00000E+00
 -1      1925 0.00000E+00
 -1      1926 0.00000E+00
 -1      1928 0.00000E+00
 -1      1929 0.00000E+00
 -1      1931 0.00000E+00
 -1      1932 0.00000E+00
 -1      1934 0.00000E+00
 -1      1935 0.00000E+00
 -1      1937 0.00000E+00
 -1      1938 0.00000E+00
 -1      1940 0.00000E+00
 -1      1941 0.00000E+00
 -1      1943 0.00000E+00
 -1      1944 0.00000E+00
 -1      1946 0.00000E+00
 -1      1947 0.00000E+00
 -1      1949 0.00000E+00
 -1      1950 0.00000E+00
 -1      1952 0.00000E+00
 -1      1953 0.00000E+00
 -1      1955 0.00000E+00
 -1      1956 0.00000E+00
 -1      1958 0.00000E+00
 -1      1959 0.00000E+00
 -1      1961 0.00000E+00
 -1      1962 0.00000E+00
 -1      1964 0.00000E+00
 -1      1965 0.00000E+00
 -1      1967 0.00000E+00
 -1      1968 0.00000E+00
 -1      1970 0.00000E+00
 -1      1971 0.00000E+00
 -1      1973 0.00000E+00
 -1      1974 0.00000E+00
 -1      1976 0.00000E+00
 -1      1977 0.00000E+00
 -1      1979 0.00000E+00
 -1      1980 0.00000E+00
 -1      1982 0.00000E+00
 -1      1983 0.00000E+00
 -1      1985 0.00000E+00
 -1      1986 0.00000E+00
 -1      1988 0.00000E+00
 -1      1989 0.00000E+00
 -1      1991 0.00000E+00
 -1      1992 0.00000E+00
 -1      1994 0.00000E+00
 -1      1995 0.00000E+00
 -1      1997 0.00000E+00
 -1      1998 0.00000E+00
 -1      2000 0.00000E+00
 -1      2001 0.00000E+00
 -1      2003 0.00000E+00
 -1      2004 0.00000E+00
 -1      2006 0.00000E+00
 -1      2007 0.00000E+00
 -1      2009 0.00000E+00
 -1      2010 0.00000E+00
 -1      2012 0.00000E+00
 -1      2013 0.00000E+00
 -1      2015 0.00000E+00
 -1      2016 0.00000E+00
 -1      2018 0.00000E+00
 -1      2019 0.00000E+00
 -1      2021 0.00000E+00
 -1      2022 0.00000E+00
 -1      2024 0.00000E+00
 -1      2025 0.00000E+00
 -1      2027 0.00000E+00
 -1      2028 0.00000E+00
 -1      2030 0.00000E+00
 -1      2031 0.00000E+00
 -1      2033 0.00000E+00
 -1      2034 0.00000E+00
 -1      2036 0.00000E+00
 -1      2037 0.00000E+00
 -1      2039 0.00000E+00
 -1      2040 0.00000E+00
 -1      2042 0.00000E+00
 -1      2043 0.00000E+00
 -1      2045 0.00000E+00
 -1      2046 0.00000E+00
 -1      2048 0.00000E+00
 -1      2049 0.00000E+00
 -1      2051 0.00000E+00
 -1      2052 0.00000E+00
 -1      2054 0.00000E+00
 -1      2055 0.00000E+00
 -1      2057 0.00000E+00
 -1      2058 0.00000E+00
 -1      2060 0.00000E+00
 -1      2061 0.00000E+00
 -1      2063 0.00000E+00
 -1      2064 0.00000E+00
 -1      2066 0.00000E+00
 -1      2067 0.00000E+00
 -1      2069 0.00000E+00
 -1      2070 0.00000E+00
 -1      2072 0.00000E+00
 -1      2073 0.00000E+00
 -1      2075 0.00000E+00
 -1      2076 0.00000E+00
 -1      2078 0.00000E+00
 -1      2079 0.00000E+00
 -1      2081 0.00000E+00
 -1      2082 0.00000E+00
 -1      2084 0.00000E+00
 -1      2085 0.00000E+00
 -1      2087 0.00000E+00
 -1      2088 0.00000E+00
 -1      2090 0.00000E+00
 -1      2091 0.00000E+00
 -1      2093 0.00000E+00
 -1      2094 0.00000E+00
 -1      2096 0.00000E+00
 -1      2097 0.00000E+00
 -1      2099 0.00000E+00
 -1      2100 0.00000E+00
 -1      2102 0.00000E+00
 -1      2103 0.00000E+00
 -1      2105 0.00000E+00
 -1      2106 0.00000E+00
 -1      2108 0.00000E+00
 -1      2109 0.00000E+00
 -1      2111 0.00000E+00
 -1      2112 0.00000E+00
 -1      2114 0.00000E+00
 -1      2115 0.00000E+00
 -1      2117 0.00000E+00
 -1      2118 0.00000E+00
 -1      2120 0.00000E+00
 -1      2121 0.00000E+00
 -1      2123 0.00000E+00
 -1      2124 0.00000E+00
 -1      2126 0.00000E+00
 -1      2127 0.00000E+00
 -1      2129 0.00000E+00
 -1      2130 0.00000E+00
 -1      2132 0.00000E+00
 -1      2133 0.00000E+00
 -1      2135 0.00000E+00
 -1      2136 0.00000E+00
 -1      2138 0.00000E+00
 -1      2139 0.00000E+00
 -1      2141 0.00000E+00
 -1      2142 0.00000E+00
 -1      2144 0.00000E+00
 -1      2145 0.00000E+00
 -1      2147 0.00000E+00
 -1      2148 0.00000E+00
 -1      2150 0.00000E+00
 -1      2151 0.00000E+00
 -1      2153 0.00000E+00
 -1      2154 0.00000E+00
 -1      2156 0.00000E+00
 -1      2157 0.00000E+00
 -1      2159 0.00000E+00
 -1      2160 0.00000E+00
 -1      2162 0.00000E+00
 -1      2163 0.00000E+00
 -1      2165 0.00000E+00
 -1      2166 0.00000E+00
 -1      2168 0.00000E+00
 -1      2169 0.00000E+00
 -1      2171 0.00000E+00
 -1      2172 0.00000E+00
 -1      2174 0.00000E+00
 -1      2175 0.00000E+00
 -1      2177 0.00000E+00
 -1      2178 0.00000E+00
 -1      2180 0.00000E+00
 -1      2181 0.00000E+00
 -1      2183 0.00000E+00
 -1      2184 0.00000E+00
 -1      2186 0.00000E+00
 -1      2187 0.00000E+00
 -1      2189 0.00000E+00
 -1      2190 0.00000E+00
 -1      2192 0.00000E+00
 -1      2193 0.00000E+00
 -1      2195 0.00000E+00
 -1      2196 0.00000E+00
 -1      2198 0.00000E+00
 -1      2199 0.00000E+00
 -1      2201 0.00000E+00
 -1      2202 0.00000E+00
 -1      2204 0.00000E+00
 -1      2205 0.00000E+00
 -1      2207 0.00000E+00
 -1      2208 0.00000E+00
 -1      2210 0.00000E+00
 -1      2211 0.00000E+00
 -1      2213 0.00000E+00
 -1      2214 0.00000E+00
 -1      2216 0.00000E+00
 -1      2217 0.00000E+00
 -1      2219 0.00000E+00
 -1      2220 0.00000E+00
 -1      2222 0.00000E+00
 -1      2223 0.00000E+00
 -1      2225 0.00000E+00
 -1      2226 0.00000E+00
 -1      2228 0.00000E+00
 -1      2229 0.00000E+00
 -1      2231 0.00000E+00
 -1      2232 0.00000E+00
 -1      2234 0.00000E+00
 -1      2235 0.00000E+00
 -1      2237 0.00000E+00
 -1      2238 0.00000E+00
 -1      2240 0.00000E+00
 -1      2241 0.00000E+00
 -1      2243 0.00000E+00
 -1      2244 0.00000E+00
 -1      2246 0.00000E+00
 -1      2247 0.00000E+00
 -1      2249 0.00000E+00
 -1      2250 0.00000E+00
 -1      2252 0.00000E+00
 -1      2253 0.00000E+00
 -1      2255 0.00000E+00
 -1      2256 0.00000E+00
 -1      2258 0.00000E+00
 -1      2259 0.00000E+00
 -1      2261 0.00000E+00
 -1      2262 0.00000E+00
 -1      2264 0.00000E+00
 -1      2265 0.00000E+00
 -1      2267 0.00000E+00
 -1      2268 0.00000E+00
 -1      2270 0.00000E+00
 -1      2271 0.00000E+00
 -1      2273 0.00000E+00
 -1      2274 0.00000E+00
 -1      2276 0.00000E+00
 -1      2277 0.00000E+00
 -1      2279 0.00000E+00
 -1      2280 0.00000E+00
 -1      2282 0.00000E+00
 -1      2283 0.00000E+00
 -1      2285 0.00000E+00
 -1      2286 0.00000E+00
 -1      2288 0.00000E+00
 -1      2289 0.00000E+00
 -1      2291 0.00000E+00
 -1      2292 0.00000E+00
 -1      2294 0.00000E+00
 -3
    1PSTEP                        41           1           1          
    1PGM                1.000000E+00                                  
    1PGK                6.927608E+06                                  
    1PHID                         -1                                  
    1PSUBC                         0                                  
    1PMODE                        11                                  
  100CL  111 418.9013592         930                     2   11MODAL      1
 -4  DISP        4    1
 -5  D1          1    2    1    0
 -5  D2          1    2    2    0
 -5  D3          1    2    3    0
 -5  ALL         1    2    0    0    1ALL
 -1       404 0.00000E+00 0.00000E+00-3.57354E-04
 -1       406 0.00000E+00-0.00000E+00 3.57354E-04
 -1       407-2.58883E-02 1.59554E-01 1.83984E-02
 -1       409-2.59818E-02 1.58321E-01 1.85375E-02
 -1       410-3.83203E-13 1.60761E-01-1.78927E-13
 -1       412-3.78882E-13 1.54494E-01-1.78152E-13
 -1       413 1.00453E-03 1.57628E-01-1.99617E-03
 -1       415-1.00453E-03 1.57628E-01 1.99617E-03
 -1       424 0.00000E+00 0.00000E+00-5.11255E-16
 -1       426 0.00000E+00 0.00000E+00 5.11255E-16
 -1       427 0.00000E+00-3.25688E-16 0.00000E+00
 -1       429 0.00000E+00 3.25688E-16 0.00000E+00
 -1       438 2.58883E-02 1.59554E-01-1.83984E-02
 -1       440 2.59818E-02 1.58321E-01-1.85375E-02
 -1       441 0.00000E+00 0.00000E+00 3.57354E-04
 -1       443 0.00000E+00-0.00000E+00-3.57354E-04
 -1       444 0.00000E+00-2.91659E-16 0.00000E+00
 -1       446 0.00000E+00 2.91659E-16 0.00000E+00
 -1       447 0.00000E+00 0.00000E+00 4.57837E-16
 -1       449 0.00000E+00 0.00000E+00-4.57837E-16
 -1       458-1.00453E-03-1.57628E-01-1.99617E-03
 -1       460 1.00453E-03-1.57628E-01 1.99617E-03
 -1       461-2.29638E-13-1.60761E-01-1.71237E-13
 -1       463-2.35013E-13-1.54494E-01-1.72648E-13
 -1       472 0.00000E+00 0.00000E+00 3.57354E-04
 -1       474 0.00000E+00 0.00000E+00-3.57354E-04
 -1       475-2.58883E-02-1.59554E-01-1.83984E-02
 -1       477-2.59818E-02-1.58321E-01-1.85375E-02
 -1       478 2.58883E-02-1.59554E-01 1.83984E-02
 -1       480 2.59818E-02-1.58321E-01 1.85375E-02
 -1       481 0.00000E+00 0.00000E+00-3.57354E-04
 -1       483 0.00000E+00 0.00000E+00 3.57354E-04
 -1       484-1.00969E-02 1.11784E-02 5.15310E-03
 -1       486-1.14078E-02 1.03195E-02 5.37050E-03
 -1       487-1.61024E-02 2.87526E-02 1.23985E-02
 -1       489-1.67674E-02 2.69486E-02 1.25743E-02
 -1       490-1.84458E-02 5.13639E-02 1.85155E-02
 -1       492-1.93752E-02 4.87085E-02 1.85580E-02
 -1       493-1.78975E-02 7.40388E-02 2.45141E-02
 -1       495-1.85652E-02 7.06434E-02 2.44046E-02
 -1       496-1.48779E-02 9.43982E-02 2.92072E-02
 -1       498-1.54584E-02 9.04446E-02 2.90767E-02
 -1       499-1.01084E-02 1.09708E-01 3.26756E-02
 -1       501-1.04441E-02 1.05379E-01 3.24201E-02
 -1       502-4.06042E-03 1.18451E-01 3.43395E-02
 -1       504-4.17276E-03 1.13964E-01 3.41056E-02
 -1       505 2.57786E-03 1.19436E-01 3.42179E-02
 -1       507 2.72922E-03 1.15009E-01 3.39204E-02
 -1       508 9.27411E-03 1.12407E-01 3.21300E-02
 -1       510 9.67405E-03 1.08259E-01 3.18857E-02
 -1       511 1.54285E-02 9.76137E-02 2.82742E-02
 -1       513 1.60603E-02 9.39516E-02 2.80265E-02
 -1       514 2.05708E-02 7.60484E-02 2.27986E-02
 -1       516 2.13939E-02 7.30474E-02 2.26305E-02
 -1       517 2.42761E-02 4.91545E-02 1.61084E-02
 -1       519 2.52385E-02 4.69555E-02 1.59806E-02
 -1       520 2.62645E-02 1.88472E-02 8.58668E-03
 -1       522 2.73033E-02 1.75371E-02 8.55293E-03
 -1       523 2.63661E-02-1.27306E-02 7.67675E-04
 -1       525 2.74127E-02-1.31150E-02 7.94157E-04
 -1       526 2.45674E-02-4.32998E-02-6.86733E-03
 -1       528 2.55528E-02-4.27837E-02-6.75043E-03
 -1       529 2.09836E-02-7.06655E-02-1.37852E-02
 -1       531 2.18429E-02-6.93261E-02-1.36141E-02
 -1       532 1.58674E-02-9.28350E-02-1.95607E-02
 -1       534 1.65449E-02-9.08031E-02-1.93214E-02
 -1       535 9.57705E-03-1.08201E-01-2.37973E-02
 -1       537 1.00298E-02-1.05646E-01-2.35319E-02
 -1       538 2.55419E-03-1.15613E-01-2.62595E-02
 -1       540 2.75536E-03-1.12735E-01-2.59607E-02
 -1       541-4.70923E-03-1.14511E-01-2.67852E-02
 -1       543-4.76874E-03-1.11523E-01-2.65018E-02
 -1       544-1.17196E-02-1.04887E-01-2.54083E-02
 -1       546-1.20298E-02-1.02002E-01-2.51278E-02
 -1       547-1.79983E-02-8.73763E-02-2.22304E-02
 -1       549-1.85328E-02-8.47888E-02-2.20084E-02
 -1       550-2.31698E-02-6.30441E-02-1.75630E-02
 -1       552-2.38835E-02-6.09158E-02-1.73689E-02
 -1       553-2.69060E-02-3.35253E-02-1.17227E-02
 -1       555-2.77464E-02-3.19699E-02-1.16186E-02
 -1       556-2.91447E-02-4.95507E-04-5.24175E-03
 -1       558-3.00388E-02 4.27463E-04-5.16785E-03
 -1       559-2.97601E-02 3.39454E-02 1.46024E-03
 -1       561-3.06509E-02 3.42564E-02 1.43672E-03
 -1       562-2.92691E-02 6.82407E-02 7.71120E-03
 -1       564-3.00564E-02 6.79942E-02 7.68130E-03
 -1       565-2.76761E-02 1.00847E-01 1.31029E-02
 -1       567-2.83310E-02 1.00218E-01 1.30216E-02
 -1       568-2.62652E-02 1.30760E-01 1.68616E-02
 -1       570-2.66217E-02 1.29772E-01 1.67707E-02
 -1       571-1.28858E-02 1.59675E-01 1.34620E-02
 -1       573-1.29661E-02 1.57858E-01 1.32848E-02
 -1       574-1.92483E-14 9.32328E-03-2.74728E-14
 -1       576-1.23913E-14 8.80368E-03-2.69246E-14
 -1       577 7.53491E-04 9.06348E-03-1.65501E-04
 -1       579-7.53491E-04 9.06348E-03 1.65501E-04
 -1       588-2.70597E-14 2.83658E-02-5.15811E-14
 -1       590-2.69319E-14 2.68076E-02-5.14962E-14
 -1       591 8.40786E-04 2.75867E-02-4.96314E-04
 -1       593-8.40786E-04 2.75867E-02 4.96314E-04
 -1       602-4.00549E-14 5.11546E-02-5.71645E-14
 -1       604-3.94232E-14 4.85035E-02-5.65779E-14
 -1       605 1.04363E-03 4.98291E-02-8.44414E-04
 -1       607-1.04363E-03 4.98291E-02 8.44414E-04
 -1       616-5.56459E-14 7.45213E-02-5.99088E-14
 -1       618-5.58205E-14 7.07419E-02-5.91071E-14
 -1       619 9.10297E-04 7.26316E-02-1.20381E-03
 -1       621-9.10297E-04 7.26316E-02 1.20381E-03
 -1       630-7.04985E-14 9.52881E-02-6.82478E-14
 -1       632-6.83488E-14 9.05121E-02-6.72688E-14
 -1       633 8.10042E-04 9.29001E-02-1.52123E-03
 -1       635-8.10042E-04 9.29001E-02 1.52123E-03
 -1       644-7.88583E-14 1.11034E-01-8.49686E-14
 -1       646-7.62121E-14 1.05511E-01-8.49164E-14
 -1       647 5.06616E-04 1.08273E-01-1.75924E-03
 -1       649-5.06616E-04 1.08273E-01 1.75924E-03
 -1       658-8.29710E-14 1.19993E-01-9.87178E-14
 -1       660-8.19526E-14 1.14035E-01-9.89747E-14
 -1       661 2.33754E-04 1.17014E-01-1.89772E-03
 -1       663-2.33754E-04 1.17014E-01 1.89772E-03
 -1       672-8.75610E-14 1.21108E-01-9.11783E-14
 -1       674-9.14624E-14 1.15099E-01-9.13094E-14
 -1       675-1.37877E-04 1.18103E-01-1.91411E-03
 -1       677 1.37877E-04 1.18103E-01 1.91411E-03
 -1       686-1.00733E-13 1.13996E-01-6.82673E-14
 -1       688-1.04298E-13 1.08316E-01-6.71521E-14
 -1       689-4.57851E-04 1.11156E-01-1.80948E-03
 -1       691 4.57851E-04 1.11156E-01 1.80948E-03
 -1       700-1.19457E-13 9.90093E-02-6.04072E-14
 -1       702-1.18481E-13 9.40389E-02-6.01352E-14
 -1       703-7.88832E-04 9.65241E-02-1.58315E-03
 -1       705 7.88832E-04 9.65241E-02 1.58315E-03
 -1       714-1.33018E-13 7.70853E-02-6.74980E-14
 -1       716-1.32165E-13 7.31471E-02-6.72414E-14
 -1       717-1.03915E-03 7.51162E-02-1.25437E-03
 -1       719 1.03915E-03 7.51162E-02 1.25437E-03
 -1       728-1.42754E-13 4.97495E-02-6.53006E-14
 -1       730-1.44398E-13 4.71090E-02-6.53310E-14
 -1       731-1.23664E-03 4.84293E-02-8.41060E-04
 -1       733 1.23664E-03 4.84293E-02 8.41060E-04
 -1       742-1.53499E-13 1.89149E-02-4.93680E-14
 -1       744-1.56829E-13 1.77348E-02-4.88867E-14
 -1       745-1.33245E-03 1.83249E-02-3.75866E-04
 -1       747 1.33245E-03 1.83249E-02 3.75866E-04
 -1       756-1.64798E-13-1.32064E-02-2.38711E-14
 -1       758-1.68789E-13-1.28525E-02-2.34244E-14
 -1       759-1.34173E-03-1.30294E-02 1.12711E-04
 -1       761 1.34173E-03-1.30294E-02-1.12711E-04
 -1       770-1.77579E-13-4.43129E-02 2.61785E-15
 -1       772-1.80690E-13-4.24720E-02 3.21082E-15
 -1       773-1.24893E-03-4.33925E-02 5.86379E-04
 -1       775 1.24893E-03-4.33925E-02-5.86379E-04
 -1       784-1.91885E-13-7.21523E-02 2.66949E-14
 -1       786-1.94830E-13-6.89611E-02 2.72064E-14
 -1       787-1.06768E-03-7.05567E-02 1.01645E-03
 -1       789 1.06768E-03-7.05567E-02-1.01645E-03
 -1       798-2.02748E-13-9.47079E-02 5.22360E-14
 -1       800-2.06522E-13-9.04131E-02 5.23747E-14
 -1       801-8.09560E-04-9.25605E-02 1.36796E-03
 -1       803 8.09560E-04-9.25605E-02-1.36796E-03
 -1       812-2.11429E-13-1.10329E-01 7.81099E-14
 -1       814-2.14925E-13-1.05235E-01 7.85356E-14
 -1       815-4.87833E-04-1.07782E-01 1.62236E-03
 -1       817 4.87833E-04-1.07782E-01-1.62236E-03
 -1       826-2.26023E-13-1.17859E-01 9.30357E-14
 -1       828-2.26712E-13-1.12348E-01 9.38373E-14
 -1       829-1.36787E-04-1.15104E-01 1.75538E-03
 -1       831 1.36787E-04-1.15104E-01-1.75538E-03
 -1       840-2.46205E-13-1.16709E-01 9.10278E-14
 -1       842-2.45013E-13-1.11163E-01 9.25788E-14
 -1       843 2.38311E-04-1.13936E-01 1.76646E-03
 -1       845-2.38311E-04-1.13936E-01-1.76646E-03
 -1       854-2.67106E-13-1.06896E-01 8.64226E-14
 -1       856-2.67321E-13-1.01731E-01 8.70272E-14
 -1       857 5.82321E-04-1.04314E-01 1.64524E-03
 -1       859-5.82321E-04-1.04314E-01-1.64524E-03
 -1       868-2.90211E-13-8.90284E-02 7.70348E-14
 -1       870-2.88083E-13-8.45932E-02 7.79783E-14
 -1       871 9.13764E-04-8.68108E-02 1.41270E-03
 -1       873-9.13764E-04-8.68108E-02-1.41270E-03
 -1       882-3.12610E-13-6.42528E-02 5.11052E-14
 -1       884-3.07708E-13-6.08947E-02 5.16997E-14
 -1       885 1.15280E-03-6.25738E-02 1.06961E-03
 -1       887-1.15280E-03-6.25738E-02-1.06961E-03
 -1       896-3.31237E-13-3.41414E-02 1.82688E-14
 -1       898-3.27590E-13-3.20775E-02 1.90347E-14
 -1       899 1.36540E-03-3.31094E-02 6.57375E-04
 -1       901-1.36540E-03-3.31094E-02-6.57375E-04
 -1       910-3.45523E-13-5.18512E-04-1.34508E-14
 -1       912-3.41421E-13 4.19833E-05-1.35554E-14
 -1       913 1.43577E-03-2.38265E-04 1.78528E-04
 -1       915-1.43577E-03-2.38265E-04-1.78528E-04
 -1       924-3.55389E-13 3.45867E-02-4.71657E-14
 -1       926-3.51407E-13 3.36163E-02-4.68910E-14
 -1       927 1.50074E-03 3.41015E-02-3.09089E-04
 -1       929-1.50074E-03 3.41015E-02 3.09089E-04
 -1       938-3.64969E-13 6.96134E-02-8.14639E-14
 -1       940-3.60229E-13 6.70490E-02-8.11213E-14
 -1       941 1.41305E-03 6.83312E-02-8.16825E-04
 -1       943-1.41305E-03 6.83312E-02 8.16825E-04
 -1       952-3.72975E-13 1.02474E-01-1.17698E-13
 -1       954-3.68446E-13 9.84905E-02-1.17396E-13
 -1       955 1.33857E-03 1.00482E-01-1.26890E-03
 -1       957-1.33857E-03 1.00482E-01 1.26890E-03
 -1       966-3.79252E-13 1.33748E-01-1.49019E-13
 -1       968-3.75894E-13 1.28389E-01-1.48771E-13
 -1       969 1.26245E-03 1.31068E-01-1.70708E-03
 -1       971-1.26245E-03 1.31068E-01 1.70708E-03
 -1       980 0.00000E+00 0.00000E+00-1.29474E-04
 -1       982 0.00000E+00-0.00000E+00 1.29474E-04
 -1       983 1.28858E-02 1.59675E-01-1.34620E-02
 -1       985 1.29661E-02 1.57858E-01-1.32848E-02
 -1       986 1.00969E-02 1.11784E-02-5.15310E-03
 -1       988 1.14078E-02 1.03195E-02-5.37050E-03
 -1       989 1.61024E-02 2.87526E-02-1.23985E-02
 -1       991 1.67674E-02 2.69486E-02-1.25743E-02
 -1       992 1.84458E-02 5.13639E-02-1.85155E-02
 -1       994 1.93752E-02 4.87085E-02-1.85580E-02
 -1       995 1.78975E-02 7.40388E-02-2.45141E-02
 -1       997 1.85652E-02 7.06434E-02-2.44046E-02
 -1       998 1.48779E-02 9.43982E-02-2.92072E-02
 -1      1000 1.54584E-02 9.04446E-02-2.90767E-02
 -1      1001 1.01084E-02 1.09708E-01-3.26756E-02
 -1      1003 1.04441E-02 1.05379E-01-3.24201E-02
 -1      1004 4.06042E-03 1.18451E-01-3.43395E-02
 -1      1006 4.17276E-03 1.13964E-01-3.41056E-02
 -1      1007-2.57786E-03 1.19436E-01-3.42179E-02
 -1      1009-2.72922E-03 1.15009E-01-3.39204E-02
 -1      1010-9.27411E-03 1.12407E-01-3.21300E-02
 -1      1012-9.67405E-03 1.08259E-01-3.18857E-02
 -1      1013-1.54285E-02 9.76137E-02-2.82742E-02
 -1      1015-1.60603E-02 9.39516E-02-2.80265E-02
 -1      1016-2.05708E-02 7.60484E-02-2.27986E-02
 -1      1018-2.13939E-02 7.30474E-02-2.26305E-02
 -1      1019-2.42761E-02 4.91545E-02-1.61084E-02
 -1      1021-2.52385E-02 4.69555E-02-1.59806E-02
 -1      1022-2.62645E-02 1.88472E-02-8.58668E-03
 -1      1024-2.73033E-02 1.75371E-02-8.55293E-03
 -1      1025-2.63661E-02-1.27306E-02-7.67675E-04
 -1      1027-2.74127E-02-1.31150E-02-7.94157E-04
 -1      1028-2.45674E-02-4.32998E-02 6.86733E-03
 -1      1030-2.55528E-02-4.27837E-02 6.75043E-03
 -1      1031-2.09836E-02-7.06655E-02 1.37852E-02
 -1      1033-2.18429E-02-6.93261E-02 1.36141E-02
 -1      1034-1.58674E-02-9.28350E-02 1.95607E-02
 -1      1036-1.65449E-02-9.08031E-02 1.93214E-02
 -1      1037-9.57705E-03-1.08201E-01 2.37973E-02
 -1      1039-1.00298E-02-1.05646E-01 2.35319E-02
 -1      1040-2.55419E-03-1.15613E-01 2.62595E-02
 -1      1042-2.75536E-03-1.12735E-01 2.59607E-02
 -1      1043 4.70923E-03-1.14511E-01 2.67852E-02
 -1      1045 4.76874E-03-1.11523E-01 2.65018E-02
 -1      1046 1.17196E-02-1.04887E-01 2.54083E-02
 -1      1048 1.20298E-02-1.02002E-01 2.51278E-02
 -1      1049 1.79983E-02-8.73763E-02 2.22304E-02
 -1      1051 1.85328E-02-8.47888E-02 2.20084E-02
 -1      1052 2.31698E-02-6.30441E-02 1.75630E-02
 -1      1054 2.38835E-02-6.09158E-02 1.73689E-02
 -1      1055 2.69060E-02-3.35253E-02 1.17227E-02
 -1      1057 2.77464E-02-3.19699E-02 1.16186E-02
 -1      1058 2.91447E-02-4.95507E-04 5.24175E-03
 -1      1060 3.00388E-02 4.27463E-04 5.16785E-03
 -1      1061 2.97601E-02 3.39454E-02-1.46024E-03
 -1      1063 3.06509E-02 3.42564E-02-1.43672E-03
 -1      1064 2.92691E-02 6.82407E-02-7.71120E-03
 -1      1066 3.00564E-02 6.79942E-02-7.68130E-03
 -1      1067 2.76761E-02 1.00847E-01-1.31029E-02
 -1      1069 2.83310E-02 1.00218E-01-1.30216E-02
 -1      1070 2.62652E-02 1.30760E-01-1.68616E-02
 -1      1072 2.66217E-02 1.29772E-01-1.67707E-02
 -1      1073 0.00000E+00 0.00000E+00 1.29474E-04
 -1      1075 0.00000E+00-0.00000E+00-1.29474E-04
 -1      1076 0.00000E+00-2.02421E-16 0.00000E+00
 -1      1078 0.00000E+00 2.02421E-16 0.00000E+00
 -1      1079 0.00000E+00-1.57223E-16 0.00000E+00
 -1      1081 0.00000E+00 1.57223E-16 0.00000E+00
 -1      1082 0.00000E+00-4.02320E-16 0.00000E+00
 -1      1084 0.00000E+00 4.02320E-16 0.00000E+00
 -1      1085-7.53491E-04-9.06348E-03-1.65501E-04
 -1      1087 7.53491E-04-9.06348E-03 1.65501E-04
 -1      1088-1.57674E-14-9.32328E-03 3.19759E-15
 -1      1090-1.48089E-14-8.80368E-03 2.68659E-15
 -1      1099-8.40786E-04-2.75867E-02-4.96314E-04
 -1      1101 8.40786E-04-2.75867E-02 4.96314E-04
 -1      1102-2.63464E-14-2.83658E-02-1.40093E-14
 -1      1104-3.14199E-14-2.68076E-02-1.46345E-14
 -1      1113-1.04363E-03-4.98291E-02-8.44414E-04
 -1      1115 1.04363E-03-4.98291E-02 8.44414E-04
 -1      1116-4.24587E-14-5.11546E-02-4.05032E-14
 -1      1118-4.47701E-14-4.85035E-02-4.12855E-14
 -1      1127-9.10297E-04-7.26316E-02-1.20381E-03
 -1      1129 9.10297E-04-7.26316E-02 1.20381E-03
 -1      1130-6.05158E-14-7.45213E-02-5.95691E-14
 -1      1132-6.29965E-14-7.07419E-02-6.05432E-14
 -1      1141-8.10042E-04-9.29001E-02-1.52123E-03
 -1      1143 8.10042E-04-9.29001E-02 1.52123E-03
 -1      1144-8.06648E-14-9.52881E-02-7.43750E-14
 -1      1146-8.24339E-14-9.05121E-02-7.52345E-14
 -1      1155-5.06616E-04-1.08273E-01-1.75924E-03
 -1      1157 5.06616E-04-1.08273E-01 1.75924E-03
 -1      1158-1.01614E-13-1.11034E-01-8.42987E-14
 -1      1160-1.02709E-13-1.05511E-01-8.54683E-14
 -1      1169-2.33754E-04-1.17014E-01-1.89772E-03
 -1      1171 2.33754E-04-1.17014E-01 1.89772E-03
 -1      1172-1.21679E-13-1.19993E-01-7.52126E-14
 -1      1174-1.17865E-13-1.14035E-01-7.58298E-14
 -1      1183 1.37877E-04-1.18103E-01-1.91411E-03
 -1      1185-1.37877E-04-1.18103E-01 1.91411E-03
 -1      1186-1.33274E-13-1.21108E-01-5.35626E-14
 -1      1188-1.30931E-13-1.15099E-01-5.40736E-14
 -1      1197 4.57851E-04-1.11156E-01-1.80948E-03
 -1      1199-4.57851E-04-1.11156E-01 1.80948E-03
 -1      1200-1.44057E-13-1.13996E-01-5.03285E-14
 -1      1202-1.46453E-13-1.08316E-01-5.03688E-14
 -1      1211 7.88832E-04-9.65241E-02-1.58315E-03
 -1      1213-7.88832E-04-9.65241E-02 1.58315E-03
 -1      1214-1.61255E-13-9.90093E-02-5.54250E-14
 -1      1216-1.62361E-13-9.40389E-02-5.64430E-14
 -1      1225 1.03915E-03-7.51162E-02-1.25437E-03
 -1      1227-1.03915E-03-7.51162E-02 1.25437E-03
 -1      1228-1.76818E-13-7.70853E-02-4.72545E-14
 -1      1230-1.75410E-13-7.31471E-02-4.74614E-14
 -1      1239 1.23664E-03-4.84293E-02-8.41060E-04
 -1      1241-1.23664E-03-4.84293E-02 8.41060E-04
 -1      1242-1.88409E-13-4.97495E-02-2.65433E-14
 -1      1244-1.85863E-13-4.71090E-02-2.71013E-14
 -1      1253 1.33245E-03-1.83249E-02-3.75866E-04
 -1      1255-1.33245E-03-1.83249E-02 3.75866E-04
 -1      1256-2.01326E-13-1.89149E-02-1.74991E-16
 -1      1258-1.97959E-13-1.77348E-02-5.39715E-16
 -1      1267 1.34173E-03 1.30294E-02 1.12711E-04
 -1      1269-1.34173E-03 1.30294E-02-1.12711E-04
 -1      1270-2.15538E-13 1.32064E-02 2.23163E-14
 -1      1272-2.14060E-13 1.28525E-02 2.17248E-14
 -1      1281 1.24893E-03 4.33925E-02 5.86379E-04
 -1      1283-1.24893E-03 4.33925E-02-5.86379E-04
 -1      1284-2.31765E-13 4.43129E-02 4.48262E-14
 -1      1286-2.28312E-13 4.24720E-02 4.44218E-14
 -1      1295 1.06768E-03 7.05567E-02 1.01645E-03
 -1      1297-1.06768E-03 7.05567E-02-1.01645E-03
 -1      1298-2.43245E-13 7.21523E-02 7.81725E-14
 -1      1300-2.38245E-13 6.89611E-02 7.80688E-14
 -1      1309 8.09560E-04 9.25605E-02 1.36796E-03
 -1      1311-8.09560E-04 9.25605E-02-1.36796E-03
 -1      1312-2.46063E-13 9.47079E-02 1.01281E-13
 -1      1314-2.45287E-13 9.04131E-02 1.01498E-13
 -1      1323 4.87833E-04 1.07782E-01 1.62236E-03
 -1      1325-4.87833E-04 1.07782E-01-1.62236E-03
 -1      1326-2.45636E-13 1.10329E-01 1.02613E-13
 -1      1328-2.46679E-13 1.05235E-01 1.02721E-13
 -1      1337 1.36787E-04 1.15104E-01 1.75538E-03
 -1      1339-1.36787E-04 1.15104E-01-1.75538E-03
 -1      1340-2.42621E-13 1.17859E-01 1.00020E-13
 -1      1342-2.42211E-13 1.12348E-01 1.00327E-13
 -1      1351-2.38311E-04 1.13936E-01 1.76646E-03
 -1      1353 2.38311E-04 1.13936E-01-1.76646E-03
 -1      1354-2.37165E-13 1.16709E-01 9.71550E-14
 -1      1356-2.37969E-13 1.11163E-01 9.66345E-14
 -1      1365-5.82321E-04 1.04314E-01 1.64524E-03
 -1      1367 5.82321E-04 1.04314E-01-1.64524E-03
 -1      1368-2.34264E-13 1.06896E-01 8.85492E-14
 -1      1370-2.35468E-13 1.01731E-01 8.84759E-14
 -1      1379-9.13764E-04 8.68108E-02 1.41270E-03
 -1      1381 9.13764E-04 8.68108E-02-1.41270E-03
 -1      1382-2.33617E-13 8.90284E-02 8.65271E-14
 -1      1384-2.32437E-13 8.45932E-02 8.70667E-14
 -1      1393-1.15280E-03 6.25738E-02 1.06961E-03
 -1      1395 1.15280E-03 6.25738E-02-1.06961E-03
 -1      1396-2.32259E-13 6.42528E-02 8.75739E-14
 -1      1398-2.32557E-13 6.08947E-02 8.76332E-14
 -1      1407-1.36540E-03 3.31094E-02 6.57375E-04
 -1      1409 1.36540E-03 3.31094E-02-6.57375E-04
 -1      1410-2.31509E-13 3.41414E-02 6.56965E-14
 -1      1412-2.36988E-13 3.20775E-02 6.59205E-14
 -1      1421-1.43577E-03 2.38265E-04 1.78528E-04
 -1      1423 1.43577E-03 2.38265E-04-1.78528E-04
 -1      1424-2.33751E-13 5.18512E-04 2.17136E-14
 -1      1426-2.40352E-13-4.19833E-05 2.18487E-14
 -1      1435-1.50074E-03-3.41015E-02-3.09089E-04
 -1      1437 1.50074E-03-3.41015E-02 3.09089E-04
 -1      1438-2.37063E-13-3.45867E-02-1.66075E-14
 -1      1440-2.40281E-13-3.36163E-02-1.70323E-14
 -1      1449-1.41305E-03-6.83312E-02-8.16825E-04
 -1      1451 1.41305E-03-6.83312E-02 8.16825E-04
 -1      1452-2.36268E-13-6.96134E-02-4.49412E-14
 -1      1454-2.39492E-13-6.70490E-02-4.45706E-14
 -1      1463-1.33857E-03-1.00482E-01-1.26890E-03
 -1      1465 1.33857E-03-1.00482E-01 1.26890E-03
 -1      1466-2.32297E-13-1.02474E-01-8.15897E-14
 -1      1468-2.38416E-13-9.84905E-02-8.21820E-14
 -1      1477-1.26245E-03-1.31068E-01-1.70708E-03
 -1      1479 1.26245E-03-1.31068E-01 1.70708E-03
 -1      1480-2.29630E-13-1.33748E-01-1.29103E-13
 -1      1482-2.36025E-13-1.28389E-01-1.28690E-13
 -1      1491 5.18278E-04 8.88314E-02-3.82920E-03
 -1      1493-5.18278E-04 8.88314E-02 3.82920E-03
 -1      1494-2.86784E-13 7.69503E-13-3.76295E-03
 -1      1496-3.38340E-13 7.69967E-13 3.76295E-03
 -1      1497-5.18278E-04-8.88314E-02-3.82920E-03
 -1      1499 5.18278E-04-8.88314E-02 3.82920E-03
 -1      1500-1.00969E-02-1.11784E-02-5.15310E-03
 -1      1502-1.14078E-02-1.03195E-02-5.37050E-03
 -1      1503-1.61024E-02-2.87526E-02-1.23985E-02
 -1      1505-1.67674E-02-2.69486E-02-1.25743E-02
 -1      1506-1.84458E-02-5.13639E-02-1.85155E-02
 -1      1508-1.93752E-02-4.87085E-02-1.85580E-02
 -1      1509-1.78975E-02-7.40388E-02-2.45141E-02
 -1      1511-1.85652E-02-7.06434E-02-2.44046E-02
 -1      1512-1.48779E-02-9.43982E-02-2.92072E-02
 -1      1514-1.54584E-02-9.04446E-02-2.90767E-02
 -1      1515-1.01084E-02-1.09708E-01-3.26756E-02
 -1      1517-1.04441E-02-1.05379E-01-3.24201E-02
 -1      1518-4.06042E-03-1.18451E-01-3.43395E-02
 -1      1520-4.17276E-03-1.13964E-01-3.41056E-02
 -1      1521 2.57786E-03-1.19436E-01-3.42179E-02
 -1      1523 2.72922E-03-1.15009E-01-3.39204E-02
 -1      1524 9.27411E-03-1.12407E-01-3.21300E-02
 -1      1526 9.67405E-03-1.08259E-01-3.18857E-02
 -1      1527 1.54285E-02-9.76137E-02-2.82742E-02
 -1      1529 1.60603E-02-9.39516E-02-2.80265E-02
 -1      1530 2.05708E-02-7.60484E-02-2.27986E-02
 -1      1532 2.13939E-02-7.30474E-02-2.26305E-02
 -1      1533 2.42761E-02-4.91545E-02-1.61084E-02
 -1      1535 2.52385E-02-4.69555E-02-1.59806E-02
 -1      1536 2.62645E-02-1.88472E-02-8.58668E-03
 -1      1538 2.73033E-02-1.75371E-02-8.55293E-03
 -1      1539 2.63661E-02 1.27306E-02-7.67675E-04
 -1      1541 2.74127E-02 1.31150E-02-7.94157E-04
 -1      1542 2.45674E-02 4.32998E-02 6.86733E-03
 -1      1544 2.55528E-02 4.27837E-02 6.75043E-03
 -1      1545 2.09836E-02 7.06655E-02 1.37852E-02
 -1      1547 2.18429E-02 6.93261E-02 1.36141E-02
 -1      1548 1.58674E-02 9.28350E-02 1.95607E-02
 -1      1550 1.65449E-02 9.08031E-02 1.93214E-02
 -1      1551 9.57705E-03 1.08201E-01 2.37973E-02
 -1      1553 1.00298E-02 1.05646E-01 2.35319E-02
 -1      1554 2.55419E-03 1.15613E-01 2.62595E-02
 -1      1556 2.75536E-03 1.12735E-01 2.59607E-02
 -1      1557-4.70923E-03 1.14511E-01 2.67852E-02
 -1      1559-4.76874E-03 1.11523E-01 2.65018E-02
 -1      1560-1.17196E-02 1.04887E-01 2.54083E-02
 -1      1562-1.20298E-02 1.02002E-01 2.51278E-02
 -1      1563-1.79983E-02 8.73763E-02 2.22304E-02
 -1      1565-1.85328E-02 8.47888E-02 2.20084E-02
 -1      1566-2.31698E-02 6.30441E-02 1.75630E-02
 -1      1568-2.38835E-02 6.09158E-02 1.73689E-02
 -1      1569-2.69060E-02 3.35253E-02 1.17227E-02
 -1      1571-2.77464E-02 3.19699E-02 1.16186E-02
 -1      1572-2.91447E-02 4.95507E-04 5.24175E-03
 -1      1574-3.00388E-02-4.27463E-04 5.16785E-03
 -1      1575-2.97601E-02-3.39454E-02-1.46024E-03
 -1      1577-3.06509E-02-3.42564E-02-1.43672E-03
 -1      1578-2.92691E-02-6.82407E-02-7.71120E-03
 -1      1580-3.00564E-02-6.79942E-02-7.68130E-03
 -1      1581-2.76761E-02-1.00847E-01-1.31029E-02
 -1      1583-2.83310E-02-1.00218E-01-1.30216E-02
 -1      1584-2.62652E-02-1.30760E-01-1.68616E-02
 -1      1586-2.66217E-02-1.29772E-01-1.67707E-02
 -1      1587-1.28858E-02-1.59675E-01-1.34620E-02
 -1      1589-1.29661E-02-1.57858E-01-1.32848E-02
 -1      1590 0.00000E+00 0.00000E+00 1.29474E-04
 -1      1592 0.00000E+00 0.00000E+00-1.29474E-04
 -1      1593 1.28858E-02-1.59675E-01 1.34620E-02
 -1      1595 1.29661E-02-1.57858E-01 1.32848E-02
 -1      1596 1.00969E-02-1.11784E-02 5.15310E-03
 -1      1598 1.14078E-02-1.03195E-02 5.37050E-03
 -1      1599 1.61024E-02-2.87526E-02 1.23985E-02
 -1      1601 1.67674E-02-2.69486E-02 1.25743E-02
 -1      1602 1.84458E-02-5.13639E-02 1.85155E-02
 -1      1604 1.93752E-02-4.87085E-02 1.85580E-02
 -1      1605 1.78975E-02-7.40388E-02 2.45141E-02
 -1      1607 1.85652E-02-7.06434E-02 2.44046E-02
 -1      1608 1.48779E-02-9.43982E-02 2.92072E-02
 -1      1610 1.54584E-02-9.04446E-02 2.90767E-02
 -1      1611 1.01084E-02-1.09708E-01 3.26756E-02
 -1      1613 1.04441E-02-1.05379E-01 3.24201E-02
 -1      1614 4.06042E-03-1.18451E-01 3.43395E-02
 -1      1616 4.17276E-03-1.13964E-01 3.41056E-02
 -1      1617-2.57786E-03-1.19436E-01 3.42179E-02
 -1      1619-2.72922E-03-1.15009E-01 3.39204E-02
 -1      1620-9.27411E-03-1.12407E-01 3.21300E-02
 -1      1622-9.67405E-03-1.08259E-01 3.18857E-02
 -1      1623-1.54285E-02-9.76137E-02 2.82742E-02
 -1      1625-1.60603E-02-9.39516E-02 2.80265E-02
 -1      1626-2.05708E-02-7.60484E-02 2.27986E-02
 -1      1628-2.13939E-02-7.30474E-02 2.26305E-02
 -1      1629-2.42761E-02-4.91545E-02 1.61084E-02
 -1      1631-2.52385E-02-4.69555E-02 1.59806E-02
 -1      1632-2.62645E-02-1.88472E-02 8.58668E-03
 -1      1634-2.73033E-02-1.75371E-02 8.55293E-03
 -1      1635-2.63661E-02 1.27306E-02 7.67675E-04
 -1      1637-2.74127E-02 1.31150E-02 7.94157E-04
 -1      1638-2.45674E-02 4.32998E-02-6.86733E-03
 -1      1640-2.55528E-02 4.27837E-02-6.75043E-03
 -1      1641-2.09836E-02 7.06655E-02-1.37852E-02
 -1      1643-2.18429E-02 6.93261E-02-1.36141E-02
 -1      1644-1.58674E-02 9.28350E-02-1.95607E-02
 -1      1646-1.65449E-02 9.08031E-02-1.93214E-02
 -1      1647-9.57705E-03 1.08201E-01-2.37973E-02
 -1      1649-1.00298E-02 1.05646E-01-2.35319E-02
 -1      1650-2.55419E-03 1.15613E-01-2.62595E-02
 -1      1652-2.75536E-03 1.12735E-01-2.59607E-02
 -1      1653 4.70923E-03 1.14511E-01-2.67852E-02
 -1      1655 4.76874E-03 1.11523E-01-2.65018E-02
 -1      1656 1.17196E-02 1.04887E-01-2.54083E-02
 -1      1658 1.20298E-02 1.02002E-01-2.51278E-02
 -1      1659 1.79983E-02 8.73763E-02-2.22304E-02
 -1      1661 1.85328E-02 8.47888E-02-2.20084E-02
 -1      1662 2.31698E-02 6.30441E-02-1.75630E-02
 -1      1664 2.38835E-02 6.09158E-02-1.73689E-02
 -1      1665 2.69060E-02 3.35253E-02-1.17227E-02
 -1      1667 2.77464E-02 3.19699E-02-1.16186E-02
 -1      1668 2.91447E-02 4.95507E-04-5.24175E-03
 -1      1670 3.00388E-02-4.27463E-04-5.16785E-03
 -1      1671 2.97601E-02-3.39454E-02 1.46024E-03
 -1      1673 3.06509E-02-3.42564E-02 1.43672E-03
 -1      1674 2.92691E-02-6.82407E-02 7.71120E-03
 -1      1676 3.00564E-02-6.79942E-02 7.68130E-03
 -1      1677 2.76761E-02-1.00847E-01 1.31029E-02
 -1      1679 2.83310E-02-1.00218E-01 1.30216E-02
 -1      1680 2.62652E-02-1.30760E-01 1.68616E-02
 -1      1682 2.66217E-02-1.29772E-01 1.67707E-02
 -1      1683 0.00000E+00 0.00000E+00-1.29474E-04
 -1      1685 0.00000E+00 0.00000E+00 1.29474E-04
 -1      1686-4.18594E-03 9.76542E-03 2.24037E-03
 -1      1688-4.83261E-03 8.86804E-03 2.44220E-03
 -1      1689-7.78817E-03 2.87925E-02 6.02693E-03
 -1      1691-8.15363E-03 2.67470E-02 6.10689E-03
 -1      1692-8.78624E-03 5.12381E-02 9.25081E-03
 -1      1694-9.29223E-03 4.83199E-02 9.26851E-03
 -1      1695-8.66084E-03 7.45016E-02 1.25876E-02
 -1      1697-9.05212E-03 7.07661E-02 1.25533E-02
 -1      1698-7.19914E-03 9.49520E-02 1.53048E-02
 -1      1700-7.53799E-03 9.05655E-02 1.52089E-02
 -1      1701-4.88724E-03 1.10553E-01 1.73401E-02
 -1      1703-5.09645E-03 1.05723E-01 1.72262E-02
 -1      1704-1.94926E-03 1.19354E-01 1.84146E-02
 -1      1706-2.02659E-03 1.14303E-01 1.82666E-02
 -1      1707 1.29692E-03 1.20418E-01 1.84352E-02
 -1      1709 1.36986E-03 1.15420E-01 1.82902E-02
 -1      1710 4.56445E-03 1.13323E-01 1.73595E-02
 -1      1712 4.78438E-03 1.08630E-01 1.72130E-02
 -1      1713 7.57652E-03 9.84283E-02 1.52347E-02
 -1      1715 7.93146E-03 9.43020E-02 1.51098E-02
 -1      1716 1.00900E-02 7.66679E-02 1.21919E-02
 -1      1718 1.05581E-02 7.33198E-02 1.20922E-02
 -1      1719 1.19033E-02 4.95435E-02 8.42614E-03
 -1      1721 1.24530E-02 4.71528E-02 8.36263E-03
 -1      1722 1.28747E-02 1.89602E-02 4.18935E-03
 -1      1724 1.34698E-02 1.76332E-02 4.16603E-03
 -1      1725 1.29229E-02-1.28998E-02-2.32710E-04
 -1      1727 1.35227E-02-1.31145E-02-2.13802E-04
 -1      1728 1.20401E-02-4.37490E-02-4.54058E-03
 -1      1730 1.26042E-02-4.28840E-02-4.48049E-03
 -1      1731 1.02824E-02-7.13619E-02-8.44255E-03
 -1      1733 1.07727E-02-6.95113E-02-8.34473E-03
 -1      1734 7.77454E-03-9.37362E-02-1.16746E-02
 -1      1736 8.15813E-03-9.10650E-02-1.15482E-02
 -1      1737 4.69003E-03-1.09239E-01-1.40247E-02
 -1      1739 4.94173E-03-1.05956E-01-1.38739E-02
 -1      1740 1.24744E-03-1.16724E-01-1.53353E-02
 -1      1742 1.35147E-03-1.13084E-01-1.51785E-02
 -1      1743-2.31581E-03-1.15604E-01-1.55364E-02
 -1      1745-2.36511E-03-1.11870E-01-1.53723E-02
 -1      1746-5.75355E-03-1.05906E-01-1.46146E-02
 -1      1748-5.95023E-03-1.02350E-01-1.44722E-02
 -1      1749-8.83974E-03-8.82163E-02-1.26655E-02
 -1      1751-9.16976E-03-8.50845E-02-1.25290E-02
 -1      1752-1.13762E-02-6.37000E-02-9.81167E-03
 -1      1754-1.18122E-02-6.12062E-02-9.72340E-03
 -1      1755-1.32364E-02-3.38648E-02-6.29220E-03
 -1      1757-1.37527E-02-3.21671E-02-6.21121E-03
 -1      1758-1.43180E-02-6.31107E-04-2.31577E-03
 -1      1760-1.48686E-02 1.81686E-04-2.30221E-03
 -1      1761-1.47232E-02 3.42170E-02 1.79433E-03
 -1      1763-1.52868E-02 3.41162E-02 1.81493E-03
 -1      1764-1.43897E-02 6.86127E-02 5.79744E-03
 -1      1766-1.48983E-02 6.76988E-02 5.75503E-03
 -1      1767-1.38906E-02 1.01564E-01 9.35167E-03
 -1      1769-1.43451E-02 9.99495E-02 9.31729E-03
 -1      1770-1.31108E-02 1.31348E-01 1.20492E-02
 -1      1772-1.33859E-02 1.29466E-01 1.20723E-02
 -1      1773 4.18594E-03 9.76542E-03-2.24037E-03
 -1      1775 4.83261E-03 8.86804E-03-2.44220E-03
 -1      1776 7.78817E-03 2.87925E-02-6.02693E-03
 -1      1778 8.15363E-03 2.67470E-02-6.10689E-03
 -1      1779 8.78624E-03 5.12381E-02-9.25081E-03
 -1      1781 9.29223E-03 4.83199E-02-9.26851E-03
 -1      1782 8.66084E-03 7.45016E-02-1.25876E-02
 -1      1784 9.05212E-03 7.07661E-02-1.25533E-02
 -1      1785 7.19914E-03 9.49520E-02-1.53048E-02
 -1      1787 7.53799E-03 9.05655E-02-1.52089E-02
 -1      1788 4.88724E-03 1.10553E-01-1.73401E-02
 -1      1790 5.09645E-03 1.05723E-01-1.72262E-02
 -1      1791 1.94926E-03 1.19354E-01-1.84146E-02
 -1      1793 2.02659E-03 1.14303E-01-1.82666E-02
 -1      1794-1.29692E-03 1.20418E-01-1.84352E-02
 -1      1796-1.36986E-03 1.15420E-01-1.82902E-02
 -1      1797-4.56445E-03 1.13323E-01-1.73595E-02
 -1      1799-4.78438E-03 1.08630E-01-1.72130E-02
 -1      1800-7.57652E-03 9.84283E-02-1.52347E-02
 -1      1802-7.93146E-03 9.43020E-02-1.51098E-02
 -1      1803-1.00900E-02 7.66679E-02-1.21919E-02
 -1      1805-1.05581E-02 7.33198E-02-1.20922E-02
 -1      1806-1.19033E-02 4.95435E-02-8.42614E-03
 -1      1808-1.24530E-02 4.71528E-02-8.36263E-03
 -1      1809-1.28747E-02 1.89602E-02-4.18935E-03
 -1      1811-1.34698E-02 1.76332E-02-4.16603E-03
 -1      1812-1.29229E-02-1.28998E-02 2.32710E-04
 -1      1814-1.35227E-02-1.31145E-02 2.13802E-04
 -1      1815-1.20401E-02-4.37490E-02 4.54058E-03
 -1      1817-1.26042E-02-4.28840E-02 4.48049E-03
 -1      1818-1.02824E-02-7.13619E-02 8.44255E-03
 -1      1820-1.07727E-02-6.95113E-02 8.34473E-03
 -1      1821-7.77454E-03-9.37362E-02 1.16746E-02
 -1      1823-8.15813E-03-9.10650E-02 1.15482E-02
 -1      1824-4.69003E-03-1.09239E-01 1.40247E-02
 -1      1826-4.94173E-03-1.05956E-01 1.38739E-02
 -1      1827-1.24744E-03-1.16724E-01 1.53353E-02
 -1      1829-1.35147E-03-1.13084E-01 1.51785E-02
 -1      1830 2.31581E-03-1.15604E-01 1.55364E-02
 -1      1832 2.36511E-03-1.11870E-01 1.53723E-02
 -1      1833 5.75355E-03-1.05906E-01 1.46146E-02
 -1      1835 5.95023E-03-1.02350E-01 1.44722E-02
 -1      1836 8.83974E-03-8.82163E-02 1.26655E-02
 -1      1838 9.16976E-03-8.50845E-02 1.25290E-02
 -1      1839 1.13762E-02-6.37000E-02 9.81167E-03
 -1      1841 1.18122E-02-6.12062E-02 9.72340E-03
 -1      1842 1.32364E-02-3.38648E-02 6.29220E-03
 -1      1844 1.37527E-02-3.21671E-02 6.21121E-03
 -1      1845 1.43180E-02-6.31107E-04 2.31577E-03
 -1      1847 1.48686E-02 1.81686E-04 2.30221E-03
 -1      1848 1.47232E-02 3.42170E-02-1.79433E-03
 -1      1850 1.52868E-02 3.41162E-02-1.81493E-03
 -1      1851 1.43897E-02 6.86127E-02-5.79744E-03
 -1      1853 1.48983E-02 6.76988E-02-5.75503E-03
 -1      1854 1.38906E-02 1.01564E-01-9.35167E-03
 -1      1856 1.43451E-02 9.99495E-02-9.31729E-03
 -1      1857 1.31108E-02 1.31348E-01-1.20492E-02
 -1      1859 1.33859E-02 1.29466E-01-1.20723E-02
 -1      1860 4.60555E-04 5.49968E-03-1.45338E-04
 -1      1862-4.60555E-04 5.49968E-03 1.45338E-04
 -1      1863 4.62568E-04 1.60840E-02-5.04636E-04
 -1      1865-4.62568E-04 1.60840E-02 5.04636E-04
 -1      1866 5.93356E-04 2.83518E-02-1.00712E-03
 -1      1868-5.93356E-04 2.83518E-02 1.00712E-03
 -1      1869 5.03909E-04 4.09974E-02-1.52518E-03
 -1      1871-5.03909E-04 4.09974E-02 1.52518E-03
 -1      1872 4.53612E-04 5.20883E-02-1.99207E-03
 -1      1874-4.53612E-04 5.20883E-02 1.99207E-03
 -1      1875 2.78845E-04 6.05363E-02-2.35037E-03
 -1      1877-2.78845E-04 6.05363E-02 2.35037E-03
 -1      1878 1.27027E-04 6.52351E-02-2.55755E-03
 -1      1880-1.27027E-04 6.52351E-02 2.55755E-03
 -1      1881-8.34121E-05 6.57276E-02-2.59180E-03
 -1      1883 8.34121E-05 6.57276E-02 2.59180E-03
 -1      1884-2.63308E-04 6.17194E-02-2.44371E-03
 -1      1886 2.63308E-04 6.17194E-02 2.44371E-03
 -1      1887-4.50081E-04 5.34634E-02-2.12047E-03
 -1      1889 4.50081E-04 5.34634E-02 2.12047E-03
 -1      1890-5.90908E-04 4.14256E-02-1.64481E-03
 -1      1892 5.90908E-04 4.14256E-02 1.64481E-03
 -1      1893-7.01822E-04 2.64734E-02-1.04739E-03
 -1      1895 7.01822E-04 2.64734E-02 1.04739E-03
 -1      1896-7.55006E-04 9.62748E-03-3.74778E-04
 -1      1898 7.55006E-04 9.62748E-03 3.74778E-04
 -1      1899-7.59003E-04-7.88092E-03 3.29478E-04
 -1      1901 7.59003E-04-7.88092E-03-3.29478E-04
 -1      1902-7.04993E-04-2.48081E-02 1.00788E-03
 -1      1904 7.04993E-04-2.48081E-02-1.00788E-03
 -1      1905-6.00718E-04-3.99050E-02 1.61877E-03
 -1      1907 6.00718E-04-3.99050E-02-1.61877E-03
 -1      1908-4.52719E-04-5.20818E-02 2.10775E-03
 -1      1910 4.52719E-04-5.20818E-02-2.10775E-03
 -1      1911-2.68673E-04-6.04189E-02 2.45044E-03
 -1      1913 2.68673E-04-6.04189E-02-2.45044E-03
 -1      1914-6.79254E-05-6.43028E-02 2.60661E-03
 -1      1916 6.79254E-05-6.43028E-02-2.60661E-03
 -1      1917 1.46201E-04-6.33900E-02 2.58147E-03
 -1      1919-1.46201E-04-6.33900E-02-2.58147E-03
 -1      1920 3.42669E-04-5.77246E-02 2.35294E-03
 -1      1922-3.42669E-04-5.77246E-02-2.35294E-03
 -1      1923 5.31358E-04-4.76085E-02 1.96263E-03
 -1      1925-5.31358E-04-4.76085E-02-1.96263E-03
 -1      1926 6.67455E-04-3.37299E-02 1.40030E-03
 -1      1928-6.67455E-04-3.37299E-02-1.40030E-03
 -1      1929 7.87226E-04-1.69007E-02 7.45520E-04
 -1      1931-7.87226E-04-1.69007E-02-7.45520E-04
 -1      1932 8.25736E-04 1.76911E-03-2.05712E-05
 -1      1934-8.25736E-04 1.76911E-03 2.05712E-05
 -1      1935 8.58745E-04 2.12487E-02-7.78357E-04
 -1      1937-8.58745E-04 2.12487E-02 7.78357E-04
 -1      1938 8.02308E-04 4.04729E-02-1.60183E-03
 -1      1940-8.02308E-04 4.04729E-02 1.60183E-03
 -1      1941 7.50859E-04 5.84170E-02-2.31150E-03
 -1      1943-7.50859E-04 5.84170E-02 2.31150E-03
 -1      1944 6.82801E-04 7.49971E-02-3.15449E-03
 -1      1946-6.82801E-04 7.49971E-02 3.15449E-03
 -1      1947-2.12595E-14-1.10464E-13-3.29754E-04
 -1      1949-4.56037E-15-1.10082E-13 3.29754E-04
 -1      1950-4.12034E-14-3.42240E-13-8.71059E-04
 -1      1952-2.11255E-14-3.41796E-13 8.71059E-04
 -1      1953-5.97300E-14-6.06765E-13-1.43031E-03
 -1      1955-3.75464E-14-6.06348E-13 1.43031E-03
 -1      1956-7.46295E-14-8.89386E-13-1.99210E-03
 -1      1958-5.14398E-14-8.88817E-13 1.99210E-03
 -1      1959-8.09613E-14-1.09966E-12-2.48435E-03
 -1      1961-7.11115E-14-1.09918E-12 2.48435E-03
 -1      1962-8.64630E-14-1.14891E-12-2.84729E-03
 -1      1964-9.13527E-14-1.14865E-12 2.84729E-03
 -1      1965-9.58834E-14-1.04253E-12-3.04847E-03
 -1      1967-1.12540E-13-1.04239E-12 3.04847E-03
 -1      1968-1.04514E-13-7.69426E-13-3.05300E-03
 -1      1970-1.38053E-13-7.69065E-13 3.05300E-03
 -1      1971-1.11692E-13-3.17024E-13-2.86043E-03
 -1      1973-1.59130E-13-3.16816E-13 2.86043E-03
 -1      1974-1.19934E-13 2.44893E-13-2.47109E-03
 -1      1976-1.72164E-13 2.45184E-13 2.47109E-03
 -1      1977-1.30756E-13 8.24106E-13-1.91594E-03
 -1      1979-1.80168E-13 8.24201E-13 1.91594E-03
 -1      1980-1.46139E-13 1.32831E-12-1.22517E-03
 -1      1982-1.84311E-13 1.32847E-12 1.22517E-03
 -1      1983-1.61536E-13 1.71410E-12-4.54214E-04
 -1      1985-1.89538E-13 1.71435E-12 4.54214E-04
 -1      1986-1.76815E-13 1.98133E-12 3.50221E-04
 -1      1988-1.93779E-13 1.98160E-12-3.50221E-04
 -1      1989-1.95684E-13 2.08011E-12 1.12126E-03
 -1      1991-1.93703E-13 2.08020E-12-1.12126E-03
 -1      1992-2.18145E-13 1.94902E-12 1.81350E-03
 -1      1994-1.94150E-13 1.94925E-12-1.81350E-03
 -1      1995-2.41474E-13 1.59583E-12 2.36377E-03
 -1      1997-1.99871E-13 1.59592E-12-2.36377E-03
 -1      1998-2.62452E-13 1.05069E-12 2.74607E-03
 -1      2000-2.04118E-13 1.05067E-12-2.74607E-03
 -1      2001-2.72083E-13 3.79016E-13 2.91327E-03
 -1      2003-2.08037E-13 3.79141E-13-2.91327E-03
 -1      2004-2.73719E-13-2.91451E-13 2.87287E-03
 -1      2006-2.15598E-13-2.90693E-13-2.87287E-03
 -1      2007-2.76647E-13-8.86569E-13 2.59903E-03
 -1      2009-2.26059E-13-8.86093E-13-2.59903E-03
 -1      2010-2.79972E-13-1.37981E-12 2.13953E-03
 -1      2012-2.39496E-13-1.38006E-12-2.13953E-03
 -1      2013-2.80959E-13-1.71366E-12 1.48583E-03
 -1      2015-2.58401E-13-1.71315E-12-1.48583E-03
 -1      2016-2.81125E-13-1.81894E-12 7.23683E-04
 -1      2018-2.80980E-13-1.81879E-12-7.23683E-04
 -1      2019-2.83069E-13-1.70591E-12-1.49829E-04
 -1      2021-2.99278E-13-1.70600E-12 1.49829E-04
 -1      2022-2.82798E-13-1.42180E-12-1.02271E-03
 -1      2024-3.12906E-13-1.42186E-12 1.02271E-03
 -1      2025-2.80512E-13-9.83569E-13-1.90370E-03
 -1      2027-3.24161E-13-9.83725E-13 1.90370E-03
 -1      2028-2.80768E-13-4.28905E-13-2.67386E-03
 -1      2030-3.31846E-13-4.28765E-13 2.67386E-03
 -1      2031-2.84363E-13 1.69538E-13-3.33234E-03
 -1      2033-3.36141E-13 1.69448E-13 3.33234E-03
 -1      2034-4.60555E-04-5.49968E-03-1.45338E-04
 -1      2036 4.60555E-04-5.49968E-03 1.45338E-04
 -1      2037-4.62568E-04-1.60840E-02-5.04636E-04
 -1      2039 4.62568E-04-1.60840E-02 5.04636E-04
 -1      2040-5.93356E-04-2.83518E-02-1.00712E-03
 -1      2042 5.93356E-04-2.83518E-02 1.00712E-03
 -1      2043-5.03909E-04-4.09974E-02-1.52518E-03
 -1      2045 5.03909E-04-4.09974E-02 1.52518E-03
 -1      2046-4.53612E-04-5.20883E-02-1.99207E-03
 -1      2048 4.53612E-04-5.20883E-02 1.99207E-03
 -1      2049-2.78845E-04-6.05363E-02-2.35037E-03
 -1      2051 2.78845E-04-6.05363E-02 2.35037E-03
 -1      2052-1.27027E-04-6.52351E-02-2.55755E-03
 -1      2054 1.27027E-04-6.52351E-02 2.55755E-03
 -1      2055 8.34121E-05-6.57276E-02-2.59180E-03
 -1      2057-8.34121E-05-6.57276E-02 2.59180E-03
 -1      2058 2.63308E-04-6.17194E-02-2.44371E-03
 -1      2060-2.63308E-04-6.17194E-02 2.44371E-03
 -1      2061 4.50081E-04-5.34634E-02-2.12047E-03
 -1      2063-4.50081E-04-5.34634E-02 2.12047E-03
 -1      2064 5.90908E-04-4.14256E-02-1.64481E-03
 -1      2066-5.90908E-04-4.14256E-02 1.64481E-03
 -1      2067 7.01822E-04-2.64734E-02-1.04739E-03
 -1      2069-7.01822E-04-2.64734E-02 1.04739E-03
 -1      2070 7.55006E-04-9.62748E-03-3.74778E-04
 -1      2072-7.55006E-04-9.62748E-03 3.74778E-04
 -1      2073 7.59003E-04 7.88092E-03 3.29478E-04
 -1      2075-7.59003E-04 7.88092E-03-3.29478E-04
 -1      2076 7.04993E-04 2.48081E-02 1.00788E-03
 -1      2078-7.04993E-04 2.48081E-02-1.00788E-03
 -1      2079 6.00718E-04 3.99050E-02 1.61877E-03
 -1      2081-6.00718E-04 3.99050E-02-1.61877E-03
 -1      2082 4.52719E-04 5.20818E-02 2.10775E-03
 -1      2084-4.52719E-04 5.20818E-02-2.10775E-03
 -1      2085 2.68673E-04 6.04189E-02 2.45044E-03
 -1      2087-2.68673E-04 6.04189E-02-2.45044E-03
 -1      2088 6.79254E-05 6.43028E-02 2.60661E-03
 -1      2090-6.79254E-05 6.43028E-02-2.60661E-03
 -1      2091-1.46201E-04 6.33900E-02 2.58147E-03
 -1      2093 1.46201E-04 6.33900E-02-2.58147E-03
 -1      2094-3.42669E-04 5.77246E-02 2.35294E-03
 -1      2096 3.42669E-04 5.77246E-02-2.35294E-03
 -1      2097-5.31358E-04 4.76085E-02 1.96263E-03
 -1      2099 5.31358E-04 4.76085E-02-1.96263E-03
 -1      2100-6.67455E-04 3.37299E-02 1.40030E-03
 -1      2102 6.67455E-04 3.37299E-02-1.40030E-03
 -1      2103-7.87226E-04 1.69007E-02 7.45520E-04
 -1      2105 7.87226E-04 1.69007E-02-7.45520E-04
 -1      2106-8.25736E-04-1.76911E-03-2.05712E-05
 -1      2108 8.25736E-04-1.76911E-03 2.05712E-05
 -1      2109-8.58745E-04-2.12487E-02-7.78357E-04
 -1      2111 8.58745E-04-2.12487E-02 7.78357E-04
 -1      2112-8.02308E-04-4.04729E-02-1.60183E-03
 -1      2114 8.02308E-04-4.04729E-02 1.60183E-03
 -1      2115-7.50859E-04-5.84170E-02-2.31150E-03
 -1      2117 7.50859E-04-5.84170E-02 2.31150E-03
 -1      2118-6.82801E-04-7.49971E-02-3.15449E-03
 -1      2120 6.82801E-04-7.49971E-02 3.15449E-03
 -1      2121-4.18594E-03-9.76542E-03-2.24037E-03
 -1      2123-4.83261E-03-8.86804E-03-2.44220E-03
 -1      2124-7.78817E-03-2.87925E-02-6.02693E-03
 -1      2126-8.15363E-03-2.67470E-02-6.10689E-03
 -1      2127-8.78624E-03-5.12381E-02-9.25081E-03
 -1      2129-9.29223E-03-4.83199E-02-9.26851E-03
 -1      2130-8.66084E-03-7.45016E-02-1.25876E-02
 -1      2132-9.05212E-03-7.07661E-02-1.25533E-02
 -1      2133-7.19914E-03-9.49520E-02-1.53048E-02
 -1      2135-7.53799E-03-9.05655E-02-1.52089E-02
 -1      2136-4.88724E-03-1.10553E-01-1.73401E-02
 -1      2138-5.09645E-03-1.05723E-01-1.72262E-02
 -1      2139-1.94926E-03-1.19354E-01-1.84146E-02
 -1      2141-2.02659E-03-1.14303E-01-1.82666E-02
 -1      2142 1.29692E-03-1.20418E-01-1.84352E-02
 -1      2144 1.36986E-03-1.15420E-01-1.82902E-02
 -1      2145 4.56445E-03-1.13323E-01-1.73595E-02
 -1      2147 4.78438E-03-1.08630E-01-1.72130E-02
 -1      2148 7.57652E-03-9.84283E-02-1.52347E-02
 -1      2150 7.93146E-03-9.43020E-02-1.51098E-02
 -1      2151 1.00900E-02-7.66679E-02-1.21919E-02
 -1      2153 1.05581E-02-7.33198E-02-1.20922E-02
 -1      2154 1.19033E-02-4.95435E-02-8.42614E-03
 -1      2156 1.24530E-02-4.71528E-02-8.36263E-03
 -1      2157 1.28747E-02-1.89602E-02-4.18935E-03
 -1      2159 1.34698E-02-1.76332E-02-4.16603E-03
 -1      2160 1.29229E-02 1.28998E-02 2.32710E-04
 -1      2162 1.35227E-02 1.31145E-02 2.13802E-04
 -1      2163 1.20401E-02 4.37490E-02 4.54058E-03
 -1      2165 1.26042E-02 4.28840E-02 4.48049E-03
 -1      2166 1.02824E-02 7.13619E-02 8.44255E-03
 -1      2168 1.07727E-02 6.95113E-02 8.34473E-03
 -1      2169 7.77454E-03 9.37362E-02 1.16746E-02
 -1      2171 8.15813E-03 9.10650E-02 1.15482E-02
 -1      2172 4.69003E-03 1.09239E-01 1.40247E-02
 -1      2174 4.94173E-03 1.05956E-01 1.38739E-02
 -1      2175 1.24744E-03 1.16724E-01 1.53353E-02
 -1      2177 1.35147E-03 1.13084E-01 1.51785E-02
 -1      2178-2.31581E-03 1.15604E-01 1.55364E-02
 -1      2180-2.36511E-03 1.11870E-01 1.53723E-02
 -1      2181-5.75355E-03 1.05906E-01 1.46146E-02
 -1      2183-5.95023E-03 1.02350E-01 1.44722E-02
 -1      2184-8.83974E-03 8.82163E-02 1.26655E-02
 -1      2186-9.16976E-03 8.50845E-02 1.25290E-02
 -1      2187-1.13762E-02 6.37000E-02 9.81167E-03
 -1      2189-1.18122E-02 6.12062E-02 9.72340E-03
 -1      2190-1.32364E-02 3.38648E-02 6.29220E-03
 -1      2192-1.37527E-02 3.21671E-02 6.21121E-03
 -1      2193-1.43180E-02 6.31107E-04 2.31577E-03
 -1      2195-1.48686E-02-1.81686E-04 2.30221E-03
 -1      2196-1.47232E-02-3.42170E-02-1.79433E-03
 -1      2198-1.52868E-02-3.41162E-02-1.81493E-03
 -1      2199-1.43897E-02-6.86127E-02-5.79744E-03
 -1      2201-1.48983E-02-6.76988E-02-5.75503E-03
 -1      2202-1.38906E-02-1.01564E-01-9.35167E-03
 -1      2204-1.43451E-02-9.99495E-02-9.31729E-03
 -1      2205-1.31108E-02-1.31348E-01-1.20492E-02
 -1      2207-1.33859E-02-1.29466E-01-1.20723E-02
 -1      2208 4.18594E-03-9.76542E-03 2.24037E-03
 -1      2210 4.83261E-03-8.86804E-03 2.44220E-03
 -1      2211 7.78817E-03-2.87925E-02 6.02693E-03
 -1      2213 8.15363E-03-2.67470E-02 6.10689E-03
 -1      2214 8.78624E-03-5.12381E-02 9.25081E-03
 -1      2216 9.29223E-03-4.83199E-02 9.26851E-03
 -1      2217 8.66084E-03-7.45016E-02 1.25876E-02
 -1      2219 9.05212E-03-7.07661E-02 1.25533E-02
 -1      2220 7.19914E-03-9.49520E-02 1.53048E-02
 -1      2222 7.53799E-03-9.05655E-02 1.52089E-02
 -1      2223 4.88724E-03-1.10553E-01 1.73401E-02
 -1      2225 5.09645E-03-1.05723E-01 1.72262E-02
 -1      2226 1.94926E-03-1.19354E-01 1.84146E-02
 -1      2228 2.02659E-03-1.14303E-01 1.82666E-02
 -1      2229-1.29692E-03-1.20418E-01 1.84352E-02
 -1      2231-1.36986E-03-1.15420E-01 1.82902E-02
 -1      2232-4.56445E-03-1.13323E-01 1.73595E-02
 -1      2234-4.78438E-03-1.08630E-01 1.72130E-02
 -1      2235-7.57652E-03-9.84283E-02 1.52347E-02
 -1      2237-7.93146E-03-9.43020E-02 1.51098E-02
 -1      2238-1.00900E-02-7.66679E-02 1.21919E-02
 -1      2240-1.05581E-02-7.33198E-02 1.20922E-02
 -1      2241-1.19033E-02-4.95435E-02 8.42614E-03
 -1      2243-1.24530E-02-4.71528E-02 8.36263E-03
 -1      2244-1.28747E-02-1.89602E-02 4.18935E-03
 -1      2246-1.34698E-02-1.76332E-02 4.16603E-03
 -1      2247-1.29229E-02 1.28998E-02-2.32710E-04
 -1      2249-1.35227E-02 1.31145E-02-2.13802E-04
 -1      2250-1.20401E-02 4.37490E-02-4.54058E-03
 -1      2252-1.26042E-02 4.28840E-02-4.48049E-03
 -1      2253-1.02824E-02 7.13619E-02-8.44255E-03
 -1      2255-1.07727E-02 6.95113E-02-8.34473E-03
 -1      2256-7.77454E-03 9.37362E-02-1.16746E-02
 -1      2258-8.15813E-03 9.10650E-02-1.15482E-02
 -1      2259-4.69003E-03 1.09239E-01-1.40247E-02
 -1      2261-4.94173E-03 1.05956E-01-1.38739E-02
 -1      2262-1.24744E-03 1.16724E-01-1.53353E-02
 -1      2264-1.35147E-03 1.13084E-01-1.51785E-02
 -1      2265 2.31581E-03 1.15604E-01-1.55364E-02
 -1      2267 2.36511E-03 1.11870E-01-1.53723E-02
 -1      2268 5.75355E-03 1.05906E-01-1.46146E-02
 -1      2270 5.95023E-03 1.02350E-01-1.44722E-02
 -1      2271 8.83974E-03 8.82163E-02-1.26655E-02
 -1      2273 9.16976E-03 8.50845E-02-1.25290E-02
 -1      2274 1.13762E-02 6.37000E-02-9.81167E-03
 -1      2276 1.18122E-02 6.12062E-02-9.72340E-03
 -1      2277 1.32364E-02 3.38648E-02-6.29220E-03
 -1      2279 1.37527E-02 3.21671E-02-6.21121E-03
 -1      2280 1.43180E-02 6.31107E-04-2.31577E-03
 -1      2282 1.48686E-02-1.81686E-04-2.30221E-03
 -1      2283 1.47232E-02-3.42170E-02 1.79433E-03
 -1      2285 1.52868E-02-3.41162E-02 1.81493E-03
 -1      2286 1.43897E-02-6.86127E-02 5.79744E-03
 -1      2288 1.48983E-02-6.76988E-02 5.75503E-03
 -1      2289 1.38906E-02-1.01564E-01 9.35167E-03
 -1      2291 1.43451E-02-9.99495E-02 9.31729E-03
 -1      2292 1.31108E-02-1.31348E-01 1.20492E-02
 -1      2294 1.33859E-02-1.29466E-01 1.20723E-02
 -3
    1PSTEP                        42           1           1          
    1PGM                1.000000E+00                                  
    1PGK                6.927608E+06                                  
    1PHID                         -1                                  
    1PSUBC                         0                                  
    1PMODE                        11                                  
  100CL  111 418.9013592         930                     2   11MODAL      1
 -4  STRESS      6    1
 -5  SXX         1    4    1    1
 -5  SYY         1    4    2    2
 -5  SZZ         1    4    3    3
 -5  SXY         1    4    1    2
 -5  SYZ         1    4    2    3
 -5  SZX         1    4    3    1
 -1       404-1.65187E+10-1.62144E+09-2.52715E+07 2.50068E+09-5.91488E+06 1.42510E+08
 -1       406-1.65187E+10-1.62144E+09-2.52715E+07 2.50068E+09-5.91488E+06 1.42510E+08
 -1       407 9.76699E+08 3.59240E+08-1.14146E+07-4.84918E+08-1.70582E+07-7.43650E+06
 -1       409 9.76699E+08 3.59240E+08-1.14146E+07-4.84918E+08-1.70582E+07-7.43650E+06
 -1       410-7.90882E-03-2.17962E-03 1.38462E-04-1.31099E+09-9.85616E+07 6.83044E-06
 -1       412-7.90882E-03-2.17962E-03 1.38462E-04-1.31099E+09-9.85616E+07 6.83044E-06
 -1       413-4.38210E-03-5.32164E-04 7.58202E-03 2.72612E+07-2.42588E+08 7.79690E-04
 -1       415-4.38210E-03-5.32164E-04 7.58202E-03 2.72612E+07-2.42588E+08 7.79690E-04
 -1       424-3.15881E-02-5.50854E-03-6.96182E-05 3.37599E+09-1.82586E+07-9.18576E-04
 -1       426-3.15881E-02-5.50854E-03-6.96182E-05 3.37599E+09-1.82586E+07-9.18576E-04
 -1       427-2.97209E-02-1.87089E-04-2.14444E-03 1.80254E+08 2.04355E+07-1.77314E-02
 -1       429-2.97209E-02-1.87089E-04-2.14444E-03 1.80254E+08 2.04355E+07-1.77314E-02
 -1       438-9.76699E+08-3.59240E+08 1.14146E+07-4.84918E+08-1.70582E+07 7.43650E+06
 -1       440-9.76699E+08-3.59240E+08 1.14146E+07-4.84918E+08-1.70582E+07 7.43650E+06
 -1       441 1.65187E+10 1.62144E+09 2.52715E+07 2.50068E+09-5.91488E+06-1.42510E+08
 -1       443 1.65187E+10 1.62144E+09 2.52715E+07 2.50068E+09-5.91488E+06-1.42510E+08
 -1       444-3.54018E-02-3.30534E-05-2.63355E-03-1.80254E+08 2.04355E+07 2.56143E-04
 -1       446-3.54018E-02-3.30534E-05-2.63355E-03-1.80254E+08 2.04355E+07 2.56143E-04
 -1       447-3.23186E-02-4.86827E-03-2.98023E-05-3.37599E+09-1.82586E+07 9.32097E-04
 -1       449-3.23186E-02-4.86827E-03-2.98023E-05-3.37599E+09-1.82586E+07 9.32097E-04
 -1       458-7.30808E-04-7.36343E-04-4.80217E-04-2.72612E+07-2.42588E+08-3.80361E-03
 -1       460-7.30808E-04-7.36343E-04-4.80217E-04-2.72612E+07-2.42588E+08-3.80361E-03
 -1       461 2.42364E-03 5.09393E-03 2.17557E-04 1.31099E+09-9.85616E+07 7.02313E-05
 -1       463 2.42364E-03 5.09393E-03 2.17557E-04 1.31099E+09-9.85616E+07 7.02313E-05
 -1       472-1.65187E+10-1.62144E+09-2.52715E+07-2.50068E+09-5.91488E+06-1.42510E+08
 -1       474-1.65187E+10-1.62144E+09-2.52715E+07-2.50068E+09-5.91488E+06-1.42510E+08
 -1       475 9.76699E+08 3.59240E+08-1.14146E+07 4.84918E+08-1.70582E+07 7.43650E+06
 -1       477 9.76699E+08 3.59240E+08-1.14146E+07 4.84918E+08-1.70582E+07 7.43650E+06
 -1       478-9.76699E+08-3.59240E+08 1.14146E+07 4.84918E+08-1.70582E+07-7.43650E+06
 -1       480-9.76699E+08-3.59240E+08 1.14146E+07 4.84918E+08-1.70582E+07-7.43650E+06
 -1       481 1.65187E+10 1.62144E+09 2.52715E+07-2.50068E+09-5.91488E+06 1.42510E+08
 -1       483 1.65187E+10 1.62144E+09 2.52715E+07-2.50068E+09-5.91488E+06 1.42510E+08
 -1       484-1.29463E+10-4.46966E+08 2.83254E+06 1.83032E+09-4.23158E+06 4.77656E+07
 -1       486-1.29463E+10-4.46966E+08 2.83254E+06 1.83032E+09-4.23158E+06 4.77656E+07
 -1       487-6.60966E+09 1.75608E+08-3.57901E+06 1.27657E+09-5.14452E+06-1.15628E+06
 -1       489-6.60966E+09 1.75608E+08-3.57901E+06 1.27657E+09-5.14452E+06-1.15628E+06
 -1       490-1.43137E+09-7.67602E+07-9.25806E+05 1.17931E+09-7.62342E+06 2.13321E+07
 -1       492-1.43137E+09-7.67602E+07-9.25806E+05 1.17931E+09-7.62342E+06 2.13321E+07
 -1       493 2.86845E+09 8.50797E+07 3.63759E+06 8.94565E+08-8.72628E+06 7.49020E+06
 -1       495 2.86845E+09 8.50797E+07 3.63759E+06 8.94565E+08-8.72628E+06 7.49020E+06
 -1       496 6.21871E+09 4.38020E+07 6.71211E+05 6.99679E+08-1.15597E+07 1.03532E+07
 -1       498 6.21871E+09 4.38020E+07 6.71211E+05 6.99679E+08-1.15597E+07 1.03532E+07
 -1       499 8.65685E+09 9.37509E+07 6.01100E+06 4.65879E+08-1.35125E+07 4.19493E+06
 -1       501 8.65685E+09 9.37509E+07 6.01100E+06 4.65879E+08-1.35125E+07 4.19493E+06
 -1       502 1.01353E+10 8.53966E+07 2.54358E+06 2.40415E+08-1.51662E+07 1.71371E+06
 -1       504 1.01353E+10 8.53966E+07 2.54358E+06 2.40415E+08-1.51662E+07 1.71371E+06
 -1       505 1.06646E+10 9.95282E+07 6.22080E+06 1.52280E+07-1.56232E+07-2.86199E+06
 -1       507 1.06646E+10 9.95282E+07 6.22080E+06 1.52280E+07-1.56232E+07-2.86199E+06
 -1       508 1.02707E+10 8.76121E+07 3.08081E+06-1.96304E+08-1.47518E+07-6.45347E+06
 -1       510 1.02707E+10 8.76121E+07 3.08081E+06-1.96304E+08-1.47518E+07-6.45347E+06
 -1       511 9.03375E+09 8.11348E+07 4.98245E+06-3.84297E+08-1.26752E+07-1.00878E+07
 -1       513 9.03375E+09 8.11348E+07 4.98245E+06-3.84297E+08-1.26752E+07-1.00878E+07
 -1       514 7.07322E+09 6.03596E+07 2.11603E+06-5.37954E+08-9.21100E+06-1.29592E+07
 -1       516 7.07322E+09 6.03596E+07 2.11603E+06-5.37954E+08-9.21100E+06-1.29592E+07
 -1       517 4.55411E+09 4.06580E+07 2.71440E+06-6.48608E+08-4.94511E+06-1.50830E+07
 -1       519 4.55411E+09 4.06580E+07 2.71440E+06-6.48608E+08-4.94511E+06-1.50830E+07
 -1       520 1.67199E+09 1.39637E+07 8.57551E+04-7.09358E+08 1.51621E+05-1.62370E+07
 -1       522 1.67199E+09 1.39637E+07 8.57551E+04-7.09358E+08 1.51621E+05-1.62370E+07
 -1       523-1.35462E+09-1.10071E+07-1.00063E+04-7.17205E+08 5.35437E+06-1.63460E+07
 -1       525-1.35462E+09-1.10071E+07-1.00063E+04-7.17205E+08 5.35437E+06-1.63460E+07
 -1       526-4.30191E+09-3.74449E+07-2.30053E+06-6.72122E+08 1.05505E+07-1.54134E+07
 -1       528-4.30191E+09-3.74449E+07-2.30053E+06-6.72122E+08 1.05505E+07-1.54134E+07
 -1       529-6.95365E+09-5.93480E+07-2.48484E+06-5.78194E+08 1.50777E+07-1.34882E+07
 -1       531-6.95365E+09-5.93480E+07-2.48484E+06-5.78194E+08 1.50777E+07-1.34882E+07
 -1       532-9.11874E+09-7.89248E+07-4.29219E+06-4.42844E+08 1.87739E+07-1.07207E+07
 -1       534-9.11874E+09-7.89248E+07-4.29219E+06-4.42844E+08 1.87739E+07-1.07207E+07
 -1       535-1.06430E+10-9.05880E+07-4.04444E+06-2.76449E+08 2.11775E+07-7.29832E+06
 -1       537-1.06430E+10-9.05880E+07-4.04444E+06-2.76449E+08 2.11775E+07-7.29832E+06
 -1       538-1.14231E+10-9.88297E+07-5.30899E+06-9.22841E+07 2.21666E+07-3.47642E+06
 -1       540-1.14231E+10-9.88297E+07-5.30899E+06-9.22841E+07 2.21666E+07-3.47642E+06
 -1       541-1.14124E+10-9.55818E+07-4.25428E+06 9.56423E+07 2.15599E+07 4.88755E+05
 -1       543-1.14124E+10-9.55818E+07-4.25428E+06 9.56423E+07 2.15599E+07 4.88755E+05
 -1       544-1.06294E+10-9.21856E+07-5.10314E+06 2.71401E+08 1.93199E+07 4.26530E+06
 -1       546-1.06294E+10-9.21856E+07-5.10314E+06 2.71401E+08 1.93199E+07 4.26530E+06
 -1       547-9.15468E+09-7.25744E+07-3.05084E+06 4.19861E+08 1.55264E+07 7.67520E+06
 -1       549-9.15468E+09-7.25744E+07-3.05084E+06 4.19861E+08 1.55264E+07 7.67520E+06
 -1       550-7.13358E+09-6.15854E+07-3.83190E+06 5.28981E+08 1.02604E+07 1.02449E+07
 -1       552-7.13358E+09-6.15854E+07-3.83190E+06 5.28981E+08 1.02604E+07 1.02449E+07
 -1       553-4.76792E+09-2.98911E+07-7.95893E+05 5.76263E+08 3.62622E+06 1.21998E+07
 -1       555-4.76792E+09-2.98911E+07-7.95893E+05 5.76263E+08 3.62622E+06 1.21998E+07
 -1       556-2.30882E+09-1.18213E+07-2.01851E+06 5.76568E+08-3.86946E+06 1.25188E+07
 -1       558-2.30882E+09-1.18213E+07-2.01851E+06 5.76568E+08-3.86946E+06 1.25188E+07
 -1       559-6.13510E+07 6.60378E+06 1.70170E+06 4.58247E+08-1.28641E+07 1.27266E+07
 -1       561-6.13510E+07 6.60378E+06 1.70170E+06 4.58247E+08-1.28641E+07 1.27266E+07
 -1       562 1.64107E+09 6.44548E+07-2.07356E+05 3.30285E+08-2.05356E+07 9.85019E+06
 -1       564 1.64107E+09 6.44548E+07-2.07356E+05 3.30285E+08-2.05356E+07 9.85019E+06
 -1       565 2.42181E+09-5.73994E+06 2.40565E+06-2.35737E+06-3.00312E+07 9.42285E+06
 -1       567 2.42181E+09-5.73994E+06 2.40565E+06-2.35737E+06-3.00312E+07 9.42285E+06
 -1       568 1.75348E+09 1.35461E+08 3.76973E+06-4.03074E+08-2.69608E+07 2.62984E+06
 -1       570 1.75348E+09 1.35461E+08 3.76973E+06-4.03074E+08-2.69608E+07 2.62984E+06
 -1       571 8.64844E+08 8.54685E+08 9.97889E+06-8.97956E+08-5.78099E+07-4.46984E+06
 -1       573 8.64844E+08 8.54685E+08 9.97889E+06-8.97956E+08-5.78099E+07-4.46984E+06
 -1       574-2.83253E-02-2.93940E-03-1.22666E-04 3.55427E+09 9.04625E+06-1.72548E-04
 -1       576-2.83253E-02-2.93940E-03-1.22666E-04 3.55427E+09 9.04625E+06-1.72548E-04
 -1       577-2.75526E-02-1.24590E-05 5.47874E-03 5.69065E+07 4.79552E+07-1.68708E-02
 -1       579-2.75526E-02-1.24590E-05 5.47874E-03 5.69065E+07 4.79552E+07-1.68708E-02
 -1       588-2.61003E-02-5.48095E-04-9.52035E-05 3.16895E+09 3.53528E+07 1.37590E-04
 -1       590-2.61003E-02-5.48095E-04-9.52035E-05 3.16895E+09 3.53528E+07 1.37590E-04
 -1       591-2.69426E-02 3.88242E-05 1.25781E-02 3.14345E+07 7.57906E+07-1.31969E-02
 -1       593-2.69426E-02 3.88242E-05 1.25781E-02 3.14345E+07 7.57906E+07-1.31969E-02
 -1       602-3.02479E-02-3.97291E-04-9.35383E-05 2.49182E+09 2.75123E+07-7.48902E-05
 -1       604-3.02479E-02-3.97291E-04-9.35383E-05 2.49182E+09 2.75123E+07-7.48902E-05
 -1       605-3.14493E-02-1.34254E-04 4.11216E-03 5.84179E+07 6.84327E+07-1.02440E-02
 -1       607-3.14493E-02-1.34254E-04 4.11216E-03 5.84179E+07 6.84327E+07-1.02440E-02
 -1       616-3.08510E-02-1.40935E-04-1.02822E-04 2.06504E+09 2.45057E+07 7.00587E-07
 -1       618-3.08510E-02-1.40935E-04-1.02822E-04 2.06504E+09 2.45057E+07 7.00587E-07
 -1       619-3.25278E-02-1.58598E-04-8.10216E-03 3.84911E+07 5.83988E+07-1.10905E-02
 -1       621-3.25278E-02-1.58598E-04-8.10216E-03 3.84911E+07 5.83988E+07-1.10905E-02
 -1       630-2.32649E-02-1.15201E-03-1.20699E-04 1.53900E+09 2.03706E+07-1.72689E-05
 -1       632-2.32649E-02-1.15201E-03-1.20699E-04 1.53900E+09 2.03706E+07-1.72689E-05
 -1       633-2.56742E-02-2.40525E-04-9.63330E-03 4.34480E+07 4.62601E+07-1.41113E-02
 -1       635-2.56742E-02-2.40525E-04-9.63330E-03 4.34480E+07 4.62601E+07-1.41113E-02
 -1       644-1.50429E-02-1.17174E-03-2.48194E-04 1.05114E+09 1.52912E+07 7.65364E-05
 -1       646-1.50429E-02-1.17174E-03-2.48194E-04 1.05114E+09 1.52912E+07 7.65364E-05
 -1       647-1.70798E-02-4.24299E-05 1.23981E-03 2.12505E+07 3.37038E+07-1.55799E-02
 -1       649-1.70798E-02-4.24299E-05 1.23981E-03 2.12505E+07 3.37038E+07-1.55799E-02
 -1       658-1.39009E-02 8.59588E-04-2.33889E-04 5.34545E+08 1.32319E+07 7.92228E-05
 -1       660-1.39009E-02 8.59588E-04-2.33889E-04 5.34545E+08 1.32319E+07 7.92228E-05
 -1       661-1.49696E-02 2.45749E-04 1.29910E-02 1.44788E+07 2.46049E+07-1.05648E-02
 -1       663-1.49696E-02 2.45749E-04 1.29910E-02 1.44788E+07 2.46049E+07-1.05648E-02
 -1       672-2.09032E-02 2.63011E-03-7.52211E-05 3.75206E+07 9.94137E+06 1.70961E-04
 -1       674-2.09032E-02 2.63011E-03-7.52211E-05 3.75206E+07 9.94137E+06 1.70961E-04
 -1       675-2.12567E-02 3.54754E-04 1.07819E-02-7.43538E+06 1.67405E+07-2.52292E-03
 -1       677-2.12567E-02 3.54754E-04 1.07819E-02-7.43538E+06 1.67405E+07-2.52292E-03
 -1       686-2.86697E-02 3.62268E-03 8.04663E-05-4.36989E+08 9.08335E+06 1.13141E-04
 -1       688-2.86697E-02 3.62268E-03 8.04663E-05-4.36989E+08 9.08335E+06 1.13141E-04
 -1       689-2.78613E-02 4.03856E-04 4.52685E-04-1.88399E+07 1.23873E+07-2.67036E-03
 -1       691-2.78613E-02 4.03856E-04 4.52685E-04-1.88399E+07 1.23873E+07-2.67036E-03
 -1       700-3.04475E-02 1.59338E-03-1.78814E-07-8.54165E+08 7.50011E+06-1.54821E-05
 -1       702-3.04475E-02 1.59338E-03-1.78814E-07-8.54165E+08 7.50011E+06-1.54821E-05
 -1       703-2.65809E-02 1.37398E-05 5.14256E-04-3.67139E+07 9.93361E+06-9.15306E-03
 -1       705-2.65809E-02 1.37398E-05 5.14256E-04-3.67139E+07 9.93361E+06-9.15306E-03
 -1       714-2.75015E-02-2.34312E-03-6.79493E-05-1.19813E+09 7.43299E+06 5.70607E-05
 -1       716-2.75015E-02-2.34312E-03-6.79493E-05-1.19813E+09 7.43299E+06 5.70607E-05
 -1       717-2.11417E-02 5.50291E-05 1.16884E-02-4.64804E+07 9.93544E+06-8.21158E-03
 -1       719-2.11417E-02 5.50291E-05 1.16884E-02-4.64804E+07 9.93544E+06-8.21158E-03
 -1       728-2.47771E-02-2.33977E-03-1.31637E-04-1.44362E+09 6.92834E+06 8.00039E-05
 -1       730-2.47771E-02-2.33977E-03-1.31637E-04-1.44362E+09 6.92834E+06 8.00039E-05
 -1       731-1.87801E-02 1.91558E-04 1.99626E-02-5.69602E+07 1.16436E+07-3.56476E-04
 -1       733-1.87801E-02 1.91558E-04 1.99626E-02-5.69602E+07 1.16436E+07-3.56476E-04
 -1       742-2.40256E-02 4.10849E-04-3.48724E-05-1.57989E+09 7.28376E+06 1.94758E-05
 -1       744-2.40256E-02 4.10849E-04-3.48724E-05-1.57989E+09 7.28376E+06 1.94758E-05
 -1       745-1.77366E-02 1.72289E-04 1.94766E-02-6.05992E+07 1.44914E+07 7.32994E-03
 -1       747-1.77366E-02 1.72289E-04 1.94766E-02-6.05992E+07 1.44914E+07 7.32994E-03
 -1       756-2.61939E-02-8.45455E-06 4.34928E-05-1.59692E+09 7.21857E+06 5.81425E-06
 -1       758-2.61939E-02-8.45455E-06 4.34928E-05-1.59692E+09 7.21857E+06 5.81425E-06
 -1       759-1.71297E-02 4.21433E-04 1.55813E-02-6.17267E+07 1.83838E+07 1.33900E-02
 -1       761-1.71297E-02 4.21433E-04 1.55813E-02-6.17267E+07 1.83838E+07 1.33900E-02
 -1       770-3.03265E-02-3.95820E-03-7.66963E-05-1.49690E+09 7.59641E+06-3.68496E-05
 -1       772-3.03265E-02-3.95820E-03-7.66963E-05-1.49690E+09 7.59641E+06-3.68496E-05
 -1       773-1.99572E-02 5.22054E-04 1.50138E-02-5.73525E+07 2.20575E+07 1.66666E-02
 -1       775-1.99572E-02 5.22054E-04 1.50138E-02-5.73525E+07 2.20575E+07 1.66666E-02
 -1       784-2.90138E-02-6.86333E-03-1.10447E-04-1.28777E+09 7.42120E+06-8.00039E-05
 -1       786-2.90138E-02-6.86333E-03-1.10447E-04-1.28777E+09 7.42120E+06-8.00039E-05
 -1       787-2.15819E-02 5.46088E-04 1.70296E-02-4.92736E+07 2.60652E+07 1.69137E-02
 -1       789-2.15819E-02 5.46088E-04 1.70296E-02-4.92736E+07 2.60652E+07 1.69137E-02
 -1       798-2.23497E-02-5.08520E-03 7.39098E-06-9.86190E+08 7.47031E+06-4.88290E-05
 -1       800-2.23497E-02-5.08520E-03 7.39098E-06-9.86190E+08 7.47031E+06-4.88290E-05
 -1       801-1.91230E-02 3.21601E-04 1.47550E-02-3.78391E+07 2.86061E+07 1.49888E-02
 -1       803-1.91230E-02 3.21601E-04 1.47550E-02-3.78391E+07 2.86061E+07 1.49888E-02
 -1       812-2.25903E-02 9.13739E-05 7.51019E-06-6.16306E+08 6.80612E+06 3.57464E-05
 -1       814-2.25903E-02 9.13739E-05 7.51019E-06-6.16306E+08 6.80612E+06 3.57464E-05
 -1       815-2.01902E-02-1.27441E-04 7.64171E-03-2.28633E+07 3.11048E+07 1.00749E-02
 -1       817-2.01902E-02-1.27441E-04 7.64171E-03-2.28633E+07 3.11048E+07 1.00749E-02
 -1       826-3.16755E-02 4.60589E-03 1.07586E-04-2.05372E+08 6.33880E+06 2.88544E-05
 -1       828-3.16755E-02 4.60589E-03 1.07586E-04-2.05372E+08 6.33880E+06 2.88544E-05
 -1       829-2.71727E-02 2.94652E-04 3.75220E-03-7.75303E+06 3.10967E+07 2.87764E-03
 -1       831-2.71727E-02 2.94652E-04 3.75220E-03-7.75303E+06 3.10967E+07 2.87764E-03
 -1       840-4.04475E-02 5.71698E-03 1.87755E-04 2.11584E+08 5.07887E+06-3.70859E-05
 -1       842-4.04475E-02 5.71698E-03 1.87755E-04 2.11584E+08 5.07887E+06-3.70859E-05
 -1       843-3.47445E-02 2.69786E-04 3.78037E-03 1.03378E+07 3.13365E+07-4.60129E-04
 -1       845-3.47445E-02 2.69786E-04 3.78037E-03 1.03378E+07 3.13365E+07-4.60129E-04
 -1       854-4.47313E-02 3.58015E-03-2.83718E-05 6.04135E+08 4.14425E+06 6.14392E-05
 -1       856-4.47313E-02 3.58015E-03-2.83718E-05 6.04135E+08 4.14425E+06 6.14392E-05
 -1       857-3.88280E-02-2.29570E-04 1.22553E-03 2.42583E+07 2.81306E+07 3.52987E-04
 -1       859-3.88280E-02-2.29570E-04 1.22553E-03 2.42583E+07 2.81306E+07 3.52987E-04
 -1       868-4.46748E-02 8.73268E-04-1.02878E-04 9.33768E+08 2.56677E+06 6.02481E-05
 -1       870-4.46748E-02 8.73268E-04-1.02878E-04 9.33768E+08 2.56677E+06 6.02481E-05
 -1       871-3.82705E-02 5.71308E-05 3.80300E-04 4.14969E+07 2.64443E+07-1.68490E-03
 -1       873-3.82705E-02 5.71308E-05 3.80300E-04 4.14969E+07 2.64443E+07-1.68490E-03
 -1       882-4.18793E-02-1.56495E-03-4.33624E-05 1.17269E+09 1.36582E+06 4.35752E-05
 -1       884-4.18793E-02-1.56495E-03-4.33624E-05 1.17269E+09 1.36582E+06 4.35752E-05
 -1       885-3.43728E-02 1.89020E-05 8.09019E-03 4.91660E+07 1.98261E+07-4.91959E-03
 -1       887-3.43728E-02 1.89020E-05 8.09019E-03 4.91660E+07 1.98261E+07-4.91959E-03
 -1       896-3.54077E-02-3.73010E-03-9.59635E-05 1.29104E+09 2.40428E+05 1.49430E-04
 -1       898-3.54077E-02-3.73010E-03-9.59635E-05 1.29104E+09 2.40428E+05 1.49430E-04
 -1       899-2.67502E-02 2.04891E-04 1.73587E-02 6.28459E+07 1.74749E+07-5.57127E-03
 -1       901-2.67502E-02 2.04891E-04 1.73587E-02 6.28459E+07 1.74749E+07-5.57127E-03
 -1       910-2.60114E-02-2.74716E-03-7.62343E-05 1.25233E+09-1.58601E+06 8.46281E-05
 -1       912-2.60114E-02-2.74716E-03-7.62343E-05 1.25233E+09-1.58601E+06 8.46281E-05
 -1       913-1.78130E-02 3.80340E-04 2.04693E-02 6.07364E+07 5.90077E+06-5.38755E-03
 -1       915-1.78130E-02 3.80340E-04 2.04693E-02 6.07364E+07 5.90077E+06-5.38755E-03
 -1       924-1.98959E-02 6.53177E-04-1.26436E-05 1.06801E+09-1.25721E+06 9.42957E-05
 -1       926-1.98959E-02 6.53177E-04-1.26436E-05 1.06801E+09-1.25721E+06 9.42957E-05
 -1       927-1.24085E-02 3.93880E-04 2.09878E-02 6.96341E+07 4.05225E+06-4.82708E-03
 -1       929-1.24085E-02 3.93880E-04 2.09878E-02 6.96341E+07 4.05225E+06-4.82708E-03
 -1       938-1.81955E-02 3.85523E-04-4.53815E-05 6.39920E+08-8.40772E+06 2.50101E-05
 -1       940-1.81955E-02 3.85523E-04-4.53815E-05 6.39920E+08-8.40772E+06 2.50101E-05
 -1       941-9.60468E-03 6.52766E-04 2.21167E-02 6.00849E+07-2.21652E+07-4.76581E-03
 -1       943-9.60468E-03 6.52766E-04 2.21167E-02 6.00849E+07-2.21652E+07-4.76581E-03
 -1       952-1.75021E-02-3.61410E-03-1.40538E-04 5.24442E+07-9.65508E+06 2.87220E-06
 -1       954-1.75021E-02-3.61410E-03-1.40538E-04 5.24442E+07-9.65508E+06 2.87220E-06
 -1       955-7.85580E-03 9.90506E-04 1.98616E-02 5.87063E+07-2.85499E+07-3.49419E-03
 -1       957-7.85580E-03 9.90506E-04 1.98616E-02 5.87063E+07-2.85499E+07-3.49419E-03
 -1       966-1.24911E-02-3.97962E-03-9.43299E-05-7.72046E+08-5.13539E+07 6.37332E-05
 -1       968-1.24911E-02-3.97962E-03-9.43299E-05-7.72046E+08-5.13539E+07 6.37332E-05
 -1       969-5.89409E-03 3.44063E-04 1.23256E-02 6.43492E+07-1.16073E+08-5.04702E-04
 -1       971-5.89409E-03 3.44063E-04 1.23256E-02 6.43492E+07-1.16073E+08-5.04702E-04
 -1       980-1.07589E+10-1.26188E+09-1.87835E+06 2.93833E+09-1.20868E+07 6.03941E+07
 -1       982-1.07589E+10-1.26188E+09-1.87835E+06 2.93833E+09-1.20868E+07 6.03941E+07
 -1       983-8.64844E+08-8.54685E+08-9.97889E+06-8.97956E+08-5.78099E+07 4.46984E+06
 -1       985-8.64844E+08-8.54685E+08-9.97889E+06-8.97956E+08-5.78099E+07 4.46984E+06
 -1       986 1.29463E+10 4.46966E+08-2.83254E+06 1.83032E+09-4.23158E+06-4.77656E+07
 -1       988 1.29463E+10 4.46966E+08-2.83254E+06 1.83032E+09-4.23158E+06-4.77656E+07
 -1       989 6.60966E+09-1.75608E+08 3.57901E+06 1.27657E+09-5.14452E+06 1.15628E+06
 -1       991 6.60966E+09-1.75608E+08 3.57901E+06 1.27657E+09-5.14452E+06 1.15628E+06
 -1       992 1.43137E+09 7.67602E+07 9.25806E+05 1.17931E+09-7.62342E+06-2.13321E+07
 -1       994 1.43137E+09 7.67602E+07 9.25806E+05 1.17931E+09-7.62342E+06-2.13321E+07
 -1       995-2.86845E+09-8.50797E+07-3.63759E+06 8.94565E+08-8.72628E+06-7.49020E+06
 -1       997-2.86845E+09-8.50797E+07-3.63759E+06 8.94565E+08-8.72628E+06-7.49020E+06
 -1       998-6.21871E+09-4.38020E+07-6.71211E+05 6.99679E+08-1.15597E+07-1.03532E+07
 -1      1000-6.21871E+09-4.38020E+07-6.71211E+05 6.99679E+08-1.15597E+07-1.03532E+07
 -1      1001-8.65685E+09-9.37509E+07-6.01100E+06 4.65879E+08-1.35125E+07-4.19493E+06
 -1      1003-8.65685E+09-9.37509E+07-6.01100E+06 4.65879E+08-1.35125E+07-4.19493E+06
 -1      1004-1.01353E+10-8.53966E+07-2.54358E+06 2.40415E+08-1.51662E+07-1.71371E+06
 -1      1006-1.01353E+10-8.53966E+07-2.54358E+06 2.40415E+08-1.51662E+07-1.71371E+06
 -1      1007-1.06646E+10-9.95282E+07-6.22080E+06 1.52280E+07-1.56232E+07 2.86199E+06
 -1      1009-1.06646E+10-9.95282E+07-6.22080E+06 1.52280E+07-1.56232E+07 2.86199E+06
 -1      1010-1.02707E+10-8.76121E+07-3.08081E+06-1.96304E+08-1.47518E+07 6.45347E+06
 -1      1012-1.02707E+10-8.76121E+07-3.08081E+06-1.96304E+08-1.47518E+07 6.45347E+06
 -1      1013-9.03375E+09-8.11348E+07-4.98245E+06-3.84297E+08-1.26752E+07 1.00878E+07
 -1      1015-9.03375E+09-8.11348E+07-4.98245E+06-3.84297E+08-1.26752E+07 1.00878E+07
 -1      1016-7.07322E+09-6.03596E+07-2.11603E+06-5.37954E+08-9.21100E+06 1.29592E+07
 -1      1018-7.07322E+09-6.03596E+07-2.11603E+06-5.37954E+08-9.21100E+06 1.29592E+07
 -1      1019-4.55411E+09-4.06580E+07-2.71440E+06-6.48608E+08-4.94511E+06 1.50830E+07
 -1      1021-4.55411E+09-4.06580E+07-2.71440E+06-6.48608E+08-4.94511E+06 1.50830E+07
 -1      1022-1.67199E+09-1.39637E+07-8.57551E+04-7.09358E+08 1.51621E+05 1.62370E+07
 -1      1024-1.67199E+09-1.39637E+07-8.57551E+04-7.09358E+08 1.51621E+05 1.62370E+07
 -1      1025 1.35462E+09 1.10071E+07 1.00063E+04-7.17205E+08 5.35437E+06 1.63460E+07
 -1      1027 1.35462E+09 1.10071E+07 1.00063E+04-7.17205E+08 5.35437E+06 1.63460E+07
 -1      1028 4.30191E+09 3.74449E+07 2.30053E+06-6.72122E+08 1.05505E+07 1.54134E+07
 -1      1030 4.30191E+09 3.74449E+07 2.30053E+06-6.72122E+08 1.05505E+07 1.54134E+07
 -1      1031 6.95365E+09 5.93480E+07 2.48484E+06-5.78194E+08 1.50777E+07 1.34882E+07
 -1      1033 6.95365E+09 5.93480E+07 2.48484E+06-5.78194E+08 1.50777E+07 1.34882E+07
 -1      1034 9.11874E+09 7.89248E+07 4.29219E+06-4.42844E+08 1.87739E+07 1.07207E+07
 -1      1036 9.11874E+09 7.89248E+07 4.29219E+06-4.42844E+08 1.87739E+07 1.07207E+07
 -1      1037 1.06430E+10 9.05880E+07 4.04444E+06-2.76449E+08 2.11775E+07 7.29832E+06
 -1      1039 1.06430E+10 9.05880E+07 4.04444E+06-2.76449E+08 2.11775E+07 7.29832E+06
 -1      1040 1.14231E+10 9.88297E+07 5.30899E+06-9.22841E+07 2.21666E+07 3.47642E+06
 -1      1042 1.14231E+10 9.88297E+07 5.30899E+06-9.22841E+07 2.21666E+07 3.47642E+06
 -1      1043 1.14124E+10 9.55818E+07 4.25428E+06 9.56423E+07 2.15599E+07-4.88755E+05
 -1      1045 1.14124E+10 9.55818E+07 4.25428E+06 9.56423E+07 2.15599E+07-4.88755E+05
 -1      1046 1.06294E+10 9.21856E+07 5.10314E+06 2.71401E+08 1.93199E+07-4.26530E+06
 -1      1048 1.06294E+10 9.21856E+07 5.10314E+06 2.71401E+08 1.93199E+07-4.26530E+06
 -1      1049 9.15468E+09 7.25744E+07 3.05084E+06 4.19861E+08 1.55264E+07-7.67520E+06
 -1      1051 9.15468E+09 7.25744E+07 3.05084E+06 4.19861E+08 1.55264E+07-7.67520E+06
 -1      1052 7.13358E+09 6.15854E+07 3.83190E+06 5.28981E+08 1.02604E+07-1.02449E+07
 -1      1054 7.13358E+09 6.15854E+07 3.83190E+06 5.28981E+08 1.02604E+07-1.02449E+07
 -1      1055 4.76792E+09 2.98911E+07 7.95893E+05 5.76263E+08 3.62622E+06-1.21998E+07
 -1      1057 4.76792E+09 2.98911E+07 7.95893E+05 5.76263E+08 3.62622E+06-1.21998E+07
 -1      1058 2.30882E+09 1.18213E+07 2.01851E+06 5.76568E+08-3.86946E+06-1.25188E+07
 -1      1060 2.30882E+09 1.18213E+07 2.01851E+06 5.76568E+08-3.86946E+06-1.25188E+07
 -1      1061 6.13510E+07-6.60378E+06-1.70170E+06 4.58247E+08-1.28641E+07-1.27266E+07
 -1      1063 6.13510E+07-6.60378E+06-1.70170E+06 4.58247E+08-1.28641E+07-1.27266E+07
 -1      1064-1.64107E+09-6.44548E+07 2.07356E+05 3.30285E+08-2.05356E+07-9.85019E+06
 -1      1066-1.64107E+09-6.44548E+07 2.07356E+05 3.30285E+08-2.05356E+07-9.85019E+06
 -1      1067-2.42181E+09 5.73994E+06-2.40565E+06-2.35737E+06-3.00312E+07-9.42285E+06
 -1      1069-2.42181E+09 5.73994E+06-2.40565E+06-2.35737E+06-3.00312E+07-9.42285E+06
 -1      1070-1.75348E+09-1.35461E+08-3.76973E+06-4.03074E+08-2.69608E+07-2.62984E+06
 -1      1072-1.75348E+09-1.35461E+08-3.76973E+06-4.03074E+08-2.69608E+07-2.62984E+06
 -1      1073 1.07589E+10 1.26188E+09 1.87835E+06 2.93833E+09-1.20868E+07-6.03941E+07
 -1      1075 1.07589E+10 1.26188E+09 1.87835E+06 2.93833E+09-1.20868E+07-6.03941E+07
 -1      1076-2.77435E-02-9.80195E-05-7.25994E-04 1.19283E+08 1.51925E+07-1.58231E-02
 -1      1078-2.77435E-02-9.80195E-05-7.25994E-04 1.19283E+08 1.51925E+07-1.58231E-02
 -1      1079-2.91529E-02-4.39884E-05-3.47569E-04-7.18758E-05 9.94950E+06-1.14198E-02
 -1      1081-2.91529E-02-4.39884E-05-3.47569E-04-7.18758E-05 9.94950E+06-1.14198E-02
 -1      1082-3.39708E-02-5.60402E-05-2.01057E-03-1.19283E+08 1.51925E+07-4.33434E-03
 -1      1084-3.39708E-02-5.60402E-05-2.01057E-03-1.19283E+08 1.51925E+07-4.33434E-03
 -1      1085-3.32428E-02 1.08024E-04 4.18312E-04-5.69065E+07 4.79552E+07-4.55747E-03
 -1      1087-3.32428E-02 1.08024E-04 4.18312E-04-5.69065E+07 4.79552E+07-4.55747E-03
 -1      1088-3.08383E-02-1.32805E-03 5.72205E-06-3.55427E+09 9.04625E+06 1.57312E-04
 -1      1090-3.08383E-02-1.32805E-03 5.72205E-06-3.55427E+09 9.04625E+06 1.57312E-04
 -1      1099-3.05699E-02 2.30134E-04 5.61623E-04-3.14345E+07 7.57906E+07-1.28046E-02
 -1      1101-3.05699E-02 2.30134E-04 5.61623E-04-3.14345E+07 7.57906E+07-1.28046E-02
 -1      1102-3.08073E-02 1.71010E-03 7.39694E-05-3.16895E+09 3.53528E+07-1.16924E-04
 -1      1104-3.08073E-02 1.71010E-03 7.39694E-05-3.16895E+09 3.53528E+07-1.16924E-04
 -1      1113-3.31146E-02-2.53297E-05-4.42878E-03-5.84179E+07 6.84327E+07-1.49682E-02
 -1      1115-3.31146E-02-2.53297E-05-4.42878E-03-5.84179E+07 6.84327E+07-1.49682E-02
 -1      1116-3.57660E-02-6.62424E-04 2.36928E-05-2.49182E+09 2.75123E+07 9.40152E-05
 -1      1118-3.57660E-02-6.62424E-04 2.36928E-05-2.49182E+09 2.75123E+07 9.40152E-05
 -1      1127-3.85912E-02-3.14951E-04-8.62175E-03-3.84911E+07 5.83988E+07-1.26505E-02
 -1      1129-3.85912E-02-3.14951E-04-8.62175E-03-3.84911E+07 5.83988E+07-1.26505E-02
 -1      1130-4.03420E-02-1.92390E-03-1.10418E-04-2.06504E+09 2.45057E+07 4.89338E-05
 -1      1132-4.03420E-02-1.92390E-03-1.10418E-04-2.06504E+09 2.45057E+07 4.89338E-05
 -1      1141-4.20825E-02 1.46687E-04-1.47049E-02-4.34480E+07 4.62601E+07-1.13637E-02
 -1      1143-4.20825E-02 1.46687E-04-1.47049E-02-4.34480E+07 4.62601E+07-1.13637E-02
 -1      1144-4.13420E-02 1.01392E-03-2.30372E-05-1.53900E+09 2.03706E+07 6.30154E-05
 -1      1146-4.13420E-02 1.01392E-03-2.30372E-05-1.53900E+09 2.03706E+07 6.30154E-05
 -1      1155-4.19996E-02 3.02375E-04-1.89318E-02-2.12505E+07 3.37038E+07-6.14030E-03
 -1      1157-4.19996E-02 3.02375E-04-1.89318E-02-2.12505E+07 3.37038E+07-6.14030E-03
 -1      1158-3.79388E-02 2.74670E-03 7.68006E-05-1.05114E+09 1.52912E+07-7.22980E-05
 -1      1160-3.79388E-02 2.74670E-03 7.68006E-05-1.05114E+09 1.52912E+07-7.22980E-05
 -1      1169-3.64943E-02-1.30806E-04-1.14260E-02-1.44788E+07 2.46049E+07 3.19586E-03
 -1      1171-3.64943E-02-1.30806E-04-1.14260E-02-1.44788E+07 2.46049E+07 3.19586E-03
 -1      1172-3.03626E-02 9.31978E-04 3.26037E-05-5.34545E+08 1.32319E+07 4.41356E-05
 -1      1174-3.03626E-02 9.31978E-04 3.26037E-05-5.34545E+08 1.32319E+07 4.41356E-05
 -1      1183-3.05687E-02 2.84007E-04 1.51721E-03 7.43538E+06 1.67405E+07 3.84159E-03
 -1      1185-3.05687E-02 2.84007E-04 1.51721E-03 7.43538E+06 1.67405E+07 3.84159E-03
 -1      1186-2.71771E-02 1.67370E-04 1.04904E-05-3.75206E+07 9.94137E+06-2.90555E-05
 -1      1188-2.71771E-02 1.67370E-04 1.04904E-05-3.75206E+07 9.94137E+06-2.90555E-05
 -1      1197-3.09352E-02 9.38052E-05 2.49309E-03 1.88399E+07 1.23873E+07-2.22651E-03
 -1      1199-3.09352E-02 9.38052E-05 2.49309E-03 1.88399E+07 1.23873E+07-2.22651E-03
 -1      1200-3.09497E-02 1.03027E-03-8.30293E-05 4.36989E+08 9.08335E+06-2.25073E-04
 -1      1202-3.09497E-02 1.03027E-03-8.30293E-05 4.36989E+08 9.08335E+06-2.25073E-04
 -1      1211-3.00282E-02-2.86030E-04-3.48809E-03 3.67139E+07 9.93361E+06-1.58341E-03
 -1      1213-3.00282E-02-2.86030E-04-3.48809E-03 3.67139E+07 9.93361E+06-1.58341E-03
 -1      1214-3.11462E-02 2.31263E-03-2.22325E-05 8.54165E+08 7.50011E+06-2.24214E-04
 -1      1216-3.11462E-02 2.31263E-03-2.22325E-05 8.54165E+08 7.50011E+06-2.24214E-04
 -1      1225-2.31015E-02-6.81734E-05-1.48954E-03 4.64804E+07 9.93544E+06 4.06251E-03
 -1      1227-2.31015E-02-6.81734E-05-1.48954E-03 4.64804E+07 9.93544E+06 4.06251E-03
 -1      1228-2.58944E-02 3.11232E-03 7.27177E-05 1.19813E+09 7.43299E+06-2.26316E-04
 -1      1230-2.58944E-02 3.11232E-03 7.27177E-05 1.19813E+09 7.43299E+06-2.26316E-04
 -1      1239-1.95646E-02 1.92913E-04 8.00631E-03 5.69602E+07 1.16436E+07 7.50158E-03
 -1      1241-1.95646E-02 1.92913E-04 8.00631E-03 5.69602E+07 1.16436E+07 7.50158E-03
 -1      1242-2.51890E-02 1.92313E-03-4.05908E-05 1.44362E+09 6.92834E+06-2.18995E-04
 -1      1244-2.51890E-02 1.92313E-03-4.05908E-05 1.44362E+09 6.92834E+06-2.18995E-04
 -1      1253-2.19782E-02 3.65951E-04 1.78551E-02 6.05992E+07 1.44914E+07 7.00136E-03
 -1      1255-2.19782E-02 3.65951E-04 1.78551E-02 6.05992E+07 1.44914E+07 7.00136E-03
 -1      1256-2.90676E-02 1.70045E-03-1.09987E-04 1.57989E+09 7.28376E+06-1.23579E-04
 -1      1258-2.90676E-02 1.70045E-03-1.09987E-04 1.57989E+09 7.28376E+06-1.23579E-04
 -1      1267-2.39929E-02 1.17261E-04 2.10614E-02 6.17267E+07 1.83838E+07 6.37371E-03
 -1      1269-2.39929E-02 1.17261E-04 2.10614E-02 6.17267E+07 1.83838E+07 6.37371E-03
 -1      1270-2.93905E-02 3.69144E-03-2.82545E-05 1.59692E+09 7.21857E+06-1.63931E-04
 -1      1272-2.93905E-02 3.69144E-03-2.82545E-05 1.59692E+09 7.21857E+06-1.63931E-04
 -1      1281-2.12342E-02-4.20162E-05 1.97341E-02 5.73525E+07 2.20575E+07 1.03739E-02
 -1      1283-2.12342E-02-4.20162E-05 1.97341E-02 5.73525E+07 2.20575E+07 1.03739E-02
 -1      1284-2.41910E-02 2.98813E-03-4.36753E-05 1.49690E+09 7.59641E+06-4.58169E-05
 -1      1286-2.41910E-02 2.98813E-03-4.36753E-05 1.49690E+09 7.59641E+06-4.58169E-05
 -1      1295-1.44365E-02 2.91057E-04 2.05359E-02 4.92736E+07 2.60652E+07 1.17923E-02
 -1      1297-1.44365E-02 2.91057E-04 2.05359E-02 4.92736E+07 2.60652E+07 1.17923E-02
 -1      1298-1.62747E-02-3.22491E-04-7.14660E-05 1.28777E+09 7.42120E+06 5.37329E-05
 -1      1300-1.62747E-02-3.22491E-04-7.14660E-05 1.28777E+09 7.42120E+06 5.37329E-05
 -1      1309-7.03521E-03 5.02327E-04 1.72584E-02 3.78391E+07 2.86061E+07 5.06206E-03
 -1      1311-7.03521E-03 5.02327E-04 1.72584E-02 3.78391E+07 2.86061E+07 5.06206E-03
 -1      1312-7.21729E-03-1.12697E-03 1.21593E-05 9.86190E+08 7.47031E+06-5.35231E-05
 -1      1314-7.21729E-03-1.12697E-03 1.21593E-05 9.86190E+08 7.47031E+06-5.35231E-05
 -1      1323 4.16391E-04-8.66693E-05 7.29942E-03 2.28633E+07 3.11048E+07-3.79350E-04
 -1      1325 4.16391E-04-8.66693E-05 7.29942E-03 2.28633E+07 3.11048E+07-3.79350E-04
 -1      1326 1.66130E-03-1.91414E-03 2.10404E-05 6.16306E+08 6.80612E+06-3.24186E-05
 -1      1328 1.66130E-03-1.91414E-03 2.10404E-05 6.16306E+08 6.80612E+06-3.24186E-05
 -1      1337 5.34198E-03-1.93800E-04 6.95562E-04 7.75303E+06 3.10967E+07-6.98477E-04
 -1      1339 5.34198E-03-1.93800E-04 6.95562E-04 7.75303E+06 3.10967E+07-6.98477E-04
 -1      1340 5.88918E-03-6.24323E-03-2.18153E-04 2.05372E+08 6.33880E+06 1.03701E-04
 -1      1342 5.88918E-03-6.24323E-03-2.18153E-04 2.05372E+08 6.33880E+06 1.03701E-04
 -1      1351 4.51190E-03 2.24703E-04-2.13086E-03-1.03378E+07 3.13365E+07-6.35501E-04
 -1      1353 4.51190E-03 2.24703E-04-2.13086E-03-1.03378E+07 3.13365E+07-6.35501E-04
 -1      1354 5.03969E-03-7.03776E-03-3.07441E-04-2.11584E+08 5.07887E+06 6.36461E-05
 -1      1356 5.03969E-03-7.03776E-03-3.07441E-04-2.11584E+08 5.07887E+06 6.36461E-05
 -1      1365 1.79972E-03 4.19306E-04-3.89924E-03-2.42583E+07 2.81306E+07 1.29638E-03
 -1      1367 1.79972E-03 4.19306E-04-3.89924E-03-2.42583E+07 2.81306E+07 1.29638E-03
 -1      1368 3.76773E-03-3.06058E-03-1.17064E-04-6.04135E+08 4.14425E+06-2.87226E-06
 -1      1370 3.76773E-03-3.06058E-03-1.17064E-04-6.04135E+08 4.14425E+06-2.87226E-06
 -1      1379-6.84063E-04 4.48289E-04 2.87780E-03-4.14969E+07 2.64443E+07 4.63139E-03
 -1      1381-6.84063E-04 4.48289E-04 2.87780E-03-4.14969E+07 2.64443E+07 4.63139E-03
 -1      1382 1.67274E-03-2.52280E-03-3.74317E-05-9.33768E+08 2.56677E+06 2.71818E-05
 -1      1384 1.67274E-03-2.52280E-03-3.74317E-05-9.33768E+08 2.56677E+06 2.71818E-05
 -1      1393-4.34961E-03 4.01768E-04 1.52284E-02-4.91660E+07 1.98261E+07 1.60394E-03
 -1      1395-4.34961E-03 4.01768E-04 1.52284E-02-4.91660E+07 1.98261E+07 1.60394E-03
 -1      1396-2.43354E-03-3.38694E-03 2.28882E-05-1.17269E+09 1.36582E+06-1.00534E-05
 -1      1398-2.43354E-03-3.38694E-03 2.28882E-05-1.17269E+09 1.36582E+06-1.00534E-05
 -1      1407-6.53236E-03 3.46454E-04 1.68965E-02-6.28459E+07 1.74749E+07-7.07767E-03
 -1      1409-6.53236E-03 3.46454E-04 1.68965E-02-6.28459E+07 1.74749E+07-7.07767E-03
 -1      1410-4.99946E-03-7.67872E-04 6.60121E-06-1.29104E+09 2.40428E+05-5.52745E-05
 -1      1412-4.99946E-03-7.67872E-04 6.60121E-06-1.29104E+09 2.40428E+05-5.52745E-05
 -1      1421-5.02859E-03 1.00640E-04 7.79267E-03-6.07364E+07 5.90077E+06-9.45153E-03
 -1      1423-5.02859E-03 1.00640E-04 7.79267E-03-6.07364E+07 5.90077E+06-9.45153E-03
 -1      1424-3.68752E-03 1.89606E-03 6.50585E-05-1.25233E+09-1.58601E+06 3.57288E-05
 -1      1426-3.68752E-03 1.89606E-03 6.50585E-05-1.25233E+09-1.58601E+06 3.57288E-05
 -1      1435-9.34374E-04 7.04765E-05 3.77277E-03-6.96341E+07 4.05225E+06-3.78776E-03
 -1      1437-9.34374E-04 7.04765E-05 3.77277E-03-6.96341E+07 4.05225E+06-3.78776E-03
 -1      1438-1.37076E-04 1.92385E-03 1.20550E-05-1.06801E+09-1.25721E+06 1.70166E-04
 -1      1440-1.37076E-04 1.92385E-03 1.20550E-05-1.06801E+09-1.25721E+06 1.70166E-04
 -1      1449 3.42212E-03 3.34724E-04 7.64123E-03-6.00849E+07-2.21652E+07-2.39035E-03
 -1      1451 3.42212E-03 3.34724E-04 7.64123E-03-6.00849E+07-2.21652E+07-2.39035E-03
 -1      1452 3.27033E-03 1.40613E-03 3.73423E-05-6.39920E+08-8.40772E+06 1.35348E-04
 -1      1454 3.27033E-03 1.40613E-03 3.73423E-05-6.39920E+08-8.40772E+06 1.35348E-04
 -1      1463 4.27487E-03 8.76490E-05 8.21865E-03-5.87063E+07-2.85499E+07-6.38363E-03
 -1      1465 4.27487E-03 8.76490E-05 8.21865E-03-5.87063E+07-2.85499E+07-6.38363E-03
 -1      1466 4.66374E-03 5.26220E-04 8.24314E-05-5.24442E+07-9.65508E+06 2.09119E-05
 -1      1468 4.66374E-03 5.26220E-04 8.24314E-05-5.24442E+07-9.65508E+06 2.09119E-05
 -1      1477 1.26745E-03-4.90135E-04 2.84972E-03-6.43492E+07-1.16073E+08-6.01569E-03
 -1      1479 1.26745E-03-4.90135E-04 2.84972E-03-6.43492E+07-1.16073E+08-6.01569E-03
 -1      1480 3.51042E-03 2.35426E-03 8.21929E-05 7.72046E+08-5.13539E+07 2.66038E-05
 -1      1482 3.51042E-03 2.35426E-03 8.21929E-05 7.72046E+08-5.13539E+07 2.66038E-05
 -1      1491-3.19765E-03-6.74378E-05 9.03468E-03-1.29577E+07-1.45400E+08-1.75000E-04
 -1      1493-3.19765E-03-6.74378E-05 9.03468E-03-1.29577E+07-1.45400E+08-1.75000E-04
 -1      1494-1.58516E-03 5.52352E-05 8.99276E-03-3.86685E-05-4.82124E+07-1.73862E-04
 -1      1496-1.58516E-03 5.52352E-05 8.99276E-03-3.86685E-05-4.82124E+07-1.73862E-04
 -1      1497-9.43959E-04-5.11580E-04 3.50898E-03 1.29577E+07-1.45400E+08-1.51082E-03
 -1      1499-9.43959E-04-5.11580E-04 3.50898E-03 1.29577E+07-1.45400E+08-1.51082E-03
 -1      1500-1.29463E+10-4.46966E+08 2.83254E+06-1.83032E+09-4.23158E+06-4.77656E+07
 -1      1502-1.29463E+10-4.46966E+08 2.83254E+06-1.83032E+09-4.23158E+06-4.77656E+07
 -1      1503-6.60966E+09 1.75608E+08-3.57901E+06-1.27657E+09-5.14452E+06 1.15628E+06
 -1      1505-6.60966E+09 1.75608E+08-3.57901E+06-1.27657E+09-5.14452E+06 1.15628E+06
 -1      1506-1.43137E+09-7.67602E+07-9.25806E+05-1.17931E+09-7.62342E+06-2.13321E+07
 -1      1508-1.43137E+09-7.67602E+07-9.25806E+05-1.17931E+09-7.62342E+06-2.13321E+07
 -1      1509 2.86845E+09 8.50797E+07 3.63759E+06-8.94565E+08-8.72628E+06-7.49020E+06
 -1      1511 2.86845E+09 8.50797E+07 3.63759E+06-8.94565E+08-8.72628E+06-7.49020E+06
 -1      1512 6.21871E+09 4.38020E+07 6.71211E+05-6.99679E+08-1.15597E+07-1.03532E+07
 -1      1514 6.21871E+09 4.38020E+07 6.71211E+05-6.99679E+08-1.15597E+07-1.03532E+07
 -1      1515 8.65685E+09 9.37509E+07 6.01100E+06-4.65879E+08-1.35125E+07-4.19493E+06
 -1      1517 8.65685E+09 9.37509E+07 6.01100E+06-4.65879E+08-1.35125E+07-4.19493E+06
 -1      1518 1.01353E+10 8.53966E+07 2.54358E+06-2.40415E+08-1.51662E+07-1.71371E+06
 -1      1520 1.01353E+10 8.53966E+07 2.54358E+06-2.40415E+08-1.51662E+07-1.71371E+06
 -1      1521 1.06646E+10 9.95282E+07 6.22080E+06-1.52280E+07-1.56232E+07 2.86199E+06
 -1      1523 1.06646E+10 9.95282E+07 6.22080E+06-1.52280E+07-1.56232E+07 2.86199E+06
 -1      1524 1.02707E+10 8.76121E+07 3.08081E+06 1.96304E+08-1.47518E+07 6.45347E+06
 -1      1526 1.02707E+10 8.76121E+07 3.08081E+06 1.96304E+08-1.47518E+07 6.45347E+06
 -1      1527 9.03375E+09 8.11348E+07 4.98245E+06 3.84297E+08-1.26752E+07 1.00878E+07
 -1      1529 9.03375E+09 8.11348E+07 4.98245E+06 3.84297E+08-1.26752E+07 1.00878E+07
 -1      1530 7.07322E+09 6.03596E+07 2.11603E+06 5.37954E+08-9.21100E+06 1.29592E+07
 -1      1532 7.07322E+09 6.03596E+07 2.11603E+06 5.37954E+08-9.21100E+06 1.29592E+07
 -1      1533 4.55411E+09 4.06580E+07 2.71440E+06 6.48608E+08-4.94511E+06 1.50830E+07
 -1      1535 4.55411E+09 4.06580E+07 2.71440E+06 6.48608E+08-4.94511E+06 1.50830E+07
 -1      1536 1.67199E+09 1.39637E+07 8.57551E+04 7.09358E+08 1.51621E+05 1.62370E+07
 -1      1538 1.67199E+09 1.39637E+07 8.57551E+04 7.09358E+08 1.51621E+05 1.62370E+07
 -1      1539-1.35462E+09-1.10071E+07-1.00063E+04 7.17205E+08 5.35437E+06 1.63460E+07
 -1      1541-1.35462E+09-1.10071E+07-1.00063E+04 7.17205E+08 5.35437E+06 1.63460E+07
 -1      1542-4.30191E+09-3.74449E+07-2.30053E+06 6.72122E+08 1.05505E+07 1.54134E+07
 -1      1544-4.30191E+09-3.74449E+07-2.30053E+06 6.72122E+08 1.05505E+07 1.54134E+07
 -1      1545-6.95365E+09-5.93480E+07-2.48484E+06 5.78194E+08 1.50777E+07 1.34882E+07
 -1      1547-6.95365E+09-5.93480E+07-2.48484E+06 5.78194E+08 1.50777E+07 1.34882E+07
 -1      1548-9.11874E+09-7.89248E+07-4.29219E+06 4.42844E+08 1.87739E+07 1.07207E+07
 -1      1550-9.11874E+09-7.89248E+07-4.29219E+06 4.42844E+08 1.87739E+07 1.07207E+07
 -1      1551-1.06430E+10-9.05880E+07-4.04444E+06 2.76449E+08 2.11775E+07 7.29832E+06
 -1      1553-1.06430E+10-9.05880E+07-4.04444E+06 2.76449E+08 2.11775E+07 7.29832E+06
 -1      1554-1.14231E+10-9.88297E+07-5.30899E+06 9.22841E+07 2.21666E+07 3.47642E+06
 -1      1556-1.14231E+10-9.88297E+07-5.30899E+06 9.22841E+07 2.21666E+07 3.47642E+06
 -1      1557-1.14124E+10-9.55818E+07-4.25428E+06-9.56423E+07 2.15599E+07-4.88755E+05
 -1      1559-1.14124E+10-9.55818E+07-4.25428E+06-9.56423E+07 2.15599E+07-4.88755E+05
 -1      1560-1.06294E+10-9.21856E+07-5.10314E+06-2.71401E+08 1.93199E+07-4.26530E+06
 -1      1562-1.06294E+10-9.21856E+07-5.10314E+06-2.71401E+08 1.93199E+07-4.26530E+06
 -1      1563-9.15468E+09-7.25744E+07-3.05084E+06-4.19861E+08 1.55264E+07-7.67520E+06
 -1      1565-9.15468E+09-7.25744E+07-3.05084E+06-4.19861E+08 1.55264E+07-7.67520E+06
 -1      1566-7.13358E+09-6.15854E+07-3.83190E+06-5.28981E+08 1.02604E+07-1.02449E+07
 -1      1568-7.13358E+09-6.15854E+07-3.83190E+06-5.28981E+08 1.02604E+07-1.02449E+07
 -1      1569-4.76792E+09-2.98911E+07-7.95893E+05-5.76263E+08 3.62622E+06-1.21998E+07
 -1      1571-4.76792E+09-2.98911E+07-7.95893E+05-5.76263E+08 3.62622E+06-1.21998E+07
 -1      1572-2.30882E+09-1.18213E+07-2.01851E+06-5.76568E+08-3.86946E+06-1.25188E+07
 -1      1574-2.30882E+09-1.18213E+07-2.01851E+06-5.76568E+08-3.86946E+06-1.25188E+07
 -1      1575-6.13510E+07 6.60378E+06 1.70170E+06-4.58247E+08-1.28641E+07-1.27266E+07
 -1      1577-6.13510E+07 6.60378E+06 1.70170E+06-4.58247E+08-1.28641E+07-1.27266E+07
 -1      1578 1.64107E+09 6.44548E+07-2.07356E+05-3.30285E+08-2.05356E+07-9.85019E+06
 -1      1580 1.64107E+09 6.44548E+07-2.07356E+05-3.30285E+08-2.05356E+07-9.85019E+06
 -1      1581 2.42181E+09-5.73994E+06 2.40565E+06 2.35737E+06-3.00312E+07-9.42285E+06
 -1      1583 2.42181E+09-5.73994E+06 2.40565E+06 2.35737E+06-3.00312E+07-9.42285E+06
 -1      1584 1.75348E+09 1.35461E+08 3.76973E+06 4.03074E+08-2.69608E+07-2.62984E+06
 -1      1586 1.75348E+09 1.35461E+08 3.76973E+06 4.03074E+08-2.69608E+07-2.62984E+06
 -1      1587 8.64844E+08 8.54685E+08 9.97889E+06 8.97956E+08-5.78099E+07 4.46984E+06
 -1      1589 8.64844E+08 8.54685E+08 9.97889E+06 8.97956E+08-5.78099E+07 4.46984E+06
 -1      1590-1.07589E+10-1.26188E+09-1.87835E+06-2.93833E+09-1.20868E+07-6.03941E+07
 -1      1592-1.07589E+10-1.26188E+09-1.87835E+06-2.93833E+09-1.20868E+07-6.03941E+07
 -1      1593-8.64844E+08-8.54685E+08-9.97889E+06 8.97956E+08-5.78099E+07-4.46984E+06
 -1      1595-8.64844E+08-8.54685E+08-9.97889E+06 8.97956E+08-5.78099E+07-4.46984E+06
 -1      1596 1.29463E+10 4.46966E+08-2.83254E+06-1.83032E+09-4.23158E+06 4.77656E+07
 -1      1598 1.29463E+10 4.46966E+08-2.83254E+06-1.83032E+09-4.23158E+06 4.77656E+07
 -1      1599 6.60966E+09-1.75608E+08 3.57901E+06-1.27657E+09-5.14452E+06-1.15628E+06
 -1      1601 6.60966E+09-1.75608E+08 3.57901E+06-1.27657E+09-5.14452E+06-1.15628E+06
 -1      1602 1.43137E+09 7.67602E+07 9.25806E+05-1.17931E+09-7.62342E+06 2.13321E+07
 -1      1604 1.43137E+09 7.67602E+07 9.25806E+05-1.17931E+09-7.62342E+06 2.13321E+07
 -1      1605-2.86845E+09-8.50797E+07-3.63759E+06-8.94565E+08-8.72628E+06 7.49020E+06
 -1      1607-2.86845E+09-8.50797E+07-3.63759E+06-8.94565E+08-8.72628E+06 7.49020E+06
 -1      1608-6.21871E+09-4.38020E+07-6.71211E+05-6.99679E+08-1.15597E+07 1.03532E+07
 -1      1610-6.21871E+09-4.38020E+07-6.71211E+05-6.99679E+08-1.15597E+07 1.03532E+07
 -1      1611-8.65685E+09-9.37509E+07-6.01100E+06-4.65879E+08-1.35125E+07 4.19493E+06
 -1      1613-8.65685E+09-9.37509E+07-6.01100E+06-4.65879E+08-1.35125E+07 4.19493E+06
 -1      1614-1.01353E+10-8.53966E+07-2.54358E+06-2.40415E+08-1.51662E+07 1.71371E+06
 -1      1616-1.01353E+10-8.53966E+07-2.54358E+06-2.40415E+08-1.51662E+07 1.71371E+06
 -1      1617-1.06646E+10-9.95282E+07-6.22080E+06-1.52280E+07-1.56232E+07-2.86199E+06
 -1      1619-1.06646E+10-9.95282E+07-6.22080E+06-1.52280E+07-1.56232E+07-2.86199E+06
 -1      1620-1.02707E+10-8.76121E+07-3.08081E+06 1.96304E+08-1.47518E+07-6.45347E+06
 -1      1622-1.02707E+10-8.76121E+07-3.08081E+06 1.96304E+08-1.47518E+07-6.45347E+06
 -1      1623-9.03375E+09-8.11348E+07-4.98245E+06 3.84297E+08-1.26752E+07-1.00878E+07
 -1      1625-9.03375E+09-8.11348E+07-4.98245E+06 3.84297E+08-1.26752E+07-1.00878E+07
 -1      1626-7.07322E+09-6.03596E+07-2.11603E+06 5.37954E+08-9.21100E+06-1.29592E+07
 -1      1628-7.07322E+09-6.03596E+07-2.11603E+06 5.37954E+08-9.21100E+06-1.29592E+07
 -1      1629-4.55411E+09-4.06580E+07-2.71440E+06 6.48608E+08-4.94511E+06-1.50830E+07
 -1      1631-4.55411E+09-4.06580E+07-2.71440E+06 6.48608E+08-4.94511E+06-1.50830E+07
 -1      1632-1.67199E+09-1.39637E+07-8.57551E+04 7.09358E+08 1.51621E+05-1.62370E+07
 -1      1634-1.67199E+09-1.39637E+07-8.57551E+04 7.09358E+08 1.51621E+05-1.62370E+07
 -1      1635 1.35462E+09 1.10071E+07 1.00063E+04 7.17205E+08 5.35437E+06-1.63460E+07
 -1      1637 1.35462E+09 1.10071E+07 1.00063E+04 7.17205E+08 5.35437E+06-1.63460E+07
 -1      1638 4.30191E+09 3.74449E+07 2.30053E+06 6.72122E+08 1.05505E+07-1.54134E+07
 -1      1640 4.30191E+09 3.74449E+07 2.30053E+06 6.72122E+08 1.05505E+07-1.54134E+07
 -1      1641 6.95365E+09 5.93480E+07 2.48484E+06 5.78194E+08 1.50777E+07-1.34882E+07
 -1      1643 6.95365E+09 5.93480E+07 2.48484E+06 5.78194E+08 1.50777E+07-1.34882E+07
 -1      1644 9.11874E+09 7.89248E+07 4.29219E+06 4.42844E+08 1.87739E+07-1.07207E+07
 -1      1646 9.11874E+09 7.89248E+07 4.29219E+06 4.42844E+08 1.87739E+07-1.07207E+07
 -1      1647 1.06430E+10 9.05880E+07 4.04444E+06 2.76449E+08 2.11775E+07-7.29832E+06
 -1      1649 1.06430E+10 9.05880E+07 4.04444E+06 2.76449E+08 2.11775E+07-7.29832E+06
 -1      1650 1.14231E+10 9.88297E+07 5.30899E+06 9.22841E+07 2.21666E+07-3.47642E+06
 -1      1652 1.14231E+10 9.88297E+07 5.30899E+06 9.22841E+07 2.21666E+07-3.47642E+06
 -1      1653 1.14124E+10 9.55818E+07 4.25428E+06-9.56423E+07 2.15599E+07 4.88755E+05
 -1      1655 1.14124E+10 9.55818E+07 4.25428E+06-9.56423E+07 2.15599E+07 4.88755E+05
 -1      1656 1.06294E+10 9.21856E+07 5.10314E+06-2.71401E+08 1.93199E+07 4.26530E+06
 -1      1658 1.06294E+10 9.21856E+07 5.10314E+06-2.71401E+08 1.93199E+07 4.26530E+06
 -1      1659 9.15468E+09 7.25744E+07 3.05084E+06-4.19861E+08 1.55264E+07 7.67520E+06
 -1      1661 9.15468E+09 7.25744E+07 3.05084E+06-4.19861E+08 1.55264E+07 7.67520E+06
 -1      1662 7.13358E+09 6.15854E+07 3.83190E+06-5.28981E+08 1.02604E+07 1.02449E+07
 -1      1664 7.13358E+09 6.15854E+07 3.83190E+06-5.28981E+08 1.02604E+07 1.02449E+07
 -1      1665 4.76792E+09 2.98911E+07 7.95893E+05-5.76263E+08 3.62622E+06 1.21998E+07
 -1      1667 4.76792E+09 2.98911E+07 7.95893E+05-5.76263E+08 3.62622E+06 1.21998E+07
 -1      1668 2.30882E+09 1.18213E+07 2.01851E+06-5.76568E+08-3.86946E+06 1.25188E+07
 -1      1670 2.30882E+09 1.18213E+07 2.01851E+06-5.76568E+08-3.86946E+06 1.25188E+07
 -1      1671 6.13510E+07-6.60378E+06-1.70170E+06-4.58247E+08-1.28641E+07 1.27266E+07
 -1      1673 6.13510E+07-6.60378E+06-1.70170E+06-4.58247E+08-1.28641E+07 1.27266E+07
 -1      1674-1.64107E+09-6.44548E+07 2.07356E+05-3.30285E+08-2.05356E+07 9.85019E+06
 -1      1676-1.64107E+09-6.44548E+07 2.07356E+05-3.30285E+08-2.05356E+07 9.85019E+06
 -1      1677-2.42181E+09 5.73994E+06-2.40565E+06 2.35737E+06-3.00312E+07 9.42285E+06
 -1      1679-2.42181E+09 5.73994E+06-2.40565E+06 2.35737E+06-3.00312E+07 9.42285E+06
 -1      1680-1.75348E+09-1.35461E+08-3.76973E+06 4.03074E+08-2.69608E+07 2.62984E+06
 -1      1682-1.75348E+09-1.35461E+08-3.76973E+06 4.03074E+08-2.69608E+07 2.62984E+06
 -1      1683 1.07589E+10 1.26188E+09 1.87835E+06-2.93833E+09-1.20868E+07 6.03941E+07
 -1      1685 1.07589E+10 1.26188E+09 1.87835E+06-2.93833E+09-1.20868E+07 6.03941E+07
 -1      1686-8.64122E+09-4.72634E+08-1.80506E+06 2.69230E+09 2.40734E+06 1.61288E+07
 -1      1688-8.64122E+09-4.72634E+08-1.80506E+06 2.69230E+09 2.40734E+06 1.61288E+07
 -1      1689-4.50114E+09 6.16218E+07 3.91326E+05 2.22276E+09 1.51041E+07-6.42125E+06
 -1      1691-4.50114E+09 6.16218E+07 3.91326E+05 2.22276E+09 1.51041E+07-6.42125E+06
 -1      1692-9.54509E+08-6.01642E+07 1.29183E+05 1.83556E+09 9.94442E+06 5.89159E+06
 -1      1694-9.54509E+08-6.01642E+07 1.29183E+05 1.83556E+09 9.94442E+06 5.89159E+06
 -1      1695 1.87935E+09 6.64955E+07-2.19922E+05 1.47980E+09 7.88973E+06 6.91387E+05
 -1      1697 1.87935E+09 6.64955E+07-2.19922E+05 1.47980E+09 7.88973E+06 6.91387E+05
 -1      1698 4.14456E+09 9.04014E+07 9.81287E+05 1.11934E+09 4.40545E+06 3.02095E+06
 -1      1700 4.14456E+09 9.04014E+07 9.81287E+05 1.11934E+09 4.40545E+06 3.02095E+06
 -1      1701 5.76460E+09 1.29072E+08 1.45645E+04 7.58509E+08 8.89326E+05 1.35359E+06
 -1      1703 5.76460E+09 1.29072E+08 1.45645E+04 7.58509E+08 8.89326E+05 1.35359E+06
 -1      1704 6.75964E+09 1.48379E+08 1.02428E+06 3.87480E+08-9.67181E+05 1.06163E+06
 -1      1706 6.75964E+09 1.48379E+08 1.02428E+06 3.87480E+08-9.67181E+05 1.06163E+06
 -1      1707 7.11203E+09 1.55475E+08 3.39889E+05 2.63743E+07-2.84091E+06 8.33513E+02
 -1      1709 7.11203E+09 1.55475E+08 3.39889E+05 2.63743E+07-2.84091E+06 8.33513E+02
 -1      1710 6.85208E+09 1.48926E+08 7.95280E+05-3.16646E+08-2.83422E+06-8.63080E+05
 -1      1712 6.85208E+09 1.48926E+08 7.95280E+05-3.16646E+08-2.83422E+06-8.63080E+05
 -1      1713 6.02647E+09 1.31208E+08 4.23188E+05-6.19231E+08-2.58757E+06-1.70858E+06
 -1      1715 6.02647E+09 1.31208E+08 4.23188E+05-6.19231E+08-2.58757E+06-1.70858E+06
 -1      1716 4.71933E+09 1.02048E+08 4.64069E+05-8.68041E+08-8.89007E+05-2.44376E+06
 -1      1718 4.71933E+09 1.02048E+08 4.64069E+05-8.68041E+08-8.89007E+05-2.44376E+06
 -1      1719 3.03805E+09 6.59147E+07 2.52626E+05-1.04612E+09 9.91617E+05-2.94764E+06
 -1      1721 3.03805E+09 6.59147E+07 2.52626E+05-1.04612E+09 9.91617E+05-2.94764E+06
 -1      1722 1.11521E+09 2.36370E+07 9.41081E+04-1.14462E+09 3.71769E+06-3.25665E+06
 -1      1724 1.11521E+09 2.36370E+07 9.41081E+04-1.14462E+09 3.71769E+06-3.25665E+06
 -1      1725-9.04816E+08-1.99230E+07-7.43334E+04-1.15706E+09 6.28647E+06-3.28398E+06
 -1      1727-9.04816E+08-1.99230E+07-7.43334E+04-1.15706E+09 6.28647E+06-3.28398E+06
 -1      1728-2.87145E+09-6.29565E+07-2.42072E+05-1.08451E+09 9.07346E+06-3.07270E+06
 -1      1730-2.87145E+09-6.29565E+07-2.42072E+05-1.08451E+09 9.07346E+06-3.07270E+06
 -1      1731-4.64141E+09-1.01098E+08-4.40667E+05-9.32982E+08 1.12494E+07-2.61208E+06
 -1      1733-4.64141E+09-1.01098E+08-4.40667E+05-9.32982E+08 1.12494E+07-2.61208E+06
 -1      1734-6.08615E+09-1.32704E+08-4.53632E+05-7.14517E+08 1.31221E+07-1.94860E+06
 -1      1736-6.08615E+09-1.32704E+08-4.53632E+05-7.14517E+08 1.31221E+07-1.94860E+06
 -1      1737-7.10388E+09-1.54345E+08-7.52134E+05-4.46377E+08 1.39918E+07-1.12498E+06
 -1      1739-7.10388E+09-1.54345E+08-7.52134E+05-4.46377E+08 1.39918E+07-1.12498E+06
 -1      1740-7.62437E+09-1.65929E+08-4.53481E+05-1.48828E+08 1.42527E+07-2.06707E+05
 -1      1742-7.62437E+09-1.65929E+08-4.53481E+05-1.48828E+08 1.42527E+07-2.06707E+05
 -1      1743-7.61818E+09-1.64832E+08-9.65859E+05 1.53613E+08 1.33194E+07 7.67972E+05
 -1      1745-7.61818E+09-1.64832E+08-9.65859E+05 1.53613E+08 1.33194E+07 7.67972E+05
 -1      1746-7.09572E+09-1.53960E+08-1.80127E+05 4.37768E+08 1.17321E+07 1.66738E+06
 -1      1748-7.09572E+09-1.53960E+08-1.80127E+05 4.37768E+08 1.17321E+07 1.66738E+06
 -1      1749-6.11299E+09-1.31030E+08-1.10819E+06 6.76814E+08 9.04656E+06 2.59337E+06
 -1      1751-6.11299E+09-1.31030E+08-1.10819E+06 6.76814E+08 9.04656E+06 2.59337E+06
 -1      1752-4.76569E+09-1.00884E+08 3.87044E+05 8.50837E+08 5.81313E+06 3.18120E+06
 -1      1754-4.76569E+09-1.00884E+08 3.87044E+05 8.50837E+08 5.81313E+06 3.18120E+06
 -1      1755-3.18770E+09-6.89868E+07-1.25934E+06 9.33653E+08 1.93332E+06 4.02242E+06
 -1      1757-3.18770E+09-6.89868E+07-1.25934E+06 9.33653E+08 1.93332E+06 4.02242E+06
 -1      1758-1.55350E+09-1.66816E+07 1.15871E+06 9.14451E+08-2.72774E+06 4.00445E+06
 -1      1760-1.55350E+09-1.66816E+07 1.15871E+06 9.14451E+08-2.72774E+06 4.00445E+06
 -1      1761-5.23203E+07-2.23314E+07-1.32748E+06 7.63130E+08-7.06064E+06 5.09160E+06
 -1      1763-5.23203E+07-2.23314E+07-1.32748E+06 7.63130E+08-7.06064E+06 5.09160E+06
 -1      1764 1.07489E+09 1.02329E+08 1.36533E+06 4.85103E+08-1.44716E+07 4.07885E+06
 -1      1766 1.07489E+09 1.02329E+08 1.36533E+06 4.85103E+08-1.44716E+07 4.07885E+06
 -1      1767 1.55781E+09-6.69102E+07 3.89876E+05 2.50434E+07-1.98432E+07 6.17962E+06
 -1      1769 1.55781E+09-6.69102E+07 3.89876E+05 2.50434E+07-1.98432E+07 6.17962E+06
 -1      1770 1.23575E+09 2.26926E+08-3.55110E+06-5.87560E+08-3.91573E+07 3.32107E+06
 -1      1772 1.23575E+09 2.26926E+08-3.55110E+06-5.87560E+08-3.91573E+07 3.32107E+06
 -1      1773 8.64122E+09 4.72634E+08 1.80506E+06 2.69230E+09 2.40734E+06-1.61288E+07
 -1      1775 8.64122E+09 4.72634E+08 1.80506E+06 2.69230E+09 2.40734E+06-1.61288E+07
 -1      1776 4.50114E+09-6.16218E+07-3.91326E+05 2.22276E+09 1.51041E+07 6.42125E+06
 -1      1778 4.50114E+09-6.16218E+07-3.91326E+05 2.22276E+09 1.51041E+07 6.42125E+06
 -1      1779 9.54509E+08 6.01642E+07-1.29183E+05 1.83556E+09 9.94442E+06-5.89159E+06
 -1      1781 9.54509E+08 6.01642E+07-1.29183E+05 1.83556E+09 9.94442E+06-5.89159E+06
 -1      1782-1.87935E+09-6.64955E+07 2.19922E+05 1.47980E+09 7.88973E+06-6.91387E+05
 -1      1784-1.87935E+09-6.64955E+07 2.19922E+05 1.47980E+09 7.88973E+06-6.91387E+05
 -1      1785-4.14456E+09-9.04014E+07-9.81287E+05 1.11934E+09 4.40545E+06-3.02095E+06
 -1      1787-4.14456E+09-9.04014E+07-9.81287E+05 1.11934E+09 4.40545E+06-3.02095E+06
 -1      1788-5.76460E+09-1.29072E+08-1.45645E+04 7.58509E+08 8.89326E+05-1.35359E+06
 -1      1790-5.76460E+09-1.29072E+08-1.45645E+04 7.58509E+08 8.89326E+05-1.35359E+06
 -1      1791-6.75964E+09-1.48379E+08-1.02428E+06 3.87480E+08-9.67181E+05-1.06163E+06
 -1      1793-6.75964E+09-1.48379E+08-1.02428E+06 3.87480E+08-9.67181E+05-1.06163E+06
 -1      1794-7.11203E+09-1.55475E+08-3.39889E+05 2.63743E+07-2.84091E+06-8.33513E+02
 -1      1796-7.11203E+09-1.55475E+08-3.39889E+05 2.63743E+07-2.84091E+06-8.33513E+02
 -1      1797-6.85208E+09-1.48926E+08-7.95280E+05-3.16646E+08-2.83422E+06 8.63080E+05
 -1      1799-6.85208E+09-1.48926E+08-7.95280E+05-3.16646E+08-2.83422E+06 8.63080E+05
 -1      1800-6.02647E+09-1.31208E+08-4.23188E+05-6.19231E+08-2.58757E+06 1.70858E+06
 -1      1802-6.02647E+09-1.31208E+08-4.23188E+05-6.19231E+08-2.58757E+06 1.70858E+06
 -1      1803-4.71933E+09-1.02048E+08-4.64069E+05-8.68041E+08-8.89007E+05 2.44376E+06
 -1      1805-4.71933E+09-1.02048E+08-4.64069E+05-8.68041E+08-8.89007E+05 2.44376E+06
 -1      1806-3.03805E+09-6.59147E+07-2.52626E+05-1.04612E+09 9.91617E+05 2.94764E+06
 -1      1808-3.03805E+09-6.59147E+07-2.52626E+05-1.04612E+09 9.91617E+05 2.94764E+06
 -1      1809-1.11521E+09-2.36370E+07-9.41081E+04-1.14462E+09 3.71769E+06 3.25665E+06
 -1      1811-1.11521E+09-2.36370E+07-9.41081E+04-1.14462E+09 3.71769E+06 3.25665E+06
 -1      1812 9.04816E+08 1.99230E+07 7.43334E+04-1.15706E+09 6.28647E+06 3.28398E+06
 -1      1814 9.04816E+08 1.99230E+07 7.43334E+04-1.15706E+09 6.28647E+06 3.28398E+06
 -1      1815 2.87145E+09 6.29565E+07 2.42072E+05-1.08451E+09 9.07346E+06 3.07270E+06
 -1      1817 2.87145E+09 6.29565E+07 2.42072E+05-1.08451E+09 9.07346E+06 3.07270E+06
 -1      1818 4.64141E+09 1.01098E+08 4.40667E+05-9.32982E+08 1.12494E+07 2.61208E+06
 -1      1820 4.64141E+09 1.01098E+08 4.40667E+05-9.32982E+08 1.12494E+07 2.61208E+06
 -1      1821 6.08615E+09 1.32704E+08 4.53632E+05-7.14517E+08 1.31221E+07 1.94860E+06
 -1      1823 6.08615E+09 1.32704E+08 4.53632E+05-7.14517E+08 1.31221E+07 1.94860E+06
 -1      1824 7.10388E+09 1.54345E+08 7.52134E+05-4.46377E+08 1.39918E+07 1.12498E+06
 -1      1826 7.10388E+09 1.54345E+08 7.52134E+05-4.46377E+08 1.39918E+07 1.12498E+06
 -1      1827 7.62437E+09 1.65929E+08 4.53481E+05-1.48828E+08 1.42527E+07 2.06707E+05
 -1      1829 7.62437E+09 1.65929E+08 4.53481E+05-1.48828E+08 1.42527E+07 2.06707E+05
 -1      1830 7.61818E+09 1.64832E+08 9.65859E+05 1.53613E+08 1.33194E+07-7.67972E+05
 -1      1832 7.61818E+09 1.64832E+08 9.65859E+05 1.53613E+08 1.33194E+07-7.67972E+05
 -1      1833 7.09572E+09 1.53960E+08 1.80127E+05 4.37768E+08 1.17321E+07-1.66738E+06
 -1      1835 7.09572E+09 1.53960E+08 1.80127E+05 4.37768E+08 1.17321E+07-1.66738E+06
 -1      1836 6.11299E+09 1.31030E+08 1.10819E+06 6.76814E+08 9.04656E+06-2.59337E+06
 -1      1838 6.11299E+09 1.31030E+08 1.10819E+06 6.76814E+08 9.04656E+06-2.59337E+06
 -1      1839 4.76569E+09 1.00884E+08-3.87044E+05 8.50837E+08 5.81313E+06-3.18120E+06
 -1      1841 4.76569E+09 1.00884E+08-3.87044E+05 8.50837E+08 5.81313E+06-3.18120E+06
 -1      1842 3.18770E+09 6.89868E+07 1.25934E+06 9.33653E+08 1.93332E+06-4.02242E+06
 -1      1844 3.18770E+09 6.89868E+07 1.25934E+06 9.33653E+08 1.93332E+06-4.02242E+06
 -1      1845 1.55350E+09 1.66816E+07-1.15871E+06 9.14451E+08-2.72774E+06-4.00445E+06
 -1      1847 1.55350E+09 1.66816E+07-1.15871E+06 9.14451E+08-2.72774E+06-4.00445E+06
 -1      1848 5.23203E+07 2.23314E+07 1.32748E+06 7.63130E+08-7.06064E+06-5.09160E+06
 -1      1850 5.23203E+07 2.23314E+07 1.32748E+06 7.63130E+08-7.06064E+06-5.09160E+06
 -1      1851-1.07489E+09-1.02329E+08-1.36533E+06 4.85103E+08-1.44716E+07-4.07885E+06
 -1      1853-1.07489E+09-1.02329E+08-1.36533E+06 4.85103E+08-1.44716E+07-4.07885E+06
 -1      1854-1.55781E+09 6.69102E+07-3.89876E+05 2.50434E+07-1.98432E+07-6.17962E+06
 -1      1856-1.55781E+09 6.69102E+07-3.89876E+05 2.50434E+07-1.98432E+07-6.17962E+06
 -1      1857-1.23575E+09-2.26926E+08 3.55110E+06-5.87560E+08-3.91573E+07-3.32107E+06
 -1      1859-1.23575E+09-2.26926E+08 3.55110E+06-5.87560E+08-3.91573E+07-3.32107E+06
 -1      1860-2.86157E-02-1.08279E-04 5.68327E-03 2.79238E+07 2.01101E+07-1.54222E-02
 -1      1862-2.86157E-02-1.08279E-04 5.68327E-03 2.79238E+07 2.01101E+07-1.54222E-02
 -1      1863-3.06114E-02-2.83357E-04 1.10055E-02-4.42226E+05 2.17319E+07-1.37114E-02
 -1      1865-3.06114E-02-2.83357E-04 1.10055E-02-4.42226E+05 2.17319E+07-1.37114E-02
 -1      1866-3.28352E-02-3.62897E-04 2.46275E-03 1.67138E+07 1.34673E+07-1.16408E-02
 -1      1868-3.28352E-02-3.62897E-04 2.46275E-03 1.67138E+07 1.34673E+07-1.16408E-02
 -1      1869-3.21505E-02-2.88191E-04-8.71707E-03 3.45325E+06 4.56374E+06-1.09370E-02
 -1      1871-3.21505E-02-2.88191E-04-8.71707E-03 3.45325E+06 4.56374E+06-1.09370E-02
 -1      1872-2.66492E-02-2.14656E-04-9.34921E-03 1.04179E+07-4.21459E+06-1.22534E-02
 -1      1874-2.66492E-02-2.14656E-04-9.34921E-03 1.04179E+07-4.21459E+06-1.22534E-02
 -1      1875-2.11973E-02-1.35755E-04 8.49620E-04 1.58380E+06-1.16516E+07-1.25075E-02
 -1      1877-2.11973E-02-1.35755E-04 8.49620E-04 1.58380E+06-1.16516E+07-1.25075E-02
 -1      1878-2.09001E-02-3.32222E-05 1.13469E-02 3.68239E+06-1.66061E+07-8.26861E-03
 -1      1880-2.09001E-02-3.32222E-05 1.13469E-02 3.68239E+06-1.66061E+07-8.26861E-03
 -1      1881-2.44912E-02 2.66694E-04 9.83706E-03-2.83149E+06-1.91882E+07-2.71995E-03
 -1      1883-2.44912E-02 2.66694E-04 9.83706E-03-2.83149E+06-1.91882E+07-2.71995E-03
 -1      1884-2.66801E-02 3.32016E-04 3.53173E-04-3.10111E+06-1.90665E+07-3.32444E-03
 -1      1886-2.66801E-02 3.32016E-04 3.53173E-04-3.10111E+06-1.90665E+07-3.32444E-03
 -1      1887-2.43139E-02-4.93261E-05-6.41808E-04-7.65535E+06-1.63530E+07-8.39477E-03
 -1      1889-2.43139E-02-4.93261E-05-6.41808E-04-7.65535E+06-1.63530E+07-8.39477E-03
 -1      1890-2.04862E-02-1.58049E-04 9.33176E-03-8.46622E+06-1.16580E+07-7.06395E-03
 -1      1892-2.04862E-02-1.58049E-04 9.33176E-03-8.46622E+06-1.16580E+07-7.06395E-03
 -1      1893-1.87224E-02 2.48885E-05 1.81351E-02-1.09670E+07-4.91415E+06 1.84390E-04
 -1      1895-1.87224E-02 2.48885E-05 1.81351E-02-1.09670E+07-4.91415E+06 1.84390E-04
 -1      1896-1.69985E-02 2.19038E-04 1.91372E-02-1.10908E+07 2.50201E+06 6.97564E-03
 -1      1898-1.69985E-02 2.19038E-04 1.91372E-02-1.10908E+07 2.50201E+06 6.97564E-03
 -1      1899-1.56370E-02 3.90681E-04 1.63758E-02-1.14382E+07 1.09540E+07 1.25129E-02
 -1      1901-1.56370E-02 3.90681E-04 1.63758E-02-1.14382E+07 1.09540E+07 1.25129E-02
 -1      1902-1.81930E-02 2.76523E-04 1.61422E-02-1.03231E+07 1.84604E+07 1.55989E-02
 -1      1904-1.81930E-02 2.76523E-04 1.61422E-02-1.03231E+07 1.84604E+07 1.55989E-02
 -1      1905-2.13337E-02 3.35560E-04 1.84888E-02-8.66459E+06 2.59528E+07 1.49363E-02
 -1      1907-2.13337E-02 3.35560E-04 1.84888E-02-8.66459E+06 2.59528E+07 1.49363E-02
 -1      1908-2.02083E-02 3.11264E-04 1.75544E-02-6.43293E+06 3.08848E+07 1.18134E-02
 -1      1910-2.02083E-02 3.11264E-04 1.75544E-02-6.43293E+06 3.08848E+07 1.18134E-02
 -1      1911-1.85177E-02-3.06419E-05 1.10714E-02-3.23104E+06 3.51796E+07 6.71748E-03
 -1      1913-1.85177E-02-3.06419E-05 1.10714E-02-3.23104E+06 3.51796E+07 6.71748E-03
 -1      1914-2.15443E-02 1.56347E-04 4.22969E-03-5.83124E+05 3.55645E+07 5.36548E-04
 -1      1916-2.15443E-02 1.56347E-04 4.22969E-03-5.83124E+05 3.55645E+07 5.36548E-04
 -1      1917-2.79143E-02 2.00914E-04 7.61853E-04 3.50345E+06 3.55219E+07-1.80742E-03
 -1      1919-2.79143E-02 2.00914E-04 7.61853E-04 3.50345E+06 3.55219E+07-1.80742E-03
 -1      1920-3.19150E-02-1.21122E-04-7.40681E-04 5.45399E+06 3.05661E+07-5.34211E-04
 -1      1922-3.19150E-02-1.21122E-04-7.40681E-04 5.45399E+06 3.05661E+07-5.34211E-04
 -1      1923-3.15488E-02 8.69550E-05 1.21866E-03 9.83022E+06 2.65263E+07-1.35036E-03
 -1      1925-3.15488E-02 8.69550E-05 1.21866E-03 9.83022E+06 2.65263E+07-1.35036E-03
 -1      1926-2.90935E-02 2.21951E-04 8.90836E-03 9.75762E+06 1.66409E+07-3.85947E-03
 -1      1928-2.90935E-02 2.21951E-04 8.90836E-03 9.75762E+06 1.66409E+07-3.85947E-03
 -1      1929-2.35932E-02 3.04427E-04 1.74420E-02 1.41364E+07 1.04142E+07-5.67178E-03
 -1      1931-2.35932E-02 3.04427E-04 1.74420E-02 1.41364E+07 1.04142E+07-5.67178E-03
 -1      1932-1.56504E-02 3.22420E-04 2.14497E-02 1.08933E+07-3.56633E+06-6.12608E-03
 -1      1934-1.56504E-02 3.22420E-04 2.14497E-02 1.08933E+07-3.56633E+06-6.12608E-03
 -1      1935-9.81903E-03 3.30489E-04 2.27140E-02 1.48498E+07-9.16942E+06-4.76963E-03
 -1      1937-9.81903E-03 3.30489E-04 2.27140E-02 1.48498E+07-9.16942E+06-4.76963E-03
 -1      1938-6.86896E-03 5.05762E-04 2.36317E-02 9.20659E+06-2.88264E+07-4.16578E-03
 -1      1940-6.86896E-03 5.05762E-04 2.36317E-02 9.20659E+06-2.88264E+07-4.16578E-03
 -1      1941-5.75269E-03 5.20289E-04 2.11649E-02 8.51746E+06-3.19650E+07-3.64923E-03
 -1      1943-5.75269E-03 5.20289E-04 2.11649E-02 8.51746E+06-3.19650E+07-3.64923E-03
 -1      1944-4.43542E-03 2.43804E-04 1.37191E-02 9.75508E+06-7.17592E+07-1.43270E-03
 -1      1946-4.43542E-03 2.43804E-04 1.37191E-02 9.75508E+06-7.17592E+07-1.43270E-03
 -1      1947-3.18123E-02-5.54623E-05 3.98004E-03-2.34617E-04-7.73507E+06-1.28439E-02
 -1      1949-3.18123E-02-5.54623E-05 3.98004E-03-2.34617E-04-7.73507E+06-1.28439E-02
 -1      1950-3.40024E-02-2.01075E-04 6.22780E-03 1.16434E-04-3.23267E+07-1.53545E-02
 -1      1952-3.40024E-02-2.01075E-04 6.22780E-03 1.16434E-04-3.23267E+07-1.53545E-02
 -1      1953-3.34003E-02-4.26563E-04-1.67578E-03 1.17835E-04-4.14982E+07-1.46518E-02
 -1      1955-3.34003E-02-4.26563E-04-1.67578E-03 1.17835E-04-4.14982E+07-1.46518E-02
 -1      1956-3.28163E-02-3.99076E-04-1.02759E-02-2.37769E-04-4.92713E+07-1.13408E-02
 -1      1958-3.28163E-02-3.99076E-04-1.02759E-02-2.37769E-04-4.92713E+07-1.13408E-02
 -1      1959-3.07994E-02-2.28121E-05-1.10832E-02 1.06627E-04-5.46892E+07-9.71533E-03
 -1      1961-3.07994E-02-2.28121E-05-1.10832E-02 1.06627E-04-5.46892E+07-9.71533E-03
 -1      1962-2.96322E-02-6.57489E-06-4.56442E-03 2.57737E-04-5.70070E+07-7.08558E-03
 -1      1964-2.96322E-02-6.57489E-06-4.56442E-03 2.57737E-04-5.70070E+07-7.08558E-03
 -1      1965-3.07276E-02-1.66093E-04 4.33270E-03 6.99249E-05-5.78171E+07-2.41852E-03
 -1      1967-3.07276E-02-1.66093E-04 4.33270E-03 6.99249E-05-5.78171E+07-2.41852E-03
 -1      1968-2.99997E-02 7.60010E-05 7.52375E-03 2.98378E-04-5.51169E+07-7.73908E-04
 -1      1970-2.99997E-02 7.60010E-05 7.52375E-03 2.98378E-04-5.51169E+07-7.73908E-04
 -1      1971-2.67593E-02 1.99113E-04 1.89163E-03 5.08047E-04-5.05202E+07-3.48179E-03
 -1      1973-2.67593E-02 1.99113E-04 1.89163E-03 5.08047E-04-5.05202E+07-3.48179E-03
 -1      1974-2.29093E-02-2.93425E-05-1.83926E-03 4.89832E-04-4.26396E+07-6.16916E-03
 -1      1976-2.29093E-02-2.93425E-05-1.83926E-03 4.89832E-04-4.26396E+07-6.16916E-03
 -1      1977-1.94650E-02-2.76008E-04 4.08929E-03 4.59289E-04-3.32514E+07-3.36583E-03
 -1      1979-1.94650E-02-2.76008E-04 4.08929E-03 4.59289E-04-3.32514E+07-3.36583E-03
 -1      1980-1.79023E-02-8.68859E-06 1.32127E-02 1.21057E-04-2.14719E+07 2.41469E-03
 -1      1982-1.79023E-02-8.68859E-06 1.32127E-02 1.21057E-04-2.14719E+07 2.41469E-03
 -1      1983-1.71697E-02 3.81822E-04 1.81181E-02 7.00578E-05-9.48738E+06 6.21303E-03
 -1      1985-1.71697E-02 3.81822E-04 1.81181E-02 7.00578E-05-9.48738E+06 6.21303E-03
 -1      1986-1.62867E-02 2.77370E-04 1.85151E-02 1.68413E-04 3.52414E+06 9.36821E-03
 -1      1988-1.62867E-02 2.77370E-04 1.85151E-02 1.68413E-04 3.52414E+06 9.36821E-03
 -1      1989-1.75032E-02-9.33910E-05 1.85580E-02-8.91108E-05 1.48634E+07 1.17926E-02
 -1      1991-1.75032E-02-9.33910E-05 1.85580E-02-8.91108E-05 1.48634E+07 1.17926E-02
 -1      1992-2.04407E-02 4.56683E-05 2.05189E-02-4.44575E-04 2.58405E+07 1.02452E-02
 -1      1994-2.04407E-02 4.56683E-05 2.05189E-02-4.44575E-04 2.58405E+07 1.02452E-02
 -1      1995-1.96040E-02 1.37242E-04 1.99445E-02-4.93336E-04 3.31634E+07 5.66834E-03
 -1      1997-1.96040E-02 1.37242E-04 1.99445E-02-4.93336E-04 3.31634E+07 5.66834E-03
 -1      1998-1.35791E-02-5.59341E-05 1.28752E-02-8.82497E-04 3.92543E+07 1.17145E-03
 -1      2000-1.35791E-02-5.59341E-05 1.28752E-02-8.82497E-04 3.92543E+07 1.17145E-03
 -1      2001-1.05549E-02-7.44617E-05 2.59217E-03-9.64270E-04 4.00324E+07-2.08355E-03
 -1      2003-1.05549E-02-7.44617E-05 2.59217E-03-9.64270E-04 4.00324E+07-2.08355E-03
 -1      2004-1.40073E-02-1.86852E-05-4.58314E-03-6.76410E-04 3.97073E+07-2.09121E-03
 -1      2006-1.40073E-02-1.86852E-05-4.58314E-03-6.76410E-04 3.97073E+07-2.09121E-03
 -1      2007-1.71860E-02 5.75852E-05-4.61366E-03-6.61050E-04 3.30016E+07 6.68725E-04
 -1      2009-1.71860E-02 5.75852E-05-4.61366E-03-6.61050E-04 3.30016E+07 6.68725E-04
 -1      2010-1.83637E-02 2.27279E-04 2.01267E-03-7.21018E-04 2.66083E+07 2.15838E-03
 -1      2012-1.83637E-02 2.27279E-04 2.01267E-03-7.21018E-04 2.66083E+07 2.15838E-03
 -1      2013-2.00067E-02 2.36662E-04 1.04870E-02-5.28783E-04 1.34557E+07-8.48555E-05
 -1      2015-2.00067E-02 2.36662E-04 1.04870E-02-5.28783E-04 1.34557E+07-8.48555E-05
 -1      2016-1.83025E-02 2.09727E-04 1.60568E-02-1.48520E-04 3.35345E+06-4.89934E-03
 -1      2018-1.83025E-02 2.09727E-04 1.60568E-02-1.48520E-04 3.35345E+06-4.89934E-03
 -1      2019-1.16614E-02 2.01584E-04 1.79098E-02-1.35347E-04-1.30334E+07-6.73788E-03
 -1      2021-1.16614E-02 2.01584E-04 1.79098E-02-1.35347E-04-1.30334E+07-6.73788E-03
 -1      2022-5.34935E-03 2.29383E-04 1.88642E-02-8.54693E-05-2.23911E+07-3.72096E-03
 -1      2024-5.34935E-03 2.29383E-04 1.88642E-02-8.54693E-05-2.23911E+07-3.72096E-03
 -1      2025-2.38462E-03 1.37395E-04 2.01397E-02 1.37869E-04-3.54876E+07-2.05332E-03
 -1      2027-2.38462E-03 1.37395E-04 2.01397E-02 1.37869E-04-3.54876E+07-2.05332E-03
 -1      2028-2.18028E-03-3.30453E-05 1.84837E-02 1.26382E-04-3.53800E+07-2.82103E-03
 -1      2030-2.18028E-03-3.30453E-05 1.84837E-02 1.26382E-04-3.53800E+07-2.82103E-03
 -1      2031-2.10650E-03 8.20194E-05 1.26804E-02-3.64296E-05-2.74449E+07-1.60118E-03
 -1      2033-2.10650E-03 8.20194E-05 1.26804E-02-3.64296E-05-2.74449E+07-1.60118E-03
 -1      2034-3.35943E-02 1.00600E-04 1.24530E-03-2.79238E+07 2.01101E+07-8.13583E-03
 -1      2036-3.35943E-02 1.00600E-04 1.24530E-03-2.79238E+07 2.01101E+07-8.13583E-03
 -1      2037-3.21472E-02 2.16761E-04 1.79220E-03 4.42226E+05 2.17319E+07-1.46438E-02
 -1      2039-3.21472E-02 2.16761E-04 1.79220E-03 4.42226E+05 2.17319E+07-1.46438E-02
 -1      2040-3.28471E-02-1.43457E-04-4.29683E-03-1.67138E+07 1.34673E+07-1.56171E-02
 -1      2042-3.28471E-02-1.43457E-04-4.29683E-03-1.67138E+07 1.34673E+07-1.56171E-02
 -1      2043-3.62252E-02-3.47659E-04-9.92081E-03-3.45325E+06 4.56374E+06-1.22743E-02
 -1      2045-3.62252E-02-3.47659E-04-9.92081E-03-3.45325E+06 4.56374E+06-1.22743E-02
 -1      2046-3.80286E-02 1.44925E-04-1.39031E-02-1.04179E+07-4.21459E+06-1.01995E-02
 -1      2048-3.80286E-02 1.44925E-04-1.39031E-02-1.04179E+07-4.21459E+06-1.01995E-02
 -1      2049-3.79745E-02 2.59152E-04-1.42600E-02-1.58380E+06-1.16516E+07-5.43812E-03
 -1      2051-3.79745E-02 2.59152E-04-1.42600E-02-1.58380E+06-1.16516E+07-5.43812E-03
 -1      2052-3.55594E-02-7.53990E-05-6.23169E-03-3.68239E+06-1.66061E+07 2.16561E-03
 -1      2054-3.55594E-02-7.53990E-05-6.23169E-03-3.68239E+06-1.66061E+07 2.16561E-03
 -1      2055-3.14213E-02 1.28688E-04 3.83625E-03 2.83149E+06-1.91882E+07 2.60538E-03
 -1      2057-3.14213E-02 1.28688E-04 3.83625E-03 2.83149E+06-1.91882E+07 2.60538E-03
 -1      2058-2.94775E-02 1.15928E-04 3.01134E-03 3.10111E+06-1.90665E+07-2.60578E-03
 -1      2060-2.94775E-02 1.15928E-04 3.01134E-03 3.10111E+06-1.90665E+07-2.60578E-03
 -1      2061-2.69000E-02-1.16162E-04-2.68437E-03 7.65535E+06-1.63530E+07-3.14263E-03
 -1      2063-2.69000E-02-1.16162E-04-2.68437E-03 7.65535E+06-1.63530E+07-3.14263E-03
 -1      2064-2.11004E-02-1.24532E-04-1.43033E-04 8.46622E+06-1.16580E+07 1.62359E-03
 -1      2066-2.11004E-02-1.24532E-04-1.43033E-04 8.46622E+06-1.16580E+07 1.62359E-03
 -1      2067-1.83523E-02 1.58658E-04 9.06209E-03 1.09670E+07-4.91415E+06 5.80285E-03
 -1      2069-1.83523E-02 1.58658E-04 9.06209E-03 1.09670E+07-4.91415E+06 5.80285E-03
 -1      2070-2.00286E-02 4.31904E-04 1.76468E-02 1.10908E+07 2.50201E+06 6.40304E-03
 -1      2072-2.00286E-02 4.31904E-04 1.76468E-02 1.10908E+07 2.50201E+06 6.40304E-03
 -1      2073-2.12110E-02 1.56036E-04 2.04607E-02 1.14382E+07 1.09540E+07 6.73722E-03
 -1      2075-2.12110E-02 1.56036E-04 2.04607E-02 1.14382E+07 1.09540E+07 6.73722E-03
 -1      2076-1.99058E-02-1.29895E-04 1.97898E-02 1.03231E+07 1.84604E+07 9.71394E-03
 -1      2078-1.99058E-02-1.29895E-04 1.97898E-02 1.03231E+07 1.84604E+07 9.71394E-03
 -1      2079-1.71162E-02 1.28680E-04 2.08128E-02 8.66459E+06 2.59528E+07 9.66198E-03
 -1      2081-1.71162E-02 1.28680E-04 2.08128E-02 8.66459E+06 2.59528E+07 9.66198E-03
 -1      2082-1.24748E-02 2.37942E-04 1.83968E-02 6.43293E+06 3.08848E+07 3.88033E-03
 -1      2084-1.24748E-02 2.37942E-04 1.83968E-02 6.43293E+06 3.08848E+07 3.88033E-03
 -1      2085-4.94826E-03-1.32347E-04 9.27430E-03 3.23104E+06 3.51796E+07-6.98275E-04
 -1      2087-4.94826E-03-1.32347E-04 9.27430E-03 3.23104E+06 3.51796E+07-6.98275E-04
 -1      2088 7.39513E-05-1.80383E-04 5.86365E-04 5.83124E+05 3.55645E+07-1.53052E-03
 -1      2090 7.39513E-05-1.80383E-04 5.86365E-04 5.83124E+05 3.55645E+07-1.53052E-03
 -1      2091-1.20923E-03 2.76454E-05-4.52024E-03-3.50345E+06 3.55219E+07-8.31608E-04
 -1      2093-1.20923E-03 2.76454E-05-4.52024E-03-3.50345E+06 3.55219E+07-8.31608E-04
 -1      2094-3.78505E-03 2.73575E-04-5.20983E-03-5.45399E+06 3.05661E+07 2.02762E-03
 -1      2096-3.78505E-03 2.73575E-04-5.20983E-03-5.45399E+06 3.05661E+07 2.02762E-03
 -1      2097-6.29222E-03 3.93034E-04 2.42306E-03-9.83022E+06 2.65263E+07 4.98198E-03
 -1      2099-6.29222E-03 3.93034E-04 2.42306E-03-9.83022E+06 2.65263E+07 4.98198E-03
 -1      2100-1.02744E-02 2.25045E-04 1.32380E-02-9.75762E+06 1.66409E+07 2.11679E-03
 -1      2102-1.02744E-02 2.25045E-04 1.32380E-02-9.75762E+06 1.66409E+07 2.11679E-03
 -1      2103-1.13506E-02 1.80973E-04 1.57424E-02-1.41364E+07 1.04142E+07-5.55203E-03
 -1      2105-1.13506E-02 1.80973E-04 1.57424E-02-1.41364E+07 1.04142E+07-5.55203E-03
 -1      2106-7.43183E-03 1.19654E-04 1.05911E-02-1.08933E+07-3.56633E+06-8.03134E-03
 -1      2108-7.43183E-03 1.19654E-04 1.05911E-02-1.08933E+07-3.56633E+06-8.03134E-03
 -1      2109-2.20174E-03 1.31072E-04 8.53050E-03-1.48498E+07-9.16942E+06-3.25875E-03
 -1      2111-2.20174E-03 1.31072E-04 8.53050E-03-1.48498E+07-9.16942E+06-3.25875E-03
 -1      2112 1.39305E-03 1.25378E-04 1.13870E-02-9.20659E+06-2.88264E+07-1.46562E-03
 -1      2114 1.39305E-03 1.25378E-04 1.13870E-02-9.20659E+06-2.88264E+07-1.46562E-03
 -1      2115 1.78195E-03-1.42571E-05 1.13589E-02-8.51746E+06-3.19650E+07-4.11071E-03
 -1      2117 1.78195E-03-1.42571E-05 1.13589E-02-8.51746E+06-3.19650E+07-4.11071E-03
 -1      2118 1.55983E-05-2.34820E-04 6.54896E-03-9.75508E+06-7.17592E+07-3.42867E-03
 -1      2120 1.55983E-05-2.34820E-04 6.54896E-03-9.75508E+06-7.17592E+07-3.42867E-03
 -1      2121-8.64122E+09-4.72634E+08-1.80506E+06-2.69230E+09 2.40734E+06-1.61288E+07
 -1      2123-8.64122E+09-4.72634E+08-1.80506E+06-2.69230E+09 2.40734E+06-1.61288E+07
 -1      2124-4.50114E+09 6.16218E+07 3.91326E+05-2.22276E+09 1.51041E+07 6.42125E+06
 -1      2126-4.50114E+09 6.16218E+07 3.91326E+05-2.22276E+09 1.51041E+07 6.42125E+06
 -1      2127-9.54509E+08-6.01642E+07 1.29183E+05-1.83556E+09 9.94442E+06-5.89159E+06
 -1      2129-9.54509E+08-6.01642E+07 1.29183E+05-1.83556E+09 9.94442E+06-5.89159E+06
 -1      2130 1.87935E+09 6.64955E+07-2.19922E+05-1.47980E+09 7.88973E+06-6.91387E+05
 -1      2132 1.87935E+09 6.64955E+07-2.19922E+05-1.47980E+09 7.88973E+06-6.91387E+05
 -1      2133 4.14456E+09 9.04014E+07 9.81287E+05-1.11934E+09 4.40545E+06-3.02095E+06
 -1      2135 4.14456E+09 9.04014E+07 9.81287E+05-1.11934E+09 4.40545E+06-3.02095E+06
 -1      2136 5.76460E+09 1.29072E+08 1.45645E+04-7.58509E+08 8.89326E+05-1.35359E+06
 -1      2138 5.76460E+09 1.29072E+08 1.45645E+04-7.58509E+08 8.89326E+05-1.35359E+06
 -1      2139 6.75964E+09 1.48379E+08 1.02428E+06-3.87480E+08-9.67181E+05-1.06163E+06
 -1      2141 6.75964E+09 1.48379E+08 1.02428E+06-3.87480E+08-9.67181E+05-1.06163E+06
 -1      2142 7.11203E+09 1.55475E+08 3.39889E+05-2.63743E+07-2.84091E+06-8.33513E+02
 -1      2144 7.11203E+09 1.55475E+08 3.39889E+05-2.63743E+07-2.84091E+06-8.33513E+02
 -1      2145 6.85208E+09 1.48926E+08 7.95280E+05 3.16646E+08-2.83422E+06 8.63080E+05
 -1      2147 6.85208E+09 1.48926E+08 7.95280E+05 3.16646E+08-2.83422E+06 8.63080E+05
 -1      2148 6.02647E+09 1.31208E+08 4.23188E+05 6.19231E+08-2.58757E+06 1.70858E+06
 -1      2150 6.02647E+09 1.31208E+08 4.23188E+05 6.19231E+08-2.58757E+06 1.70858E+06
 -1      2151 4.71933E+09 1.02048E+08 4.64069E+05 8.68041E+08-8.89007E+05 2.44376E+06
 -1      2153 4.71933E+09 1.02048E+08 4.64069E+05 8.68041E+08-8.89007E+05 2.44376E+06
 -1      2154 3.03805E+09 6.59147E+07 2.52626E+05 1.04612E+09 9.91617E+05 2.94764E+06
 -1      2156 3.03805E+09 6.59147E+07 2.52626E+05 1.04612E+09 9.91617E+05 2.94764E+06
 -1      2157 1.11521E+09 2.36370E+07 9.41081E+04 1.14462E+09 3.71769E+06 3.25665E+06
 -1      2159 1.11521E+09 2.36370E+07 9.41081E+04 1.14462E+09 3.71769E+06 3.25665E+06
 -1      2160-9.04816E+08-1.99230E+07-7.43334E+04 1.15706E+09 6.28647E+06 3.28398E+06
 -1      2162-9.04816E+08-1.99230E+07-7.43334E+04 1.15706E+09 6.28647E+06 3.28398E+06
 -1      2163-2.87145E+09-6.29565E+07-2.42072E+05 1.08451E+09 9.07346E+06 3.07270E+06
 -1      2165-2.87145E+09-6.29565E+07-2.42072E+05 1.08451E+09 9.07346E+06 3.07270E+06
 -1      2166-4.64141E+09-1.01098E+08-4.40667E+05 9.32982E+08 1.12494E+07 2.61208E+06
 -1      2168-4.64141E+09-1.01098E+08-4.40667E+05 9.32982E+08 1.12494E+07 2.61208E+06
 -1      2169-6.08615E+09-1.32704E+08-4.53632E+05 7.14517E+08 1.31221E+07 1.94860E+06
 -1      2171-6.08615E+09-1.32704E+08-4.53632E+05 7.14517E+08 1.31221E+07 1.94860E+06
 -1      2172-7.10388E+09-1.54345E+08-7.52134E+05 4.46377E+08 1.39918E+07 1.12498E+06
 -1      2174-7.10388E+09-1.54345E+08-7.52134E+05 4.46377E+08 1.39918E+07 1.12498E+06
 -1      2175-7.62437E+09-1.65929E+08-4.53481E+05 1.48828E+08 1.42527E+07 2.06707E+05
 -1      2177-7.62437E+09-1.65929E+08-4.53481E+05 1.48828E+08 1.42527E+07 2.06707E+05
 -1      2178-7.61818E+09-1.64832E+08-9.65859E+05-1.53613E+08 1.33194E+07-7.67972E+05
 -1      2180-7.61818E+09-1.64832E+08-9.65859E+05-1.53613E+08 1.33194E+07-7.67972E+05
 -1      2181-7.09572E+09-1.53960E+08-1.80127E+05-4.37768E+08 1.17321E+07-1.66738E+06
 -1      2183-7.09572E+09-1.53960E+08-1.80127E+05-4.37768E+08 1.17321E+07-1.66738E+06
 -1      2184-6.11299E+09-1.31030E+08-1.10819E+06-6.76814E+08 9.04656E+06-2.59337E+06
 -1      2186-6.11299E+09-1.31030E+08-1.10819E+06-6.76814E+08 9.04656E+06-2.59337E+06
 -1      2187-4.76569E+09-1.00884E+08 3.87044E+05-8.50837E+08 5.81313E+06-3.18120E+06
 -1      2189-4.76569E+09-1.00884E+08 3.87044E+05-8.50837E+08 5.81313E+06-3.18120E+06
 -1      2190-3.18770E+09-6.89868E+07-1.25934E+06-9.33653E+08 1.93332E+06-4.02242E+06
 -1      2192-3.18770E+09-6.89868E+07-1.25934E+06-9.33653E+08 1.93332E+06-4.02242E+06
 -1      2193-1.55350E+09-1.66816E+07 1.15871E+06-9.14451E+08-2.72774E+06-4.00445E+06
 -1      2195-1.55350E+09-1.66816E+07 1.15871E+06-9.14451E+08-2.72774E+06-4.00445E+06
 -1      2196-5.23203E+07-2.23314E+07-1.32748E+06-7.63130E+08-7.06064E+06-5.09160E+06
 -1      2198-5.23203E+07-2.23314E+07-1.32748E+06-7.63130E+08-7.06064E+06-5.09160E+06
 -1      2199 1.07489E+09 1.02329E+08 1.36533E+06-4.85103E+08-1.44716E+07-4.07885E+06
 -1      2201 1.07489E+09 1.02329E+08 1.36533E+06-4.85103E+08-1.44716E+07-4.07885E+06
 -1      2202 1.55781E+09-6.69102E+07 3.89876E+05-2.50434E+07-1.98432E+07-6.17962E+06
 -1      2204 1.55781E+09-6.69102E+07 3.89876E+05-2.50434E+07-1.98432E+07-6.17962E+06
 -1      2205 1.23575E+09 2.26926E+08-3.55110E+06 5.87560E+08-3.91573E+07-3.32107E+06
 -1      2207 1.23575E+09 2.26926E+08-3.55110E+06 5.87560E+08-3.91573E+07-3.32107E+06
 -1      2208 8.64122E+09 4.72634E+08 1.80506E+06-2.69230E+09 2.40734E+06 1.61288E+07
 -1      2210 8.64122E+09 4.72634E+08 1.80506E+06-2.69230E+09 2.40734E+06 1.61288E+07
 -1      2211 4.50114E+09-6.16218E+07-3.91326E+05-2.22276E+09 1.51041E+07-6.42125E+06
 -1      2213 4.50114E+09-6.16218E+07-3.91326E+05-2.22276E+09 1.51041E+07-6.42125E+06
 -1      2214 9.54509E+08 6.01642E+07-1.29183E+05-1.83556E+09 9.94442E+06 5.89159E+06
 -1      2216 9.54509E+08 6.01642E+07-1.29183E+05-1.83556E+09 9.94442E+06 5.89159E+06
 -1      2217-1.87935E+09-6.64955E+07 2.19922E+05-1.47980E+09 7.88973E+06 6.91387E+05
 -1      2219-1.87935E+09-6.64955E+07 2.19922E+05-1.47980E+09 7.88973E+06 6.91387E+05
 -1      2220-4.14456E+09-9.04014E+07-9.81287E+05-1.11934E+09 4.40545E+06 3.02095E+06
 -1      2222-4.14456E+09-9.04014E+07-9.81287E+05-1.11934E+09 4.40545E+06 3.02095E+06
 -1      2223-5.76460E+09-1.29072E+08-1.45645E+04-7.58509E+08 8.89326E+05 1.35359E+06
 -1      2225-5.76460E+09-1.29072E+08-1.45645E+04-7.58509E+08 8.89326E+05 1.35359E+06
 -1      2226-6.75964E+09-1.48379E+08-1.02428E+06-3.87480E+08-9.67181E+05 1.06163E+06
 -1      2228-6.75964E+09-1.48379E+08-1.02428E+06-3.87480E+08-9.67181E+05 1.06163E+06
 -1      2229-7.11203E+09-1.55475E+08-3.39889E+05-2.63743E+07-2.84091E+06 8.33513E+02
 -1      2231-7.11203E+09-1.55475E+08-3.39889E+05-2.63743E+07-2.84091E+06 8.33513E+02
 -1      2232-6.85208E+09-1.48926E+08-7.95280E+05 3.16646E+08-2.83422E+06-8.63080E+05
 -1      2234-6.85208E+09-1.48926E+08-7.95280E+05 3.16646E+08-2.83422E+06-8.63080E+05
 -1      2235-6.02647E+09-1.31208E+08-4.23188E+05 6.19231E+08-2.58757E+06-1.70858E+06
 -1      2237-6.02647E+09-1.31208E+08-4.23188E+05 6.19231E+08-2.58757E+06-1.70858E+06
 -1      2238-4.71933E+09-1.02048E+08-4.64069E+05 8.68041E+08-8.89007E+05-2.44376E+06
 -1      2240-4.71933E+09-1.02048E+08-4.64069E+05 8.68041E+08-8.89007E+05-2.44376E+06
 -1      2241-3.03805E+09-6.59147E+07-2.52626E+05 1.04612E+09 9.91617E+05-2.94764E+06
 -1      2243-3.03805E+09-6.59147E+07-2.52626E+05 1.04612E+09 9.91617E+05-2.94764E+06
 -1      2244-1.11521E+09-2.36370E+07-9.41081E+04 1.14462E+09 3.71769E+06-3.25665E+06
 -1      2246-1.11521E+09-2.36370E+07-9.41081E+04 1.14462E+09 3.71769E+06-3.25665E+06
 -1      2247 9.04816E+08 1.99230E+07 7.43334E+04 1.15706E+09 6.28647E+06-3.28398E+06
 -1      2249 9.04816E+08 1.99230E+07 7.43334E+04 1.15706E+09 6.28647E+06-3.28398E+06
 -1      2250 2.87145E+09 6.29565E+07 2.42072E+05 1.08451E+09 9.07346E+06-3.07270E+06
 -1      2252 2.87145E+09 6.29565E+07 2.42072E+05 1.08451E+09 9.07346E+06-3.07270E+06
 -1      2253 4.64141E+09 1.01098E+08 4.40667E+05 9.32982E+08 1.12494E+07-2.61208E+06
 -1      2255 4.64141E+09 1.01098E+08 4.40667E+05 9.32982E+08 1.12494E+07-2.61208E+06
 -1      2256 6.08615E+09 1.32704E+08 4.53632E+05 7.14517E+08 1.31221E+07-1.94860E+06
 -1      2258 6.08615E+09 1.32704E+08 4.53632E+05 7.14517E+08 1.31221E+07-1.94860E+06
 -1      2259 7.10388E+09 1.54345E+08 7.52134E+05 4.46377E+08 1.39918E+07-1.12498E+06
 -1      2261 7.10388E+09 1.54345E+08 7.52134E+05 4.46377E+08 1.39918E+07-1.12498E+06
 -1      2262 7.62437E+09 1.65929E+08 4.53481E+05 1.48828E+08 1.42527E+07-2.06707E+05
 -1      2264 7.62437E+09 1.65929E+08 4.53481E+05 1.48828E+08 1.42527E+07-2.06707E+05
 -1      2265 7.61818E+09 1.64832E+08 9.65859E+05-1.53613E+08 1.33194E+07 7.67972E+05
 -1      2267 7.61818E+09 1.64832E+08 9.65859E+05-1.53613E+08 1.33194E+07 7.67972E+05
 -1      2268 7.09572E+09 1.53960E+08 1.80127E+05-4.37768E+08 1.17321E+07 1.66738E+06
 -1      2270 7.09572E+09 1.53960E+08 1.80127E+05-4.37768E+08 1.17321E+07 1.66738E+06
 -1      2271 6.11299E+09 1.31030E+08 1.10819E+06-6.76814E+08 9.04656E+06 2.59337E+06
 -1      2273 6.11299E+09 1.31030E+08 1.10819E+06-6.76814E+08 9.04656E+06 2.59337E+06
 -1      2274 4.76569E+09 1.00884E+08-3.87044E+05-8.50837E+08 5.81313E+06 3.18120E+06
 -1      2276 4.76569E+09 1.00884E+08-3.87044E+05-8.50837E+08 5.81313E+06 3.18120E+06
 -1      2277 3.18770E+09 6.89868E+07 1.25934E+06-9.33653E+08 1.93332E+06 4.02242E+06
 -1      2279 3.18770E+09 6.89868E+07 1.25934E+06-9.33653E+08 1.93332E+06 4.02242E+06
 -1      2280 1.55350E+09 1.66816E+07-1.15871E+06-9.14451E+08-2.72774E+06 4.00445E+06
 -1      2282 1.55350E+09 1.66816E+07-1.15871E+06-9.14451E+08-2.72774E+06 4.00445E+06
 -1      2283 5.23203E+07 2.23314E+07 1.32748E+06-7.63130E+08-7.06064E+06 5.09160E+06
 -1      2285 5.23203E+07 2.23314E+07 1.32748E+06-7.63130E+08-7.06064E+06 5.09160E+06
 -1      2286-1.07489E+09-1.02329E+08-1.36533E+06-4.85103E+08-1.44716E+07 4.07885E+06
 -1      2288-1.07489E+09-1.02329E+08-1.36533E+06-4.85103E+08-1.44716E+07 4.07885E+06
 -1      2289-1.55781E+09 6.69102E+07-3.89876E+05-2.50434E+07-1.98432E+07 6.17962E+06
 -1      2291-1.55781E+09 6.69102E+07-3.89876E+05-2.50434E+07-1.98432E+07 6.17962E+06
 -1      2292-1.23575E+09-2.26926E+08 3.55110E+06 5.87560E+08-3.91573E+07 3.32107E+06
 -1      2294-1.23575E+09-2.26926E+08 3.55110E+06 5.87560E+08-3.91573E+07 3.32107E+06
 -3
    1PSTEP                        43           1           1          
    1PGM                1.000000E+00                                  
    1PGK                6.927608E+06                                  
    1PHID                         -1                                  
    1PSUBC                         0                                  
    1PMODE                        11                                  
  100CL  111 418.9013592         930                     2   11MODAL      1
 -4  FORC        4    1
 -5  F1          1    2    1    0
 -5  F2          1    2    2    0
 -5  F3          1    2    3    0
 -5  ALL         1    2    0    0    1ALL
 -1       404 3.39663E+06-1.00999E+06-1.36920E+05
 -1       406 3.79320E+06-9.55172E+05-1.36920E+05
 -1       407-8.10981E+03 5.97119E+04 6.26857E+03
 -1       409-8.10981E+03 5.97119E+04 6.26857E+03
 -1       410-2.40421E-06-8.49554E+05 9.54353E-07
 -1       412-2.30741E-06-2.04881E+06 1.74999E-06
 -1       413-1.23962E-06 1.63464E+06 9.41278E+05
 -1       415-1.16633E-06 1.63464E+06-9.41278E+05
 -1       424 1.02157E-05-4.10628E+05-7.32659E-07
 -1       426 4.74614E-06-3.82868E+05-9.49455E-07
 -1       427-6.01054E+05-4.84699E+05-1.25762E+04
 -1       429 6.01054E+05-4.84699E+05 1.25762E+04
 -1       438 8.10981E+03 5.97119E+04-6.26857E+03
 -1       440 8.10981E+03 5.97119E+04-6.26857E+03
 -1       441-3.39663E+06-1.00999E+06 1.36920E+05
 -1       443-3.79320E+06-9.55172E+05 1.36920E+05
 -1       444 6.01054E+05 4.84699E+05-1.25762E+04
 -1       446-6.01054E+05 4.84699E+05 1.25762E+04
 -1       447 1.07641E-05 4.10628E+05-7.65777E-07
 -1       449 6.55387E-06 3.82868E+05-6.93926E-07
 -1       458-6.12115E-07-1.63464E+06 9.41278E+05
 -1       460-1.00047E-06-1.63464E+06-9.41278E+05
 -1       461 3.38409E-06 8.49554E+05 1.34236E-06
 -1       463 3.36527E-06 2.04881E+06-1.18190E-07
 -1       472 3.39663E+06 1.00999E+06 1.36920E+05
 -1       474 3.79320E+06 9.55172E+05 1.36920E+05
 -1       475-8.10981E+03-5.97119E+04-6.26857E+03
 -1       477-8.10981E+03-5.97119E+04-6.26857E+03
 -1       478 8.10981E+03-5.97119E+04 6.26857E+03
 -1       480 8.10981E+03-5.97119E+04 6.26857E+03
 -1       481-3.39663E+06 1.00999E+06-1.36920E+05
 -1       483-3.79320E+06 9.55172E+05-1.36920E+05
 -1       484-5.67089E+03 9.88543E+03 3.48534E+03
 -1       486-5.67089E+03 9.88543E+03 3.48534E+03
 -1       487-9.50048E+03 2.38611E+04 7.48555E+03
 -1       489-9.50048E+03 2.38611E+04 7.48555E+03
 -1       490-1.10873E+04 4.13194E+04 1.14778E+04
 -1       492-1.10873E+04 4.13194E+04 1.14778E+04
 -1       493-1.08054E+04 5.93575E+04 1.50994E+04
 -1       495-1.08054E+04 5.93575E+04 1.50994E+04
 -1       496-9.02624E+03 7.54704E+04 1.81350E+04
 -1       498-9.02624E+03 7.54704E+04 1.81350E+04
 -1       499-6.10950E+03 8.77108E+04 2.02995E+04
 -1       501-6.10950E+03 8.77108E+04 2.02995E+04
 -1       502-2.42513E+03 9.46606E+04 2.14109E+04
 -1       504-2.42513E+03 9.46606E+04 2.14109E+04
 -1       505 1.65369E+03 9.54590E+04 2.13419E+04
 -1       507 1.65369E+03 9.54590E+04 2.13419E+04
 -1       508 5.75898E+03 8.98095E+04 2.00640E+04
 -1       510 5.75898E+03 8.98095E+04 2.00640E+04
 -1       511 9.54474E+03 7.79615E+04 1.76330E+04
 -1       513 9.54474E+03 7.79615E+04 1.76330E+04
 -1       514 1.27034E+04 6.06676E+04 1.41929E+04
 -1       516 1.27034E+04 6.06676E+04 1.41929E+04
 -1       517 1.49836E+04 3.91112E+04 9.96082E+03
 -1       519 1.49836E+04 3.91112E+04 9.96082E+03
 -1       520 1.62046E+04 1.48099E+04 5.21276E+03
 -1       522 1.62046E+04 1.48099E+04 5.21276E+03
 -1       523 1.62668E+04-1.05026E+04 2.62581E+02
 -1       525 1.62668E+04-1.05026E+04 2.62581E+02
 -1       526 1.51575E+04-3.50066E+04-4.56058E+03
 -1       528 1.51575E+04-3.50066E+04-4.56058E+03
 -1       529 1.29501E+04-5.69311E+04-8.93632E+03
 -1       531 1.29501E+04-5.69311E+04-8.93632E+03
 -1       532 9.79802E+03-7.46832E+04-1.25759E+04
 -1       534 9.79802E+03-7.46832E+04-1.25759E+04
 -1       535 5.92241E+03-8.69633E+04-1.52431E+04
 -1       537 5.92241E+03-8.69633E+04-1.52431E+04
 -1       538 1.59489E+03-9.28576E+04-1.67709E+04
 -1       540 1.59489E+03-9.28576E+04-1.67709E+04
 -1       541-2.88363E+03-9.19003E+04-1.70733E+04
 -1       543-2.88363E+03-9.19003E+04-1.70733E+04
 -1       544-7.20648E+03-8.41028E+04-1.61506E+04
 -1       546-7.20648E+03-8.41028E+04-1.61506E+04
 -1       547-1.10868E+04-6.99423E+04-1.40901E+04
 -1       549-1.10868E+04-6.99423E+04-1.40901E+04
 -1       550-1.42815E+04-5.03155E+04-1.10577E+04
 -1       552-1.42815E+04-5.03155E+04-1.10577E+04
 -1       553-1.66162E+04-2.64521E+04-7.28793E+03
 -1       555-1.66162E+04-2.64521E+04-7.28793E+03
 -1       556-1.80053E+04 2.05085E+02-3.06591E+03
 -1       558-1.80053E+04 2.05085E+02-3.06591E+03
 -1       559-1.84710E+04 2.81381E+04 1.28688E+03
 -1       561-1.84710E+04 2.81381E+04 1.28688E+03
 -1       562-1.81646E+04 5.59669E+04 5.42991E+03
 -1       564-1.81646E+04 5.59669E+04 5.42991E+03
 -1       565-1.73693E+04 8.25432E+04 8.99666E+03
 -1       567-1.73693E+04 8.25432E+04 8.99666E+03
 -1       568-1.65562E+04 1.07405E+05 1.15621E+04
 -1       570-1.65562E+04 1.07405E+05 1.15621E+04
 -1       571-1.08121E+04 1.19371E+05 8.89441E+03
 -1       573-1.08121E+04 1.19371E+05 8.89441E+03
 -1       574-7.55485E-06 4.10132E+05 6.29450E-07
 -1       576-7.56797E-06 6.68485E+05-5.04944E-07
 -1       577 5.11926E-06-5.09649E+05-2.02777E+05
 -1       579 5.14491E-06-5.09649E+05 2.02777E+05
 -1       588-4.32815E-06 1.74330E+05 5.11082E-06
 -1       590-4.34188E-06 6.26558E+05 3.99015E-06
 -1       591 6.35082E-06-3.26902E+05-3.54946E+05
 -1       593 6.47102E-06-3.26902E+05 3.54946E+05
 -1       602-2.58590E-06-1.45494E+04 1.76899E-06
 -1       604-2.54034E-06 3.14414E+05 9.27567E-07
 -1       605 6.35012E-06-2.15315E+04-2.58198E+05
 -1       607 6.34745E-06-2.15315E+04 2.58198E+05
 -1       616-6.11637E-06 1.85110E+04-1.51711E-06
 -1       618-6.08815E-06 2.02319E+05-2.31325E-06
 -1       619 4.18813E-06 7.43062E+04-1.44268E+05
 -1       621 4.08361E-06 7.43062E+04 1.44268E+05
 -1       630-7.87797E-06-5.75757E+04-3.78129E-06
 -1       632-7.97665E-06-3.05103E+04-4.55058E-06
 -1       633 3.56805E-06 2.79051E+05-2.12432E+04
 -1       635 3.49685E-06 2.79051E+05 2.12432E+04
 -1       644-6.18622E-06 2.86184E+02-7.09631E-08
 -1       646-6.20323E-06-1.18696E+05-2.45812E-06
 -1       647 4.61294E-06 3.32362E+05 9.33870E+04
 -1       649 4.61171E-06 3.32362E+05-9.33870E+04
 -1       658-8.14693E-07-2.79913E+04 4.72142E-06
 -1       660-6.26951E-07-2.41318E+05 2.30713E-06
 -1       661 5.16548E-06 4.29451E+05 1.67436E+05
 -1       663 5.04478E-06 4.29451E+05-1.67436E+05
 -1       672 3.39786E-06 6.74671E+03 3.68752E-06
 -1       674 3.63091E-06-2.66629E+05 2.71223E-06
 -1       675 4.00438E-06 4.27195E+05 2.14568E+05
 -1       677 3.78035E-06 4.27195E+05-2.14568E+05
 -1       686 1.78850E-06-1.21530E+04-5.04933E-07
 -1       688 1.82360E-06-2.86857E+05 6.06039E-07
 -1       689 2.71877E-06 4.29119E+05 2.15611E+05
 -1       691 2.64109E-06 4.29119E+05-2.15611E+05
 -1       700-2.06563E-06-5.22890E+03 3.27308E-08
 -1       702-2.09424E-06-2.40990E+05-1.49932E-07
 -1       703 2.33406E-06 3.65766E+05 1.85045E+05
 -1       705 2.33078E-06 3.65766E+05-1.85045E+05
 -1       714-2.37196E-06-2.97778E+04 2.67384E-06
 -1       716-2.31253E-06-1.80454E+05 1.86179E-06
 -1       717 1.94115E-06 2.93849E+05 1.18263E+05
 -1       719 1.91770E-06 2.93849E+05-1.18263E+05
 -1       728-7.33196E-07-4.35764E+04 5.20332E-06
 -1       730-8.08289E-07-7.96240E+04 3.67513E-06
 -1       731 2.61527E-07 1.83134E+05 2.82932E+04
 -1       733 1.31895E-07 1.83134E+05-2.82932E+04
 -1       742-2.07565E-07-7.38098E+04 4.63791E-06
 -1       744-4.24527E-07 2.78795E+04 4.34635E-06
 -1       745-3.23359E-06 6.87566E+04-7.98143E+04
 -1       747-3.16973E-06 6.87566E+04 7.98143E+04
 -1       756 2.37949E-06-9.64400E+04 2.92295E-06
 -1       758 2.29640E-06 1.51110E+05 3.28210E-06
 -1       759-5.43365E-06-6.04236E+04-1.94298E+05
 -1       761-5.32886E-06-6.04236E+04 1.94298E+05
 -1       770 5.30685E-06-1.24780E+05 3.29770E-06
 -1       772 5.36148E-06 2.64343E+05 2.56876E-06
 -1       773-6.36510E-06-1.79213E+05-3.05416E+05
 -1       775-6.27384E-06-1.79213E+05 3.05416E+05
 -1       784 3.71796E-06-1.42985E+05 4.08039E-06
 -1       786 3.68419E-06 3.71732E+05 2.97435E-06
 -1       787-8.30348E-06-2.92088E+05-4.03993E+05
 -1       789-8.12287E-06-2.92088E+05 4.03993E+05
 -1       798 3.17689E-06-1.59966E+05 1.64709E-06
 -1       800 3.18258E-06 4.50966E+05 1.46750E-06
 -1       801-7.23280E-06-3.78472E+05-4.79510E+05
 -1       803-7.19327E-06-3.78472E+05 4.79510E+05
 -1       812 6.73355E-06-1.62111E+05-1.16623E-06
 -1       814 6.83504E-06 5.10310E+05-1.10010E-06
 -1       815-2.19829E-06-4.45251E+05-5.27772E+05
 -1       817-2.49698E-06-4.45251E+05 5.27772E+05
 -1       826 6.80223E-06-1.60626E+05-4.45695E-07
 -1       828 6.92337E-06 5.27091E+05 6.96145E-07
 -1       829 1.18835E-06-4.72639E+05-5.39778E+05
 -1       831 8.70601E-07-4.72639E+05 5.39778E+05
 -1       840 4.23486E-06-1.38743E+05 1.36678E-06
 -1       842 4.27521E-06 5.22511E+05 3.59938E-06
 -1       843 1.56841E-06-4.78170E+05-5.19008E+05
 -1       845 1.40108E-06-4.78170E+05 5.19008E+05
 -1       854 2.75424E-06-1.16387E+05 5.28066E-07
 -1       856 2.79088E-06 4.66565E+05 1.55496E-07
 -1       857 3.18094E-07-4.36919E+05-4.57549E+05
 -1       859 1.55324E-07-4.36919E+05 4.57549E+05
 -1       868 1.54404E-06-6.59488E+04-1.35168E-06
 -1       870 1.68593E-06 4.05152E+05-2.21805E-06
 -1       871 3.11666E-08-3.87137E+05-3.69759E+05
 -1       873 2.09675E-07-3.87137E+05 3.69759E+05
 -1       882 2.26723E-08-2.46538E+04 8.92094E-07
 -1       884 1.68831E-07 2.84941E+05 3.60594E-07
 -1       885 6.60270E-07-2.86349E+05-2.42996E+05
 -1       887 8.54025E-07-2.86349E+05 2.42996E+05
 -1       896-3.58715E-06 6.05577E+04 3.70559E-06
 -1       898-3.49210E-06 1.99450E+05 2.85234E-06
 -1       899-1.55046E-08-2.11692E+05-1.09015E+05
 -1       901-2.20603E-07-2.11692E+05 1.09015E+05
 -1       910-4.95476E-06 1.18712E+05 3.96700E-06
 -1       912-4.96211E-06 3.05124E+04 2.87595E-06
 -1       913 5.23760E-07-7.31333E+04 6.92267E+04
 -1       915 5.81106E-07-7.31333E+04-6.92267E+04
 -1       924-3.17866E-06 2.65215E+05 3.53312E-06
 -1       926-3.14697E-06-1.88239E+04 3.35995E-06
 -1       927 1.35101E-06-3.46125E+04 2.22937E+05
 -1       929 1.74912E-06-3.46125E+04-2.22937E+05
 -1       938-1.71055E-06 3.52761E+05 4.38661E-06
 -1       940-1.72620E-06-2.57360E+05 3.97021E-06
 -1       941 1.43748E-06 1.27428E+05 4.78874E+05
 -1       943 1.52815E-06 1.27428E+05-4.78874E+05
 -1       952-8.90976E-07 6.68441E+05 3.99044E-06
 -1       954-9.06753E-07-1.90609E+05 2.67336E-06
 -1       955 1.32012E-06 1.88245E+04 6.74255E+05
 -1       957 1.25672E-06 1.88245E+04-6.74255E+05
 -1       966-2.85048E-06 9.11413E+05 2.97349E-06
 -1       968-2.77280E-06-6.91851E+05 2.08779E-06
 -1       969-5.22950E-07 2.24556E+05 1.25838E+06
 -1       971-5.17952E-07 2.24556E+05-1.25838E+06
 -1       980 3.30978E+06-6.38432E+05-4.37572E+01
 -1       982 3.68256E+06-5.69739E+05-4.37572E+01
 -1       983 1.08121E+04 1.19371E+05-8.89441E+03
 -1       985 1.08121E+04 1.19371E+05-8.89441E+03
 -1       986 5.67089E+03 9.88543E+03-3.48534E+03
 -1       988 5.67089E+03 9.88543E+03-3.48534E+03
 -1       989 9.50048E+03 2.38611E+04-7.48555E+03
 -1       991 9.50048E+03 2.38611E+04-7.48555E+03
 -1       992 1.10873E+04 4.13194E+04-1.14778E+04
 -1       994 1.10873E+04 4.13194E+04-1.14778E+04
 -1       995 1.08054E+04 5.93575E+04-1.50994E+04
 -1       997 1.08054E+04 5.93575E+04-1.50994E+04
 -1       998 9.02624E+03 7.54704E+04-1.81350E+04
 -1      1000 9.02624E+03 7.54704E+04-1.81350E+04
 -1      1001 6.10950E+03 8.77108E+04-2.02995E+04
 -1      1003 6.10950E+03 8.77108E+04-2.02995E+04
 -1      1004 2.42513E+03 9.46606E+04-2.14109E+04
 -1      1006 2.42513E+03 9.46606E+04-2.14109E+04
 -1      1007-1.65369E+03 9.54590E+04-2.13419E+04
 -1      1009-1.65369E+03 9.54590E+04-2.13419E+04
 -1      1010-5.75898E+03 8.98095E+04-2.00640E+04
 -1      1012-5.75898E+03 8.98095E+04-2.00640E+04
 -1      1013-9.54474E+03 7.79615E+04-1.76330E+04
 -1      1015-9.54474E+03 7.79615E+04-1.76330E+04
 -1      1016-1.27034E+04 6.06676E+04-1.41929E+04
 -1      1018-1.27034E+04 6.06676E+04-1.41929E+04
 -1      1019-1.49836E+04 3.91112E+04-9.96082E+03
 -1      1021-1.49836E+04 3.91112E+04-9.96082E+03
 -1      1022-1.62046E+04 1.48099E+04-5.21276E+03
 -1      1024-1.62046E+04 1.48099E+04-5.21276E+03
 -1      1025-1.62668E+04-1.05026E+04-2.62581E+02
 -1      1027-1.62668E+04-1.05026E+04-2.62581E+02
 -1      1028-1.51575E+04-3.50066E+04 4.56058E+03
 -1      1030-1.51575E+04-3.50066E+04 4.56058E+03
 -1      1031-1.29501E+04-5.69311E+04 8.93632E+03
 -1      1033-1.29501E+04-5.69311E+04 8.93632E+03
 -1      1034-9.79802E+03-7.46832E+04 1.25759E+04
 -1      1036-9.79802E+03-7.46832E+04 1.25759E+04
 -1      1037-5.92241E+03-8.69633E+04 1.52431E+04
 -1      1039-5.92241E+03-8.69633E+04 1.52431E+04
 -1      1040-1.59489E+03-9.28576E+04 1.67709E+04
 -1      1042-1.59489E+03-9.28576E+04 1.67709E+04
 -1      1043 2.88363E+03-9.19003E+04 1.70733E+04
 -1      1045 2.88363E+03-9.19003E+04 1.70733E+04
 -1      1046 7.20648E+03-8.41028E+04 1.61506E+04
 -1      1048 7.20648E+03-8.41028E+04 1.61506E+04
 -1      1049 1.10868E+04-6.99423E+04 1.40901E+04
 -1      1051 1.10868E+04-6.99423E+04 1.40901E+04
 -1      1052 1.42815E+04-5.03155E+04 1.10577E+04
 -1      1054 1.42815E+04-5.03155E+04 1.10577E+04
 -1      1055 1.66162E+04-2.64521E+04 7.28793E+03
 -1      1057 1.66162E+04-2.64521E+04 7.28793E+03
 -1      1058 1.80053E+04 2.05085E+02 3.06591E+03
 -1      1060 1.80053E+04 2.05085E+02 3.06591E+03
 -1      1061 1.84710E+04 2.81381E+04-1.28688E+03
 -1      1063 1.84710E+04 2.81381E+04-1.28688E+03
 -1      1064 1.81646E+04 5.59669E+04-5.42991E+03
 -1      1066 1.81646E+04 5.59669E+04-5.42991E+03
 -1      1067 1.73693E+04 8.25432E+04-8.99666E+03
 -1      1069 1.73693E+04 8.25432E+04-8.99666E+03
 -1      1070 1.65562E+04 1.07405E+05-1.15621E+04
 -1      1072 1.65562E+04 1.07405E+05-1.15621E+04
 -1      1073-3.30978E+06-6.38432E+05 4.37572E+01
 -1      1075-3.68256E+06-5.69739E+05 4.37572E+01
 -1      1076-8.03897E+05-2.88891E+05 2.14134E+04
 -1      1078 8.03897E+05-2.88891E+05-2.14134E+04
 -1      1079 1.57901E-05 3.04927E-06 6.79792E+04
 -1      1081 6.22707E-06 2.56451E-06-6.79792E+04
 -1      1082 8.03897E+05 2.88891E+05 2.14134E+04
 -1      1084-8.03897E+05 2.88891E+05-2.14134E+04
 -1      1085-3.00545E-06 5.09649E+05-2.02777E+05
 -1      1087-3.04522E-06 5.09649E+05 2.02777E+05
 -1      1088-3.03047E-06-4.10132E+05 1.59128E-07
 -1      1090-3.07202E-06-6.68485E+05 1.75158E-07
 -1      1099-5.13464E-06 3.26902E+05-3.54946E+05
 -1      1101-5.09877E-06 3.26902E+05 3.54946E+05
 -1      1102 1.70344E-06-1.74330E+05 3.14093E-07
 -1      1104 1.64400E-06-6.26558E+05-3.89152E-07
 -1      1113-4.87613E-06 2.15315E+04-2.58198E+05
 -1      1115-4.79263E-06 2.15315E+04 2.58198E+05
 -1      1116 6.41910E-06 1.45494E+04 6.33527E-07
 -1      1118 6.30340E-06-3.14414E+05 3.71253E-07
 -1      1127-4.48298E-06-7.43062E+04-1.44268E+05
 -1      1129-4.33321E-06-7.43062E+04 1.44268E+05
 -1      1130 5.44414E-06-1.85110E+04-5.11985E-07
 -1      1132 5.39409E-06-2.02319E+05 3.77118E-07
 -1      1141-4.19673E-06-2.79051E+05-2.12432E+04
 -1      1143-4.26512E-06-2.79051E+05 2.12432E+04
 -1      1144 3.38305E-06 5.75757E+04 2.72996E-06
 -1      1146 3.37179E-06 3.05103E+04 2.88331E-06
 -1      1155-3.58063E-06-3.32362E+05 9.33870E+04
 -1      1157-3.54833E-06-3.32362E+05-9.33870E+04
 -1      1158-3.07591E-07-2.86184E+02 5.36026E-06
 -1      1160-2.18534E-07 1.18696E+05 4.36375E-06
 -1      1169-1.44650E-06-4.29451E+05 1.67436E+05
 -1      1171-1.19882E-06-4.29451E+05-1.67436E+05
 -1      1172-3.34605E-06 2.79913E+04 3.51546E-06
 -1      1174-3.15280E-06 2.41318E+05 3.19139E-06
 -1      1183 1.13474E-06-4.27195E+05 2.14568E+05
 -1      1185 1.16192E-06-4.27195E+05-2.14568E+05
 -1      1186-1.17371E-06-6.74671E+03 1.01299E-06
 -1      1188-1.09361E-06 2.66629E+05 9.23074E-07
 -1      1197 7.07412E-07-4.29119E+05 2.15611E+05
 -1      1199 5.07844E-07-4.29119E+05-2.15611E+05
 -1      1200 4.26574E-07 1.21530E+04 1.06189E-06
 -1      1202 3.74232E-07 2.86857E+05 2.13601E-06
 -1      1211-1.62882E-06-3.65766E+05 1.85045E+05
 -1      1213-1.74219E-06-3.65766E+05-1.85045E+05
 -1      1214-3.24890E-06 5.22890E+03 2.31834E-06
 -1      1216-3.21621E-06 2.40990E+05 2.22693E-06
 -1      1225-1.66872E-07-2.93849E+05 1.18263E+05
 -1      1227-7.30342E-08-2.93849E+05-1.18263E+05
 -1      1228-3.65441E-06 2.97778E+04 7.21406E-07
 -1      1230-3.60152E-06 1.80454E+05 2.07385E-07
 -1      1239 3.26314E-06-1.83134E+05 2.82932E+04
 -1      1241 3.27641E-06-1.83134E+05-2.82932E+04
 -1      1242 7.50638E-07 4.35764E+04-2.89832E-06
 -1      1244 7.03928E-07 7.96240E+04-2.60832E-06
 -1      1253 3.81859E-06-6.87566E+04-7.98143E+04
 -1      1255 3.68452E-06-6.87566E+04 7.98143E+04
 -1      1256 2.07656E-06 7.38098E+04-5.89904E-06
 -1      1258 2.10275E-06-2.78795E+04-4.80669E-06
 -1      1267 2.93800E-06 6.04236E+04-1.94298E+05
 -1      1269 2.77951E-06 6.04236E+04 1.94298E+05
 -1      1270-7.13222E-07 9.64400E+04-5.38533E-06
 -1      1272-7.60553E-07-1.51110E+05-5.18585E-06
 -1      1281 2.79615E-06 1.79213E+05-3.05416E+05
 -1      1283 2.82331E-06 1.79213E+05 3.05416E+05
 -1      1284-5.53891E-06 1.24780E+05-4.33932E-06
 -1      1286-5.63902E-06-2.64343E+05-3.94474E-06
 -1      1295 2.66498E-06 2.92088E+05-4.03993E+05
 -1      1297 2.87063E-06 2.92088E+05 4.03993E+05
 -1      1298-8.88303E-06 1.42985E+05-5.00289E-06
 -1      1300-8.81911E-06-3.71732E+05-4.23111E-06
 -1      1309 5.97065E-07 3.78472E+05-4.79510E+05
 -1      1311 8.57923E-07 3.78472E+05 4.79510E+05
 -1      1312-8.32010E-06 1.59966E+05-4.61885E-06
 -1      1314-8.29091E-06-4.50966E+05-4.49543E-06
 -1      1323-1.64045E-06 4.45251E+05-5.27772E+05
 -1      1325-1.48074E-06 4.45251E+05 5.27772E+05
 -1      1326-4.53223E-06 1.62111E+05-2.99174E-06
 -1      1328-4.53280E-06-5.10310E+05-3.10834E-06
 -1      1337-8.04070E-07 4.72639E+05-5.39778E+05
 -1      1339-6.04679E-07 4.72639E+05 5.39778E+05
 -1      1340 6.38873E-07 1.60626E+05-3.38749E-06
 -1      1342 6.05781E-07-5.27091E+05-1.23454E-06
 -1      1351 5.97902E-07 4.78170E+05-5.19008E+05
 -1      1353 8.43007E-07 4.78170E+05 5.19008E+05
 -1      1354 2.62151E-06 1.38743E+05-3.13687E-06
 -1      1356 2.58837E-06-5.22511E+05-6.76491E-07
 -1      1365 9.08687E-07 4.36919E+05-4.57549E+05
 -1      1367 9.84539E-07 4.36919E+05 4.57549E+05
 -1      1368 2.87357E-06 1.16387E+05 1.55837E-07
 -1      1370 2.87154E-06-4.66565E+05 1.15008E-06
 -1      1379 2.07207E-06 3.87137E+05-3.69759E+05
 -1      1381 2.16274E-06 3.87137E+05 3.69759E+05
 -1      1382 4.71461E-06 6.59488E+04 6.64543E-07
 -1      1384 4.67394E-06-4.05152E+05 1.33904E-06
 -1      1393 1.34320E-06 2.86349E+05-2.42996E+05
 -1      1395 1.29100E-06 2.86349E+05 2.42996E+05
 -1      1396 5.01459E-06 2.46538E+04-4.57127E-06
 -1      1398 5.00981E-06-2.84941E+05-4.66165E-06
 -1      1407-2.51496E-06 2.11692E+05-1.09015E+05
 -1      1409-2.51712E-06 2.11692E+05 1.09015E+05
 -1      1410 3.50301E-06-6.05577E+04-7.11416E-06
 -1      1412 3.52342E-06-1.99450E+05-6.96493E-06
 -1      1421-4.39393E-06 7.31333E+04 6.92267E+04
 -1      1423-4.15879E-06 7.31333E+04-6.92267E+04
 -1      1424 2.34134E-06-1.18712E+05-2.76502E-06
 -1      1426 2.29503E-06-3.05124E+04-3.24201E-06
 -1      1435-2.86836E-06 3.46125E+04 2.22937E+05
 -1      1437-2.76288E-06 3.46125E+04-2.22937E+05
 -1      1438 1.70753E-06-2.65215E+05-7.58623E-08
 -1      1440 1.69485E-06 1.88239E+04-4.68467E-07
 -1      1449-2.00254E-06-1.27428E+05 4.78874E+05
 -1      1451-2.01091E-06-1.27428E+05-4.78874E+05
 -1      1452 2.48171E-06-3.52761E+05-1.05962E-06
 -1      1454 2.38735E-06 2.57360E+05-1.22882E-06
 -1      1463-2.22225E-06-1.88245E+04 6.74255E+05
 -1      1465-2.53804E-06-1.88245E+04-6.74255E+05
 -1      1466 5.09425E-06-6.68441E+05-1.07117E-06
 -1      1468 5.03017E-06 1.90609E+05-2.23299E-06
 -1      1477-1.11399E-06-2.24556E+05 1.25838E+06
 -1      1479-1.78030E-06-2.24556E+05-1.25838E+06
 -1      1480 6.30100E-06-9.11413E+05-2.56023E-09
 -1      1482 6.25381E-06 6.91851E+05-5.49889E-07
 -1      1491-9.20925E-07 9.00805E+04-4.46264E-07
 -1      1493-9.23985E-07 9.00805E+04-7.56234E-07
 -1      1494-1.11561E-06-1.76033E-06 2.16194E-07
 -1      1496-1.32656E-06-6.18737E-07 2.61902E-07
 -1      1497 8.30702E-07-9.00805E+04 9.93321E-07
 -1      1499 3.51378E-07-9.00805E+04 9.05900E-07
 -1      1500-5.67089E+03-9.88543E+03-3.48534E+03
 -1      1502-5.67089E+03-9.88543E+03-3.48534E+03
 -1      1503-9.50048E+03-2.38611E+04-7.48555E+03
 -1      1505-9.50048E+03-2.38611E+04-7.48555E+03
 -1      1506-1.10873E+04-4.13194E+04-1.14778E+04
 -1      1508-1.10873E+04-4.13194E+04-1.14778E+04
 -1      1509-1.08054E+04-5.93575E+04-1.50994E+04
 -1      1511-1.08054E+04-5.93575E+04-1.50994E+04
 -1      1512-9.02624E+03-7.54704E+04-1.81350E+04
 -1      1514-9.02624E+03-7.54704E+04-1.81350E+04
 -1      1515-6.10950E+03-8.77108E+04-2.02995E+04
 -1      1517-6.10950E+03-8.77108E+04-2.02995E+04
 -1      1518-2.42513E+03-9.46606E+04-2.14109E+04
 -1      1520-2.42513E+03-9.46606E+04-2.14109E+04
 -1      1521 1.65369E+03-9.54590E+04-2.13419E+04
 -1      1523 1.65369E+03-9.54590E+04-2.13419E+04
 -1      1524 5.75898E+03-8.98095E+04-2.00640E+04
 -1      1526 5.75898E+03-8.98095E+04-2.00640E+04
 -1      1527 9.54474E+03-7.79615E+04-1.76330E+04
 -1      1529 9.54474E+03-7.79615E+04-1.76330E+04
 -1      1530 1.27034E+04-6.06676E+04-1.41929E+04
 -1      1532 1.27034E+04-6.06676E+04-1.41929E+04
 -1      1533 1.49836E+04-3.91112E+04-9.96082E+03
 -1      1535 1.49836E+04-3.91112E+04-9.96082E+03
 -1      1536 1.62046E+04-1.48099E+04-5.21276E+03
 -1      1538 1.62046E+04-1.48099E+04-5.21276E+03
 -1      1539 1.62668E+04 1.05026E+04-2.62581E+02
 -1      1541 1.62668E+04 1.05026E+04-2.62581E+02
 -1      1542 1.51575E+04 3.50066E+04 4.56058E+03
 -1      1544 1.51575E+04 3.50066E+04 4.56058E+03
 -1      1545 1.29501E+04 5.69311E+04 8.93632E+03
 -1      1547 1.29501E+04 5.69311E+04 8.93632E+03
 -1      1548 9.79802E+03 7.46832E+04 1.25759E+04
 -1      1550 9.79802E+03 7.46832E+04 1.25759E+04
 -1      1551 5.92241E+03 8.69633E+04 1.52431E+04
 -1      1553 5.92241E+03 8.69633E+04 1.52431E+04
 -1      1554 1.59489E+03 9.28576E+04 1.67709E+04
 -1      1556 1.59489E+03 9.28576E+04 1.67709E+04
 -1      1557-2.88363E+03 9.19003E+04 1.70733E+04
 -1      1559-2.88363E+03 9.19003E+04 1.70733E+04
 -1      1560-7.20648E+03 8.41028E+04 1.61506E+04
 -1      1562-7.20648E+03 8.41028E+04 1.61506E+04
 -1      1563-1.10868E+04 6.99423E+04 1.40901E+04
 -1      1565-1.10868E+04 6.99423E+04 1.40901E+04
 -1      1566-1.42815E+04 5.03155E+04 1.10577E+04
 -1      1568-1.42815E+04 5.03155E+04 1.10577E+04
 -1      1569-1.66162E+04 2.64521E+04 7.28793E+03
 -1      1571-1.66162E+04 2.64521E+04 7.28793E+03
 -1      1572-1.80053E+04-2.05085E+02 3.06591E+03
 -1      1574-1.80053E+04-2.05085E+02 3.06591E+03
 -1      1575-1.84710E+04-2.81381E+04-1.28688E+03
 -1      1577-1.84710E+04-2.81381E+04-1.28688E+03
 -1      1578-1.81646E+04-5.59669E+04-5.42991E+03
 -1      1580-1.81646E+04-5.59669E+04-5.42991E+03
 -1      1581-1.73693E+04-8.25432E+04-8.99666E+03
 -1      1583-1.73693E+04-8.25432E+04-8.99666E+03
 -1      1584-1.65562E+04-1.07405E+05-1.15621E+04
 -1      1586-1.65562E+04-1.07405E+05-1.15621E+04
 -1      1587-1.08121E+04-1.19371E+05-8.89441E+03
 -1      1589-1.08121E+04-1.19371E+05-8.89441E+03
 -1      1590 3.30978E+06 6.38432E+05 4.37572E+01
 -1      1592 3.68256E+06 5.69739E+05 4.37572E+01
 -1      1593 1.08121E+04-1.19371E+05 8.89441E+03
 -1      1595 1.08121E+04-1.19371E+05 8.89441E+03
 -1      1596 5.67089E+03-9.88543E+03 3.48534E+03
 -1      1598 5.67089E+03-9.88543E+03 3.48534E+03
 -1      1599 9.50048E+03-2.38611E+04 7.48555E+03
 -1      1601 9.50048E+03-2.38611E+04 7.48555E+03
 -1      1602 1.10873E+04-4.13194E+04 1.14778E+04
 -1      1604 1.10873E+04-4.13194E+04 1.14778E+04
 -1      1605 1.08054E+04-5.93575E+04 1.50994E+04
 -1      1607 1.08054E+04-5.93575E+04 1.50994E+04
 -1      1608 9.02624E+03-7.54704E+04 1.81350E+04
 -1      1610 9.02624E+03-7.54704E+04 1.81350E+04
 -1      1611 6.10950E+03-8.77108E+04 2.02995E+04
 -1      1613 6.10950E+03-8.77108E+04 2.02995E+04
 -1      1614 2.42513E+03-9.46606E+04 2.14109E+04
 -1      1616 2.42513E+03-9.46606E+04 2.14109E+04
 -1      1617-1.65369E+03-9.54590E+04 2.13419E+04
 -1      1619-1.65369E+03-9.54590E+04 2.13419E+04
 -1      1620-5.75898E+03-8.98095E+04 2.00640E+04
 -1      1622-5.75898E+03-8.98095E+04 2.00640E+04
 -1      1623-9.54474E+03-7.79615E+04 1.76330E+04
 -1      1625-9.54474E+03-7.79615E+04 1.76330E+04
 -1      1626-1.27034E+04-6.06676E+04 1.41929E+04
 -1      1628-1.27034E+04-6.06676E+04 1.41929E+04
 -1      1629-1.49836E+04-3.91112E+04 9.96082E+03
 -1      1631-1.49836E+04-3.91112E+04 9.96082E+03
 -1      1632-1.62046E+04-1.48099E+04 5.21276E+03
 -1      1634-1.62046E+04-1.48099E+04 5.21276E+03
 -1      1635-1.62668E+04 1.05026E+04 2.62581E+02
 -1      1637-1.62668E+04 1.05026E+04 2.62581E+02
 -1      1638-1.51575E+04 3.50066E+04-4.56058E+03
 -1      1640-1.51575E+04 3.50066E+04-4.56058E+03
 -1      1641-1.29501E+04 5.69311E+04-8.93632E+03
 -1      1643-1.29501E+04 5.69311E+04-8.93632E+03
 -1      1644-9.79802E+03 7.46832E+04-1.25759E+04
 -1      1646-9.79802E+03 7.46832E+04-1.25759E+04
 -1      1647-5.92241E+03 8.69633E+04-1.52431E+04
 -1      1649-5.92241E+03 8.69633E+04-1.52431E+04
 -1      1650-1.59489E+03 9.28576E+04-1.67709E+04
 -1      1652-1.59489E+03 9.28576E+04-1.67709E+04
 -1      1653 2.88363E+03 9.19003E+04-1.70733E+04
 -1      1655 2.88363E+03 9.19003E+04-1.70733E+04
 -1      1656 7.20648E+03 8.41028E+04-1.61506E+04
 -1      1658 7.20648E+03 8.41028E+04-1.61506E+04
 -1      1659 1.10868E+04 6.99423E+04-1.40901E+04
 -1      1661 1.10868E+04 6.99423E+04-1.40901E+04
 -1      1662 1.42815E+04 5.03155E+04-1.10577E+04
 -1      1664 1.42815E+04 5.03155E+04-1.10577E+04
 -1      1665 1.66162E+04 2.64521E+04-7.28793E+03
 -1      1667 1.66162E+04 2.64521E+04-7.28793E+03
 -1      1668 1.80053E+04-2.05085E+02-3.06591E+03
 -1      1670 1.80053E+04-2.05085E+02-3.06591E+03
 -1      1671 1.84710E+04-2.81381E+04 1.28688E+03
 -1      1673 1.84710E+04-2.81381E+04 1.28688E+03
 -1      1674 1.81646E+04-5.59669E+04 5.42991E+03
 -1      1676 1.81646E+04-5.59669E+04 5.42991E+03
 -1      1677 1.73693E+04-8.25432E+04 8.99666E+03
 -1      1679 1.73693E+04-8.25432E+04 8.99666E+03
 -1      1680 1.65562E+04-1.07405E+05 1.15621E+04
 -1      1682 1.65562E+04-1.07405E+05 1.15621E+04
 -1      1683-3.30978E+06 6.38432E+05-4.37572E+01
 -1      1685-3.68256E+06 5.69739E+05-4.37572E+01
 -1      1686-7.42489E+03 1.93956E+04 4.59512E+03
 -1      1688-7.42489E+03 1.93956E+04 4.59512E+03
 -1      1689-1.25451E+04 4.74722E+04 9.93593E+03
 -1      1691-1.25451E+04 4.74722E+04 9.93593E+03
 -1      1692-1.46910E+04 8.25988E+04 1.53139E+04
 -1      1694-1.46910E+04 8.25988E+04 1.53139E+04
 -1      1695-1.43280E+04 1.18803E+05 2.02260E+04
 -1      1697-1.43280E+04 1.18803E+05 2.02260E+04
 -1      1698-1.19774E+04 1.51145E+05 2.43674E+04
 -1      1700-1.19774E+04 1.51145E+05 2.43674E+04
 -1      1701-8.10618E+03 1.75705E+05 2.73368E+04
 -1      1703-8.10618E+03 1.75705E+05 2.73368E+04
 -1      1704-3.21330E+03 1.89654E+05 2.88780E+04
 -1      1706-3.21330E+03 1.89654E+05 2.88780E+04
 -1      1707 2.20636E+03 1.91268E+05 2.88116E+04
 -1      1709 2.20636E+03 1.91268E+05 2.88116E+04
 -1      1710 7.66234E+03 1.79957E+05 2.70955E+04
 -1      1712 7.66234E+03 1.79957E+05 2.70955E+04
 -1      1713 1.26942E+04 1.56220E+05 2.38040E+04
 -1      1715 1.26942E+04 1.56220E+05 2.38040E+04
 -1      1716 1.68929E+04 1.21568E+05 1.91331E+04
 -1      1718 1.68929E+04 1.21568E+05 1.91331E+04
 -1      1719 1.99239E+04 7.83721E+04 1.33790E+04
 -1      1721 1.99239E+04 7.83721E+04 1.33790E+04
 -1      1722 2.15468E+04 2.96749E+04 6.91897E+03
 -1      1724 2.15468E+04 2.96749E+04 6.91897E+03
 -1      1725 2.16291E+04-2.10497E+04 1.82121E+02
 -1      1727 2.16291E+04-2.10497E+04 1.82121E+02
 -1      1728 2.01537E+04-7.01546E+04-6.38153E+03
 -1      1730 2.01537E+04-7.01546E+04-6.38153E+03
 -1      1731 1.72184E+04-1.14091E+05-1.23339E+04
 -1      1733 1.72184E+04-1.14091E+05-1.23339E+04
 -1      1734 1.30270E+04-1.49666E+05-1.72801E+04
 -1      1736 1.30270E+04-1.49666E+05-1.72801E+04
 -1      1737 7.87340E+03-1.74277E+05-2.08973E+04
 -1      1739 7.87340E+03-1.74277E+05-2.08973E+04
 -1      1740 2.11876E+03-1.86091E+05-2.29568E+04
 -1      1742 2.11876E+03-1.86091E+05-2.29568E+04
 -1      1743-3.83688E+03-1.84176E+05-2.33409E+04
 -1      1745-3.83688E+03-1.84176E+05-2.33409E+04
 -1      1746-9.58606E+03-1.68555E+05-2.20496E+04
 -1      1748-9.58606E+03-1.68555E+05-2.20496E+04
 -1      1749-1.47472E+04-1.40186E+05-1.92010E+04
 -1      1751-1.47472E+04-1.40186E+05-1.92010E+04
 -1      1752-1.89983E+04-1.00866E+05-1.50204E+04
 -1      1754-1.89983E+04-1.00866E+05-1.50204E+04
 -1      1755-2.21062E+04-5.30613E+04-9.82557E+03
 -1      1757-2.21062E+04-5.30613E+04-9.82557E+03
 -1      1758-2.39608E+04 3.30701E+02-4.00179E+03
 -1      1760-2.39608E+04 3.30701E+02-4.00179E+03
 -1      1761-2.45877E+04 5.62773E+04 2.01746E+03
 -1      1763-2.45877E+04 5.62773E+04 2.01746E+03
 -1      1764-2.41950E+04 1.11973E+05 7.77259E+03
 -1      1766-2.41950E+04 1.11973E+05 7.77259E+03
 -1      1767-2.31640E+04 1.65181E+05 1.27656E+04
 -1      1769-2.31640E+04 1.65181E+05 1.27656E+04
 -1      1770-2.20838E+04 2.14835E+05 1.63968E+04
 -1      1772-2.20838E+04 2.14835E+05 1.63968E+04
 -1      1773 7.42489E+03 1.93956E+04-4.59512E+03
 -1      1775 7.42489E+03 1.93956E+04-4.59512E+03
 -1      1776 1.25451E+04 4.74722E+04-9.93593E+03
 -1      1778 1.25451E+04 4.74722E+04-9.93593E+03
 -1      1779 1.46910E+04 8.25988E+04-1.53139E+04
 -1      1781 1.46910E+04 8.25988E+04-1.53139E+04
 -1      1782 1.43280E+04 1.18803E+05-2.02260E+04
 -1      1784 1.43280E+04 1.18803E+05-2.02260E+04
 -1      1785 1.19774E+04 1.51145E+05-2.43674E+04
 -1      1787 1.19774E+04 1.51145E+05-2.43674E+04
 -1      1788 8.10618E+03 1.75705E+05-2.73368E+04
 -1      1790 8.10618E+03 1.75705E+05-2.73368E+04
 -1      1791 3.21330E+03 1.89654E+05-2.88780E+04
 -1      1793 3.21330E+03 1.89654E+05-2.88780E+04
 -1      1794-2.20636E+03 1.91268E+05-2.88116E+04
 -1      1796-2.20636E+03 1.91268E+05-2.88116E+04
 -1      1797-7.66234E+03 1.79957E+05-2.70955E+04
 -1      1799-7.66234E+03 1.79957E+05-2.70955E+04
 -1      1800-1.26942E+04 1.56220E+05-2.38040E+04
 -1      1802-1.26942E+04 1.56220E+05-2.38040E+04
 -1      1803-1.68929E+04 1.21568E+05-1.91331E+04
 -1      1805-1.68929E+04 1.21568E+05-1.91331E+04
 -1      1806-1.99239E+04 7.83721E+04-1.33790E+04
 -1      1808-1.99239E+04 7.83721E+04-1.33790E+04
 -1      1809-2.15468E+04 2.96749E+04-6.91897E+03
 -1      1811-2.15468E+04 2.96749E+04-6.91897E+03
 -1      1812-2.16291E+04-2.10497E+04-1.82121E+02
 -1      1814-2.16291E+04-2.10497E+04-1.82121E+02
 -1      1815-2.01537E+04-7.01546E+04 6.38153E+03
 -1      1817-2.01537E+04-7.01546E+04 6.38153E+03
 -1      1818-1.72184E+04-1.14091E+05 1.23339E+04
 -1      1820-1.72184E+04-1.14091E+05 1.23339E+04
 -1      1821-1.30270E+04-1.49666E+05 1.72801E+04
 -1      1823-1.30270E+04-1.49666E+05 1.72801E+04
 -1      1824-7.87340E+03-1.74277E+05 2.08973E+04
 -1      1826-7.87340E+03-1.74277E+05 2.08973E+04
 -1      1827-2.11876E+03-1.86091E+05 2.29568E+04
 -1      1829-2.11876E+03-1.86091E+05 2.29568E+04
 -1      1830 3.83688E+03-1.84176E+05 2.33409E+04
 -1      1832 3.83688E+03-1.84176E+05 2.33409E+04
 -1      1833 9.58606E+03-1.68555E+05 2.20496E+04
 -1      1835 9.58606E+03-1.68555E+05 2.20496E+04
 -1      1836 1.47472E+04-1.40186E+05 1.92010E+04
 -1      1838 1.47472E+04-1.40186E+05 1.92010E+04
 -1      1839 1.89983E+04-1.00866E+05 1.50204E+04
 -1      1841 1.89983E+04-1.00866E+05 1.50204E+04
 -1      1842 2.21062E+04-5.30613E+04 9.82557E+03
 -1      1844 2.21062E+04-5.30613E+04 9.82557E+03
 -1      1845 2.39608E+04 3.30701E+02 4.00179E+03
 -1      1847 2.39608E+04 3.30701E+02 4.00179E+03
 -1      1848 2.45877E+04 5.62773E+04-2.01746E+03
 -1      1850 2.45877E+04 5.62773E+04-2.01746E+03
 -1      1851 2.41950E+04 1.11973E+05-7.77259E+03
 -1      1853 2.41950E+04 1.11973E+05-7.77259E+03
 -1      1854 2.31640E+04 1.65181E+05-1.27656E+04
 -1      1856 2.31640E+04 1.65181E+05-1.27656E+04
 -1      1857 2.20838E+04 2.14835E+05-1.63968E+04
 -1      1859 2.20838E+04 2.14835E+05-1.63968E+04
 -1      1860 6.03342E-07 1.45976E+04-1.07774E-06
 -1      1862 6.91551E-07 1.45976E+04-9.49247E-07
 -1      1863 1.46635E-06 3.59685E+04 5.51039E-07
 -1      1865 1.66767E-06 3.59685E+04 4.74973E-07
 -1      1866 1.54481E-06 6.24717E+04 8.38178E-07
 -1      1868 1.61438E-06 6.24717E+04 6.56756E-07
 -1      1869-2.04207E-06 8.95703E+04 8.23801E-07
 -1      1871-2.20154E-06 8.95703E+04 1.02112E-06
 -1      1872-4.63229E-06 1.13724E+05 3.99603E-07
 -1      1874-4.73543E-06 1.13724E+05 6.73457E-07
 -1      1875-3.63901E-06 1.32011E+05-7.64690E-07
 -1      1877-3.88495E-06 1.32011E+05-6.74432E-07
 -1      1878-2.24707E-07 1.42332E+05-9.26691E-07
 -1      1880-8.31136E-07 1.42332E+05-1.34702E-06
 -1      1881 2.01268E-06 1.43403E+05-1.06029E-06
 -1      1883 1.23681E-06 1.43403E+05-1.37500E-06
 -1      1884 1.83074E-07 1.34780E+05 2.38975E-06
 -1      1886-2.76334E-07 1.34780E+05 2.19962E-06
 -1      1887-2.25306E-06 1.16842E+05 3.08625E-06
 -1      1889-2.49633E-06 1.16842E+05 3.03626E-06
 -1      1890-1.32768E-06 9.07249E+04-8.69097E-07
 -1      1892-1.45911E-06 9.07249E+04-6.58229E-07
 -1      1893-7.63691E-07 5.82118E+04-1.99163E-06
 -1      1895-9.44384E-07 5.82118E+04-1.30427E-06
 -1      1896-1.62267E-06 2.15930E+04-2.68239E-06
 -1      1898-1.56489E-06 2.15930E+04-1.92560E-06
 -1      1899 4.18688E-07-1.65167E+04-3.29564E-06
 -1      1901 6.07441E-07-1.65167E+04-2.72519E-06
 -1      1902 3.46364E-06-5.33707E+04-1.30589E-06
 -1      1904 3.44282E-06-5.33707E+04-1.54685E-06
 -1      1905 2.76851E-06-8.62972E+04 1.62437E-07
 -1      1907 2.59732E-06-8.62972E+04 6.94226E-08
 -1      1908 1.27935E-06-1.12892E+05-1.27876E-06
 -1      1910 1.19028E-06-1.12892E+05-7.42200E-07
 -1      1911 2.83595E-06-1.31196E+05-1.11997E-06
 -1      1913 2.38559E-06-1.31196E+05-7.74661E-07
 -1      1914 5.11546E-06-1.39831E+05 1.93289E-06
 -1      1916 4.31143E-06-1.39831E+05 2.21502E-06
 -1      1917 4.63657E-06-1.38098E+05 2.96788E-06
 -1      1919 4.15051E-06-1.38098E+05 3.12471E-06
 -1      1920 1.15943E-06-1.26021E+05 1.43764E-06
 -1      1922 8.30176E-07-1.26021E+05 1.59540E-06
 -1      1923-1.48303E-06-1.04330E+05-2.71883E-07
 -1      1925-1.23517E-06-1.04330E+05-3.55356E-07
 -1      1926-2.38091E-06-7.43917E+04 3.23063E-07
 -1      1928-1.78320E-06-7.43917E+04 3.24027E-07
 -1      1929-3.12143E-06-3.80804E+04 6.02857E-07
 -1      1931-3.21495E-06-3.80804E+04 1.35920E-06
 -1      1932-2.66171E-06 2.38049E+03-1.76957E-06
 -1      1934-2.62915E-06 2.38049E+03-1.04708E-06
 -1      1935-2.17462E-06 4.46893E+04-2.73828E-06
 -1      1937-1.33631E-06 4.46893E+04-2.21533E-06
 -1      1938-1.70529E-06 8.65899E+04-1.08081E-06
 -1      1940-1.22078E-06 8.65899E+04-5.97937E-07
 -1      1941 2.45020E-07 1.26416E+05-2.02770E-06
 -1      1943-3.34474E-07 1.26416E+05-1.72283E-06
 -1      1944-1.75769E-07 1.62919E+05-2.40011E-06
 -1      1946-4.42709E-07 1.62919E+05-2.52180E-06
 -1      1947 2.07105E-06-2.21811E-06 2.04419E-06
 -1      1949 2.12449E-06-3.24247E-06 2.47214E-06
 -1      1950 6.36101E-07 2.03119E-07 4.50030E-06
 -1      1952 7.93949E-07-3.59989E-06 4.56986E-06
 -1      1953 5.41642E-07 4.81186E-06 8.87941E-07
 -1      1955 7.56727E-07-3.71313E-06 7.24488E-07
 -1      1956 1.13578E-08 2.79501E-06-9.35448E-07
 -1      1958-3.31893E-08-5.08047E-06-1.12794E-06
 -1      1959-1.41111E-06-2.71170E-06 1.20179E-06
 -1      1961-1.73382E-06-3.23188E-06 1.34150E-06
 -1      1962-1.09914E-06-1.73867E-06 2.38786E-06
 -1      1964-1.44188E-06-2.20059E-06 2.39973E-06
 -1      1965-2.26856E-06 5.69891E-07 3.94652E-06
 -1      1967-2.80525E-06-3.12016E-06 3.48020E-06
 -1      1968-3.25474E-06-3.74197E-06 1.42068E-06
 -1      1970-4.17306E-06-2.07228E-06 1.36312E-06
 -1      1971-1.84490E-06-3.68750E-06-5.46849E-07
 -1      1973-2.59942E-06 7.79267E-08-3.44787E-07
 -1      1974-2.48907E-06-9.27651E-07 3.04637E-07
 -1      1976-2.98446E-06-1.54175E-06 4.91174E-07
 -1      1977-3.15058E-06 5.33969E-06-1.21567E-07
 -1      1979-3.43638E-06-3.16830E-07 2.17591E-07
 -1      1980-1.81718E-06 4.15610E-06 8.37123E-07
 -1      1982-1.86917E-06 4.19926E-06 1.44434E-06
 -1      1983-2.26316E-07-3.13934E-06-9.71266E-07
 -1      1985-3.59507E-07 4.95542E-06-3.05996E-07
 -1      1986 1.85585E-06-1.69118E-06-3.56749E-06
 -1      1988 1.65660E-06 4.37525E-06-3.21298E-06
 -1      1989 4.15942E-06 5.04566E-06-1.45845E-06
 -1      1991 3.65362E-06 3.38049E-06-1.63292E-06
 -1      1992 4.47236E-06 4.33744E-06 1.61963E-06
 -1      1994 3.85993E-06 5.70362E-06 1.27987E-06
 -1      1995 1.03306E-06 3.87348E-06 2.16613E-06
 -1      1997 1.04527E-06 6.80204E-06 2.16442E-06
 -1      1998-1.81367E-06 4.52363E-06 3.29898E-06
 -1      2000-1.69121E-06 3.35792E-06 3.56065E-06
 -1      2001 2.81110E-07-1.54401E-06 2.86830E-06
 -1      2003 9.55806E-08-2.98195E-06 2.89399E-06
 -1      2004 1.56703E-06-3.36775E-06 8.38372E-07
 -1      2006 1.32255E-06-2.72833E-06 8.57186E-07
 -1      2007-8.78092E-07-2.05959E-06 1.01220E-06
 -1      2009-1.23415E-06-4.96661E-07 8.14111E-07
 -1      2010-2.47796E-06-4.09101E-06 2.14710E-07
 -1      2012-2.25255E-06-4.21713E-07-2.29975E-07
 -1      2013-2.04797E-06-7.85632E-06 5.39914E-07
 -1      2015-1.50881E-06-2.43014E-06 5.51363E-07
 -1      2016-2.80763E-06-7.31335E-06 2.96606E-06
 -1      2018-2.52766E-06-2.88928E-06 3.76716E-06
 -1      2019-3.42195E-06-5.46253E-06 3.17504E-06
 -1      2021-3.28997E-06-1.48840E-06 4.02625E-06
 -1      2022-3.15636E-06-5.75142E-06 2.87785E-06
 -1      2024-2.81790E-06-9.75985E-07 3.43764E-06
 -1      2025-1.98182E-06-3.96020E-06 4.25038E-06
 -1      2027-1.67345E-06-1.04147E-06 5.07358E-06
 -1      2028 6.46851E-08 4.71143E-07 3.37803E-06
 -1      2030-8.72556E-07 4.28514E-07 4.15679E-06
 -1      2031-5.46956E-07-7.51451E-07 8.34407E-07
 -1      2033-1.73855E-06 9.42139E-07 1.11973E-06
 -1      2034-3.96992E-06-1.45976E+04 3.35632E-06
 -1      2036-4.02839E-06-1.45976E+04 4.10128E-06
 -1      2037-3.53970E-06-3.59685E+04 3.64226E-06
 -1      2039-3.43133E-06-3.59685E+04 4.28747E-06
 -1      2040 1.07711E-06-6.24717E+04-1.26961E-06
 -1      2042 1.31191E-06-6.24717E+04-1.03807E-06
 -1      2043 2.06739E-06-8.95703E+04-3.30131E-06
 -1      2045 2.13198E-06-8.95703E+04-3.31323E-06
 -1      2046 1.07293E-06-1.13724E+05-1.14485E-07
 -1      2048 7.25540E-07-1.13724E+05 2.70484E-09
 -1      2049 6.26897E-07-1.32011E+05 6.34373E-07
 -1      2051 5.13064E-07-1.32011E+05 8.27815E-07
 -1      2052-2.01783E-06-1.42332E+05 2.14586E-06
 -1      2054-1.91859E-06-1.42332E+05 2.49140E-06
 -1      2055-2.47682E-06-1.43403E+05 4.26729E-06
 -1      2057-2.80693E-06-1.43403E+05 4.54142E-06
 -1      2058-5.30359E-07-1.34780E+05 1.95931E-06
 -1      2060-1.28356E-06-1.34780E+05 2.04972E-06
 -1      2061-3.89902E-06-1.16842E+05-9.35001E-07
 -1      2063-4.40187E-06-1.16842E+05-1.00825E-06
 -1      2064-5.01965E-06-9.07249E+04-1.27723E-06
 -1      2066-5.11360E-06-9.07249E+04-1.28733E-06
 -1      2067-5.80377E-07-5.82118E+04 2.35083E-07
 -1      2069-5.91498E-07-5.82118E+04 2.33191E-07
 -1      2070 1.19859E-06-2.15930E+04 3.15325E-07
 -1      2072 9.43982E-07-2.15930E+04 5.37548E-08
 -1      2073 4.29867E-07 1.65167E+04-1.83627E-06
 -1      2075-9.11677E-09 1.65167E+04-1.74461E-06
 -1      2076-1.53403E-06 5.33707E+04-1.70830E-06
 -1      2078-1.77755E-06 5.33707E+04-1.18822E-06
 -1      2079-2.94842E-06 8.62972E+04 1.83574E-06
 -1      2081-3.03918E-06 8.62972E+04 1.84486E-06
 -1      2082-4.39135E-06 1.12892E+05 4.29448E-06
 -1      2084-3.84309E-06 1.12892E+05 4.02289E-06
 -1      2085-4.72026E-06 1.31196E+05 3.10352E-06
 -1      2087-4.22975E-06 1.31196E+05 3.10828E-06
 -1      2088-1.28329E-06 1.39831E+05-1.33476E-07
 -1      2090-9.85794E-07 1.39831E+05-1.82190E-08
 -1      2091 8.59429E-07 1.38098E+05-3.41591E-06
 -1      2093 1.19597E-06 1.38098E+05-3.39882E-06
 -1      2094 1.16506E-06 1.26021E+05-2.92176E-06
 -1      2096 1.07180E-06 1.26021E+05-3.00855E-06
 -1      2097 2.88810E-06 1.04330E+05-2.23186E-07
 -1      2099 2.96886E-06 1.04330E+05-3.23769E-07
 -1      2100 2.91496E-06 7.43917E+04 8.28419E-07
 -1      2102 3.02567E-06 7.43917E+04 9.16414E-07
 -1      2103-4.38499E-07 3.80804E+04 1.84411E-06
 -1      2105-2.08544E-07 3.80804E+04 1.91868E-06
 -1      2106-2.12131E-06-2.38049E+03 1.58454E-06
 -1      2108-1.64446E-06-2.38049E+03 1.49753E-06
 -1      2109-1.47387E-06-4.46893E+04 1.64593E-06
 -1      2111-1.34448E-06-4.46893E+04 1.78644E-06
 -1      2112-4.31728E-08-8.65899E+04 4.12363E-06
 -1      2114-7.58973E-09-8.65899E+04 4.43661E-06
 -1      2115 3.22660E-06-1.26416E+05 3.28801E-06
 -1      2117 2.35646E-06-1.26416E+05 3.90317E-06
 -1      2118 3.65027E-06-1.62919E+05 1.70660E-06
 -1      2120 2.23196E-06-1.62919E+05 1.80052E-06
 -1      2121-7.42489E+03-1.93956E+04-4.59512E+03
 -1      2123-7.42489E+03-1.93956E+04-4.59512E+03
 -1      2124-1.25451E+04-4.74722E+04-9.93593E+03
 -1      2126-1.25451E+04-4.74722E+04-9.93593E+03
 -1      2127-1.46910E+04-8.25988E+04-1.53139E+04
 -1      2129-1.46910E+04-8.25988E+04-1.53139E+04
 -1      2130-1.43280E+04-1.18803E+05-2.02260E+04
 -1      2132-1.43280E+04-1.18803E+05-2.02260E+04
 -1      2133-1.19774E+04-1.51145E+05-2.43674E+04
 -1      2135-1.19774E+04-1.51145E+05-2.43674E+04
 -1      2136-8.10618E+03-1.75705E+05-2.73368E+04
 -1      2138-8.10618E+03-1.75705E+05-2.73368E+04
 -1      2139-3.21330E+03-1.89654E+05-2.88780E+04
 -1      2141-3.21330E+03-1.89654E+05-2.88780E+04
 -1      2142 2.20636E+03-1.91268E+05-2.88116E+04
 -1      2144 2.20636E+03-1.91268E+05-2.88116E+04
 -1      2145 7.66234E+03-1.79957E+05-2.70955E+04
 -1      2147 7.66234E+03-1.79957E+05-2.70955E+04
 -1      2148 1.26942E+04-1.56220E+05-2.38040E+04
 -1      2150 1.26942E+04-1.56220E+05-2.38040E+04
 -1      2151 1.68929E+04-1.21568E+05-1.91331E+04
 -1      2153 1.68929E+04-1.21568E+05-1.91331E+04
 -1      2154 1.99239E+04-7.83721E+04-1.33790E+04
 -1      2156 1.99239E+04-7.83721E+04-1.33790E+04
 -1      2157 2.15468E+04-2.96749E+04-6.91897E+03
 -1      2159 2.15468E+04-2.96749E+04-6.91897E+03
 -1      2160 2.16291E+04 2.10497E+04-1.82121E+02
 -1      2162 2.16291E+04 2.10497E+04-1.82121E+02
 -1      2163 2.01537E+04 7.01546E+04 6.38153E+03
 -1      2165 2.01537E+04 7.01546E+04 6.38153E+03
 -1      2166 1.72184E+04 1.14091E+05 1.23339E+04
 -1      2168 1.72184E+04 1.14091E+05 1.23339E+04
 -1      2169 1.30270E+04 1.49666E+05 1.72801E+04
 -1      2171 1.30270E+04 1.49666E+05 1.72801E+04
 -1      2172 7.87340E+03 1.74277E+05 2.08973E+04
 -1      2174 7.87340E+03 1.74277E+05 2.08973E+04
 -1      2175 2.11876E+03 1.86091E+05 2.29568E+04
 -1      2177 2.11876E+03 1.86091E+05 2.29568E+04
 -1      2178-3.83688E+03 1.84176E+05 2.33409E+04
 -1      2180-3.83688E+03 1.84176E+05 2.33409E+04
 -1      2181-9.58606E+03 1.68555E+05 2.20496E+04
 -1      2183-9.58606E+03 1.68555E+05 2.20496E+04
 -1      2184-1.47472E+04 1.40186E+05 1.92010E+04
 -1      2186-1.47472E+04 1.40186E+05 1.92010E+04
 -1      2187-1.89983E+04 1.00866E+05 1.50204E+04
 -1      2189-1.89983E+04 1.00866E+05 1.50204E+04
 -1      2190-2.21062E+04 5.30613E+04 9.82557E+03
 -1      2192-2.21062E+04 5.30613E+04 9.82557E+03
 -1      2193-2.39608E+04-3.30701E+02 4.00179E+03
 -1      2195-2.39608E+04-3.30701E+02 4.00179E+03
 -1      2196-2.45877E+04-5.62773E+04-2.01746E+03
 -1      2198-2.45877E+04-5.62773E+04-2.01746E+03
 -1      2199-2.41950E+04-1.11973E+05-7.77259E+03
 -1      2201-2.41950E+04-1.11973E+05-7.77259E+03
 -1      2202-2.31640E+04-1.65181E+05-1.27656E+04
 -1      2204-2.31640E+04-1.65181E+05-1.27656E+04
 -1      2205-2.20838E+04-2.14835E+05-1.63968E+04
 -1      2207-2.20838E+04-2.14835E+05-1.63968E+04
 -1      2208 7.42489E+03-1.93956E+04 4.59512E+03
 -1      2210 7.42489E+03-1.93956E+04 4.59512E+03
 -1      2211 1.25451E+04-4.74722E+04 9.93593E+03
 -1      2213 1.25451E+04-4.74722E+04 9.93593E+03
 -1      2214 1.46910E+04-8.25988E+04 1.53139E+04
 -1      2216 1.46910E+04-8.25988E+04 1.53139E+04
 -1      2217 1.43280E+04-1.18803E+05 2.02260E+04
 -1      2219 1.43280E+04-1.18803E+05 2.02260E+04
 -1      2220 1.19774E+04-1.51145E+05 2.43674E+04
 -1      2222 1.19774E+04-1.51145E+05 2.43674E+04
 -1      2223 8.10618E+03-1.75705E+05 2.73368E+04
 -1      2225 8.10618E+03-1.75705E+05 2.73368E+04
 -1      2226 3.21330E+03-1.89654E+05 2.88780E+04
 -1      2228 3.21330E+03-1.89654E+05 2.88780E+04
 -1      2229-2.20636E+03-1.91268E+05 2.88116E+04
 -1      2231-2.20636E+03-1.91268E+05 2.88116E+04
 -1      2232-7.66234E+03-1.79957E+05 2.70955E+04
 -1      2234-7.66234E+03-1.79957E+05 2.70955E+04
 -1      2235-1.26942E+04-1.56220E+05 2.38040E+04
 -1      2237-1.26942E+04-1.56220E+05 2.38040E+04
 -1      2238-1.68929E+04-1.21568E+05 1.91331E+04
 -1      2240-1.68929E+04-1.21568E+05 1.91331E+04
 -1      2241-1.99239E+04-7.83721E+04 1.33790E+04
 -1      2243-1.99239E+04-7.83721E+04 1.33790E+04
 -1      2244-2.15468E+04-2.96749E+04 6.91897E+03
 -1      2246-2.15468E+04-2.96749E+04 6.91897E+03
 -1      2247-2.16291E+04 2.10497E+04 1.82121E+02
 -1      2249-2.16291E+04 2.10497E+04 1.82121E+02
 -1      2250-2.01537E+04 7.01546E+04-6.38153E+03
 -1      2252-2.01537E+04 7.01546E+04-6.38153E+03
 -1      2253-1.72184E+04 1.14091E+05-1.23339E+04
 -1      2255-1.72184E+04 1.14091E+05-1.23339E+04
 -1      2256-1.30270E+04 1.49666E+05-1.72801E+04
 -1      2258-1.30270E+04 1.49666E+05-1.72801E+04
 -1      2259-7.87340E+03 1.74277E+05-2.08973E+04
 -1      2261-7.87340E+03 1.74277E+05-2.08973E+04
 -1      2262-2.11876E+03 1.86091E+05-2.29568E+04
 -1      2264-2.11876E+03 1.86091E+05-2.29568E+04
 -1      2265 3.83688E+03 1.84176E+05-2.33409E+04
 -1      2267 3.83688E+03 1.84176E+05-2.33409E+04
 -1      2268 9.58606E+03 1.68555E+05-2.20496E+04
 -1      2270 9.58606E+03 1.68555E+05-2.20496E+04
 -1      2271 1.47472E+04 1.40186E+05-1.92010E+04
 -1      2273 1.47472E+04 1.40186E+05-1.92010E+04
 -1      2274 1.89983E+04 1.00866E+05-1.50204E+04
 -1      2276 1.89983E+04 1.00866E+05-1.50204E+04
 -1      2277 2.21062E+04 5.30613E+04-9.82557E+03
 -1      2279 2.21062E+04 5.30613E+04-9.82557E+03
 -1      2280 2.39608E+04-3.30701E+02-4.00179E+03
 -1      2282 2.39608E+04-3.30701E+02-4.00179E+03
 -1      2283 2.45877E+04-5.62773E+04 2.01746E+03
 -1      2285 2.45877E+04-5.62773E+04 2.01746E+03
 -1      2286 2.41950E+04-1.11973E+05 7.77259E+03
 -1      2288 2.41950E+04-1.11973E+05 7.77259E+03
 -1      2289 2.31640E+04-1.65181E+05 1.27656E+04
 -1      2291 2.31640E+04-1.65181E+05 1.27656E+04
 -1      2292 2.20838E+04-2.14835E+05 1.63968E+04
 -1      2294 2.20838E+04-2.14835E+05 1.63968E+04
 -3
    1PSTEP                        44           1           1          
    1PGM                1.000000E+00                                  
    1PGK                6.927608E+06                                  
    1PHID                         -1                                  
    1PSUBC                         0                                  
    1PMODE                        11                                  
  100CL  111 418.9013592         930                     2   11MODAL      1
 -4  ERROR       1    1
 -5  STR(%)      1    1    0    0
 -1       404 0.00000E+00
 -1       406 0.00000E+00
 -1       407 0.00000E+00
 -1       409 0.00000E+00
 -1       410 0.00000E+00
 -1       412 0.00000E+00
 -1       413 0.00000E+00
 -1       415 0.00000E+00
 -1       424 0.00000E+00
 -1       426 0.00000E+00
 -1       427 0.00000E+00
 -1       429 0.00000E+00
 -1       438 0.00000E+00
 -1       440 0.00000E+00
 -1       441 0.00000E+00
 -1       443 0.00000E+00
 -1       444 0.00000E+00
 -1       446 0.00000E+00
 -1       447 0.00000E+00
 -1       449 0.00000E+00
 -1       458 0.00000E+00
 -1       460 0.00000E+00
 -1       461 0.00000E+00
 -1       463 0.00000E+00
 -1       472 0.00000E+00
 -1       474 0.00000E+00
 -1       475 0.00000E+00
 -1       477 0.00000E+00
 -1       478 0.00000E+00
 -1       480 0.00000E+00
 -1       481 0.00000E+00
 -1       483 0.00000E+00
 -1       484 0.00000E+00
 -1       486 0.00000E+00
 -1       487 0.00000E+00
 -1       489 0.00000E+00
 -1       490 0.00000E+00
 -1       492 0.00000E+00
 -1       493 0.00000E+00
 -1       495 0.00000E+00
 -1       496 0.00000E+00
 -1       498 0.00000E+00
 -1       499 0.00000E+00
 -1       501 0.00000E+00
 -1       502 0.00000E+00
 -1       504 0.00000E+00
 -1       505 0.00000E+00
 -1       507 0.00000E+00
 -1       508 0.00000E+00
 -1       510 0.00000E+00
 -1       511 0.00000E+00
 -1       513 0.00000E+00
 -1       514 0.00000E+00
 -1       516 0.00000E+00
 -1       517 0.00000E+00
 -1       519 0.00000E+00
 -1       520 0.00000E+00
 -1       522 0.00000E+00
 -1       523 0.00000E+00
 -1       525 0.00000E+00
 -1       526 0.00000E+00
 -1       528 0.00000E+00
 -1       529 0.00000E+00
 -1       531 0.00000E+00
 -1       532 0.00000E+00
 -1       534 0.00000E+00
 -1       535 0.00000E+00
 -1       537 0.00000E+00
 -1       538 0.00000E+00
 -1       540 0.00000E+00
 -1       541 0.00000E+00
 -1       543 0.00000E+00
 -1       544 0.00000E+00
 -1       546 0.00000E+00
 -1       547 0.00000E+00
 -1       549 0.00000E+00
 -1       550 0.00000E+00
 -1       552 0.00000E+00
 -1       553 0.00000E+00
 -1       555 0.00000E+00
 -1       556 0.00000E+00
 -1       558 0.00000E+00
 -1       559 0.00000E+00
 -1       561 0.00000E+00
 -1       562 0.00000E+00
 -1       564 0.00000E+00
 -1       565 0.00000E+00
 -1       567 0.00000E+00
 -1       568 0.00000E+00
 -1       570 0.00000E+00
 -1       571 0.00000E+00
 -1       573 0.00000E+00
 -1       574 0.00000E+00
 -1       576 0.00000E+00
 -1       577 0.00000E+00
 -1       579 0.00000E+00
 -1       588 0.00000E+00
 -1       590 0.00000E+00
 -1       591 0.00000E+00
 -1       593 0.00000E+00
 -1       602 0.00000E+00
 -1       604 0.00000E+00
 -1       605 0.00000E+00
 -1       607 0.00000E+00
 -1       616 0.00000E+00
 -1       618 0.00000E+00
 -1       619 0.00000E+00
 -1       621 0.00000E+00
 -1       630 0.00000E+00
 -1       632 0.00000E+00
 -1       633 0.00000E+00
 -1       635 0.00000E+00
 -1       644 0.00000E+00
 -1       646 0.00000E+00
 -1       647 0.00000E+00
 -1       649 0.00000E+00
 -1       658 0.00000E+00
 -1       660 0.00000E+00
 -1       661 0.00000E+00
 -1       663 0.00000E+00
 -1       672 0.00000E+00
 -1       674 0.00000E+00
 -1       675 0.00000E+00
 -1       677 0.00000E+00
 -1       686 0.00000E+00
 -1       688 0.00000E+00
 -1       689 0.00000E+00
 -1       691 0.00000E+00
 -1       700 0.00000E+00
 -1       702 0.00000E+00
 -1       703 0.00000E+00
 -1       705 0.00000E+00
 -1       714 0.00000E+00
 -1       716 0.00000E+00
 -1       717 0.00000E+00
 -1       719 0.00000E+00
 -1       728 0.00000E+00
 -1       730 0.00000E+00
 -1       731 0.00000E+00
 -1       733 0.00000E+00
 -1       742 0.00000E+00
 -1       744 0.00000E+00
 -1       745 0.00000E+00
 -1       747 0.00000E+00
 -1       756 0.00000E+00
 -1       758 0.00000E+00
 -1       759 0.00000E+00
 -1       761 0.00000E+00
 -1       770 0.00000E+00
 -1       772 0.00000E+00
 -1       773 0.00000E+00
 -1       775 0.00000E+00
 -1       784 0.00000E+00
 -1       786 0.00000E+00
 -1       787 0.00000E+00
 -1       789 0.00000E+00
 -1       798 0.00000E+00
 -1       800 0.00000E+00
 -1       801 0.00000E+00
 -1       803 0.00000E+00
 -1       812 0.00000E+00
 -1       814 0.00000E+00
 -1       815 0.00000E+00
 -1       817 0.00000E+00
 -1       826 0.00000E+00
 -1       828 0.00000E+00
 -1       829 0.00000E+00
 -1       831 0.00000E+00
 -1       840 0.00000E+00
 -1       842 0.00000E+00
 -1       843 0.00000E+00
 -1       845 0.00000E+00
 -1       854 0.00000E+00
 -1       856 0.00000E+00
 -1       857 0.00000E+00
 -1       859 0.00000E+00
 -1       868 0.00000E+00
 -1       870 0.00000E+00
 -1       871 0.00000E+00
 -1       873 0.00000E+00
 -1       882 0.00000E+00
 -1       884 0.00000E+00
 -1       885 0.00000E+00
 -1       887 0.00000E+00
 -1       896 0.00000E+00
 -1       898 0.00000E+00
 -1       899 0.00000E+00
 -1       901 0.00000E+00
 -1       910 0.00000E+00
 -1       912 0.00000E+00
 -1       913 0.00000E+00
 -1       915 0.00000E+00
 -1       924 0.00000E+00
 -1       926 0.00000E+00
 -1       927 0.00000E+00
 -1       929 0.00000E+00
 -1       938 0.00000E+00
 -1       940 0.00000E+00
 -1       941 0.00000E+00
 -1       943 0.00000E+00
 -1       952 0.00000E+00
 -1       954 0.00000E+00
 -1       955 0.00000E+00
 -1       957 0.00000E+00
 -1       966 0.00000E+00
 -1       968 0.00000E+00
 -1       969 0.00000E+00
 -1       971 0.00000E+00
 -1       980 0.00000E+00
 -1       982 0.00000E+00
 -1       983 0.00000E+00
 -1       985 0.00000E+00
 -1       986 0.00000E+00
 -1       988 0.00000E+00
 -1       989 0.00000E+00
 -1       991 0.00000E+00
 -1       992 0.00000E+00
 -1       994 0.00000E+00
 -1       995 0.00000E+00
 -1       997 0.00000E+00
 -1       998 0.00000E+00
 -1      1000 0.00000E+00
 -1      1001 0.00000E+00
 -1      1003 0.00000E+00
 -1      1004 0.00000E+00
 -1      1006 0.00000E+00
 -1      1007 0.00000E+00
 -1      1009 0.00000E+00
 -1      1010 0.00000E+00
 -1      1012 0.00000E+00
 -1      1013 0.00000E+00
 -1      1015 0.00000E+00
 -1      1016 0.00000E+00
 -1      1018 0.00000E+00
 -1      1019 0.00000E+00
 -1      1021 0.00000E+00
 -1      1022 0.00000E+00
 -1      1024 0.00000E+00
 -1      1025 0.00000E+00
 -1      1027 0.00000E+00
 -1      1028 0.00000E+00
 -1      1030 0.00000E+00
 -1      1031 0.00000E+00
 -1      1033 0.00000E+00
 -1      1034 0.00000E+00
 -1      1036 0.00000E+00
 -1      1037 0.00000E+00
 -1      1039 0.00000E+00
 -1      1040 0.00000E+00
 -1      1042 0.00000E+00
 -1      1043 0.00000E+00
 -1      1045 0.00000E+00
 -1      1046 0.00000E+00
 -1      1048 0.00000E+00
 -1      1049 0.00000E+00
 -1      1051 0.00000E+00
 -1      1052 0.00000E+00
 -1      1054 0.00000E+00
 -1      1055 0.00000E+00
 -1      1057 0.00000E+00
 -1      1058 0.00000E+00
 -1      1060 0.00000E+00
 -1      1061 0.00000E+00
 -1      1063 0.00000E+00
 -1      1064 0.00000E+00
 -1      1066 0.00000E+00
 -1      1067 0.00000E+00
 -1      1069 0.00000E+00
 -1      1070 0.00000E+00
 -1      1072 0.00000E+00
 -1      1073 0.00000E+00
 -1      1075 0.00000E+00
 -1      1076 0.00000E+00
 -1      1078 0.00000E+00
 -1      1079 0.00000E+00
 -1      1081 0.00000E+00
 -1      1082 0.00000E+00
 -1      1084 0.00000E+00
 -1      1085 0.00000E+00
 -1      1087 0.00000E+00
 -1      1088 0.00000E+00
 -1      1090 0.00000E+00
 -1      1099 0.00000E+00
 -1      1101 0.00000E+00
 -1      1102 0.00000E+00
 -1      1104 0.00000E+00
 -1      1113 0.00000E+00
 -1      1115 0.00000E+00
 -1      1116 0.00000E+00
 -1      1118 0.00000E+00
 -1      1127 0.00000E+00
 -1      1129 0.00000E+00
 -1      1130 0.00000E+00
 -1      1132 0.00000E+00
 -1      1141 0.00000E+00
 -1      1143 0.00000E+00
 -1      1144 0.00000E+00
 -1      1146 0.00000E+00
 -1      1155 0.00000E+00
 -1      1157 0.00000E+00
 -1      1158 0.00000E+00
 -1      1160 0.00000E+00
 -1      1169 0.00000E+00
 -1      1171 0.00000E+00
 -1      1172 0.00000E+00
 -1      1174 0.00000E+00
 -1      1183 0.00000E+00
 -1      1185 0.00000E+00
 -1      1186 0.00000E+00
 -1      1188 0.00000E+00
 -1      1197 0.00000E+00
 -1      1199 0.00000E+00
 -1      1200 0.00000E+00
 -1      1202 0.00000E+00
 -1      1211 0.00000E+00
 -1      1213 0.00000E+00
 -1      1214 0.00000E+00
 -1      1216 0.00000E+00
 -1      1225 0.00000E+00
 -1      1227 0.00000E+00
 -1      1228 0.00000E+00
 -1      1230 0.00000E+00
 -1      1239 0.00000E+00
 -1      1241 0.00000E+00
 -1      1242 0.00000E+00
 -1      1244 0.00000E+00
 -1      1253 0.00000E+00
 -1      1255 0.00000E+00
 -1      1256 0.00000E+00
 -1      1258 0.00000E+00
 -1      1267 0.00000E+00
 -1      1269 0.00000E+00
 -1      1270 0.00000E+00
 -1      1272 0.00000E+00
 -1      1281 0.00000E+00
 -1      1283 0.00000E+00
 -1      1284 0.00000E+00
 -1      1286 0.00000E+00
 -1      1295 0.00000E+00
 -1      1297 0.00000E+00
 -1      1298 0.00000E+00
 -1      1300 0.00000E+00
 -1      1309 0.00000E+00
 -1      1311 0.00000E+00
 -1      1312 0.00000E+00
 -1      1314 0.00000E+00
 -1      1323 0.00000E+00
 -1      1325 0.00000E+00
 -1      1326 0.00000E+00
 -1      1328 0.00000E+00
 -1      1337 0.00000E+00
 -1      1339 0.00000E+00
 -1      1340 0.00000E+00
 -1      1342 0.00000E+00
 -1      1351 0.00000E+00
 -1      1353 0.00000E+00
 -1      1354 0.00000E+00
 -1      1356 0.00000E+00
 -1      1365 0.00000E+00
 -1      1367 0.00000E+00
 -1      1368 0.00000E+00
 -1      1370 0.00000E+00
 -1      1379 0.00000E+00
 -1      1381 0.00000E+00
 -1      1382 0.00000E+00
 -1      1384 0.00000E+00
 -1      1393 0.00000E+00
 -1      1395 0.00000E+00
 -1      1396 0.00000E+00
 -1      1398 0.00000E+00
 -1      1407 0.00000E+00
 -1      1409 0.00000E+00
 -1      1410 0.00000E+00
 -1      1412 0.00000E+00
 -1      1421 0.00000E+00
 -1      1423 0.00000E+00
 -1      1424 0.00000E+00
 -1      1426 0.00000E+00
 -1      1435 0.00000E+00
 -1      1437 0.00000E+00
 -1      1438 0.00000E+00
 -1      1440 0.00000E+00
 -1      1449 0.00000E+00
 -1      1451 0.00000E+00
 -1      1452 0.00000E+00
 -1      1454 0.00000E+00
 -1      1463 0.00000E+00
 -1      1465 0.00000E+00
 -1      1466 0.00000E+00
 -1      1468 0.00000E+00
 -1      1477 0.00000E+00
 -1      1479 0.00000E+00
 -1      1480 0.00000E+00
 -1      1482 0.00000E+00
 -1      1491 0.00000E+00
 -1      1493 0.00000E+00
 -1      1494 0.00000E+00
 -1      1496 0.00000E+00
 -1      1497 0.00000E+00
 -1      1499 0.00000E+00
 -1      1500 0.00000E+00
 -1      1502 0.00000E+00
 -1      1503 0.00000E+00
 -1      1505 0.00000E+00
 -1      1506 0.00000E+00
 -1      1508 0.00000E+00
 -1      1509 0.00000E+00
 -1      1511 0.00000E+00
 -1      1512 0.00000E+00
 -1      1514 0.00000E+00
 -1      1515 0.00000E+00
 -1      1517 0.00000E+00
 -1      1518 0.00000E+00
 -1      1520 0.00000E+00
 -1      1521 0.00000E+00
 -1      1523 0.00000E+00
 -1      1524 0.00000E+00
 -1      1526 0.00000E+00
 -1      1527 0.00000E+00
 -1      1529 0.00000E+00
 -1      1530 0.00000E+00
 -1      1532 0.00000E+00
 -1      1533 0.00000E+00
 -1      1535 0.00000E+00
 -1      1536 0.00000E+00
 -1      1538 0.00000E+00
 -1      1539 0.00000E+00
 -1      1541 0.00000E+00
 -1      1542 0.00000E+00
 -1      1544 0.00000E+00
 -1      1545 0.00000E+00
 -1      1547 0.00000E+00
 -1      1548 0.00000E+00
 -1      1550 0.00000E+00
 -1      1551 0.00000E+00
 -1      1553 0.00000E+00
 -1      1554 0.00000E+00
 -1      1556 0.00000E+00
 -1      1557 0.00000E+00
 -1      1559 0.00000E+00
 -1      1560 0.00000E+00
 -1      1562 0.00000E+00
 -1      1563 0.00000E+00
 -1      1565 0.00000E+00
 -1      1566 0.00000E+00
 -1      1568 0.00000E+00
 -1      1569 0.00000E+00
 -1      1571 0.00000E+00
 -1      1572 0.00000E+00
 -1      1574 0.00000E+00
 -1      1575 0.00000E+00
 -1      1577 0.00000E+00
 -1      1578 0.00000E+00
 -1      1580 0.00000E+00
 -1      1581 0.00000E+00
 -1      1583 0.00000E+00
 -1      1584 0.00000E+00
 -1      1586 0.00000E+00
 -1      1587 0.00000E+00
 -1      1589 0.00000E+00
 -1      1590 0.00000E+00
 -1      1592 0.00000E+00
 -1      1593 0.00000E+00
 -1      1595 0.00000E+00
 -1      1596 0.00000E+00
 -1      1598 0.00000E+00
 -1      1599 0.00000E+00
 -1      1601 0.00000E+00
 -1      1602 0.00000E+00
 -1      1604 0.00000E+00
 -1      1605 0.00000E+00
 -1      1607 0.00000E+00
 -1      1608 0.00000E+00
 -1      1610 0.00000E+00
 -1      1611 0.00000E+00
 -1      1613 0.00000E+00
 -1      1614 0.00000E+00
 -1      1616 0.00000E+00
 -1      1617 0.00000E+00
 -1      1619 0.00000E+00
 -1      1620 0.00000E+00
 -1      1622 0.00000E+00
 -1      1623 0.00000E+00
 -1      1625 0.00000E+00
 -1      1626 0.00000E+00
 -1      1628 0.00000E+00
 -1      1629 0.00000E+00
 -1      1631 0.00000E+00
 -1      1632 0.00000E+00
 -1      1634 0.00000E+00
 -1      1635 0.00000E+00
 -1      1637 0.00000E+00
 -1      1638 0.00000E+00
 -1      1640 0.00000E+00
 -1      1641 0.00000E+00
 -1      1643 0.00000E+00
 -1      1644 0.00000E+00
 -1      1646 0.00000E+00
 -1      1647 0.00000E+00
 -1      1649 0.00000E+00
 -1      1650 0.00000E+00
 -1      1652 0.00000E+00
 -1      1653 0.00000E+00
 -1      1655 0.00000E+00
 -1      1656 0.00000E+00
 -1      1658 0.00000E+00
 -1      1659 0.00000E+00
 -1      1661 0.00000E+00
 -1      1662 0.00000E+00
 -1      1664 0.00000E+00
 -1      1665 0.00000E+00
 -1      1667 0.00000E+00
 -1      1668 0.00000E+00
 -1      1670 0.00000E+00
 -1      1671 0.00000E+00
 -1      1673 0.00000E+00
 -1      1674 0.00000E+00
 -1      1676 0.00000E+00
 -1      1677 0.00000E+00
 -1      1679 0.00000E+00
 -1      1680 0.00000E+00
 -1      1682 0.00000E+00
 -1      1683 0.00000E+00
 -1      1685 0.00000E+00
 -1      1686 0.00000E+00
 -1      1688 0.00000E+00
 -1      1689 0.00000E+00
 -1      1691 0.00000E+00
 -1      1692 0.00000E+00
 -1      1694 0.00000E+00
 -1      1695 0.00000E+00
 -1      1697 0.00000E+00
 -1      1698 0.00000E+00
 -1      1700 0.00000E+00
 -1      1701 0.00000E+00
 -1      1703 0.00000E+00
 -1      1704 0.00000E+00
 -1      1706 0.00000E+00
 -1      1707 0.00000E+00
 -1      1709 0.00000E+00
 -1      1710 0.00000E+00
 -1      1712 0.00000E+00
 -1      1713 0.00000E+00
 -1      1715 0.00000E+00
 -1      1716 0.00000E+00
 -1      1718 0.00000E+00
 -1      1719 0.00000E+00
 -1      1721 0.00000E+00
 -1      1722 0.00000E+00
 -1      1724 0.00000E+00
 -1      1725 0.00000E+00
 -1      1727 0.00000E+00
 -1      1728 0.00000E+00
 -1      1730 0.00000E+00
 -1      1731 0.00000E+00
 -1      1733 0.00000E+00
 -1      1734 0.00000E+00
 -1      1736 0.00000E+00
 -1      1737 0.00000E+00
 -1      1739 0.00000E+00
 -1      1740 0.00000E+00
 -1      1742 0.00000E+00
 -1      1743 0.00000E+00
 -1      1745 0.00000E+00
 -1      1746 0.00000E+00
 -1      1748 0.00000E+00
 -1      1749 0.00000E+00
 -1      1751 0.00000E+00
 -1      1752 0.00000E+00
 -1      1754 0.00000E+00
 -1      1755 0.00000E+00
 -1      1757 0.00000E+00
 -1      1758 0.00000E+00
 -1      1760 0.00000E+00
 -1      1761 0.00000E+00
 -1      1763 0.00000E+00
 -1      1764 0.00000E+00
 -1      1766 0.00000E+00
 -1      1767 0.00000E+00
 -1      1769 0.00000E+00
 -1      1770 0.00000E+00
 -1      1772 0.00000E+00
 -1      1773 0.00000E+00
 -1      1775 0.00000E+00
 -1      1776 0.00000E+00
 -1      1778 0.00000E+00
 -1      1779 0.00000E+00
 -1      1781 0.00000E+00
 -1      1782 0.00000E+00
 -1      1784 0.00000E+00
 -1      1785 0.00000E+00
 -1      1787 0.00000E+00
 -1      1788 0.00000E+00
 -1      1790 0.00000E+00
 -1      1791 0.00000E+00
 -1      1793 0.00000E+00
 -1      1794 0.00000E+00
 -1      1796 0.00000E+00
 -1      1797 0.00000E+00
 -1      1799 0.00000E+00
 -1      1800 0.00000E+00
 -1      1802 0.00000E+00
 -1      1803 0.00000E+00
 -1      1805 0.00000E+00
 -1      1806 0.00000E+00
 -1      1808 0.00000E+00
 -1      1809 0.00000E+00
 -1      1811 0.00000E+00
 -1      1812 0.00000E+00
 -1      1814 0.00000E+00
 -1      1815 0.00000E+00
 -1      1817 0.00000E+00
 -1      1818 0.00000E+00
 -1      1820 0.00000E+00
 -1      1821 0.00000E+00
 -1      1823 0.00000E+00
 -1      1824 0.00000E+00
 -1      1826 0.00000E+00
 -1      1827 0.00000E+00
 -1      1829 0.00000E+00
 -1      1830 0.00000E+00
 -1      1832 0.00000E+00
 -1      1833 0.00000E+00
 -1      1835 0.00000E+00
 -1      1836 0.00000E+00
 -1      1838 0.00000E+00
 -1      1839 0.00000E+00
 -1      1841 0.00000E+00
 -1      1842 0.00000E+00
 -1      1844 0.00000E+00
 -1      1845 0.00000E+00
 -1      1847 0.00000E+00
 -1      1848 0.00000E+00
 -1      1850 0.00000E+00
 -1      1851 0.00000E+00
 -1      1853 0.00000E+00
 -1      1854 0.00000E+00
 -1      1856 0.00000E+00
 -1      1857 0.00000E+00
 -1      1859 0.00000E+00
 -1      1860 0.00000E+00
 -1      1862 0.00000E+00
 -1      1863 0.00000E+00
 -1      1865 0.00000E+00
 -1      1866 0.00000E+00
 -1      1868 0.00000E+00
 -1      1869 0.00000E+00
 -1      1871 0.00000E+00
 -1      1872 0.00000E+00
 -1      1874 0.00000E+00
 -1      1875 0.00000E+00
 -1      1877 0.00000E+00
 -1      1878 0.00000E+00
 -1      1880 0.00000E+00
 -1      1881 0.00000E+00
 -1      1883 0.00000E+00
 -1      1884 0.00000E+00
 -1      1886 0.00000E+00
 -1      1887 0.00000E+00
 -1      1889 0.00000E+00
 -1      1890 0.00000E+00
 -1      1892 0.00000E+00
 -1      1893 0.00000E+00
 -1      1895 0.00000E+00
 -1      1896 0.00000E+00
 -1      1898 0.00000E+00
 -1      1899 0.00000E+00
 -1      1901 0.00000E+00
 -1      1902 0.00000E+00
 -1      1904 0.00000E+00
 -1      1905 0.00000E+00
 -1      1907 0.00000E+00
 -1      1908 0.00000E+00
 -1      1910 0.00000E+00
 -1      1911 0.00000E+00
 -1      1913 0.00000E+00
 -1      1914 0.00000E+00
 -1      1916 0.00000E+00
 -1      1917 0.00000E+00
 -1      1919 0.00000E+00
 -1      1920 0.00000E+00
 -1      1922 0.00000E+00
 -1      1923 0.00000E+00
 -1      1925 0.00000E+00
 -1      1926 0.00000E+00
 -1      1928 0.00000E+00
 -1      1929 0.00000E+00
 -1      1931 0.00000E+00
 -1      1932 0.00000E+00
 -1      1934 0.00000E+00
 -1      1935 0.00000E+00
 -1      1937 0.00000E+00
 -1      1938 0.00000E+00
 -1      1940 0.00000E+00
 -1      1941 0.00000E+00
 -1      1943 0.00000E+00
 -1      1944 0.00000E+00
 -1      1946 0.00000E+00
 -1      1947 0.00000E+00
 -1      1949 0.00000E+00
 -1      1950 0.00000E+00
 -1      1952 0.00000E+00
 -1      1953 0.00000E+00
 -1      1955 0.00000E+00
 -1      1956 0.00000E+00
 -1      1958 0.00000E+00
 -1      1959 0.00000E+00
 -1      1961 0.00000E+00
 -1      1962 0.00000E+00
 -1      1964 0.00000E+00
 -1      1965 0.00000E+00
 -1      1967 0.00000E+00
 -1      1968 0.00000E+00
 -1      1970 0.00000E+00
 -1      1971 0.00000E+00
 -1      1973 0.00000E+00
 -1      1974 0.00000E+00
 -1      1976 0.00000E+00
 -1      1977 0.00000E+00
 -1      1979 0.00000E+00
 -1      1980 0.00000E+00
 -1      1982 0.00000E+00
 -1      1983 0.00000E+00
 -1      1985 0.00000E+00
 -1      1986 0.00000E+00
 -1      1988 0.00000E+00
 -1      1989 0.00000E+00
 -1      1991 0.00000E+00
 -1      1992 0.00000E+00
 -1      1994 0.00000E+00
 -1      1995 0.00000E+00
 -1      1997 0.00000E+00
 -1      1998 0.00000E+00
 -1      2000 0.00000E+00
 -1      2001 0.00000E+00
 -1      2003 0.00000E+00
 -1      2004 0.00000E+00
 -1      2006 0.00000E+00
 -1      2007 0.00000E+00
 -1      2009 0.00000E+00
 -1      2010 0.00000E+00
 -1      2012 0.00000E+00
 -1      2013 0.00000E+00
 -1      2015 0.00000E+00
 -1      2016 0.00000E+00
 -1      2018 0.00000E+00
 -1      2019 0.00000E+00
 -1      2021 0.00000E+00
 -1      2022 0.00000E+00
 -1      2024 0.00000E+00
 -1      2025 0.00000E+00
 -1      2027 0.00000E+00
 -1      2028 0.00000E+00
 -1      2030 0.00000E+00
 -1      2031 0.00000E+00
 -1      2033 0.00000E+00
 -1      2034 0.00000E+00
 -1      2036 0.00000E+00
 -1      2037 0.00000E+00
 -1      2039 0.00000E+00
 -1      2040 0.00000E+00
 -1      2042 0.00000E+00
 -1      2043 0.00000E+00
 -1      2045 0.00000E+00
 -1      2046 0.00000E+00
 -1      2048 0.00000E+00
 -1      2049 0.00000E+00
 -1      2051 0.00000E+00
 -1      2052 0.00000E+00
 -1      2054 0.00000E+00
 -1      2055 0.00000E+00
 -1      2057 0.00000E+00
 -1      2058 0.00000E+00
 -1      2060 0.00000E+00
 -1      2061 0.00000E+00
 -1      2063 0.00000E+00
 -1      2064 0.00000E+00
 -1      2066 0.00000E+00
 -1      2067 0.00000E+00
 -1      2069 0.00000E+00
 -1      2070 0.00000E+00
 -1      2072 0.00000E+00
 -1      2073 0.00000E+00
 -1      2075 0.00000E+00
 -1      2076 0.00000E+00
 -1      2078 0.00000E+00
 -1      2079 0.00000E+00
 -1      2081 0.00000E+00
 -1      2082 0.00000E+00
 -1      2084 0.00000E+00
 -1      2085 0.00000E+00
 -1      2087 0.00000E+00
 -1      2088 0.00000E+00
 -1      2090 0.00000E+00
 -1      2091 0.00000E+00
 -1      2093 0.00000E+00
 -1      2094 0.00000E+00
 -1      2096 0.00000E+00
 -1      2097 0.00000E+00
 -1      2099 0.00000E+00
 -1      2100 0.00000E+00
 -1      2102 0.00000E+00
 -1      2103 0.00000E+00
 -1      2105 0.00000E+00
 -1      2106 0.00000E+00
 -1      2108 0.00000E+00
 -1      2109 0.00000E+00
 -1      2111 0.00000E+00
 -1      2112 0.00000E+00
 -1      2114 0.00000E+00
 -1      2115 0.00000E+00
 -1      2117 0.00000E+00
 -1      2118 0.00000E+00
 -1      2120 0.00000E+00
 -1      2121 0.00000E+00
 -1      2123 0.00000E+00
 -1      2124 0.00000E+00
 -1      2126 0.00000E+00
 -1      2127 0.00000E+00
 -1      2129 0.00000E+00
 -1      2130 0.00000E+00
 -1      2132 0.00000E+00
 -1      2133 0.00000E+00
 -1      2135 0.00000E+00
 -1      2136 0.00000E+00
 -1      2138 0.00000E+00
 -1      2139 0.00000E+00
 -1      2141 0.00000E+00
 -1      2142 0.00000E+00
 -1      2144 0.00000E+00
 -1      2145 0.00000E+00
 -1      2147 0.00000E+00
 -1      2148 0.00000E+00
 -1      2150 0.00000E+00
 -1      2151 0.00000E+00
 -1      2153 0.00000E+00
 -1      2154 0.00000E+00
 -1      2156 0.00000E+00
 -1      2157 0.00000E+00
 -1      2159 0.00000E+00
 -1      2160 0.00000E+00
 -1      2162 0.00000E+00
 -1      2163 0.00000E+00
 -1      2165 0.00000E+00
 -1      2166 0.00000E+00
 -1      2168 0.00000E+00
 -1      2169 0.00000E+00
 -1      2171 0.00000E+00
 -1      2172 0.00000E+00
 -1      2174 0.00000E+00
 -1      2175 0.00000E+00
 -1      2177 0.00000E+00
 -1      2178 0.00000E+00
 -1      2180 0.00000E+00
 -1      2181 0.00000E+00
 -1      2183 0.00000E+00
 -1      2184 0.00000E+00
 -1      2186 0.00000E+00
 -1      2187 0.00000E+00
 -1      2189 0.00000E+00
 -1      2190 0.00000E+00
 -1      2192 0.00000E+00
 -1      2193 0.00000E+00
 -1      2195 0.00000E+00
 -1      2196 0.00000E+00
 -1      2198 0.00000E+00
 -1      2199 0.00000E+00
 -1      2201 0.00000E+00
 -1      2202 0.00000E+00
 -1      2204 0.00000E+00
 -1      2205 0.00000E+00
 -1      2207 0.00000E+00
 -1      2208 0.00000E+00
 -1      2210 0.00000E+00
 -1      2211 0.00000E+00
 -1      2213 0.00000E+00
 -1      2214 0.00000E+00
 -1      2216 0.00000E+00
 -1      2217 0.00000E+00
 -1      2219 0.00000E+00
 -1      2220 0.00000E+00
 -1      2222 0.00000E+00
 -1      2223 0.00000E+00
 -1      2225 0.00000E+00
 -1      2226 0.00000E+00
 -1      2228 0.00000E+00
 -1      2229 0.00000E+00
 -1      2231 0.00000E+00
 -1      2232 0.00000E+00
 -1      2234 0.00000E+00
 -1      2235 0.00000E+00
 -1      2237 0.00000E+00
 -1      2238 0.00000E+00
 -1      2240 0.00000E+00
 -1      2241 0.00000E+00
 -1      2243 0.00000E+00
 -1      2244 0.00000E+00
 -1      2246 0.00000E+00
 -1      2247 0.00000E+00
 -1      2249 0.00000E+00
 -1      2250 0.00000E+00
 -1      2252 0.00000E+00
 -1      2253 0.00000E+00
 -1      2255 0.00000E+00
 -1      2256 0.00000E+00
 -1      2258 0.00000E+00
 -1      2259 0.00000E+00
 -1      2261 0.00000E+00
 -1      2262 0.00000E+00
 -1      2264 0.00000E+00
 -1      2265 0.00000E+00
 -1      2267 0.00000E+00
 -1      2268 0.00000E+00
 -1      2270 0.00000E+00
 -1      2271 0.00000E+00
 -1      2273 0.00000E+00
 -1      2274 0.00000E+00
 -1      2276 0.00000E+00
 -1      2277 0.00000E+00
 -1      2279 0.00000E+00
 -1      2280 0.00000E+00
 -1      2282 0.00000E+00
 -1      2283 0.00000E+00
 -1      2285 0.00000E+00
 -1      2286 0.00000E+00
 -1      2288 0.00000E+00
 -1      2289 0.00000E+00
 -1      2291 0.00000E+00
 -1      2292 0.00000E+00
 -1      2294 0.00000E+00
 -3
    1PSTEP                        45           1           1          
    1PGM                1.000000E+00                                  
    1PGK                7.076828E+06                                  
    1PHID                         -1                                  
    1PSUBC                         0                                  
    1PMODE                        12                                  
  100CL  112 423.3888922         930                     2   12MODAL      1
 -4  DISP        4    1
 -5  D1          1    2    1    0
 -5  D2          1    2    2    0
 -5  D3          1    2    3    0
 -5  ALL         1    2    0    0    1ALL
 -1       404 0.00000E+00 0.00000E+00-1.26655E-04
 -1       406 0.00000E+00-0.00000E+00 1.26655E-04
 -1       407 1.11624E-02-8.43500E-02-2.04275E-01
 -1       409 1.12796E-02-5.13625E-02-2.04279E-01
 -1       410 1.45031E-12-7.97935E-02 4.39546E-13
 -1       412 1.44016E-12-5.58302E-02 4.39806E-13
 -1       413-5.33110E-04-6.78118E-02 7.63275E-03
 -1       415 5.33110E-04-6.78118E-02-7.63275E-03
 -1       424 0.00000E+00 0.00000E+00 2.14060E-15
 -1       426 0.00000E+00 0.00000E+00-2.14060E-15
 -1       427 0.00000E+00 1.36364E-15 0.00000E+00
 -1       429 0.00000E+00-1.36364E-15 0.00000E+00
 -1       438-1.11624E-02-8.43500E-02 2.04275E-01
 -1       440-1.12796E-02-5.13625E-02 2.04279E-01
 -1       441 0.00000E+00 0.00000E+00 1.26655E-04
 -1       443 0.00000E+00-0.00000E+00-1.26655E-04
 -1       444 0.00000E+00 9.28580E-16 0.00000E+00
 -1       446 0.00000E+00-9.28580E-16 0.00000E+00
 -1       447 0.00000E+00 0.00000E+00-1.45765E-15
 -1       449 0.00000E+00 0.00000E+00 1.45765E-15
 -1       458-5.33110E-04-6.78118E-02-7.63275E-03
 -1       460 5.33110E-04-6.78118E-02 7.63275E-03
 -1       461 1.09999E-12-7.97935E-02 4.24560E-13
 -1       463 1.11219E-12-5.58302E-02 4.25038E-13
 -1       472 0.00000E+00 0.00000E+00-1.26655E-04
 -1       474 0.00000E+00 0.00000E+00 1.26655E-04
 -1       475-1.11624E-02-8.43500E-02-2.04275E-01
 -1       477-1.12796E-02-5.13625E-02-2.04279E-01
 -1       478 1.11624E-02-8.43500E-02 2.04275E-01
 -1       480 1.12796E-02-5.13625E-02 2.04279E-01
 -1       481 0.00000E+00 0.00000E+00 1.26655E-04
 -1       483 0.00000E+00 0.00000E+00-1.26655E-04
 -1       484-1.18190E-03 6.45518E-03 2.51890E-02
 -1       486-7.46767E-03 1.75879E-03 2.52847E-02
 -1       487-5.54141E-03 1.58099E-02 5.90877E-02
 -1       489-8.51991E-03 6.19045E-03 5.92006E-02
 -1       490-6.51400E-03 2.78357E-02 8.68067E-02
 -1       492-1.07991E-02 1.35734E-02 8.68403E-02
 -1       493-7.29227E-03 4.06363E-02 1.14761E-01
 -1       495-1.05096E-02 2.18727E-02 1.14741E-01
 -1       496-6.39292E-03 5.27387E-02 1.38891E-01
 -1       498-9.57408E-03 3.00131E-02 1.38847E-01
 -1       499-4.86764E-03 6.28614E-02 1.60330E-01
 -1       501-7.40839E-03 3.66588E-02 1.60225E-01
 -1       502-2.52660E-03 7.00342E-02 1.77743E-01
 -1       504-4.62071E-03 4.09969E-02 1.77645E-01
 -1       505 3.22755E-05 7.35742E-02 1.91133E-01
 -1       507-1.44361E-03 4.23969E-02 1.91004E-01
 -1       508 2.60845E-03 7.33444E-02 1.99933E-01
 -1       510 1.73545E-03 4.07681E-02 1.99834E-01
 -1       511 4.78930E-03 6.94938E-02 2.04011E-01
 -1       513 4.57225E-03 3.63207E-02 2.03915E-01
 -1       514 6.35912E-03 6.26611E-02 2.03135E-01
 -1       516 6.80239E-03 2.96864E-02 2.03084E-01
 -1       517 7.12125E-03 5.36608E-02 1.97301E-01
 -1       519 8.22810E-03 2.17079E-02 1.97272E-01
 -1       520 7.03711E-03 4.35376E-02 1.86542E-01
 -1       522 8.79038E-03 1.33858E-02 1.86559E-01
 -1       523 6.16262E-03 3.32865E-02 1.71077E-01
 -1       525 8.52777E-03 5.69850E-03 1.71116E-01
 -1       526 4.67608E-03 2.38236E-02 1.51208E-01
 -1       528 7.60271E-03-5.15792E-04 1.51276E-01
 -1       529 2.82912E-03 1.57903E-02 1.27405E-01
 -1       531 6.24721E-03-4.67724E-03 1.27477E-01
 -1       532 9.23771E-04 9.53719E-03 1.00232E-01
 -1       534 4.74956E-03-6.54310E-03 1.00306E-01
 -1       535-7.38722E-04 5.04736E-03 7.03882E-02
 -1       537 3.39491E-03-6.22963E-03 7.04437E-02
 -1       538-1.89496E-03 1.99068E-03 3.86460E-02
 -1       540 2.43765E-03-4.19655E-03 3.86803E-02
 -1       541-2.35942E-03-2.33787E-04 5.85950E-03
 -1       543 2.05447E-03-1.16970E-03 5.86170E-03
 -1       544-2.04681E-03-2.37756E-03-2.70901E-02
 -1       546 2.32885E-03 1.96048E-03-2.71170E-02
 -1       547-9.85177E-04-5.22817E-03-5.93080E-02
 -1       549 3.23356E-03 4.27210E-03-5.93639E-02
 -1       550 6.94362E-04-9.47719E-03-8.99295E-02
 -1       552 4.64252E-03 4.94006E-03-9.00044E-02
 -1       553 2.77247E-03-1.56096E-02-1.18147E-01
 -1       555 6.34916E-03 3.35255E-03-1.18233E-01
 -1       556 4.99136E-03-2.38302E-02-1.43228E-01
 -1       558 8.10010E-03-8.09858E-04-1.43312E-01
 -1       559 7.07050E-03-3.40296E-02-1.64568E-01
 -1       561 9.64954E-03-7.54115E-03-1.64640E-01
 -1       562 8.81102E-03-4.58081E-02-1.81621E-01
 -1       564 1.07729E-02-1.65301E-02-1.81674E-01
 -1       565 1.00321E-02-5.85683E-02-1.94102E-01
 -1       567 1.13967E-02-2.72446E-02-1.94133E-01
 -1       568 1.08213E-02-7.16038E-02-2.01568E-01
 -1       570 1.14371E-02-3.90392E-02-2.01578E-01
 -1       571 5.57259E-03-8.42145E-02-9.47058E-02
 -1       573 5.62976E-03-5.14697E-02-9.47007E-02
 -1       574 8.03435E-14 4.99339E-03 8.62845E-14
 -1       576 6.02255E-14 2.08204E-03 8.35866E-14
 -1       577 2.86891E-05 3.53771E-03-9.27320E-04
 -1       579-2.86891E-05 3.53771E-03 9.27320E-04
 -1       588 1.30465E-13 1.39934E-02 1.61217E-13
 -1       590 1.29990E-13 7.18389E-03 1.59731E-13
 -1       591 2.93826E-04 1.05887E-02-2.16896E-03
 -1       593-2.93826E-04 1.05887E-02 2.16896E-03
 -1       602 1.92359E-13 2.56559E-02 1.89876E-13
 -1       604 1.88152E-13 1.57352E-02 1.87405E-13
 -1       605 3.00080E-04 2.06955E-02-3.15992E-03
 -1       607-3.00080E-04 2.06955E-02 3.15992E-03
 -1       616 2.52957E-13 3.77377E-02 2.10626E-13
 -1       618 2.53412E-13 2.46439E-02 2.07571E-13
 -1       619 3.54235E-04 3.11908E-02-4.17063E-03
 -1       621-3.54235E-04 3.11908E-02 4.17063E-03
 -1       630 3.14584E-13 4.95355E-02 2.38351E-13
 -1       632 3.08603E-13 3.36730E-02 2.35870E-13
 -1       633 3.08867E-04 4.16043E-02-5.05250E-03
 -1       635-3.08867E-04 4.16043E-02 5.05250E-03
 -1       644 3.61932E-13 5.91563E-02 2.82889E-13
 -1       646 3.56489E-13 4.08736E-02 2.81637E-13
 -1       647 2.19146E-04 5.00150E-02-5.82337E-03
 -1       649-2.19146E-04 5.00150E-02 5.82337E-03
 -1       658 4.01414E-13 6.60451E-02 3.12911E-13
 -1       660 3.99751E-13 4.57067E-02 3.12482E-13
 -1       661 1.15053E-04 5.58759E-02-6.47817E-03
 -1       663-1.15053E-04 5.58759E-02 6.47817E-03
 -1       672 4.40473E-13 6.93028E-02 2.95442E-13
 -1       674 4.49166E-13 4.74016E-02 2.94080E-13
 -1       675-2.98113E-05 5.83522E-02-6.97596E-03
 -1       677 2.98113E-05 5.83522E-02 6.97596E-03
 -1       686 4.95026E-13 6.89084E-02 2.43448E-13
 -1       688 5.02987E-13 4.58809E-02 2.41525E-13
 -1       689-1.45471E-04 5.73947E-02-7.33469E-03
 -1       691 1.45471E-04 5.73947E-02 7.33469E-03
 -1       700 5.58701E-13 6.49763E-02 2.17297E-13
 -1       702 5.58592E-13 4.13846E-02 2.15718E-13
 -1       703-2.63811E-04 5.31804E-02-7.51440E-03
 -1       705 2.63811E-04 5.31804E-02 7.51440E-03
 -1       714 6.13551E-13 5.81604E-02 2.16506E-13
 -1       716 6.13695E-13 3.45206E-02 2.14614E-13
 -1       717-3.29012E-04 4.63405E-02-7.52971E-03
 -1       719 3.29012E-04 4.63405E-02 7.52971E-03
 -1       728 6.60728E-13 4.92843E-02 1.98189E-13
 -1       730 6.65249E-13 2.61963E-02 1.95720E-13
 -1       731-3.66295E-04 3.77403E-02-7.35395E-03
 -1       733 3.66295E-04 3.77403E-02 7.35395E-03
 -1       742 7.08492E-13 3.93856E-02 1.50809E-13
 -1       744 7.16781E-13 1.74095E-02 1.47917E-13
 -1       745-3.46617E-04 2.83975E-02-6.99978E-03
 -1       747 3.46617E-04 2.83975E-02 6.99978E-03
 -1       756 7.56797E-13 2.94681E-02 8.10885E-14
 -1       758 7.67203E-13 9.19746E-03 7.90664E-14
 -1       759-2.93905E-04 1.93328E-02-6.45659E-03
 -1       761 2.93905E-04 1.93328E-02 6.45659E-03
 -1       770 8.08783E-13 2.04356E-02 1.11677E-14
 -1       772 8.16206E-13 2.40964E-03 8.07387E-15
 -1       773-2.02609E-04 1.14226E-02-5.74159E-03
 -1       775 2.02609E-04 1.14226E-02 5.74159E-03
 -1       784 8.61765E-13 1.29282E-02-5.15402E-14
 -1       786 8.69198E-13-2.33424E-03-5.42654E-14
 -1       787-9.79036E-05 5.29700E-03-4.86138E-03
 -1       789 9.79037E-05 5.29700E-03 4.86138E-03
 -1       798 9.09380E-13 7.27961E-03-1.16353E-13
 -1       800 9.18462E-13-4.78304E-03-1.18522E-13
 -1       801 1.22672E-05 1.24828E-03-3.84218E-03
 -1       803-1.22672E-05 1.24828E-03 3.84218E-03
 -1       812 9.54568E-13 3.46167E-03-1.78128E-13
 -1       814 9.61877E-13-5.03614E-03-1.80319E-13
 -1       815 1.05238E-04-7.87235E-04-2.70671E-03
 -1       817-1.05238E-04-7.87235E-04 2.70671E-03
 -1       826 1.00930E-12 1.12279E-03-2.12072E-13
 -1       828 1.01072E-12-3.55570E-03-2.14917E-13
 -1       829 1.71589E-04-1.21646E-03-1.49019E-03
 -1       831-1.71589E-04-1.21646E-03 1.49019E-03
 -1       840 1.07206E-12-3.56344E-04-2.07991E-13
 -1       842 1.06866E-12-1.06916E-03-2.10746E-13
 -1       843 1.97517E-04-7.12752E-04-2.27045E-04
 -1       845-1.97517E-04-7.12752E-04 2.27045E-04
 -1       854 1.13391E-12-1.75117E-03-1.89844E-13
 -1       856 1.13266E-12 1.52390E-03-1.93074E-13
 -1       857 1.81648E-04-1.13635E-04 1.04317E-03
 -1       859-1.81648E-04-1.13635E-04-1.04317E-03
 -1       868 1.19778E-12-3.86982E-03-1.62048E-13
 -1       870 1.19252E-12 3.29327E-03-1.65177E-13
 -1       871 1.22746E-04-2.88276E-04 2.28158E-03
 -1       873-1.22746E-04-2.88276E-04-2.28158E-03
 -1       882 1.25910E-12-7.42715E-03-9.83593E-14
 -1       884 1.24749E-12 3.40962E-03-1.01491E-13
 -1       885 3.08723E-05-2.00876E-03 3.45171E-03
 -1       887-3.08723E-05-2.00876E-03-3.45171E-03
 -1       896 1.30997E-12-1.29247E-02-1.74747E-14
 -1       898 1.30021E-12 1.26047E-03-1.86492E-14
 -1       899-8.48608E-05-5.83214E-03 4.51825E-03
 -1       901 8.48608E-05-5.83214E-03-4.51825E-03
 -1       910 1.34989E-12-2.05892E-02 6.19957E-14
 -1       912 1.34029E-12-3.46316E-03 6.02294E-14
 -1       913-2.06843E-04-1.20262E-02 5.45497E-03
 -1       915 2.06843E-04-1.20262E-02-5.45497E-03
 -1       924 1.37996E-12-3.03150E-02 1.40056E-13
 -1       926 1.37040E-12-1.07348E-02 1.38761E-13
 -1       927-3.23093E-04-2.05249E-02 6.23666E-03
 -1       929 3.23093E-04-2.05249E-02-6.23666E-03
 -1       938 1.40633E-12-4.17308E-02 2.17761E-13
 -1       940 1.39615E-12-2.02229E-02 2.17688E-13
 -1       941-4.18171E-04-3.09768E-02 6.85067E-03
 -1       943 4.18171E-04-3.09768E-02-6.85067E-03
 -1       952 1.42742E-12-5.42139E-02 2.99591E-13
 -1       954 1.41693E-12-3.13351E-02 2.99513E-13
 -1       955-4.84975E-04-4.27745E-02 7.28730E-03
 -1       957 4.84975E-04-4.27745E-02-7.28730E-03
 -1       966 1.44203E-12-6.71127E-02 3.71713E-13
 -1       968 1.43396E-12-4.34308E-02 3.70659E-13
 -1       969-5.23827E-04-5.52717E-02 7.54315E-03
 -1       971 5.23827E-04-5.52717E-02-7.54315E-03
 -1       980 0.00000E+00 0.00000E+00-6.35344E-05
 -1       982 0.00000E+00-0.00000E+00 6.35344E-05
 -1       983-5.57259E-03-8.42145E-02 9.47058E-02
 -1       985-5.62976E-03-5.14697E-02 9.47007E-02
 -1       986 1.18190E-03 6.45518E-03-2.51890E-02
 -1       988 7.46767E-03 1.75879E-03-2.52847E-02
 -1       989 5.54141E-03 1.58099E-02-5.90877E-02
 -1       991 8.51991E-03 6.19045E-03-5.92006E-02
 -1       992 6.51400E-03 2.78357E-02-8.68067E-02
 -1       994 1.07991E-02 1.35734E-02-8.68403E-02
 -1       995 7.29227E-03 4.06363E-02-1.14761E-01
 -1       997 1.05096E-02 2.18727E-02-1.14741E-01
 -1       998 6.39292E-03 5.27387E-02-1.38891E-01
 -1      1000 9.57408E-03 3.00131E-02-1.38847E-01
 -1      1001 4.86764E-03 6.28614E-02-1.60330E-01
 -1      1003 7.40839E-03 3.66588E-02-1.60225E-01
 -1      1004 2.52660E-03 7.00342E-02-1.77743E-01
 -1      1006 4.62071E-03 4.09969E-02-1.77645E-01
 -1      1007-3.22755E-05 7.35742E-02-1.91133E-01
 -1      1009 1.44361E-03 4.23969E-02-1.91004E-01
 -1      1010-2.60845E-03 7.33444E-02-1.99933E-01
 -1      1012-1.73545E-03 4.07681E-02-1.99834E-01
 -1      1013-4.78930E-03 6.94938E-02-2.04011E-01
 -1      1015-4.57225E-03 3.63207E-02-2.03915E-01
 -1      1016-6.35912E-03 6.26611E-02-2.03135E-01
 -1      1018-6.80239E-03 2.96864E-02-2.03084E-01
 -1      1019-7.12125E-03 5.36608E-02-1.97301E-01
 -1      1021-8.22810E-03 2.17079E-02-1.97272E-01
 -1      1022-7.03711E-03 4.35376E-02-1.86542E-01
 -1      1024-8.79038E-03 1.33858E-02-1.86559E-01
 -1      1025-6.16262E-03 3.32865E-02-1.71077E-01
 -1      1027-8.52777E-03 5.69850E-03-1.71116E-01
 -1      1028-4.67608E-03 2.38236E-02-1.51208E-01
 -1      1030-7.60271E-03-5.15792E-04-1.51276E-01
 -1      1031-2.82912E-03 1.57903E-02-1.27405E-01
 -1      1033-6.24721E-03-4.67724E-03-1.27477E-01
 -1      1034-9.23771E-04 9.53719E-03-1.00232E-01
 -1      1036-4.74956E-03-6.54310E-03-1.00306E-01
 -1      1037 7.38722E-04 5.04736E-03-7.03882E-02
 -1      1039-3.39491E-03-6.22963E-03-7.04437E-02
 -1      1040 1.89496E-03 1.99068E-03-3.86460E-02
 -1      1042-2.43765E-03-4.19655E-03-3.86803E-02
 -1      1043 2.35942E-03-2.33787E-04-5.85950E-03
 -1      1045-2.05447E-03-1.16970E-03-5.86170E-03
 -1      1046 2.04681E-03-2.37756E-03 2.70901E-02
 -1      1048-2.32885E-03 1.96048E-03 2.71170E-02
 -1      1049 9.85177E-04-5.22817E-03 5.93080E-02
 -1      1051-3.23356E-03 4.27210E-03 5.93639E-02
 -1      1052-6.94362E-04-9.47719E-03 8.99295E-02
 -1      1054-4.64252E-03 4.94006E-03 9.00044E-02
 -1      1055-2.77247E-03-1.56096E-02 1.18147E-01
 -1      1057-6.34916E-03 3.35255E-03 1.18233E-01
 -1      1058-4.99136E-03-2.38302E-02 1.43228E-01
 -1      1060-8.10010E-03-8.09858E-04 1.43312E-01
 -1      1061-7.07050E-03-3.40296E-02 1.64568E-01
 -1      1063-9.64954E-03-7.54115E-03 1.64640E-01
 -1      1064-8.81102E-03-4.58081E-02 1.81621E-01
 -1      1066-1.07729E-02-1.65301E-02 1.81674E-01
 -1      1067-1.00321E-02-5.85683E-02 1.94102E-01
 -1      1069-1.13967E-02-2.72446E-02 1.94133E-01
 -1      1070-1.08213E-02-7.16038E-02 2.01568E-01
 -1      1072-1.14371E-02-3.90392E-02 2.01578E-01
 -1      1073 0.00000E+00 0.00000E+00 6.35344E-05
 -1      1075 0.00000E+00-0.00000E+00-6.35344E-05
 -1      1076 0.00000E+00 1.01060E-15 0.00000E+00
 -1      1078 0.00000E+00-1.01060E-15 0.00000E+00
 -1      1079 0.00000E+00 8.38305E-16 0.00000E+00
 -1      1081 0.00000E+00-8.38305E-16 0.00000E+00
 -1      1082 0.00000E+00 1.14340E-15 0.00000E+00
 -1      1084 0.00000E+00-1.14340E-15 0.00000E+00
 -1      1085 2.86891E-05 3.53771E-03 9.27320E-04
 -1      1087-2.86891E-05 3.53771E-03-9.27320E-04
 -1      1088 5.97768E-14 4.99339E-03-2.53855E-15
 -1      1090 5.92825E-14 2.08204E-03 1.48099E-16
 -1      1099 2.93826E-04 1.05887E-02 2.16896E-03
 -1      1101-2.93826E-04 1.05887E-02-2.16896E-03
 -1      1102 1.14821E-13 1.39934E-02 4.44152E-14
 -1      1104 1.26833E-13 7.18389E-03 4.67758E-14
 -1      1113 3.00080E-04 2.06955E-02 3.15992E-03
 -1      1115-3.00080E-04 2.06955E-02-3.15992E-03
 -1      1116 1.82644E-13 2.56559E-02 1.10485E-13
 -1      1118 1.89100E-13 1.57352E-02 1.13819E-13
 -1      1127 3.54235E-04 3.11908E-02 4.17063E-03
 -1      1129-3.54235E-04 3.11908E-02-4.17063E-03
 -1      1130 2.53661E-13 3.77377E-02 1.63595E-13
 -1      1132 2.60914E-13 2.46439E-02 1.66754E-13
 -1      1141 3.08867E-04 4.16043E-02 5.05250E-03
 -1      1143-3.08867E-04 4.16043E-02-5.05250E-03
 -1      1144 3.30486E-13 4.95355E-02 2.06314E-13
 -1      1146 3.35697E-13 3.36730E-02 2.09830E-13
 -1      1155 2.19146E-04 5.00150E-02 5.82337E-03
 -1      1157-2.19146E-04 5.00150E-02-5.82337E-03
 -1      1158 4.09014E-13 5.91563E-02 2.32349E-13
 -1      1160 4.11337E-13 4.08736E-02 2.35861E-13
 -1      1169 1.15053E-04 5.58759E-02 6.47817E-03
 -1      1171-1.15053E-04 5.58759E-02-6.47817E-03
 -1      1172 4.85454E-13 6.60451E-02 2.15472E-13
 -1      1174 4.78608E-13 4.57067E-02 2.18993E-13
 -1      1183-2.98113E-05 5.83522E-02 6.97596E-03
 -1      1185 2.98113E-05 5.83522E-02-6.97596E-03
 -1      1186 5.46120E-13 6.93028E-02 1.74546E-13
 -1      1188 5.42002E-13 4.74016E-02 1.76562E-13
 -1      1197-1.45471E-04 5.73947E-02 7.33469E-03
 -1      1199 1.45471E-04 5.73947E-02-7.33469E-03
 -1      1200 6.03740E-13 6.89084E-02 1.61290E-13
 -1      1202 6.06945E-13 4.58809E-02 1.63478E-13
 -1      1211-2.63811E-04 5.31804E-02 7.51440E-03
 -1      1213 2.63811E-04 5.31804E-02-7.51440E-03
 -1      1214 6.69767E-13 6.49763E-02 1.62132E-13
 -1      1216 6.71306E-13 4.13846E-02 1.64363E-13
 -1      1225-3.29012E-04 4.63405E-02 7.52971E-03
 -1      1227 3.29012E-04 4.63405E-02-7.52971E-03
 -1      1228 7.33242E-13 5.81604E-02 1.34841E-13
 -1      1230 7.28631E-13 3.45206E-02 1.37663E-13
 -1      1239-3.66295E-04 3.77403E-02 7.35395E-03
 -1      1241 3.66295E-04 3.77403E-02-7.35395E-03
 -1      1242 7.87601E-13 4.92843E-02 8.03461E-14
 -1      1244 7.81370E-13 2.61963E-02 8.37656E-14
 -1      1253-3.46617E-04 2.83975E-02 6.99978E-03
 -1      1255 3.46617E-04 2.83975E-02-6.99978E-03
 -1      1256 8.41865E-13 3.93856E-02 1.64275E-14
 -1      1258 8.33937E-13 1.74095E-02 1.91413E-14
 -1      1267-2.93905E-04 1.93328E-02 6.45659E-03
 -1      1269 2.93905E-04 1.93328E-02-6.45659E-03
 -1      1270 8.95679E-13 2.94681E-02-4.20603E-14
 -1      1272 8.90462E-13 9.19746E-03-3.98221E-14
 -1      1281-2.02609E-04 1.14226E-02 5.74159E-03
 -1      1283 2.02609E-04 1.14226E-02-5.74159E-03
 -1      1284 9.49361E-13 2.04356E-02-1.01912E-13
 -1      1286 9.41459E-13 2.40964E-03-9.88788E-14
 -1      1295-9.79036E-05 5.29700E-03 4.86138E-03
 -1      1297 9.79037E-05 5.29700E-03-4.86138E-03
 -1      1298 9.92764E-13 1.29282E-02-1.80894E-13
 -1      1300 9.81150E-13-2.33424E-03-1.79186E-13
 -1      1309 1.22672E-05 1.24828E-03 3.84218E-03
 -1      1311-1.22672E-05 1.24828E-03-3.84218E-03
 -1      1312 1.01663E-12 7.27961E-03-2.41545E-13
 -1      1314 1.01321E-12-4.78304E-03-2.41020E-13
 -1      1323 1.05238E-04-7.87235E-04 2.70671E-03
 -1      1325-1.05238E-04-7.87235E-04-2.70671E-03
 -1      1326 1.03215E-12 3.46167E-03-2.58775E-13
 -1      1328 1.03222E-12-5.03614E-03-2.58148E-13
 -1      1337 1.71589E-04-1.21646E-03 1.49019E-03
 -1      1339-1.71589E-04-1.21646E-03-1.49019E-03
 -1      1340 1.03986E-12 1.12279E-03-2.59791E-13
 -1      1342 1.03933E-12-3.55570E-03-2.59635E-13
 -1      1351 1.97517E-04-7.12752E-04 2.27045E-04
 -1      1353-1.97517E-04-7.12752E-04-2.27045E-04
 -1      1354 1.04222E-12-3.56344E-04-2.47862E-13
 -1      1356 1.04498E-12-1.06916E-03-2.47499E-13
 -1      1365 1.81648E-04-1.13635E-04-1.04317E-03
 -1      1367-1.81648E-04-1.13635E-04 1.04317E-03
 -1      1368 1.04856E-12-1.75117E-03-2.22883E-13
 -1      1370 1.05133E-12 1.52390E-03-2.21866E-13
 -1      1379 1.22746E-04-2.88276E-04-2.28158E-03
 -1      1381-1.22746E-04-2.88276E-04 2.28158E-03
 -1      1382 1.05688E-12-3.86982E-03-2.05927E-13
 -1      1384 1.05715E-12 3.29327E-03-2.04634E-13
 -1      1393 3.08723E-05-2.00876E-03-3.45171E-03
 -1      1395-3.08723E-05-2.00876E-03 3.45171E-03
 -1      1396 1.06409E-12-7.42715E-03-1.86820E-13
 -1      1398 1.06669E-12 3.40962E-03-1.87010E-13
 -1      1407-8.48608E-05-5.83214E-03-4.51825E-03
 -1      1409 8.48608E-05-5.83214E-03 4.51825E-03
 -1      1410 1.07080E-12-1.29247E-02-1.24848E-13
 -1      1412 1.08387E-12 1.26047E-03-1.24362E-13
 -1      1421-2.06843E-04-1.20262E-02-5.45497E-03
 -1      1423 2.06843E-04-1.20262E-02 5.45497E-03
 -1      1424 1.08361E-12-2.05892E-02-2.15365E-14
 -1      1426 1.09810E-12-3.46316E-03-2.05280E-14
 -1      1435-3.23093E-04-2.05249E-02-6.23666E-03
 -1      1437 3.23093E-04-2.05249E-02 6.23666E-03
 -1      1438 1.09727E-12-3.03150E-02 6.96700E-14
 -1      1440 1.10601E-12-1.07348E-02 7.10925E-14
 -1      1449-4.18171E-04-3.09768E-02-6.85067E-03
 -1      1451 4.18171E-04-3.09768E-02 6.85067E-03
 -1      1452 1.10329E-12-4.17308E-02 1.41369E-13
 -1      1454 1.11125E-12-2.02229E-02 1.40634E-13
 -1      1463-4.84975E-04-4.27745E-02-7.28730E-03
 -1      1465 4.84975E-04-4.27745E-02 7.28730E-03
 -1      1466 1.10136E-12-5.42139E-02 2.24427E-13
 -1      1468 1.11421E-12-3.13351E-02 2.24339E-13
 -1      1477-5.23827E-04-5.52717E-02-7.54315E-03
 -1      1479 5.23827E-04-5.52717E-02 7.54315E-03
 -1      1480 1.09910E-12-6.71127E-02 3.25317E-13
 -1      1482 1.11355E-12-4.34308E-02 3.26432E-13
 -1      1491-5.25933E-04 4.94106E-02 2.48327E-03
 -1      1493 5.25933E-04 4.94106E-02-2.48327E-03
 -1      1494-5.18756E-04 7.83698E-02 4.17211E-13
 -1      1496 5.18756E-04 7.83698E-02 4.41702E-13
 -1      1497-5.25933E-04 4.94106E-02-2.48327E-03
 -1      1499 5.25933E-04 4.94106E-02 2.48327E-03
 -1      1500 1.18190E-03 6.45518E-03 2.51890E-02
 -1      1502 7.46767E-03 1.75879E-03 2.52847E-02
 -1      1503 5.54141E-03 1.58099E-02 5.90877E-02
 -1      1505 8.51991E-03 6.19045E-03 5.92006E-02
 -1      1506 6.51400E-03 2.78357E-02 8.68067E-02
 -1      1508 1.07991E-02 1.35734E-02 8.68403E-02
 -1      1509 7.29227E-03 4.06363E-02 1.14761E-01
 -1      1511 1.05096E-02 2.18727E-02 1.14741E-01
 -1      1512 6.39292E-03 5.27387E-02 1.38891E-01
 -1      1514 9.57408E-03 3.00131E-02 1.38847E-01
 -1      1515 4.86764E-03 6.28614E-02 1.60330E-01
 -1      1517 7.40839E-03 3.66588E-02 1.60225E-01
 -1      1518 2.52660E-03 7.00342E-02 1.77743E-01
 -1      1520 4.62071E-03 4.09969E-02 1.77645E-01
 -1      1521-3.22755E-05 7.35742E-02 1.91133E-01
 -1      1523 1.44361E-03 4.23969E-02 1.91004E-01
 -1      1524-2.60845E-03 7.33444E-02 1.99933E-01
 -1      1526-1.73545E-03 4.07681E-02 1.99834E-01
 -1      1527-4.78930E-03 6.94938E-02 2.04011E-01
 -1      1529-4.57225E-03 3.63207E-02 2.03915E-01
 -1      1530-6.35912E-03 6.26611E-02 2.03135E-01
 -1      1532-6.80239E-03 2.96864E-02 2.03084E-01
 -1      1533-7.12125E-03 5.36608E-02 1.97301E-01
 -1      1535-8.22810E-03 2.17079E-02 1.97272E-01
 -1      1536-7.03711E-03 4.35376E-02 1.86542E-01
 -1      1538-8.79038E-03 1.33858E-02 1.86559E-01
 -1      1539-6.16262E-03 3.32865E-02 1.71077E-01
 -1      1541-8.52777E-03 5.69850E-03 1.71116E-01
 -1      1542-4.67608E-03 2.38236E-02 1.51208E-01
 -1      1544-7.60271E-03-5.15792E-04 1.51276E-01
 -1      1545-2.82912E-03 1.57903E-02 1.27405E-01
 -1      1547-6.24721E-03-4.67724E-03 1.27477E-01
 -1      1548-9.23771E-04 9.53719E-03 1.00232E-01
 -1      1550-4.74956E-03-6.54310E-03 1.00306E-01
 -1      1551 7.38722E-04 5.04736E-03 7.03882E-02
 -1      1553-3.39491E-03-6.22963E-03 7.04437E-02
 -1      1554 1.89496E-03 1.99068E-03 3.86460E-02
 -1      1556-2.43765E-03-4.19655E-03 3.86803E-02
 -1      1557 2.35942E-03-2.33787E-04 5.85950E-03
 -1      1559-2.05447E-03-1.16970E-03 5.86170E-03
 -1      1560 2.04681E-03-2.37756E-03-2.70901E-02
 -1      1562-2.32885E-03 1.96048E-03-2.71170E-02
 -1      1563 9.85177E-04-5.22817E-03-5.93080E-02
 -1      1565-3.23356E-03 4.27210E-03-5.93639E-02
 -1      1566-6.94362E-04-9.47719E-03-8.99295E-02
 -1      1568-4.64252E-03 4.94006E-03-9.00044E-02
 -1      1569-2.77247E-03-1.56096E-02-1.18147E-01
 -1      1571-6.34916E-03 3.35255E-03-1.18233E-01
 -1      1572-4.99136E-03-2.38302E-02-1.43228E-01
 -1      1574-8.10010E-03-8.09858E-04-1.43312E-01
 -1      1575-7.07050E-03-3.40296E-02-1.64568E-01
 -1      1577-9.64954E-03-7.54115E-03-1.64640E-01
 -1      1578-8.81102E-03-4.58081E-02-1.81621E-01
 -1      1580-1.07729E-02-1.65301E-02-1.81674E-01
 -1      1581-1.00321E-02-5.85683E-02-1.94102E-01
 -1      1583-1.13967E-02-2.72446E-02-1.94133E-01
 -1      1584-1.08213E-02-7.16038E-02-2.01568E-01
 -1      1586-1.14371E-02-3.90392E-02-2.01578E-01
 -1      1587-5.57259E-03-8.42145E-02-9.47058E-02
 -1      1589-5.62976E-03-5.14697E-02-9.47007E-02
 -1      1590 0.00000E+00 0.00000E+00-6.35344E-05
 -1      1592 0.00000E+00 0.00000E+00 6.35344E-05
 -1      1593 5.57259E-03-8.42145E-02 9.47058E-02
 -1      1595 5.62976E-03-5.14697E-02 9.47007E-02
 -1      1596-1.18190E-03 6.45518E-03-2.51890E-02
 -1      1598-7.46767E-03 1.75879E-03-2.52847E-02
 -1      1599-5.54141E-03 1.58099E-02-5.90877E-02
 -1      1601-8.51991E-03 6.19045E-03-5.92006E-02
 -1      1602-6.51400E-03 2.78357E-02-8.68067E-02
 -1      1604-1.07991E-02 1.35734E-02-8.68403E-02
 -1      1605-7.29227E-03 4.06363E-02-1.14761E-01
 -1      1607-1.05096E-02 2.18727E-02-1.14741E-01
 -1      1608-6.39292E-03 5.27387E-02-1.38891E-01
 -1      1610-9.57408E-03 3.00131E-02-1.38847E-01
 -1      1611-4.86764E-03 6.28614E-02-1.60330E-01
 -1      1613-7.40839E-03 3.66588E-02-1.60225E-01
 -1      1614-2.52660E-03 7.00342E-02-1.77743E-01
 -1      1616-4.62071E-03 4.09969E-02-1.77645E-01
 -1      1617 3.22755E-05 7.35742E-02-1.91133E-01
 -1      1619-1.44361E-03 4.23969E-02-1.91004E-01
 -1      1620 2.60845E-03 7.33444E-02-1.99933E-01
 -1      1622 1.73545E-03 4.07681E-02-1.99834E-01
 -1      1623 4.78930E-03 6.94938E-02-2.04011E-01
 -1      1625 4.57225E-03 3.63207E-02-2.03915E-01
 -1      1626 6.35912E-03 6.26611E-02-2.03135E-01
 -1      1628 6.80239E-03 2.96864E-02-2.03084E-01
 -1      1629 7.12125E-03 5.36608E-02-1.97301E-01
 -1      1631 8.22810E-03 2.17079E-02-1.97272E-01
 -1      1632 7.03711E-03 4.35376E-02-1.86542E-01
 -1      1634 8.79038E-03 1.33858E-02-1.86559E-01
 -1      1635 6.16262E-03 3.32865E-02-1.71077E-01
 -1      1637 8.52777E-03 5.69850E-03-1.71116E-01
 -1      1638 4.67608E-03 2.38236E-02-1.51208E-01
 -1      1640 7.60271E-03-5.15792E-04-1.51276E-01
 -1      1641 2.82912E-03 1.57903E-02-1.27405E-01
 -1      1643 6.24721E-03-4.67724E-03-1.27477E-01
 -1      1644 9.23771E-04 9.53719E-03-1.00232E-01
 -1      1646 4.74956E-03-6.54310E-03-1.00306E-01
 -1      1647-7.38722E-04 5.04736E-03-7.03882E-02
 -1      1649 3.39491E-03-6.22963E-03-7.04437E-02
 -1      1650-1.89496E-03 1.99068E-03-3.86460E-02
 -1      1652 2.43765E-03-4.19655E-03-3.86803E-02
 -1      1653-2.35942E-03-2.33787E-04-5.85950E-03
 -1      1655 2.05447E-03-1.16970E-03-5.86170E-03
 -1      1656-2.04681E-03-2.37756E-03 2.70901E-02
 -1      1658 2.32885E-03 1.96048E-03 2.71170E-02
 -1      1659-9.85177E-04-5.22817E-03 5.93080E-02
 -1      1661 3.23356E-03 4.27210E-03 5.93639E-02
 -1      1662 6.94362E-04-9.47719E-03 8.99295E-02
 -1      1664 4.64252E-03 4.94006E-03 9.00044E-02
 -1      1665 2.77247E-03-1.56096E-02 1.18147E-01
 -1      1667 6.34916E-03 3.35255E-03 1.18233E-01
 -1      1668 4.99136E-03-2.38302E-02 1.43228E-01
 -1      1670 8.10010E-03-8.09858E-04 1.43312E-01
 -1      1671 7.07050E-03-3.40296E-02 1.64568E-01
 -1      1673 9.64954E-03-7.54115E-03 1.64640E-01
 -1      1674 8.81102E-03-4.58081E-02 1.81621E-01
 -1      1676 1.07729E-02-1.65301E-02 1.81674E-01
 -1      1677 1.00321E-02-5.85683E-02 1.94102E-01
 -1      1679 1.13967E-02-2.72446E-02 1.94133E-01
 -1      1680 1.08213E-02-7.16038E-02 2.01568E-01
 -1      1682 1.14371E-02-3.90392E-02 2.01578E-01
 -1      1683 0.00000E+00 0.00000E+00 6.35344E-05
 -1      1685 0.00000E+00 0.00000E+00-6.35344E-05
 -1      1686-3.23781E-04 5.44425E-03 1.09982E-02
 -1      1688-3.36622E-03 1.62020E-03 1.10867E-02
 -1      1689-2.74513E-03 1.55952E-02 2.73232E-02
 -1      1691-4.14539E-03 6.15349E-03 2.73460E-02
 -1      1692-3.14982E-03 2.75520E-02 3.97460E-02
 -1      1694-5.16746E-03 1.35543E-02 3.97729E-02
 -1      1695-3.54474E-03 4.05306E-02 5.27455E-02
 -1      1697-5.07176E-03 2.21213E-02 5.27333E-02
 -1      1698-3.15118E-03 5.26683E-02 6.37514E-02
 -1      1700-4.64341E-03 3.02941E-02 6.37173E-02
 -1      1701-2.37050E-03 6.28887E-02 7.36423E-02
 -1      1703-3.58099E-03 3.71293E-02 7.35988E-02
 -1      1704-1.26366E-03 7.00682E-02 8.16815E-02
 -1      1706-2.25498E-03 4.14671E-02 8.16167E-02
 -1      1707 9.81603E-06 7.36430E-02 8.79145E-02
 -1      1709-7.03891E-04 4.29378E-02 8.78565E-02
 -1      1710 1.25459E-03 7.33778E-02 9.20839E-02
 -1      1712 8.27295E-04 4.12499E-02 9.20198E-02
 -1      1713 2.33432E-03 6.95018E-02 9.41005E-02
 -1      1715 2.20973E-03 3.67652E-02 9.40532E-02
 -1      1716 3.10253E-03 6.26044E-02 9.38666E-02
 -1      1718 3.29169E-03 3.00208E-02 9.38273E-02
 -1      1719 3.48832E-03 5.35486E-02 9.13389E-02
 -1      1721 3.99110E-03 2.19443E-02 9.13201E-02
 -1      1722 3.45723E-03 4.33621E-02 8.65308E-02
 -1      1724 4.27105E-03 1.35013E-02 8.65257E-02
 -1      1725 3.04520E-03 3.30674E-02 7.95066E-02
 -1      1727 4.15433E-03 5.71727E-03 7.95181E-02
 -1      1728 2.33283E-03 2.35767E-02 7.04024E-02
 -1      1730 3.71634E-03-5.79946E-04 7.04235E-02
 -1      1731 1.44557E-03 1.55445E-02 5.94143E-02
 -1      1733 3.07034E-03-4.78771E-03 5.94417E-02
 -1      1734 5.27614E-04 9.31766E-03 4.68077E-02
 -1      1736 2.35427E-03-6.66966E-03 4.68351E-02
 -1      1737-2.73373E-04 4.88099E-03 3.29055E-02
 -1      1739 1.70619E-03-6.33753E-03 3.29276E-02
 -1      1740-8.30614E-04 1.89649E-03 1.80812E-02
 -1      1742 1.24842E-03-4.26137E-03 1.80943E-02
 -1      1743-1.05311E-03-2.43071E-04 2.74590E-03
 -1      1745 1.06650E-03-1.17508E-03 2.74655E-03
 -1      1746-9.00150E-04-2.30013E-03-1.26696E-02
 -1      1748 1.20073E-03 2.01805E-03-1.26807E-02
 -1      1749-3.84060E-04-5.07098E-03-2.77300E-02
 -1      1751 1.63846E-03 4.38285E-03-2.77529E-02
 -1      1752 4.30390E-04-9.25684E-03-4.20157E-02
 -1      1754 2.31907E-03 5.08588E-03-4.20455E-02
 -1      1755 1.43968E-03-1.53478E-02-5.51401E-02
 -1      1757 3.14426E-03 3.50406E-03-5.51741E-02
 -1      1758 2.51564E-03-2.35535E-02-6.67566E-02
 -1      1760 3.99160E-03-6.78182E-04-6.67881E-02
 -1      1761 3.52914E-03-3.37604E-02-7.65935E-02
 -1      1763 4.74620E-03-7.45948E-03-7.66199E-02
 -1      1764 4.37701E-03-4.55704E-02-8.44029E-02
 -1      1766 5.29848E-03-1.65100E-02-8.44196E-02
 -1      1767 4.98277E-03-5.83675E-02-9.00943E-02
 -1      1769 5.61893E-03-2.72909E-02-9.01013E-02
 -1      1770 5.38846E-03-7.14460E-02-9.34529E-02
 -1      1772 5.67295E-03-3.91419E-02-9.34528E-02
 -1      1773 3.23781E-04 5.44425E-03-1.09982E-02
 -1      1775 3.36622E-03 1.62020E-03-1.10867E-02
 -1      1776 2.74513E-03 1.55952E-02-2.73232E-02
 -1      1778 4.14539E-03 6.15349E-03-2.73460E-02
 -1      1779 3.14982E-03 2.75520E-02-3.97460E-02
 -1      1781 5.16746E-03 1.35543E-02-3.97729E-02
 -1      1782 3.54474E-03 4.05306E-02-5.27455E-02
 -1      1784 5.07176E-03 2.21213E-02-5.27333E-02
 -1      1785 3.15118E-03 5.26683E-02-6.37514E-02
 -1      1787 4.64341E-03 3.02941E-02-6.37173E-02
 -1      1788 2.37050E-03 6.28887E-02-7.36423E-02
 -1      1790 3.58099E-03 3.71293E-02-7.35988E-02
 -1      1791 1.26366E-03 7.00682E-02-8.16815E-02
 -1      1793 2.25498E-03 4.14671E-02-8.16167E-02
 -1      1794-9.81603E-06 7.36430E-02-8.79145E-02
 -1      1796 7.03891E-04 4.29378E-02-8.78565E-02
 -1      1797-1.25459E-03 7.33778E-02-9.20839E-02
 -1      1799-8.27295E-04 4.12499E-02-9.20198E-02
 -1      1800-2.33432E-03 6.95018E-02-9.41005E-02
 -1      1802-2.20973E-03 3.67652E-02-9.40532E-02
 -1      1803-3.10253E-03 6.26044E-02-9.38666E-02
 -1      1805-3.29169E-03 3.00208E-02-9.38273E-02
 -1      1806-3.48832E-03 5.35486E-02-9.13389E-02
 -1      1808-3.99110E-03 2.19443E-02-9.13201E-02
 -1      1809-3.45723E-03 4.33621E-02-8.65308E-02
 -1      1811-4.27105E-03 1.35013E-02-8.65257E-02
 -1      1812-3.04520E-03 3.30674E-02-7.95066E-02
 -1      1814-4.15433E-03 5.71727E-03-7.95181E-02
 -1      1815-2.33283E-03 2.35767E-02-7.04024E-02
 -1      1817-3.71634E-03-5.79946E-04-7.04235E-02
 -1      1818-1.44557E-03 1.55445E-02-5.94143E-02
 -1      1820-3.07034E-03-4.78771E-03-5.94417E-02
 -1      1821-5.27614E-04 9.31766E-03-4.68077E-02
 -1      1823-2.35427E-03-6.66966E-03-4.68351E-02
 -1      1824 2.73373E-04 4.88099E-03-3.29055E-02
 -1      1826-1.70619E-03-6.33753E-03-3.29276E-02
 -1      1827 8.30614E-04 1.89649E-03-1.80812E-02
 -1      1829-1.24842E-03-4.26137E-03-1.80943E-02
 -1      1830 1.05311E-03-2.43071E-04-2.74590E-03
 -1      1832-1.06650E-03-1.17508E-03-2.74655E-03
 -1      1833 9.00150E-04-2.30013E-03 1.26696E-02
 -1      1835-1.20073E-03 2.01805E-03 1.26807E-02
 -1      1836 3.84060E-04-5.07098E-03 2.77300E-02
 -1      1838-1.63846E-03 4.38285E-03 2.77529E-02
 -1      1839-4.30390E-04-9.25684E-03 4.20157E-02
 -1      1841-2.31907E-03 5.08588E-03 4.20455E-02
 -1      1842-1.43968E-03-1.53478E-02 5.51401E-02
 -1      1844-3.14426E-03 3.50406E-03 5.51741E-02
 -1      1845-2.51564E-03-2.35535E-02 6.67566E-02
 -1      1847-3.99160E-03-6.78182E-04 6.67881E-02
 -1      1848-3.52914E-03-3.37604E-02 7.65935E-02
 -1      1850-4.74620E-03-7.45948E-03 7.66199E-02
 -1      1851-4.37701E-03-4.55704E-02 8.44029E-02
 -1      1853-5.29848E-03-1.65100E-02 8.44196E-02
 -1      1854-4.98277E-03-5.83675E-02 9.00943E-02
 -1      1856-5.61893E-03-2.72909E-02 9.01013E-02
 -1      1857-5.38846E-03-7.14460E-02 9.34529E-02
 -1      1859-5.67295E-03-3.91419E-02 9.34528E-02
 -1      1860-6.67658E-04-1.09922E-02-3.00593E-04
 -1      1862 6.67658E-04-1.09922E-02 3.00593E-04
 -1      1863 1.89169E-05-2.16652E-02-6.27005E-04
 -1      1865-1.89169E-05-2.16652E-02 6.27005E-04
 -1      1866-1.82161E-04-2.66600E-02-9.23843E-04
 -1      1868 1.82161E-04-2.66600E-02 9.23843E-04
 -1      1869 4.10721E-05-3.11132E-02-1.20686E-03
 -1      1871-4.10721E-05-3.11132E-02 1.20686E-03
 -1      1872-4.73947E-05-3.37599E-02-1.45797E-03
 -1      1874 4.73947E-05-3.37599E-02 1.45797E-03
 -1      1875-4.44711E-05-3.70598E-02-1.68991E-03
 -1      1877 4.44711E-05-3.70598E-02 1.68991E-03
 -1      1878-1.32924E-04-4.09943E-02-1.88960E-03
 -1      1880 1.32924E-04-4.09943E-02 1.88960E-03
 -1      1881-2.04409E-04-4.63804E-02-2.06140E-03
 -1      1883 2.04409E-04-4.63804E-02 2.06140E-03
 -1      1884-2.76332E-04-5.29904E-02-2.19716E-03
 -1      1886 2.76332E-04-5.29904E-02 2.19716E-03
 -1      1887-3.20807E-04-6.04781E-02-2.29220E-03
 -1      1889 3.20807E-04-6.04781E-02 2.29220E-03
 -1      1890-3.23474E-04-6.80073E-02-2.34018E-03
 -1      1892 3.23474E-04-6.80073E-02 2.34018E-03
 -1      1893-2.81128E-04-7.45498E-02-2.33226E-03
 -1      1895 2.81128E-04-7.45498E-02 2.33226E-03
 -1      1896-1.87448E-04-7.89730E-02-2.26397E-03
 -1      1898 1.87448E-04-7.89730E-02 2.26397E-03
 -1      1899-5.35655E-05-8.02181E-02-2.12821E-03
 -1      1901 5.35655E-05-8.02181E-02 2.12821E-03
 -1      1902 1.11761E-04-7.74717E-02-1.92522E-03
 -1      1904-1.11761E-04-7.74717E-02 1.92522E-03
 -1      1905 2.87953E-04-7.02828E-02-1.65449E-03
 -1      1907-2.87953E-04-7.02828E-02 1.65449E-03
 -1      1908 4.57306E-04-5.86631E-02-1.32354E-03
 -1      1910-4.57306E-04-5.86631E-02 1.32354E-03
 -1      1911 5.98238E-04-4.31013E-02-9.40491E-04
 -1      1913-5.98238E-04-4.31013E-02 9.40491E-04
 -1      1914 6.95017E-04-2.45348E-02-5.20112E-04
 -1      1916-6.95017E-04-2.45348E-02 5.20112E-04
 -1      1917 7.34684E-04-4.24758E-03-7.73966E-05
 -1      1919-7.34684E-04-4.24758E-03 7.73966E-05
 -1      1920 7.12739E-04 1.62671E-02 3.68884E-04
 -1      1922-7.12739E-04 1.62671E-02-3.68884E-04
 -1      1923 6.30556E-04 3.54785E-02 8.01706E-04
 -1      1925-6.30556E-04 3.54785E-02-8.01706E-04
 -1      1926 4.97605E-04 5.19869E-02 1.20352E-03
 -1      1928-4.97605E-04 5.19869E-02-1.20352E-03
 -1      1929 3.28242E-04 6.46802E-02 1.56116E-03
 -1      1931-3.28242E-04 6.46802E-02-1.56116E-03
 -1      1932 1.40275E-04 7.28356E-02 1.86311E-03
 -1      1934-1.40275E-04 7.28356E-02-1.86311E-03
 -1      1935-4.59470E-05 7.61924E-02 2.10439E-03
 -1      1937 4.59470E-05 7.61924E-02-2.10439E-03
 -1      1938-2.17506E-04 7.48979E-02 2.28206E-03
 -1      1940 2.17506E-04 7.48979E-02-2.28206E-03
 -1      1941-3.53374E-04 6.95131E-02 2.40003E-03
 -1      1943 3.53374E-04 6.95131E-02-2.40003E-03
 -1      1944-4.66844E-04 6.07145E-02 2.46407E-03
 -1      1946 4.66844E-04 6.07145E-02-2.46407E-03
 -1      1947-1.36400E-03-1.41644E-02 3.63442E-14
 -1      1949 1.36400E-03-1.41644E-02 5.03952E-14
 -1      1950-2.55993E-04-2.91508E-02 7.31182E-14
 -1      1952 2.55993E-04-2.91508E-02 1.06326E-13
 -1      1953-6.64403E-04-3.73177E-02 1.18331E-13
 -1      1955 6.64403E-04-3.73177E-02 1.68623E-13
 -1      1956-2.72091E-04-4.52204E-02 1.58414E-13
 -1      1958 2.72091E-04-4.52204E-02 2.22588E-13
 -1      1959-4.03656E-04-5.07301E-02 1.87793E-13
 -1      1961 4.03656E-04-5.07301E-02 2.61919E-13
 -1      1962-3.08088E-04-5.67631E-02 2.07780E-13
 -1      1964 3.08088E-04-5.67631E-02 2.86805E-13
 -1      1965-3.80902E-04-6.30117E-02 2.08321E-13
 -1      1967 3.80902E-04-6.30117E-02 2.87683E-13
 -1      1968-3.79006E-04-7.04084E-02 1.93200E-13
 -1      1970 3.79006E-04-7.04084E-02 2.70877E-13
 -1      1971-4.07194E-04-7.85881E-02 1.72619E-13
 -1      1973 4.07194E-04-7.85881E-02 2.46463E-13
 -1      1974-3.77803E-04-8.71885E-02 1.56930E-13
 -1      1976 3.77803E-04-8.71885E-02 2.20220E-13
 -1      1977-3.17936E-04-9.52610E-02 1.43028E-13
 -1      1979 3.17936E-04-9.52610E-02 1.88485E-13
 -1      1980-1.95962E-04-1.01715E-01 1.18235E-13
 -1      1982 1.95962E-04-1.01715E-01 1.40277E-13
 -1      1983-2.82794E-05-1.05327E-01 8.32546E-14
 -1      1985 2.82794E-05-1.05327E-01 8.30828E-14
 -1      1986 1.86774E-04-1.04995E-01 3.80911E-14
 -1      1988-1.86774E-04-1.04995E-01 1.65657E-14
 -1      1989 4.26130E-04-9.98734E-02-2.28689E-14
 -1      1991-4.26130E-04-9.98734E-02-6.31752E-14
 -1      1992 6.73810E-04-8.95366E-02-8.99107E-14
 -1      1994-6.73810E-04-8.95366E-02-1.44919E-13
 -1      1995 9.02344E-04-7.40584E-02-1.45214E-13
 -1      1997-9.02344E-04-7.40584E-02-2.13657E-13
 -1      1998 1.09124E-03-5.40432E-02-1.83775E-13
 -1      2000-1.09124E-03-5.40432E-02-2.62908E-13
 -1      2001 1.21845E-03-3.05821E-02-2.01662E-13
 -1      2003-1.21845E-03-3.05821E-02-2.84743E-13
 -1      2004 1.27185E-03-5.14783E-03-1.99767E-13
 -1      2006-1.27185E-03-5.14783E-03-2.80520E-13
 -1      2007 1.24383E-03 2.05612E-02-1.85693E-13
 -1      2009-1.24383E-03 2.05612E-02-2.58163E-13
 -1      2010 1.13837E-03 4.48060E-02-1.58486E-13
 -1      2012-1.13837E-03 4.48060E-02-2.21104E-13
 -1      2013 9.64338E-04 6.59932E-02-1.16660E-13
 -1      2015-9.64338E-04 6.59932E-02-1.66296E-13
 -1      2016 7.41345E-04 8.28485E-02-5.78370E-14
 -1      2018-7.41345E-04 8.28485E-02-9.31130E-14
 -1      2019 4.87394E-04 9.45253E-02 1.58185E-14
 -1      2021-4.87394E-04 9.45253E-02-4.31035E-15
 -1      2022 2.31199E-04 1.00695E-01 9.26551E-14
 -1      2024-2.31199E-04 1.00695E-01 8.42581E-14
 -1      2025-1.68402E-05 1.01478E-01 1.67628E-13
 -1      2027 1.68402E-05 1.01478E-01 1.66808E-13
 -1      2028-2.21773E-04 9.74794E-02 2.49346E-13
 -1      2030 2.21774E-04 9.74794E-02 2.53797E-13
 -1      2031-4.09861E-04 8.94264E-02 3.34500E-13
 -1      2033 4.09861E-04 8.94264E-02 3.49342E-13
 -1      2034-6.67658E-04-1.09922E-02 3.00593E-04
 -1      2036 6.67658E-04-1.09922E-02-3.00593E-04
 -1      2037 1.89169E-05-2.16652E-02 6.27005E-04
 -1      2039-1.89169E-05-2.16652E-02-6.27005E-04
 -1      2040-1.82161E-04-2.66600E-02 9.23843E-04
 -1      2042 1.82161E-04-2.66600E-02-9.23843E-04
 -1      2043 4.10721E-05-3.11132E-02 1.20686E-03
 -1      2045-4.10721E-05-3.11132E-02-1.20686E-03
 -1      2046-4.73947E-05-3.37599E-02 1.45797E-03
 -1      2048 4.73947E-05-3.37599E-02-1.45797E-03
 -1      2049-4.44711E-05-3.70598E-02 1.68991E-03
 -1      2051 4.44711E-05-3.70598E-02-1.68991E-03
 -1      2052-1.32924E-04-4.09943E-02 1.88960E-03
 -1      2054 1.32924E-04-4.09943E-02-1.88960E-03
 -1      2055-2.04409E-04-4.63804E-02 2.06140E-03
 -1      2057 2.04409E-04-4.63804E-02-2.06140E-03
 -1      2058-2.76332E-04-5.29904E-02 2.19716E-03
 -1      2060 2.76332E-04-5.29904E-02-2.19716E-03
 -1      2061-3.20807E-04-6.04781E-02 2.29220E-03
 -1      2063 3.20807E-04-6.04781E-02-2.29220E-03
 -1      2064-3.23474E-04-6.80073E-02 2.34018E-03
 -1      2066 3.23474E-04-6.80073E-02-2.34018E-03
 -1      2067-2.81128E-04-7.45498E-02 2.33226E-03
 -1      2069 2.81128E-04-7.45498E-02-2.33226E-03
 -1      2070-1.87448E-04-7.89730E-02 2.26397E-03
 -1      2072 1.87448E-04-7.89730E-02-2.26397E-03
 -1      2073-5.35655E-05-8.02181E-02 2.12821E-03
 -1      2075 5.35655E-05-8.02181E-02-2.12821E-03
 -1      2076 1.11761E-04-7.74717E-02 1.92522E-03
 -1      2078-1.11761E-04-7.74717E-02-1.92522E-03
 -1      2079 2.87953E-04-7.02828E-02 1.65449E-03
 -1      2081-2.87953E-04-7.02828E-02-1.65449E-03
 -1      2082 4.57306E-04-5.86631E-02 1.32354E-03
 -1      2084-4.57306E-04-5.86631E-02-1.32354E-03
 -1      2085 5.98238E-04-4.31013E-02 9.40491E-04
 -1      2087-5.98238E-04-4.31013E-02-9.40491E-04
 -1      2088 6.95017E-04-2.45348E-02 5.20112E-04
 -1      2090-6.95017E-04-2.45348E-02-5.20112E-04
 -1      2091 7.34684E-04-4.24758E-03 7.73966E-05
 -1      2093-7.34684E-04-4.24758E-03-7.73966E-05
 -1      2094 7.12739E-04 1.62671E-02-3.68884E-04
 -1      2096-7.12739E-04 1.62671E-02 3.68884E-04
 -1      2097 6.30556E-04 3.54785E-02-8.01706E-04
 -1      2099-6.30556E-04 3.54785E-02 8.01706E-04
 -1      2100 4.97605E-04 5.19869E-02-1.20352E-03
 -1      2102-4.97605E-04 5.19869E-02 1.20352E-03
 -1      2103 3.28242E-04 6.46802E-02-1.56116E-03
 -1      2105-3.28242E-04 6.46802E-02 1.56116E-03
 -1      2106 1.40275E-04 7.28356E-02-1.86311E-03
 -1      2108-1.40275E-04 7.28356E-02 1.86311E-03
 -1      2109-4.59470E-05 7.61924E-02-2.10439E-03
 -1      2111 4.59470E-05 7.61924E-02 2.10439E-03
 -1      2112-2.17506E-04 7.48979E-02-2.28206E-03
 -1      2114 2.17506E-04 7.48979E-02 2.28206E-03
 -1      2115-3.53374E-04 6.95131E-02-2.40003E-03
 -1      2117 3.53374E-04 6.95131E-02 2.40003E-03
 -1      2118-4.66844E-04 6.07145E-02-2.46407E-03
 -1      2120 4.66844E-04 6.07145E-02 2.46407E-03
 -1      2121 3.23781E-04 5.44425E-03 1.09982E-02
 -1      2123 3.36622E-03 1.62020E-03 1.10867E-02
 -1      2124 2.74513E-03 1.55952E-02 2.73232E-02
 -1      2126 4.14539E-03 6.15349E-03 2.73460E-02
 -1      2127 3.14982E-03 2.75520E-02 3.97460E-02
 -1      2129 5.16746E-03 1.35543E-02 3.97729E-02
 -1      2130 3.54474E-03 4.05306E-02 5.27455E-02
 -1      2132 5.07176E-03 2.21213E-02 5.27333E-02
 -1      2133 3.15118E-03 5.26683E-02 6.37514E-02
 -1      2135 4.64341E-03 3.02941E-02 6.37173E-02
 -1      2136 2.37050E-03 6.28887E-02 7.36423E-02
 -1      2138 3.58099E-03 3.71293E-02 7.35988E-02
 -1      2139 1.26366E-03 7.00682E-02 8.16815E-02
 -1      2141 2.25498E-03 4.14671E-02 8.16167E-02
 -1      2142-9.81603E-06 7.36430E-02 8.79145E-02
 -1      2144 7.03891E-04 4.29378E-02 8.78565E-02
 -1      2145-1.25459E-03 7.33778E-02 9.20839E-02
 -1      2147-8.27295E-04 4.12499E-02 9.20198E-02
 -1      2148-2.33432E-03 6.95018E-02 9.41005E-02
 -1      2150-2.20973E-03 3.67652E-02 9.40532E-02
 -1      2151-3.10253E-03 6.26044E-02 9.38666E-02
 -1      2153-3.29169E-03 3.00208E-02 9.38273E-02
 -1      2154-3.48832E-03 5.35486E-02 9.13389E-02
 -1      2156-3.99110E-03 2.19443E-02 9.13201E-02
 -1      2157-3.45723E-03 4.33621E-02 8.65308E-02
 -1      2159-4.27105E-03 1.35013E-02 8.65257E-02
 -1      2160-3.04520E-03 3.30674E-02 7.95066E-02
 -1      2162-4.15433E-03 5.71727E-03 7.95181E-02
 -1      2163-2.33283E-03 2.35767E-02 7.04024E-02
 -1      2165-3.71634E-03-5.79946E-04 7.04235E-02
 -1      2166-1.44557E-03 1.55445E-02 5.94143E-02
 -1      2168-3.07034E-03-4.78771E-03 5.94417E-02
 -1      2169-5.27614E-04 9.31766E-03 4.68077E-02
 -1      2171-2.35427E-03-6.66966E-03 4.68351E-02
 -1      2172 2.73373E-04 4.88099E-03 3.29055E-02
 -1      2174-1.70619E-03-6.33753E-03 3.29276E-02
 -1      2175 8.30614E-04 1.89649E-03 1.80812E-02
 -1      2177-1.24842E-03-4.26137E-03 1.80943E-02
 -1      2178 1.05311E-03-2.43071E-04 2.74590E-03
 -1      2180-1.06650E-03-1.17508E-03 2.74655E-03
 -1      2181 9.00150E-04-2.30013E-03-1.26696E-02
 -1      2183-1.20073E-03 2.01805E-03-1.26807E-02
 -1      2184 3.84060E-04-5.07098E-03-2.77300E-02
 -1      2186-1.63846E-03 4.38285E-03-2.77529E-02
 -1      2187-4.30390E-04-9.25684E-03-4.20157E-02
 -1      2189-2.31907E-03 5.08588E-03-4.20455E-02
 -1      2190-1.43968E-03-1.53478E-02-5.51401E-02
 -1      2192-3.14426E-03 3.50406E-03-5.51741E-02
 -1      2193-2.51564E-03-2.35535E-02-6.67566E-02
 -1      2195-3.99160E-03-6.78182E-04-6.67881E-02
 -1      2196-3.52914E-03-3.37604E-02-7.65935E-02
 -1      2198-4.74620E-03-7.45948E-03-7.66199E-02
 -1      2199-4.37701E-03-4.55704E-02-8.44029E-02
 -1      2201-5.29848E-03-1.65100E-02-8.44196E-02
 -1      2202-4.98277E-03-5.83675E-02-9.00943E-02
 -1      2204-5.61893E-03-2.72909E-02-9.01013E-02
 -1      2205-5.38846E-03-7.14460E-02-9.34529E-02
 -1      2207-5.67295E-03-3.91419E-02-9.34528E-02
 -1      2208-3.23781E-04 5.44425E-03-1.09982E-02
 -1      2210-3.36622E-03 1.62020E-03-1.10867E-02
 -1      2211-2.74513E-03 1.55952E-02-2.73232E-02
 -1      2213-4.14539E-03 6.15349E-03-2.73460E-02
 -1      2214-3.14982E-03 2.75520E-02-3.97460E-02
 -1      2216-5.16746E-03 1.35543E-02-3.97729E-02
 -1      2217-3.54474E-03 4.05306E-02-5.27455E-02
 -1      2219-5.07176E-03 2.21213E-02-5.27333E-02
 -1      2220-3.15118E-03 5.26683E-02-6.37514E-02
 -1      2222-4.64341E-03 3.02941E-02-6.37173E-02
 -1      2223-2.37050E-03 6.28887E-02-7.36423E-02
 -1      2225-3.58099E-03 3.71293E-02-7.35988E-02
 -1      2226-1.26366E-03 7.00682E-02-8.16815E-02
 -1      2228-2.25498E-03 4.14671E-02-8.16167E-02
 -1      2229 9.81603E-06 7.36430E-02-8.79145E-02
 -1      2231-7.03891E-04 4.29378E-02-8.78565E-02
 -1      2232 1.25459E-03 7.33778E-02-9.20839E-02
 -1      2234 8.27295E-04 4.12499E-02-9.20198E-02
 -1      2235 2.33432E-03 6.95018E-02-9.41005E-02
 -1      2237 2.20973E-03 3.67652E-02-9.40532E-02
 -1      2238 3.10253E-03 6.26044E-02-9.38666E-02
 -1      2240 3.29169E-03 3.00208E-02-9.38273E-02
 -1      2241 3.48832E-03 5.35486E-02-9.13389E-02
 -1      2243 3.99110E-03 2.19443E-02-9.13201E-02
 -1      2244 3.45723E-03 4.33621E-02-8.65308E-02
 -1      2246 4.27105E-03 1.35013E-02-8.65257E-02
 -1      2247 3.04520E-03 3.30674E-02-7.95066E-02
 -1      2249 4.15433E-03 5.71727E-03-7.95181E-02
 -1      2250 2.33283E-03 2.35767E-02-7.04024E-02
 -1      2252 3.71634E-03-5.79946E-04-7.04235E-02
 -1      2253 1.44557E-03 1.55445E-02-5.94143E-02
 -1      2255 3.07034E-03-4.78771E-03-5.94417E-02
 -1      2256 5.27614E-04 9.31766E-03-4.68077E-02
 -1      2258 2.35427E-03-6.66966E-03-4.68351E-02
 -1      2259-2.73373E-04 4.88099E-03-3.29055E-02
 -1      2261 1.70619E-03-6.33753E-03-3.29276E-02
 -1      2262-8.30614E-04 1.89649E-03-1.80812E-02
 -1      2264 1.24842E-03-4.26137E-03-1.80943E-02
 -1      2265-1.05311E-03-2.43071E-04-2.74590E-03
 -1      2267 1.06650E-03-1.17508E-03-2.74655E-03
 -1      2268-9.00150E-04-2.30013E-03 1.26696E-02
 -1      2270 1.20073E-03 2.01805E-03 1.26807E-02
 -1      2271-3.84060E-04-5.07098E-03 2.77300E-02
 -1      2273 1.63846E-03 4.38285E-03 2.77529E-02
 -1      2274 4.30390E-04-9.25684E-03 4.20157E-02
 -1      2276 2.31907E-03 5.08588E-03 4.20455E-02
 -1      2277 1.43968E-03-1.53478E-02 5.51401E-02
 -1      2279 3.14426E-03 3.50406E-03 5.51741E-02
 -1      2280 2.51564E-03-2.35535E-02 6.67566E-02
 -1      2282 3.99160E-03-6.78182E-04 6.67881E-02
 -1      2283 3.52914E-03-3.37604E-02 7.65935E-02
 -1      2285 4.74620E-03-7.45948E-03 7.66199E-02
 -1      2286 4.37701E-03-4.55704E-02 8.44029E-02
 -1      2288 5.29848E-03-1.65100E-02 8.44196E-02
 -1      2289 4.98277E-03-5.83675E-02 9.00943E-02
 -1      2291 5.61893E-03-2.72909E-02 9.01013E-02
 -1      2292 5.38846E-03-7.14460E-02 9.34529E-02
 -1      2294 5.67295E-03-3.91419E-02 9.34528E-02
 -3
    1PSTEP                        46           1           1          
    1PGM                1.000000E+00                                  
    1PGK                7.076828E+06                                  
    1PHID                         -1                                  
    1PSUBC                         0                                  
    1PMODE                        12                                  
  100CL  112 423.3888922         930                     2   12MODAL      1
 -4  STRESS      6    1
 -5  SXX         1    4    1    1
 -5  SYY         1    4    2    2
 -5  SZZ         1    4    3    3
 -5  SXY         1    4    1    2
 -5  SYZ         1    4    2    3
 -5  SZX         1    4    3    1
 -1       404-6.68017E+09-6.65265E+08-7.73315E+06 8.59619E+08-5.67505E+06 6.98795E+08
 -1       406-6.68017E+09-6.65265E+08-7.73315E+06 8.59619E+08-5.67505E+06 6.98795E+08
 -1       407 1.55224E+08-5.06877E+07 9.66311E+04-6.18419E+07-2.32585E+07 1.04442E+07
 -1       409 1.55224E+08-5.06877E+07 9.66311E+04-6.18419E+07-2.32585E+07 1.04442E+07
 -1       410 1.56223E-02 2.40997E-03-1.67217E-04-1.41655E+08-2.98472E+08 3.50978E-05
 -1       412 1.56223E-02 2.40997E-03-1.67217E-04-1.41655E+08-2.98472E+08 3.50978E-05
 -1       413 9.26758E-03 4.44673E-04-1.63341E-02-4.09989E+06-3.16037E+08-9.73483E-04
 -1       415 9.26758E-03 4.44673E-04-1.63341E-02-4.09989E+06-3.16037E+08-9.73483E-04
 -1       424 1.45319E-01 2.10273E-02 1.29938E-05 1.19940E+09-1.64444E+08 3.00120E-03
 -1       426 1.45319E-01 2.10273E-02 1.29938E-05 1.19940E+09-1.64444E+08 3.00120E-03
 -1       427 1.39896E-01 2.66676E-04 2.04653E-02-9.95651E+06-1.01725E+08 5.49413E-02
 -1       429 1.39896E-01 2.66676E-04 2.04653E-02-9.95651E+06-1.01725E+08 5.49413E-02
 -1       438-1.55224E+08 5.06877E+07-9.66311E+04-6.18419E+07-2.32585E+07-1.04442E+07
 -1       440-1.55224E+08 5.06877E+07-9.66311E+04-6.18419E+07-2.32585E+07-1.04442E+07
 -1       441 6.68017E+09 6.65265E+08 7.73315E+06 8.59619E+08-5.67505E+06-6.98795E+08
 -1       443 6.68017E+09 6.65265E+08 7.73315E+06 8.59619E+08-5.67505E+06-6.98795E+08
 -1       444 1.35491E-01-8.66025E-05 1.63482E-02-9.95651E+06 1.01725E+08 6.22141E-03
 -1       446 1.35491E-01-8.66025E-05 1.63482E-02-9.95651E+06 1.01725E+08 6.22141E-03
 -1       447 1.29980E-01 1.84938E-02-8.82149E-06 1.19940E+09 1.64444E+08-1.88002E-03
 -1       449 1.29980E-01 1.84938E-02-8.82149E-06 1.19940E+09 1.64444E+08-1.88002E-03
 -1       458 2.12010E-03-4.85183E-04-3.11565E-03-4.09989E+06 3.16037E+08 6.74730E-03
 -1       460 2.12010E-03-4.85183E-04-3.11565E-03-4.09989E+06 3.16037E+08 6.74730E-03
 -1       461-2.69980E-03-7.81336E-03-2.43783E-04-1.41655E+08 2.98472E+08-1.33667E-04
 -1       463-2.69980E-03-7.81336E-03-2.43783E-04-1.41655E+08 2.98472E+08-1.33667E-04
 -1       472 6.68017E+09 6.65265E+08 7.73315E+06 8.59619E+08 5.67505E+06 6.98795E+08
 -1       474 6.68017E+09 6.65265E+08 7.73315E+06 8.59619E+08 5.67505E+06 6.98795E+08
 -1       475-1.55224E+08 5.06877E+07-9.66311E+04-6.18419E+07 2.32585E+07 1.04442E+07
 -1       477-1.55224E+08 5.06877E+07-9.66311E+04-6.18419E+07 2.32585E+07 1.04442E+07
 -1       478 1.55224E+08-5.06877E+07 9.66311E+04-6.18419E+07 2.32585E+07-1.04442E+07
 -1       480 1.55224E+08-5.06877E+07 9.66311E+04-6.18419E+07 2.32585E+07-1.04442E+07
 -1       481-6.68017E+09-6.65265E+08-7.73315E+06 8.59619E+08 5.67505E+06-6.98795E+08
 -1       483-6.68017E+09-6.65265E+08-7.73315E+06 8.59619E+08 5.67505E+06-6.98795E+08
 -1       484-5.55284E+09-1.77634E+08 1.02304E+06 5.82698E+08 1.26619E+07 2.34891E+08
 -1       486-5.55284E+09-1.77634E+08 1.02304E+06 5.82698E+08 1.26619E+07 2.34891E+08
 -1       487-3.45923E+09 1.01999E+08-3.33526E+06 4.39687E+08 1.76959E+07-4.83010E+06
 -1       489-3.45923E+09 1.01999E+08-3.33526E+06 4.39687E+08 1.76959E+07-4.83010E+06
 -1       490-1.43967E+09-1.53376E+07-3.84524E+05 5.13253E+08 1.15849E+07 1.08192E+08
 -1       492-1.43967E+09-1.53376E+07-3.84524E+05 5.13253E+08 1.15849E+07 1.08192E+08
 -1       493 5.02113E+08 3.78715E+07 6.88779E+05 4.26397E+08 2.07164E+07 4.54569E+07
 -1       495 5.02113E+08 3.78715E+07 6.88779E+05 4.26397E+08 2.07164E+07 4.54569E+07
 -1       496 2.15856E+09 2.80685E+07 1.52165E+05 3.62356E+08 2.12928E+07 6.55682E+07
 -1       498 2.15856E+09 2.80685E+07 1.52165E+05 3.62356E+08 2.12928E+07 6.55682E+07
 -1       499 3.44973E+09 3.78308E+07 2.56628E+06 2.54285E+08 2.54971E+07 4.36550E+07
 -1       501 3.44973E+09 3.78308E+07 2.56628E+06 2.54285E+08 2.54971E+07 4.36550E+07
 -1       502 4.24414E+09 3.92382E+07 1.05583E+06 1.24967E+08 2.73883E+07 4.00044E+07
 -1       504 4.24414E+09 3.92382E+07 1.05583E+06 1.24967E+08 2.73883E+07 4.00044E+07
 -1       505 4.50101E+09 4.52291E+07 2.88217E+06-5.14659E+06 2.85401E+07 2.62222E+07
 -1       507 4.50101E+09 4.52291E+07 2.88217E+06-5.14659E+06 2.85401E+07 2.62222E+07
 -1       508 4.21664E+09 4.46821E+07 1.14534E+06-1.31782E+08 2.93878E+07 1.59649E+07
 -1       510 4.21664E+09 4.46821E+07 1.14534E+06-1.31782E+08 2.93878E+07 1.59649E+07
 -1       511 3.46184E+09 4.87626E+07 2.00223E+06-2.31328E+08 2.84699E+07 3.32049E+06
 -1       513 3.46184E+09 4.87626E+07 2.00223E+06-2.31328E+08 2.84699E+07 3.32049E+06
 -1       514 2.35642E+09 4.66743E+07 2.90644E+05-2.97726E+08 2.77051E+07-8.73393E+06
 -1       516 2.35642E+09 4.66743E+07 2.90644E+05-2.97726E+08 2.77051E+07-8.73393E+06
 -1       517 1.06444E+09 4.76326E+07 4.65067E+05-3.20241E+08 2.53234E+07-2.09977E+07
 -1       519 1.06444E+09 4.76326E+07 4.65067E+05-3.20241E+08 2.53234E+07-2.09977E+07
 -1       520-2.33489E+08 4.41510E+07-9.60739E+05-2.98876E+08 2.32185E+07-3.28239E+07
 -1       522-2.33489E+08 4.41510E+07-9.60739E+05-2.98876E+08 2.32185E+07-3.28239E+07
 -1       523-1.36003E+09 4.18646E+07-9.69680E+05-2.37026E+08 1.99888E+07-4.39200E+07
 -1       525-1.36003E+09 4.18646E+07-9.69680E+05-2.37026E+08 1.99888E+07-4.39200E+07
 -1       526-2.16769E+09 3.66877E+07-1.84145E+06-1.44574E+08 1.71097E+07-5.40933E+07
 -1       528-2.16769E+09 3.66877E+07-1.84145E+06-1.44574E+08 1.71097E+07-5.40933E+07
 -1       529-2.55635E+09 3.16174E+07-1.61819E+06-3.50499E+07 1.35966E+07-6.28915E+07
 -1       531-2.55635E+09 3.16174E+07-1.61819E+06-3.50499E+07 1.35966E+07-6.28915E+07
 -1       532-2.48772E+09 2.47506E+07-1.81305E+06 7.57803E+07 1.04450E+07-7.02092E+07
 -1       534-2.48772E+09 2.47506E+07-1.81305E+06 7.57803E+07 1.04450E+07-7.02092E+07
 -1       535-1.98868E+09 1.76530E+07-1.20914E+06 1.72151E+08 7.00107E+06-7.56672E+07
 -1       537-1.98868E+09 1.76530E+07-1.20914E+06 1.72151E+08 7.00107E+06-7.56672E+07
 -1       538-1.14727E+09 9.61053E+06-8.53489E+05 2.40632E+08 3.82904E+06-7.92213E+07
 -1       540-1.14727E+09 9.61053E+06-8.53489E+05 2.40632E+08 3.82904E+06-7.92213E+07
 -1       541-9.87579E+07 1.47688E+06-2.19878E+04 2.71896E+08 5.39588E+05-8.06437E+07
 -1       543-9.87579E+07 1.47688E+06-2.19878E+04 2.71896E+08 5.39588E+05-8.06437E+07
 -1       544 9.94120E+08-6.84922E+06 5.42876E+05 2.62143E+08-2.63510E+06-7.99670E+07
 -1       546 9.94120E+08-6.84922E+06 5.42876E+05 2.62143E+08-2.63510E+06-7.99670E+07
 -1       547 1.96564E+09-1.48879E+07 1.26644E+06 2.13776E+08-5.84178E+06-7.71796E+07
 -1       549 1.96564E+09-1.48879E+07 1.26644E+06 2.13776E+08-5.84178E+06-7.71796E+07
 -1       550 2.67197E+09-2.25286E+07 1.64587E+06 1.34847E+08-9.04962E+06-7.23096E+07
 -1       552 2.67197E+09-2.25286E+07 1.64587E+06 1.34847E+08-9.04962E+06-7.23096E+07
 -1       553 3.01378E+09-2.93193E+07 1.95295E+06 3.88999E+07-1.21854E+07-6.57624E+07
 -1       555 3.01378E+09-2.93193E+07 1.95295E+06 3.88999E+07-1.21854E+07-6.57624E+07
 -1       556 2.95345E+09-3.56361E+07 1.90083E+06-5.82385E+07-1.52397E+07-5.70885E+07
 -1       558 2.95345E+09-3.56361E+07 1.90083E+06-5.82385E+07-1.52397E+07-5.70885E+07
 -1       559 2.52444E+09-4.00702E+07 1.70562E+06-1.37755E+08-1.80564E+07-4.80281E+07
 -1       561 2.52444E+09-4.00702E+07 1.70562E+06-1.37755E+08-1.80564E+07-4.80281E+07
 -1       562 1.83362E+09-4.49425E+07 1.25204E+06-1.83426E+08-2.03196E+07-3.56142E+07
 -1       564 1.83362E+09-4.49425E+07 1.25204E+06-1.83426E+08-2.03196E+07-3.56142E+07
 -1       565 1.05206E+09-4.67894E+07 7.95058E+05-1.80781E+08-2.22536E+07-2.69893E+07
 -1       567 1.05206E+09-4.67894E+07 7.95058E+05-1.80781E+08-2.22536E+07-2.69893E+07
 -1       568 4.09302E+08-4.80406E+07 1.96695E+05-1.13400E+08-2.28137E+07-8.19423E+06
 -1       570 4.09302E+08-4.80406E+07 1.96695E+05-1.13400E+08-2.28137E+07-8.19423E+06
 -1       571 9.78986E+07-8.06173E+07-3.77939E+05-1.01748E+08-1.60865E+08 8.26541E+06
 -1       573 9.78986E+07-8.06173E+07-3.77939E+05-1.01748E+08-1.60865E+08 8.26541E+06
 -1       574 1.37517E-01 9.33123E-03 5.01871E-05 1.13216E+09-5.26514E+07 4.38550E-04
 -1       576 1.37517E-01 9.33123E-03 5.01871E-05 1.13216E+09-5.26514E+07 4.38550E-04
 -1       577 1.34525E-01 1.87226E-04-8.91008E-04 2.96046E+07-4.97605E+07 5.10878E-02
 -1       579 1.34525E-01 1.87226E-04-8.91008E-04 2.96046E+07-4.97605E+07 5.10878E-02
 -1       588 1.27569E-01-8.49873E-04 1.60098E-04 1.11564E+09 9.44324E+07-5.55124E-04
 -1       590 1.27569E-01-8.49873E-04 1.60098E-04 1.11564E+09 9.44324E+07-5.55124E-04
 -1       591 1.29500E-01 7.42464E-05-2.35984E-02 5.56598E+07 7.93347E+07 3.84958E-02
 -1       593 1.29500E-01 7.42464E-05-2.35984E-02 5.56598E+07 7.93347E+07 3.84958E-02
 -1       602 1.29241E-01 8.34670E-04 2.03524E-04 1.07845E+09 1.23039E+08 1.50204E-04
 -1       604 1.29241E-01 8.34670E-04 2.03524E-04 1.07845E+09 1.23039E+08 1.50204E-04
 -1       605 1.32472E-01 6.45173E-06-9.85423E-03 3.60980E+07 1.49927E+08 2.88145E-02
 -1       607 1.32472E-01 6.45173E-06-9.85423E-03 3.60980E+07 1.49927E+08 2.88145E-02
 -1       616 1.27287E-01 6.88642E-04-1.00154E-04 9.66593E+08 1.66164E+08-2.02745E-04
 -1       618 1.27287E-01 6.88642E-04-1.00154E-04 9.66593E+08 1.66164E+08-2.02745E-04
 -1       619 1.31036E-01 3.56019E-04 1.38861E-02 4.12305E+07 1.85559E+08 2.91825E-02
 -1       621 1.31036E-01 3.56019E-04 1.38861E-02 4.12305E+07 1.85559E+08 2.91825E-02
 -1       630 1.11863E-01 1.91849E-03-3.24622E-05 8.07539E+08 2.08288E+08-7.84658E-05
 -1       632 1.11863E-01 1.91849E-03-3.24622E-05 8.07539E+08 2.08288E+08-7.84658E-05
 -1       633 1.17122E-01 5.13032E-04 1.60055E-02 3.41468E+07 2.40641E+08 3.41345E-02
 -1       635 1.17122E-01 5.13032E-04 1.60055E-02 3.41468E+07 2.40641E+08 3.41345E-02
 -1       644 9.60155E-02 2.24088E-03 5.96493E-05 5.57769E+08 2.35050E+08-3.00260E-04
 -1       646 9.60155E-02 2.24088E-03 5.96493E-05 5.57769E+08 2.35050E+08-3.00260E-04
 -1       647 1.00458E-01 4.13352E-04-7.45311E-03 2.87500E+07 2.71833E+08 3.45535E-02
 -1       649 1.00458E-01 4.13352E-04-7.45311E-03 2.87500E+07 2.71833E+08 3.45535E-02
 -1       658 9.27779E-02-5.27203E-04 4.23521E-04 2.85815E+08 2.65405E+08-1.67363E-04
 -1       660 9.27779E-02-5.27203E-04 4.23521E-04 2.85815E+08 2.65405E+08-1.67363E-04
 -1       661 9.52195E-02 1.84457E-04-3.15773E-02 2.51692E+07 3.03058E+08 2.10972E-02
 -1       663 9.52195E-02 1.84457E-04-3.15773E-02 2.51692E+07 3.03058E+08 2.10972E-02
 -1       672 1.03654E-01-3.65260E-03 5.01126E-04-1.49010E+07 2.80625E+08-3.07267E-04
 -1       674 1.03654E-01-3.65260E-03 5.01126E-04-1.49010E+07 2.80625E+08-3.07267E-04
 -1       675 1.04398E-01-1.49194E-04-2.74904E-02 1.65932E+07 3.20225E+08 3.32846E-03
 -1       677 1.04398E-01-1.49194E-04-2.74904E-02 1.65932E+07 3.20225E+08 3.32846E-03
 -1       686 1.16103E-01-5.61532E-03 1.57058E-04-2.87638E+08 2.94705E+08-1.77031E-04
 -1       688 1.16103E-01-5.61532E-03 1.57058E-04-2.87638E+08 2.94705E+08-1.77031E-04
 -1       689 1.14581E-01 1.72327E-05-6.96512E-03 1.23572E+07 3.28210E+08 2.34057E-03
 -1       691 1.14581E-01 1.72327E-05-6.96512E-03 1.23572E+07 3.28210E+08 2.34057E-03
 -1       700 1.18530E-01-2.61179E-03 1.49742E-04-5.12820E+08 2.96212E+08 5.02914E-05
 -1       702 1.18530E-01-2.61179E-03 1.49742E-04-5.12820E+08 2.96212E+08 5.02914E-05
 -1       703 1.11254E-01-3.61921E-04-5.60128E-03 3.29665E+06 3.25513E+08 1.36775E-02
 -1       705 1.11254E-01-3.61921E-04-5.60128E-03 3.29665E+06 3.25513E+08 1.36775E-02
 -1       714 1.12302E-01 3.57762E-03 9.29534E-05-6.57952E+08 2.93691E+08-4.49149E-05
 -1       716 1.12302E-01 3.57762E-03 9.29534E-05-6.57952E+08 2.93691E+08-4.49149E-05
 -1       717 1.00598E-01-6.13484E-04-2.53161E-02-2.35610E+06 3.12711E+08 1.16257E-02
 -1       719 1.00598E-01-6.13484E-04-2.53161E-02-2.35610E+06 3.12711E+08 1.16257E-02
 -1       728 1.06170E-01 3.84155E-03 5.18188E-05-7.09003E+08 2.81005E+08-4.51850E-05
 -1       730 1.06170E-01 3.84155E-03 5.18188E-05-7.09003E+08 2.81005E+08-4.51850E-05
 -1       731 9.49681E-02 7.64641E-05-4.05454E-02-1.11252E+07 2.92045E+08-3.67379E-03
 -1       733 9.49681E-02 7.64641E-05-4.05454E-02-1.11252E+07 2.92045E+08-3.67379E-03
 -1       742 1.03988E-01-3.43464E-04 8.97069E-05-6.61838E+08 2.63510E+08 2.21375E-05
 -1       744 1.03988E-01-3.43464E-04 8.97069E-05-6.61838E+08 2.63510E+08 2.21375E-05
 -1       745 9.20118E-02 5.72475E-04-3.93164E-02-1.75915E+07 2.64019E+08-1.97929E-02
 -1       747 9.20118E-02 5.72475E-04-3.93164E-02-1.75915E+07 2.64019E+08-1.97929E-02
 -1       756 1.06719E-01 1.98700E-04-8.14032E-05-5.25201E+08 2.38222E+08 1.33123E-05
 -1       758 1.06719E-01 1.98700E-04-8.14032E-05-5.25201E+08 2.38222E+08 1.33123E-05
 -1       759 9.04674E-02 1.14730E-03-3.02021E-02-2.55576E+07 2.31568E+08-3.17354E-02
 -1       761 9.04674E-02 1.14730E-03-3.02021E-02-2.55576E+07 2.31568E+08-3.17354E-02
 -1       770 1.12466E-01 6.11560E-03 1.20260E-04-3.21054E+08 2.08687E+08 1.77803E-04
 -1       772 1.12466E-01 6.11560E-03 1.20260E-04-3.21054E+08 2.08687E+08 1.77803E-04
 -1       773 9.38025E-02 7.51757E-04-2.83955E-02-3.17616E+07 1.95412E+08-3.65654E-02
 -1       775 9.38025E-02 7.51757E-04-2.83955E-02-3.17616E+07 1.95412E+08-3.65654E-02
 -1       784 1.09945E-01 1.05190E-02 2.87518E-04-7.87373E+07 1.73708E+08 1.97839E-04
 -1       786 1.09945E-01 1.05190E-02 2.87518E-04-7.87373E+07 1.73708E+08 1.97839E-04
 -1       787 9.49455E-02-2.70453E-04-3.30698E-02-3.82118E+07 1.57910E+08-3.66015E-02
 -1       789 9.49455E-02-2.70453E-04-3.30698E-02-3.82118E+07 1.57910E+08-3.66015E-02
 -1       798 9.94349E-02 7.69237E-03-2.73563E-04 1.66183E+08 1.35704E+08 1.30869E-04
 -1       800 9.94349E-02 7.69237E-03-2.73563E-04 1.66183E+08 1.35704E+08 1.30869E-04
 -1       801 9.05225E-02 3.26276E-05-2.86432E-02-4.29814E+07 1.19469E+08-3.29383E-02
 -1       803 9.05225E-02 3.26276E-05-2.86432E-02-4.29814E+07 1.19469E+08-3.29383E-02
 -1       812 9.99351E-02-5.12622E-04-1.26176E-04 3.79453E+08 9.44820E+07 2.63378E-05
 -1       814 9.99351E-02-5.12622E-04-1.26176E-04 3.79453E+08 9.44820E+07 2.63378E-05
 -1       815 9.13777E-02-2.03926E-04-1.47292E-02-4.71120E+07 8.13571E+07-2.21862E-02
 -1       817 9.13777E-02-2.03926E-04-1.47292E-02-4.71120E+07 8.13571E+07-2.21862E-02
 -1       826 1.13625E-01-7.42092E-03 6.49169E-05 5.30865E+08 5.16657E+07 6.72415E-06
 -1       828 1.13625E-01-7.42092E-03 6.49169E-05 5.30865E+08 5.16657E+07 6.72415E-06
 -1       829 1.01051E-01-5.29623E-04-6.98348E-03-4.94649E+07 4.33972E+07-6.24212E-03
 -1       831 1.01051E-01-5.29623E-04-6.98348E-03-4.94649E+07 4.33972E+07-6.24212E-03
 -1       840 1.25502E-01-8.77748E-03-1.22700E-04 6.00155E+08 7.68957E+06 1.14892E-04
 -1       842 1.25502E-01-8.77748E-03-1.22700E-04 6.00155E+08 7.68957E+06 1.14892E-04
 -1       843 1.10826E-01 1.40245E-04-7.61372E-03-5.06812E+07 5.87727E+06 2.81686E-03
 -1       845 1.10826E-01 1.40245E-04-7.61372E-03-5.06812E+07 5.87727E+06 2.81686E-03
 -1       854 1.29227E-01-5.84114E-03-7.62008E-05 5.78732E+08-3.64431E+07-6.97747E-05
 -1       856 1.29227E-01-5.84114E-03-7.62008E-05 5.78732E+08-3.64431E+07-6.97747E-05
 -1       857 1.14338E-01 3.06162E-04-3.99592E-03-5.00823E+07-3.17283E+07 2.68266E-03
 -1       859 1.14338E-01 3.06162E-04-3.99592E-03-5.00823E+07-3.17283E+07 2.68266E-03
 -1       868 1.24982E-01-1.91126E-03 1.52752E-04 4.71876E+08-7.97531E+07-1.12932E-04
 -1       870 1.24982E-01-1.91126E-03 1.52752E-04 4.71876E+08-7.97531E+07-1.12932E-04
 -1       871 1.09921E-01-3.79931E-05-1.58574E-03-4.82587E+07-6.94990E+07 7.10683E-03
 -1       873 1.09921E-01-3.79931E-05-1.58574E-03-4.82587E+07-6.94990E+07 7.10683E-03
 -1       882 1.14450E-01 2.06050E-03-3.47689E-04 2.97893E+08-1.21816E+08-7.08923E-05
 -1       884 1.14450E-01 2.06050E-03-3.47689E-04 2.97893E+08-1.21816E+08-7.08923E-05
 -1       885 9.86285E-02 4.13986E-04-1.49015E-02-4.47687E+07-1.07790E+08 1.48535E-02
 -1       887 9.86285E-02 4.13986E-04-1.49015E-02-4.47687E+07-1.07790E+08 1.48535E-02
 -1       896 9.70320E-02 5.70409E-03-2.71767E-04 8.56129E+07-1.60992E+08-2.90031E-04
 -1       898 9.70320E-02 5.70409E-03-2.71767E-04 8.56129E+07-1.60992E+08-2.90031E-04
 -1       899 7.98723E-02 4.15849E-06-3.31028E-02-4.03306E+07-1.46184E+08 1.61398E-02
 -1       901 7.98723E-02 4.15849E-06-3.31028E-02-4.03306E+07-1.46184E+08 1.61398E-02
 -1       910 7.50706E-02 4.18948E-03-8.70228E-05-1.27650E+08-1.97570E+08-2.03583E-04
 -1       912 7.50706E-02 4.18948E-03-8.70228E-05-1.27650E+08-1.97570E+08-2.03583E-04
 -1       913 5.87919E-02-4.34867E-04-3.99771E-02-3.45914E+07-1.84598E+08 1.34078E-02
 -1       915 5.87919E-02-4.34867E-04-3.99771E-02-3.45914E+07-1.84598E+08 1.34078E-02
 -1       924 5.86066E-02-1.36670E-03-2.22370E-04-3.03807E+08-2.29064E+08-1.70374E-04
 -1       926 5.86066E-02-1.36670E-03-2.22370E-04-3.03807E+08-2.29064E+08-1.70374E-04
 -1       927 4.36109E-02-8.89969E-04-4.05545E-02-2.83584E+07-2.21147E+08 1.03846E-02
 -1       929 4.36109E-02-8.89969E-04-4.05545E-02-2.83584E+07-2.21147E+08 1.03846E-02
 -1       938 4.93686E-02-9.61900E-04 3.30076E-04-4.02507E+08-2.56600E+08-8.51173E-05
 -1       940 4.93686E-02-9.61900E-04 3.30076E-04-4.02507E+08-2.56600E+08-8.51173E-05
 -1       941 3.31940E-02-9.95739E-04-4.16423E-02-2.14748E+07-2.55860E+08 9.14141E-03
 -1       943 3.31940E-02-9.95739E-04-4.16423E-02-2.14748E+07-2.55860E+08 9.14141E-03
 -1       952 4.14731E-02 5.42917E-03 2.83746E-04-3.93409E+08-2.77301E+08-2.97036E-05
 -1       954 4.14731E-02 5.42917E-03 2.83746E-04-3.93409E+08-2.77301E+08-2.97036E-05
 -1       955 2.48845E-02-2.72895E-04-3.76069E-02-1.42918E+07-2.84334E+08 6.14044E-03
 -1       957 2.48845E-02-2.72895E-04-3.76069E-02-1.42918E+07-2.84334E+08 6.14044E-03
 -1       966 2.64561E-02 5.64831E-03-7.04974E-05-2.50904E+08-2.90593E+08-1.21933E-04
 -1       968 2.64561E-02 5.64831E-03-7.04974E-05-2.50904E+08-2.90593E+08-1.21933E-04
 -1       969 1.52425E-02-3.05883E-05-2.47481E-02-7.72841E+06-3.05932E+08 9.66460E-04
 -1       971 1.52425E-02-3.05883E-05-2.47481E-02-7.72841E+06-3.05932E+08 9.66460E-04
 -1       980-4.40583E+09-6.58210E+08-2.03668E+06 1.02951E+09-8.50596E+07 3.03793E+08
 -1       982-4.40583E+09-6.58210E+08-2.03668E+06 1.02951E+09-8.50596E+07 3.03793E+08
 -1       983-9.78986E+07 8.06173E+07 3.77939E+05-1.01748E+08-1.60865E+08-8.26541E+06
 -1       985-9.78986E+07 8.06173E+07 3.77939E+05-1.01748E+08-1.60865E+08-8.26541E+06
 -1       986 5.55284E+09 1.77634E+08-1.02304E+06 5.82698E+08 1.26619E+07-2.34891E+08
 -1       988 5.55284E+09 1.77634E+08-1.02304E+06 5.82698E+08 1.26619E+07-2.34891E+08
 -1       989 3.45923E+09-1.01999E+08 3.33526E+06 4.39687E+08 1.76959E+07 4.83010E+06
 -1       991 3.45923E+09-1.01999E+08 3.33526E+06 4.39687E+08 1.76959E+07 4.83010E+06
 -1       992 1.43967E+09 1.53376E+07 3.84524E+05 5.13253E+08 1.15849E+07-1.08192E+08
 -1       994 1.43967E+09 1.53376E+07 3.84524E+05 5.13253E+08 1.15849E+07-1.08192E+08
 -1       995-5.02113E+08-3.78715E+07-6.88779E+05 4.26397E+08 2.07164E+07-4.54569E+07
 -1       997-5.02113E+08-3.78715E+07-6.88779E+05 4.26397E+08 2.07164E+07-4.54569E+07
 -1       998-2.15856E+09-2.80685E+07-1.52165E+05 3.62356E+08 2.12928E+07-6.55682E+07
 -1      1000-2.15856E+09-2.80685E+07-1.52165E+05 3.62356E+08 2.12928E+07-6.55682E+07
 -1      1001-3.44973E+09-3.78308E+07-2.56628E+06 2.54285E+08 2.54971E+07-4.36550E+07
 -1      1003-3.44973E+09-3.78308E+07-2.56628E+06 2.54285E+08 2.54971E+07-4.36550E+07
 -1      1004-4.24414E+09-3.92382E+07-1.05583E+06 1.24967E+08 2.73883E+07-4.00044E+07
 -1      1006-4.24414E+09-3.92382E+07-1.05583E+06 1.24967E+08 2.73883E+07-4.00044E+07
 -1      1007-4.50101E+09-4.52291E+07-2.88217E+06-5.14659E+06 2.85401E+07-2.62222E+07
 -1      1009-4.50101E+09-4.52291E+07-2.88217E+06-5.14659E+06 2.85401E+07-2.62222E+07
 -1      1010-4.21664E+09-4.46821E+07-1.14534E+06-1.31782E+08 2.93878E+07-1.59649E+07
 -1      1012-4.21664E+09-4.46821E+07-1.14534E+06-1.31782E+08 2.93878E+07-1.59649E+07
 -1      1013-3.46184E+09-4.87626E+07-2.00223E+06-2.31328E+08 2.84699E+07-3.32049E+06
 -1      1015-3.46184E+09-4.87626E+07-2.00223E+06-2.31328E+08 2.84699E+07-3.32049E+06
 -1      1016-2.35642E+09-4.66743E+07-2.90644E+05-2.97726E+08 2.77051E+07 8.73393E+06
 -1      1018-2.35642E+09-4.66743E+07-2.90644E+05-2.97726E+08 2.77051E+07 8.73393E+06
 -1      1019-1.06444E+09-4.76326E+07-4.65067E+05-3.20241E+08 2.53234E+07 2.09977E+07
 -1      1021-1.06444E+09-4.76326E+07-4.65067E+05-3.20241E+08 2.53234E+07 2.09977E+07
 -1      1022 2.33489E+08-4.41510E+07 9.60739E+05-2.98876E+08 2.32185E+07 3.28239E+07
 -1      1024 2.33489E+08-4.41510E+07 9.60739E+05-2.98876E+08 2.32185E+07 3.28239E+07
 -1      1025 1.36003E+09-4.18646E+07 9.69680E+05-2.37026E+08 1.99888E+07 4.39200E+07
 -1      1027 1.36003E+09-4.18646E+07 9.69680E+05-2.37026E+08 1.99888E+07 4.39200E+07
 -1      1028 2.16769E+09-3.66877E+07 1.84145E+06-1.44574E+08 1.71097E+07 5.40933E+07
 -1      1030 2.16769E+09-3.66877E+07 1.84145E+06-1.44574E+08 1.71097E+07 5.40933E+07
 -1      1031 2.55635E+09-3.16174E+07 1.61819E+06-3.50499E+07 1.35966E+07 6.28915E+07
 -1      1033 2.55635E+09-3.16174E+07 1.61819E+06-3.50499E+07 1.35966E+07 6.28915E+07
 -1      1034 2.48772E+09-2.47506E+07 1.81305E+06 7.57803E+07 1.04450E+07 7.02092E+07
 -1      1036 2.48772E+09-2.47506E+07 1.81305E+06 7.57803E+07 1.04450E+07 7.02092E+07
 -1      1037 1.98868E+09-1.76530E+07 1.20914E+06 1.72151E+08 7.00107E+06 7.56672E+07
 -1      1039 1.98868E+09-1.76530E+07 1.20914E+06 1.72151E+08 7.00107E+06 7.56672E+07
 -1      1040 1.14727E+09-9.61053E+06 8.53489E+05 2.40632E+08 3.82904E+06 7.92213E+07
 -1      1042 1.14727E+09-9.61053E+06 8.53489E+05 2.40632E+08 3.82904E+06 7.92213E+07
 -1      1043 9.87579E+07-1.47688E+06 2.19878E+04 2.71896E+08 5.39588E+05 8.06437E+07
 -1      1045 9.87579E+07-1.47688E+06 2.19878E+04 2.71896E+08 5.39588E+05 8.06437E+07
 -1      1046-9.94120E+08 6.84922E+06-5.42876E+05 2.62143E+08-2.63510E+06 7.99670E+07
 -1      1048-9.94120E+08 6.84922E+06-5.42876E+05 2.62143E+08-2.63510E+06 7.99670E+07
 -1      1049-1.96564E+09 1.48879E+07-1.26644E+06 2.13776E+08-5.84178E+06 7.71796E+07
 -1      1051-1.96564E+09 1.48879E+07-1.26644E+06 2.13776E+08-5.84178E+06 7.71796E+07
 -1      1052-2.67197E+09 2.25286E+07-1.64587E+06 1.34847E+08-9.04962E+06 7.23096E+07
 -1      1054-2.67197E+09 2.25286E+07-1.64587E+06 1.34847E+08-9.04962E+06 7.23096E+07
 -1      1055-3.01378E+09 2.93193E+07-1.95295E+06 3.88999E+07-1.21854E+07 6.57624E+07
 -1      1057-3.01378E+09 2.93193E+07-1.95295E+06 3.88999E+07-1.21854E+07 6.57624E+07
 -1      1058-2.95345E+09 3.56361E+07-1.90083E+06-5.82385E+07-1.52397E+07 5.70885E+07
 -1      1060-2.95345E+09 3.56361E+07-1.90083E+06-5.82385E+07-1.52397E+07 5.70885E+07
 -1      1061-2.52444E+09 4.00702E+07-1.70562E+06-1.37755E+08-1.80564E+07 4.80281E+07
 -1      1063-2.52444E+09 4.00702E+07-1.70562E+06-1.37755E+08-1.80564E+07 4.80281E+07
 -1      1064-1.83362E+09 4.49425E+07-1.25204E+06-1.83426E+08-2.03196E+07 3.56142E+07
 -1      1066-1.83362E+09 4.49425E+07-1.25204E+06-1.83426E+08-2.03196E+07 3.56142E+07
 -1      1067-1.05206E+09 4.67894E+07-7.95058E+05-1.80781E+08-2.22536E+07 2.69893E+07
 -1      1069-1.05206E+09 4.67894E+07-7.95058E+05-1.80781E+08-2.22536E+07 2.69893E+07
 -1      1070-4.09302E+08 4.80406E+07-1.96695E+05-1.13400E+08-2.28137E+07 8.19423E+06
 -1      1072-4.09302E+08 4.80406E+07-1.96695E+05-1.13400E+08-2.28137E+07 8.19423E+06
 -1      1073 4.40583E+09 6.58210E+08 2.03668E+06 1.02951E+09-8.50596E+07-3.03793E+08
 -1      1075 4.40583E+09 6.58210E+08 2.03668E+06 1.02951E+09-8.50596E+07-3.03793E+08
 -1      1076 1.32802E-01 1.71836E-04 1.80731E-02-3.14453E+08 1.43839E+07 4.94621E-02
 -1      1078 1.32802E-01 1.71836E-04 1.80731E-02-3.14453E+08 1.43839E+07 4.94621E-02
 -1      1079 1.30189E-01 1.60542E-04 1.68208E-02-6.18950E+08 7.91624E-05 3.65236E-02
 -1      1081 1.30189E-01 1.60542E-04 1.68208E-02-6.18950E+08 7.91624E-05 3.65236E-02
 -1      1082 1.35081E-01 7.87431E-05 1.71545E-02-3.14453E+08-1.43839E+07 1.76428E-02
 -1      1084 1.35081E-01 7.87431E-05 1.71545E-02-3.14453E+08-1.43839E+07 1.76428E-02
 -1      1085 1.35143E-01 1.85171E-05 5.87518E-03 2.96046E+07 4.97605E+07 1.77661E-02
 -1      1087 1.35143E-01 1.85171E-05 5.87518E-03 2.96046E+07 4.97605E+07 1.77661E-02
 -1      1088 1.30514E-01 6.85367E-03-9.35793E-06 1.13216E+09 5.26514E+07-2.95211E-04
 -1      1090 1.30514E-01 6.85367E-03-9.35793E-06 1.13216E+09 5.26514E+07-2.95211E-04
 -1      1099 1.35595E-01 3.14706E-04 1.89637E-05 5.56598E+07-7.93347E+07 3.58716E-02
 -1      1101 1.35595E-01 3.14706E-04 1.89637E-05 5.56598E+07-7.93347E+07 3.58716E-02
 -1      1102 1.34126E-01-3.69622E-03-1.39631E-04 1.11564E+09-9.44324E+07 2.54299E-04
 -1      1104 1.34126E-01-3.69622E-03-1.39631E-04 1.11564E+09-9.44324E+07 2.54299E-04
 -1      1113 1.41533E-01 1.14917E-04 8.18080E-03 3.60980E+07-1.49927E+08 3.97698E-02
 -1      1115 1.41533E-01 1.14917E-04 8.18080E-03 3.60980E+07-1.49927E+08 3.97698E-02
 -1      1116 1.44881E-01 1.02535E-03 7.13170E-05 1.07845E+09-1.23039E+08-1.65196E-04
 -1      1118 1.44881E-01 1.02535E-03 7.13170E-05 1.07845E+09-1.23039E+08-1.65196E-04
 -1      1127 1.51439E-01 4.35103E-05 1.61828E-02 4.12305E+07-1.85559E+08 3.46238E-02
 -1      1129 1.51439E-01 4.35103E-05 1.61828E-02 4.12305E+07-1.85559E+08 3.46238E-02
 -1      1130 1.55167E-01 2.89125E-03 1.33507E-04 9.66593E+08-1.66164E+08-3.53083E-05
 -1      1132 1.55167E-01 2.89125E-03 1.33507E-04 9.66593E+08-1.66164E+08-3.53083E-05
 -1      1141 1.58239E-01 4.85090E-04 2.80303E-02 3.41468E+07-2.40641E+08 2.95043E-02
 -1      1143 1.58239E-01 4.85090E-04 2.80303E-02 3.41468E+07-2.40641E+08 2.95043E-02
 -1      1144 1.58138E-01-1.87423E-03 1.13845E-04 8.07539E+08-2.08288E+08-6.05322E-05
 -1      1146 1.58138E-01-1.87423E-03 1.13845E-04 8.07539E+08-2.08288E+08-6.05322E-05
 -1      1155 1.57627E-01 7.21144E-04 3.42475E-02 2.87500E+07-2.71833E+08 1.58485E-02
 -1      1157 1.57627E-01 7.21144E-04 3.42475E-02 2.87500E+07-2.71833E+08 1.58485E-02
 -1      1158 1.52417E-01-4.30094E-03 9.24915E-05 5.57769E+08-2.35050E+08 1.40533E-04
 -1      1160 1.52417E-01-4.30094E-03 9.24915E-05 5.57769E+08-2.35050E+08 1.40533E-04
 -1      1169 1.46611E-01 7.85934E-04 1.83571E-02 2.51692E+07-3.03058E+08-3.52138E-03
 -1      1171 1.46611E-01 7.85934E-04 1.83571E-02 2.51692E+07-3.03058E+08-3.52138E-03
 -1      1172 1.38280E-01-1.70006E-03-1.44184E-04 2.85815E+08-2.65405E+08-2.40970E-05
 -1      1174 1.38280E-01-1.70006E-03-1.44184E-04 2.85815E+08-2.65405E+08-2.40970E-05
 -1      1183 1.33919E-01 6.13039E-04-5.12183E-03 1.65932E+07-3.20225E+08-6.19925E-03
 -1      1185 1.33919E-01 6.13039E-04-5.12183E-03 1.65932E+07-3.20225E+08-6.19925E-03
 -1      1186 1.30071E-01-4.77284E-05 7.96318E-05-1.49010E+07-2.80625E+08 1.57274E-04
 -1      1188 1.30071E-01-4.77284E-05 7.96318E-05-1.49010E+07-2.80625E+08 1.57274E-04
 -1      1197 1.30413E-01-3.17332E-05-6.64027E-03 1.23572E+07-3.28210E+08 3.31084E-03
 -1      1199 1.30413E-01-3.17332E-05-6.64027E-03 1.23572E+07-3.28210E+08 3.31084E-03
 -1      1200 1.32429E-01-1.30230E-03 1.69843E-04-2.87638E+08-2.94705E+08 4.67589E-04
 -1      1202 1.32429E-01-1.30230E-03 1.69843E-04-2.87638E+08-2.94705E+08 4.67589E-04
 -1      1211 1.25505E-01 1.09879E-05 4.62776E-03 3.29665E+06-3.25513E+08 1.42274E-03
 -1      1213 1.25505E-01 1.09879E-05 4.62776E-03 3.29665E+06-3.25513E+08 1.42274E-03
 -1      1214 1.29559E-01-3.75318E-03-1.56298E-04-5.12820E+08-2.96212E+08 5.36078E-04
 -1      1216 1.29559E-01-3.75318E-03-1.56298E-04-5.12820E+08-2.96212E+08 5.36078E-04
 -1      1225 1.11495E-01 5.90849E-04 9.85896E-04-2.35610E+06-3.12711E+08-1.03542E-02
 -1      1227 1.11495E-01 5.90849E-04 9.85896E-04-2.35610E+06-3.12711E+08-1.03542E-02
 -1      1228 1.18128E-01-5.04622E-03-3.49969E-04-6.57952E+08-2.93691E+08 4.90262E-04
 -1      1230 1.18128E-01-5.04622E-03-3.49969E-04-6.57952E+08-2.93691E+08 4.90262E-04
 -1      1239 1.02083E-01 9.50628E-04-1.73128E-02-1.11252E+07-2.92045E+08-1.80399E-02
 -1      1241 1.02083E-01 9.50628E-04-1.73128E-02-1.11252E+07-2.92045E+08-1.80399E-02
 -1      1242 1.12760E-01-3.01020E-03-1.63689E-04-7.09003E+08-2.81005E+08 5.32531E-04
 -1      1244 1.12760E-01-3.01020E-03-1.63689E-04-7.09003E+08-2.81005E+08 5.32531E-04
 -1      1253 1.01204E-01 7.41082E-04-3.50072E-02-1.75915E+07-2.64019E+08-1.81687E-02
 -1      1255 1.01204E-01 7.41082E-04-3.50072E-02-1.75915E+07-2.64019E+08-1.81687E-02
 -1      1256 1.13871E-01-2.73799E-03 2.07117E-04-6.61838E+08-2.63510E+08 3.03064E-04
 -1      1258 1.13871E-01-2.73799E-03 2.07117E-04-6.61838E+08-2.63510E+08 3.03064E-04
 -1      1267 9.87381E-02 3.05450E-04-3.98996E-02-2.55576E+07-2.31568E+08-1.81926E-02
 -1      1269 9.87381E-02 3.05450E-04-3.98996E-02-2.55576E+07-2.31568E+08-1.81926E-02
 -1      1270 1.08678E-01-6.39770E-03 2.42842E-04-5.25201E+08-2.38222E+08 3.17074E-04
 -1      1272 1.08678E-01-6.39770E-03 2.42842E-04-5.25201E+08-2.38222E+08 3.17074E-04
 -1      1281 8.82028E-02 6.16888E-04-3.70302E-02-3.17616E+07-1.95412E+08-2.59939E-02
 -1      1283 8.82028E-02 6.16888E-04-3.70302E-02-3.17616E+07-1.95412E+08-2.59939E-02
 -1      1284 9.34595E-02-5.41526E-03-5.30928E-05-3.21054E+08-2.08687E+08 2.15635E-04
 -1      1286 9.34595E-02-5.41526E-03-5.30928E-05-3.21054E+08-2.08687E+08 2.15635E-04
 -1      1295 7.03255E-02 5.38215E-04-3.98544E-02-3.82118E+07-1.57910E+08-2.91253E-02
 -1      1297 7.03255E-02 5.38215E-04-3.98544E-02-3.82118E+07-1.57910E+08-2.91253E-02
 -1      1298 7.28751E-02 4.90099E-04-9.58368E-05-7.87373E+07-1.73708E+08-3.26484E-05
 -1      1300 7.28751E-02 4.90099E-04-9.58368E-05-7.87373E+07-1.73708E+08-3.26484E-05
 -1      1309 5.08985E-02-4.93808E-04-3.77786E-02-4.29814E+07-1.19469E+08-1.66268E-02
 -1      1311 5.08985E-02-4.93808E-04-3.77786E-02-4.29814E+07-1.19469E+08-1.66268E-02
 -1      1312 5.04274E-02 2.29833E-03 1.18613E-05 1.66183E+08-1.35704E+08 1.96718E-04
 -1      1314 5.04274E-02 2.29833E-03 1.18613E-05 1.66183E+08-1.35704E+08 1.96718E-04
 -1      1323 3.21878E-02-4.73334E-04-2.34682E-02-4.71120E+07-8.13571E+07-4.31926E-03
 -1      1325 3.21878E-02-4.73334E-04-2.34682E-02-4.71120E+07-8.13571E+07-4.31926E-03
 -1      1326 2.94767E-02 3.69954E-03 1.93544E-04 3.79453E+08-9.44820E+07 7.48225E-05
 -1      1328 2.94767E-02 3.69954E-03 1.93544E-04 3.79453E+08-9.44820E+07 7.48225E-05
 -1      1337 1.98415E-02 2.71156E-04-1.12535E-02-4.94649E+07-4.33972E+07 6.50961E-04
 -1      1339 1.98415E-02 2.71156E-04-1.12535E-02-4.94649E+07-4.33972E+07 6.50961E-04
 -1      1340 1.73780E-02 9.69899E-03 1.87322E-04 5.30865E+08-5.16657E+07-2.00078E-04
 -1      1342 1.73780E-02 9.69899E-03 1.87322E-04 5.30865E+08-5.16657E+07-2.00078E-04
 -1      1351 1.84940E-02-3.99998E-04-3.28360E-03-5.06812E+07-5.87727E+06 3.83098E-03
 -1      1353 1.84940E-02-3.99998E-04-3.28360E-03-5.06812E+07-5.87727E+06 3.83098E-03
 -1      1354 1.54567E-02 1.07632E-02 9.55127E-05 6.00155E+08-7.68957E+06-1.75979E-04
 -1      1356 1.54567E-02 1.07632E-02 9.55127E-05 6.00155E+08-7.68957E+06-1.75979E-04
 -1      1365 2.12427E-02-6.58828E-04 1.77989E-03-5.00823E+07 3.17283E+07 1.42909E-03
 -1      1367 2.12427E-02-6.58828E-04 1.77989E-03-5.00823E+07 3.17283E+07 1.42909E-03
 -1      1368 1.58161E-02 4.95554E-03 1.72220E-05 5.78732E+08 3.64431E+07-1.23858E-04
 -1      1370 1.58161E-02 4.95554E-03 1.72220E-05 5.78732E+08 3.64431E+07-1.23858E-04
 -1      1379 2.40266E-02-2.88180E-04-9.83266E-03-4.82587E+07 6.94990E+07-3.21924E-03
 -1      1381 2.40266E-02-2.88180E-04-9.83266E-03-4.82587E+07 6.94990E+07-3.21924E-03
 -1      1382 1.77592E-02 3.92170E-03-2.15136E-04 4.71876E+08 7.97531E+07-1.17414E-04
 -1      1384 1.77592E-02 3.92170E-03-2.15136E-04 4.71876E+08 7.97531E+07-1.17414E-04
 -1      1393 2.82169E-02-9.33500E-04-3.19503E-02-4.47687E+07 1.07790E+08 3.56217E-03
 -1      1395 2.82169E-02-9.33500E-04-3.19503E-02-4.47687E+07 1.07790E+08 3.56217E-03
 -1      1396 2.36511E-02 5.64362E-03 3.94344E-04 2.97893E+08 1.21816E+08-1.32550E-04
 -1      1398 2.36511E-02 5.64362E-03 3.94344E-04 2.97893E+08 1.21816E+08-1.32550E-04
 -1      1407 3.05746E-02-7.97162E-04-3.41644E-02-4.03306E+07 1.46184E+08 1.91157E-02
 -1      1409 3.05746E-02-7.97162E-04-3.41644E-02-4.03306E+07 1.46184E+08 1.91157E-02
 -1      1410 2.71480E-02 1.36314E-03 4.14655E-04 8.56129E+07 1.60992E+08 1.11945E-06
 -1      1412 2.71480E-02 1.36314E-03 4.14655E-04 8.56129E+07 1.60992E+08 1.11945E-06
 -1      1421 2.69245E-02 2.70406E-04-1.63864E-02-3.45914E+07 1.84598E+08 2.15969E-02
 -1      1423 2.69245E-02 2.70406E-04-1.63864E-02-3.45914E+07 1.84598E+08 2.15969E-02
 -1      1424 2.37443E-02-3.05946E-03-4.37796E-05-1.27650E+08 1.97570E+08-1.63373E-04
 -1      1426 2.37443E-02-3.05946E-03-4.37796E-05-1.27650E+08 1.97570E+08-1.63373E-04
 -1      1435 1.78751E-02 5.80764E-04-8.01225E-03-2.83584E+07 2.21147E+08 9.05603E-03
 -1      1437 1.78751E-02 5.80764E-04-8.01225E-03-2.83584E+07 2.21147E+08 9.05603E-03
 -1      1438 1.55166E-02-3.28363E-03-6.06626E-05-3.03807E+08 2.29064E+08-3.25339E-04
 -1      1440 1.55166E-02-3.28363E-03-6.06626E-05-3.03807E+08 2.29064E+08-3.25339E-04
 -1      1449 7.04171E-03 1.96234E-04-1.49363E-02-2.14748E+07 2.55860E+08 4.10531E-03
 -1      1451 7.04171E-03 1.96234E-04-1.49363E-02-2.14748E+07 2.55860E+08 4.10531E-03
 -1      1452 6.36455E-03-2.57894E-03-3.06815E-04-4.02507E+08 2.56600E+08-2.26419E-04
 -1      1454 6.36455E-03-2.57894E-03-3.06815E-04-4.02507E+08 2.56600E+08-2.26419E-04
 -1      1463 6.22854E-04-6.71565E-04-1.79382E-02-1.42918E+07 2.84334E+08 9.49695E-03
 -1      1465 6.22854E-04-6.71565E-04-1.79382E-02-1.42918E+07 2.84334E+08 9.49695E-03
 -1      1466 7.31051E-05-9.58707E-04 3.41255E-05-3.93409E+08 2.77301E+08-3.29250E-05
 -1      1468 7.31051E-05-9.58707E-04 3.41255E-05-3.93409E+08 2.77301E+08-3.29250E-05
 -1      1477 8.11784E-04-8.10891E-04-9.42114E-03-7.72841E+06 3.05932E+08 9.62463E-03
 -1      1479 8.11784E-04-8.10891E-04-9.42114E-03-7.72841E+06 3.05932E+08 9.62463E-03
 -1      1480-2.35910E-03-3.74011E-03 6.30785E-05-2.50904E+08 2.90593E+08 5.32414E-06
 -1      1482-2.35910E-03-3.74011E-03 6.30785E-05-2.50904E+08 2.90593E+08 5.32414E-06
 -1      1491 7.70259E-03 1.14616E-04-1.84339E-02-5.85684E+06-1.28965E+08 2.63534E-04
 -1      1493 7.70259E-03 1.14616E-04-1.84339E-02-5.85684E+06-1.28965E+08 2.63534E-04
 -1      1494 5.38407E-03 2.86889E-04-1.85720E-02-7.61378E+06 1.35405E-03 3.18344E-04
 -1      1496 5.38407E-03 2.86889E-04-1.85720E-02-7.61378E+06 1.35405E-03 3.18344E-04
 -1      1497 3.37532E-03 1.52017E-04-9.86300E-03-5.85684E+06 1.28965E+08 2.94172E-03
 -1      1499 3.37532E-03 1.52017E-04-9.86300E-03-5.85684E+06 1.28965E+08 2.94172E-03
 -1      1500 5.55284E+09 1.77634E+08-1.02304E+06 5.82698E+08-1.26619E+07 2.34891E+08
 -1      1502 5.55284E+09 1.77634E+08-1.02304E+06 5.82698E+08-1.26619E+07 2.34891E+08
 -1      1503 3.45923E+09-1.01999E+08 3.33526E+06 4.39687E+08-1.76959E+07-4.83010E+06
 -1      1505 3.45923E+09-1.01999E+08 3.33526E+06 4.39687E+08-1.76959E+07-4.83010E+06
 -1      1506 1.43967E+09 1.53376E+07 3.84524E+05 5.13253E+08-1.15849E+07 1.08192E+08
 -1      1508 1.43967E+09 1.53376E+07 3.84524E+05 5.13253E+08-1.15849E+07 1.08192E+08
 -1      1509-5.02113E+08-3.78715E+07-6.88779E+05 4.26397E+08-2.07164E+07 4.54569E+07
 -1      1511-5.02113E+08-3.78715E+07-6.88779E+05 4.26397E+08-2.07164E+07 4.54569E+07
 -1      1512-2.15856E+09-2.80685E+07-1.52165E+05 3.62356E+08-2.12928E+07 6.55682E+07
 -1      1514-2.15856E+09-2.80685E+07-1.52165E+05 3.62356E+08-2.12928E+07 6.55682E+07
 -1      1515-3.44973E+09-3.78308E+07-2.56628E+06 2.54285E+08-2.54971E+07 4.36550E+07
 -1      1517-3.44973E+09-3.78308E+07-2.56628E+06 2.54285E+08-2.54971E+07 4.36550E+07
 -1      1518-4.24414E+09-3.92382E+07-1.05583E+06 1.24967E+08-2.73883E+07 4.00044E+07
 -1      1520-4.24414E+09-3.92382E+07-1.05583E+06 1.24967E+08-2.73883E+07 4.00044E+07
 -1      1521-4.50101E+09-4.52291E+07-2.88217E+06-5.14659E+06-2.85401E+07 2.62222E+07
 -1      1523-4.50101E+09-4.52291E+07-2.88217E+06-5.14659E+06-2.85401E+07 2.62222E+07
 -1      1524-4.21664E+09-4.46821E+07-1.14534E+06-1.31782E+08-2.93878E+07 1.59649E+07
 -1      1526-4.21664E+09-4.46821E+07-1.14534E+06-1.31782E+08-2.93878E+07 1.59649E+07
 -1      1527-3.46184E+09-4.87626E+07-2.00223E+06-2.31328E+08-2.84699E+07 3.32049E+06
 -1      1529-3.46184E+09-4.87626E+07-2.00223E+06-2.31328E+08-2.84699E+07 3.32049E+06
 -1      1530-2.35642E+09-4.66743E+07-2.90644E+05-2.97726E+08-2.77051E+07-8.73393E+06
 -1      1532-2.35642E+09-4.66743E+07-2.90644E+05-2.97726E+08-2.77051E+07-8.73393E+06
 -1      1533-1.06444E+09-4.76326E+07-4.65067E+05-3.20241E+08-2.53234E+07-2.09977E+07
 -1      1535-1.06444E+09-4.76326E+07-4.65067E+05-3.20241E+08-2.53234E+07-2.09977E+07
 -1      1536 2.33489E+08-4.41510E+07 9.60739E+05-2.98876E+08-2.32185E+07-3.28239E+07
 -1      1538 2.33489E+08-4.41510E+07 9.60739E+05-2.98876E+08-2.32185E+07-3.28239E+07
 -1      1539 1.36003E+09-4.18646E+07 9.69680E+05-2.37026E+08-1.99888E+07-4.39200E+07
 -1      1541 1.36003E+09-4.18646E+07 9.69680E+05-2.37026E+08-1.99888E+07-4.39200E+07
 -1      1542 2.16769E+09-3.66877E+07 1.84145E+06-1.44574E+08-1.71097E+07-5.40933E+07
 -1      1544 2.16769E+09-3.66877E+07 1.84145E+06-1.44574E+08-1.71097E+07-5.40933E+07
 -1      1545 2.55635E+09-3.16174E+07 1.61819E+06-3.50499E+07-1.35966E+07-6.28915E+07
 -1      1547 2.55635E+09-3.16174E+07 1.61819E+06-3.50499E+07-1.35966E+07-6.28915E+07
 -1      1548 2.48772E+09-2.47506E+07 1.81305E+06 7.57803E+07-1.04450E+07-7.02092E+07
 -1      1550 2.48772E+09-2.47506E+07 1.81305E+06 7.57803E+07-1.04450E+07-7.02092E+07
 -1      1551 1.98868E+09-1.76530E+07 1.20914E+06 1.72151E+08-7.00107E+06-7.56672E+07
 -1      1553 1.98868E+09-1.76530E+07 1.20914E+06 1.72151E+08-7.00107E+06-7.56672E+07
 -1      1554 1.14727E+09-9.61053E+06 8.53489E+05 2.40632E+08-3.82904E+06-7.92213E+07
 -1      1556 1.14727E+09-9.61053E+06 8.53489E+05 2.40632E+08-3.82904E+06-7.92213E+07
 -1      1557 9.87579E+07-1.47688E+06 2.19878E+04 2.71896E+08-5.39588E+05-8.06437E+07
 -1      1559 9.87579E+07-1.47688E+06 2.19878E+04 2.71896E+08-5.39588E+05-8.06437E+07
 -1      1560-9.94120E+08 6.84922E+06-5.42876E+05 2.62143E+08 2.63510E+06-7.99670E+07
 -1      1562-9.94120E+08 6.84922E+06-5.42876E+05 2.62143E+08 2.63510E+06-7.99670E+07
 -1      1563-1.96564E+09 1.48879E+07-1.26644E+06 2.13776E+08 5.84178E+06-7.71796E+07
 -1      1565-1.96564E+09 1.48879E+07-1.26644E+06 2.13776E+08 5.84178E+06-7.71796E+07
 -1      1566-2.67197E+09 2.25286E+07-1.64587E+06 1.34847E+08 9.04962E+06-7.23096E+07
 -1      1568-2.67197E+09 2.25286E+07-1.64587E+06 1.34847E+08 9.04962E+06-7.23096E+07
 -1      1569-3.01378E+09 2.93193E+07-1.95295E+06 3.88999E+07 1.21854E+07-6.57624E+07
 -1      1571-3.01378E+09 2.93193E+07-1.95295E+06 3.88999E+07 1.21854E+07-6.57624E+07
 -1      1572-2.95345E+09 3.56361E+07-1.90083E+06-5.82385E+07 1.52397E+07-5.70885E+07
 -1      1574-2.95345E+09 3.56361E+07-1.90083E+06-5.82385E+07 1.52397E+07-5.70885E+07
 -1      1575-2.52444E+09 4.00702E+07-1.70562E+06-1.37755E+08 1.80564E+07-4.80281E+07
 -1      1577-2.52444E+09 4.00702E+07-1.70562E+06-1.37755E+08 1.80564E+07-4.80281E+07
 -1      1578-1.83362E+09 4.49425E+07-1.25204E+06-1.83426E+08 2.03196E+07-3.56142E+07
 -1      1580-1.83362E+09 4.49425E+07-1.25204E+06-1.83426E+08 2.03196E+07-3.56142E+07
 -1      1581-1.05206E+09 4.67894E+07-7.95058E+05-1.80781E+08 2.22536E+07-2.69893E+07
 -1      1583-1.05206E+09 4.67894E+07-7.95058E+05-1.80781E+08 2.22536E+07-2.69893E+07
 -1      1584-4.09302E+08 4.80406E+07-1.96695E+05-1.13400E+08 2.28137E+07-8.19423E+06
 -1      1586-4.09302E+08 4.80406E+07-1.96695E+05-1.13400E+08 2.28137E+07-8.19423E+06
 -1      1587-9.78986E+07 8.06173E+07 3.77939E+05-1.01748E+08 1.60865E+08 8.26541E+06
 -1      1589-9.78986E+07 8.06173E+07 3.77939E+05-1.01748E+08 1.60865E+08 8.26541E+06
 -1      1590 4.40583E+09 6.58210E+08 2.03668E+06 1.02951E+09 8.50596E+07 3.03793E+08
 -1      1592 4.40583E+09 6.58210E+08 2.03668E+06 1.02951E+09 8.50596E+07 3.03793E+08
 -1      1593 9.78986E+07-8.06173E+07-3.77939E+05-1.01748E+08 1.60865E+08-8.26541E+06
 -1      1595 9.78986E+07-8.06173E+07-3.77939E+05-1.01748E+08 1.60865E+08-8.26541E+06
 -1      1596-5.55284E+09-1.77634E+08 1.02304E+06 5.82698E+08-1.26619E+07-2.34891E+08
 -1      1598-5.55284E+09-1.77634E+08 1.02304E+06 5.82698E+08-1.26619E+07-2.34891E+08
 -1      1599-3.45923E+09 1.01999E+08-3.33526E+06 4.39687E+08-1.76959E+07 4.83010E+06
 -1      1601-3.45923E+09 1.01999E+08-3.33526E+06 4.39687E+08-1.76959E+07 4.83010E+06
 -1      1602-1.43967E+09-1.53376E+07-3.84524E+05 5.13253E+08-1.15849E+07-1.08192E+08
 -1      1604-1.43967E+09-1.53376E+07-3.84524E+05 5.13253E+08-1.15849E+07-1.08192E+08
 -1      1605 5.02113E+08 3.78715E+07 6.88779E+05 4.26397E+08-2.07164E+07-4.54569E+07
 -1      1607 5.02113E+08 3.78715E+07 6.88779E+05 4.26397E+08-2.07164E+07-4.54569E+07
 -1      1608 2.15856E+09 2.80685E+07 1.52165E+05 3.62356E+08-2.12928E+07-6.55682E+07
 -1      1610 2.15856E+09 2.80685E+07 1.52165E+05 3.62356E+08-2.12928E+07-6.55682E+07
 -1      1611 3.44973E+09 3.78308E+07 2.56628E+06 2.54285E+08-2.54971E+07-4.36550E+07
 -1      1613 3.44973E+09 3.78308E+07 2.56628E+06 2.54285E+08-2.54971E+07-4.36550E+07
 -1      1614 4.24414E+09 3.92382E+07 1.05583E+06 1.24967E+08-2.73883E+07-4.00044E+07
 -1      1616 4.24414E+09 3.92382E+07 1.05583E+06 1.24967E+08-2.73883E+07-4.00044E+07
 -1      1617 4.50101E+09 4.52291E+07 2.88217E+06-5.14659E+06-2.85401E+07-2.62222E+07
 -1      1619 4.50101E+09 4.52291E+07 2.88217E+06-5.14659E+06-2.85401E+07-2.62222E+07
 -1      1620 4.21664E+09 4.46821E+07 1.14534E+06-1.31782E+08-2.93878E+07-1.59649E+07
 -1      1622 4.21664E+09 4.46821E+07 1.14534E+06-1.31782E+08-2.93878E+07-1.59649E+07
 -1      1623 3.46184E+09 4.87626E+07 2.00223E+06-2.31328E+08-2.84699E+07-3.32049E+06
 -1      1625 3.46184E+09 4.87626E+07 2.00223E+06-2.31328E+08-2.84699E+07-3.32049E+06
 -1      1626 2.35642E+09 4.66743E+07 2.90644E+05-2.97726E+08-2.77051E+07 8.73393E+06
 -1      1628 2.35642E+09 4.66743E+07 2.90644E+05-2.97726E+08-2.77051E+07 8.73393E+06
 -1      1629 1.06444E+09 4.76326E+07 4.65067E+05-3.20241E+08-2.53234E+07 2.09977E+07
 -1      1631 1.06444E+09 4.76326E+07 4.65067E+05-3.20241E+08-2.53234E+07 2.09977E+07
 -1      1632-2.33489E+08 4.41510E+07-9.60739E+05-2.98876E+08-2.32185E+07 3.28239E+07
 -1      1634-2.33489E+08 4.41510E+07-9.60739E+05-2.98876E+08-2.32185E+07 3.28239E+07
 -1      1635-1.36003E+09 4.18646E+07-9.69680E+05-2.37026E+08-1.99888E+07 4.39200E+07
 -1      1637-1.36003E+09 4.18646E+07-9.69680E+05-2.37026E+08-1.99888E+07 4.39200E+07
 -1      1638-2.16769E+09 3.66877E+07-1.84145E+06-1.44574E+08-1.71097E+07 5.40933E+07
 -1      1640-2.16769E+09 3.66877E+07-1.84145E+06-1.44574E+08-1.71097E+07 5.40933E+07
 -1      1641-2.55635E+09 3.16174E+07-1.61819E+06-3.50499E+07-1.35966E+07 6.28915E+07
 -1      1643-2.55635E+09 3.16174E+07-1.61819E+06-3.50499E+07-1.35966E+07 6.28915E+07
 -1      1644-2.48772E+09 2.47506E+07-1.81305E+06 7.57803E+07-1.04450E+07 7.02092E+07
 -1      1646-2.48772E+09 2.47506E+07-1.81305E+06 7.57803E+07-1.04450E+07 7.02092E+07
 -1      1647-1.98868E+09 1.76530E+07-1.20914E+06 1.72151E+08-7.00107E+06 7.56672E+07
 -1      1649-1.98868E+09 1.76530E+07-1.20914E+06 1.72151E+08-7.00107E+06 7.56672E+07
 -1      1650-1.14727E+09 9.61053E+06-8.53489E+05 2.40632E+08-3.82904E+06 7.92213E+07
 -1      1652-1.14727E+09 9.61053E+06-8.53489E+05 2.40632E+08-3.82904E+06 7.92213E+07
 -1      1653-9.87579E+07 1.47688E+06-2.19878E+04 2.71896E+08-5.39588E+05 8.06437E+07
 -1      1655-9.87579E+07 1.47688E+06-2.19878E+04 2.71896E+08-5.39588E+05 8.06437E+07
 -1      1656 9.94120E+08-6.84922E+06 5.42876E+05 2.62143E+08 2.63510E+06 7.99670E+07
 -1      1658 9.94120E+08-6.84922E+06 5.42876E+05 2.62143E+08 2.63510E+06 7.99670E+07
 -1      1659 1.96564E+09-1.48879E+07 1.26644E+06 2.13776E+08 5.84178E+06 7.71796E+07
 -1      1661 1.96564E+09-1.48879E+07 1.26644E+06 2.13776E+08 5.84178E+06 7.71796E+07
 -1      1662 2.67197E+09-2.25286E+07 1.64587E+06 1.34847E+08 9.04962E+06 7.23096E+07
 -1      1664 2.67197E+09-2.25286E+07 1.64587E+06 1.34847E+08 9.04962E+06 7.23096E+07
 -1      1665 3.01378E+09-2.93193E+07 1.95295E+06 3.88999E+07 1.21854E+07 6.57624E+07
 -1      1667 3.01378E+09-2.93193E+07 1.95295E+06 3.88999E+07 1.21854E+07 6.57624E+07
 -1      1668 2.95345E+09-3.56361E+07 1.90083E+06-5.82385E+07 1.52397E+07 5.70885E+07
 -1      1670 2.95345E+09-3.56361E+07 1.90083E+06-5.82385E+07 1.52397E+07 5.70885E+07
 -1      1671 2.52444E+09-4.00702E+07 1.70562E+06-1.37755E+08 1.80564E+07 4.80281E+07
 -1      1673 2.52444E+09-4.00702E+07 1.70562E+06-1.37755E+08 1.80564E+07 4.80281E+07
 -1      1674 1.83362E+09-4.49425E+07 1.25204E+06-1.83426E+08 2.03196E+07 3.56142E+07
 -1      1676 1.83362E+09-4.49425E+07 1.25204E+06-1.83426E+08 2.03196E+07 3.56142E+07
 -1      1677 1.05206E+09-4.67894E+07 7.95058E+05-1.80781E+08 2.22536E+07 2.69893E+07
 -1      1679 1.05206E+09-4.67894E+07 7.95058E+05-1.80781E+08 2.22536E+07 2.69893E+07
 -1      1680 4.09302E+08-4.80406E+07 1.96695E+05-1.13400E+08 2.28137E+07 8.19423E+06
 -1      1682 4.09302E+08-4.80406E+07 1.96695E+05-1.13400E+08 2.28137E+07 8.19423E+06
 -1      1683-4.40583E+09-6.58210E+08-2.03668E+06 1.02951E+09 8.50596E+07-3.03793E+08
 -1      1685-4.40583E+09-6.58210E+08-2.03668E+06 1.02951E+09 8.50596E+07-3.03793E+08
 -1      1686-3.71801E+09-2.11450E+08-8.83223E+05 8.57428E+08-1.99947E+07 7.82596E+07
 -1      1688-3.71801E+09-2.11450E+08-8.83223E+05 8.57428E+08-1.99947E+07 7.82596E+07
 -1      1689-2.31426E+09 1.23610E+08 1.34585E+06 7.77662E+08 5.60642E+07-4.24292E+07
 -1      1691-2.31426E+09 1.23610E+08 1.34585E+06 7.77662E+08 5.60642E+07-4.24292E+07
 -1      1692-9.42767E+08 4.76043E+06-6.12266E+05 7.95850E+08 6.73118E+07 1.54775E+07
 -1      1694-9.42767E+08 4.76043E+06-6.12266E+05 7.95850E+08 6.73118E+07 1.54775E+07
 -1      1695 3.27375E+08 4.46559E+07 3.44874E+05 6.96495E+08 9.34404E+07-1.11895E+07
 -1      1697 3.27375E+08 4.46559E+07 3.44874E+05 6.96495E+08 9.34404E+07-1.11895E+07
 -1      1698 1.44128E+09 5.44672E+07 3.64395E+05 5.84948E+08 1.14791E+08 1.34208E+06
 -1      1700 1.44128E+09 5.44672E+07 3.64395E+05 5.84948E+08 1.14791E+08 1.34208E+06
 -1      1701 2.29422E+09 4.74204E+07-1.14064E+05 4.06027E+08 1.30274E+08-3.43882E+06
 -1      1703 2.29422E+09 4.74204E+07-1.14064E+05 4.06027E+08 1.30274E+08-3.43882E+06
 -1      1704 2.82573E+09 6.49486E+07 6.25844E+05 2.05391E+08 1.46397E+08-6.78295E+05
 -1      1706 2.82573E+09 6.49486E+07 6.25844E+05 2.05391E+08 1.46397E+08-6.78295E+05
 -1      1707 2.99749E+09 6.38655E+07-7.65955E+04-1.00238E+07 1.54582E+08-8.25834E+05
 -1      1709 2.99749E+09 6.38655E+07-7.65955E+04-1.00238E+07 1.54582E+08-8.25834E+05
 -1      1710 2.81183E+09 7.56912E+07 5.85073E+05-2.09710E+08 1.62046E+08 5.15527E+04
 -1      1712 2.81183E+09 7.56912E+07 5.85073E+05-2.09710E+08 1.62046E+08 5.15527E+04
 -1      1713 2.31355E+09 8.07444E+07 7.98612E+04-3.72074E+08 1.62341E+08 6.68292E+05
 -1      1715 2.31355E+09 8.07444E+07 7.98612E+04-3.72074E+08 1.62341E+08 6.68292E+05
 -1      1716 1.58318E+09 8.86449E+07 4.90892E+05-4.77839E+08 1.60698E+08 1.13251E+06
 -1      1718 1.58318E+09 8.86449E+07 4.90892E+05-4.77839E+08 1.60698E+08 1.13251E+06
 -1      1719 7.28196E+08 9.34614E+07 2.02459E+05-5.14622E+08 1.53164E+08 1.65010E+06
 -1      1721 7.28196E+08 9.34614E+07 2.02459E+05-5.14622E+08 1.53164E+08 1.65010E+06
 -1      1722-1.30968E+08 9.62331E+07 4.01479E+05-4.80357E+08 1.43364E+08 1.88123E+06
 -1      1724-1.30968E+08 9.62331E+07 4.01479E+05-4.80357E+08 1.43364E+08 1.88123E+06
 -1      1725-8.77837E+08 9.53920E+07 2.53123E+05-3.81114E+08 1.29105E+08 2.13469E+06
 -1      1727-8.77837E+08 9.53920E+07 2.53123E+05-3.81114E+08 1.29105E+08 2.13469E+06
 -1      1728-1.41413E+09 9.02503E+07 3.08294E+05-2.32814E+08 1.12898E+08 2.16464E+06
 -1      1730-1.41413E+09 9.02503E+07 3.08294E+05-2.32814E+08 1.12898E+08 2.16464E+06
 -1      1731-1.67411E+09 8.06730E+07 2.31039E+05-5.68936E+07 9.36523E+07 2.20528E+06
 -1      1733-1.67411E+09 8.06730E+07 2.31039E+05-5.68936E+07 9.36523E+07 2.20528E+06
 -1      1734-1.63195E+09 6.64851E+07 1.96218E+05 1.20981E+08 7.30746E+07 2.12080E+06
 -1      1736-1.63195E+09 6.64851E+07 1.96218E+05 1.20981E+08 7.30746E+07 2.12080E+06
 -1      1737-1.30563E+09 4.84652E+07 1.49949E+05 2.75802E+08 5.07415E+07 2.07833E+06
 -1      1739-1.30563E+09 4.84652E+07 1.49949E+05 2.75802E+08 5.07415E+07 2.07833E+06
 -1      1740-7.53020E+08 2.73633E+07 6.32563E+04 3.85748E+08 2.77474E+07 1.99412E+06
 -1      1742-7.53020E+08 2.73633E+07 6.32563E+04 3.85748E+08 2.77474E+07 1.99412E+06
 -1      1743-6.35822E+07 4.63632E+06 3.35201E+04 4.36025E+08 4.11458E+06 1.98497E+06
 -1      1745-6.35822E+07 4.63632E+06 3.35201E+04 4.36025E+08 4.11458E+06 1.98497E+06
 -1      1746 6.55339E+08-1.84154E+07-7.77125E+04 4.20438E+08-1.95391E+07 1.97227E+06
 -1      1748 6.55339E+08-1.84154E+07-7.77125E+04 4.20438E+08-1.95391E+07 1.97227E+06
 -1      1749 1.29424E+09-4.00581E+07-8.89393E+04 3.42826E+08-4.27974E+07 2.02660E+06
 -1      1751 1.29424E+09-4.00581E+07-8.89393E+04 3.42826E+08-4.27974E+07 2.02660E+06
 -1      1752 1.75827E+09-5.92827E+07-2.05183E+05 2.16370E+08-6.54328E+07 2.07620E+06
 -1      1754 1.75827E+09-5.92827E+07-2.05183E+05 2.16370E+08-6.54328E+07 2.07620E+06
 -1      1755 1.98187E+09-7.42614E+07-1.90770E+05 6.22564E+07-8.65888E+07 2.08862E+06
 -1      1757 1.98187E+09-7.42614E+07-1.90770E+05 6.22564E+07-8.65888E+07 2.08862E+06
 -1      1758 1.94051E+09-8.56029E+07-2.96026E+05-9.29443E+07-1.06405E+08 2.17670E+06
 -1      1760 1.94051E+09-8.56029E+07-2.96026E+05-9.29443E+07-1.06405E+08 2.17670E+06
 -1      1761 1.65655E+09-9.05703E+07-2.60313E+05-2.20781E+08-1.23560E+08 1.80484E+06
 -1      1763 1.65655E+09-9.05703E+07-2.60313E+05-2.20781E+08-1.23560E+08 1.80484E+06
 -1      1764 1.20067E+09-9.31026E+07-3.24446E+05-2.92966E+08-1.38460E+08 2.22492E+06
 -1      1766 1.20067E+09-9.31026E+07-3.24446E+05-2.92966E+08-1.38460E+08 2.22492E+06
 -1      1767 6.88112E+08-8.87585E+07-3.17210E+05-2.87095E+08-1.49777E+08 3.65021E+05
 -1      1769 6.88112E+08-8.87585E+07-3.17210E+05-2.87095E+08-1.49777E+08 3.65021E+05
 -1      1770 2.66249E+08-8.11285E+07-2.51127E+05-1.82152E+08-1.56703E+08 2.95693E+06
 -1      1772 2.66249E+08-8.11285E+07-2.51127E+05-1.82152E+08-1.56703E+08 2.95693E+06
 -1      1773 3.71801E+09 2.11450E+08 8.83223E+05 8.57428E+08-1.99947E+07-7.82596E+07
 -1      1775 3.71801E+09 2.11450E+08 8.83223E+05 8.57428E+08-1.99947E+07-7.82596E+07
 -1      1776 2.31426E+09-1.23610E+08-1.34585E+06 7.77662E+08 5.60642E+07 4.24292E+07
 -1      1778 2.31426E+09-1.23610E+08-1.34585E+06 7.77662E+08 5.60642E+07 4.24292E+07
 -1      1779 9.42767E+08-4.76043E+06 6.12266E+05 7.95850E+08 6.73118E+07-1.54775E+07
 -1      1781 9.42767E+08-4.76043E+06 6.12266E+05 7.95850E+08 6.73118E+07-1.54775E+07
 -1      1782-3.27375E+08-4.46559E+07-3.44874E+05 6.96495E+08 9.34404E+07 1.11895E+07
 -1      1784-3.27375E+08-4.46559E+07-3.44874E+05 6.96495E+08 9.34404E+07 1.11895E+07
 -1      1785-1.44128E+09-5.44672E+07-3.64395E+05 5.84948E+08 1.14791E+08-1.34208E+06
 -1      1787-1.44128E+09-5.44672E+07-3.64395E+05 5.84948E+08 1.14791E+08-1.34208E+06
 -1      1788-2.29422E+09-4.74204E+07 1.14064E+05 4.06027E+08 1.30274E+08 3.43882E+06
 -1      1790-2.29422E+09-4.74204E+07 1.14064E+05 4.06027E+08 1.30274E+08 3.43882E+06
 -1      1791-2.82573E+09-6.49486E+07-6.25844E+05 2.05391E+08 1.46397E+08 6.78295E+05
 -1      1793-2.82573E+09-6.49486E+07-6.25844E+05 2.05391E+08 1.46397E+08 6.78295E+05
 -1      1794-2.99749E+09-6.38655E+07 7.65955E+04-1.00238E+07 1.54582E+08 8.25834E+05
 -1      1796-2.99749E+09-6.38655E+07 7.65955E+04-1.00238E+07 1.54582E+08 8.25834E+05
 -1      1797-2.81183E+09-7.56912E+07-5.85073E+05-2.09710E+08 1.62046E+08-5.15527E+04
 -1      1799-2.81183E+09-7.56912E+07-5.85073E+05-2.09710E+08 1.62046E+08-5.15527E+04
 -1      1800-2.31355E+09-8.07444E+07-7.98612E+04-3.72074E+08 1.62341E+08-6.68292E+05
 -1      1802-2.31355E+09-8.07444E+07-7.98612E+04-3.72074E+08 1.62341E+08-6.68292E+05
 -1      1803-1.58318E+09-8.86449E+07-4.90892E+05-4.77839E+08 1.60698E+08-1.13251E+06
 -1      1805-1.58318E+09-8.86449E+07-4.90892E+05-4.77839E+08 1.60698E+08-1.13251E+06
 -1      1806-7.28196E+08-9.34614E+07-2.02459E+05-5.14622E+08 1.53164E+08-1.65010E+06
 -1      1808-7.28196E+08-9.34614E+07-2.02459E+05-5.14622E+08 1.53164E+08-1.65010E+06
 -1      1809 1.30968E+08-9.62331E+07-4.01479E+05-4.80357E+08 1.43364E+08-1.88123E+06
 -1      1811 1.30968E+08-9.62331E+07-4.01479E+05-4.80357E+08 1.43364E+08-1.88123E+06
 -1      1812 8.77837E+08-9.53920E+07-2.53123E+05-3.81114E+08 1.29105E+08-2.13469E+06
 -1      1814 8.77837E+08-9.53920E+07-2.53123E+05-3.81114E+08 1.29105E+08-2.13469E+06
 -1      1815 1.41413E+09-9.02503E+07-3.08294E+05-2.32814E+08 1.12898E+08-2.16464E+06
 -1      1817 1.41413E+09-9.02503E+07-3.08294E+05-2.32814E+08 1.12898E+08-2.16464E+06
 -1      1818 1.67411E+09-8.06730E+07-2.31039E+05-5.68936E+07 9.36523E+07-2.20528E+06
 -1      1820 1.67411E+09-8.06730E+07-2.31039E+05-5.68936E+07 9.36523E+07-2.20528E+06
 -1      1821 1.63195E+09-6.64851E+07-1.96218E+05 1.20981E+08 7.30746E+07-2.12080E+06
 -1      1823 1.63195E+09-6.64851E+07-1.96218E+05 1.20981E+08 7.30746E+07-2.12080E+06
 -1      1824 1.30563E+09-4.84652E+07-1.49949E+05 2.75802E+08 5.07415E+07-2.07833E+06
 -1      1826 1.30563E+09-4.84652E+07-1.49949E+05 2.75802E+08 5.07415E+07-2.07833E+06
 -1      1827 7.53020E+08-2.73633E+07-6.32563E+04 3.85748E+08 2.77474E+07-1.99412E+06
 -1      1829 7.53020E+08-2.73633E+07-6.32563E+04 3.85748E+08 2.77474E+07-1.99412E+06
 -1      1830 6.35822E+07-4.63632E+06-3.35201E+04 4.36025E+08 4.11458E+06-1.98497E+06
 -1      1832 6.35822E+07-4.63632E+06-3.35201E+04 4.36025E+08 4.11458E+06-1.98497E+06
 -1      1833-6.55339E+08 1.84154E+07 7.77125E+04 4.20438E+08-1.95391E+07-1.97227E+06
 -1      1835-6.55339E+08 1.84154E+07 7.77125E+04 4.20438E+08-1.95391E+07-1.97227E+06
 -1      1836-1.29424E+09 4.00581E+07 8.89393E+04 3.42826E+08-4.27974E+07-2.02660E+06
 -1      1838-1.29424E+09 4.00581E+07 8.89393E+04 3.42826E+08-4.27974E+07-2.02660E+06
 -1      1839-1.75827E+09 5.92827E+07 2.05183E+05 2.16370E+08-6.54328E+07-2.07620E+06
 -1      1841-1.75827E+09 5.92827E+07 2.05183E+05 2.16370E+08-6.54328E+07-2.07620E+06
 -1      1842-1.98187E+09 7.42614E+07 1.90770E+05 6.22564E+07-8.65888E+07-2.08862E+06
 -1      1844-1.98187E+09 7.42614E+07 1.90770E+05 6.22564E+07-8.65888E+07-2.08862E+06
 -1      1845-1.94051E+09 8.56029E+07 2.96026E+05-9.29443E+07-1.06405E+08-2.17670E+06
 -1      1847-1.94051E+09 8.56029E+07 2.96026E+05-9.29443E+07-1.06405E+08-2.17670E+06
 -1      1848-1.65655E+09 9.05703E+07 2.60313E+05-2.20781E+08-1.23560E+08-1.80484E+06
 -1      1850-1.65655E+09 9.05703E+07 2.60313E+05-2.20781E+08-1.23560E+08-1.80484E+06
 -1      1851-1.20067E+09 9.31026E+07 3.24446E+05-2.92966E+08-1.38460E+08-2.22492E+06
 -1      1853-1.20067E+09 9.31026E+07 3.24446E+05-2.92966E+08-1.38460E+08-2.22492E+06
 -1      1854-6.88112E+08 8.87585E+07 3.17210E+05-2.87095E+08-1.49777E+08-3.65021E+05
 -1      1856-6.88112E+08 8.87585E+07 3.17210E+05-2.87095E+08-1.49777E+08-3.65021E+05
 -1      1857-2.66249E+08 8.11285E+07 2.51127E+05-1.82152E+08-1.56703E+08-2.95693E+06
 -1      1859-2.66249E+08 8.11285E+07 2.51127E+05-1.82152E+08-1.56703E+08-2.95693E+06
 -1      1860 1.34381E-01 1.98382E-04-1.01443E-05-6.71152E+07 2.06972E+07 4.74714E-02
 -1      1862 1.34381E-01 1.98382E-04-1.01443E-05-6.71152E+07 2.06972E+07 4.74714E-02
 -1      1863 1.36399E-01 2.68169E-04-1.88931E-02 4.39917E+07 4.15057E+07 4.02887E-02
 -1      1865 1.36399E-01 2.68169E-04-1.88931E-02 4.39917E+07 4.15057E+07 4.02887E-02
 -1      1866 1.36456E-01-3.20978E-05-6.21452E-03-2.10287E+07 6.49361E+07 3.29386E-02
 -1      1868 1.36456E-01-3.20978E-05-6.21452E-03-2.10287E+07 6.49361E+07 3.29386E-02
 -1      1869 1.31787E-01-4.36658E-05 1.47172E-02 1.54477E+07 8.46844E+07 3.05347E-02
 -1      1871 1.31787E-01-4.36658E-05 1.47172E-02 1.54477E+07 8.46844E+07 3.05347E-02
 -1      1872 1.20356E-01 1.47221E-04 1.56899E-02-4.52927E+06 1.04036E+08 3.19965E-02
 -1      1874 1.20356E-01 1.47221E-04 1.56899E-02-4.52927E+06 1.04036E+08 3.19965E-02
 -1      1875 1.09975E-01 3.83863E-04-5.41157E-03 4.52861E+06 1.18865E+08 2.96897E-02
 -1      1877 1.09975E-01 3.83863E-04-5.41157E-03 4.52861E+06 1.18865E+08 2.96897E-02
 -1      1878 1.08424E-01 4.54232E-04-2.69017E-02-8.40974E+05 1.31123E+08 1.74765E-02
 -1      1880 1.08424E-01 4.54232E-04-2.69017E-02-8.40974E+05 1.31123E+08 1.74765E-02
 -1      1881 1.12758E-01-1.72312E-04-2.47370E-02 2.17537E+04 1.38786E+08 3.85570E-03
 -1      1883 1.12758E-01-1.72312E-04-2.47370E-02 2.17537E+04 1.38786E+08 3.85570E-03
 -1      1884 1.14358E-01-4.00645E-04-6.81428E-03-1.36034E+06 1.42497E+08 3.52222E-03
 -1      1886 1.14358E-01-4.00645E-04-6.81428E-03-1.36034E+06 1.42497E+08 3.52222E-03
 -1      1887 1.08391E-01-3.55649E-04-3.88294E-03-2.07199E+06 1.42007E+08 1.21951E-02
 -1      1889 1.08391E-01-3.55649E-04-3.88294E-03-2.07199E+06 1.42007E+08 1.21951E-02
 -1      1890 1.00326E-01-1.04715E-04-2.11328E-02-2.23079E+06 1.37460E+08 9.14728E-03
 -1      1892 1.00326E-01-1.04715E-04-2.11328E-02-2.23079E+06 1.37460E+08 9.14728E-03
 -1      1893 9.58593E-02 2.94854E-04-3.70950E-02-2.54412E+06 1.29581E+08-5.27424E-03
 -1      1895 9.58593E-02 2.94854E-04-3.70950E-02-2.54412E+06 1.29581E+08-5.27424E-03
 -1      1896 9.13692E-02 4.67081E-04-3.87725E-02-1.99242E+06 1.18489E+08-1.96913E-02
 -1      1898 9.13692E-02 4.67081E-04-3.87725E-02-1.99242E+06 1.18489E+08-1.96913E-02
 -1      1899 8.71838E-02 5.91016E-04-3.25129E-02-1.55833E+06 1.05245E+08-3.06993E-02
 -1      1901 8.71838E-02 5.91016E-04-3.25129E-02-1.55833E+06 1.05245E+08-3.06993E-02
 -1      1902 8.91077E-02 2.48020E-04-3.15728E-02-5.38546E+05 8.99993E+07-3.56951E-02
 -1      1904 8.91077E-02 2.48020E-04-3.15728E-02-5.38546E+05 8.99993E+07-3.56951E-02
 -1      1905 9.23620E-02-6.37921E-05-3.62393E-02 3.39004E+05 7.37219E+07-3.44006E-02
 -1      1907 9.23620E-02-6.37921E-05-3.62393E-02 3.39004E+05 7.37219E+07-3.44006E-02
 -1      1908 8.91288E-02 3.73996E-04-3.41874E-02 1.40847E+06 5.64968E+07-2.83882E-02
 -1      1910 8.91288E-02 3.73996E-04-3.41874E-02 1.40847E+06 5.64968E+07-2.83882E-02
 -1      1911 8.43104E-02-1.53631E-04-2.19694E-02 2.18824E+06 3.89935E+07-1.69850E-02
 -1      1913 8.43104E-02-1.53631E-04-2.19694E-02 2.18824E+06 3.89935E+07-1.69850E-02
 -1      1914 8.67698E-02-6.17532E-04-9.40048E-03 2.83045E+06 2.11689E+07-2.55550E-03
 -1      1916 8.67698E-02-6.17532E-04-9.40048E-03 2.83045E+06 2.11689E+07-2.55550E-03
 -1      1917 9.45187E-02-2.72573E-05-3.60485E-03 3.05346E+06 3.40477E+06 5.01008E-03
 -1      1919 9.45187E-02-2.72573E-05-3.60485E-03 3.05346E+06 3.40477E+06 5.01008E-03
 -1      1920 9.80698E-02 9.16668E-05-1.50641E-03 2.98539E+06-1.44081E+07 4.47438E-03
 -1      1922 9.80698E-02 9.16668E-05-1.50641E-03 2.98539E+06-1.44081E+07 4.47438E-03
 -1      1923 9.42713E-02-1.33541E-04-4.42546E-03 2.51601E+06-3.19954E+07 7.10939E-03
 -1      1925 9.42713E-02-1.33541E-04-4.42546E-03 2.51601E+06-3.19954E+07 7.10939E-03
 -1      1926 8.62036E-02-3.24986E-04-1.80192E-02 1.80459E+06-4.93950E+07 1.35982E-02
 -1      1928 8.62036E-02-3.24986E-04-1.80192E-02 1.80459E+06-4.93950E+07 1.35982E-02
 -1      1929 7.21411E-02-6.69547E-04-3.41696E-02 9.21990E+05-6.61939E+07 1.68627E-02
 -1      1931 7.21411E-02-6.69547E-04-3.41696E-02 9.21990E+05-6.61939E+07 1.68627E-02
 -1      1932 5.35623E-02-6.88247E-04-4.16830E-02-8.64568E+04-8.22524E+07 1.51805E-02
 -1      1934 5.35623E-02-6.88247E-04-4.16830E-02-8.64568E+04-8.22524E+07 1.51805E-02
 -1      1935 3.82970E-02-5.23944E-04-4.32493E-02-7.26729E+05-9.68470E+07 1.05827E-02
 -1      1937 3.82970E-02-5.23944E-04-4.32493E-02-7.26729E+05-9.68470E+07 1.05827E-02
 -1      1938 2.81129E-02-3.76196E-04-4.42106E-02-1.76878E+06-1.09644E+08 8.05478E-03
 -1      1940 2.81129E-02-3.76196E-04-4.42106E-02-1.76878E+06-1.09644E+08 8.05478E-03
 -1      1941 2.09152E-02-4.06368E-04-4.00277E-02-1.11007E+06-1.19691E+08 6.13069E-03
 -1      1943 2.09152E-02-4.06368E-04-4.00277E-02-1.11007E+06-1.19691E+08 6.13069E-03
 -1      1944 1.27958E-02-3.04760E-04-2.69456E-02-2.69511E+06-1.26427E+08 2.23288E-03
 -1      1946 1.27958E-02-3.04760E-04-2.69456E-02-2.69511E+06-1.26427E+08 2.23288E-03
 -1      1947 1.36866E-01 1.47941E-04 3.73889E-03-1.63835E+08-3.30454E-04 3.93995E-02
 -1      1949 1.36866E-01 1.47941E-04 3.73889E-03-1.63835E+08-3.30454E-04 3.93995E-02
 -1      1950 1.42703E-01 1.36272E-04-8.50016E-03 3.23237E+07-8.87332E-04 4.31297E-02
 -1      1952 1.42703E-01 1.36272E-04-8.50016E-03 3.23237E+07-8.87332E-04 4.31297E-02
 -1      1953 1.40133E-01-5.55556E-05 2.17327E-03-7.81555E+07-1.09428E-03 4.02686E-02
 -1      1955 1.40133E-01-5.55556E-05 2.17327E-03-7.81555E+07-1.09428E-03 4.02686E-02
 -1      1956 1.36302E-01-2.23546E-04 1.75094E-02-1.03351E+07-1.07802E-03 3.34473E-02
 -1      1958 1.36302E-01-2.23546E-04 1.75094E-02-1.03351E+07-1.07802E-03 3.34473E-02
 -1      1959 1.31177E-01-4.01898E-04 1.93198E-02-4.32054E+07-9.43796E-04 2.86463E-02
 -1      1961 1.31177E-01-4.01898E-04 1.93198E-02-4.32054E+07-9.43796E-04 2.86463E-02
 -1      1962 1.28701E-01-2.70248E-04 6.12847E-03-1.96927E+07-7.07285E-04 2.02432E-02
 -1      1964 1.28701E-01-2.70248E-04 6.12847E-03-1.96927E+07-7.07285E-04 2.02432E-02
 -1      1965 1.29977E-01 9.77858E-05-1.19120E-02-2.68511E+07-4.56207E-04 7.57698E-03
 -1      1967 1.29977E-01 9.77858E-05-1.19120E-02-2.68511E+07-4.56207E-04 7.57698E-03
 -1      1968 1.26913E-01-2.67400E-04-1.84587E-02-1.65496E+07-4.39392E-04 1.10419E-03
 -1      1970 1.26913E-01-2.67400E-04-1.84587E-02-1.65496E+07-4.39392E-04 1.10419E-03
 -1      1971 1.18184E-01-7.94267E-04-8.37669E-03-1.50779E+07-6.27702E-04 4.24610E-03
 -1      1973 1.18184E-01-7.94267E-04-8.37669E-03-1.50779E+07-6.27702E-04 4.24610E-03
 -1      1974 1.08446E-01-3.77642E-04-1.25285E-03-7.44062E+06-6.98322E-04 8.27898E-03
 -1      1976 1.08446E-01-3.77642E-04-1.25285E-03-7.44062E+06-6.98322E-04 8.27898E-03
 -1      1977 1.00658E-01 7.47895E-04-1.12791E-02-2.10548E+06-3.92314E-04 2.08308E-03
 -1      1979 1.00658E-01 7.47895E-04-1.12791E-02-2.10548E+06-3.92314E-04 2.08308E-03
 -1      1980 9.65170E-02 9.43821E-04-2.77012E-02 6.03694E+06 2.02883E-04-9.98111E-03
 -1      1982 9.65170E-02 9.43821E-04-2.77012E-02 6.03694E+06 2.02883E-04-9.98111E-03
 -1      1983 9.26284E-02 4.24559E-04-3.66568E-02 1.36066E+07 6.83747E-04-1.87705E-02
 -1      1985 9.26284E-02 4.24559E-04-3.66568E-02 1.36066E+07 6.83747E-04-1.87705E-02
 -1      1986 8.70508E-02 3.51216E-04-3.69970E-02 2.24409E+07 9.81347E-04-2.56320E-02
 -1      1988 8.70508E-02 3.51216E-04-3.69970E-02 2.24409E+07 9.81347E-04-2.56320E-02
 -1      1989 8.50283E-02 5.32532E-04-3.69346E-02 3.06845E+07 1.14500E-03-3.04210E-02
 -1      1991 8.50283E-02 5.32532E-04-3.69346E-02 3.06845E+07 1.14500E-03-3.04210E-02
 -1      1992 8.65156E-02 6.13761E-04-4.06381E-02 3.88898E+07 1.04188E-03-2.80888E-02
 -1      1994 8.65156E-02 6.13761E-04-4.06381E-02 3.88898E+07 1.04188E-03-2.80888E-02
 -1      1995 8.15420E-02 2.27601E-04-4.02546E-02 4.57984E+07 1.03459E-03-1.90791E-02
 -1      1997 8.15420E-02 2.27601E-04-4.02546E-02 4.57984E+07 1.03459E-03-1.90791E-02
 -1      1998 6.79566E-02-2.50963E-04-2.83616E-02 5.14885E+07 1.27642E-03-7.97665E-03
 -1      2000 6.79566E-02-2.50963E-04-2.83616E-02 5.14885E+07 1.27642E-03-7.97665E-03
 -1      2001 5.94814E-02-2.67892E-04-1.01239E-02 5.51258E+07 1.40294E-03 1.93640E-03
 -1      2003 5.94814E-02-2.67892E-04-1.01239E-02 5.51258E+07 1.40294E-03 1.93640E-03
 -1      2004 6.19280E-02-9.69774E-05 2.99833E-03 5.67881E+07 1.38739E-03 5.71983E-03
 -1      2006 6.19280E-02-9.69774E-05 2.99833E-03 5.67881E+07 1.38739E-03 5.71983E-03
 -1      2007 6.44287E-02-3.31079E-04 3.38205E-03 5.60531E+07 1.38417E-03 3.04651E-03
 -1      2009 6.44287E-02-3.31079E-04 3.38205E-03 5.60531E+07 1.38417E-03 3.04651E-03
 -1      2010 6.41095E-02-4.44638E-04-8.00433E-03 5.32907E+07 1.25905E-03 2.08107E-03
 -1      2012 6.41095E-02-4.44638E-04-8.00433E-03 5.32907E+07 1.25905E-03 2.08107E-03
 -1      2013 6.45084E-02-3.59481E-04-2.30020E-02 4.83779E+07 1.04720E-03 7.96374E-03
 -1      2015 6.45084E-02-3.59481E-04-2.30020E-02 4.83779E+07 1.04720E-03 7.96374E-03
 -1      2016 5.84382E-02-3.93149E-04-3.28979E-02 4.21746E+07 8.75421E-04 1.63920E-02
 -1      2018 5.84382E-02-3.93149E-04-3.28979E-02 4.21746E+07 8.75421E-04 1.63920E-02
 -1      2019 4.31772E-02-7.65491E-04-3.55481E-02 3.44185E+07 7.16814E-04 1.72109E-02
 -1      2021 4.31772E-02-7.65491E-04-3.55481E-02 3.44185E+07 7.16814E-04 1.72109E-02
 -1      2022 2.83163E-02-3.53192E-04-3.61772E-02 2.69050E+07 9.46037E-04 9.36388E-03
 -1      2024 2.83163E-02-3.53192E-04-3.61772E-02 2.69050E+07 9.46037E-04 9.36388E-03
 -1      2025 1.88284E-02-2.93259E-04-3.84577E-02 1.79373E+07 1.29688E-03 4.36205E-03
 -1      2027 1.88284E-02-2.93259E-04-3.84577E-02 1.79373E+07 1.29688E-03 4.36205E-03
 -1      2028 1.37010E-02-5.33216E-04-3.61896E-02 1.20717E+07 1.79792E-03 4.41388E-03
 -1      2030 1.37010E-02-5.33216E-04-3.61896E-02 1.20717E+07 1.79792E-03 4.41388E-03
 -1      2031 8.76715E-03 1.48423E-04-2.54864E-02 2.33819E+06 1.80801E-03 2.44688E-03
 -1      2033 8.76715E-03 1.48423E-04-2.54864E-02 2.33819E+06 1.80801E-03 2.44688E-03
 -1      2034 1.37319E-01 5.24307E-05 6.24112E-03-6.71152E+07-2.06972E+07 2.63550E-02
 -1      2036 1.37319E-01 5.24307E-05 6.24112E-03-6.71152E+07-2.06972E+07 2.63550E-02
 -1      2037 1.38851E-01 6.25789E-05-1.39676E-03 4.39917E+07-4.15057E+07 4.00247E-02
 -1      2039 1.38851E-01 6.25789E-05-1.39676E-03 4.39917E+07-4.15057E+07 4.00247E-02
 -1      2040 1.40680E-01 3.72265E-05 7.55107E-03-2.10287E+07-6.49361E+07 4.16222E-02
 -1      2042 1.40680E-01 3.72265E-05 7.55107E-03-2.10287E+07-6.49361E+07 4.16222E-02
 -1      2043 1.45753E-01 1.98845E-05 1.78267E-02 1.54477E+07-8.46844E+07 3.48157E-02
 -1      2045 1.45753E-01 1.98845E-05 1.78267E-02 1.54477E+07-8.46844E+07 3.48157E-02
 -1      2046 1.48501E-01-5.00576E-05 2.56478E-02-4.52927E+06-1.04036E+08 2.84692E-02
 -1      2048 1.48501E-01-5.00576E-05 2.56478E-02-4.52927E+06-1.04036E+08 2.84692E-02
 -1      2049 1.47768E-01-8.68624E-05 2.49372E-02 4.52861E+06-1.18865E+08 1.57546E-02
 -1      2051 1.47768E-01-8.68624E-05 2.49372E-02 4.52861E+06-1.18865E+08 1.57546E-02
 -1      2052 1.42468E-01 1.28749E-04 8.37958E-03-8.40974E+05-1.31123E+08-1.11162E-03
 -1      2054 1.42468E-01 1.28749E-04 8.37958E-03-8.40974E+05-1.31123E+08-1.11162E-03
 -1      2055 1.33313E-01 1.36835E-04-1.00278E-02 2.17537E+04-1.38786E+08-4.18690E-03
 -1      2057 1.33313E-01 1.36835E-04-1.00278E-02 2.17537E+04-1.38786E+08-4.18690E-03
 -1      2058 1.26322E-01-4.00872E-04-8.36510E-03-1.36034E+06-1.42497E+08 3.54959E-03
 -1      2060 1.26322E-01-4.00872E-04-8.36510E-03-1.36034E+06-1.42497E+08 3.54959E-03
 -1      2061 1.18435E-01-1.97460E-04 2.14333E-03-2.07199E+06-1.42007E+08 3.63397E-03
 -1      2063 1.18435E-01-1.97460E-04 2.14333E-03-2.07199E+06-1.42007E+08 3.63397E-03
 -1      2064 1.06379E-01 8.41293E-04-2.31144E-03-2.23079E+06-1.37460E+08-6.42845E-03
 -1      2066 1.06379E-01 8.41293E-04-2.31144E-03-2.23079E+06-1.37460E+08-6.42845E-03
 -1      2067 9.91831E-02 1.16251E-03-1.95354E-02-2.54412E+06-1.29581E+08-1.55637E-02
 -1      2069 9.91831E-02 1.16251E-03-1.95354E-02-2.54412E+06-1.29581E+08-1.55637E-02
 -1      2070 9.78672E-02 6.14257E-04-3.50461E-02-1.99242E+06-1.18489E+08-1.80601E-02
 -1      2072 9.78672E-02 6.14257E-04-3.50461E-02-1.99242E+06-1.18489E+08-1.80601E-02
 -1      2073 9.44698E-02 4.86574E-04-3.95349E-02-1.55833E+06-1.05245E+08-1.98968E-02
 -1      2075 9.44698E-02 4.86574E-04-3.95349E-02-1.55833E+06-1.05245E+08-1.98968E-02
 -1      2076 8.69232E-02 9.68835E-04-3.80747E-02-5.38546E+05-8.99993E+07-2.60056E-02
 -1      2078 8.69232E-02 9.68835E-04-3.80747E-02-5.38546E+05-8.99993E+07-2.60056E-02
 -1      2079 7.67890E-02 8.11434E-04-4.08608E-02 3.39004E+05-7.37219E+07-2.65516E-02
 -1      2081 7.67890E-02 8.11434E-04-4.08608E-02 3.39004E+05-7.37219E+07-2.65516E-02
 -1      2082 6.31237E-02-3.76985E-04-3.92781E-02 1.40847E+06-5.64968E+07-1.54734E-02
 -1      2084 6.31237E-02-3.76985E-04-3.92781E-02 1.40847E+06-5.64968E+07-1.54734E-02
 -1      2085 4.54290E-02-4.35962E-04-2.54909E-02 2.18824E+06-3.89935E+07-4.24435E-03
 -1      2087 4.54290E-02-4.35962E-04-2.54909E-02 2.18824E+06-3.89935E+07-4.24435E-03
 -1      2088 3.31579E-02 2.20405E-04-9.84196E-03 2.83045E+06-2.11689E+07 1.69633E-03
 -1      2090 3.31579E-02 2.20405E-04-9.84196E-03 2.83045E+06-2.11689E+07 1.69633E-03
 -1      2091 3.20690E-02-1.99597E-04 1.15452E-03 3.05346E+06-3.40477E+06 4.03366E-03
 -1      2093 3.20690E-02-1.99597E-04 1.15452E-03 3.05346E+06-3.40477E+06 4.03366E-03
 -1      2094 3.41490E-02-5.99079E-04 3.78045E-03 2.98539E+06 1.44081E+07 6.28005E-04
 -1      2096 3.41490E-02-5.99079E-04 3.78045E-03 2.98539E+06 1.44081E+07 6.28005E-04
 -1      2097 3.68120E-02-4.74184E-04-9.28808E-03 2.51601E+06 3.19954E+07-3.08451E-03
 -1      2099 3.68120E-02-4.74184E-04-9.28808E-03 2.51601E+06 3.19954E+07-3.08451E-03
 -1      2100 4.17276E-02-2.94252E-04-2.84087E-02 1.80459E+06 4.93950E+07 3.57332E-03
 -1      2102 4.17276E-02-2.94252E-04-2.84087E-02 1.80459E+06 4.93950E+07 3.57332E-03
 -1      2103 4.15206E-02-1.20103E-04-3.23619E-02 9.21990E+05 6.61939E+07 1.71571E-02
 -1      2105 4.15206E-02-1.20103E-04-3.23619E-02 9.21990E+05 6.61939E+07 1.71571E-02
 -1      2106 3.24731E-02-1.59474E-04-2.20468E-02-8.64568E+04 8.22524E+07 1.95328E-02
 -1      2108 3.24731E-02-1.59474E-04-2.20468E-02-8.64568E+04 8.22524E+07 1.95328E-02
 -1      2109 2.07623E-02 1.61495E-05-1.72113E-02-7.26729E+05 9.68470E+07 8.50151E-03
 -1      2111 2.07623E-02 1.61495E-05-1.72113E-02-7.26729E+05 9.68470E+07 8.50151E-03
 -1      2112 1.08333E-02-3.16815E-04-2.25364E-02-1.76878E+06 1.09644E+08 2.93063E-03
 -1      2114 1.08333E-02-3.16815E-04-2.25364E-02-1.76878E+06 1.09644E+08 2.93063E-03
 -1      2115 5.53954E-03-5.99077E-04-2.39345E-02-1.11007E+06 1.19691E+08 6.10188E-03
 -1      2117 5.53954E-03-5.99077E-04-2.39345E-02-1.11007E+06 1.19691E+08 6.10188E-03
 -1      2118 3.99854E-03 3.24426E-05-1.56255E-02-2.69511E+06 1.26427E+08 5.50954E-03
 -1      2120 3.99854E-03 3.24426E-05-1.56255E-02-2.69511E+06 1.26427E+08 5.50954E-03
 -1      2121 3.71801E+09 2.11450E+08 8.83223E+05 8.57428E+08 1.99947E+07 7.82596E+07
 -1      2123 3.71801E+09 2.11450E+08 8.83223E+05 8.57428E+08 1.99947E+07 7.82596E+07
 -1      2124 2.31426E+09-1.23610E+08-1.34585E+06 7.77662E+08-5.60642E+07-4.24292E+07
 -1      2126 2.31426E+09-1.23610E+08-1.34585E+06 7.77662E+08-5.60642E+07-4.24292E+07
 -1      2127 9.42767E+08-4.76043E+06 6.12266E+05 7.95850E+08-6.73118E+07 1.54775E+07
 -1      2129 9.42767E+08-4.76043E+06 6.12266E+05 7.95850E+08-6.73118E+07 1.54775E+07
 -1      2130-3.27375E+08-4.46559E+07-3.44874E+05 6.96495E+08-9.34404E+07-1.11895E+07
 -1      2132-3.27375E+08-4.46559E+07-3.44874E+05 6.96495E+08-9.34404E+07-1.11895E+07
 -1      2133-1.44128E+09-5.44672E+07-3.64395E+05 5.84948E+08-1.14791E+08 1.34208E+06
 -1      2135-1.44128E+09-5.44672E+07-3.64395E+05 5.84948E+08-1.14791E+08 1.34208E+06
 -1      2136-2.29422E+09-4.74204E+07 1.14064E+05 4.06027E+08-1.30274E+08-3.43882E+06
 -1      2138-2.29422E+09-4.74204E+07 1.14064E+05 4.06027E+08-1.30274E+08-3.43882E+06
 -1      2139-2.82573E+09-6.49486E+07-6.25844E+05 2.05391E+08-1.46397E+08-6.78295E+05
 -1      2141-2.82573E+09-6.49486E+07-6.25844E+05 2.05391E+08-1.46397E+08-6.78295E+05
 -1      2142-2.99749E+09-6.38655E+07 7.65955E+04-1.00238E+07-1.54582E+08-8.25834E+05
 -1      2144-2.99749E+09-6.38655E+07 7.65955E+04-1.00238E+07-1.54582E+08-8.25834E+05
 -1      2145-2.81183E+09-7.56912E+07-5.85073E+05-2.09710E+08-1.62046E+08 5.15527E+04
 -1      2147-2.81183E+09-7.56912E+07-5.85073E+05-2.09710E+08-1.62046E+08 5.15527E+04
 -1      2148-2.31355E+09-8.07444E+07-7.98612E+04-3.72074E+08-1.62341E+08 6.68292E+05
 -1      2150-2.31355E+09-8.07444E+07-7.98612E+04-3.72074E+08-1.62341E+08 6.68292E+05
 -1      2151-1.58318E+09-8.86449E+07-4.90892E+05-4.77839E+08-1.60698E+08 1.13251E+06
 -1      2153-1.58318E+09-8.86449E+07-4.90892E+05-4.77839E+08-1.60698E+08 1.13251E+06
 -1      2154-7.28196E+08-9.34614E+07-2.02459E+05-5.14622E+08-1.53164E+08 1.65010E+06
 -1      2156-7.28196E+08-9.34614E+07-2.02459E+05-5.14622E+08-1.53164E+08 1.65010E+06
 -1      2157 1.30968E+08-9.62331E+07-4.01479E+05-4.80357E+08-1.43364E+08 1.88123E+06
 -1      2159 1.30968E+08-9.62331E+07-4.01479E+05-4.80357E+08-1.43364E+08 1.88123E+06
 -1      2160 8.77837E+08-9.53920E+07-2.53123E+05-3.81114E+08-1.29105E+08 2.13469E+06
 -1      2162 8.77837E+08-9.53920E+07-2.53123E+05-3.81114E+08-1.29105E+08 2.13469E+06
 -1      2163 1.41413E+09-9.02503E+07-3.08294E+05-2.32814E+08-1.12898E+08 2.16464E+06
 -1      2165 1.41413E+09-9.02503E+07-3.08294E+05-2.32814E+08-1.12898E+08 2.16464E+06
 -1      2166 1.67411E+09-8.06730E+07-2.31039E+05-5.68936E+07-9.36523E+07 2.20528E+06
 -1      2168 1.67411E+09-8.06730E+07-2.31039E+05-5.68936E+07-9.36523E+07 2.20528E+06
 -1      2169 1.63195E+09-6.64851E+07-1.96218E+05 1.20981E+08-7.30746E+07 2.12080E+06
 -1      2171 1.63195E+09-6.64851E+07-1.96218E+05 1.20981E+08-7.30746E+07 2.12080E+06
 -1      2172 1.30563E+09-4.84652E+07-1.49949E+05 2.75802E+08-5.07415E+07 2.07833E+06
 -1      2174 1.30563E+09-4.84652E+07-1.49949E+05 2.75802E+08-5.07415E+07 2.07833E+06
 -1      2175 7.53020E+08-2.73633E+07-6.32563E+04 3.85748E+08-2.77474E+07 1.99412E+06
 -1      2177 7.53020E+08-2.73633E+07-6.32563E+04 3.85748E+08-2.77474E+07 1.99412E+06
 -1      2178 6.35822E+07-4.63632E+06-3.35201E+04 4.36025E+08-4.11458E+06 1.98497E+06
 -1      2180 6.35822E+07-4.63632E+06-3.35201E+04 4.36025E+08-4.11458E+06 1.98497E+06
 -1      2181-6.55339E+08 1.84154E+07 7.77125E+04 4.20438E+08 1.95391E+07 1.97227E+06
 -1      2183-6.55339E+08 1.84154E+07 7.77125E+04 4.20438E+08 1.95391E+07 1.97227E+06
 -1      2184-1.29424E+09 4.00581E+07 8.89393E+04 3.42826E+08 4.27974E+07 2.02660E+06
 -1      2186-1.29424E+09 4.00581E+07 8.89393E+04 3.42826E+08 4.27974E+07 2.02660E+06
 -1      2187-1.75827E+09 5.92827E+07 2.05183E+05 2.16370E+08 6.54328E+07 2.07620E+06
 -1      2189-1.75827E+09 5.92827E+07 2.05183E+05 2.16370E+08 6.54328E+07 2.07620E+06
 -1      2190-1.98187E+09 7.42614E+07 1.90770E+05 6.22564E+07 8.65888E+07 2.08862E+06
 -1      2192-1.98187E+09 7.42614E+07 1.90770E+05 6.22564E+07 8.65888E+07 2.08862E+06
 -1      2193-1.94051E+09 8.56029E+07 2.96026E+05-9.29443E+07 1.06405E+08 2.17670E+06
 -1      2195-1.94051E+09 8.56029E+07 2.96026E+05-9.29443E+07 1.06405E+08 2.17670E+06
 -1      2196-1.65655E+09 9.05703E+07 2.60313E+05-2.20781E+08 1.23560E+08 1.80484E+06
 -1      2198-1.65655E+09 9.05703E+07 2.60313E+05-2.20781E+08 1.23560E+08 1.80484E+06
 -1      2199-1.20067E+09 9.31026E+07 3.24446E+05-2.92966E+08 1.38460E+08 2.22492E+06
 -1      2201-1.20067E+09 9.31026E+07 3.24446E+05-2.92966E+08 1.38460E+08 2.22492E+06
 -1      2202-6.88112E+08 8.87585E+07 3.17210E+05-2.87095E+08 1.49777E+08 3.65021E+05
 -1      2204-6.88112E+08 8.87585E+07 3.17210E+05-2.87095E+08 1.49777E+08 3.65021E+05
 -1      2205-2.66249E+08 8.11285E+07 2.51127E+05-1.82152E+08 1.56703E+08 2.95693E+06
 -1      2207-2.66249E+08 8.11285E+07 2.51127E+05-1.82152E+08 1.56703E+08 2.95693E+06
 -1      2208-3.71801E+09-2.11450E+08-8.83223E+05 8.57428E+08 1.99947E+07-7.82596E+07
 -1      2210-3.71801E+09-2.11450E+08-8.83223E+05 8.57428E+08 1.99947E+07-7.82596E+07
 -1      2211-2.31426E+09 1.23610E+08 1.34585E+06 7.77662E+08-5.60642E+07 4.24292E+07
 -1      2213-2.31426E+09 1.23610E+08 1.34585E+06 7.77662E+08-5.60642E+07 4.24292E+07
 -1      2214-9.42767E+08 4.76043E+06-6.12266E+05 7.95850E+08-6.73118E+07-1.54775E+07
 -1      2216-9.42767E+08 4.76043E+06-6.12266E+05 7.95850E+08-6.73118E+07-1.54775E+07
 -1      2217 3.27375E+08 4.46559E+07 3.44874E+05 6.96495E+08-9.34404E+07 1.11895E+07
 -1      2219 3.27375E+08 4.46559E+07 3.44874E+05 6.96495E+08-9.34404E+07 1.11895E+07
 -1      2220 1.44128E+09 5.44672E+07 3.64395E+05 5.84948E+08-1.14791E+08-1.34208E+06
 -1      2222 1.44128E+09 5.44672E+07 3.64395E+05 5.84948E+08-1.14791E+08-1.34208E+06
 -1      2223 2.29422E+09 4.74204E+07-1.14064E+05 4.06027E+08-1.30274E+08 3.43882E+06
 -1      2225 2.29422E+09 4.74204E+07-1.14064E+05 4.06027E+08-1.30274E+08 3.43882E+06
 -1      2226 2.82573E+09 6.49486E+07 6.25844E+05 2.05391E+08-1.46397E+08 6.78295E+05
 -1      2228 2.82573E+09 6.49486E+07 6.25844E+05 2.05391E+08-1.46397E+08 6.78295E+05
 -1      2229 2.99749E+09 6.38655E+07-7.65955E+04-1.00238E+07-1.54582E+08 8.25834E+05
 -1      2231 2.99749E+09 6.38655E+07-7.65955E+04-1.00238E+07-1.54582E+08 8.25834E+05
 -1      2232 2.81183E+09 7.56912E+07 5.85073E+05-2.09710E+08-1.62046E+08-5.15527E+04
 -1      2234 2.81183E+09 7.56912E+07 5.85073E+05-2.09710E+08-1.62046E+08-5.15527E+04
 -1      2235 2.31355E+09 8.07444E+07 7.98612E+04-3.72074E+08-1.62341E+08-6.68292E+05
 -1      2237 2.31355E+09 8.07444E+07 7.98612E+04-3.72074E+08-1.62341E+08-6.68292E+05
 -1      2238 1.58318E+09 8.86449E+07 4.90892E+05-4.77839E+08-1.60698E+08-1.13251E+06
 -1      2240 1.58318E+09 8.86449E+07 4.90892E+05-4.77839E+08-1.60698E+08-1.13251E+06
 -1      2241 7.28196E+08 9.34614E+07 2.02459E+05-5.14622E+08-1.53164E+08-1.65010E+06
 -1      2243 7.28196E+08 9.34614E+07 2.02459E+05-5.14622E+08-1.53164E+08-1.65010E+06
 -1      2244-1.30968E+08 9.62331E+07 4.01479E+05-4.80357E+08-1.43364E+08-1.88123E+06
 -1      2246-1.30968E+08 9.62331E+07 4.01479E+05-4.80357E+08-1.43364E+08-1.88123E+06
 -1      2247-8.77837E+08 9.53920E+07 2.53123E+05-3.81114E+08-1.29105E+08-2.13469E+06
 -1      2249-8.77837E+08 9.53920E+07 2.53123E+05-3.81114E+08-1.29105E+08-2.13469E+06
 -1      2250-1.41413E+09 9.02503E+07 3.08294E+05-2.32814E+08-1.12898E+08-2.16464E+06
 -1      2252-1.41413E+09 9.02503E+07 3.08294E+05-2.32814E+08-1.12898E+08-2.16464E+06
 -1      2253-1.67411E+09 8.06730E+07 2.31039E+05-5.68936E+07-9.36523E+07-2.20528E+06
 -1      2255-1.67411E+09 8.06730E+07 2.31039E+05-5.68936E+07-9.36523E+07-2.20528E+06
 -1      2256-1.63195E+09 6.64851E+07 1.96218E+05 1.20981E+08-7.30746E+07-2.12080E+06
 -1      2258-1.63195E+09 6.64851E+07 1.96218E+05 1.20981E+08-7.30746E+07-2.12080E+06
 -1      2259-1.30563E+09 4.84652E+07 1.49949E+05 2.75802E+08-5.07415E+07-2.07833E+06
 -1      2261-1.30563E+09 4.84652E+07 1.49949E+05 2.75802E+08-5.07415E+07-2.07833E+06
 -1      2262-7.53020E+08 2.73633E+07 6.32563E+04 3.85748E+08-2.77474E+07-1.99412E+06
 -1      2264-7.53020E+08 2.73633E+07 6.32563E+04 3.85748E+08-2.77474E+07-1.99412E+06
 -1      2265-6.35822E+07 4.63632E+06 3.35201E+04 4.36025E+08-4.11458E+06-1.98497E+06
 -1      2267-6.35822E+07 4.63632E+06 3.35201E+04 4.36025E+08-4.11458E+06-1.98497E+06
 -1      2268 6.55339E+08-1.84154E+07-7.77125E+04 4.20438E+08 1.95391E+07-1.97227E+06
 -1      2270 6.55339E+08-1.84154E+07-7.77125E+04 4.20438E+08 1.95391E+07-1.97227E+06
 -1      2271 1.29424E+09-4.00581E+07-8.89393E+04 3.42826E+08 4.27974E+07-2.02660E+06
 -1      2273 1.29424E+09-4.00581E+07-8.89393E+04 3.42826E+08 4.27974E+07-2.02660E+06
 -1      2274 1.75827E+09-5.92827E+07-2.05183E+05 2.16370E+08 6.54328E+07-2.07620E+06
 -1      2276 1.75827E+09-5.92827E+07-2.05183E+05 2.16370E+08 6.54328E+07-2.07620E+06
 -1      2277 1.98187E+09-7.42614E+07-1.90770E+05 6.22564E+07 8.65888E+07-2.08862E+06
 -1      2279 1.98187E+09-7.42614E+07-1.90770E+05 6.22564E+07 8.65888E+07-2.08862E+06
 -1      2280 1.94051E+09-8.56029E+07-2.96026E+05-9.29443E+07 1.06405E+08-2.17670E+06
 -1      2282 1.94051E+09-8.56029E+07-2.96026E+05-9.29443E+07 1.06405E+08-2.17670E+06
 -1      2283 1.65655E+09-9.05703E+07-2.60313E+05-2.20781E+08 1.23560E+08-1.80484E+06
 -1      2285 1.65655E+09-9.05703E+07-2.60313E+05-2.20781E+08 1.23560E+08-1.80484E+06
 -1      2286 1.20067E+09-9.31026E+07-3.24446E+05-2.92966E+08 1.38460E+08-2.22492E+06
 -1      2288 1.20067E+09-9.31026E+07-3.24446E+05-2.92966E+08 1.38460E+08-2.22492E+06
 -1      2289 6.88112E+08-8.87585E+07-3.17210E+05-2.87095E+08 1.49777E+08-3.65021E+05
 -1      2291 6.88112E+08-8.87585E+07-3.17210E+05-2.87095E+08 1.49777E+08-3.65021E+05
 -1      2292 2.66249E+08-8.11285E+07-2.51127E+05-1.82152E+08 1.56703E+08-2.95693E+06
 -1      2294 2.66249E+08-8.11285E+07-2.51127E+05-1.82152E+08 1.56703E+08-2.95693E+06
 -3
    1PSTEP                        47           1           1          
    1PGM                1.000000E+00                                  
    1PGK                7.076828E+06                                  
    1PHID                         -1                                  
    1PSUBC                         0                                  
    1PMODE                        12                                  
  100CL  112 423.3888922         930                     2   12MODAL      1
 -4  FORC        4    1
 -5  F1          1    2    1    0
 -5  F2          1    2    2    0
 -5  F3          1    2    3    0
 -5  ALL         1    2    0    0    1ALL
 -1       404 4.33803E+05-5.36236E+05-6.58615E+05
 -1       406 2.36791E+06-2.18515E+05-6.58615E+05
 -1       407 3.53117E+03-2.59773E+04-6.26463E+04
 -1       409 3.53117E+03-2.59773E+04-6.26463E+04
 -1       410 4.97829E-06 1.35701E+06-1.94430E-06
 -1       412 4.77082E-06-1.29257E+06-2.49384E-06
 -1       413 2.28016E-06-8.60889E+04 2.07961E+06
 -1       415 2.39981E-06-8.60889E+04-2.07961E+06
 -1       424-4.59884E-05 1.83534E+05 2.81698E-06
 -1       426-2.83624E-05-3.39611E+04 2.54139E-06
 -1       427 1.04059E+05-1.77624E+06 4.06449E+05
 -1       429-1.04059E+05-1.77624E+06-4.06449E+05
 -1       438-3.53117E+03-2.59773E+04 6.26463E+04
 -1       440-3.53117E+03-2.59773E+04 6.26463E+04
 -1       441-4.33803E+05-5.36236E+05 6.58615E+05
 -1       443-2.36791E+06-2.18515E+05 6.58615E+05
 -1       444 1.04059E+05-1.77624E+06-4.06449E+05
 -1       446-1.04059E+05-1.77624E+06 4.06449E+05
 -1       447-4.09381E-05 1.83534E+05 1.31265E-06
 -1       449-3.26984E-05-3.39611E+04 1.36857E-06
 -1       458 1.23775E-06-8.60889E+04-2.07961E+06
 -1       460 1.70410E-06-8.60889E+04 2.07961E+06
 -1       461-4.67710E-06 1.35701E+06-1.19501E-06
 -1       463-4.71413E-06-1.29257E+06 1.07629E-07
 -1       472-4.33803E+05-5.36236E+05-6.58615E+05
 -1       474-2.36791E+06-2.18515E+05-6.58615E+05
 -1       475-3.53117E+03-2.59773E+04-6.26463E+04
 -1       477-3.53117E+03-2.59773E+04-6.26463E+04
 -1       478 3.53117E+03-2.59773E+04 6.26463E+04
 -1       480 3.53117E+03-2.59773E+04 6.26463E+04
 -1       481 4.33803E+05-5.36236E+05 6.58615E+05
 -1       483 2.36791E+06-2.18515E+05 6.58615E+05
 -1       484-2.40621E+03 3.91831E+03 1.67727E+04
 -1       486-2.40621E+03 3.91831E+03 1.67727E+04
 -1       487-4.21190E+03 9.77083E+03 3.54169E+04
 -1       489-4.21190E+03 9.77083E+03 3.54169E+04
 -1       490-5.20101E+03 1.76094E+04 5.34845E+04
 -1       492-5.20101E+03 1.76094E+04 5.34845E+04
 -1       493-5.39072E+03 2.62896E+04 7.00458E+04
 -1       495-5.39072E+03 2.62896E+04 7.00458E+04
 -1       496-4.86026E+03 3.45989E+04 8.50668E+04
 -1       498-4.86026E+03 3.45989E+04 8.50668E+04
 -1       499-3.73778E+03 4.15189E+04 9.80544E+04
 -1       501-3.73778E+03 4.15189E+04 9.80544E+04
 -1       502-2.19707E+03 4.62578E+04 1.08790E+05
 -1       504-2.19707E+03 4.62578E+04 1.08790E+05
 -1       505-4.45637E+02 4.83242E+04 1.16979E+05
 -1       507-4.45637E+02 4.83242E+04 1.16979E+05
 -1       508 1.29994E+03 4.75703E+04 1.22430E+05
 -1       510 1.29994E+03 4.75703E+04 1.22430E+05
 -1       511 2.83660E+03 4.41829E+04 1.24972E+05
 -1       513 2.83660E+03 4.41829E+04 1.24972E+05
 -1       514 3.99951E+03 3.86467E+04 1.24508E+05
 -1       516 3.99951E+03 3.86467E+04 1.24508E+05
 -1       517 4.68097E+03 3.16647E+04 1.20995E+05
 -1       519 4.68097E+03 3.16647E+04 1.20995E+05
 -1       520 4.84240E+03 2.40566E+04 1.14469E+05
 -1       522 4.84240E+03 2.40566E+04 1.14469E+05
 -1       523 4.51722E+03 1.66439E+04 1.05037E+05
 -1       525 4.51722E+03 1.66439E+04 1.05037E+05
 -1       526 3.80399E+03 1.01377E+04 9.28914E+04
 -1       528 3.80399E+03 1.01377E+04 9.28914E+04
 -1       529 2.85110E+03 5.04574E+03 7.83053E+04
 -1       531 2.85110E+03 5.04574E+03 7.83053E+04
 -1       532 1.83464E+03 1.60913E+03 6.16313E+04
 -1       534 1.83464E+03 1.60913E+03 6.16313E+04
 -1       535 9.33027E+02-2.21807E+02 4.32937E+04
 -1       537 9.33027E+02-2.21807E+02 4.32937E+04
 -1       538 3.01546E+02-7.69991E+02 2.37759E+04
 -1       540 3.01546E+02-7.69991E+02 2.37759E+04
 -1       541 5.06236E+01-5.75475E+02 3.60538E+03
 -1       543 5.06236E+01-5.75475E+02 3.60538E+03
 -1       544 2.30780E+02-3.09229E+02-1.66663E+04
 -1       546 2.30780E+02-3.09229E+02-1.66663E+04
 -1       547 8.26550E+02-6.69468E+02-3.64833E+04
 -1       549 8.26550E+02-6.69468E+02-3.64833E+04
 -1       550 1.76025E+03-2.27598E+03-5.53075E+04
 -1       552 1.76025E+03-2.27598E+03-5.53075E+04
 -1       553 2.90533E+03-5.57808E+03-7.26367E+04
 -1       555 2.90533E+03-5.57808E+03-7.26367E+04
 -1       556 4.10774E+03-1.07908E+04-8.80248E+04
 -1       558 4.10774E+03-1.07908E+04-8.80248E+04
 -1       559 5.21250E+03-1.78694E+04-1.01090E+05
 -1       561 5.21250E+03-1.78694E+04-1.01090E+05
 -1       562 6.09291E+03-2.65294E+04-1.11533E+05
 -1       564 6.09291E+03-2.65294E+04-1.11533E+05
 -1       565 6.67800E+03-3.63109E+04-1.19123E+05
 -1       567 6.67800E+03-3.63109E+04-1.19123E+05
 -1       568 6.97723E+03-4.66853E+04-1.23735E+05
 -1       570 6.97723E+03-4.66853E+04-1.23735E+05
 -1       571 4.70518E+03-5.19446E+04-8.24900E+04
 -1       573 4.70518E+03-5.19446E+04-8.24900E+04
 -1       574 2.01479E-05 3.82452E+05 1.74994E-06
 -1       576 2.02037E-05 4.07498E+05 2.27628E-06
 -1       577-1.68560E-05-3.91345E+05-1.96581E+04
 -1       579-1.68361E-05-3.91345E+05 1.96581E+04
 -1       588 1.29163E-05-1.04429E+06-1.23892E-05
 -1       590 1.29771E-05 4.78975E+05-1.03670E-05
 -1       591-1.64827E-05 2.96591E+05-1.19558E+06
 -1       593-1.66029E-05 2.96591E+05 1.19558E+06
 -1       602 8.69499E-06-1.10846E+06-4.14940E-06
 -1       604 8.67465E-06 1.25761E+06-2.30414E-06
 -1       605-1.46575E-05-4.28854E+04-1.85709E+06
 -1       607-1.47123E-05-4.28854E+04 1.85709E+06
 -1       616 1.42136E-05-1.63588E+06 3.95016E-06
 -1       618 1.42193E-05 1.44297E+06 2.68639E-06
 -1       619-1.12929E-05 1.49357E+05-2.41654E+06
 -1       621-1.12659E-05 1.49357E+05 2.41654E+06
 -1       630 1.65442E-05-1.90957E+06 7.72881E-06
 -1       632 1.65326E-05 1.91363E+06 7.24971E-06
 -1       633-9.58367E-06 7.15950E+04-3.00077E+06
 -1       635-9.64524E-06 7.15950E+04 3.00077E+06
 -1       644 1.31363E-05-2.20686E+06-1.17325E-06
 -1       646 1.31138E-05 2.15821E+06-2.46031E-07
 -1       647-1.07690E-05 1.14857E+05-3.42607E+06
 -1       649-1.08281E-05 1.14857E+05 3.42607E+06
 -1       658 2.61626E-06-2.44386E+06-1.28750E-05
 -1       660 2.69345E-06 2.41325E+06-8.24976E-06
 -1       661-9.48100E-06 1.16268E+05-3.81227E+06
 -1       663-9.62534E-06 1.16268E+05 3.81227E+06
 -1       672-5.25361E-06-2.61470E+06-1.20080E-05
 -1       674-5.27397E-06 2.55607E+06-7.17709E-06
 -1       675-6.13550E-06 1.32720E+05-4.05846E+06
 -1       677-6.20858E-06 1.32720E+05 4.05846E+06
 -1       686-2.91159E-06-2.74613E+06-3.10344E-06
 -1       688-2.94156E-06 2.62334E+06-1.57534E-06
 -1       689-3.65250E-06 1.58825E+05-4.21442E+06
 -1       691-3.39366E-06 1.58825E+05 4.21442E+06
 -1       700 3.39979E-06-2.79731E+06-2.23355E-06
 -1       702 3.42335E-06 2.60715E+06-4.96750E-07
 -1       703-3.14567E-06 1.78913E+05-4.24187E+06
 -1       705-2.82358E-06 1.78913E+05 4.24187E+06
 -1       714 3.83825E-06-2.79919E+06-6.50981E-06
 -1       716 3.89187E-06 2.50869E+06-5.47042E-06
 -1       717-1.90730E-06 2.09626E+05-4.16607E+06
 -1       719-1.83094E-06 2.09626E+05 4.16607E+06
 -1       728 4.20895E-07-2.72190E+06-1.03954E-05
 -1       730 6.23307E-07 2.34705E+06-1.01530E-05
 -1       731 1.91632E-06 2.29020E+05-3.97854E+06
 -1       733 1.86710E-06 2.29020E+05 3.97854E+06
 -1       742-1.61688E-06-2.58652E+06-1.05654E-05
 -1       744-1.69688E-06 2.12619E+06-1.03171E-05
 -1       745 8.52752E-06 2.48542E+05-3.69892E+06
 -1       747 8.77456E-06 2.48542E+05 3.69892E+06
 -1       756-6.24556E-06-2.37800E+06-5.46411E-06
 -1       758-6.50750E-06 1.86796E+06-6.17579E-06
 -1       759 1.28166E-05 2.52585E+05-3.33258E+06
 -1       761 1.30032E-05 2.52585E+05 3.33258E+06
 -1       770-1.12518E-05-2.11141E+06-5.15833E-06
 -1       772-1.13317E-05 1.57997E+06-4.59227E-06
 -1       773 1.47893E-05 2.47298E+05-2.89730E+06
 -1       775 1.48395E-05 2.47298E+05 2.89730E+06
 -1       784-8.63772E-06-1.78362E+06-8.85751E-06
 -1       786-8.60828E-06 1.27869E+06-6.54837E-06
 -1       787 1.73005E-05 2.24509E+05-2.40355E+06
 -1       789 1.73752E-05 2.24509E+05 2.40355E+06
 -1       798-7.59057E-06-1.40827E+06-2.79009E-06
 -1       800-7.63976E-06 9.69698E+05-5.32359E-06
 -1       801 1.50439E-05 1.88906E+05-1.86643E+06
 -1       803 1.54354E-05 1.88906E+05 1.86643E+06
 -1       812-1.21042E-05-9.90989E+05 2.32336E-06
 -1       814-1.22419E-05 6.61210E+05 1.03744E-06
 -1       815 6.23205E-06 1.38765E+05-1.29678E+06
 -1       817 6.76787E-06 1.38765E+05 1.29678E+06
 -1       826-1.07893E-05-5.46015E+05 1.28553E-07
 -1       828-1.09406E-05 3.53858E+05 2.31636E-07
 -1       829-6.23708E-07 7.94649E+04-7.06296E+05
 -1       831-6.82495E-07 7.94649E+04 7.06296E+05
 -1       840-5.43078E-06-8.47274E+04-3.59311E-06
 -1       842-5.51558E-06 4.88843E+04-5.04677E-06
 -1       843-2.42619E-06 1.38480E+04-1.04870E+05
 -1       845-2.64267E-06 1.38480E+04 1.04870E+05
 -1       854-2.26723E-06 3.78555E+05-1.35832E-06
 -1       856-2.18077E-06-2.56477E+05-2.56790E-06
 -1       857-1.09336E-06-5.22427E+04 4.98426E+05
 -1       859-1.21683E-06-5.22427E+04-4.98426E+05
 -1       868 4.50782E-07 8.29614E+05 2.85563E-06
 -1       870 3.94342E-07-5.63220E+05 3.79354E-06
 -1       871-9.77724E-07-1.14000E+05 1.09321E+06
 -1       873-1.33415E-06-1.14000E+05-1.09321E+06
 -1       882 3.87632E-06 1.25618E+06 1.43451E-06
 -1       884 3.89799E-06-8.73383E+05-2.26723E-06
 -1       885-2.63454E-06-1.66774E+05 1.67146E+06
 -1       887-2.75127E-06-1.66774E+05-1.67146E+06
 -1       896 9.58354E-06 1.64363E+06-6.05676E-06
 -1       898 9.57023E-06-1.18409E+06-7.98951E-06
 -1       899-1.36358E-06-2.06571E+05 2.21943E+06
 -1       901-9.99968E-07-2.06571E+05-2.21943E+06
 -1       910 1.12593E-05 1.98410E+06-7.27987E-06
 -1       912 1.13658E-05-1.49390E+06-8.19120E-06
 -1       913-1.41842E-06-2.31184E+05 2.72983E+06
 -1       915-1.65441E-06-2.31184E+05-2.72983E+06
 -1       924 7.69943E-06 2.26431E+06-6.31286E-06
 -1       926 7.73852E-06-1.79021E+06-8.41944E-06
 -1       927-2.30963E-06-2.40320E+05 3.18233E+06
 -1       929-2.13416E-06-2.40320E+05-3.18233E+06
 -1       938 5.19769E-06 2.48042E+06-1.03244E-05
 -1       940 5.29593E-06-2.07167E+06-6.81708E-06
 -1       941-2.02773E-06-2.31852E+05 3.57286E+06
 -1       943-1.57187E-06-2.31852E+05-3.57286E+06
 -1       952 3.85139E-06 2.62529E+06-8.65398E-06
 -1       954 3.49888E-06-2.30903E+06-5.61876E-06
 -1       955-1.07789E-06-2.15290E+05 3.87286E+06
 -1       957-8.44058E-07-2.15290E+05-3.87286E+06
 -1       966 6.89179E-06 2.67931E+06-5.33887E-06
 -1       968 6.50210E-06-2.50997E+06-6.23487E-06
 -1       969 2.05308E-06-1.75114E+05 4.07298E+06
 -1       971 2.42943E-06-1.75114E+05-4.07298E+06
 -1       980 5.04876E+05-3.89931E+05-2.36036E+04
 -1       982 2.35178E+06-1.80958E+05-2.36036E+04
 -1       983-4.70518E+03-5.19446E+04 8.24900E+04
 -1       985-4.70518E+03-5.19446E+04 8.24900E+04
 -1       986 2.40621E+03 3.91831E+03-1.67727E+04
 -1       988 2.40621E+03 3.91831E+03-1.67727E+04
 -1       989 4.21190E+03 9.77083E+03-3.54169E+04
 -1       991 4.21190E+03 9.77083E+03-3.54169E+04
 -1       992 5.20101E+03 1.76094E+04-5.34845E+04
 -1       994 5.20101E+03 1.76094E+04-5.34845E+04
 -1       995 5.39072E+03 2.62896E+04-7.00458E+04
 -1       997 5.39072E+03 2.62896E+04-7.00458E+04
 -1       998 4.86026E+03 3.45989E+04-8.50668E+04
 -1      1000 4.86026E+03 3.45989E+04-8.50668E+04
 -1      1001 3.73778E+03 4.15189E+04-9.80544E+04
 -1      1003 3.73778E+03 4.15189E+04-9.80544E+04
 -1      1004 2.19707E+03 4.62578E+04-1.08790E+05
 -1      1006 2.19707E+03 4.62578E+04-1.08790E+05
 -1      1007 4.45637E+02 4.83242E+04-1.16979E+05
 -1      1009 4.45637E+02 4.83242E+04-1.16979E+05
 -1      1010-1.29994E+03 4.75703E+04-1.22430E+05
 -1      1012-1.29994E+03 4.75703E+04-1.22430E+05
 -1      1013-2.83660E+03 4.41829E+04-1.24972E+05
 -1      1015-2.83660E+03 4.41829E+04-1.24972E+05
 -1      1016-3.99951E+03 3.86467E+04-1.24508E+05
 -1      1018-3.99951E+03 3.86467E+04-1.24508E+05
 -1      1019-4.68097E+03 3.16647E+04-1.20995E+05
 -1      1021-4.68097E+03 3.16647E+04-1.20995E+05
 -1      1022-4.84240E+03 2.40566E+04-1.14469E+05
 -1      1024-4.84240E+03 2.40566E+04-1.14469E+05
 -1      1025-4.51722E+03 1.66439E+04-1.05037E+05
 -1      1027-4.51722E+03 1.66439E+04-1.05037E+05
 -1      1028-3.80399E+03 1.01377E+04-9.28914E+04
 -1      1030-3.80399E+03 1.01377E+04-9.28914E+04
 -1      1031-2.85110E+03 5.04574E+03-7.83053E+04
 -1      1033-2.85110E+03 5.04574E+03-7.83053E+04
 -1      1034-1.83464E+03 1.60913E+03-6.16313E+04
 -1      1036-1.83464E+03 1.60913E+03-6.16313E+04
 -1      1037-9.33027E+02-2.21807E+02-4.32937E+04
 -1      1039-9.33027E+02-2.21807E+02-4.32937E+04
 -1      1040-3.01546E+02-7.69991E+02-2.37759E+04
 -1      1042-3.01546E+02-7.69991E+02-2.37759E+04
 -1      1043-5.06236E+01-5.75475E+02-3.60538E+03
 -1      1045-5.06236E+01-5.75475E+02-3.60538E+03
 -1      1046-2.30780E+02-3.09229E+02 1.66663E+04
 -1      1048-2.30780E+02-3.09229E+02 1.66663E+04
 -1      1049-8.26550E+02-6.69468E+02 3.64833E+04
 -1      1051-8.26550E+02-6.69468E+02 3.64833E+04
 -1      1052-1.76025E+03-2.27598E+03 5.53075E+04
 -1      1054-1.76025E+03-2.27598E+03 5.53075E+04
 -1      1055-2.90533E+03-5.57808E+03 7.26367E+04
 -1      1057-2.90533E+03-5.57808E+03 7.26367E+04
 -1      1058-4.10774E+03-1.07908E+04 8.80248E+04
 -1      1060-4.10774E+03-1.07908E+04 8.80248E+04
 -1      1061-5.21250E+03-1.78694E+04 1.01090E+05
 -1      1063-5.21250E+03-1.78694E+04 1.01090E+05
 -1      1064-6.09291E+03-2.65294E+04 1.11533E+05
 -1      1066-6.09291E+03-2.65294E+04 1.11533E+05
 -1      1067-6.67800E+03-3.63109E+04 1.19123E+05
 -1      1069-6.67800E+03-3.63109E+04 1.19123E+05
 -1      1070-6.97723E+03-4.66853E+04 1.23735E+05
 -1      1072-6.97723E+03-4.66853E+04 1.23735E+05
 -1      1073-5.04876E+05-3.89931E+05 2.36036E+04
 -1      1075-2.35178E+06-1.80958E+05 2.36036E+04
 -1      1076 1.90315E+06 1.49251E+06 1.17461E+05
 -1      1078-1.90315E+06 1.49251E+06-1.17461E+05
 -1      1079 3.59819E+06 1.10831E+06-1.43430E-05
 -1      1081-3.59819E+06 1.10831E+06-1.81565E-05
 -1      1082 1.90315E+06 1.49251E+06-1.17461E+05
 -1      1084-1.90315E+06 1.49251E+06 1.17461E+05
 -1      1085 8.04738E-06-3.91345E+05 1.96581E+04
 -1      1087 7.95785E-06-3.91345E+05-1.96581E+04
 -1      1088 1.50120E-06 3.82452E+05-6.99099E-07
 -1      1090 1.52831E-06 4.07498E+05-5.88687E-07
 -1      1099 1.40810E-05 2.96591E+05 1.19558E+06
 -1      1101 1.39210E-05 2.96591E+05-1.19558E+06
 -1      1102-8.24486E-06-1.04429E+06-3.18833E-07
 -1      1104-8.22796E-06 4.78975E+05 8.39617E-07
 -1      1113 1.44071E-05-4.28854E+04 1.85709E+06
 -1      1115 1.41975E-05-4.28854E+04-1.85709E+06
 -1      1116-1.56808E-05-1.10846E+06-1.18595E-06
 -1      1118-1.56845E-05 1.25761E+06-1.50103E-06
 -1      1127 1.27106E-05 1.49357E+05 2.41654E+06
 -1      1129 1.23648E-05 1.49357E+05-2.41654E+06
 -1      1130-1.29555E-05-1.63588E+06 3.09989E-07
 -1      1132-1.30439E-05 1.44297E+06-8.11390E-07
 -1      1141 1.16293E-05 7.15950E+04 3.00077E+06
 -1      1143 1.12584E-05 7.15950E+04-3.00077E+06
 -1      1144-8.75388E-06-1.90957E+06-5.79142E-06
 -1      1146-8.84196E-06 1.91363E+06-6.48644E-06
 -1      1155 8.71674E-06 1.14857E+05 3.42607E+06
 -1      1157 8.67913E-06 1.14857E+05-3.42607E+06
 -1      1158-9.89123E-07-2.20686E+06-9.81215E-06
 -1      1160-9.62667E-07 2.15821E+06-1.02220E-05
 -1      1169 3.65089E-06 1.16268E+05 3.81227E+06
 -1      1171 3.53051E-06 1.16268E+05-3.81227E+06
 -1      1172 5.28485E-06-2.44386E+06-6.72360E-06
 -1      1174 5.16073E-06 2.41325E+06-4.87692E-06
 -1      1183-9.54995E-07 1.32720E+05 4.05846E+06
 -1      1185-1.07108E-06 1.32720E+05-4.05846E+06
 -1      1186 2.78430E-06-2.61470E+06-2.72048E-07
 -1      1188 2.74323E-06 2.55607E+06-1.27980E-06
 -1      1197-2.87189E-07 1.58825E+05 4.21442E+06
 -1      1199-7.22921E-08 1.58825E+05-4.21442E+06
 -1      1200 5.71112E-07-2.74613E+06-8.96219E-07
 -1      1202 5.13130E-07 2.62334E+06-2.62060E-06
 -1      1211 2.64990E-06 1.78913E+05 4.24187E+06
 -1      1213 2.51957E-06 1.78913E+05-4.24187E+06
 -1      1214 6.61180E-06-2.79731E+06-4.62375E-06
 -1      1216 6.36089E-06 2.60715E+06-3.33440E-06
 -1      1225-3.09215E-07 2.09626E+05 4.16607E+06
 -1      1227-9.00582E-07 2.09626E+05-4.16607E+06
 -1      1228 7.92443E-06-2.79919E+06-2.27643E-06
 -1      1230 7.61787E-06 2.50869E+06 1.27391E-06
 -1      1239-6.41448E-06 2.29020E+05 3.97854E+06
 -1      1241-7.14152E-06 2.29020E+05-3.97854E+06
 -1      1242 2.09367E-06-2.72190E+06 5.50859E-06
 -1      1244 1.89201E-06 2.34705E+06 7.79655E-06
 -1      1253-7.74334E-06 2.48542E+05 3.69892E+06
 -1      1255-7.76814E-06 2.48542E+05-3.69892E+06
 -1      1256 4.24195E-07-2.58652E+06 1.18272E-05
 -1      1258 3.17826E-07 2.12619E+06 1.03195E-05
 -1      1267-6.70684E-06 2.52585E+05 3.33258E+06
 -1      1269-6.80834E-06 2.52585E+05-3.33258E+06
 -1      1270 5.57786E-06-2.37800E+06 1.15530E-05
 -1      1272 5.68447E-06 1.86796E+06 9.53905E-06
 -1      1281-6.78471E-06 2.47298E+05 2.89730E+06
 -1      1283-7.31124E-06 2.47298E+05-2.89730E+06
 -1      1284 1.37233E-05-2.11141E+06 7.08418E-06
 -1      1286 1.36421E-05 1.57997E+06 8.40069E-06
 -1      1295-6.53717E-06 2.24509E+05 2.40355E+06
 -1      1297-7.34004E-06 2.24509E+05-2.40355E+06
 -1      1298 1.90629E-05-1.78362E+06 8.40075E-06
 -1      1300 1.90717E-05 1.27869E+06 9.46825E-06
 -1      1309-2.47384E-06 1.88906E+05 1.86643E+06
 -1      1311-3.57056E-06 1.88906E+05-1.86643E+06
 -1      1312 1.75893E-05-1.40827E+06 1.11212E-05
 -1      1314 1.74388E-05 9.69698E+05 1.07337E-05
 -1      1323 2.08325E-06 1.38765E+05 1.29678E+06
 -1      1325 1.36136E-06 1.38765E+05-1.29678E+06
 -1      1326 1.04636E-05-9.90989E+05 1.02070E-05
 -1      1328 1.02674E-05 6.61210E+05 8.45066E-06
 -1      1337 1.49095E-06 7.94649E+04 7.06296E+05
 -1      1339 1.43432E-06 7.94649E+04-7.06296E+05
 -1      1340 7.66886E-07-5.46015E+05 9.21824E-06
 -1      1342 7.86322E-07 3.53858E+05 7.29632E-06
 -1      1351 4.08653E-07 1.38480E+04 1.04870E+05
 -1      1353 5.43145E-07 1.38480E+04-1.04870E+05
 -1      1354-4.03707E-06-8.47274E+04 6.31348E-06
 -1      1356-3.84330E-06 4.88843E+04 5.40849E-06
 -1      1365 1.87774E-07-5.22427E+04-4.98426E+05
 -1      1367 1.19006E-07-5.22427E+04 4.98426E+05
 -1      1368-4.92549E-06 3.78555E+05 5.05359E-07
 -1      1370-4.89214E-06-2.56477E+05 7.35628E-07
 -1      1379-9.66530E-07-1.14000E+05-1.09321E+06
 -1      1381-1.37876E-06-1.14000E+05 1.09321E+06
 -1      1382-8.33686E-06 8.29614E+05-5.11152E-07
 -1      1384-8.12306E-06-5.63220E+05 1.92816E-06
 -1      1393 1.14325E-06-1.66774E+05-1.67146E+06
 -1      1395 6.80637E-07-1.66774E+05 1.67146E+06
 -1      1396-9.44282E-06 1.25618E+06 1.23246E-05
 -1      1398-9.33858E-06-8.73383E+05 8.35409E-06
 -1      1407 7.22396E-06-2.06571E+05-2.21943E+06
 -1      1409 7.28235E-06-2.06571E+05 2.21943E+06
 -1      1410-7.12027E-06 1.64363E+06 1.56439E-05
 -1      1412-7.07772E-06-1.18409E+06 1.18894E-05
 -1      1421 9.85672E-06-2.31184E+05-2.72983E+06
 -1      1423 9.97318E-06-2.31184E+05 2.72983E+06
 -1      1424-4.94660E-06 1.98410E+06 5.04489E-06
 -1      1426-4.88897E-06-1.49390E+06 5.80496E-06
 -1      1435 6.25646E-06-2.40320E+05-3.18233E+06
 -1      1437 6.47147E-06-2.40320E+05 3.18233E+06
 -1      1438-2.32419E-06 2.26431E+06-2.05668E-07
 -1      1440-2.34381E-06-1.79021E+06 1.07465E-06
 -1      1449 4.49661E-06-2.31852E+05-3.57286E+06
 -1      1451 4.41683E-06-2.31852E+05 3.57286E+06
 -1      1452-2.51963E-06 2.48042E+06 1.04241E-06
 -1      1454-2.76486E-06-2.07167E+06 3.28387E-06
 -1      1463 4.71061E-06-2.15290E+05-3.87286E+06
 -1      1465 4.62784E-06-2.15290E+05 3.87286E+06
 -1      1466-6.67522E-06 2.62529E+06 3.81762E-06
 -1      1468-6.78997E-06-2.30903E+06 3.47461E-06
 -1      1477 3.03050E-06-1.75114E+05-4.07298E+06
 -1      1479 3.18960E-06-1.75114E+05 4.07298E+06
 -1      1480-8.46534E-06 2.67931E+06 1.85300E-06
 -1      1482-8.58105E-06-2.50997E+06 2.04870E-06
 -1      1491 2.73918E-06 3.95587E+04 1.44651E-07
 -1      1493 2.66292E-06 3.95587E+04 1.83375E-06
 -1      1494 2.89506E-06 8.29867E+04-1.34283E-06
 -1      1496 3.22006E-06 8.29867E+04 6.60890E-07
 -1      1497-4.21660E-07 3.95587E+04-1.69761E-06
 -1      1499 3.36811E-07 3.95587E+04-1.06718E-06
 -1      1500 2.40621E+03 3.91831E+03 1.67727E+04
 -1      1502 2.40621E+03 3.91831E+03 1.67727E+04
 -1      1503 4.21190E+03 9.77083E+03 3.54169E+04
 -1      1505 4.21190E+03 9.77083E+03 3.54169E+04
 -1      1506 5.20101E+03 1.76094E+04 5.34845E+04
 -1      1508 5.20101E+03 1.76094E+04 5.34845E+04
 -1      1509 5.39072E+03 2.62896E+04 7.00458E+04
 -1      1511 5.39072E+03 2.62896E+04 7.00458E+04
 -1      1512 4.86026E+03 3.45989E+04 8.50668E+04
 -1      1514 4.86026E+03 3.45989E+04 8.50668E+04
 -1      1515 3.73778E+03 4.15189E+04 9.80544E+04
 -1      1517 3.73778E+03 4.15189E+04 9.80544E+04
 -1      1518 2.19707E+03 4.62578E+04 1.08790E+05
 -1      1520 2.19707E+03 4.62578E+04 1.08790E+05
 -1      1521 4.45637E+02 4.83242E+04 1.16979E+05
 -1      1523 4.45637E+02 4.83242E+04 1.16979E+05
 -1      1524-1.29994E+03 4.75703E+04 1.22430E+05
 -1      1526-1.29994E+03 4.75703E+04 1.22430E+05
 -1      1527-2.83660E+03 4.41829E+04 1.24972E+05
 -1      1529-2.83660E+03 4.41829E+04 1.24972E+05
 -1      1530-3.99951E+03 3.86467E+04 1.24508E+05
 -1      1532-3.99951E+03 3.86467E+04 1.24508E+05
 -1      1533-4.68097E+03 3.16647E+04 1.20995E+05
 -1      1535-4.68097E+03 3.16647E+04 1.20995E+05
 -1      1536-4.84240E+03 2.40566E+04 1.14469E+05
 -1      1538-4.84240E+03 2.40566E+04 1.14469E+05
 -1      1539-4.51722E+03 1.66439E+04 1.05037E+05
 -1      1541-4.51722E+03 1.66439E+04 1.05037E+05
 -1      1542-3.80399E+03 1.01377E+04 9.28914E+04
 -1      1544-3.80399E+03 1.01377E+04 9.28914E+04
 -1      1545-2.85110E+03 5.04574E+03 7.83053E+04
 -1      1547-2.85110E+03 5.04574E+03 7.83053E+04
 -1      1548-1.83464E+03 1.60913E+03 6.16313E+04
 -1      1550-1.83464E+03 1.60913E+03 6.16313E+04
 -1      1551-9.33027E+02-2.21807E+02 4.32937E+04
 -1      1553-9.33027E+02-2.21807E+02 4.32937E+04
 -1      1554-3.01546E+02-7.69991E+02 2.37759E+04
 -1      1556-3.01546E+02-7.69991E+02 2.37759E+04
 -1      1557-5.06236E+01-5.75475E+02 3.60538E+03
 -1      1559-5.06236E+01-5.75475E+02 3.60538E+03
 -1      1560-2.30780E+02-3.09229E+02-1.66663E+04
 -1      1562-2.30780E+02-3.09229E+02-1.66663E+04
 -1      1563-8.26550E+02-6.69468E+02-3.64833E+04
 -1      1565-8.26550E+02-6.69468E+02-3.64833E+04
 -1      1566-1.76025E+03-2.27598E+03-5.53075E+04
 -1      1568-1.76025E+03-2.27598E+03-5.53075E+04
 -1      1569-2.90533E+03-5.57808E+03-7.26367E+04
 -1      1571-2.90533E+03-5.57808E+03-7.26367E+04
 -1      1572-4.10774E+03-1.07908E+04-8.80248E+04
 -1      1574-4.10774E+03-1.07908E+04-8.80248E+04
 -1      1575-5.21250E+03-1.78694E+04-1.01090E+05
 -1      1577-5.21250E+03-1.78694E+04-1.01090E+05
 -1      1578-6.09291E+03-2.65294E+04-1.11533E+05
 -1      1580-6.09291E+03-2.65294E+04-1.11533E+05
 -1      1581-6.67800E+03-3.63109E+04-1.19123E+05
 -1      1583-6.67800E+03-3.63109E+04-1.19123E+05
 -1      1584-6.97723E+03-4.66853E+04-1.23735E+05
 -1      1586-6.97723E+03-4.66853E+04-1.23735E+05
 -1      1587-4.70518E+03-5.19446E+04-8.24900E+04
 -1      1589-4.70518E+03-5.19446E+04-8.24900E+04
 -1      1590-5.04876E+05-3.89931E+05-2.36036E+04
 -1      1592-2.35178E+06-1.80958E+05-2.36036E+04
 -1      1593 4.70518E+03-5.19446E+04 8.24900E+04
 -1      1595 4.70518E+03-5.19446E+04 8.24900E+04
 -1      1596-2.40621E+03 3.91831E+03-1.67727E+04
 -1      1598-2.40621E+03 3.91831E+03-1.67727E+04
 -1      1599-4.21190E+03 9.77083E+03-3.54169E+04
 -1      1601-4.21190E+03 9.77083E+03-3.54169E+04
 -1      1602-5.20101E+03 1.76094E+04-5.34845E+04
 -1      1604-5.20101E+03 1.76094E+04-5.34845E+04
 -1      1605-5.39072E+03 2.62896E+04-7.00458E+04
 -1      1607-5.39072E+03 2.62896E+04-7.00458E+04
 -1      1608-4.86026E+03 3.45989E+04-8.50668E+04
 -1      1610-4.86026E+03 3.45989E+04-8.50668E+04
 -1      1611-3.73778E+03 4.15189E+04-9.80544E+04
 -1      1613-3.73778E+03 4.15189E+04-9.80544E+04
 -1      1614-2.19707E+03 4.62578E+04-1.08790E+05
 -1      1616-2.19707E+03 4.62578E+04-1.08790E+05
 -1      1617-4.45637E+02 4.83242E+04-1.16979E+05
 -1      1619-4.45637E+02 4.83242E+04-1.16979E+05
 -1      1620 1.29994E+03 4.75703E+04-1.22430E+05
 -1      1622 1.29994E+03 4.75703E+04-1.22430E+05
 -1      1623 2.83660E+03 4.41829E+04-1.24972E+05
 -1      1625 2.83660E+03 4.41829E+04-1.24972E+05
 -1      1626 3.99951E+03 3.86467E+04-1.24508E+05
 -1      1628 3.99951E+03 3.86467E+04-1.24508E+05
 -1      1629 4.68097E+03 3.16647E+04-1.20995E+05
 -1      1631 4.68097E+03 3.16647E+04-1.20995E+05
 -1      1632 4.84240E+03 2.40566E+04-1.14469E+05
 -1      1634 4.84240E+03 2.40566E+04-1.14469E+05
 -1      1635 4.51722E+03 1.66439E+04-1.05037E+05
 -1      1637 4.51722E+03 1.66439E+04-1.05037E+05
 -1      1638 3.80399E+03 1.01377E+04-9.28914E+04
 -1      1640 3.80399E+03 1.01377E+04-9.28914E+04
 -1      1641 2.85110E+03 5.04574E+03-7.83053E+04
 -1      1643 2.85110E+03 5.04574E+03-7.83053E+04
 -1      1644 1.83464E+03 1.60913E+03-6.16313E+04
 -1      1646 1.83464E+03 1.60913E+03-6.16313E+04
 -1      1647 9.33027E+02-2.21807E+02-4.32937E+04
 -1      1649 9.33027E+02-2.21807E+02-4.32937E+04
 -1      1650 3.01546E+02-7.69991E+02-2.37759E+04
 -1      1652 3.01546E+02-7.69991E+02-2.37759E+04
 -1      1653 5.06236E+01-5.75475E+02-3.60538E+03
 -1      1655 5.06236E+01-5.75475E+02-3.60538E+03
 -1      1656 2.30780E+02-3.09229E+02 1.66663E+04
 -1      1658 2.30780E+02-3.09229E+02 1.66663E+04
 -1      1659 8.26550E+02-6.69468E+02 3.64833E+04
 -1      1661 8.26550E+02-6.69468E+02 3.64833E+04
 -1      1662 1.76025E+03-2.27598E+03 5.53075E+04
 -1      1664 1.76025E+03-2.27598E+03 5.53075E+04
 -1      1665 2.90533E+03-5.57808E+03 7.26367E+04
 -1      1667 2.90533E+03-5.57808E+03 7.26367E+04
 -1      1668 4.10774E+03-1.07908E+04 8.80248E+04
 -1      1670 4.10774E+03-1.07908E+04 8.80248E+04
 -1      1671 5.21250E+03-1.78694E+04 1.01090E+05
 -1      1673 5.21250E+03-1.78694E+04 1.01090E+05
 -1      1674 6.09291E+03-2.65294E+04 1.11533E+05
 -1      1676 6.09291E+03-2.65294E+04 1.11533E+05
 -1      1677 6.67800E+03-3.63109E+04 1.19123E+05
 -1      1679 6.67800E+03-3.63109E+04 1.19123E+05
 -1      1680 6.97723E+03-4.66853E+04 1.23735E+05
 -1      1682 6.97723E+03-4.66853E+04 1.23735E+05
 -1      1683 5.04876E+05-3.89931E+05 2.36036E+04
 -1      1685 2.35178E+06-1.80958E+05 2.36036E+04
 -1      1686-3.15873E+03 7.67313E+03 2.19847E+04
 -1      1688-3.15873E+03 7.67313E+03 2.19847E+04
 -1      1689-5.57177E+03 1.93939E+04 4.65403E+04
 -1      1691-5.57177E+03 1.93939E+04 4.65403E+04
 -1      1692-6.89590E+03 3.51668E+04 7.03158E+04
 -1      1694-6.89590E+03 3.51668E+04 7.03158E+04
 -1      1695-7.14907E+03 5.25890E+04 9.20849E+04
 -1      1697-7.14907E+03 5.25890E+04 9.20849E+04
 -1      1698-6.45051E+03 6.92662E+04 1.11837E+05
 -1      1700-6.45051E+03 6.92662E+04 1.11837E+05
 -1      1701-4.96202E+03 8.31537E+04 1.28916E+05
 -1      1703-4.96202E+03 8.31537E+04 1.28916E+05
 -1      1704-2.91859E+03 9.26571E+04 1.43045E+05
 -1      1706-2.91859E+03 9.26571E+04 1.43045E+05
 -1      1707-5.94600E+02 9.67994E+04 1.53836E+05
 -1      1709-5.94600E+02 9.67994E+04 1.53836E+05
 -1      1710 1.72252E+03 9.52795E+04 1.61036E+05
 -1      1712 1.72252E+03 9.52795E+04 1.61036E+05
 -1      1713 3.76280E+03 8.84767E+04 1.64421E+05
 -1      1715 3.76280E+03 8.84767E+04 1.64421E+05
 -1      1716 5.30789E+03 7.73633E+04 1.63856E+05
 -1      1718 5.30789E+03 7.73633E+04 1.63856E+05
 -1      1719 6.21449E+03 6.33520E+04 1.59283E+05
 -1      1721 6.21449E+03 6.33520E+04 1.59283E+05
 -1      1722 6.43150E+03 4.80887E+04 1.50738E+05
 -1      1724 6.43150E+03 4.80887E+04 1.50738E+05
 -1      1725 6.00302E+03 3.32229E+04 1.38360E+05
 -1      1727 6.00302E+03 3.32229E+04 1.38360E+05
 -1      1728 5.05974E+03 2.01823E+04 1.22397E+05
 -1      1730 5.05974E+03 2.01823E+04 1.22397E+05
 -1      1731 3.79832E+03 9.98610E+03 1.03204E+05
 -1      1733 3.79832E+03 9.98610E+03 1.03204E+05
 -1      1734 2.45226E+03 3.11774E+03 8.12463E+04
 -1      1736 2.45226E+03 3.11774E+03 8.12463E+04
 -1      1737 1.25814E+03-5.23184E+02 5.70823E+04
 -1      1739 1.25814E+03-5.23184E+02 5.70823E+04
 -1      1740 4.21872E+02-1.58577E+03 3.13523E+04
 -1      1742 4.21872E+02-1.58577E+03 3.13523E+04
 -1      1743 8.99183E+01-1.15523E+03 4.75547E+03
 -1      1745 8.99183E+01-1.15523E+03 4.75547E+03
 -1      1746 3.29334E+02-5.79588E+02-2.19759E+04
 -1      1748 3.29334E+02-5.79588E+02-2.19759E+04
 -1      1749 1.11968E+03-1.26150E+03-4.81043E+04
 -1      1751 1.11968E+03-1.26150E+03-4.81043E+04
 -1      1752 2.35809E+03-4.44589E+03-7.29157E+04
 -1      1754 2.35809E+03-4.44589E+03-7.29157E+04
 -1      1755 3.87690E+03-1.10352E+04-9.57457E+04
 -1      1757 3.87690E+03-1.10352E+04-9.57457E+04
 -1      1758 5.47212E+03-2.14609E+04-1.16005E+05
 -1      1760 5.47212E+03-2.14609E+04-1.16005E+05
 -1      1761 6.93860E+03-3.56326E+04-1.33193E+05
 -1      1763 6.93860E+03-3.56326E+04-1.33193E+05
 -1      1764 8.10875E+03-5.29770E+04-1.46919E+05
 -1      1766 8.10875E+03-5.29770E+04-1.46919E+05
 -1      1767 8.88960E+03-7.25684E+04-1.56886E+05
 -1      1769 8.88960E+03-7.25684E+04-1.56886E+05
 -1      1770 9.29358E+03-9.33414E+04-1.62937E+05
 -1      1772 9.29358E+03-9.33414E+04-1.62937E+05
 -1      1773 3.15873E+03 7.67313E+03-2.19847E+04
 -1      1775 3.15873E+03 7.67313E+03-2.19847E+04
 -1      1776 5.57177E+03 1.93939E+04-4.65403E+04
 -1      1778 5.57177E+03 1.93939E+04-4.65403E+04
 -1      1779 6.89590E+03 3.51668E+04-7.03158E+04
 -1      1781 6.89590E+03 3.51668E+04-7.03158E+04
 -1      1782 7.14907E+03 5.25890E+04-9.20849E+04
 -1      1784 7.14907E+03 5.25890E+04-9.20849E+04
 -1      1785 6.45051E+03 6.92662E+04-1.11837E+05
 -1      1787 6.45051E+03 6.92662E+04-1.11837E+05
 -1      1788 4.96202E+03 8.31537E+04-1.28916E+05
 -1      1790 4.96202E+03 8.31537E+04-1.28916E+05
 -1      1791 2.91859E+03 9.26571E+04-1.43045E+05
 -1      1793 2.91859E+03 9.26571E+04-1.43045E+05
 -1      1794 5.94600E+02 9.67994E+04-1.53836E+05
 -1      1796 5.94600E+02 9.67994E+04-1.53836E+05
 -1      1797-1.72252E+03 9.52795E+04-1.61036E+05
 -1      1799-1.72252E+03 9.52795E+04-1.61036E+05
 -1      1800-3.76280E+03 8.84767E+04-1.64421E+05
 -1      1802-3.76280E+03 8.84767E+04-1.64421E+05
 -1      1803-5.30789E+03 7.73633E+04-1.63856E+05
 -1      1805-5.30789E+03 7.73633E+04-1.63856E+05
 -1      1806-6.21449E+03 6.33520E+04-1.59283E+05
 -1      1808-6.21449E+03 6.33520E+04-1.59283E+05
 -1      1809-6.43150E+03 4.80887E+04-1.50738E+05
 -1      1811-6.43150E+03 4.80887E+04-1.50738E+05
 -1      1812-6.00302E+03 3.32229E+04-1.38360E+05
 -1      1814-6.00302E+03 3.32229E+04-1.38360E+05
 -1      1815-5.05974E+03 2.01823E+04-1.22397E+05
 -1      1817-5.05974E+03 2.01823E+04-1.22397E+05
 -1      1818-3.79832E+03 9.98610E+03-1.03204E+05
 -1      1820-3.79832E+03 9.98610E+03-1.03204E+05
 -1      1821-2.45226E+03 3.11774E+03-8.12463E+04
 -1      1823-2.45226E+03 3.11774E+03-8.12463E+04
 -1      1824-1.25814E+03-5.23184E+02-5.70823E+04
 -1      1826-1.25814E+03-5.23184E+02-5.70823E+04
 -1      1827-4.21872E+02-1.58577E+03-3.13523E+04
 -1      1829-4.21872E+02-1.58577E+03-3.13523E+04
 -1      1830-8.99184E+01-1.15523E+03-4.75547E+03
 -1      1832-8.99184E+01-1.15523E+03-4.75547E+03
 -1      1833-3.29334E+02-5.79588E+02 2.19759E+04
 -1      1835-3.29334E+02-5.79588E+02 2.19759E+04
 -1      1836-1.11968E+03-1.26150E+03 4.81043E+04
 -1      1838-1.11968E+03-1.26150E+03 4.81043E+04
 -1      1839-2.35809E+03-4.44589E+03 7.29157E+04
 -1      1841-2.35809E+03-4.44589E+03 7.29157E+04
 -1      1842-3.87690E+03-1.10352E+04 9.57457E+04
 -1      1844-3.87690E+03-1.10352E+04 9.57457E+04
 -1      1845-5.47212E+03-2.14609E+04 1.16005E+05
 -1      1847-5.47212E+03-2.14609E+04 1.16005E+05
 -1      1848-6.93860E+03-3.56326E+04 1.33193E+05
 -1      1850-6.93860E+03-3.56326E+04 1.33193E+05
 -1      1851-8.10875E+03-5.29770E+04 1.46919E+05
 -1      1853-8.10875E+03-5.29770E+04 1.46919E+05
 -1      1854-8.88960E+03-7.25684E+04 1.56886E+05
 -1      1856-8.88960E+03-7.25684E+04 1.56886E+05
 -1      1857-9.29358E+03-9.33414E+04 1.62937E+05
 -1      1859-9.29358E+03-9.33414E+04 1.62937E+05
 -1      1860-1.10756E-06-1.89781E+04 1.68744E-06
 -1      1862-1.03517E-06-1.89781E+04 1.53689E-06
 -1      1863-2.16092E-06-3.37921E+04-3.74690E-07
 -1      1865-2.40268E-06-3.37921E+04-7.25639E-07
 -1      1866-1.86640E-06-4.15100E+04-7.81110E-07
 -1      1868-2.20288E-06-4.15100E+04-8.86364E-07
 -1      1869 3.67171E-06-4.46552E+04-1.29144E-06
 -1      1871 3.42852E-06-4.46552E+04-1.05949E-06
 -1      1872 7.62361E-06-4.63446E+04-4.46082E-07
 -1      1874 7.54944E-06-4.63446E+04-3.02316E-07
 -1      1875 6.18211E-06-4.88962E+04 1.56620E-06
 -1      1877 5.88227E-06-4.88962E+04 2.02797E-06
 -1      1878 1.50201E-06-5.43349E+04 2.24184E-06
 -1      1880 1.04197E-06-5.43349E+04 2.77251E-06
 -1      1881-1.69566E-06-6.35913E+04 2.22376E-06
 -1      1883-1.82602E-06-6.35913E+04 2.53873E-06
 -1      1884 7.41225E-07-7.67590E+04-4.29961E-06
 -1      1886 1.35037E-06-7.67590E+04-3.55035E-06
 -1      1887 4.52236E-06-9.28696E+04-5.00660E-06
 -1      1889 5.31334E-06-9.28696E+04-4.61141E-06
 -1      1890 3.07853E-06-1.10169E+05 1.91058E-06
 -1      1892 3.59649E-06-1.10169E+05 1.45694E-06
 -1      1893 2.43518E-06-1.26301E+05 4.30899E-06
 -1      1895 2.89192E-06-1.26301E+05 2.96271E-06
 -1      1896 3.62307E-06-1.38687E+05 5.79267E-06
 -1      1898 4.09427E-06-1.38687E+05 4.62824E-06
 -1      1899 2.77887E-07-1.44890E+05 6.37018E-06
 -1      1901 7.30932E-07-1.44890E+05 5.82529E-06
 -1      1902-4.03034E-06-1.42982E+05 3.29954E-06
 -1      1904-3.82417E-06-1.42982E+05 3.27428E-06
 -1      1905-3.18012E-06-1.31852E+05 1.04800E-06
 -1      1907-2.78316E-06-1.31852E+05-3.74275E-08
 -1      1908-1.12674E-06-1.11394E+05 1.77181E-06
 -1      1910-2.96897E-07-1.11394E+05 1.13976E-06
 -1      1911-3.12836E-06-8.25729E+04 1.48527E-06
 -1      1913-2.34155E-06-8.25729E+04 1.41072E-06
 -1      1914-6.57560E-06-4.73464E+04-4.11635E-06
 -1      1916-6.73718E-06-4.73464E+04-3.86936E-06
 -1      1917-5.62706E-06-8.45000E+03-6.00365E-06
 -1      1919-6.37998E-06-8.45000E+03-4.85410E-06
 -1      1920-2.02273E-07 3.09172E+04-2.32790E-06
 -1      1922-1.01447E-06 3.09172E+04-2.07420E-06
 -1      1923 3.50176E-06 6.74666E+04 7.92141E-07
 -1      1925 3.22324E-06 6.74666E+04 8.74767E-07
 -1      1926 4.93533E-06 9.82041E+04 1.09246E-06
 -1      1928 4.72396E-06 9.82041E+04-6.16652E-07
 -1      1929 6.81663E-06 1.20765E+05 3.64846E-07
 -1      1931 6.90863E-06 1.20765E+05-7.32165E-07
 -1      1932 6.42669E-06 1.33663E+05 4.42013E-06
 -1      1934 6.24353E-06 1.33663E+05 3.06055E-06
 -1      1935 5.08250E-06 1.36396E+05 5.23391E-06
 -1      1937 5.36065E-06 1.36396E+05 3.65661E-06
 -1      1938 4.21962E-06 1.29424E+05 2.16726E-06
 -1      1940 4.91321E-06 1.29424E+05 2.50612E-06
 -1      1941 2.47331E-06 1.13966E+05 3.24509E-06
 -1      1943 2.93175E-06 1.13966E+05 3.87456E-06
 -1      1944 3.66523E-06 9.17110E+04 2.67621E-06
 -1      1946 3.38696E-06 9.17110E+04 4.73975E-06
 -1      1947-2.99906E-06-3.01970E+04-3.80243E-06
 -1      1949-2.97645E-06-3.01970E+04-3.66363E-06
 -1      1950-4.59149E-07-5.69624E+04-7.31355E-06
 -1      1952-6.54501E-07-5.69624E+04-7.09820E-06
 -1      1953 4.63406E-08-7.61738E+04-1.43639E-06
 -1      1955-6.45370E-07-7.61738E+04-1.14812E-06
 -1      1956 9.19274E-07-8.99182E+04 1.88100E-06
 -1      1958 3.81316E-07-8.99182E+04 2.08677E-06
 -1      1959 3.17528E-06-1.01265E+05-1.09146E-06
 -1      1961 2.97910E-06-1.01265E+05-1.22311E-06
 -1      1962 3.10086E-06-1.12315E+05-2.80631E-06
 -1      1964 2.54721E-06-1.12315E+05-3.09995E-06
 -1      1965 5.26842E-06-1.25000E+05-5.33290E-06
 -1      1967 4.53156E-06-1.25000E+05-5.39517E-06
 -1      1968 7.02117E-06-1.40091E+05-2.37492E-06
 -1      1970 7.03161E-06-1.40091E+05-2.08207E-06
 -1      1971 4.77203E-06-1.57544E+05-8.06207E-07
 -1      1973 5.41721E-06-1.57544E+05 6.21763E-07
 -1      1974 5.67676E-06-1.76227E+05-1.48854E-06
 -1      1976 5.97216E-06-1.76227E+05-4.73134E-07
 -1      1977 6.38958E-06-1.94228E+05-5.14832E-07
 -1      1979 6.36249E-06-1.94228E+05 6.29705E-07
 -1      1980 4.07068E-06-2.09048E+05-1.32994E-06
 -1      1982 3.94423E-06-2.09048E+05-1.39835E-06
 -1      1983 1.88396E-06-2.18000E+05 1.51101E-06
 -1      1985 1.87037E-06-2.18000E+05 1.69851E-06
 -1      1986-1.28989E-06-2.18595E+05 6.57712E-06
 -1      1988-9.73090E-07-2.18595E+05 5.42683E-06
 -1      1989-5.12346E-06-2.08936E+05 3.29256E-06
 -1      1991-4.80647E-06-2.08936E+05 2.59600E-06
 -1      1992-4.83236E-06-1.88029E+05-2.19941E-06
 -1      1994-5.13351E-06-1.88029E+05-2.47090E-06
 -1      1995 3.37885E-07-1.55990E+05-3.09564E-06
 -1      1997-1.89016E-07-1.55990E+05-4.39637E-06
 -1      1998 4.21619E-06-1.14102E+05-5.76461E-06
 -1      2000 4.06290E-06-1.14102E+05-6.41336E-06
 -1      2001 1.24524E-06-6.47282E+04-5.04060E-06
 -1      2003 6.04515E-07-6.47282E+04-4.57669E-06
 -1      2004-8.62091E-07-1.10718E+04-1.86338E-06
 -1      2006-1.68883E-06-1.10718E+04-1.84019E-06
 -1      2007 3.01139E-06 4.31611E+04-2.63688E-06
 -1      2009 2.21926E-06 4.31611E+04 1.25088E-07
 -1      2010 5.01485E-06 9.41710E+04-7.60883E-07
 -1      2012 3.96267E-06 9.41710E+04 3.22638E-07
 -1      2013 4.08258E-06 1.38482E+05-1.36422E-06
 -1      2015 3.79320E-06 1.38482E+05-1.11850E-06
 -1      2016 5.97538E-06 1.73306E+05-4.55530E-06
 -1      2018 5.91350E-06 1.73306E+05-5.21708E-06
 -1      2019 7.39753E-06 1.96817E+05-4.24200E-06
 -1      2021 6.84665E-06 1.96817E+05-5.74067E-06
 -1      2022 6.39638E-06 2.08275E+05-4.72524E-06
 -1      2024 6.66372E-06 2.08275E+05-4.63923E-06
 -1      2025 4.92653E-06 2.08013E+05-6.64606E-06
 -1      2027 5.55108E-06 2.08013E+05-7.11947E-06
 -1      2028 2.63792E-06 1.97224E+05-6.12137E-06
 -1      2030 2.96668E-06 1.97224E+05-5.63481E-06
 -1      2031 3.57955E-06 1.77682E+05-2.64637E-06
 -1      2033 4.08392E-06 1.77682E+05 3.25614E-07
 -1      2034 6.38978E-06-1.89781E+04-6.38441E-06
 -1      2036 6.28457E-06-1.89781E+04-6.03047E-06
 -1      2037 6.00717E-06-3.37921E+04-6.92331E-06
 -1      2039 5.67215E-06-3.37921E+04-6.29225E-06
 -1      2040-6.41059E-07-4.15100E+04 1.52404E-06
 -1      2042-1.33015E-06-4.15100E+04 1.98009E-06
 -1      2043-2.17801E-06-4.46552E+04 5.67528E-06
 -1      2045-2.72578E-06-4.46552E+04 6.06978E-06
 -1      2046-3.87063E-07-4.63446E+04 1.16826E-06
 -1      2048-7.46273E-07-4.63446E+04 9.42586E-07
 -1      2049 6.55695E-07-4.88962E+04-7.11589E-09
 -1      2051 2.13455E-07-4.88962E+04-6.30971E-07
 -1      2052 4.67115E-06-5.43349E+04-3.53341E-06
 -1      2054 4.09727E-06-5.43349E+04-3.84844E-06
 -1      2055 5.49040E-06-6.35913E+04-7.76071E-06
 -1      2057 5.74296E-06-6.35913E+04-7.33192E-06
 -1      2058 2.94223E-06-7.67590E+04-4.11527E-06
 -1      2060 3.33392E-06-7.67590E+04-3.57431E-06
 -1      2061 8.02434E-06-9.28696E+04 6.92204E-07
 -1      2063 7.80122E-06-9.28696E+04 1.57092E-06
 -1      2064 9.58419E-06-1.10169E+05 2.08953E-06
 -1      2066 8.64148E-06-1.10169E+05 2.59508E-06
 -1      2067 2.44904E-06-1.26301E+05-2.35908E-07
 -1      2069 1.39528E-06-1.26301E+05 3.18767E-07
 -1      2070-2.32190E-07-1.38687E+05-2.09577E-07
 -1      2072-4.70962E-07-1.38687E+05 1.11977E-07
 -1      2073 1.31673E-06-1.44890E+05 3.82672E-06
 -1      2075 1.15854E-06-1.44890E+05 2.14626E-06
 -1      2076 4.43856E-06-1.42982E+05 2.63918E-06
 -1      2078 3.62942E-06-1.42982E+05 1.34508E-06
 -1      2079 7.17719E-06-1.31852E+05-3.76000E-06
 -1      2081 5.80365E-06-1.31852E+05-3.53360E-06
 -1      2082 9.57520E-06-1.11394E+05-8.16229E-06
 -1      2084 7.54603E-06-1.11394E+05-7.27459E-06
 -1      2085 9.47784E-06-8.25729E+04-5.47500E-06
 -1      2087 8.43272E-06-8.25729E+04-6.38499E-06
 -1      2088 3.39228E-06-4.73464E+04-8.21616E-07
 -1      2090 3.03962E-06-4.73464E+04-6.63698E-07
 -1      2091-5.48031E-07-8.45000E+03 5.15622E-06
 -1      2093-2.75565E-07-8.45000E+03 4.97811E-06
 -1      2094-9.33909E-07 3.09172E+04 4.18282E-06
 -1      2096-9.48436E-07 3.09172E+04 4.78856E-06
 -1      2097-3.13001E-06 6.74666E+04-4.32890E-07
 -1      2099-4.13669E-06 6.74666E+04-7.52683E-07
 -1      2100-3.14596E-06 9.82041E+04-1.97266E-06
 -1      2102-3.76285E-06 9.82041E+04-1.93974E-06
 -1      2103 2.18152E-06 1.20765E+05-3.61237E-06
 -1      2105 2.08399E-06 1.20765E+05-2.65494E-06
 -1      2106 4.87059E-06 1.33663E+05-2.26473E-06
 -1      2108 4.46966E-06 1.33663E+05-1.90867E-06
 -1      2109 3.78884E-06 1.36396E+05-2.11455E-06
 -1      2111 4.20958E-06 1.36396E+05-3.23111E-06
 -1      2112 2.10603E-06 1.29424E+05-6.86270E-06
 -1      2114 2.37322E-06 1.29424E+05-7.96886E-06
 -1      2115-2.32885E-06 1.13966E+05-6.09502E-06
 -1      2117-2.53006E-06 1.13966E+05-6.82024E-06
 -1      2118-3.12245E-06 9.17110E+04-3.72176E-06
 -1      2120-2.63157E-06 9.17110E+04-3.45532E-06
 -1      2121 3.15873E+03 7.67313E+03 2.19847E+04
 -1      2123 3.15873E+03 7.67313E+03 2.19847E+04
 -1      2124 5.57177E+03 1.93939E+04 4.65403E+04
 -1      2126 5.57177E+03 1.93939E+04 4.65403E+04
 -1      2127 6.89590E+03 3.51668E+04 7.03158E+04
 -1      2129 6.89590E+03 3.51668E+04 7.03158E+04
 -1      2130 7.14907E+03 5.25890E+04 9.20849E+04
 -1      2132 7.14907E+03 5.25890E+04 9.20849E+04
 -1      2133 6.45051E+03 6.92662E+04 1.11837E+05
 -1      2135 6.45051E+03 6.92662E+04 1.11837E+05
 -1      2136 4.96202E+03 8.31537E+04 1.28916E+05
 -1      2138 4.96202E+03 8.31537E+04 1.28916E+05
 -1      2139 2.91859E+03 9.26571E+04 1.43045E+05
 -1      2141 2.91859E+03 9.26571E+04 1.43045E+05
 -1      2142 5.94600E+02 9.67994E+04 1.53836E+05
 -1      2144 5.94600E+02 9.67994E+04 1.53836E+05
 -1      2145-1.72252E+03 9.52795E+04 1.61036E+05
 -1      2147-1.72252E+03 9.52795E+04 1.61036E+05
 -1      2148-3.76280E+03 8.84767E+04 1.64421E+05
 -1      2150-3.76280E+03 8.84767E+04 1.64421E+05
 -1      2151-5.30789E+03 7.73633E+04 1.63856E+05
 -1      2153-5.30789E+03 7.73633E+04 1.63856E+05
 -1      2154-6.21449E+03 6.33520E+04 1.59283E+05
 -1      2156-6.21449E+03 6.33520E+04 1.59283E+05
 -1      2157-6.43150E+03 4.80887E+04 1.50738E+05
 -1      2159-6.43150E+03 4.80887E+04 1.50738E+05
 -1      2160-6.00302E+03 3.32229E+04 1.38360E+05
 -1      2162-6.00302E+03 3.32229E+04 1.38360E+05
 -1      2163-5.05974E+03 2.01823E+04 1.22397E+05
 -1      2165-5.05974E+03 2.01823E+04 1.22397E+05
 -1      2166-3.79832E+03 9.98610E+03 1.03204E+05
 -1      2168-3.79832E+03 9.98610E+03 1.03204E+05
 -1      2169-2.45226E+03 3.11774E+03 8.12463E+04
 -1      2171-2.45226E+03 3.11774E+03 8.12463E+04
 -1      2172-1.25814E+03-5.23184E+02 5.70823E+04
 -1      2174-1.25814E+03-5.23184E+02 5.70823E+04
 -1      2175-4.21872E+02-1.58577E+03 3.13523E+04
 -1      2177-4.21872E+02-1.58577E+03 3.13523E+04
 -1      2178-8.99183E+01-1.15523E+03 4.75547E+03
 -1      2180-8.99183E+01-1.15523E+03 4.75547E+03
 -1      2181-3.29334E+02-5.79588E+02-2.19759E+04
 -1      2183-3.29334E+02-5.79588E+02-2.19759E+04
 -1      2184-1.11968E+03-1.26150E+03-4.81043E+04
 -1      2186-1.11968E+03-1.26150E+03-4.81043E+04
 -1      2187-2.35809E+03-4.44589E+03-7.29157E+04
 -1      2189-2.35809E+03-4.44589E+03-7.29157E+04
 -1      2190-3.87690E+03-1.10352E+04-9.57457E+04
 -1      2192-3.87690E+03-1.10352E+04-9.57457E+04
 -1      2193-5.47212E+03-2.14609E+04-1.16005E+05
 -1      2195-5.47212E+03-2.14609E+04-1.16005E+05
 -1      2196-6.93860E+03-3.56326E+04-1.33193E+05
 -1      2198-6.93860E+03-3.56326E+04-1.33193E+05
 -1      2199-8.10875E+03-5.29770E+04-1.46919E+05
 -1      2201-8.10875E+03-5.29770E+04-1.46919E+05
 -1      2202-8.88960E+03-7.25684E+04-1.56886E+05
 -1      2204-8.88960E+03-7.25684E+04-1.56886E+05
 -1      2205-9.29358E+03-9.33414E+04-1.62937E+05
 -1      2207-9.29358E+03-9.33414E+04-1.62937E+05
 -1      2208-3.15873E+03 7.67313E+03-2.19847E+04
 -1      2210-3.15873E+03 7.67313E+03-2.19847E+04
 -1      2211-5.57177E+03 1.93939E+04-4.65403E+04
 -1      2213-5.57177E+03 1.93939E+04-4.65403E+04
 -1      2214-6.89590E+03 3.51668E+04-7.03158E+04
 -1      2216-6.89590E+03 3.51668E+04-7.03158E+04
 -1      2217-7.14907E+03 5.25890E+04-9.20849E+04
 -1      2219-7.14907E+03 5.25890E+04-9.20849E+04
 -1      2220-6.45051E+03 6.92662E+04-1.11837E+05
 -1      2222-6.45051E+03 6.92662E+04-1.11837E+05
 -1      2223-4.96202E+03 8.31537E+04-1.28916E+05
 -1      2225-4.96202E+03 8.31537E+04-1.28916E+05
 -1      2226-2.91859E+03 9.26571E+04-1.43045E+05
 -1      2228-2.91859E+03 9.26571E+04-1.43045E+05
 -1      2229-5.94600E+02 9.67994E+04-1.53836E+05
 -1      2231-5.94600E+02 9.67994E+04-1.53836E+05
 -1      2232 1.72252E+03 9.52795E+04-1.61036E+05
 -1      2234 1.72252E+03 9.52795E+04-1.61036E+05
 -1      2235 3.76280E+03 8.84767E+04-1.64421E+05
 -1      2237 3.76280E+03 8.84767E+04-1.64421E+05
 -1      2238 5.30789E+03 7.73633E+04-1.63856E+05
 -1      2240 5.30789E+03 7.73633E+04-1.63856E+05
 -1      2241 6.21449E+03 6.33520E+04-1.59283E+05
 -1      2243 6.21449E+03 6.33520E+04-1.59283E+05
 -1      2244 6.43150E+03 4.80887E+04-1.50738E+05
 -1      2246 6.43150E+03 4.80887E+04-1.50738E+05
 -1      2247 6.00302E+03 3.32229E+04-1.38360E+05
 -1      2249 6.00302E+03 3.32229E+04-1.38360E+05
 -1      2250 5.05974E+03 2.01823E+04-1.22397E+05
 -1      2252 5.05974E+03 2.01823E+04-1.22397E+05
 -1      2253 3.79832E+03 9.98610E+03-1.03204E+05
 -1      2255 3.79832E+03 9.98610E+03-1.03204E+05
 -1      2256 2.45226E+03 3.11774E+03-8.12463E+04
 -1      2258 2.45226E+03 3.11774E+03-8.12463E+04
 -1      2259 1.25814E+03-5.23184E+02-5.70823E+04
 -1      2261 1.25814E+03-5.23184E+02-5.70823E+04
 -1      2262 4.21872E+02-1.58577E+03-3.13523E+04
 -1      2264 4.21872E+02-1.58577E+03-3.13523E+04
 -1      2265 8.99184E+01-1.15523E+03-4.75547E+03
 -1      2267 8.99184E+01-1.15523E+03-4.75547E+03
 -1      2268 3.29334E+02-5.79588E+02 2.19759E+04
 -1      2270 3.29334E+02-5.79588E+02 2.19759E+04
 -1      2271 1.11968E+03-1.26150E+03 4.81043E+04
 -1      2273 1.11968E+03-1.26150E+03 4.81043E+04
 -1      2274 2.35809E+03-4.44589E+03 7.29157E+04
 -1      2276 2.35809E+03-4.44589E+03 7.29157E+04
 -1      2277 3.87690E+03-1.10352E+04 9.57457E+04
 -1      2279 3.87690E+03-1.10352E+04 9.57457E+04
 -1      2280 5.47212E+03-2.14609E+04 1.16005E+05
 -1      2282 5.47212E+03-2.14609E+04 1.16005E+05
 -1      2283 6.93860E+03-3.56326E+04 1.33193E+05
 -1      2285 6.93860E+03-3.56326E+04 1.33193E+05
 -1      2286 8.10875E+03-5.29770E+04 1.46919E+05
 -1      2288 8.10875E+03-5.29770E+04 1.46919E+05
 -1      2289 8.88960E+03-7.25684E+04 1.56886E+05
 -1      2291 8.88960E+03-7.25684E+04 1.56886E+05
 -1      2292 9.29358E+03-9.33414E+04 1.62937E+05
 -1      2294 9.29358E+03-9.33414E+04 1.62937E+05
 -3
    1PSTEP                        48           1           1          
    1PGM                1.000000E+00                                  
    1PGK                7.076828E+06                                  
    1PHID                         -1                                  
    1PSUBC                         0                                  
    1PMODE                        12                                  
  100CL  112 423.3888922         930                     2   12MODAL      1
 -4  ERROR       1    1
 -5  STR(%)      1    1    0    0
 -1       404 0.00000E+00
 -1       406 0.00000E+00
 -1       407 0.00000E+00
 -1       409 0.00000E+00
 -1       410 0.00000E+00
 -1       412 0.00000E+00
 -1       413 0.00000E+00
 -1       415 0.00000E+00
 -1       424 0.00000E+00
 -1       426 0.00000E+00
 -1       427 0.00000E+00
 -1       429 0.00000E+00
 -1       438 0.00000E+00
 -1       440 0.00000E+00
 -1       441 0.00000E+00
 -1       443 0.00000E+00
 -1       444 0.00000E+00
 -1       446 0.00000E+00
 -1       447 0.00000E+00
 -1       449 0.00000E+00
 -1       458 0.00000E+00
 -1       460 0.00000E+00
 -1       461 0.00000E+00
 -1       463 0.00000E+00
 -1       472 0.00000E+00
 -1       474 0.00000E+00
 -1       475 0.00000E+00
 -1       477 0.00000E+00
 -1       478 0.00000E+00
 -1       480 0.00000E+00
 -1       481 0.00000E+00
 -1       483 0.00000E+00
 -1       484 0.00000E+00
 -1       486 0.00000E+00
 -1       487 0.00000E+00
 -1       489 0.00000E+00
 -1       490 0.00000E+00
 -1       492 0.00000E+00
 -1       493 0.00000E+00
 -1       495 0.00000E+00
 -1       496 0.00000E+00
 -1       498 0.00000E+00
 -1       499 0.00000E+00
 -1       501 0.00000E+00
 -1       502 0.00000E+00
 -1       504 0.00000E+00
 -1       505 0.00000E+00
 -1       507 0.00000E+00
 -1       508 0.00000E+00
 -1       510 0.00000E+00
 -1       511 0.00000E+00
 -1       513 0.00000E+00
 -1       514 0.00000E+00
 -1       516 0.00000E+00
 -1       517 0.00000E+00
 -1       519 0.00000E+00
 -1       520 0.00000E+00
 -1       522 0.00000E+00
 -1       523 0.00000E+00
 -1       525 0.00000E+00
 -1       526 0.00000E+00
 -1       528 0.00000E+00
 -1       529 0.00000E+00
 -1       531 0.00000E+00
 -1       532 0.00000E+00
 -1       534 0.00000E+00
 -1       535 0.00000E+00
 -1       537 0.00000E+00
 -1       538 0.00000E+00
 -1       540 0.00000E+00
 -1       541 0.00000E+00
 -1       543 0.00000E+00
 -1       544 0.00000E+00
 -1       546 0.00000E+00
 -1       547 0.00000E+00
 -1       549 0.00000E+00
 -1       550 0.00000E+00
 -1       552 0.00000E+00
 -1       553 0.00000E+00
 -1       555 0.00000E+00
 -1       556 0.00000E+00
 -1       558 0.00000E+00
 -1       559 0.00000E+00
 -1       561 0.00000E+00
 -1       562 0.00000E+00
 -1       564 0.00000E+00
 -1       565 0.00000E+00
 -1       567 0.00000E+00
 -1       568 0.00000E+00
 -1       570 0.00000E+00
 -1       571 0.00000E+00
 -1       573 0.00000E+00
 -1       574 0.00000E+00
 -1       576 0.00000E+00
 -1       577 0.00000E+00
 -1       579 0.00000E+00
 -1       588 0.00000E+00
 -1       590 0.00000E+00
 -1       591 0.00000E+00
 -1       593 0.00000E+00
 -1       602 0.00000E+00
 -1       604 0.00000E+00
 -1       605 0.00000E+00
 -1       607 0.00000E+00
 -1       616 0.00000E+00
 -1       618 0.00000E+00
 -1       619 0.00000E+00
 -1       621 0.00000E+00
 -1       630 0.00000E+00
 -1       632 0.00000E+00
 -1       633 0.00000E+00
 -1       635 0.00000E+00
 -1       644 0.00000E+00
 -1       646 0.00000E+00
 -1       647 0.00000E+00
 -1       649 0.00000E+00
 -1       658 0.00000E+00
 -1       660 0.00000E+00
 -1       661 0.00000E+00
 -1       663 0.00000E+00
 -1       672 0.00000E+00
 -1       674 0.00000E+00
 -1       675 0.00000E+00
 -1       677 0.00000E+00
 -1       686 0.00000E+00
 -1       688 0.00000E+00
 -1       689 0.00000E+00
 -1       691 0.00000E+00
 -1       700 0.00000E+00
 -1       702 0.00000E+00
 -1       703 0.00000E+00
 -1       705 0.00000E+00
 -1       714 0.00000E+00
 -1       716 0.00000E+00
 -1       717 0.00000E+00
 -1       719 0.00000E+00
 -1       728 0.00000E+00
 -1       730 0.00000E+00
 -1       731 0.00000E+00
 -1       733 0.00000E+00
 -1       742 0.00000E+00
 -1       744 0.00000E+00
 -1       745 0.00000E+00
 -1       747 0.00000E+00
 -1       756 0.00000E+00
 -1       758 0.00000E+00
 -1       759 0.00000E+00
 -1       761 0.00000E+00
 -1       770 0.00000E+00
 -1       772 0.00000E+00
 -1       773 0.00000E+00
 -1       775 0.00000E+00
 -1       784 0.00000E+00
 -1       786 0.00000E+00
 -1       787 0.00000E+00
 -1       789 0.00000E+00
 -1       798 0.00000E+00
 -1       800 0.00000E+00
 -1       801 0.00000E+00
 -1       803 0.00000E+00
 -1       812 0.00000E+00
 -1       814 0.00000E+00
 -1       815 0.00000E+00
 -1       817 0.00000E+00
 -1       826 0.00000E+00
 -1       828 0.00000E+00
 -1       829 0.00000E+00
 -1       831 0.00000E+00
 -1       840 0.00000E+00
 -1       842 0.00000E+00
 -1       843 0.00000E+00
 -1       845 0.00000E+00
 -1       854 0.00000E+00
 -1       856 0.00000E+00
 -1       857 0.00000E+00
 -1       859 0.00000E+00
 -1       868 0.00000E+00
 -1       870 0.00000E+00
 -1       871 0.00000E+00
 -1       873 0.00000E+00
 -1       882 0.00000E+00
 -1       884 0.00000E+00
 -1       885 0.00000E+00
 -1       887 0.00000E+00
 -1       896 0.00000E+00
 -1       898 0.00000E+00
 -1       899 0.00000E+00
 -1       901 0.00000E+00
 -1       910 0.00000E+00
 -1       912 0.00000E+00
 -1       913 0.00000E+00
 -1       915 0.00000E+00
 -1       924 0.00000E+00
 -1       926 0.00000E+00
 -1       927 0.00000E+00
 -1       929 0.00000E+00
 -1       938 0.00000E+00
 -1       940 0.00000E+00
 -1       941 0.00000E+00
 -1       943 0.00000E+00
 -1       952 0.00000E+00
 -1       954 0.00000E+00
 -1       955 0.00000E+00
 -1       957 0.00000E+00
 -1       966 0.00000E+00
 -1       968 0.00000E+00
 -1       969 0.00000E+00
 -1       971 0.00000E+00
 -1       980 0.00000E+00
 -1       982 0.00000E+00
 -1       983 0.00000E+00
 -1       985 0.00000E+00
 -1       986 0.00000E+00
 -1       988 0.00000E+00
 -1       989 0.00000E+00
 -1       991 0.00000E+00
 -1       992 0.00000E+00
 -1       994 0.00000E+00
 -1       995 0.00000E+00
 -1       997 0.00000E+00
 -1       998 0.00000E+00
 -1      1000 0.00000E+00
 -1      1001 0.00000E+00
 -1      1003 0.00000E+00
 -1      1004 0.00000E+00
 -1      1006 0.00000E+00
 -1      1007 0.00000E+00
 -1      1009 0.00000E+00
 -1      1010 0.00000E+00
 -1      1012 0.00000E+00
 -1      1013 0.00000E+00
 -1      1015 0.00000E+00
 -1      1016 0.00000E+00
 -1      1018 0.00000E+00
 -1      1019 0.00000E+00
 -1      1021 0.00000E+00
 -1      1022 0.00000E+00
 -1      1024 0.00000E+00
 -1      1025 0.00000E+00
 -1      1027 0.00000E+00
 -1      1028 0.00000E+00
 -1      1030 0.00000E+00
 -1      1031 0.00000E+00
 -1      1033 0.00000E+00
 -1      1034 0.00000E+00
 -1      1036 0.00000E+00
 -1      1037 0.00000E+00
 -1      1039 0.00000E+00
 -1      1040 0.00000E+00
 -1      1042 0.00000E+00
 -1      1043 0.00000E+00
 -1      1045 0.00000E+00
 -1      1046 0.00000E+00
 -1      1048 0.00000E+00
 -1      1049 0.00000E+00
 -1      1051 0.00000E+00
 -1      1052 0.00000E+00
 -1      1054 0.00000E+00
 -1      1055 0.00000E+00
 -1      1057 0.00000E+00
 -1      1058 0.00000E+00
 -1      1060 0.00000E+00
 -1      1061 0.00000E+00
 -1      1063 0.00000E+00
 -1      1064 0.00000E+00
 -1      1066 0.00000E+00
 -1      1067 0.00000E+00
 -1      1069 0.00000E+00
 -1      1070 0.00000E+00
 -1      1072 0.00000E+00
 -1      1073 0.00000E+00
 -1      1075 0.00000E+00
 -1      1076 0.00000E+00
 -1      1078 0.00000E+00
 -1      1079 0.00000E+00
 -1      1081 0.00000E+00
 -1      1082 0.00000E+00
 -1      1084 0.00000E+00
 -1      1085 0.00000E+00
 -1      1087 0.00000E+00
 -1      1088 0.00000E+00
 -1      1090 0.00000E+00
 -1      1099 0.00000E+00
 -1      1101 0.00000E+00
 -1      1102 0.00000E+00
 -1      1104 0.00000E+00
 -1      1113 0.00000E+00
 -1      1115 0.00000E+00
 -1      1116 0.00000E+00
 -1      1118 0.00000E+00
 -1      1127 0.00000E+00
 -1      1129 0.00000E+00
 -1      1130 0.00000E+00
 -1      1132 0.00000E+00
 -1      1141 0.00000E+00
 -1      1143 0.00000E+00
 -1      1144 0.00000E+00
 -1      1146 0.00000E+00
 -1      1155 0.00000E+00
 -1      1157 0.00000E+00
 -1      1158 0.00000E+00
 -1      1160 0.00000E+00
 -1      1169 0.00000E+00
 -1      1171 0.00000E+00
 -1      1172 0.00000E+00
 -1      1174 0.00000E+00
 -1      1183 0.00000E+00
 -1      1185 0.00000E+00
 -1      1186 0.00000E+00
 -1      1188 0.00000E+00
 -1      1197 0.00000E+00
 -1      1199 0.00000E+00
 -1      1200 0.00000E+00
 -1      1202 0.00000E+00
 -1      1211 0.00000E+00
 -1      1213 0.00000E+00
 -1      1214 0.00000E+00
 -1      1216 0.00000E+00
 -1      1225 0.00000E+00
 -1      1227 0.00000E+00
 -1      1228 0.00000E+00
 -1      1230 0.00000E+00
 -1      1239 0.00000E+00
 -1      1241 0.00000E+00
 -1      1242 0.00000E+00
 -1      1244 0.00000E+00
 -1      1253 0.00000E+00
 -1      1255 0.00000E+00
 -1      1256 0.00000E+00
 -1      1258 0.00000E+00
 -1      1267 0.00000E+00
 -1      1269 0.00000E+00
 -1      1270 0.00000E+00
 -1      1272 0.00000E+00
 -1      1281 0.00000E+00
 -1      1283 0.00000E+00
 -1      1284 0.00000E+00
 -1      1286 0.00000E+00
 -1      1295 0.00000E+00
 -1      1297 0.00000E+00
 -1      1298 0.00000E+00
 -1      1300 0.00000E+00
 -1      1309 0.00000E+00
 -1      1311 0.00000E+00
 -1      1312 0.00000E+00
 -1      1314 0.00000E+00
 -1      1323 0.00000E+00
 -1      1325 0.00000E+00
 -1      1326 0.00000E+00
 -1      1328 0.00000E+00
 -1      1337 0.00000E+00
 -1      1339 0.00000E+00
 -1      1340 0.00000E+00
 -1      1342 0.00000E+00
 -1      1351 0.00000E+00
 -1      1353 0.00000E+00
 -1      1354 0.00000E+00
 -1      1356 0.00000E+00
 -1      1365 0.00000E+00
 -1      1367 0.00000E+00
 -1      1368 0.00000E+00
 -1      1370 0.00000E+00
 -1      1379 0.00000E+00
 -1      1381 0.00000E+00
 -1      1382 0.00000E+00
 -1      1384 0.00000E+00
 -1      1393 0.00000E+00
 -1      1395 0.00000E+00
 -1      1396 0.00000E+00
 -1      1398 0.00000E+00
 -1      1407 0.00000E+00
 -1      1409 0.00000E+00
 -1      1410 0.00000E+00
 -1      1412 0.00000E+00
 -1      1421 0.00000E+00
 -1      1423 0.00000E+00
 -1      1424 0.00000E+00
 -1      1426 0.00000E+00
 -1      1435 0.00000E+00
 -1      1437 0.00000E+00
 -1      1438 0.00000E+00
 -1      1440 0.00000E+00
 -1      1449 0.00000E+00
 -1      1451 0.00000E+00
 -1      1452 0.00000E+00
 -1      1454 0.00000E+00
 -1      1463 0.00000E+00
 -1      1465 0.00000E+00
 -1      1466 0.00000E+00
 -1      1468 0.00000E+00
 -1      1477 0.00000E+00
 -1      1479 0.00000E+00
 -1      1480 0.00000E+00
 -1      1482 0.00000E+00
 -1      1491 0.00000E+00
 -1      1493 0.00000E+00
 -1      1494 0.00000E+00
 -1      1496 0.00000E+00
 -1      1497 0.00000E+00
 -1      1499 0.00000E+00
 -1      1500 0.00000E+00
 -1      1502 0.00000E+00
 -1      1503 0.00000E+00
 -1      1505 0.00000E+00
 -1      1506 0.00000E+00
 -1      1508 0.00000E+00
 -1      1509 0.00000E+00
 -1      1511 0.00000E+00
 -1      1512 0.00000E+00
 -1      1514 0.00000E+00
 -1      1515 0.00000E+00
 -1      1517 0.00000E+00
 -1      1518 0.00000E+00
 -1      1520 0.00000E+00
 -1      1521 0.00000E+00
 -1      1523 0.00000E+00
 -1      1524 0.00000E+00
 -1      1526 0.00000E+00
 -1      1527 0.00000E+00
 -1      1529 0.00000E+00
 -1      1530 0.00000E+00
 -1      1532 0.00000E+00
 -1      1533 0.00000E+00
 -1      1535 0.00000E+00
 -1      1536 0.00000E+00
 -1      1538 0.00000E+00
 -1      1539 0.00000E+00
 -1      1541 0.00000E+00
 -1      1542 0.00000E+00
 -1      1544 0.00000E+00
 -1      1545 0.00000E+00
 -1      1547 0.00000E+00
 -1      1548 0.00000E+00
 -1      1550 0.00000E+00
 -1      1551 0.00000E+00
 -1      1553 0.00000E+00
 -1      1554 0.00000E+00
 -1      1556 0.00000E+00
 -1      1557 0.00000E+00
 -1      1559 0.00000E+00
 -1      1560 0.00000E+00
 -1      1562 0.00000E+00
 -1      1563 0.00000E+00
 -1      1565 0.00000E+00
 -1      1566 0.00000E+00
 -1      1568 0.00000E+00
 -1      1569 0.00000E+00
 -1      1571 0.00000E+00
 -1      1572 0.00000E+00
 -1      1574 0.00000E+00
 -1      1575 0.00000E+00
 -1      1577 0.00000E+00
 -1      1578 0.00000E+00
 -1      1580 0.00000E+00
 -1      1581 0.00000E+00
 -1      1583 0.00000E+00
 -1      1584 0.00000E+00
 -1      1586 0.00000E+00
 -1      1587 0.00000E+00
 -1      1589 0.00000E+00
 -1      1590 0.00000E+00
 -1      1592 0.00000E+00
 -1      1593 0.00000E+00
 -1      1595 0.00000E+00
 -1      1596 0.00000E+00
 -1      1598 0.00000E+00
 -1      1599 0.00000E+00
 -1      1601 0.00000E+00
 -1      1602 0.00000E+00
 -1      1604 0.00000E+00
 -1      1605 0.00000E+00
 -1      1607 0.00000E+00
 -1      1608 0.00000E+00
 -1      1610 0.00000E+00
 -1      1611 0.00000E+00
 -1      1613 0.00000E+00
 -1      1614 0.00000E+00
 -1      1616 0.00000E+00
 -1      1617 0.00000E+00
 -1      1619 0.00000E+00
 -1      1620 0.00000E+00
 -1      1622 0.00000E+00
 -1      1623 0.00000E+00
 -1      1625 0.00000E+00
 -1      1626 0.00000E+00
 -1      1628 0.00000E+00
 -1      1629 0.00000E+00
 -1      1631 0.00000E+00
 -1      1632 0.00000E+00
 -1      1634 0.00000E+00
 -1      1635 0.00000E+00
 -1      1637 0.00000E+00
 -1      1638 0.00000E+00
 -1      1640 0.00000E+00
 -1      1641 0.00000E+00
 -1      1643 0.00000E+00
 -1      1644 0.00000E+00
 -1      1646 0.00000E+00
 -1      1647 0.00000E+00
 -1      1649 0.00000E+00
 -1      1650 0.00000E+00
 -1      1652 0.00000E+00
 -1      1653 0.00000E+00
 -1      1655 0.00000E+00
 -1      1656 0.00000E+00
 -1      1658 0.00000E+00
 -1      1659 0.00000E+00
 -1      1661 0.00000E+00
 -1      1662 0.00000E+00
 -1      1664 0.00000E+00
 -1      1665 0.00000E+00
 -1      1667 0.00000E+00
 -1      1668 0.00000E+00
 -1      1670 0.00000E+00
 -1      1671 0.00000E+00
 -1      1673 0.00000E+00
 -1      1674 0.00000E+00
 -1      1676 0.00000E+00
 -1      1677 0.00000E+00
 -1      1679 0.00000E+00
 -1      1680 0.00000E+00
 -1      1682 0.00000E+00
 -1      1683 0.00000E+00
 -1      1685 0.00000E+00
 -1      1686 0.00000E+00
 -1      1688 0.00000E+00
 -1      1689 0.00000E+00
 -1      1691 0.00000E+00
 -1      1692 0.00000E+00
 -1      1694 0.00000E+00
 -1      1695 0.00000E+00
 -1      1697 0.00000E+00
 -1      1698 0.00000E+00
 -1      1700 0.00000E+00
 -1      1701 0.00000E+00
 -1      1703 0.00000E+00
 -1      1704 0.00000E+00
 -1      1706 0.00000E+00
 -1      1707 0.00000E+00
 -1      1709 0.00000E+00
 -1      1710 0.00000E+00
 -1      1712 0.00000E+00
 -1      1713 0.00000E+00
 -1      1715 0.00000E+00
 -1      1716 0.00000E+00
 -1      1718 0.00000E+00
 -1      1719 0.00000E+00
 -1      1721 0.00000E+00
 -1      1722 0.00000E+00
 -1      1724 0.00000E+00
 -1      1725 0.00000E+00
 -1      1727 0.00000E+00
 -1      1728 0.00000E+00
 -1      1730 0.00000E+00
 -1      1731 0.00000E+00
 -1      1733 0.00000E+00
 -1      1734 0.00000E+00
 -1      1736 0.00000E+00
 -1      1737 0.00000E+00
 -1      1739 0.00000E+00
 -1      1740 0.00000E+00
 -1      1742 0.00000E+00
 -1      1743 0.00000E+00
 -1      1745 0.00000E+00
 -1      1746 0.00000E+00
 -1      1748 0.00000E+00
 -1      1749 0.00000E+00
 -1      1751 0.00000E+00
 -1      1752 0.00000E+00
 -1      1754 0.00000E+00
 -1      1755 0.00000E+00
 -1      1757 0.00000E+00
 -1      1758 0.00000E+00
 -1      1760 0.00000E+00
 -1      1761 0.00000E+00
 -1      1763 0.00000E+00
 -1      1764 0.00000E+00
 -1      1766 0.00000E+00
 -1      1767 0.00000E+00
 -1      1769 0.00000E+00
 -1      1770 0.00000E+00
 -1      1772 0.00000E+00
 -1      1773 0.00000E+00
 -1      1775 0.00000E+00
 -1      1776 0.00000E+00
 -1      1778 0.00000E+00
 -1      1779 0.00000E+00
 -1      1781 0.00000E+00
 -1      1782 0.00000E+00
 -1      1784 0.00000E+00
 -1      1785 0.00000E+00
 -1      1787 0.00000E+00
 -1      1788 0.00000E+00
 -1      1790 0.00000E+00
 -1      1791 0.00000E+00
 -1      1793 0.00000E+00
 -1      1794 0.00000E+00
 -1      1796 0.00000E+00
 -1      1797 0.00000E+00
 -1      1799 0.00000E+00
 -1      1800 0.00000E+00
 -1      1802 0.00000E+00
 -1      1803 0.00000E+00
 -1      1805 0.00000E+00
 -1      1806 0.00000E+00
 -1      1808 0.00000E+00
 -1      1809 0.00000E+00
 -1      1811 0.00000E+00
 -1      1812 0.00000E+00
 -1      1814 0.00000E+00
 -1      1815 0.00000E+00
 -1      1817 0.00000E+00
 -1      1818 0.00000E+00
 -1      1820 0.00000E+00
 -1      1821 0.00000E+00
 -1      1823 0.00000E+00
 -1      1824 0.00000E+00
 -1      1826 0.00000E+00
 -1      1827 0.00000E+00
 -1      1829 0.00000E+00
 -1      1830 0.00000E+00
 -1      1832 0.00000E+00
 -1      1833 0.00000E+00
 -1      1835 0.00000E+00
 -1      1836 0.00000E+00
 -1      1838 0.00000E+00
 -1      1839 0.00000E+00
 -1      1841 0.00000E+00
 -1      1842 0.00000E+00
 -1      1844 0.00000E+00
 -1      1845 0.00000E+00
 -1      1847 0.00000E+00
 -1      1848 0.00000E+00
 -1      1850 0.00000E+00
 -1      1851 0.00000E+00
 -1      1853 0.00000E+00
 -1      1854 0.00000E+00
 -1      1856 0.00000E+00
 -1      1857 0.00000E+00
 -1      1859 0.00000E+00
 -1      1860 0.00000E+00
 -1      1862 0.00000E+00
 -1      1863 0.00000E+00
 -1      1865 0.00000E+00
 -1      1866 0.00000E+00
 -1      1868 0.00000E+00
 -1      1869 0.00000E+00
 -1      1871 0.00000E+00
 -1      1872 0.00000E+00
 -1      1874 0.00000E+00
 -1      1875 0.00000E+00
 -1      1877 0.00000E+00
 -1      1878 0.00000E+00
 -1      1880 0.00000E+00
 -1      1881 0.00000E+00
 -1      1883 0.00000E+00
 -1      1884 0.00000E+00
 -1      1886 0.00000E+00
 -1      1887 0.00000E+00
 -1      1889 0.00000E+00
 -1      1890 0.00000E+00
 -1      1892 0.00000E+00
 -1      1893 0.00000E+00
 -1      1895 0.00000E+00
 -1      1896 0.00000E+00
 -1      1898 0.00000E+00
 -1      1899 0.00000E+00
 -1      1901 0.00000E+00
 -1      1902 0.00000E+00
 -1      1904 0.00000E+00
 -1      1905 0.00000E+00
 -1      1907 0.00000E+00
 -1      1908 0.00000E+00
 -1      1910 0.00000E+00
 -1      1911 0.00000E+00
 -1      1913 0.00000E+00
 -1      1914 0.00000E+00
 -1      1916 0.00000E+00
 -1      1917 0.00000E+00
 -1      1919 0.00000E+00
 -1      1920 0.00000E+00
 -1      1922 0.00000E+00
 -1      1923 0.00000E+00
 -1      1925 0.00000E+00
 -1      1926 0.00000E+00
 -1      1928 0.00000E+00
 -1      1929 0.00000E+00
 -1      1931 0.00000E+00
 -1      1932 0.00000E+00
 -1      1934 0.00000E+00
 -1      1935 0.00000E+00
 -1      1937 0.00000E+00
 -1      1938 0.00000E+00
 -1      1940 0.00000E+00
 -1      1941 0.00000E+00
 -1      1943 0.00000E+00
 -1      1944 0.00000E+00
 -1      1946 0.00000E+00
 -1      1947 0.00000E+00
 -1      1949 0.00000E+00
 -1      1950 0.00000E+00
 -1      1952 0.00000E+00
 -1      1953 0.00000E+00
 -1      1955 0.00000E+00
 -1      1956 0.00000E+00
 -1      1958 0.00000E+00
 -1      1959 0.00000E+00
 -1      1961 0.00000E+00
 -1      1962 0.00000E+00
 -1      1964 0.00000E+00
 -1      1965 0.00000E+00
 -1      1967 0.00000E+00
 -1      1968 0.00000E+00
 -1      1970 0.00000E+00
 -1      1971 0.00000E+00
 -1      1973 0.00000E+00
 -1      1974 0.00000E+00
 -1      1976 0.00000E+00
 -1      1977 0.00000E+00
 -1      1979 0.00000E+00
 -1      1980 0.00000E+00
 -1      1982 0.00000E+00
 -1      1983 0.00000E+00
 -1      1985 0.00000E+00
 -1      1986 0.00000E+00
 -1      1988 0.00000E+00
 -1      1989 0.00000E+00
 -1      1991 0.00000E+00
 -1      1992 0.00000E+00
 -1      1994 0.00000E+00
 -1      1995 0.00000E+00
 -1      1997 0.00000E+00
 -1      1998 0.00000E+00
 -1      2000 0.00000E+00
 -1      2001 0.00000E+00
 -1      2003 0.00000E+00
 -1      2004 0.00000E+00
 -1      2006 0.00000E+00
 -1      2007 0.00000E+00
 -1      2009 0.00000E+00
 -1      2010 0.00000E+00
 -1      2012 0.00000E+00
 -1      2013 0.00000E+00
 -1      2015 0.00000E+00
 -1      2016 0.00000E+00
 -1      2018 0.00000E+00
 -1      2019 0.00000E+00
 -1      2021 0.00000E+00
 -1      2022 0.00000E+00
 -1      2024 0.00000E+00
 -1      2025 0.00000E+00
 -1      2027 0.00000E+00
 -1      2028 0.00000E+00
 -1      2030 0.00000E+00
 -1      2031 0.00000E+00
 -1      2033 0.00000E+00
 -1      2034 0.00000E+00
 -1      2036 0.00000E+00
 -1      2037 0.00000E+00
 -1      2039 0.00000E+00
 -1      2040 0.00000E+00
 -1      2042 0.00000E+00
 -1      2043 0.00000E+00
 -1      2045 0.00000E+00
 -1      2046 0.00000E+00
 -1      2048 0.00000E+00
 -1      2049 0.00000E+00
 -1      2051 0.00000E+00
 -1      2052 0.00000E+00
 -1      2054 0.00000E+00
 -1      2055 0.00000E+00
 -1      2057 0.00000E+00
 -1      2058 0.00000E+00
 -1      2060 0.00000E+00
 -1      2061 0.00000E+00
 -1      2063 0.00000E+00
 -1      2064 0.00000E+00
 -1      2066 0.00000E+00
 -1      2067 0.00000E+00
 -1      2069 0.00000E+00
 -1      2070 0.00000E+00
 -1      2072 0.00000E+00
 -1      2073 0.00000E+00
 -1      2075 0.00000E+00
 -1      2076 0.00000E+00
 -1      2078 0.00000E+00
 -1      2079 0.00000E+00
 -1      2081 0.00000E+00
 -1      2082 0.00000E+00
 -1      2084 0.00000E+00
 -1      2085 0.00000E+00
 -1      2087 0.00000E+00
 -1      2088 0.00000E+00
 -1      2090 0.00000E+00
 -1      2091 0.00000E+00
 -1      2093 0.00000E+00
 -1      2094 0.00000E+00
 -1      2096 0.00000E+00
 -1      2097 0.00000E+00
 -1      2099 0.00000E+00
 -1      2100 0.00000E+00
 -1      2102 0.00000E+00
 -1      2103 0.00000E+00
 -1      2105 0.00000E+00
 -1      2106 0.00000E+00
 -1      2108 0.00000E+00
 -1      2109 0.00000E+00
 -1      2111 0.00000E+00
 -1      2112 0.00000E+00
 -1      2114 0.00000E+00
 -1      2115 0.00000E+00
 -1      2117 0.00000E+00
 -1      2118 0.00000E+00
 -1      2120 0.00000E+00
 -1      2121 0.00000E+00
 -1      2123 0.00000E+00
 -1      2124 0.00000E+00
 -1      2126 0.00000E+00
 -1      2127 0.00000E+00
 -1      2129 0.00000E+00
 -1      2130 0.00000E+00
 -1      2132 0.00000E+00
 -1      2133 0.00000E+00
 -1      2135 0.00000E+00
 -1      2136 0.00000E+00
 -1      2138 0.00000E+00
 -1      2139 0.00000E+00
 -1      2141 0.00000E+00
 -1      2142 0.00000E+00
 -1      2144 0.00000E+00
 -1      2145 0.00000E+00
 -1      2147 0.00000E+00
 -1      2148 0.00000E+00
 -1      2150 0.00000E+00
 -1      2151 0.00000E+00
 -1      2153 0.00000E+00
 -1      2154 0.00000E+00
 -1      2156 0.00000E+00
 -1      2157 0.00000E+00
 -1      2159 0.00000E+00
 -1      2160 0.00000E+00
 -1      2162 0.00000E+00
 -1      2163 0.00000E+00
 -1      2165 0.00000E+00
 -1      2166 0.00000E+00
 -1      2168 0.00000E+00
 -1      2169 0.00000E+00
 -1      2171 0.00000E+00
 -1      2172 0.00000E+00
 -1      2174 0.00000E+00
 -1      2175 0.00000E+00
 -1      2177 0.00000E+00
 -1      2178 0.00000E+00
 -1      2180 0.00000E+00
 -1      2181 0.00000E+00
 -1      2183 0.00000E+00
 -1      2184 0.00000E+00
 -1      2186 0.00000E+00
 -1      2187 0.00000E+00
 -1      2189 0.00000E+00
 -1      2190 0.00000E+00
 -1      2192 0.00000E+00
 -1      2193 0.00000E+00
 -1      2195 0.00000E+00
 -1      2196 0.00000E+00
 -1      2198 0.00000E+00
 -1      2199 0.00000E+00
 -1      2201 0.00000E+00
 -1      2202 0.00000E+00
 -1      2204 0.00000E+00
 -1      2205 0.00000E+00
 -1      2207 0.00000E+00
 -1      2208 0.00000E+00
 -1      2210 0.00000E+00
 -1      2211 0.00000E+00
 -1      2213 0.00000E+00
 -1      2214 0.00000E+00
 -1      2216 0.00000E+00
 -1      2217 0.00000E+00
 -1      2219 0.00000E+00
 -1      2220 0.00000E+00
 -1      2222 0.00000E+00
 -1      2223 0.00000E+00
 -1      2225 0.00000E+00
 -1      2226 0.00000E+00
 -1      2228 0.00000E+00
 -1      2229 0.00000E+00
 -1      2231 0.00000E+00
 -1      2232 0.00000E+00
 -1      2234 0.00000E+00
 -1      2235 0.00000E+00
 -1      2237 0.00000E+00
 -1      2238 0.00000E+00
 -1      2240 0.00000E+00
 -1      2241 0.00000E+00
 -1      2243 0.00000E+00
 -1      2244 0.00000E+00
 -1      2246 0.00000E+00
 -1      2247 0.00000E+00
 -1      2249 0.00000E+00
 -1      2250 0.00000E+00
 -1      2252 0.00000E+00
 -1      2253 0.00000E+00
 -1      2255 0.00000E+00
 -1      2256 0.00000E+00
 -1      2258 0.00000E+00
 -1      2259 0.00000E+00
 -1      2261 0.00000E+00
 -1      2262 0.00000E+00
 -1      2264 0.00000E+00
 -1      2265 0.00000E+00
 -1      2267 0.00000E+00
 -1      2268 0.00000E+00
 -1      2270 0.00000E+00
 -1      2271 0.00000E+00
 -1      2273 0.00000E+00
 -1      2274 0.00000E+00
 -1      2276 0.00000E+00
 -1      2277 0.00000E+00
 -1      2279 0.00000E+00
 -1      2280 0.00000E+00
 -1      2282 0.00000E+00
 -1      2283 0.00000E+00
 -1      2285 0.00000E+00
 -1      2286 0.00000E+00
 -1      2288 0.00000E+00
 -1      2289 0.00000E+00
 -1      2291 0.00000E+00
 -1      2292 0.00000E+00
 -1      2294 0.00000E+00
 -3
    1PSTEP                        49           1           1          
    1PGM                1.000000E+00                                  
    1PGK                7.351924E+06                                  
    1PHID                         -1                                  
    1PSUBC                         0                                  
    1PMODE                        13                                  
  100CL  113 431.5395805         930                     2   13MODAL      1
 -4  DISP        4    1
 -5  D1          1    2    1    0
 -5  D2          1    2    2    0
 -5  D3          1    2    3    0
 -5  ALL         1    2    0    0    1ALL
 -1       404 0.00000E+00 0.00000E+00-1.56204E-04
 -1       406 0.00000E+00-0.00000E+00 1.56204E-04
 -1       407-1.01109E-01-2.51809E-04-2.22277E-03
 -1       409-1.01128E-01 2.59317E-04-2.22388E-03
 -1       410-1.01146E-01-2.01361E-13-4.86931E-05
 -1       412-1.01163E-01 2.11783E-13-4.89117E-05
 -1       413-1.01154E-01 6.96147E-08-4.88024E-05
 -1       415-1.01154E-01-6.96147E-08-4.88024E-05
 -1       424 0.00000E+00 0.00000E+00-1.33449E-04
 -1       426 0.00000E+00 0.00000E+00 1.33449E-04
 -1       427 0.00000E+00-8.50120E-05 0.00000E+00
 -1       429 0.00000E+00 8.50120E-05 0.00000E+00
 -1       438-1.01109E-01 2.51809E-04-2.22277E-03
 -1       440-1.01128E-01-2.59317E-04-2.22388E-03
 -1       441 0.00000E+00 0.00000E+00-1.56204E-04
 -1       443 0.00000E+00-0.00000E+00 1.56204E-04
 -1       444 0.00000E+00-8.50120E-05 0.00000E+00
 -1       446 0.00000E+00 8.50120E-05 0.00000E+00
 -1       447 0.00000E+00 0.00000E+00 1.33449E-04
 -1       449 0.00000E+00 0.00000E+00-1.33449E-04
 -1       458-1.01154E-01 6.96151E-08 4.88024E-05
 -1       460-1.01154E-01-6.96144E-08 4.88024E-05
 -1       461-1.01146E-01 2.44242E-13 4.86931E-05
 -1       463-1.01163E-01 5.49054E-13 4.89117E-05
 -1       472 0.00000E+00 0.00000E+00 1.56204E-04
 -1       474 0.00000E+00 0.00000E+00-1.56204E-04
 -1       475-1.01109E-01 2.51809E-04 2.22277E-03
 -1       477-1.01128E-01-2.59317E-04 2.22388E-03
 -1       478-1.01109E-01-2.51809E-04 2.22277E-03
 -1       480-1.01128E-01 2.59317E-04 2.22388E-03
 -1       481 0.00000E+00 0.00000E+00 1.56204E-04
 -1       483 0.00000E+00 0.00000E+00-1.56204E-04
 -1       484-5.74537E-03 1.68095E-03-2.46390E-03
 -1       486-5.13896E-03 1.90659E-03-2.30004E-03
 -1       487-1.03539E-02 1.21269E-03-4.84581E-03
 -1       489-1.03284E-02 1.48038E-03-4.62089E-03
 -1       490-1.57646E-02 1.19172E-03-5.42253E-03
 -1       492-1.56518E-02 1.64170E-03-5.20680E-03
 -1       493-2.08876E-02 1.08961E-03-6.16047E-03
 -1       495-2.08187E-02 1.67634E-03-5.96353E-03
 -1       496-2.60044E-02 1.04465E-03-6.56777E-03
 -1       498-2.59760E-02 1.74343E-03-6.34899E-03
 -1       499-3.10923E-02 9.54083E-04-6.89805E-03
 -1       501-3.10427E-02 1.75363E-03-6.70626E-03
 -1       502-3.60641E-02 9.09581E-04-7.15032E-03
 -1       504-3.60541E-02 1.77788E-03-6.94014E-03
 -1       505-4.09722E-02 8.42080E-04-7.29478E-03
 -1       507-4.09488E-02 1.77084E-03-7.10815E-03
 -1       508-4.57453E-02 7.97052E-04-7.39434E-03
 -1       510-4.57468E-02 1.76318E-03-7.19584E-03
 -1       511-5.04120E-02 7.43131E-04-7.40390E-03
 -1       513-5.04094E-02 1.73840E-03-7.22493E-03
 -1       514-5.49275E-02 6.99939E-04-7.37465E-03
 -1       516-5.49399E-02 1.70823E-03-7.18951E-03
 -1       517-5.93022E-02 6.53067E-04-7.27639E-03
 -1       519-5.93151E-02 1.66694E-03-7.10774E-03
 -1       520-6.35073E-02 6.11533E-04-7.14417E-03
 -1       522-6.35294E-02 1.61947E-03-6.97379E-03
 -1       523-6.75433E-02 5.68063E-04-6.95987E-03
 -1       525-6.75677E-02 1.56391E-03-6.80398E-03
 -1       526-7.13901E-02 5.27199E-04-6.74733E-03
 -1       528-7.14204E-02 1.50266E-03-6.59308E-03
 -1       529-7.50437E-02 4.84875E-04-6.49598E-03
 -1       531-7.50766E-02 1.43523E-03-6.35499E-03
 -1       532-7.84892E-02 4.43578E-04-6.22266E-03
 -1       534-7.85259E-02 1.36304E-03-6.08587E-03
 -1       535-8.17207E-02 4.00828E-04-5.92154E-03
 -1       537-8.17595E-02 1.28616E-03-5.79730E-03
 -1       538-8.47265E-02 3.58048E-04-5.60515E-03
 -1       540-8.47677E-02 1.20557E-03-5.48708E-03
 -1       541-8.75005E-02 3.13624E-04-5.27084E-03
 -1       543-8.75432E-02 1.12163E-03-5.16492E-03
 -1       544-9.00334E-02 2.68331E-04-4.92853E-03
 -1       546-9.00773E-02 1.03513E-03-4.83029E-03
 -1       547-9.23197E-02 2.21101E-04-4.57789E-03
 -1       549-9.23640E-02 9.46647E-04-4.49160E-03
 -1       550-9.43519E-02 1.72180E-04-4.22738E-03
 -1       552-9.43962E-02 8.56802E-04-4.14994E-03
 -1       553-9.61254E-02 1.20982E-04-3.87857E-03
 -1       555-9.61690E-02 7.66497E-04-3.81296E-03
 -1       556-9.76347E-02 6.70773E-05-3.53944E-03
 -1       558-9.76770E-02 6.76071E-04-3.48355E-03
 -1       559-9.88763E-02 1.06327E-05-3.21298E-03
 -1       561-9.89166E-02 5.87101E-04-3.16886E-03
 -1       562-9.98465E-02-5.00767E-05-2.90884E-03
 -1       564-9.98836E-02 4.99072E-04-2.87503E-03
 -1       565-1.00543E-01-1.12998E-04-2.63021E-03
 -1       567-1.00577E-01 4.15435E-04-2.60820E-03
 -1       568-1.00964E-01-1.83516E-04-2.39608E-03
 -1       570-1.00990E-01 3.31933E-04-2.38452E-03
 -1       571-1.01134E-01-1.97104E-04-7.10514E-04
 -1       573-1.01152E-01 1.98402E-04-7.10034E-04
 -1       574-5.43574E-03-8.13301E-14-2.38830E-03
 -1       576-4.91474E-03-1.34501E-13-2.15591E-03
 -1       577-5.17524E-03-7.40193E-05-2.27210E-03
 -1       579-5.17524E-03 7.40193E-05-2.27210E-03
 -1       588-1.03464E-02-2.68886E-13-3.30335E-03
 -1       590-1.05598E-02-3.86479E-13-3.10481E-03
 -1       591-1.04531E-02-6.32415E-05-3.20408E-03
 -1       593-1.04531E-02 6.32415E-05-3.20408E-03
 -1       602-1.57620E-02-4.52600E-13-3.29815E-03
 -1       604-1.56136E-02-6.13224E-13-3.08412E-03
 -1       605-1.56878E-02-6.81715E-05-3.19114E-03
 -1       607-1.56878E-02 6.81715E-05-3.19114E-03
 -1       616-2.07750E-02-6.12603E-13-3.38363E-03
 -1       618-2.08839E-02-8.17749E-13-3.17512E-03
 -1       619-2.08295E-02-6.64127E-05-3.27938E-03
 -1       621-2.08295E-02 6.64127E-05-3.27938E-03
 -1       630-2.60205E-02-6.80172E-13-3.27547E-03
 -1       632-2.59729E-02-9.26140E-13-3.07009E-03
 -1       633-2.59967E-02-6.54158E-05-3.17278E-03
 -1       635-2.59967E-02 6.54158E-05-3.17278E-03
 -1       644-3.10409E-02-6.32098E-13-3.24199E-03
 -1       646-3.10941E-02-9.13895E-13-3.03711E-03
 -1       647-3.10675E-02-6.52569E-05-3.13955E-03
 -1       649-3.10675E-02 6.52569E-05-3.13955E-03
 -1       658-3.60784E-02-4.58070E-13-3.15613E-03
 -1       660-3.60643E-02-7.69192E-13-2.95772E-03
 -1       661-3.60713E-02-6.31949E-05-3.05692E-03
 -1       663-3.60713E-02 6.31949E-05-3.05692E-03
 -1       672-4.09559E-02-1.78284E-13-3.09631E-03
 -1       674-4.09859E-02-5.08694E-13-2.89941E-03
 -1       675-4.09709E-02-6.27162E-05-2.99786E-03
 -1       677-4.09709E-02 6.27162E-05-2.99786E-03
 -1       686-4.57622E-02 1.82401E-13-3.01116E-03
 -1       688-4.57626E-02-1.57221E-13-2.82152E-03
 -1       689-4.57624E-02-6.04047E-05-2.91634E-03
 -1       691-4.57624E-02 6.04047E-05-2.91634E-03
 -1       700-5.04159E-02 5.70268E-13-2.93219E-03
 -1       702-5.04365E-02 2.30384E-13-2.74577E-03
 -1       703-5.04262E-02-5.93776E-05-2.83898E-03
 -1       705-5.04262E-02 5.93776E-05-2.83898E-03
 -1       714-5.49492E-02 9.26000E-13-2.83665E-03
 -1       716-5.49568E-02 5.88108E-13-2.65786E-03
 -1       717-5.49530E-02-5.69494E-05-2.74725E-03
 -1       719-5.49530E-02 5.69494E-05-2.74725E-03
 -1       728-5.93193E-02 1.20830E-12-2.73985E-03
 -1       730-5.93364E-02 8.74895E-13-2.56594E-03
 -1       731-5.93279E-02-5.53929E-05-2.65290E-03
 -1       733-5.93279E-02 5.53929E-05-2.65290E-03
 -1       742-6.35346E-02 1.40257E-12-2.63099E-03
 -1       744-6.35461E-02 1.08360E-12-2.46509E-03
 -1       745-6.35404E-02-5.28419E-05-2.54804E-03
 -1       747-6.35404E-02 5.28419E-05-2.54804E-03
 -1       756-6.75697E-02 1.50681E-12-2.51808E-03
 -1       758-6.75859E-02 1.21709E-12-2.35851E-03
 -1       759-6.75778E-02-5.08283E-05-2.43830E-03
 -1       761-6.75778E-02 5.08283E-05-2.43830E-03
 -1       770-7.14228E-02 1.50844E-12-2.39583E-03
 -1       772-7.14367E-02 1.26082E-12-2.24474E-03
 -1       773-7.14297E-02-4.81261E-05-2.32028E-03
 -1       775-7.14297E-02 4.81261E-05-2.32028E-03
 -1       784-7.50769E-02 1.39390E-12-2.26863E-03
 -1       786-7.50934E-02 1.19772E-12-2.12505E-03
 -1       787-7.50851E-02-4.57318E-05-2.19684E-03
 -1       789-7.50851E-02 4.57318E-05-2.19684E-03
 -1       798-7.85264E-02 1.16789E-12-2.13388E-03
 -1       800-7.85422E-02 1.02586E-12-1.99933E-03
 -1       801-7.85343E-02-4.28590E-05-2.06660E-03
 -1       803-7.85343E-02 4.28590E-05-2.06660E-03
 -1       812-8.17589E-02 8.49058E-13-1.99416E-03
 -1       814-8.17760E-02 7.59239E-13-1.86810E-03
 -1       815-8.17674E-02-4.01534E-05-1.93113E-03
 -1       817-8.17674E-02 4.01534E-05-1.93113E-03
 -1       826-8.47673E-02 4.72095E-13-1.84824E-03
 -1       828-8.47844E-02 4.33879E-13-1.73175E-03
 -1       829-8.47759E-02-3.71039E-05-1.79000E-03
 -1       831-8.47759E-02 3.71039E-05-1.79000E-03
 -1       840-8.75422E-02 7.44132E-14-1.69777E-03
 -1       842-8.75602E-02 8.93933E-14-1.59056E-03
 -1       843-8.75512E-02-3.41486E-05-1.64417E-03
 -1       845-8.75512E-02 3.41486E-05-1.64417E-03
 -1       854-9.00767E-02-3.01318E-13-1.54223E-03
 -1       856-9.00950E-02-2.31740E-13-1.44513E-03
 -1       857-9.00859E-02-3.09283E-05-1.49368E-03
 -1       859-9.00859E-02 3.09283E-05-1.49368E-03
 -1       868-9.23634E-02-6.14272E-13-1.38281E-03
 -1       870-9.23824E-02-4.92102E-13-1.29560E-03
 -1       871-9.23729E-02-2.77794E-05-1.33921E-03
 -1       873-9.23729E-02 2.77794E-05-1.33921E-03
 -1       882-9.43963E-02-8.34186E-13-1.21933E-03
 -1       884-9.44156E-02-6.62176E-13-1.14271E-03
 -1       885-9.44059E-02-2.44024E-05-1.18102E-03
 -1       887-9.44059E-02 2.44024E-05-1.18102E-03
 -1       896-9.61694E-02-9.53420E-13-1.05277E-03
 -1       898-9.61895E-02-7.32079E-13-9.86485E-04
 -1       899-9.61795E-02-2.11142E-05-1.01963E-03
 -1       901-9.61795E-02 2.11142E-05-1.01963E-03
 -1       910-9.76785E-02-9.81466E-13-8.83114E-04
 -1       912-9.76989E-02-7.11763E-13-8.27862E-04
 -1       913-9.76887E-02-1.75986E-05-8.55488E-04
 -1       915-9.76887E-02 1.75986E-05-8.55488E-04
 -1       924-9.89188E-02-9.34339E-13-7.11256E-04
 -1       926-9.89401E-02-6.21735E-13-6.66586E-04
 -1       927-9.89294E-02-1.42283E-05-6.88921E-04
 -1       929-9.89294E-02 1.42283E-05-6.88921E-04
 -1       938-9.98879E-02-8.16761E-13-5.37776E-04
 -1       940-9.99090E-02-4.66640E-13-5.04531E-04
 -1       941-9.98985E-02-1.05890E-05-5.21154E-04
 -1       943-9.98985E-02 1.05889E-05-5.21154E-04
 -1       952-1.00582E-01-6.37168E-13-3.64101E-04
 -1       954-1.00604E-01-2.57256E-13-3.41479E-04
 -1       955-1.00593E-01-7.20534E-06-3.52790E-04
 -1       957-1.00593E-01 7.20534E-06-3.52790E-04
 -1       966-1.01001E-01-4.22499E-13-1.94086E-04
 -1       968-1.01022E-01-1.90994E-14-1.83243E-04
 -1       969-1.01012E-01-3.45379E-06-1.88665E-04
 -1       971-1.01012E-01 3.45379E-06-1.88665E-04
 -1       980 0.00000E+00 0.00000E+00-1.36463E-04
 -1       982 0.00000E+00-0.00000E+00 1.36463E-04
 -1       983-1.01134E-01 1.97104E-04-7.10514E-04
 -1       985-1.01152E-01-1.98402E-04-7.10034E-04
 -1       986-5.74537E-03-1.68095E-03-2.46390E-03
 -1       988-5.13896E-03-1.90659E-03-2.30004E-03
 -1       989-1.03539E-02-1.21269E-03-4.84581E-03
 -1       991-1.03284E-02-1.48038E-03-4.62089E-03
 -1       992-1.57646E-02-1.19172E-03-5.42253E-03
 -1       994-1.56518E-02-1.64170E-03-5.20680E-03
 -1       995-2.08876E-02-1.08961E-03-6.16047E-03
 -1       997-2.08187E-02-1.67634E-03-5.96353E-03
 -1       998-2.60044E-02-1.04465E-03-6.56777E-03
 -1      1000-2.59760E-02-1.74343E-03-6.34899E-03
 -1      1001-3.10923E-02-9.54083E-04-6.89805E-03
 -1      1003-3.10427E-02-1.75363E-03-6.70626E-03
 -1      1004-3.60641E-02-9.09581E-04-7.15032E-03
 -1      1006-3.60541E-02-1.77788E-03-6.94014E-03
 -1      1007-4.09722E-02-8.42080E-04-7.29478E-03
 -1      1009-4.09488E-02-1.77084E-03-7.10815E-03
 -1      1010-4.57453E-02-7.97052E-04-7.39434E-03
 -1      1012-4.57468E-02-1.76318E-03-7.19584E-03
 -1      1013-5.04120E-02-7.43131E-04-7.40390E-03
 -1      1015-5.04094E-02-1.73840E-03-7.22493E-03
 -1      1016-5.49275E-02-6.99939E-04-7.37465E-03
 -1      1018-5.49399E-02-1.70823E-03-7.18951E-03
 -1      1019-5.93022E-02-6.53067E-04-7.27639E-03
 -1      1021-5.93151E-02-1.66694E-03-7.10774E-03
 -1      1022-6.35073E-02-6.11533E-04-7.14417E-03
 -1      1024-6.35294E-02-1.61947E-03-6.97379E-03
 -1      1025-6.75433E-02-5.68063E-04-6.95987E-03
 -1      1027-6.75677E-02-1.56391E-03-6.80398E-03
 -1      1028-7.13901E-02-5.27199E-04-6.74733E-03
 -1      1030-7.14204E-02-1.50266E-03-6.59308E-03
 -1      1031-7.50437E-02-4.84875E-04-6.49598E-03
 -1      1033-7.50766E-02-1.43523E-03-6.35499E-03
 -1      1034-7.84892E-02-4.43578E-04-6.22266E-03
 -1      1036-7.85259E-02-1.36304E-03-6.08587E-03
 -1      1037-8.17207E-02-4.00828E-04-5.92154E-03
 -1      1039-8.17595E-02-1.28616E-03-5.79730E-03
 -1      1040-8.47265E-02-3.58048E-04-5.60515E-03
 -1      1042-8.47677E-02-1.20557E-03-5.48708E-03
 -1      1043-8.75005E-02-3.13624E-04-5.27084E-03
 -1      1045-8.75432E-02-1.12163E-03-5.16492E-03
 -1      1046-9.00334E-02-2.68331E-04-4.92853E-03
 -1      1048-9.00773E-02-1.03513E-03-4.83029E-03
 -1      1049-9.23197E-02-2.21101E-04-4.57789E-03
 -1      1051-9.23640E-02-9.46647E-04-4.49160E-03
 -1      1052-9.43519E-02-1.72180E-04-4.22738E-03
 -1      1054-9.43962E-02-8.56802E-04-4.14994E-03
 -1      1055-9.61254E-02-1.20982E-04-3.87857E-03
 -1      1057-9.61690E-02-7.66497E-04-3.81296E-03
 -1      1058-9.76347E-02-6.70773E-05-3.53944E-03
 -1      1060-9.76770E-02-6.76071E-04-3.48355E-03
 -1      1061-9.88763E-02-1.06327E-05-3.21298E-03
 -1      1063-9.89166E-02-5.87101E-04-3.16886E-03
 -1      1064-9.98465E-02 5.00767E-05-2.90884E-03
 -1      1066-9.98836E-02-4.99072E-04-2.87503E-03
 -1      1067-1.00543E-01 1.12998E-04-2.63021E-03
 -1      1069-1.00577E-01-4.15435E-04-2.60820E-03
 -1      1070-1.00964E-01 1.83516E-04-2.39608E-03
 -1      1072-1.00990E-01-3.31933E-04-2.38452E-03
 -1      1073 0.00000E+00 0.00000E+00-1.36463E-04
 -1      1075 0.00000E+00-0.00000E+00 1.36463E-04
 -1      1076 0.00000E+00-8.87821E-05 0.00000E+00
 -1      1078 0.00000E+00 8.87821E-05 0.00000E+00
 -1      1079 0.00000E+00-7.61121E-05 0.00000E+00
 -1      1081 0.00000E+00 7.61121E-05 0.00000E+00
 -1      1082 0.00000E+00-8.87821E-05 0.00000E+00
 -1      1084 0.00000E+00 8.87821E-05 0.00000E+00
 -1      1085-5.17524E-03-7.40193E-05 2.27210E-03
 -1      1087-5.17524E-03 7.40193E-05 2.27210E-03
 -1      1088-5.43574E-03 4.60217E-14 2.38830E-03
 -1      1090-4.91474E-03-1.04981E-14 2.15591E-03
 -1      1099-1.04531E-02-6.32415E-05 3.20408E-03
 -1      1101-1.04531E-02 6.32415E-05 3.20408E-03
 -1      1102-1.03464E-02 1.02679E-13 3.30335E-03
 -1      1104-1.05598E-02-3.08757E-14 3.10481E-03
 -1      1113-1.56878E-02-6.81715E-05 3.19114E-03
 -1      1115-1.56878E-02 6.81715E-05 3.19114E-03
 -1      1116-1.57620E-02 1.87581E-13 3.29815E-03
 -1      1118-1.56136E-02-5.45572E-15 3.08412E-03
 -1      1127-2.08295E-02-6.64127E-05 3.27938E-03
 -1      1129-2.08295E-02 6.64127E-05 3.27938E-03
 -1      1130-2.07750E-02 2.66282E-13 3.38363E-03
 -1      1132-2.08839E-02 1.67837E-14 3.17512E-03
 -1      1141-2.59967E-02-6.54158E-05 3.17278E-03
 -1      1143-2.59967E-02 6.54158E-05 3.17278E-03
 -1      1144-2.60205E-02 3.57064E-13 3.27547E-03
 -1      1146-2.59729E-02 6.39256E-14 3.07009E-03
 -1      1155-3.10675E-02-6.52569E-05 3.13955E-03
 -1      1157-3.10675E-02 6.52569E-05 3.13955E-03
 -1      1158-3.10409E-02 4.59491E-13 3.24199E-03
 -1      1160-3.10941E-02 1.36393E-13 3.03711E-03
 -1      1169-3.60713E-02-6.31949E-05 3.05692E-03
 -1      1171-3.60713E-02 6.31949E-05 3.05692E-03
 -1      1172-3.60784E-02 5.85936E-13 3.15613E-03
 -1      1174-3.60643E-02 2.43775E-13 2.95772E-03
 -1      1183-4.09709E-02-6.27162E-05 2.99786E-03
 -1      1185-4.09709E-02 6.27162E-05 2.99786E-03
 -1      1186-4.09559E-02 7.40697E-13 3.09631E-03
 -1      1188-4.09859E-02 3.90177E-13 2.89941E-03
 -1      1197-4.57624E-02-6.04047E-05 2.91634E-03
 -1      1199-4.57624E-02 6.04047E-05 2.91634E-03
 -1      1200-4.57622E-02 9.15963E-13 3.01116E-03
 -1      1202-4.57626E-02 5.66837E-13 2.82152E-03
 -1      1211-5.04262E-02-5.93776E-05 2.83898E-03
 -1      1213-5.04262E-02 5.93776E-05 2.83898E-03
 -1      1214-5.04159E-02 1.07129E-12 2.93219E-03
 -1      1216-5.04365E-02 7.34074E-13 2.74577E-03
 -1      1225-5.49530E-02-5.69494E-05 2.74725E-03
 -1      1227-5.49530E-02 5.69494E-05 2.74725E-03
 -1      1228-5.49492E-02 1.17338E-12 2.83665E-03
 -1      1230-5.49568E-02 8.55099E-13 2.65786E-03
 -1      1239-5.93279E-02-5.53929E-05 2.65290E-03
 -1      1241-5.93279E-02 5.53929E-05 2.65290E-03
 -1      1242-5.93193E-02 1.20853E-12 2.73985E-03
 -1      1244-5.93364E-02 9.15879E-13 2.56594E-03
 -1      1253-6.35404E-02-5.28419E-05 2.54804E-03
 -1      1255-6.35404E-02 5.28419E-05 2.54804E-03
 -1      1256-6.35346E-02 1.18397E-12 2.63099E-03
 -1      1258-6.35461E-02 9.21175E-13 2.46509E-03
 -1      1267-6.75778E-02-5.08283E-05 2.43830E-03
 -1      1269-6.75778E-02 5.08283E-05 2.43830E-03
 -1      1270-6.75697E-02 1.10047E-12 2.51808E-03
 -1      1272-6.75859E-02 8.72233E-13 2.35851E-03
 -1      1281-7.14297E-02-4.81261E-05 2.32028E-03
 -1      1283-7.14297E-02 4.81261E-05 2.32028E-03
 -1      1284-7.14228E-02 9.47495E-13 2.39583E-03
 -1      1286-7.14367E-02 7.52694E-13 2.24474E-03
 -1      1295-7.50851E-02-4.57318E-05 2.19684E-03
 -1      1297-7.50851E-02 4.57318E-05 2.19684E-03
 -1      1298-7.50769E-02 7.24151E-13 2.26863E-03
 -1      1300-7.50934E-02 5.59586E-13 2.12505E-03
 -1      1309-7.85343E-02-4.28590E-05 2.06660E-03
 -1      1311-7.85343E-02 4.28590E-05 2.06660E-03
 -1      1312-7.85264E-02 4.49886E-13 2.13388E-03
 -1      1314-7.85422E-02 3.14444E-13 1.99933E-03
 -1      1323-8.17674E-02-4.01534E-05 1.93113E-03
 -1      1325-8.17674E-02 4.01534E-05 1.93113E-03
 -1      1326-8.17589E-02 1.50051E-13 1.99416E-03
 -1      1328-8.17760E-02 4.40267E-14 1.86810E-03
 -1      1337-8.47759E-02-3.71039E-05 1.79000E-03
 -1      1339-8.47759E-02 3.71039E-05 1.79000E-03
 -1      1340-8.47673E-02-1.48531E-13 1.84824E-03
 -1      1342-8.47844E-02-2.22540E-13 1.73175E-03
 -1      1351-8.75512E-02-3.41486E-05 1.64417E-03
 -1      1353-8.75512E-02 3.41486E-05 1.64417E-03
 -1      1354-8.75422E-02-4.10515E-13 1.69777E-03
 -1      1356-8.75602E-02-4.43722E-13 1.59056E-03
 -1      1365-9.00859E-02-3.09283E-05 1.49368E-03
 -1      1367-9.00859E-02 3.09283E-05 1.49368E-03
 -1      1368-9.00767E-02-6.18082E-13 1.54223E-03
 -1      1370-9.00950E-02-6.04593E-13 1.44513E-03
 -1      1379-9.23729E-02-2.77794E-05 1.33921E-03
 -1      1381-9.23729E-02 2.77794E-05 1.33921E-03
 -1      1382-9.23634E-02-7.66559E-13 1.38281E-03
 -1      1384-9.23824E-02-7.06977E-13 1.29560E-03
 -1      1393-9.44059E-02-2.44024E-05 1.18102E-03
 -1      1395-9.44059E-02 2.44024E-05 1.18102E-03
 -1      1396-9.43963E-02-8.37402E-13 1.21933E-03
 -1      1398-9.44156E-02-7.35191E-13 1.14271E-03
 -1      1407-9.61795E-02-2.11142E-05 1.01963E-03
 -1      1409-9.61795E-02 2.11142E-05 1.01963E-03
 -1      1410-9.61694E-02-8.18753E-13 1.05277E-03
 -1      1412-9.61895E-02-6.71166E-13 9.86485E-04
 -1      1421-9.76887E-02-1.75986E-05 8.55488E-04
 -1      1423-9.76887E-02 1.75986E-05 8.55488E-04
 -1      1424-9.76785E-02-7.23817E-13 8.83114E-04
 -1      1426-9.76989E-02-5.30908E-13 8.27862E-04
 -1      1435-9.89294E-02-1.42283E-05 6.88921E-04
 -1      1437-9.89294E-02 1.42283E-05 6.88921E-04
 -1      1438-9.89188E-02-5.78941E-13 7.11256E-04
 -1      1440-9.89401E-02-3.47332E-13 6.66586E-04
 -1      1449-9.98985E-02-1.05890E-05 5.21154E-04
 -1      1451-9.98985E-02 1.05889E-05 5.21154E-04
 -1      1452-9.98879E-02-4.02305E-13 5.37776E-04
 -1      1454-9.99090E-02-1.40226E-13 5.04531E-04
 -1      1463-1.00593E-01-7.20534E-06 3.52790E-04
 -1      1465-1.00593E-01 7.20534E-06 3.52790E-04
 -1      1466-1.00582E-01-2.03303E-13 3.64101E-04
 -1      1468-1.00604E-01 8.34991E-14 3.41479E-04
 -1      1477-1.01012E-01-3.45379E-06 1.88665E-04
 -1      1479-1.01012E-01 3.45379E-06 1.88665E-04
 -1      1480-1.01001E-01 1.69127E-14 1.94086E-04
 -1      1482-1.01022E-01 3.17764E-13 1.83243E-04
 -1      1491-1.01276E-01 5.02622E-07-1.97285E-05
 -1      1493-1.01276E-01-5.02618E-07-1.97285E-05
 -1      1494-1.01319E-01-1.90066E-07-3.72591E-13
 -1      1496-1.01319E-01 1.90070E-07-3.61260E-13
 -1      1497-1.01276E-01 5.02622E-07 1.97285E-05
 -1      1499-1.01276E-01-5.02618E-07 1.97285E-05
 -1      1500-5.74537E-03-1.68095E-03 2.46390E-03
 -1      1502-5.13896E-03-1.90659E-03 2.30004E-03
 -1      1503-1.03539E-02-1.21269E-03 4.84581E-03
 -1      1505-1.03284E-02-1.48038E-03 4.62089E-03
 -1      1506-1.57646E-02-1.19172E-03 5.42253E-03
 -1      1508-1.56518E-02-1.64170E-03 5.20680E-03
 -1      1509-2.08876E-02-1.08961E-03 6.16047E-03
 -1      1511-2.08187E-02-1.67634E-03 5.96353E-03
 -1      1512-2.60044E-02-1.04465E-03 6.56777E-03
 -1      1514-2.59760E-02-1.74343E-03 6.34899E-03
 -1      1515-3.10923E-02-9.54083E-04 6.89805E-03
 -1      1517-3.10427E-02-1.75363E-03 6.70626E-03
 -1      1518-3.60641E-02-9.09581E-04 7.15032E-03
 -1      1520-3.60541E-02-1.77788E-03 6.94014E-03
 -1      1521-4.09722E-02-8.42080E-04 7.29478E-03
 -1      1523-4.09488E-02-1.77084E-03 7.10815E-03
 -1      1524-4.57453E-02-7.97052E-04 7.39434E-03
 -1      1526-4.57468E-02-1.76318E-03 7.19584E-03
 -1      1527-5.04120E-02-7.43131E-04 7.40390E-03
 -1      1529-5.04094E-02-1.73840E-03 7.22493E-03
 -1      1530-5.49275E-02-6.99939E-04 7.37465E-03
 -1      1532-5.49399E-02-1.70823E-03 7.18951E-03
 -1      1533-5.93022E-02-6.53067E-04 7.27639E-03
 -1      1535-5.93151E-02-1.66694E-03 7.10774E-03
 -1      1536-6.35073E-02-6.11533E-04 7.14417E-03
 -1      1538-6.35294E-02-1.61947E-03 6.97379E-03
 -1      1539-6.75433E-02-5.68063E-04 6.95987E-03
 -1      1541-6.75677E-02-1.56391E-03 6.80398E-03
 -1      1542-7.13901E-02-5.27199E-04 6.74733E-03
 -1      1544-7.14204E-02-1.50266E-03 6.59308E-03
 -1      1545-7.50437E-02-4.84875E-04 6.49598E-03
 -1      1547-7.50766E-02-1.43523E-03 6.35499E-03
 -1      1548-7.84892E-02-4.43578E-04 6.22266E-03
 -1      1550-7.85259E-02-1.36304E-03 6.08587E-03
 -1      1551-8.17207E-02-4.00828E-04 5.92154E-03
 -1      1553-8.17595E-02-1.28616E-03 5.79730E-03
 -1      1554-8.47265E-02-3.58048E-04 5.60515E-03
 -1      1556-8.47677E-02-1.20557E-03 5.48708E-03
 -1      1557-8.75005E-02-3.13624E-04 5.27084E-03
 -1      1559-8.75432E-02-1.12163E-03 5.16492E-03
 -1      1560-9.00334E-02-2.68331E-04 4.92853E-03
 -1      1562-9.00773E-02-1.03513E-03 4.83029E-03
 -1      1563-9.23197E-02-2.21101E-04 4.57789E-03
 -1      1565-9.23640E-02-9.46647E-04 4.49160E-03
 -1      1566-9.43519E-02-1.72180E-04 4.22738E-03
 -1      1568-9.43962E-02-8.56802E-04 4.14994E-03
 -1      1569-9.61254E-02-1.20982E-04 3.87857E-03
 -1      1571-9.61690E-02-7.66497E-04 3.81296E-03
 -1      1572-9.76347E-02-6.70773E-05 3.53944E-03
 -1      1574-9.76770E-02-6.76071E-04 3.48355E-03
 -1      1575-9.88763E-02-1.06327E-05 3.21298E-03
 -1      1577-9.89166E-02-5.87101E-04 3.16886E-03
 -1      1578-9.98465E-02 5.00767E-05 2.90884E-03
 -1      1580-9.98836E-02-4.99072E-04 2.87503E-03
 -1      1581-1.00543E-01 1.12998E-04 2.63021E-03
 -1      1583-1.00577E-01-4.15435E-04 2.60820E-03
 -1      1584-1.00964E-01 1.83516E-04 2.39608E-03
 -1      1586-1.00990E-01-3.31933E-04 2.38452E-03
 -1      1587-1.01134E-01 1.97104E-04 7.10514E-04
 -1      1589-1.01152E-01-1.98402E-04 7.10034E-04
 -1      1590 0.00000E+00 0.00000E+00 1.36463E-04
 -1      1592 0.00000E+00 0.00000E+00-1.36463E-04
 -1      1593-1.01134E-01-1.97104E-04 7.10514E-04
 -1      1595-1.01152E-01 1.98402E-04 7.10034E-04
 -1      1596-5.74537E-03 1.68095E-03 2.46390E-03
 -1      1598-5.13896E-03 1.90659E-03 2.30004E-03
 -1      1599-1.03539E-02 1.21269E-03 4.84581E-03
 -1      1601-1.03284E-02 1.48038E-03 4.62089E-03
 -1      1602-1.57646E-02 1.19172E-03 5.42253E-03
 -1      1604-1.56518E-02 1.64170E-03 5.20680E-03
 -1      1605-2.08876E-02 1.08961E-03 6.16047E-03
 -1      1607-2.08187E-02 1.67634E-03 5.96353E-03
 -1      1608-2.60044E-02 1.04465E-03 6.56777E-03
 -1      1610-2.59760E-02 1.74343E-03 6.34899E-03
 -1      1611-3.10923E-02 9.54083E-04 6.89805E-03
 -1      1613-3.10427E-02 1.75363E-03 6.70626E-03
 -1      1614-3.60641E-02 9.09581E-04 7.15032E-03
 -1      1616-3.60541E-02 1.77788E-03 6.94014E-03
 -1      1617-4.09722E-02 8.42080E-04 7.29478E-03
 -1      1619-4.09488E-02 1.77084E-03 7.10815E-03
 -1      1620-4.57453E-02 7.97052E-04 7.39434E-03
 -1      1622-4.57468E-02 1.76318E-03 7.19584E-03
 -1      1623-5.04120E-02 7.43131E-04 7.40390E-03
 -1      1625-5.04094E-02 1.73840E-03 7.22493E-03
 -1      1626-5.49275E-02 6.99939E-04 7.37465E-03
 -1      1628-5.49399E-02 1.70823E-03 7.18951E-03
 -1      1629-5.93022E-02 6.53067E-04 7.27639E-03
 -1      1631-5.93151E-02 1.66694E-03 7.10774E-03
 -1      1632-6.35073E-02 6.11533E-04 7.14417E-03
 -1      1634-6.35294E-02 1.61947E-03 6.97379E-03
 -1      1635-6.75433E-02 5.68063E-04 6.95987E-03
 -1      1637-6.75677E-02 1.56391E-03 6.80398E-03
 -1      1638-7.13901E-02 5.27199E-04 6.74733E-03
 -1      1640-7.14204E-02 1.50266E-03 6.59308E-03
 -1      1641-7.50437E-02 4.84875E-04 6.49598E-03
 -1      1643-7.50766E-02 1.43523E-03 6.35499E-03
 -1      1644-7.84892E-02 4.43578E-04 6.22266E-03
 -1      1646-7.85259E-02 1.36304E-03 6.08587E-03
 -1      1647-8.17207E-02 4.00828E-04 5.92154E-03
 -1      1649-8.17595E-02 1.28616E-03 5.79730E-03
 -1      1650-8.47265E-02 3.58048E-04 5.60515E-03
 -1      1652-8.47677E-02 1.20557E-03 5.48708E-03
 -1      1653-8.75005E-02 3.13624E-04 5.27084E-03
 -1      1655-8.75432E-02 1.12163E-03 5.16492E-03
 -1      1656-9.00334E-02 2.68331E-04 4.92853E-03
 -1      1658-9.00773E-02 1.03513E-03 4.83029E-03
 -1      1659-9.23197E-02 2.21101E-04 4.57789E-03
 -1      1661-9.23640E-02 9.46647E-04 4.49160E-03
 -1      1662-9.43519E-02 1.72180E-04 4.22738E-03
 -1      1664-9.43962E-02 8.56802E-04 4.14994E-03
 -1      1665-9.61254E-02 1.20982E-04 3.87857E-03
 -1      1667-9.61690E-02 7.66497E-04 3.81296E-03
 -1      1668-9.76347E-02 6.70773E-05 3.53944E-03
 -1      1670-9.76770E-02 6.76071E-04 3.48355E-03
 -1      1671-9.88763E-02 1.06327E-05 3.21298E-03
 -1      1673-9.89166E-02 5.87101E-04 3.16886E-03
 -1      1674-9.98465E-02-5.00767E-05 2.90884E-03
 -1      1676-9.98836E-02 4.99072E-04 2.87503E-03
 -1      1677-1.00543E-01-1.12998E-04 2.63021E-03
 -1      1679-1.00577E-01 4.15435E-04 2.60820E-03
 -1      1680-1.00964E-01-1.83516E-04 2.39608E-03
 -1      1682-1.00990E-01 3.31933E-04 2.38452E-03
 -1      1683 0.00000E+00 0.00000E+00 1.36463E-04
 -1      1685 0.00000E+00 0.00000E+00-1.36463E-04
 -1      1686-5.34180E-03 8.26808E-04-2.20163E-03
 -1      1688-4.77810E-03 7.61685E-04-1.99357E-03
 -1      1689-1.05043E-02 6.19072E-04-3.89235E-03
 -1      1691-1.05983E-02 9.26722E-04-3.68898E-03
 -1      1692-1.57025E-02 4.31241E-04-3.95504E-03
 -1      1694-1.55719E-02 8.52959E-04-3.73907E-03
 -1      1695-2.08607E-02 4.64112E-04-4.31485E-03
 -1      1697-2.08807E-02 9.94121E-04-4.10707E-03
 -1      1698-2.60081E-02 3.58221E-04-4.32343E-03
 -1      1700-2.59701E-02 9.96628E-04-4.11512E-03
 -1      1701-3.10737E-02 3.42988E-04-4.42280E-03
 -1      1703-3.10755E-02 1.03515E-03-4.21874E-03
 -1      1704-3.60734E-02 2.85062E-04-4.42399E-03
 -1      1706-3.60613E-02 1.04548E-03-4.22195E-03
 -1      1707-4.09684E-02 2.61875E-04-4.43323E-03
 -1      1709-4.09717E-02 1.05375E-03-4.23726E-03
 -1      1710-4.57574E-02 2.24156E-04-4.39713E-03
 -1      1712-4.57583E-02 1.05110E-03-4.20381E-03
 -1      1713-5.04182E-02 2.01880E-04-4.34654E-03
 -1      1715-5.04273E-02 1.04280E-03-4.16085E-03
 -1      1716-5.49429E-02 1.75072E-04-4.26723E-03
 -1      1718-5.49529E-02 1.02720E-03-4.08508E-03
 -1      1719-5.93157E-02 1.55458E-04-4.16914E-03
 -1      1721-5.93307E-02 1.00647E-03-3.99566E-03
 -1      1722-6.35263E-02 1.34878E-04-4.05043E-03
 -1      1724-6.35431E-02 9.79983E-04-3.88159E-03
 -1      1725-6.75621E-02 1.17779E-04-3.91389E-03
 -1      1727-6.75824E-02 9.49313E-04-3.75445E-03
 -1      1728-7.14124E-02 1.00762E-04-3.76178E-03
 -1      1730-7.14345E-02 9.14000E-04-3.60818E-03
 -1      1731-7.50665E-02 8.54064E-05-3.59435E-03
 -1      1733-7.50912E-02 8.75375E-04-3.45069E-03
 -1      1734-7.85143E-02 7.02343E-05-3.41508E-03
 -1      1736-7.85406E-02 8.33106E-04-3.27841E-03
 -1      1737-8.17465E-02 5.56917E-05-3.22348E-03
 -1      1739-8.17745E-02 7.88317E-04-3.09720E-03
 -1      1740-8.47539E-02 4.10886E-05-3.02321E-03
 -1      1742-8.47831E-02 7.40833E-04-2.90496E-03
 -1      1743-8.75286E-02 2.63897E-05-2.81383E-03
 -1      1745-8.75590E-02 6.91608E-04-2.70633E-03
 -1      1746-9.00625E-02 1.12599E-05-2.59882E-03
 -1      1748-9.00936E-02 6.40630E-04-2.50026E-03
 -1      1749-9.23492E-02-4.62023E-06-2.37807E-03
 -1      1751-9.23809E-02 5.88720E-04-2.29055E-03
 -1      1752-9.43819E-02-2.13462E-05-2.15488E-03
 -1      1754-9.44137E-02 5.36057E-04-2.07708E-03
 -1      1755-9.61555E-02-3.95713E-05-1.92954E-03
 -1      1757-9.61873E-02 4.83329E-04-1.86300E-03
 -1      1758-9.76647E-02-5.90460E-05-1.70543E-03
 -1      1760-9.76960E-02 4.31011E-04-1.64920E-03
 -1      1761-9.89058E-02-8.10451E-05-1.48296E-03
 -1      1763-9.89366E-02 3.79508E-04-1.43813E-03
 -1      1764-9.98755E-02-1.04628E-04-1.26699E-03
 -1      1766-9.99046E-02 3.30034E-04-1.23292E-03
 -1      1767-1.00571E-01-1.32148E-04-1.05744E-03
 -1      1769-1.00599E-01 2.82090E-04-1.03480E-03
 -1      1770-1.00992E-01-1.62248E-04-8.66553E-04
 -1      1772-1.01015E-01 2.38666E-04-8.54980E-04
 -1      1773-5.34180E-03-8.26808E-04-2.20163E-03
 -1      1775-4.77810E-03-7.61685E-04-1.99357E-03
 -1      1776-1.05043E-02-6.19072E-04-3.89235E-03
 -1      1778-1.05983E-02-9.26722E-04-3.68898E-03
 -1      1779-1.57025E-02-4.31241E-04-3.95504E-03
 -1      1781-1.55719E-02-8.52959E-04-3.73907E-03
 -1      1782-2.08607E-02-4.64112E-04-4.31485E-03
 -1      1784-2.08807E-02-9.94121E-04-4.10707E-03
 -1      1785-2.60081E-02-3.58221E-04-4.32343E-03
 -1      1787-2.59701E-02-9.96628E-04-4.11512E-03
 -1      1788-3.10737E-02-3.42988E-04-4.42280E-03
 -1      1790-3.10755E-02-1.03515E-03-4.21874E-03
 -1      1791-3.60734E-02-2.85062E-04-4.42399E-03
 -1      1793-3.60613E-02-1.04548E-03-4.22195E-03
 -1      1794-4.09684E-02-2.61875E-04-4.43323E-03
 -1      1796-4.09717E-02-1.05375E-03-4.23726E-03
 -1      1797-4.57574E-02-2.24156E-04-4.39713E-03
 -1      1799-4.57583E-02-1.05110E-03-4.20381E-03
 -1      1800-5.04182E-02-2.01880E-04-4.34654E-03
 -1      1802-5.04273E-02-1.04280E-03-4.16085E-03
 -1      1803-5.49429E-02-1.75072E-04-4.26723E-03
 -1      1805-5.49529E-02-1.02720E-03-4.08508E-03
 -1      1806-5.93157E-02-1.55458E-04-4.16914E-03
 -1      1808-5.93307E-02-1.00647E-03-3.99566E-03
 -1      1809-6.35263E-02-1.34878E-04-4.05043E-03
 -1      1811-6.35431E-02-9.79983E-04-3.88159E-03
 -1      1812-6.75621E-02-1.17779E-04-3.91389E-03
 -1      1814-6.75824E-02-9.49313E-04-3.75445E-03
 -1      1815-7.14124E-02-1.00762E-04-3.76178E-03
 -1      1817-7.14345E-02-9.14000E-04-3.60818E-03
 -1      1818-7.50665E-02-8.54064E-05-3.59435E-03
 -1      1820-7.50912E-02-8.75375E-04-3.45069E-03
 -1      1821-7.85143E-02-7.02343E-05-3.41508E-03
 -1      1823-7.85406E-02-8.33106E-04-3.27841E-03
 -1      1824-8.17465E-02-5.56917E-05-3.22348E-03
 -1      1826-8.17745E-02-7.88317E-04-3.09720E-03
 -1      1827-8.47539E-02-4.10886E-05-3.02321E-03
 -1      1829-8.47831E-02-7.40833E-04-2.90496E-03
 -1      1830-8.75286E-02-2.63897E-05-2.81383E-03
 -1      1832-8.75590E-02-6.91608E-04-2.70633E-03
 -1      1833-9.00625E-02-1.12600E-05-2.59882E-03
 -1      1835-9.00936E-02-6.40630E-04-2.50026E-03
 -1      1836-9.23492E-02 4.62023E-06-2.37807E-03
 -1      1838-9.23809E-02-5.88720E-04-2.29055E-03
 -1      1839-9.43819E-02 2.13462E-05-2.15488E-03
 -1      1841-9.44137E-02-5.36057E-04-2.07708E-03
 -1      1842-9.61555E-02 3.95713E-05-1.92954E-03
 -1      1844-9.61873E-02-4.83329E-04-1.86300E-03
 -1      1845-9.76647E-02 5.90460E-05-1.70543E-03
 -1      1847-9.76960E-02-4.31011E-04-1.64920E-03
 -1      1848-9.89058E-02 8.10451E-05-1.48296E-03
 -1      1850-9.89366E-02-3.79508E-04-1.43813E-03
 -1      1851-9.98755E-02 1.04628E-04-1.26699E-03
 -1      1853-9.99046E-02-3.30034E-04-1.23292E-03
 -1      1854-1.00571E-01 1.32148E-04-1.05744E-03
 -1      1856-1.00599E-01-2.82090E-04-1.03480E-03
 -1      1857-1.00992E-01 1.62248E-04-8.66553E-04
 -1      1859-1.01015E-01-2.38666E-04-8.54980E-04
 -1      1860-4.81949E-03-7.24985E-05-9.75000E-04
 -1      1862-4.81949E-03 7.24985E-05-9.75000E-04
 -1      1863-1.01280E-02-7.13572E-05-1.52788E-03
 -1      1865-1.01280E-02 7.13572E-05-1.52788E-03
 -1      1866-1.54796E-02-6.78722E-05-1.63982E-03
 -1      1868-1.54796E-02 6.78722E-05-1.63982E-03
 -1      1869-2.07665E-02-6.50124E-05-1.64310E-03
 -1      1871-2.07665E-02 6.50124E-05-1.64310E-03
 -1      1872-2.59689E-02-6.68291E-05-1.60591E-03
 -1      1874-2.59689E-02 6.68291E-05-1.60591E-03
 -1      1875-3.10848E-02-6.28579E-05-1.57344E-03
 -1      1877-3.10848E-02 6.28578E-05-1.57344E-03
 -1      1878-3.61035E-02-6.40600E-05-1.53632E-03
 -1      1880-3.61035E-02 6.40600E-05-1.53632E-03
 -1      1881-4.10183E-02-6.07582E-05-1.50114E-03
 -1      1883-4.10183E-02 6.07582E-05-1.50114E-03
 -1      1884-4.58172E-02-6.07072E-05-1.46228E-03
 -1      1886-4.58172E-02 6.07072E-05-1.46228E-03
 -1      1887-5.04894E-02-5.78837E-05-1.42149E-03
 -1      1889-5.04894E-02 5.78837E-05-1.42149E-03
 -1      1890-5.50220E-02-5.68700E-05-1.37654E-03
 -1      1892-5.50220E-02 5.68700E-05-1.37654E-03
 -1      1893-5.94034E-02-5.42415E-05-1.32845E-03
 -1      1895-5.94034E-02 5.42415E-05-1.32845E-03
 -1      1896-6.36212E-02-5.25370E-05-1.27643E-03
 -1      1898-6.36212E-02 5.25370E-05-1.27643E-03
 -1      1899-6.76642E-02-4.99159E-05-1.22109E-03
 -1      1901-6.76642E-02 4.99159E-05-1.22109E-03
 -1      1902-7.15211E-02-4.77073E-05-1.16222E-03
 -1      1904-7.15211E-02 4.77073E-05-1.16222E-03
 -1      1905-7.51814E-02-4.49910E-05-1.10022E-03
 -1      1907-7.51814E-02 4.49910E-05-1.10022E-03
 -1      1908-7.86350E-02-4.23994E-05-1.03511E-03
 -1      1910-7.86350E-02 4.23994E-05-1.03511E-03
 -1      1911-8.18724E-02-3.95438E-05-9.67171E-04
 -1      1913-8.18724E-02 3.95438E-05-9.67171E-04
 -1      1914-8.48847E-02-3.66495E-05-8.96537E-04
 -1      1916-8.48847E-02 3.66495E-05-8.96537E-04
 -1      1917-8.76637E-02-3.36477E-05-8.23455E-04
 -1      1919-8.76637E-02 3.36477E-05-8.23455E-04
 -1      1920-9.02015E-02-3.05066E-05-7.48104E-04
 -1      1922-9.02015E-02 3.05066E-05-7.48104E-04
 -1      1923-9.24914E-02-2.73744E-05-6.70708E-04
 -1      1925-9.24914E-02 2.73744E-05-6.70708E-04
 -1      1926-9.45270E-02-2.40289E-05-5.91473E-04
 -1      1928-9.45270E-02 2.40289E-05-5.91473E-04
 -1      1929-9.63026E-02-2.07956E-05-5.10603E-04
 -1      1931-9.63026E-02 2.07956E-05-5.10603E-04
 -1      1932-9.78133E-02-1.72809E-05-4.28321E-04
 -1      1934-9.78133E-02 1.72809E-05-4.28321E-04
 -1      1935-9.90549E-02-1.39813E-05-3.44857E-04
 -1      1937-9.90549E-02 1.39813E-05-3.44857E-04
 -1      1938-1.00024E-01-1.03265E-05-2.60668E-04
 -1      1940-1.00024E-01 1.03265E-05-2.60668E-04
 -1      1941-1.00717E-01-6.98722E-06-1.76687E-04
 -1      1943-1.00717E-01 6.98722E-06-1.76687E-04
 -1      1944-1.01133E-01-3.21471E-06-9.68717E-05
 -1      1946-1.01133E-01 3.21471E-06-9.68717E-05
 -1      1947-4.78614E-03-8.07491E-05-3.49998E-14
 -1      1949-4.78614E-03 8.07491E-05-4.09481E-14
 -1      1950-1.00115E-02-7.12548E-05-7.09849E-14
 -1      1952-1.00115E-02 7.12548E-05-8.54247E-14
 -1      1953-1.53966E-02-6.86411E-05-1.09069E-13
 -1      1955-1.53966E-02 6.86411E-05-1.30868E-13
 -1      1956-2.07249E-02-6.85710E-05-1.42962E-13
 -1      1958-2.07249E-02 6.85710E-05-1.70121E-13
 -1      1959-2.59572E-02-6.45418E-05-1.70308E-13
 -1      1961-2.59572E-02 6.45418E-05-1.99910E-13
 -1      1962-3.10858E-02-6.60900E-05-1.90091E-13
 -1      1964-3.10858E-02 6.60900E-05-2.18929E-13
 -1      1965-3.61138E-02-6.27121E-05-1.96530E-13
 -1      1967-3.61138E-02 6.27121E-05-2.22808E-13
 -1      1968-4.10329E-02-6.29350E-05-1.90414E-13
 -1      1970-4.10329E-02 6.29350E-05-2.13756E-13
 -1      1971-4.58356E-02-6.02719E-05-1.76315E-13
 -1      1973-4.58356E-02 6.02719E-05-1.96878E-13
 -1      1974-5.05102E-02-5.93381E-05-1.59932E-13
 -1      1976-5.05102E-02 5.93381E-05-1.75747E-13
 -1      1977-5.50452E-02-5.69764E-05-1.40358E-13
 -1      1979-5.50452E-02 5.69764E-05-1.48707E-13
 -1      1980-5.94285E-02-5.52614E-05-1.11884E-13
 -1      1982-5.94285E-02 5.52614E-05-1.10656E-13
 -1      1983-6.36482E-02-5.29193E-05-7.37899E-14
 -1      1985-6.36482E-02 5.29193E-05-6.46636E-14
 -1      1986-6.76930E-02-5.06812E-05-2.71415E-14
 -1      1988-6.76930E-02 5.06812E-05-1.11040E-14
 -1      1989-7.15516E-02-4.82041E-05 2.80123E-14
 -1      1991-7.15516E-02 4.82041E-05 4.95055E-14
 -1      1992-7.52136E-02-4.56009E-05 8.56260E-14
 -1      1994-7.52136E-02 4.56009E-05 1.10068E-13
 -1      1995-7.86686E-02-4.29199E-05 1.35288E-13
 -1      1997-7.86686E-02 4.29199E-05 1.61947E-13
 -1      1998-8.19075E-02-4.00477E-05 1.71765E-13
 -1      2000-8.19075E-02 4.00477E-05 1.99819E-13
 -1      2001-8.49211E-02-3.71456E-05 1.91729E-13
 -1      2003-8.49211E-02 3.71456E-05 2.19276E-13
 -1      2004-8.77012E-02-3.40670E-05 1.95267E-13
 -1      2006-8.77012E-02 3.40670E-05 2.20948E-13
 -1      2007-9.02402E-02-3.09552E-05 1.85775E-13
 -1      2009-9.02402E-02 3.09552E-05 2.08118E-13
 -1      2010-9.25310E-02-2.77159E-05 1.63355E-13
 -1      2012-9.25310E-02 2.77159E-05 1.82715E-13
 -1      2013-9.45674E-02-2.44218E-05 1.26323E-13
 -1      2015-9.45674E-02 2.44218E-05 1.42320E-13
 -1      2016-9.63437E-02-2.10599E-05 7.31637E-14
 -1      2018-9.63437E-02 2.10599E-05 8.59070E-14
 -1      2019-9.78548E-02-1.76173E-05 6.21118E-15
 -1      2021-9.78548E-02 1.76173E-05 1.63368E-14
 -1      2022-9.90966E-02-1.41666E-05-6.74686E-14
 -1      2024-9.90966E-02 1.41666E-05-5.82607E-14
 -1      2025-1.00065E-01-1.06036E-05-1.43406E-13
 -1      2027-1.00065E-01 1.06036E-05-1.32605E-13
 -1      2028-1.00758E-01-7.08084E-06-2.22058E-13
 -1      2030-1.00758E-01 7.08084E-06-2.08595E-13
 -1      2031-1.01176E-01-3.34219E-06-2.99934E-13
 -1      2033-1.01176E-01 3.34220E-06-2.87010E-13
 -1      2034-4.81949E-03-7.24985E-05 9.75000E-04
 -1      2036-4.81949E-03 7.24985E-05 9.75000E-04
 -1      2037-1.01280E-02-7.13572E-05 1.52788E-03
 -1      2039-1.01280E-02 7.13572E-05 1.52788E-03
 -1      2040-1.54796E-02-6.78722E-05 1.63982E-03
 -1      2042-1.54796E-02 6.78722E-05 1.63982E-03
 -1      2043-2.07665E-02-6.50124E-05 1.64310E-03
 -1      2045-2.07665E-02 6.50124E-05 1.64310E-03
 -1      2046-2.59689E-02-6.68291E-05 1.60591E-03
 -1      2048-2.59689E-02 6.68291E-05 1.60591E-03
 -1      2049-3.10848E-02-6.28579E-05 1.57344E-03
 -1      2051-3.10848E-02 6.28578E-05 1.57344E-03
 -1      2052-3.61035E-02-6.40600E-05 1.53632E-03
 -1      2054-3.61035E-02 6.40600E-05 1.53632E-03
 -1      2055-4.10183E-02-6.07582E-05 1.50114E-03
 -1      2057-4.10183E-02 6.07582E-05 1.50114E-03
 -1      2058-4.58172E-02-6.07072E-05 1.46228E-03
 -1      2060-4.58172E-02 6.07072E-05 1.46228E-03
 -1      2061-5.04894E-02-5.78837E-05 1.42149E-03
 -1      2063-5.04894E-02 5.78837E-05 1.42149E-03
 -1      2064-5.50220E-02-5.68700E-05 1.37654E-03
 -1      2066-5.50220E-02 5.68700E-05 1.37654E-03
 -1      2067-5.94034E-02-5.42415E-05 1.32845E-03
 -1      2069-5.94034E-02 5.42415E-05 1.32845E-03
 -1      2070-6.36212E-02-5.25370E-05 1.27643E-03
 -1      2072-6.36212E-02 5.25370E-05 1.27643E-03
 -1      2073-6.76642E-02-4.99159E-05 1.22109E-03
 -1      2075-6.76642E-02 4.99159E-05 1.22109E-03
 -1      2076-7.15211E-02-4.77073E-05 1.16222E-03
 -1      2078-7.15211E-02 4.77073E-05 1.16222E-03
 -1      2079-7.51814E-02-4.49910E-05 1.10022E-03
 -1      2081-7.51814E-02 4.49910E-05 1.10022E-03
 -1      2082-7.86350E-02-4.23994E-05 1.03511E-03
 -1      2084-7.86350E-02 4.23994E-05 1.03511E-03
 -1      2085-8.18724E-02-3.95438E-05 9.67171E-04
 -1      2087-8.18724E-02 3.95438E-05 9.67171E-04
 -1      2088-8.48847E-02-3.66495E-05 8.96537E-04
 -1      2090-8.48847E-02 3.66495E-05 8.96537E-04
 -1      2091-8.76637E-02-3.36477E-05 8.23455E-04
 -1      2093-8.76637E-02 3.36477E-05 8.23455E-04
 -1      2094-9.02015E-02-3.05066E-05 7.48104E-04
 -1      2096-9.02015E-02 3.05066E-05 7.48104E-04
 -1      2097-9.24914E-02-2.73744E-05 6.70708E-04
 -1      2099-9.24914E-02 2.73744E-05 6.70708E-04
 -1      2100-9.45270E-02-2.40289E-05 5.91473E-04
 -1      2102-9.45270E-02 2.40289E-05 5.91473E-04
 -1      2103-9.63026E-02-2.07956E-05 5.10603E-04
 -1      2105-9.63026E-02 2.07956E-05 5.10603E-04
 -1      2106-9.78133E-02-1.72809E-05 4.28321E-04
 -1      2108-9.78133E-02 1.72809E-05 4.28321E-04
 -1      2109-9.90549E-02-1.39813E-05 3.44857E-04
 -1      2111-9.90549E-02 1.39813E-05 3.44857E-04
 -1      2112-1.00024E-01-1.03265E-05 2.60668E-04
 -1      2114-1.00024E-01 1.03265E-05 2.60668E-04
 -1      2115-1.00717E-01-6.98722E-06 1.76687E-04
 -1      2117-1.00717E-01 6.98722E-06 1.76687E-04
 -1      2118-1.01133E-01-3.21471E-06 9.68717E-05
 -1      2120-1.01133E-01 3.21471E-06 9.68717E-05
 -1      2121-5.34180E-03-8.26808E-04 2.20163E-03
 -1      2123-4.77810E-03-7.61685E-04 1.99357E-03
 -1      2124-1.05043E-02-6.19072E-04 3.89235E-03
 -1      2126-1.05983E-02-9.26722E-04 3.68898E-03
 -1      2127-1.57025E-02-4.31241E-04 3.95504E-03
 -1      2129-1.55719E-02-8.52959E-04 3.73907E-03
 -1      2130-2.08607E-02-4.64112E-04 4.31485E-03
 -1      2132-2.08807E-02-9.94121E-04 4.10707E-03
 -1      2133-2.60081E-02-3.58221E-04 4.32343E-03
 -1      2135-2.59701E-02-9.96628E-04 4.11512E-03
 -1      2136-3.10737E-02-3.42988E-04 4.42280E-03
 -1      2138-3.10755E-02-1.03515E-03 4.21874E-03
 -1      2139-3.60734E-02-2.85062E-04 4.42399E-03
 -1      2141-3.60613E-02-1.04548E-03 4.22195E-03
 -1      2142-4.09684E-02-2.61875E-04 4.43323E-03
 -1      2144-4.09717E-02-1.05375E-03 4.23726E-03
 -1      2145-4.57574E-02-2.24156E-04 4.39713E-03
 -1      2147-4.57583E-02-1.05110E-03 4.20381E-03
 -1      2148-5.04182E-02-2.01880E-04 4.34654E-03
 -1      2150-5.04273E-02-1.04280E-03 4.16085E-03
 -1      2151-5.49429E-02-1.75072E-04 4.26723E-03
 -1      2153-5.49529E-02-1.02720E-03 4.08508E-03
 -1      2154-5.93157E-02-1.55458E-04 4.16914E-03
 -1      2156-5.93307E-02-1.00647E-03 3.99566E-03
 -1      2157-6.35263E-02-1.34878E-04 4.05043E-03
 -1      2159-6.35431E-02-9.79983E-04 3.88159E-03
 -1      2160-6.75621E-02-1.17779E-04 3.91389E-03
 -1      2162-6.75824E-02-9.49313E-04 3.75445E-03
 -1      2163-7.14124E-02-1.00762E-04 3.76178E-03
 -1      2165-7.14345E-02-9.14000E-04 3.60818E-03
 -1      2166-7.50665E-02-8.54064E-05 3.59435E-03
 -1      2168-7.50912E-02-8.75375E-04 3.45069E-03
 -1      2169-7.85143E-02-7.02343E-05 3.41508E-03
 -1      2171-7.85406E-02-8.33106E-04 3.27841E-03
 -1      2172-8.17465E-02-5.56917E-05 3.22348E-03
 -1      2174-8.17745E-02-7.88317E-04 3.09720E-03
 -1      2175-8.47539E-02-4.10886E-05 3.02321E-03
 -1      2177-8.47831E-02-7.40833E-04 2.90496E-03
 -1      2178-8.75286E-02-2.63897E-05 2.81383E-03
 -1      2180-8.75590E-02-6.91608E-04 2.70633E-03
 -1      2181-9.00625E-02-1.12600E-05 2.59882E-03
 -1      2183-9.00936E-02-6.40630E-04 2.50026E-03
 -1      2184-9.23492E-02 4.62023E-06 2.37807E-03
 -1      2186-9.23809E-02-5.88720E-04 2.29055E-03
 -1      2187-9.43819E-02 2.13462E-05 2.15488E-03
 -1      2189-9.44137E-02-5.36057E-04 2.07708E-03
 -1      2190-9.61555E-02 3.95713E-05 1.92954E-03
 -1      2192-9.61873E-02-4.83329E-04 1.86300E-03
 -1      2193-9.76647E-02 5.90460E-05 1.70543E-03
 -1      2195-9.76960E-02-4.31011E-04 1.64920E-03
 -1      2196-9.89058E-02 8.10451E-05 1.48296E-03
 -1      2198-9.89366E-02-3.79508E-04 1.43813E-03
 -1      2199-9.98755E-02 1.04628E-04 1.26699E-03
 -1      2201-9.99046E-02-3.30034E-04 1.23292E-03
 -1      2202-1.00571E-01 1.32148E-04 1.05744E-03
 -1      2204-1.00599E-01-2.82090E-04 1.03480E-03
 -1      2205-1.00992E-01 1.62248E-04 8.66553E-04
 -1      2207-1.01015E-01-2.38666E-04 8.54980E-04
 -1      2208-5.34180E-03 8.26808E-04 2.20163E-03
 -1      2210-4.77810E-03 7.61685E-04 1.99357E-03
 -1      2211-1.05043E-02 6.19072E-04 3.89235E-03
 -1      2213-1.05983E-02 9.26722E-04 3.68898E-03
 -1      2214-1.57025E-02 4.31241E-04 3.95504E-03
 -1      2216-1.55719E-02 8.52959E-04 3.73907E-03
 -1      2217-2.08607E-02 4.64112E-04 4.31485E-03
 -1      2219-2.08807E-02 9.94121E-04 4.10707E-03
 -1      2220-2.60081E-02 3.58221E-04 4.32343E-03
 -1      2222-2.59701E-02 9.96628E-04 4.11512E-03
 -1      2223-3.10737E-02 3.42988E-04 4.42280E-03
 -1      2225-3.10755E-02 1.03515E-03 4.21874E-03
 -1      2226-3.60734E-02 2.85062E-04 4.42399E-03
 -1      2228-3.60613E-02 1.04548E-03 4.22195E-03
 -1      2229-4.09684E-02 2.61875E-04 4.43323E-03
 -1      2231-4.09717E-02 1.05375E-03 4.23726E-03
 -1      2232-4.57574E-02 2.24156E-04 4.39713E-03
 -1      2234-4.57583E-02 1.05110E-03 4.20381E-03
 -1      2235-5.04182E-02 2.01880E-04 4.34654E-03
 -1      2237-5.04273E-02 1.04280E-03 4.16085E-03
 -1      2238-5.49429E-02 1.75072E-04 4.26723E-03
 -1      2240-5.49529E-02 1.02720E-03 4.08508E-03
 -1      2241-5.93157E-02 1.55458E-04 4.16914E-03
 -1      2243-5.93307E-02 1.00647E-03 3.99566E-03
 -1      2244-6.35263E-02 1.34878E-04 4.05043E-03
 -1      2246-6.35431E-02 9.79983E-04 3.88159E-03
 -1      2247-6.75621E-02 1.17779E-04 3.91389E-03
 -1      2249-6.75824E-02 9.49313E-04 3.75445E-03
 -1      2250-7.14124E-02 1.00762E-04 3.76178E-03
 -1      2252-7.14345E-02 9.14000E-04 3.60818E-03
 -1      2253-7.50665E-02 8.54064E-05 3.59435E-03
 -1      2255-7.50912E-02 8.75375E-04 3.45069E-03
 -1      2256-7.85143E-02 7.02343E-05 3.41508E-03
 -1      2258-7.85406E-02 8.33106E-04 3.27841E-03
 -1      2259-8.17465E-02 5.56917E-05 3.22348E-03
 -1      2261-8.17745E-02 7.88317E-04 3.09720E-03
 -1      2262-8.47539E-02 4.10886E-05 3.02321E-03
 -1      2264-8.47831E-02 7.40833E-04 2.90496E-03
 -1      2265-8.75286E-02 2.63897E-05 2.81383E-03
 -1      2267-8.75590E-02 6.91608E-04 2.70633E-03
 -1      2268-9.00625E-02 1.12599E-05 2.59882E-03
 -1      2270-9.00936E-02 6.40630E-04 2.50026E-03
 -1      2271-9.23492E-02-4.62024E-06 2.37807E-03
 -1      2273-9.23809E-02 5.88720E-04 2.29055E-03
 -1      2274-9.43819E-02-2.13462E-05 2.15488E-03
 -1      2276-9.44137E-02 5.36057E-04 2.07708E-03
 -1      2277-9.61555E-02-3.95713E-05 1.92954E-03
 -1      2279-9.61873E-02 4.83329E-04 1.86300E-03
 -1      2280-9.76647E-02-5.90460E-05 1.70543E-03
 -1      2282-9.76960E-02 4.31011E-04 1.64920E-03
 -1      2283-9.89058E-02-8.10451E-05 1.48296E-03
 -1      2285-9.89366E-02 3.79508E-04 1.43813E-03
 -1      2286-9.98755E-02-1.04628E-04 1.26699E-03
 -1      2288-9.99046E-02 3.30034E-04 1.23292E-03
 -1      2289-1.00571E-01-1.32148E-04 1.05744E-03
 -1      2291-1.00599E-01 2.82090E-04 1.03480E-03
 -1      2292-1.00992E-01-1.62248E-04 8.66553E-04
 -1      2294-1.01015E-01 2.38666E-04 8.54980E-04
 -3
    1PSTEP                        50           1           1          
    1PGM                1.000000E+00                                  
    1PGK                7.351924E+06                                  
    1PHID                         -1                                  
    1PSUBC                         0                                  
    1PMODE                        13                                  
  100CL  113 431.5395805         930                     2   13MODAL      1
 -4  STRESS      6    1
 -5  SXX         1    4    1    1
 -5  SYY         1    4    2    2
 -5  SZZ         1    4    3    3
 -5  SXY         1    4    1    2
 -5  SYZ         1    4    2    3
 -5  SZX         1    4    3    1
 -1       404-1.13511E+10-1.07463E+09-5.04020E+06 7.02144E+08-1.51041E+07-5.88849E+07
 -1       406-1.13511E+10-1.07463E+09-5.04020E+06 7.02144E+08-1.51041E+07-5.88849E+07
 -1       407-2.93458E+08 3.34559E+06 4.64538E+05 1.05085E+06-3.81862E+06-1.85827E+05
 -1       409-2.93458E+08 3.34559E+06 4.64538E+05 1.05085E+06-3.81862E+06-1.85827E+05
 -1       410-2.95304E+08 2.15231E+06 2.48071E+05 4.33088E-03-6.36348E-03-1.92812E+05
 -1       412-2.95304E+08 2.15231E+06 2.48071E+05 4.33088E-03-6.36348E-03-1.92812E+05
 -1       413-2.87215E+08 5.39085E+05 4.09077E+07-4.71188E-04-5.78989E-03-1.07147E+07
 -1       415-2.87215E+08 5.39085E+05 4.09077E+07-4.71188E-04-5.78989E-03-1.07147E+07
 -1       424-1.11985E+10-1.50608E+09 8.01587E+05-4.61082E-02-2.62973E-03-1.42268E+08
 -1       426-1.11985E+10-1.50608E+09 8.01587E+05-4.61082E-02-2.62973E-03-1.42268E+08
 -1       427-1.10852E+10-4.23718E+06-1.96487E+09-2.90885E-03-1.70209E-03-1.16766E+09
 -1       429-1.10852E+10-4.23718E+06-1.96487E+09-2.90885E-03-1.70209E-03-1.16766E+09
 -1       438-2.93458E+08 3.34559E+06 4.64538E+05-1.05085E+06 3.81862E+06-1.85827E+05
 -1       440-2.93458E+08 3.34559E+06 4.64538E+05-1.05085E+06 3.81862E+06-1.85827E+05
 -1       441-1.13511E+10-1.07463E+09-5.04020E+06-7.02144E+08 1.51041E+07-5.88849E+07
 -1       443-1.13511E+10-1.07463E+09-5.04020E+06-7.02144E+08 1.51041E+07-5.88849E+07
 -1       444-1.10852E+10-4.23718E+06-1.96487E+09 1.59962E-04 1.35818E-03 1.16766E+09
 -1       446-1.10852E+10-4.23718E+06-1.96487E+09 1.59962E-04 1.35818E-03 1.16766E+09
 -1       447-1.11985E+10-1.50608E+09 8.01587E+05 6.38604E-03 2.87110E-03 1.42268E+08
 -1       449-1.11985E+10-1.50608E+09 8.01587E+05 6.38604E-03 2.87110E-03 1.42268E+08
 -1       458-2.87215E+08 5.39085E+05 4.09077E+07-2.13522E-04 6.10371E-03 1.07147E+07
 -1       460-2.87215E+08 5.39085E+05 4.09077E+07-2.13522E-04 6.10371E-03 1.07147E+07
 -1       461-2.95304E+08 2.15231E+06 2.48071E+05 2.70893E-03 4.74918E-03 1.92812E+05
 -1       463-2.95304E+08 2.15231E+06 2.48071E+05 2.70893E-03 4.74918E-03 1.92812E+05
 -1       472-1.13511E+10-1.07463E+09-5.04020E+06-7.02144E+08-1.51041E+07 5.88849E+07
 -1       474-1.13511E+10-1.07463E+09-5.04020E+06-7.02144E+08-1.51041E+07 5.88849E+07
 -1       475-2.93458E+08 3.34559E+06 4.64538E+05-1.05085E+06-3.81862E+06 1.85827E+05
 -1       477-2.93458E+08 3.34559E+06 4.64538E+05-1.05085E+06-3.81862E+06 1.85827E+05
 -1       478-2.93458E+08 3.34559E+06 4.64538E+05 1.05085E+06 3.81862E+06 1.85827E+05
 -1       480-2.93458E+08 3.34559E+06 4.64538E+05 1.05085E+06 3.81862E+06 1.85827E+05
 -1       481-1.13511E+10-1.07463E+09-5.04020E+06 7.02144E+08 1.51041E+07 5.88849E+07
 -1       483-1.13511E+10-1.07463E+09-5.04020E+06 7.02144E+08 1.51041E+07 5.88849E+07
 -1       484-1.10622E+10-3.16038E+08 3.84932E+06 1.79226E+08-7.83335E+06-2.22344E+07
 -1       486-1.10622E+10-3.16038E+08 3.84932E+06 1.79226E+08-7.83335E+06-2.22344E+07
 -1       487-1.09019E+10 1.37384E+08-1.19927E+06-1.21647E+08 3.57043E+05 9.24537E+06
 -1       489-1.09019E+10 1.37384E+08-1.19927E+06-1.21647E+08 3.57043E+05 9.24537E+06
 -1       490-1.09503E+10-4.56596E+07-2.53622E+05 3.70033E+07-1.41668E+06-3.75201E+06
 -1       492-1.09503E+10-4.56596E+07-2.53622E+05 3.70033E+07-1.41668E+06-3.75201E+06
 -1       493-1.08273E+10 1.74704E+07 7.98501E+05-1.40147E+07-2.16784E+06-1.23743E+06
 -1       495-1.08273E+10 1.74704E+07 7.98501E+05-1.40147E+07-2.16784E+06-1.23743E+06
 -1       496-1.07217E+10-6.24740E+06-8.22971E+05-3.88227E+06-2.64998E+06 1.86177E+04
 -1       498-1.07217E+10-6.24740E+06-8.22971E+05-3.88227E+06-2.64998E+06 1.86177E+04
 -1       499-1.05751E+10 6.48193E+06 8.33503E+05-3.03200E+06-3.85326E+06-1.83126E+06
 -1       501-1.05751E+10 6.48193E+06 8.33503E+05-3.03200E+06-3.85326E+06-1.83126E+06
 -1       502-1.03896E+10-1.69614E+06-6.76987E+05-1.04840E+06-4.10794E+06 2.72816E+05
 -1       504-1.03896E+10-1.69614E+06-6.76987E+05-1.04840E+06-4.10794E+06 2.72816E+05
 -1       505-1.01720E+10 3.19701E+06 6.56836E+05-9.09844E+05-4.88722E+06-1.09813E+06
 -1       507-1.01720E+10 3.19701E+06 6.56836E+05-9.09844E+05-4.88722E+06-1.09813E+06
 -1       508-9.92416E+09-5.85507E+02-4.92203E+05-1.38492E+05-5.05154E+06 1.79116E+05
 -1       510-9.92416E+09-5.85507E+02-4.92203E+05-1.38492E+05-5.05154E+06 1.79116E+05
 -1       511-9.64756E+09 1.89317E+06 4.88813E+05-1.92966E+05-5.48478E+06-5.01114E+05
 -1       513-9.64756E+09 1.89317E+06 4.88813E+05-1.92966E+05-5.48478E+06-5.01114E+05
 -1       514-9.34410E+09 5.97194E+05-3.42677E+05 3.25506E+04-5.55459E+06 1.69912E+05
 -1       516-9.34410E+09 5.97194E+05-3.42677E+05 3.25506E+04-5.55459E+06 1.69912E+05
 -1       517-9.01451E+09 1.37218E+06 3.58754E+05-2.78279E+03-5.75587E+06-1.18602E+05
 -1       519-9.01451E+09 1.37218E+06 3.58754E+05-2.78279E+03-5.75587E+06-1.18602E+05
 -1       520-8.66015E+09 7.76317E+05-2.33977E+05 6.93263E+04-5.73325E+06 2.27517E+05
 -1       522-8.66015E+09 7.76317E+05-2.33977E+05 6.93263E+04-5.73325E+06 2.27517E+05
 -1       523-8.28181E+09 1.11527E+06 2.63954E+05 5.52807E+04-5.77728E+06 1.23035E+05
 -1       525-8.28181E+09 1.11527E+06 2.63954E+05 5.52807E+04-5.77728E+06 1.23035E+05
 -1       526-7.88075E+09 7.94029E+05-1.57923E+05 8.46365E+04-5.67669E+06 3.05479E+05
 -1       528-7.88075E+09 7.94029E+05-1.57923E+05 8.46365E+04-5.67669E+06 3.05479E+05
 -1       529-7.45794E+09 9.46616E+05 1.95595E+05 8.10282E+04-5.61289E+06 2.78034E+05
 -1       531-7.45794E+09 9.46616E+05 1.95595E+05 8.10282E+04-5.61289E+06 2.78034E+05
 -1       532-7.01466E+09 7.43759E+05-1.05356E+05 9.64967E+04-5.45411E+06 3.76452E+05
 -1       534-7.01466E+09 7.43759E+05-1.05356E+05 9.64967E+04-5.45411E+06 3.76452E+05
 -1       535-6.55205E+09 8.05818E+05 1.45761E+05 9.59923E+04-5.31929E+06 3.75231E+05
 -1       537-6.55205E+09 8.05818E+05 1.45761E+05 9.59923E+04-5.31929E+06 3.75231E+05
 -1       538-6.07144E+09 6.61843E+05-6.90631E+04 1.05651E+05-5.12394E+06 4.26910E+05
 -1       540-6.07144E+09 6.61843E+05-6.90631E+04 1.05651E+05-5.12394E+06 4.26910E+05
 -1       541-5.57413E+09 6.70290E+05 1.08637E+05 1.03991E+05-4.94914E+06 4.27934E+05
 -1       543-5.57413E+09 6.70290E+05 1.08637E+05 1.03991E+05-4.94914E+06 4.27934E+05
 -1       544-5.06151E+09 5.64970E+05-4.39026E+04 1.09860E+05-4.74034E+06 4.49544E+05
 -1       546-5.06151E+09 5.64970E+05-4.39026E+04 1.09860E+05-4.74034E+06 4.49544E+05
 -1       547-4.53498E+09 5.27986E+05 8.02971E+04 1.01685E+05-4.55456E+06 4.40753E+05
 -1       549-4.53498E+09 5.27986E+05 8.02971E+04 1.01685E+05-4.55456E+06 4.40753E+05
 -1       550-3.99603E+09 4.65774E+05-2.64323E+04 1.01828E+05-4.35820E+06 4.38397E+05
 -1       552-3.99603E+09 4.65774E+05-2.64323E+04 1.01828E+05-4.35820E+06 4.38397E+05
 -1       553-3.44614E+09 3.63633E+05 5.84419E+04 7.42436E+04-4.19094E+06 4.13931E+05
 -1       555-3.44614E+09 3.63633E+05 5.84419E+04 7.42436E+04-4.19094E+06 4.13931E+05
 -1       556-2.88690E+09 3.85608E+05-1.48085E+04 6.25396E+04-4.03746E+06 3.84410E+05
 -1       558-2.88690E+09 3.85608E+05-1.48085E+04 6.25396E+04-4.03746E+06 3.84410E+05
 -1       559-2.31989E+09 1.45160E+05 4.26812E+04-7.12627E+03-3.92054E+06 3.51056E+05
 -1       561-2.31989E+09 1.45160E+05 4.26812E+04-7.12627E+03-3.92054E+06 3.51056E+05
 -1       562-1.74656E+09 4.10669E+05-9.73634E+03 4.32630E+04-3.84322E+06 2.65030E+05
 -1       564-1.74656E+09 4.10669E+05-9.73634E+03 4.32630E+04-3.84322E+06 2.65030E+05
 -1       565-1.16850E+09-2.01113E+05 3.62077E+04 4.39109E+03-3.80942E+06 2.84211E+05
 -1       567-1.16850E+09-2.01113E+05 3.62077E+04 4.39109E+03-3.80942E+06 2.84211E+05
 -1       568-5.86003E+08 7.70566E+05-1.87802E+04 4.41642E+05-3.80608E+06 8.98709E+04
 -1       570-5.86003E+08 7.70566E+05-1.87802E+04 4.41642E+05-3.80608E+06 8.98709E+04
 -1       571-2.94381E+08 2.74895E+06 3.56304E+05 1.97769E+06-4.69445E+06-1.89319E+05
 -1       573-2.94381E+08 2.74895E+06 3.56304E+05 1.97769E+06-4.69445E+06-1.89319E+05
 -1       574-1.12104E+10-6.08672E+08-1.68519E+06-5.33236E-02-6.38228E-04-1.98765E+07
 -1       576-1.12104E+10-6.08672E+08-1.68519E+06-5.33236E-02-6.38228E-04-1.98765E+07
 -1       577-1.11337E+10 2.16685E+06-1.09749E+09-2.01453E-04-1.01581E-03-7.46171E+08
 -1       579-1.11337E+10 2.16685E+06-1.09749E+09-2.01453E-04-1.01581E-03-7.46171E+08
 -1       588-1.10194E+10 1.73908E+08 1.89348E+06-4.75150E-02 2.09065E-03 2.11719E+07
 -1       590-1.10194E+10 1.73908E+08 1.89348E+06-4.75150E-02 2.09065E-03 2.11719E+07
 -1       591-1.11420E+10-4.93587E+05-8.73165E+07 9.37684E-04 1.21189E-03-7.46325E+07
 -1       593-1.11420E+10-4.93587E+05-8.73165E+07 9.37684E-04 1.21189E-03-7.46325E+07
 -1       602-1.08685E+10-1.00871E+07-4.43273E+05-3.54574E-02 2.33350E-03-9.18097E+06
 -1       604-1.08685E+10-1.00871E+07-4.43273E+05-3.54574E-02 2.33350E-03-9.18097E+06
 -1       605-1.10137E+10 3.18434E+04 6.38411E+07 1.70020E-04 2.26756E-03 1.23985E+08
 -1       607-1.10137E+10 3.18434E+04 6.38411E+07 1.70020E-04 2.26756E-03 1.23985E+08
 -1       616-1.08516E+10-1.49476E+07-6.25242E+05-2.90238E-02 2.29581E-03 8.42886E+06
 -1       618-1.08516E+10-1.49476E+07-6.25242E+05-2.90238E-02 2.29581E-03 8.42886E+06
 -1       619-1.08925E+10 9.79016E+05 8.76903E+07 5.40161E-04 1.66526E-03 8.36354E+07
 -1       621-1.08925E+10 9.79016E+05 8.76903E+07 5.40161E-04 1.66526E-03 8.36354E+07
 -1       630-1.07266E+10 1.74024E+07 6.01892E+05-1.43111E-02 2.59873E-03-3.39342E+06
 -1       632-1.07266E+10 1.74024E+07 6.01892E+05-1.43111E-02 2.59873E-03-3.39342E+06
 -1       633-1.07631E+10-7.16164E+05 9.73198E+07 4.22441E-04 1.61290E-03 6.27349E+07
 -1       635-1.07631E+10-7.16164E+05 9.73198E+07 4.22441E-04 1.61290E-03 6.27349E+07
 -1       644-1.05805E+10-1.08099E+05-8.50545E+05 9.91423E-04 2.97171E-03 3.68532E+06
 -1       646-1.05805E+10-1.08099E+05-8.50545E+05 9.91423E-04 2.97171E-03 3.68532E+06
 -1       647-1.05822E+10 9.59570E+05 9.09526E+07 6.27407E-04 1.79474E-03 2.95640E+07
 -1       649-1.05822E+10 9.59570E+05 9.09526E+07 6.27407E-04 1.79474E-03 2.95640E+07
 -1       658-1.03924E+10 6.07401E+06 4.43880E+05 1.46639E-02 3.11385E-03-1.28176E+06
 -1       660-1.03924E+10 6.07401E+06 4.43880E+05 1.46639E-02 3.11385E-03-1.28176E+06
 -1       661-1.03880E+10-4.25314E+05 8.80903E+07 4.92915E-04 1.67814E-03 1.71584E+07
 -1       663-1.03880E+10-4.25314E+05 8.80903E+07 4.92915E-04 1.67814E-03 1.71584E+07
 -1       672-1.01748E+10 2.31124E+06-6.32320E+05 2.66129E-02 2.83237E-03 1.70807E+06
 -1       674-1.01748E+10 2.31124E+06-6.32320E+05 2.66129E-02 2.83237E-03 1.70807E+06
 -1       675-1.01618E+10 6.60718E+05 8.49199E+07 4.69360E-04 1.28531E-03 6.64207E+06
 -1       677-1.01618E+10 6.60718E+05 8.49199E+07 4.69360E-04 1.28531E-03 6.64207E+06
 -1       686-9.92553E+09 3.71417E+06 2.22193E+05 3.52426E-02 2.70830E-03-5.38562E+05
 -1       688-9.92553E+09 3.71417E+06 2.22193E+05 3.52426E-02 2.70830E-03-5.38562E+05
 -1       689-9.91143E+09-1.53138E+05 8.32573E+07 3.11544E-04 1.28809E-03 3.69321E+06
 -1       691-9.91143E+09-1.53138E+05 8.32573E+07 3.11544E-04 1.28809E-03 3.69321E+06
 -1       700-9.64924E+09 2.44126E+06-4.41333E+05 3.30640E-02 2.43844E-03 7.48379E+05
 -1       702-9.64924E+09 2.44126E+06-4.41333E+05 3.30640E-02 2.43844E-03 7.48379E+05
 -1       703-9.63297E+09 4.46508E+05 8.16215E+07 1.30763E-04 1.41814E-03 9.17567E+05
 -1       705-9.63297E+09 4.46508E+05 8.16215E+07 1.30763E-04 1.41814E-03 9.17567E+05
 -1       714-9.34520E+09 2.96169E+06 6.91773E+04 2.17446E-02 2.78515E-03-3.13286E+05
 -1       716-9.34520E+09 2.96169E+06 6.91773E+04 2.17446E-02 2.78515E-03-3.13286E+05
 -1       717-9.32922E+09 1.05649E+04 8.00073E+07 7.23165E-05 2.10235E-03 4.73996E+05
 -1       719-9.32922E+09 1.05649E+04 8.00073E+07 7.23165E-05 2.10235E-03 4.73996E+05
 -1       728-9.01581E+09 2.40704E+06-3.11455E+05 1.14485E-02 3.71914E-03 2.32425E+05
 -1       730-9.01581E+09 2.40704E+06-3.11455E+05 1.14485E-02 3.71914E-03 2.32425E+05
 -1       731-8.99941E+09 3.14573E+05 7.81631E+07-6.86003E-06 3.30894E-03-3.13381E+05
 -1       733-8.99941E+09 3.14573E+05 7.81631E+07-6.86003E-06 3.30894E-03-3.13381E+05
 -1       742-8.66117E+09 2.57652E+06-2.14794E+04 8.24847E-03 4.21990E-03-2.86585E+05
 -1       744-8.66117E+09 2.57652E+06-2.14794E+04 8.24847E-03 4.21990E-03-2.86585E+05
 -1       745-8.64531E+09 9.66080E+04 7.59988E+07-1.86778E-04 3.91944E-03-3.36477E+05
 -1       747-8.64531E+09 9.66080E+04 7.59988E+07-1.86778E-04 3.91944E-03-3.36477E+05
 -1       756-8.28292E+09 2.27598E+06-2.28061E+05 7.91099E-03 4.18256E-03-6.60493E+04
 -1       758-8.28292E+09 2.27598E+06-2.28061E+05 7.91099E-03 4.18256E-03-6.60493E+04
 -1       759-8.26725E+09 2.35297E+05 7.35416E+07-3.93633E-04 4.17232E-03-6.31550E+05
 -1       761-8.26725E+09 2.35297E+05 7.35416E+07-3.93633E-04 4.17232E-03-6.31550E+05
 -1       770-7.88170E+09 2.28565E+06-6.90283E+04 3.19317E-03 3.51570E-03-3.28174E+05
 -1       772-7.88170E+09 2.28565E+06-6.90283E+04 3.19317E-03 3.51570E-03-3.28174E+05
 -1       773-7.86664E+09 1.35054E+05 7.07677E+07-5.38042E-04 3.72348E-03-6.33418E+05
 -1       775-7.86664E+09 1.35054E+05 7.07677E+07-5.38042E-04 3.72348E-03-6.33418E+05
 -1       784-7.45891E+09 2.07915E+06-1.74199E+05-6.77652E-03 1.85425E-03-2.46895E+05
 -1       786-7.45891E+09 2.07915E+06-1.74199E+05-6.77652E-03 1.85425E-03-2.46895E+05
 -1       787-7.44432E+09 1.85571E+05 6.77244E+07-5.13370E-04 2.00669E-03-7.81650E+05
 -1       789-7.44432E+09 1.85571E+05 6.77244E+07-5.13370E-04 2.00669E-03-7.81650E+05
 -1       798-7.01551E+09 2.01045E+06-8.94295E+04-1.82477E-02 4.86960E-04-3.82534E+05
 -1       800-7.01551E+09 2.01045E+06-8.94295E+04-1.82477E-02 4.86960E-04-3.82534E+05
 -1       801-7.00161E+09 1.46346E+05 6.44321E+07-7.74656E-04 4.27866E-04-7.99615E+05
 -1       803-7.00161E+09 1.46346E+05 6.44321E+07-7.74656E-04 4.27866E-04-7.99615E+05
 -1       812-6.55289E+09 1.83967E+06-1.37632E+05-2.64082E-02 7.93035E-05-3.55948E+05
 -1       814-6.55289E+09 1.83967E+06-1.37632E+05-2.64082E-02 7.93035E-05-3.55948E+05
 -1       815-6.53961E+09 1.50824E+05 6.09175E+07-7.58316E-04 6.22416E-05-8.84498E+05
 -1       817-6.53961E+09 1.50824E+05 6.09175E+07-7.58316E-04 6.22416E-05-8.84498E+05
 -1       826-6.07219E+09 1.72787E+06-9.35110E+04-3.00171E-02-3.20226E-04-4.25050E+05
 -1       828-6.07219E+09 1.72787E+06-9.35110E+04-3.00171E-02-3.20226E-04-4.25050E+05
 -1       829-6.05966E+09 1.43067E+05 5.72261E+07-7.42729E-04-4.16292E-04-9.03156E+05
 -1       831-6.05966E+09 1.43067E+05 5.72261E+07-7.42729E-04-4.16292E-04-9.03156E+05
 -1       840-5.57483E+09 1.57076E+06-1.10727E+05-2.98144E-02-1.17764E-03-4.13733E+05
 -1       842-5.57483E+09 1.57076E+06-1.10727E+05-2.98144E-02-1.17764E-03-4.13733E+05
 -1       843-5.56303E+09 1.22741E+05 5.33654E+07-7.42551E-04-1.68772E-03-9.43991E+05
 -1       845-5.56303E+09 1.22741E+05 5.33654E+07-7.42551E-04-1.68772E-03-9.43991E+05
 -1       854-5.06213E+09 1.42946E+06-8.81213E+04-2.48268E-02-2.12018E-03-4.43719E+05
 -1       856-5.06213E+09 1.42946E+06-8.81213E+04-2.48268E-02-2.12018E-03-4.43719E+05
 -1       857-5.05110E+09 1.32733E+05 4.93962E+07-8.52377E-04-2.93017E-03-9.37549E+05
 -1       859-5.05110E+09 1.32733E+05 4.93962E+07-8.52377E-04-2.93017E-03-9.37549E+05
 -1       868-4.53554E+09 1.27920E+06-8.91491E+04-1.54584E-02-2.61632E-03-4.27778E+05
 -1       870-4.53554E+09 1.27920E+06-8.91491E+04-1.54584E-02-2.61632E-03-4.27778E+05
 -1       871-4.52527E+09 9.69150E+04 4.53104E+07-9.79446E-04-3.53059E-03-9.14822E+05
 -1       873-4.52527E+09 9.69150E+04 4.53104E+07-9.79446E-04-3.53059E-03-9.14822E+05
 -1       882-3.99650E+09 1.10655E+06-7.73990E+04-4.47503E-03-2.62620E-03-4.31259E+05
 -1       884-3.99650E+09 1.10655E+06-7.73990E+04-4.47503E-03-2.62620E-03-4.31259E+05
 -1       885-3.98695E+09 1.19874E+05 4.11764E+07-8.20370E-04-3.46385E-03-8.14959E+05
 -1       887-3.98695E+09 1.19874E+05 4.11764E+07-8.20370E-04-3.46385E-03-8.14959E+05
 -1       896-3.44652E+09 9.67293E+05-7.09666E+04 3.93653E-03-2.94565E-03-3.97431E+05
 -1       898-3.44652E+09 9.67293E+05-7.09666E+04 3.93653E-03-2.94565E-03-3.97431E+05
 -1       899-3.43765E+09 7.13566E+04 3.69796E+07-7.26351E-04-3.68171E-03-6.28644E+05
 -1       901-3.43765E+09 7.13566E+04 3.69796E+07-7.26351E-04-3.68171E-03-6.28644E+05
 -1       910-2.88719E+09 7.45150E+05-6.33911E+04 6.72608E-03-3.43247E-03-3.81989E+05
 -1       912-2.88719E+09 7.45150E+05-6.33911E+04 6.72608E-03-3.43247E-03-3.81989E+05
 -1       913-2.87879E+09 1.07112E+05 3.27914E+07-5.50107E-04-3.84347E-03-2.47082E+05
 -1       915-2.87879E+09 1.07112E+05 3.27914E+07-5.50107E-04-3.84347E-03-2.47082E+05
 -1       924-2.32004E+09 6.45761E+05-5.67198E+04 8.11118E-03-3.57132E-03-3.12768E+05
 -1       926-2.32004E+09 6.45761E+05-5.67198E+04 8.11118E-03-3.57132E-03-3.12768E+05
 -1       927-2.31198E+09 4.57513E+04 2.87051E+07-5.75064E-04-3.60545E-03 2.56769E+05
 -1       929-2.31198E+09 4.57513E+04 2.87051E+07-5.75064E-04-3.60545E-03 2.56769E+05
 -1       938-1.74682E+09 4.84548E+05-4.59211E+04 1.26953E-02-3.68229E-03-2.90415E+05
 -1       940-1.74682E+09 4.84548E+05-4.59211E+04 1.26953E-02-3.68229E-03-2.90415E+05
 -1       941-1.73873E+09 9.51024E+04 2.50068E+07-5.08062E-04-3.35335E-03 8.80230E+05
 -1       943-1.73873E+09 9.51024E+04 2.50068E+07-5.08062E-04-3.35335E-03 8.80230E+05
 -1       952-1.16882E+09 3.35138E+05-4.99108E+04 1.49291E-02-3.98003E-03-1.47467E+05
 -1       954-1.16882E+09 3.35138E+05-4.99108E+04 1.49291E-02-3.98003E-03-1.47467E+05
 -1       955-1.16054E+09 2.03249E+04 2.17002E+07-2.35379E-04-3.25815E-03 2.77410E+05
 -1       957-1.16054E+09 2.03249E+04 2.17002E+07-2.35379E-04-3.25815E-03 2.77410E+05
 -1       966-5.86968E+08 1.28158E+06-2.03515E+04 9.26436E-03-5.26584E-03-6.94893E+04
 -1       968-5.86968E+08 1.28158E+06-2.03515E+04 9.26436E-03-5.26584E-03-6.94893E+04
 -1       969-5.78832E+08 5.59907E+04 3.04682E+07-2.10275E-04-4.58096E-03-5.70799E+06
 -1       971-5.78832E+08 5.59907E+04 3.04682E+07-2.10275E-04-4.58096E-03-5.70799E+06
 -1       980-1.12748E+10-1.29036E+09-2.11931E+06 5.63183E+08 2.20475E+07-1.00577E+08
 -1       982-1.12748E+10-1.29036E+09-2.11931E+06 5.63183E+08 2.20475E+07-1.00577E+08
 -1       983-2.94381E+08 2.74895E+06 3.56304E+05-1.97769E+06 4.69445E+06-1.89319E+05
 -1       985-2.94381E+08 2.74895E+06 3.56304E+05-1.97769E+06 4.69445E+06-1.89319E+05
 -1       986-1.10622E+10-3.16038E+08 3.84932E+06-1.79226E+08 7.83335E+06-2.22344E+07
 -1       988-1.10622E+10-3.16038E+08 3.84932E+06-1.79226E+08 7.83335E+06-2.22344E+07
 -1       989-1.09019E+10 1.37384E+08-1.19927E+06 1.21647E+08-3.57043E+05 9.24537E+06
 -1       991-1.09019E+10 1.37384E+08-1.19927E+06 1.21647E+08-3.57043E+05 9.24537E+06
 -1       992-1.09503E+10-4.56596E+07-2.53622E+05-3.70033E+07 1.41668E+06-3.75201E+06
 -1       994-1.09503E+10-4.56596E+07-2.53622E+05-3.70033E+07 1.41668E+06-3.75201E+06
 -1       995-1.08273E+10 1.74704E+07 7.98501E+05 1.40147E+07 2.16784E+06-1.23743E+06
 -1       997-1.08273E+10 1.74704E+07 7.98501E+05 1.40147E+07 2.16784E+06-1.23743E+06
 -1       998-1.07217E+10-6.24740E+06-8.22971E+05 3.88227E+06 2.64998E+06 1.86177E+04
 -1      1000-1.07217E+10-6.24740E+06-8.22971E+05 3.88227E+06 2.64998E+06 1.86177E+04
 -1      1001-1.05751E+10 6.48193E+06 8.33503E+05 3.03200E+06 3.85326E+06-1.83126E+06
 -1      1003-1.05751E+10 6.48193E+06 8.33503E+05 3.03200E+06 3.85326E+06-1.83126E+06
 -1      1004-1.03896E+10-1.69614E+06-6.76987E+05 1.04840E+06 4.10794E+06 2.72816E+05
 -1      1006-1.03896E+10-1.69614E+06-6.76987E+05 1.04840E+06 4.10794E+06 2.72816E+05
 -1      1007-1.01720E+10 3.19701E+06 6.56836E+05 9.09844E+05 4.88722E+06-1.09813E+06
 -1      1009-1.01720E+10 3.19701E+06 6.56836E+05 9.09844E+05 4.88722E+06-1.09813E+06
 -1      1010-9.92416E+09-5.85508E+02-4.92203E+05 1.38492E+05 5.05154E+06 1.79116E+05
 -1      1012-9.92416E+09-5.85508E+02-4.92203E+05 1.38492E+05 5.05154E+06 1.79116E+05
 -1      1013-9.64756E+09 1.89317E+06 4.88813E+05 1.92966E+05 5.48478E+06-5.01114E+05
 -1      1015-9.64756E+09 1.89317E+06 4.88813E+05 1.92966E+05 5.48478E+06-5.01114E+05
 -1      1016-9.34410E+09 5.97194E+05-3.42677E+05-3.25506E+04 5.55459E+06 1.69912E+05
 -1      1018-9.34410E+09 5.97194E+05-3.42677E+05-3.25506E+04 5.55459E+06 1.69912E+05
 -1      1019-9.01451E+09 1.37218E+06 3.58754E+05 2.78280E+03 5.75587E+06-1.18602E+05
 -1      1021-9.01451E+09 1.37218E+06 3.58754E+05 2.78280E+03 5.75587E+06-1.18602E+05
 -1      1022-8.66015E+09 7.76317E+05-2.33977E+05-6.93263E+04 5.73325E+06 2.27517E+05
 -1      1024-8.66015E+09 7.76317E+05-2.33977E+05-6.93263E+04 5.73325E+06 2.27517E+05
 -1      1025-8.28181E+09 1.11527E+06 2.63954E+05-5.52807E+04 5.77728E+06 1.23035E+05
 -1      1027-8.28181E+09 1.11527E+06 2.63954E+05-5.52807E+04 5.77728E+06 1.23035E+05
 -1      1028-7.88075E+09 7.94029E+05-1.57923E+05-8.46364E+04 5.67669E+06 3.05479E+05
 -1      1030-7.88075E+09 7.94029E+05-1.57923E+05-8.46364E+04 5.67669E+06 3.05479E+05
 -1      1031-7.45794E+09 9.46616E+05 1.95595E+05-8.10283E+04 5.61289E+06 2.78034E+05
 -1      1033-7.45794E+09 9.46616E+05 1.95595E+05-8.10283E+04 5.61289E+06 2.78034E+05
 -1      1034-7.01466E+09 7.43759E+05-1.05356E+05-9.64967E+04 5.45411E+06 3.76452E+05
 -1      1036-7.01466E+09 7.43759E+05-1.05356E+05-9.64967E+04 5.45411E+06 3.76452E+05
 -1      1037-6.55205E+09 8.05818E+05 1.45761E+05-9.59924E+04 5.31929E+06 3.75231E+05
 -1      1039-6.55205E+09 8.05818E+05 1.45761E+05-9.59924E+04 5.31929E+06 3.75231E+05
 -1      1040-6.07144E+09 6.61843E+05-6.90631E+04-1.05651E+05 5.12394E+06 4.26910E+05
 -1      1042-6.07144E+09 6.61843E+05-6.90631E+04-1.05651E+05 5.12394E+06 4.26910E+05
 -1      1043-5.57413E+09 6.70290E+05 1.08637E+05-1.03991E+05 4.94914E+06 4.27934E+05
 -1      1045-5.57413E+09 6.70290E+05 1.08637E+05-1.03991E+05 4.94914E+06 4.27934E+05
 -1      1046-5.06151E+09 5.64970E+05-4.39026E+04-1.09860E+05 4.74034E+06 4.49544E+05
 -1      1048-5.06151E+09 5.64970E+05-4.39026E+04-1.09860E+05 4.74034E+06 4.49544E+05
 -1      1049-4.53498E+09 5.27986E+05 8.02971E+04-1.01685E+05 4.55456E+06 4.40753E+05
 -1      1051-4.53498E+09 5.27986E+05 8.02971E+04-1.01685E+05 4.55456E+06 4.40753E+05
 -1      1052-3.99603E+09 4.65774E+05-2.64323E+04-1.01828E+05 4.35820E+06 4.38397E+05
 -1      1054-3.99603E+09 4.65774E+05-2.64323E+04-1.01828E+05 4.35820E+06 4.38397E+05
 -1      1055-3.44614E+09 3.63633E+05 5.84419E+04-7.42436E+04 4.19094E+06 4.13931E+05
 -1      1057-3.44614E+09 3.63633E+05 5.84419E+04-7.42436E+04 4.19094E+06 4.13931E+05
 -1      1058-2.88690E+09 3.85608E+05-1.48085E+04-6.25396E+04 4.03746E+06 3.84410E+05
 -1      1060-2.88690E+09 3.85608E+05-1.48085E+04-6.25396E+04 4.03746E+06 3.84410E+05
 -1      1061-2.31989E+09 1.45160E+05 4.26812E+04 7.12628E+03 3.92054E+06 3.51056E+05
 -1      1063-2.31989E+09 1.45160E+05 4.26812E+04 7.12628E+03 3.92054E+06 3.51056E+05
 -1      1064-1.74656E+09 4.10669E+05-9.73634E+03-4.32630E+04 3.84322E+06 2.65030E+05
 -1      1066-1.74656E+09 4.10669E+05-9.73634E+03-4.32630E+04 3.84322E+06 2.65030E+05
 -1      1067-1.16850E+09-2.01113E+05 3.62077E+04-4.39108E+03 3.80942E+06 2.84211E+05
 -1      1069-1.16850E+09-2.01113E+05 3.62077E+04-4.39108E+03 3.80942E+06 2.84211E+05
 -1      1070-5.86003E+08 7.70566E+05-1.87802E+04-4.41642E+05 3.80608E+06 8.98709E+04
 -1      1072-5.86003E+08 7.70566E+05-1.87802E+04-4.41642E+05 3.80608E+06 8.98709E+04
 -1      1073-1.12748E+10-1.29036E+09-2.11931E+06-5.63183E+08-2.20475E+07-1.00577E+08
 -1      1075-1.12748E+10-1.29036E+09-2.11931E+06-5.63183E+08-2.20475E+07-1.00577E+08
 -1      1076-1.09154E+10-1.77927E+06-2.08230E+09-9.09166E-03 1.41231E-04-7.73972E+08
 -1      1078-1.09154E+10-1.77927E+06-2.08230E+09-9.09166E-03 1.41231E-04-7.73972E+08
 -1      1079-1.07456E+10 6.78641E+05-2.19974E+09-1.43420E-02-3.69448E-05-3.08326E-02
 -1      1081-1.07456E+10 6.78641E+05-2.19974E+09-1.43420E-02-3.69448E-05-3.08326E-02
 -1      1082-1.09154E+10-1.77927E+06-2.08230E+09-6.62478E-03-3.50128E-04 7.73972E+08
 -1      1084-1.09154E+10-1.77927E+06-2.08230E+09-6.62478E-03-3.50128E-04 7.73972E+08
 -1      1085-1.11337E+10 2.16685E+06-1.09749E+09 6.19730E-04 1.48118E-04 7.46171E+08
 -1      1087-1.11337E+10 2.16685E+06-1.09749E+09 6.19730E-04 1.48118E-04 7.46171E+08
 -1      1088-1.12104E+10-6.08672E+08-1.68519E+06 1.18903E-03 5.54753E-04 1.98765E+07
 -1      1090-1.12104E+10-6.08672E+08-1.68519E+06 1.18903E-03 5.54753E-04 1.98765E+07
 -1      1099-1.11420E+10-4.93587E+05-8.73165E+07 1.28292E-03-2.95676E-03 7.46325E+07
 -1      1101-1.11420E+10-4.93587E+05-8.73165E+07 1.28292E-03-2.95676E-03 7.46325E+07
 -1      1102-1.10194E+10 1.73908E+08 1.89348E+06 6.79120E-06-2.83071E-03-2.11719E+07
 -1      1104-1.10194E+10 1.73908E+08 1.89348E+06 6.79120E-06-2.83071E-03-2.11719E+07
 -1      1113-1.10137E+10 3.18434E+04 6.38411E+07 9.65806E-04-4.44056E-03-1.23985E+08
 -1      1115-1.10137E+10 3.18434E+04 6.38411E+07 9.65806E-04-4.44056E-03-1.23985E+08
 -1      1116-1.08685E+10-1.00871E+07-4.43273E+05-4.96950E-04-3.64758E-03 9.18097E+06
 -1      1118-1.08685E+10-1.00871E+07-4.43273E+05-4.96950E-04-3.64758E-03 9.18097E+06
 -1      1127-1.08925E+10 9.79016E+05 8.76903E+07 8.54860E-04-3.58816E-03-8.36354E+07
 -1      1129-1.08925E+10 9.79016E+05 8.76903E+07 8.54860E-04-3.58816E-03-8.36354E+07
 -1      1130-1.08516E+10-1.49476E+07-6.25242E+05-5.85659E-03-3.71613E-03-8.42886E+06
 -1      1132-1.08516E+10-1.49476E+07-6.25242E+05-5.85659E-03-3.71613E-03-8.42886E+06
 -1      1141-1.07631E+10-7.16164E+05 9.73198E+07 7.83297E-04-2.51830E-03-6.27349E+07
 -1      1143-1.07631E+10-7.16164E+05 9.73198E+07 7.83297E-04-2.51830E-03-6.27349E+07
 -1      1144-1.07266E+10 1.74024E+07 6.01892E+05-6.62834E-03-3.40732E-03 3.39342E+06
 -1      1146-1.07266E+10 1.74024E+07 6.01892E+05-6.62834E-03-3.40732E-03 3.39342E+06
 -1      1155-1.05822E+10 9.59570E+05 9.09526E+07 4.85526E-04-1.26005E-03-2.95640E+07
 -1      1157-1.05822E+10 9.59570E+05 9.09526E+07 4.85526E-04-1.26005E-03-2.95640E+07
 -1      1158-1.05805E+10-1.08099E+05-8.50545E+05-4.64862E-03-2.73835E-03-3.68532E+06
 -1      1160-1.05805E+10-1.08099E+05-8.50545E+05-4.64862E-03-2.73835E-03-3.68532E+06
 -1      1169-1.03880E+10-4.25314E+05 8.80903E+07 2.28737E-04 2.95834E-05-1.71584E+07
 -1      1171-1.03880E+10-4.25314E+05 8.80903E+07 2.28737E-04 2.95834E-05-1.71584E+07
 -1      1172-1.03924E+10 6.07401E+06 4.43880E+05 2.52698E-03-1.98280E-03 1.28176E+06
 -1      1174-1.03924E+10 6.07401E+06 4.43880E+05 2.52698E-03-1.98280E-03 1.28176E+06
 -1      1183-1.01618E+10 6.60718E+05 8.49199E+07-3.10655E-05 6.86049E-04-6.64207E+06
 -1      1185-1.01618E+10 6.60718E+05 8.49199E+07-3.10655E-05 6.86049E-04-6.64207E+06
 -1      1186-1.01748E+10 2.31124E+06-6.32320E+05 1.39944E-02-1.63434E-03-1.70807E+06
 -1      1188-1.01748E+10 2.31124E+06-6.32320E+05 1.39944E-02-1.63434E-03-1.70807E+06
 -1      1197-9.91143E+09-1.53138E+05 8.32573E+07-1.03679E-04 1.63961E-04-3.69321E+06
 -1      1199-9.91143E+09-1.53138E+05 8.32573E+07-1.03679E-04 1.63961E-04-3.69321E+06
 -1      1200-9.92553E+09 3.71417E+06 2.22193E+05 2.00595E-02-2.06056E-03 5.38562E+05
 -1      1202-9.92553E+09 3.71417E+06 2.22193E+05 2.00595E-02-2.06056E-03 5.38562E+05
 -1      1211-9.63297E+09 4.46508E+05 8.16215E+07-3.79242E-04-3.52098E-04-9.17567E+05
 -1      1213-9.63297E+09 4.46508E+05 8.16215E+07-3.79242E-04-3.52098E-04-9.17567E+05
 -1      1214-9.64924E+09 2.44126E+06-4.41333E+05 1.48614E-02-2.24586E-03-7.48379E+05
 -1      1216-9.64924E+09 2.44126E+06-4.41333E+05 1.48614E-02-2.24586E-03-7.48379E+05
 -1      1225-9.32922E+09 1.05649E+04 8.00073E+07-4.47757E-04-1.46889E-04-4.73996E+05
 -1      1227-9.32922E+09 1.05649E+04 8.00073E+07-4.47757E-04-1.46889E-04-4.73996E+05
 -1      1228-9.34520E+09 2.96169E+06 6.91773E+04 5.45273E-03-1.98777E-03 3.13286E+05
 -1      1230-9.34520E+09 2.96169E+06 6.91773E+04 5.45273E-03-1.98777E-03 3.13286E+05
 -1      1239-8.99941E+09 3.14573E+05 7.81631E+07-6.26330E-04 5.09617E-04 3.13381E+05
 -1      1241-8.99941E+09 3.14573E+05 7.81631E+07-6.26330E-04 5.09617E-04 3.13381E+05
 -1      1242-9.01581E+09 2.40704E+06-3.11455E+05 1.43588E-03-1.33401E-03-2.32425E+05
 -1      1244-9.01581E+09 2.40704E+06-3.11455E+05 1.43588E-03-1.33401E-03-2.32425E+05
 -1      1253-8.64531E+09 9.66080E+04 7.59988E+07-6.65982E-04 1.20332E-03 3.36477E+05
 -1      1255-8.64531E+09 9.66080E+04 7.59988E+07-6.65982E-04 1.20332E-03 3.36477E+05
 -1      1256-8.66117E+09 2.57652E+06-2.14794E+04 2.97843E-03-7.42175E-04 2.86585E+05
 -1      1258-8.66117E+09 2.57652E+06-2.14794E+04 2.97843E-03-7.42175E-04 2.86585E+05
 -1      1267-8.26725E+09 2.35297E+05 7.35416E+07-7.38912E-04 1.35711E-03 6.31550E+05
 -1      1269-8.26725E+09 2.35297E+05 7.35416E+07-7.38912E-04 1.35711E-03 6.31550E+05
 -1      1270-8.28292E+09 2.27598E+06-2.28061E+05 6.65458E-04-2.60609E-04 6.60493E+04
 -1      1272-8.28292E+09 2.27598E+06-2.28061E+05 6.65458E-04-2.60609E-04 6.60493E+04
 -1      1281-7.86664E+09 1.35054E+05 7.07677E+07-7.02585E-04 1.03020E-03 6.33419E+05
 -1      1283-7.86664E+09 1.35054E+05 7.07677E+07-7.02585E-04 1.03020E-03 6.33419E+05
 -1      1284-7.88170E+09 2.28565E+06-6.90283E+04-8.07358E-03-3.29965E-04 3.28174E+05
 -1      1286-7.88170E+09 2.28565E+06-6.90283E+04-8.07358E-03-3.29965E-04 3.28174E+05
 -1      1295-7.44432E+09 1.85571E+05 6.77244E+07-6.86114E-04 5.89907E-04 7.81650E+05
 -1      1297-7.44432E+09 1.85571E+05 6.77244E+07-6.86114E-04 5.89907E-04 7.81650E+05
 -1      1298-7.45891E+09 2.07915E+06-1.74199E+05-1.54882E-02-6.56916E-04 2.46895E+05
 -1      1300-7.45891E+09 2.07915E+06-1.74199E+05-1.54882E-02-6.56916E-04 2.46895E+05
 -1      1309-7.00161E+09 1.46346E+05 6.44321E+07-3.64845E-04 1.43235E-04 7.99615E+05
 -1      1311-7.00161E+09 1.46346E+05 6.44321E+07-3.64845E-04 1.43235E-04 7.99615E+05
 -1      1312-7.01551E+09 2.01045E+06-8.94295E+04-1.87251E-02-1.00320E-03 3.82534E+05
 -1      1314-7.01551E+09 2.01045E+06-8.94295E+04-1.87251E-02-1.00320E-03 3.82534E+05
 -1      1323-6.53961E+09 1.50824E+05 6.09175E+07-2.28245E-04-6.40252E-04 8.84498E+05
 -1      1325-6.53961E+09 1.50824E+05 6.09175E+07-2.28245E-04-6.40252E-04 8.84498E+05
 -1      1326-6.55289E+09 1.83967E+06-1.37632E+05-2.03660E-02-1.61199E-03 3.55948E+05
 -1      1328-6.55289E+09 1.83967E+06-1.37632E+05-2.03660E-02-1.61199E-03 3.55948E+05
 -1      1337-6.05966E+09 1.43067E+05 5.72261E+07-4.51575E-04-9.04900E-04 9.03156E+05
 -1      1339-6.05966E+09 1.43067E+05 5.72261E+07-4.51575E-04-9.04900E-04 9.03156E+05
 -1      1340-6.07219E+09 1.72787E+06-9.35110E+04-1.72981E-02-1.79785E-03 4.25050E+05
 -1      1342-6.07219E+09 1.72787E+06-9.35110E+04-1.72981E-02-1.79785E-03 4.25050E+05
 -1      1351-5.56303E+09 1.22741E+05 5.33654E+07-3.78294E-04 2.46702E-04 9.43991E+05
 -1      1353-5.56303E+09 1.22741E+05 5.33654E+07-3.78294E-04 2.46702E-04 9.43991E+05
 -1      1354-5.57483E+09 1.57076E+06-1.10727E+05-1.06766E-02-8.83968E-04 4.13733E+05
 -1      1356-5.57483E+09 1.57076E+06-1.10727E+05-1.06766E-02-8.83968E-04 4.13733E+05
 -1      1365-5.05110E+09 1.32733E+05 4.93962E+07-4.86956E-04 2.00758E-03 9.37549E+05
 -1      1367-5.05110E+09 1.32733E+05 4.93962E+07-4.86956E-04 2.00758E-03 9.37549E+05
 -1      1368-5.06213E+09 1.42946E+06-8.81213E+04-8.54602E-03 7.18636E-04 4.43719E+05
 -1      1370-5.06213E+09 1.42946E+06-8.81213E+04-8.54602E-03 7.18636E-04 4.43719E+05
 -1      1379-4.52527E+09 9.69150E+04 4.53104E+07-5.31506E-04 3.04023E-03 9.14822E+05
 -1      1381-4.52527E+09 9.69150E+04 4.53104E+07-5.31506E-04 3.04023E-03 9.14822E+05
 -1      1382-4.53554E+09 1.27920E+06-8.91491E+04-7.67856E-03 1.62439E-03 4.27778E+05
 -1      1384-4.53554E+09 1.27920E+06-8.91491E+04-7.67856E-03 1.62439E-03 4.27778E+05
 -1      1393-3.98695E+09 1.19874E+05 4.11764E+07-5.67160E-04 3.18015E-03 8.14959E+05
 -1      1395-3.98695E+09 1.19874E+05 4.11764E+07-5.67160E-04 3.18015E-03 8.14959E+05
 -1      1396-3.99650E+09 1.10655E+06-7.73990E+04 2.49854E-04 1.73697E-03 4.31259E+05
 -1      1398-3.99650E+09 1.10655E+06-7.73990E+04 2.49854E-04 1.73697E-03 4.31259E+05
 -1      1407-3.43765E+09 7.13566E+04 3.69796E+07-4.57073E-04 3.47233E-03 6.28644E+05
 -1      1409-3.43765E+09 7.13566E+04 3.69796E+07-4.57073E-04 3.47233E-03 6.28644E+05
 -1      1410-3.44652E+09 9.67293E+05-7.09666E+04 1.07924E-02 2.22148E-03 3.97431E+05
 -1      1412-3.44652E+09 9.67293E+05-7.09666E+04 1.07924E-02 2.22148E-03 3.97431E+05
 -1      1421-2.87879E+09 1.07112E+05 3.27914E+07-4.70664E-04 4.06754E-03 2.47082E+05
 -1      1423-2.87879E+09 1.07112E+05 3.27914E+07-4.70664E-04 4.06754E-03 2.47082E+05
 -1      1424-2.88719E+09 7.45150E+05-6.33911E+04 1.41471E-02 3.01213E-03 3.81989E+05
 -1      1426-2.88719E+09 7.45150E+05-6.33911E+04 1.41471E-02 3.01213E-03 3.81989E+05
 -1      1435-2.31198E+09 4.57513E+04 2.87051E+07-3.82252E-04 4.54962E-03-2.56769E+05
 -1      1437-2.31198E+09 4.57513E+04 2.87051E+07-3.82252E-04 4.54962E-03-2.56769E+05
 -1      1438-2.32004E+09 6.45761E+05-5.67198E+04 1.08669E-02 3.57335E-03 3.12768E+05
 -1      1440-2.32004E+09 6.45761E+05-5.67198E+04 1.08669E-02 3.57335E-03 3.12768E+05
 -1      1449-1.73873E+09 9.51024E+04 2.50068E+07-4.07051E-04 4.95242E-03-8.80230E+05
 -1      1451-1.73873E+09 9.51024E+04 2.50068E+07-4.07051E-04 4.95242E-03-8.80230E+05
 -1      1452-1.74682E+09 4.84548E+05-4.59211E+04 7.26887E-03 3.94535E-03 2.90415E+05
 -1      1454-1.74682E+09 4.84548E+05-4.59211E+04 7.26887E-03 3.94535E-03 2.90415E+05
 -1      1463-1.16054E+09 2.03249E+04 2.17002E+07-2.77553E-04 5.52855E-03-2.77410E+05
 -1      1465-1.16054E+09 2.03249E+04 2.17002E+07-2.77553E-04 5.52855E-03-2.77410E+05
 -1      1466-1.16882E+09 3.35138E+05-4.99108E+04 5.90197E-03 4.48034E-03 1.47467E+05
 -1      1468-1.16882E+09 3.35138E+05-4.99108E+04 5.90197E-03 4.48034E-03 1.47467E+05
 -1      1477-5.78832E+08 5.59907E+04 3.04682E+07-4.93800E-05 5.99826E-03 5.70799E+06
 -1      1479-5.78832E+08 5.59907E+04 3.04682E+07-4.93800E-05 5.99826E-03 5.70799E+06
 -1      1480-5.86968E+08 1.28158E+06-2.03515E+04 4.25369E-03 4.78820E-03 6.94893E+04
 -1      1482-5.86968E+08 1.28158E+06-2.03515E+04 4.25369E-03 4.78820E-03 6.94893E+04
 -1      1491-2.88121E+08 4.05437E+05 3.83555E+07-5.06922E-04-3.26578E-03-6.87798E+06
 -1      1493-2.88121E+08 4.05437E+05 3.83555E+07-5.06922E-04-3.26578E-03-6.87798E+06
 -1      1494-2.89028E+08 2.71789E+05 3.58034E+07-4.70287E-04-9.12570E-04-2.33926E-03
 -1      1496-2.89028E+08 2.71789E+05 3.58034E+07-4.70287E-04-9.12570E-04-2.33926E-03
 -1      1497-2.88121E+08 4.05437E+05 3.83555E+07-3.05720E-04 2.51012E-03 6.87798E+06
 -1      1499-2.88121E+08 4.05437E+05 3.83555E+07-3.05720E-04 2.51012E-03 6.87798E+06
 -1      1500-1.10622E+10-3.16038E+08 3.84932E+06-1.79226E+08-7.83335E+06 2.22344E+07
 -1      1502-1.10622E+10-3.16038E+08 3.84932E+06-1.79226E+08-7.83335E+06 2.22344E+07
 -1      1503-1.09019E+10 1.37384E+08-1.19927E+06 1.21647E+08 3.57043E+05-9.24537E+06
 -1      1505-1.09019E+10 1.37384E+08-1.19927E+06 1.21647E+08 3.57043E+05-9.24537E+06
 -1      1506-1.09503E+10-4.56596E+07-2.53622E+05-3.70033E+07-1.41668E+06 3.75201E+06
 -1      1508-1.09503E+10-4.56596E+07-2.53622E+05-3.70033E+07-1.41668E+06 3.75201E+06
 -1      1509-1.08273E+10 1.74704E+07 7.98501E+05 1.40147E+07-2.16784E+06 1.23743E+06
 -1      1511-1.08273E+10 1.74704E+07 7.98501E+05 1.40147E+07-2.16784E+06 1.23743E+06
 -1      1512-1.07217E+10-6.24740E+06-8.22971E+05 3.88227E+06-2.64998E+06-1.86177E+04
 -1      1514-1.07217E+10-6.24740E+06-8.22971E+05 3.88227E+06-2.64998E+06-1.86177E+04
 -1      1515-1.05751E+10 6.48193E+06 8.33503E+05 3.03200E+06-3.85326E+06 1.83126E+06
 -1      1517-1.05751E+10 6.48193E+06 8.33503E+05 3.03200E+06-3.85326E+06 1.83126E+06
 -1      1518-1.03896E+10-1.69614E+06-6.76987E+05 1.04840E+06-4.10794E+06-2.72816E+05
 -1      1520-1.03896E+10-1.69614E+06-6.76987E+05 1.04840E+06-4.10794E+06-2.72816E+05
 -1      1521-1.01720E+10 3.19701E+06 6.56836E+05 9.09844E+05-4.88722E+06 1.09813E+06
 -1      1523-1.01720E+10 3.19701E+06 6.56836E+05 9.09844E+05-4.88722E+06 1.09813E+06
 -1      1524-9.92416E+09-5.85510E+02-4.92203E+05 1.38492E+05-5.05154E+06-1.79116E+05
 -1      1526-9.92416E+09-5.85510E+02-4.92203E+05 1.38492E+05-5.05154E+06-1.79116E+05
 -1      1527-9.64756E+09 1.89317E+06 4.88813E+05 1.92966E+05-5.48478E+06 5.01114E+05
 -1      1529-9.64756E+09 1.89317E+06 4.88813E+05 1.92966E+05-5.48478E+06 5.01114E+05
 -1      1530-9.34410E+09 5.97194E+05-3.42677E+05-3.25506E+04-5.55459E+06-1.69912E+05
 -1      1532-9.34410E+09 5.97194E+05-3.42677E+05-3.25506E+04-5.55459E+06-1.69912E+05
 -1      1533-9.01451E+09 1.37218E+06 3.58754E+05 2.78280E+03-5.75587E+06 1.18602E+05
 -1      1535-9.01451E+09 1.37218E+06 3.58754E+05 2.78280E+03-5.75587E+06 1.18602E+05
 -1      1536-8.66015E+09 7.76317E+05-2.33977E+05-6.93263E+04-5.73325E+06-2.27517E+05
 -1      1538-8.66015E+09 7.76317E+05-2.33977E+05-6.93263E+04-5.73325E+06-2.27517E+05
 -1      1539-8.28181E+09 1.11527E+06 2.63954E+05-5.52807E+04-5.77728E+06-1.23035E+05
 -1      1541-8.28181E+09 1.11527E+06 2.63954E+05-5.52807E+04-5.77728E+06-1.23035E+05
 -1      1542-7.88075E+09 7.94029E+05-1.57923E+05-8.46365E+04-5.67669E+06-3.05479E+05
 -1      1544-7.88075E+09 7.94029E+05-1.57923E+05-8.46365E+04-5.67669E+06-3.05479E+05
 -1      1545-7.45794E+09 9.46616E+05 1.95595E+05-8.10283E+04-5.61289E+06-2.78034E+05
 -1      1547-7.45794E+09 9.46616E+05 1.95595E+05-8.10283E+04-5.61289E+06-2.78034E+05
 -1      1548-7.01466E+09 7.43759E+05-1.05356E+05-9.64967E+04-5.45411E+06-3.76452E+05
 -1      1550-7.01466E+09 7.43759E+05-1.05356E+05-9.64967E+04-5.45411E+06-3.76452E+05
 -1      1551-6.55205E+09 8.05818E+05 1.45761E+05-9.59924E+04-5.31929E+06-3.75231E+05
 -1      1553-6.55205E+09 8.05818E+05 1.45761E+05-9.59924E+04-5.31929E+06-3.75231E+05
 -1      1554-6.07144E+09 6.61843E+05-6.90631E+04-1.05651E+05-5.12394E+06-4.26910E+05
 -1      1556-6.07144E+09 6.61843E+05-6.90631E+04-1.05651E+05-5.12394E+06-4.26910E+05
 -1      1557-5.57413E+09 6.70290E+05 1.08637E+05-1.03991E+05-4.94914E+06-4.27934E+05
 -1      1559-5.57413E+09 6.70290E+05 1.08637E+05-1.03991E+05-4.94914E+06-4.27934E+05
 -1      1560-5.06151E+09 5.64970E+05-4.39026E+04-1.09860E+05-4.74034E+06-4.49544E+05
 -1      1562-5.06151E+09 5.64970E+05-4.39026E+04-1.09860E+05-4.74034E+06-4.49544E+05
 -1      1563-4.53498E+09 5.27986E+05 8.02971E+04-1.01685E+05-4.55456E+06-4.40753E+05
 -1      1565-4.53498E+09 5.27986E+05 8.02971E+04-1.01685E+05-4.55456E+06-4.40753E+05
 -1      1566-3.99603E+09 4.65774E+05-2.64323E+04-1.01828E+05-4.35820E+06-4.38397E+05
 -1      1568-3.99603E+09 4.65774E+05-2.64323E+04-1.01828E+05-4.35820E+06-4.38397E+05
 -1      1569-3.44614E+09 3.63633E+05 5.84419E+04-7.42435E+04-4.19094E+06-4.13931E+05
 -1      1571-3.44614E+09 3.63633E+05 5.84419E+04-7.42435E+04-4.19094E+06-4.13931E+05
 -1      1572-2.88690E+09 3.85608E+05-1.48085E+04-6.25396E+04-4.03746E+06-3.84410E+05
 -1      1574-2.88690E+09 3.85608E+05-1.48085E+04-6.25396E+04-4.03746E+06-3.84410E+05
 -1      1575-2.31989E+09 1.45160E+05 4.26812E+04 7.12628E+03-3.92054E+06-3.51056E+05
 -1      1577-2.31989E+09 1.45160E+05 4.26812E+04 7.12628E+03-3.92054E+06-3.51056E+05
 -1      1578-1.74656E+09 4.10669E+05-9.73634E+03-4.32630E+04-3.84322E+06-2.65030E+05
 -1      1580-1.74656E+09 4.10669E+05-9.73634E+03-4.32630E+04-3.84322E+06-2.65030E+05
 -1      1581-1.16850E+09-2.01113E+05 3.62077E+04-4.39108E+03-3.80942E+06-2.84211E+05
 -1      1583-1.16850E+09-2.01113E+05 3.62077E+04-4.39108E+03-3.80942E+06-2.84211E+05
 -1      1584-5.86003E+08 7.70566E+05-1.87802E+04-4.41642E+05-3.80608E+06-8.98709E+04
 -1      1586-5.86003E+08 7.70566E+05-1.87802E+04-4.41642E+05-3.80608E+06-8.98709E+04
 -1      1587-2.94381E+08 2.74895E+06 3.56304E+05-1.97769E+06-4.69445E+06 1.89319E+05
 -1      1589-2.94381E+08 2.74895E+06 3.56304E+05-1.97769E+06-4.69445E+06 1.89319E+05
 -1      1590-1.12748E+10-1.29036E+09-2.11931E+06-5.63183E+08 2.20475E+07 1.00577E+08
 -1      1592-1.12748E+10-1.29036E+09-2.11931E+06-5.63183E+08 2.20475E+07 1.00577E+08
 -1      1593-2.94381E+08 2.74895E+06 3.56304E+05 1.97769E+06 4.69445E+06 1.89319E+05
 -1      1595-2.94381E+08 2.74895E+06 3.56304E+05 1.97769E+06 4.69445E+06 1.89319E+05
 -1      1596-1.10622E+10-3.16038E+08 3.84932E+06 1.79226E+08 7.83335E+06 2.22344E+07
 -1      1598-1.10622E+10-3.16038E+08 3.84932E+06 1.79226E+08 7.83335E+06 2.22344E+07
 -1      1599-1.09019E+10 1.37384E+08-1.19927E+06-1.21647E+08-3.57043E+05-9.24537E+06
 -1      1601-1.09019E+10 1.37384E+08-1.19927E+06-1.21647E+08-3.57043E+05-9.24537E+06
 -1      1602-1.09503E+10-4.56596E+07-2.53622E+05 3.70033E+07 1.41668E+06 3.75201E+06
 -1      1604-1.09503E+10-4.56596E+07-2.53622E+05 3.70033E+07 1.41668E+06 3.75201E+06
 -1      1605-1.08273E+10 1.74704E+07 7.98501E+05-1.40147E+07 2.16784E+06 1.23743E+06
 -1      1607-1.08273E+10 1.74704E+07 7.98501E+05-1.40147E+07 2.16784E+06 1.23743E+06
 -1      1608-1.07217E+10-6.24740E+06-8.22971E+05-3.88227E+06 2.64998E+06-1.86177E+04
 -1      1610-1.07217E+10-6.24740E+06-8.22971E+05-3.88227E+06 2.64998E+06-1.86177E+04
 -1      1611-1.05751E+10 6.48193E+06 8.33503E+05-3.03200E+06 3.85326E+06 1.83126E+06
 -1      1613-1.05751E+10 6.48193E+06 8.33503E+05-3.03200E+06 3.85326E+06 1.83126E+06
 -1      1614-1.03896E+10-1.69614E+06-6.76987E+05-1.04840E+06 4.10794E+06-2.72816E+05
 -1      1616-1.03896E+10-1.69614E+06-6.76987E+05-1.04840E+06 4.10794E+06-2.72816E+05
 -1      1617-1.01720E+10 3.19701E+06 6.56836E+05-9.09844E+05 4.88722E+06 1.09813E+06
 -1      1619-1.01720E+10 3.19701E+06 6.56836E+05-9.09844E+05 4.88722E+06 1.09813E+06
 -1      1620-9.92416E+09-5.85507E+02-4.92203E+05-1.38492E+05 5.05154E+06-1.79116E+05
 -1      1622-9.92416E+09-5.85507E+02-4.92203E+05-1.38492E+05 5.05154E+06-1.79116E+05
 -1      1623-9.64756E+09 1.89317E+06 4.88813E+05-1.92966E+05 5.48478E+06 5.01114E+05
 -1      1625-9.64756E+09 1.89317E+06 4.88813E+05-1.92966E+05 5.48478E+06 5.01114E+05
 -1      1626-9.34410E+09 5.97194E+05-3.42677E+05 3.25506E+04 5.55459E+06-1.69912E+05
 -1      1628-9.34410E+09 5.97194E+05-3.42677E+05 3.25506E+04 5.55459E+06-1.69912E+05
 -1      1629-9.01451E+09 1.37218E+06 3.58754E+05-2.78280E+03 5.75587E+06 1.18602E+05
 -1      1631-9.01451E+09 1.37218E+06 3.58754E+05-2.78280E+03 5.75587E+06 1.18602E+05
 -1      1632-8.66015E+09 7.76317E+05-2.33977E+05 6.93263E+04 5.73325E+06-2.27517E+05
 -1      1634-8.66015E+09 7.76317E+05-2.33977E+05 6.93263E+04 5.73325E+06-2.27517E+05
 -1      1635-8.28181E+09 1.11527E+06 2.63954E+05 5.52807E+04 5.77728E+06-1.23035E+05
 -1      1637-8.28181E+09 1.11527E+06 2.63954E+05 5.52807E+04 5.77728E+06-1.23035E+05
 -1      1638-7.88075E+09 7.94029E+05-1.57923E+05 8.46364E+04 5.67669E+06-3.05479E+05
 -1      1640-7.88075E+09 7.94029E+05-1.57923E+05 8.46364E+04 5.67669E+06-3.05479E+05
 -1      1641-7.45794E+09 9.46616E+05 1.95595E+05 8.10282E+04 5.61289E+06-2.78034E+05
 -1      1643-7.45794E+09 9.46616E+05 1.95595E+05 8.10282E+04 5.61289E+06-2.78034E+05
 -1      1644-7.01466E+09 7.43759E+05-1.05356E+05 9.64967E+04 5.45411E+06-3.76452E+05
 -1      1646-7.01466E+09 7.43759E+05-1.05356E+05 9.64967E+04 5.45411E+06-3.76452E+05
 -1      1647-6.55205E+09 8.05818E+05 1.45761E+05 9.59924E+04 5.31929E+06-3.75231E+05
 -1      1649-6.55205E+09 8.05818E+05 1.45761E+05 9.59924E+04 5.31929E+06-3.75231E+05
 -1      1650-6.07144E+09 6.61843E+05-6.90631E+04 1.05651E+05 5.12394E+06-4.26910E+05
 -1      1652-6.07144E+09 6.61843E+05-6.90631E+04 1.05651E+05 5.12394E+06-4.26910E+05
 -1      1653-5.57413E+09 6.70290E+05 1.08637E+05 1.03991E+05 4.94914E+06-4.27934E+05
 -1      1655-5.57413E+09 6.70290E+05 1.08637E+05 1.03991E+05 4.94914E+06-4.27934E+05
 -1      1656-5.06151E+09 5.64970E+05-4.39026E+04 1.09860E+05 4.74034E+06-4.49544E+05
 -1      1658-5.06151E+09 5.64970E+05-4.39026E+04 1.09860E+05 4.74034E+06-4.49544E+05
 -1      1659-4.53498E+09 5.27986E+05 8.02971E+04 1.01685E+05 4.55456E+06-4.40753E+05
 -1      1661-4.53498E+09 5.27986E+05 8.02971E+04 1.01685E+05 4.55456E+06-4.40753E+05
 -1      1662-3.99603E+09 4.65774E+05-2.64323E+04 1.01828E+05 4.35820E+06-4.38397E+05
 -1      1664-3.99603E+09 4.65774E+05-2.64323E+04 1.01828E+05 4.35820E+06-4.38397E+05
 -1      1665-3.44614E+09 3.63633E+05 5.84419E+04 7.42436E+04 4.19094E+06-4.13931E+05
 -1      1667-3.44614E+09 3.63633E+05 5.84419E+04 7.42436E+04 4.19094E+06-4.13931E+05
 -1      1668-2.88690E+09 3.85608E+05-1.48085E+04 6.25396E+04 4.03746E+06-3.84410E+05
 -1      1670-2.88690E+09 3.85608E+05-1.48085E+04 6.25396E+04 4.03746E+06-3.84410E+05
 -1      1671-2.31989E+09 1.45160E+05 4.26812E+04-7.12627E+03 3.92054E+06-3.51056E+05
 -1      1673-2.31989E+09 1.45160E+05 4.26812E+04-7.12627E+03 3.92054E+06-3.51056E+05
 -1      1674-1.74656E+09 4.10669E+05-9.73634E+03 4.32630E+04 3.84322E+06-2.65030E+05
 -1      1676-1.74656E+09 4.10669E+05-9.73634E+03 4.32630E+04 3.84322E+06-2.65030E+05
 -1      1677-1.16850E+09-2.01113E+05 3.62077E+04 4.39108E+03 3.80942E+06-2.84211E+05
 -1      1679-1.16850E+09-2.01113E+05 3.62077E+04 4.39108E+03 3.80942E+06-2.84211E+05
 -1      1680-5.86003E+08 7.70566E+05-1.87802E+04 4.41642E+05 3.80608E+06-8.98709E+04
 -1      1682-5.86003E+08 7.70566E+05-1.87802E+04 4.41642E+05 3.80608E+06-8.98709E+04
 -1      1683-1.12748E+10-1.29036E+09-2.11931E+06 5.63183E+08-2.20475E+07 1.00577E+08
 -1      1685-1.12748E+10-1.29036E+09-2.11931E+06 5.63183E+08-2.20475E+07 1.00577E+08
 -1      1686-1.11363E+10-4.62355E+08 1.08206E+06 1.97357E+08 9.11839E+06-2.10555E+07
 -1      1688-1.11363E+10-4.62355E+08 1.08206E+06 1.97357E+08 9.11839E+06-2.10555E+07
 -1      1689-1.09606E+10 1.55646E+08 3.47105E+05-8.30155E+07-7.61804E+06 1.52086E+07
 -1      1691-1.09606E+10 1.55646E+08 3.47105E+05-8.30155E+07-7.61804E+06 1.52086E+07
 -1      1692-1.09094E+10-2.78734E+07-3.48448E+05 5.50623E+06-7.02889E+06-6.46649E+06
 -1      1694-1.09094E+10-2.78734E+07-3.48448E+05 5.50623E+06-7.02889E+06-6.46649E+06
 -1      1695-1.08395E+10 1.26140E+06 8.66294E+04-8.88038E+06-8.26455E+06 3.59571E+06
 -1      1697-1.08395E+10 1.26140E+06 8.66294E+04-8.88038E+06-8.26455E+06 3.59571E+06
 -1      1698-1.07242E+10 5.57751E+06-1.10540E+05-1.34142E+07-1.04843E+07-1.68740E+06
 -1      1700-1.07242E+10 5.57751E+06-1.10540E+05-1.34142E+07-1.04843E+07-1.68740E+06
 -1      1701-1.05778E+10 3.18692E+06-8.52080E+03-3.33403E+06-1.00939E+07 9.27030E+05
 -1      1703-1.05778E+10 3.18692E+06-8.52080E+03-3.33403E+06-1.00939E+07 9.27030E+05
 -1      1704-1.03910E+10 2.18893E+06-1.16553E+05-3.29130E+06-1.16023E+07-5.04472E+05
 -1      1706-1.03910E+10 2.18893E+06-1.16553E+05-3.29130E+06-1.16023E+07-5.04472E+05
 -1      1707-1.01734E+10 2.75412E+06 1.22580E+04-9.57320E+05-1.13600E+07 3.04969E+05
 -1      1709-1.01734E+10 2.75412E+06 1.22580E+04-9.57320E+05-1.13600E+07 3.04969E+05
 -1      1710-9.92484E+09 1.85679E+06-1.35005E+05-6.78834E+05-1.20734E+07-1.79723E+05
 -1      1712-9.92484E+09 1.85679E+06-1.35005E+05-6.78834E+05-1.20734E+07-1.79723E+05
 -1      1713-9.64840E+09 2.16722E+06 2.37396E+04-1.07094E+05-1.19290E+07 1.23632E+05
 -1      1715-9.64840E+09 2.16722E+06 2.37396E+04-1.07094E+05-1.19290E+07 1.23632E+05
 -1      1716-9.34465E+09 1.77944E+06-1.36750E+05-7.57340E+04-1.21360E+07-7.16870E+04
 -1      1718-9.34465E+09 1.77944E+06-1.36750E+05-7.57340E+04-1.21360E+07-7.16870E+04
 -1      1719-9.01516E+09 1.88961E+06 2.36493E+04 9.07088E+04-1.19540E+07 5.69115E+04
 -1      1721-9.01516E+09 1.88961E+06 2.36493E+04 9.07088E+04-1.19540E+07 5.69115E+04
 -1      1722-8.66066E+09 1.67642E+06-1.27728E+05 8.61835E+04-1.18543E+07-2.95342E+04
 -1      1724-8.66066E+09 1.67642E+06-1.27728E+05 8.61835E+04-1.18543E+07-2.95342E+04
 -1      1725-8.28237E+09 1.69562E+06 1.79461E+04 1.48101E+05-1.15787E+07 2.84929E+04
 -1      1727-8.28237E+09 1.69562E+06 1.79461E+04 1.48101E+05-1.15787E+07 2.84929E+04
 -1      1728-7.88122E+09 1.53984E+06-1.13476E+05 1.48611E+05-1.12861E+07-1.13470E+04
 -1      1730-7.88122E+09 1.53984E+06-1.13476E+05 1.48611E+05-1.12861E+07-1.13470E+04
 -1      1731-7.45842E+09 1.51288E+06 1.06982E+04 1.79529E+05-1.09113E+07 1.55696E+04
 -1      1733-7.45842E+09 1.51288E+06 1.06982E+04 1.79529E+05-1.09113E+07 1.55696E+04
 -1      1734-7.01509E+09 1.37710E+06-9.73928E+04 1.84151E+05-1.04928E+07-3.04108E+03
 -1      1736-7.01509E+09 1.37710E+06-9.73928E+04 1.84151E+05-1.04928E+07-3.04108E+03
 -1      1737-6.55247E+09 1.32275E+06 4.06425E+03 2.02515E+05-1.00358E+07 9.64153E+03
 -1      1739-6.55247E+09 1.32275E+06 4.06425E+03 2.02515E+05-1.00358E+07 9.64153E+03
 -1      1740-6.07182E+09 1.19485E+06-8.12871E+04 2.06645E+05-9.53696E+06 9.30039E+02
 -1      1742-6.07182E+09 1.19485E+06-8.12871E+04 2.06645E+05-9.53696E+06 9.30039E+02
 -1      1743-5.57448E+09 1.12052E+06-1.04516E+03 2.17076E+05-9.02484E+06 7.10057E+03
 -1      1745-5.57448E+09 1.12052E+06-1.04516E+03 2.17076E+05-9.02484E+06 7.10057E+03
 -1      1746-5.06182E+09 9.97214E+05-6.60120E+04 2.15371E+05-8.48233E+06 2.91264E+03
 -1      1748-5.06182E+09 9.97214E+05-6.60120E+04 2.15371E+05-8.48233E+06 2.91264E+03
 -1      1749-4.53526E+09 9.03592E+05-4.42600E+03 2.15767E+05-7.94732E+06 6.48761E+03
 -1      1751-4.53526E+09 9.03592E+05-4.42600E+03 2.15767E+05-7.94732E+06 6.48761E+03
 -1      1752-3.99626E+09 7.86164E+05-5.19157E+04 1.95632E+05-7.39578E+06 3.56895E+03
 -1      1754-3.99626E+09 7.86164E+05-5.19157E+04 1.95632E+05-7.39578E+06 3.56895E+03
 -1      1755-3.44633E+09 6.65463E+05-6.26238E+03 1.72382E+05-6.87512E+06 8.24995E+03
 -1      1757-3.44633E+09 6.65463E+05-6.26238E+03 1.72382E+05-6.87512E+06 8.24995E+03
 -1      1758-2.88704E+09 5.65379E+05-3.90998E+04 1.04670E+05-6.35174E+06 1.21048E+03
 -1      1760-2.88704E+09 5.65379E+05-3.90998E+04 1.04670E+05-6.35174E+06 1.21048E+03
 -1      1761-2.31996E+09 3.95461E+05-7.01932E+03 3.36060E+04-5.88766E+06 1.91437E+04
 -1      1763-2.31996E+09 3.95461E+05-7.01932E+03 3.36060E+04-5.88766E+06 1.91437E+04
 -1      1764-1.74669E+09 4.47609E+05-2.78287E+04 5.70104E+03-5.44394E+06-1.26923E+04
 -1      1766-1.74669E+09 4.47609E+05-2.78287E+04 5.70104E+03-5.44394E+06-1.26923E+04
 -1      1767-1.16866E+09 6.70124E+04-6.85158E+03 3.67040E+03-5.07792E+06 6.83720E+04
 -1      1769-1.16866E+09 6.70124E+04-6.85158E+03 3.67040E+03-5.07792E+06 6.83720E+04
 -1      1770-5.86486E+08 1.02607E+06-1.95658E+04 9.99081E+05-4.83135E+06 1.01908E+04
 -1      1772-5.86486E+08 1.02607E+06-1.95658E+04 9.99081E+05-4.83135E+06 1.01908E+04
 -1      1773-1.11363E+10-4.62355E+08 1.08206E+06-1.97357E+08-9.11839E+06-2.10555E+07
 -1      1775-1.11363E+10-4.62355E+08 1.08206E+06-1.97357E+08-9.11839E+06-2.10555E+07
 -1      1776-1.09606E+10 1.55646E+08 3.47105E+05 8.30155E+07 7.61804E+06 1.52086E+07
 -1      1778-1.09606E+10 1.55646E+08 3.47105E+05 8.30155E+07 7.61804E+06 1.52086E+07
 -1      1779-1.09094E+10-2.78734E+07-3.48448E+05-5.50623E+06 7.02889E+06-6.46649E+06
 -1      1781-1.09094E+10-2.78734E+07-3.48448E+05-5.50623E+06 7.02889E+06-6.46649E+06
 -1      1782-1.08395E+10 1.26140E+06 8.66294E+04 8.88038E+06 8.26455E+06 3.59571E+06
 -1      1784-1.08395E+10 1.26140E+06 8.66294E+04 8.88038E+06 8.26455E+06 3.59571E+06
 -1      1785-1.07242E+10 5.57751E+06-1.10540E+05 1.34142E+07 1.04843E+07-1.68740E+06
 -1      1787-1.07242E+10 5.57751E+06-1.10540E+05 1.34142E+07 1.04843E+07-1.68740E+06
 -1      1788-1.05778E+10 3.18692E+06-8.52080E+03 3.33403E+06 1.00939E+07 9.27030E+05
 -1      1790-1.05778E+10 3.18692E+06-8.52080E+03 3.33403E+06 1.00939E+07 9.27030E+05
 -1      1791-1.03910E+10 2.18893E+06-1.16553E+05 3.29130E+06 1.16023E+07-5.04472E+05
 -1      1793-1.03910E+10 2.18893E+06-1.16553E+05 3.29130E+06 1.16023E+07-5.04472E+05
 -1      1794-1.01734E+10 2.75412E+06 1.22580E+04 9.57320E+05 1.13600E+07 3.04969E+05
 -1      1796-1.01734E+10 2.75412E+06 1.22580E+04 9.57320E+05 1.13600E+07 3.04969E+05
 -1      1797-9.92484E+09 1.85679E+06-1.35005E+05 6.78834E+05 1.20734E+07-1.79723E+05
 -1      1799-9.92484E+09 1.85679E+06-1.35005E+05 6.78834E+05 1.20734E+07-1.79723E+05
 -1      1800-9.64840E+09 2.16722E+06 2.37396E+04 1.07094E+05 1.19290E+07 1.23632E+05
 -1      1802-9.64840E+09 2.16722E+06 2.37396E+04 1.07094E+05 1.19290E+07 1.23632E+05
 -1      1803-9.34465E+09 1.77944E+06-1.36750E+05 7.57340E+04 1.21360E+07-7.16870E+04
 -1      1805-9.34465E+09 1.77944E+06-1.36750E+05 7.57340E+04 1.21360E+07-7.16870E+04
 -1      1806-9.01516E+09 1.88961E+06 2.36493E+04-9.07087E+04 1.19540E+07 5.69115E+04
 -1      1808-9.01516E+09 1.88961E+06 2.36493E+04-9.07087E+04 1.19540E+07 5.69115E+04
 -1      1809-8.66066E+09 1.67642E+06-1.27728E+05-8.61835E+04 1.18543E+07-2.95342E+04
 -1      1811-8.66066E+09 1.67642E+06-1.27728E+05-8.61835E+04 1.18543E+07-2.95342E+04
 -1      1812-8.28237E+09 1.69562E+06 1.79461E+04-1.48101E+05 1.15787E+07 2.84929E+04
 -1      1814-8.28237E+09 1.69562E+06 1.79461E+04-1.48101E+05 1.15787E+07 2.84929E+04
 -1      1815-7.88122E+09 1.53984E+06-1.13476E+05-1.48611E+05 1.12861E+07-1.13470E+04
 -1      1817-7.88122E+09 1.53984E+06-1.13476E+05-1.48611E+05 1.12861E+07-1.13470E+04
 -1      1818-7.45842E+09 1.51288E+06 1.06982E+04-1.79529E+05 1.09113E+07 1.55696E+04
 -1      1820-7.45842E+09 1.51288E+06 1.06982E+04-1.79529E+05 1.09113E+07 1.55696E+04
 -1      1821-7.01509E+09 1.37710E+06-9.73928E+04-1.84151E+05 1.04928E+07-3.04108E+03
 -1      1823-7.01509E+09 1.37710E+06-9.73928E+04-1.84151E+05 1.04928E+07-3.04108E+03
 -1      1824-6.55247E+09 1.32275E+06 4.06425E+03-2.02515E+05 1.00358E+07 9.64153E+03
 -1      1826-6.55247E+09 1.32275E+06 4.06425E+03-2.02515E+05 1.00358E+07 9.64153E+03
 -1      1827-6.07182E+09 1.19485E+06-8.12871E+04-2.06645E+05 9.53696E+06 9.30038E+02
 -1      1829-6.07182E+09 1.19485E+06-8.12871E+04-2.06645E+05 9.53696E+06 9.30038E+02
 -1      1830-5.57448E+09 1.12052E+06-1.04516E+03-2.17076E+05 9.02484E+06 7.10057E+03
 -1      1832-5.57448E+09 1.12052E+06-1.04516E+03-2.17076E+05 9.02484E+06 7.10057E+03
 -1      1833-5.06182E+09 9.97214E+05-6.60120E+04-2.15371E+05 8.48233E+06 2.91264E+03
 -1      1835-5.06182E+09 9.97214E+05-6.60120E+04-2.15371E+05 8.48233E+06 2.91264E+03
 -1      1836-4.53526E+09 9.03592E+05-4.42600E+03-2.15767E+05 7.94732E+06 6.48761E+03
 -1      1838-4.53526E+09 9.03592E+05-4.42600E+03-2.15767E+05 7.94732E+06 6.48761E+03
 -1      1839-3.99626E+09 7.86164E+05-5.19157E+04-1.95632E+05 7.39578E+06 3.56895E+03
 -1      1841-3.99626E+09 7.86164E+05-5.19157E+04-1.95632E+05 7.39578E+06 3.56895E+03
 -1      1842-3.44633E+09 6.65463E+05-6.26238E+03-1.72382E+05 6.87512E+06 8.24995E+03
 -1      1844-3.44633E+09 6.65463E+05-6.26238E+03-1.72382E+05 6.87512E+06 8.24995E+03
 -1      1845-2.88704E+09 5.65379E+05-3.90998E+04-1.04670E+05 6.35174E+06 1.21048E+03
 -1      1847-2.88704E+09 5.65379E+05-3.90998E+04-1.04670E+05 6.35174E+06 1.21048E+03
 -1      1848-2.31996E+09 3.95461E+05-7.01932E+03-3.36059E+04 5.88766E+06 1.91437E+04
 -1      1850-2.31996E+09 3.95461E+05-7.01932E+03-3.36059E+04 5.88766E+06 1.91437E+04
 -1      1851-1.74669E+09 4.47609E+05-2.78287E+04-5.70102E+03 5.44394E+06-1.26923E+04
 -1      1853-1.74669E+09 4.47609E+05-2.78287E+04-5.70102E+03 5.44394E+06-1.26923E+04
 -1      1854-1.16866E+09 6.70124E+04-6.85158E+03-3.67038E+03 5.07792E+06 6.83720E+04
 -1      1856-1.16866E+09 6.70124E+04-6.85158E+03-3.67038E+03 5.07792E+06 6.83720E+04
 -1      1857-5.86486E+08 1.02607E+06-1.95658E+04-9.99081E+05 4.83135E+06 1.01908E+04
 -1      1859-5.86486E+08 1.02607E+06-1.95658E+04-9.99081E+05 4.83135E+06 1.01908E+04
 -1      1860-1.10755E+10 6.87061E+05-1.28851E+09-2.17936E-03 5.24896E-05-5.08849E+08
 -1      1862-1.10755E+10 6.87061E+05-1.28851E+09-2.17936E-03 5.24896E-05-5.08849E+08
 -1      1863-1.12160E+10-1.85504E+05-2.48606E+08 9.80182E-04 1.39038E-04-6.91718E+07
 -1      1865-1.12160E+10-1.85504E+05-2.48606E+08 9.80182E-04 1.39038E-04-6.91718E+07
 -1      1866-1.11078E+10 1.70784E+04 4.49089E+07-7.11388E-04 3.40222E-04 8.30768E+07
 -1      1868-1.11078E+10 1.70784E+04 4.49089E+07-7.11388E-04 3.40222E-04 8.30768E+07
 -1      1869-1.09531E+10 3.22031E+05 1.06355E+08 1.08461E-04 3.55658E-04 6.32042E+07
 -1      1871-1.09531E+10 3.22031E+05 1.06355E+08 1.08461E-04 3.55658E-04 6.32042E+07
 -1      1872-1.07904E+10-2.47334E+05 1.13494E+08-2.44390E-04 4.31613E-04 4.48725E+07
 -1      1874-1.07904E+10-2.47334E+05 1.13494E+08-2.44390E-04 4.31613E-04 4.48725E+07
 -1      1875-1.06002E+10 3.22662E+05 1.03606E+08 1.64274E-04 5.28471E-04 2.17528E+07
 -1      1877-1.06002E+10 3.22662E+05 1.03606E+08 1.64274E-04 5.28471E-04 2.17528E+07
 -1      1878-1.03968E+10-1.57047E+05 9.68702E+07-3.34518E-05 5.62489E-04 1.22112E+07
 -1      1880-1.03968E+10-1.57047E+05 9.68702E+07-3.34518E-05 5.62489E-04 1.22112E+07
 -1      1881-1.01680E+10 2.27001E+05 9.15153E+07 1.99205E-04 4.48030E-04 4.92807E+06
 -1      1883-1.01680E+10 2.27001E+05 9.15153E+07 1.99205E-04 4.48030E-04 4.92807E+06
 -1      1884-9.91557E+09-6.79238E+04 8.85586E+07 1.52970E-04 2.68701E-04 2.58717E+06
 -1      1886-9.91557E+09-6.79238E+04 8.85586E+07 1.52970E-04 2.68701E-04 2.58717E+06
 -1      1887-9.63665E+09 1.55908E+05 8.62105E+07 1.08843E-04 1.72695E-04 7.21311E+05
 -1      1889-9.63665E+09 1.55908E+05 8.62105E+07 1.08843E-04 1.72695E-04 7.21311E+05
 -1      1890-9.33232E+09-1.19880E+04 8.42261E+07 1.20653E-04 3.31374E-04 3.21941E+05
 -1      1892-9.33232E+09-1.19880E+04 8.42261E+07 1.20653E-04 3.31374E-04 3.21941E+05
 -1      1893-9.00241E+09 1.10416E+05 8.20964E+07 7.95865E-05 6.40174E-04-1.85548E+05
 -1      1895-9.00241E+09 1.10416E+05 8.20964E+07 7.95865E-05 6.40174E-04-1.85548E+05
 -1      1896-8.64806E+09 1.92900E+04 7.97482E+07 6.61220E-05 7.31799E-04-2.33733E+05
 -1      1898-8.64806E+09 1.92900E+04 7.97482E+07 6.61220E-05 7.31799E-04-2.33733E+05
 -1      1899-8.26990E+09 8.18704E+04 7.70952E+07 2.67845E-04 7.12613E-04-4.17644E+05
 -1      1901-8.26990E+09 8.18704E+04 7.70952E+07 2.67845E-04 7.12613E-04-4.17644E+05
 -1      1902-7.86912E+09 3.50497E+04 7.41477E+07 1.52226E-04 4.84178E-04-4.31689E+05
 -1      1904-7.86912E+09 3.50497E+04 7.41477E+07 1.52226E-04 4.84178E-04-4.31689E+05
 -1      1905-7.44667E+09 6.31432E+04 7.09166E+07 1.88507E-04-3.08835E-05-5.23926E+05
 -1      1907-7.44667E+09 6.31432E+04 7.09166E+07 1.88507E-04-3.08835E-05-5.23926E+05
 -1      1908-7.00379E+09 4.17340E+04 6.74322E+07 5.92098E-05-5.65511E-04-5.41643E+05
 -1      1910-7.00379E+09 4.17340E+04 6.74322E+07 5.92098E-05-5.65511E-04-5.41643E+05
 -1      1911-6.54165E+09 4.95873E+04 6.37201E+07-3.22926E-05-1.04755E-03-5.95151E+05
 -1      1913-6.54165E+09 4.95873E+04 6.37201E+07-3.22926E-05-1.04755E-03-5.95151E+05
 -1      1914-6.06153E+09 4.34299E+04 5.98170E+07-6.70459E-08-1.56349E-03-6.10128E+05
 -1      1916-6.06153E+09 4.34299E+04 5.98170E+07-6.70459E-08-1.56349E-03-6.10128E+05
 -1      1917-5.56473E+09 3.84529E+04 5.57444E+07 4.95166E-05-1.89568E-03-6.35567E+05
 -1      1919-5.56473E+09 3.84529E+04 5.57444E+07 4.95166E-05-1.89568E-03-6.35567E+05
 -1      1920-5.05262E+09 4.26633E+04 5.15428E+07-9.64955E-05-2.06411E-03-6.31397E+05
 -1      1922-5.05262E+09 4.26633E+04 5.15428E+07-9.64955E-05-2.06411E-03-6.31397E+05
 -1      1923-4.52659E+09 2.82080E+04 4.72232E+07-1.77255E-04-2.26536E-03-6.12988E+05
 -1      1925-4.52659E+09 2.82080E+04 4.72232E+07-1.77255E-04-2.26536E-03-6.12988E+05
 -1      1926-3.98806E+09 4.10166E+04 4.28249E+07-6.50797E-05-2.39297E-03-5.41671E+05
 -1      1928-3.98806E+09 4.10166E+04 4.28249E+07-6.50797E-05-2.39297E-03-5.41671E+05
 -1      1929-3.43848E+09 1.80936E+04 3.83500E+07 3.51903E-05-2.48904E-03-4.04743E+05
 -1      1931-3.43848E+09 1.80936E+04 3.83500E+07 3.51903E-05-2.48904E-03-4.04743E+05
 -1      1932-2.87928E+09 3.94481E+04 3.38529E+07 1.37840E-04-2.52464E-03-1.32797E+05
 -1      1934-2.87928E+09 3.94481E+04 3.38529E+07 1.37840E-04-2.52464E-03-1.32797E+05
 -1      1935-2.31195E+09 7.90014E+03 2.94692E+07 4.59439E-05-2.53486E-03 2.42516E+05
 -1      1937-2.31195E+09 7.90014E+03 2.94692E+07 4.59439E-05-2.53486E-03 2.42516E+05
 -1      1938-1.73799E+09 3.82278E+04 2.56700E+07 3.59894E-05-2.63922E-03 6.71210E+05
 -1      1940-1.73799E+09 3.82278E+04 2.56700E+07 3.59894E-05-2.63922E-03 6.71210E+05
 -1      1941-1.15918E+09-2.52071E+03 2.37873E+07 1.45266E-04-2.65419E-03-7.96255E+04
 -1      1943-1.15918E+09-2.52071E+03 2.37873E+07 1.45266E-04-2.65419E-03-7.96255E+04
 -1      1944-5.78486E+08 2.96277E+04 3.09301E+07-3.07958E-05-2.93609E-03-3.97156E+06
 -1      1946-5.78486E+08 2.96277E+04 3.09301E+07-3.07958E-05-2.93609E-03-3.97156E+06
 -1      1947-1.10173E+10-7.92732E+05-1.47954E+09-3.97114E-03 1.48327E-04-3.21677E-02
 -1      1949-1.10173E+10-7.92732E+05-1.47954E+09-3.97114E-03 1.48327E-04-3.21677E-02
 -1      1950-1.12900E+10 1.22580E+05-4.09895E+08 8.06749E-04 4.37796E-04-3.28895E-02
 -1      1952-1.12900E+10 1.22580E+05-4.09895E+08 8.06749E-04 4.37796E-04-3.28895E-02
 -1      1953-1.12020E+10 2.31340E+03 2.59767E+07-1.70124E-03 5.68742E-04-3.00192E-02
 -1      1955-1.12020E+10 2.31340E+03 2.59767E+07-1.70124E-03 5.68742E-04-3.00192E-02
 -1      1956-1.10138E+10-3.34954E+05 1.25019E+08-4.91987E-04 5.67549E-04-2.58557E-02
 -1      1958-1.10138E+10-3.34954E+05 1.25019E+08-4.91987E-04 5.67549E-04-2.58557E-02
 -1      1959-1.08176E+10 2.21497E+05 1.29669E+08-9.61801E-04 4.63633E-04-2.22236E-02
 -1      1961-1.08176E+10 2.21497E+05 1.29669E+08-9.61801E-04 4.63633E-04-2.22236E-02
 -1      1962-1.06181E+10-3.14246E+05 1.16260E+08-3.38695E-04 2.55911E-04-1.62935E-02
 -1      1964-1.06181E+10-3.14246E+05 1.16260E+08-3.38695E-04 2.55911E-04-1.62935E-02
 -1      1965-1.04056E+10 1.11219E+05 1.05650E+08-5.16139E-04 7.13773E-05-7.94174E-03
 -1      1967-1.04056E+10 1.11219E+05 1.05650E+08-5.16139E-04 7.13773E-05-7.94174E-03
 -1      1968-1.01743E+10-2.06717E+05 9.81106E+07 2.00623E-05-1.22159E-05-2.32896E-03
 -1      1970-1.01743E+10-2.06717E+05 9.81106E+07 2.00623E-05-1.22159E-05-2.32896E-03
 -1      1971-9.91971E+09 1.72905E+04 9.38599E+07 1.59623E-04 9.09535E-06-1.70905E-03
 -1      1973-9.91971E+09 1.72905E+04 9.38599E+07 1.59623E-04 9.09535E-06-1.70905E-03
 -1      1974-9.64033E+09-1.34691E+05 9.07996E+07 2.00010E-04 2.86189E-05-1.96778E-03
 -1      1976-9.64033E+09-1.34691E+05 9.07996E+07 2.00010E-04 2.86189E-05-1.96778E-03
 -1      1977-9.33543E+09-3.45408E+04 8.84449E+07 2.13956E-04-1.51894E-04 2.52256E-03
 -1      1979-9.33543E+09-3.45408E+04 8.84449E+07 2.13956E-04-1.51894E-04 2.52256E-03
 -1      1980-9.00541E+09-9.37403E+04 8.60297E+07 1.48589E-04-4.89640E-04 1.02526E-02
 -1      1982-9.00541E+09-9.37403E+04 8.60297E+07 1.48589E-04-4.89640E-04 1.02526E-02
 -1      1983-8.65081E+09-5.80281E+04 8.34976E+07 3.47614E-04-7.13051E-04 1.69326E-02
 -1      1985-8.65081E+09-5.80281E+04 8.34976E+07 3.47614E-04-7.13051E-04 1.69326E-02
 -1      1986-8.27256E+09-7.15565E+04 8.06489E+07 7.95691E-04-8.17475E-04 2.22825E-02
 -1      1988-8.27256E+09-7.15565E+04 8.06489E+07 7.95691E-04-8.17475E-04 2.22825E-02
 -1      1989-7.87159E+09-6.49542E+04 7.75277E+07 6.60173E-04-8.58235E-04 2.56894E-02
 -1      1991-7.87159E+09-6.49542E+04 7.75277E+07 6.60173E-04-8.58235E-04 2.56894E-02
 -1      1992-7.44902E+09-5.92842E+04 7.41088E+07 6.39308E-04-7.13730E-04 2.46990E-02
 -1      1994-7.44902E+09-5.92842E+04 7.41088E+07 6.39308E-04-7.13730E-04 2.46990E-02
 -1      1995-7.00598E+09-6.28780E+04 7.04324E+07 6.37055E-04-5.29524E-04 1.91864E-02
 -1      1997-7.00598E+09-6.28780E+04 7.04324E+07 6.37055E-04-5.29524E-04 1.91864E-02
 -1      1998-6.54368E+09-5.16493E+04 6.65227E+07 4.93979E-04-4.62762E-04 1.14525E-02
 -1      2000-6.54368E+09-5.16493E+04 6.65227E+07 4.93979E-04-4.62762E-04 1.14525E-02
 -1      2001-6.06339E+09-5.62069E+04 6.24079E+07 4.82196E-04-4.95088E-04 4.04756E-03
 -1      2003-6.06339E+09-5.62069E+04 6.24079E+07 4.82196E-04-4.95088E-04 4.04756E-03
 -1      2004-5.56643E+09-4.58355E+04 5.81234E+07 7.28479E-04-5.24079E-04 6.01170E-06
 -1      2006-5.56643E+09-4.58355E+04 5.81234E+07 7.28479E-04-5.24079E-04 6.01170E-06
 -1      2007-5.05414E+09-4.74061E+04 5.36895E+07 6.34645E-04-6.04610E-04-5.17295E-04
 -1      2009-5.05414E+09-4.74061E+04 5.36895E+07 6.34645E-04-6.04610E-04-5.17295E-04
 -1      2010-4.52791E+09-4.04991E+04 4.91360E+07 5.43514E-04-6.12076E-04-1.94527E-03
 -1      2012-4.52791E+09-4.04991E+04 4.91360E+07 5.43514E-04-6.12076E-04-1.94527E-03
 -1      2013-3.98917E+09-3.78402E+04 4.44733E+07 5.66136E-04-5.84791E-04-7.13488E-03
 -1      2015-3.98917E+09-3.78402E+04 4.44733E+07 5.66136E-04-5.84791E-04-7.13488E-03
 -1      2016-3.43931E+09-3.51694E+04 3.97204E+07 7.54759E-04-5.68810E-04-1.36567E-02
 -1      2018-3.43931E+09-3.51694E+04 3.97204E+07 7.54759E-04-5.68810E-04-1.36567E-02
 -1      2019-2.87977E+09-2.82160E+04 3.49144E+07 7.09003E-04-5.62590E-04-1.61962E-02
 -1      2021-2.87977E+09-2.82160E+04 3.49144E+07 7.09003E-04-5.62590E-04-1.61962E-02
 -1      2022-2.31192E+09-2.99511E+04 3.02333E+07 4.92836E-04-6.76603E-04-1.36192E-02
 -1      2024-2.31192E+09-2.99511E+04 3.02333E+07 4.92836E-04-6.76603E-04-1.36192E-02
 -1      2025-1.73724E+09-1.86468E+04 2.63331E+07 3.23385E-04-8.48770E-04-1.05201E-02
 -1      2027-1.73724E+09-1.86468E+04 2.63331E+07 3.23385E-04-8.48770E-04-1.05201E-02
 -1      2028-1.15782E+09-2.53663E+04 2.58745E+07 3.85414E-04-1.06943E-03-8.37020E-03
 -1      2030-1.15782E+09-2.53663E+04 2.58745E+07 3.85414E-04-1.06943E-03-8.37020E-03
 -1      2031-5.78141E+08 3.26475E+03 3.13920E+07 1.89094E-04-1.04433E-03-4.76895E-03
 -1      2033-5.78141E+08 3.26475E+03 3.13920E+07 1.89094E-04-1.04433E-03-4.76895E-03
 -1      2034-1.10755E+10 6.87061E+05-1.28851E+09-1.58264E-03-3.38009E-04 5.08849E+08
 -1      2036-1.10755E+10 6.87061E+05-1.28851E+09-1.58264E-03-3.38009E-04 5.08849E+08
 -1      2037-1.12160E+10-1.85504E+05-2.48606E+08 9.36867E-04-5.73674E-04 6.91718E+07
 -1      2039-1.12160E+10-1.85504E+05-2.48606E+08 9.36867E-04-5.73674E-04 6.91718E+07
 -1      2040-1.11078E+10 1.70784E+04 4.49089E+07-4.21936E-04-8.57978E-04-8.30768E+07
 -1      2042-1.11078E+10 1.70784E+04 4.49089E+07-4.21936E-04-8.57978E-04-8.30768E+07
 -1      2043-1.09531E+10 3.22031E+05 1.06355E+08 9.70628E-05-7.49557E-04-6.32042E+07
 -1      2045-1.09531E+10 3.22031E+05 1.06355E+08 9.70628E-05-7.49557E-04-6.32042E+07
 -1      2046-1.07904E+10-2.47334E+05 1.13494E+08-1.14542E-04-4.20681E-04-4.48725E+07
 -1      2048-1.07904E+10-2.47334E+05 1.13494E+08-1.14542E-04-4.20681E-04-4.48725E+07
 -1      2049-1.06002E+10 3.22662E+05 1.03606E+08 5.34977E-05-5.21648E-06-2.17528E+07
 -1      2051-1.06002E+10 3.22662E+05 1.03606E+08 5.34977E-05-5.21648E-06-2.17528E+07
 -1      2052-1.03968E+10-1.57047E+05 9.68702E+07-1.21861E-04 3.62750E-04-1.22112E+07
 -1      2054-1.03968E+10-1.57047E+05 9.68702E+07-1.21861E-04 3.62750E-04-1.22112E+07
 -1      2055-1.01680E+10 2.27001E+05 9.15153E+07 4.00042E-05 5.25434E-04-4.92807E+06
 -1      2057-1.01680E+10 2.27001E+05 9.15153E+07 4.00042E-05 5.25434E-04-4.92807E+06
 -1      2058-9.91557E+09-6.79238E+04 8.85586E+07 1.10586E-04 4.66420E-04-2.58717E+06
 -1      2060-9.91557E+09-6.79238E+04 8.85586E+07 1.10586E-04 4.66420E-04-2.58717E+06
 -1      2061-9.63665E+09 1.55908E+05 8.62105E+07-3.30720E-05 3.88947E-04-7.21311E+05
 -1      2063-9.63665E+09 1.55908E+05 8.62105E+07-3.30720E-05 3.88947E-04-7.21311E+05
 -1      2064-9.33232E+09-1.19880E+04 8.42261E+07-9.44171E-05 4.94464E-04-3.21941E+05
 -1      2066-9.33232E+09-1.19880E+04 8.42261E+07-9.44171E-05 4.94464E-04-3.21941E+05
 -1      2067-9.00241E+09 1.10416E+05 8.20964E+07-2.47593E-04 7.79463E-04 1.85548E+05
 -1      2069-9.00241E+09 1.10416E+05 8.20964E+07-2.47593E-04 7.79463E-04 1.85548E+05
 -1      2070-8.64806E+09 1.92900E+04 7.97482E+07-1.44888E-04 1.11653E-03 2.33733E+05
 -1      2072-8.64806E+09 1.92900E+04 7.97482E+07-1.44888E-04 1.11653E-03 2.33733E+05
 -1      2073-8.26990E+09 8.18704E+04 7.70952E+07-3.84274E-05 1.23462E-03 4.17644E+05
 -1      2075-8.26990E+09 8.18704E+04 7.70952E+07-3.84274E-05 1.23462E-03 4.17644E+05
 -1      2076-7.86912E+09 3.50497E+04 7.41477E+07-1.12366E-04 1.03443E-03 4.31689E+05
 -1      2078-7.86912E+09 3.50497E+04 7.41477E+07-1.12366E-04 1.03443E-03 4.31689E+05
 -1      2079-7.44667E+09 6.31432E+04 7.09166E+07-1.48941E-04 6.15451E-04 5.23926E+05
 -1      2081-7.44667E+09 6.31432E+04 7.09166E+07-1.48941E-04 6.15451E-04 5.23926E+05
 -1      2082-7.00379E+09 4.17340E+04 6.74322E+07 8.09532E-06 3.21538E-04 5.41644E+05
 -1      2084-7.00379E+09 4.17340E+04 6.74322E+07 8.09532E-06 3.21538E-04 5.41644E+05
 -1      2085-6.54165E+09 4.95873E+04 6.37201E+07 3.29910E-05 2.95785E-04 5.95151E+05
 -1      2087-6.54165E+09 4.95873E+04 6.37201E+07 3.29910E-05 2.95785E-04 5.95151E+05
 -1      2088-6.06153E+09 4.34299E+04 5.98170E+07-1.14889E-04 4.07804E-04 6.10128E+05
 -1      2090-6.06153E+09 4.34299E+04 5.98170E+07-1.14889E-04 4.07804E-04 6.10128E+05
 -1      2091-5.56473E+09 3.84529E+04 5.57444E+07 1.18539E-04 6.51095E-04 6.35567E+05
 -1      2093-5.56473E+09 3.84529E+04 5.57444E+07 1.18539E-04 6.51095E-04 6.35567E+05
 -1      2094-5.05262E+09 4.26633E+04 5.15428E+07 6.14737E-05 9.98206E-04 6.31397E+05
 -1      2096-5.05262E+09 4.26633E+04 5.15428E+07 6.14737E-05 9.98206E-04 6.31397E+05
 -1      2097-4.52659E+09 2.82080E+04 4.72232E+07-3.47071E-05 1.40810E-03 6.12988E+05
 -1      2099-4.52659E+09 2.82080E+04 4.72232E+07-3.47071E-05 1.40810E-03 6.12988E+05
 -1      2100-3.98806E+09 4.10166E+04 4.28249E+07-6.25496E-05 1.66632E-03 5.41671E+05
 -1      2102-3.98806E+09 4.10166E+04 4.28249E+07-6.25496E-05 1.66632E-03 5.41671E+05
 -1      2103-3.43848E+09 1.80936E+04 3.83500E+07 1.27856E-04 1.81554E-03 4.04743E+05
 -1      2105-3.43848E+09 1.80936E+04 3.83500E+07 1.27856E-04 1.81554E-03 4.04743E+05
 -1      2106-2.87928E+09 3.94481E+04 3.38529E+07 6.07774E-05 2.07408E-03 1.32797E+05
 -1      2108-2.87928E+09 3.94481E+04 3.38529E+07 6.07774E-05 2.07408E-03 1.32797E+05
 -1      2109-2.31195E+09 7.90014E+03 2.94692E+07-3.17658E-05 2.33034E-03-2.42516E+05
 -1      2111-2.31195E+09 7.90014E+03 2.94692E+07-3.17658E-05 2.33034E-03-2.42516E+05
 -1      2112-1.73799E+09 3.82278E+04 2.56700E+07-1.70161E-04 2.58998E-03-6.71210E+05
 -1      2114-1.73799E+09 3.82278E+04 2.56700E+07-1.70161E-04 2.58998E-03-6.71210E+05
 -1      2115-1.15918E+09-2.52071E+03 2.37873E+07-1.63183E-05 2.71996E-03 7.96255E+04
 -1      2117-1.15918E+09-2.52071E+03 2.37873E+07-1.63183E-05 2.71996E-03 7.96255E+04
 -1      2118-5.78486E+08 2.96277E+04 3.09301E+07 9.00620E-05 2.60042E-03 3.97156E+06
 -1      2120-5.78486E+08 2.96277E+04 3.09301E+07 9.00620E-05 2.60042E-03 3.97156E+06
 -1      2121-1.11363E+10-4.62355E+08 1.08206E+06-1.97357E+08 9.11839E+06 2.10555E+07
 -1      2123-1.11363E+10-4.62355E+08 1.08206E+06-1.97357E+08 9.11839E+06 2.10555E+07
 -1      2124-1.09606E+10 1.55646E+08 3.47105E+05 8.30155E+07-7.61804E+06-1.52086E+07
 -1      2126-1.09606E+10 1.55646E+08 3.47105E+05 8.30155E+07-7.61804E+06-1.52086E+07
 -1      2127-1.09094E+10-2.78734E+07-3.48448E+05-5.50623E+06-7.02889E+06 6.46649E+06
 -1      2129-1.09094E+10-2.78734E+07-3.48448E+05-5.50623E+06-7.02889E+06 6.46649E+06
 -1      2130-1.08395E+10 1.26140E+06 8.66294E+04 8.88038E+06-8.26455E+06-3.59571E+06
 -1      2132-1.08395E+10 1.26140E+06 8.66294E+04 8.88038E+06-8.26455E+06-3.59571E+06
 -1      2133-1.07242E+10 5.57751E+06-1.10540E+05 1.34142E+07-1.04843E+07 1.68740E+06
 -1      2135-1.07242E+10 5.57751E+06-1.10540E+05 1.34142E+07-1.04843E+07 1.68740E+06
 -1      2136-1.05778E+10 3.18692E+06-8.52080E+03 3.33403E+06-1.00939E+07-9.27030E+05
 -1      2138-1.05778E+10 3.18692E+06-8.52080E+03 3.33403E+06-1.00939E+07-9.27030E+05
 -1      2139-1.03910E+10 2.18893E+06-1.16553E+05 3.29130E+06-1.16023E+07 5.04472E+05
 -1      2141-1.03910E+10 2.18893E+06-1.16553E+05 3.29130E+06-1.16023E+07 5.04472E+05
 -1      2142-1.01734E+10 2.75412E+06 1.22580E+04 9.57320E+05-1.13600E+07-3.04969E+05
 -1      2144-1.01734E+10 2.75412E+06 1.22580E+04 9.57320E+05-1.13600E+07-3.04969E+05
 -1      2145-9.92484E+09 1.85679E+06-1.35005E+05 6.78834E+05-1.20734E+07 1.79723E+05
 -1      2147-9.92484E+09 1.85679E+06-1.35005E+05 6.78834E+05-1.20734E+07 1.79723E+05
 -1      2148-9.64840E+09 2.16722E+06 2.37396E+04 1.07094E+05-1.19290E+07-1.23632E+05
 -1      2150-9.64840E+09 2.16722E+06 2.37396E+04 1.07094E+05-1.19290E+07-1.23632E+05
 -1      2151-9.34465E+09 1.77944E+06-1.36750E+05 7.57340E+04-1.21360E+07 7.16870E+04
 -1      2153-9.34465E+09 1.77944E+06-1.36750E+05 7.57340E+04-1.21360E+07 7.16870E+04
 -1      2154-9.01516E+09 1.88961E+06 2.36493E+04-9.07087E+04-1.19540E+07-5.69115E+04
 -1      2156-9.01516E+09 1.88961E+06 2.36493E+04-9.07087E+04-1.19540E+07-5.69115E+04
 -1      2157-8.66066E+09 1.67642E+06-1.27728E+05-8.61835E+04-1.18543E+07 2.95342E+04
 -1      2159-8.66066E+09 1.67642E+06-1.27728E+05-8.61835E+04-1.18543E+07 2.95342E+04
 -1      2160-8.28237E+09 1.69562E+06 1.79461E+04-1.48101E+05-1.15787E+07-2.84929E+04
 -1      2162-8.28237E+09 1.69562E+06 1.79461E+04-1.48101E+05-1.15787E+07-2.84929E+04
 -1      2163-7.88122E+09 1.53984E+06-1.13476E+05-1.48611E+05-1.12861E+07 1.13470E+04
 -1      2165-7.88122E+09 1.53984E+06-1.13476E+05-1.48611E+05-1.12861E+07 1.13470E+04
 -1      2166-7.45842E+09 1.51288E+06 1.06982E+04-1.79529E+05-1.09113E+07-1.55696E+04
 -1      2168-7.45842E+09 1.51288E+06 1.06982E+04-1.79529E+05-1.09113E+07-1.55696E+04
 -1      2169-7.01509E+09 1.37710E+06-9.73928E+04-1.84151E+05-1.04928E+07 3.04108E+03
 -1      2171-7.01509E+09 1.37710E+06-9.73928E+04-1.84151E+05-1.04928E+07 3.04108E+03
 -1      2172-6.55247E+09 1.32275E+06 4.06425E+03-2.02515E+05-1.00358E+07-9.64153E+03
 -1      2174-6.55247E+09 1.32275E+06 4.06425E+03-2.02515E+05-1.00358E+07-9.64153E+03
 -1      2175-6.07182E+09 1.19485E+06-8.12871E+04-2.06645E+05-9.53696E+06-9.30039E+02
 -1      2177-6.07182E+09 1.19485E+06-8.12871E+04-2.06645E+05-9.53696E+06-9.30039E+02
 -1      2178-5.57448E+09 1.12052E+06-1.04516E+03-2.17076E+05-9.02484E+06-7.10057E+03
 -1      2180-5.57448E+09 1.12052E+06-1.04516E+03-2.17076E+05-9.02484E+06-7.10057E+03
 -1      2181-5.06182E+09 9.97214E+05-6.60120E+04-2.15371E+05-8.48233E+06-2.91264E+03
 -1      2183-5.06182E+09 9.97214E+05-6.60120E+04-2.15371E+05-8.48233E+06-2.91264E+03
 -1      2184-4.53526E+09 9.03592E+05-4.42600E+03-2.15767E+05-7.94732E+06-6.48761E+03
 -1      2186-4.53526E+09 9.03592E+05-4.42600E+03-2.15767E+05-7.94732E+06-6.48761E+03
 -1      2187-3.99626E+09 7.86164E+05-5.19157E+04-1.95632E+05-7.39578E+06-3.56895E+03
 -1      2189-3.99626E+09 7.86164E+05-5.19157E+04-1.95632E+05-7.39578E+06-3.56895E+03
 -1      2190-3.44633E+09 6.65463E+05-6.26238E+03-1.72382E+05-6.87512E+06-8.24995E+03
 -1      2192-3.44633E+09 6.65463E+05-6.26238E+03-1.72382E+05-6.87512E+06-8.24995E+03
 -1      2193-2.88704E+09 5.65379E+05-3.90998E+04-1.04670E+05-6.35174E+06-1.21048E+03
 -1      2195-2.88704E+09 5.65379E+05-3.90998E+04-1.04670E+05-6.35174E+06-1.21048E+03
 -1      2196-2.31996E+09 3.95461E+05-7.01932E+03-3.36059E+04-5.88766E+06-1.91437E+04
 -1      2198-2.31996E+09 3.95461E+05-7.01932E+03-3.36059E+04-5.88766E+06-1.91437E+04
 -1      2199-1.74669E+09 4.47609E+05-2.78287E+04-5.70103E+03-5.44394E+06 1.26923E+04
 -1      2201-1.74669E+09 4.47609E+05-2.78287E+04-5.70103E+03-5.44394E+06 1.26923E+04
 -1      2202-1.16866E+09 6.70124E+04-6.85158E+03-3.67039E+03-5.07792E+06-6.83720E+04
 -1      2204-1.16866E+09 6.70124E+04-6.85158E+03-3.67039E+03-5.07792E+06-6.83720E+04
 -1      2205-5.86486E+08 1.02607E+06-1.95658E+04-9.99081E+05-4.83135E+06-1.01908E+04
 -1      2207-5.86486E+08 1.02607E+06-1.95658E+04-9.99081E+05-4.83135E+06-1.01908E+04
 -1      2208-1.11363E+10-4.62355E+08 1.08206E+06 1.97357E+08-9.11839E+06 2.10555E+07
 -1      2210-1.11363E+10-4.62355E+08 1.08206E+06 1.97357E+08-9.11839E+06 2.10555E+07
 -1      2211-1.09606E+10 1.55646E+08 3.47105E+05-8.30155E+07 7.61804E+06-1.52086E+07
 -1      2213-1.09606E+10 1.55646E+08 3.47105E+05-8.30155E+07 7.61804E+06-1.52086E+07
 -1      2214-1.09094E+10-2.78734E+07-3.48448E+05 5.50623E+06 7.02889E+06 6.46649E+06
 -1      2216-1.09094E+10-2.78734E+07-3.48448E+05 5.50623E+06 7.02889E+06 6.46649E+06
 -1      2217-1.08395E+10 1.26140E+06 8.66294E+04-8.88038E+06 8.26455E+06-3.59571E+06
 -1      2219-1.08395E+10 1.26140E+06 8.66294E+04-8.88038E+06 8.26455E+06-3.59571E+06
 -1      2220-1.07242E+10 5.57751E+06-1.10540E+05-1.34142E+07 1.04843E+07 1.68740E+06
 -1      2222-1.07242E+10 5.57751E+06-1.10540E+05-1.34142E+07 1.04843E+07 1.68740E+06
 -1      2223-1.05778E+10 3.18692E+06-8.52080E+03-3.33403E+06 1.00939E+07-9.27030E+05
 -1      2225-1.05778E+10 3.18692E+06-8.52080E+03-3.33403E+06 1.00939E+07-9.27030E+05
 -1      2226-1.03910E+10 2.18893E+06-1.16553E+05-3.29130E+06 1.16023E+07 5.04472E+05
 -1      2228-1.03910E+10 2.18893E+06-1.16553E+05-3.29130E+06 1.16023E+07 5.04472E+05
 -1      2229-1.01734E+10 2.75412E+06 1.22580E+04-9.57320E+05 1.13600E+07-3.04969E+05
 -1      2231-1.01734E+10 2.75412E+06 1.22580E+04-9.57320E+05 1.13600E+07-3.04969E+05
 -1      2232-9.92484E+09 1.85679E+06-1.35005E+05-6.78834E+05 1.20734E+07 1.79723E+05
 -1      2234-9.92484E+09 1.85679E+06-1.35005E+05-6.78834E+05 1.20734E+07 1.79723E+05
 -1      2235-9.64840E+09 2.16722E+06 2.37396E+04-1.07094E+05 1.19290E+07-1.23632E+05
 -1      2237-9.64840E+09 2.16722E+06 2.37396E+04-1.07094E+05 1.19290E+07-1.23632E+05
 -1      2238-9.34465E+09 1.77944E+06-1.36750E+05-7.57340E+04 1.21360E+07 7.16870E+04
 -1      2240-9.34465E+09 1.77944E+06-1.36750E+05-7.57340E+04 1.21360E+07 7.16870E+04
 -1      2241-9.01516E+09 1.88961E+06 2.36493E+04 9.07087E+04 1.19540E+07-5.69115E+04
 -1      2243-9.01516E+09 1.88961E+06 2.36493E+04 9.07087E+04 1.19540E+07-5.69115E+04
 -1      2244-8.66066E+09 1.67642E+06-1.27728E+05 8.61835E+04 1.18543E+07 2.95342E+04
 -1      2246-8.66066E+09 1.67642E+06-1.27728E+05 8.61835E+04 1.18543E+07 2.95342E+04
 -1      2247-8.28237E+09 1.69562E+06 1.79461E+04 1.48101E+05 1.15787E+07-2.84929E+04
 -1      2249-8.28237E+09 1.69562E+06 1.79461E+04 1.48101E+05 1.15787E+07-2.84929E+04
 -1      2250-7.88122E+09 1.53984E+06-1.13476E+05 1.48611E+05 1.12861E+07 1.13470E+04
 -1      2252-7.88122E+09 1.53984E+06-1.13476E+05 1.48611E+05 1.12861E+07 1.13470E+04
 -1      2253-7.45842E+09 1.51288E+06 1.06982E+04 1.79529E+05 1.09113E+07-1.55696E+04
 -1      2255-7.45842E+09 1.51288E+06 1.06982E+04 1.79529E+05 1.09113E+07-1.55696E+04
 -1      2256-7.01509E+09 1.37710E+06-9.73928E+04 1.84151E+05 1.04928E+07 3.04108E+03
 -1      2258-7.01509E+09 1.37710E+06-9.73928E+04 1.84151E+05 1.04928E+07 3.04108E+03
 -1      2259-6.55247E+09 1.32275E+06 4.06425E+03 2.02515E+05 1.00358E+07-9.64153E+03
 -1      2261-6.55247E+09 1.32275E+06 4.06425E+03 2.02515E+05 1.00358E+07-9.64153E+03
 -1      2262-6.07182E+09 1.19485E+06-8.12871E+04 2.06645E+05 9.53696E+06-9.30039E+02
 -1      2264-6.07182E+09 1.19485E+06-8.12871E+04 2.06645E+05 9.53696E+06-9.30039E+02
 -1      2265-5.57448E+09 1.12052E+06-1.04516E+03 2.17076E+05 9.02484E+06-7.10057E+03
 -1      2267-5.57448E+09 1.12052E+06-1.04516E+03 2.17076E+05 9.02484E+06-7.10057E+03
 -1      2268-5.06182E+09 9.97214E+05-6.60120E+04 2.15371E+05 8.48233E+06-2.91264E+03
 -1      2270-5.06182E+09 9.97214E+05-6.60120E+04 2.15371E+05 8.48233E+06-2.91264E+03
 -1      2271-4.53526E+09 9.03592E+05-4.42600E+03 2.15767E+05 7.94732E+06-6.48761E+03
 -1      2273-4.53526E+09 9.03592E+05-4.42600E+03 2.15767E+05 7.94732E+06-6.48761E+03
 -1      2274-3.99626E+09 7.86164E+05-5.19157E+04 1.95632E+05 7.39578E+06-3.56895E+03
 -1      2276-3.99626E+09 7.86164E+05-5.19157E+04 1.95632E+05 7.39578E+06-3.56895E+03
 -1      2277-3.44633E+09 6.65463E+05-6.26238E+03 1.72382E+05 6.87512E+06-8.24995E+03
 -1      2279-3.44633E+09 6.65463E+05-6.26238E+03 1.72382E+05 6.87512E+06-8.24995E+03
 -1      2280-2.88704E+09 5.65379E+05-3.90998E+04 1.04670E+05 6.35174E+06-1.21048E+03
 -1      2282-2.88704E+09 5.65379E+05-3.90998E+04 1.04670E+05 6.35174E+06-1.21048E+03
 -1      2283-2.31996E+09 3.95461E+05-7.01932E+03 3.36060E+04 5.88766E+06-1.91437E+04
 -1      2285-2.31996E+09 3.95461E+05-7.01932E+03 3.36060E+04 5.88766E+06-1.91437E+04
 -1      2286-1.74669E+09 4.47609E+05-2.78287E+04 5.70104E+03 5.44394E+06 1.26923E+04
 -1      2288-1.74669E+09 4.47609E+05-2.78287E+04 5.70104E+03 5.44394E+06 1.26923E+04
 -1      2289-1.16866E+09 6.70124E+04-6.85158E+03 3.67039E+03 5.07792E+06-6.83720E+04
 -1      2291-1.16866E+09 6.70124E+04-6.85158E+03 3.67039E+03 5.07792E+06-6.83720E+04
 -1      2292-5.86486E+08 1.02607E+06-1.95658E+04 9.99081E+05 4.83135E+06-1.01908E+04
 -1      2294-5.86486E+08 1.02607E+06-1.95658E+04 9.99081E+05 4.83135E+06-1.01908E+04
 -3
    1PSTEP                        51           1           1          
    1PGM                1.000000E+00                                  
    1PGK                7.351924E+06                                  
    1PHID                         -1                                  
    1PSUBC                         0                                  
    1PMODE                        13                                  
  100CL  113 431.5395805         930                     2   13MODAL      1
 -4  FORC        4    1
 -5  F1          1    2    1    0
 -5  F2          1    2    2    0
 -5  F3          1    2    3    0
 -5  ALL         1    2    0    0    1ALL
 -1       404 2.06469E+06-4.87990E+05 1.48756E+04
 -1       406 1.88681E+06-5.28201E+05 1.48756E+04
 -1       407-4.42903E+04 1.27993E+01-6.77615E+02
 -1       409-4.42903E+04 1.27993E+01-6.77615E+02
 -1       410-9.19163E+04 2.88476E-05 3.23212E+03
 -1       412-9.19163E+04-2.19599E-05 2.52133E+03
 -1       413-5.94304E+04-5.57889E+02-3.32794E+03
 -1       415-5.94304E+04 5.57889E+02-3.32794E+03
 -1       424 3.48633E+06 1.44490E-05 1.16014E+04
 -1       426 2.76197E+06 1.14706E-05 2.19821E+04
 -1       427 2.67844E+06 8.14768E+03 8.34205E+05
 -1       429 2.67844E+06-8.14768E+03 8.34205E+05
 -1       438-4.42903E+04-1.27993E+01-6.77615E+02
 -1       440-4.42903E+04-1.27993E+01-6.77615E+02
 -1       441 2.06469E+06 4.87990E+05 1.48756E+04
 -1       443 1.88681E+06 5.28201E+05 1.48756E+04
 -1       444 2.67844E+06 8.14768E+03-8.34205E+05
 -1       446 2.67844E+06-8.14768E+03-8.34205E+05
 -1       447 3.48633E+06 6.52339E-06-1.16014E+04
 -1       449 2.76197E+06 3.47874E-06-2.19821E+04
 -1       458-5.94304E+04-5.57889E+02 3.32794E+03
 -1       460-5.94304E+04 5.57889E+02 3.32794E+03
 -1       461-9.19163E+04 2.29244E-05-3.23212E+03
 -1       463-9.19163E+04-1.99786E-05-2.52133E+03
 -1       472 2.06469E+06 4.87990E+05-1.48756E+04
 -1       474 1.88681E+06 5.28201E+05-1.48756E+04
 -1       475-4.42903E+04-1.27993E+01 6.77615E+02
 -1       477-4.42903E+04-1.27993E+01 6.77615E+02
 -1       478-4.42903E+04 1.27993E+01 6.77615E+02
 -1       480-4.42903E+04 1.27993E+01 6.77615E+02
 -1       481 2.06469E+06-4.87990E+05-1.48756E+04
 -1       483 1.88681E+06-5.28201E+05-1.48756E+04
 -1       484-4.59036E+03 7.99318E+02-1.91552E+03
 -1       486-4.59036E+03 7.99318E+02-1.91552E+03
 -1       487-9.16308E+03 9.73549E+02-3.36244E+03
 -1       489-9.16308E+03 9.73549E+02-3.36244E+03
 -1       490-1.37291E+04 9.14763E+02-4.06705E+03
 -1       492-1.37291E+04 9.14763E+02-4.06705E+03
 -1       493-1.82722E+04 9.15346E+02-4.42477E+03
 -1       495-1.82722E+04 9.15346E+02-4.42477E+03
 -1       496-2.27700E+04 9.09154E+02-4.68398E+03
 -1       498-2.27700E+04 9.09154E+02-4.68398E+03
 -1       499-2.72145E+04 8.94732E+02-4.85277E+03
 -1       501-2.72145E+04 8.94732E+02-4.85277E+03
 -1       502-3.15900E+04 8.79271E+02-4.97376E+03
 -1       504-3.15900E+04 8.79271E+02-4.97376E+03
 -1       505-3.58812E+04 8.60655E+02-5.04401E+03
 -1       507-3.58812E+04 8.60655E+02-5.04401E+03
 -1       508-4.00753E+04 8.39572E+02-5.07236E+03
 -1       510-4.00753E+04 8.39572E+02-5.07236E+03
 -1       511-4.41599E+04 8.16159E+02-5.06075E+03
 -1       513-4.41599E+04 8.16159E+02-5.06075E+03
 -1       514-4.81235E+04 7.90449E+02-5.01353E+03
 -1       516-4.81235E+04 7.90449E+02-5.01353E+03
 -1       517-5.19550E+04 7.62574E+02-4.93389E+03
 -1       519-5.19550E+04 7.62574E+02-4.93389E+03
 -1       520-5.56437E+04 7.32583E+02-4.82525E+03
 -1       522-5.56437E+04 7.32583E+02-4.82525E+03
 -1       523-5.91795E+04 7.00584E+02-4.69069E+03
 -1       525-5.91795E+04 7.00584E+02-4.69069E+03
 -1       526-6.25526E+04 6.66651E+02-4.53314E+03
 -1       528-6.25526E+04 6.66651E+02-4.53314E+03
 -1       529-6.57538E+04 6.30888E+02-4.35540E+03
 -1       531-6.57538E+04 6.30888E+02-4.35540E+03
 -1       532-6.87742E+04 5.93387E+02-4.16011E+03
 -1       534-6.87742E+04 5.93387E+02-4.16011E+03
 -1       535-7.16056E+04 5.54255E+02-3.94985E+03
 -1       537-7.16056E+04 5.54255E+02-3.94985E+03
 -1       538-7.42401E+04 5.13598E+02-3.72715E+03
 -1       540-7.42401E+04 5.13598E+02-3.72715E+03
 -1       541-7.66706E+04 4.71530E+02-3.49455E+03
 -1       543-7.66706E+04 4.71530E+02-3.49455E+03
 -1       544-7.88902E+04 4.28165E+02-3.25458E+03
 -1       546-7.88902E+04 4.28165E+02-3.25458E+03
 -1       547-8.08930E+04 3.83623E+02-3.00990E+03
 -1       549-8.08930E+04 3.83623E+02-3.00990E+03
 -1       550-8.26734E+04 3.38030E+02-2.76324E+03
 -1       552-8.26734E+04 3.38030E+02-2.76324E+03
 -1       553-8.42266E+04 2.91510E+02-2.51750E+03
 -1       555-8.42266E+04 2.91510E+02-2.51750E+03
 -1       556-8.55483E+04 2.44199E+02-2.27576E+03
 -1       558-8.55483E+04 2.44199E+02-2.27576E+03
 -1       559-8.66350E+04 1.96224E+02-2.04157E+03
 -1       561-8.66350E+04 1.96224E+02-2.04157E+03
 -1       562-8.74837E+04 1.47768E+02-1.81882E+03
 -1       564-8.74837E+04 1.47768E+02-1.81882E+03
 -1       565-8.80920E+04 9.88264E+01-1.61317E+03
 -1       567-8.80920E+04 9.88264E+01-1.61317E+03
 -1       568-8.84582E+04 4.98985E+01-1.43540E+03
 -1       570-8.84582E+04 4.98985E+01-1.43540E+03
 -1       571-8.85882E+04 1.70568E+01-8.75761E+02
 -1       573-8.85882E+04 1.70568E+01-8.75761E+02
 -1       574-3.09201E+05 2.11911E-06-1.75957E+05
 -1       576-3.09201E+05 1.73961E-06-1.88296E+05
 -1       577 2.93820E+05-9.68521E+03 1.76938E+05
 -1       579 2.93820E+05 9.68521E+03 1.76938E+05
 -1       588-3.52192E+04-2.63934E-05 1.18941E+05
 -1       590-3.52192E+04-1.60408E-06 1.29319E+05
 -1       591 4.13818E+03 8.14585E+03-1.32416E+05
 -1       593 4.13818E+03-8.14585E+03-1.32416E+05
 -1       602 4.79556E+04-1.54672E-05-2.92429E+04
 -1       604 4.79556E+04 2.04616E-05-3.05919E+04
 -1       605-9.47364E+04-1.05879E+03 2.06628E+04
 -1       607-9.47364E+04 1.05879E+03 2.06628E+04
 -1       616-2.58065E+04-2.26693E-05 5.52680E+04
 -1       618-2.58065E+04 1.55632E-05 4.90056E+04
 -1       619-3.65220E+04-4.91530E+03-6.15990E+04
 -1       621-3.65220E+04 4.91530E+03-6.15990E+04
 -1       630-8.10156E+03-2.73479E-05 7.75995E+03
 -1       632-8.10156E+03 1.58769E-05 1.24332E+04
 -1       633-6.96478E+04 3.66796E+03-1.95892E+04
 -1       635-6.96478E+04-3.66796E+03-1.95892E+04
 -1       644-4.76830E+04-3.03521E-05 3.82752E+04
 -1       646-4.76830E+04 1.78809E-05 3.11638E+04
 -1       647-4.52847E+04-5.58164E+03-4.41416E+04
 -1       649-4.52847E+04 5.58164E+03-4.41416E+04
 -1       658-5.33205E+04-3.10714E-05 1.96502E+04
 -1       660-5.33205E+04 1.89575E-05 2.24448E+04
 -1       661-5.46130E+04 2.19346E+03-3.03771E+04
 -1       663-5.46130E+04-2.19346E+03-3.03771E+04
 -1       672-7.06223E+04-3.25452E-05 3.25556E+04
 -1       674-7.06223E+04 1.56299E-05 2.73341E+04
 -1       675-5.19831E+04-4.09830E+03-3.91443E+04
 -1       677-5.19831E+04 4.09830E+03-3.91443E+04
 -1       686-7.76623E+04-2.93228E-05 2.39688E+04
 -1       688-7.76623E+04 1.87089E-05 2.49005E+04
 -1       689-5.92786E+04 7.31265E+02-3.34754E+04
 -1       691-5.92786E+04-7.31265E+02-3.34754E+04
 -1       700-8.86624E+04-2.39151E-05 2.97530E+04
 -1       702-8.86624E+04 2.36253E-05 2.60299E+04
 -1       703-6.22382E+04-2.92225E+03-3.67387E+04
 -1       705-6.22382E+04 2.92225E+03-3.67387E+04
 -1       714-9.57090E+04-2.40959E-05 2.52689E+04
 -1       716-9.57090E+04 2.73276E-05 2.50341E+04
 -1       717-6.87367E+04-1.84265E+02-3.37734E+04
 -1       719-6.87367E+04 1.84265E+02-3.37734E+04
 -1       728-1.04449E+05-3.11322E-05 2.76574E+04
 -1       730-1.04449E+05 2.77599E-05 2.49152E+04
 -1       731-7.30904E+04-2.15225E+03-3.46504E+04
 -1       733-7.30904E+04 2.15225E+03-3.46504E+04
 -1       742-1.11360E+05-3.67502E-05 2.49957E+04
 -1       744-1.11360E+05 2.49135E-05 2.41279E+04
 -1       745-7.87841E+04-6.81113E+02-3.26385E+04
 -1       747-7.87841E+04 6.81113E+02-3.26385E+04
 -1       756-1.18910E+05-3.23703E-05 2.56177E+04
 -1       758-1.18910E+05 2.67038E-05 2.34991E+04
 -1       759-8.33165E+04-1.66285E+03-3.23191E+04
 -1       761-8.33165E+04 1.66285E+03-3.23191E+04
 -1       770-1.25438E+05-2.27925E-05 2.37638E+04
 -1       772-1.25438E+05 2.62211E-05 2.26075E+04
 -1       773-8.83160E+04-9.07563E+02-3.06044E+04
 -1       775-8.83160E+04 9.07563E+02-3.06044E+04
 -1       784-1.32079E+05-1.14581E-05 2.34243E+04
 -1       786-1.32079E+05 1.70485E-05 2.17185E+04
 -1       787-9.26135E+04-1.33887E+03-2.96241E+04
 -1       789-9.26135E+04 1.33887E+03-2.96241E+04
 -1       798-1.38024E+05-3.08107E-07 2.19048E+04
 -1       800-1.38024E+05 9.34507E-06 2.06671E+04
 -1       801-9.69906E+04-9.71463E+02-2.79504E+04
 -1       803-9.69906E+04 9.71463E+02-2.79504E+04
 -1       812-1.43815E+05 4.32183E-06 2.10269E+04
 -1       814-1.43815E+05 3.06466E-06 1.96208E+04
 -1       815-1.00874E+05-1.10363E+03-2.65800E+04
 -1       817-1.00874E+05 1.10363E+03-2.65800E+04
 -1       826-1.49039E+05 7.36095E-06 1.96292E+04
 -1       828-1.49039E+05-4.98490E-06 1.84288E+04
 -1       829-1.04653E+05-9.42191E+02-2.48589E+04
 -1       831-1.04653E+05 9.42191E+02-2.48589E+04
 -1       840-1.53973E+05 1.30673E-05 1.84460E+04
 -1       842-1.53973E+05-1.44008E-05 1.72840E+04
 -1       843-1.08024E+05-9.12031E+02-2.32528E+04
 -1       845-1.08024E+05 9.12031E+02-2.32528E+04
 -1       854-1.58374E+05 1.95877E-05 1.70912E+04
 -1       856-1.58374E+05-2.28319E-05 1.59920E+04
 -1       857-1.11209E+05-8.62707E+02-2.14735E+04
 -1       859-1.11209E+05 8.62707E+02-2.14735E+04
 -1       868-1.62416E+05 2.24640E-05 1.57395E+04
 -1       870-1.62416E+05-3.00156E-05 1.47967E+04
 -1       871-1.14010E+05-7.39983E+02-1.97326E+04
 -1       873-1.14010E+05 7.39983E+02-1.97326E+04
 -1       882-1.65890E+05 2.48967E-05 1.44227E+04
 -1       884-1.65890E+05-3.24348E-05 1.34550E+04
 -1       885-1.16620E+05-7.59557E+02-1.79266E+04
 -1       887-1.16620E+05 7.59557E+02-1.79266E+04
 -1       896-1.68983E+05 3.16669E-05 1.29850E+04
 -1       898-1.68983E+05-3.20726E-05 1.22490E+04
 -1       899-1.18835E+05-5.77681E+02-1.61211E+04
 -1       901-1.18835E+05 5.77681E+02-1.61211E+04
 -1       910-1.71386E+05 3.85905E-05 1.17616E+04
 -1       912-1.71386E+05-3.15709E-05 1.09355E+04
 -1       913-1.20948E+05-6.48350E+02-1.43644E+04
 -1       915-1.20948E+05 6.48350E+02-1.43644E+04
 -1       924-1.73461E+05 3.81800E-05 1.02553E+04
 -1       926-1.73461E+05-3.49496E-05 9.70933E+03
 -1       927-1.22585E+05-4.28530E+02-1.25085E+04
 -1       929-1.22585E+05 4.28530E+02-1.25085E+04
 -1       938-1.74815E+05 3.74479E-05 9.31617E+03
 -1       940-1.74815E+05-3.75645E-05 8.63478E+03
 -1       941-1.24130E+05-5.34815E+02-1.10142E+04
 -1       943-1.24130E+05 5.34815E+02-1.10142E+04
 -1       952-1.76289E+05 4.38697E-05 7.53724E+03
 -1       954-1.76289E+05-3.55859E-05 7.14357E+03
 -1       955-1.24734E+05-3.08988E+02-8.90134E+03
 -1       957-1.24734E+05 3.08988E+02-8.90134E+03
 -1       966-1.79034E+05 5.44279E-05 7.39066E+03
 -1       968-1.79034E+05-3.72769E-05 6.92774E+03
 -1       969-1.23240E+05-3.63339E+02-8.27332E+03
 -1       971-1.23240E+05 3.63339E+02-8.27332E+03
 -1       980 3.58166E+06-3.56475E+05 3.78288E+04
 -1       982 3.04161E+06-2.60961E+05 3.78288E+04
 -1       983-8.85882E+04-1.70568E+01-8.75761E+02
 -1       985-8.85882E+04-1.70568E+01-8.75761E+02
 -1       986-4.59036E+03-7.99318E+02-1.91552E+03
 -1       988-4.59036E+03-7.99318E+02-1.91552E+03
 -1       989-9.16308E+03-9.73549E+02-3.36244E+03
 -1       991-9.16308E+03-9.73549E+02-3.36244E+03
 -1       992-1.37291E+04-9.14763E+02-4.06705E+03
 -1       994-1.37291E+04-9.14763E+02-4.06705E+03
 -1       995-1.82722E+04-9.15346E+02-4.42477E+03
 -1       997-1.82722E+04-9.15346E+02-4.42477E+03
 -1       998-2.27700E+04-9.09154E+02-4.68398E+03
 -1      1000-2.27700E+04-9.09154E+02-4.68398E+03
 -1      1001-2.72145E+04-8.94732E+02-4.85277E+03
 -1      1003-2.72145E+04-8.94732E+02-4.85277E+03
 -1      1004-3.15900E+04-8.79271E+02-4.97376E+03
 -1      1006-3.15900E+04-8.79271E+02-4.97376E+03
 -1      1007-3.58812E+04-8.60655E+02-5.04401E+03
 -1      1009-3.58812E+04-8.60655E+02-5.04401E+03
 -1      1010-4.00753E+04-8.39572E+02-5.07236E+03
 -1      1012-4.00753E+04-8.39572E+02-5.07236E+03
 -1      1013-4.41599E+04-8.16159E+02-5.06075E+03
 -1      1015-4.41599E+04-8.16159E+02-5.06075E+03
 -1      1016-4.81235E+04-7.90449E+02-5.01353E+03
 -1      1018-4.81235E+04-7.90449E+02-5.01353E+03
 -1      1019-5.19550E+04-7.62573E+02-4.93389E+03
 -1      1021-5.19550E+04-7.62573E+02-4.93389E+03
 -1      1022-5.56437E+04-7.32583E+02-4.82525E+03
 -1      1024-5.56437E+04-7.32583E+02-4.82525E+03
 -1      1025-5.91795E+04-7.00584E+02-4.69069E+03
 -1      1027-5.91795E+04-7.00584E+02-4.69069E+03
 -1      1028-6.25526E+04-6.66651E+02-4.53314E+03
 -1      1030-6.25526E+04-6.66651E+02-4.53314E+03
 -1      1031-6.57538E+04-6.30888E+02-4.35540E+03
 -1      1033-6.57538E+04-6.30888E+02-4.35540E+03
 -1      1034-6.87742E+04-5.93387E+02-4.16011E+03
 -1      1036-6.87742E+04-5.93387E+02-4.16011E+03
 -1      1037-7.16056E+04-5.54255E+02-3.94985E+03
 -1      1039-7.16056E+04-5.54255E+02-3.94985E+03
 -1      1040-7.42401E+04-5.13598E+02-3.72715E+03
 -1      1042-7.42401E+04-5.13598E+02-3.72715E+03
 -1      1043-7.66706E+04-4.71530E+02-3.49455E+03
 -1      1045-7.66706E+04-4.71530E+02-3.49455E+03
 -1      1046-7.88902E+04-4.28165E+02-3.25458E+03
 -1      1048-7.88902E+04-4.28165E+02-3.25458E+03
 -1      1049-8.08930E+04-3.83623E+02-3.00990E+03
 -1      1051-8.08930E+04-3.83623E+02-3.00990E+03
 -1      1052-8.26734E+04-3.38030E+02-2.76324E+03
 -1      1054-8.26734E+04-3.38030E+02-2.76324E+03
 -1      1055-8.42266E+04-2.91510E+02-2.51750E+03
 -1      1057-8.42266E+04-2.91510E+02-2.51750E+03
 -1      1058-8.55483E+04-2.44199E+02-2.27576E+03
 -1      1060-8.55483E+04-2.44199E+02-2.27576E+03
 -1      1061-8.66350E+04-1.96224E+02-2.04157E+03
 -1      1063-8.66350E+04-1.96224E+02-2.04157E+03
 -1      1064-8.74837E+04-1.47768E+02-1.81882E+03
 -1      1066-8.74837E+04-1.47768E+02-1.81882E+03
 -1      1067-8.80920E+04-9.88264E+01-1.61317E+03
 -1      1069-8.80920E+04-9.88264E+01-1.61317E+03
 -1      1070-8.84582E+04-4.98985E+01-1.43540E+03
 -1      1072-8.84582E+04-4.98985E+01-1.43540E+03
 -1      1073 3.58166E+06 3.56475E+05 3.78288E+04
 -1      1075 3.04161E+06 2.60961E+05 3.78288E+04
 -1      1076 4.48440E+06 3.41455E-05 3.43395E+05
 -1      1078 4.48440E+06 3.17197E-05 3.43395E+05
 -1      1079 4.44884E+06 2.91194E-05 1.25164E-05
 -1      1081 4.44884E+06 2.60327E-05 1.41019E-05
 -1      1082 4.48440E+06 2.52725E-05-3.43395E+05
 -1      1084 4.48440E+06 2.43533E-05-3.43395E+05
 -1      1085 2.93820E+05-9.68521E+03-1.76938E+05
 -1      1087 2.93820E+05 9.68521E+03-1.76938E+05
 -1      1088-3.09201E+05 8.33650E-06 1.75957E+05
 -1      1090-3.09201E+05 1.19100E-05 1.88296E+05
 -1      1099 4.13818E+03 8.14585E+03 1.32416E+05
 -1      1101 4.13818E+03-8.14585E+03 1.32416E+05
 -1      1102-3.52192E+04-2.28823E-05-1.18941E+05
 -1      1104-3.52192E+04 1.17472E-05-1.29319E+05
 -1      1113-9.47364E+04-1.05879E+03-2.06628E+04
 -1      1115-9.47364E+04 1.05879E+03-2.06628E+04
 -1      1116 4.79556E+04-1.86290E-05 2.92429E+04
 -1      1118 4.79556E+04 3.03201E-05 3.05919E+04
 -1      1127-3.65220E+04-4.91530E+03 6.15990E+04
 -1      1129-3.65220E+04 4.91530E+03 6.15990E+04
 -1      1130-2.58065E+04-2.67308E-05-5.52680E+04
 -1      1132-2.58065E+04 2.25358E-05-4.90056E+04
 -1      1141-6.96478E+04 3.66796E+03 1.95892E+04
 -1      1143-6.96478E+04-3.66796E+03 1.95892E+04
 -1      1144-8.10156E+03-2.98106E-05-7.75995E+03
 -1      1146-8.10156E+03 1.55813E-05-1.24332E+04
 -1      1155-4.52847E+04-5.58164E+03 4.41416E+04
 -1      1157-4.52847E+04 5.58164E+03 4.41416E+04
 -1      1158-4.76830E+04-2.70620E-05-3.82752E+04
 -1      1160-4.76830E+04 1.08920E-05-3.11638E+04
 -1      1169-5.46130E+04 2.19346E+03 3.03771E+04
 -1      1171-5.46130E+04-2.19346E+03 3.03771E+04
 -1      1172-5.33205E+04-2.60645E-05-1.96502E+04
 -1      1174-5.33205E+04 3.15923E-06-2.24448E+04
 -1      1183-5.19831E+04-4.09830E+03 3.91443E+04
 -1      1185-5.19831E+04 4.09830E+03 3.91443E+04
 -1      1186-7.06223E+04-2.58605E-05-3.25556E+04
 -1      1188-7.06223E+04-7.16709E-07-2.73341E+04
 -1      1197-5.92786E+04 7.31265E+02 3.34754E+04
 -1      1199-5.92786E+04-7.31265E+02 3.34754E+04
 -1      1200-7.76623E+04-2.10416E-05-2.39688E+04
 -1      1202-7.76623E+04 8.02233E-06-2.49005E+04
 -1      1211-6.22382E+04-2.92225E+03 3.67387E+04
 -1      1213-6.22382E+04 2.92225E+03 3.67387E+04
 -1      1214-8.86624E+04-1.55062E-05-2.97530E+04
 -1      1216-8.86624E+04 1.60928E-05-2.60299E+04
 -1      1225-6.87367E+04-1.84265E+02 3.37734E+04
 -1      1227-6.87367E+04 1.84265E+02 3.37734E+04
 -1      1228-9.57090E+04-1.36903E-05-2.52689E+04
 -1      1230-9.57090E+04 1.47537E-05-2.50341E+04
 -1      1239-7.30904E+04-2.15225E+03 3.46504E+04
 -1      1241-7.30904E+04 2.15225E+03 3.46504E+04
 -1      1242-1.04449E+05-1.50613E-05-2.76574E+04
 -1      1244-1.04449E+05 6.11066E-06-2.49152E+04
 -1      1253-7.87841E+04-6.81113E+02 3.26385E+04
 -1      1255-7.87841E+04 6.81113E+02 3.26385E+04
 -1      1256-1.11360E+05-1.33380E-05-2.49957E+04
 -1      1258-1.11360E+05 8.64893E-07-2.41279E+04
 -1      1267-8.33165E+04-1.66285E+03 3.23191E+04
 -1      1269-8.33165E+04 1.66285E+03 3.23191E+04
 -1      1270-1.18910E+05-5.45668E-06-2.56177E+04
 -1      1272-1.18910E+05 4.51564E-06-2.34991E+04
 -1      1281-8.83160E+04-9.07563E+02 3.06044E+04
 -1      1283-8.83160E+04 9.07563E+02 3.06044E+04
 -1      1284-1.25438E+05-1.17539E-06-2.37638E+04
 -1      1286-1.25438E+05 9.49234E-06-2.26075E+04
 -1      1295-9.26135E+04-1.33887E+03 2.96241E+04
 -1      1297-9.26135E+04 1.33887E+03 2.96241E+04
 -1      1298-1.32079E+05-3.24502E-06-2.34243E+04
 -1      1300-1.32079E+05 9.66386E-06-2.17185E+04
 -1      1309-9.69906E+04-9.71463E+02 2.79504E+04
 -1      1311-9.69906E+04 9.71463E+02 2.79504E+04
 -1      1312-1.38024E+05-5.30108E-06-2.19048E+04
 -1      1314-1.38024E+05 9.57748E-06-2.06671E+04
 -1      1323-1.00874E+05-1.10363E+03 2.65800E+04
 -1      1325-1.00874E+05 1.10363E+03 2.65800E+04
 -1      1326-1.43815E+05-8.66700E-06-2.10269E+04
 -1      1328-1.43815E+05 9.59077E-06-1.96208E+04
 -1      1337-1.04653E+05-9.42191E+02 2.48589E+04
 -1      1339-1.04653E+05 9.42191E+02 2.48589E+04
 -1      1340-1.49039E+05-1.27300E-05-1.96292E+04
 -1      1342-1.49039E+05 2.87526E-06-1.84288E+04
 -1      1351-1.08024E+05-9.12031E+02 2.32528E+04
 -1      1353-1.08024E+05 9.12031E+02 2.32528E+04
 -1      1354-1.53973E+05-4.71340E-06-1.84460E+04
 -1      1356-1.53973E+05-2.38177E-06-1.72840E+04
 -1      1365-1.11209E+05-8.62707E+02 2.14735E+04
 -1      1367-1.11209E+05 8.62707E+02 2.14735E+04
 -1      1368-1.58374E+05 1.00563E-05-1.70912E+04
 -1      1370-1.58374E+05-7.68705E-06-1.59920E+04
 -1      1379-1.14010E+05-7.39983E+02 1.97326E+04
 -1      1381-1.14010E+05 7.39983E+02 1.97326E+04
 -1      1382-1.62416E+05 1.40791E-05-1.57395E+04
 -1      1384-1.62416E+05-1.75755E-05-1.47967E+04
 -1      1393-1.16620E+05-7.59557E+02 1.79266E+04
 -1      1395-1.16620E+05 7.59557E+02 1.79266E+04
 -1      1396-1.65890E+05 1.33976E-05-1.44227E+04
 -1      1398-1.65890E+05-2.54267E-05-1.34550E+04
 -1      1407-1.18835E+05-5.77681E+02 1.61211E+04
 -1      1409-1.18835E+05 5.77681E+02 1.61211E+04
 -1      1410-1.68983E+05 2.09025E-05-1.29850E+04
 -1      1412-1.68983E+05-2.64315E-05-1.22490E+04
 -1      1421-1.20948E+05-6.48350E+02 1.43644E+04
 -1      1423-1.20948E+05 6.48350E+02 1.43644E+04
 -1      1424-1.71386E+05 3.22630E-05-1.17616E+04
 -1      1426-1.71386E+05-2.54271E-05-1.09355E+04
 -1      1435-1.22585E+05-4.28530E+02 1.25085E+04
 -1      1437-1.22585E+05 4.28530E+02 1.25085E+04
 -1      1438-1.73461E+05 3.78662E-05-1.02553E+04
 -1      1440-1.73461E+05-2.84986E-05-9.70933E+03
 -1      1449-1.24130E+05-5.34815E+02 1.10142E+04
 -1      1451-1.24130E+05 5.34815E+02 1.10142E+04
 -1      1452-1.74815E+05 3.97009E-05-9.31617E+03
 -1      1454-1.74815E+05-3.36849E-05-8.63478E+03
 -1      1463-1.24734E+05-3.08988E+02 8.90134E+03
 -1      1465-1.24734E+05 3.08988E+02 8.90134E+03
 -1      1466-1.76289E+05 4.31740E-05-7.53724E+03
 -1      1468-1.76289E+05-3.69916E-05-7.14357E+03
 -1      1477-1.23240E+05-3.63339E+02 8.27332E+03
 -1      1479-1.23240E+05 3.63339E+02 8.27332E+03
 -1      1480-1.79034E+05 4.66584E-05-7.39066E+03
 -1      1482-1.79034E+05-3.83923E-05-6.92774E+03
 -1      1491-1.25552E+05 1.25480E-06-7.30018E+01
 -1      1493-1.25552E+05 2.14968E-06-7.30018E+01
 -1      1494-1.25603E+05-2.08890E-06 1.73126E-07
 -1      1496-1.25603E+05 1.91610E-06-7.01833E-07
 -1      1497-1.25552E+05-9.98117E-08 7.30018E+01
 -1      1499-1.25552E+05 2.86591E-06 7.30018E+01
 -1      1500-4.59036E+03-7.99318E+02 1.91552E+03
 -1      1502-4.59036E+03-7.99318E+02 1.91552E+03
 -1      1503-9.16308E+03-9.73549E+02 3.36244E+03
 -1      1505-9.16308E+03-9.73549E+02 3.36244E+03
 -1      1506-1.37291E+04-9.14763E+02 4.06705E+03
 -1      1508-1.37291E+04-9.14763E+02 4.06705E+03
 -1      1509-1.82722E+04-9.15346E+02 4.42477E+03
 -1      1511-1.82722E+04-9.15346E+02 4.42477E+03
 -1      1512-2.27700E+04-9.09154E+02 4.68398E+03
 -1      1514-2.27700E+04-9.09154E+02 4.68398E+03
 -1      1515-2.72145E+04-8.94732E+02 4.85277E+03
 -1      1517-2.72145E+04-8.94732E+02 4.85277E+03
 -1      1518-3.15900E+04-8.79271E+02 4.97376E+03
 -1      1520-3.15900E+04-8.79271E+02 4.97376E+03
 -1      1521-3.58812E+04-8.60655E+02 5.04401E+03
 -1      1523-3.58812E+04-8.60655E+02 5.04401E+03
 -1      1524-4.00753E+04-8.39572E+02 5.07236E+03
 -1      1526-4.00753E+04-8.39572E+02 5.07236E+03
 -1      1527-4.41599E+04-8.16159E+02 5.06075E+03
 -1      1529-4.41599E+04-8.16159E+02 5.06075E+03
 -1      1530-4.81235E+04-7.90449E+02 5.01353E+03
 -1      1532-4.81235E+04-7.90449E+02 5.01353E+03
 -1      1533-5.19550E+04-7.62574E+02 4.93389E+03
 -1      1535-5.19550E+04-7.62574E+02 4.93389E+03
 -1      1536-5.56437E+04-7.32583E+02 4.82525E+03
 -1      1538-5.56437E+04-7.32583E+02 4.82525E+03
 -1      1539-5.91795E+04-7.00584E+02 4.69069E+03
 -1      1541-5.91795E+04-7.00584E+02 4.69069E+03
 -1      1542-6.25526E+04-6.66651E+02 4.53314E+03
 -1      1544-6.25526E+04-6.66651E+02 4.53314E+03
 -1      1545-6.57538E+04-6.30888E+02 4.35540E+03
 -1      1547-6.57538E+04-6.30888E+02 4.35540E+03
 -1      1548-6.87742E+04-5.93387E+02 4.16011E+03
 -1      1550-6.87742E+04-5.93387E+02 4.16011E+03
 -1      1551-7.16056E+04-5.54255E+02 3.94985E+03
 -1      1553-7.16056E+04-5.54255E+02 3.94985E+03
 -1      1554-7.42401E+04-5.13598E+02 3.72715E+03
 -1      1556-7.42401E+04-5.13598E+02 3.72715E+03
 -1      1557-7.66706E+04-4.71530E+02 3.49455E+03
 -1      1559-7.66706E+04-4.71530E+02 3.49455E+03
 -1      1560-7.88902E+04-4.28165E+02 3.25458E+03
 -1      1562-7.88902E+04-4.28165E+02 3.25458E+03
 -1      1563-8.08930E+04-3.83623E+02 3.00990E+03
 -1      1565-8.08930E+04-3.83623E+02 3.00990E+03
 -1      1566-8.26734E+04-3.38030E+02 2.76324E+03
 -1      1568-8.26734E+04-3.38030E+02 2.76324E+03
 -1      1569-8.42266E+04-2.91510E+02 2.51750E+03
 -1      1571-8.42266E+04-2.91510E+02 2.51750E+03
 -1      1572-8.55483E+04-2.44199E+02 2.27576E+03
 -1      1574-8.55483E+04-2.44199E+02 2.27576E+03
 -1      1575-8.66350E+04-1.96224E+02 2.04157E+03
 -1      1577-8.66350E+04-1.96224E+02 2.04157E+03
 -1      1578-8.74837E+04-1.47768E+02 1.81882E+03
 -1      1580-8.74837E+04-1.47768E+02 1.81882E+03
 -1      1581-8.80920E+04-9.88264E+01 1.61317E+03
 -1      1583-8.80920E+04-9.88264E+01 1.61317E+03
 -1      1584-8.84582E+04-4.98985E+01 1.43540E+03
 -1      1586-8.84582E+04-4.98985E+01 1.43540E+03
 -1      1587-8.85882E+04-1.70568E+01 8.75761E+02
 -1      1589-8.85882E+04-1.70568E+01 8.75761E+02
 -1      1590 3.58166E+06 3.56475E+05-3.78288E+04
 -1      1592 3.04161E+06 2.60961E+05-3.78288E+04
 -1      1593-8.85882E+04 1.70568E+01 8.75761E+02
 -1      1595-8.85882E+04 1.70568E+01 8.75761E+02
 -1      1596-4.59036E+03 7.99318E+02 1.91552E+03
 -1      1598-4.59036E+03 7.99318E+02 1.91552E+03
 -1      1599-9.16308E+03 9.73549E+02 3.36244E+03
 -1      1601-9.16308E+03 9.73549E+02 3.36244E+03
 -1      1602-1.37291E+04 9.14763E+02 4.06705E+03
 -1      1604-1.37291E+04 9.14763E+02 4.06705E+03
 -1      1605-1.82722E+04 9.15346E+02 4.42477E+03
 -1      1607-1.82722E+04 9.15346E+02 4.42477E+03
 -1      1608-2.27700E+04 9.09154E+02 4.68398E+03
 -1      1610-2.27700E+04 9.09154E+02 4.68398E+03
 -1      1611-2.72145E+04 8.94732E+02 4.85277E+03
 -1      1613-2.72145E+04 8.94732E+02 4.85277E+03
 -1      1614-3.15900E+04 8.79271E+02 4.97376E+03
 -1      1616-3.15900E+04 8.79271E+02 4.97376E+03
 -1      1617-3.58812E+04 8.60655E+02 5.04401E+03
 -1      1619-3.58812E+04 8.60655E+02 5.04401E+03
 -1      1620-4.00753E+04 8.39572E+02 5.07236E+03
 -1      1622-4.00753E+04 8.39572E+02 5.07236E+03
 -1      1623-4.41599E+04 8.16159E+02 5.06075E+03
 -1      1625-4.41599E+04 8.16159E+02 5.06075E+03
 -1      1626-4.81235E+04 7.90449E+02 5.01353E+03
 -1      1628-4.81235E+04 7.90449E+02 5.01353E+03
 -1      1629-5.19550E+04 7.62574E+02 4.93389E+03
 -1      1631-5.19550E+04 7.62574E+02 4.93389E+03
 -1      1632-5.56437E+04 7.32583E+02 4.82525E+03
 -1      1634-5.56437E+04 7.32583E+02 4.82525E+03
 -1      1635-5.91795E+04 7.00584E+02 4.69069E+03
 -1      1637-5.91795E+04 7.00584E+02 4.69069E+03
 -1      1638-6.25526E+04 6.66651E+02 4.53314E+03
 -1      1640-6.25526E+04 6.66651E+02 4.53314E+03
 -1      1641-6.57538E+04 6.30888E+02 4.35540E+03
 -1      1643-6.57538E+04 6.30888E+02 4.35540E+03
 -1      1644-6.87742E+04 5.93387E+02 4.16011E+03
 -1      1646-6.87742E+04 5.93387E+02 4.16011E+03
 -1      1647-7.16056E+04 5.54255E+02 3.94985E+03
 -1      1649-7.16056E+04 5.54255E+02 3.94985E+03
 -1      1650-7.42401E+04 5.13598E+02 3.72715E+03
 -1      1652-7.42401E+04 5.13598E+02 3.72715E+03
 -1      1653-7.66706E+04 4.71530E+02 3.49455E+03
 -1      1655-7.66706E+04 4.71530E+02 3.49455E+03
 -1      1656-7.88902E+04 4.28165E+02 3.25458E+03
 -1      1658-7.88902E+04 4.28165E+02 3.25458E+03
 -1      1659-8.08930E+04 3.83623E+02 3.00990E+03
 -1      1661-8.08930E+04 3.83623E+02 3.00990E+03
 -1      1662-8.26734E+04 3.38030E+02 2.76324E+03
 -1      1664-8.26734E+04 3.38030E+02 2.76324E+03
 -1      1665-8.42266E+04 2.91510E+02 2.51750E+03
 -1      1667-8.42266E+04 2.91510E+02 2.51750E+03
 -1      1668-8.55483E+04 2.44199E+02 2.27576E+03
 -1      1670-8.55483E+04 2.44199E+02 2.27576E+03
 -1      1671-8.66350E+04 1.96224E+02 2.04157E+03
 -1      1673-8.66350E+04 1.96224E+02 2.04157E+03
 -1      1674-8.74837E+04 1.47768E+02 1.81882E+03
 -1      1676-8.74837E+04 1.47768E+02 1.81882E+03
 -1      1677-8.80920E+04 9.88264E+01 1.61317E+03
 -1      1679-8.80920E+04 9.88264E+01 1.61317E+03
 -1      1680-8.84582E+04 4.98985E+01 1.43540E+03
 -1      1682-8.84582E+04 4.98985E+01 1.43540E+03
 -1      1683 3.58166E+06-3.56475E+05-3.78288E+04
 -1      1685 3.04161E+06-2.60961E+05-3.78288E+04
 -1      1686-9.13449E+03 1.05804E+03-3.63941E+03
 -1      1688-9.13449E+03 1.05804E+03-3.63941E+03
 -1      1689-1.83192E+04 1.30028E+03-6.14507E+03
 -1      1691-1.83192E+04 1.30028E+03-6.14507E+03
 -1      1692-2.74634E+04 1.22003E+03-7.19635E+03
 -1      1694-2.74634E+04 1.22003E+03-7.19635E+03
 -1      1695-3.65377E+04 1.21969E+03-7.64714E+03
 -1      1697-3.65377E+04 1.21969E+03-7.64714E+03
 -1      1698-4.55389E+04 1.21298E+03-7.94184E+03
 -1      1700-4.55389E+04 1.21298E+03-7.94184E+03
 -1      1701-5.44311E+04 1.19284E+03-8.10600E+03
 -1      1703-5.44311E+04 1.19284E+03-8.10600E+03
 -1      1704-6.31839E+04 1.17262E+03-8.21172E+03
 -1      1706-6.31839E+04 1.17262E+03-8.21172E+03
 -1      1707-7.17678E+04 1.14755E+03-8.25016E+03
 -1      1709-7.17678E+04 1.14755E+03-8.25016E+03
 -1      1710-8.01571E+04 1.11955E+03-8.23430E+03
 -1      1712-8.01571E+04 1.11955E+03-8.23430E+03
 -1      1713-8.83272E+04 1.08825E+03-8.16421E+03
 -1      1715-8.83272E+04 1.08825E+03-8.16421E+03
 -1      1716-9.62551E+04 1.05401E+03-8.04569E+03
 -1      1718-9.62551E+04 1.05401E+03-8.04569E+03
 -1      1719-1.03919E+05 1.01682E+03-7.88204E+03
 -1      1721-1.03919E+05 1.01682E+03-7.88204E+03
 -1      1722-1.11297E+05 9.76842E+02-7.67784E+03
 -1      1724-1.11297E+05 9.76842E+02-7.67784E+03
 -1      1725-1.18369E+05 9.34164E+02-7.43682E+03
 -1      1727-1.18369E+05 9.34164E+02-7.43682E+03
 -1      1728-1.25116E+05 8.88923E+02-7.16293E+03
 -1      1730-1.25116E+05 8.88923E+02-7.16293E+03
 -1      1731-1.31519E+05 8.41232E+02-6.85974E+03
 -1      1733-1.31519E+05 8.41232E+02-6.85974E+03
 -1      1734-1.37560E+05 7.91230E+02-6.53080E+03
 -1      1736-1.37560E+05 7.91230E+02-6.53080E+03
 -1      1737-1.43223E+05 7.39050E+02-6.17952E+03
 -1      1739-1.43223E+05 7.39050E+02-6.17952E+03
 -1      1740-1.48493E+05 6.84838E+02-5.80929E+03
 -1      1742-1.48493E+05 6.84838E+02-5.80929E+03
 -1      1743-1.53354E+05 6.28743E+02-5.42350E+03
 -1      1745-1.53354E+05 6.28743E+02-5.42350E+03
 -1      1746-1.57794E+05 5.70919E+02-5.02559E+03
 -1      1748-1.57794E+05 5.70919E+02-5.02559E+03
 -1      1749-1.61800E+05 5.11528E+02-4.61909E+03
 -1      1751-1.61800E+05 5.11528E+02-4.61909E+03
 -1      1752-1.65361E+05 4.50732E+02-4.20766E+03
 -1      1754-1.65361E+05 4.50732E+02-4.20766E+03
 -1      1755-1.68467E+05 3.88703E+02-3.79519E+03
 -1      1757-1.68467E+05 3.88703E+02-3.79519E+03
 -1      1758-1.71111E+05 3.25613E+02-3.38575E+03
 -1      1760-1.71111E+05 3.25613E+02-3.38575E+03
 -1      1761-1.73284E+05 2.61650E+02-2.98413E+03
 -1      1763-1.73284E+05 2.61650E+02-2.98413E+03
 -1      1764-1.74982E+05 1.97028E+02-2.59569E+03
 -1      1766-1.74982E+05 1.97028E+02-2.59569E+03
 -1      1767-1.76199E+05 1.31789E+02-2.22874E+03
 -1      1769-1.76199E+05 1.31789E+02-2.22874E+03
 -1      1770-1.76932E+05 6.65564E+01-1.90180E+03
 -1      1772-1.76932E+05 6.65564E+01-1.90180E+03
 -1      1773-9.13449E+03-1.05804E+03-3.63941E+03
 -1      1775-9.13449E+03-1.05804E+03-3.63941E+03
 -1      1776-1.83192E+04-1.30028E+03-6.14507E+03
 -1      1778-1.83192E+04-1.30028E+03-6.14507E+03
 -1      1779-2.74634E+04-1.22003E+03-7.19635E+03
 -1      1781-2.74634E+04-1.22003E+03-7.19635E+03
 -1      1782-3.65377E+04-1.21969E+03-7.64714E+03
 -1      1784-3.65377E+04-1.21969E+03-7.64714E+03
 -1      1785-4.55389E+04-1.21298E+03-7.94184E+03
 -1      1787-4.55389E+04-1.21298E+03-7.94184E+03
 -1      1788-5.44311E+04-1.19284E+03-8.10600E+03
 -1      1790-5.44311E+04-1.19284E+03-8.10600E+03
 -1      1791-6.31839E+04-1.17262E+03-8.21172E+03
 -1      1793-6.31839E+04-1.17262E+03-8.21172E+03
 -1      1794-7.17678E+04-1.14755E+03-8.25016E+03
 -1      1796-7.17678E+04-1.14755E+03-8.25016E+03
 -1      1797-8.01571E+04-1.11955E+03-8.23430E+03
 -1      1799-8.01571E+04-1.11955E+03-8.23430E+03
 -1      1800-8.83272E+04-1.08825E+03-8.16421E+03
 -1      1802-8.83272E+04-1.08825E+03-8.16421E+03
 -1      1803-9.62551E+04-1.05401E+03-8.04569E+03
 -1      1805-9.62551E+04-1.05401E+03-8.04569E+03
 -1      1806-1.03919E+05-1.01682E+03-7.88204E+03
 -1      1808-1.03919E+05-1.01682E+03-7.88204E+03
 -1      1809-1.11297E+05-9.76842E+02-7.67784E+03
 -1      1811-1.11297E+05-9.76842E+02-7.67784E+03
 -1      1812-1.18369E+05-9.34164E+02-7.43682E+03
 -1      1814-1.18369E+05-9.34164E+02-7.43682E+03
 -1      1815-1.25116E+05-8.88923E+02-7.16293E+03
 -1      1817-1.25116E+05-8.88923E+02-7.16293E+03
 -1      1818-1.31519E+05-8.41232E+02-6.85974E+03
 -1      1820-1.31519E+05-8.41232E+02-6.85974E+03
 -1      1821-1.37560E+05-7.91230E+02-6.53080E+03
 -1      1823-1.37560E+05-7.91230E+02-6.53080E+03
 -1      1824-1.43223E+05-7.39050E+02-6.17952E+03
 -1      1826-1.43223E+05-7.39050E+02-6.17952E+03
 -1      1827-1.48493E+05-6.84838E+02-5.80929E+03
 -1      1829-1.48493E+05-6.84838E+02-5.80929E+03
 -1      1830-1.53354E+05-6.28743E+02-5.42350E+03
 -1      1832-1.53354E+05-6.28743E+02-5.42350E+03
 -1      1833-1.57794E+05-5.70919E+02-5.02559E+03
 -1      1835-1.57794E+05-5.70919E+02-5.02559E+03
 -1      1836-1.61800E+05-5.11528E+02-4.61909E+03
 -1      1838-1.61800E+05-5.11528E+02-4.61909E+03
 -1      1839-1.65361E+05-4.50732E+02-4.20766E+03
 -1      1841-1.65361E+05-4.50732E+02-4.20766E+03
 -1      1842-1.68467E+05-3.88703E+02-3.79519E+03
 -1      1844-1.68467E+05-3.88703E+02-3.79519E+03
 -1      1845-1.71111E+05-3.25613E+02-3.38575E+03
 -1      1847-1.71111E+05-3.25613E+02-3.38575E+03
 -1      1848-1.73284E+05-2.61650E+02-2.98413E+03
 -1      1850-1.73284E+05-2.61650E+02-2.98413E+03
 -1      1851-1.74982E+05-1.97028E+02-2.59569E+03
 -1      1853-1.74982E+05-1.97028E+02-2.59569E+03
 -1      1854-1.76199E+05-1.31789E+02-2.22874E+03
 -1      1856-1.76199E+05-1.31789E+02-2.22874E+03
 -1      1857-1.76932E+05-6.65564E+01-1.90180E+03
 -1      1859-1.76932E+05-6.65564E+01-1.90180E+03
 -1      1860-1.23960E+04 2.56761E-07-2.28064E+03
 -1      1862-1.23960E+04-6.42127E-06-2.28064E+03
 -1      1863-2.52949E+04-2.66285E-07-3.60033E+03
 -1      1865-2.52949E+04-7.72366E-06-3.60033E+03
 -1      1866-3.84492E+04 1.02435E-06-3.99652E+03
 -1      1868-3.84492E+04-3.13189E-06-3.99652E+03
 -1      1869-5.15112E+04-8.63836E-07-4.03058E+03
 -1      1871-5.15112E+04-2.96870E-06-4.03058E+03
 -1      1872-6.43977E+04-3.73384E-06-3.97392E+03
 -1      1874-6.43977E+04-4.54671E-06-3.97392E+03
 -1      1875-7.70751E+04-2.03555E-06-3.89106E+03
 -1      1877-7.70751E+04-4.26693E-06-3.89106E+03
 -1      1878-8.95171E+04-1.14395E-06-3.80710E+03
 -1      1880-8.95171E+04-5.52547E-06-3.80710E+03
 -1      1881-1.01702E+05-5.23633E-06-3.71792E+03
 -1      1883-1.01702E+05-4.48391E-06-3.71792E+03
 -1      1884-1.13600E+05-6.08457E-06-3.62380E+03
 -1      1886-1.13600E+05-1.55512E-06-3.62380E+03
 -1      1887-1.25184E+05-5.55471E-06-3.52163E+03
 -1      1889-1.25184E+05 5.74591E-07-3.52163E+03
 -1      1890-1.36422E+05-4.45642E-06-3.41108E+03
 -1      1892-1.36422E+05 2.11290E-06-3.41108E+03
 -1      1893-1.47285E+05-4.57203E-07-3.29141E+03
 -1      1895-1.47285E+05-1.27337E-06-3.29141E+03
 -1      1896-1.57743E+05 7.93483E-07-3.16286E+03
 -1      1898-1.57743E+05-7.17335E-06-3.16286E+03
 -1      1899-1.67767E+05 7.15495E-07-3.02552E+03
 -1      1901-1.67767E+05-5.18929E-06-3.02552E+03
 -1      1902-1.77330E+05 2.51419E-06-2.87983E+03
 -1      1904-1.77330E+05 2.90371E-07-2.87983E+03
 -1      1905-1.86405E+05 1.63269E-06-2.72610E+03
 -1      1907-1.86405E+05-6.81498E-07-2.72610E+03
 -1      1908-1.94968E+05 6.38316E-06-2.56484E+03
 -1      1910-1.94968E+05-1.88906E-06-2.56484E+03
 -1      1911-2.02995E+05 3.59569E-06-2.39646E+03
 -1      1913-2.02995E+05 6.24483E-07-2.39646E+03
 -1      1914-2.10464E+05 2.25876E-06-2.22149E+03
 -1      1916-2.10464E+05 2.65988E-06-2.22149E+03
 -1      1917-2.17354E+05 2.90862E-06-2.04039E+03
 -1      1919-2.17354E+05-3.37155E-06-2.04039E+03
 -1      1920-2.23646E+05 3.87299E-06-1.85370E+03
 -1      1922-2.23646E+05-2.67572E-06-1.85370E+03
 -1      1923-2.29324E+05 2.06786E-06-1.66194E+03
 -1      1925-2.29324E+05-3.49987E-06-1.66194E+03
 -1      1926-2.34371E+05 2.53970E-06-1.46563E+03
 -1      1928-2.34371E+05-2.28193E-06-1.46563E+03
 -1      1929-2.38773E+05-3.95268E-06-1.26529E+03
 -1      1931-2.38773E+05 1.03534E-06-1.26529E+03
 -1      1932-2.42519E+05-3.29063E-06-1.06148E+03
 -1      1934-2.42519E+05 3.13254E-06-1.06148E+03
 -1      1935-2.45598E+05-1.99033E-06-8.54909E+02
 -1      1937-2.45598E+05 2.27841E-06-8.54909E+02
 -1      1938-2.48000E+05-7.49529E-07-6.46743E+02
 -1      1940-2.48000E+05 3.82428E-06-6.46743E+02
 -1      1941-2.49721E+05 4.79205E-06-4.40061E+02
 -1      1943-2.49721E+05 6.69121E-06-4.40061E+02
 -1      1944-2.50758E+05 4.10860E-06-2.41842E+02
 -1      1946-2.50758E+05 7.12990E-06-2.41842E+02
 -1      1947-1.22068E+04 6.83644E-09 1.19042E-06
 -1      1949-1.22068E+04-5.99704E-06 1.31555E-06
 -1      1950-2.50524E+04-4.89958E-07 2.31371E-06
 -1      1952-2.50524E+04-5.15400E-06 2.57094E-06
 -1      1953-3.82741E+04 6.19580E-07 5.73510E-08
 -1      1955-3.82741E+04-2.32552E-06 1.90542E-07
 -1      1956-5.14274E+04-1.65131E-06-1.00946E-06
 -1      1958-5.14274E+04-1.15400E-06-1.29259E-06
 -1      1959-6.43720E+04-6.47957E-06 6.46584E-09
 -1      1961-6.43720E+04-1.20776E-06-9.24859E-08
 -1      1962-7.70813E+04-5.50006E-06 5.81954E-07
 -1      1964-7.70813E+04-1.96580E-06 7.81756E-07
 -1      1965-8.95428E+04-7.78332E-06 1.48520E-06
 -1      1967-8.95428E+04-5.35098E-06 1.83975E-06
 -1      1968-1.01739E+05-8.35373E-06 6.40758E-07
 -1      1970-1.01739E+05-5.68966E-06 5.14784E-07
 -1      1971-1.13646E+05-8.42046E-06 7.63673E-07
 -1      1973-1.13646E+05-3.03203E-06-8.18795E-07
 -1      1974-1.25236E+05-9.01382E-06 9.76628E-07
 -1      1976-1.25236E+05-3.83079E-07-5.40589E-07
 -1      1977-1.36480E+05-2.87546E-06 3.19661E-07
 -1      1979-1.36480E+05-3.21440E-06-1.16565E-06
 -1      1980-1.47348E+05-2.71084E-07 7.87685E-08
 -1      1982-1.47348E+05-4.91243E-06-4.72905E-07
 -1      1983-1.57810E+05-3.46131E-06-1.42097E-06
 -1      1985-1.57810E+05-8.70284E-06-1.55957E-06
 -1      1986-1.67839E+05-3.14320E-06-3.44709E-06
 -1      1988-1.67839E+05-7.39032E-06-2.55247E-06
 -1      1989-1.77406E+05-2.79662E-06-1.91200E-06
 -1      1991-1.77406E+05-4.18447E-07-1.48841E-06
 -1      1992-1.86485E+05 1.89592E-07 7.52950E-07
 -1      1994-1.86485E+05-1.93839E-06 4.40463E-07
 -1      1995-1.95052E+05 4.29318E-06 1.23652E-06
 -1      1997-1.95052E+05 8.04246E-07 1.80479E-06
 -1      1998-2.03082E+05 8.96456E-07 2.17527E-06
 -1      2000-2.03082E+05-3.77723E-07 3.02561E-06
 -1      2001-2.10554E+05-4.69997E-06 2.35392E-06
 -1      2003-2.10554E+05-3.47007E-06 1.76809E-06
 -1      2004-2.17447E+05-2.66663E-06 1.39440E-06
 -1      2006-2.17447E+05-2.97046E-06 6.53451E-07
 -1      2007-2.23742E+05-1.63200E-06 1.86138E-06
 -1      2009-2.23742E+05 7.54834E-07-4.69136E-07
 -1      2010-2.29422E+05-3.11478E-06 1.09459E-06
 -1      2012-2.29422E+05 4.78223E-07-1.26151E-07
 -1      2013-2.34471E+05-5.25604E-06 1.16663E-06
 -1      2015-2.34471E+05 8.44874E-07 7.02841E-07
 -1      2016-2.38875E+05-4.69525E-06 2.15397E-06
 -1      2018-2.38875E+05 3.39173E-06 2.12420E-06
 -1      2019-2.42622E+05-1.18290E-06 1.94664E-06
 -1      2021-2.42622E+05 4.96799E-06 2.48784E-06
 -1      2022-2.45701E+05 2.15162E-06 1.99266E-06
 -1      2024-2.45701E+05 1.71540E-06 1.95739E-06
 -1      2025-2.48104E+05 2.53723E-06 2.32809E-06
 -1      2027-2.48104E+05 1.37495E-06 2.84156E-06
 -1      2028-2.49824E+05-4.45543E-07 1.73574E-06
 -1      2030-2.49824E+05 3.61045E-06 2.21960E-06
 -1      2031-2.50859E+05 6.31979E-06 2.38115E-07
 -1      2033-2.50859E+05 7.18987E-06-7.42255E-07
 -1      2034-1.23960E+04-1.57274E-07 2.28064E+03
 -1      2036-1.23960E+04-1.37535E-06 2.28064E+03
 -1      2037-2.52949E+04 6.51567E-07 3.60033E+03
 -1      2039-2.52949E+04-5.45216E-07 3.60033E+03
 -1      2040-3.84492E+04 2.39206E-06 3.99652E+03
 -1      2042-3.84492E+04 8.63307E-07 3.99652E+03
 -1      2043-5.15112E+04-5.91129E-07 4.03058E+03
 -1      2045-5.15112E+04-3.32534E-07 4.03058E+03
 -1      2046-6.43977E+04-4.73925E-06 3.97392E+03
 -1      2048-6.43977E+04-6.10159E-07 3.97392E+03
 -1      2049-7.70751E+04-4.43328E-06 3.89106E+03
 -1      2051-7.70751E+04-2.19381E-07 3.89106E+03
 -1      2052-8.95171E+04-5.41850E-06 3.80710E+03
 -1      2054-8.95171E+04-3.28692E-06 3.80710E+03
 -1      2055-1.01702E+05-5.58783E-06 3.71792E+03
 -1      2057-1.01702E+05-5.48811E-06 3.71792E+03
 -1      2058-1.13600E+05-4.94672E-06 3.62380E+03
 -1      2060-1.13600E+05-8.57885E-07 3.62380E+03
 -1      2061-1.25184E+05-3.28316E-06 3.52163E+03
 -1      2063-1.25184E+05 2.83925E-06 3.52163E+03
 -1      2064-1.36422E+05 1.83185E-06 3.41108E+03
 -1      2066-1.36422E+05-4.26038E-06 3.41108E+03
 -1      2067-1.47285E+05 3.25024E-06 3.29141E+03
 -1      2069-1.47285E+05-7.99150E-06 3.29141E+03
 -1      2070-1.57743E+05-1.43997E-06 3.16286E+03
 -1      2072-1.57743E+05-6.15567E-06 3.16286E+03
 -1      2073-1.67767E+05 2.22435E-06 3.02552E+03
 -1      2075-1.67767E+05-2.32764E-06 3.02552E+03
 -1      2076-1.77330E+05 2.95503E-06 2.87983E+03
 -1      2078-1.77330E+05-4.71162E-06 2.87983E+03
 -1      2079-1.86405E+05 4.61786E-06 2.72610E+03
 -1      2081-1.86405E+05-3.15128E-06 2.72610E+03
 -1      2082-1.94968E+05-2.24943E-06 2.56484E+03
 -1      2084-1.94968E+05-1.25881E-06 2.56484E+03
 -1      2085-2.02995E+05-3.08122E-06 2.39646E+03
 -1      2087-2.02995E+05 1.03109E-06 2.39646E+03
 -1      2088-2.10464E+05-3.53157E-06 2.22149E+03
 -1      2090-2.10464E+05-3.64813E-06 2.22149E+03
 -1      2091-2.17354E+05-6.04929E-06 2.04039E+03
 -1      2093-2.17354E+05-4.12802E-07 2.04039E+03
 -1      2094-2.23646E+05-4.28654E-06 1.85370E+03
 -1      2096-2.23646E+05 3.22306E-06 1.85370E+03
 -1      2097-2.29324E+05-4.49824E-06 1.66194E+03
 -1      2099-2.29324E+05 3.05774E-06 1.66194E+03
 -1      2100-2.34371E+05-5.36066E-06 1.46563E+03
 -1      2102-2.34371E+05 1.71079E-06 1.46563E+03
 -1      2103-2.38773E+05-2.17582E-06 1.26529E+03
 -1      2105-2.38773E+05-7.18511E-07 1.26529E+03
 -1      2106-2.42519E+05 6.37176E-06 1.06148E+03
 -1      2108-2.42519E+05-3.08622E-07 1.06148E+03
 -1      2109-2.45598E+05 8.28710E-06 8.54909E+02
 -1      2111-2.45598E+05-1.84992E-06 8.54909E+02
 -1      2112-2.48000E+05 3.34898E-06 6.46743E+02
 -1      2114-2.48000E+05 4.64280E-07 6.46743E+02
 -1      2115-2.49721E+05-1.71731E-06 4.40061E+02
 -1      2117-2.49721E+05 1.58006E-06 4.40061E+02
 -1      2118-2.50758E+05-3.81237E-07 2.41842E+02
 -1      2120-2.50758E+05 2.09933E-06 2.41842E+02
 -1      2121-9.13449E+03-1.05804E+03 3.63941E+03
 -1      2123-9.13449E+03-1.05804E+03 3.63941E+03
 -1      2124-1.83192E+04-1.30028E+03 6.14507E+03
 -1      2126-1.83192E+04-1.30028E+03 6.14507E+03
 -1      2127-2.74634E+04-1.22003E+03 7.19635E+03
 -1      2129-2.74634E+04-1.22003E+03 7.19635E+03
 -1      2130-3.65377E+04-1.21969E+03 7.64714E+03
 -1      2132-3.65377E+04-1.21969E+03 7.64714E+03
 -1      2133-4.55389E+04-1.21298E+03 7.94184E+03
 -1      2135-4.55389E+04-1.21298E+03 7.94184E+03
 -1      2136-5.44311E+04-1.19284E+03 8.10600E+03
 -1      2138-5.44311E+04-1.19284E+03 8.10600E+03
 -1      2139-6.31839E+04-1.17262E+03 8.21172E+03
 -1      2141-6.31839E+04-1.17262E+03 8.21172E+03
 -1      2142-7.17678E+04-1.14755E+03 8.25016E+03
 -1      2144-7.17678E+04-1.14755E+03 8.25016E+03
 -1      2145-8.01571E+04-1.11955E+03 8.23430E+03
 -1      2147-8.01571E+04-1.11955E+03 8.23430E+03
 -1      2148-8.83272E+04-1.08825E+03 8.16421E+03
 -1      2150-8.83272E+04-1.08825E+03 8.16421E+03
 -1      2151-9.62551E+04-1.05401E+03 8.04569E+03
 -1      2153-9.62551E+04-1.05401E+03 8.04569E+03
 -1      2154-1.03919E+05-1.01682E+03 7.88204E+03
 -1      2156-1.03919E+05-1.01682E+03 7.88204E+03
 -1      2157-1.11297E+05-9.76842E+02 7.67784E+03
 -1      2159-1.11297E+05-9.76842E+02 7.67784E+03
 -1      2160-1.18369E+05-9.34164E+02 7.43682E+03
 -1      2162-1.18369E+05-9.34164E+02 7.43682E+03
 -1      2163-1.25116E+05-8.88923E+02 7.16293E+03
 -1      2165-1.25116E+05-8.88923E+02 7.16293E+03
 -1      2166-1.31519E+05-8.41232E+02 6.85974E+03
 -1      2168-1.31519E+05-8.41232E+02 6.85974E+03
 -1      2169-1.37560E+05-7.91230E+02 6.53080E+03
 -1      2171-1.37560E+05-7.91230E+02 6.53080E+03
 -1      2172-1.43223E+05-7.39050E+02 6.17952E+03
 -1      2174-1.43223E+05-7.39050E+02 6.17952E+03
 -1      2175-1.48493E+05-6.84838E+02 5.80929E+03
 -1      2177-1.48493E+05-6.84838E+02 5.80929E+03
 -1      2178-1.53354E+05-6.28743E+02 5.42350E+03
 -1      2180-1.53354E+05-6.28743E+02 5.42350E+03
 -1      2181-1.57794E+05-5.70919E+02 5.02559E+03
 -1      2183-1.57794E+05-5.70919E+02 5.02559E+03
 -1      2184-1.61800E+05-5.11528E+02 4.61909E+03
 -1      2186-1.61800E+05-5.11528E+02 4.61909E+03
 -1      2187-1.65361E+05-4.50732E+02 4.20766E+03
 -1      2189-1.65361E+05-4.50732E+02 4.20766E+03
 -1      2190-1.68467E+05-3.88703E+02 3.79519E+03
 -1      2192-1.68467E+05-3.88703E+02 3.79519E+03
 -1      2193-1.71111E+05-3.25613E+02 3.38575E+03
 -1      2195-1.71111E+05-3.25613E+02 3.38575E+03
 -1      2196-1.73284E+05-2.61650E+02 2.98413E+03
 -1      2198-1.73284E+05-2.61650E+02 2.98413E+03
 -1      2199-1.74982E+05-1.97028E+02 2.59569E+03
 -1      2201-1.74982E+05-1.97028E+02 2.59569E+03
 -1      2202-1.76199E+05-1.31789E+02 2.22874E+03
 -1      2204-1.76199E+05-1.31789E+02 2.22874E+03
 -1      2205-1.76932E+05-6.65564E+01 1.90180E+03
 -1      2207-1.76932E+05-6.65564E+01 1.90180E+03
 -1      2208-9.13449E+03 1.05804E+03 3.63941E+03
 -1      2210-9.13449E+03 1.05804E+03 3.63941E+03
 -1      2211-1.83192E+04 1.30028E+03 6.14507E+03
 -1      2213-1.83192E+04 1.30028E+03 6.14507E+03
 -1      2214-2.74634E+04 1.22003E+03 7.19635E+03
 -1      2216-2.74634E+04 1.22003E+03 7.19635E+03
 -1      2217-3.65377E+04 1.21969E+03 7.64714E+03
 -1      2219-3.65377E+04 1.21969E+03 7.64714E+03
 -1      2220-4.55389E+04 1.21298E+03 7.94184E+03
 -1      2222-4.55389E+04 1.21298E+03 7.94184E+03
 -1      2223-5.44311E+04 1.19284E+03 8.10600E+03
 -1      2225-5.44311E+04 1.19284E+03 8.10600E+03
 -1      2226-6.31839E+04 1.17262E+03 8.21172E+03
 -1      2228-6.31839E+04 1.17262E+03 8.21172E+03
 -1      2229-7.17678E+04 1.14755E+03 8.25016E+03
 -1      2231-7.17678E+04 1.14755E+03 8.25016E+03
 -1      2232-8.01571E+04 1.11955E+03 8.23430E+03
 -1      2234-8.01571E+04 1.11955E+03 8.23430E+03
 -1      2235-8.83272E+04 1.08825E+03 8.16421E+03
 -1      2237-8.83272E+04 1.08825E+03 8.16421E+03
 -1      2238-9.62551E+04 1.05401E+03 8.04569E+03
 -1      2240-9.62551E+04 1.05401E+03 8.04569E+03
 -1      2241-1.03919E+05 1.01682E+03 7.88204E+03
 -1      2243-1.03919E+05 1.01682E+03 7.88204E+03
 -1      2244-1.11297E+05 9.76842E+02 7.67784E+03
 -1      2246-1.11297E+05 9.76842E+02 7.67784E+03
 -1      2247-1.18369E+05 9.34164E+02 7.43682E+03
 -1      2249-1.18369E+05 9.34164E+02 7.43682E+03
 -1      2250-1.25116E+05 8.88923E+02 7.16293E+03
 -1      2252-1.25116E+05 8.88923E+02 7.16293E+03
 -1      2253-1.31519E+05 8.41232E+02 6.85974E+03
 -1      2255-1.31519E+05 8.41232E+02 6.85974E+03
 -1      2256-1.37560E+05 7.91230E+02 6.53080E+03
 -1      2258-1.37560E+05 7.91230E+02 6.53080E+03
 -1      2259-1.43223E+05 7.39050E+02 6.17952E+03
 -1      2261-1.43223E+05 7.39050E+02 6.17952E+03
 -1      2262-1.48493E+05 6.84838E+02 5.80929E+03
 -1      2264-1.48493E+05 6.84838E+02 5.80929E+03
 -1      2265-1.53354E+05 6.28743E+02 5.42350E+03
 -1      2267-1.53354E+05 6.28743E+02 5.42350E+03
 -1      2268-1.57794E+05 5.70919E+02 5.02559E+03
 -1      2270-1.57794E+05 5.70919E+02 5.02559E+03
 -1      2271-1.61800E+05 5.11528E+02 4.61909E+03
 -1      2273-1.61800E+05 5.11528E+02 4.61909E+03
 -1      2274-1.65361E+05 4.50732E+02 4.20766E+03
 -1      2276-1.65361E+05 4.50732E+02 4.20766E+03
 -1      2277-1.68467E+05 3.88703E+02 3.79519E+03
 -1      2279-1.68467E+05 3.88703E+02 3.79519E+03
 -1      2280-1.71111E+05 3.25613E+02 3.38575E+03
 -1      2282-1.71111E+05 3.25613E+02 3.38575E+03
 -1      2283-1.73284E+05 2.61650E+02 2.98413E+03
 -1      2285-1.73284E+05 2.61650E+02 2.98413E+03
 -1      2286-1.74982E+05 1.97028E+02 2.59569E+03
 -1      2288-1.74982E+05 1.97028E+02 2.59569E+03
 -1      2289-1.76199E+05 1.31789E+02 2.22874E+03
 -1      2291-1.76199E+05 1.31789E+02 2.22874E+03
 -1      2292-1.76932E+05 6.65564E+01 1.90180E+03
 -1      2294-1.76932E+05 6.65564E+01 1.90180E+03
 -3
    1PSTEP                        52           1           1          
    1PGM                1.000000E+00                                  
    1PGK                7.351924E+06                                  
    1PHID                         -1                                  
    1PSUBC                         0                                  
    1PMODE                        13                                  
  100CL  113 431.5395805         930                     2   13MODAL      1
 -4  ERROR       1    1
 -5  STR(%)      1    1    0    0
 -1       404 0.00000E+00
 -1       406 0.00000E+00
 -1       407 0.00000E+00
 -1       409 0.00000E+00
 -1       410 0.00000E+00
 -1       412 0.00000E+00
 -1       413 0.00000E+00
 -1       415 0.00000E+00
 -1       424 0.00000E+00
 -1       426 0.00000E+00
 -1       427 0.00000E+00
 -1       429 0.00000E+00
 -1       438 0.00000E+00
 -1       440 0.00000E+00
 -1       441 0.00000E+00
 -1       443 0.00000E+00
 -1       444 0.00000E+00
 -1       446 0.00000E+00
 -1       447 0.00000E+00
 -1       449 0.00000E+00
 -1       458 0.00000E+00
 -1       460 0.00000E+00
 -1       461 0.00000E+00
 -1       463 0.00000E+00
 -1       472 0.00000E+00
 -1       474 0.00000E+00
 -1       475 0.00000E+00
 -1       477 0.00000E+00
 -1       478 0.00000E+00
 -1       480 0.00000E+00
 -1       481 0.00000E+00
 -1       483 0.00000E+00
 -1       484 0.00000E+00
 -1       486 0.00000E+00
 -1       487 0.00000E+00
 -1       489 0.00000E+00
 -1       490 0.00000E+00
 -1       492 0.00000E+00
 -1       493 0.00000E+00
 -1       495 0.00000E+00
 -1       496 0.00000E+00
 -1       498 0.00000E+00
 -1       499 0.00000E+00
 -1       501 0.00000E+00
 -1       502 0.00000E+00
 -1       504 0.00000E+00
 -1       505 0.00000E+00
 -1       507 0.00000E+00
 -1       508 0.00000E+00
 -1       510 0.00000E+00
 -1       511 0.00000E+00
 -1       513 0.00000E+00
 -1       514 0.00000E+00
 -1       516 0.00000E+00
 -1       517 0.00000E+00
 -1       519 0.00000E+00
 -1       520 0.00000E+00
 -1       522 0.00000E+00
 -1       523 0.00000E+00
 -1       525 0.00000E+00
 -1       526 0.00000E+00
 -1       528 0.00000E+00
 -1       529 0.00000E+00
 -1       531 0.00000E+00
 -1       532 0.00000E+00
 -1       534 0.00000E+00
 -1       535 0.00000E+00
 -1       537 0.00000E+00
 -1       538 0.00000E+00
 -1       540 0.00000E+00
 -1       541 0.00000E+00
 -1       543 0.00000E+00
 -1       544 0.00000E+00
 -1       546 0.00000E+00
 -1       547 0.00000E+00
 -1       549 0.00000E+00
 -1       550 0.00000E+00
 -1       552 0.00000E+00
 -1       553 0.00000E+00
 -1       555 0.00000E+00
 -1       556 0.00000E+00
 -1       558 0.00000E+00
 -1       559 0.00000E+00
 -1       561 0.00000E+00
 -1       562 0.00000E+00
 -1       564 0.00000E+00
 -1       565 0.00000E+00
 -1       567 0.00000E+00
 -1       568 0.00000E+00
 -1       570 0.00000E+00
 -1       571 0.00000E+00
 -1       573 0.00000E+00
 -1       574 0.00000E+00
 -1       576 0.00000E+00
 -1       577 0.00000E+00
 -1       579 0.00000E+00
 -1       588 0.00000E+00
 -1       590 0.00000E+00
 -1       591 0.00000E+00
 -1       593 0.00000E+00
 -1       602 0.00000E+00
 -1       604 0.00000E+00
 -1       605 0.00000E+00
 -1       607 0.00000E+00
 -1       616 0.00000E+00
 -1       618 0.00000E+00
 -1       619 0.00000E+00
 -1       621 0.00000E+00
 -1       630 0.00000E+00
 -1       632 0.00000E+00
 -1       633 0.00000E+00
 -1       635 0.00000E+00
 -1       644 0.00000E+00
 -1       646 0.00000E+00
 -1       647 0.00000E+00
 -1       649 0.00000E+00
 -1       658 0.00000E+00
 -1       660 0.00000E+00
 -1       661 0.00000E+00
 -1       663 0.00000E+00
 -1       672 0.00000E+00
 -1       674 0.00000E+00
 -1       675 0.00000E+00
 -1       677 0.00000E+00
 -1       686 0.00000E+00
 -1       688 0.00000E+00
 -1       689 0.00000E+00
 -1       691 0.00000E+00
 -1       700 0.00000E+00
 -1       702 0.00000E+00
 -1       703 0.00000E+00
 -1       705 0.00000E+00
 -1       714 0.00000E+00
 -1       716 0.00000E+00
 -1       717 0.00000E+00
 -1       719 0.00000E+00
 -1       728 0.00000E+00
 -1       730 0.00000E+00
 -1       731 0.00000E+00
 -1       733 0.00000E+00
 -1       742 0.00000E+00
 -1       744 0.00000E+00
 -1       745 0.00000E+00
 -1       747 0.00000E+00
 -1       756 0.00000E+00
 -1       758 0.00000E+00
 -1       759 0.00000E+00
 -1       761 0.00000E+00
 -1       770 0.00000E+00
 -1       772 0.00000E+00
 -1       773 0.00000E+00
 -1       775 0.00000E+00
 -1       784 0.00000E+00
 -1       786 0.00000E+00
 -1       787 0.00000E+00
 -1       789 0.00000E+00
 -1       798 0.00000E+00
 -1       800 0.00000E+00
 -1       801 0.00000E+00
 -1       803 0.00000E+00
 -1       812 0.00000E+00
 -1       814 0.00000E+00
 -1       815 0.00000E+00
 -1       817 0.00000E+00
 -1       826 0.00000E+00
 -1       828 0.00000E+00
 -1       829 0.00000E+00
 -1       831 0.00000E+00
 -1       840 0.00000E+00
 -1       842 0.00000E+00
 -1       843 0.00000E+00
 -1       845 0.00000E+00
 -1       854 0.00000E+00
 -1       856 0.00000E+00
 -1       857 0.00000E+00
 -1       859 0.00000E+00
 -1       868 0.00000E+00
 -1       870 0.00000E+00
 -1       871 0.00000E+00
 -1       873 0.00000E+00
 -1       882 0.00000E+00
 -1       884 0.00000E+00
 -1       885 0.00000E+00
 -1       887 0.00000E+00
 -1       896 0.00000E+00
 -1       898 0.00000E+00
 -1       899 0.00000E+00
 -1       901 0.00000E+00
 -1       910 0.00000E+00
 -1       912 0.00000E+00
 -1       913 0.00000E+00
 -1       915 0.00000E+00
 -1       924 0.00000E+00
 -1       926 0.00000E+00
 -1       927 0.00000E+00
 -1       929 0.00000E+00
 -1       938 0.00000E+00
 -1       940 0.00000E+00
 -1       941 0.00000E+00
 -1       943 0.00000E+00
 -1       952 0.00000E+00
 -1       954 0.00000E+00
 -1       955 0.00000E+00
 -1       957 0.00000E+00
 -1       966 0.00000E+00
 -1       968 0.00000E+00
 -1       969 0.00000E+00
 -1       971 0.00000E+00
 -1       980 0.00000E+00
 -1       982 0.00000E+00
 -1       983 0.00000E+00
 -1       985 0.00000E+00
 -1       986 0.00000E+00
 -1       988 0.00000E+00
 -1       989 0.00000E+00
 -1       991 0.00000E+00
 -1       992 0.00000E+00
 -1       994 0.00000E+00
 -1       995 0.00000E+00
 -1       997 0.00000E+00
 -1       998 0.00000E+00
 -1      1000 0.00000E+00
 -1      1001 0.00000E+00
 -1      1003 0.00000E+00
 -1      1004 0.00000E+00
 -1      1006 0.00000E+00
 -1      1007 0.00000E+00
 -1      1009 0.00000E+00
 -1      1010 0.00000E+00
 -1      1012 0.00000E+00
 -1      1013 0.00000E+00
 -1      1015 0.00000E+00
 -1      1016 0.00000E+00
 -1      1018 0.00000E+00
 -1      1019 0.00000E+00
 -1      1021 0.00000E+00
 -1      1022 0.00000E+00
 -1      1024 0.00000E+00
 -1      1025 0.00000E+00
 -1      1027 0.00000E+00
 -1      1028 0.00000E+00
 -1      1030 0.00000E+00
 -1      1031 0.00000E+00
 -1      1033 0.00000E+00
 -1      1034 0.00000E+00
 -1      1036 0.00000E+00
 -1      1037 0.00000E+00
 -1      1039 0.00000E+00
 -1      1040 0.00000E+00
 -1      1042 0.00000E+00
 -1      1043 0.00000E+00
 -1      1045 0.00000E+00
 -1      1046 0.00000E+00
 -1      1048 0.00000E+00
 -1      1049 0.00000E+00
 -1      1051 0.00000E+00
 -1      1052 0.00000E+00
 -1      1054 0.00000E+00
 -1      1055 0.00000E+00
 -1      1057 0.00000E+00
 -1      1058 0.00000E+00
 -1      1060 0.00000E+00
 -1      1061 0.00000E+00
 -1      1063 0.00000E+00
 -1      1064 0.00000E+00
 -1      1066 0.00000E+00
 -1      1067 0.00000E+00
 -1      1069 0.00000E+00
 -1      1070 0.00000E+00
 -1      1072 0.00000E+00
 -1      1073 0.00000E+00
 -1      1075 0.00000E+00
 -1      1076 0.00000E+00
 -1      1078 0.00000E+00
 -1      1079 0.00000E+00
 -1      1081 0.00000E+00
 -1      1082 0.00000E+00
 -1      1084 0.00000E+00
 -1      1085 0.00000E+00
 -1      1087 0.00000E+00
 -1      1088 0.00000E+00
 -1      1090 0.00000E+00
 -1      1099 0.00000E+00
 -1      1101 0.00000E+00
 -1      1102 0.00000E+00
 -1      1104 0.00000E+00
 -1      1113 0.00000E+00
 -1      1115 0.00000E+00
 -1      1116 0.00000E+00
 -1      1118 0.00000E+00
 -1      1127 0.00000E+00
 -1      1129 0.00000E+00
 -1      1130 0.00000E+00
 -1      1132 0.00000E+00
 -1      1141 0.00000E+00
 -1      1143 0.00000E+00
 -1      1144 0.00000E+00
 -1      1146 0.00000E+00
 -1      1155 0.00000E+00
 -1      1157 0.00000E+00
 -1      1158 0.00000E+00
 -1      1160 0.00000E+00
 -1      1169 0.00000E+00
 -1      1171 0.00000E+00
 -1      1172 0.00000E+00
 -1      1174 0.00000E+00
 -1      1183 0.00000E+00
 -1      1185 0.00000E+00
 -1      1186 0.00000E+00
 -1      1188 0.00000E+00
 -1      1197 0.00000E+00
 -1      1199 0.00000E+00
 -1      1200 0.00000E+00
 -1      1202 0.00000E+00
 -1      1211 0.00000E+00
 -1      1213 0.00000E+00
 -1      1214 0.00000E+00
 -1      1216 0.00000E+00
 -1      1225 0.00000E+00
 -1      1227 0.00000E+00
 -1      1228 0.00000E+00
 -1      1230 0.00000E+00
 -1      1239 0.00000E+00
 -1      1241 0.00000E+00
 -1      1242 0.00000E+00
 -1      1244 0.00000E+00
 -1      1253 0.00000E+00
 -1      1255 0.00000E+00
 -1      1256 0.00000E+00
 -1      1258 0.00000E+00
 -1      1267 0.00000E+00
 -1      1269 0.00000E+00
 -1      1270 0.00000E+00
 -1      1272 0.00000E+00
 -1      1281 0.00000E+00
 -1      1283 0.00000E+00
 -1      1284 0.00000E+00
 -1      1286 0.00000E+00
 -1      1295 0.00000E+00
 -1      1297 0.00000E+00
 -1      1298 0.00000E+00
 -1      1300 0.00000E+00
 -1      1309 0.00000E+00
 -1      1311 0.00000E+00
 -1      1312 0.00000E+00
 -1      1314 0.00000E+00
 -1      1323 0.00000E+00
 -1      1325 0.00000E+00
 -1      1326 0.00000E+00
 -1      1328 0.00000E+00
 -1      1337 0.00000E+00
 -1      1339 0.00000E+00
 -1      1340 0.00000E+00
 -1      1342 0.00000E+00
 -1      1351 0.00000E+00
 -1      1353 0.00000E+00
 -1      1354 0.00000E+00
 -1      1356 0.00000E+00
 -1      1365 0.00000E+00
 -1      1367 0.00000E+00
 -1      1368 0.00000E+00
 -1      1370 0.00000E+00
 -1      1379 0.00000E+00
 -1      1381 0.00000E+00
 -1      1382 0.00000E+00
 -1      1384 0.00000E+00
 -1      1393 0.00000E+00
 -1      1395 0.00000E+00
 -1      1396 0.00000E+00
 -1      1398 0.00000E+00
 -1      1407 0.00000E+00
 -1      1409 0.00000E+00
 -1      1410 0.00000E+00
 -1      1412 0.00000E+00
 -1      1421 0.00000E+00
 -1      1423 0.00000E+00
 -1      1424 0.00000E+00
 -1      1426 0.00000E+00
 -1      1435 0.00000E+00
 -1      1437 0.00000E+00
 -1      1438 0.00000E+00
 -1      1440 0.00000E+00
 -1      1449 0.00000E+00
 -1      1451 0.00000E+00
 -1      1452 0.00000E+00
 -1      1454 0.00000E+00
 -1      1463 0.00000E+00
 -1      1465 0.00000E+00
 -1      1466 0.00000E+00
 -1      1468 0.00000E+00
 -1      1477 0.00000E+00
 -1      1479 0.00000E+00
 -1      1480 0.00000E+00
 -1      1482 0.00000E+00
 -1      1491 0.00000E+00
 -1      1493 0.00000E+00
 -1      1494 0.00000E+00
 -1      1496 0.00000E+00
 -1      1497 0.00000E+00
 -1      1499 0.00000E+00
 -1      1500 0.00000E+00
 -1      1502 0.00000E+00
 -1      1503 0.00000E+00
 -1      1505 0.00000E+00
 -1      1506 0.00000E+00
 -1      1508 0.00000E+00
 -1      1509 0.00000E+00
 -1      1511 0.00000E+00
 -1      1512 0.00000E+00
 -1      1514 0.00000E+00
 -1      1515 0.00000E+00
 -1      1517 0.00000E+00
 -1      1518 0.00000E+00
 -1      1520 0.00000E+00
 -1      1521 0.00000E+00
 -1      1523 0.00000E+00
 -1      1524 0.00000E+00
 -1      1526 0.00000E+00
 -1      1527 0.00000E+00
 -1      1529 0.00000E+00
 -1      1530 0.00000E+00
 -1      1532 0.00000E+00
 -1      1533 0.00000E+00
 -1      1535 0.00000E+00
 -1      1536 0.00000E+00
 -1      1538 0.00000E+00
 -1      1539 0.00000E+00
 -1      1541 0.00000E+00
 -1      1542 0.00000E+00
 -1      1544 0.00000E+00
 -1      1545 0.00000E+00
 -1      1547 0.00000E+00
 -1      1548 0.00000E+00
 -1      1550 0.00000E+00
 -1      1551 0.00000E+00
 -1      1553 0.00000E+00
 -1      1554 0.00000E+00
 -1      1556 0.00000E+00
 -1      1557 0.00000E+00
 -1      1559 0.00000E+00
 -1      1560 0.00000E+00
 -1      1562 0.00000E+00
 -1      1563 0.00000E+00
 -1      1565 0.00000E+00
 -1      1566 0.00000E+00
 -1      1568 0.00000E+00
 -1      1569 0.00000E+00
 -1      1571 0.00000E+00
 -1      1572 0.00000E+00
 -1      1574 0.00000E+00
 -1      1575 0.00000E+00
 -1      1577 0.00000E+00
 -1      1578 0.00000E+00
 -1      1580 0.00000E+00
 -1      1581 0.00000E+00
 -1      1583 0.00000E+00
 -1      1584 0.00000E+00
 -1      1586 0.00000E+00
 -1      1587 0.00000E+00
 -1      1589 0.00000E+00
 -1      1590 0.00000E+00
 -1      1592 0.00000E+00
 -1      1593 0.00000E+00
 -1      1595 0.00000E+00
 -1      1596 0.00000E+00
 -1      1598 0.00000E+00
 -1      1599 0.00000E+00
 -1      1601 0.00000E+00
 -1      1602 0.00000E+00
 -1      1604 0.00000E+00
 -1      1605 0.00000E+00
 -1      1607 0.00000E+00
 -1      1608 0.00000E+00
 -1      1610 0.00000E+00
 -1      1611 0.00000E+00
 -1      1613 0.00000E+00
 -1      1614 0.00000E+00
 -1      1616 0.00000E+00
 -1      1617 0.00000E+00
 -1      1619 0.00000E+00
 -1      1620 0.00000E+00
 -1      1622 0.00000E+00
 -1      1623 0.00000E+00
 -1      1625 0.00000E+00
 -1      1626 0.00000E+00
 -1      1628 0.00000E+00
 -1      1629 0.00000E+00
 -1      1631 0.00000E+00
 -1      1632 0.00000E+00
 -1      1634 0.00000E+00
 -1      1635 0.00000E+00
 -1      1637 0.00000E+00
 -1      1638 0.00000E+00
 -1      1640 0.00000E+00
 -1      1641 0.00000E+00
 -1      1643 0.00000E+00
 -1      1644 0.00000E+00
 -1      1646 0.00000E+00
 -1      1647 0.00000E+00
 -1      1649 0.00000E+00
 -1      1650 0.00000E+00
 -1      1652 0.00000E+00
 -1      1653 0.00000E+00
 -1      1655 0.00000E+00
 -1      1656 0.00000E+00
 -1      1658 0.00000E+00
 -1      1659 0.00000E+00
 -1      1661 0.00000E+00
 -1      1662 0.00000E+00
 -1      1664 0.00000E+00
 -1      1665 0.00000E+00
 -1      1667 0.00000E+00
 -1      1668 0.00000E+00
 -1      1670 0.00000E+00
 -1      1671 0.00000E+00
 -1      1673 0.00000E+00
 -1      1674 0.00000E+00
 -1      1676 0.00000E+00
 -1      1677 0.00000E+00
 -1      1679 0.00000E+00
 -1      1680 0.00000E+00
 -1      1682 0.00000E+00
 -1      1683 0.00000E+00
 -1      1685 0.00000E+00
 -1      1686 0.00000E+00
 -1      1688 0.00000E+00
 -1      1689 0.00000E+00
 -1      1691 0.00000E+00
 -1      1692 0.00000E+00
 -1      1694 0.00000E+00
 -1      1695 0.00000E+00
 -1      1697 0.00000E+00
 -1      1698 0.00000E+00
 -1      1700 0.00000E+00
 -1      1701 0.00000E+00
 -1      1703 0.00000E+00
 -1      1704 0.00000E+00
 -1      1706 0.00000E+00
 -1      1707 0.00000E+00
 -1      1709 0.00000E+00
 -1      1710 0.00000E+00
 -1      1712 0.00000E+00
 -1      1713 0.00000E+00
 -1      1715 0.00000E+00
 -1      1716 0.00000E+00
 -1      1718 0.00000E+00
 -1      1719 0.00000E+00
 -1      1721 0.00000E+00
 -1      1722 0.00000E+00
 -1      1724 0.00000E+00
 -1      1725 0.00000E+00
 -1      1727 0.00000E+00
 -1      1728 0.00000E+00
 -1      1730 0.00000E+00
 -1      1731 0.00000E+00
 -1      1733 0.00000E+00
 -1      1734 0.00000E+00
 -1      1736 0.00000E+00
 -1      1737 0.00000E+00
 -1      1739 0.00000E+00
 -1      1740 0.00000E+00
 -1      1742 0.00000E+00
 -1      1743 0.00000E+00
 -1      1745 0.00000E+00
 -1      1746 0.00000E+00
 -1      1748 0.00000E+00
 -1      1749 0.00000E+00
 -1      1751 0.00000E+00
 -1      1752 0.00000E+00
 -1      1754 0.00000E+00
 -1      1755 0.00000E+00
 -1      1757 0.00000E+00
 -1      1758 0.00000E+00
 -1      1760 0.00000E+00
 -1      1761 0.00000E+00
 -1      1763 0.00000E+00
 -1      1764 0.00000E+00
 -1      1766 0.00000E+00
 -1      1767 0.00000E+00
 -1      1769 0.00000E+00
 -1      1770 0.00000E+00
 -1      1772 0.00000E+00
 -1      1773 0.00000E+00
 -1      1775 0.00000E+00
 -1      1776 0.00000E+00
 -1      1778 0.00000E+00
 -1      1779 0.00000E+00
 -1      1781 0.00000E+00
 -1      1782 0.00000E+00
 -1      1784 0.00000E+00
 -1      1785 0.00000E+00
 -1      1787 0.00000E+00
 -1      1788 0.00000E+00
 -1      1790 0.00000E+00
 -1      1791 0.00000E+00
 -1      1793 0.00000E+00
 -1      1794 0.00000E+00
 -1      1796 0.00000E+00
 -1      1797 0.00000E+00
 -1      1799 0.00000E+00
 -1      1800 0.00000E+00
 -1      1802 0.00000E+00
 -1      1803 0.00000E+00
 -1      1805 0.00000E+00
 -1      1806 0.00000E+00
 -1      1808 0.00000E+00
 -1      1809 0.00000E+00
 -1      1811 0.00000E+00
 -1      1812 0.00000E+00
 -1      1814 0.00000E+00
 -1      1815 0.00000E+00
 -1      1817 0.00000E+00
 -1      1818 0.00000E+00
 -1      1820 0.00000E+00
 -1      1821 0.00000E+00
 -1      1823 0.00000E+00
 -1      1824 0.00000E+00
 -1      1826 0.00000E+00
 -1      1827 0.00000E+00
 -1      1829 0.00000E+00
 -1      1830 0.00000E+00
 -1      1832 0.00000E+00
 -1      1833 0.00000E+00
 -1      1835 0.00000E+00
 -1      1836 0.00000E+00
 -1      1838 0.00000E+00
 -1      1839 0.00000E+00
 -1      1841 0.00000E+00
 -1      1842 0.00000E+00
 -1      1844 0.00000E+00
 -1      1845 0.00000E+00
 -1      1847 0.00000E+00
 -1      1848 0.00000E+00
 -1      1850 0.00000E+00
 -1      1851 0.00000E+00
 -1      1853 0.00000E+00
 -1      1854 0.00000E+00
 -1      1856 0.00000E+00
 -1      1857 0.00000E+00
 -1      1859 0.00000E+00
 -1      1860 0.00000E+00
 -1      1862 0.00000E+00
 -1      1863 0.00000E+00
 -1      1865 0.00000E+00
 -1      1866 0.00000E+00
 -1      1868 0.00000E+00
 -1      1869 0.00000E+00
 -1      1871 0.00000E+00
 -1      1872 0.00000E+00
 -1      1874 0.00000E+00
 -1      1875 0.00000E+00
 -1      1877 0.00000E+00
 -1      1878 0.00000E+00
 -1      1880 0.00000E+00
 -1      1881 0.00000E+00
 -1      1883 0.00000E+00
 -1      1884 0.00000E+00
 -1      1886 0.00000E+00
 -1      1887 0.00000E+00
 -1      1889 0.00000E+00
 -1      1890 0.00000E+00
 -1      1892 0.00000E+00
 -1      1893 0.00000E+00
 -1      1895 0.00000E+00
 -1      1896 0.00000E+00
 -1      1898 0.00000E+00
 -1      1899 0.00000E+00
 -1      1901 0.00000E+00
 -1      1902 0.00000E+00
 -1      1904 0.00000E+00
 -1      1905 0.00000E+00
 -1      1907 0.00000E+00
 -1      1908 0.00000E+00
 -1      1910 0.00000E+00
 -1      1911 0.00000E+00
 -1      1913 0.00000E+00
 -1      1914 0.00000E+00
 -1      1916 0.00000E+00
 -1      1917 0.00000E+00
 -1      1919 0.00000E+00
 -1      1920 0.00000E+00
 -1      1922 0.00000E+00
 -1      1923 0.00000E+00
 -1      1925 0.00000E+00
 -1      1926 0.00000E+00
 -1      1928 0.00000E+00
 -1      1929 0.00000E+00
 -1      1931 0.00000E+00
 -1      1932 0.00000E+00
 -1      1934 0.00000E+00
 -1      1935 0.00000E+00
 -1      1937 0.00000E+00
 -1      1938 0.00000E+00
 -1      1940 0.00000E+00
 -1      1941 0.00000E+00
 -1      1943 0.00000E+00
 -1      1944 0.00000E+00
 -1      1946 0.00000E+00
 -1      1947 0.00000E+00
 -1      1949 0.00000E+00
 -1      1950 0.00000E+00
 -1      1952 0.00000E+00
 -1      1953 0.00000E+00
 -1      1955 0.00000E+00
 -1      1956 0.00000E+00
 -1      1958 0.00000E+00
 -1      1959 0.00000E+00
 -1      1961 0.00000E+00
 -1      1962 0.00000E+00
 -1      1964 0.00000E+00
 -1      1965 0.00000E+00
 -1      1967 0.00000E+00
 -1      1968 0.00000E+00
 -1      1970 0.00000E+00
 -1      1971 0.00000E+00
 -1      1973 0.00000E+00
 -1      1974 0.00000E+00
 -1      1976 0.00000E+00
 -1      1977 0.00000E+00
 -1      1979 0.00000E+00
 -1      1980 0.00000E+00
 -1      1982 0.00000E+00
 -1      1983 0.00000E+00
 -1      1985 0.00000E+00
 -1      1986 0.00000E+00
 -1      1988 0.00000E+00
 -1      1989 0.00000E+00
 -1      1991 0.00000E+00
 -1      1992 0.00000E+00
 -1      1994 0.00000E+00
 -1      1995 0.00000E+00
 -1      1997 0.00000E+00
 -1      1998 0.00000E+00
 -1      2000 0.00000E+00
 -1      2001 0.00000E+00
 -1      2003 0.00000E+00
 -1      2004 0.00000E+00
 -1      2006 0.00000E+00
 -1      2007 0.00000E+00
 -1      2009 0.00000E+00
 -1      2010 0.00000E+00
 -1      2012 0.00000E+00
 -1      2013 0.00000E+00
 -1      2015 0.00000E+00
 -1      2016 0.00000E+00
 -1      2018 0.00000E+00
 -1      2019 0.00000E+00
 -1      2021 0.00000E+00
 -1      2022 0.00000E+00
 -1      2024 0.00000E+00
 -1      2025 0.00000E+00
 -1      2027 0.00000E+00
 -1      2028 0.00000E+00
 -1      2030 0.00000E+00
 -1      2031 0.00000E+00
 -1      2033 0.00000E+00
 -1      2034 0.00000E+00
 -1      2036 0.00000E+00
 -1      2037 0.00000E+00
 -1      2039 0.00000E+00
 -1      2040 0.00000E+00
 -1      2042 0.00000E+00
 -1      2043 0.00000E+00
 -1      2045 0.00000E+00
 -1      2046 0.00000E+00
 -1      2048 0.00000E+00
 -1      2049 0.00000E+00
 -1      2051 0.00000E+00
 -1      2052 0.00000E+00
 -1      2054 0.00000E+00
 -1      2055 0.00000E+00
 -1      2057 0.00000E+00
 -1      2058 0.00000E+00
 -1      2060 0.00000E+00
 -1      2061 0.00000E+00
 -1      2063 0.00000E+00
 -1      2064 0.00000E+00
 -1      2066 0.00000E+00
 -1      2067 0.00000E+00
 -1      2069 0.00000E+00
 -1      2070 0.00000E+00
 -1      2072 0.00000E+00
 -1      2073 0.00000E+00
 -1      2075 0.00000E+00
 -1      2076 0.00000E+00
 -1      2078 0.00000E+00
 -1      2079 0.00000E+00
 -1      2081 0.00000E+00
 -1      2082 0.00000E+00
 -1      2084 0.00000E+00
 -1      2085 0.00000E+00
 -1      2087 0.00000E+00
 -1      2088 0.00000E+00
 -1      2090 0.00000E+00
 -1      2091 0.00000E+00
 -1      2093 0.00000E+00
 -1      2094 0.00000E+00
 -1      2096 0.00000E+00
 -1      2097 0.00000E+00
 -1      2099 0.00000E+00
 -1      2100 0.00000E+00
 -1      2102 0.00000E+00
 -1      2103 0.00000E+00
 -1      2105 0.00000E+00
 -1      2106 0.00000E+00
 -1      2108 0.00000E+00
 -1      2109 0.00000E+00
 -1      2111 0.00000E+00
 -1      2112 0.00000E+00
 -1      2114 0.00000E+00
 -1      2115 0.00000E+00
 -1      2117 0.00000E+00
 -1      2118 0.00000E+00
 -1      2120 0.00000E+00
 -1      2121 0.00000E+00
 -1      2123 0.00000E+00
 -1      2124 0.00000E+00
 -1      2126 0.00000E+00
 -1      2127 0.00000E+00
 -1      2129 0.00000E+00
 -1      2130 0.00000E+00
 -1      2132 0.00000E+00
 -1      2133 0.00000E+00
 -1      2135 0.00000E+00
 -1      2136 0.00000E+00
 -1      2138 0.00000E+00
 -1      2139 0.00000E+00
 -1      2141 0.00000E+00
 -1      2142 0.00000E+00
 -1      2144 0.00000E+00
 -1      2145 0.00000E+00
 -1      2147 0.00000E+00
 -1      2148 0.00000E+00
 -1      2150 0.00000E+00
 -1      2151 0.00000E+00
 -1      2153 0.00000E+00
 -1      2154 0.00000E+00
 -1      2156 0.00000E+00
 -1      2157 0.00000E+00
 -1      2159 0.00000E+00
 -1      2160 0.00000E+00
 -1      2162 0.00000E+00
 -1      2163 0.00000E+00
 -1      2165 0.00000E+00
 -1      2166 0.00000E+00
 -1      2168 0.00000E+00
 -1      2169 0.00000E+00
 -1      2171 0.00000E+00
 -1      2172 0.00000E+00
 -1      2174 0.00000E+00
 -1      2175 0.00000E+00
 -1      2177 0.00000E+00
 -1      2178 0.00000E+00
 -1      2180 0.00000E+00
 -1      2181 0.00000E+00
 -1      2183 0.00000E+00
 -1      2184 0.00000E+00
 -1      2186 0.00000E+00
 -1      2187 0.00000E+00
 -1      2189 0.00000E+00
 -1      2190 0.00000E+00
 -1      2192 0.00000E+00
 -1      2193 0.00000E+00
 -1      2195 0.00000E+00
 -1      2196 0.00000E+00
 -1      2198 0.00000E+00
 -1      2199 0.00000E+00
 -1      2201 0.00000E+00
 -1      2202 0.00000E+00
 -1      2204 0.00000E+00
 -1      2205 0.00000E+00
 -1      2207 0.00000E+00
 -1      2208 0.00000E+00
 -1      2210 0.00000E+00
 -1      2211 0.00000E+00
 -1      2213 0.00000E+00
 -1      2214 0.00000E+00
 -1      2216 0.00000E+00
 -1      2217 0.00000E+00
 -1      2219 0.00000E+00
 -1      2220 0.00000E+00
 -1      2222 0.00000E+00
 -1      2223 0.00000E+00
 -1      2225 0.00000E+00
 -1      2226 0.00000E+00
 -1      2228 0.00000E+00
 -1      2229 0.00000E+00
 -1      2231 0.00000E+00
 -1      2232 0.00000E+00
 -1      2234 0.00000E+00
 -1      2235 0.00000E+00
 -1      2237 0.00000E+00
 -1      2238 0.00000E+00
 -1      2240 0.00000E+00
 -1      2241 0.00000E+00
 -1      2243 0.00000E+00
 -1      2244 0.00000E+00
 -1      2246 0.00000E+00
 -1      2247 0.00000E+00
 -1      2249 0.00000E+00
 -1      2250 0.00000E+00
 -1      2252 0.00000E+00
 -1      2253 0.00000E+00
 -1      2255 0.00000E+00
 -1      2256 0.00000E+00
 -1      2258 0.00000E+00
 -1      2259 0.00000E+00
 -1      2261 0.00000E+00
 -1      2262 0.00000E+00
 -1      2264 0.00000E+00
 -1      2265 0.00000E+00
 -1      2267 0.00000E+00
 -1      2268 0.00000E+00
 -1      2270 0.00000E+00
 -1      2271 0.00000E+00
 -1      2273 0.00000E+00
 -1      2274 0.00000E+00
 -1      2276 0.00000E+00
 -1      2277 0.00000E+00
 -1      2279 0.00000E+00
 -1      2280 0.00000E+00
 -1      2282 0.00000E+00
 -1      2283 0.00000E+00
 -1      2285 0.00000E+00
 -1      2286 0.00000E+00
 -1      2288 0.00000E+00
 -1      2289 0.00000E+00
 -1      2291 0.00000E+00
 -1      2292 0.00000E+00
 -1      2294 0.00000E+00
 -3
    1PSTEP                        53           1           1          
    1PGM                1.000000E+00                                  
    1PGK                9.503010E+06                                  
    1PHID                         -1                                  
    1PSUBC                         0                                  
    1PMODE                        14                                  
  100CL  114 490.6261891         930                     2   14MODAL      1
 -4  DISP        4    1
 -5  D1          1    2    1    0
 -5  D2          1    2    2    0
 -5  D3          1    2    3    0
 -5  ALL         1    2    0    0    1ALL
 -1       404 0.00000E+00 0.00000E+00 2.84780E-05
 -1       406 0.00000E+00-0.00000E+00-2.84780E-05
 -1       407 1.74133E-04-1.64885E-02-2.45984E-01
 -1       409 3.17364E-04 2.65627E-02-2.45984E-01
 -1       410-1.43545E-13-6.09591E-03-6.24088E-13
 -1       412-1.28036E-13 1.61813E-02-6.24275E-13
 -1       413-1.13773E-05 5.04271E-03 7.09572E-03
 -1       415 1.13773E-05 5.04271E-03-7.09572E-03
 -1       424 0.00000E+00 0.00000E+00-7.26731E-16
 -1       426 0.00000E+00 0.00000E+00 7.26731E-16
 -1       427 0.00000E+00-4.62955E-16 0.00000E+00
 -1       429 0.00000E+00 4.62955E-16 0.00000E+00
 -1       438-1.74133E-04-1.64885E-02 2.45984E-01
 -1       440-3.17364E-04 2.65627E-02 2.45984E-01
 -1       441 0.00000E+00 0.00000E+00-2.84780E-05
 -1       443 0.00000E+00-0.00000E+00 2.84780E-05
 -1       444 0.00000E+00 6.99445E-16 0.00000E+00
 -1       446 0.00000E+00-6.99445E-16 0.00000E+00
 -1       447 0.00000E+00 0.00000E+00-1.09797E-15
 -1       449 0.00000E+00 0.00000E+00 1.09797E-15
 -1       458 1.13773E-05-5.04271E-03 7.09572E-03
 -1       460-1.13773E-05-5.04271E-03-7.09572E-03
 -1       461 3.37078E-13 6.09591E-03-6.12375E-13
 -1       463 3.20466E-13-1.61813E-02-6.12756E-13
 -1       472 0.00000E+00 0.00000E+00-2.84780E-05
 -1       474 0.00000E+00 0.00000E+00 2.84780E-05
 -1       475 1.74133E-04 1.64885E-02 2.45984E-01
 -1       477 3.17364E-04-2.65627E-02 2.45984E-01
 -1       478-1.74133E-04 1.64885E-02-2.45984E-01
 -1       480-3.17364E-04-2.65627E-02-2.45984E-01
 -1       481 0.00000E+00 0.00000E+00 2.84780E-05
 -1       483 0.00000E+00 0.00000E+00-2.84780E-05
 -1       484 4.61538E-03 2.43014E-03 3.11871E-02
 -1       486-3.10619E-03-3.74730E-03 3.11674E-02
 -1       487 3.07889E-03 4.46503E-03 7.28213E-02
 -1       489-5.82326E-04-8.23442E-03 7.28091E-02
 -1       490 4.14705E-03 5.81980E-03 1.06840E-01
 -1       492-1.09717E-03-1.29874E-02 1.06828E-01
 -1       493 3.57820E-03 6.90489E-03 1.40880E-01
 -1       495-3.18286E-04-1.77577E-02 1.40883E-01
 -1       496 3.49773E-03 7.58728E-03 1.70047E-01
 -1       498-3.29437E-04-2.22271E-02 1.70048E-01
 -1       499 2.89736E-03 8.09501E-03 1.95617E-01
 -1       501-1.03704E-04-2.61962E-02 1.95628E-01
 -1       502 2.32158E-03 8.43790E-03 2.16033E-01
 -1       504-1.01009E-04-2.94568E-02 2.16044E-01
 -1       505 1.54839E-03 8.70377E-03 2.31252E-01
 -1       507-8.60722E-05-3.18597E-02 2.31268E-01
 -1       508 7.45215E-04 8.93971E-03 2.40698E-01
 -1       510-1.31949E-04-3.32969E-02 2.40715E-01
 -1       511-1.13443E-04 9.15180E-03 2.44242E-01
 -1       513-1.80934E-04-3.36987E-02 2.44259E-01
 -1       514-9.52889E-04 9.36195E-03 2.41752E-01
 -1       516-2.21802E-04-3.30588E-02 2.41767E-01
 -1       517-1.75208E-03 9.52461E-03 2.33307E-01
 -1       519-2.35473E-04-3.14006E-02 2.33321E-01
 -1       520-2.46663E-03 9.62070E-03 2.19101E-01
 -1       522-2.01549E-04-2.88108E-02 2.19112E-01
 -1       523-3.07273E-03 9.57600E-03 1.99480E-01
 -1       525-1.14625E-04-2.53965E-02 1.99488E-01
 -1       526-3.54616E-03 9.34494E-03 1.74915E-01
 -1       528 3.48286E-05-2.13121E-02 1.74919E-01
 -1       529-3.87544E-03 8.85211E-03 1.46004E-01
 -1       531 2.40013E-04-1.67183E-02 1.46003E-01
 -1       532-4.05572E-03 8.05470E-03 1.13447E-01
 -1       534 4.95247E-04-1.17992E-02 1.13443E-01
 -1       535-4.09171E-03 6.90603E-03 7.80424E-02
 -1       537 7.82101E-04-6.72915E-03 7.80354E-02
 -1       538-3.99528E-03 5.39595E-03 4.06579E-02
 -1       540 1.08255E-03-1.68146E-03 4.06486E-02
 -1       541-3.78441E-03 3.52974E-03 2.21574E-03
 -1       543 1.37106E-03 3.19405E-03 2.20515E-03
 -1       544-3.48121E-03 1.34839E-03-3.63314E-02
 -1       546 1.62447E-03 7.76659E-03-3.63427E-02
 -1       547-3.11022E-03-1.08312E-03-7.40255E-02
 -1       549 1.81823E-03 1.19357E-02-7.40359E-02
 -1       550-2.69426E-03-3.67315E-03-1.09921E-01
 -1       552 1.93251E-03 1.56276E-02-1.09931E-01
 -1       553-2.25807E-03-6.30925E-03-1.43123E-01
 -1       555 1.95364E-03 1.87971E-02-1.43130E-01
 -1       556-1.81282E-03-8.86923E-03-1.72781E-01
 -1       558 1.86994E-03 2.14220E-02-1.72787E-01
 -1       559-1.38534E-03-1.12238E-02-1.98171E-01
 -1       561 1.69169E-03 2.35006E-02-1.98174E-01
 -1       562-9.52529E-04-1.32525E-02-2.18593E-01
 -1       564 1.40482E-03 2.50403E-02-2.18594E-01
 -1       565-5.74272E-04-1.48538E-02-2.33639E-01
 -1       567 1.07759E-03 2.60576E-02-2.33638E-01
 -1       568-1.25499E-04-1.59377E-02-2.42691E-01
 -1       570 6.24199E-04 2.65676E-02-2.42689E-01
 -1       571 8.54538E-05-1.54721E-02-1.05810E-01
 -1       573 1.53526E-04 2.55460E-02-1.05810E-01
 -1       574-2.60429E-14 8.68962E-04-8.65227E-14
 -1       576-6.21259E-15-1.80277E-03-8.62315E-14
 -1       577-1.22789E-04-4.66904E-04-8.50996E-04
 -1       579 1.22789E-04-4.66904E-04 8.50996E-04
 -1       588-2.07131E-14 1.38511E-03-1.91925E-13
 -1       590-1.34679E-14-5.25786E-03-1.92556E-13
 -1       591-1.21405E-05-1.93638E-03-2.11591E-03
 -1       593 1.21405E-05-1.93638E-03 2.11591E-03
 -1       602-1.57670E-14 1.37597E-03-2.69921E-13
 -1       604-5.13298E-15-8.31958E-03-2.70514E-13
 -1       605-1.54630E-04-3.47180E-03-3.08821E-03
 -1       607 1.54630E-04-3.47180E-03 3.08821E-03
 -1       616-1.88366E-15 8.84067E-04-3.42699E-13
 -1       618 5.17270E-15-1.18470E-02-3.43363E-13
 -1       619-4.42660E-05-5.48145E-03-4.05507E-03
 -1       621 4.42660E-05-5.48145E-03 4.05507E-03
 -1       630 1.63407E-14 4.02335E-04-4.03961E-13
 -1       632 2.36551E-14-1.49659E-02-4.05003E-13
 -1       633-1.30956E-04-7.28178E-03-4.89507E-03
 -1       635 1.30956E-04-7.28178E-03 4.89507E-03
 -1       644 4.22133E-14-3.03021E-04-4.54634E-13
 -1       646 4.71736E-14-1.79093E-02-4.56220E-13
 -1       647-4.90474E-05-9.10618E-03-5.60794E-03
 -1       649 4.90474E-05-9.10618E-03 5.60794E-03
 -1       658 7.24811E-14-7.93128E-04-4.84267E-13
 -1       660 7.43459E-14-2.02480E-02-4.85849E-13
 -1       661-8.53374E-05-1.05206E-02-6.19674E-03
 -1       663 8.53374E-05-1.05206E-02 6.19674E-03
 -1       672 1.05035E-13-1.24786E-03-4.74902E-13
 -1       674 9.99121E-14-2.20240E-02-4.77211E-13
 -1       675-2.50659E-05-1.16359E-02-6.61758E-03
 -1       677 2.50659E-05-1.16359E-02 6.61758E-03
 -1       686 1.31893E-13-1.39450E-03-4.30726E-13
 -1       688 1.24153E-13-2.30342E-02-4.32000E-13
 -1       689-2.98782E-05-1.22143E-02-6.89263E-03
 -1       691 2.98782E-05-1.22143E-02 6.89263E-03
 -1       700 1.53220E-13-1.36079E-03-3.74494E-13
 -1       702 1.45820E-13-2.32957E-02-3.75406E-13
 -1       703 1.56586E-05-1.23282E-02-6.98668E-03
 -1       705-1.56586E-05-1.23282E-02 6.98668E-03
 -1       714 1.72595E-13-1.02216E-03-3.12915E-13
 -1       716 1.64389E-13-2.27534E-02-3.14070E-13
 -1       717 2.53594E-05-1.18878E-02-6.92181E-03
 -1       719-2.53594E-05-1.18878E-02 6.92181E-03
 -1       728 1.90537E-13-4.94796E-04-2.33496E-13
 -1       730 1.78501E-13-2.14649E-02-2.34377E-13
 -1       731 5.83380E-05-1.09799E-02-6.67937E-03
 -1       733-5.83380E-05-1.09799E-02 6.67937E-03
 -1       742 2.02266E-13 2.37094E-04-1.32553E-13
 -1       744 1.87998E-13-1.94817E-02-1.32999E-13
 -1       745 7.01003E-05-9.62231E-03-6.28081E-03
 -1       747-7.01003E-05-9.62231E-03 6.28081E-03
 -1       756 2.06708E-13 1.05216E-03-2.00549E-14
 -1       758 1.91956E-13-1.69140E-02-1.98853E-14
 -1       759 9.01722E-05-7.93090E-03-5.72254E-03
 -1       761-9.01722E-05-7.93090E-03 5.72254E-03
 -1       770 2.03593E-13 1.90190E-03 9.40832E-14
 -1       772 1.89239E-13-1.38817E-02 9.45298E-14
 -1       773 9.63060E-05-5.98990E-03-5.02737E-03
 -1       775-9.63060E-05-5.98990E-03 5.02737E-03
 -1       784 1.92411E-13 2.66948E-03 2.01314E-13
 -1       786 1.79590E-13-1.05288E-02 2.02183E-13
 -1       787 1.03345E-04-3.92966E-03-4.20390E-03
 -1       789-1.03345E-04-3.92966E-03 4.20390E-03
 -1       798 1.75205E-13 3.28776E-03 2.95508E-13
 -1       800 1.64237E-13-7.00161E-03 2.96560E-13
 -1       801 1.00766E-04-1.85692E-03-3.27736E-03
 -1       803-1.00766E-04-1.85692E-03 3.27736E-03
 -1       812 1.52305E-13 3.66834E-03 3.70147E-13
 -1       814 1.44152E-13-3.44471E-03 3.71530E-13
 -1       815 9.64965E-05 1.11812E-04-2.26564E-03
 -1       817-9.64965E-05 1.11812E-04 2.26564E-03
 -1       826 1.21650E-13 3.76522E-03 4.14145E-13
 -1       828 1.18477E-13 9.99262E-06 4.15857E-13
 -1       829 8.60845E-05 1.88761E-03-1.19611E-03
 -1       831-8.60845E-05 1.88761E-03 1.19611E-03
 -1       840 8.59140E-14 3.54162E-03 4.21775E-13
 -1       842 8.73086E-14 3.24935E-03 4.23521E-13
 -1       843 7.43125E-05 3.39549E-03-9.30959E-05
 -1       845-7.43125E-05 3.39549E-03 9.30959E-05
 -1       854 4.84849E-14 2.99794E-03 4.00139E-13
 -1       856 5.22540E-14 6.18575E-03 4.02344E-13
 -1       857 5.96281E-05 4.59185E-03 1.01538E-03
 -1       859-5.96281E-05 4.59185E-03-1.01538E-03
 -1       868 9.55838E-15 2.15941E-03 3.52103E-13
 -1       870 1.73506E-14 8.75702E-03 3.53722E-13
 -1       871 4.53175E-05 5.45822E-03 2.10146E-03
 -1       873-4.53175E-05 5.45822E-03-2.10146E-03
 -1       882-2.85045E-14 1.07701E-03 2.69725E-13
 -1       884-1.59461E-14 1.09316E-02 2.71856E-13
 -1       885 3.08353E-05 6.00428E-03 3.13886E-03
 -1       887-3.08353E-05 6.00428E-03-3.13886E-03
 -1       896-6.19284E-14-1.70160E-04 1.59365E-13
 -1       898-4.68574E-14 1.26992E-02 1.60795E-13
 -1       899 1.85749E-05 6.26452E-03 4.09913E-03
 -1       901-1.85749E-05 6.26452E-03-4.09913E-03
 -1       910-8.87763E-14-1.49816E-03 3.32111E-14
 -1       912-7.27204E-14 1.40755E-02 3.48733E-14
 -1       913 7.89165E-06 6.28866E-03 4.96049E-03
 -1       915-7.89165E-06 6.28866E-03-4.96049E-03
 -1       924-1.09794E-13-2.79897E-03-1.00861E-13
 -1       926-9.23963E-14 1.50871E-02-1.00214E-13
 -1       927 3.82212E-07 6.14405E-03 5.69704E-03
 -1       929-3.82212E-07 6.14405E-03-5.69704E-03
 -1       938-1.25291E-13-3.98979E-03-2.39638E-13
 -1       940-1.07634E-13 1.57686E-02-2.39257E-13
 -1       941-5.09188E-06 5.88942E-03 6.29342E-03
 -1       943 5.09188E-06 5.88942E-03-6.29342E-03
 -1       952-1.35720E-13-4.96730E-03-3.76091E-13
 -1       954-1.18098E-13 1.61650E-02-3.76614E-13
 -1       955-7.99426E-06 5.59885E-03 6.73103E-03
 -1       957 7.99426E-06 5.59885E-03-6.73103E-03
 -1       966-1.41232E-13-5.68932E-03-5.05510E-13
 -1       968-1.24840E-13 1.62803E-02-5.05529E-13
 -1       969-9.42486E-06 5.29549E-03 6.99773E-03
 -1       971 9.42486E-06 5.29549E-03-6.99773E-03
 -1       980 0.00000E+00 0.00000E+00 4.01835E-06
 -1       982 0.00000E+00-0.00000E+00-4.01835E-06
 -1       983-8.54538E-05-1.54721E-02 1.05810E-01
 -1       985-1.53526E-04 2.55460E-02 1.05810E-01
 -1       986-4.61538E-03 2.43014E-03-3.11871E-02
 -1       988 3.10619E-03-3.74730E-03-3.11674E-02
 -1       989-3.07889E-03 4.46503E-03-7.28213E-02
 -1       991 5.82326E-04-8.23442E-03-7.28091E-02
 -1       992-4.14705E-03 5.81980E-03-1.06840E-01
 -1       994 1.09717E-03-1.29874E-02-1.06828E-01
 -1       995-3.57820E-03 6.90489E-03-1.40880E-01
 -1       997 3.18286E-04-1.77577E-02-1.40883E-01
 -1       998-3.49773E-03 7.58728E-03-1.70047E-01
 -1      1000 3.29437E-04-2.22271E-02-1.70048E-01
 -1      1001-2.89736E-03 8.09501E-03-1.95617E-01
 -1      1003 1.03704E-04-2.61962E-02-1.95628E-01
 -1      1004-2.32158E-03 8.43790E-03-2.16033E-01
 -1      1006 1.01009E-04-2.94568E-02-2.16044E-01
 -1      1007-1.54839E-03 8.70377E-03-2.31252E-01
 -1      1009 8.60722E-05-3.18597E-02-2.31268E-01
 -1      1010-7.45215E-04 8.93971E-03-2.40698E-01
 -1      1012 1.31949E-04-3.32969E-02-2.40715E-01
 -1      1013 1.13443E-04 9.15180E-03-2.44242E-01
 -1      1015 1.80934E-04-3.36987E-02-2.44259E-01
 -1      1016 9.52889E-04 9.36195E-03-2.41752E-01
 -1      1018 2.21802E-04-3.30588E-02-2.41767E-01
 -1      1019 1.75208E-03 9.52461E-03-2.33307E-01
 -1      1021 2.35473E-04-3.14006E-02-2.33321E-01
 -1      1022 2.46663E-03 9.62070E-03-2.19101E-01
 -1      1024 2.01549E-04-2.88108E-02-2.19112E-01
 -1      1025 3.07273E-03 9.57600E-03-1.99480E-01
 -1      1027 1.14625E-04-2.53965E-02-1.99488E-01
 -1      1028 3.54616E-03 9.34494E-03-1.74915E-01
 -1      1030-3.48286E-05-2.13121E-02-1.74919E-01
 -1      1031 3.87544E-03 8.85211E-03-1.46004E-01
 -1      1033-2.40013E-04-1.67183E-02-1.46003E-01
 -1      1034 4.05572E-03 8.05470E-03-1.13447E-01
 -1      1036-4.95247E-04-1.17992E-02-1.13443E-01
 -1      1037 4.09171E-03 6.90603E-03-7.80424E-02
 -1      1039-7.82101E-04-6.72915E-03-7.80354E-02
 -1      1040 3.99528E-03 5.39595E-03-4.06579E-02
 -1      1042-1.08255E-03-1.68146E-03-4.06486E-02
 -1      1043 3.78441E-03 3.52974E-03-2.21574E-03
 -1      1045-1.37106E-03 3.19405E-03-2.20515E-03
 -1      1046 3.48121E-03 1.34839E-03 3.63314E-02
 -1      1048-1.62447E-03 7.76659E-03 3.63427E-02
 -1      1049 3.11022E-03-1.08312E-03 7.40255E-02
 -1      1051-1.81823E-03 1.19357E-02 7.40359E-02
 -1      1052 2.69426E-03-3.67315E-03 1.09921E-01
 -1      1054-1.93251E-03 1.56276E-02 1.09931E-01
 -1      1055 2.25807E-03-6.30925E-03 1.43123E-01
 -1      1057-1.95364E-03 1.87971E-02 1.43130E-01
 -1      1058 1.81282E-03-8.86923E-03 1.72781E-01
 -1      1060-1.86994E-03 2.14220E-02 1.72787E-01
 -1      1061 1.38534E-03-1.12238E-02 1.98171E-01
 -1      1063-1.69169E-03 2.35006E-02 1.98174E-01
 -1      1064 9.52529E-04-1.32525E-02 2.18593E-01
 -1      1066-1.40482E-03 2.50403E-02 2.18594E-01
 -1      1067 5.74272E-04-1.48538E-02 2.33639E-01
 -1      1069-1.07759E-03 2.60576E-02 2.33638E-01
 -1      1070 1.25499E-04-1.59377E-02 2.42691E-01
 -1      1072-6.24199E-04 2.65676E-02 2.42689E-01
 -1      1073 0.00000E+00 0.00000E+00-4.01835E-06
 -1      1075 0.00000E+00-0.00000E+00 4.01835E-06
 -1      1076 0.00000E+00-3.81097E-17 0.00000E+00
 -1      1078 0.00000E+00 3.81097E-17 0.00000E+00
 -1      1079 0.00000E+00 1.44090E-16 0.00000E+00
 -1      1081 0.00000E+00-1.44090E-16 0.00000E+00
 -1      1082 0.00000E+00 2.27140E-16 0.00000E+00
 -1      1084 0.00000E+00-2.27140E-16 0.00000E+00
 -1      1085 1.22789E-04 4.66904E-04-8.50996E-04
 -1      1087-1.22789E-04 4.66904E-04 8.50996E-04
 -1      1088 3.66367E-14-8.68962E-04-8.12419E-14
 -1      1090 1.84442E-14 1.80277E-03-8.03094E-14
 -1      1099 1.21405E-05 1.93638E-03-2.11591E-03
 -1      1101-1.21405E-05 1.93638E-03 2.11591E-03
 -1      1102 4.73234E-14-1.38511E-03-1.84599E-13
 -1      1104 3.88507E-14 5.25786E-03-1.84300E-13
 -1      1113 1.54630E-04 3.47180E-03-3.08821E-03
 -1      1115-1.54630E-04 3.47180E-03 3.08821E-03
 -1      1116 5.67335E-14-1.37597E-03-2.76835E-13
 -1      1118 4.31102E-14 8.31958E-03-2.77184E-13
 -1      1127 4.42660E-05 5.48145E-03-4.05507E-03
 -1      1129-4.42660E-05 5.48145E-03 4.05507E-03
 -1      1130 5.25585E-14-8.84067E-04-3.63714E-13
 -1      1132 4.43917E-14 1.18470E-02-3.64009E-13
 -1      1141 1.30956E-04 7.28178E-03-4.89507E-03
 -1      1143-1.30956E-04 7.28178E-03 4.89507E-03
 -1      1144 4.52872E-14-4.02335E-04-4.31211E-13
 -1      1146 3.65501E-14 1.49659E-02-4.32255E-13
 -1      1155 4.90474E-05 9.10618E-03-5.60794E-03
 -1      1157-4.90474E-05 9.10618E-03 5.60794E-03
 -1      1158 3.00434E-14 3.03021E-04-4.77062E-13
 -1      1160 2.67861E-14 1.79093E-02-4.78080E-13
 -1      1169 8.53374E-05 1.05206E-02-6.19674E-03
 -1      1171-8.53374E-05 1.05206E-02 6.19674E-03
 -1      1172 1.38416E-14 7.93128E-04-4.86665E-13
 -1      1174 1.47050E-14 2.02480E-02-4.88250E-13
 -1      1183 2.50659E-05 1.16359E-02-6.61758E-03
 -1      1185-2.50659E-05 1.16359E-02 6.61758E-03
 -1      1186-4.14668E-16 1.24786E-03-4.69076E-13
 -1      1188 2.53797E-15 2.20240E-02-4.69312E-13
 -1      1197 2.98782E-05 1.22143E-02-6.89263E-03
 -1      1199-2.98782E-05 1.22143E-02 6.89263E-03
 -1      1200-1.32429E-14 1.39450E-03-4.35957E-13
 -1      1202-9.92606E-15 2.30342E-02-4.37067E-13
 -1      1211-1.56586E-05 1.23282E-02-6.98668E-03
 -1      1213 1.56586E-05 1.23282E-02 6.98668E-03
 -1      1214-2.67431E-14 1.36079E-03-3.87967E-13
 -1      1216-2.08993E-14 2.32957E-02-3.88495E-13
 -1      1225-2.53594E-05 1.18878E-02-6.92181E-03
 -1      1227 2.53594E-05 1.18878E-02 6.92181E-03
 -1      1228-3.77619E-14 1.02216E-03-3.14784E-13
 -1      1230-2.81333E-14 2.27534E-02-3.15725E-13
 -1      1239-5.83380E-05 1.09799E-02-6.67937E-03
 -1      1241 5.83380E-05 1.09799E-02 6.67937E-03
 -1      1242-4.34566E-14 4.94796E-04-2.17572E-13
 -1      1244-3.13863E-14 2.14649E-02-2.17808E-13
 -1      1253-7.01003E-05 9.62231E-03-6.28081E-03
 -1      1255 7.01003E-05 9.62231E-03 6.28081E-03
 -1      1256-4.40513E-14-2.37094E-04-1.07275E-13
 -1      1258-3.07899E-14 1.94817E-02-1.07241E-13
 -1      1267-9.01722E-05 7.93090E-03-5.72254E-03
 -1      1269 9.01722E-05 7.93090E-03 5.72254E-03
 -1      1270-3.94484E-14-1.05216E-03 5.49744E-15
 -1      1272-2.64126E-14 1.69140E-02 5.84071E-15
 -1      1281-9.63060E-05 5.98990E-03-5.02737E-03
 -1      1283 9.63060E-05 5.98990E-03 5.02737E-03
 -1      1284-2.92604E-14-1.90190E-03 1.17224E-13
 -1      1286-1.60575E-14 1.38817E-02 1.17484E-13
 -1      1295-1.03345E-04 3.92966E-03-4.20390E-03
 -1      1297 1.03345E-04 3.92966E-03 4.20390E-03
 -1      1298-1.14068E-14-2.66948E-03 2.28265E-13
 -1      1300 2.16414E-15 1.05288E-02 2.29327E-13
 -1      1309-1.00766E-04 1.85692E-03-3.27736E-03
 -1      1311 1.00766E-04 1.85692E-03 3.27736E-03
 -1      1312 1.67484E-14-3.28776E-03 3.22744E-13
 -1      1314 2.63699E-14 7.00161E-03 3.24364E-13
 -1      1323-9.64965E-05-1.11812E-04-2.26564E-03
 -1      1325 9.64965E-05-1.11812E-04 2.26564E-03
 -1      1326 5.13061E-14-3.66834E-03 3.86457E-13
 -1      1328 5.72564E-14 3.44471E-03 3.88169E-13
 -1      1337-8.60845E-05-1.88761E-03-1.19611E-03
 -1      1339 8.60845E-05-1.88761E-03 1.19611E-03
 -1      1340 9.05015E-14-3.76522E-03 4.20857E-13
 -1      1342 9.31693E-14-9.99262E-06 4.22718E-13
 -1      1351-7.43125E-05-3.39549E-03-9.30959E-05
 -1      1353 7.43125E-05-3.39549E-03 9.30959E-05
 -1      1354 1.31798E-13-3.54162E-03 4.25006E-13
 -1      1356 1.30222E-13-3.24935E-03 4.26771E-13
 -1      1365-5.96281E-05-4.59185E-03 1.01538E-03
 -1      1367 5.96281E-05-4.59185E-03-1.01538E-03
 -1      1368 1.70978E-13-2.99794E-03 4.02240E-13
 -1      1370 1.66891E-13-6.18575E-03 4.03518E-13
 -1      1379-4.53175E-05-5.45822E-03 2.10146E-03
 -1      1381 4.53175E-05-5.45822E-03-2.10146E-03
 -1      1382 2.07732E-13-2.15941E-03 3.60327E-13
 -1      1384 2.01760E-13-8.75702E-03 3.61735E-13
 -1      1393-3.08353E-05-6.00428E-03 3.13886E-03
 -1      1395 3.08353E-05-6.00428E-03-3.13886E-03
 -1      1396 2.42096E-13-1.07701E-03 2.96170E-13
 -1      1398 2.32525E-13-1.09316E-02 2.97949E-13
 -1      1407-1.85749E-05-6.26452E-03 4.09913E-03
 -1      1409 1.85749E-05-6.26452E-03-4.09913E-03
 -1      1410 2.72725E-13 1.70160E-04 1.97586E-13
 -1      1412 2.57178E-13-1.26992E-02 1.98035E-13
 -1      1421-7.89165E-06-6.28866E-03 4.96049E-03
 -1      1423 7.89165E-06-6.28866E-03-4.96049E-03
 -1      1424 2.95822E-13 1.49816E-03 6.61809E-14
 -1      1426 2.77730E-13-1.40755E-02 6.67232E-14
 -1      1435-3.82212E-07-6.14405E-03 5.69704E-03
 -1      1437 3.82212E-07-6.14405E-03-5.69704E-03
 -1      1438 3.11750E-13 2.79897E-03-7.21165E-14
 -1      1440 2.94442E-13-1.50871E-02-7.23504E-14
 -1      1449 5.09188E-06-5.88942E-03 6.29342E-03
 -1      1451-5.09188E-06-5.88942E-03-6.29342E-03
 -1      1452 3.23592E-13 3.98979E-03-2.08739E-13
 -1      1454 3.06404E-13-1.57686E-02-2.08371E-13
 -1      1463 7.99426E-06-5.59885E-03 6.73103E-03
 -1      1465-7.99426E-06-5.59885E-03-6.73103E-03
 -1      1466 3.32116E-13 4.96730E-03-3.46221E-13
 -1      1468 3.13943E-13-1.61650E-02-3.45754E-13
 -1      1477 9.42486E-06-5.29549E-03 6.99773E-03
 -1      1479-9.42486E-06-5.29549E-03-6.99773E-03
 -1      1480 3.36369E-13 5.68932E-03-4.82591E-13
 -1      1482 3.18312E-13-1.62803E-02-4.83526E-13
 -1      1491 2.32063E-06 6.17865E-02-2.13932E-03
 -1      1493-2.32063E-06 6.17865E-02 2.13932E-03
 -1      1494 9.46188E-14 5.74429E-13-3.16362E-03
 -1      1496 8.63615E-14 5.74912E-13 3.16362E-03
 -1      1497-2.32063E-06-6.17865E-02-2.13932E-03
 -1      1499 2.32063E-06-6.17865E-02 2.13932E-03
 -1      1500 4.61538E-03-2.43014E-03-3.11871E-02
 -1      1502-3.10619E-03 3.74730E-03-3.11674E-02
 -1      1503 3.07889E-03-4.46503E-03-7.28213E-02
 -1      1505-5.82326E-04 8.23442E-03-7.28091E-02
 -1      1506 4.14705E-03-5.81980E-03-1.06840E-01
 -1      1508-1.09717E-03 1.29874E-02-1.06828E-01
 -1      1509 3.57820E-03-6.90489E-03-1.40880E-01
 -1      1511-3.18286E-04 1.77577E-02-1.40883E-01
 -1      1512 3.49773E-03-7.58728E-03-1.70047E-01
 -1      1514-3.29437E-04 2.22271E-02-1.70048E-01
 -1      1515 2.89736E-03-8.09501E-03-1.95617E-01
 -1      1517-1.03704E-04 2.61962E-02-1.95628E-01
 -1      1518 2.32158E-03-8.43790E-03-2.16033E-01
 -1      1520-1.01009E-04 2.94568E-02-2.16044E-01
 -1      1521 1.54839E-03-8.70377E-03-2.31252E-01
 -1      1523-8.60722E-05 3.18597E-02-2.31268E-01
 -1      1524 7.45215E-04-8.93971E-03-2.40698E-01
 -1      1526-1.31949E-04 3.32969E-02-2.40715E-01
 -1      1527-1.13443E-04-9.15180E-03-2.44242E-01
 -1      1529-1.80934E-04 3.36987E-02-2.44259E-01
 -1      1530-9.52889E-04-9.36195E-03-2.41752E-01
 -1      1532-2.21802E-04 3.30588E-02-2.41767E-01
 -1      1533-1.75208E-03-9.52461E-03-2.33307E-01
 -1      1535-2.35473E-04 3.14006E-02-2.33321E-01
 -1      1536-2.46663E-03-9.62070E-03-2.19101E-01
 -1      1538-2.01549E-04 2.88108E-02-2.19112E-01
 -1      1539-3.07273E-03-9.57600E-03-1.99480E-01
 -1      1541-1.14625E-04 2.53965E-02-1.99488E-01
 -1      1542-3.54616E-03-9.34494E-03-1.74915E-01
 -1      1544 3.48286E-05 2.13121E-02-1.74919E-01
 -1      1545-3.87544E-03-8.85211E-03-1.46004E-01
 -1      1547 2.40013E-04 1.67183E-02-1.46003E-01
 -1      1548-4.05572E-03-8.05470E-03-1.13447E-01
 -1      1550 4.95247E-04 1.17992E-02-1.13443E-01
 -1      1551-4.09171E-03-6.90603E-03-7.80424E-02
 -1      1553 7.82101E-04 6.72915E-03-7.80354E-02
 -1      1554-3.99528E-03-5.39595E-03-4.06579E-02
 -1      1556 1.08255E-03 1.68146E-03-4.06486E-02
 -1      1557-3.78441E-03-3.52974E-03-2.21574E-03
 -1      1559 1.37106E-03-3.19405E-03-2.20515E-03
 -1      1560-3.48121E-03-1.34839E-03 3.63314E-02
 -1      1562 1.62447E-03-7.76659E-03 3.63427E-02
 -1      1563-3.11022E-03 1.08312E-03 7.40255E-02
 -1      1565 1.81823E-03-1.19357E-02 7.40359E-02
 -1      1566-2.69426E-03 3.67315E-03 1.09921E-01
 -1      1568 1.93251E-03-1.56276E-02 1.09931E-01
 -1      1569-2.25807E-03 6.30925E-03 1.43123E-01
 -1      1571 1.95364E-03-1.87971E-02 1.43130E-01
 -1      1572-1.81282E-03 8.86923E-03 1.72781E-01
 -1      1574 1.86994E-03-2.14220E-02 1.72787E-01
 -1      1575-1.38534E-03 1.12238E-02 1.98171E-01
 -1      1577 1.69169E-03-2.35006E-02 1.98174E-01
 -1      1578-9.52529E-04 1.32525E-02 2.18593E-01
 -1      1580 1.40482E-03-2.50403E-02 2.18594E-01
 -1      1581-5.74272E-04 1.48538E-02 2.33639E-01
 -1      1583 1.07759E-03-2.60576E-02 2.33638E-01
 -1      1584-1.25499E-04 1.59377E-02 2.42691E-01
 -1      1586 6.24199E-04-2.65676E-02 2.42689E-01
 -1      1587 8.54538E-05 1.54721E-02 1.05810E-01
 -1      1589 1.53526E-04-2.55460E-02 1.05810E-01
 -1      1590 0.00000E+00 0.00000E+00-4.01835E-06
 -1      1592 0.00000E+00 0.00000E+00 4.01835E-06
 -1      1593-8.54538E-05 1.54721E-02-1.05810E-01
 -1      1595-1.53526E-04-2.55460E-02-1.05810E-01
 -1      1596-4.61538E-03-2.43014E-03 3.11871E-02
 -1      1598 3.10619E-03 3.74730E-03 3.11674E-02
 -1      1599-3.07889E-03-4.46503E-03 7.28213E-02
 -1      1601 5.82326E-04 8.23442E-03 7.28091E-02
 -1      1602-4.14705E-03-5.81980E-03 1.06840E-01
 -1      1604 1.09717E-03 1.29874E-02 1.06828E-01
 -1      1605-3.57820E-03-6.90489E-03 1.40880E-01
 -1      1607 3.18286E-04 1.77577E-02 1.40883E-01
 -1      1608-3.49773E-03-7.58728E-03 1.70047E-01
 -1      1610 3.29437E-04 2.22271E-02 1.70048E-01
 -1      1611-2.89736E-03-8.09501E-03 1.95617E-01
 -1      1613 1.03704E-04 2.61962E-02 1.95628E-01
 -1      1614-2.32158E-03-8.43790E-03 2.16033E-01
 -1      1616 1.01009E-04 2.94568E-02 2.16044E-01
 -1      1617-1.54839E-03-8.70377E-03 2.31252E-01
 -1      1619 8.60722E-05 3.18597E-02 2.31268E-01
 -1      1620-7.45215E-04-8.93971E-03 2.40698E-01
 -1      1622 1.31949E-04 3.32969E-02 2.40715E-01
 -1      1623 1.13443E-04-9.15180E-03 2.44242E-01
 -1      1625 1.80934E-04 3.36987E-02 2.44259E-01
 -1      1626 9.52889E-04-9.36195E-03 2.41752E-01
 -1      1628 2.21802E-04 3.30588E-02 2.41767E-01
 -1      1629 1.75208E-03-9.52461E-03 2.33307E-01
 -1      1631 2.35473E-04 3.14006E-02 2.33321E-01
 -1      1632 2.46663E-03-9.62070E-03 2.19101E-01
 -1      1634 2.01549E-04 2.88108E-02 2.19112E-01
 -1      1635 3.07273E-03-9.57600E-03 1.99480E-01
 -1      1637 1.14625E-04 2.53965E-02 1.99488E-01
 -1      1638 3.54616E-03-9.34494E-03 1.74915E-01
 -1      1640-3.48286E-05 2.13121E-02 1.74919E-01
 -1      1641 3.87544E-03-8.85211E-03 1.46004E-01
 -1      1643-2.40013E-04 1.67183E-02 1.46003E-01
 -1      1644 4.05572E-03-8.05470E-03 1.13447E-01
 -1      1646-4.95247E-04 1.17992E-02 1.13443E-01
 -1      1647 4.09171E-03-6.90603E-03 7.80424E-02
 -1      1649-7.82101E-04 6.72915E-03 7.80354E-02
 -1      1650 3.99528E-03-5.39595E-03 4.06579E-02
 -1      1652-1.08255E-03 1.68146E-03 4.06486E-02
 -1      1653 3.78441E-03-3.52974E-03 2.21574E-03
 -1      1655-1.37106E-03-3.19405E-03 2.20515E-03
 -1      1656 3.48121E-03-1.34839E-03-3.63314E-02
 -1      1658-1.62447E-03-7.76659E-03-3.63427E-02
 -1      1659 3.11022E-03 1.08312E-03-7.40255E-02
 -1      1661-1.81823E-03-1.19357E-02-7.40359E-02
 -1      1662 2.69426E-03 3.67315E-03-1.09921E-01
 -1      1664-1.93251E-03-1.56276E-02-1.09931E-01
 -1      1665 2.25807E-03 6.30925E-03-1.43123E-01
 -1      1667-1.95364E-03-1.87971E-02-1.43130E-01
 -1      1668 1.81282E-03 8.86923E-03-1.72781E-01
 -1      1670-1.86994E-03-2.14220E-02-1.72787E-01
 -1      1671 1.38534E-03 1.12238E-02-1.98171E-01
 -1      1673-1.69169E-03-2.35006E-02-1.98174E-01
 -1      1674 9.52529E-04 1.32525E-02-2.18593E-01
 -1      1676-1.40482E-03-2.50403E-02-2.18594E-01
 -1      1677 5.74272E-04 1.48538E-02-2.33639E-01
 -1      1679-1.07759E-03-2.60576E-02-2.33638E-01
 -1      1680 1.25499E-04 1.59377E-02-2.42691E-01
 -1      1682-6.24199E-04-2.65676E-02-2.42689E-01
 -1      1683 0.00000E+00 0.00000E+00 4.01835E-06
 -1      1685 0.00000E+00 0.00000E+00-4.01835E-06
 -1      1686 2.09853E-03 1.95103E-03 1.25789E-02
 -1      1688-1.41525E-03-3.03908E-03 1.25666E-02
 -1      1689 1.42259E-03 4.15055E-03 3.14987E-02
 -1      1691-2.16678E-04-7.90707E-03 3.14862E-02
 -1      1692 1.89609E-03 5.37127E-03 4.57929E-02
 -1      1694-4.21425E-04-1.24648E-02 4.57938E-02
 -1      1695 1.67353E-03 6.29011E-03 6.06266E-02
 -1      1697-6.65933E-05-1.71496E-02 6.06240E-02
 -1      1698 1.61048E-03 6.87586E-03 7.30252E-02
 -1      1700-6.96777E-05-2.15330E-02 7.30307E-02
 -1      1701 1.35972E-03 7.23460E-03 8.40273E-02
 -1      1703 2.35584E-05-2.53760E-02 8.40334E-02
 -1      1704 1.07243E-03 7.49763E-03 9.27375E-02
 -1      1706 9.43373E-06-2.85851E-02 9.27461E-02
 -1      1707 7.26644E-04 7.67893E-03 9.92599E-02
 -1      1709-3.37050E-07-3.09037E-02 9.92711E-02
 -1      1710 3.39934E-04 7.87445E-03 1.03296E-01
 -1      1712-4.41310E-05-3.23213E-02 1.03306E-01
 -1      1713-5.43991E-05 8.06817E-03 1.04814E-01
 -1      1715-8.66495E-05-3.26938E-02 1.04826E-01
 -1      1716-4.53057E-04 8.29176E-03 1.03750E-01
 -1      1718-1.28874E-04-3.20731E-02 1.03760E-01
 -1      1719-8.22956E-04 8.49774E-03 1.00139E-01
 -1      1721-1.54148E-04-3.04399E-02 1.00150E-01
 -1      1722-1.15914E-03 8.66274E-03 9.40630E-02
 -1      1724-1.57822E-04-2.79114E-02 9.40703E-02
 -1      1725-1.43883E-03 8.71458E-03 8.56650E-02
 -1      1727-1.31790E-04-2.45710E-02 8.56719E-02
 -1      1728-1.65870E-03 8.59977E-03 7.51484E-02
 -1      1730-7.49639E-05-2.05875E-02 7.51515E-02
 -1      1731-1.80762E-03 8.24370E-03 6.27623E-02
 -1      1733 1.29519E-05-1.61081E-02 6.27642E-02
 -1      1734-1.88769E-03 7.59552E-03 4.88086E-02
 -1      1736 1.26957E-04-1.13223E-02 4.88072E-02
 -1      1737-1.89832E-03 6.60740E-03 3.36237E-02
 -1      1739 2.60253E-04-6.39588E-03 3.36210E-02
 -1      1740-1.84780E-03 5.26205E-03 1.75807E-02
 -1      1742 4.02664E-04-1.50227E-03 1.75758E-02
 -1      1743-1.74311E-03 3.56255E-03 1.07243E-03
 -1      1745 5.42912E-04 3.21431E-03 1.06685E-03
 -1      1746-1.59672E-03 1.54373E-03-1.54909E-02
 -1      1748 6.68845E-04 7.62661E-03-1.54974E-02
 -1      1749-1.41891E-03-7.31510E-04-3.16983E-02
 -1      1751 7.68909E-04 1.16371E-02-3.17048E-02
 -1      1752-1.22261E-03-3.17699E-03-4.71413E-02
 -1      1754 8.32950E-04 1.51790E-02-4.71475E-02
 -1      1755-1.01725E-03-5.68102E-03-6.14347E-02
 -1      1757 8.54224E-04 1.82062E-02-6.14403E-02
 -1      1758-8.11595E-04-8.12695E-03-7.42079E-02
 -1      1760 8.26591E-04 2.07077E-02-7.42125E-02
 -1      1761-6.13078E-04-1.03837E-02-8.51528E-02
 -1      1763 7.55297E-04 2.26748E-02-8.51566E-02
 -1      1764-4.18141E-04-1.23371E-02-9.39533E-02
 -1      1766 6.31806E-04 2.41314E-02-9.39559E-02
 -1      1767-2.44140E-04-1.38815E-02-1.00457E-01
 -1      1769 4.91546E-04 2.50824E-02-1.00458E-01
 -1      1770-4.25360E-05-1.49284E-02-1.04342E-01
 -1      1772 2.90491E-04 2.55502E-02-1.04344E-01
 -1      1773-2.09853E-03 1.95103E-03-1.25789E-02
 -1      1775 1.41525E-03-3.03908E-03-1.25666E-02
 -1      1776-1.42259E-03 4.15055E-03-3.14987E-02
 -1      1778 2.16678E-04-7.90707E-03-3.14862E-02
 -1      1779-1.89609E-03 5.37127E-03-4.57929E-02
 -1      1781 4.21425E-04-1.24648E-02-4.57938E-02
 -1      1782-1.67353E-03 6.29011E-03-6.06266E-02
 -1      1784 6.65933E-05-1.71496E-02-6.06240E-02
 -1      1785-1.61048E-03 6.87586E-03-7.30252E-02
 -1      1787 6.96777E-05-2.15330E-02-7.30307E-02
 -1      1788-1.35972E-03 7.23460E-03-8.40273E-02
 -1      1790-2.35584E-05-2.53760E-02-8.40334E-02
 -1      1791-1.07243E-03 7.49763E-03-9.27375E-02
 -1      1793-9.43373E-06-2.85851E-02-9.27461E-02
 -1      1794-7.26644E-04 7.67893E-03-9.92599E-02
 -1      1796 3.37051E-07-3.09037E-02-9.92711E-02
 -1      1797-3.39934E-04 7.87445E-03-1.03296E-01
 -1      1799 4.41310E-05-3.23213E-02-1.03306E-01
 -1      1800 5.43991E-05 8.06817E-03-1.04814E-01
 -1      1802 8.66495E-05-3.26938E-02-1.04826E-01
 -1      1803 4.53057E-04 8.29176E-03-1.03750E-01
 -1      1805 1.28874E-04-3.20731E-02-1.03760E-01
 -1      1806 8.22956E-04 8.49774E-03-1.00139E-01
 -1      1808 1.54148E-04-3.04399E-02-1.00150E-01
 -1      1809 1.15914E-03 8.66274E-03-9.40630E-02
 -1      1811 1.57822E-04-2.79114E-02-9.40703E-02
 -1      1812 1.43883E-03 8.71458E-03-8.56650E-02
 -1      1814 1.31790E-04-2.45710E-02-8.56719E-02
 -1      1815 1.65870E-03 8.59977E-03-7.51484E-02
 -1      1817 7.49639E-05-2.05875E-02-7.51515E-02
 -1      1818 1.80762E-03 8.24370E-03-6.27623E-02
 -1      1820-1.29519E-05-1.61081E-02-6.27642E-02
 -1      1821 1.88769E-03 7.59552E-03-4.88086E-02
 -1      1823-1.26957E-04-1.13223E-02-4.88072E-02
 -1      1824 1.89832E-03 6.60740E-03-3.36237E-02
 -1      1826-2.60253E-04-6.39588E-03-3.36210E-02
 -1      1827 1.84780E-03 5.26205E-03-1.75807E-02
 -1      1829-4.02664E-04-1.50227E-03-1.75758E-02
 -1      1830 1.74311E-03 3.56255E-03-1.07243E-03
 -1      1832-5.42912E-04 3.21431E-03-1.06685E-03
 -1      1833 1.59672E-03 1.54373E-03 1.54909E-02
 -1      1835-6.68845E-04 7.62661E-03 1.54974E-02
 -1      1836 1.41891E-03-7.31510E-04 3.16983E-02
 -1      1838-7.68909E-04 1.16371E-02 3.17048E-02
 -1      1839 1.22261E-03-3.17699E-03 4.71413E-02
 -1      1841-8.32950E-04 1.51790E-02 4.71475E-02
 -1      1842 1.01725E-03-5.68102E-03 6.14347E-02
 -1      1844-8.54224E-04 1.82062E-02 6.14403E-02
 -1      1845 8.11595E-04-8.12695E-03 7.42079E-02
 -1      1847-8.26591E-04 2.07077E-02 7.42125E-02
 -1      1848 6.13078E-04-1.03837E-02 8.51528E-02
 -1      1850-7.55297E-04 2.26748E-02 8.51566E-02
 -1      1851 4.18141E-04-1.23371E-02 9.39533E-02
 -1      1853-6.31806E-04 2.41314E-02 9.39559E-02
 -1      1854 2.44140E-04-1.38815E-02 1.00457E-01
 -1      1856-4.91546E-04 2.50824E-02 1.00458E-01
 -1      1857 4.25360E-05-1.49284E-02 1.04342E-01
 -1      1859-2.90491E-04 2.55502E-02 1.04344E-01
 -1      1860-6.46714E-04-8.79826E-03 1.51301E-04
 -1      1862 6.46714E-04-8.79826E-03-1.51301E-04
 -1      1863-2.49581E-04-1.89019E-02 6.17609E-04
 -1      1865 2.49581E-04-1.89019E-02-6.17609E-04
 -1      1866-4.91774E-04-2.81179E-02 9.49410E-04
 -1      1868 4.91774E-04-2.81179E-02-9.49410E-04
 -1      1869-2.96020E-04-3.73088E-02 1.26856E-03
 -1      1871 2.96020E-04-3.73088E-02-1.26856E-03
 -1      1872-3.66361E-04-4.53402E-02 1.57232E-03
 -1      1874 3.66361E-04-4.53402E-02-1.57232E-03
 -1      1875-2.41721E-04-5.25165E-02 1.81440E-03
 -1      1877 2.41721E-04-5.25165E-02-1.81440E-03
 -1      1878-2.31292E-04-5.82048E-02 2.02762E-03
 -1      1880 2.31292E-04-5.82048E-02-2.02762E-03
 -1      1881-1.31301E-04-6.25007E-02 2.17352E-03
 -1      1883 1.31301E-04-6.25007E-02-2.17352E-03
 -1      1884-8.25519E-05-6.50702E-02 2.27019E-03
 -1      1886 8.25519E-05-6.50702E-02-2.27019E-03
 -1      1887 6.38515E-06-6.59702E-02 2.29961E-03
 -1      1889-6.38515E-06-6.59702E-02-2.29961E-03
 -1      1890 6.94055E-05-6.50773E-02 2.27064E-03
 -1      1892-6.94055E-05-6.50773E-02-2.27064E-03
 -1      1893 1.47554E-04-6.24906E-02 2.17848E-03
 -1      1895-1.47554E-04-6.24906E-02-2.17848E-03
 -1      1896 2.08992E-04-5.82466E-02 2.02987E-03
 -1      1898-2.08992E-04-5.82466E-02-2.02987E-03
 -1      1899 2.72000E-04-5.25131E-02 1.82759E-03
 -1      1901-2.72000E-04-5.25131E-02-1.82759E-03
 -1      1902 3.21033E-04-4.54442E-02 1.57936E-03
 -1      1904-3.21033E-04-4.54442E-02-1.57936E-03
 -1      1905 3.64293E-04-3.72695E-02 1.29212E-03
 -1      1907-3.64293E-04-3.72695E-02-1.29212E-03
 -1      1908 3.94319E-04-2.82175E-02 9.74957E-04
 -1      1910-3.94319E-04-2.82175E-02-9.74957E-04
 -1      1911 4.15128E-04-1.85534E-02 6.36769E-04
 -1      1913-4.15128E-04-1.85534E-02-6.36769E-04
 -1      1914 4.23417E-04-8.53674E-03 2.87160E-04
 -1      1916-4.23417E-04-8.53674E-03-2.87160E-04
 -1      1917 4.21738E-04 1.56476E-03-6.46890E-05
 -1      1919-4.21738E-04 1.56476E-03 6.46890E-05
 -1      1920 4.08850E-04 1.14981E-02-4.09807E-04
 -1      1922-4.08850E-04 1.14981E-02 4.09807E-04
 -1      1923 3.87122E-04 2.10229E-02-7.39844E-04
 -1      1925-3.87122E-04 2.10229E-02 7.39844E-04
 -1      1926 3.55931E-04 2.99205E-02-1.04755E-03
 -1      1928-3.55931E-04 2.99205E-02 1.04755E-03
 -1      1929 3.18346E-04 3.79981E-02-1.32581E-03
 -1      1931-3.18346E-04 3.79981E-02 1.32581E-03
 -1      1932 2.72807E-04 4.50864E-02-1.57000E-03
 -1      1934-2.72807E-04 4.50864E-02 1.57000E-03
 -1      1935 2.24595E-04 5.10500E-02-1.77393E-03
 -1      1937-2.24595E-04 5.10500E-02 1.77393E-03
 -1      1938 1.68301E-04 5.57700E-02-1.93598E-03
 -1      1940-1.68301E-04 5.57700E-02 1.93598E-03
 -1      1941 1.15743E-04 5.91738E-02-2.05114E-03
 -1      1943-1.15743E-04 5.91738E-02 2.05114E-03
 -1      1944 4.98531E-05 6.11783E-02-2.11735E-03
 -1      1946-4.98531E-05 6.11783E-02 2.11735E-03
 -1      1947-6.74721E-15-1.35419E-13 5.97759E-04
 -1      1949 1.76430E-14-1.35655E-13-5.97759E-04
 -1      1950 5.46807E-15-3.04493E-13 1.00561E-03
 -1      1952 1.33712E-14-3.04631E-13-1.00561E-03
 -1      1953 7.00134E-15-4.27720E-13 1.46374E-03
 -1      1955 2.15036E-14-4.27845E-13-1.46374E-03
 -1      1956 1.50643E-14-5.72917E-13 1.93056E-03
 -1      1958 2.73930E-14-5.73055E-13-1.93056E-03
 -1      1959 2.38438E-14-7.04249E-13 2.32189E-03
 -1      1961 3.53762E-14-7.04388E-13-2.32189E-03
 -1      1962 3.47205E-14-8.00832E-13 2.68900E-03
 -1      1964 4.12014E-14-8.01074E-13-2.68900E-03
 -1      1965 4.33889E-14-8.45091E-13 2.97097E-03
 -1      1967 4.50699E-14-8.45119E-13-2.97097E-03
 -1      1968 5.19307E-14-8.15917E-13 3.18740E-03
 -1      1970 4.55608E-14-8.16340E-13-3.18740E-03
 -1      1971 5.96120E-14-7.18875E-13 3.31692E-03
 -1      1973 4.89400E-14-7.19118E-13-3.31692E-03
 -1      1974 6.73073E-14-5.97980E-13 3.36001E-03
 -1      1976 5.67463E-14-5.98174E-13-3.36001E-03
 -1      1977 7.45098E-14-4.89025E-13 3.31627E-03
 -1      1979 6.58328E-14-4.89275E-13-3.31627E-03
 -1      1980 7.98875E-14-4.06494E-13 3.18327E-03
 -1      1982 7.38827E-14-4.06605E-13-3.18327E-03
 -1      1983 8.49000E-14-3.41158E-13 2.97011E-03
 -1      1985 7.89093E-14-3.41310E-13-2.97011E-03
 -1      1986 9.13436E-14-2.58064E-13 2.67832E-03
 -1      1988 8.17992E-14-2.58245E-13-2.67832E-03
 -1      1989 9.43065E-14-1.76390E-13 2.32138E-03
 -1      1991 8.81829E-14-1.76314E-13-2.32138E-03
 -1      1992 9.58400E-14-1.38237E-13 1.90582E-03
 -1      1994 9.38659E-14-1.38396E-13-1.90582E-03
 -1      1995 9.58001E-14-1.49165E-13 1.44700E-03
 -1      1997 9.83953E-14-1.49110E-13-1.44700E-03
 -1      1998 9.59263E-14-2.11046E-13 9.55064E-04
 -1      2000 1.02829E-13-2.11324E-13-9.55064E-04
 -1      2001 1.00279E-13-2.95292E-13 4.45524E-04
 -1      2003 1.06689E-13-2.95430E-13-4.45524E-04
 -1      2004 1.07032E-13-3.52315E-13-6.99451E-05
 -1      2006 1.08892E-13-3.52177E-13 6.99451E-05
 -1      2007 1.10870E-13-3.76963E-13-5.77047E-04
 -1      2009 1.11453E-13-3.76584E-13 5.77047E-04
 -1      2010 1.12875E-13-3.83384E-13-1.06460E-03
 -1      2012 1.11740E-13-3.83776E-13 1.06460E-03
 -1      2013 1.14259E-13-3.48679E-13-1.52036E-03
 -1      2015 1.07792E-13-3.48291E-13 1.52036E-03
 -1      2016 1.13172E-13-2.53006E-13-1.93536E-03
 -1      2018 1.01544E-13-2.52638E-13 1.93536E-03
 -1      2019 1.09528E-13-1.22792E-13-2.29940E-03
 -1      2021 9.69728E-14-1.22635E-13 2.29940E-03
 -1      2022 1.06045E-13 1.08229E-14-2.60731E-03
 -1      2024 9.40550E-14 1.13451E-14 2.60731E-03
 -1      2025 1.04153E-13 1.49984E-13-2.85010E-03
 -1      2027 9.10418E-14 1.49391E-13 2.85010E-03
 -1      2028 1.02262E-13 3.03960E-13-3.02738E-03
 -1      2030 8.74995E-14 3.04100E-13 3.02738E-03
 -1      2031 9.84837E-14 4.57240E-13-3.13249E-03
 -1      2033 8.61221E-14 4.57041E-13 3.13249E-03
 -1      2034 6.46714E-04 8.79826E-03 1.51301E-04
 -1      2036-6.46714E-04 8.79826E-03-1.51301E-04
 -1      2037 2.49581E-04 1.89019E-02 6.17609E-04
 -1      2039-2.49581E-04 1.89019E-02-6.17609E-04
 -1      2040 4.91774E-04 2.81179E-02 9.49410E-04
 -1      2042-4.91774E-04 2.81179E-02-9.49410E-04
 -1      2043 2.96020E-04 3.73088E-02 1.26856E-03
 -1      2045-2.96020E-04 3.73088E-02-1.26856E-03
 -1      2046 3.66361E-04 4.53402E-02 1.57232E-03
 -1      2048-3.66361E-04 4.53402E-02-1.57232E-03
 -1      2049 2.41721E-04 5.25165E-02 1.81440E-03
 -1      2051-2.41721E-04 5.25165E-02-1.81440E-03
 -1      2052 2.31292E-04 5.82048E-02 2.02762E-03
 -1      2054-2.31292E-04 5.82048E-02-2.02762E-03
 -1      2055 1.31301E-04 6.25007E-02 2.17352E-03
 -1      2057-1.31301E-04 6.25007E-02-2.17352E-03
 -1      2058 8.25519E-05 6.50702E-02 2.27019E-03
 -1      2060-8.25519E-05 6.50702E-02-2.27019E-03
 -1      2061-6.38515E-06 6.59702E-02 2.29961E-03
 -1      2063 6.38515E-06 6.59702E-02-2.29961E-03
 -1      2064-6.94055E-05 6.50773E-02 2.27064E-03
 -1      2066 6.94055E-05 6.50773E-02-2.27064E-03
 -1      2067-1.47554E-04 6.24906E-02 2.17848E-03
 -1      2069 1.47554E-04 6.24906E-02-2.17848E-03
 -1      2070-2.08992E-04 5.82466E-02 2.02987E-03
 -1      2072 2.08992E-04 5.82466E-02-2.02987E-03
 -1      2073-2.72000E-04 5.25131E-02 1.82759E-03
 -1      2075 2.72000E-04 5.25131E-02-1.82759E-03
 -1      2076-3.21033E-04 4.54442E-02 1.57936E-03
 -1      2078 3.21033E-04 4.54442E-02-1.57936E-03
 -1      2079-3.64293E-04 3.72695E-02 1.29212E-03
 -1      2081 3.64293E-04 3.72695E-02-1.29212E-03
 -1      2082-3.94319E-04 2.82175E-02 9.74957E-04
 -1      2084 3.94319E-04 2.82175E-02-9.74957E-04
 -1      2085-4.15128E-04 1.85534E-02 6.36769E-04
 -1      2087 4.15128E-04 1.85534E-02-6.36769E-04
 -1      2088-4.23417E-04 8.53674E-03 2.87160E-04
 -1      2090 4.23417E-04 8.53674E-03-2.87160E-04
 -1      2091-4.21738E-04-1.56476E-03-6.46890E-05
 -1      2093 4.21738E-04-1.56476E-03 6.46890E-05
 -1      2094-4.08850E-04-1.14981E-02-4.09807E-04
 -1      2096 4.08850E-04-1.14981E-02 4.09807E-04
 -1      2097-3.87122E-04-2.10229E-02-7.39844E-04
 -1      2099 3.87122E-04-2.10229E-02 7.39844E-04
 -1      2100-3.55931E-04-2.99205E-02-1.04755E-03
 -1      2102 3.55931E-04-2.99205E-02 1.04755E-03
 -1      2103-3.18346E-04-3.79981E-02-1.32581E-03
 -1      2105 3.18346E-04-3.79981E-02 1.32581E-03
 -1      2106-2.72807E-04-4.50864E-02-1.57000E-03
 -1      2108 2.72807E-04-4.50864E-02 1.57000E-03
 -1      2109-2.24595E-04-5.10500E-02-1.77393E-03
 -1      2111 2.24595E-04-5.10500E-02 1.77393E-03
 -1      2112-1.68301E-04-5.57700E-02-1.93598E-03
 -1      2114 1.68301E-04-5.57700E-02 1.93598E-03
 -1      2115-1.15743E-04-5.91738E-02-2.05114E-03
 -1      2117 1.15743E-04-5.91738E-02 2.05114E-03
 -1      2118-4.98531E-05-6.11783E-02-2.11735E-03
 -1      2120 4.98531E-05-6.11783E-02 2.11735E-03
 -1      2121 2.09853E-03-1.95103E-03-1.25789E-02
 -1      2123-1.41525E-03 3.03908E-03-1.25666E-02
 -1      2124 1.42259E-03-4.15055E-03-3.14987E-02
 -1      2126-2.16678E-04 7.90707E-03-3.14862E-02
 -1      2127 1.89609E-03-5.37127E-03-4.57929E-02
 -1      2129-4.21425E-04 1.24648E-02-4.57938E-02
 -1      2130 1.67353E-03-6.29011E-03-6.06266E-02
 -1      2132-6.65933E-05 1.71496E-02-6.06240E-02
 -1      2133 1.61048E-03-6.87586E-03-7.30252E-02
 -1      2135-6.96777E-05 2.15330E-02-7.30307E-02
 -1      2136 1.35972E-03-7.23460E-03-8.40273E-02
 -1      2138 2.35584E-05 2.53760E-02-8.40334E-02
 -1      2139 1.07243E-03-7.49763E-03-9.27375E-02
 -1      2141 9.43373E-06 2.85851E-02-9.27461E-02
 -1      2142 7.26644E-04-7.67893E-03-9.92599E-02
 -1      2144-3.37050E-07 3.09037E-02-9.92711E-02
 -1      2145 3.39934E-04-7.87445E-03-1.03296E-01
 -1      2147-4.41310E-05 3.23213E-02-1.03306E-01
 -1      2148-5.43991E-05-8.06817E-03-1.04814E-01
 -1      2150-8.66495E-05 3.26938E-02-1.04826E-01
 -1      2151-4.53057E-04-8.29176E-03-1.03750E-01
 -1      2153-1.28874E-04 3.20731E-02-1.03760E-01
 -1      2154-8.22956E-04-8.49774E-03-1.00139E-01
 -1      2156-1.54148E-04 3.04399E-02-1.00150E-01
 -1      2157-1.15914E-03-8.66274E-03-9.40630E-02
 -1      2159-1.57822E-04 2.79114E-02-9.40703E-02
 -1      2160-1.43883E-03-8.71458E-03-8.56650E-02
 -1      2162-1.31790E-04 2.45710E-02-8.56719E-02
 -1      2163-1.65870E-03-8.59977E-03-7.51484E-02
 -1      2165-7.49639E-05 2.05875E-02-7.51515E-02
 -1      2166-1.80762E-03-8.24370E-03-6.27623E-02
 -1      2168 1.29519E-05 1.61081E-02-6.27642E-02
 -1      2169-1.88769E-03-7.59552E-03-4.88086E-02
 -1      2171 1.26957E-04 1.13223E-02-4.88072E-02
 -1      2172-1.89832E-03-6.60740E-03-3.36237E-02
 -1      2174 2.60253E-04 6.39588E-03-3.36210E-02
 -1      2175-1.84780E-03-5.26205E-03-1.75807E-02
 -1      2177 4.02664E-04 1.50227E-03-1.75758E-02
 -1      2178-1.74311E-03-3.56255E-03-1.07243E-03
 -1      2180 5.42912E-04-3.21431E-03-1.06685E-03
 -1      2181-1.59672E-03-1.54373E-03 1.54909E-02
 -1      2183 6.68845E-04-7.62661E-03 1.54974E-02
 -1      2184-1.41891E-03 7.31510E-04 3.16983E-02
 -1      2186 7.68909E-04-1.16371E-02 3.17048E-02
 -1      2187-1.22261E-03 3.17699E-03 4.71413E-02
 -1      2189 8.32950E-04-1.51790E-02 4.71475E-02
 -1      2190-1.01725E-03 5.68102E-03 6.14347E-02
 -1      2192 8.54224E-04-1.82062E-02 6.14403E-02
 -1      2193-8.11595E-04 8.12695E-03 7.42079E-02
 -1      2195 8.26591E-04-2.07077E-02 7.42125E-02
 -1      2196-6.13078E-04 1.03837E-02 8.51528E-02
 -1      2198 7.55297E-04-2.26748E-02 8.51566E-02
 -1      2199-4.18141E-04 1.23371E-02 9.39533E-02
 -1      2201 6.31806E-04-2.41314E-02 9.39559E-02
 -1      2202-2.44140E-04 1.38815E-02 1.00457E-01
 -1      2204 4.91546E-04-2.50824E-02 1.00458E-01
 -1      2205-4.25360E-05 1.49284E-02 1.04342E-01
 -1      2207 2.90491E-04-2.55502E-02 1.04344E-01
 -1      2208-2.09853E-03-1.95103E-03 1.25789E-02
 -1      2210 1.41525E-03 3.03908E-03 1.25666E-02
 -1      2211-1.42259E-03-4.15055E-03 3.14987E-02
 -1      2213 2.16678E-04 7.90707E-03 3.14862E-02
 -1      2214-1.89609E-03-5.37127E-03 4.57929E-02
 -1      2216 4.21425E-04 1.24648E-02 4.57938E-02
 -1      2217-1.67353E-03-6.29011E-03 6.06266E-02
 -1      2219 6.65933E-05 1.71496E-02 6.06240E-02
 -1      2220-1.61048E-03-6.87586E-03 7.30252E-02
 -1      2222 6.96777E-05 2.15330E-02 7.30307E-02
 -1      2223-1.35972E-03-7.23460E-03 8.40273E-02
 -1      2225-2.35584E-05 2.53760E-02 8.40334E-02
 -1      2226-1.07243E-03-7.49763E-03 9.27375E-02
 -1      2228-9.43373E-06 2.85851E-02 9.27461E-02
 -1      2229-7.26644E-04-7.67893E-03 9.92599E-02
 -1      2231 3.37050E-07 3.09037E-02 9.92711E-02
 -1      2232-3.39934E-04-7.87445E-03 1.03296E-01
 -1      2234 4.41310E-05 3.23213E-02 1.03306E-01
 -1      2235 5.43991E-05-8.06817E-03 1.04814E-01
 -1      2237 8.66495E-05 3.26938E-02 1.04826E-01
 -1      2238 4.53057E-04-8.29176E-03 1.03750E-01
 -1      2240 1.28874E-04 3.20731E-02 1.03760E-01
 -1      2241 8.22956E-04-8.49774E-03 1.00139E-01
 -1      2243 1.54148E-04 3.04399E-02 1.00150E-01
 -1      2244 1.15914E-03-8.66274E-03 9.40630E-02
 -1      2246 1.57822E-04 2.79114E-02 9.40703E-02
 -1      2247 1.43883E-03-8.71458E-03 8.56650E-02
 -1      2249 1.31790E-04 2.45710E-02 8.56719E-02
 -1      2250 1.65870E-03-8.59977E-03 7.51484E-02
 -1      2252 7.49639E-05 2.05875E-02 7.51515E-02
 -1      2253 1.80762E-03-8.24370E-03 6.27623E-02
 -1      2255-1.29519E-05 1.61081E-02 6.27642E-02
 -1      2256 1.88769E-03-7.59552E-03 4.88086E-02
 -1      2258-1.26957E-04 1.13223E-02 4.88072E-02
 -1      2259 1.89832E-03-6.60740E-03 3.36237E-02
 -1      2261-2.60253E-04 6.39588E-03 3.36210E-02
 -1      2262 1.84780E-03-5.26205E-03 1.75807E-02
 -1      2264-4.02664E-04 1.50227E-03 1.75758E-02
 -1      2265 1.74311E-03-3.56255E-03 1.07243E-03
 -1      2267-5.42912E-04-3.21431E-03 1.06685E-03
 -1      2268 1.59672E-03-1.54373E-03-1.54909E-02
 -1      2270-6.68845E-04-7.62661E-03-1.54974E-02
 -1      2271 1.41891E-03 7.31510E-04-3.16983E-02
 -1      2273-7.68909E-04-1.16371E-02-3.17048E-02
 -1      2274 1.22261E-03 3.17699E-03-4.71413E-02
 -1      2276-8.32950E-04-1.51790E-02-4.71475E-02
 -1      2277 1.01725E-03 5.68102E-03-6.14347E-02
 -1      2279-8.54224E-04-1.82062E-02-6.14403E-02
 -1      2280 8.11595E-04 8.12695E-03-7.42079E-02
 -1      2282-8.26591E-04-2.07077E-02-7.42125E-02
 -1      2283 6.13078E-04 1.03837E-02-8.51528E-02
 -1      2285-7.55297E-04-2.26748E-02-8.51566E-02
 -1      2286 4.18141E-04 1.23371E-02-9.39533E-02
 -1      2288-6.31806E-04-2.41314E-02-9.39559E-02
 -1      2289 2.44140E-04 1.38815E-02-1.00457E-01
 -1      2291-4.91546E-04-2.50824E-02-1.00458E-01
 -1      2292 4.25360E-05 1.49284E-02-1.04342E-01
 -1      2294-2.90491E-04-2.55502E-02-1.04344E-01
 -3
    1PSTEP                        54           1           1          
    1PGM                1.000000E+00                                  
    1PGK                9.503010E+06                                  
    1PHID                         -1                                  
    1PSUBC                         0                                  
    1PMODE                        14                                  
  100CL  114 490.6261891         930                     2   14MODAL      1
 -4  STRESS      6    1
 -5  SXX         1    4    1    1
 -5  SYY         1    4    2    2
 -5  SZZ         1    4    3    3
 -5  SXY         1    4    1    2
 -5  SYZ         1    4    2    3
 -5  SZX         1    4    3    1
 -1       404 1.17773E+09 8.67005E+07 2.25593E+06-1.15067E+08-7.30952E+06 8.63257E+08
 -1       406 1.17773E+09 8.67005E+07 2.25593E+06-1.15067E+08-7.30952E+06 8.63257E+08
 -1       407-6.15254E+06 7.79508E+06 7.80312E+03 2.97669E+06-8.88077E+07 1.24312E+07
 -1       409-6.15254E+06 7.79508E+06 7.80312E+03 2.97669E+06-8.88077E+07 1.24312E+07
 -1       410-5.90393E-03-1.55288E-03 1.05947E-04 5.77628E+06-5.20560E+08 8.53632E-05
 -1       412-5.90393E-03-1.55288E-03 1.05947E-04 5.77628E+06-5.20560E+08 8.53632E-05
 -1       413-4.45998E-04-1.89301E-04 2.01959E-02-3.81018E+06-7.08547E+08-6.07774E-03
 -1       415-4.45998E-04-1.89301E-04 2.01959E-02-3.81018E+06-7.08547E+08-6.07774E-03
 -1       424-2.56650E-02-2.91100E-03 7.80076E-05-1.01659E+08-1.76775E+08-2.11458E-03
 -1       426-2.56650E-02-2.91100E-03 7.80076E-05-1.01659E+08-1.76775E+08-2.11458E-03
 -1       427-1.70045E-02-2.34579E-04-5.22937E-03-1.28198E+08-7.88964E+07-6.26756E-02
 -1       429-1.70045E-02-2.34579E-04-5.22937E-03-1.28198E+08-7.88964E+07-6.26756E-02
 -1       438 6.15254E+06-7.79508E+06-7.80312E+03 2.97669E+06-8.88077E+07-1.24312E+07
 -1       440 6.15254E+06-7.79508E+06-7.80312E+03 2.97669E+06-8.88077E+07-1.24312E+07
 -1       441-1.17773E+09-8.67005E+07-2.25593E+06-1.15067E+08-7.30952E+06-8.63257E+08
 -1       443-1.17773E+09-8.67005E+07-2.25593E+06-1.15067E+08-7.30952E+06-8.63257E+08
 -1       444 4.28877E-02 2.74066E-04 1.45639E-02 1.28198E+08-7.88964E+07-5.84059E-02
 -1       446 4.28877E-02 2.74066E-04 1.45639E-02 1.28198E+08-7.88964E+07-5.84059E-02
 -1       447 5.18605E-02 5.96803E-03-3.99351E-05 1.01659E+08-1.76775E+08-2.16445E-03
 -1       449 5.18605E-02 5.96803E-03-3.99351E-05 1.01659E+08-1.76775E+08-2.16445E-03
 -1       458 6.42074E-04 4.58982E-04-4.24137E-03 3.81018E+06-7.08547E+08-6.81103E-03
 -1       460 6.42074E-04 4.58982E-04-4.24137E-03 3.81018E+06-7.08547E+08-6.81103E-03
 -1       461 3.80135E-03 2.52466E-03 2.86406E-04-5.77628E+06-5.20560E+08 1.55209E-04
 -1       463 3.80135E-03 2.52466E-03 2.86406E-04-5.77628E+06-5.20560E+08 1.55209E-04
 -1       472 1.17773E+09 8.67005E+07 2.25593E+06 1.15067E+08-7.30952E+06-8.63257E+08
 -1       474 1.17773E+09 8.67005E+07 2.25593E+06 1.15067E+08-7.30952E+06-8.63257E+08
 -1       475-6.15254E+06 7.79508E+06 7.80312E+03-2.97669E+06-8.88077E+07-1.24312E+07
 -1       477-6.15254E+06 7.79508E+06 7.80312E+03-2.97669E+06-8.88077E+07-1.24312E+07
 -1       478 6.15254E+06-7.79508E+06-7.80312E+03-2.97669E+06-8.88077E+07 1.24312E+07
 -1       480 6.15254E+06-7.79508E+06-7.80312E+03-2.97669E+06-8.88077E+07 1.24312E+07
 -1       481-1.17773E+09-8.67005E+07-2.25593E+06 1.15067E+08-7.30952E+06 8.63257E+08
 -1       483-1.17773E+09-8.67005E+07-2.25593E+06 1.15067E+08-7.30952E+06 8.63257E+08
 -1       484 9.77440E+08 1.84348E+07 3.41080E+04-9.96599E+07 2.00603E+07 2.93076E+08
 -1       486 9.77440E+08 1.84348E+07 3.41080E+04-9.96599E+07 2.00603E+07 2.93076E+08
 -1       487 6.09484E+08-8.99850E+06 4.31030E+04-7.91441E+07 3.68109E+07-9.33962E+05
 -1       489 6.09484E+08-8.99850E+06 4.31030E+04-7.91441E+07 3.68109E+07-9.33962E+05
 -1       490 3.06398E+08 2.06832E+06 4.30709E+05-6.50330E+07 3.71629E+07 1.36992E+08
 -1       492 3.06398E+08 2.06832E+06 4.30709E+05-6.50330E+07 3.71629E+07 1.36992E+08
 -1       493 4.48045E+07-1.19155E+07-2.14388E+05-5.77547E+07 5.36978E+07 5.88682E+07
 -1       495 4.48045E+07-1.19155E+07-2.14388E+05-5.77547E+07 5.36978E+07 5.88682E+07
 -1       496-1.83249E+08-7.34224E+06 1.88251E+05-4.94158E+07 6.08915E+07 8.29962E+07
 -1       498-1.83249E+08-7.34224E+06 1.88251E+05-4.94158E+07 6.08915E+07 8.29962E+07
 -1       499-3.73854E+08-1.51323E+07-2.25460E+05-3.97761E+07 7.17596E+07 5.46577E+07
 -1       501-3.73854E+08-1.51323E+07-2.25460E+05-3.97761E+07 7.17596E+07 5.46577E+07
 -1       502-5.26198E+08-1.41820E+07-4.56513E+04-3.10332E+07 7.89086E+07 4.92250E+07
 -1       504-5.26198E+08-1.41820E+07-4.56513E+04-3.10332E+07 7.89086E+07 4.92250E+07
 -1       505-6.33575E+08-1.75001E+07-2.20028E+05-1.92446E+07 8.45202E+07 3.10821E+07
 -1       507-6.33575E+08-1.75001E+07-2.20028E+05-1.92446E+07 8.45202E+07 3.10821E+07
 -1       508-6.94145E+08-1.76023E+07-1.69397E+05-8.69282E+06 8.85204E+07 1.75293E+07
 -1       510-6.94145E+08-1.76023E+07-1.69397E+05-8.69282E+06 8.85204E+07 1.75293E+07
 -1       511-7.05237E+08-1.81143E+07-1.96680E+05 3.29587E+06 8.93065E+07 1.15919E+06
 -1       513-7.05237E+08-1.81143E+07-1.96680E+05 3.29587E+06 8.93065E+07 1.15919E+06
 -1       514-6.69271E+08-1.76402E+07-1.83122E+05 1.35087E+07 8.89471E+07-1.42436E+07
 -1       516-6.69271E+08-1.76402E+07-1.83122E+05 1.35087E+07 8.89471E+07-1.42436E+07
 -1       517-5.89936E+08-1.63619E+07-1.35807E+05 2.30775E+07 8.52005E+07-2.96545E+07
 -1       519-5.89936E+08-1.63619E+07-1.35807E+05 2.30775E+07 8.52005E+07-2.96545E+07
 -1       520-4.75224E+08-1.48179E+07-1.14320E+05 3.00448E+07 8.03337E+07-4.42810E+07
 -1       522-4.75224E+08-1.48179E+07-1.14320E+05 3.00448E+07 8.03337E+07-4.42810E+07
 -1       523-3.34444E+08-1.24106E+07-4.00682E+04 3.48598E+07 7.25268E+07-5.77803E+07
 -1       525-3.34444E+08-1.24106E+07-4.00682E+04 3.48598E+07 7.25268E+07-5.77803E+07
 -1       526-1.79432E+08-9.99782E+06-3.27628E+03 3.65764E+07 6.36767E+07-6.99672E+07
 -1       528-1.79432E+08-9.99782E+06-3.27628E+03 3.65764E+07 6.36767E+07-6.99672E+07
 -1       529-2.21047E+07-7.05337E+06 6.55975E+04 3.56062E+07 5.26032E+07-8.03444E+07
 -1       531-2.21047E+07-7.05337E+06 6.55975E+04 3.56062E+07 5.26032E+07-8.03444E+07
 -1       532 1.25384E+08-4.27459E+06 1.05614E+05 3.18068E+07 4.07464E+07-8.88512E+07
 -1       534 1.25384E+08-4.27459E+06 1.05614E+05 3.18068E+07 4.07464E+07-8.88512E+07
 -1       535 2.52513E+08-1.36123E+06 1.46846E+05 2.58243E+07 2.75054E+07-9.50888E+07
 -1       537 2.52513E+08-1.36123E+06 1.46846E+05 2.58243E+07 2.75054E+07-9.50888E+07
 -1       538 3.50635E+08 1.25101E+06 1.74352E+05 1.80916E+07 1.39069E+07-9.90569E+07
 -1       540 3.50635E+08 1.25101E+06 1.74352E+05 1.80916E+07 1.39069E+07-9.90569E+07
 -1       541 4.14134E+08 3.67004E+06 1.75412E+05 9.47169E+06-1.98118E+05-1.00514E+08
 -1       543 4.14134E+08 3.67004E+06 1.75412E+05 9.47169E+06-1.98118E+05-1.00514E+08
 -1       544 4.40558E+08 5.73226E+06 1.81590E+05 6.76161E+05-1.41357E+07-9.95142E+07
 -1       546 4.40558E+08 5.73226E+06 1.81590E+05 6.76161E+05-1.41357E+07-9.95142E+07
 -1       547 4.30975E+08 7.39269E+06 1.41007E+05-7.38913E+06-2.77353E+07-9.60341E+07
 -1       549 4.30975E+08 7.39269E+06 1.41007E+05-7.38913E+06-2.77353E+07-9.60341E+07
 -1       550 3.89731E+08 8.74631E+06 1.28647E+05-1.40996E+07-4.06093E+07-9.00745E+07
 -1       552 3.89731E+08 8.74631E+06 1.28647E+05-1.40996E+07-4.06093E+07-9.00745E+07
 -1       553 3.24088E+08 9.65655E+06 5.59272E+04-1.86276E+07-5.24177E+07-8.20926E+07
 -1       555 3.24088E+08 9.65655E+06 5.59272E+04-1.86276E+07-5.24177E+07-8.20926E+07
 -1       556 2.43547E+08 1.02713E+07 3.85007E+04-2.09368E+07-6.29371E+07-7.14697E+07
 -1       558 2.43547E+08 1.02713E+07 3.85007E+04-2.09368E+07-6.29371E+07-7.14697E+07
 -1       559 1.59125E+08 1.08515E+07-4.79255E+04-2.00004E+07-7.19026E+07-6.03125E+07
 -1       561 1.59125E+08 1.08515E+07-4.79255E+04-2.00004E+07-7.19026E+07-6.03125E+07
 -1       562 8.24433E+07 1.04797E+07-5.49504E+04-1.70781E+07-7.89725E+07-4.49185E+07
 -1       564 8.24433E+07 1.04797E+07-5.49504E+04-1.70781E+07-7.89725E+07-4.49185E+07
 -1       565 2.46311E+07 1.16103E+07-1.18388E+05-1.06551E+07-8.44332E+07-3.40451E+07
 -1       567 2.46311E+07 1.16103E+07-1.18388E+05-1.06551E+07-8.44332E+07-3.40451E+07
 -1       568-2.22270E+06 1.04547E+07-1.50038E+05-1.25705E+06-8.73148E+07-1.06303E+07
 -1       570-2.22270E+06 1.04547E+07-1.50038E+05-1.25705E+06-8.73148E+07-1.06303E+07
 -1       571-1.96655E+06 1.55012E+07-4.72563E+04 4.37649E+06-3.04684E+08 9.91720E+06
 -1       573-1.96655E+06 1.55012E+07-4.72563E+04 4.37649E+06-3.04684E+08 9.91720E+06
 -1       574-1.44880E-02-4.79553E-04-1.02632E-04-1.93105E+08-3.10469E+07-2.44077E-04
 -1       576-1.44880E-02-4.79553E-04-1.02632E-04-1.93105E+08-3.10469E+07-2.44077E-04
 -1       577-7.22580E-03 3.24723E-05 2.93703E-03 2.02801E+07 1.32928E+07-6.47655E-02
 -1       579-7.22580E-03 3.24723E-05 2.93703E-03 2.02801E+07 1.32928E+07-6.47655E-02
 -1       588 4.87627E-03 3.90610E-04-3.15042E-04-1.87814E+08 1.61458E+08 5.45882E-04
 -1       590 4.87627E-03 3.90610E-04-3.15042E-04-1.87814E+08 1.61458E+08 5.45882E-04
 -1       591 8.61838E-03 1.68479E-04 1.30964E-02 4.56500E+07 1.90110E+08-5.99962E-02
 -1       593 8.61838E-03 1.68479E-04 1.30964E-02 4.56500E+07 1.90110E+08-5.99962E-02
 -1       602 1.86546E-02-9.34295E-04-1.67594E-04-1.40168E+08 2.15362E+08 4.84735E-05
 -1       604 1.86546E-02-9.34295E-04-1.67594E-04-1.40168E+08 2.15362E+08 4.84735E-05
 -1       605 1.90302E-02-8.76082E-05 9.29655E-03 1.62996E+07 2.98424E+08-5.12642E-02
 -1       607 1.90302E-02-8.76082E-05 9.29655E-03 1.62996E+07 2.98424E+08-5.12642E-02
 -1       616 3.09455E-02-7.19627E-04-9.16691E-05-1.35344E+08 2.93794E+08 2.42386E-04
 -1       618 3.09455E-02-7.19627E-04-9.16691E-05-1.35344E+08 2.93794E+08 2.42386E-04
 -1       619 2.86166E-02-2.52342E-05 1.52090E-03 3.64304E+07 3.93680E+08-4.60373E-02
 -1       621 2.86166E-02-2.52342E-05 1.52090E-03 3.64304E+07 3.93680E+08-4.60373E-02
 -1       630 4.38600E-02-9.91667E-04-1.25787E-04-1.04843E+08 3.62747E+08 1.60288E-04
 -1       632 4.38600E-02-9.91667E-04-1.25787E-04-1.04843E+08 3.62747E+08 1.60288E-04
 -1       633 3.91324E-02 5.60887E-05 1.35983E-03 1.43237E+07 4.90828E+08-3.96714E-02
 -1       635 3.91324E-02 5.60887E-05 1.35983E-03 1.43237E+07 4.90828E+08-3.96714E-02
 -1       644 5.40425E-02-1.22730E-03-1.79488E-04-9.40843E+07 4.11085E+08 2.26982E-04
 -1       646 5.40425E-02-1.22730E-03-1.79488E-04-9.40843E+07 4.11085E+08 2.26982E-04
 -1       647 4.81195E-02 1.45588E-04 9.77817E-03 2.48567E+07 5.59958E+08-3.15453E-02
 -1       649 4.81195E-02 1.45588E-04 9.77817E-03 2.48567E+07 5.59958E+08-3.15453E-02
 -1       658 5.83782E-02-8.58454E-04 2.38419E-07-6.52785E+07 4.61277E+08 1.02844E-04
 -1       660 5.83782E-02-8.58454E-04 2.38419E-07-6.52785E+07 4.61277E+08 1.02844E-04
 -1       661 5.22378E-02 2.39294E-04 2.03108E-02 9.85478E+06 6.25690E+08-1.77660E-02
 -1       663 5.22378E-02 2.39294E-04 2.03108E-02 9.85478E+06 6.25690E+08-1.77660E-02
 -1       672 5.56521E-02-1.31348E-04 1.82837E-05-4.61774E+07 4.88933E+08 8.57478E-05
 -1       674 5.56521E-02-1.31348E-04 1.82837E-05-4.61774E+07 4.88933E+08 8.57478E-05
 -1       675 4.98918E-02 1.66247E-04 2.04315E-02 1.34125E+07 6.67986E+08-1.23705E-03
 -1       677 4.98918E-02 1.66247E-04 2.04315E-02 1.34125E+07 6.67986E+08-1.23705E-03
 -1       686 4.88728E-02 5.19501E-04-1.23188E-04-1.71927E+07 5.12967E+08-1.25589E-05
 -1       688 4.88728E-02 5.19501E-04-1.23188E-04-1.71927E+07 5.12967E+08-1.25589E-05
 -1       689 4.42187E-02 1.56953E-04 1.19295E-02 2.97748E+06 6.97890E+08 8.93397E-03
 -1       691 4.42187E-02 1.56953E-04 1.19295E-02 2.97748E+06 6.97890E+08 8.93397E-03
 -1       700 4.20436E-02 2.06273E-04 1.63559E-04 5.63481E+06 5.17714E+08-6.26477E-05
 -1       702 4.20436E-02 2.06273E-04 1.63559E-04 5.63481E+06 5.17714E+08-6.26477E-05
 -1       703 3.96184E-02 2.62960E-04 8.89780E-03 2.44940E+06 7.07748E+08 1.25105E-02
 -1       705 3.96184E-02 2.62960E-04 8.89780E-03 2.44940E+06 7.07748E+08 1.25105E-02
 -1       714 3.52281E-02-1.13620E-03-2.40169E-05 3.12148E+07 5.14372E+08-9.31742E-05
 -1       716 3.52281E-02-1.13620E-03-2.40169E-05 3.12148E+07 5.14372E+08-9.31742E-05
 -1       717 3.55511E-02 3.78876E-04 1.52361E-02-5.31751E+06 7.01031E+08 1.86582E-02
 -1       719 3.55511E-02 3.78876E-04 1.52361E-02-5.31751E+06 7.01031E+08 1.86582E-02
 -1       728 2.64387E-02-1.35181E-03-2.15441E-04 5.06056E+07 4.94726E+08-6.01783E-05
 -1       730 2.64387E-02-1.35181E-03-2.15441E-04 5.06056E+07 4.94726E+08-6.01783E-05
 -1       731 2.87749E-02 1.94767E-05 2.10086E-02-7.90320E+06 6.76325E+08 2.91968E-02
 -1       733 2.87749E-02 1.94767E-05 2.10086E-02-7.90320E+06 6.76325E+08 2.91968E-02
 -1       742 1.48496E-02-2.99545E-04-4.75757E-05 6.75318E+07 4.65355E+08-1.36470E-04
 -1       744 1.48496E-02-2.99545E-04-4.75757E-05 6.75318E+07 4.65355E+08-1.36470E-04
 -1       745 1.95031E-02-6.92822E-05 2.02603E-02-1.40117E+07 6.34729E+08 3.85621E-02
 -1       747 1.95031E-02-6.92822E-05 2.02603E-02-1.40117E+07 6.34729E+08 3.85621E-02
 -1       756 7.66397E-04-1.08487E-04 1.08149E-04 7.73389E+07 4.22539E+08-1.94754E-04
 -1       758 7.66397E-04-1.08487E-04 1.08149E-04 7.73389E+07 4.22539E+08-1.94754E-04
 -1       759 8.75620E-03 8.12142E-05 1.64224E-02-1.73310E+07 5.77462E+08 4.40827E-02
 -1       761 8.75620E-03 8.12142E-05 1.64224E-02-1.73310E+07 5.77462E+08 4.40827E-02
 -1       770-1.45780E-02-1.12705E-03 1.47385E-04 8.18670E+07 3.70609E+08-2.07365E-04
 -1       772-1.45780E-02-1.12705E-03 1.47385E-04 8.18670E+07 3.70609E+08-2.07365E-04
 -1       773-3.90603E-03-2.19929E-04 1.31302E-02-2.21542E+07 5.05543E+08 4.56487E-02
 -1       775-3.90603E-03-2.19929E-04 1.31302E-02-2.21542E+07 5.05543E+08 4.56487E-02
 -1       784-2.81246E-02-1.87346E-03 3.67375E-05 7.92808E+07 3.08468E+08-2.18298E-04
 -1       786-2.81246E-02-1.87346E-03 3.67375E-05 7.92808E+07 3.08468E+08-2.18298E-04
 -1       787-1.61952E-02-3.12888E-04 1.05549E-02-2.52987E+07 4.21289E+08 4.31521E-02
 -1       789-1.61952E-02-3.12888E-04 1.05549E-02-2.52987E+07 4.21289E+08 4.31521E-02
 -1       798-3.91205E-02-1.10365E-03 3.60959E-05 7.11843E+07 2.39391E+08-1.85505E-04
 -1       800-3.91205E-02-1.10365E-03 3.60959E-05 7.11843E+07 2.39391E+08-1.85505E-04
 -1       801-2.65425E-02-5.58721E-04 6.16817E-03-2.88265E+07 3.26320E+08 3.70224E-02
 -1       803-2.65425E-02-5.58721E-04 6.16817E-03-2.88265E+07 3.26320E+08 3.70224E-02
 -1       812-5.06466E-02 7.52419E-04 1.52905E-04 5.76664E+07 1.63871E+08-7.62194E-05
 -1       814-5.06466E-02 7.52419E-04 1.52905E-04 5.76664E+07 1.63871E+08-7.62194E-05
 -1       815-3.64770E-02-5.09632E-04 8.19575E-05-3.11200E+07 2.23436E+08 2.72353E-02
 -1       817-3.64770E-02-5.09632E-04 8.19575E-05-3.11200E+07 2.23436E+08 2.72353E-02
 -1       826-6.24986E-02 2.19120E-03 1.81785E-04 4.06459E+07 8.45920E+07-3.63588E-06
 -1       828-6.24986E-02 2.19120E-03 1.81785E-04 4.06459E+07 8.45920E+07-3.63588E-06
 -1       829-4.59796E-02-3.42179E-04-3.33252E-03-3.31554E+07 1.14853E+08 1.47927E-02
 -1       831-4.59796E-02-3.42179E-04-3.33252E-03-3.31554E+07 1.14853E+08 1.47927E-02
 -1       840-7.11500E-02 2.43694E-03 1.51366E-04 2.13488E+07 3.07132E+06 2.26982E-05
 -1       842-7.11500E-02 2.43694E-03 1.51366E-04 2.13488E+07 3.07132E+06 2.26982E-05
 -1       843-5.31990E-02-3.26181E-04-3.04204E-03-3.40866E+07 3.55563E+06 4.20727E-03
 -1       845-5.31990E-02-3.26181E-04-3.04204E-03-3.40866E+07 3.55563E+06 4.20727E-03
 -1       854-7.52672E-02 1.84643E-03 1.41190E-04 1.89241E+06-7.85528E+07 1.11528E-04
 -1       856-7.52672E-02 1.84643E-03 1.41190E-04 1.89241E+06-7.85528E+07 1.11528E-04
 -1       857-5.71317E-02-4.24929E-04-3.32918E-03-3.44048E+07-1.07929E+08-3.10727E-03
 -1       859-5.71317E-02-4.24929E-04-3.32918E-03-3.44048E+07-1.07929E+08-3.10727E-03
 -1       868-7.48801E-02 1.01187E-03 3.71132E-05-1.61797E+07-1.58030E+08 1.83828E-04
 -1       870-7.48801E-02 1.01187E-03 3.71132E-05-1.61797E+07-1.58030E+08 1.83828E-04
 -1       871-5.71478E-02-2.82921E-04-3.28658E-03-3.36406E+07-2.16595E+08-1.14418E-02
 -1       873-5.71478E-02-2.82921E-04-3.28658E-03-3.36406E+07-2.16595E+08-1.14418E-02
 -1       882-7.00887E-02 8.87681E-05-5.60842E-05-3.09365E+07-2.33986E+08 2.33151E-04
 -1       884-7.00887E-02 8.87681E-05-5.60842E-05-3.09365E+07-2.33986E+08 2.33151E-04
 -1       885-5.29720E-02-2.33633E-04 2.20264E-03-3.21198E+07-3.20043E+08-2.08965E-02
 -1       887-5.29720E-02-2.33633E-04 2.20264E-03-3.21198E+07-3.20043E+08-2.08965E-02
 -1       896-6.09556E-02-7.59756E-04 2.95024E-05-4.13573E+07-3.03513E+08 3.16095E-04
 -1       898-6.09556E-02-7.59756E-04 2.95024E-05-4.13573E+07-3.03513E+08 3.16095E-04
 -1       899-4.46971E-02-3.44123E-04 1.09968E-02-2.95550E+07-4.15271E+08-2.69931E-02
 -1       901-4.46971E-02-3.44123E-04 1.09968E-02-2.95550E+07-4.15271E+08-2.69931E-02
 -1       910-4.91389E-02-6.58197E-04-4.63165E-05-4.58894E+07-3.66390E+08 3.26876E-04
 -1       912-4.91389E-02-6.58197E-04-4.63165E-05-4.58894E+07-3.66390E+08 3.26876E-04
 -1       913-3.41920E-02-8.51532E-05 1.72090E-02-2.62706E+07-5.00606E+08-2.86042E-02
 -1       915-3.41920E-02-8.51532E-05 1.72090E-02-2.62706E+07-5.00606E+08-2.86042E-02
 -1       924-3.76860E-02 1.97545E-04 6.22906E-05-4.49031E+07-4.19055E+08 2.57807E-04
 -1       926-3.76860E-02 1.97545E-04 6.22906E-05-4.49031E+07-4.19055E+08 2.57807E-04
 -1       927-2.43843E-02-2.54534E-05 2.05011E-02-2.20739E+07-5.72872E+08-2.74877E-02
 -1       929-2.43843E-02-2.54534E-05 2.05011E-02-2.20739E+07-5.72872E+08-2.74877E-02
 -1       938-2.77055E-02-2.49849E-04-2.42535E-05-3.68648E+07-4.62506E+08 1.99664E-04
 -1       940-2.77055E-02-2.49849E-04-2.42535E-05-3.68648E+07-4.62506E+08 1.99664E-04
 -1       941-1.56594E-02 4.78657E-04 2.30642E-02-1.73429E+07-6.31705E+08-2.41674E-02
 -1       943-1.56594E-02 4.78657E-04 2.30642E-02-1.73429E+07-6.31705E+08-2.41674E-02
 -1       952-1.88544E-02-1.45063E-03-4.99878E-05-2.37147E+07-4.93583E+08 1.30655E-04
 -1       954-1.88544E-02-1.45063E-03-4.99878E-05-2.37147E+07-4.93583E+08 1.30655E-04
 -1       955-8.61335E-03-5.92056E-05 2.32597E-02-1.19708E+07-6.73933E+08-1.83333E-02
 -1       957-8.61335E-03-5.92056E-05 2.32597E-02-1.19708E+07-6.73933E+08-1.83333E-02
 -1       966-1.02747E-02-1.66613E-03 2.11008E-04-5.69864E+06-5.11376E+08 8.53445E-05
 -1       968-1.02747E-02-1.66613E-03 2.11008E-04-5.69864E+06-5.11376E+08 8.53445E-05
 -1       969-3.10727E-03-5.74520E-04 2.12623E-02-6.31754E+06-6.99157E+08-1.04393E-02
 -1       971-3.10727E-03-5.74520E-04 2.12623E-02-6.31754E+06-6.99157E+08-1.04393E-02
 -1       980 7.55626E+08 2.93012E+06-4.56624E+05-1.08363E+08-9.20425E+07 3.42533E+08
 -1       982 7.55626E+08 2.93012E+06-4.56624E+05-1.08363E+08-9.20425E+07 3.42533E+08
 -1       983 1.96655E+06-1.55012E+07 4.72563E+04 4.37649E+06-3.04684E+08-9.91720E+06
 -1       985 1.96655E+06-1.55012E+07 4.72563E+04 4.37649E+06-3.04684E+08-9.91720E+06
 -1       986-9.77440E+08-1.84348E+07-3.41080E+04-9.96599E+07 2.00603E+07-2.93076E+08
 -1       988-9.77440E+08-1.84348E+07-3.41080E+04-9.96599E+07 2.00603E+07-2.93076E+08
 -1       989-6.09484E+08 8.99850E+06-4.31030E+04-7.91441E+07 3.68109E+07 9.33962E+05
 -1       991-6.09484E+08 8.99850E+06-4.31030E+04-7.91441E+07 3.68109E+07 9.33962E+05
 -1       992-3.06398E+08-2.06832E+06-4.30709E+05-6.50330E+07 3.71629E+07-1.36992E+08
 -1       994-3.06398E+08-2.06832E+06-4.30709E+05-6.50330E+07 3.71629E+07-1.36992E+08
 -1       995-4.48045E+07 1.19155E+07 2.14388E+05-5.77547E+07 5.36978E+07-5.88682E+07
 -1       997-4.48045E+07 1.19155E+07 2.14388E+05-5.77547E+07 5.36978E+07-5.88682E+07
 -1       998 1.83249E+08 7.34224E+06-1.88251E+05-4.94158E+07 6.08915E+07-8.29962E+07
 -1      1000 1.83249E+08 7.34224E+06-1.88251E+05-4.94158E+07 6.08915E+07-8.29962E+07
 -1      1001 3.73854E+08 1.51323E+07 2.25460E+05-3.97761E+07 7.17596E+07-5.46577E+07
 -1      1003 3.73854E+08 1.51323E+07 2.25460E+05-3.97761E+07 7.17596E+07-5.46577E+07
 -1      1004 5.26198E+08 1.41820E+07 4.56513E+04-3.10332E+07 7.89086E+07-4.92250E+07
 -1      1006 5.26198E+08 1.41820E+07 4.56513E+04-3.10332E+07 7.89086E+07-4.92250E+07
 -1      1007 6.33575E+08 1.75001E+07 2.20028E+05-1.92446E+07 8.45202E+07-3.10821E+07
 -1      1009 6.33575E+08 1.75001E+07 2.20028E+05-1.92446E+07 8.45202E+07-3.10821E+07
 -1      1010 6.94145E+08 1.76023E+07 1.69397E+05-8.69282E+06 8.85204E+07-1.75293E+07
 -1      1012 6.94145E+08 1.76023E+07 1.69397E+05-8.69282E+06 8.85204E+07-1.75293E+07
 -1      1013 7.05237E+08 1.81143E+07 1.96680E+05 3.29587E+06 8.93065E+07-1.15919E+06
 -1      1015 7.05237E+08 1.81143E+07 1.96680E+05 3.29587E+06 8.93065E+07-1.15919E+06
 -1      1016 6.69271E+08 1.76402E+07 1.83122E+05 1.35087E+07 8.89471E+07 1.42436E+07
 -1      1018 6.69271E+08 1.76402E+07 1.83122E+05 1.35087E+07 8.89471E+07 1.42436E+07
 -1      1019 5.89936E+08 1.63619E+07 1.35807E+05 2.30775E+07 8.52005E+07 2.96545E+07
 -1      1021 5.89936E+08 1.63619E+07 1.35807E+05 2.30775E+07 8.52005E+07 2.96545E+07
 -1      1022 4.75224E+08 1.48179E+07 1.14320E+05 3.00448E+07 8.03337E+07 4.42810E+07
 -1      1024 4.75224E+08 1.48179E+07 1.14320E+05 3.00448E+07 8.03337E+07 4.42810E+07
 -1      1025 3.34444E+08 1.24106E+07 4.00682E+04 3.48598E+07 7.25268E+07 5.77803E+07
 -1      1027 3.34444E+08 1.24106E+07 4.00682E+04 3.48598E+07 7.25268E+07 5.77803E+07
 -1      1028 1.79432E+08 9.99782E+06 3.27628E+03 3.65764E+07 6.36767E+07 6.99672E+07
 -1      1030 1.79432E+08 9.99782E+06 3.27628E+03 3.65764E+07 6.36767E+07 6.99672E+07
 -1      1031 2.21047E+07 7.05337E+06-6.55975E+04 3.56062E+07 5.26032E+07 8.03444E+07
 -1      1033 2.21047E+07 7.05337E+06-6.55975E+04 3.56062E+07 5.26032E+07 8.03444E+07
 -1      1034-1.25384E+08 4.27459E+06-1.05614E+05 3.18068E+07 4.07464E+07 8.88512E+07
 -1      1036-1.25384E+08 4.27459E+06-1.05614E+05 3.18068E+07 4.07464E+07 8.88512E+07
 -1      1037-2.52513E+08 1.36123E+06-1.46846E+05 2.58243E+07 2.75054E+07 9.50888E+07
 -1      1039-2.52513E+08 1.36123E+06-1.46846E+05 2.58243E+07 2.75054E+07 9.50888E+07
 -1      1040-3.50635E+08-1.25101E+06-1.74352E+05 1.80916E+07 1.39069E+07 9.90569E+07
 -1      1042-3.50635E+08-1.25101E+06-1.74352E+05 1.80916E+07 1.39069E+07 9.90569E+07
 -1      1043-4.14134E+08-3.67004E+06-1.75412E+05 9.47169E+06-1.98118E+05 1.00514E+08
 -1      1045-4.14134E+08-3.67004E+06-1.75412E+05 9.47169E+06-1.98118E+05 1.00514E+08
 -1      1046-4.40558E+08-5.73226E+06-1.81590E+05 6.76161E+05-1.41357E+07 9.95142E+07
 -1      1048-4.40558E+08-5.73226E+06-1.81590E+05 6.76161E+05-1.41357E+07 9.95142E+07
 -1      1049-4.30975E+08-7.39269E+06-1.41007E+05-7.38913E+06-2.77353E+07 9.60341E+07
 -1      1051-4.30975E+08-7.39269E+06-1.41007E+05-7.38913E+06-2.77353E+07 9.60341E+07
 -1      1052-3.89731E+08-8.74631E+06-1.28647E+05-1.40996E+07-4.06093E+07 9.00745E+07
 -1      1054-3.89731E+08-8.74631E+06-1.28647E+05-1.40996E+07-4.06093E+07 9.00745E+07
 -1      1055-3.24088E+08-9.65655E+06-5.59272E+04-1.86276E+07-5.24177E+07 8.20926E+07
 -1      1057-3.24088E+08-9.65655E+06-5.59272E+04-1.86276E+07-5.24177E+07 8.20926E+07
 -1      1058-2.43547E+08-1.02713E+07-3.85007E+04-2.09368E+07-6.29371E+07 7.14697E+07
 -1      1060-2.43547E+08-1.02713E+07-3.85007E+04-2.09368E+07-6.29371E+07 7.14697E+07
 -1      1061-1.59125E+08-1.08515E+07 4.79255E+04-2.00004E+07-7.19026E+07 6.03125E+07
 -1      1063-1.59125E+08-1.08515E+07 4.79255E+04-2.00004E+07-7.19026E+07 6.03125E+07
 -1      1064-8.24433E+07-1.04797E+07 5.49504E+04-1.70781E+07-7.89725E+07 4.49185E+07
 -1      1066-8.24433E+07-1.04797E+07 5.49504E+04-1.70781E+07-7.89725E+07 4.49185E+07
 -1      1067-2.46311E+07-1.16103E+07 1.18388E+05-1.06551E+07-8.44332E+07 3.40451E+07
 -1      1069-2.46311E+07-1.16103E+07 1.18388E+05-1.06551E+07-8.44332E+07 3.40451E+07
 -1      1070 2.22270E+06-1.04547E+07 1.50038E+05-1.25705E+06-8.73148E+07 1.06303E+07
 -1      1072 2.22270E+06-1.04547E+07 1.50038E+05-1.25705E+06-8.73148E+07 1.06303E+07
 -1      1073-7.55626E+08-2.93012E+06 4.56624E+05-1.08363E+08-9.20425E+07-3.42533E+08
 -1      1075-7.55626E+08-2.93012E+06 4.56624E+05-1.08363E+08-9.20425E+07-3.42533E+08
 -1      1076-4.18041E-03 2.87515E-05-5.04481E-04-3.22222E+08-2.16272E+07-6.51509E-02
 -1      1078-4.18041E-03 2.87515E-05-5.04481E-04-3.22222E+08-2.16272E+07-6.51509E-02
 -1      1079 1.30806E-02-2.39705E-05 6.07886E-03-4.61137E-03 3.56420E+07-6.68627E-02
 -1      1081 1.30806E-02-2.39705E-05 6.07886E-03-4.61137E-03 3.56420E+07-6.68627E-02
 -1      1082 3.02026E-02-3.29782E-05 1.12506E-02 3.22222E+08-2.16272E+07-6.22525E-02
 -1      1084 3.02026E-02-3.29782E-05 1.12506E-02 3.22222E+08-2.16272E+07-6.22525E-02
 -1      1085 3.48761E-02-3.26648E-05 8.90494E-03-2.02801E+07 1.32928E+07-6.08097E-02
 -1      1087 3.48761E-02-3.26648E-05 8.90494E-03-2.02801E+07 1.32928E+07-6.08097E-02
 -1      1088 4.26202E-02 1.62433E-03 3.98122E-05 1.93105E+08-3.10469E+07-2.29221E-04
 -1      1090 4.26202E-02 1.62433E-03 3.98122E-05 1.93105E+08-3.10469E+07-2.29221E-04
 -1      1099 2.01577E-02-2.48226E-04-1.43969E-03-4.56500E+07 1.90110E+08-5.96401E-02
 -1      1101 2.01577E-02-2.48226E-04-1.43969E-03-4.56500E+07 1.90110E+08-5.96401E-02
 -1      1102 2.35662E-02-8.52378E-04 2.18671E-04 1.87814E+08 1.61458E+08 5.36062E-04
 -1      1104 2.35662E-02-8.52378E-04 2.18671E-04 1.87814E+08 1.61458E+08 5.36062E-04
 -1      1113 6.65304E-03 4.21672E-05-7.95022E-03-1.62996E+07 2.98424E+08-5.41457E-02
 -1      1115 6.65304E-03 4.21672E-05-7.95022E-03-1.62996E+07 2.98424E+08-5.41457E-02
 -1      1116 6.00184E-03 4.87208E-04 5.80573E-05 1.40168E+08 2.15362E+08 7.25724E-05
 -1      1118 6.00184E-03 4.87208E-04 5.80573E-05 1.40168E+08 2.15362E+08 7.25724E-05
 -1      1127-5.82838E-03-6.70700E-05-1.32801E-02-3.64304E+07 3.93680E+08-4.76976E-02
 -1      1129-5.82838E-03-6.70700E-05-1.32801E-02-3.64304E+07 3.93680E+08-4.76976E-02
 -1      1130-8.28577E-03 1.61775E-05 7.13347E-06 1.35344E+08 2.93794E+08 3.40756E-04
 -1      1132-8.28577E-03 1.61775E-05 7.13347E-06 1.35344E+08 2.93794E+08 3.40756E-04
 -1      1141-1.59223E-02-5.23019E-04-1.99382E-02-1.43237E+07 4.90828E+08-3.83713E-02
 -1      1143-1.59223E-02-5.23019E-04-1.99382E-02-1.43237E+07 4.90828E+08-3.83713E-02
 -1      1144-1.93109E-02 9.62151E-04 1.60293E-04 1.04843E+08 3.62747E+08 6.22086E-05
 -1      1146-1.93109E-02 9.62151E-04 1.60293E-04 1.04843E+08 3.62747E+08 6.22086E-05
 -1      1155-2.22240E-02-7.63305E-04-2.29862E-02-2.48567E+07 5.59958E+08-2.52014E-02
 -1      1157-2.22240E-02-7.63305E-04-2.29862E-02-2.48567E+07 5.59958E+08-2.52014E-02
 -1      1158-2.54387E-02 1.75320E-03 1.79458E-04 9.40843E+07 4.11085E+08 6.94990E-05
 -1      1160-2.54387E-02 1.75320E-03 1.79458E-04 9.40843E+07 4.11085E+08 6.94990E-05
 -1      1169-2.31756E-02-3.60341E-04-1.80491E-02-9.85478E+06 6.25690E+08-9.94751E-03
 -1      1171-2.31756E-02-3.60341E-04-1.80491E-02-9.85478E+06 6.25690E+08-9.94751E-03
 -1      1172-2.66130E-02 1.26063E-03 2.82586E-04 6.52785E+07 4.61277E+08-8.50465E-05
 -1      1174-2.66130E-02 1.26063E-03 2.82586E-04 6.52785E+07 4.61277E+08-8.50465E-05
 -1      1183-2.09455E-02-3.03392E-05-1.03196E-02-1.34125E+07 6.67986E+08 1.15390E-04
 -1      1185-2.09455E-02-3.03392E-05-1.03196E-02-1.34125E+07 6.67986E+08 1.15390E-04
 -1      1186-2.58893E-02 7.09735E-04 1.75498E-04 4.61774E+07 4.88933E+08-1.82917E-04
 -1      1188-2.58893E-02 7.09735E-04 1.75498E-04 4.61774E+07 4.88933E+08-1.82917E-04
 -1      1197-1.85082E-02 1.34414E-04-8.47738E-03-2.97748E+06 6.97890E+08 6.28427E-03
 -1      1199-1.85082E-02 1.34414E-04-8.47738E-03-2.97748E+06 6.97890E+08 6.28427E-03
 -1      1200-2.48782E-02 7.66145E-04 2.75150E-05 1.71927E+07 5.12967E+08-3.02064E-04
 -1      1202-2.48782E-02 7.66145E-04 2.75150E-05 1.71927E+07 5.12967E+08-3.02064E-04
 -1      1211-1.41487E-02 3.89807E-04-9.73183E-03-2.44940E+06 7.07748E+08 1.43442E-02
 -1      1213-1.41487E-02 3.89807E-04-9.73183E-03-2.44940E+06 7.07748E+08 1.43442E-02
 -1      1214-2.08351E-02 1.33980E-03 1.44020E-05-5.63481E+06 5.17714E+08-4.14610E-04
 -1      1216-2.08351E-02 1.33980E-03 1.44020E-05-5.63481E+06 5.17714E+08-4.14610E-04
 -1      1225-6.40208E-03 4.83900E-04-5.97374E-03 5.31751E+06 7.01031E+08 2.48625E-02
 -1      1227-6.40208E-03 4.83900E-04-5.97374E-03 5.31751E+06 7.01031E+08 2.48625E-02
 -1      1228-1.28653E-02 1.56619E-03 1.50606E-04-3.12148E+07 5.14372E+08-4.74735E-04
 -1      1230-1.28653E-02 1.56619E-03 1.50606E-04-3.12148E+07 5.14372E+08-4.74735E-04
 -1      1239 1.92927E-03 9.02214E-05 3.50069E-03 7.90320E+06 6.76325E+08 3.34225E-02
 -1      1241 1.92927E-03 9.02214E-05 3.50069E-03 7.90320E+06 6.76325E+08 3.34225E-02
 -1      1242-3.88190E-03 9.71969E-04 2.82809E-04-5.06056E+07 4.94726E+08-5.04056E-04
 -1      1244-3.88190E-03 9.71969E-04 2.82809E-04-5.06056E+07 4.94726E+08-5.04056E-04
 -1      1253 9.91222E-03 2.49356E-06 1.30999E-02 1.40117E+07 6.34729E+08 3.77233E-02
 -1      1255 9.91222E-03 2.49356E-06 1.30999E-02 1.40117E+07 6.34729E+08 3.77233E-02
 -1      1256 5.29830E-03 8.10061E-04 2.21532E-04-6.75318E+07 4.65355E+08-4.66853E-04
 -1      1258 5.29830E-03 8.10061E-04 2.21532E-04-6.75318E+07 4.65355E+08-4.66853E-04
 -1      1267 1.89122E-02 3.38255E-04 1.77314E-02 1.73310E+07 5.77462E+08 3.98751E-02
 -1      1269 1.89122E-02 3.38255E-04 1.77314E-02 1.73310E+07 5.77462E+08 3.98751E-02
 -1      1270 1.66471E-02 1.55543E-03 3.71691E-05-7.73389E+07 4.22539E+08-4.16558E-04
 -1      1272 1.66471E-02 1.55543E-03 3.71691E-05-7.73389E+07 4.22539E+08-4.16558E-04
 -1      1281 2.97644E-02 1.60823E-05 1.91724E-02 2.21542E+07 5.05543E+08 4.22523E-02
 -1      1283 2.97644E-02 1.60823E-05 1.91724E-02 2.21542E+07 5.05543E+08 4.22523E-02
 -1      1284 3.06944E-02 1.15059E-03-5.21233E-05-8.18670E+07 3.70609E+08-3.47197E-04
 -1      1286 3.06944E-02 1.15059E-03-5.21233E-05-8.18670E+07 3.70609E+08-3.47197E-04
 -1      1295 4.19724E-02-3.55876E-04 2.25110E-02 2.52987E+07 4.21289E+08 4.13020E-02
 -1      1297 4.19724E-02-3.55876E-04 2.25110E-02 2.52987E+07 4.21289E+08 4.13020E-02
 -1      1298 4.58690E-02-4.47993E-04-3.35244E-05-7.92808E+07 3.08468E+08-2.24177E-04
 -1      1300 4.58690E-02-4.47993E-04-3.35244E-05-7.92808E+07 3.08468E+08-2.24177E-04
 -1      1309 5.35027E-02-1.62727E-04 2.49528E-02 2.88265E+07 3.26320E+08 3.33018E-02
 -1      1311 5.35027E-02-1.62727E-04 2.49528E-02 2.88265E+07 3.26320E+08 3.33018E-02
 -1      1312 6.01692E-02-1.12296E-03-1.00585E-04-7.11843E+07 2.39391E+08-2.14648E-04
 -1      1314 6.01692E-02-1.12296E-03-1.00585E-04-7.11843E+07 2.39391E+08-2.14648E-04
 -1      1323 6.28377E-02 2.81937E-04 2.28996E-02 3.11200E+07 2.23436E+08 2.25037E-02
 -1      1325 6.28377E-02 2.81937E-04 2.28996E-02 3.11200E+07 2.23436E+08 2.25037E-02
 -1      1326 7.16566E-02-1.61243E-03-2.48718E-04-5.76664E+07 1.63871E+08-9.78000E-05
 -1      1328 7.16566E-02-1.61243E-03-2.48718E-04-5.76664E+07 1.63871E+08-9.78000E-05
 -1      1337 6.77045E-02 2.72212E-04 1.85201E-02 3.31554E+07 1.14853E+08 1.21512E-02
 -1      1339 6.77045E-02 2.72212E-04 1.85201E-02 3.31554E+07 1.14853E+08 1.21512E-02
 -1      1340 7.80227E-02-2.77526E-03-2.21472E-04-4.06459E+07 8.45920E+07 2.10181E-05
 -1      1342 7.80227E-02-2.77526E-03-2.21472E-04-4.06459E+07 8.45920E+07 2.10181E-05
 -1      1351 6.71870E-02 3.06374E-04 1.33713E-02 3.40866E+07 3.55563E+06 2.86630E-03
 -1      1353 6.71870E-02 3.06374E-04 1.33713E-02 3.40866E+07 3.55563E+06 2.86630E-03
 -1      1354 7.88153E-02-2.82210E-03-9.39872E-05-2.13488E+07 3.07132E+06 6.55688E-05
 -1      1356 7.88153E-02-2.82210E-03-9.39872E-05-2.13488E+07 3.07132E+06 6.55688E-05
 -1      1365 6.35243E-02 2.01821E-04 1.01817E-02 3.44048E+07-1.07929E+08-3.34771E-03
 -1      1367 6.35243E-02 2.01821E-04 1.01817E-02 3.44048E+07-1.07929E+08-3.34771E-03
 -1      1368 7.60487E-02-1.60139E-03-1.96863E-05-1.89241E+06-7.85528E+07 9.72375E-05
 -1      1370 7.60487E-02-1.60139E-03-1.96863E-05-1.89241E+06-7.85528E+07 9.72375E-05
 -1      1379 5.81005E-02 1.30480E-06 1.43348E-02 3.36406E+07-2.16595E+08-8.38900E-03
 -1      1381 5.81005E-02 1.30480E-06 1.43348E-02 3.36406E+07-2.16595E+08-8.38900E-03
 -1      1382 7.04352E-02-1.35068E-03 8.48621E-05 1.61797E+07-1.58030E+08 1.06484E-04
 -1      1384 7.04352E-02-1.35068E-03 8.48621E-05 1.61797E+07-1.58030E+08 1.06484E-04
 -1      1393 5.07528E-02 3.06522E-04 2.25833E-02 3.21198E+07-3.20043E+08-1.69893E-02
 -1      1395 5.07528E-02 3.06522E-04 2.25833E-02 3.21198E+07-3.20043E+08-1.69893E-02
 -1      1396 6.16714E-02-1.65923E-03-1.46940E-04 3.09365E+07-2.33986E+08 1.30586E-04
 -1      1398 6.16714E-02-1.65923E-03-1.46940E-04 3.09365E+07-2.33986E+08 1.30586E-04
 -1      1407 4.17573E-02 2.84137E-04 2.29166E-02 2.95550E+07-4.15271E+08-2.75851E-02
 -1      1409 4.17573E-02 2.84137E-04 2.29166E-02 2.95550E+07-4.15271E+08-2.75851E-02
 -1      1410 5.10625E-02-6.69226E-04-2.20735E-04 4.13573E+07-3.03513E+08 1.44318E-04
 -1      1412 5.10625E-02-6.69226E-04-2.20735E-04 4.13573E+07-3.03513E+08 1.44318E-04
 -1      1421 3.23668E-02 4.48731E-05 1.42567E-02 2.62706E+07-5.00606E+08-3.15153E-02
 -1      1423 3.23668E-02 4.48731E-05 1.42567E-02 2.62706E+07-5.00606E+08-3.15153E-02
 -1      1424 4.03152E-02 5.70530E-04 8.73227E-05 4.58894E+07-3.66390E+08 2.44778E-04
 -1      1426 4.03152E-02 5.70530E-04 8.73227E-05 4.58894E+07-3.66390E+08 2.44778E-04
 -1      1435 2.40851E-02 2.48915E-04 7.52004E-03 2.20739E+07-5.72872E+08-2.72430E-02
 -1      1437 2.40851E-02 2.48915E-04 7.52004E-03 2.20739E+07-5.72872E+08-2.72430E-02
 -1      1438 3.04239E-02 8.47233E-04 6.94068E-05 4.49031E+07-4.19055E+08 2.80509E-04
 -1      1440 3.04239E-02 8.47233E-04 6.94068E-05 4.49031E+07-4.19055E+08 2.80509E-04
 -1      1449 1.68810E-02 1.04872E-04 6.00605E-03 1.73429E+07-6.31705E+08-2.20101E-02
 -1      1451 1.68810E-02 1.04872E-04 6.00605E-03 1.73429E+07-6.31705E+08-2.20101E-02
 -1      1452 2.16591E-02 8.89272E-04 2.48303E-04 3.68648E+07-4.62506E+08 2.49682E-04
 -1      1454 2.16591E-02 8.89272E-04 2.48303E-04 3.68648E+07-4.62506E+08 2.49682E-04
 -1      1463 1.01194E-02 4.10170E-04 4.61494E-03 1.19708E+07-6.73933E+08-1.77563E-02
 -1      1465 1.01194E-02 4.10170E-04 4.61494E-03 1.19708E+07-6.73933E+08-1.77563E-02
 -1      1466 1.36814E-02 4.52561E-04 1.93604E-04 2.37147E+07-4.93583E+08 1.44738E-04
 -1      1468 1.36814E-02 4.52561E-04 1.93604E-04 2.37147E+07-4.93583E+08 1.44738E-04
 -1      1477 3.74734E-03 7.22224E-04-4.85054E-04 6.31754E+06-6.99157E+08-1.11305E-02
 -1      1479 3.74734E-03 7.22224E-04-4.85054E-04 6.31754E+06-6.99157E+08-1.11305E-02
 -1      1480 6.82351E-03 1.20937E-03 5.40670E-05 5.69864E+06-5.11376E+08 8.48908E-05
 -1      1482 6.82351E-03 1.20937E-03 5.40670E-05 5.69864E+06-5.11376E+08 8.48908E-05
 -1      1491-7.96707E-04 1.04081E-04 1.70851E-02-1.61020E+06-4.06353E+08-6.16726E-03
 -1      1493-7.96707E-04 1.04081E-04 1.70851E-02-1.61020E+06-4.06353E+08-6.16726E-03
 -1      1494-5.37274E-04 1.55901E-04 9.86801E-03-2.17034E-04-1.04159E+08-6.01456E-03
 -1      1496-5.37274E-04 1.55901E-04 9.86801E-03-2.17034E-04-1.04159E+08-6.01456E-03
 -1      1497 3.57470E-04 1.86660E-04 7.60222E-04 1.61020E+06-4.06353E+08-6.29168E-03
 -1      1499 3.57470E-04 1.86660E-04 7.60222E-04 1.61020E+06-4.06353E+08-6.29168E-03
 -1      1500 9.77440E+08 1.84348E+07 3.41080E+04 9.96599E+07 2.00603E+07-2.93076E+08
 -1      1502 9.77440E+08 1.84348E+07 3.41080E+04 9.96599E+07 2.00603E+07-2.93076E+08
 -1      1503 6.09484E+08-8.99850E+06 4.31030E+04 7.91441E+07 3.68109E+07 9.33962E+05
 -1      1505 6.09484E+08-8.99850E+06 4.31030E+04 7.91441E+07 3.68109E+07 9.33962E+05
 -1      1506 3.06398E+08 2.06832E+06 4.30709E+05 6.50330E+07 3.71629E+07-1.36992E+08
 -1      1508 3.06398E+08 2.06832E+06 4.30709E+05 6.50330E+07 3.71629E+07-1.36992E+08
 -1      1509 4.48045E+07-1.19155E+07-2.14388E+05 5.77547E+07 5.36978E+07-5.88682E+07
 -1      1511 4.48045E+07-1.19155E+07-2.14388E+05 5.77547E+07 5.36978E+07-5.88682E+07
 -1      1512-1.83249E+08-7.34224E+06 1.88251E+05 4.94158E+07 6.08915E+07-8.29962E+07
 -1      1514-1.83249E+08-7.34224E+06 1.88251E+05 4.94158E+07 6.08915E+07-8.29962E+07
 -1      1515-3.73854E+08-1.51323E+07-2.25460E+05 3.97761E+07 7.17596E+07-5.46577E+07
 -1      1517-3.73854E+08-1.51323E+07-2.25460E+05 3.97761E+07 7.17596E+07-5.46577E+07
 -1      1518-5.26198E+08-1.41820E+07-4.56513E+04 3.10332E+07 7.89086E+07-4.92250E+07
 -1      1520-5.26198E+08-1.41820E+07-4.56513E+04 3.10332E+07 7.89086E+07-4.92250E+07
 -1      1521-6.33575E+08-1.75001E+07-2.20028E+05 1.92446E+07 8.45202E+07-3.10821E+07
 -1      1523-6.33575E+08-1.75001E+07-2.20028E+05 1.92446E+07 8.45202E+07-3.10821E+07
 -1      1524-6.94145E+08-1.76023E+07-1.69397E+05 8.69282E+06 8.85204E+07-1.75293E+07
 -1      1526-6.94145E+08-1.76023E+07-1.69397E+05 8.69282E+06 8.85204E+07-1.75293E+07
 -1      1527-7.05237E+08-1.81143E+07-1.96680E+05-3.29587E+06 8.93065E+07-1.15919E+06
 -1      1529-7.05237E+08-1.81143E+07-1.96680E+05-3.29587E+06 8.93065E+07-1.15919E+06
 -1      1530-6.69271E+08-1.76402E+07-1.83122E+05-1.35087E+07 8.89471E+07 1.42436E+07
 -1      1532-6.69271E+08-1.76402E+07-1.83122E+05-1.35087E+07 8.89471E+07 1.42436E+07
 -1      1533-5.89936E+08-1.63619E+07-1.35807E+05-2.30775E+07 8.52005E+07 2.96545E+07
 -1      1535-5.89936E+08-1.63619E+07-1.35807E+05-2.30775E+07 8.52005E+07 2.96545E+07
 -1      1536-4.75224E+08-1.48179E+07-1.14320E+05-3.00448E+07 8.03337E+07 4.42810E+07
 -1      1538-4.75224E+08-1.48179E+07-1.14320E+05-3.00448E+07 8.03337E+07 4.42810E+07
 -1      1539-3.34444E+08-1.24106E+07-4.00682E+04-3.48598E+07 7.25268E+07 5.77803E+07
 -1      1541-3.34444E+08-1.24106E+07-4.00682E+04-3.48598E+07 7.25268E+07 5.77803E+07
 -1      1542-1.79432E+08-9.99782E+06-3.27628E+03-3.65764E+07 6.36767E+07 6.99672E+07
 -1      1544-1.79432E+08-9.99782E+06-3.27628E+03-3.65764E+07 6.36767E+07 6.99672E+07
 -1      1545-2.21047E+07-7.05337E+06 6.55975E+04-3.56062E+07 5.26032E+07 8.03444E+07
 -1      1547-2.21047E+07-7.05337E+06 6.55975E+04-3.56062E+07 5.26032E+07 8.03444E+07
 -1      1548 1.25384E+08-4.27459E+06 1.05614E+05-3.18068E+07 4.07464E+07 8.88512E+07
 -1      1550 1.25384E+08-4.27459E+06 1.05614E+05-3.18068E+07 4.07464E+07 8.88512E+07
 -1      1551 2.52513E+08-1.36123E+06 1.46846E+05-2.58243E+07 2.75054E+07 9.50888E+07
 -1      1553 2.52513E+08-1.36123E+06 1.46846E+05-2.58243E+07 2.75054E+07 9.50888E+07
 -1      1554 3.50635E+08 1.25101E+06 1.74352E+05-1.80916E+07 1.39069E+07 9.90569E+07
 -1      1556 3.50635E+08 1.25101E+06 1.74352E+05-1.80916E+07 1.39069E+07 9.90569E+07
 -1      1557 4.14134E+08 3.67004E+06 1.75412E+05-9.47169E+06-1.98118E+05 1.00514E+08
 -1      1559 4.14134E+08 3.67004E+06 1.75412E+05-9.47169E+06-1.98118E+05 1.00514E+08
 -1      1560 4.40558E+08 5.73226E+06 1.81590E+05-6.76161E+05-1.41357E+07 9.95142E+07
 -1      1562 4.40558E+08 5.73226E+06 1.81590E+05-6.76161E+05-1.41357E+07 9.95142E+07
 -1      1563 4.30975E+08 7.39269E+06 1.41007E+05 7.38913E+06-2.77353E+07 9.60341E+07
 -1      1565 4.30975E+08 7.39269E+06 1.41007E+05 7.38913E+06-2.77353E+07 9.60341E+07
 -1      1566 3.89731E+08 8.74631E+06 1.28647E+05 1.40996E+07-4.06093E+07 9.00745E+07
 -1      1568 3.89731E+08 8.74631E+06 1.28647E+05 1.40996E+07-4.06093E+07 9.00745E+07
 -1      1569 3.24088E+08 9.65655E+06 5.59272E+04 1.86276E+07-5.24177E+07 8.20926E+07
 -1      1571 3.24088E+08 9.65655E+06 5.59272E+04 1.86276E+07-5.24177E+07 8.20926E+07
 -1      1572 2.43547E+08 1.02713E+07 3.85007E+04 2.09368E+07-6.29371E+07 7.14697E+07
 -1      1574 2.43547E+08 1.02713E+07 3.85007E+04 2.09368E+07-6.29371E+07 7.14697E+07
 -1      1575 1.59125E+08 1.08515E+07-4.79255E+04 2.00004E+07-7.19026E+07 6.03125E+07
 -1      1577 1.59125E+08 1.08515E+07-4.79255E+04 2.00004E+07-7.19026E+07 6.03125E+07
 -1      1578 8.24433E+07 1.04797E+07-5.49504E+04 1.70781E+07-7.89725E+07 4.49185E+07
 -1      1580 8.24433E+07 1.04797E+07-5.49504E+04 1.70781E+07-7.89725E+07 4.49185E+07
 -1      1581 2.46311E+07 1.16103E+07-1.18388E+05 1.06551E+07-8.44332E+07 3.40451E+07
 -1      1583 2.46311E+07 1.16103E+07-1.18388E+05 1.06551E+07-8.44332E+07 3.40451E+07
 -1      1584-2.22270E+06 1.04547E+07-1.50038E+05 1.25705E+06-8.73148E+07 1.06303E+07
 -1      1586-2.22270E+06 1.04547E+07-1.50038E+05 1.25705E+06-8.73148E+07 1.06303E+07
 -1      1587-1.96655E+06 1.55012E+07-4.72563E+04-4.37649E+06-3.04684E+08-9.91720E+06
 -1      1589-1.96655E+06 1.55012E+07-4.72563E+04-4.37649E+06-3.04684E+08-9.91720E+06
 -1      1590 7.55626E+08 2.93012E+06-4.56624E+05 1.08363E+08-9.20425E+07-3.42533E+08
 -1      1592 7.55626E+08 2.93012E+06-4.56624E+05 1.08363E+08-9.20425E+07-3.42533E+08
 -1      1593 1.96655E+06-1.55012E+07 4.72563E+04-4.37649E+06-3.04684E+08 9.91720E+06
 -1      1595 1.96655E+06-1.55012E+07 4.72563E+04-4.37649E+06-3.04684E+08 9.91720E+06
 -1      1596-9.77440E+08-1.84348E+07-3.41080E+04 9.96599E+07 2.00603E+07 2.93076E+08
 -1      1598-9.77440E+08-1.84348E+07-3.41080E+04 9.96599E+07 2.00603E+07 2.93076E+08
 -1      1599-6.09484E+08 8.99850E+06-4.31030E+04 7.91441E+07 3.68109E+07-9.33962E+05
 -1      1601-6.09484E+08 8.99850E+06-4.31030E+04 7.91441E+07 3.68109E+07-9.33962E+05
 -1      1602-3.06398E+08-2.06832E+06-4.30709E+05 6.50330E+07 3.71629E+07 1.36992E+08
 -1      1604-3.06398E+08-2.06832E+06-4.30709E+05 6.50330E+07 3.71629E+07 1.36992E+08
 -1      1605-4.48045E+07 1.19155E+07 2.14388E+05 5.77547E+07 5.36978E+07 5.88682E+07
 -1      1607-4.48045E+07 1.19155E+07 2.14388E+05 5.77547E+07 5.36978E+07 5.88682E+07
 -1      1608 1.83249E+08 7.34224E+06-1.88251E+05 4.94158E+07 6.08915E+07 8.29962E+07
 -1      1610 1.83249E+08 7.34224E+06-1.88251E+05 4.94158E+07 6.08915E+07 8.29962E+07
 -1      1611 3.73854E+08 1.51323E+07 2.25460E+05 3.97761E+07 7.17596E+07 5.46577E+07
 -1      1613 3.73854E+08 1.51323E+07 2.25460E+05 3.97761E+07 7.17596E+07 5.46577E+07
 -1      1614 5.26198E+08 1.41820E+07 4.56513E+04 3.10332E+07 7.89086E+07 4.92250E+07
 -1      1616 5.26198E+08 1.41820E+07 4.56513E+04 3.10332E+07 7.89086E+07 4.92250E+07
 -1      1617 6.33575E+08 1.75001E+07 2.20028E+05 1.92446E+07 8.45202E+07 3.10821E+07
 -1      1619 6.33575E+08 1.75001E+07 2.20028E+05 1.92446E+07 8.45202E+07 3.10821E+07
 -1      1620 6.94145E+08 1.76023E+07 1.69397E+05 8.69282E+06 8.85204E+07 1.75293E+07
 -1      1622 6.94145E+08 1.76023E+07 1.69397E+05 8.69282E+06 8.85204E+07 1.75293E+07
 -1      1623 7.05237E+08 1.81143E+07 1.96680E+05-3.29587E+06 8.93065E+07 1.15919E+06
 -1      1625 7.05237E+08 1.81143E+07 1.96680E+05-3.29587E+06 8.93065E+07 1.15919E+06
 -1      1626 6.69271E+08 1.76402E+07 1.83122E+05-1.35087E+07 8.89471E+07-1.42436E+07
 -1      1628 6.69271E+08 1.76402E+07 1.83122E+05-1.35087E+07 8.89471E+07-1.42436E+07
 -1      1629 5.89936E+08 1.63619E+07 1.35807E+05-2.30775E+07 8.52005E+07-2.96545E+07
 -1      1631 5.89936E+08 1.63619E+07 1.35807E+05-2.30775E+07 8.52005E+07-2.96545E+07
 -1      1632 4.75224E+08 1.48179E+07 1.14320E+05-3.00448E+07 8.03337E+07-4.42810E+07
 -1      1634 4.75224E+08 1.48179E+07 1.14320E+05-3.00448E+07 8.03337E+07-4.42810E+07
 -1      1635 3.34444E+08 1.24106E+07 4.00682E+04-3.48598E+07 7.25268E+07-5.77803E+07
 -1      1637 3.34444E+08 1.24106E+07 4.00682E+04-3.48598E+07 7.25268E+07-5.77803E+07
 -1      1638 1.79432E+08 9.99782E+06 3.27628E+03-3.65764E+07 6.36767E+07-6.99672E+07
 -1      1640 1.79432E+08 9.99782E+06 3.27628E+03-3.65764E+07 6.36767E+07-6.99672E+07
 -1      1641 2.21047E+07 7.05337E+06-6.55975E+04-3.56062E+07 5.26032E+07-8.03444E+07
 -1      1643 2.21047E+07 7.05337E+06-6.55975E+04-3.56062E+07 5.26032E+07-8.03444E+07
 -1      1644-1.25384E+08 4.27459E+06-1.05614E+05-3.18068E+07 4.07464E+07-8.88512E+07
 -1      1646-1.25384E+08 4.27459E+06-1.05614E+05-3.18068E+07 4.07464E+07-8.88512E+07
 -1      1647-2.52513E+08 1.36123E+06-1.46846E+05-2.58243E+07 2.75054E+07-9.50888E+07
 -1      1649-2.52513E+08 1.36123E+06-1.46846E+05-2.58243E+07 2.75054E+07-9.50888E+07
 -1      1650-3.50635E+08-1.25101E+06-1.74352E+05-1.80916E+07 1.39069E+07-9.90569E+07
 -1      1652-3.50635E+08-1.25101E+06-1.74352E+05-1.80916E+07 1.39069E+07-9.90569E+07
 -1      1653-4.14134E+08-3.67004E+06-1.75412E+05-9.47169E+06-1.98118E+05-1.00514E+08
 -1      1655-4.14134E+08-3.67004E+06-1.75412E+05-9.47169E+06-1.98118E+05-1.00514E+08
 -1      1656-4.40558E+08-5.73226E+06-1.81590E+05-6.76161E+05-1.41357E+07-9.95142E+07
 -1      1658-4.40558E+08-5.73226E+06-1.81590E+05-6.76161E+05-1.41357E+07-9.95142E+07
 -1      1659-4.30975E+08-7.39269E+06-1.41007E+05 7.38913E+06-2.77353E+07-9.60341E+07
 -1      1661-4.30975E+08-7.39269E+06-1.41007E+05 7.38913E+06-2.77353E+07-9.60341E+07
 -1      1662-3.89731E+08-8.74631E+06-1.28647E+05 1.40996E+07-4.06093E+07-9.00745E+07
 -1      1664-3.89731E+08-8.74631E+06-1.28647E+05 1.40996E+07-4.06093E+07-9.00745E+07
 -1      1665-3.24088E+08-9.65655E+06-5.59272E+04 1.86276E+07-5.24177E+07-8.20926E+07
 -1      1667-3.24088E+08-9.65655E+06-5.59272E+04 1.86276E+07-5.24177E+07-8.20926E+07
 -1      1668-2.43547E+08-1.02713E+07-3.85007E+04 2.09368E+07-6.29371E+07-7.14697E+07
 -1      1670-2.43547E+08-1.02713E+07-3.85007E+04 2.09368E+07-6.29371E+07-7.14697E+07
 -1      1671-1.59125E+08-1.08515E+07 4.79255E+04 2.00004E+07-7.19026E+07-6.03125E+07
 -1      1673-1.59125E+08-1.08515E+07 4.79255E+04 2.00004E+07-7.19026E+07-6.03125E+07
 -1      1674-8.24433E+07-1.04797E+07 5.49504E+04 1.70781E+07-7.89725E+07-4.49185E+07
 -1      1676-8.24433E+07-1.04797E+07 5.49504E+04 1.70781E+07-7.89725E+07-4.49185E+07
 -1      1677-2.46311E+07-1.16103E+07 1.18388E+05 1.06551E+07-8.44332E+07-3.40451E+07
 -1      1679-2.46311E+07-1.16103E+07 1.18388E+05 1.06551E+07-8.44332E+07-3.40451E+07
 -1      1680 2.22270E+06-1.04547E+07 1.50038E+05 1.25705E+06-8.73148E+07-1.06303E+07
 -1      1682 2.22270E+06-1.04547E+07 1.50038E+05 1.25705E+06-8.73148E+07-1.06303E+07
 -1      1683-7.55626E+08-2.93012E+06 4.56624E+05 1.08363E+08-9.20425E+07 3.42533E+08
 -1      1685-7.55626E+08-2.93012E+06 4.56624E+05 1.08363E+08-9.20425E+07 3.42533E+08
 -1      1686 6.44154E+08-2.29518E+05-1.02454E+04-1.46382E+08-5.49328E+06 8.52579E+07
 -1      1688 6.44154E+08-2.29518E+05-1.02454E+04-1.46382E+08-5.49328E+06 8.52579E+07
 -1      1689 4.12112E+08 6.88565E+06 3.05928E+05-1.33479E+08 9.91345E+07-5.29220E+07
 -1      1691 4.12112E+08 6.88565E+06 3.05928E+05-1.33479E+08 9.91345E+07-5.29220E+07
 -1      1692 2.03088E+08-7.57388E+06-3.24460E+05-1.02601E+08 1.26262E+08 1.29520E+07
 -1      1694 2.03088E+08-7.57388E+06-3.24460E+05-1.02601E+08 1.26262E+08 1.29520E+07
 -1      1695 2.85247E+07-1.47534E+07 1.63320E+05-9.65494E+07 1.73746E+08-1.71454E+07
 -1      1697 2.85247E+07-1.47534E+07 1.63320E+05-9.65494E+07 1.73746E+08-1.71454E+07
 -1      1698-1.25231E+08-1.75634E+07-1.85800E+05-7.71295E+07 2.11819E+08-2.33841E+06
 -1      1700-1.25231E+08-1.75634E+07-1.85800E+05-7.71295E+07 2.11819E+08-2.33841E+06
 -1      1701-2.52903E+08-2.67647E+07-5.02819E+04-6.69302E+07 2.41422E+08-7.34495E+06
 -1      1703-2.52903E+08-2.67647E+07-5.02819E+04-6.69302E+07 2.41422E+08-7.34495E+06
 -1      1704-3.55444E+08-2.74147E+07-8.91701E+04-4.81559E+07 2.70093E+08-3.66765E+06
 -1      1706-3.55444E+08-2.74147E+07-8.91701E+04-4.81559E+07 2.70093E+08-3.66765E+06
 -1      1707-4.27328E+08-3.32632E+07-1.63000E+05-3.27110E+07 2.86726E+08-3.18508E+06
 -1      1709-4.27328E+08-3.32632E+07-1.63000E+05-3.27110E+07 2.86726E+08-3.18508E+06
 -1      1710-4.68161E+08-3.29899E+07-5.61509E+04-1.29427E+07 3.00744E+08-1.57723E+06
 -1      1712-4.68161E+08-3.29899E+07-5.61509E+04-1.29427E+07 3.00744E+08-1.57723E+06
 -1      1713-4.75629E+08-3.49849E+07-1.95499E+05 4.46534E+06 3.03510E+08-5.95509E+04
 -1      1715-4.75629E+08-3.49849E+07-1.95499E+05 4.46534E+06 3.03510E+08-5.95509E+04
 -1      1716-4.51653E+08-3.31480E+07-4.79558E+04 2.23618E+07 3.01659E+08 1.26799E+06
 -1      1718-4.51653E+08-3.31480E+07-4.79558E+04 2.23618E+07 3.01659E+08 1.26799E+06
 -1      1719-3.98587E+08-3.18874E+07-1.80342E+05 3.68415E+07 2.89963E+08 2.82159E+06
 -1      1721-3.98587E+08-3.18874E+07-1.80342E+05 3.68415E+07 2.89963E+08 2.82159E+06
 -1      1722-3.21765E+08-2.82732E+07-3.94102E+04 4.87883E+07 2.72844E+08 4.05437E+06
 -1      1724-3.21765E+08-2.82732E+07-3.94102E+04 4.87883E+07 2.72844E+08 4.05437E+06
 -1      1725-2.27478E+08-2.46336E+07-1.39650E+05 5.60993E+07 2.47533E+08 5.37813E+06
 -1      1727-2.27478E+08-2.46336E+07-1.39650E+05 5.60993E+07 2.47533E+08 5.37813E+06
 -1      1728-1.23530E+08-1.96706E+07-2.20521E+04 5.92217E+07 2.17143E+08 6.40418E+06
 -1      1730-1.23530E+08-1.96706E+07-2.20521E+04 5.92217E+07 2.17143E+08 6.40418E+06
 -1      1731-1.79913E+07-1.46909E+07-8.80644E+04 5.74435E+07 1.80536E+08 7.38144E+06
 -1      1733-1.79913E+07-1.46909E+07-8.80644E+04 5.74435E+07 1.80536E+08 7.38144E+06
 -1      1734 8.11157E+07-9.18696E+06 2.39644E+03 5.14956E+07 1.40069E+08 8.07531E+06
 -1      1736 8.11157E+07-9.18696E+06 2.39644E+03 5.14956E+07 1.40069E+08 8.07531E+06
 -1      1737 1.66672E+08-3.92639E+06-3.59425E+04 4.17454E+07 9.56882E+07 8.63562E+06
 -1      1739 1.66672E+08-3.92639E+06-3.59425E+04 4.17454E+07 9.56882E+07 8.63562E+06
 -1      1740 2.32958E+08 1.25134E+06 2.79714E+04 2.93687E+07 4.92495E+07 8.91502E+06
 -1      1742 2.32958E+08 1.25134E+06 2.79714E+04 2.93687E+07 4.92495E+07 8.91502E+06
 -1      1743 2.76158E+08 5.91344E+06 9.62680E+03 1.54102E+07 1.43660E+06 9.02549E+06
 -1      1745 2.76158E+08 5.91344E+06 9.62680E+03 1.54102E+07 1.43660E+06 9.02549E+06
 -1      1746 2.94650E+08 1.01021E+07 4.86434E+04 1.28429E+06-4.63443E+07 8.86182E+06
 -1      1748 2.94650E+08 1.01021E+07 4.86434E+04 1.28429E+06-4.63443E+07 8.86182E+06
 -1      1749 2.89103E+08 1.36398E+07 4.48932E+04-1.17844E+07-9.28825E+07 8.52354E+06
 -1      1751 2.89103E+08 1.36398E+07 4.48932E+04-1.17844E+07-9.28825E+07 8.52354E+06
 -1      1752 2.62421E+08 1.65104E+07 6.07884E+04-2.25181E+07-1.37298E+08 7.95383E+06
 -1      1754 2.62421E+08 1.65104E+07 6.07884E+04-2.25181E+07-1.37298E+08 7.95383E+06
 -1      1755 2.19380E+08 1.88682E+07 6.91952E+04-2.99924E+07-1.77966E+08 7.16599E+06
 -1      1757 2.19380E+08 1.88682E+07 6.91952E+04-2.99924E+07-1.77966E+08 7.16599E+06
 -1      1758 1.66404E+08 2.03145E+07 6.48632E+04-3.34131E+07-2.14664E+08 6.36006E+06
 -1      1760 1.66404E+08 2.03145E+07 6.48632E+04-3.34131E+07-2.14664E+08 6.36006E+06
 -1      1761 1.10666E+08 2.20791E+07 8.17206E+04-3.24518E+07-2.45479E+08 4.95597E+06
 -1      1763 1.10666E+08 2.20791E+07 8.17206E+04-3.24518E+07-2.45479E+08 4.95597E+06
 -1      1764 6.00112E+07 2.17533E+07 7.15727E+04-2.69714E+07-2.70739E+08 4.53536E+06
 -1      1766 6.00112E+07 2.17533E+07 7.15727E+04-2.69714E+07-2.70739E+08 4.53536E+06
 -1      1767 2.23939E+07 2.42743E+07 6.44975E+04-1.71849E+07-2.89008E+08 1.50185E+06
 -1      1769 2.23939E+07 2.42743E+07 6.44975E+04-1.71849E+07-2.89008E+08 1.50185E+06
 -1      1770 2.90419E+06 2.20903E+07 1.33471E+05-3.47784E+06-2.99346E+08 3.90327E+06
 -1      1772 2.90419E+06 2.20903E+07 1.33471E+05-3.47784E+06-2.99346E+08 3.90327E+06
 -1      1773-6.44154E+08 2.29518E+05 1.02454E+04-1.46382E+08-5.49328E+06-8.52579E+07
 -1      1775-6.44154E+08 2.29518E+05 1.02454E+04-1.46382E+08-5.49328E+06-8.52579E+07
 -1      1776-4.12112E+08-6.88565E+06-3.05928E+05-1.33479E+08 9.91345E+07 5.29220E+07
 -1      1778-4.12112E+08-6.88565E+06-3.05928E+05-1.33479E+08 9.91345E+07 5.29220E+07
 -1      1779-2.03088E+08 7.57388E+06 3.24460E+05-1.02601E+08 1.26262E+08-1.29520E+07
 -1      1781-2.03088E+08 7.57388E+06 3.24460E+05-1.02601E+08 1.26262E+08-1.29520E+07
 -1      1782-2.85247E+07 1.47534E+07-1.63320E+05-9.65494E+07 1.73746E+08 1.71454E+07
 -1      1784-2.85247E+07 1.47534E+07-1.63320E+05-9.65494E+07 1.73746E+08 1.71454E+07
 -1      1785 1.25231E+08 1.75634E+07 1.85800E+05-7.71295E+07 2.11819E+08 2.33841E+06
 -1      1787 1.25231E+08 1.75634E+07 1.85800E+05-7.71295E+07 2.11819E+08 2.33841E+06
 -1      1788 2.52903E+08 2.67647E+07 5.02819E+04-6.69302E+07 2.41422E+08 7.34495E+06
 -1      1790 2.52903E+08 2.67647E+07 5.02819E+04-6.69302E+07 2.41422E+08 7.34495E+06
 -1      1791 3.55444E+08 2.74147E+07 8.91701E+04-4.81559E+07 2.70093E+08 3.66765E+06
 -1      1793 3.55444E+08 2.74147E+07 8.91701E+04-4.81559E+07 2.70093E+08 3.66765E+06
 -1      1794 4.27328E+08 3.32632E+07 1.63000E+05-3.27110E+07 2.86726E+08 3.18508E+06
 -1      1796 4.27328E+08 3.32632E+07 1.63000E+05-3.27110E+07 2.86726E+08 3.18508E+06
 -1      1797 4.68161E+08 3.29899E+07 5.61509E+04-1.29427E+07 3.00744E+08 1.57723E+06
 -1      1799 4.68161E+08 3.29899E+07 5.61509E+04-1.29427E+07 3.00744E+08 1.57723E+06
 -1      1800 4.75629E+08 3.49849E+07 1.95499E+05 4.46534E+06 3.03510E+08 5.95509E+04
 -1      1802 4.75629E+08 3.49849E+07 1.95499E+05 4.46534E+06 3.03510E+08 5.95509E+04
 -1      1803 4.51653E+08 3.31480E+07 4.79558E+04 2.23618E+07 3.01659E+08-1.26799E+06
 -1      1805 4.51653E+08 3.31480E+07 4.79558E+04 2.23618E+07 3.01659E+08-1.26799E+06
 -1      1806 3.98587E+08 3.18874E+07 1.80342E+05 3.68415E+07 2.89963E+08-2.82159E+06
 -1      1808 3.98587E+08 3.18874E+07 1.80342E+05 3.68415E+07 2.89963E+08-2.82159E+06
 -1      1809 3.21765E+08 2.82732E+07 3.94102E+04 4.87883E+07 2.72844E+08-4.05437E+06
 -1      1811 3.21765E+08 2.82732E+07 3.94102E+04 4.87883E+07 2.72844E+08-4.05437E+06
 -1      1812 2.27478E+08 2.46336E+07 1.39650E+05 5.60993E+07 2.47533E+08-5.37813E+06
 -1      1814 2.27478E+08 2.46336E+07 1.39650E+05 5.60993E+07 2.47533E+08-5.37813E+06
 -1      1815 1.23530E+08 1.96706E+07 2.20521E+04 5.92217E+07 2.17143E+08-6.40418E+06
 -1      1817 1.23530E+08 1.96706E+07 2.20521E+04 5.92217E+07 2.17143E+08-6.40418E+06
 -1      1818 1.79913E+07 1.46909E+07 8.80644E+04 5.74435E+07 1.80536E+08-7.38144E+06
 -1      1820 1.79913E+07 1.46909E+07 8.80644E+04 5.74435E+07 1.80536E+08-7.38144E+06
 -1      1821-8.11157E+07 9.18696E+06-2.39644E+03 5.14956E+07 1.40069E+08-8.07531E+06
 -1      1823-8.11157E+07 9.18696E+06-2.39644E+03 5.14956E+07 1.40069E+08-8.07531E+06
 -1      1824-1.66672E+08 3.92639E+06 3.59425E+04 4.17454E+07 9.56882E+07-8.63562E+06
 -1      1826-1.66672E+08 3.92639E+06 3.59425E+04 4.17454E+07 9.56882E+07-8.63562E+06
 -1      1827-2.32958E+08-1.25134E+06-2.79714E+04 2.93687E+07 4.92495E+07-8.91502E+06
 -1      1829-2.32958E+08-1.25134E+06-2.79714E+04 2.93687E+07 4.92495E+07-8.91502E+06
 -1      1830-2.76158E+08-5.91344E+06-9.62680E+03 1.54102E+07 1.43660E+06-9.02549E+06
 -1      1832-2.76158E+08-5.91344E+06-9.62680E+03 1.54102E+07 1.43660E+06-9.02549E+06
 -1      1833-2.94650E+08-1.01021E+07-4.86434E+04 1.28429E+06-4.63443E+07-8.86182E+06
 -1      1835-2.94650E+08-1.01021E+07-4.86434E+04 1.28429E+06-4.63443E+07-8.86182E+06
 -1      1836-2.89103E+08-1.36398E+07-4.48932E+04-1.17844E+07-9.28825E+07-8.52354E+06
 -1      1838-2.89103E+08-1.36398E+07-4.48932E+04-1.17844E+07-9.28825E+07-8.52354E+06
 -1      1839-2.62421E+08-1.65104E+07-6.07884E+04-2.25181E+07-1.37298E+08-7.95383E+06
 -1      1841-2.62421E+08-1.65104E+07-6.07884E+04-2.25181E+07-1.37298E+08-7.95383E+06
 -1      1842-2.19380E+08-1.88682E+07-6.91952E+04-2.99924E+07-1.77966E+08-7.16599E+06
 -1      1844-2.19380E+08-1.88682E+07-6.91952E+04-2.99924E+07-1.77966E+08-7.16599E+06
 -1      1845-1.66404E+08-2.03145E+07-6.48632E+04-3.34131E+07-2.14664E+08-6.36006E+06
 -1      1847-1.66404E+08-2.03145E+07-6.48632E+04-3.34131E+07-2.14664E+08-6.36006E+06
 -1      1848-1.10666E+08-2.20791E+07-8.17206E+04-3.24518E+07-2.45479E+08-4.95597E+06
 -1      1850-1.10666E+08-2.20791E+07-8.17206E+04-3.24518E+07-2.45479E+08-4.95597E+06
 -1      1851-6.00112E+07-2.17533E+07-7.15727E+04-2.69714E+07-2.70739E+08-4.53536E+06
 -1      1853-6.00112E+07-2.17533E+07-7.15727E+04-2.69714E+07-2.70739E+08-4.53536E+06
 -1      1854-2.23939E+07-2.42743E+07-6.44975E+04-1.71849E+07-2.89008E+08-1.50185E+06
 -1      1856-2.23939E+07-2.42743E+07-6.44975E+04-1.71849E+07-2.89008E+08-1.50185E+06
 -1      1857-2.90419E+06-2.20903E+07-1.33471E+05-3.47784E+06-2.99346E+08-3.90327E+06
 -1      1859-2.90419E+06-2.20903E+07-1.33471E+05-3.47784E+06-2.99346E+08-3.90327E+06
 -1      1860 2.17811E-04-7.35418E-06 4.59244E-03-8.67750E+07 2.72228E+07-6.71734E-02
 -1      1862 2.17811E-04-7.35418E-06 4.59244E-03-8.67750E+07 2.72228E+07-6.71734E-02
 -1      1863 8.58085E-03-1.04239E-04 1.05079E-02-5.15787E+06 1.15328E+08-6.42724E-02
 -1      1865 8.58085E-03-1.04239E-04 1.05079E-02-5.15787E+06 1.15328E+08-6.42724E-02
 -1      1866 1.62875E-02-1.69658E-04 6.29647E-03-5.50660E+07 1.74751E+08-5.63374E-02
 -1      1868 1.62875E-02-1.69658E-04 6.29647E-03-5.50660E+07 1.74751E+08-5.63374E-02
 -1      1869 2.38862E-02-8.66380E-05-9.81710E-04-1.81122E+07 2.30774E+08-4.95189E-02
 -1      1871 2.38862E-02-8.66380E-05-9.81710E-04-1.81122E+07 2.30774E+08-4.95189E-02
 -1      1872 3.13436E-02-1.89327E-05-1.50076E-03-3.67438E+07 2.83627E+08-4.17999E-02
 -1      1874 3.13436E-02-1.89327E-05-1.50076E-03-3.67438E+07 2.83627E+08-4.17999E-02
 -1      1875 3.66630E-02 2.69048E-05 5.65539E-03-1.72339E+07 3.24736E+08-3.19115E-02
 -1      1877 3.66630E-02 2.69048E-05 5.65539E-03-1.72339E+07 3.24736E+08-3.19115E-02
 -1      1878 3.80918E-02 3.27730E-05 1.44852E-02-2.21118E+07 3.61243E+08-1.75026E-02
 -1      1880 3.80918E-02 3.27730E-05 1.44852E-02-2.21118E+07 3.61243E+08-1.75026E-02
 -1      1881 3.65876E-02 8.16170E-05 1.51613E-02-9.69609E+06 3.85927E+08-1.63269E-03
 -1      1883 3.65876E-02 8.16170E-05 1.51613E-02-9.69609E+06 3.85927E+08-1.63269E-03
 -1      1884 3.43770E-02 1.26228E-04 8.69987E-03-8.32139E+06 4.02724E+08 8.84361E-03
 -1      1886 3.43770E-02 1.26228E-04 8.69987E-03-8.32139E+06 4.02724E+08 8.84361E-03
 -1      1887 3.23354E-02 9.42187E-05 6.29247E-03 9.43073E+05 4.08226E+08 1.40663E-02
 -1      1889 3.23354E-02 9.42187E-05 6.29247E-03 9.43073E+05 4.08226E+08 1.40663E-02
 -1      1890 2.92411E-02 2.54323E-04 1.19507E-02 4.95933E+06 4.04225E+08 2.13619E-02
 -1      1892 2.92411E-02 2.54323E-04 1.19507E-02 4.95933E+06 4.04225E+08 2.13619E-02
 -1      1893 2.40284E-02 1.01174E-04 1.81490E-02 1.24112E+07 3.89652E+08 3.19708E-02
 -1      1895 2.40284E-02 1.01174E-04 1.81490E-02 1.24112E+07 3.89652E+08 3.19708E-02
 -1      1896 1.77979E-02-1.59787E-04 1.91527E-02 1.70991E+07 3.65602E+08 4.11456E-02
 -1      1898 1.77979E-02-1.59787E-04 1.91527E-02 1.70991E+07 3.65602E+08 4.11456E-02
 -1      1899 1.10194E-02 2.26957E-05 1.69756E-02 2.30106E+07 3.32270E+08 4.67122E-02
 -1      1901 1.10194E-02 2.26957E-05 1.69756E-02 2.30106E+07 3.32270E+08 4.67122E-02
 -1      1902 2.35013E-03-3.64237E-06 1.48566E-02 2.71795E+07 2.90755E+08 4.83166E-02
 -1      1904 2.35013E-03-3.64237E-06 1.48566E-02 2.71795E+07 2.90755E+08 4.83166E-02
 -1      1905-6.81326E-03-2.48402E-04 1.32844E-02 3.14339E+07 2.41966E+08 4.54392E-02
 -1      1907-6.81326E-03-2.48402E-04 1.32844E-02 3.14339E+07 2.41966E+08 4.54392E-02
 -1      1908-1.41991E-02-4.83636E-04 1.02283E-02 3.43400E+07 1.87225E+08 3.84081E-02
 -1      1910-1.41991E-02-4.83636E-04 1.02283E-02 3.43400E+07 1.87225E+08 3.84081E-02
 -1      1911-2.02397E-02-3.61249E-04 5.01947E-03 3.67511E+07 1.27852E+08 2.77434E-02
 -1      1913-2.02397E-02-3.61249E-04 5.01947E-03 3.67511E+07 1.27852E+08 2.77434E-02
 -1      1914-2.63288E-02-1.45046E-04 5.46416E-04 3.79662E+07 6.53760E+07 1.49615E-02
 -1      1916-2.63288E-02-1.45046E-04 5.46416E-04 3.79662E+07 6.53760E+07 1.49615E-02
 -1      1917-3.22942E-02-2.36131E-04-1.14927E-03 3.84334E+07 1.33025E+06 4.05581E-03
 -1      1919-3.22942E-02-2.36131E-04-1.14927E-03 3.84334E+07 1.33025E+06 4.05581E-03
 -1      1920-3.61677E-02-3.38358E-04-1.35049E-03 3.77841E+07-6.26817E+07-3.84182E-03
 -1      1922-3.61677E-02-3.38358E-04-1.35049E-03 3.77841E+07-6.26817E+07-3.84182E-03
 -1      1923-3.70928E-02-3.15774E-04 1.93937E-04 3.63619E+07-1.25063E+08-1.23293E-02
 -1      1925-3.70928E-02-3.15774E-04 1.93937E-04 3.63619E+07-1.25063E+08-1.23293E-02
 -1      1926-3.53819E-02-1.57274E-04 5.72406E-03 3.38823E+07-1.84324E+08-2.19122E-02
 -1      1928-3.53819E-02-1.57274E-04 5.72406E-03 3.38823E+07-1.84324E+08-2.19122E-02
 -1      1929-3.06229E-02-4.18941E-06 1.31666E-02 3.08112E+07-2.38899E+08-2.89180E-02
 -1      1931-3.06229E-02-4.18941E-06 1.31666E-02 3.08112E+07-2.38899E+08-2.89180E-02
 -1      1932-2.35449E-02-1.09021E-06 1.81449E-02 2.66762E+07-2.87646E+08-3.12044E-02
 -1      1934-2.35449E-02-1.09021E-06 1.81449E-02 2.66762E+07-2.87646E+08-3.12044E-02
 -1      1935-1.64612E-02 8.39961E-06 2.05742E-02 2.24178E+07-3.29064E+08-2.96446E-02
 -1      1937-1.64612E-02 8.39961E-06 2.05742E-02 2.24178E+07-3.29064E+08-2.96446E-02
 -1      1938-1.06136E-02 1.61058E-04 2.21375E-02 1.68099E+07-3.62549E+08-2.56262E-02
 -1      1940-1.06136E-02 1.61058E-04 2.21375E-02 1.68099E+07-3.62549E+08-2.56262E-02
 -1      1941-6.10363E-03-1.53289E-05 2.17122E-02 1.21806E+07-3.86849E+08-1.94764E-02
 -1      1943-6.10363E-03-1.53289E-05 2.17122E-02 1.21806E+07-3.86849E+08-1.94764E-02
 -1      1944-2.48632E-03-6.01295E-05 1.88879E-02 4.96008E+06-4.01353E+08-1.10148E-02
 -1      1946-2.48632E-03-6.01295E-05 1.88879E-02 4.96008E+06-4.01353E+08-1.10148E-02
 -1      1947 1.21947E-02-9.38051E-05 6.84247E-03-1.25317E-03 4.11527E+07-6.91377E-02
 -1      1949 1.21947E-02-9.38051E-05 6.84247E-03-1.25317E-03 4.11527E+07-6.91377E-02
 -1      1950 1.15629E-02-1.59696E-04 5.67463E-03 3.37109E-04 4.05449E+07-6.89194E-02
 -1      1952 1.15629E-02-1.59696E-04 5.67463E-03 3.37109E-04 4.05449E+07-6.89194E-02
 -1      1953 1.24212E-02-1.68744E-04-1.40412E-04-4.42476E-04 5.10785E+07-6.22694E-02
 -1      1955 1.24212E-02-1.68744E-04-1.40412E-04-4.42476E-04 5.10785E+07-6.22694E-02
 -1      1956 1.36066E-02-1.20043E-04-6.54227E-03-2.21938E-04 6.78680E+07-5.34997E-02
 -1      1958 1.36066E-02-1.20043E-04-6.54227E-03-2.21938E-04 6.78680E+07-5.34997E-02
 -1      1959 1.46655E-02-2.72995E-07-8.48716E-03-3.42011E-04 7.64253E+07-4.35615E-02
 -1      1961 1.46655E-02-2.72995E-07-8.48716E-03-3.42011E-04 7.64253E+07-4.35615E-02
 -1      1962 1.42909E-02 9.99677E-05-4.69584E-03-1.77871E-04 8.95141E+07-3.07528E-02
 -1      1964 1.42909E-02 9.99677E-05-4.69584E-03-1.77871E-04 8.95141E+07-3.07528E-02
 -1      1965 1.24162E-02 8.25710E-05 1.68842E-03-2.26352E-04 9.67962E+07-1.53644E-02
 -1      1967 1.24162E-02 8.25710E-05 1.68842E-03-2.26352E-04 9.67962E+07-1.53644E-02
 -1      1968 1.20648E-02 9.56000E-05 4.57621E-03 7.18143E-06 1.03868E+08-1.42948E-03
 -1      1970 1.20648E-02 9.56000E-05 4.57621E-03 7.18143E-06 1.03868E+08-1.42948E-03
 -1      1971 1.41561E-02 2.50382E-04 2.10891E-03 8.83059E-05 1.07559E+08 8.38294E-03
 -1      1973 1.41561E-02 2.50382E-04 2.10891E-03 8.83059E-05 1.07559E+08 8.38294E-03
 -1      1974 1.62734E-02 1.34607E-04 4.71070E-04 5.58174E-05 1.08705E+08 1.59998E-02
 -1      1976 1.62734E-02 1.34607E-04 4.71070E-04 5.58174E-05 1.08705E+08 1.59998E-02
 -1      1977 1.66126E-02-9.94153E-05 4.67752E-03 3.58513E-05 1.07419E+08 2.53712E-02
 -1      1979 1.66126E-02-9.94153E-05 4.67752E-03 3.58513E-05 1.07419E+08 2.53712E-02
 -1      1980 1.55272E-02-2.62537E-05 1.17824E-02-2.17184E-06 1.02979E+08 3.57345E-02
 -1      1982 1.55272E-02-2.62537E-05 1.17824E-02-2.17184E-06 1.02979E+08 3.57345E-02
 -1      1983 1.47296E-02 9.75459E-05 1.65619E-02 1.05798E-05 9.64745E+07 4.35471E-02
 -1      1985 1.47296E-02 9.75459E-05 1.65619E-02 1.05798E-05 9.64745E+07 4.35471E-02
 -1      1986 1.47519E-02 2.07098E-04 1.78331E-02 3.34516E-04 8.70770E+07 4.82493E-02
 -1      1988 1.47519E-02 2.07098E-04 1.78331E-02 3.34516E-04 8.70770E+07 4.82493E-02
 -1      1989 1.39151E-02 1.13118E-04 1.78357E-02 2.33840E-04 7.59681E+07 4.98455E-02
 -1      1991 1.39151E-02 1.13118E-04 1.78357E-02 2.33840E-04 7.59681E+07 4.98455E-02
 -1      1992 1.18546E-02-3.24226E-04 1.81664E-02 1.93499E-04 6.26433E+07 4.67711E-02
 -1      1994 1.18546E-02-3.24226E-04 1.81664E-02 1.93499E-04 6.26433E+07 4.67711E-02
 -1      1995 1.08843E-02-3.03687E-04 1.74217E-02 9.92008E-05 4.81299E+07 3.86570E-02
 -1      1997 1.08843E-02-3.03687E-04 1.74217E-02 9.92008E-05 4.81299E+07 3.86570E-02
 -1      1998 1.17470E-02-1.09941E-04 1.35742E-02 2.10479E-06 3.22683E+07 2.71612E-02
 -1      2000 1.17470E-02-1.09941E-04 1.35742E-02 2.10479E-06 3.22683E+07 2.71612E-02
 -1      2001 1.14829E-02-8.03907E-06 7.83464E-03 1.89133E-05 1.58994E+07 1.46076E-02
 -1      2003 1.14829E-02-8.03907E-06 7.83464E-03 1.89133E-05 1.58994E+07 1.46076E-02
 -1      2004 8.52628E-03-7.26619E-05 3.37927E-03 1.70935E-04-8.95121E+05 3.91417E-03
 -1      2006 8.52628E-03-7.26619E-05 3.37927E-03 1.70935E-04-8.95121E+05 3.91417E-03
 -1      2007 5.12034E-03-1.89340E-04 2.81980E-03 1.44031E-04-1.74348E+07-3.99029E-03
 -1      2009 5.12034E-03-1.89340E-04 2.81980E-03 1.44031E-04-1.74348E+07-3.99029E-03
 -1      2010 1.81672E-03-2.40685E-04 6.63718E-03 1.01585E-04-3.35313E+07-1.19084E-02
 -1      2012 1.81672E-03-2.40685E-04 6.63718E-03 1.01585E-04-3.35313E+07-1.19084E-02
 -1      2013-1.78275E-03-3.20225E-04 1.24808E-02 2.12554E-04-4.86041E+07-2.16736E-02
 -1      2015-1.78275E-03-3.20225E-04 1.24808E-02 2.12554E-04-4.86041E+07-2.16736E-02
 -1      2016-3.25930E-03-1.41078E-04 1.67848E-02 2.93393E-04-6.25258E+07-3.05994E-02
 -1      2018-3.25930E-03-1.41078E-04 1.67848E-02 2.93393E-04-6.25258E+07-3.05994E-02
 -1      2019-1.85187E-03 7.79754E-05 1.78048E-02 1.77026E-04-7.46858E+07-3.41328E-02
 -1      2021-1.85187E-03 7.79754E-05 1.78048E-02 1.77026E-04-7.46858E+07-3.41328E-02
 -1      2022-1.33245E-04 7.74189E-05 1.74370E-02 4.41354E-05-8.52558E+07-3.15744E-02
 -1      2024-1.33245E-04 7.74189E-05 1.74370E-02 4.41354E-05-8.52558E+07-3.15744E-02
 -1      2025 2.53658E-04 8.36259E-05 1.74545E-02 5.31059E-05-9.33926E+07-2.63533E-02
 -1      2027 2.53658E-04 8.36259E-05 1.74545E-02 5.31059E-05-9.33926E+07-2.63533E-02
 -1      2028-2.89267E-04 1.90185E-07 1.62010E-02 1.78957E-04-9.97646E+07-2.00726E-02
 -1      2030-2.89267E-04 1.90185E-07 1.62010E-02 1.78957E-04-9.97646E+07-2.00726E-02
 -1      2031-6.05533E-04-3.54290E-05 1.23490E-02 9.36302E-05-1.03549E+08-1.12932E-02
 -1      2033-6.05533E-04-3.54290E-05 1.23490E-02 9.36302E-05-1.03549E+08-1.12932E-02
 -1      2034 2.58020E-02-8.65471E-05 8.17103E-03 8.67750E+07 2.72228E+07-6.47519E-02
 -1      2036 2.58020E-02-8.65471E-05 8.17103E-03 8.67750E+07 2.72228E+07-6.47519E-02
 -1      2037 1.73701E-02-9.53311E-05 9.95128E-04 5.15787E+06 1.15328E+08-6.44651E-02
 -1      2039 1.73701E-02-9.53311E-05 9.95128E-04 5.15787E+06 1.15328E+08-6.44651E-02
 -1      2040 8.97525E-03-2.18070E-05-5.76372E-03 5.50660E+07 1.74751E+08-5.86369E-02
 -1      2042 8.97525E-03-2.18070E-05-5.76372E-03 5.50660E+07 1.74751E+08-5.86369E-02
 -1      2043 1.11456E-03-7.95576E-05-1.14401E-02 1.81122E+07 2.30774E+08-5.08483E-02
 -1      2045 1.11456E-03-7.95576E-05-1.14401E-02 1.81122E+07 2.30774E+08-5.08483E-02
 -1      2046-5.07301E-03-2.14806E-04-1.62756E-02 3.67438E+07 2.83627E+08-4.07830E-02
 -1      2048-5.07301E-03-2.14806E-04-1.62756E-02 3.67438E+07 2.83627E+08-4.07830E-02
 -1      2049-9.42438E-03-2.35796E-04-1.69553E-02 1.72339E+07 3.24736E+08-2.72147E-02
 -1      2051-9.42438E-03-2.35796E-04-1.69553E-02 1.72339E+07 3.24736E+08-2.72147E-02
 -1      2052-1.11445E-02-1.07257E-05-1.16659E-02 2.21118E+07 3.61243E+08-1.17186E-02
 -1      2054-1.11445E-02-1.07257E-05-1.16659E-02 2.21118E+07 3.61243E+08-1.17186E-02
 -1      2055-1.00496E-02 8.19365E-05-5.52915E-03 9.69609E+06 3.85927E+08-3.57616E-04
 -1      2057-1.00496E-02 8.19365E-05-5.52915E-03 9.69609E+06 3.85927E+08-3.57616E-04
 -1      2058-7.36573E-03 2.69837E-04-4.86492E-03 8.32139E+06 4.02724E+08 7.14845E-03
 -1      2060-7.36573E-03 2.69837E-04-4.86492E-03 8.32139E+06 4.02724E+08 7.14845E-03
 -1      2061-3.32713E-03 3.66772E-04-6.23842E-03-9.43073E+05 4.08226E+08 1.53609E-02
 -1      2063-3.32713E-03 3.66772E-04-6.23842E-03-9.43073E+05 4.08226E+08 1.53609E-02
 -1      2064 1.94601E-03 7.76494E-05-2.64202E-03-4.95933E+06 4.04225E+08 2.57697E-02
 -1      2066 1.94601E-03 7.76494E-05-2.64202E-03-4.95933E+06 4.04225E+08 2.57697E-02
 -1      2067 6.85089E-03-7.25783E-05 5.88807E-03-1.24112E+07 3.89652E+08 3.50734E-02
 -1      2069 6.85089E-03-7.25783E-05 5.88807E-03-1.24112E+07 3.89652E+08 3.50734E-02
 -1      2070 1.16393E-02 2.23938E-04 1.40894E-02-1.70991E+07 3.65602E+08 4.05442E-02
 -1      2072 1.16393E-02 2.23938E-04 1.40894E-02-1.70991E+07 3.65602E+08 4.05442E-02
 -1      2073 1.75667E-02 3.94137E-04 1.79344E-02-2.30106E+07 3.32270E+08 4.35160E-02
 -1      2075 1.75667E-02 3.94137E-04 1.79344E-02-2.30106E+07 3.32270E+08 4.35160E-02
 -1      2076 2.44942E-02 1.48368E-05 1.91304E-02-2.71795E+07 2.90755E+08 4.54794E-02
 -1      2078 2.44942E-02 1.48368E-05 1.91304E-02-2.71795E+07 2.90755E+08 4.54794E-02
 -1      2079 3.15564E-02-4.10206E-04 2.14149E-02-3.14339E+07 2.41966E+08 4.35589E-02
 -1      2081 3.15564E-02-4.10206E-04 2.14149E-02-3.14339E+07 2.41966E+08 4.35589E-02
 -1      2082 3.85634E-02-1.80775E-04 2.27539E-02-3.43400E+07 1.87225E+08 3.54110E-02
 -1      2084 3.85634E-02-1.80775E-04 2.27539E-02-3.43400E+07 1.87225E+08 3.54110E-02
 -1      2085 4.51670E-02 1.37460E-04 2.00455E-02-3.67511E+07 1.27852E+08 2.42874E-02
 -1      2087 4.51670E-02 1.37460E-04 2.00455E-02-3.67511E+07 1.27852E+08 2.42874E-02
 -1      2088 4.86741E-02 1.02024E-04 1.48820E-02-3.79662E+07 6.53760E+07 1.31180E-02
 -1      2090 4.86741E-02 1.02024E-04 1.48820E-02-3.79662E+07 6.53760E+07 1.31180E-02
 -1      2091 4.78145E-02 1.53565E-04 9.69316E-03-3.84334E+07 1.33025E+06 3.39514E-03
 -1      2093 4.78145E-02 1.53565E-04 9.69316E-03-3.84334E+07 1.33025E+06 3.39514E-03
 -1      2094 4.44844E-02 3.74631E-05 7.59654E-03-3.77841E+07-6.26817E+07-3.37596E-03
 -1      2096 4.44844E-02 3.74631E-05 7.59654E-03-3.77841E+07-6.26817E+07-3.37596E-03
 -1      2097 3.93859E-02-6.57202E-05 1.19674E-02-3.63619E+07-1.25063E+08-9.49451E-03
 -1      2099 3.93859E-02-6.57202E-05 1.19674E-02-3.63619E+07-1.25063E+08-9.49451E-03
 -1      2100 3.24896E-02-1.26506E-04 1.91497E-02-3.38823E+07-1.84324E+08-1.87043E-02
 -1      2102 3.24896E-02-1.26506E-04 1.91497E-02-3.38823E+07-1.84324E+08-1.87043E-02
 -1      2103 2.58937E-02-1.66882E-04 2.05749E-02-3.08112E+07-2.38899E+08-2.89706E-02
 -1      2105 2.58937E-02-1.66882E-04 2.05749E-02-3.08112E+07-2.38899E+08-2.89706E-02
 -1      2106 2.07804E-02 5.89256E-05 1.53928E-02-2.66762E+07-2.87646E+08-3.29882E-02
 -1      2108 2.07804E-02 5.89256E-05 1.53928E-02-2.66762E+07-2.87646E+08-3.29882E-02
 -1      2109 1.61783E-02 1.80750E-04 1.08734E-02-2.24178E+07-3.29064E+08-2.92951E-02
 -1      2111 1.61783E-02 1.80750E-04 1.08734E-02-2.24178E+07-3.29064E+08-2.92951E-02
 -1      2112 1.14781E-02 2.14332E-04 9.85205E-03-1.68099E+07-3.62549E+08-2.38158E-02
 -1      2114 1.14781E-02 2.14332E-04 9.85205E-03-1.68099E+07-3.62549E+08-2.38158E-02
 -1      2115 6.56738E-03 1.91001E-04 8.42612E-03-1.21806E+07-3.86849E+08-1.86410E-02
 -1      2117 6.56738E-03 1.91001E-04 8.42612E-03-1.21806E+07-3.86849E+08-1.86410E-02
 -1      2118 2.20082E-03 9.85521E-05 3.84973E-03-4.96008E+06-4.01353E+08-1.10633E-02
 -1      2120 2.20082E-03 9.85521E-05 3.84973E-03-4.96008E+06-4.01353E+08-1.10633E-02
 -1      2121 6.44154E+08-2.29518E+05-1.02454E+04 1.46382E+08-5.49328E+06-8.52579E+07
 -1      2123 6.44154E+08-2.29518E+05-1.02454E+04 1.46382E+08-5.49328E+06-8.52579E+07
 -1      2124 4.12112E+08 6.88565E+06 3.05928E+05 1.33479E+08 9.91345E+07 5.29220E+07
 -1      2126 4.12112E+08 6.88565E+06 3.05928E+05 1.33479E+08 9.91345E+07 5.29220E+07
 -1      2127 2.03088E+08-7.57388E+06-3.24460E+05 1.02601E+08 1.26262E+08-1.29520E+07
 -1      2129 2.03088E+08-7.57388E+06-3.24460E+05 1.02601E+08 1.26262E+08-1.29520E+07
 -1      2130 2.85247E+07-1.47534E+07 1.63320E+05 9.65494E+07 1.73746E+08 1.71454E+07
 -1      2132 2.85247E+07-1.47534E+07 1.63320E+05 9.65494E+07 1.73746E+08 1.71454E+07
 -1      2133-1.25231E+08-1.75634E+07-1.85800E+05 7.71295E+07 2.11819E+08 2.33841E+06
 -1      2135-1.25231E+08-1.75634E+07-1.85800E+05 7.71295E+07 2.11819E+08 2.33841E+06
 -1      2136-2.52903E+08-2.67647E+07-5.02819E+04 6.69302E+07 2.41422E+08 7.34495E+06
 -1      2138-2.52903E+08-2.67647E+07-5.02819E+04 6.69302E+07 2.41422E+08 7.34495E+06
 -1      2139-3.55444E+08-2.74147E+07-8.91701E+04 4.81559E+07 2.70093E+08 3.66765E+06
 -1      2141-3.55444E+08-2.74147E+07-8.91701E+04 4.81559E+07 2.70093E+08 3.66765E+06
 -1      2142-4.27328E+08-3.32632E+07-1.63000E+05 3.27110E+07 2.86726E+08 3.18508E+06
 -1      2144-4.27328E+08-3.32632E+07-1.63000E+05 3.27110E+07 2.86726E+08 3.18508E+06
 -1      2145-4.68161E+08-3.29899E+07-5.61509E+04 1.29427E+07 3.00744E+08 1.57723E+06
 -1      2147-4.68161E+08-3.29899E+07-5.61509E+04 1.29427E+07 3.00744E+08 1.57723E+06
 -1      2148-4.75629E+08-3.49849E+07-1.95499E+05-4.46534E+06 3.03510E+08 5.95509E+04
 -1      2150-4.75629E+08-3.49849E+07-1.95499E+05-4.46534E+06 3.03510E+08 5.95509E+04
 -1      2151-4.51653E+08-3.31480E+07-4.79558E+04-2.23618E+07 3.01659E+08-1.26799E+06
 -1      2153-4.51653E+08-3.31480E+07-4.79558E+04-2.23618E+07 3.01659E+08-1.26799E+06
 -1      2154-3.98587E+08-3.18874E+07-1.80342E+05-3.68415E+07 2.89963E+08-2.82159E+06
 -1      2156-3.98587E+08-3.18874E+07-1.80342E+05-3.68415E+07 2.89963E+08-2.82159E+06
 -1      2157-3.21765E+08-2.82732E+07-3.94102E+04-4.87883E+07 2.72844E+08-4.05437E+06
 -1      2159-3.21765E+08-2.82732E+07-3.94102E+04-4.87883E+07 2.72844E+08-4.05437E+06
 -1      2160-2.27478E+08-2.46336E+07-1.39650E+05-5.60993E+07 2.47533E+08-5.37813E+06
 -1      2162-2.27478E+08-2.46336E+07-1.39650E+05-5.60993E+07 2.47533E+08-5.37813E+06
 -1      2163-1.23530E+08-1.96706E+07-2.20521E+04-5.92217E+07 2.17143E+08-6.40418E+06
 -1      2165-1.23530E+08-1.96706E+07-2.20521E+04-5.92217E+07 2.17143E+08-6.40418E+06
 -1      2166-1.79913E+07-1.46909E+07-8.80644E+04-5.74435E+07 1.80536E+08-7.38144E+06
 -1      2168-1.79913E+07-1.46909E+07-8.80644E+04-5.74435E+07 1.80536E+08-7.38144E+06
 -1      2169 8.11157E+07-9.18696E+06 2.39644E+03-5.14956E+07 1.40069E+08-8.07531E+06
 -1      2171 8.11157E+07-9.18696E+06 2.39644E+03-5.14956E+07 1.40069E+08-8.07531E+06
 -1      2172 1.66672E+08-3.92639E+06-3.59425E+04-4.17454E+07 9.56882E+07-8.63562E+06
 -1      2174 1.66672E+08-3.92639E+06-3.59425E+04-4.17454E+07 9.56882E+07-8.63562E+06
 -1      2175 2.32958E+08 1.25134E+06 2.79714E+04-2.93687E+07 4.92495E+07-8.91502E+06
 -1      2177 2.32958E+08 1.25134E+06 2.79714E+04-2.93687E+07 4.92495E+07-8.91502E+06
 -1      2178 2.76158E+08 5.91344E+06 9.62680E+03-1.54102E+07 1.43660E+06-9.02549E+06
 -1      2180 2.76158E+08 5.91344E+06 9.62680E+03-1.54102E+07 1.43660E+06-9.02549E+06
 -1      2181 2.94650E+08 1.01021E+07 4.86434E+04-1.28429E+06-4.63443E+07-8.86182E+06
 -1      2183 2.94650E+08 1.01021E+07 4.86434E+04-1.28429E+06-4.63443E+07-8.86182E+06
 -1      2184 2.89103E+08 1.36398E+07 4.48932E+04 1.17844E+07-9.28825E+07-8.52354E+06
 -1      2186 2.89103E+08 1.36398E+07 4.48932E+04 1.17844E+07-9.28825E+07-8.52354E+06
 -1      2187 2.62421E+08 1.65104E+07 6.07884E+04 2.25181E+07-1.37298E+08-7.95383E+06
 -1      2189 2.62421E+08 1.65104E+07 6.07884E+04 2.25181E+07-1.37298E+08-7.95383E+06
 -1      2190 2.19380E+08 1.88682E+07 6.91952E+04 2.99924E+07-1.77966E+08-7.16599E+06
 -1      2192 2.19380E+08 1.88682E+07 6.91952E+04 2.99924E+07-1.77966E+08-7.16599E+06
 -1      2193 1.66404E+08 2.03145E+07 6.48632E+04 3.34131E+07-2.14664E+08-6.36006E+06
 -1      2195 1.66404E+08 2.03145E+07 6.48632E+04 3.34131E+07-2.14664E+08-6.36006E+06
 -1      2196 1.10666E+08 2.20791E+07 8.17206E+04 3.24518E+07-2.45479E+08-4.95597E+06
 -1      2198 1.10666E+08 2.20791E+07 8.17206E+04 3.24518E+07-2.45479E+08-4.95597E+06
 -1      2199 6.00112E+07 2.17533E+07 7.15727E+04 2.69714E+07-2.70739E+08-4.53536E+06
 -1      2201 6.00112E+07 2.17533E+07 7.15727E+04 2.69714E+07-2.70739E+08-4.53536E+06
 -1      2202 2.23939E+07 2.42743E+07 6.44975E+04 1.71849E+07-2.89008E+08-1.50185E+06
 -1      2204 2.23939E+07 2.42743E+07 6.44975E+04 1.71849E+07-2.89008E+08-1.50185E+06
 -1      2205 2.90419E+06 2.20903E+07 1.33471E+05 3.47784E+06-2.99346E+08-3.90327E+06
 -1      2207 2.90419E+06 2.20903E+07 1.33471E+05 3.47784E+06-2.99346E+08-3.90327E+06
 -1      2208-6.44154E+08 2.29518E+05 1.02454E+04 1.46382E+08-5.49328E+06 8.52579E+07
 -1      2210-6.44154E+08 2.29518E+05 1.02454E+04 1.46382E+08-5.49328E+06 8.52579E+07
 -1      2211-4.12112E+08-6.88565E+06-3.05928E+05 1.33479E+08 9.91345E+07-5.29220E+07
 -1      2213-4.12112E+08-6.88565E+06-3.05928E+05 1.33479E+08 9.91345E+07-5.29220E+07
 -1      2214-2.03088E+08 7.57388E+06 3.24460E+05 1.02601E+08 1.26262E+08 1.29520E+07
 -1      2216-2.03088E+08 7.57388E+06 3.24460E+05 1.02601E+08 1.26262E+08 1.29520E+07
 -1      2217-2.85247E+07 1.47534E+07-1.63320E+05 9.65494E+07 1.73746E+08-1.71454E+07
 -1      2219-2.85247E+07 1.47534E+07-1.63320E+05 9.65494E+07 1.73746E+08-1.71454E+07
 -1      2220 1.25231E+08 1.75634E+07 1.85800E+05 7.71295E+07 2.11819E+08-2.33841E+06
 -1      2222 1.25231E+08 1.75634E+07 1.85800E+05 7.71295E+07 2.11819E+08-2.33841E+06
 -1      2223 2.52903E+08 2.67647E+07 5.02819E+04 6.69302E+07 2.41422E+08-7.34495E+06
 -1      2225 2.52903E+08 2.67647E+07 5.02819E+04 6.69302E+07 2.41422E+08-7.34495E+06
 -1      2226 3.55444E+08 2.74147E+07 8.91701E+04 4.81559E+07 2.70093E+08-3.66765E+06
 -1      2228 3.55444E+08 2.74147E+07 8.91701E+04 4.81559E+07 2.70093E+08-3.66765E+06
 -1      2229 4.27328E+08 3.32632E+07 1.63000E+05 3.27110E+07 2.86726E+08-3.18508E+06
 -1      2231 4.27328E+08 3.32632E+07 1.63000E+05 3.27110E+07 2.86726E+08-3.18508E+06
 -1      2232 4.68161E+08 3.29899E+07 5.61509E+04 1.29427E+07 3.00744E+08-1.57723E+06
 -1      2234 4.68161E+08 3.29899E+07 5.61509E+04 1.29427E+07 3.00744E+08-1.57723E+06
 -1      2235 4.75629E+08 3.49849E+07 1.95499E+05-4.46534E+06 3.03510E+08-5.95509E+04
 -1      2237 4.75629E+08 3.49849E+07 1.95499E+05-4.46534E+06 3.03510E+08-5.95509E+04
 -1      2238 4.51653E+08 3.31480E+07 4.79558E+04-2.23618E+07 3.01659E+08 1.26799E+06
 -1      2240 4.51653E+08 3.31480E+07 4.79558E+04-2.23618E+07 3.01659E+08 1.26799E+06
 -1      2241 3.98587E+08 3.18874E+07 1.80342E+05-3.68415E+07 2.89963E+08 2.82159E+06
 -1      2243 3.98587E+08 3.18874E+07 1.80342E+05-3.68415E+07 2.89963E+08 2.82159E+06
 -1      2244 3.21765E+08 2.82732E+07 3.94102E+04-4.87883E+07 2.72844E+08 4.05437E+06
 -1      2246 3.21765E+08 2.82732E+07 3.94102E+04-4.87883E+07 2.72844E+08 4.05437E+06
 -1      2247 2.27478E+08 2.46336E+07 1.39650E+05-5.60993E+07 2.47533E+08 5.37813E+06
 -1      2249 2.27478E+08 2.46336E+07 1.39650E+05-5.60993E+07 2.47533E+08 5.37813E+06
 -1      2250 1.23530E+08 1.96706E+07 2.20521E+04-5.92217E+07 2.17143E+08 6.40418E+06
 -1      2252 1.23530E+08 1.96706E+07 2.20521E+04-5.92217E+07 2.17143E+08 6.40418E+06
 -1      2253 1.79913E+07 1.46909E+07 8.80644E+04-5.74435E+07 1.80536E+08 7.38144E+06
 -1      2255 1.79913E+07 1.46909E+07 8.80644E+04-5.74435E+07 1.80536E+08 7.38144E+06
 -1      2256-8.11157E+07 9.18696E+06-2.39644E+03-5.14956E+07 1.40069E+08 8.07531E+06
 -1      2258-8.11157E+07 9.18696E+06-2.39644E+03-5.14956E+07 1.40069E+08 8.07531E+06
 -1      2259-1.66672E+08 3.92639E+06 3.59425E+04-4.17454E+07 9.56882E+07 8.63562E+06
 -1      2261-1.66672E+08 3.92639E+06 3.59425E+04-4.17454E+07 9.56882E+07 8.63562E+06
 -1      2262-2.32958E+08-1.25134E+06-2.79714E+04-2.93687E+07 4.92495E+07 8.91502E+06
 -1      2264-2.32958E+08-1.25134E+06-2.79714E+04-2.93687E+07 4.92495E+07 8.91502E+06
 -1      2265-2.76158E+08-5.91344E+06-9.62680E+03-1.54102E+07 1.43660E+06 9.02549E+06
 -1      2267-2.76158E+08-5.91344E+06-9.62680E+03-1.54102E+07 1.43660E+06 9.02549E+06
 -1      2268-2.94650E+08-1.01021E+07-4.86434E+04-1.28429E+06-4.63443E+07 8.86182E+06
 -1      2270-2.94650E+08-1.01021E+07-4.86434E+04-1.28429E+06-4.63443E+07 8.86182E+06
 -1      2271-2.89103E+08-1.36398E+07-4.48932E+04 1.17844E+07-9.28825E+07 8.52354E+06
 -1      2273-2.89103E+08-1.36398E+07-4.48932E+04 1.17844E+07-9.28825E+07 8.52354E+06
 -1      2274-2.62421E+08-1.65104E+07-6.07884E+04 2.25181E+07-1.37298E+08 7.95383E+06
 -1      2276-2.62421E+08-1.65104E+07-6.07884E+04 2.25181E+07-1.37298E+08 7.95383E+06
 -1      2277-2.19380E+08-1.88682E+07-6.91952E+04 2.99924E+07-1.77966E+08 7.16599E+06
 -1      2279-2.19380E+08-1.88682E+07-6.91952E+04 2.99924E+07-1.77966E+08 7.16599E+06
 -1      2280-1.66404E+08-2.03145E+07-6.48632E+04 3.34131E+07-2.14664E+08 6.36006E+06
 -1      2282-1.66404E+08-2.03145E+07-6.48632E+04 3.34131E+07-2.14664E+08 6.36006E+06
 -1      2283-1.10666E+08-2.20791E+07-8.17206E+04 3.24518E+07-2.45479E+08 4.95597E+06
 -1      2285-1.10666E+08-2.20791E+07-8.17206E+04 3.24518E+07-2.45479E+08 4.95597E+06
 -1      2286-6.00112E+07-2.17533E+07-7.15727E+04 2.69714E+07-2.70739E+08 4.53536E+06
 -1      2288-6.00112E+07-2.17533E+07-7.15727E+04 2.69714E+07-2.70739E+08 4.53536E+06
 -1      2289-2.23939E+07-2.42743E+07-6.44975E+04 1.71849E+07-2.89008E+08 1.50185E+06
 -1      2291-2.23939E+07-2.42743E+07-6.44975E+04 1.71849E+07-2.89008E+08 1.50185E+06
 -1      2292-2.90419E+06-2.20903E+07-1.33471E+05 3.47784E+06-2.99346E+08 3.90327E+06
 -1      2294-2.90419E+06-2.20903E+07-1.33471E+05 3.47784E+06-2.99346E+08 3.90327E+06
 -3
    1PSTEP                        55           1           1          
    1PGM                1.000000E+00                                  
    1PGK                9.503010E+06                                  
    1PHID                         -1                                  
    1PSUBC                         0                                  
    1PMODE                        14                                  
  100CL  114 490.6261891         930                     2   14MODAL      1
 -4  FORC        4    1
 -5  F1          1    2    1    0
 -5  F2          1    2    2    0
 -5  F3          1    2    3    0
 -5  ALL         1    2    0    0    1ALL
 -1       404-1.42278E+06-1.57179E+05-8.55201E+05
 -1       406 9.55341E+05 2.59540E+05-8.55201E+05
 -1       407 1.04596E+02 2.93154E+03-9.89684E+04
 -1       409 1.04596E+02 2.93154E+03-9.89684E+04
 -1       410-3.18167E-06 2.57997E+06 3.89852E-06
 -1       412-3.10488E-06-2.60451E+06 4.28090E-06
 -1       413 1.33879E-06 4.48521E+04 4.06921E+06
 -1       415 1.23923E-06 4.48521E+04-4.06921E+06
 -1       424 9.59454E-06 1.80021E+05-3.62361E-06
 -1       426-4.22727E-06-2.10944E+04-2.99518E-06
 -1       427 4.15837E+05-9.87721E+05 2.83933E+05
 -1       429-4.15837E+05-9.87721E+05-2.83933E+05
 -1       438-1.04596E+02 2.93154E+03 9.89684E+04
 -1       440-1.04596E+02 2.93154E+03 9.89684E+04
 -1       441 1.42278E+06-1.57179E+05 8.55201E+05
 -1       443-9.55341E+05 2.59540E+05 8.55201E+05
 -1       444-4.15837E+05 9.87721E+05 2.83933E+05
 -1       446 4.15837E+05 9.87721E+05-2.83933E+05
 -1       447-1.74241E-05-1.80021E+05-2.16384E-06
 -1       449-4.03664E-06 2.10944E+04-1.64958E-06
 -1       458-1.16561E-06-4.48521E+04 4.06921E+06
 -1       460-1.19698E-06-4.48521E+04-4.06921E+06
 -1       461 2.93361E-06-2.57997E+06 2.30859E-06
 -1       463 2.78353E-06 2.60451E+06 8.70221E-07
 -1       472-1.42278E+06 1.57179E+05 8.55201E+05
 -1       474 9.55341E+05-2.59540E+05 8.55201E+05
 -1       475 1.04596E+02-2.93154E+03 9.89684E+04
 -1       477 1.04596E+02-2.93154E+03 9.89684E+04
 -1       478-1.04596E+02-2.93154E+03-9.89684E+04
 -1       480-1.04596E+02-2.93154E+03-9.89684E+04
 -1       481 1.42278E+06 1.57179E+05-8.55201E+05
 -1       483-9.55341E+05-2.59540E+05-8.55201E+05
 -1       484 5.72673E+02-8.73539E+02 2.71639E+04
 -1       486 5.72673E+02-8.73539E+02 2.71639E+04
 -1       487 9.99982E+02-2.24598E+03 5.73553E+04
 -1       489 9.99982E+02-2.24598E+03 5.73553E+04
 -1       490 1.24757E+03-4.09005E+03 8.65400E+04
 -1       492 1.24757E+03-4.09005E+03 8.65400E+04
 -1       493 1.34308E+03-6.15929E+03 1.13115E+05
 -1       495 1.34308E+03-6.15929E+03 1.13115E+05
 -1       496 1.30730E+03-8.25287E+03 1.36991E+05
 -1       498 1.30730E+03-8.25287E+03 1.36991E+05
 -1       499 1.15884E+03-1.01888E+04 1.57364E+05
 -1       501 1.15884E+03-1.01888E+04 1.57364E+05
 -1       502 9.18441E+02-1.18137E+04 1.73873E+05
 -1       504 9.18441E+02-1.18137E+04 1.73873E+05
 -1       505 6.08173E+02-1.30059E+04 1.86067E+05
 -1       507 6.08173E+02-1.30059E+04 1.86067E+05
 -1       508 2.52888E+02-1.36778E+04 1.93682E+05
 -1       510 2.52888E+02-1.36778E+04 1.93682E+05
 -1       511-1.21681E+02-1.37816E+04 1.96522E+05
 -1       513-1.21681E+02-1.37816E+04 1.96522E+05
 -1       514-4.89536E+02-1.33086E+04 1.94524E+05
 -1       516-4.89536E+02-1.33086E+04 1.94524E+05
 -1       517-8.26435E+02-1.22894E+04 1.87733E+05
 -1       519-8.26435E+02-1.22894E+04 1.87733E+05
 -1       520-1.11122E+03-1.07896E+04 1.76312E+05
 -1       522-1.11122E+03-1.07896E+04 1.76312E+05
 -1       523-1.32742E+03-8.90423E+03 1.60534E+05
 -1       525-1.32742E+03-8.90423E+03 1.60534E+05
 -1       526-1.46422E+03-6.74946E+03 1.40779E+05
 -1       528-1.46422E+03-6.74946E+03 1.40779E+05
 -1       529-1.51721E+03-4.45308E+03 1.17525E+05
 -1       531-1.51721E+03-4.45308E+03 1.17525E+05
 -1       532-1.48845E+03-2.14448E+03 9.13361E+04
 -1       534-1.48845E+03-2.14448E+03 9.13361E+04
 -1       535-1.38607E+03 5.52174E+01 6.28523E+04
 -1       537-1.38607E+03 5.52174E+01 6.28523E+04
 -1       538-1.22339E+03 2.04200E+03 3.27717E+04
 -1       540-1.22339E+03 2.04200E+03 3.27717E+04
 -1       541-1.01752E+03 3.73602E+03 1.83547E+03
 -1       543-1.01752E+03 3.73602E+03 1.83547E+03
 -1       544-7.87749E+02 5.08627E+03-2.91901E+04
 -1       546-7.87749E+02 5.08627E+03-2.91901E+04
 -1       547-5.53738E+02 6.07256E+03-5.95326E+04
 -1       549-5.53738E+02 6.07256E+03-5.95326E+04
 -1       550-3.33677E+02 6.70461E+03-8.84332E+04
 -1       552-3.33677E+02 6.70461E+03-8.84332E+04
 -1       553-1.42626E+02 7.01844E+03-1.15165E+05
 -1       555-1.42626E+02 7.01844E+03-1.15165E+05
 -1       556 8.87535E+00 7.07028E+03-1.39055E+05
 -1       558 8.87536E+00 7.07028E+03-1.39055E+05
 -1       559 1.15789E+02 6.92891E+03-1.59493E+05
 -1       561 1.15789E+02 6.92891E+03-1.59493E+05
 -1       562 1.79235E+02 6.66588E+03-1.75967E+05
 -1       564 1.79235E+02 6.66588E+03-1.75967E+05
 -1       565 2.06345E+02 6.34769E+03-1.88040E+05
 -1       567 2.06345E+02 6.34769E+03-1.88040E+05
 -1       568 2.10626E+02 6.02287E+03-1.95430E+05
 -1       570 2.10626E+02 6.02287E+03-1.95430E+05
 -1       571 1.39076E+02 5.86112E+03-1.28730E+05
 -1       573 1.39076E+02 5.86112E+03-1.28730E+05
 -1       574-2.19944E-05-2.53438E+05-2.14975E-06
 -1       576-2.20664E-05 4.48506E+05-3.07462E-06
 -1       577 2.16343E-05-1.07080E+05-5.50944E+05
 -1       579 2.15590E-05-1.07080E+05 5.50944E+05
 -1       588-2.14757E-05-1.59135E+06 9.90236E-06
 -1       590-2.14967E-05 1.37070E+06 6.74212E-06
 -1       591 2.26663E-05 8.93415E+04-2.32486E+06
 -1       593 2.25464E-05 8.93415E+04 2.32486E+06
 -1       602-1.86068E-05-2.15148E+06 3.47747E-06
 -1       604-1.85265E-05 2.29791E+06 1.81524E-06
 -1       605 2.03350E-05-1.06784E+05-3.49226E+06
 -1       607 2.02002E-05-1.06784E+05 3.49226E+06
 -1       616-1.74385E-05-2.96995E+06 2.08839E-06
 -1       618-1.72928E-05 2.91702E+06 1.21053E-06
 -1       619 1.74897E-05-1.98802E+04-4.62059E+06
 -1       621 1.72221E-05-1.98802E+04 4.62059E+06
 -1       630-1.50185E-05-3.54464E+06 9.45510E-07
 -1       632-1.50695E-05 3.67613E+06-3.34329E-07
 -1       633 1.44020E-05-1.24297E+05-5.66746E+06
 -1       635 1.42814E-05-1.24297E+05 5.66746E+06
 -1       644-1.08352E-05-4.11426E+06 4.58265E-06
 -1       646-1.09123E-05 4.15456E+06 2.61298E-06
 -1       647 1.12203E-05-8.95890E+04-6.49007E+06
 -1       649 1.15129E-05-8.95890E+04 6.49007E+06
 -1       658-4.72779E-06-4.53111E+06 8.98367E-06
 -1       660-4.77304E-06 4.66372E+06 8.68675E-06
 -1       661 7.10856E-06-1.44745E+05-7.21688E+06
 -1       663 7.30069E-06-1.44745E+05 7.21688E+06
 -1       672 1.51845E-06-4.86558E+06 9.82186E-06
 -1       674 1.37909E-06 4.95591E+06 9.20148E-06
 -1       675 2.34137E-06-1.30223E+05-7.70873E+06
 -1       677 2.06703E-06-1.30223E+05 7.70873E+06
 -1       686 4.44801E-06-5.05771E+06 5.68848E-06
 -1       688 4.40949E-06 5.19171E+06 4.37423E-06
 -1       689-1.85737E-06-1.55955E+05-8.04460E+06
 -1       691-2.01586E-06-1.55955E+05 8.04460E+06
 -1       700 5.60363E-06-5.13848E+06 2.16506E-06
 -1       702 5.65632E-06 5.24961E+06 3.55874E-06
 -1       703-4.51066E-06-1.45497E+05-8.15344E+06
 -1       705-4.59965E-06-1.45497E+05 8.15344E+06
 -1       714 7.94955E-06-5.08053E+06 5.42519E-06
 -1       716 7.92291E-06 5.20771E+06 4.89604E-06
 -1       717-7.24378E-06-1.51548E+05-8.07507E+06
 -1       719-7.07572E-06-1.51548E+05 8.07507E+06
 -1       728 1.11240E-05-4.90372E+06 8.51300E-06
 -1       730 1.11155E-05 5.01353E+06 6.32803E-06
 -1       731-1.06171E-05-1.38019E+05-7.78389E+06
 -1       733-1.02135E-05-1.38019E+05 7.78389E+06
 -1       742 1.37844E-05-4.59927E+06 6.39389E-06
 -1       744 1.36686E-05 4.70851E+06 5.86080E-06
 -1       745-1.39378E-05-1.30291E+05-7.30552E+06
 -1       747-1.39266E-05-1.30291E+05 7.30552E+06
 -1       756 1.59302E-05-4.18434E+06 4.25991E-06
 -1       758 1.58360E-05 4.27601E+06 5.34273E-06
 -1       759-1.58402E-05-1.11818E+05-6.64040E+06
 -1       761-1.59730E-05-1.11818E+05 6.64040E+06
 -1       770 1.70999E-05-3.66259E+06 2.81172E-06
 -1       772 1.70727E-05 3.74365E+06 4.21569E-06
 -1       773-1.66010E-05-9.50390E+04-5.81304E+06
 -1       775-1.60900E-05-9.50390E+04 5.81304E+06
 -1       784 1.57009E-05-3.05181E+06 1.75032E-06
 -1       786 1.57235E-05 3.11383E+06 2.23795E-06
 -1       787-1.62473E-05-7.27720E+04-4.83931E+06
 -1       789-1.56618E-05-7.27720E+04 4.83931E+06
 -1       798 1.36016E-05-2.36395E+06 1.11219E-07
 -1       800 1.35938E-05 2.40997E+06 5.85410E-07
 -1       801-1.35729E-05-5.12969E+04-3.74698E+06
 -1       803-1.33076E-05-5.12969E+04 3.74698E+06
 -1       812 1.17286E-05-1.61850E+06-2.95523E-06
 -1       814 1.19010E-05 1.64485E+06-1.31034E-06
 -1       815-9.10925E-06-2.77982E+04-2.56135E+06
 -1       817-8.67142E-06-2.77982E+04 2.56135E+06
 -1       826 8.12200E-06-8.32326E+05-3.70598E-06
 -1       828 8.50918E-06 8.40835E+05-1.71863E-06
 -1       829-4.63815E-06-5.50605E+03-1.31324E+06
 -1       831-3.65108E-06-5.50605E+03 1.31324E+06
 -1       840 3.86858E-06-2.63299E+04-1.98264E-06
 -1       842 4.13627E-06 1.61815E+04-4.10273E-07
 -1       843-1.01670E-06 1.64652E+04-3.33665E+04
 -1       845-2.74497E-07 1.64652E+04 3.33665E+04
 -1       854 3.46336E-07 7.80689E+05-2.09525E-06
 -1       856 3.33643E-07-8.07907E+05-3.39812E-07
 -1       857 1.57906E-06 3.65746E+04 1.24686E+06
 -1       859 2.06353E-06 3.65746E+04-1.24686E+06
 -1       868-3.17339E-06 1.56735E+06-2.83314E-06
 -1       870-3.12965E-06-1.61067E+06-2.34094E-06
 -1       871 4.26145E-06 5.48874E+04 2.49438E+06
 -1       873 4.31056E-06 5.48874E+04-2.49438E+06
 -1       882-6.78567E-06 2.31588E+06-1.35156E-06
 -1       884-6.79365E-06-2.37385E+06-1.41051E-06
 -1       885 7.21193E-06 7.10124E+04 3.68089E+06
 -1       887 7.26823E-06 7.10124E+04-3.68089E+06
 -1       896-1.02659E-05 3.00531E+06 2.24109E-06
 -1       898-1.02027E-05-3.07580E+06 2.65562E-06
 -1       899 8.82062E-06 8.45532E+04 4.77297E+06
 -1       901 8.82342E-06 8.45532E+04-4.77297E+06
 -1       910-1.15688E-05 3.62194E+06 4.79730E-06
 -1       912-1.16021E-05-3.70397E+06 4.82798E-06
 -1       913 9.71670E-06 9.61091E+04 5.74999E+06
 -1       915 9.60252E-06 9.61091E+04-5.74999E+06
 -1       924-1.09370E-05 4.14580E+06 5.62113E-06
 -1       926-1.09447E-05-4.23648E+06 6.13519E-06
 -1       927 9.67633E-06 1.04795E+05 6.57912E+06
 -1       929 9.51743E-06 1.04795E+05-6.57912E+06
 -1       938-9.39479E-06 4.56950E+06 7.10388E-06
 -1       940-9.42159E-06-4.66861E+06 6.80749E-06
 -1       941 8.36851E-06 1.12058E+05 7.25085E+06
 -1       943 8.13545E-06 1.12058E+05-7.25085E+06
 -1       952-7.62375E-06 4.87657E+06 7.54265E-06
 -1       954-7.42883E-06-4.98117E+06 6.50452E-06
 -1       955 6.44692E-06 1.16647E+05 7.73718E+06
 -1       957 6.33438E-06 1.16647E+05-7.73718E+06
 -1       966-5.89054E-06 5.05931E+06 6.30580E-06
 -1       968-5.76918E-06-5.16973E+06 8.05057E-06
 -1       969 3.16543E-06 1.20286E+05 8.02861E+06
 -1       971 3.20519E-06 1.20286E+05-8.02861E+06
 -1       980-1.27897E+06-1.83162E+05 7.27166E+04
 -1       982 8.34514E+05 1.32999E+05 7.27166E+04
 -1       983-1.39076E+02 5.86112E+03 1.28730E+05
 -1       985-1.39076E+02 5.86112E+03 1.28730E+05
 -1       986-5.72673E+02-8.73539E+02-2.71639E+04
 -1       988-5.72673E+02-8.73539E+02-2.71639E+04
 -1       989-9.99982E+02-2.24598E+03-5.73553E+04
 -1       991-9.99982E+02-2.24598E+03-5.73553E+04
 -1       992-1.24757E+03-4.09005E+03-8.65400E+04
 -1       994-1.24757E+03-4.09005E+03-8.65400E+04
 -1       995-1.34308E+03-6.15929E+03-1.13115E+05
 -1       997-1.34308E+03-6.15929E+03-1.13115E+05
 -1       998-1.30730E+03-8.25287E+03-1.36991E+05
 -1      1000-1.30730E+03-8.25287E+03-1.36991E+05
 -1      1001-1.15884E+03-1.01888E+04-1.57364E+05
 -1      1003-1.15884E+03-1.01888E+04-1.57364E+05
 -1      1004-9.18441E+02-1.18137E+04-1.73873E+05
 -1      1006-9.18441E+02-1.18137E+04-1.73873E+05
 -1      1007-6.08173E+02-1.30059E+04-1.86067E+05
 -1      1009-6.08173E+02-1.30059E+04-1.86067E+05
 -1      1010-2.52888E+02-1.36778E+04-1.93682E+05
 -1      1012-2.52888E+02-1.36778E+04-1.93682E+05
 -1      1013 1.21681E+02-1.37816E+04-1.96522E+05
 -1      1015 1.21681E+02-1.37816E+04-1.96522E+05
 -1      1016 4.89536E+02-1.33086E+04-1.94524E+05
 -1      1018 4.89536E+02-1.33086E+04-1.94524E+05
 -1      1019 8.26435E+02-1.22894E+04-1.87733E+05
 -1      1021 8.26435E+02-1.22894E+04-1.87733E+05
 -1      1022 1.11122E+03-1.07896E+04-1.76312E+05
 -1      1024 1.11122E+03-1.07896E+04-1.76312E+05
 -1      1025 1.32742E+03-8.90423E+03-1.60534E+05
 -1      1027 1.32742E+03-8.90423E+03-1.60534E+05
 -1      1028 1.46422E+03-6.74946E+03-1.40779E+05
 -1      1030 1.46422E+03-6.74946E+03-1.40779E+05
 -1      1031 1.51721E+03-4.45308E+03-1.17525E+05
 -1      1033 1.51721E+03-4.45308E+03-1.17525E+05
 -1      1034 1.48845E+03-2.14448E+03-9.13361E+04
 -1      1036 1.48845E+03-2.14448E+03-9.13361E+04
 -1      1037 1.38607E+03 5.52174E+01-6.28523E+04
 -1      1039 1.38607E+03 5.52174E+01-6.28523E+04
 -1      1040 1.22339E+03 2.04200E+03-3.27717E+04
 -1      1042 1.22339E+03 2.04200E+03-3.27717E+04
 -1      1043 1.01752E+03 3.73602E+03-1.83547E+03
 -1      1045 1.01752E+03 3.73602E+03-1.83547E+03
 -1      1046 7.87749E+02 5.08627E+03 2.91901E+04
 -1      1048 7.87749E+02 5.08627E+03 2.91901E+04
 -1      1049 5.53738E+02 6.07256E+03 5.95326E+04
 -1      1051 5.53738E+02 6.07256E+03 5.95326E+04
 -1      1052 3.33677E+02 6.70461E+03 8.84332E+04
 -1      1054 3.33677E+02 6.70461E+03 8.84332E+04
 -1      1055 1.42626E+02 7.01844E+03 1.15165E+05
 -1      1057 1.42626E+02 7.01844E+03 1.15165E+05
 -1      1058-8.87536E+00 7.07028E+03 1.39055E+05
 -1      1060-8.87536E+00 7.07028E+03 1.39055E+05
 -1      1061-1.15789E+02 6.92891E+03 1.59493E+05
 -1      1063-1.15789E+02 6.92891E+03 1.59493E+05
 -1      1064-1.79235E+02 6.66588E+03 1.75967E+05
 -1      1066-1.79235E+02 6.66588E+03 1.75967E+05
 -1      1067-2.06345E+02 6.34769E+03 1.88040E+05
 -1      1069-2.06345E+02 6.34769E+03 1.88040E+05
 -1      1070-2.10626E+02 6.02287E+03 1.95430E+05
 -1      1072-2.10626E+02 6.02287E+03 1.95430E+05
 -1      1073 1.27897E+06-1.83162E+05-7.27166E+04
 -1      1075-8.34514E+05 1.32999E+05-7.27166E+04
 -1      1076 1.78658E+06 2.23627E+06 1.02020E+05
 -1      1078-1.78658E+06 2.23627E+06-1.02020E+05
 -1      1079 2.20117E-05 9.12153E-06-3.63826E+05
 -1      1081-3.39991E-05 8.82994E-06 3.63826E+05
 -1      1082-1.78658E+06-2.23627E+06 1.02020E+05
 -1      1084 1.78658E+06-2.23627E+06-1.02020E+05
 -1      1085-2.12517E-05 1.07080E+05-5.50944E+05
 -1      1087-2.11464E-05 1.07080E+05 5.50944E+05
 -1      1088 1.92696E-05 2.53438E+05-4.60439E-06
 -1      1090 1.92152E-05-4.48506E+05-4.91524E-06
 -1      1099-2.17798E-05-8.93415E+04-2.32486E+06
 -1      1101-2.19411E-05-8.93415E+04 2.32486E+06
 -1      1102 2.05589E-05 1.59135E+06 4.49221E-06
 -1      1104 2.05850E-05-1.37070E+06 2.44323E-06
 -1      1113-1.96203E-05 1.06784E+05-3.49226E+06
 -1      1115-1.99717E-05 1.06784E+05 3.49226E+06
 -1      1116 1.98863E-05 2.15148E+06 2.15100E-06
 -1      1118 1.98716E-05-2.29791E+06 1.33436E-06
 -1      1127-1.74422E-05 1.98802E+04-4.62059E+06
 -1      1129-1.78055E-05 1.98802E+04 4.62059E+06
 -1      1130 1.74713E-05 2.96995E+06 4.52505E-06
 -1      1132 1.73941E-05-2.91702E+06 4.37112E-06
 -1      1141-1.40441E-05 1.24297E+05-5.66746E+06
 -1      1143-1.43247E-05 1.24297E+05 5.66746E+06
 -1      1144 1.32872E-05 3.54464E+06 7.48764E-06
 -1      1146 1.32361E-05-3.67613E+06 5.60861E-06
 -1      1155-1.01072E-05 8.95890E+04-6.49007E+06
 -1      1157-1.00220E-05 8.95890E+04 6.49007E+06
 -1      1158 8.07259E-06 4.11426E+06 1.01639E-05
 -1      1160 8.03134E-06-4.15456E+06 8.19559E-06
 -1      1169-5.08824E-06 1.44745E+05-7.21688E+06
 -1      1171-5.04583E-06 1.44745E+05 7.21688E+06
 -1      1172 2.69443E-06 4.53111E+06 9.08471E-06
 -1      1174 2.86582E-06-4.66372E+06 5.86509E-06
 -1      1183-5.10521E-07 1.30223E+05-7.70873E+06
 -1      1185-5.58188E-07 1.30223E+05 7.70873E+06
 -1      1186-1.52188E-07 4.86558E+06 6.25596E-06
 -1      1188-2.06437E-07-4.95591E+06 4.82110E-06
 -1      1197 2.40823E-06 1.55955E+05-8.04460E+06
 -1      1199 2.45135E-06 1.55955E+05 8.04460E+06
 -1      1200-2.53392E-06 5.05771E+06 5.11504E-06
 -1      1202-2.96072E-06-5.19171E+06 4.45703E-06
 -1      1211 4.73662E-06 1.45497E+05-8.15344E+06
 -1      1213 4.84975E-06 1.45497E+05 8.15344E+06
 -1      1214-6.65360E-06 5.13848E+06 5.14462E-06
 -1      1216-6.79882E-06-5.24961E+06 4.90846E-06
 -1      1225 8.30632E-06 1.51548E+05-8.07507E+06
 -1      1227 8.42630E-06 1.51548E+05 8.07507E+06
 -1      1228-9.74484E-06 5.08053E+06 4.05247E-06
 -1      1230-9.80593E-06-5.20771E+06 2.24341E-06
 -1      1239 1.21396E-05 1.38019E+05-7.78389E+06
 -1      1241 1.22111E-05 1.38019E+05 7.78389E+06
 -1      1242-1.10195E-05 4.90372E+06 1.70437E-07
 -1      1244-1.11079E-05-5.01353E+06-2.49007E-06
 -1      1253 1.40852E-05 1.30291E+05-7.30552E+06
 -1      1255 1.38631E-05 1.30291E+05 7.30552E+06
 -1      1256-1.23775E-05 4.59927E+06-3.76362E-06
 -1      1258-1.22928E-05-4.70851E+06-5.79652E-06
 -1      1267 1.48436E-05 1.11818E+05-6.64040E+06
 -1      1269 1.46572E-05 1.11818E+05 6.64040E+06
 -1      1270-1.43302E-05 4.18434E+06-5.73903E-06
 -1      1272-1.42895E-05-4.27601E+06-6.06909E-06
 -1      1281 1.49521E-05 9.50390E+04-5.81304E+06
 -1      1283 1.50931E-05 9.50390E+04 5.81304E+06
 -1      1284-1.61733E-05 3.66259E+06-5.96313E-06
 -1      1286-1.62624E-05-3.74365E+06-5.72544E-06
 -1      1295 1.44429E-05 7.27720E+04-4.83931E+06
 -1      1297 1.43267E-05 7.27720E+04 4.83931E+06
 -1      1298-1.65750E-05 3.05181E+06-7.43706E-06
 -1      1300-1.66415E-05-3.11383E+06-7.04617E-06
 -1      1309 1.15796E-05 5.12969E+04-3.74698E+06
 -1      1311 1.16856E-05 5.12969E+04 3.74698E+06
 -1      1312-1.42671E-05 2.36395E+06-1.00375E-05
 -1      1314-1.42908E-05-2.40997E+06-8.86087E-06
 -1      1323 7.58261E-06 2.77982E+04-2.56135E+06
 -1      1325 8.11547E-06 2.77982E+04 2.56135E+06
 -1      1326-9.80725E-06 1.61850E+06-1.07865E-05
 -1      1328-9.79849E-06-1.64485E+06-8.31583E-06
 -1      1337 4.80852E-06 5.50605E+03-1.31324E+06
 -1      1339 4.83213E-06 5.50605E+03 1.31324E+06
 -1      1340-4.44184E-06 8.32326E+05-9.92877E-06
 -1      1342-4.29573E-06-8.40835E+05-7.67102E-06
 -1      1351 2.10626E-06-1.64652E+04-3.33665E+04
 -1      1353 1.90707E-06-1.64652E+04 3.33665E+04
 -1      1354-8.56159E-09 2.63299E+04-7.16096E-06
 -1      1356-3.82137E-08-1.61815E+04-6.17582E-06
 -1      1365-7.59098E-07-3.65746E+04 1.24686E+06
 -1      1367-1.12167E-07-3.65746E+04-1.24686E+06
 -1      1368 3.06140E-06-7.80689E+05-4.33012E-06
 -1      1370 2.94485E-06 8.07907E+05-4.25330E-06
 -1      1379-3.11727E-06-5.48874E+04 2.49438E+06
 -1      1381-1.90191E-06-5.48874E+04-2.49438E+06
 -1      1382 6.27435E-06-1.56735E+06-4.76303E-06
 -1      1384 6.17441E-06 1.61067E+06-5.44426E-06
 -1      1393-5.60381E-06-7.10124E+04 3.68089E+06
 -1      1395-5.51679E-06-7.10124E+04-3.68089E+06
 -1      1396 9.09429E-06-2.31588E+06-9.85349E-06
 -1      1398 9.22878E-06 2.37385E+06-8.18657E-06
 -1      1407-9.03866E-06-8.45532E+04 4.77297E+06
 -1      1409-9.40451E-06-8.45532E+04-4.77297E+06
 -1      1410 1.09575E-05-3.00531E+06-1.03651E-05
 -1      1412 1.11690E-05 3.07580E+06-8.71002E-06
 -1      1421-1.08823E-05-9.61091E+04 5.74999E+06
 -1      1423-1.09863E-05-9.61091E+04-5.74999E+06
 -1      1424 1.16564E-05-3.62194E+06-4.30175E-06
 -1      1426 1.16708E-05 3.70397E+06-5.22568E-06
 -1      1435-9.64247E-06-1.04795E+05 6.57912E+06
 -1      1437-9.96553E-06-1.04795E+05-6.57912E+06
 -1      1438 1.06252E-05-4.14580E+06-7.86872E-07
 -1      1440 1.07087E-05 4.23648E+06-1.91920E-06
 -1      1449-7.78920E-06-1.12058E+05 7.25085E+06
 -1      1451-7.82146E-06-1.12058E+05-7.25085E+06
 -1      1452 9.31334E-06-4.56950E+06 1.37863E-07
 -1      1454 9.23984E-06 4.66861E+06-2.12143E-06
 -1      1463-6.06269E-06-1.16647E+05 7.73718E+06
 -1      1465-5.98755E-06-1.16647E+05-7.73718E+06
 -1      1466 8.25129E-06-4.87657E+06 4.68174E-07
 -1      1468 8.24711E-06 4.98117E+06-1.15118E-06
 -1      1477-3.22728E-06-1.20286E+05 8.02861E+06
 -1      1479-3.14358E-06-1.20286E+05-8.02861E+06
 -1      1480 6.21680E-06-5.05931E+06 1.43226E-06
 -1      1482 6.15592E-06 5.16973E+06 2.73996E-07
 -1      1491-5.29665E-07 5.13775E+04-9.43878E-07
 -1      1493-6.24732E-07 5.13775E+04-1.39339E-06
 -1      1494-2.95968E-07-2.02273E-06-3.18142E-07
 -1      1496-4.98305E-07 1.26472E-07-1.24310E-06
 -1      1497 5.41820E-07-5.13775E+04-4.50982E-08
 -1      1499 4.35926E-07-5.13775E+04-9.73259E-07
 -1      1500 5.72673E+02 8.73539E+02-2.71639E+04
 -1      1502 5.72673E+02 8.73539E+02-2.71639E+04
 -1      1503 9.99982E+02 2.24598E+03-5.73553E+04
 -1      1505 9.99982E+02 2.24598E+03-5.73553E+04
 -1      1506 1.24757E+03 4.09005E+03-8.65400E+04
 -1      1508 1.24757E+03 4.09005E+03-8.65400E+04
 -1      1509 1.34308E+03 6.15929E+03-1.13115E+05
 -1      1511 1.34308E+03 6.15929E+03-1.13115E+05
 -1      1512 1.30730E+03 8.25287E+03-1.36991E+05
 -1      1514 1.30730E+03 8.25287E+03-1.36991E+05
 -1      1515 1.15884E+03 1.01888E+04-1.57364E+05
 -1      1517 1.15884E+03 1.01888E+04-1.57364E+05
 -1      1518 9.18441E+02 1.18137E+04-1.73873E+05
 -1      1520 9.18441E+02 1.18137E+04-1.73873E+05
 -1      1521 6.08173E+02 1.30059E+04-1.86067E+05
 -1      1523 6.08173E+02 1.30059E+04-1.86067E+05
 -1      1524 2.52888E+02 1.36778E+04-1.93682E+05
 -1      1526 2.52888E+02 1.36778E+04-1.93682E+05
 -1      1527-1.21681E+02 1.37816E+04-1.96522E+05
 -1      1529-1.21681E+02 1.37816E+04-1.96522E+05
 -1      1530-4.89536E+02 1.33086E+04-1.94524E+05
 -1      1532-4.89536E+02 1.33086E+04-1.94524E+05
 -1      1533-8.26435E+02 1.22894E+04-1.87733E+05
 -1      1535-8.26435E+02 1.22894E+04-1.87733E+05
 -1      1536-1.11122E+03 1.07896E+04-1.76312E+05
 -1      1538-1.11122E+03 1.07896E+04-1.76312E+05
 -1      1539-1.32742E+03 8.90423E+03-1.60534E+05
 -1      1541-1.32742E+03 8.90423E+03-1.60534E+05
 -1      1542-1.46422E+03 6.74946E+03-1.40779E+05
 -1      1544-1.46422E+03 6.74946E+03-1.40779E+05
 -1      1545-1.51721E+03 4.45308E+03-1.17525E+05
 -1      1547-1.51721E+03 4.45308E+03-1.17525E+05
 -1      1548-1.48845E+03 2.14448E+03-9.13361E+04
 -1      1550-1.48845E+03 2.14448E+03-9.13361E+04
 -1      1551-1.38607E+03-5.52174E+01-6.28523E+04
 -1      1553-1.38607E+03-5.52174E+01-6.28523E+04
 -1      1554-1.22339E+03-2.04200E+03-3.27717E+04
 -1      1556-1.22339E+03-2.04200E+03-3.27717E+04
 -1      1557-1.01752E+03-3.73602E+03-1.83547E+03
 -1      1559-1.01752E+03-3.73602E+03-1.83547E+03
 -1      1560-7.87749E+02-5.08627E+03 2.91901E+04
 -1      1562-7.87749E+02-5.08627E+03 2.91901E+04
 -1      1563-5.53738E+02-6.07256E+03 5.95326E+04
 -1      1565-5.53738E+02-6.07256E+03 5.95326E+04
 -1      1566-3.33677E+02-6.70461E+03 8.84332E+04
 -1      1568-3.33677E+02-6.70461E+03 8.84332E+04
 -1      1569-1.42626E+02-7.01844E+03 1.15165E+05
 -1      1571-1.42626E+02-7.01844E+03 1.15165E+05
 -1      1572 8.87536E+00-7.07028E+03 1.39055E+05
 -1      1574 8.87536E+00-7.07028E+03 1.39055E+05
 -1      1575 1.15789E+02-6.92891E+03 1.59493E+05
 -1      1577 1.15789E+02-6.92891E+03 1.59493E+05
 -1      1578 1.79235E+02-6.66588E+03 1.75967E+05
 -1      1580 1.79235E+02-6.66588E+03 1.75967E+05
 -1      1581 2.06345E+02-6.34769E+03 1.88040E+05
 -1      1583 2.06345E+02-6.34769E+03 1.88040E+05
 -1      1584 2.10626E+02-6.02287E+03 1.95430E+05
 -1      1586 2.10626E+02-6.02287E+03 1.95430E+05
 -1      1587 1.39076E+02-5.86112E+03 1.28730E+05
 -1      1589 1.39076E+02-5.86112E+03 1.28730E+05
 -1      1590-1.27897E+06 1.83162E+05-7.27166E+04
 -1      1592 8.34514E+05-1.32999E+05-7.27166E+04
 -1      1593-1.39076E+02-5.86112E+03-1.28730E+05
 -1      1595-1.39076E+02-5.86112E+03-1.28730E+05
 -1      1596-5.72673E+02 8.73539E+02 2.71639E+04
 -1      1598-5.72673E+02 8.73539E+02 2.71639E+04
 -1      1599-9.99982E+02 2.24598E+03 5.73553E+04
 -1      1601-9.99982E+02 2.24598E+03 5.73553E+04
 -1      1602-1.24757E+03 4.09005E+03 8.65400E+04
 -1      1604-1.24757E+03 4.09005E+03 8.65400E+04
 -1      1605-1.34308E+03 6.15929E+03 1.13115E+05
 -1      1607-1.34308E+03 6.15929E+03 1.13115E+05
 -1      1608-1.30730E+03 8.25287E+03 1.36991E+05
 -1      1610-1.30730E+03 8.25287E+03 1.36991E+05
 -1      1611-1.15884E+03 1.01888E+04 1.57364E+05
 -1      1613-1.15884E+03 1.01888E+04 1.57364E+05
 -1      1614-9.18441E+02 1.18137E+04 1.73873E+05
 -1      1616-9.18441E+02 1.18137E+04 1.73873E+05
 -1      1617-6.08173E+02 1.30059E+04 1.86067E+05
 -1      1619-6.08173E+02 1.30059E+04 1.86067E+05
 -1      1620-2.52888E+02 1.36778E+04 1.93682E+05
 -1      1622-2.52888E+02 1.36778E+04 1.93682E+05
 -1      1623 1.21681E+02 1.37816E+04 1.96522E+05
 -1      1625 1.21681E+02 1.37816E+04 1.96522E+05
 -1      1626 4.89536E+02 1.33086E+04 1.94524E+05
 -1      1628 4.89536E+02 1.33086E+04 1.94524E+05
 -1      1629 8.26435E+02 1.22894E+04 1.87733E+05
 -1      1631 8.26435E+02 1.22894E+04 1.87733E+05
 -1      1632 1.11122E+03 1.07896E+04 1.76312E+05
 -1      1634 1.11122E+03 1.07896E+04 1.76312E+05
 -1      1635 1.32742E+03 8.90423E+03 1.60534E+05
 -1      1637 1.32742E+03 8.90423E+03 1.60534E+05
 -1      1638 1.46422E+03 6.74946E+03 1.40779E+05
 -1      1640 1.46422E+03 6.74946E+03 1.40779E+05
 -1      1641 1.51721E+03 4.45308E+03 1.17525E+05
 -1      1643 1.51721E+03 4.45308E+03 1.17525E+05
 -1      1644 1.48845E+03 2.14448E+03 9.13361E+04
 -1      1646 1.48845E+03 2.14448E+03 9.13361E+04
 -1      1647 1.38607E+03-5.52174E+01 6.28523E+04
 -1      1649 1.38607E+03-5.52174E+01 6.28523E+04
 -1      1650 1.22339E+03-2.04200E+03 3.27717E+04
 -1      1652 1.22339E+03-2.04200E+03 3.27717E+04
 -1      1653 1.01752E+03-3.73602E+03 1.83547E+03
 -1      1655 1.01752E+03-3.73602E+03 1.83547E+03
 -1      1656 7.87749E+02-5.08627E+03-2.91901E+04
 -1      1658 7.87749E+02-5.08627E+03-2.91901E+04
 -1      1659 5.53738E+02-6.07256E+03-5.95326E+04
 -1      1661 5.53738E+02-6.07256E+03-5.95326E+04
 -1      1662 3.33677E+02-6.70461E+03-8.84332E+04
 -1      1664 3.33677E+02-6.70461E+03-8.84332E+04
 -1      1665 1.42626E+02-7.01844E+03-1.15165E+05
 -1      1667 1.42626E+02-7.01844E+03-1.15165E+05
 -1      1668-8.87536E+00-7.07028E+03-1.39055E+05
 -1      1670-8.87536E+00-7.07028E+03-1.39055E+05
 -1      1671-1.15789E+02-6.92891E+03-1.59493E+05
 -1      1673-1.15789E+02-6.92891E+03-1.59493E+05
 -1      1674-1.79235E+02-6.66588E+03-1.75967E+05
 -1      1676-1.79235E+02-6.66588E+03-1.75967E+05
 -1      1677-2.06345E+02-6.34769E+03-1.88040E+05
 -1      1679-2.06345E+02-6.34769E+03-1.88040E+05
 -1      1680-2.10626E+02-6.02287E+03-1.95430E+05
 -1      1682-2.10626E+02-6.02287E+03-1.95430E+05
 -1      1683 1.27897E+06 1.83162E+05 7.27166E+04
 -1      1685-8.34514E+05-1.32999E+05 7.27166E+04
 -1      1686 7.54831E+02-1.70011E+03 3.51851E+04
 -1      1688 7.54831E+02-1.70011E+03 3.51851E+04
 -1      1689 1.32357E+03-4.46358E+03 7.45412E+04
 -1      1691 1.32357E+03-4.46358E+03 7.45412E+04
 -1      1692 1.65559E+03-8.16349E+03 1.12556E+05
 -1      1694 1.65559E+03-8.16349E+03 1.12556E+05
 -1      1695 1.78419E+03-1.23129E+04 1.47114E+05
 -1      1697 1.78419E+03-1.23129E+04 1.47114E+05
 -1      1698 1.73725E+03-1.65106E+04 1.78162E+05
 -1      1700 1.73725E+03-1.65106E+04 1.78162E+05
 -1      1701 1.54045E+03-2.03895E+04 2.04641E+05
 -1      1703 1.54045E+03-2.03895E+04 2.04641E+05
 -1      1704 1.22104E+03-2.36467E+04 2.26100E+05
 -1      1706 1.22104E+03-2.36467E+04 2.26100E+05
 -1      1707 8.08587E+02-2.60348E+04 2.41947E+05
 -1      1709 8.08587E+02-2.60348E+04 2.41947E+05
 -1      1710 3.36222E+02-2.73818E+04 2.51844E+05
 -1      1712 3.36222E+02-2.73818E+04 2.51844E+05
 -1      1713-1.61917E+02-2.75894E+04 2.55535E+05
 -1      1715-1.61917E+02-2.75894E+04 2.55535E+05
 -1      1716-6.51126E+02-2.66421E+04 2.52939E+05
 -1      1718-6.51126E+02-2.66421E+04 2.52939E+05
 -1      1719-1.09927E+03-2.46000E+04 2.44114E+05
 -1      1721-1.09927E+03-2.46000E+04 2.44114E+05
 -1      1722-1.47814E+03-2.15957E+04 2.29270E+05
 -1      1724-1.47814E+03-2.15957E+04 2.29270E+05
 -1      1725-1.76587E+03-1.78191E+04 2.08763E+05
 -1      1727-1.76587E+03-1.78191E+04 2.08763E+05
 -1      1728-1.94804E+03-1.35031E+04 1.83085E+05
 -1      1730-1.94804E+03-1.35031E+04 1.83085E+05
 -1      1731-2.01881E+03-8.90391E+03 1.52857E+05
 -1      1733-2.01881E+03-8.90391E+03 1.52857E+05
 -1      1734-1.98088E+03-4.28082E+03 1.18811E+05
 -1      1736-1.98088E+03-4.28082E+03 1.18811E+05
 -1      1737-1.84507E+03 1.23525E+02 8.17772E+04
 -1      1739-1.84507E+03 1.23525E+02 8.17772E+04
 -1      1740-1.62903E+03 4.10067E+03 4.26637E+04
 -1      1742-1.62903E+03 4.10067E+03 4.26637E+04
 -1      1743-1.35552E+03 7.49072E+03 2.43358E+03
 -1      1745-1.35552E+03 7.49072E+03 2.43358E+03
 -1      1746-1.05017E+03 1.01916E+04-3.79168E+04
 -1      1748-1.05017E+03 1.01916E+04-3.79168E+04
 -1      1749-7.39088E+02 1.21629E+04-7.73827E+04
 -1      1751-7.39088E+02 1.21629E+04-7.73827E+04
 -1      1752-4.46433E+02 1.34243E+04-1.14977E+05
 -1      1754-4.46433E+02 1.34243E+04-1.14977E+05
 -1      1755-1.92245E+02 1.40483E+04-1.49753E+05
 -1      1757-1.92245E+02 1.40483E+04-1.49753E+05
 -1      1758 9.52551E+00 1.41478E+04-1.80834E+05
 -1      1760 9.52551E+00 1.41478E+04-1.80834E+05
 -1      1761 1.52122E+02 1.38605E+04-2.07428E+05
 -1      1763 1.52122E+02 1.38605E+04-2.07428E+05
 -1      1764 2.37084E+02 1.33308E+04-2.28865E+05
 -1      1766 2.37084E+02 1.33308E+04-2.28865E+05
 -1      1767 2.74070E+02 1.26911E+04-2.44577E+05
 -1      1769 2.74070E+02 1.26911E+04-2.44577E+05
 -1      1770 2.80183E+02 1.20406E+04-2.54196E+05
 -1      1772 2.80183E+02 1.20406E+04-2.54196E+05
 -1      1773-7.54831E+02-1.70011E+03-3.51851E+04
 -1      1775-7.54831E+02-1.70011E+03-3.51851E+04
 -1      1776-1.32357E+03-4.46358E+03-7.45412E+04
 -1      1778-1.32357E+03-4.46358E+03-7.45412E+04
 -1      1779-1.65559E+03-8.16349E+03-1.12556E+05
 -1      1781-1.65559E+03-8.16349E+03-1.12556E+05
 -1      1782-1.78419E+03-1.23129E+04-1.47114E+05
 -1      1784-1.78419E+03-1.23129E+04-1.47114E+05
 -1      1785-1.73725E+03-1.65106E+04-1.78162E+05
 -1      1787-1.73725E+03-1.65106E+04-1.78162E+05
 -1      1788-1.54045E+03-2.03895E+04-2.04641E+05
 -1      1790-1.54045E+03-2.03895E+04-2.04641E+05
 -1      1791-1.22104E+03-2.36467E+04-2.26100E+05
 -1      1793-1.22104E+03-2.36467E+04-2.26100E+05
 -1      1794-8.08587E+02-2.60348E+04-2.41947E+05
 -1      1796-8.08587E+02-2.60348E+04-2.41947E+05
 -1      1797-3.36222E+02-2.73818E+04-2.51844E+05
 -1      1799-3.36222E+02-2.73818E+04-2.51844E+05
 -1      1800 1.61917E+02-2.75894E+04-2.55535E+05
 -1      1802 1.61917E+02-2.75894E+04-2.55535E+05
 -1      1803 6.51126E+02-2.66421E+04-2.52939E+05
 -1      1805 6.51126E+02-2.66421E+04-2.52939E+05
 -1      1806 1.09927E+03-2.46000E+04-2.44114E+05
 -1      1808 1.09927E+03-2.46000E+04-2.44114E+05
 -1      1809 1.47814E+03-2.15957E+04-2.29270E+05
 -1      1811 1.47814E+03-2.15957E+04-2.29270E+05
 -1      1812 1.76587E+03-1.78191E+04-2.08763E+05
 -1      1814 1.76587E+03-1.78191E+04-2.08763E+05
 -1      1815 1.94804E+03-1.35031E+04-1.83085E+05
 -1      1817 1.94804E+03-1.35031E+04-1.83085E+05
 -1      1818 2.01881E+03-8.90391E+03-1.52857E+05
 -1      1820 2.01881E+03-8.90391E+03-1.52857E+05
 -1      1821 1.98088E+03-4.28082E+03-1.18811E+05
 -1      1823 1.98088E+03-4.28082E+03-1.18811E+05
 -1      1824 1.84507E+03 1.23525E+02-8.17772E+04
 -1      1826 1.84507E+03 1.23525E+02-8.17772E+04
 -1      1827 1.62903E+03 4.10067E+03-4.26637E+04
 -1      1829 1.62903E+03 4.10067E+03-4.26637E+04
 -1      1830 1.35552E+03 7.49072E+03-2.43358E+03
 -1      1832 1.35552E+03 7.49072E+03-2.43358E+03
 -1      1833 1.05017E+03 1.01916E+04 3.79168E+04
 -1      1835 1.05017E+03 1.01916E+04 3.79168E+04
 -1      1836 7.39088E+02 1.21629E+04 7.73827E+04
 -1      1838 7.39088E+02 1.21629E+04 7.73827E+04
 -1      1839 4.46433E+02 1.34243E+04 1.14977E+05
 -1      1841 4.46433E+02 1.34243E+04 1.14977E+05
 -1      1842 1.92245E+02 1.40483E+04 1.49753E+05
 -1      1844 1.92245E+02 1.40483E+04 1.49753E+05
 -1      1845-9.52551E+00 1.41478E+04 1.80834E+05
 -1      1847-9.52551E+00 1.41478E+04 1.80834E+05
 -1      1848-1.52122E+02 1.38605E+04 2.07428E+05
 -1      1850-1.52122E+02 1.38605E+04 2.07428E+05
 -1      1851-2.37084E+02 1.33308E+04 2.28865E+05
 -1      1853-2.37084E+02 1.33308E+04 2.28865E+05
 -1      1854-2.74070E+02 1.26911E+04 2.44577E+05
 -1      1856-2.74070E+02 1.26911E+04 2.44577E+05
 -1      1857-2.80183E+02 1.20406E+04 2.54196E+05
 -1      1859-2.80183E+02 1.20406E+04 2.54196E+05
 -1      1860 3.62052E-07-1.52101E+04-9.03914E-07
 -1      1862 2.80437E-07-1.52101E+04-5.03503E-07
 -1      1863 7.09806E-07-3.15263E+04-1.10643E-06
 -1      1865 4.91782E-07-3.15263E+04-1.22789E-07
 -1      1866 6.92551E-07-4.79666E+04-9.60044E-07
 -1      1868 4.05296E-07-4.79666E+04-4.52299E-07
 -1      1869-3.62044E-07-6.37274E+04-4.56335E-07
 -1      1871-7.37960E-07-6.37274E+04-1.08541E-06
 -1      1872-1.09886E-06-7.82213E+04-5.17000E-07
 -1      1874-1.21882E-06-7.82213E+04-1.79642E-06
 -1      1875-1.11600E-06-9.08534E+04-1.56683E-06
 -1      1877-3.16861E-07-9.08534E+04-1.98529E-06
 -1      1878 3.81788E-08-1.01172E+05-2.67144E-06
 -1      1880 5.28982E-07-1.01172E+05-1.26827E-06
 -1      1881 1.16597E-06-1.08774E+05-2.51829E-06
 -1      1883 7.70267E-07-1.08774E+05-8.62405E-07
 -1      1884 5.13106E-07-1.13397E+05 9.93764E-08
 -1      1886 3.13050E-07-1.13397E+05-2.87880E-07
 -1      1887-2.17017E-07-1.14864E+05 3.22760E-07
 -1      1889-3.45685E-07-1.14864E+05 8.96853E-09
 -1      1890-4.80104E-08-1.13136E+05-1.56958E-06
 -1      1892-4.92546E-08-1.13136E+05-1.15536E-06
 -1      1893 1.18889E-08-1.08277E+05-2.13056E-06
 -1      1895 5.71144E-07-1.08277E+05-1.97645E-06
 -1      1896 1.70895E-07-1.00472E+05-2.12776E-06
 -1      1898-3.78013E-08-1.00472E+05-2.60806E-06
 -1      1899 9.34741E-07-8.99988E+04-1.92323E-06
 -1      1901 5.82352E-07-8.99988E+04-2.46161E-06
 -1      1902 1.65775E-06-7.72228E+04-9.91811E-07
 -1      1904 2.43418E-06-7.72228E+04-1.34970E-06
 -1      1905 1.15136E-06-6.25725E+04-2.78931E-07
 -1      1907 2.30615E-06-6.25725E+04 1.39968E-07
 -1      1908 1.41247E-06-4.65218E+04 2.01355E-07
 -1      1910 1.40837E-06-4.65218E+04 4.20674E-07
 -1      1911 1.26115E-06-2.95649E+04 7.77509E-07
 -1      1913 2.34080E-06-2.95649E+04 6.98441E-07
 -1      1914 1.84190E-06-1.21978E+04 2.23478E-06
 -1      1916 3.56974E-06-1.21978E+04 2.20399E-06
 -1      1917 2.32027E-06 5.10277E+03 2.54434E-06
 -1      1919 3.17771E-06 5.10277E+03 2.53287E-06
 -1      1920 1.18662E-06 2.18939E+04 1.48051E-06
 -1      1922 1.70127E-06 2.18939E+04 1.94120E-06
 -1      1923 2.08309E-07 3.77794E+04 8.89315E-07
 -1      1925 6.55849E-07 3.77794E+04 9.61696E-07
 -1      1926-4.69563E-07 5.24176E+04 1.08029E-06
 -1      1928-9.31341E-08 5.24176E+04 4.52903E-07
 -1      1929-9.28588E-07 6.55238E+04 6.73172E-07
 -1      1931-7.60524E-07 6.55238E+04 5.22123E-08
 -1      1932-6.78564E-07 7.68710E+04-1.43269E-06
 -1      1934-1.20495E-06 7.68710E+04-4.75842E-07
 -1      1935-5.94877E-07 8.62841E+04-1.76304E-06
 -1      1937-1.25286E-06 8.62841E+04-8.80771E-07
 -1      1938-4.50453E-07 9.36359E+04-1.08769E-06
 -1      1940-1.43142E-06 9.36359E+04-1.59382E-06
 -1      1941-5.41691E-07 9.88334E+04-1.53341E-06
 -1      1943-7.65331E-07 9.88334E+04-2.14609E-06
 -1      1944-1.01173E-06 1.01819E+05-1.91741E-06
 -1      1946-9.14421E-07 1.01819E+05-2.56296E-06
 -1      1947 5.42052E-07-9.55841E-07 1.59546E-07
 -1      1949 6.51162E-07-2.83115E-06 8.48967E-07
 -1      1950 1.71858E-07 1.28808E-07 3.87123E-07
 -1      1952-3.93047E-08-2.90927E-06 1.32993E-06
 -1      1953 2.05400E-07 2.09275E-06-5.53624E-07
 -1      1955-2.18490E-07-1.22057E-06-6.82699E-07
 -1      1956 9.67284E-08 1.89255E-06-1.27441E-06
 -1      1958-3.86402E-07-6.01625E-07-2.00571E-06
 -1      1959-5.03307E-07-9.30168E-07-1.18013E-06
 -1      1961-6.48022E-07-1.06880E-06-1.38079E-06
 -1      1962-6.51251E-07-1.12335E-06-1.31482E-06
 -1      1964-1.66873E-07 6.27656E-07-6.01958E-07
 -1      1965-8.92564E-07-4.08711E-06-8.30229E-07
 -1      1967-6.83533E-07-2.14821E-06 1.31246E-07
 -1      1968-1.18317E-06-4.01507E-06-9.47502E-07
 -1      1970-1.31487E-06-2.55250E-06-2.73474E-07
 -1      1971-9.66062E-07-5.10091E-06-3.58241E-07
 -1      1973-1.10281E-06-2.06489E-07-1.20977E-06
 -1      1974-7.57555E-07-3.51163E-06 4.43852E-08
 -1      1976-9.23541E-07-7.88665E-07-1.36254E-06
 -1      1977-5.77378E-07-4.41123E-07-8.65743E-07
 -1      1979-9.98580E-07-2.39860E-06-1.42714E-06
 -1      1980-3.40548E-07-1.49463E-06-1.04829E-06
 -1      1982-1.24632E-07-1.58525E-06-6.75343E-07
 -1      1983 1.99234E-07-5.14321E-06-1.33487E-06
 -1      1985 1.38816E-07-2.73776E-06-1.35981E-06
 -1      1986 9.38691E-07-5.21751E-06-2.04321E-06
 -1      1988 8.49852E-07-6.53549E-07-1.91898E-06
 -1      1989 1.58738E-06-2.01712E-06-1.03277E-06
 -1      1991 2.18437E-06 1.15565E-06-8.41426E-07
 -1      1992 1.74776E-06 3.16048E-06 6.96549E-07
 -1      1994 2.11522E-06-2.89831E-06 8.51323E-07
 -1      1995 1.19424E-06 4.67624E-06 1.40863E-06
 -1      1997 8.15472E-07-5.87269E-07 1.80961E-06
 -1      1998-1.43608E-07 1.28489E-06 2.31851E-06
 -1      2000 4.91832E-07-8.19690E-07 2.45035E-06
 -1      2001 8.13599E-07-2.72094E-06 2.46873E-06
 -1      2003 1.23549E-06-2.66816E-06 2.00546E-06
 -1      2004 2.08141E-06-1.67416E-06 1.66523E-06
 -1      2006 1.21374E-06-2.59223E-06 1.68740E-06
 -1      2007 7.97431E-07 1.14359E-06 1.65001E-06
 -1      2009 1.02728E-06-1.68352E-06 1.19151E-06
 -1      2010-4.90459E-08 1.11028E-06 1.34539E-06
 -1      2012 9.12398E-07-4.22160E-06 1.32820E-06
 -1      2013-1.07713E-07-1.42403E-07 1.75495E-06
 -1      2015 7.53767E-07-5.51864E-06 9.75218E-07
 -1      2016-3.06808E-07 1.91762E-07 1.92301E-06
 -1      2018-2.31609E-07-1.56802E-06 1.36365E-06
 -1      2019-3.05280E-07-9.44566E-07 7.87637E-07
 -1      2021-9.15076E-07 1.31011E-06 1.76535E-06
 -1      2022-2.08119E-07-1.17037E-06 6.92326E-07
 -1      2024-1.26922E-06 1.81485E-06 9.92412E-07
 -1      2025 6.51526E-08-6.45763E-07 8.90915E-07
 -1      2027-1.01791E-06 2.81383E-07 7.51673E-07
 -1      2028 5.11764E-08-4.96242E-07 8.28352E-07
 -1      2030-3.80908E-07 1.63469E-07 1.14270E-07
 -1      2031-4.01157E-07 3.17130E-06-3.60937E-07
 -1      2033-2.70170E-07 2.34158E-06-1.88414E-06
 -1      2034-1.41939E-06 1.52101E+04 7.90373E-07
 -1      2036-1.20297E-06 1.52101E+04 1.45956E-06
 -1      2037-1.14565E-06 3.15263E+04 3.81493E-07
 -1      2039-1.45091E-06 3.15263E+04 1.32609E-06
 -1      2040 3.58865E-07 4.79666E+04-1.30187E-06
 -1      2042-2.47837E-07 4.79666E+04-1.24366E-06
 -1      2043 6.55999E-07 6.37274E+04-2.33759E-06
 -1      2045 3.24430E-08 6.37274E+04-2.78660E-06
 -1      2046 2.20953E-07 7.82213E+04-2.09699E-06
 -1      2048-1.97424E-07 7.82213E+04-1.59937E-06
 -1      2049-3.50858E-07 9.08534E+04-2.38953E-06
 -1      2051-2.00806E-07 9.08534E+04-7.12942E-07
 -1      2052-1.00454E-06 1.01172E+05-7.75457E-07
 -1      2054-1.06063E-06 1.01172E+05-2.61280E-07
 -1      2055-1.19164E-06 1.08774E+05 9.76244E-07
 -1      2057-1.37936E-06 1.08774E+05 2.80867E-07
 -1      2058-8.53555E-07 1.13397E+05 1.49374E-07
 -1      2060-7.25283E-07 1.13397E+05-2.95053E-07
 -1      2061-1.66813E-06 1.14864E+05-7.39530E-07
 -1      2063-1.59849E-06 1.14864E+05-1.83005E-06
 -1      2064-1.62425E-06 1.13136E+05-1.40672E-06
 -1      2066-1.57672E-06 1.13136E+05-2.04654E-06
 -1      2067-7.67031E-08 1.08277E+05-1.25650E-06
 -1      2069-4.11364E-08 1.08277E+05-9.03819E-07
 -1      2070 5.12853E-07 1.00472E+05-9.56948E-07
 -1      2072 3.72625E-07 1.00472E+05-5.27580E-07
 -1      2073 4.60383E-07 8.99988E+04-1.54079E-06
 -1      2075 3.34576E-08 8.99988E+04-7.16624E-07
 -1      2076-3.51769E-07 7.72228E+04-8.47416E-07
 -1      2078-3.61490E-07 7.72228E+04-2.39525E-08
 -1      2079-6.13142E-07 6.25725E+04 1.10481E-06
 -1      2081-8.44689E-07 6.25725E+04 1.58107E-06
 -1      2082-1.17928E-06 4.65218E+04 2.76099E-06
 -1      2084-1.45609E-06 4.65218E+04 2.68852E-06
 -1      2085-1.78331E-06 2.95649E+04 2.39327E-06
 -1      2087-6.00829E-07 2.95649E+04 2.84007E-06
 -1      2088 3.38624E-07 1.21978E+04 1.61357E-06
 -1      2090 2.48333E-07 1.21978E+04 1.48558E-06
 -1      2091 1.73779E-06-5.10277E+03 2.04396E-07
 -1      2093 8.26926E-07-5.10277E+03 1.48080E-07
 -1      2094 1.03048E-06-2.18939E+04 1.61468E-07
 -1      2096 2.18632E-06-2.18939E+04 1.68220E-07
 -1      2097 1.16910E-06-3.77794E+04 1.18694E-06
 -1      2099 3.57123E-06-3.77794E+04 1.54212E-06
 -1      2100 2.00768E-06-5.24176E+04 1.60333E-06
 -1      2102 2.36680E-06-5.24176E+04 1.57254E-06
 -1      2103 1.05985E-06-6.55238E+04 1.83153E-06
 -1      2105 4.68573E-07-6.55238E+04 1.28199E-06
 -1      2106 4.63589E-07-7.68710E+04 9.28383E-07
 -1      2108-7.03340E-08-7.68710E+04 6.55389E-07
 -1      2109 5.75935E-07-8.62841E+04 3.24202E-07
 -1      2111-1.13433E-07-8.62841E+04 4.64977E-07
 -1      2112 8.68976E-07-9.36359E+04 1.62990E-06
 -1      2114 4.02181E-07-9.36359E+04 9.27044E-07
 -1      2115 1.36528E-06-9.88334E+04 1.09925E-06
 -1      2117 1.58910E-06-9.88334E+04 3.61790E-07
 -1      2118 1.60667E-06-1.01819E+05 1.88529E-07
 -1      2120 1.51997E-06-1.01819E+05-9.51322E-07
 -1      2121 7.54831E+02 1.70011E+03-3.51851E+04
 -1      2123 7.54831E+02 1.70011E+03-3.51851E+04
 -1      2124 1.32357E+03 4.46358E+03-7.45412E+04
 -1      2126 1.32357E+03 4.46358E+03-7.45412E+04
 -1      2127 1.65559E+03 8.16349E+03-1.12556E+05
 -1      2129 1.65559E+03 8.16349E+03-1.12556E+05
 -1      2130 1.78419E+03 1.23129E+04-1.47114E+05
 -1      2132 1.78419E+03 1.23129E+04-1.47114E+05
 -1      2133 1.73725E+03 1.65106E+04-1.78162E+05
 -1      2135 1.73725E+03 1.65106E+04-1.78162E+05
 -1      2136 1.54045E+03 2.03895E+04-2.04641E+05
 -1      2138 1.54045E+03 2.03895E+04-2.04641E+05
 -1      2139 1.22104E+03 2.36467E+04-2.26100E+05
 -1      2141 1.22104E+03 2.36467E+04-2.26100E+05
 -1      2142 8.08587E+02 2.60348E+04-2.41947E+05
 -1      2144 8.08587E+02 2.60348E+04-2.41947E+05
 -1      2145 3.36222E+02 2.73818E+04-2.51844E+05
 -1      2147 3.36222E+02 2.73818E+04-2.51844E+05
 -1      2148-1.61917E+02 2.75894E+04-2.55535E+05
 -1      2150-1.61917E+02 2.75894E+04-2.55535E+05
 -1      2151-6.51126E+02 2.66421E+04-2.52939E+05
 -1      2153-6.51126E+02 2.66421E+04-2.52939E+05
 -1      2154-1.09927E+03 2.46000E+04-2.44114E+05
 -1      2156-1.09927E+03 2.46000E+04-2.44114E+05
 -1      2157-1.47814E+03 2.15957E+04-2.29270E+05
 -1      2159-1.47814E+03 2.15957E+04-2.29270E+05
 -1      2160-1.76587E+03 1.78191E+04-2.08763E+05
 -1      2162-1.76587E+03 1.78191E+04-2.08763E+05
 -1      2163-1.94804E+03 1.35031E+04-1.83085E+05
 -1      2165-1.94804E+03 1.35031E+04-1.83085E+05
 -1      2166-2.01881E+03 8.90391E+03-1.52857E+05
 -1      2168-2.01881E+03 8.90391E+03-1.52857E+05
 -1      2169-1.98088E+03 4.28082E+03-1.18811E+05
 -1      2171-1.98088E+03 4.28082E+03-1.18811E+05
 -1      2172-1.84507E+03-1.23525E+02-8.17772E+04
 -1      2174-1.84507E+03-1.23525E+02-8.17772E+04
 -1      2175-1.62903E+03-4.10067E+03-4.26637E+04
 -1      2177-1.62903E+03-4.10067E+03-4.26637E+04
 -1      2178-1.35552E+03-7.49072E+03-2.43358E+03
 -1      2180-1.35552E+03-7.49072E+03-2.43358E+03
 -1      2181-1.05017E+03-1.01916E+04 3.79168E+04
 -1      2183-1.05017E+03-1.01916E+04 3.79168E+04
 -1      2184-7.39088E+02-1.21629E+04 7.73827E+04
 -1      2186-7.39088E+02-1.21629E+04 7.73827E+04
 -1      2187-4.46433E+02-1.34243E+04 1.14977E+05
 -1      2189-4.46433E+02-1.34243E+04 1.14977E+05
 -1      2190-1.92245E+02-1.40483E+04 1.49753E+05
 -1      2192-1.92245E+02-1.40483E+04 1.49753E+05
 -1      2193 9.52551E+00-1.41478E+04 1.80834E+05
 -1      2195 9.52551E+00-1.41478E+04 1.80834E+05
 -1      2196 1.52122E+02-1.38605E+04 2.07428E+05
 -1      2198 1.52122E+02-1.38605E+04 2.07428E+05
 -1      2199 2.37084E+02-1.33308E+04 2.28865E+05
 -1      2201 2.37084E+02-1.33308E+04 2.28865E+05
 -1      2202 2.74070E+02-1.26911E+04 2.44577E+05
 -1      2204 2.74070E+02-1.26911E+04 2.44577E+05
 -1      2205 2.80183E+02-1.20406E+04 2.54196E+05
 -1      2207 2.80183E+02-1.20406E+04 2.54196E+05
 -1      2208-7.54831E+02 1.70011E+03 3.51851E+04
 -1      2210-7.54831E+02 1.70011E+03 3.51851E+04
 -1      2211-1.32357E+03 4.46358E+03 7.45412E+04
 -1      2213-1.32357E+03 4.46358E+03 7.45412E+04
 -1      2214-1.65559E+03 8.16349E+03 1.12556E+05
 -1      2216-1.65559E+03 8.16349E+03 1.12556E+05
 -1      2217-1.78419E+03 1.23129E+04 1.47114E+05
 -1      2219-1.78419E+03 1.23129E+04 1.47114E+05
 -1      2220-1.73725E+03 1.65106E+04 1.78162E+05
 -1      2222-1.73725E+03 1.65106E+04 1.78162E+05
 -1      2223-1.54045E+03 2.03895E+04 2.04641E+05
 -1      2225-1.54045E+03 2.03895E+04 2.04641E+05
 -1      2226-1.22104E+03 2.36467E+04 2.26100E+05
 -1      2228-1.22104E+03 2.36467E+04 2.26100E+05
 -1      2229-8.08587E+02 2.60348E+04 2.41947E+05
 -1      2231-8.08587E+02 2.60348E+04 2.41947E+05
 -1      2232-3.36222E+02 2.73818E+04 2.51844E+05
 -1      2234-3.36222E+02 2.73818E+04 2.51844E+05
 -1      2235 1.61917E+02 2.75894E+04 2.55535E+05
 -1      2237 1.61917E+02 2.75894E+04 2.55535E+05
 -1      2238 6.51126E+02 2.66421E+04 2.52939E+05
 -1      2240 6.51126E+02 2.66421E+04 2.52939E+05
 -1      2241 1.09927E+03 2.46000E+04 2.44114E+05
 -1      2243 1.09927E+03 2.46000E+04 2.44114E+05
 -1      2244 1.47814E+03 2.15957E+04 2.29270E+05
 -1      2246 1.47814E+03 2.15957E+04 2.29270E+05
 -1      2247 1.76587E+03 1.78191E+04 2.08763E+05
 -1      2249 1.76587E+03 1.78191E+04 2.08763E+05
 -1      2250 1.94804E+03 1.35031E+04 1.83085E+05
 -1      2252 1.94804E+03 1.35031E+04 1.83085E+05
 -1      2253 2.01881E+03 8.90391E+03 1.52857E+05
 -1      2255 2.01881E+03 8.90391E+03 1.52857E+05
 -1      2256 1.98088E+03 4.28082E+03 1.18811E+05
 -1      2258 1.98088E+03 4.28082E+03 1.18811E+05
 -1      2259 1.84507E+03-1.23525E+02 8.17772E+04
 -1      2261 1.84507E+03-1.23525E+02 8.17772E+04
 -1      2262 1.62903E+03-4.10067E+03 4.26637E+04
 -1      2264 1.62903E+03-4.10067E+03 4.26637E+04
 -1      2265 1.35552E+03-7.49072E+03 2.43358E+03
 -1      2267 1.35552E+03-7.49072E+03 2.43358E+03
 -1      2268 1.05017E+03-1.01916E+04-3.79168E+04
 -1      2270 1.05017E+03-1.01916E+04-3.79168E+04
 -1      2271 7.39088E+02-1.21629E+04-7.73827E+04
 -1      2273 7.39088E+02-1.21629E+04-7.73827E+04
 -1      2274 4.46433E+02-1.34243E+04-1.14977E+05
 -1      2276 4.46433E+02-1.34243E+04-1.14977E+05
 -1      2277 1.92245E+02-1.40483E+04-1.49753E+05
 -1      2279 1.92245E+02-1.40483E+04-1.49753E+05
 -1      2280-9.52551E+00-1.41478E+04-1.80834E+05
 -1      2282-9.52551E+00-1.41478E+04-1.80834E+05
 -1      2283-1.52122E+02-1.38605E+04-2.07428E+05
 -1      2285-1.52122E+02-1.38605E+04-2.07428E+05
 -1      2286-2.37084E+02-1.33308E+04-2.28865E+05
 -1      2288-2.37084E+02-1.33308E+04-2.28865E+05
 -1      2289-2.74070E+02-1.26911E+04-2.44577E+05
 -1      2291-2.74070E+02-1.26911E+04-2.44577E+05
 -1      2292-2.80183E+02-1.20406E+04-2.54196E+05
 -1      2294-2.80183E+02-1.20406E+04-2.54196E+05
 -3
    1PSTEP                        56           1           1          
    1PGM                1.000000E+00                                  
    1PGK                9.503010E+06                                  
    1PHID                         -1                                  
    1PSUBC                         0                                  
    1PMODE                        14                                  
  100CL  114 490.6261891         930                     2   14MODAL      1
 -4  ERROR       1    1
 -5  STR(%)      1    1    0    0
 -1       404 0.00000E+00
 -1       406 0.00000E+00
 -1       407 0.00000E+00
 -1       409 0.00000E+00
 -1       410 0.00000E+00
 -1       412 0.00000E+00
 -1       413 0.00000E+00
 -1       415 0.00000E+00
 -1       424 0.00000E+00
 -1       426 0.00000E+00
 -1       427 0.00000E+00
 -1       429 0.00000E+00
 -1       438 0.00000E+00
 -1       440 0.00000E+00
 -1       441 0.00000E+00
 -1       443 0.00000E+00
 -1       444 0.00000E+00
 -1       446 0.00000E+00
 -1       447 0.00000E+00
 -1       449 0.00000E+00
 -1       458 0.00000E+00
 -1       460 0.00000E+00
 -1       461 0.00000E+00
 -1       463 0.00000E+00
 -1       472 0.00000E+00
 -1       474 0.00000E+00
 -1       475 0.00000E+00
 -1       477 0.00000E+00
 -1       478 0.00000E+00
 -1       480 0.00000E+00
 -1       481 0.00000E+00
 -1       483 0.00000E+00
 -1       484 0.00000E+00
 -1       486 0.00000E+00
 -1       487 0.00000E+00
 -1       489 0.00000E+00
 -1       490 0.00000E+00
 -1       492 0.00000E+00
 -1       493 0.00000E+00
 -1       495 0.00000E+00
 -1       496 0.00000E+00
 -1       498 0.00000E+00
 -1       499 0.00000E+00
 -1       501 0.00000E+00
 -1       502 0.00000E+00
 -1       504 0.00000E+00
 -1       505 0.00000E+00
 -1       507 0.00000E+00
 -1       508 0.00000E+00
 -1       510 0.00000E+00
 -1       511 0.00000E+00
 -1       513 0.00000E+00
 -1       514 0.00000E+00
 -1       516 0.00000E+00
 -1       517 0.00000E+00
 -1       519 0.00000E+00
 -1       520 0.00000E+00
 -1       522 0.00000E+00
 -1       523 0.00000E+00
 -1       525 0.00000E+00
 -1       526 0.00000E+00
 -1       528 0.00000E+00
 -1       529 0.00000E+00
 -1       531 0.00000E+00
 -1       532 0.00000E+00
 -1       534 0.00000E+00
 -1       535 0.00000E+00
 -1       537 0.00000E+00
 -1       538 0.00000E+00
 -1       540 0.00000E+00
 -1       541 0.00000E+00
 -1       543 0.00000E+00
 -1       544 0.00000E+00
 -1       546 0.00000E+00
 -1       547 0.00000E+00
 -1       549 0.00000E+00
 -1       550 0.00000E+00
 -1       552 0.00000E+00
 -1       553 0.00000E+00
 -1       555 0.00000E+00
 -1       556 0.00000E+00
 -1       558 0.00000E+00
 -1       559 0.00000E+00
 -1       561 0.00000E+00
 -1       562 0.00000E+00
 -1       564 0.00000E+00
 -1       565 0.00000E+00
 -1       567 0.00000E+00
 -1       568 0.00000E+00
 -1       570 0.00000E+00
 -1       571 0.00000E+00
 -1       573 0.00000E+00
 -1       574 0.00000E+00
 -1       576 0.00000E+00
 -1       577 0.00000E+00
 -1       579 0.00000E+00
 -1       588 0.00000E+00
 -1       590 0.00000E+00
 -1       591 0.00000E+00
 -1       593 0.00000E+00
 -1       602 0.00000E+00
 -1       604 0.00000E+00
 -1       605 0.00000E+00
 -1       607 0.00000E+00
 -1       616 0.00000E+00
 -1       618 0.00000E+00
 -1       619 0.00000E+00
 -1       621 0.00000E+00
 -1       630 0.00000E+00
 -1       632 0.00000E+00
 -1       633 0.00000E+00
 -1       635 0.00000E+00
 -1       644 0.00000E+00
 -1       646 0.00000E+00
 -1       647 0.00000E+00
 -1       649 0.00000E+00
 -1       658 0.00000E+00
 -1       660 0.00000E+00
 -1       661 0.00000E+00
 -1       663 0.00000E+00
 -1       672 0.00000E+00
 -1       674 0.00000E+00
 -1       675 0.00000E+00
 -1       677 0.00000E+00
 -1       686 0.00000E+00
 -1       688 0.00000E+00
 -1       689 0.00000E+00
 -1       691 0.00000E+00
 -1       700 0.00000E+00
 -1       702 0.00000E+00
 -1       703 0.00000E+00
 -1       705 0.00000E+00
 -1       714 0.00000E+00
 -1       716 0.00000E+00
 -1       717 0.00000E+00
 -1       719 0.00000E+00
 -1       728 0.00000E+00
 -1       730 0.00000E+00
 -1       731 0.00000E+00
 -1       733 0.00000E+00
 -1       742 0.00000E+00
 -1       744 0.00000E+00
 -1       745 0.00000E+00
 -1       747 0.00000E+00
 -1       756 0.00000E+00
 -1       758 0.00000E+00
 -1       759 0.00000E+00
 -1       761 0.00000E+00
 -1       770 0.00000E+00
 -1       772 0.00000E+00
 -1       773 0.00000E+00
 -1       775 0.00000E+00
 -1       784 0.00000E+00
 -1       786 0.00000E+00
 -1       787 0.00000E+00
 -1       789 0.00000E+00
 -1       798 0.00000E+00
 -1       800 0.00000E+00
 -1       801 0.00000E+00
 -1       803 0.00000E+00
 -1       812 0.00000E+00
 -1       814 0.00000E+00
 -1       815 0.00000E+00
 -1       817 0.00000E+00
 -1       826 0.00000E+00
 -1       828 0.00000E+00
 -1       829 0.00000E+00
 -1       831 0.00000E+00
 -1       840 0.00000E+00
 -1       842 0.00000E+00
 -1       843 0.00000E+00
 -1       845 0.00000E+00
 -1       854 0.00000E+00
 -1       856 0.00000E+00
 -1       857 0.00000E+00
 -1       859 0.00000E+00
 -1       868 0.00000E+00
 -1       870 0.00000E+00
 -1       871 0.00000E+00
 -1       873 0.00000E+00
 -1       882 0.00000E+00
 -1       884 0.00000E+00
 -1       885 0.00000E+00
 -1       887 0.00000E+00
 -1       896 0.00000E+00
 -1       898 0.00000E+00
 -1       899 0.00000E+00
 -1       901 0.00000E+00
 -1       910 0.00000E+00
 -1       912 0.00000E+00
 -1       913 0.00000E+00
 -1       915 0.00000E+00
 -1       924 0.00000E+00
 -1       926 0.00000E+00
 -1       927 0.00000E+00
 -1       929 0.00000E+00
 -1       938 0.00000E+00
 -1       940 0.00000E+00
 -1       941 0.00000E+00
 -1       943 0.00000E+00
 -1       952 0.00000E+00
 -1       954 0.00000E+00
 -1       955 0.00000E+00
 -1       957 0.00000E+00
 -1       966 0.00000E+00
 -1       968 0.00000E+00
 -1       969 0.00000E+00
 -1       971 0.00000E+00
 -1       980 0.00000E+00
 -1       982 0.00000E+00
 -1       983 0.00000E+00
 -1       985 0.00000E+00
 -1       986 0.00000E+00
 -1       988 0.00000E+00
 -1       989 0.00000E+00
 -1       991 0.00000E+00
 -1       992 0.00000E+00
 -1       994 0.00000E+00
 -1       995 0.00000E+00
 -1       997 0.00000E+00
 -1       998 0.00000E+00
 -1      1000 0.00000E+00
 -1      1001 0.00000E+00
 -1      1003 0.00000E+00
 -1      1004 0.00000E+00
 -1      1006 0.00000E+00
 -1      1007 0.00000E+00
 -1      1009 0.00000E+00
 -1      1010 0.00000E+00
 -1      1012 0.00000E+00
 -1      1013 0.00000E+00
 -1      1015 0.00000E+00
 -1      1016 0.00000E+00
 -1      1018 0.00000E+00
 -1      1019 0.00000E+00
 -1      1021 0.00000E+00
 -1      1022 0.00000E+00
 -1      1024 0.00000E+00
 -1      1025 0.00000E+00
 -1      1027 0.00000E+00
 -1      1028 0.00000E+00
 -1      1030 0.00000E+00
 -1      1031 0.00000E+00
 -1      1033 0.00000E+00
 -1      1034 0.00000E+00
 -1      1036 0.00000E+00
 -1      1037 0.00000E+00
 -1      1039 0.00000E+00
 -1      1040 0.00000E+00
 -1      1042 0.00000E+00
 -1      1043 0.00000E+00
 -1      1045 0.00000E+00
 -1      1046 0.00000E+00
 -1      1048 0.00000E+00
 -1      1049 0.00000E+00
 -1      1051 0.00000E+00
 -1      1052 0.00000E+00
 -1      1054 0.00000E+00
 -1      1055 0.00000E+00
 -1      1057 0.00000E+00
 -1      1058 0.00000E+00
 -1      1060 0.00000E+00
 -1      1061 0.00000E+00
 -1      1063 0.00000E+00
 -1      1064 0.00000E+00
 -1      1066 0.00000E+00
 -1      1067 0.00000E+00
 -1      1069 0.00000E+00
 -1      1070 0.00000E+00
 -1      1072 0.00000E+00
 -1      1073 0.00000E+00
 -1      1075 0.00000E+00
 -1      1076 0.00000E+00
 -1      1078 0.00000E+00
 -1      1079 0.00000E+00
 -1      1081 0.00000E+00
 -1      1082 0.00000E+00
 -1      1084 0.00000E+00
 -1      1085 0.00000E+00
 -1      1087 0.00000E+00
 -1      1088 0.00000E+00
 -1      1090 0.00000E+00
 -1      1099 0.00000E+00
 -1      1101 0.00000E+00
 -1      1102 0.00000E+00
 -1      1104 0.00000E+00
 -1      1113 0.00000E+00
 -1      1115 0.00000E+00
 -1      1116 0.00000E+00
 -1      1118 0.00000E+00
 -1      1127 0.00000E+00
 -1      1129 0.00000E+00
 -1      1130 0.00000E+00
 -1      1132 0.00000E+00
 -1      1141 0.00000E+00
 -1      1143 0.00000E+00
 -1      1144 0.00000E+00
 -1      1146 0.00000E+00
 -1      1155 0.00000E+00
 -1      1157 0.00000E+00
 -1      1158 0.00000E+00
 -1      1160 0.00000E+00
 -1      1169 0.00000E+00
 -1      1171 0.00000E+00
 -1      1172 0.00000E+00
 -1      1174 0.00000E+00
 -1      1183 0.00000E+00
 -1      1185 0.00000E+00
 -1      1186 0.00000E+00
 -1      1188 0.00000E+00
 -1      1197 0.00000E+00
 -1      1199 0.00000E+00
 -1      1200 0.00000E+00
 -1      1202 0.00000E+00
 -1      1211 0.00000E+00
 -1      1213 0.00000E+00
 -1      1214 0.00000E+00
 -1      1216 0.00000E+00
 -1      1225 0.00000E+00
 -1      1227 0.00000E+00
 -1      1228 0.00000E+00
 -1      1230 0.00000E+00
 -1      1239 0.00000E+00
 -1      1241 0.00000E+00
 -1      1242 0.00000E+00
 -1      1244 0.00000E+00
 -1      1253 0.00000E+00
 -1      1255 0.00000E+00
 -1      1256 0.00000E+00
 -1      1258 0.00000E+00
 -1      1267 0.00000E+00
 -1      1269 0.00000E+00
 -1      1270 0.00000E+00
 -1      1272 0.00000E+00
 -1      1281 0.00000E+00
 -1      1283 0.00000E+00
 -1      1284 0.00000E+00
 -1      1286 0.00000E+00
 -1      1295 0.00000E+00
 -1      1297 0.00000E+00
 -1      1298 0.00000E+00
 -1      1300 0.00000E+00
 -1      1309 0.00000E+00
 -1      1311 0.00000E+00
 -1      1312 0.00000E+00
 -1      1314 0.00000E+00
 -1      1323 0.00000E+00
 -1      1325 0.00000E+00
 -1      1326 0.00000E+00
 -1      1328 0.00000E+00
 -1      1337 0.00000E+00
 -1      1339 0.00000E+00
 -1      1340 0.00000E+00
 -1      1342 0.00000E+00
 -1      1351 0.00000E+00
 -1      1353 0.00000E+00
 -1      1354 0.00000E+00
 -1      1356 0.00000E+00
 -1      1365 0.00000E+00
 -1      1367 0.00000E+00
 -1      1368 0.00000E+00
 -1      1370 0.00000E+00
 -1      1379 0.00000E+00
 -1      1381 0.00000E+00
 -1      1382 0.00000E+00
 -1      1384 0.00000E+00
 -1      1393 0.00000E+00
 -1      1395 0.00000E+00
 -1      1396 0.00000E+00
 -1      1398 0.00000E+00
 -1      1407 0.00000E+00
 -1      1409 0.00000E+00
 -1      1410 0.00000E+00
 -1      1412 0.00000E+00
 -1      1421 0.00000E+00
 -1      1423 0.00000E+00
 -1      1424 0.00000E+00
 -1      1426 0.00000E+00
 -1      1435 0.00000E+00
 -1      1437 0.00000E+00
 -1      1438 0.00000E+00
 -1      1440 0.00000E+00
 -1      1449 0.00000E+00
 -1      1451 0.00000E+00
 -1      1452 0.00000E+00
 -1      1454 0.00000E+00
 -1      1463 0.00000E+00
 -1      1465 0.00000E+00
 -1      1466 0.00000E+00
 -1      1468 0.00000E+00
 -1      1477 0.00000E+00
 -1      1479 0.00000E+00
 -1      1480 0.00000E+00
 -1      1482 0.00000E+00
 -1      1491 0.00000E+00
 -1      1493 0.00000E+00
 -1      1494 0.00000E+00
 -1      1496 0.00000E+00
 -1      1497 0.00000E+00
 -1      1499 0.00000E+00
 -1      1500 0.00000E+00
 -1      1502 0.00000E+00
 -1      1503 0.00000E+00
 -1      1505 0.00000E+00
 -1      1506 0.00000E+00
 -1      1508 0.00000E+00
 -1      1509 0.00000E+00
 -1      1511 0.00000E+00
 -1      1512 0.00000E+00
 -1      1514 0.00000E+00
 -1      1515 0.00000E+00
 -1      1517 0.00000E+00
 -1      1518 0.00000E+00
 -1      1520 0.00000E+00
 -1      1521 0.00000E+00
 -1      1523 0.00000E+00
 -1      1524 0.00000E+00
 -1      1526 0.00000E+00
 -1      1527 0.00000E+00
 -1      1529 0.00000E+00
 -1      1530 0.00000E+00
 -1      1532 0.00000E+00
 -1      1533 0.00000E+00
 -1      1535 0.00000E+00
 -1      1536 0.00000E+00
 -1      1538 0.00000E+00
 -1      1539 0.00000E+00
 -1      1541 0.00000E+00
 -1      1542 0.00000E+00
 -1      1544 0.00000E+00
 -1      1545 0.00000E+00
 -1      1547 0.00000E+00
 -1      1548 0.00000E+00
 -1      1550 0.00000E+00
 -1      1551 0.00000E+00
 -1      1553 0.00000E+00
 -1      1554 0.00000E+00
 -1      1556 0.00000E+00
 -1      1557 0.00000E+00
 -1      1559 0.00000E+00
 -1      1560 0.00000E+00
 -1      1562 0.00000E+00
 -1      1563 0.00000E+00
 -1      1565 0.00000E+00
 -1      1566 0.00000E+00
 -1      1568 0.00000E+00
 -1      1569 0.00000E+00
 -1      1571 0.00000E+00
 -1      1572 0.00000E+00
 -1      1574 0.00000E+00
 -1      1575 0.00000E+00
 -1      1577 0.00000E+00
 -1      1578 0.00000E+00
 -1      1580 0.00000E+00
 -1      1581 0.00000E+00
 -1      1583 0.00000E+00
 -1      1584 0.00000E+00
 -1      1586 0.00000E+00
 -1      1587 0.00000E+00
 -1      1589 0.00000E+00
 -1      1590 0.00000E+00
 -1      1592 0.00000E+00
 -1      1593 0.00000E+00
 -1      1595 0.00000E+00
 -1      1596 0.00000E+00
 -1      1598 0.00000E+00
 -1      1599 0.00000E+00
 -1      1601 0.00000E+00
 -1      1602 0.00000E+00
 -1      1604 0.00000E+00
 -1      1605 0.00000E+00
 -1      1607 0.00000E+00
 -1      1608 0.00000E+00
 -1      1610 0.00000E+00
 -1      1611 0.00000E+00
 -1      1613 0.00000E+00
 -1      1614 0.00000E+00
 -1      1616 0.00000E+00
 -1      1617 0.00000E+00
 -1      1619 0.00000E+00
 -1      1620 0.00000E+00
 -1      1622 0.00000E+00
 -1      1623 0.00000E+00
 -1      1625 0.00000E+00
 -1      1626 0.00000E+00
 -1      1628 0.00000E+00
 -1      1629 0.00000E+00
 -1      1631 0.00000E+00
 -1      1632 0.00000E+00
 -1      1634 0.00000E+00
 -1      1635 0.00000E+00
 -1      1637 0.00000E+00
 -1      1638 0.00000E+00
 -1      1640 0.00000E+00
 -1      1641 0.00000E+00
 -1      1643 0.00000E+00
 -1      1644 0.00000E+00
 -1      1646 0.00000E+00
 -1      1647 0.00000E+00
 -1      1649 0.00000E+00
 -1      1650 0.00000E+00
 -1      1652 0.00000E+00
 -1      1653 0.00000E+00
 -1      1655 0.00000E+00
 -1      1656 0.00000E+00
 -1      1658 0.00000E+00
 -1      1659 0.00000E+00
 -1      1661 0.00000E+00
 -1      1662 0.00000E+00
 -1      1664 0.00000E+00
 -1      1665 0.00000E+00
 -1      1667 0.00000E+00
 -1      1668 0.00000E+00
 -1      1670 0.00000E+00
 -1      1671 0.00000E+00
 -1      1673 0.00000E+00
 -1      1674 0.00000E+00
 -1      1676 0.00000E+00
 -1      1677 0.00000E+00
 -1      1679 0.00000E+00
 -1      1680 0.00000E+00
 -1      1682 0.00000E+00
 -1      1683 0.00000E+00
 -1      1685 0.00000E+00
 -1      1686 0.00000E+00
 -1      1688 0.00000E+00
 -1      1689 0.00000E+00
 -1      1691 0.00000E+00
 -1      1692 0.00000E+00
 -1      1694 0.00000E+00
 -1      1695 0.00000E+00
 -1      1697 0.00000E+00
 -1      1698 0.00000E+00
 -1      1700 0.00000E+00
 -1      1701 0.00000E+00
 -1      1703 0.00000E+00
 -1      1704 0.00000E+00
 -1      1706 0.00000E+00
 -1      1707 0.00000E+00
 -1      1709 0.00000E+00
 -1      1710 0.00000E+00
 -1      1712 0.00000E+00
 -1      1713 0.00000E+00
 -1      1715 0.00000E+00
 -1      1716 0.00000E+00
 -1      1718 0.00000E+00
 -1      1719 0.00000E+00
 -1      1721 0.00000E+00
 -1      1722 0.00000E+00
 -1      1724 0.00000E+00
 -1      1725 0.00000E+00
 -1      1727 0.00000E+00
 -1      1728 0.00000E+00
 -1      1730 0.00000E+00
 -1      1731 0.00000E+00
 -1      1733 0.00000E+00
 -1      1734 0.00000E+00
 -1      1736 0.00000E+00
 -1      1737 0.00000E+00
 -1      1739 0.00000E+00
 -1      1740 0.00000E+00
 -1      1742 0.00000E+00
 -1      1743 0.00000E+00
 -1      1745 0.00000E+00
 -1      1746 0.00000E+00
 -1      1748 0.00000E+00
 -1      1749 0.00000E+00
 -1      1751 0.00000E+00
 -1      1752 0.00000E+00
 -1      1754 0.00000E+00
 -1      1755 0.00000E+00
 -1      1757 0.00000E+00
 -1      1758 0.00000E+00
 -1      1760 0.00000E+00
 -1      1761 0.00000E+00
 -1      1763 0.00000E+00
 -1      1764 0.00000E+00
 -1      1766 0.00000E+00
 -1      1767 0.00000E+00
 -1      1769 0.00000E+00
 -1      1770 0.00000E+00
 -1      1772 0.00000E+00
 -1      1773 0.00000E+00
 -1      1775 0.00000E+00
 -1      1776 0.00000E+00
 -1      1778 0.00000E+00
 -1      1779 0.00000E+00
 -1      1781 0.00000E+00
 -1      1782 0.00000E+00
 -1      1784 0.00000E+00
 -1      1785 0.00000E+00
 -1      1787 0.00000E+00
 -1      1788 0.00000E+00
 -1      1790 0.00000E+00
 -1      1791 0.00000E+00
 -1      1793 0.00000E+00
 -1      1794 0.00000E+00
 -1      1796 0.00000E+00
 -1      1797 0.00000E+00
 -1      1799 0.00000E+00
 -1      1800 0.00000E+00
 -1      1802 0.00000E+00
 -1      1803 0.00000E+00
 -1      1805 0.00000E+00
 -1      1806 0.00000E+00
 -1      1808 0.00000E+00
 -1      1809 0.00000E+00
 -1      1811 0.00000E+00
 -1      1812 0.00000E+00
 -1      1814 0.00000E+00
 -1      1815 0.00000E+00
 -1      1817 0.00000E+00
 -1      1818 0.00000E+00
 -1      1820 0.00000E+00
 -1      1821 0.00000E+00
 -1      1823 0.00000E+00
 -1      1824 0.00000E+00
 -1      1826 0.00000E+00
 -1      1827 0.00000E+00
 -1      1829 0.00000E+00
 -1      1830 0.00000E+00
 -1      1832 0.00000E+00
 -1      1833 0.00000E+00
 -1      1835 0.00000E+00
 -1      1836 0.00000E+00
 -1      1838 0.00000E+00
 -1      1839 0.00000E+00
 -1      1841 0.00000E+00
 -1      1842 0.00000E+00
 -1      1844 0.00000E+00
 -1      1845 0.00000E+00
 -1      1847 0.00000E+00
 -1      1848 0.00000E+00
 -1      1850 0.00000E+00
 -1      1851 0.00000E+00
 -1      1853 0.00000E+00
 -1      1854 0.00000E+00
 -1      1856 0.00000E+00
 -1      1857 0.00000E+00
 -1      1859 0.00000E+00
 -1      1860 0.00000E+00
 -1      1862 0.00000E+00
 -1      1863 0.00000E+00
 -1      1865 0.00000E+00
 -1      1866 0.00000E+00
 -1      1868 0.00000E+00
 -1      1869 0.00000E+00
 -1      1871 0.00000E+00
 -1      1872 0.00000E+00
 -1      1874 0.00000E+00
 -1      1875 0.00000E+00
 -1      1877 0.00000E+00
 -1      1878 0.00000E+00
 -1      1880 0.00000E+00
 -1      1881 0.00000E+00
 -1      1883 0.00000E+00
 -1      1884 0.00000E+00
 -1      1886 0.00000E+00
 -1      1887 0.00000E+00
 -1      1889 0.00000E+00
 -1      1890 0.00000E+00
 -1      1892 0.00000E+00
 -1      1893 0.00000E+00
 -1      1895 0.00000E+00
 -1      1896 0.00000E+00
 -1      1898 0.00000E+00
 -1      1899 0.00000E+00
 -1      1901 0.00000E+00
 -1      1902 0.00000E+00
 -1      1904 0.00000E+00
 -1      1905 0.00000E+00
 -1      1907 0.00000E+00
 -1      1908 0.00000E+00
 -1      1910 0.00000E+00
 -1      1911 0.00000E+00
 -1      1913 0.00000E+00
 -1      1914 0.00000E+00
 -1      1916 0.00000E+00
 -1      1917 0.00000E+00
 -1      1919 0.00000E+00
 -1      1920 0.00000E+00
 -1      1922 0.00000E+00
 -1      1923 0.00000E+00
 -1      1925 0.00000E+00
 -1      1926 0.00000E+00
 -1      1928 0.00000E+00
 -1      1929 0.00000E+00
 -1      1931 0.00000E+00
 -1      1932 0.00000E+00
 -1      1934 0.00000E+00
 -1      1935 0.00000E+00
 -1      1937 0.00000E+00
 -1      1938 0.00000E+00
 -1      1940 0.00000E+00
 -1      1941 0.00000E+00
 -1      1943 0.00000E+00
 -1      1944 0.00000E+00
 -1      1946 0.00000E+00
 -1      1947 0.00000E+00
 -1      1949 0.00000E+00
 -1      1950 0.00000E+00
 -1      1952 0.00000E+00
 -1      1953 0.00000E+00
 -1      1955 0.00000E+00
 -1      1956 0.00000E+00
 -1      1958 0.00000E+00
 -1      1959 0.00000E+00
 -1      1961 0.00000E+00
 -1      1962 0.00000E+00
 -1      1964 0.00000E+00
 -1      1965 0.00000E+00
 -1      1967 0.00000E+00
 -1      1968 0.00000E+00
 -1      1970 0.00000E+00
 -1      1971 0.00000E+00
 -1      1973 0.00000E+00
 -1      1974 0.00000E+00
 -1      1976 0.00000E+00
 -1      1977 0.00000E+00
 -1      1979 0.00000E+00
 -1      1980 0.00000E+00
 -1      1982 0.00000E+00
 -1      1983 0.00000E+00
 -1      1985 0.00000E+00
 -1      1986 0.00000E+00
 -1      1988 0.00000E+00
 -1      1989 0.00000E+00
 -1      1991 0.00000E+00
 -1      1992 0.00000E+00
 -1      1994 0.00000E+00
 -1      1995 0.00000E+00
 -1      1997 0.00000E+00
 -1      1998 0.00000E+00
 -1      2000 0.00000E+00
 -1      2001 0.00000E+00
 -1      2003 0.00000E+00
 -1      2004 0.00000E+00
 -1      2006 0.00000E+00
 -1      2007 0.00000E+00
 -1      2009 0.00000E+00
 -1      2010 0.00000E+00
 -1      2012 0.00000E+00
 -1      2013 0.00000E+00
 -1      2015 0.00000E+00
 -1      2016 0.00000E+00
 -1      2018 0.00000E+00
 -1      2019 0.00000E+00
 -1      2021 0.00000E+00
 -1      2022 0.00000E+00
 -1      2024 0.00000E+00
 -1      2025 0.00000E+00
 -1      2027 0.00000E+00
 -1      2028 0.00000E+00
 -1      2030 0.00000E+00
 -1      2031 0.00000E+00
 -1      2033 0.00000E+00
 -1      2034 0.00000E+00
 -1      2036 0.00000E+00
 -1      2037 0.00000E+00
 -1      2039 0.00000E+00
 -1      2040 0.00000E+00
 -1      2042 0.00000E+00
 -1      2043 0.00000E+00
 -1      2045 0.00000E+00
 -1      2046 0.00000E+00
 -1      2048 0.00000E+00
 -1      2049 0.00000E+00
 -1      2051 0.00000E+00
 -1      2052 0.00000E+00
 -1      2054 0.00000E+00
 -1      2055 0.00000E+00
 -1      2057 0.00000E+00
 -1      2058 0.00000E+00
 -1      2060 0.00000E+00
 -1      2061 0.00000E+00
 -1      2063 0.00000E+00
 -1      2064 0.00000E+00
 -1      2066 0.00000E+00
 -1      2067 0.00000E+00
 -1      2069 0.00000E+00
 -1      2070 0.00000E+00
 -1      2072 0.00000E+00
 -1      2073 0.00000E+00
 -1      2075 0.00000E+00
 -1      2076 0.00000E+00
 -1      2078 0.00000E+00
 -1      2079 0.00000E+00
 -1      2081 0.00000E+00
 -1      2082 0.00000E+00
 -1      2084 0.00000E+00
 -1      2085 0.00000E+00
 -1      2087 0.00000E+00
 -1      2088 0.00000E+00
 -1      2090 0.00000E+00
 -1      2091 0.00000E+00
 -1      2093 0.00000E+00
 -1      2094 0.00000E+00
 -1      2096 0.00000E+00
 -1      2097 0.00000E+00
 -1      2099 0.00000E+00
 -1      2100 0.00000E+00
 -1      2102 0.00000E+00
 -1      2103 0.00000E+00
 -1      2105 0.00000E+00
 -1      2106 0.00000E+00
 -1      2108 0.00000E+00
 -1      2109 0.00000E+00
 -1      2111 0.00000E+00
 -1      2112 0.00000E+00
 -1      2114 0.00000E+00
 -1      2115 0.00000E+00
 -1      2117 0.00000E+00
 -1      2118 0.00000E+00
 -1      2120 0.00000E+00
 -1      2121 0.00000E+00
 -1      2123 0.00000E+00
 -1      2124 0.00000E+00
 -1      2126 0.00000E+00
 -1      2127 0.00000E+00
 -1      2129 0.00000E+00
 -1      2130 0.00000E+00
 -1      2132 0.00000E+00
 -1      2133 0.00000E+00
 -1      2135 0.00000E+00
 -1      2136 0.00000E+00
 -1      2138 0.00000E+00
 -1      2139 0.00000E+00
 -1      2141 0.00000E+00
 -1      2142 0.00000E+00
 -1      2144 0.00000E+00
 -1      2145 0.00000E+00
 -1      2147 0.00000E+00
 -1      2148 0.00000E+00
 -1      2150 0.00000E+00
 -1      2151 0.00000E+00
 -1      2153 0.00000E+00
 -1      2154 0.00000E+00
 -1      2156 0.00000E+00
 -1      2157 0.00000E+00
 -1      2159 0.00000E+00
 -1      2160 0.00000E+00
 -1      2162 0.00000E+00
 -1      2163 0.00000E+00
 -1      2165 0.00000E+00
 -1      2166 0.00000E+00
 -1      2168 0.00000E+00
 -1      2169 0.00000E+00
 -1      2171 0.00000E+00
 -1      2172 0.00000E+00
 -1      2174 0.00000E+00
 -1      2175 0.00000E+00
 -1      2177 0.00000E+00
 -1      2178 0.00000E+00
 -1      2180 0.00000E+00
 -1      2181 0.00000E+00
 -1      2183 0.00000E+00
 -1      2184 0.00000E+00
 -1      2186 0.00000E+00
 -1      2187 0.00000E+00
 -1      2189 0.00000E+00
 -1      2190 0.00000E+00
 -1      2192 0.00000E+00
 -1      2193 0.00000E+00
 -1      2195 0.00000E+00
 -1      2196 0.00000E+00
 -1      2198 0.00000E+00
 -1      2199 0.00000E+00
 -1      2201 0.00000E+00
 -1      2202 0.00000E+00
 -1      2204 0.00000E+00
 -1      2205 0.00000E+00
 -1      2207 0.00000E+00
 -1      2208 0.00000E+00
 -1      2210 0.00000E+00
 -1      2211 0.00000E+00
 -1      2213 0.00000E+00
 -1      2214 0.00000E+00
 -1      2216 0.00000E+00
 -1      2217 0.00000E+00
 -1      2219 0.00000E+00
 -1      2220 0.00000E+00
 -1      2222 0.00000E+00
 -1      2223 0.00000E+00
 -1      2225 0.00000E+00
 -1      2226 0.00000E+00
 -1      2228 0.00000E+00
 -1      2229 0.00000E+00
 -1      2231 0.00000E+00
 -1      2232 0.00000E+00
 -1      2234 0.00000E+00
 -1      2235 0.00000E+00
 -1      2237 0.00000E+00
 -1      2238 0.00000E+00
 -1      2240 0.00000E+00
 -1      2241 0.00000E+00
 -1      2243 0.00000E+00
 -1      2244 0.00000E+00
 -1      2246 0.00000E+00
 -1      2247 0.00000E+00
 -1      2249 0.00000E+00
 -1      2250 0.00000E+00
 -1      2252 0.00000E+00
 -1      2253 0.00000E+00
 -1      2255 0.00000E+00
 -1      2256 0.00000E+00
 -1      2258 0.00000E+00
 -1      2259 0.00000E+00
 -1      2261 0.00000E+00
 -1      2262 0.00000E+00
 -1      2264 0.00000E+00
 -1      2265 0.00000E+00
 -1      2267 0.00000E+00
 -1      2268 0.00000E+00
 -1      2270 0.00000E+00
 -1      2271 0.00000E+00
 -1      2273 0.00000E+00
 -1      2274 0.00000E+00
 -1      2276 0.00000E+00
 -1      2277 0.00000E+00
 -1      2279 0.00000E+00
 -1      2280 0.00000E+00
 -1      2282 0.00000E+00
 -1      2283 0.00000E+00
 -1      2285 0.00000E+00
 -1      2286 0.00000E+00
 -1      2288 0.00000E+00
 -1      2289 0.00000E+00
 -1      2291 0.00000E+00
 -1      2292 0.00000E+00
 -1      2294 0.00000E+00
 -3
    1PSTEP                        57           1           1          
    1PGM                1.000000E+00                                  
    1PGK                1.086716E+07                                  
    1PHID                         -1                                  
    1PSUBC                         0                                  
    1PMODE                        15                                  
  100CL  115 524.6603102         930                     2   15MODAL      1
 -4  DISP        4    1
 -5  D1          1    2    1    0
 -5  D2          1    2    2    0
 -5  D3          1    2    3    0
 -5  ALL         1    2    0    0    1ALL
 -1       404 0.00000E+00 0.00000E+00 1.08590E-04
 -1       406 0.00000E+00-0.00000E+00-1.08590E-04
 -1       407 3.53486E-02 4.56025E-03 1.45951E-01
 -1       409 3.27621E-02-4.34696E-03 1.46025E-01
 -1       410 3.55869E-02-2.17748E-12 9.56625E-02
 -1       412 3.32028E-02-2.23049E-12 9.57177E-02
 -1       413 3.43949E-02-1.75992E-05 9.56901E-02
 -1       415 3.43949E-02 1.75992E-05 9.56901E-02
 -1       424 0.00000E+00 0.00000E+00 1.56108E-04
 -1       426 0.00000E+00 0.00000E+00-1.56108E-04
 -1       427 0.00000E+00 9.94469E-05 0.00000E+00
 -1       429 0.00000E+00-9.94469E-05 0.00000E+00
 -1       438 3.53486E-02-4.56025E-03 1.45951E-01
 -1       440 3.27621E-02 4.34696E-03 1.46025E-01
 -1       441 0.00000E+00 0.00000E+00 1.08590E-04
 -1       443 0.00000E+00-0.00000E+00-1.08590E-04
 -1       444 0.00000E+00-9.94469E-05 0.00000E+00
 -1       446 0.00000E+00 9.94469E-05 0.00000E+00
 -1       447 0.00000E+00 0.00000E+00 1.56108E-04
 -1       449 0.00000E+00 0.00000E+00-1.56108E-04
 -1       458-3.43949E-02 1.75992E-05 9.56901E-02
 -1       460-3.43949E-02-1.75992E-05 9.56901E-02
 -1       461-3.55869E-02 6.94125E-13 9.56625E-02
 -1       463-3.32028E-02 3.66832E-13 9.57177E-02
 -1       472 0.00000E+00 0.00000E+00 1.08590E-04
 -1       474 0.00000E+00 0.00000E+00-1.08590E-04
 -1       475-3.53486E-02 4.56025E-03 1.45951E-01
 -1       477-3.27621E-02-4.34696E-03 1.46025E-01
 -1       478-3.53486E-02-4.56025E-03 1.45951E-01
 -1       480-3.27621E-02 4.34696E-03 1.46025E-01
 -1       481 0.00000E+00 0.00000E+00 1.08590E-04
 -1       483 0.00000E+00 0.00000E+00-1.08590E-04
 -1       484 6.44739E-03 1.45861E-03 3.17275E-02
 -1       486-1.22461E-03-3.57382E-03 3.16323E-02
 -1       487 6.01885E-03 4.44415E-03 7.60009E-02
 -1       489 2.10725E-03-4.96352E-03 7.59840E-02
 -1       490 7.18001E-03 7.05036E-03 1.10593E-01
 -1       492 2.34621E-03-6.81848E-03 1.10639E-01
 -1       493 5.75605E-03 9.26201E-03 1.43222E-01
 -1       495 2.20202E-03-8.49747E-03 1.43331E-01
 -1       496 3.61575E-03 1.10094E-02 1.67853E-01
 -1       498 8.80709E-04-9.68727E-03 1.68002E-01
 -1       499 4.91476E-04 1.22077E-02 1.84571E-01
 -1       501-1.05610E-03-1.05261E-02 1.84759E-01
 -1       502-3.20099E-03 1.27458E-02 1.91681E-01
 -1       504-3.46932E-03-1.08512E-02 1.91881E-01
 -1       505-7.11888E-03 1.26514E-02 1.88885E-01
 -1       507-6.12511E-03-1.07107E-02 1.89094E-01
 -1       508-1.09815E-02 1.19061E-02 1.76261E-01
 -1       510-8.72912E-03-1.00833E-02 1.76452E-01
 -1       511-1.44231E-02 1.05776E-02 1.54524E-01
 -1       513-1.10874E-02-9.02338E-03 1.54692E-01
 -1       514-1.72000E-02 8.74521E-03 1.25000E-01
 -1       516-1.29492E-02-7.59157E-03 1.25123E-01
 -1       517-1.90458E-02 6.52358E-03 8.94531E-02
 -1       519-1.41625E-02-5.87357E-03 8.95309E-02
 -1       520-1.98082E-02 4.05387E-03 5.00801E-02
 -1       522-1.45752E-02-3.97838E-03 5.00984E-02
 -1       523-1.93677E-02 1.48295E-03 9.28439E-03
 -1       525-1.41191E-02-2.01504E-03 9.24638E-03
 -1       526-1.77081E-02-1.02632E-03-3.04044E-02
 -1       528-1.27607E-02-1.08861E-04-3.05032E-02
 -1       529-1.48701E-02-3.32758E-03-6.65395E-02
 -1       531-1.05362E-02 1.63154E-03-6.66903E-02
 -1       532-1.09803E-02-5.27716E-03-9.68741E-02
 -1       534-7.52584E-03 3.09614E-03-9.70729E-02
 -1       535-6.21857E-03-6.76645E-03-1.19530E-01
 -1       537-3.86100E-03 4.20461E-03-1.19764E-01
 -1       538-8.21843E-04-7.70617E-03-1.33099E-01
 -1       540 2.93113E-04 4.88937E-03-1.33357E-01
 -1       541 4.94363E-03-8.05583E-03-1.36748E-01
 -1       543 4.74605E-03 5.12105E-03-1.37015E-01
 -1       544 1.07923E-02-7.80287E-03-1.30263E-01
 -1       546 9.29578E-03 4.89247E-03-1.30526E-01
 -1       547 1.64448E-02-6.99049E-03-1.14079E-01
 -1       549 1.37455E-02 4.23577E-03-1.14325E-01
 -1       550 2.16424E-02-5.68733E-03-8.92563E-02
 -1       552 1.79138E-02 3.21060E-03-8.94723E-02
 -1       553 2.61706E-02-4.01813E-03-5.74153E-02
 -1       555 2.16528E-02 1.90445E-03-5.75931E-02
 -1       556 2.98640E-02-2.11667E-03-2.06716E-02
 -1       558 2.48576E-02 4.41787E-04-2.08033E-02
 -1       559 3.26467E-02-1.76062E-04 1.85464E-02
 -1       561 2.74691E-02-1.06423E-03 1.84615E-02
 -1       562 3.44589E-02 1.65045E-03 5.74716E-02
 -1       564 2.95042E-02-2.42034E-03 5.74356E-02
 -1       565 3.54918E-02 3.12152E-03 9.35396E-02
 -1       567 3.10080E-02-3.54160E-03 9.35428E-02
 -1       568 3.55912E-02 4.06699E-03 1.23563E-01
 -1       570 3.21765E-02-4.26796E-03 1.23601E-01
 -1       571 3.54295E-02 5.36648E-03 1.13632E-01
 -1       573 3.29442E-02-5.16831E-03 1.13556E-01
 -1       574 5.54363E-03 2.93429E-13 1.36235E-02
 -1       576 2.53024E-03 3.11028E-13 1.34845E-02
 -1       577 4.03694E-03 4.42709E-05 1.35540E-02
 -1       579 4.03694E-03-4.42709E-05 1.35540E-02
 -1       588 6.45763E-03 8.42458E-13 3.04908E-02
 -1       590 5.22059E-03 8.49716E-13 3.05081E-02
 -1       591 5.83911E-03-5.50010E-06 3.04995E-02
 -1       593 5.83911E-03 5.50010E-06 3.04995E-02
 -1       602 7.18243E-03 1.37246E-12 4.47220E-02
 -1       604 5.13330E-03 1.34142E-12 4.47657E-02
 -1       605 6.15787E-03-1.39177E-05 4.47439E-02
 -1       607 6.15787E-03 1.39177E-05 4.47439E-02
 -1       616 5.82858E-03 1.83608E-12 5.82437E-02
 -1       618 4.55530E-03 1.77699E-12 5.83592E-02
 -1       619 5.19194E-03-3.67810E-05 5.83014E-02
 -1       621 5.19194E-03 3.67810E-05 5.83014E-02
 -1       630 3.78482E-03 2.06620E-12 6.86298E-02
 -1       632 2.59901E-03 2.00131E-12 6.87909E-02
 -1       633 3.19191E-03-5.13254E-05 6.87103E-02
 -1       635 3.19191E-03 5.13255E-05 6.87103E-02
 -1       644 6.15173E-04 1.96782E-12 7.56956E-02
 -1       646 7.13337E-05 1.90846E-12 7.58900E-02
 -1       647 3.43253E-04-6.19172E-05 7.57928E-02
 -1       649 3.43253E-04 6.19172E-05 7.57928E-02
 -1       658-2.97977E-03 1.54281E-12 7.85646E-02
 -1       660-3.10388E-03 1.49673E-12 7.87788E-02
 -1       661-3.04182E-03-6.82127E-05 7.86717E-02
 -1       663-3.04182E-03 6.82127E-05 7.86717E-02
 -1       672-6.91132E-03 8.46345E-13 7.70825E-02
 -1       674-6.42356E-03 8.15256E-13 7.72978E-02
 -1       675-6.66744E-03-6.85630E-05 7.71901E-02
 -1       677-6.66744E-03 6.85631E-05 7.71901E-02
 -1       686-1.07088E-02-4.68449E-14 7.11841E-02
 -1       688-9.73698E-03-7.24069E-14 7.13864E-02
 -1       689-1.02229E-02-6.44282E-05 7.12853E-02
 -1       691-1.02229E-02 6.44282E-05 7.12853E-02
 -1       700-1.41508E-02-9.74784E-13 6.12010E-02
 -1       702-1.26762E-02-9.94689E-13 6.13741E-02
 -1       703-1.34135E-02-5.51628E-05 6.12875E-02
 -1       705-1.34135E-02 5.51627E-05 6.12875E-02
 -1       714-1.68961E-02-1.74786E-12 4.76834E-02
 -1       716-1.50515E-02-1.74016E-12 4.78153E-02
 -1       717-1.59738E-02-4.20142E-05 4.77493E-02
 -1       719-1.59738E-02 4.20142E-05 4.77493E-02
 -1       728-1.87510E-02-2.27597E-12 3.14475E-02
 -1       730-1.66161E-02-2.22026E-12 3.15278E-02
 -1       731-1.76836E-02-2.55832E-05 3.14877E-02
 -1       733-1.76836E-02 2.55832E-05 3.14877E-02
 -1       742-1.95160E-02-2.58096E-12 1.34755E-02
 -1       744-1.72431E-02-2.49018E-12 1.34973E-02
 -1       745-1.83796E-02-6.96951E-06 1.34864E-02
 -1       747-1.83796E-02 6.96951E-06 1.34864E-02
 -1       756-1.91066E-02-2.72114E-12-5.11852E-03
 -1       758-1.68227E-02-2.63224E-12-5.15780E-03
 -1       759-1.79647E-02 1.25105E-05-5.13816E-03
 -1       761-1.79647E-02-1.25105E-05-5.13816E-03
 -1       770-1.74828E-02-2.68510E-12-2.31755E-02
 -1       772-1.53417E-02-2.63531E-12-2.32757E-02
 -1       773-1.64122E-02 3.18934E-05-2.32256E-02
 -1       775-1.64122E-02-3.18934E-05-2.32256E-02
 -1       784-1.47009E-02-2.43201E-12-3.95540E-02
 -1       786-1.28325E-02-2.44165E-12-3.97098E-02
 -1       787-1.37667E-02 4.96222E-05-3.96319E-02
 -1       789-1.37667E-02-4.96222E-05-3.96319E-02
 -1       798-1.08738E-02-1.96551E-12-5.32066E-02
 -1       800-9.40440E-03-2.03115E-12-5.34108E-02
 -1       801-1.01391E-02 6.50557E-05-5.33087E-02
 -1       803-1.01391E-02-6.50557E-05-5.33087E-02
 -1       812-6.18689E-03-1.33429E-12-6.32424E-02
 -1       814-5.21183E-03-1.43068E-12-6.34834E-02
 -1       815-5.69936E-03 7.67540E-05-6.33629E-02
 -1       817-5.69936E-03-7.67540E-05-6.33629E-02
 -1       826-8.67682E-04-6.21637E-13-6.89814E-02
 -1       828-4.59310E-04-7.28016E-13-6.92471E-02
 -1       829-6.63496E-04 8.46373E-05-6.91142E-02
 -1       831-6.63496E-04-8.46373E-05-6.91142E-02
 -1       840 4.81719E-03 8.59115E-14-6.99978E-02
 -1       842 4.62359E-03-2.61954E-14-7.02729E-02
 -1       843 4.72039E-03 8.76240E-05-7.01354E-02
 -1       845 4.72039E-03-8.76240E-05-7.01354E-02
 -1       854 1.05903E-02 6.86864E-13-6.61399E-02
 -1       856 9.79072E-03 5.69395E-13-6.64111E-02
 -1       857 1.01905E-02 8.63587E-05-6.62755E-02
 -1       859 1.01905E-02-8.63587E-05-6.62755E-02
 -1       868 1.61736E-02 1.08482E-12-5.75445E-02
 -1       870 1.48015E-02 9.79780E-13-5.77964E-02
 -1       871 1.54876E-02 8.02421E-05-5.76705E-02
 -1       873 1.54876E-02-8.02421E-05-5.76705E-02
 -1       882 2.13166E-02 1.20788E-12-4.46149E-02
 -1       884 1.94341E-02 1.12703E-12-4.48367E-02
 -1       885 2.03754E-02 7.06334E-05-4.47258E-02
 -1       887 2.03754E-02-7.06334E-05-4.47258E-02
 -1       896 2.58046E-02 1.07213E-12-2.80048E-02
 -1       898 2.35039E-02 1.00790E-12-2.81852E-02
 -1       899 2.46542E-02 5.74612E-05-2.80950E-02
 -1       901 2.46542E-02-5.74612E-05-2.80950E-02
 -1       910 2.94837E-02 7.60156E-13-8.55990E-03
 -1       912 2.68753E-02 7.03757E-13-8.69338E-03
 -1       913 2.81795E-02 4.25178E-05-8.62664E-03
 -1       915 2.81795E-02-4.25178E-05-8.62664E-03
 -1       924 3.22679E-02 3.41975E-13 1.27329E-02
 -1       926 2.94744E-02 2.98631E-13 1.26500E-02
 -1       927 3.08712E-02 2.63816E-05 1.26915E-02
 -1       929 3.08712E-02-2.63816E-05 1.26915E-02
 -1       938 3.41392E-02-1.94663E-13 3.48013E-02
 -1       940 3.12961E-02-2.27846E-13 3.47681E-02
 -1       941 3.27177E-02 1.06000E-05 3.47847E-02
 -1       943 3.27177E-02-1.06000E-05 3.47847E-02
 -1       952 3.51832E-02-8.38086E-13 5.66301E-02
 -1       954 3.23883E-02-8.70186E-13 5.66414E-02
 -1       955 3.37857E-02-3.61433E-06 5.66357E-02
 -1       957 3.37857E-02 3.61433E-06 5.66357E-02
 -1       966 3.55197E-02-1.54156E-12 7.71264E-02
 -1       968 3.29491E-02-1.58956E-12 7.71725E-02
 -1       969 3.42344E-02-1.47017E-05 7.71495E-02
 -1       971 3.42344E-02 1.47017E-05 7.71495E-02
 -1       980 0.00000E+00 0.00000E+00 5.92827E-05
 -1       982 0.00000E+00-0.00000E+00-5.92827E-05
 -1       983 3.54295E-02-5.36648E-03 1.13632E-01
 -1       985 3.29442E-02 5.16831E-03 1.13556E-01
 -1       986 6.44739E-03-1.45861E-03 3.17275E-02
 -1       988-1.22461E-03 3.57382E-03 3.16323E-02
 -1       989 6.01885E-03-4.44415E-03 7.60009E-02
 -1       991 2.10725E-03 4.96352E-03 7.59840E-02
 -1       992 7.18001E-03-7.05036E-03 1.10593E-01
 -1       994 2.34621E-03 6.81848E-03 1.10639E-01
 -1       995 5.75605E-03-9.26201E-03 1.43222E-01
 -1       997 2.20202E-03 8.49747E-03 1.43331E-01
 -1       998 3.61575E-03-1.10094E-02 1.67853E-01
 -1      1000 8.80709E-04 9.68727E-03 1.68002E-01
 -1      1001 4.91476E-04-1.22077E-02 1.84571E-01
 -1      1003-1.05610E-03 1.05261E-02 1.84759E-01
 -1      1004-3.20099E-03-1.27458E-02 1.91681E-01
 -1      1006-3.46932E-03 1.08512E-02 1.91881E-01
 -1      1007-7.11888E-03-1.26514E-02 1.88885E-01
 -1      1009-6.12511E-03 1.07107E-02 1.89094E-01
 -1      1010-1.09815E-02-1.19061E-02 1.76261E-01
 -1      1012-8.72912E-03 1.00833E-02 1.76452E-01
 -1      1013-1.44231E-02-1.05776E-02 1.54524E-01
 -1      1015-1.10874E-02 9.02338E-03 1.54692E-01
 -1      1016-1.72000E-02-8.74521E-03 1.25000E-01
 -1      1018-1.29492E-02 7.59157E-03 1.25123E-01
 -1      1019-1.90458E-02-6.52358E-03 8.94531E-02
 -1      1021-1.41625E-02 5.87357E-03 8.95309E-02
 -1      1022-1.98082E-02-4.05387E-03 5.00801E-02
 -1      1024-1.45752E-02 3.97838E-03 5.00984E-02
 -1      1025-1.93677E-02-1.48295E-03 9.28439E-03
 -1      1027-1.41191E-02 2.01504E-03 9.24638E-03
 -1      1028-1.77081E-02 1.02632E-03-3.04044E-02
 -1      1030-1.27607E-02 1.08861E-04-3.05032E-02
 -1      1031-1.48701E-02 3.32758E-03-6.65395E-02
 -1      1033-1.05362E-02-1.63154E-03-6.66903E-02
 -1      1034-1.09803E-02 5.27716E-03-9.68741E-02
 -1      1036-7.52584E-03-3.09614E-03-9.70729E-02
 -1      1037-6.21857E-03 6.76645E-03-1.19530E-01
 -1      1039-3.86100E-03-4.20461E-03-1.19764E-01
 -1      1040-8.21843E-04 7.70617E-03-1.33099E-01
 -1      1042 2.93113E-04-4.88937E-03-1.33357E-01
 -1      1043 4.94363E-03 8.05583E-03-1.36748E-01
 -1      1045 4.74605E-03-5.12105E-03-1.37015E-01
 -1      1046 1.07923E-02 7.80287E-03-1.30263E-01
 -1      1048 9.29578E-03-4.89247E-03-1.30526E-01
 -1      1049 1.64448E-02 6.99049E-03-1.14079E-01
 -1      1051 1.37455E-02-4.23577E-03-1.14325E-01
 -1      1052 2.16424E-02 5.68733E-03-8.92563E-02
 -1      1054 1.79138E-02-3.21060E-03-8.94723E-02
 -1      1055 2.61706E-02 4.01813E-03-5.74153E-02
 -1      1057 2.16528E-02-1.90445E-03-5.75931E-02
 -1      1058 2.98640E-02 2.11667E-03-2.06716E-02
 -1      1060 2.48576E-02-4.41787E-04-2.08033E-02
 -1      1061 3.26467E-02 1.76062E-04 1.85464E-02
 -1      1063 2.74691E-02 1.06423E-03 1.84615E-02
 -1      1064 3.44589E-02-1.65045E-03 5.74716E-02
 -1      1066 2.95042E-02 2.42034E-03 5.74356E-02
 -1      1067 3.54918E-02-3.12152E-03 9.35396E-02
 -1      1069 3.10080E-02 3.54160E-03 9.35428E-02
 -1      1070 3.55912E-02-4.06699E-03 1.23563E-01
 -1      1072 3.21765E-02 4.26796E-03 1.23601E-01
 -1      1073 0.00000E+00 0.00000E+00 5.92827E-05
 -1      1075 0.00000E+00-0.00000E+00-5.92827E-05
 -1      1076 0.00000E+00 2.11812E-05 0.00000E+00
 -1      1078 0.00000E+00-2.11812E-05 0.00000E+00
 -1      1079 0.00000E+00-6.43772E-16 0.00000E+00
 -1      1081 0.00000E+00 6.43772E-16 0.00000E+00
 -1      1082 0.00000E+00-2.11812E-05 0.00000E+00
 -1      1084 0.00000E+00 2.11812E-05 0.00000E+00
 -1      1085-4.03694E-03-4.42709E-05 1.35540E-02
 -1      1087-4.03694E-03 4.42709E-05 1.35540E-02
 -1      1088-5.54363E-03-1.74113E-13 1.36235E-02
 -1      1090-2.53024E-03-8.84937E-14 1.34845E-02
 -1      1099-5.83911E-03 5.50010E-06 3.04995E-02
 -1      1101-5.83911E-03-5.50010E-06 3.04995E-02
 -1      1102-6.45763E-03-4.63953E-13 3.04908E-02
 -1      1104-5.22059E-03-2.54715E-13 3.05081E-02
 -1      1113-6.15787E-03 1.39177E-05 4.47439E-02
 -1      1115-6.15787E-03-1.39177E-05 4.47439E-02
 -1      1116-7.18243E-03-7.92607E-13 4.47220E-02
 -1      1118-5.13330E-03-4.96528E-13 4.47657E-02
 -1      1127-5.19194E-03 3.67810E-05 5.83014E-02
 -1      1129-5.19194E-03-3.67810E-05 5.83014E-02
 -1      1130-5.82858E-03-1.00032E-12 5.82437E-02
 -1      1132-4.55530E-03-6.33453E-13 5.83592E-02
 -1      1141-3.19191E-03 5.13254E-05 6.87103E-02
 -1      1143-3.19191E-03-5.13254E-05 6.87103E-02
 -1      1144-3.78482E-03-1.07344E-12 6.86298E-02
 -1      1146-2.59901E-03-6.65670E-13 6.87909E-02
 -1      1155-3.43253E-04 6.19172E-05 7.57928E-02
 -1      1157-3.43253E-04-6.19172E-05 7.57928E-02
 -1      1158-6.15173E-04-1.03162E-12 7.56956E-02
 -1      1160-7.13337E-05-6.19223E-13 7.58900E-02
 -1      1169 3.04182E-03 6.82127E-05 7.86717E-02
 -1      1171 3.04182E-03-6.82127E-05 7.86717E-02
 -1      1172 2.97977E-03-9.25009E-13 7.85646E-02
 -1      1174 3.10388E-03-5.31965E-13 7.87788E-02
 -1      1183 6.66744E-03 6.85630E-05 7.71901E-02
 -1      1185 6.66744E-03-6.85631E-05 7.71901E-02
 -1      1186 6.91132E-03-8.44411E-13 7.70825E-02
 -1      1188 6.42356E-03-4.83055E-13 7.72978E-02
 -1      1197 1.02229E-02 6.44282E-05 7.12853E-02
 -1      1199 1.02229E-02-6.44282E-05 7.12853E-02
 -1      1200 1.07088E-02-8.28101E-13 7.11841E-02
 -1      1202 9.73698E-03-5.08205E-13 7.13864E-02
 -1      1211 1.34135E-02 5.51627E-05 6.12875E-02
 -1      1213 1.34135E-02-5.51628E-05 6.12875E-02
 -1      1214 1.41508E-02-7.90498E-13 6.12010E-02
 -1      1216 1.26762E-02-5.22494E-13 6.13741E-02
 -1      1225 1.59738E-02 4.20142E-05 4.77493E-02
 -1      1227 1.59738E-02-4.20142E-05 4.77493E-02
 -1      1228 1.68961E-02-6.81204E-13 4.76834E-02
 -1      1230 1.50515E-02-4.65275E-13 4.78153E-02
 -1      1239 1.76836E-02 2.55832E-05 3.14877E-02
 -1      1241 1.76836E-02-2.55832E-05 3.14877E-02
 -1      1242 1.87510E-02-5.36925E-13 3.14475E-02
 -1      1244 1.66161E-02-3.71071E-13 3.15278E-02
 -1      1253 1.83796E-02 6.96951E-06 1.34864E-02
 -1      1255 1.83796E-02-6.96951E-06 1.34864E-02
 -1      1256 1.95160E-02-4.60471E-13 1.34755E-02
 -1      1258 1.72431E-02-3.34865E-13 1.34973E-02
 -1      1267 1.79647E-02-1.25105E-05-5.13816E-03
 -1      1269 1.79647E-02 1.25105E-05-5.13816E-03
 -1      1270 1.91066E-02-4.89123E-13-5.11852E-03
 -1      1272 1.68227E-02-3.97834E-13-5.15780E-03
 -1      1281 1.64122E-02-3.18934E-05-2.32256E-02
 -1      1283 1.64122E-02 3.18934E-05-2.32256E-02
 -1      1284 1.74828E-02-5.65795E-13-2.31755E-02
 -1      1286 1.53417E-02-4.84032E-13-2.32757E-02
 -1      1295 1.37667E-02-4.96222E-05-3.96319E-02
 -1      1297 1.37667E-02 4.96222E-05-3.96319E-02
 -1      1298 1.47009E-02-6.40746E-13-3.95540E-02
 -1      1300 1.28325E-02-5.37811E-13-3.97098E-02
 -1      1309 1.01391E-02-6.50557E-05-5.33087E-02
 -1      1311 1.01391E-02 6.50557E-05-5.33087E-02
 -1      1312 1.08738E-02-7.22384E-13-5.32066E-02
 -1      1314 9.40440E-03-5.86555E-13-5.34108E-02
 -1      1323 5.69936E-03-7.67540E-05-6.33629E-02
 -1      1325 5.69936E-03 7.67540E-05-6.33629E-02
 -1      1326 6.18689E-03-8.14092E-13-6.32424E-02
 -1      1328 5.21183E-03-6.41964E-13-6.34834E-02
 -1      1337 6.63496E-04-8.46373E-05-6.91142E-02
 -1      1339 6.63496E-04 8.46373E-05-6.91142E-02
 -1      1340 8.67682E-04-8.99654E-13-6.89814E-02
 -1      1342 4.59310E-04-6.97763E-13-6.92471E-02
 -1      1351-4.72039E-03-8.76240E-05-7.01354E-02
 -1      1353-4.72039E-03 8.76240E-05-7.01354E-02
 -1      1354-4.81719E-03-1.00792E-12-6.99978E-02
 -1      1356-4.62359E-03-8.16927E-13-7.02729E-02
 -1      1365-1.01905E-02-8.63587E-05-6.62755E-02
 -1      1367-1.01905E-02 8.63587E-05-6.62755E-02
 -1      1368-1.05903E-02-1.09818E-12-6.61399E-02
 -1      1370-9.79072E-03-9.50955E-13-6.64111E-02
 -1      1379-1.54876E-02-8.02421E-05-5.76705E-02
 -1      1381-1.54876E-02 8.02421E-05-5.76705E-02
 -1      1382-1.61736E-02-1.08977E-12-5.75445E-02
 -1      1384-1.48015E-02-9.88207E-13-5.77964E-02
 -1      1393-2.03754E-02-7.06334E-05-4.47258E-02
 -1      1395-2.03754E-02 7.06334E-05-4.47258E-02
 -1      1396-2.13166E-02-1.01898E-12-4.46149E-02
 -1      1398-1.94341E-02-9.59770E-13-4.48367E-02
 -1      1407-2.46542E-02-5.74612E-05-2.80950E-02
 -1      1409-2.46542E-02 5.74612E-05-2.80950E-02
 -1      1410-2.58046E-02-9.30685E-13-2.80048E-02
 -1      1412-2.35039E-02-9.42969E-13-2.81852E-02
 -1      1421-2.81795E-02-4.25178E-05-8.62664E-03
 -1      1423-2.81795E-02 4.25178E-05-8.62664E-03
 -1      1424-2.94837E-02-7.90532E-13-8.55990E-03
 -1      1426-2.68753E-02-8.90272E-13-8.69338E-03
 -1      1435-3.08712E-02-2.63816E-05 1.26915E-02
 -1      1437-3.08712E-02 2.63816E-05 1.26915E-02
 -1      1438-3.22679E-02-5.45977E-13 1.27329E-02
 -1      1440-2.94744E-02-7.17540E-13 1.26500E-02
 -1      1449-3.27177E-02-1.06000E-05 3.47847E-02
 -1      1451-3.27177E-02 1.06000E-05 3.47847E-02
 -1      1452-3.41392E-02-2.08731E-13 3.48013E-02
 -1      1454-3.12961E-02-4.36351E-13 3.47681E-02
 -1      1463-3.37857E-02 3.61433E-06 5.66357E-02
 -1      1465-3.37857E-02-3.61433E-06 5.66357E-02
 -1      1466-3.51832E-02 1.51087E-13 5.66301E-02
 -1      1468-3.23883E-02-1.30798E-13 5.66414E-02
 -1      1477-3.42344E-02 1.47017E-05 7.71495E-02
 -1      1479-3.42344E-02-1.47017E-05 7.71495E-02
 -1      1480-3.55197E-02 4.63860E-13 7.71264E-02
 -1      1482-3.29491E-02 1.48234E-13 7.71725E-02
 -1      1491 1.72337E-02-9.77682E-06 9.47158E-02
 -1      1493 1.72337E-02 9.77682E-06 9.47158E-02
 -1      1494-2.04766E-13 6.91586E-13 9.43651E-02
 -1      1496-2.00049E-13 6.89476E-13 9.43651E-02
 -1      1497-1.72337E-02 9.77682E-06 9.47158E-02
 -1      1499-1.72337E-02-9.77682E-06 9.47158E-02
 -1      1500-6.44739E-03 1.45861E-03 3.17275E-02
 -1      1502 1.22461E-03-3.57382E-03 3.16323E-02
 -1      1503-6.01885E-03 4.44415E-03 7.60009E-02
 -1      1505-2.10725E-03-4.96352E-03 7.59840E-02
 -1      1506-7.18001E-03 7.05036E-03 1.10593E-01
 -1      1508-2.34621E-03-6.81848E-03 1.10639E-01
 -1      1509-5.75605E-03 9.26201E-03 1.43222E-01
 -1      1511-2.20202E-03-8.49747E-03 1.43331E-01
 -1      1512-3.61575E-03 1.10094E-02 1.67853E-01
 -1      1514-8.80709E-04-9.68727E-03 1.68002E-01
 -1      1515-4.91476E-04 1.22077E-02 1.84571E-01
 -1      1517 1.05610E-03-1.05261E-02 1.84759E-01
 -1      1518 3.20099E-03 1.27458E-02 1.91681E-01
 -1      1520 3.46932E-03-1.08512E-02 1.91881E-01
 -1      1521 7.11888E-03 1.26514E-02 1.88885E-01
 -1      1523 6.12511E-03-1.07107E-02 1.89094E-01
 -1      1524 1.09815E-02 1.19061E-02 1.76261E-01
 -1      1526 8.72912E-03-1.00833E-02 1.76452E-01
 -1      1527 1.44231E-02 1.05776E-02 1.54524E-01
 -1      1529 1.10874E-02-9.02338E-03 1.54692E-01
 -1      1530 1.72000E-02 8.74521E-03 1.25000E-01
 -1      1532 1.29492E-02-7.59157E-03 1.25123E-01
 -1      1533 1.90458E-02 6.52358E-03 8.94531E-02
 -1      1535 1.41625E-02-5.87357E-03 8.95309E-02
 -1      1536 1.98082E-02 4.05387E-03 5.00801E-02
 -1      1538 1.45752E-02-3.97838E-03 5.00984E-02
 -1      1539 1.93677E-02 1.48295E-03 9.28439E-03
 -1      1541 1.41191E-02-2.01504E-03 9.24638E-03
 -1      1542 1.77081E-02-1.02632E-03-3.04044E-02
 -1      1544 1.27607E-02-1.08861E-04-3.05032E-02
 -1      1545 1.48701E-02-3.32758E-03-6.65395E-02
 -1      1547 1.05362E-02 1.63154E-03-6.66903E-02
 -1      1548 1.09803E-02-5.27716E-03-9.68741E-02
 -1      1550 7.52584E-03 3.09614E-03-9.70729E-02
 -1      1551 6.21857E-03-6.76645E-03-1.19530E-01
 -1      1553 3.86100E-03 4.20461E-03-1.19764E-01
 -1      1554 8.21843E-04-7.70617E-03-1.33099E-01
 -1      1556-2.93113E-04 4.88937E-03-1.33357E-01
 -1      1557-4.94363E-03-8.05583E-03-1.36748E-01
 -1      1559-4.74605E-03 5.12105E-03-1.37015E-01
 -1      1560-1.07923E-02-7.80287E-03-1.30263E-01
 -1      1562-9.29578E-03 4.89247E-03-1.30526E-01
 -1      1563-1.64448E-02-6.99049E-03-1.14079E-01
 -1      1565-1.37455E-02 4.23577E-03-1.14325E-01
 -1      1566-2.16424E-02-5.68733E-03-8.92563E-02
 -1      1568-1.79138E-02 3.21060E-03-8.94723E-02
 -1      1569-2.61706E-02-4.01813E-03-5.74153E-02
 -1      1571-2.16528E-02 1.90445E-03-5.75931E-02
 -1      1572-2.98640E-02-2.11667E-03-2.06716E-02
 -1      1574-2.48576E-02 4.41787E-04-2.08033E-02
 -1      1575-3.26467E-02-1.76062E-04 1.85464E-02
 -1      1577-2.74691E-02-1.06423E-03 1.84615E-02
 -1      1578-3.44589E-02 1.65045E-03 5.74716E-02
 -1      1580-2.95042E-02-2.42034E-03 5.74356E-02
 -1      1581-3.54918E-02 3.12152E-03 9.35396E-02
 -1      1583-3.10080E-02-3.54160E-03 9.35428E-02
 -1      1584-3.55912E-02 4.06699E-03 1.23563E-01
 -1      1586-3.21765E-02-4.26796E-03 1.23601E-01
 -1      1587-3.54295E-02 5.36648E-03 1.13632E-01
 -1      1589-3.29442E-02-5.16831E-03 1.13556E-01
 -1      1590 0.00000E+00 0.00000E+00 5.92827E-05
 -1      1592 0.00000E+00 0.00000E+00-5.92827E-05
 -1      1593-3.54295E-02-5.36648E-03 1.13632E-01
 -1      1595-3.29442E-02 5.16831E-03 1.13556E-01
 -1      1596-6.44739E-03-1.45861E-03 3.17275E-02
 -1      1598 1.22461E-03 3.57382E-03 3.16323E-02
 -1      1599-6.01885E-03-4.44415E-03 7.60009E-02
 -1      1601-2.10725E-03 4.96352E-03 7.59840E-02
 -1      1602-7.18001E-03-7.05036E-03 1.10593E-01
 -1      1604-2.34621E-03 6.81848E-03 1.10639E-01
 -1      1605-5.75605E-03-9.26201E-03 1.43222E-01
 -1      1607-2.20202E-03 8.49747E-03 1.43331E-01
 -1      1608-3.61575E-03-1.10094E-02 1.67853E-01
 -1      1610-8.80709E-04 9.68727E-03 1.68002E-01
 -1      1611-4.91476E-04-1.22077E-02 1.84571E-01
 -1      1613 1.05610E-03 1.05261E-02 1.84759E-01
 -1      1614 3.20099E-03-1.27458E-02 1.91681E-01
 -1      1616 3.46932E-03 1.08512E-02 1.91881E-01
 -1      1617 7.11888E-03-1.26514E-02 1.88885E-01
 -1      1619 6.12511E-03 1.07107E-02 1.89094E-01
 -1      1620 1.09815E-02-1.19061E-02 1.76261E-01
 -1      1622 8.72912E-03 1.00833E-02 1.76452E-01
 -1      1623 1.44231E-02-1.05776E-02 1.54524E-01
 -1      1625 1.10874E-02 9.02338E-03 1.54692E-01
 -1      1626 1.72000E-02-8.74521E-03 1.25000E-01
 -1      1628 1.29492E-02 7.59157E-03 1.25123E-01
 -1      1629 1.90458E-02-6.52358E-03 8.94531E-02
 -1      1631 1.41625E-02 5.87357E-03 8.95309E-02
 -1      1632 1.98082E-02-4.05387E-03 5.00801E-02
 -1      1634 1.45752E-02 3.97838E-03 5.00984E-02
 -1      1635 1.93677E-02-1.48295E-03 9.28439E-03
 -1      1637 1.41191E-02 2.01504E-03 9.24638E-03
 -1      1638 1.77081E-02 1.02632E-03-3.04044E-02
 -1      1640 1.27607E-02 1.08861E-04-3.05032E-02
 -1      1641 1.48701E-02 3.32758E-03-6.65395E-02
 -1      1643 1.05362E-02-1.63154E-03-6.66903E-02
 -1      1644 1.09803E-02 5.27716E-03-9.68741E-02
 -1      1646 7.52584E-03-3.09614E-03-9.70729E-02
 -1      1647 6.21857E-03 6.76645E-03-1.19530E-01
 -1      1649 3.86100E-03-4.20461E-03-1.19764E-01
 -1      1650 8.21843E-04 7.70617E-03-1.33099E-01
 -1      1652-2.93113E-04-4.88937E-03-1.33357E-01
 -1      1653-4.94363E-03 8.05583E-03-1.36748E-01
 -1      1655-4.74605E-03-5.12105E-03-1.37015E-01
 -1      1656-1.07923E-02 7.80287E-03-1.30263E-01
 -1      1658-9.29578E-03-4.89247E-03-1.30526E-01
 -1      1659-1.64448E-02 6.99049E-03-1.14079E-01
 -1      1661-1.37455E-02-4.23577E-03-1.14325E-01
 -1      1662-2.16424E-02 5.68733E-03-8.92563E-02
 -1      1664-1.79138E-02-3.21060E-03-8.94723E-02
 -1      1665-2.61706E-02 4.01813E-03-5.74153E-02
 -1      1667-2.16528E-02-1.90445E-03-5.75931E-02
 -1      1668-2.98640E-02 2.11667E-03-2.06716E-02
 -1      1670-2.48576E-02-4.41787E-04-2.08033E-02
 -1      1671-3.26467E-02 1.76062E-04 1.85464E-02
 -1      1673-2.74691E-02 1.06423E-03 1.84615E-02
 -1      1674-3.44589E-02-1.65045E-03 5.74716E-02
 -1      1676-2.95042E-02 2.42034E-03 5.74356E-02
 -1      1677-3.54918E-02-3.12152E-03 9.35396E-02
 -1      1679-3.10080E-02 3.54160E-03 9.35428E-02
 -1      1680-3.55912E-02-4.06699E-03 1.23563E-01
 -1      1682-3.21765E-02 4.26796E-03 1.23601E-01
 -1      1683 0.00000E+00 0.00000E+00 5.92827E-05
 -1      1685 0.00000E+00 0.00000E+00-5.92827E-05
 -1      1686 5.40430E-03 9.14344E-04 1.82628E-02
 -1      1688 6.16035E-05-2.08525E-03 1.81979E-02
 -1      1689 6.09073E-03 4.26566E-03 4.57054E-02
 -1      1691 3.51641E-03-4.52848E-03 4.56279E-02
 -1      1692 6.82731E-03 6.50835E-03 6.60835E-02
 -1      1694 3.38584E-03-6.33256E-03 6.60420E-02
 -1      1695 5.57612E-03 8.42675E-03 8.62150E-02
 -1      1697 3.16246E-03-8.02810E-03 8.62214E-02
 -1      1698 3.50869E-03 1.00312E-02 1.01135E-01
 -1      1700 1.54827E-03-9.32485E-03 1.01158E-01
 -1      1701 4.30699E-04 1.10119E-02 1.11460E-01
 -1      1703-6.15008E-04-1.01289E-02 1.11512E-01
 -1      1704-3.14953E-03 1.15142E-02 1.15672E-01
 -1      1706-3.34575E-03-1.05209E-02 1.15730E-01
 -1      1707-7.00751E-03 1.13667E-02 1.13764E-01
 -1      1709-6.26675E-03-1.03520E-02 1.13833E-01
 -1      1710-1.07748E-02 1.06892E-02 1.05608E-01
 -1      1712-9.16267E-03-9.73623E-03 1.05669E-01
 -1      1713-1.41596E-02 9.44920E-03 9.17206E-02
 -1      1715-1.17545E-02-8.63629E-03 9.17749E-02
 -1      1716-1.68737E-02 7.77792E-03 7.28759E-02
 -1      1718-1.38260E-02-7.17254E-03 7.29096E-02
 -1      1719-1.86887E-02 5.74114E-03 5.02227E-02
 -1      1721-1.51796E-02-5.39676E-03 5.02372E-02
 -1      1722-1.94311E-02 3.49087E-03 2.51363E-02
 -1      1724-1.56781E-02-3.44357E-03 2.51226E-02
 -1      1725-1.89994E-02 1.14653E-03-8.34943E-04
 -1      1727-1.52332E-02-1.41345E-03-8.74106E-04
 -1      1728-1.73659E-02-1.13448E-03-2.60783E-02
 -1      1730-1.38217E-02 5.56058E-04-2.61470E-02
 -1      1731-1.45780E-02-3.22324E-03-4.90164E-02
 -1      1733-1.14769E-02 2.35527E-03-4.91098E-02
 -1      1734-1.07539E-02-4.98512E-03-6.82020E-02
 -1      1736-8.29196E-03 3.86696E-03-6.83199E-02
 -1      1737-6.07341E-03-6.32149E-03-8.24147E-02
 -1      1739-4.40709E-03 5.00749E-03-8.25501E-02
 -1      1740-7.65846E-04-7.14890E-03-9.07297E-02
 -1      1742-4.18215E-06 5.70371E-03-9.08795E-02
 -1      1743 4.90616E-03-7.42894E-03-9.25836E-02
 -1      1745 4.71056E-03 5.92478E-03-9.27399E-02
 -1      1746 1.06646E-02-7.14808E-03-8.78013E-02
 -1      1748 9.51658E-03 5.65680E-03-8.79601E-02
 -1      1749 1.62351E-02-6.34321E-03-7.66147E-02
 -1      1751 1.41994E-02 4.93631E-03-7.67683E-02
 -1      1752 2.13659E-02-5.07381E-03-5.96423E-02
 -1      1754 1.85603E-02 3.80932E-03-5.97880E-02
 -1      1755 2.58462E-02-3.45012E-03-3.78510E-02
 -1      1757 2.24370E-02 2.38137E-03-3.79828E-02
 -1      1758 2.95187E-02-1.59074E-03-1.25100E-02
 -1      1760 2.57113E-02 7.42949E-04-1.26285E-02
 -1      1761 3.23006E-02 3.36466E-04 1.49363E-02
 -1      1763 2.83150E-02-9.43019E-04 1.48354E-02
 -1      1764 3.41706E-02 2.18150E-03 4.28266E-02
 -1      1766 3.02717E-02-2.56207E-03 4.27359E-02
 -1      1767 3.52153E-02 3.75655E-03 6.96909E-02
 -1      1769 3.15759E-02-3.91267E-03 6.96149E-02
 -1      1770 3.55234E-02 4.79086E-03 9.35674E-02
 -1      1772 3.25308E-02-4.91931E-03 9.34988E-02
 -1      1773 5.40430E-03-9.14344E-04 1.82628E-02
 -1      1775 6.16035E-05 2.08525E-03 1.81979E-02
 -1      1776 6.09073E-03-4.26566E-03 4.57054E-02
 -1      1778 3.51641E-03 4.52848E-03 4.56279E-02
 -1      1779 6.82731E-03-6.50835E-03 6.60835E-02
 -1      1781 3.38584E-03 6.33256E-03 6.60420E-02
 -1      1782 5.57612E-03-8.42675E-03 8.62150E-02
 -1      1784 3.16246E-03 8.02810E-03 8.62214E-02
 -1      1785 3.50869E-03-1.00312E-02 1.01135E-01
 -1      1787 1.54827E-03 9.32485E-03 1.01158E-01
 -1      1788 4.30699E-04-1.10119E-02 1.11460E-01
 -1      1790-6.15008E-04 1.01289E-02 1.11512E-01
 -1      1791-3.14953E-03-1.15142E-02 1.15672E-01
 -1      1793-3.34575E-03 1.05209E-02 1.15730E-01
 -1      1794-7.00751E-03-1.13667E-02 1.13764E-01
 -1      1796-6.26675E-03 1.03520E-02 1.13833E-01
 -1      1797-1.07748E-02-1.06892E-02 1.05608E-01
 -1      1799-9.16267E-03 9.73623E-03 1.05669E-01
 -1      1800-1.41596E-02-9.44920E-03 9.17206E-02
 -1      1802-1.17545E-02 8.63629E-03 9.17749E-02
 -1      1803-1.68737E-02-7.77792E-03 7.28759E-02
 -1      1805-1.38260E-02 7.17254E-03 7.29096E-02
 -1      1806-1.86887E-02-5.74114E-03 5.02227E-02
 -1      1808-1.51796E-02 5.39676E-03 5.02372E-02
 -1      1809-1.94311E-02-3.49087E-03 2.51363E-02
 -1      1811-1.56781E-02 3.44357E-03 2.51226E-02
 -1      1812-1.89994E-02-1.14653E-03-8.34943E-04
 -1      1814-1.52332E-02 1.41345E-03-8.74106E-04
 -1      1815-1.73659E-02 1.13448E-03-2.60783E-02
 -1      1817-1.38217E-02-5.56058E-04-2.61470E-02
 -1      1818-1.45780E-02 3.22324E-03-4.90164E-02
 -1      1820-1.14769E-02-2.35527E-03-4.91098E-02
 -1      1821-1.07539E-02 4.98512E-03-6.82020E-02
 -1      1823-8.29196E-03-3.86696E-03-6.83199E-02
 -1      1824-6.07341E-03 6.32149E-03-8.24147E-02
 -1      1826-4.40709E-03-5.00749E-03-8.25501E-02
 -1      1827-7.65846E-04 7.14890E-03-9.07297E-02
 -1      1829-4.18215E-06-5.70371E-03-9.08795E-02
 -1      1830 4.90616E-03 7.42894E-03-9.25836E-02
 -1      1832 4.71056E-03-5.92478E-03-9.27399E-02
 -1      1833 1.06646E-02 7.14808E-03-8.78013E-02
 -1      1835 9.51658E-03-5.65680E-03-8.79601E-02
 -1      1836 1.62351E-02 6.34321E-03-7.66147E-02
 -1      1838 1.41994E-02-4.93631E-03-7.67683E-02
 -1      1839 2.13659E-02 5.07381E-03-5.96423E-02
 -1      1841 1.85603E-02-3.80932E-03-5.97880E-02
 -1      1842 2.58462E-02 3.45012E-03-3.78510E-02
 -1      1844 2.24370E-02-2.38137E-03-3.79828E-02
 -1      1845 2.95187E-02 1.59074E-03-1.25100E-02
 -1      1847 2.57113E-02-7.42949E-04-1.26285E-02
 -1      1848 3.23006E-02-3.36466E-04 1.49363E-02
 -1      1850 2.83150E-02 9.43019E-04 1.48354E-02
 -1      1851 3.41706E-02-2.18150E-03 4.28266E-02
 -1      1853 3.02717E-02 2.56207E-03 4.27359E-02
 -1      1854 3.52153E-02-3.75655E-03 6.96909E-02
 -1      1856 3.15759E-02 3.91267E-03 6.96149E-02
 -1      1857 3.55234E-02-4.79086E-03 9.35674E-02
 -1      1859 3.25308E-02 4.91931E-03 9.34988E-02
 -1      1860 9.69500E-04 2.10701E-05 1.36575E-02
 -1      1862 9.69500E-04-2.10701E-05 1.36575E-02
 -1      1863 1.87593E-03 4.03288E-06 2.93981E-02
 -1      1865 1.87593E-03-4.03288E-06 2.93981E-02
 -1      1866 2.26032E-03-1.00987E-05 4.44163E-02
 -1      1868 2.26032E-03 1.00987E-05 4.44163E-02
 -1      1869 1.90942E-03-1.84767E-05 5.77733E-02
 -1      1871 1.90942E-03 1.84767E-05 5.77733E-02
 -1      1872 1.07150E-03-2.68963E-05 6.84017E-02
 -1      1874 1.07150E-03 2.68963E-05 6.84017E-02
 -1      1875-1.73437E-04-3.19007E-05 7.54866E-02
 -1      1877-1.73437E-04 3.19007E-05 7.54866E-02
 -1      1878-1.67125E-03-3.54230E-05 7.84447E-02
 -1      1880-1.67125E-03 3.54230E-05 7.84447E-02
 -1      1881-3.28976E-03-3.52097E-05 7.69849E-02
 -1      1883-3.28976E-03 3.52097E-05 7.69849E-02
 -1      1884-4.88013E-03-3.34899E-05 7.11096E-02
 -1      1886-4.88013E-03 3.34899E-05 7.11096E-02
 -1      1887-6.30813E-03-2.82735E-05 6.11176E-02
 -1      1889-6.30813E-03 2.82735E-05 6.11176E-02
 -1      1890-7.44880E-03-2.19669E-05 4.75803E-02
 -1      1892-7.44880E-03 2.19669E-05 4.75803E-02
 -1      1893-8.20081E-03-1.30964E-05 3.13059E-02
 -1      1895-8.20081E-03 1.30964E-05 3.13059E-02
 -1      1896-8.48728E-03-3.95397E-06 1.32864E-02
 -1      1898-8.48728E-03 3.95397E-06 1.32864E-02
 -1      1899-8.26317E-03 6.42336E-06-5.36422E-03
 -1      1901-8.26317E-03-6.42336E-06-5.36422E-03
 -1      1902-7.51488E-03 1.60039E-05-2.34809E-02
 -1      1904-7.51488E-03-1.60039E-05-2.34809E-02
 -1      1905-6.26233E-03 2.54333E-05-3.99198E-02
 -1      1907-6.26233E-03-2.54333E-05-3.99198E-02
 -1      1908-4.55558E-03 3.30145E-05-5.36300E-02
 -1      1910-4.55558E-03-3.30145E-05-5.36300E-02
 -1      1911-2.47208E-03 3.93240E-05-6.37178E-02
 -1      1913-2.47208E-03-3.93240E-05-6.37178E-02
 -1      1914-1.10311E-04 4.30340E-05-6.95020E-02
 -1      1916-1.10311E-04-4.30340E-05-6.95020E-02
 -1      1917 2.41655E-03 4.48726E-05-7.05549E-02
 -1      1919 2.41655E-03-4.48726E-05-7.05549E-02
 -1      1920 4.98888E-03 4.38707E-05-6.67264E-02
 -1      1922 4.98888E-03-4.38707E-05-6.67264E-02
 -1      1923 7.48881E-03 4.10500E-05-5.81520E-02
 -1      1925 7.48881E-03-4.10500E-05-5.81520E-02
 -1      1926 9.80838E-03 3.57490E-05-4.52401E-02
 -1      1928 9.80838E-03-3.57490E-05-4.52401E-02
 -1      1929 1.18579E-02 2.92972E-05-2.86442E-02
 -1      1931 1.18579E-02-2.92972E-05-2.86442E-02
 -1      1932 1.35718E-02 2.12970E-05-9.21588E-03
 -1      1934 1.35718E-02-2.12970E-05-9.21588E-03
 -1      1935 1.49158E-02 1.32084E-05 1.20514E-02
 -1      1937 1.49158E-02-1.32084E-05 1.20514E-02
 -1      1938 1.58892E-02 4.93756E-06 3.40931E-02
 -1      1940 1.58892E-02-4.93756E-06 3.40931E-02
 -1      1941 1.65417E-02-2.23882E-06 5.58424E-02
 -1      1943 1.65417E-02 2.23882E-06 5.58424E-02
 -1      1944 1.69549E-02-6.99991E-06 7.63059E-02
 -1      1946 1.69549E-02 6.99991E-06 7.63059E-02
 -1      1947 2.76428E-14 5.84227E-13 1.37653E-02
 -1      1949-7.49652E-14 5.85143E-13 1.37653E-02
 -1      1950-2.26259E-14 1.25110E-12 2.90937E-02
 -1      1952-4.54805E-14 1.25153E-12 2.90937E-02
 -1      1953-2.14460E-14 1.70351E-12 4.42003E-02
 -1      1955-7.79398E-14 1.70375E-12 4.42003E-02
 -1      1956-5.13010E-14 2.33129E-12 5.75907E-02
 -1      1958-1.07525E-13 2.33143E-12 5.75907E-02
 -1      1959-9.19180E-14 2.94786E-12 6.82396E-02
 -1      1961-1.43430E-13 2.94843E-12 6.82396E-02
 -1      1962-1.39018E-13 3.42396E-12 7.53422E-02
 -1      1964-1.70896E-13 3.42532E-12 7.53422E-02
 -1      1965-1.67266E-13 3.74546E-12 7.83149E-02
 -1      1967-1.89593E-13 3.74661E-12 7.83149E-02
 -1      1968-1.97857E-13 3.79081E-12 7.68681E-02
 -1      1970-1.82665E-13 3.79157E-12 7.68681E-02
 -1      1971-2.28741E-13 3.50794E-12 7.10037E-02
 -1      1973-1.91848E-13 3.50935E-12 7.10037E-02
 -1      1974-2.59506E-13 3.12331E-12 6.10212E-02
 -1      1976-2.26794E-13 3.12485E-12 6.10212E-02
 -1      1977-2.88037E-13 2.82930E-12 4.74918E-02
 -1      1979-2.68128E-13 2.83082E-12 4.74918E-02
 -1      1980-3.06154E-13 2.69824E-12 3.12237E-02
 -1      1982-3.03445E-13 2.69786E-12 3.12237E-02
 -1      1983-3.26626E-13 2.63271E-12 1.32091E-02
 -1      1985-3.17179E-13 2.63187E-12 1.32091E-02
 -1      1986-3.54024E-13 2.39381E-12-5.43839E-03
 -1      1988-3.19874E-13 2.39511E-12-5.43839E-03
 -1      1989-3.64076E-13 2.07225E-12-2.35537E-02
 -1      1991-3.39200E-13 2.07101E-12-2.35537E-02
 -1      1992-3.62669E-13 1.87338E-12-3.99931E-02
 -1      1994-3.50659E-13 1.87279E-12-3.99931E-02
 -1      1995-3.48185E-13 1.83442E-12-5.37059E-02
 -1      1997-3.52661E-13 1.83435E-12-5.37059E-02
 -1      1998-3.33609E-13 2.02664E-12-6.37985E-02
 -1      2000-3.61815E-13 2.02752E-12-6.37985E-02
 -1      2001-3.46188E-13 2.37230E-12-6.95899E-02
 -1      2003-3.78069E-13 2.37317E-12-6.95899E-02
 -1      2004-3.79755E-13 2.58601E-12-7.06525E-02
 -1      2006-3.83657E-13 2.58490E-12-7.06525E-02
 -1      2007-3.90618E-13 2.64090E-12-6.68366E-02
 -1      2009-3.93416E-13 2.64033E-12-6.68366E-02
 -1      2010-3.86617E-13 2.70974E-12-5.82775E-02
 -1      2012-3.93011E-13 2.70885E-12-5.82775E-02
 -1      2013-3.81305E-13 2.66582E-12-4.53841E-02
 -1      2015-3.65387E-13 2.66578E-12-4.53841E-02
 -1      2016-3.61268E-13 2.37919E-12-2.88095E-02
 -1      2018-3.23660E-13 2.37775E-12-2.88095E-02
 -1      2019-3.26577E-13 1.99571E-12-9.40632E-03
 -1      2021-2.92945E-13 1.99697E-12-9.40632E-03
 -1      2022-2.96580E-13 1.69285E-12 1.18327E-02
 -1      2024-2.72934E-13 1.69081E-12 1.18327E-02
 -1      2025-2.76570E-13 1.43349E-12 3.38388E-02
 -1      2027-2.52939E-13 1.43735E-12 3.38388E-02
 -1      2028-2.57686E-13 1.15252E-12 5.55433E-02
 -1      2030-2.27736E-13 1.15104E-12 5.55433E-02
 -1      2031-2.31992E-13 8.48654E-13 7.59688E-02
 -1      2033-2.07424E-13 8.52374E-13 7.59688E-02
 -1      2034-9.69500E-04-2.10701E-05 1.36575E-02
 -1      2036-9.69500E-04 2.10701E-05 1.36575E-02
 -1      2037-1.87593E-03-4.03288E-06 2.93981E-02
 -1      2039-1.87593E-03 4.03288E-06 2.93981E-02
 -1      2040-2.26032E-03 1.00987E-05 4.44163E-02
 -1      2042-2.26032E-03-1.00987E-05 4.44163E-02
 -1      2043-1.90942E-03 1.84767E-05 5.77733E-02
 -1      2045-1.90942E-03-1.84767E-05 5.77733E-02
 -1      2046-1.07150E-03 2.68963E-05 6.84017E-02
 -1      2048-1.07150E-03-2.68963E-05 6.84017E-02
 -1      2049 1.73437E-04 3.19007E-05 7.54866E-02
 -1      2051 1.73437E-04-3.19007E-05 7.54866E-02
 -1      2052 1.67125E-03 3.54230E-05 7.84447E-02
 -1      2054 1.67125E-03-3.54230E-05 7.84447E-02
 -1      2055 3.28976E-03 3.52097E-05 7.69849E-02
 -1      2057 3.28976E-03-3.52097E-05 7.69849E-02
 -1      2058 4.88013E-03 3.34899E-05 7.11096E-02
 -1      2060 4.88013E-03-3.34899E-05 7.11096E-02
 -1      2061 6.30813E-03 2.82735E-05 6.11176E-02
 -1      2063 6.30813E-03-2.82735E-05 6.11176E-02
 -1      2064 7.44880E-03 2.19669E-05 4.75803E-02
 -1      2066 7.44880E-03-2.19669E-05 4.75803E-02
 -1      2067 8.20081E-03 1.30964E-05 3.13059E-02
 -1      2069 8.20081E-03-1.30964E-05 3.13059E-02
 -1      2070 8.48728E-03 3.95397E-06 1.32864E-02
 -1      2072 8.48728E-03-3.95397E-06 1.32864E-02
 -1      2073 8.26317E-03-6.42336E-06-5.36422E-03
 -1      2075 8.26317E-03 6.42336E-06-5.36422E-03
 -1      2076 7.51488E-03-1.60039E-05-2.34809E-02
 -1      2078 7.51488E-03 1.60039E-05-2.34809E-02
 -1      2079 6.26233E-03-2.54333E-05-3.99198E-02
 -1      2081 6.26233E-03 2.54333E-05-3.99198E-02
 -1      2082 4.55558E-03-3.30145E-05-5.36300E-02
 -1      2084 4.55558E-03 3.30145E-05-5.36300E-02
 -1      2085 2.47208E-03-3.93240E-05-6.37178E-02
 -1      2087 2.47208E-03 3.93240E-05-6.37178E-02
 -1      2088 1.10311E-04-4.30340E-05-6.95020E-02
 -1      2090 1.10311E-04 4.30340E-05-6.95020E-02
 -1      2091-2.41655E-03-4.48726E-05-7.05549E-02
 -1      2093-2.41655E-03 4.48726E-05-7.05549E-02
 -1      2094-4.98888E-03-4.38707E-05-6.67264E-02
 -1      2096-4.98888E-03 4.38707E-05-6.67264E-02
 -1      2097-7.48881E-03-4.10500E-05-5.81520E-02
 -1      2099-7.48881E-03 4.10500E-05-5.81520E-02
 -1      2100-9.80838E-03-3.57490E-05-4.52401E-02
 -1      2102-9.80838E-03 3.57490E-05-4.52401E-02
 -1      2103-1.18579E-02-2.92972E-05-2.86442E-02
 -1      2105-1.18579E-02 2.92972E-05-2.86442E-02
 -1      2106-1.35718E-02-2.12970E-05-9.21588E-03
 -1      2108-1.35718E-02 2.12970E-05-9.21588E-03
 -1      2109-1.49158E-02-1.32084E-05 1.20514E-02
 -1      2111-1.49158E-02 1.32084E-05 1.20514E-02
 -1      2112-1.58892E-02-4.93756E-06 3.40931E-02
 -1      2114-1.58892E-02 4.93756E-06 3.40931E-02
 -1      2115-1.65417E-02 2.23882E-06 5.58424E-02
 -1      2117-1.65417E-02-2.23882E-06 5.58424E-02
 -1      2118-1.69549E-02 6.99991E-06 7.63059E-02
 -1      2120-1.69549E-02-6.99991E-06 7.63059E-02
 -1      2121-5.40430E-03 9.14344E-04 1.82628E-02
 -1      2123-6.16035E-05-2.08525E-03 1.81979E-02
 -1      2124-6.09073E-03 4.26566E-03 4.57054E-02
 -1      2126-3.51641E-03-4.52848E-03 4.56279E-02
 -1      2127-6.82731E-03 6.50835E-03 6.60835E-02
 -1      2129-3.38584E-03-6.33256E-03 6.60420E-02
 -1      2130-5.57612E-03 8.42675E-03 8.62150E-02
 -1      2132-3.16246E-03-8.02810E-03 8.62214E-02
 -1      2133-3.50869E-03 1.00312E-02 1.01135E-01
 -1      2135-1.54827E-03-9.32485E-03 1.01158E-01
 -1      2136-4.30699E-04 1.10119E-02 1.11460E-01
 -1      2138 6.15008E-04-1.01289E-02 1.11512E-01
 -1      2139 3.14953E-03 1.15142E-02 1.15672E-01
 -1      2141 3.34575E-03-1.05209E-02 1.15730E-01
 -1      2142 7.00751E-03 1.13667E-02 1.13764E-01
 -1      2144 6.26675E-03-1.03520E-02 1.13833E-01
 -1      2145 1.07748E-02 1.06892E-02 1.05608E-01
 -1      2147 9.16267E-03-9.73623E-03 1.05669E-01
 -1      2148 1.41596E-02 9.44920E-03 9.17206E-02
 -1      2150 1.17545E-02-8.63629E-03 9.17749E-02
 -1      2151 1.68737E-02 7.77792E-03 7.28759E-02
 -1      2153 1.38260E-02-7.17254E-03 7.29096E-02
 -1      2154 1.86887E-02 5.74114E-03 5.02227E-02
 -1      2156 1.51796E-02-5.39676E-03 5.02372E-02
 -1      2157 1.94311E-02 3.49087E-03 2.51363E-02
 -1      2159 1.56781E-02-3.44357E-03 2.51226E-02
 -1      2160 1.89994E-02 1.14653E-03-8.34943E-04
 -1      2162 1.52332E-02-1.41345E-03-8.74106E-04
 -1      2163 1.73659E-02-1.13448E-03-2.60783E-02
 -1      2165 1.38217E-02 5.56058E-04-2.61470E-02
 -1      2166 1.45780E-02-3.22324E-03-4.90164E-02
 -1      2168 1.14769E-02 2.35527E-03-4.91098E-02
 -1      2169 1.07539E-02-4.98512E-03-6.82020E-02
 -1      2171 8.29196E-03 3.86696E-03-6.83199E-02
 -1      2172 6.07341E-03-6.32149E-03-8.24147E-02
 -1      2174 4.40709E-03 5.00749E-03-8.25501E-02
 -1      2175 7.65846E-04-7.14890E-03-9.07297E-02
 -1      2177 4.18215E-06 5.70371E-03-9.08795E-02
 -1      2178-4.90616E-03-7.42894E-03-9.25836E-02
 -1      2180-4.71056E-03 5.92478E-03-9.27399E-02
 -1      2181-1.06646E-02-7.14808E-03-8.78013E-02
 -1      2183-9.51658E-03 5.65680E-03-8.79601E-02
 -1      2184-1.62351E-02-6.34321E-03-7.66147E-02
 -1      2186-1.41994E-02 4.93631E-03-7.67683E-02
 -1      2187-2.13659E-02-5.07381E-03-5.96423E-02
 -1      2189-1.85603E-02 3.80932E-03-5.97880E-02
 -1      2190-2.58462E-02-3.45012E-03-3.78510E-02
 -1      2192-2.24370E-02 2.38137E-03-3.79828E-02
 -1      2193-2.95187E-02-1.59074E-03-1.25100E-02
 -1      2195-2.57113E-02 7.42949E-04-1.26285E-02
 -1      2196-3.23006E-02 3.36466E-04 1.49363E-02
 -1      2198-2.83150E-02-9.43019E-04 1.48354E-02
 -1      2199-3.41706E-02 2.18150E-03 4.28266E-02
 -1      2201-3.02717E-02-2.56207E-03 4.27359E-02
 -1      2202-3.52153E-02 3.75655E-03 6.96909E-02
 -1      2204-3.15759E-02-3.91267E-03 6.96149E-02
 -1      2205-3.55234E-02 4.79086E-03 9.35674E-02
 -1      2207-3.25308E-02-4.91931E-03 9.34988E-02
 -1      2208-5.40430E-03-9.14344E-04 1.82628E-02
 -1      2210-6.16035E-05 2.08525E-03 1.81979E-02
 -1      2211-6.09073E-03-4.26566E-03 4.57054E-02
 -1      2213-3.51641E-03 4.52848E-03 4.56279E-02
 -1      2214-6.82731E-03-6.50835E-03 6.60835E-02
 -1      2216-3.38584E-03 6.33256E-03 6.60420E-02
 -1      2217-5.57612E-03-8.42675E-03 8.62150E-02
 -1      2219-3.16246E-03 8.02810E-03 8.62214E-02
 -1      2220-3.50869E-03-1.00312E-02 1.01135E-01
 -1      2222-1.54827E-03 9.32485E-03 1.01158E-01
 -1      2223-4.30699E-04-1.10119E-02 1.11460E-01
 -1      2225 6.15008E-04 1.01289E-02 1.11512E-01
 -1      2226 3.14953E-03-1.15142E-02 1.15672E-01
 -1      2228 3.34575E-03 1.05209E-02 1.15730E-01
 -1      2229 7.00751E-03-1.13667E-02 1.13764E-01
 -1      2231 6.26675E-03 1.03520E-02 1.13833E-01
 -1      2232 1.07748E-02-1.06892E-02 1.05608E-01
 -1      2234 9.16267E-03 9.73623E-03 1.05669E-01
 -1      2235 1.41596E-02-9.44920E-03 9.17206E-02
 -1      2237 1.17545E-02 8.63629E-03 9.17749E-02
 -1      2238 1.68737E-02-7.77792E-03 7.28759E-02
 -1      2240 1.38260E-02 7.17254E-03 7.29096E-02
 -1      2241 1.86887E-02-5.74114E-03 5.02227E-02
 -1      2243 1.51796E-02 5.39676E-03 5.02372E-02
 -1      2244 1.94311E-02-3.49087E-03 2.51363E-02
 -1      2246 1.56781E-02 3.44357E-03 2.51226E-02
 -1      2247 1.89994E-02-1.14653E-03-8.34943E-04
 -1      2249 1.52332E-02 1.41345E-03-8.74106E-04
 -1      2250 1.73659E-02 1.13448E-03-2.60783E-02
 -1      2252 1.38217E-02-5.56058E-04-2.61470E-02
 -1      2253 1.45780E-02 3.22324E-03-4.90164E-02
 -1      2255 1.14769E-02-2.35527E-03-4.91098E-02
 -1      2256 1.07539E-02 4.98512E-03-6.82020E-02
 -1      2258 8.29196E-03-3.86696E-03-6.83199E-02
 -1      2259 6.07341E-03 6.32149E-03-8.24147E-02
 -1      2261 4.40709E-03-5.00749E-03-8.25501E-02
 -1      2262 7.65846E-04 7.14890E-03-9.07297E-02
 -1      2264 4.18215E-06-5.70371E-03-9.08795E-02
 -1      2265-4.90616E-03 7.42894E-03-9.25836E-02
 -1      2267-4.71056E-03-5.92478E-03-9.27399E-02
 -1      2268-1.06646E-02 7.14808E-03-8.78013E-02
 -1      2270-9.51658E-03-5.65680E-03-8.79601E-02
 -1      2271-1.62351E-02 6.34321E-03-7.66147E-02
 -1      2273-1.41994E-02-4.93631E-03-7.67683E-02
 -1      2274-2.13659E-02 5.07381E-03-5.96423E-02
 -1      2276-1.85603E-02-3.80932E-03-5.97880E-02
 -1      2277-2.58462E-02 3.45012E-03-3.78510E-02
 -1      2279-2.24370E-02-2.38137E-03-3.79828E-02
 -1      2280-2.95187E-02 1.59074E-03-1.25100E-02
 -1      2282-2.57113E-02-7.42949E-04-1.26285E-02
 -1      2283-3.23006E-02-3.36466E-04 1.49363E-02
 -1      2285-2.83150E-02 9.43019E-04 1.48354E-02
 -1      2286-3.41706E-02-2.18150E-03 4.28266E-02
 -1      2288-3.02717E-02 2.56207E-03 4.27359E-02
 -1      2289-3.52153E-02-3.75655E-03 6.96909E-02
 -1      2291-3.15759E-02 3.91267E-03 6.96149E-02
 -1      2292-3.55234E-02-4.79086E-03 9.35674E-02
 -1      2294-3.25308E-02 4.91931E-03 9.34988E-02
 -3
    1PSTEP                        58           1           1          
    1PGM                1.000000E+00                                  
    1PGK                1.086716E+07                                  
    1PHID                         -1                                  
    1PSUBC                         0                                  
    1PMODE                        15                                  
  100CL  115 524.6603102         930                     2   15MODAL      1
 -4  STRESS      6    1
 -5  SXX         1    4    1    1
 -5  SYY         1    4    2    2
 -5  SZZ         1    4    3    3
 -5  SXY         1    4    1    2
 -5  SYZ         1    4    2    3
 -5  SZX         1    4    3    1
 -1       404 5.80611E+09 6.42068E+08 6.42913E+06-7.72639E+08 5.63913E+07 6.89625E+08
 -1       406 5.80611E+09 6.42068E+08 6.42913E+06-7.72639E+08 5.63913E+07 6.89625E+08
 -1       407 3.57724E+08 3.86289E+07-5.70468E+06-9.69907E+07-3.20351E+07-1.95324E+07
 -1       409 3.57724E+08 3.86289E+07-5.70468E+06-9.69907E+07-3.20351E+07-1.95324E+07
 -1       410 4.02704E+08 2.06620E+08 1.48881E+07 1.64512E-02 1.17829E-02-1.54494E+07
 -1       412 4.02704E+08 2.06620E+08 1.48881E+07 1.64512E-02 1.17829E-02-1.54494E+07
 -1       413-1.34707E+08-2.85247E+07-1.95772E+09-1.61417E-04 1.56400E-02 1.01360E+09
 -1       415-1.34707E+08-2.85247E+07-1.95772E+09-1.61417E-04 1.56400E-02 1.01360E+09
 -1       424 7.35696E+09 8.38163E+08-9.56509E+06 1.37683E-01-5.22614E-04 3.37549E+08
 -1       426 7.35696E+09 8.38163E+08-9.56509E+06 1.37683E-01-5.22614E-04 3.37549E+08
 -1       427 5.82921E+09 3.89704E+07 1.86920E+09 6.23201E-03 5.62915E-04 9.75050E+09
 -1       429 5.82921E+09 3.89704E+07 1.86920E+09 6.23201E-03 5.62915E-04 9.75050E+09
 -1       438 3.57724E+08 3.86289E+07-5.70468E+06 9.69907E+07 3.20351E+07-1.95324E+07
 -1       440 3.57724E+08 3.86289E+07-5.70468E+06 9.69907E+07 3.20351E+07-1.95324E+07
 -1       441 5.80611E+09 6.42068E+08 6.42913E+06 7.72639E+08-5.63913E+07 6.89625E+08
 -1       443 5.80611E+09 6.42068E+08 6.42913E+06 7.72639E+08-5.63913E+07 6.89625E+08
 -1       444-5.82921E+09-3.89704E+07-1.86920E+09-2.87233E-03-9.10726E-04 9.75050E+09
 -1       446-5.82921E+09-3.89704E+07-1.86920E+09-2.87233E-03-9.10726E-04 9.75050E+09
 -1       447-7.35696E+09-8.38163E+08 9.56509E+06-5.63376E-02-4.31770E-03 3.37549E+08
 -1       449-7.35696E+09-8.38163E+08 9.56509E+06-5.63376E-02-4.31770E-03 3.37549E+08
 -1       458 1.34707E+08 2.85247E+07 1.95772E+09 5.20666E-04-2.68875E-02 1.01360E+09
 -1       460 1.34707E+08 2.85247E+07 1.95772E+09 5.20666E-04-2.68875E-02 1.01360E+09
 -1       461-4.02704E+08-2.06620E+08-1.48881E+07-1.69046E-02-1.39843E-02-1.54494E+07
 -1       463-4.02704E+08-2.06620E+08-1.48881E+07-1.69046E-02-1.39843E-02-1.54494E+07
 -1       472-5.80611E+09-6.42068E+08-6.42913E+06-7.72639E+08-5.63913E+07 6.89625E+08
 -1       474-5.80611E+09-6.42068E+08-6.42913E+06-7.72639E+08-5.63913E+07 6.89625E+08
 -1       475-3.57724E+08-3.86289E+07 5.70468E+06-9.69907E+07 3.20351E+07-1.95324E+07
 -1       477-3.57724E+08-3.86289E+07 5.70468E+06-9.69907E+07 3.20351E+07-1.95324E+07
 -1       478-3.57724E+08-3.86289E+07 5.70468E+06 9.69907E+07-3.20351E+07-1.95324E+07
 -1       480-3.57724E+08-3.86289E+07 5.70468E+06 9.69907E+07-3.20351E+07-1.95324E+07
 -1       481-5.80611E+09-6.42068E+08-6.42913E+06 7.72639E+08 5.63913E+07 6.89625E+08
 -1       483-5.80611E+09-6.42068E+08-6.42913E+06 7.72639E+08 5.63913E+07 6.89625E+08
 -1       484 4.70286E+09 1.59539E+08 9.52448E+04-5.20351E+08 5.16621E+07 2.48766E+08
 -1       486 4.70286E+09 1.59539E+08 9.52448E+04-5.20351E+08 5.16621E+07 2.48766E+08
 -1       487 2.34052E+09-1.15819E+08-1.79952E+06-5.00305E+08 3.54778E+07-2.55915E+07
 -1       489 2.34052E+09-1.15819E+08-1.79952E+06-5.00305E+08 3.54778E+07-2.55915E+07
 -1       490-2.57658E+08 5.10562E+07-2.91414E+06-6.19225E+08 4.40898E+07 8.33185E+07
 -1       492-2.57658E+08 5.10562E+07-2.91414E+06-6.19225E+08 4.40898E+07 8.33185E+07
 -1       493-2.67004E+09 1.66022E+07-4.02099E+06-4.66455E+08 5.93428E+07 3.03935E+07
 -1       495-2.67004E+09 1.66022E+07-4.02099E+06-4.66455E+08 5.93428E+07 3.03935E+07
 -1       496-4.57341E+09 2.44487E+07-4.24644E+06-3.70468E+08 6.36039E+07 3.38611E+07
 -1       498-4.57341E+09 2.44487E+07-4.24644E+06-3.70468E+08 6.36039E+07 3.38611E+07
 -1       499-5.95683E+09 2.81666E+07-5.13136E+06-2.48903E+08 7.27188E+07 1.75322E+07
 -1       501-5.95683E+09 2.81666E+07-5.13136E+06-2.48903E+08 7.27188E+07 1.75322E+07
 -1       502-6.75725E+09 2.89288E+07-4.92017E+06-1.17606E+08 7.37511E+07 3.09274E+06
 -1       504-6.75725E+09 2.89288E+07-4.92017E+06-1.17606E+08 7.37511E+07 3.09274E+06
 -1       505-6.94468E+09 2.84206E+07-5.20550E+06 1.38832E+07 7.48871E+07-9.31930E+06
 -1       507-6.94468E+09 2.84206E+07-5.20550E+06 1.38832E+07 7.48871E+07-9.31930E+06
 -1       508-6.53134E+09 2.65120E+07-4.50396E+06 1.39741E+08 7.16962E+07-2.42613E+07
 -1       510-6.53134E+09 2.65120E+07-4.50396E+06 1.39741E+08 7.16962E+07-2.42613E+07
 -1       511-5.55963E+09 2.28651E+07-4.21678E+06 2.52839E+08 6.66518E+07-3.48287E+07
 -1       513-5.55963E+09 2.28651E+07-4.21678E+06 2.52839E+08 6.66518E+07-3.48287E+07
 -1       514-4.10410E+09 1.81689E+07-3.10485E+06 3.47008E+08 5.94598E+07-4.54780E+07
 -1       516-4.10410E+09 1.81689E+07-3.10485E+06 3.47008E+08 5.94598E+07-4.54780E+07
 -1       517-2.26600E+09 1.23127E+07-2.37316E+06 4.17269E+08 5.04513E+07-5.16958E+07
 -1       519-2.26600E+09 1.23127E+07-2.37316E+06 4.17269E+08 5.04513E+07-5.16958E+07
 -1       520-1.67295E+08 5.97540E+06-1.05342E+06 4.59999E+08 4.07841E+07-5.58949E+07
 -1       522-1.67295E+08 5.97540E+06-1.05342E+06 4.59999E+08 4.07841E+07-5.58949E+07
 -1       523 2.05675E+09-7.10984E+05-1.13584E+05 4.73333E+08 3.02487E+07-5.58687E+07
 -1       525 2.05675E+09-7.10984E+05-1.13584E+05 4.73333E+08 3.02487E+07-5.58687E+07
 -1       526 4.26600E+09-7.12744E+06 1.15228E+06 4.57167E+08 2.03074E+07-5.29742E+07
 -1       528 4.26600E+09-7.12744E+06 1.15228E+06 4.57167E+08 2.03074E+07-5.29742E+07
 -1       529 6.32411E+09-1.30169E+07 2.01709E+06 4.13289E+08 1.06514E+07-4.64880E+07
 -1       531 6.32411E+09-1.30169E+07 2.01709E+06 4.13289E+08 1.06514E+07-4.64880E+07
 -1       532 8.10707E+09-1.79325E+07 2.96543E+06 3.45179E+08 2.60382E+06-3.74443E+07
 -1       534 8.10707E+09-1.79325E+07 2.96543E+06 3.45179E+08 2.60382E+06-3.74443E+07
 -1       535 9.51107E+09-2.15472E+07 3.50082E+06 2.57917E+08-4.26538E+06-2.60288E+07
 -1       537 9.51107E+09-2.15472E+07 3.50082E+06 2.57917E+08-4.26538E+06-2.60288E+07
 -1       538 1.04590E+10-2.37674E+07 3.92767E+06 1.57745E+08-8.94192E+06-1.32370E+07
 -1       540 1.04590E+10-2.37674E+07 3.92767E+06 1.57745E+08-8.94192E+06-1.32370E+07
 -1       541 1.09056E+10-2.41113E+07 3.97213E+06 5.18766E+07-1.21143E+07 2.27226E+05
 -1       543 1.09056E+10-2.41113E+07 3.97213E+06 5.18766E+07-1.21143E+07 2.27226E+05
 -1       544 1.08403E+10-2.31743E+07 3.78372E+06-5.22061E+07-1.31529E+07 1.34016E+07
 -1       546 1.08403E+10-2.31743E+07 3.78372E+06-5.22061E+07-1.31529E+07 1.34016E+07
 -1       547 1.02885E+10-1.98829E+07 3.30699E+06-1.46782E+08-1.30780E+07 2.53901E+07
 -1       549 1.02885E+10-1.98829E+07 3.30699E+06-1.46782E+08-1.30780E+07 2.53901E+07
 -1       550 9.30981E+09-1.63461E+07 2.54698E+06-2.25079E+08-1.17351E+07 3.53262E+07
 -1       552 9.30981E+09-1.63461E+07 2.54698E+06-2.25079E+08-1.17351E+07 3.53262E+07
 -1       553 7.99581E+09-9.45539E+06 1.65066E+06-2.80349E+08-1.03374E+07 4.25816E+07
 -1       555 7.99581E+09-9.45539E+06 1.65066E+06-2.80349E+08-1.03374E+07 4.25816E+07
 -1       556 6.46263E+09-5.22274E+06 4.99121E+05-3.08577E+08-9.45510E+06 4.59691E+07
 -1       558 6.46263E+09-5.22274E+06 4.99121E+05-3.08577E+08-9.45510E+06 4.59691E+07
 -1       559 4.84528E+09 4.47651E+06-6.00150E+05-3.07284E+08-9.93114E+06 4.67805E+07
 -1       561 4.84528E+09 4.47651E+06-6.00150E+05-3.07284E+08-9.93114E+06 4.67805E+07
 -1       562 3.29976E+09 1.15008E+07-1.93542E+06-2.64214E+08-1.34670E+07 4.00273E+07
 -1       564 3.29976E+09 1.15008E+07-1.93542E+06-2.64214E+08-1.34670E+07 4.00273E+07
 -1       565 1.94782E+09 6.14680E+06-2.83359E+06-2.19652E+08-1.91283E+07 3.76113E+07
 -1       567 1.94782E+09 6.14680E+06-2.83359E+06-2.19652E+08-1.91283E+07 3.76113E+07
 -1       568 8.43796E+08 2.22361E+07-3.77675E+06-1.53250E+08-2.74529E+07 1.12698E+07
 -1       570 8.43796E+08 2.22361E+07-3.77675E+06-1.53250E+08-2.74529E+07 1.12698E+07
 -1       571 3.80214E+08 1.22625E+08 4.59170E+06-2.01874E+08 2.28816E+08-1.74909E+07
 -1       573 3.80214E+08 1.22625E+08 4.59170E+06-2.01874E+08 2.28816E+08-1.74909E+07
 -1       574 5.63682E+09 1.70068E+08-5.35920E+06 1.42974E-01-6.51382E-04 3.08890E+07
 -1       576 5.63682E+09 1.70068E+08-5.35920E+06 1.42974E-01-6.51382E-04 3.08890E+07
 -1       577 4.30168E+09 1.27534E+07 8.24849E+08 1.61592E-03 1.44431E-03 1.00557E+10
 -1       579 4.30168E+09 1.27534E+07 8.24849E+08 1.61592E-03 1.44431E-03 1.00557E+10
 -1       588 2.30344E+09-1.94059E+08 6.73420E+06 1.14945E-01-1.34172E-03-9.97544E+07
 -1       590 2.30344E+09-1.94059E+08 6.73420E+06 1.14945E-01-1.34172E-03-9.97544E+07
 -1       591 1.54094E+09-1.71589E+07-8.16938E+08-4.45501E-04 8.86185E-04 9.50195E+09
 -1       593 1.54094E+09-1.71589E+07-8.16938E+08-4.45501E-04 8.86185E-04 9.50195E+09
 -1       602-5.26122E+08 1.29322E+08 9.47048E+06 8.62199E-02-1.31160E-04-1.79842E+07
 -1       604-5.26122E+08 1.29322E+08 9.47048E+06 8.62199E-02-1.31160E-04-1.79842E+07
 -1       605-7.56753E+08-1.69949E+07-1.43159E+09 7.03254E-04 1.09731E-03 8.30639E+09
 -1       607-7.56753E+08-1.69949E+07-1.43159E+09 7.03254E-04 1.09731E-03 8.30639E+09
 -1       616-2.87108E+09 1.21457E+08 1.03525E+07 7.60516E-02 3.45460E-03-5.02039E+07
 -1       618-2.87108E+09 1.21457E+08 1.03525E+07 7.60516E-02 3.45460E-03-5.02039E+07
 -1       619-2.69962E+09-2.26640E+07-1.70522E+09-1.10570E-04 6.38879E-03 7.14179E+09
 -1       621-2.69962E+09-2.26640E+07-1.70522E+09-1.10570E-04 6.38879E-03 7.14179E+09
 -1       630-4.84730E+09 1.21545E+08 1.35202E+07 3.72798E-02 5.41389E-03-1.79498E+07
 -1       632-4.84730E+09 1.21545E+08 1.35202E+07 3.72798E-02 5.41389E-03-1.79498E+07
 -1       633-4.26240E+09-2.84398E+07-2.04936E+09-5.41284E-04 1.08795E-02 5.48516E+09
 -1       635-4.26240E+09-2.84398E+07-2.04936E+09-5.41284E-04 1.08795E-02 5.48516E+09
 -1       644-6.25635E+09 1.48842E+08 1.39291E+07-7.76234E-03 6.25458E-03-1.97814E+07
 -1       646-6.25635E+09 1.48842E+08 1.39291E+07-7.76234E-03 6.25458E-03-1.97814E+07
 -1       647-5.39039E+09-3.01728E+07-2.22894E+09-1.44871E-03 1.34570E-02 3.67928E+09
 -1       649-5.39039E+09-3.01728E+07-2.22894E+09-1.44871E-03 1.34570E-02 3.67928E+09
 -1       658-7.06710E+09 1.50266E+08 1.51417E+07-4.32476E-02 8.37761E-03-7.57656E+04
 -1       660-7.06710E+09 1.50266E+08 1.51417E+07-4.32476E-02 8.37761E-03-7.57656E+04
 -1       661-6.02360E+09-3.26549E+07-2.32373E+09-1.41878E-03 1.81155E-02 1.71590E+09
 -1       663-6.02360E+09-3.26549E+07-2.32373E+09-1.41878E-03 1.81155E-02 1.71590E+09
 -1       672-7.24972E+09 1.48663E+08 1.43905E+07-7.66703E-02 1.04826E-02 7.05591E+06
 -1       674-7.24972E+09 1.48663E+08 1.43905E+07-7.66703E-02 1.04826E-02 7.05591E+06
 -1       675-6.14835E+09-3.13238E+07-2.28076E+09-1.62810E-03 2.22928E-02-2.52981E+08
 -1       677-6.14835E+09-3.13238E+07-2.28076E+09-1.62810E-03 2.22928E-02-2.52981E+08
 -1       686-6.81420E+09 1.37869E+08 1.37256E+07-1.01727E-01 1.18255E-02 2.15612E+07
 -1       688-6.81420E+09 1.37869E+08 1.37256E+07-1.01727E-01 1.18255E-02 2.15612E+07
 -1       689-5.77183E+09-2.97478E+07-2.12186E+09-1.66269E-03 2.34955E-02-2.14063E+09
 -1       691-5.77183E+09-2.97478E+07-2.12186E+09-1.66269E-03 2.34955E-02-2.14063E+09
 -1       700-5.80494E+09 1.19492E+08 1.16993E+07-8.49972E-02 1.32087E-02 2.96402E+07
 -1       702-5.80494E+09 1.19492E+08 1.16993E+07-8.49972E-02 1.32087E-02 2.96402E+07
 -1       703-4.92913E+09-2.54338E+07-1.84577E+09-1.38820E-03 2.40591E-02-3.83385E+09
 -1       705-4.92913E+09-2.54338E+07-1.84577E+09-1.38820E-03 2.40591E-02-3.83385E+09
 -1       714-4.29848E+09 9.46680E+07 9.50755E+06-3.38115E-02 1.19566E-02 3.92350E+07
 -1       716-4.29848E+09 9.46680E+07 9.50755E+06-3.38115E-02 1.19566E-02 3.92350E+07
 -1       717-3.68359E+09-2.04566E+07-1.47340E+09-8.40705E-04 2.24170E-02-5.24464E+09
 -1       719-3.68359E+09-2.04566E+07-1.47340E+09-8.40705E-04 2.24170E-02-5.24464E+09
 -1       728-2.39918E+09 6.46968E+07 6.48916E+06 4.32760E-03 7.67142E-03 4.41910E+07
 -1       730-2.39918E+09 6.46968E+07 6.48916E+06 4.32760E-03 7.67142E-03 4.41910E+07
 -1       731-2.11983E+09-1.38644E+07-1.02478E+09-4.35564E-04 1.77950E-02-6.29475E+09
 -1       733-2.11983E+09-1.38644E+07-1.02478E+09-4.35564E-04 1.77950E-02-6.29475E+09
 -1       742-2.32718E+08 3.15889E+07 3.43364E+06 4.67300E-03 4.37543E-03 4.79481E+07
 -1       744-2.32718E+08 3.15889E+07 3.43364E+06 4.67300E-03 4.37543E-03 4.79481E+07
 -1       745-3.40957E+08-6.93425E+06-5.28521E+08 8.01230E-05 1.41876E-02-6.93142E+09
 -1       747-3.40957E+08-6.93425E+06-5.28521E+08 8.01230E-05 1.41876E-02-6.93142E+09
 -1       756 2.06146E+09-2.77286E+06 4.22519E+04-1.22363E-02 2.61400E-03 4.77545E+07
 -1       758 2.06146E+09-2.77286E+06 4.22519E+04-1.22363E-02 2.61400E-03 4.77545E+07
 -1       759 1.53918E+09 5.24566E+05-1.44938E+07 1.92565E-04 1.12039E-02-7.12518E+09
 -1       761 1.53918E+09 5.24566E+05-1.44938E+07 1.92565E-04 1.12039E-02-7.12518E+09
 -1       770 4.33886E+09-3.61055E+07-3.05999E+06-1.26151E-02 3.34931E-03 4.53528E+07
 -1       772 4.33886E+09-3.61055E+07-3.05999E+06-1.26151E-02 3.34931E-03 4.53528E+07
 -1       773 3.40218E+09 7.59428E+06 4.85016E+08 7.70771E-04 1.07054E-02-6.87524E+09
 -1       775 3.40218E+09 7.59428E+06 4.85016E+08 7.70771E-04 1.07054E-02-6.87524E+09
 -1       784 6.45886E+09-6.64671E+07-6.05319E+06 1.14479E-02 8.18984E-03 3.97253E+07
 -1       786 6.45886E+09-6.64671E+07-6.05319E+06 1.14479E-02 8.18984E-03 3.97253E+07
 -1       787 5.13302E+09 1.41813E+07 9.39106E+08 9.63525E-04 1.55657E-02-6.20766E+09
 -1       789 5.13302E+09 1.41813E+07 9.39106E+08 9.63525E-04 1.55657E-02-6.20766E+09
 -1       798 8.29357E+09-9.17851E+07-8.39439E+06 4.42548E-02 1.16775E-02 3.20525E+07
 -1       800 8.29357E+09-9.17851E+07-8.39439E+06 4.42548E-02 1.16775E-02 3.20525E+07
 -1       801 6.62682E+09 1.95948E+07 1.31907E+09 1.18717E-03 1.91500E-02-5.17536E+09
 -1       803 6.62682E+09 1.95948E+07 1.31907E+09 1.18717E-03 1.91500E-02-5.17536E+09
 -1       812 9.73581E+09-1.10626E+08-1.02884E+07 6.66396E-02 1.01452E-02 2.22692E+07
 -1       814 9.73581E+09-1.10626E+08-1.02884E+07 6.66396E-02 1.01452E-02 2.22692E+07
 -1       815 7.79585E+09 2.37316E+07 1.60094E+09 9.36397E-04 1.61613E-02-3.85397E+09
 -1       817 7.79585E+09 2.37316E+07 1.60094E+09 9.36397E-04 1.61613E-02-3.85397E+09
 -1       826 1.07061E+10-1.21528E+08-1.12454E+07 7.57943E-02 7.76556E-03 1.14233E+07
 -1       828 1.07061E+10-1.21528E+08-1.12454E+07 7.57943E-02 7.76556E-03 1.14233E+07
 -1       829 8.57468E+09 2.61086E+07 1.76648E+09 9.10116E-04 1.30026E-02-2.33821E+09
 -1       831 8.57468E+09 2.61086E+07 1.76648E+09 9.10116E-04 1.30026E-02-2.33821E+09
 -1       840 1.11574E+10-1.24062E+08-1.15997E+07 7.47441E-02 7.60081E-03-6.21789E+04
 -1       842 1.11574E+10-1.24062E+08-1.15997E+07 7.47441E-02 7.60081E-03-6.21789E+04
 -1       843 8.92489E+09 2.67991E+07 1.80472E+09 7.92686E-04 1.32675E-02-7.35351E+08
 -1       845 8.92489E+09 2.67991E+07 1.80472E+09 7.92686E-04 1.32675E-02-7.35351E+08
 -1       854 1.10789E+10-1.17531E+08-1.08748E+07 6.00751E-02 8.44933E-03-1.11680E+07
 -1       856 1.10789E+10-1.17531E+08-1.08748E+07 6.00751E-02 8.44933E-03-1.11680E+07
 -1       857 8.83703E+09 2.54911E+07 1.71228E+09 7.34459E-04 1.42254E-02 8.40382E+08
 -1       859 8.83703E+09 2.54911E+07 1.71228E+09 7.34459E-04 1.42254E-02 8.40382E+08
 -1       868 1.04964E+10-1.02898E+08-9.62817E+06 3.01959E-02 7.28023E-03-2.13267E+07
 -1       870 1.04964E+10-1.02898E+08-9.62817E+06 3.01959E-02 7.28023E-03-2.13267E+07
 -1       871 8.33229E+09 2.25900E+07 1.49409E+09 3.59089E-04 1.30436E-02 2.27564E+09
 -1       873 8.33229E+09 2.25900E+07 1.49409E+09 3.59089E-04 1.30436E-02 2.27564E+09
 -1       882 9.47156E+09-8.00979E+07-7.31615E+06-5.88015E-03 3.77183E-03-2.95961E+07
 -1       884 9.47156E+09-8.00979E+07-7.31615E+06-5.88015E-03 3.77183E-03-2.95961E+07
 -1       885 7.46029E+09 1.78236E+07 1.16222E+09-5.04700E-05 8.80765E-03 3.46382E+09
 -1       887 7.46029E+09 1.78236E+07 1.16222E+09-5.04700E-05 8.80765E-03 3.46382E+09
 -1       896 8.09762E+09-5.11984E+07-4.81086E+06-2.55124E-02 1.99071E-03-3.54959E+07
 -1       898 8.09762E+09-5.11984E+07-4.81086E+06-2.55124E-02 1.99071E-03-3.54959E+07
 -1       899 6.29764E+09 1.20974E+07 7.36863E+08-3.34415E-04 6.13739E-03 4.31226E+09
 -1       901 6.29764E+09 1.20974E+07 7.36863E+08-3.34415E-04 6.13739E-03 4.31226E+09
 -1       910 6.49530E+09-1.81694E+07-1.35444E+06-1.75970E-02 2.10407E-03-3.83882E+07
 -1       912 6.49530E+09-1.81694E+07-1.35444E+06-1.75970E-02 2.10407E-03-3.83882E+07
 -1       913 4.94311E+09 4.87512E+06 2.41307E+08-4.21078E-04 5.09370E-03 4.74817E+09
 -1       915 4.94311E+09 4.87512E+06 2.41307E+08-4.21078E-04 5.09370E-03 4.74817E+09
 -1       924 4.80672E+09 1.83215E+07 1.65852E+06-9.98539E-03 9.06661E-04-3.76470E+07
 -1       926 4.80672E+09 1.83215E+07 1.65852E+06-9.98539E-03 9.06661E-04-3.76470E+07
 -1       927 3.51101E+09-2.02777E+06-2.91821E+08-2.88778E-04 2.87668E-03 4.71962E+09
 -1       929 3.51101E+09-2.02777E+06-2.91821E+08-2.88778E-04 2.87668E-03 4.71962E+09
 -1       938 3.17233E+09 6.45297E+07 5.75952E+06-2.25701E-02-5.22062E-04-3.40670E+07
 -1       940 3.17233E+09 6.45297E+07 5.75952E+06-2.25701E-02-5.22062E-04-3.40670E+07
 -1       941 2.12759E+09-1.04451E+07-8.43555E+08-6.09388E-04 9.44931E-04 4.21596E+09
 -1       943 2.12759E+09-1.04451E+07-8.43555E+08-6.09388E-04 9.44931E-04 4.21596E+09
 -1       952 1.76259E+09 5.22068E+07 8.32353E+06-3.06702E-02-2.25872E-04-2.42599E+07
 -1       954 1.76259E+09 5.22068E+07 8.32353E+06-3.06702E-02-2.25872E-04-2.42599E+07
 -1       955 9.42519E+08-1.64961E+07-1.36115E+09-8.39831E-04 1.68676E-04 3.22707E+09
 -1       957 9.42519E+08-1.64961E+07-1.36115E+09-8.39831E-04 1.68676E-04 3.22707E+09
 -1       966 7.71293E+08 1.09347E+08 1.09459E+07-6.23694E-03 6.09992E-03-1.60784E+07
 -1       968 7.71293E+08 1.09347E+08 1.09459E+07-6.23694E-03 6.09992E-03-1.60784E+07
 -1       969 1.43024E+08-2.25623E+07-1.77761E+09-1.09752E-03 7.83865E-03 1.80997E+09
 -1       971 1.43024E+08-2.25623E+07-1.77761E+09-1.09752E-03 7.83865E-03 1.80997E+09
 -1       980 6.58154E+09 7.40116E+08-1.56798E+06-1.08966E+09-1.16720E+08 5.13587E+08
 -1       982 6.58154E+09 7.40116E+08-1.56798E+06-1.08966E+09-1.16720E+08 5.13587E+08
 -1       983 3.80214E+08 1.22625E+08 4.59170E+06 2.01874E+08-2.28816E+08-1.74909E+07
 -1       985 3.80214E+08 1.22625E+08 4.59170E+06 2.01874E+08-2.28816E+08-1.74909E+07
 -1       986 4.70286E+09 1.59539E+08 9.52448E+04 5.20351E+08-5.16621E+07 2.48766E+08
 -1       988 4.70286E+09 1.59539E+08 9.52448E+04 5.20351E+08-5.16621E+07 2.48766E+08
 -1       989 2.34052E+09-1.15819E+08-1.79952E+06 5.00305E+08-3.54778E+07-2.55915E+07
 -1       991 2.34052E+09-1.15819E+08-1.79952E+06 5.00305E+08-3.54778E+07-2.55915E+07
 -1       992-2.57658E+08 5.10562E+07-2.91414E+06 6.19225E+08-4.40898E+07 8.33185E+07
 -1       994-2.57658E+08 5.10562E+07-2.91414E+06 6.19225E+08-4.40898E+07 8.33185E+07
 -1       995-2.67004E+09 1.66022E+07-4.02099E+06 4.66455E+08-5.93428E+07 3.03935E+07
 -1       997-2.67004E+09 1.66022E+07-4.02099E+06 4.66455E+08-5.93428E+07 3.03935E+07
 -1       998-4.57341E+09 2.44487E+07-4.24644E+06 3.70468E+08-6.36039E+07 3.38611E+07
 -1      1000-4.57341E+09 2.44487E+07-4.24644E+06 3.70468E+08-6.36039E+07 3.38611E+07
 -1      1001-5.95683E+09 2.81666E+07-5.13136E+06 2.48903E+08-7.27188E+07 1.75322E+07
 -1      1003-5.95683E+09 2.81666E+07-5.13136E+06 2.48903E+08-7.27188E+07 1.75322E+07
 -1      1004-6.75725E+09 2.89288E+07-4.92017E+06 1.17606E+08-7.37511E+07 3.09274E+06
 -1      1006-6.75725E+09 2.89288E+07-4.92017E+06 1.17606E+08-7.37511E+07 3.09274E+06
 -1      1007-6.94468E+09 2.84206E+07-5.20550E+06-1.38832E+07-7.48871E+07-9.31930E+06
 -1      1009-6.94468E+09 2.84206E+07-5.20550E+06-1.38832E+07-7.48871E+07-9.31930E+06
 -1      1010-6.53134E+09 2.65120E+07-4.50396E+06-1.39741E+08-7.16962E+07-2.42613E+07
 -1      1012-6.53134E+09 2.65120E+07-4.50396E+06-1.39741E+08-7.16962E+07-2.42613E+07
 -1      1013-5.55963E+09 2.28651E+07-4.21678E+06-2.52839E+08-6.66518E+07-3.48287E+07
 -1      1015-5.55963E+09 2.28651E+07-4.21678E+06-2.52839E+08-6.66518E+07-3.48287E+07
 -1      1016-4.10410E+09 1.81689E+07-3.10485E+06-3.47008E+08-5.94598E+07-4.54780E+07
 -1      1018-4.10410E+09 1.81689E+07-3.10485E+06-3.47008E+08-5.94598E+07-4.54780E+07
 -1      1019-2.26600E+09 1.23127E+07-2.37316E+06-4.17269E+08-5.04513E+07-5.16958E+07
 -1      1021-2.26600E+09 1.23127E+07-2.37316E+06-4.17269E+08-5.04513E+07-5.16958E+07
 -1      1022-1.67295E+08 5.97540E+06-1.05342E+06-4.59999E+08-4.07841E+07-5.58949E+07
 -1      1024-1.67295E+08 5.97540E+06-1.05342E+06-4.59999E+08-4.07841E+07-5.58949E+07
 -1      1025 2.05675E+09-7.10984E+05-1.13584E+05-4.73333E+08-3.02487E+07-5.58687E+07
 -1      1027 2.05675E+09-7.10984E+05-1.13584E+05-4.73333E+08-3.02487E+07-5.58687E+07
 -1      1028 4.26600E+09-7.12744E+06 1.15228E+06-4.57167E+08-2.03074E+07-5.29742E+07
 -1      1030 4.26600E+09-7.12744E+06 1.15228E+06-4.57167E+08-2.03074E+07-5.29742E+07
 -1      1031 6.32411E+09-1.30169E+07 2.01709E+06-4.13289E+08-1.06514E+07-4.64880E+07
 -1      1033 6.32411E+09-1.30169E+07 2.01709E+06-4.13289E+08-1.06514E+07-4.64880E+07
 -1      1034 8.10707E+09-1.79325E+07 2.96543E+06-3.45179E+08-2.60382E+06-3.74443E+07
 -1      1036 8.10707E+09-1.79325E+07 2.96543E+06-3.45179E+08-2.60382E+06-3.74443E+07
 -1      1037 9.51107E+09-2.15472E+07 3.50082E+06-2.57917E+08 4.26538E+06-2.60288E+07
 -1      1039 9.51107E+09-2.15472E+07 3.50082E+06-2.57917E+08 4.26538E+06-2.60288E+07
 -1      1040 1.04590E+10-2.37674E+07 3.92767E+06-1.57745E+08 8.94192E+06-1.32370E+07
 -1      1042 1.04590E+10-2.37674E+07 3.92767E+06-1.57745E+08 8.94192E+06-1.32370E+07
 -1      1043 1.09056E+10-2.41113E+07 3.97213E+06-5.18766E+07 1.21143E+07 2.27226E+05
 -1      1045 1.09056E+10-2.41113E+07 3.97213E+06-5.18766E+07 1.21143E+07 2.27226E+05
 -1      1046 1.08403E+10-2.31743E+07 3.78372E+06 5.22061E+07 1.31529E+07 1.34016E+07
 -1      1048 1.08403E+10-2.31743E+07 3.78372E+06 5.22061E+07 1.31529E+07 1.34016E+07
 -1      1049 1.02885E+10-1.98829E+07 3.30699E+06 1.46782E+08 1.30780E+07 2.53901E+07
 -1      1051 1.02885E+10-1.98829E+07 3.30699E+06 1.46782E+08 1.30780E+07 2.53901E+07
 -1      1052 9.30981E+09-1.63461E+07 2.54698E+06 2.25079E+08 1.17351E+07 3.53262E+07
 -1      1054 9.30981E+09-1.63461E+07 2.54698E+06 2.25079E+08 1.17351E+07 3.53262E+07
 -1      1055 7.99581E+09-9.45539E+06 1.65066E+06 2.80349E+08 1.03374E+07 4.25816E+07
 -1      1057 7.99581E+09-9.45539E+06 1.65066E+06 2.80349E+08 1.03374E+07 4.25816E+07
 -1      1058 6.46263E+09-5.22274E+06 4.99121E+05 3.08577E+08 9.45510E+06 4.59691E+07
 -1      1060 6.46263E+09-5.22274E+06 4.99121E+05 3.08577E+08 9.45510E+06 4.59691E+07
 -1      1061 4.84528E+09 4.47651E+06-6.00150E+05 3.07284E+08 9.93114E+06 4.67805E+07
 -1      1063 4.84528E+09 4.47651E+06-6.00150E+05 3.07284E+08 9.93114E+06 4.67805E+07
 -1      1064 3.29976E+09 1.15008E+07-1.93542E+06 2.64214E+08 1.34670E+07 4.00273E+07
 -1      1066 3.29976E+09 1.15008E+07-1.93542E+06 2.64214E+08 1.34670E+07 4.00273E+07
 -1      1067 1.94782E+09 6.14680E+06-2.83359E+06 2.19652E+08 1.91283E+07 3.76113E+07
 -1      1069 1.94782E+09 6.14680E+06-2.83359E+06 2.19652E+08 1.91283E+07 3.76113E+07
 -1      1070 8.43796E+08 2.22361E+07-3.77675E+06 1.53250E+08 2.74529E+07 1.12698E+07
 -1      1072 8.43796E+08 2.22361E+07-3.77675E+06 1.53250E+08 2.74529E+07 1.12698E+07
 -1      1073 6.58154E+09 7.40116E+08-1.56798E+06 1.08966E+09 1.16720E+08 5.13587E+08
 -1      1075 6.58154E+09 7.40116E+08-1.56798E+06 1.08966E+09 1.16720E+08 5.13587E+08
 -1      1076 3.48360E+09-1.45633E+06 1.15557E+09 1.25603E-02 1.33079E-04 1.02168E+10
 -1      1078 3.48360E+09-1.45633E+06 1.15557E+09 1.25603E-02 1.33079E-04 1.02168E+10
 -1      1079-5.63189E-02 7.56979E-06-3.45688E-02 2.04125E-02 5.07417E-04 1.06831E+10
 -1      1081-5.63189E-02 7.56979E-06-3.45688E-02 2.04125E-02 5.07417E-04 1.06831E+10
 -1      1082-3.48360E+09 1.45633E+06-1.15557E+09 9.53207E-03 2.00432E-04 1.02168E+10
 -1      1084-3.48360E+09 1.45633E+06-1.15557E+09 9.53207E-03 2.00432E-04 1.02168E+10
 -1      1085-4.30168E+09-1.27534E+07-8.24849E+08-1.74650E-03 2.74984E-03 1.00557E+10
 -1      1087-4.30168E+09-1.27534E+07-8.24849E+08-1.74650E-03 2.74984E-03 1.00557E+10
 -1      1088-5.63682E+09-1.70068E+08 5.35920E+06-5.54699E-02 5.34102E-04 3.08890E+07
 -1      1090-5.63682E+09-1.70068E+08 5.35920E+06-5.54699E-02 5.34102E-04 3.08890E+07
 -1      1099-1.54094E+09 1.71589E+07 8.16938E+08-2.25915E-03 1.17842E-02 9.50195E+09
 -1      1101-1.54094E+09 1.71589E+07 8.16938E+08-2.25915E-03 1.17842E-02 9.50195E+09
 -1      1102-2.30344E+09 1.94059E+08-6.73420E+06-5.64860E-02 8.96887E-03-9.97544E+07
 -1      1104-2.30344E+09 1.94059E+08-6.73420E+06-5.64860E-02 8.96887E-03-9.97544E+07
 -1      1113 7.56753E+08 1.69949E+07 1.43159E+09-2.27475E-03 1.64357E-02 8.30639E+09
 -1      1115 7.56753E+08 1.69949E+07 1.43159E+09-2.27475E-03 1.64357E-02 8.30639E+09
 -1      1116 5.26122E+08-1.29322E+08-9.47048E+06-3.72124E-02 1.20149E-02-1.79842E+07
 -1      1118 5.26122E+08-1.29322E+08-9.47048E+06-3.72124E-02 1.20149E-02-1.79842E+07
 -1      1127 2.69962E+09 2.26640E+07 1.70522E+09-1.51141E-03 1.21299E-02 7.14179E+09
 -1      1129 2.69962E+09 2.26640E+07 1.70522E+09-1.51141E-03 1.21299E-02 7.14179E+09
 -1      1130 2.87108E+09-1.21457E+08-1.03525E+07 3.53128E-03 1.05297E-02-5.02039E+07
 -1      1132 2.87108E+09-1.21457E+08-1.03525E+07 3.53128E-03 1.05297E-02-5.02039E+07
 -1      1141 4.26240E+09 2.84398E+07 2.04936E+09-1.53269E-03 5.18021E-03 5.48516E+09
 -1      1143 4.26240E+09 2.84398E+07 2.04936E+09-1.53269E-03 5.18021E-03 5.48516E+09
 -1      1144 4.84730E+09-1.21545E+08-1.35202E+07 3.24962E-02 7.32616E-03-1.79498E+07
 -1      1146 4.84730E+09-1.21545E+08-1.35202E+07 3.24962E-02 7.32616E-03-1.79498E+07
 -1      1155 5.39039E+09 3.01728E+07 2.22894E+09-7.15355E-04-2.16757E-03 3.67928E+09
 -1      1157 5.39039E+09 3.01728E+07 2.22894E+09-7.15355E-04-2.16757E-03 3.67928E+09
 -1      1158 6.25635E+09-1.48842E+08-1.39291E+07 4.67772E-02 3.08916E-03-1.97814E+07
 -1      1160 6.25635E+09-1.48842E+08-1.39291E+07 4.67772E-02 3.08916E-03-1.97814E+07
 -1      1169 6.02360E+09 3.26549E+07 2.32373E+09-1.90893E-04-1.06934E-02 1.71590E+09
 -1      1171 6.02360E+09 3.26549E+07 2.32373E+09-1.90893E-04-1.06934E-02 1.71590E+09
 -1      1172 7.06710E+09-1.50266E+08-1.51417E+07 3.64363E-02-2.35841E-03-7.57656E+04
 -1      1174 7.06710E+09-1.50266E+08-1.51417E+07 3.64363E-02-2.35841E-03-7.57656E+04
 -1      1183 6.14835E+09 3.13238E+07 2.28076E+09 2.36225E-04-1.61064E-02-2.52981E+08
 -1      1185 6.14835E+09 3.13238E+07 2.28076E+09 2.36225E-04-1.61064E-02-2.52981E+08
 -1      1186 7.24972E+09-1.48663E+08-1.43905E+07-1.01161E-03-5.37139E-03 7.05591E+06
 -1      1188 7.24972E+09-1.48663E+08-1.43905E+07-1.01161E-03-5.37139E-03 7.05591E+06
 -1      1197 5.77183E+09 2.97478E+07 2.12186E+09 2.86218E-04-1.56524E-02-2.14063E+09
 -1      1199 5.77183E+09 2.97478E+07 2.12186E+09 2.86218E-04-1.56524E-02-2.14063E+09
 -1      1200 6.81420E+09-1.37869E+08-1.37256E+07-2.04564E-02-4.58673E-03 2.15612E+07
 -1      1202 6.81420E+09-1.37869E+08-1.37256E+07-2.04564E-02-4.58673E-03 2.15612E+07
 -1      1211 4.92913E+09 2.54338E+07 1.84577E+09 9.48288E-04-1.53282E-02-3.83385E+09
 -1      1213 4.92913E+09 2.54338E+07 1.84577E+09 9.48288E-04-1.53282E-02-3.83385E+09
 -1      1214 5.80494E+09-1.19492E+08-1.16993E+07 2.47860E-03-4.67415E-03 2.96402E+07
 -1      1216 5.80494E+09-1.19492E+08-1.16993E+07 2.47860E-03-4.67415E-03 2.96402E+07
 -1      1225 3.68359E+09 2.04566E+07 1.47340E+09 7.01591E-04-1.84895E-02-5.24464E+09
 -1      1227 3.68359E+09 2.04566E+07 1.47340E+09 7.01591E-04-1.84895E-02-5.24464E+09
 -1      1228 4.29848E+09-9.46680E+07-9.50755E+06 3.38261E-02-6.85878E-03 3.92350E+07
 -1      1230 4.29848E+09-9.46680E+07-9.50755E+06 3.38261E-02-6.85878E-03 3.92350E+07
 -1      1239 2.11983E+09 1.38644E+07 1.02478E+09 7.57226E-04-2.32588E-02-6.29475E+09
 -1      1241 2.11983E+09 1.38644E+07 1.02478E+09 7.57226E-04-2.32588E-02-6.29475E+09
 -1      1242 2.39918E+09-6.46968E+07-6.48916E+06 3.05597E-02-1.01329E-02 4.41910E+07
 -1      1244 2.39918E+09-6.46968E+07-6.48916E+06 3.05597E-02-1.01329E-02 4.41910E+07
 -1      1253 3.40957E+08 6.93425E+06 5.28521E+08 3.44836E-04-2.69220E-02-6.93142E+09
 -1      1255 3.40957E+08 6.93425E+06 5.28521E+08 3.44836E-04-2.69220E-02-6.93142E+09
 -1      1256 2.32718E+08-3.15889E+07-3.43364E+06-3.50833E-03-1.25972E-02 4.79481E+07
 -1      1258 2.32718E+08-3.15889E+07-3.43364E+06-3.50833E-03-1.25972E-02 4.79481E+07
 -1      1267-1.53918E+09-5.24566E+05 1.44938E+07 3.08897E-04-2.72352E-02-7.12518E+09
 -1      1269-1.53918E+09-5.24566E+05 1.44938E+07 3.08897E-04-2.72352E-02-7.12518E+09
 -1      1270-2.06146E+09 2.77286E+06-4.22519E+04-2.03252E-02-1.37816E-02 4.77545E+07
 -1      1272-2.06146E+09 2.77286E+06-4.22519E+04-2.03252E-02-1.37816E-02 4.77545E+07
 -1      1281-3.40218E+09-7.59428E+06-4.85016E+08 2.54395E-04-2.46333E-02-6.87524E+09
 -1      1283-3.40218E+09-7.59428E+06-4.85016E+08 2.54395E-04-2.46333E-02-6.87524E+09
 -1      1284-4.33886E+09 3.61055E+07 3.05999E+06-6.31225E-03-1.21849E-02 4.53528E+07
 -1      1286-4.33886E+09 3.61055E+07 3.05999E+06-6.31225E-03-1.21849E-02 4.53528E+07
 -1      1295-5.13302E+09-1.41813E+07-9.39106E+08 1.01816E-04-2.12543E-02-6.20766E+09
 -1      1297-5.13302E+09-1.41813E+07-9.39106E+08 1.01816E-04-2.12543E-02-6.20766E+09
 -1      1298-6.45886E+09 6.64671E+07 6.05319E+06 3.00699E-03-9.14541E-03 3.97253E+07
 -1      1300-6.45886E+09 6.64671E+07 6.05319E+06 3.00699E-03-9.14541E-03 3.97253E+07
 -1      1309-6.62682E+09-1.95948E+07-1.31907E+09-4.51723E-04-1.76996E-02-5.17536E+09
 -1      1311-6.62682E+09-1.95948E+07-1.31907E+09-4.51723E-04-1.76996E-02-5.17536E+09
 -1      1312-8.29357E+09 9.17851E+07 8.39439E+06-1.84080E-03-6.10331E-03 3.20525E+07
 -1      1314-8.29357E+09 9.17851E+07 8.39439E+06-1.84080E-03-6.10331E-03 3.20525E+07
 -1      1323-7.79585E+09-2.37316E+07-1.60094E+09-7.30851E-04-1.12111E-02-3.85397E+09
 -1      1325-7.79585E+09-2.37316E+07-1.60094E+09-7.30851E-04-1.12111E-02-3.85397E+09
 -1      1326-9.73581E+09 1.10626E+08 1.02884E+07-1.97887E-03-1.32827E-03 2.22692E+07
 -1      1328-9.73581E+09 1.10626E+08 1.02884E+07-1.97887E-03-1.32827E-03 2.22692E+07
 -1      1337-8.57468E+09-2.61086E+07-1.76648E+09-2.10359E-04-6.28584E-03-2.33821E+09
 -1      1339-8.57468E+09-2.61086E+07-1.76648E+09-2.10359E-04-6.28584E-03-2.33821E+09
 -1      1340-1.07061E+10 1.21528E+08 1.12454E+07-1.13137E-02 2.24404E-03 1.14233E+07
 -1      1342-1.07061E+10 1.21528E+08 1.12454E+07-1.13137E-02 2.24404E-03 1.14233E+07
 -1      1351-8.92489E+09-2.67991E+07-1.80472E+09-6.14814E-04-8.57729E-03-7.35351E+08
 -1      1353-8.92489E+09-2.67991E+07-1.80472E+09-6.14814E-04-8.57729E-03-7.35351E+08
 -1      1354-1.11574E+10 1.24062E+08 1.15997E+07-2.82765E-02 6.73667E-04-6.21789E+04
 -1      1356-1.11574E+10 1.24062E+08 1.15997E+07-2.82765E-02 6.73667E-04-6.21789E+04
 -1      1365-8.83703E+09-2.54911E+07-1.71228E+09-2.59087E-05-1.39883E-02 8.40382E+08
 -1      1367-8.83703E+09-2.54911E+07-1.71228E+09-2.59087E-05-1.39883E-02 8.40382E+08
 -1      1368-1.10789E+10 1.17531E+08 1.08748E+07-1.33573E-02-4.28519E-03-1.11680E+07
 -1      1370-1.10789E+10 1.17531E+08 1.08748E+07-1.33573E-02-4.28519E-03-1.11680E+07
 -1      1379-8.33229E+09-2.25900E+07-1.49409E+09 4.85787E-04-1.63816E-02 2.27564E+09
 -1      1381-8.33229E+09-2.25900E+07-1.49409E+09 4.85787E-04-1.63816E-02 2.27564E+09
 -1      1382-1.04964E+10 1.02898E+08 9.62817E+06 1.40581E-02-6.24900E-03-2.13267E+07
 -1      1384-1.04964E+10 1.02898E+08 9.62817E+06 1.40581E-02-6.24900E-03-2.13267E+07
 -1      1393-7.46029E+09-1.78236E+07-1.16222E+09 8.34255E-04-1.51005E-02 3.46382E+09
 -1      1395-7.46029E+09-1.78236E+07-1.16222E+09 8.34255E-04-1.51005E-02 3.46382E+09
 -1      1396-9.47156E+09 8.00979E+07 7.31615E+06 6.24219E-03-4.94989E-03-2.95961E+07
 -1      1398-9.47156E+09 8.00979E+07 7.31615E+06 6.24219E-03-4.94989E-03-2.95961E+07
 -1      1407-6.29764E+09-1.20974E+07-7.36863E+08 9.43711E-04-1.54966E-02 4.31226E+09
 -1      1409-6.29764E+09-1.20974E+07-7.36863E+08 9.43711E-04-1.54966E-02 4.31226E+09
 -1      1410-8.09762E+09 5.11984E+07 4.81086E+06-1.56156E-02-6.01082E-03-3.54959E+07
 -1      1412-8.09762E+09 5.11984E+07 4.81086E+06-1.56156E-02-6.01082E-03-3.54959E+07
 -1      1421-4.94311E+09-4.87512E+06-2.41307E+08 1.12486E-03-1.85068E-02 4.74817E+09
 -1      1423-4.94311E+09-4.87512E+06-2.41307E+08 1.12486E-03-1.85068E-02 4.74817E+09
 -1      1424-6.49530E+09 1.81694E+07 1.35444E+06-8.27608E-03-9.19536E-03-3.83882E+07
 -1      1426-6.49530E+09 1.81694E+07 1.35444E+06-8.27608E-03-9.19536E-03-3.83882E+07
 -1      1435-3.51101E+09 2.02777E+06 2.91821E+08 1.29746E-03-2.18775E-02 4.71962E+09
 -1      1437-3.51101E+09 2.02777E+06 2.91821E+08 1.29746E-03-2.18775E-02 4.71962E+09
 -1      1438-4.80672E+09-1.83215E+07-1.65852E+06 1.87595E-02-1.15336E-02-3.76470E+07
 -1      1440-4.80672E+09-1.83215E+07-1.65852E+06 1.87595E-02-1.15336E-02-3.76470E+07
 -1      1449-2.12759E+09 1.04451E+07 8.43555E+08 1.16675E-03-2.41990E-02 4.21596E+09
 -1      1451-2.12759E+09 1.04451E+07 8.43555E+08 1.16675E-03-2.41990E-02 4.21596E+09
 -1      1452-3.17233E+09-6.45297E+07-5.75952E+06 3.24659E-02-1.27396E-02-3.40670E+07
 -1      1454-3.17233E+09-6.45297E+07-5.75952E+06 3.24659E-02-1.27396E-02-3.40670E+07
 -1      1463-9.42519E+08 1.64961E+07 1.36115E+09 1.20332E-03-2.72050E-02 3.22707E+09
 -1      1465-9.42519E+08 1.64961E+07 1.36115E+09 1.20332E-03-2.72050E-02 3.22707E+09
 -1      1466-1.76259E+09-5.22068E+07-8.32353E+06 2.07758E-02-1.47835E-02-2.42599E+07
 -1      1468-1.76259E+09-5.22068E+07-8.32353E+06 2.07758E-02-1.47835E-02-2.42599E+07
 -1      1477-1.43024E+08 2.25623E+07 1.77761E+09 9.95236E-04-2.82798E-02 1.80997E+09
 -1      1479-1.43024E+08 2.25623E+07 1.77761E+09 9.95236E-04-2.82798E-02 1.80997E+09
 -1      1480-7.71293E+08-1.09347E+08-1.09459E+07-4.08727E-03-1.51602E-02-1.60784E+07
 -1      1482-7.71293E+08-1.09347E+08-1.09459E+07-4.08727E-03-1.51602E-02-1.60784E+07
 -1      1491-1.96104E+07-3.06283E+05-1.32147E+09 9.64809E-04 1.12979E-02 1.03534E+09
 -1      1493-1.96104E+07-3.06283E+05-1.32147E+09 9.64809E-04 1.12979E-02 1.03534E+09
 -1      1494 2.54077E-03-2.09694E-03-1.03002E-01 1.18562E-03 3.34196E-03 1.05707E+09
 -1      1496 2.54077E-03-2.09694E-03-1.03002E-01 1.18562E-03 3.34196E-03 1.05707E+09
 -1      1497 1.96104E+07 3.06283E+05 1.32147E+09 4.00437E-04-1.35796E-02 1.03534E+09
 -1      1499 1.96104E+07 3.06283E+05 1.32147E+09 4.00437E-04-1.35796E-02 1.03534E+09
 -1      1500-4.70286E+09-1.59539E+08-9.52448E+04-5.20351E+08-5.16621E+07 2.48766E+08
 -1      1502-4.70286E+09-1.59539E+08-9.52448E+04-5.20351E+08-5.16621E+07 2.48766E+08
 -1      1503-2.34052E+09 1.15819E+08 1.79952E+06-5.00305E+08-3.54778E+07-2.55915E+07
 -1      1505-2.34052E+09 1.15819E+08 1.79952E+06-5.00305E+08-3.54778E+07-2.55915E+07
 -1      1506 2.57658E+08-5.10562E+07 2.91414E+06-6.19225E+08-4.40898E+07 8.33185E+07
 -1      1508 2.57658E+08-5.10562E+07 2.91414E+06-6.19225E+08-4.40898E+07 8.33185E+07
 -1      1509 2.67004E+09-1.66022E+07 4.02099E+06-4.66455E+08-5.93428E+07 3.03935E+07
 -1      1511 2.67004E+09-1.66022E+07 4.02099E+06-4.66455E+08-5.93428E+07 3.03935E+07
 -1      1512 4.57341E+09-2.44487E+07 4.24644E+06-3.70468E+08-6.36039E+07 3.38611E+07
 -1      1514 4.57341E+09-2.44487E+07 4.24644E+06-3.70468E+08-6.36039E+07 3.38611E+07
 -1      1515 5.95683E+09-2.81666E+07 5.13136E+06-2.48903E+08-7.27188E+07 1.75322E+07
 -1      1517 5.95683E+09-2.81666E+07 5.13136E+06-2.48903E+08-7.27188E+07 1.75322E+07
 -1      1518 6.75725E+09-2.89288E+07 4.92017E+06-1.17606E+08-7.37511E+07 3.09274E+06
 -1      1520 6.75725E+09-2.89288E+07 4.92017E+06-1.17606E+08-7.37511E+07 3.09274E+06
 -1      1521 6.94468E+09-2.84206E+07 5.20550E+06 1.38832E+07-7.48871E+07-9.31930E+06
 -1      1523 6.94468E+09-2.84206E+07 5.20550E+06 1.38832E+07-7.48871E+07-9.31930E+06
 -1      1524 6.53134E+09-2.65120E+07 4.50396E+06 1.39741E+08-7.16962E+07-2.42613E+07
 -1      1526 6.53134E+09-2.65120E+07 4.50396E+06 1.39741E+08-7.16962E+07-2.42613E+07
 -1      1527 5.55963E+09-2.28651E+07 4.21678E+06 2.52839E+08-6.66518E+07-3.48287E+07
 -1      1529 5.55963E+09-2.28651E+07 4.21678E+06 2.52839E+08-6.66518E+07-3.48287E+07
 -1      1530 4.10410E+09-1.81689E+07 3.10485E+06 3.47008E+08-5.94598E+07-4.54780E+07
 -1      1532 4.10410E+09-1.81689E+07 3.10485E+06 3.47008E+08-5.94598E+07-4.54780E+07
 -1      1533 2.26600E+09-1.23127E+07 2.37316E+06 4.17269E+08-5.04513E+07-5.16958E+07
 -1      1535 2.26600E+09-1.23127E+07 2.37316E+06 4.17269E+08-5.04513E+07-5.16958E+07
 -1      1536 1.67295E+08-5.97540E+06 1.05342E+06 4.59999E+08-4.07841E+07-5.58949E+07
 -1      1538 1.67295E+08-5.97540E+06 1.05342E+06 4.59999E+08-4.07841E+07-5.58949E+07
 -1      1539-2.05675E+09 7.10984E+05 1.13584E+05 4.73333E+08-3.02487E+07-5.58687E+07
 -1      1541-2.05675E+09 7.10984E+05 1.13584E+05 4.73333E+08-3.02487E+07-5.58687E+07
 -1      1542-4.26600E+09 7.12744E+06-1.15228E+06 4.57167E+08-2.03074E+07-5.29742E+07
 -1      1544-4.26600E+09 7.12744E+06-1.15228E+06 4.57167E+08-2.03074E+07-5.29742E+07
 -1      1545-6.32411E+09 1.30169E+07-2.01709E+06 4.13289E+08-1.06514E+07-4.64880E+07
 -1      1547-6.32411E+09 1.30169E+07-2.01709E+06 4.13289E+08-1.06514E+07-4.64880E+07
 -1      1548-8.10707E+09 1.79325E+07-2.96543E+06 3.45179E+08-2.60382E+06-3.74443E+07
 -1      1550-8.10707E+09 1.79325E+07-2.96543E+06 3.45179E+08-2.60382E+06-3.74443E+07
 -1      1551-9.51107E+09 2.15472E+07-3.50082E+06 2.57917E+08 4.26538E+06-2.60288E+07
 -1      1553-9.51107E+09 2.15472E+07-3.50082E+06 2.57917E+08 4.26538E+06-2.60288E+07
 -1      1554-1.04590E+10 2.37674E+07-3.92767E+06 1.57745E+08 8.94192E+06-1.32370E+07
 -1      1556-1.04590E+10 2.37674E+07-3.92767E+06 1.57745E+08 8.94192E+06-1.32370E+07
 -1      1557-1.09056E+10 2.41113E+07-3.97213E+06 5.18766E+07 1.21143E+07 2.27226E+05
 -1      1559-1.09056E+10 2.41113E+07-3.97213E+06 5.18766E+07 1.21143E+07 2.27226E+05
 -1      1560-1.08403E+10 2.31743E+07-3.78372E+06-5.22061E+07 1.31529E+07 1.34016E+07
 -1      1562-1.08403E+10 2.31743E+07-3.78372E+06-5.22061E+07 1.31529E+07 1.34016E+07
 -1      1563-1.02885E+10 1.98829E+07-3.30699E+06-1.46782E+08 1.30780E+07 2.53901E+07
 -1      1565-1.02885E+10 1.98829E+07-3.30699E+06-1.46782E+08 1.30780E+07 2.53901E+07
 -1      1566-9.30981E+09 1.63461E+07-2.54698E+06-2.25079E+08 1.17351E+07 3.53262E+07
 -1      1568-9.30981E+09 1.63461E+07-2.54698E+06-2.25079E+08 1.17351E+07 3.53262E+07
 -1      1569-7.99581E+09 9.45539E+06-1.65066E+06-2.80349E+08 1.03374E+07 4.25816E+07
 -1      1571-7.99581E+09 9.45539E+06-1.65066E+06-2.80349E+08 1.03374E+07 4.25816E+07
 -1      1572-6.46263E+09 5.22274E+06-4.99121E+05-3.08577E+08 9.45510E+06 4.59691E+07
 -1      1574-6.46263E+09 5.22274E+06-4.99121E+05-3.08577E+08 9.45510E+06 4.59691E+07
 -1      1575-4.84528E+09-4.47651E+06 6.00150E+05-3.07284E+08 9.93114E+06 4.67805E+07
 -1      1577-4.84528E+09-4.47651E+06 6.00150E+05-3.07284E+08 9.93114E+06 4.67805E+07
 -1      1578-3.29976E+09-1.15008E+07 1.93542E+06-2.64214E+08 1.34670E+07 4.00273E+07
 -1      1580-3.29976E+09-1.15008E+07 1.93542E+06-2.64214E+08 1.34670E+07 4.00273E+07
 -1      1581-1.94782E+09-6.14680E+06 2.83359E+06-2.19652E+08 1.91283E+07 3.76113E+07
 -1      1583-1.94782E+09-6.14680E+06 2.83359E+06-2.19652E+08 1.91283E+07 3.76113E+07
 -1      1584-8.43796E+08-2.22361E+07 3.77675E+06-1.53250E+08 2.74529E+07 1.12698E+07
 -1      1586-8.43796E+08-2.22361E+07 3.77675E+06-1.53250E+08 2.74529E+07 1.12698E+07
 -1      1587-3.80214E+08-1.22625E+08-4.59170E+06-2.01874E+08-2.28816E+08-1.74909E+07
 -1      1589-3.80214E+08-1.22625E+08-4.59170E+06-2.01874E+08-2.28816E+08-1.74909E+07
 -1      1590-6.58154E+09-7.40116E+08 1.56798E+06-1.08966E+09 1.16720E+08 5.13587E+08
 -1      1592-6.58154E+09-7.40116E+08 1.56798E+06-1.08966E+09 1.16720E+08 5.13587E+08
 -1      1593-3.80214E+08-1.22625E+08-4.59170E+06 2.01874E+08 2.28816E+08-1.74909E+07
 -1      1595-3.80214E+08-1.22625E+08-4.59170E+06 2.01874E+08 2.28816E+08-1.74909E+07
 -1      1596-4.70286E+09-1.59539E+08-9.52448E+04 5.20351E+08 5.16621E+07 2.48766E+08
 -1      1598-4.70286E+09-1.59539E+08-9.52448E+04 5.20351E+08 5.16621E+07 2.48766E+08
 -1      1599-2.34052E+09 1.15819E+08 1.79952E+06 5.00305E+08 3.54778E+07-2.55915E+07
 -1      1601-2.34052E+09 1.15819E+08 1.79952E+06 5.00305E+08 3.54778E+07-2.55915E+07
 -1      1602 2.57658E+08-5.10562E+07 2.91414E+06 6.19225E+08 4.40898E+07 8.33185E+07
 -1      1604 2.57658E+08-5.10562E+07 2.91414E+06 6.19225E+08 4.40898E+07 8.33185E+07
 -1      1605 2.67004E+09-1.66022E+07 4.02099E+06 4.66455E+08 5.93428E+07 3.03935E+07
 -1      1607 2.67004E+09-1.66022E+07 4.02099E+06 4.66455E+08 5.93428E+07 3.03935E+07
 -1      1608 4.57341E+09-2.44487E+07 4.24644E+06 3.70468E+08 6.36039E+07 3.38611E+07
 -1      1610 4.57341E+09-2.44487E+07 4.24644E+06 3.70468E+08 6.36039E+07 3.38611E+07
 -1      1611 5.95683E+09-2.81666E+07 5.13136E+06 2.48903E+08 7.27188E+07 1.75322E+07
 -1      1613 5.95683E+09-2.81666E+07 5.13136E+06 2.48903E+08 7.27188E+07 1.75322E+07
 -1      1614 6.75725E+09-2.89288E+07 4.92017E+06 1.17606E+08 7.37511E+07 3.09274E+06
 -1      1616 6.75725E+09-2.89288E+07 4.92017E+06 1.17606E+08 7.37511E+07 3.09274E+06
 -1      1617 6.94468E+09-2.84206E+07 5.20550E+06-1.38832E+07 7.48871E+07-9.31930E+06
 -1      1619 6.94468E+09-2.84206E+07 5.20550E+06-1.38832E+07 7.48871E+07-9.31930E+06
 -1      1620 6.53134E+09-2.65120E+07 4.50396E+06-1.39741E+08 7.16962E+07-2.42613E+07
 -1      1622 6.53134E+09-2.65120E+07 4.50396E+06-1.39741E+08 7.16962E+07-2.42613E+07
 -1      1623 5.55963E+09-2.28651E+07 4.21678E+06-2.52839E+08 6.66518E+07-3.48287E+07
 -1      1625 5.55963E+09-2.28651E+07 4.21678E+06-2.52839E+08 6.66518E+07-3.48287E+07
 -1      1626 4.10410E+09-1.81689E+07 3.10485E+06-3.47008E+08 5.94598E+07-4.54780E+07
 -1      1628 4.10410E+09-1.81689E+07 3.10485E+06-3.47008E+08 5.94598E+07-4.54780E+07
 -1      1629 2.26600E+09-1.23127E+07 2.37316E+06-4.17269E+08 5.04513E+07-5.16958E+07
 -1      1631 2.26600E+09-1.23127E+07 2.37316E+06-4.17269E+08 5.04513E+07-5.16958E+07
 -1      1632 1.67295E+08-5.97540E+06 1.05342E+06-4.59999E+08 4.07841E+07-5.58949E+07
 -1      1634 1.67295E+08-5.97540E+06 1.05342E+06-4.59999E+08 4.07841E+07-5.58949E+07
 -1      1635-2.05675E+09 7.10984E+05 1.13584E+05-4.73333E+08 3.02487E+07-5.58687E+07
 -1      1637-2.05675E+09 7.10984E+05 1.13584E+05-4.73333E+08 3.02487E+07-5.58687E+07
 -1      1638-4.26600E+09 7.12744E+06-1.15228E+06-4.57167E+08 2.03074E+07-5.29742E+07
 -1      1640-4.26600E+09 7.12744E+06-1.15228E+06-4.57167E+08 2.03074E+07-5.29742E+07
 -1      1641-6.32411E+09 1.30169E+07-2.01709E+06-4.13289E+08 1.06514E+07-4.64880E+07
 -1      1643-6.32411E+09 1.30169E+07-2.01709E+06-4.13289E+08 1.06514E+07-4.64880E+07
 -1      1644-8.10707E+09 1.79325E+07-2.96543E+06-3.45179E+08 2.60382E+06-3.74443E+07
 -1      1646-8.10707E+09 1.79325E+07-2.96543E+06-3.45179E+08 2.60382E+06-3.74443E+07
 -1      1647-9.51107E+09 2.15472E+07-3.50082E+06-2.57917E+08-4.26538E+06-2.60288E+07
 -1      1649-9.51107E+09 2.15472E+07-3.50082E+06-2.57917E+08-4.26538E+06-2.60288E+07
 -1      1650-1.04590E+10 2.37674E+07-3.92767E+06-1.57745E+08-8.94192E+06-1.32370E+07
 -1      1652-1.04590E+10 2.37674E+07-3.92767E+06-1.57745E+08-8.94192E+06-1.32370E+07
 -1      1653-1.09056E+10 2.41113E+07-3.97213E+06-5.18766E+07-1.21143E+07 2.27226E+05
 -1      1655-1.09056E+10 2.41113E+07-3.97213E+06-5.18766E+07-1.21143E+07 2.27226E+05
 -1      1656-1.08403E+10 2.31743E+07-3.78372E+06 5.22061E+07-1.31529E+07 1.34016E+07
 -1      1658-1.08403E+10 2.31743E+07-3.78372E+06 5.22061E+07-1.31529E+07 1.34016E+07
 -1      1659-1.02885E+10 1.98829E+07-3.30699E+06 1.46782E+08-1.30780E+07 2.53901E+07
 -1      1661-1.02885E+10 1.98829E+07-3.30699E+06 1.46782E+08-1.30780E+07 2.53901E+07
 -1      1662-9.30981E+09 1.63461E+07-2.54698E+06 2.25079E+08-1.17351E+07 3.53262E+07
 -1      1664-9.30981E+09 1.63461E+07-2.54698E+06 2.25079E+08-1.17351E+07 3.53262E+07
 -1      1665-7.99581E+09 9.45539E+06-1.65066E+06 2.80349E+08-1.03374E+07 4.25816E+07
 -1      1667-7.99581E+09 9.45539E+06-1.65066E+06 2.80349E+08-1.03374E+07 4.25816E+07
 -1      1668-6.46263E+09 5.22274E+06-4.99121E+05 3.08577E+08-9.45510E+06 4.59691E+07
 -1      1670-6.46263E+09 5.22274E+06-4.99121E+05 3.08577E+08-9.45510E+06 4.59691E+07
 -1      1671-4.84528E+09-4.47651E+06 6.00150E+05 3.07284E+08-9.93114E+06 4.67805E+07
 -1      1673-4.84528E+09-4.47651E+06 6.00150E+05 3.07284E+08-9.93114E+06 4.67805E+07
 -1      1674-3.29976E+09-1.15008E+07 1.93542E+06 2.64214E+08-1.34670E+07 4.00273E+07
 -1      1676-3.29976E+09-1.15008E+07 1.93542E+06 2.64214E+08-1.34670E+07 4.00273E+07
 -1      1677-1.94782E+09-6.14680E+06 2.83359E+06 2.19652E+08-1.91283E+07 3.76113E+07
 -1      1679-1.94782E+09-6.14680E+06 2.83359E+06 2.19652E+08-1.91283E+07 3.76113E+07
 -1      1680-8.43796E+08-2.22361E+07 3.77675E+06 1.53250E+08-2.74529E+07 1.12698E+07
 -1      1682-8.43796E+08-2.22361E+07 3.77675E+06 1.53250E+08-2.74529E+07 1.12698E+07
 -1      1683-6.58154E+09-7.40116E+08 1.56798E+06 1.08966E+09-1.16720E+08 5.13587E+08
 -1      1685-6.58154E+09-7.40116E+08 1.56798E+06 1.08966E+09-1.16720E+08 5.13587E+08
 -1      1686 5.16984E+09 1.64804E+08-2.63198E+06-1.09090E+09-4.59279E+06 1.39827E+08
 -1      1688 5.16984E+09 1.64804E+08-2.63198E+06-1.09090E+09-4.59279E+06 1.39827E+08
 -1      1689 2.32198E+09-1.54939E+08 2.46734E+06-1.17527E+09 1.55720E+08-6.26730E+07
 -1      1691 2.32198E+09-1.54939E+08 2.46734E+06-1.17527E+09 1.55720E+08-6.26730E+07
 -1      1692-3.91890E+08 9.01891E+07 3.27817E+06-1.16486E+09 2.09834E+08 3.26672E+07
 -1      1694-3.91890E+08 9.01891E+07 3.27817E+06-1.16486E+09 2.09834E+08 3.26672E+07
 -1      1695-2.77056E+09 6.90297E+07 3.16574E+06-9.60298E+08 2.71428E+08-9.90519E+06
 -1      1697-2.77056E+09 6.90297E+07 3.16574E+06-9.60298E+08 2.71428E+08-9.90519E+06
 -1      1698-4.71035E+09 7.29968E+07 4.63686E+06-7.40739E+08 3.24071E+08 7.95564E+06
 -1      1700-4.71035E+09 7.29968E+07 4.63686E+06-7.40739E+08 3.24071E+08 7.95564E+06
 -1      1701-6.10659E+09 8.85044E+07 4.39885E+06-5.00366E+08 3.49721E+08-1.12460E+06
 -1      1703-6.10659E+09 8.85044E+07 4.39885E+06-5.00366E+08 3.49721E+08-1.12460E+06
 -1      1704-6.91217E+09 8.95972E+07 5.11078E+06-2.35390E+08 3.68108E+08 1.50849E+06
 -1      1706-6.91217E+09 8.95972E+07 5.11078E+06-2.35390E+08 3.68108E+08 1.50849E+06
 -1      1707-7.09720E+09 8.85416E+07 4.59249E+06 2.93580E+07 3.59402E+08-1.13170E+06
 -1      1709-7.09720E+09 8.85416E+07 4.59249E+06 2.93580E+07 3.59402E+08-1.13170E+06
 -1      1710-6.67277E+09 8.21903E+07 4.61080E+06 2.82944E+08 3.38556E+08-1.35004E+06
 -1      1712-6.67277E+09 8.21903E+07 4.61080E+06 2.82944E+08 3.38556E+08-1.35004E+06
 -1      1713-5.68228E+09 7.11783E+07 3.74127E+06 5.10712E+08 2.96279E+08-2.59422E+06
 -1      1715-5.68228E+09 7.11783E+07 3.74127E+06 5.10712E+08 2.96279E+08-2.59422E+06
 -1      1716-4.20129E+09 5.64184E+07 3.20135E+06 7.00397E+08 2.42584E+08-3.12150E+06
 -1      1718-4.20129E+09 5.64184E+07 3.20135E+06 7.00397E+08 2.42584E+08-3.12150E+06
 -1      1719-2.33259E+09 3.85048E+07 2.05800E+06 8.41837E+08 1.75501E+08-3.75240E+06
 -1      1721-2.33259E+09 3.85048E+07 2.05800E+06 8.41837E+08 1.75501E+08-3.75240E+06
 -1      1722-2.00006E+08 1.87822E+07 1.19011E+06 9.27804E+08 1.02822E+08-3.97340E+06
 -1      1724-2.00006E+08 1.87822E+07 1.19011E+06 9.27804E+08 1.02822E+08-3.97340E+06
 -1      1725 2.05910E+09-1.74192E+06-3.56662E+04 9.54467E+08 2.63808E+07-4.05709E+06
 -1      1727 2.05910E+09-1.74192E+06-3.56662E+04 9.54467E+08 2.63808E+07-4.05709E+06
 -1      1728 4.30243E+09-2.16165E+07-9.53853E+05 9.21672E+08-4.72066E+07-3.81070E+06
 -1      1730 4.30243E+09-2.16165E+07-9.53853E+05 9.21672E+08-4.72066E+07-3.81070E+06
 -1      1731 6.39148E+09-3.97420E+07-2.01805E+06 8.32961E+08-1.14846E+08-3.38137E+06
 -1      1733 6.39148E+09-3.97420E+07-2.01805E+06 8.32961E+08-1.14846E+08-3.38137E+06
 -1      1734 8.20032E+09-5.48588E+07-2.71448E+06 6.95413E+08-1.71241E+08-2.69590E+06
 -1      1736 8.20032E+09-5.48588E+07-2.71448E+06 6.95413E+08-1.71241E+08-2.69590E+06
 -1      1737 9.62344E+09-6.60866E+07-3.39380E+06 5.19183E+08-2.13883E+08-1.87977E+06
 -1      1739 9.62344E+09-6.60866E+07-3.39380E+06 5.19183E+08-2.13883E+08-1.87977E+06
 -1      1740 1.05825E+10-7.26477E+07-3.65885E+06 3.16975E+08-2.39308E+08-9.06862E+05
 -1      1742 1.05825E+10-7.26477E+07-3.65885E+06 3.16975E+08-2.39308E+08-9.06862E+05
 -1      1743 1.10315E+10-7.40868E+07-3.81377E+06 1.03150E+08-2.46885E+08 8.25235E+04
 -1      1745 1.10315E+10-7.40868E+07-3.81377E+06 1.03150E+08-2.46885E+08 8.25235E+04
 -1      1746 1.09596E+10-7.03527E+07-3.54553E+06-1.06928E+08-2.35305E+08 1.11679E+06
 -1      1748 1.09596E+10-7.03527E+07-3.54553E+06-1.06928E+08-2.35305E+08 1.11679E+06
 -1      1749 1.03924E+10-6.13906E+07-3.16059E+06-2.98139E+08-2.06577E+08 2.03169E+06
 -1      1751 1.03924E+10-6.13906E+07-3.16059E+06-2.98139E+08-2.06577E+08 2.03169E+06
 -1      1752 9.39068E+09-4.82220E+07-2.38459E+06-4.56123E+08-1.61318E+08 2.86505E+06
 -1      1754 9.39068E+09-4.82220E+07-2.38459E+06-4.56123E+08-1.61318E+08 2.86505E+06
 -1      1755 8.04671E+09-3.03269E+07-1.58010E+06-5.68328E+08-1.04481E+08 3.54287E+06
 -1      1757 8.04671E+09-3.03269E+07-1.58010E+06-5.68328E+08-1.04481E+08 3.54287E+06
 -1      1758 6.47896E+09-1.16961E+07-4.27660E+05-6.25674E+08-3.77059E+07 3.79045E+06
 -1      1760 6.47896E+09-1.16961E+07-4.27660E+05-6.25674E+08-3.77059E+07 3.79045E+06
 -1      1761 4.82600E+09 1.13990E+07 5.29185E+05-6.20887E+08 3.12260E+07 4.56676E+06
 -1      1763 4.82600E+09 1.13990E+07 5.29185E+05-6.20887E+08 3.12260E+07 4.56676E+06
 -1      1764 3.23604E+09 3.80152E+07 1.91205E+06-5.46078E+08 1.00558E+08 2.98011E+06
 -1      1766 3.23604E+09 3.80152E+07 1.91205E+06-5.46078E+08 1.00558E+08 2.98011E+06
 -1      1767 1.85521E+09 2.91768E+07 2.74497E+06-4.30048E+08 1.61147E+08 6.67569E+06
 -1      1769 1.85521E+09 2.91768E+07 2.74497E+06-4.30048E+08 1.61147E+08 6.67569E+06
 -1      1770 8.07544E+08 6.57916E+07 3.58455E+06-2.85946E+08 2.06325E+08-2.40432E+06
 -1      1772 8.07544E+08 6.57916E+07 3.58455E+06-2.85946E+08 2.06325E+08-2.40432E+06
 -1      1773 5.16984E+09 1.64804E+08-2.63198E+06 1.09090E+09 4.59279E+06 1.39827E+08
 -1      1775 5.16984E+09 1.64804E+08-2.63198E+06 1.09090E+09 4.59279E+06 1.39827E+08
 -1      1776 2.32198E+09-1.54939E+08 2.46734E+06 1.17527E+09-1.55720E+08-6.26730E+07
 -1      1778 2.32198E+09-1.54939E+08 2.46734E+06 1.17527E+09-1.55720E+08-6.26730E+07
 -1      1779-3.91890E+08 9.01891E+07 3.27817E+06 1.16486E+09-2.09834E+08 3.26672E+07
 -1      1781-3.91890E+08 9.01891E+07 3.27817E+06 1.16486E+09-2.09834E+08 3.26672E+07
 -1      1782-2.77056E+09 6.90297E+07 3.16574E+06 9.60298E+08-2.71428E+08-9.90519E+06
 -1      1784-2.77056E+09 6.90297E+07 3.16574E+06 9.60298E+08-2.71428E+08-9.90519E+06
 -1      1785-4.71035E+09 7.29968E+07 4.63686E+06 7.40739E+08-3.24071E+08 7.95564E+06
 -1      1787-4.71035E+09 7.29968E+07 4.63686E+06 7.40739E+08-3.24071E+08 7.95564E+06
 -1      1788-6.10659E+09 8.85044E+07 4.39885E+06 5.00366E+08-3.49721E+08-1.12460E+06
 -1      1790-6.10659E+09 8.85044E+07 4.39885E+06 5.00366E+08-3.49721E+08-1.12460E+06
 -1      1791-6.91217E+09 8.95972E+07 5.11078E+06 2.35390E+08-3.68108E+08 1.50849E+06
 -1      1793-6.91217E+09 8.95972E+07 5.11078E+06 2.35390E+08-3.68108E+08 1.50849E+06
 -1      1794-7.09720E+09 8.85416E+07 4.59249E+06-2.93580E+07-3.59402E+08-1.13170E+06
 -1      1796-7.09720E+09 8.85416E+07 4.59249E+06-2.93580E+07-3.59402E+08-1.13170E+06
 -1      1797-6.67277E+09 8.21903E+07 4.61080E+06-2.82944E+08-3.38556E+08-1.35004E+06
 -1      1799-6.67277E+09 8.21903E+07 4.61080E+06-2.82944E+08-3.38556E+08-1.35004E+06
 -1      1800-5.68228E+09 7.11783E+07 3.74127E+06-5.10712E+08-2.96279E+08-2.59422E+06
 -1      1802-5.68228E+09 7.11783E+07 3.74127E+06-5.10712E+08-2.96279E+08-2.59422E+06
 -1      1803-4.20129E+09 5.64184E+07 3.20135E+06-7.00397E+08-2.42584E+08-3.12150E+06
 -1      1805-4.20129E+09 5.64184E+07 3.20135E+06-7.00397E+08-2.42584E+08-3.12150E+06
 -1      1806-2.33259E+09 3.85048E+07 2.05800E+06-8.41837E+08-1.75501E+08-3.75240E+06
 -1      1808-2.33259E+09 3.85048E+07 2.05800E+06-8.41837E+08-1.75501E+08-3.75240E+06
 -1      1809-2.00006E+08 1.87822E+07 1.19011E+06-9.27804E+08-1.02822E+08-3.97340E+06
 -1      1811-2.00006E+08 1.87822E+07 1.19011E+06-9.27804E+08-1.02822E+08-3.97340E+06
 -1      1812 2.05910E+09-1.74192E+06-3.56662E+04-9.54467E+08-2.63808E+07-4.05709E+06
 -1      1814 2.05910E+09-1.74192E+06-3.56662E+04-9.54467E+08-2.63808E+07-4.05709E+06
 -1      1815 4.30243E+09-2.16165E+07-9.53853E+05-9.21672E+08 4.72066E+07-3.81070E+06
 -1      1817 4.30243E+09-2.16165E+07-9.53853E+05-9.21672E+08 4.72066E+07-3.81070E+06
 -1      1818 6.39148E+09-3.97420E+07-2.01805E+06-8.32961E+08 1.14846E+08-3.38137E+06
 -1      1820 6.39148E+09-3.97420E+07-2.01805E+06-8.32961E+08 1.14846E+08-3.38137E+06
 -1      1821 8.20032E+09-5.48588E+07-2.71448E+06-6.95413E+08 1.71241E+08-2.69590E+06
 -1      1823 8.20032E+09-5.48588E+07-2.71448E+06-6.95413E+08 1.71241E+08-2.69590E+06
 -1      1824 9.62344E+09-6.60866E+07-3.39380E+06-5.19183E+08 2.13883E+08-1.87977E+06
 -1      1826 9.62344E+09-6.60866E+07-3.39380E+06-5.19183E+08 2.13883E+08-1.87977E+06
 -1      1827 1.05825E+10-7.26477E+07-3.65885E+06-3.16975E+08 2.39308E+08-9.06862E+05
 -1      1829 1.05825E+10-7.26477E+07-3.65885E+06-3.16975E+08 2.39308E+08-9.06862E+05
 -1      1830 1.10315E+10-7.40868E+07-3.81377E+06-1.03150E+08 2.46885E+08 8.25235E+04
 -1      1832 1.10315E+10-7.40868E+07-3.81377E+06-1.03150E+08 2.46885E+08 8.25235E+04
 -1      1833 1.09596E+10-7.03527E+07-3.54553E+06 1.06928E+08 2.35305E+08 1.11679E+06
 -1      1835 1.09596E+10-7.03527E+07-3.54553E+06 1.06928E+08 2.35305E+08 1.11679E+06
 -1      1836 1.03924E+10-6.13906E+07-3.16059E+06 2.98139E+08 2.06577E+08 2.03169E+06
 -1      1838 1.03924E+10-6.13906E+07-3.16059E+06 2.98139E+08 2.06577E+08 2.03169E+06
 -1      1839 9.39068E+09-4.82220E+07-2.38459E+06 4.56123E+08 1.61318E+08 2.86505E+06
 -1      1841 9.39068E+09-4.82220E+07-2.38459E+06 4.56123E+08 1.61318E+08 2.86505E+06
 -1      1842 8.04671E+09-3.03269E+07-1.58010E+06 5.68328E+08 1.04481E+08 3.54287E+06
 -1      1844 8.04671E+09-3.03269E+07-1.58010E+06 5.68328E+08 1.04481E+08 3.54287E+06
 -1      1845 6.47896E+09-1.16961E+07-4.27660E+05 6.25674E+08 3.77059E+07 3.79045E+06
 -1      1847 6.47896E+09-1.16961E+07-4.27660E+05 6.25674E+08 3.77059E+07 3.79045E+06
 -1      1848 4.82600E+09 1.13990E+07 5.29185E+05 6.20887E+08-3.12260E+07 4.56676E+06
 -1      1850 4.82600E+09 1.13990E+07 5.29185E+05 6.20887E+08-3.12260E+07 4.56676E+06
 -1      1851 3.23604E+09 3.80152E+07 1.91205E+06 5.46078E+08-1.00558E+08 2.98011E+06
 -1      1853 3.23604E+09 3.80152E+07 1.91205E+06 5.46078E+08-1.00558E+08 2.98011E+06
 -1      1854 1.85521E+09 2.91768E+07 2.74497E+06 4.30048E+08-1.61147E+08 6.67569E+06
 -1      1856 1.85521E+09 2.91768E+07 2.74497E+06 4.30048E+08-1.61147E+08 6.67569E+06
 -1      1857 8.07544E+08 6.57916E+07 3.58455E+06 2.85946E+08-2.06325E+08-2.40432E+06
 -1      1859 8.07544E+08 6.57916E+07 3.58455E+06 2.85946E+08-2.06325E+08-2.40432E+06
 -1      1860 2.68164E+09 2.46868E+05 5.46476E+08 3.00212E-03 1.39230E-03 1.05481E+10
 -1      1862 2.68164E+09 2.46868E+05 5.46476E+08 3.00212E-03 1.39230E-03 1.05481E+10
 -1      1863 1.08448E+09 8.79526E+04-4.99897E+08-1.87909E-03 3.33296E-03 1.02243E+10
 -1      1865 1.08448E+09 8.79526E+04-4.99897E+08-1.87909E-03 3.33296E-03 1.02243E+10
 -1      1866-4.44726E+08-2.74818E+05-9.74494E+08 3.58913E-04 4.68771E-03 9.05651E+09
 -1      1868-4.44726E+08-2.74818E+05-9.74494E+08 3.58913E-04 4.68771E-03 9.05651E+09
 -1      1869-1.75226E+09-1.10581E+05-1.16513E+09-1.08177E-04 6.52444E-03 7.69761E+09
 -1      1871-1.75226E+09-1.10581E+05-1.16513E+09-1.08177E-04 6.52444E-03 7.69761E+09
 -1      1872-2.78240E+09-2.55877E+05-1.38680E+09 7.17922E-05 8.04674E-03 5.93153E+09
 -1      1874-2.78240E+09-2.55877E+05-1.38680E+09 7.17922E-05 8.04674E-03 5.93153E+09
 -1      1875-3.53024E+09-1.83340E+05-1.51295E+09-4.79999E-04 9.31412E-03 3.96639E+09
 -1      1877-3.53024E+09-1.83340E+05-1.51295E+09-4.79999E-04 9.31412E-03 3.96639E+09
 -1      1878-3.94894E+09-2.96738E+05-1.57491E+09 2.00007E-04 1.10700E-02 1.85040E+09
 -1      1880-3.94894E+09-2.96738E+05-1.57491E+09 2.00007E-04 1.10700E-02 1.85040E+09
 -1      1881-4.03379E+09-1.84894E+05-1.54680E+09-4.11366E-04 1.28560E-02-2.79489E+08
 -1      1883-4.03379E+09-1.84894E+05-1.54680E+09-4.11366E-04 1.28560E-02-2.79489E+08
 -1      1884-3.78712E+09-2.76675E+05-1.43846E+09-5.22819E-04 1.44326E-02-2.31780E+09
 -1      1886-3.78712E+09-2.76675E+05-1.43846E+09-5.22819E-04 1.44326E-02-2.31780E+09
 -1      1887-3.23365E+09-1.43729E+05-1.25147E+09-3.35623E-04 1.55300E-02-4.14779E+09
 -1      1889-3.23365E+09-1.43729E+05-1.25147E+09-3.35623E-04 1.55300E-02-4.14779E+09
 -1      1890-2.41423E+09-1.99334E+05-9.98749E+08-7.45553E-05 1.53192E-02-5.67163E+09
 -1      1892-2.41423E+09-1.99334E+05-9.98749E+08-7.45553E-05 1.53192E-02-5.67163E+09
 -1      1893-1.38510E+09-6.39902E+04-6.94535E+08 4.33005E-04 1.40468E-02-6.80611E+09
 -1      1895-1.38510E+09-6.39902E+04-6.94535E+08 4.33005E-04 1.40468E-02-6.80611E+09
 -1      1896-2.13927E+08-8.78421E+04-3.57901E+08 5.55324E-04 1.32295E-02-7.49343E+09
 -1      1898-2.13927E+08-8.78421E+04-3.57901E+08 5.55324E-04 1.32295E-02-7.49343E+09
 -1      1899 1.02417E+09 3.76105E+04-9.26969E+06-6.33878E-04 1.24423E-02-7.70216E+09
 -1      1901 1.02417E+09 3.76105E+04-9.26969E+06-6.33878E-04 1.24423E-02-7.70216E+09
 -1      1902 2.25129E+09 2.99137E+04 3.29536E+08-2.34769E-04 1.22216E-02-7.43116E+09
 -1      1904 2.25129E+09 2.99137E+04 3.29536E+08-2.34769E-04 1.22216E-02-7.43116E+09
 -1      1905 3.39163E+09 1.35903E+05 6.37522E+08-2.28922E-04 1.30018E-02-6.70878E+09
 -1      1907 3.39163E+09 1.35903E+05 6.37522E+08-2.28922E-04 1.30018E-02-6.70878E+09
 -1      1908 4.37616E+09 1.26029E+05 8.95223E+08-1.29727E-04 1.36234E-02-5.59207E+09
 -1      1910 4.37616E+09 1.26029E+05 8.95223E+08-1.29727E-04 1.36234E-02-5.59207E+09
 -1      1911 5.14709E+09 2.05554E+05 1.08639E+09 4.40622E-04 1.39542E-02-4.16289E+09
 -1      1913 5.14709E+09 2.05554E+05 1.08639E+09 4.40622E-04 1.39542E-02-4.16289E+09
 -1      1914 5.66136E+09 1.77948E+05 1.19864E+09 6.80210E-04 1.41746E-02-2.52349E+09
 -1      1916 5.66136E+09 1.77948E+05 1.19864E+09 6.80210E-04 1.41746E-02-2.52349E+09
 -1      1917 5.89368E+09 2.28189E+05 1.22453E+09 1.36319E-04 1.33519E-02-7.89963E+08
 -1      1919 5.89368E+09 2.28189E+05 1.22453E+09 1.36319E-04 1.33519E-02-7.89963E+08
 -1      1920 5.83790E+09 1.73709E+05 1.16178E+09 5.00196E-04 1.21359E-02 9.14372E+08
 -1      1922 5.83790E+09 1.73709E+05 1.16178E+09 5.00196E-04 1.21359E-02 9.14372E+08
 -1      1923 5.50792E+09 1.96801E+05 1.01368E+09 8.66687E-04 1.12940E-02 2.46686E+09
 -1      1925 5.50792E+09 1.96801E+05 1.01368E+09 8.66687E-04 1.12940E-02 2.46686E+09
 -1      1926 4.93661E+09 1.15513E+05 7.88511E+08 2.99213E-04 1.02934E-02 3.75238E+09
 -1      1928 4.93661E+09 1.15513E+05 7.88511E+08 2.99213E-04 1.02934E-02 3.75238E+09
 -1      1929 4.17432E+09 1.16477E+05 4.99733E+08-3.66785E-05 9.12493E-03 4.67069E+09
 -1      1931 4.17432E+09 1.16477E+05 4.99733E+08-3.66785E-05 9.12493E-03 4.67069E+09
 -1      1932 3.28640E+09 2.07503E+04 1.63594E+08 3.81428E-05 8.17924E-03 5.14251E+09
 -1      1934 3.28640E+09 2.07503E+04 1.63594E+08 3.81428E-05 8.17924E-03 5.14251E+09
 -1      1935 2.34809E+09 1.86617E+03-1.99408E+08 7.20668E-05 7.24958E-03 5.11219E+09
 -1      1937 2.34809E+09 1.86617E+03-1.99408E+08 7.20668E-05 7.24958E-03 5.11219E+09
 -1      1938 1.44620E+09-8.24643E+04-5.74968E+08-3.20246E-04 7.13064E-03 4.55789E+09
 -1      1940 1.44620E+09-8.24643E+04-5.74968E+08-3.20246E-04 7.13064E-03 4.55789E+09
 -1      1941 6.79210E+08-1.41378E+05-9.28042E+08-5.12232E-04 6.87980E-03 3.47276E+09
 -1      1943 6.79210E+08-1.41378E+05-9.28042E+08-5.12232E-04 6.87980E-03 3.47276E+09
 -1      1944 1.61314E+08-1.15853E+05-1.20608E+09-3.38520E-04 8.68153E-03 1.91560E+09
 -1      1946 1.61314E+08-1.15853E+05-1.20608E+09-3.38520E-04 8.68153E-03 1.91560E+09
 -1      1947-4.94883E-02-1.44988E-05-4.20999E-02 5.56577E-03-3.22780E-04 1.10405E+10
 -1      1949-4.94883E-02-1.44988E-05-4.20999E-02 5.56577E-03-3.22780E-04 1.10405E+10
 -1      1950-4.40204E-02 1.24983E-04-3.72636E-02-1.88443E-03-1.64989E-03 1.09467E+10
 -1      1952-4.40204E-02 1.24983E-04-3.72636E-02-1.88443E-03-1.64989E-03 1.09467E+10
 -1      1953-4.82424E-02-9.19476E-05 1.64002E-03 1.73885E-03-2.15595E-03 9.80664E+09
 -1      1955-4.82424E-02-9.19476E-05 1.64002E-03 1.73885E-03-2.15595E-03 9.80664E+09
 -1      1956-5.44731E-02-5.72607E-04 4.38626E-02 1.20029E-03-1.96869E-03 8.25342E+09
 -1      1958-5.44731E-02-5.72607E-04 4.38626E-02 1.20029E-03-1.96869E-03 8.25342E+09
 -1      1959-6.13607E-02-8.40068E-04 5.30178E-02 1.45571E-03-1.32420E-03 6.37789E+09
 -1      1961-6.13607E-02-8.40068E-04 5.30178E-02 1.45571E-03-1.32420E-03 6.37789E+09
 -1      1962-5.96056E-02 2.20805E-04 2.36469E-02 7.94971E-04-1.95281E-04 4.25351E+09
 -1      1964-5.96056E-02 2.20805E-04 2.36469E-02 7.94971E-04-1.95281E-04 4.25351E+09
 -1      1965-4.88820E-02 5.53370E-04-2.22566E-02 1.57624E-03 7.80741E-04 1.98491E+09
 -1      1967-4.88820E-02 5.53370E-04-2.22566E-02 1.57624E-03 7.80741E-04 1.98491E+09
 -1      1968-4.80784E-02-4.81367E-04-4.48727E-02 1.68477E-04 1.18955E-03-3.05997E+08
 -1      1970-4.80784E-02-4.81367E-04-4.48727E-02 1.68477E-04 1.18955E-03-3.05997E+08
 -1      1971-6.09263E-02-1.26389E-03-3.13272E-02-3.40693E-04 1.07290E-03-2.49497E+09
 -1      1973-6.09263E-02-1.26389E-03-3.13272E-02-3.40693E-04 1.07290E-03-2.49497E+09
 -1      1974-7.47938E-02-1.12021E-03-2.54940E-02-6.46394E-05 1.16874E-03-4.46172E+09
 -1      1976-7.47938E-02-1.12021E-03-2.54940E-02-6.46394E-05 1.16874E-03-4.46172E+09
 -1      1977-8.02197E-02 8.73804E-04-5.97478E-02-1.39536E-05 2.09884E-03-6.09863E+09
 -1      1979-8.02197E-02 8.73804E-04-5.97478E-02-1.39536E-05 2.09884E-03-6.09863E+09
 -1      1980-7.61205E-02 1.09956E-03-1.10276E-01 6.92982E-04 3.51494E-03-7.31747E+09
 -1      1982-7.61205E-02 1.09956E-03-1.10276E-01 6.92982E-04 3.51494E-03-7.31747E+09
 -1      1983-7.18908E-02 6.28985E-04-1.42240E-01 3.22551E-04 4.49312E-03-8.05544E+09
 -1      1985-7.18908E-02 6.28985E-04-1.42240E-01 3.22551E-04 4.49312E-03-8.05544E+09
 -1      1986-7.17924E-02 1.01190E-03-1.50929E-01-1.29851E-03 4.75492E-03-8.27915E+09
 -1      1988-7.17924E-02 1.01190E-03-1.50929E-01-1.29851E-03 4.75492E-03-8.27915E+09
 -1      1989-6.49103E-02 2.04191E-04-1.54510E-01-7.07441E-04 4.60824E-03-7.98709E+09
 -1      1991-6.49103E-02 2.04191E-04-1.54510E-01-7.07441E-04 4.60824E-03-7.98709E+09
 -1      1992-4.98486E-02 8.94725E-04-1.60871E-01-6.66869E-04 3.57419E-03-7.20990E+09
 -1      1994-4.98486E-02 8.94725E-04-1.60871E-01-6.66869E-04 3.57419E-03-7.20990E+09
 -1      1995-4.61146E-02 1.29375E-03-1.55239E-01-5.56002E-04 2.48204E-03-6.00878E+09
 -1      1997-4.61146E-02 1.29375E-03-1.55239E-01-5.56002E-04 2.48204E-03-6.00878E+09
 -1      1998-5.87952E-02 2.66671E-04-1.24809E-01 4.07139E-04 1.88125E-03-4.47180E+09
 -1      2000-5.87952E-02 2.66671E-04-1.24809E-01 4.07139E-04 1.88125E-03-4.47180E+09
 -1      2001-6.14299E-02-5.07653E-04-8.10704E-02 6.48970E-04 1.41023E-03-2.70878E+09
 -1      2003-6.14299E-02-5.07653E-04-8.10704E-02 6.48970E-04 1.41023E-03-2.70878E+09
 -1      2004-4.22560E-02-5.04076E-04-4.88345E-02-1.04597E-03 1.05028E-03-8.44575E+08
 -1      2006-4.22560E-02-5.04076E-04-4.88345E-02-1.04597E-03 1.05028E-03-8.44575E+08
 -1      2007-2.14846E-02-8.46505E-04-4.73368E-02-5.23297E-04 1.23740E-03 9.88362E+08
 -1      2009-2.14846E-02-8.46505E-04-4.73368E-02-5.23297E-04 1.23740E-03 9.88362E+08
 -1      2010-3.77190E-03-8.96275E-04-7.66705E-02 3.34917E-04 1.11053E-03 2.65808E+09
 -1      2012-3.77190E-03-8.96275E-04-7.66705E-02 3.34917E-04 1.11053E-03 2.65808E+09
 -1      2013 1.63561E-02-5.34475E-04-1.18215E-01-4.09749E-04 1.11375E-03 4.04094E+09
 -1      2015 1.63561E-02-5.34475E-04-1.18215E-01-4.09749E-04 1.11375E-03 4.04094E+09
 -1      2016 2.27863E-02-8.57711E-04-1.49395E-01-1.18757E-03 1.07820E-03 5.02912E+09
 -1      2018 2.27863E-02-8.57711E-04-1.49395E-01-1.18757E-03 1.07820E-03 5.02912E+09
 -1      2019 8.92043E-03-1.24171E-03-1.60753E-01-6.73465E-04 1.15446E-03 5.53685E+09
 -1      2021 8.92043E-03-1.24171E-03-1.60753E-01-6.73465E-04 1.15446E-03 5.53685E+09
 -1      2022-5.81485E-03-4.31180E-04-1.63022E-01-2.06251E-04 1.92716E-03 5.50477E+09
 -1      2024-5.81485E-03-4.31180E-04-1.63022E-01-2.06251E-04 1.92716E-03 5.50477E+09
 -1      2025-8.95762E-03-1.72162E-04-1.65608E-01-2.75124E-04 3.08790E-03 4.89983E+09
 -1      2027-8.95762E-03-1.72162E-04-1.65608E-01-2.75124E-04 3.08790E-03 4.89983E+09
 -1      2028-3.45698E-03-5.32562E-04-1.55993E-01-5.85034E-04 4.06972E-03 3.71845E+09
 -1      2030-3.45698E-03-5.32562E-04-1.55993E-01-5.85034E-04 4.06972E-03 3.71845E+09
 -1      2031 1.70042E-03-8.63217E-04-1.23961E-01-3.49803E-04 3.69364E-03 2.02123E+09
 -1      2033 1.70042E-03-8.63217E-04-1.23961E-01-3.49803E-04 3.69364E-03 2.02123E+09
 -1      2034-2.68164E+09-2.46868E+05-5.46476E+08 2.49836E-03 3.82001E-04 1.05481E+10
 -1      2036-2.68164E+09-2.46868E+05-5.46476E+08 2.49836E-03 3.82001E-04 1.05481E+10
 -1      2037-1.08448E+09-8.79526E+04 4.99897E+08-1.35767E-03 1.35233E-03 1.02243E+10
 -1      2039-1.08448E+09-8.79526E+04 4.99897E+08-1.35767E-03 1.35233E-03 1.02243E+10
 -1      2040 4.44726E+08 2.74818E+05 9.74494E+08 5.94184E-04 1.92285E-03 9.05651E+09
 -1      2042 4.44726E+08 2.74818E+05 9.74494E+08 5.94184E-04 1.92285E-03 9.05651E+09
 -1      2043 1.75226E+09 1.10581E+05 1.16513E+09 4.97472E-04 7.66194E-04 7.69761E+09
 -1      2045 1.75226E+09 1.10581E+05 1.16513E+09 4.97472E-04 7.66194E-04 7.69761E+09
 -1      2046 2.78240E+09 2.55877E+05 1.38680E+09 3.46931E-04-1.34109E-03 5.93153E+09
 -1      2048 2.78240E+09 2.55877E+05 1.38680E+09 3.46931E-04-1.34109E-03 5.93153E+09
 -1      2049 3.53024E+09 1.83340E+05 1.51295E+09 1.92938E-04-3.86470E-03 3.96639E+09
 -1      2051 3.53024E+09 1.83340E+05 1.51295E+09 1.92938E-04-3.86470E-03 3.96639E+09
 -1      2052 3.94894E+09 2.96738E+05 1.57491E+09 5.71399E-04-6.57817E-03 1.85040E+09
 -1      2054 3.94894E+09 2.96738E+05 1.57491E+09 5.71399E-04-6.57817E-03 1.85040E+09
 -1      2055 4.03379E+09 1.84894E+05 1.54680E+09-1.16093E-04-8.57329E-03-2.79489E+08
 -1      2057 4.03379E+09 1.84894E+05 1.54680E+09-1.16093E-04-8.57329E-03-2.79489E+08
 -1      2058 3.78712E+09 2.76675E+05 1.43846E+09-5.06112E-04-9.43823E-03-2.31780E+09
 -1      2060 3.78712E+09 2.76675E+05 1.43846E+09-5.06112E-04-9.43823E-03-2.31780E+09
 -1      2061 3.23365E+09 1.43729E+05 1.25147E+09 5.10275E-05-9.99576E-03-4.14779E+09
 -1      2063 3.23365E+09 1.43729E+05 1.25147E+09 5.10275E-05-9.99576E-03-4.14779E+09
 -1      2064 2.41423E+09 1.99334E+05 9.98749E+08-8.95539E-06-1.12566E-02-5.67163E+09
 -1      2066 2.41423E+09 1.99334E+05 9.98749E+08-8.95539E-06-1.12566E-02-5.67163E+09
 -1      2067 1.38510E+09 6.39902E+04 6.94535E+08 4.20808E-04-1.32638E-02-6.80611E+09
 -1      2069 1.38510E+09 6.39902E+04 6.94535E+08 4.20808E-04-1.32638E-02-6.80611E+09
 -1      2070 2.13927E+08 8.78421E+04 3.57901E+08-2.02940E-05-1.51036E-02-7.49343E+09
 -1      2072 2.13927E+08 8.78421E+04 3.57901E+08-2.02940E-05-1.51036E-02-7.49343E+09
 -1      2073-1.02417E+09-3.76105E+04 9.26969E+06-4.13901E-04-1.57030E-02-7.70216E+09
 -1      2075-1.02417E+09-3.76105E+04 9.26969E+06-4.13901E-04-1.57030E-02-7.70216E+09
 -1      2076-2.25129E+09-2.99137E+04-3.29536E+08 3.99106E-05-1.45773E-02-7.43116E+09
 -1      2078-2.25129E+09-2.99137E+04-3.29536E+08 3.99106E-05-1.45773E-02-7.43116E+09
 -1      2079-3.39163E+09-1.35903E+05-6.37522E+08 9.47235E-05-1.22719E-02-6.70878E+09
 -1      2081-3.39163E+09-1.35903E+05-6.37522E+08 9.47235E-05-1.22719E-02-6.70878E+09
 -1      2082-4.37616E+09-1.26029E+05-8.95223E+08-5.85514E-05-1.04162E-02-5.59207E+09
 -1      2084-4.37616E+09-1.26029E+05-8.95223E+08-5.85514E-05-1.04162E-02-5.59207E+09
 -1      2085-5.14709E+09-2.05554E+05-1.08639E+09 6.92896E-05-9.59785E-03-4.16289E+09
 -1      2087-5.14709E+09-2.05554E+05-1.08639E+09 6.92896E-05-9.59785E-03-4.16289E+09
 -1      2088-5.66136E+09-1.77948E+05-1.19864E+09 3.18639E-04-9.40594E-03-2.52349E+09
 -1      2090-5.66136E+09-1.77948E+05-1.19864E+09 3.18639E-04-9.40594E-03-2.52349E+09
 -1      2091-5.89368E+09-2.28189E+05-1.22453E+09-1.09335E-03-9.95649E-03-7.89963E+08
 -1      2093-5.89368E+09-2.28189E+05-1.22453E+09-1.09335E-03-9.95649E-03-7.89963E+08
 -1      2094-5.83790E+09-1.73709E+05-1.16178E+09-6.69218E-04-1.07799E-02 9.14372E+08
 -1      2096-5.83790E+09-1.73709E+05-1.16178E+09-6.69218E-04-1.07799E-02 9.14372E+08
 -1      2097-5.50792E+09-1.96801E+05-1.01368E+09-1.09332E-04-1.18525E-02 2.46686E+09
 -1      2099-5.50792E+09-1.96801E+05-1.01368E+09-1.09332E-04-1.18525E-02 2.46686E+09
 -1      2100-4.93661E+09-1.15513E+05-7.88511E+08-3.17068E-04-1.23261E-02 3.75238E+09
 -1      2102-4.93661E+09-1.15513E+05-7.88511E+08-3.17068E-04-1.23261E-02 3.75238E+09
 -1      2103-4.17432E+09-1.16477E+05-4.99733E+08-8.46239E-04-1.27263E-02 4.67069E+09
 -1      2105-4.17432E+09-1.16477E+05-4.99733E+08-8.46239E-04-1.27263E-02 4.67069E+09
 -1      2106-3.28640E+09-2.07503E+04-1.63594E+08-3.59716E-04-1.37313E-02 5.14251E+09
 -1      2108-3.28640E+09-2.07503E+04-1.63594E+08-3.59716E-04-1.37313E-02 5.14251E+09
 -1      2109-2.34809E+09-1.86617E+03 1.99408E+08 2.26025E-04-1.48229E-02 5.11219E+09
 -1      2111-2.34809E+09-1.86617E+03 1.99408E+08 2.26025E-04-1.48229E-02 5.11219E+09
 -1      2112-1.44620E+09 8.24643E+04 5.74968E+08 3.23805E-04-1.56698E-02 4.55789E+09
 -1      2114-1.44620E+09 8.24643E+04 5.74968E+08 3.23805E-04-1.56698E-02 4.55789E+09
 -1      2115-6.79210E+08 1.41378E+05 9.28042E+08 1.08941E-04-1.63283E-02 3.47276E+09
 -1      2117-6.79210E+08 1.41378E+05 9.28042E+08 1.08941E-04-1.63283E-02 3.47276E+09
 -1      2118-1.61314E+08 1.15853E+05 1.20608E+09-6.24229E-05-1.52085E-02 1.91560E+09
 -1      2120-1.61314E+08 1.15853E+05 1.20608E+09-6.24229E-05-1.52085E-02 1.91560E+09
 -1      2121-5.16984E+09-1.64804E+08 2.63198E+06-1.09090E+09 4.59279E+06 1.39827E+08
 -1      2123-5.16984E+09-1.64804E+08 2.63198E+06-1.09090E+09 4.59279E+06 1.39827E+08
 -1      2124-2.32198E+09 1.54939E+08-2.46734E+06-1.17527E+09-1.55720E+08-6.26730E+07
 -1      2126-2.32198E+09 1.54939E+08-2.46734E+06-1.17527E+09-1.55720E+08-6.26730E+07
 -1      2127 3.91890E+08-9.01891E+07-3.27817E+06-1.16486E+09-2.09834E+08 3.26672E+07
 -1      2129 3.91890E+08-9.01891E+07-3.27817E+06-1.16486E+09-2.09834E+08 3.26672E+07
 -1      2130 2.77056E+09-6.90297E+07-3.16574E+06-9.60298E+08-2.71428E+08-9.90519E+06
 -1      2132 2.77056E+09-6.90297E+07-3.16574E+06-9.60298E+08-2.71428E+08-9.90519E+06
 -1      2133 4.71035E+09-7.29968E+07-4.63686E+06-7.40739E+08-3.24071E+08 7.95564E+06
 -1      2135 4.71035E+09-7.29968E+07-4.63686E+06-7.40739E+08-3.24071E+08 7.95564E+06
 -1      2136 6.10659E+09-8.85044E+07-4.39885E+06-5.00366E+08-3.49721E+08-1.12460E+06
 -1      2138 6.10659E+09-8.85044E+07-4.39885E+06-5.00366E+08-3.49721E+08-1.12460E+06
 -1      2139 6.91217E+09-8.95972E+07-5.11078E+06-2.35390E+08-3.68108E+08 1.50849E+06
 -1      2141 6.91217E+09-8.95972E+07-5.11078E+06-2.35390E+08-3.68108E+08 1.50849E+06
 -1      2142 7.09720E+09-8.85416E+07-4.59249E+06 2.93580E+07-3.59402E+08-1.13170E+06
 -1      2144 7.09720E+09-8.85416E+07-4.59249E+06 2.93580E+07-3.59402E+08-1.13170E+06
 -1      2145 6.67277E+09-8.21903E+07-4.61080E+06 2.82944E+08-3.38556E+08-1.35004E+06
 -1      2147 6.67277E+09-8.21903E+07-4.61080E+06 2.82944E+08-3.38556E+08-1.35004E+06
 -1      2148 5.68228E+09-7.11783E+07-3.74127E+06 5.10712E+08-2.96279E+08-2.59422E+06
 -1      2150 5.68228E+09-7.11783E+07-3.74127E+06 5.10712E+08-2.96279E+08-2.59422E+06
 -1      2151 4.20129E+09-5.64184E+07-3.20135E+06 7.00397E+08-2.42584E+08-3.12150E+06
 -1      2153 4.20129E+09-5.64184E+07-3.20135E+06 7.00397E+08-2.42584E+08-3.12150E+06
 -1      2154 2.33259E+09-3.85048E+07-2.05800E+06 8.41837E+08-1.75501E+08-3.75240E+06
 -1      2156 2.33259E+09-3.85048E+07-2.05800E+06 8.41837E+08-1.75501E+08-3.75240E+06
 -1      2157 2.00006E+08-1.87822E+07-1.19011E+06 9.27804E+08-1.02822E+08-3.97340E+06
 -1      2159 2.00006E+08-1.87822E+07-1.19011E+06 9.27804E+08-1.02822E+08-3.97340E+06
 -1      2160-2.05910E+09 1.74192E+06 3.56662E+04 9.54467E+08-2.63808E+07-4.05709E+06
 -1      2162-2.05910E+09 1.74192E+06 3.56662E+04 9.54467E+08-2.63808E+07-4.05709E+06
 -1      2163-4.30243E+09 2.16165E+07 9.53853E+05 9.21672E+08 4.72066E+07-3.81070E+06
 -1      2165-4.30243E+09 2.16165E+07 9.53853E+05 9.21672E+08 4.72066E+07-3.81070E+06
 -1      2166-6.39148E+09 3.97420E+07 2.01805E+06 8.32961E+08 1.14846E+08-3.38137E+06
 -1      2168-6.39148E+09 3.97420E+07 2.01805E+06 8.32961E+08 1.14846E+08-3.38137E+06
 -1      2169-8.20032E+09 5.48588E+07 2.71448E+06 6.95413E+08 1.71241E+08-2.69590E+06
 -1      2171-8.20032E+09 5.48588E+07 2.71448E+06 6.95413E+08 1.71241E+08-2.69590E+06
 -1      2172-9.62344E+09 6.60866E+07 3.39380E+06 5.19183E+08 2.13883E+08-1.87977E+06
 -1      2174-9.62344E+09 6.60866E+07 3.39380E+06 5.19183E+08 2.13883E+08-1.87977E+06
 -1      2175-1.05825E+10 7.26477E+07 3.65885E+06 3.16975E+08 2.39308E+08-9.06862E+05
 -1      2177-1.05825E+10 7.26477E+07 3.65885E+06 3.16975E+08 2.39308E+08-9.06862E+05
 -1      2178-1.10315E+10 7.40868E+07 3.81377E+06 1.03150E+08 2.46885E+08 8.25235E+04
 -1      2180-1.10315E+10 7.40868E+07 3.81377E+06 1.03150E+08 2.46885E+08 8.25235E+04
 -1      2181-1.09596E+10 7.03527E+07 3.54553E+06-1.06928E+08 2.35305E+08 1.11679E+06
 -1      2183-1.09596E+10 7.03527E+07 3.54553E+06-1.06928E+08 2.35305E+08 1.11679E+06
 -1      2184-1.03924E+10 6.13906E+07 3.16059E+06-2.98139E+08 2.06577E+08 2.03169E+06
 -1      2186-1.03924E+10 6.13906E+07 3.16059E+06-2.98139E+08 2.06577E+08 2.03169E+06
 -1      2187-9.39068E+09 4.82220E+07 2.38459E+06-4.56123E+08 1.61318E+08 2.86505E+06
 -1      2189-9.39068E+09 4.82220E+07 2.38459E+06-4.56123E+08 1.61318E+08 2.86505E+06
 -1      2190-8.04671E+09 3.03269E+07 1.58010E+06-5.68328E+08 1.04481E+08 3.54287E+06
 -1      2192-8.04671E+09 3.03269E+07 1.58010E+06-5.68328E+08 1.04481E+08 3.54287E+06
 -1      2193-6.47896E+09 1.16961E+07 4.27660E+05-6.25674E+08 3.77059E+07 3.79045E+06
 -1      2195-6.47896E+09 1.16961E+07 4.27660E+05-6.25674E+08 3.77059E+07 3.79045E+06
 -1      2196-4.82600E+09-1.13990E+07-5.29185E+05-6.20887E+08-3.12260E+07 4.56676E+06
 -1      2198-4.82600E+09-1.13990E+07-5.29185E+05-6.20887E+08-3.12260E+07 4.56676E+06
 -1      2199-3.23604E+09-3.80152E+07-1.91205E+06-5.46078E+08-1.00558E+08 2.98011E+06
 -1      2201-3.23604E+09-3.80152E+07-1.91205E+06-5.46078E+08-1.00558E+08 2.98011E+06
 -1      2202-1.85521E+09-2.91768E+07-2.74497E+06-4.30048E+08-1.61147E+08 6.67569E+06
 -1      2204-1.85521E+09-2.91768E+07-2.74497E+06-4.30048E+08-1.61147E+08 6.67569E+06
 -1      2205-8.07544E+08-6.57916E+07-3.58455E+06-2.85946E+08-2.06325E+08-2.40432E+06
 -1      2207-8.07544E+08-6.57916E+07-3.58455E+06-2.85946E+08-2.06325E+08-2.40432E+06
 -1      2208-5.16984E+09-1.64804E+08 2.63198E+06 1.09090E+09-4.59279E+06 1.39827E+08
 -1      2210-5.16984E+09-1.64804E+08 2.63198E+06 1.09090E+09-4.59279E+06 1.39827E+08
 -1      2211-2.32198E+09 1.54939E+08-2.46734E+06 1.17527E+09 1.55720E+08-6.26730E+07
 -1      2213-2.32198E+09 1.54939E+08-2.46734E+06 1.17527E+09 1.55720E+08-6.26730E+07
 -1      2214 3.91890E+08-9.01891E+07-3.27817E+06 1.16486E+09 2.09834E+08 3.26672E+07
 -1      2216 3.91890E+08-9.01891E+07-3.27817E+06 1.16486E+09 2.09834E+08 3.26672E+07
 -1      2217 2.77056E+09-6.90297E+07-3.16574E+06 9.60298E+08 2.71428E+08-9.90519E+06
 -1      2219 2.77056E+09-6.90297E+07-3.16574E+06 9.60298E+08 2.71428E+08-9.90519E+06
 -1      2220 4.71035E+09-7.29968E+07-4.63686E+06 7.40739E+08 3.24071E+08 7.95564E+06
 -1      2222 4.71035E+09-7.29968E+07-4.63686E+06 7.40739E+08 3.24071E+08 7.95564E+06
 -1      2223 6.10659E+09-8.85044E+07-4.39885E+06 5.00366E+08 3.49721E+08-1.12460E+06
 -1      2225 6.10659E+09-8.85044E+07-4.39885E+06 5.00366E+08 3.49721E+08-1.12460E+06
 -1      2226 6.91217E+09-8.95972E+07-5.11078E+06 2.35390E+08 3.68108E+08 1.50849E+06
 -1      2228 6.91217E+09-8.95972E+07-5.11078E+06 2.35390E+08 3.68108E+08 1.50849E+06
 -1      2229 7.09720E+09-8.85416E+07-4.59249E+06-2.93580E+07 3.59402E+08-1.13170E+06
 -1      2231 7.09720E+09-8.85416E+07-4.59249E+06-2.93580E+07 3.59402E+08-1.13170E+06
 -1      2232 6.67277E+09-8.21903E+07-4.61080E+06-2.82944E+08 3.38556E+08-1.35004E+06
 -1      2234 6.67277E+09-8.21903E+07-4.61080E+06-2.82944E+08 3.38556E+08-1.35004E+06
 -1      2235 5.68228E+09-7.11783E+07-3.74127E+06-5.10712E+08 2.96279E+08-2.59422E+06
 -1      2237 5.68228E+09-7.11783E+07-3.74127E+06-5.10712E+08 2.96279E+08-2.59422E+06
 -1      2238 4.20129E+09-5.64184E+07-3.20135E+06-7.00397E+08 2.42584E+08-3.12150E+06
 -1      2240 4.20129E+09-5.64184E+07-3.20135E+06-7.00397E+08 2.42584E+08-3.12150E+06
 -1      2241 2.33259E+09-3.85048E+07-2.05800E+06-8.41837E+08 1.75501E+08-3.75240E+06
 -1      2243 2.33259E+09-3.85048E+07-2.05800E+06-8.41837E+08 1.75501E+08-3.75240E+06
 -1      2244 2.00006E+08-1.87822E+07-1.19011E+06-9.27804E+08 1.02822E+08-3.97340E+06
 -1      2246 2.00006E+08-1.87822E+07-1.19011E+06-9.27804E+08 1.02822E+08-3.97340E+06
 -1      2247-2.05910E+09 1.74192E+06 3.56662E+04-9.54467E+08 2.63808E+07-4.05709E+06
 -1      2249-2.05910E+09 1.74192E+06 3.56662E+04-9.54467E+08 2.63808E+07-4.05709E+06
 -1      2250-4.30243E+09 2.16165E+07 9.53853E+05-9.21672E+08-4.72066E+07-3.81070E+06
 -1      2252-4.30243E+09 2.16165E+07 9.53853E+05-9.21672E+08-4.72066E+07-3.81070E+06
 -1      2253-6.39148E+09 3.97420E+07 2.01805E+06-8.32961E+08-1.14846E+08-3.38137E+06
 -1      2255-6.39148E+09 3.97420E+07 2.01805E+06-8.32961E+08-1.14846E+08-3.38137E+06
 -1      2256-8.20032E+09 5.48588E+07 2.71448E+06-6.95413E+08-1.71241E+08-2.69590E+06
 -1      2258-8.20032E+09 5.48588E+07 2.71448E+06-6.95413E+08-1.71241E+08-2.69590E+06
 -1      2259-9.62344E+09 6.60866E+07 3.39380E+06-5.19183E+08-2.13883E+08-1.87977E+06
 -1      2261-9.62344E+09 6.60866E+07 3.39380E+06-5.19183E+08-2.13883E+08-1.87977E+06
 -1      2262-1.05825E+10 7.26477E+07 3.65885E+06-3.16975E+08-2.39308E+08-9.06862E+05
 -1      2264-1.05825E+10 7.26477E+07 3.65885E+06-3.16975E+08-2.39308E+08-9.06862E+05
 -1      2265-1.10315E+10 7.40868E+07 3.81377E+06-1.03150E+08-2.46885E+08 8.25235E+04
 -1      2267-1.10315E+10 7.40868E+07 3.81377E+06-1.03150E+08-2.46885E+08 8.25235E+04
 -1      2268-1.09596E+10 7.03527E+07 3.54553E+06 1.06928E+08-2.35305E+08 1.11679E+06
 -1      2270-1.09596E+10 7.03527E+07 3.54553E+06 1.06928E+08-2.35305E+08 1.11679E+06
 -1      2271-1.03924E+10 6.13906E+07 3.16059E+06 2.98139E+08-2.06577E+08 2.03169E+06
 -1      2273-1.03924E+10 6.13906E+07 3.16059E+06 2.98139E+08-2.06577E+08 2.03169E+06
 -1      2274-9.39068E+09 4.82220E+07 2.38459E+06 4.56123E+08-1.61318E+08 2.86505E+06
 -1      2276-9.39068E+09 4.82220E+07 2.38459E+06 4.56123E+08-1.61318E+08 2.86505E+06
 -1      2277-8.04671E+09 3.03269E+07 1.58010E+06 5.68328E+08-1.04481E+08 3.54287E+06
 -1      2279-8.04671E+09 3.03269E+07 1.58010E+06 5.68328E+08-1.04481E+08 3.54287E+06
 -1      2280-6.47896E+09 1.16961E+07 4.27660E+05 6.25674E+08-3.77059E+07 3.79045E+06
 -1      2282-6.47896E+09 1.16961E+07 4.27660E+05 6.25674E+08-3.77059E+07 3.79045E+06
 -1      2283-4.82600E+09-1.13990E+07-5.29185E+05 6.20887E+08 3.12260E+07 4.56676E+06
 -1      2285-4.82600E+09-1.13990E+07-5.29185E+05 6.20887E+08 3.12260E+07 4.56676E+06
 -1      2286-3.23604E+09-3.80152E+07-1.91205E+06 5.46078E+08 1.00558E+08 2.98011E+06
 -1      2288-3.23604E+09-3.80152E+07-1.91205E+06 5.46078E+08 1.00558E+08 2.98011E+06
 -1      2289-1.85521E+09-2.91768E+07-2.74497E+06 4.30048E+08 1.61147E+08 6.67569E+06
 -1      2291-1.85521E+09-2.91768E+07-2.74497E+06 4.30048E+08 1.61147E+08 6.67569E+06
 -1      2292-8.07544E+08-6.57916E+07-3.58455E+06 2.85946E+08 2.06325E+08-2.40432E+06
 -1      2294-8.07544E+08-6.57916E+07-3.58455E+06 2.85946E+08 2.06325E+08-2.40432E+06
 -3
    1PSTEP                        59           1           1          
    1PGM                1.000000E+00                                  
    1PGK                1.086716E+07                                  
    1PHID                         -1                                  
    1PSUBC                         0                                  
    1PMODE                        15                                  
  100CL  115 524.6603102         930                     2   15MODAL      1
 -4  FORC        4    1
 -5  F1          1    2    1    0
 -5  F2          1    2    2    0
 -5  F3          1    2    3    0
 -5  ALL         1    2    0    0    1ALL
 -1       404-2.16609E+06 1.33143E+05-6.07384E+05
 -1       406-1.09618E+05 5.71569E+05-6.07384E+05
 -1       407 2.20501E+04 6.64286E+00 7.72012E+04
 -1       409 2.20501E+04 6.64286E+00 7.72012E+04
 -1       410 3.29436E+05-2.21130E-05-4.96873E+05
 -1       412 3.29436E+05 6.57308E-05-4.09382E+05
 -1       413-2.61540E+05 6.86704E+04 6.55034E+05
 -1       415-2.61540E+05-6.86704E+04 6.55034E+05
 -1       424-2.46993E+06-2.85202E-05 5.01224E+05
 -1       426-3.02730E+05-2.99969E-05 4.10533E+05
 -1       427-3.72969E+06-7.11818E+04-2.48540E+06
 -1       429-3.72969E+06 7.11818E+04-2.48540E+06
 -1       438 2.20501E+04-6.64286E+00 7.72012E+04
 -1       440 2.20501E+04-6.64286E+00 7.72012E+04
 -1       441-2.16609E+06-1.33143E+05-6.07384E+05
 -1       443-1.09618E+05-5.71569E+05-6.07384E+05
 -1       444 3.72969E+06 7.11818E+04-2.48540E+06
 -1       446 3.72969E+06-7.11818E+04-2.48540E+06
 -1       447 2.46993E+06 1.49805E-07 5.01224E+05
 -1       449 3.02730E+05 3.39241E-06 4.10533E+05
 -1       458 2.61540E+05-6.86704E+04 6.55034E+05
 -1       460 2.61540E+05 6.86704E+04 6.55034E+05
 -1       461-3.29436E+05-8.76869E-05-4.96873E+05
 -1       463-3.29436E+05 5.83346E-05-4.09382E+05
 -1       472 2.16609E+06 1.33143E+05-6.07384E+05
 -1       474 1.09618E+05 5.71569E+05-6.07384E+05
 -1       475-2.20501E+04 6.64286E+00 7.72012E+04
 -1       477-2.20501E+04 6.64286E+00 7.72012E+04
 -1       478-2.20501E+04-6.64286E+00 7.72012E+04
 -1       480-2.20501E+04-6.64286E+00 7.72012E+04
 -1       481 2.16609E+06-1.33143E+05-6.07384E+05
 -1       483 1.09618E+05-5.71569E+05-6.07384E+05
 -1       484 3.16699E+03-5.95527E+02 3.58687E+04
 -1       486 3.16699E+03-5.95527E+02 3.58687E+04
 -1       487 5.33582E+03-3.59760E+02 7.61017E+04
 -1       489 5.33582E+03-3.59760E+02 7.61017E+04
 -1       490 5.98477E+03 9.68735E+01 1.14096E+05
 -1       492 5.98477E+03 9.68735E+01 1.14096E+05
 -1       493 5.07602E+03 3.85651E+02 1.46523E+05
 -1       495 5.07602E+03 3.85651E+02 1.46523E+05
 -1       496 2.83855E+03 6.30372E+02 1.72282E+05
 -1       498 2.83855E+03 6.30372E+02 1.72282E+05
 -1       499-4.13787E+02 8.13438E+02 1.89297E+05
 -1       501-4.13787E+02 8.13438E+02 1.89297E+05
 -1       502-4.34014E+03 9.14690E+02 1.96592E+05
 -1       504-4.34014E+03 9.14690E+02 1.96592E+05
 -1       505-8.57124E+03 9.37264E+02 1.93539E+05
 -1       507-8.57124E+03 9.37264E+02 1.93539E+05
 -1       508-1.27325E+04 8.80541E+02 1.80272E+05
 -1       510-1.27325E+04 8.80541E+02 1.80272E+05
 -1       511-1.64660E+04 7.50563E+02 1.57523E+05
 -1       513-1.64660E+04 7.50563E+02 1.57523E+05
 -1       514-1.94502E+04 5.57070E+02 1.26643E+05
 -1       516-1.94502E+04 5.57070E+02 1.26643E+05
 -1       517-2.14175E+04 3.13420E+02 8.94965E+04
 -1       519-2.14175E+04 3.13420E+02 8.94965E+04
 -1       520-2.21695E+04 3.57070E+01 4.83536E+04
 -1       522-2.21695E+04 3.57070E+01 4.83536E+04
 -1       523-2.15870E+04-2.58216E+02 5.74502E+03
 -1       525-2.15870E+04-2.58216E+02 5.74502E+03
 -1       526-1.96360E+04-5.49840E+02-3.56939E+04
 -1       528-1.96360E+04-5.49840E+02-3.56939E+04
 -1       529-1.63676E+04-8.21154E+02-7.33890E+04
 -1       531-1.63676E+04-8.21154E+02-7.33890E+04
 -1       532-1.19135E+04-1.05577E+03-1.04989E+05
 -1       534-1.19135E+04-1.05577E+03-1.04989E+05
 -1       535-6.47566E+03-1.23996E+03-1.28512E+05
 -1       537-6.47566E+03-1.23996E+03-1.28512E+05
 -1       538-3.11850E+02-1.36352E+03-1.42474E+05
 -1       540-3.11850E+02-1.36352E+03-1.42474E+05
 -1       541 6.28233E+03-1.42043E+03-1.45981E+05
 -1       543 6.28233E+03-1.42043E+03-1.45981E+05
 -1       544 1.29941E+04-1.40929E+03-1.38789E+05
 -1       546 1.29941E+04-1.40929E+03-1.38789E+05
 -1       547 1.95152E+04-1.33335E+03-1.21324E+05
 -1       549 1.95152E+04-1.33335E+03-1.21324E+05
 -1       550 2.55636E+04-1.20058E+03-9.46557E+04
 -1       552 2.55636E+04-1.20058E+03-9.46557E+04
 -1       553 3.09040E+04-1.02262E+03-6.04445E+04
 -1       555 3.09040E+04-1.02262E+03-6.04445E+04
 -1       556 3.53652E+04-8.15795E+02-2.08340E+04
 -1       558 3.53652E+04-8.15795E+02-2.08340E+04
 -1       559 3.88535E+04-5.96530E+02 2.16540E+04
 -1       561 3.88535E+04-5.96530E+02 2.16540E+04
 -1       562 4.13648E+04-3.82523E+02 6.43030E+04
 -1       564 4.13648E+04-3.82523E+02 6.43030E+04
 -1       565 4.29824E+04-2.13148E+02 1.04254E+05
 -1       567 4.29824E+04-2.13148E+02 1.04254E+05
 -1       568 4.38415E+04-6.66892E+01 1.38792E+05
 -1       570 4.38415E+04-6.66892E+01 1.38792E+05
 -1       571 4.42119E+04 1.22886E+01 1.38737E+05
 -1       573 4.42119E+04 1.22886E+01 1.38737E+05
 -1       574 3.40992E+06 1.15722E-05 7.51888E+05
 -1       576 3.40992E+06 2.34659E-05 6.87113E+05
 -1       577-3.39803E+06-5.08411E+04-6.48031E+05
 -1       579-3.39803E+06 5.08411E+04-6.48031E+05
 -1       588 3.45580E+06 2.44501E-05-8.64244E+05
 -1       590 3.45580E+06 4.14875E-05-7.67942E+05
 -1       591-3.43645E+06 7.55862E+04 9.65763E+05
 -1       593-3.43645E+06-7.55862E+04 9.65763E+05
 -1       602 3.06704E+06-3.44046E-05-4.68774E+05
 -1       604 3.06704E+06 3.24741E-07-3.61549E+05
 -1       605-3.04595E+06 8.41589E+04 6.39648E+05
 -1       607-3.04595E+06-8.41589E+04 6.39648E+05
 -1       616 2.64335E+06-4.88413E-05-9.17411E+05
 -1       618 2.64335E+06 3.40933E-05-7.85897E+05
 -1       619-2.62549E+06 1.03223E+05 1.14128E+06
 -1       621-2.62549E+06-1.03223E+05 1.14128E+06
 -1       630 2.02011E+06-5.11764E-05-9.51291E+05
 -1       632 2.02011E+06 7.12291E-05-7.86708E+05
 -1       633-2.00961E+06 1.29179E+05 1.21067E+06
 -1       635-2.00961E+06-1.29179E+05 1.21067E+06
 -1       644 1.35618E+06-6.75360E-05-1.09822E+06
 -1       646 1.35618E+06 8.29375E-05-9.25874E+05
 -1       647-1.35622E+06 1.35272E+05 1.38816E+06
 -1       649-1.35622E+06-1.35272E+05 1.38816E+06
 -1       658 6.28742E+05-8.59660E-05-1.11853E+06
 -1       660 6.28742E+05 1.04209E-04-9.32740E+05
 -1       661-6.41449E+05 1.45825E+05 1.41614E+06
 -1       663-6.41449E+05-1.45825E+05 1.41614E+06
 -1       672-1.01987E+05-9.08753E-05-1.10966E+06
 -1       674-1.01987E+05 1.36235E-04-9.32126E+05
 -1       675 7.56826E+04 1.39347E+05 1.40424E+06
 -1       677 7.56826E+04-1.39347E+05 1.40424E+06
 -1       686-8.01038E+05-1.09984E-04-1.02815E+06
 -1       688-8.01038E+05 1.37672E-04-8.59544E+05
 -1       689 7.61378E+05 1.32337E+05 1.29859E+06
 -1       691 7.61378E+05-1.32337E+05 1.29859E+06
 -1       700-1.42935E+06-1.36137E-04-8.97998E+05
 -1       702-1.42935E+06 1.24866E-04-7.53739E+05
 -1       703 1.37770E+06 1.13226E+05 1.13201E+06
 -1       705 1.37770E+06-1.13226E+05 1.13201E+06
 -1       714-1.95198E+06-1.32969E-04-7.17587E+05
 -1       716-1.95198E+06 1.16510E-04-6.00852E+05
 -1       717 1.89074E+06 9.16234E+04 8.99579E+05
 -1       719 1.89074E+06-9.16234E+04 8.99579E+05
 -1       728-2.34123E+06-9.60501E-05-5.02539E+05
 -1       730-2.34123E+06 1.15817E-04-4.22490E+05
 -1       731 2.27363E+06 6.28294E+04 6.23821E+05
 -1       733 2.27363E+06-6.28294E+04 6.23821E+05
 -1       742-2.57653E+06-5.93589E-05-2.63382E+05
 -1       744-2.57653E+06 1.20836E-04-2.21444E+05
 -1       745 2.50641E+06 3.29164E+04 3.16220E+05
 -1       747 2.50641E+06-3.29164E+04 3.16220E+05
 -1       756-2.64750E+06-5.90174E-05-1.62878E+04
 -1       758-2.64750E+06 9.99361E-05-1.56448E+04
 -1       759 2.57909E+06 5.04678E+02-7.74505E+02
 -1       761 2.57909E+06-5.04678E+02-7.74505E+02
 -1       770-2.55339E+06-8.01031E-05 2.24179E+05
 -1       772-2.55339E+06 8.05362E-05 1.86119E+05
 -1       773 2.49104E+06-2.98730E+04-3.09842E+05
 -1       775 2.49104E+06 2.98730E+04-3.09842E+05
 -1       784-2.30413E+06-1.07186E-04 4.42790E+05
 -1       786-2.30413E+06 9.50064E-05 3.68378E+05
 -1       787 2.25199E+06-5.84051E+04-5.90100E+05
 -1       789 2.25199E+06 5.84051E+04-5.90100E+05
 -1       798-1.91918E+06-1.30625E-04 6.25698E+05
 -1       800-1.91918E+06 1.00081E-04 5.21893E+05
 -1       801 1.88102E+06-8.14742E+04-8.24924E+05
 -1       803 1.88102E+06 8.14742E+04-8.24924E+05
 -1       812-1.42667E+06-1.25033E-04 7.61863E+05
 -1       814-1.42667E+06 8.84019E-05 6.35332E+05
 -1       815 1.40558E+06-9.93128E+04-9.98817E+05
 -1       817 1.40558E+06 9.93128E+04-9.98817E+05
 -1       826-8.61837E+05-1.02794E-04 8.41692E+05
 -1       828-8.61837E+05 8.58364E-05 7.02708E+05
 -1       829 8.60108E+05-1.09086E+05-1.10071E+06
 -1       831 8.60108E+05 1.09086E+05-1.10071E+06
 -1       840-2.64240E+05-9.38588E-05 8.61274E+05
 -1       842-2.64240E+05 8.88413E-05 7.18667E+05
 -1       843 2.83217E+05-1.11929E+05-1.12394E+06
 -1       845 2.83217E+05 1.11929E+05-1.12394E+06
 -1       854 3.23212E+05-9.46523E-05 8.17154E+05
 -1       856 3.23212E+05 8.76751E-05 6.82647E+05
 -1       857-2.83178E+05-1.05572E+05-1.06581E+06
 -1       859-2.83178E+05 1.05572E+05-1.06581E+06
 -1       868 8.59303E+05-7.24063E-05 7.14350E+05
 -1       870 8.59303E+05 9.19999E-05 5.96133E+05
 -1       871-7.98843E+05-9.27864E+04-9.30268E+05
 -1       873-7.98843E+05 9.27864E+04-9.30268E+05
 -1       882 1.30318E+06-5.02819E-05 5.55395E+05
 -1       884 1.30318E+06 7.41169E-05 4.64624E+05
 -1       885-1.22382E+06-7.12452E+04-7.23382E+05
 -1       887-1.22382E+06 7.12452E+04-7.23382E+05
 -1       896 1.62217E+06-5.63713E-05 3.54138E+05
 -1       898 1.62217E+06 4.11020E-05 2.95380E+05
 -1       899-1.52618E+06-4.61180E+04-4.58948E+05
 -1       901-1.52618E+06 4.61180E+04-4.58948E+05
 -1       910 1.78789E+06-6.09471E-05 1.18117E+05
 -1       912 1.78789E+06 2.62834E-05 1.00662E+05
 -1       913-1.67811E+06-1.36999E+04-1.51086E+05
 -1       915-1.67811E+06 1.36999E+04-1.51086E+05
 -1       924 1.78143E+06-3.68716E-05-1.35103E+05
 -1       926 1.78143E+06 3.31848E-05-1.13895E+05
 -1       927-1.66098E+06 1.66461E+04 1.83668E+05
 -1       929-1.66098E+06-1.66461E+04 1.83668E+05
 -1       938 1.59892E+06-1.43629E-05-3.86528E+05
 -1       940 1.59892E+06 3.89224E-05-3.16834E+05
 -1       941-1.47095E+06 5.47018E+04 5.14808E+05
 -1       943-1.47095E+06-5.47018E+04 5.14808E+05
 -1       952 1.24881E+06-3.26170E-05-6.45500E+05
 -1       954 1.24881E+06 2.59260E-05-5.42157E+05
 -1       955-1.11619E+06 8.11122E+04 8.58593E+05
 -1       957-1.11619E+06-8.11122E+04 8.58593E+05
 -1       966 7.74853E+05-7.77270E-05-8.06401E+05
 -1       968 7.74853E+05 4.14083E-05-6.69139E+05
 -1       969-6.39813E+05 1.07734E+05 1.09683E+06
 -1       971-6.39813E+05-1.07734E+05 1.09683E+06
 -1       980-3.73730E+06 4.50233E+05 6.74411E+04
 -1       982-5.97231E+05 3.52887E+05 6.74411E+04
 -1       983 4.42119E+04-1.22886E+01 1.38737E+05
 -1       985 4.42119E+04-1.22886E+01 1.38737E+05
 -1       986 3.16699E+03 5.95527E+02 3.58687E+04
 -1       988 3.16699E+03 5.95527E+02 3.58687E+04
 -1       989 5.33582E+03 3.59760E+02 7.61017E+04
 -1       991 5.33582E+03 3.59760E+02 7.61017E+04
 -1       992 5.98477E+03-9.68735E+01 1.14096E+05
 -1       994 5.98477E+03-9.68735E+01 1.14096E+05
 -1       995 5.07602E+03-3.85651E+02 1.46523E+05
 -1       997 5.07602E+03-3.85651E+02 1.46523E+05
 -1       998 2.83855E+03-6.30372E+02 1.72282E+05
 -1      1000 2.83855E+03-6.30372E+02 1.72282E+05
 -1      1001-4.13787E+02-8.13438E+02 1.89297E+05
 -1      1003-4.13787E+02-8.13438E+02 1.89297E+05
 -1      1004-4.34014E+03-9.14690E+02 1.96592E+05
 -1      1006-4.34014E+03-9.14690E+02 1.96592E+05
 -1      1007-8.57124E+03-9.37264E+02 1.93539E+05
 -1      1009-8.57124E+03-9.37264E+02 1.93539E+05
 -1      1010-1.27325E+04-8.80541E+02 1.80272E+05
 -1      1012-1.27325E+04-8.80541E+02 1.80272E+05
 -1      1013-1.64660E+04-7.50563E+02 1.57523E+05
 -1      1015-1.64660E+04-7.50563E+02 1.57523E+05
 -1      1016-1.94502E+04-5.57070E+02 1.26643E+05
 -1      1018-1.94502E+04-5.57070E+02 1.26643E+05
 -1      1019-2.14175E+04-3.13420E+02 8.94965E+04
 -1      1021-2.14175E+04-3.13420E+02 8.94965E+04
 -1      1022-2.21695E+04-3.57070E+01 4.83536E+04
 -1      1024-2.21695E+04-3.57070E+01 4.83536E+04
 -1      1025-2.15870E+04 2.58216E+02 5.74502E+03
 -1      1027-2.15870E+04 2.58216E+02 5.74502E+03
 -1      1028-1.96360E+04 5.49840E+02-3.56939E+04
 -1      1030-1.96360E+04 5.49840E+02-3.56939E+04
 -1      1031-1.63676E+04 8.21154E+02-7.33890E+04
 -1      1033-1.63676E+04 8.21154E+02-7.33890E+04
 -1      1034-1.19135E+04 1.05577E+03-1.04989E+05
 -1      1036-1.19135E+04 1.05577E+03-1.04989E+05
 -1      1037-6.47566E+03 1.23996E+03-1.28512E+05
 -1      1039-6.47566E+03 1.23996E+03-1.28512E+05
 -1      1040-3.11850E+02 1.36352E+03-1.42474E+05
 -1      1042-3.11850E+02 1.36352E+03-1.42474E+05
 -1      1043 6.28233E+03 1.42043E+03-1.45981E+05
 -1      1045 6.28233E+03 1.42043E+03-1.45981E+05
 -1      1046 1.29941E+04 1.40929E+03-1.38789E+05
 -1      1048 1.29941E+04 1.40929E+03-1.38789E+05
 -1      1049 1.95152E+04 1.33335E+03-1.21324E+05
 -1      1051 1.95152E+04 1.33335E+03-1.21324E+05
 -1      1052 2.55636E+04 1.20058E+03-9.46557E+04
 -1      1054 2.55636E+04 1.20058E+03-9.46557E+04
 -1      1055 3.09040E+04 1.02262E+03-6.04445E+04
 -1      1057 3.09040E+04 1.02262E+03-6.04445E+04
 -1      1058 3.53652E+04 8.15795E+02-2.08340E+04
 -1      1060 3.53652E+04 8.15795E+02-2.08340E+04
 -1      1061 3.88535E+04 5.96530E+02 2.16540E+04
 -1      1063 3.88535E+04 5.96530E+02 2.16540E+04
 -1      1064 4.13648E+04 3.82523E+02 6.43030E+04
 -1      1066 4.13648E+04 3.82523E+02 6.43030E+04
 -1      1067 4.29824E+04 2.13148E+02 1.04254E+05
 -1      1069 4.29824E+04 2.13148E+02 1.04254E+05
 -1      1070 4.38415E+04 6.66892E+01 1.38792E+05
 -1      1072 4.38415E+04 6.66892E+01 1.38792E+05
 -1      1073-3.73730E+06-4.50233E+05 6.74411E+04
 -1      1075-5.97231E+05-3.52887E+05 6.74411E+04
 -1      1076-1.43852E+06-2.30383E-05-4.08584E+06
 -1      1078-1.43852E+06-2.01483E-05-4.08584E+06
 -1      1079-9.52587E-05-4.69471E-05-4.43038E+06
 -1      1081 1.50068E-04-4.67023E-05-4.43038E+06
 -1      1082 1.43852E+06-3.48459E-05-4.08584E+06
 -1      1084 1.43852E+06-3.62482E-05-4.08584E+06
 -1      1085 3.39803E+06 5.08411E+04-6.48031E+05
 -1      1087 3.39803E+06-5.08411E+04-6.48031E+05
 -1      1088-3.40992E+06-2.21981E-06 7.51888E+05
 -1      1090-3.40992E+06-2.60173E-05 6.87113E+05
 -1      1099 3.43645E+06-7.55862E+04 9.65763E+05
 -1      1101 3.43645E+06 7.55862E+04 9.65763E+05
 -1      1102-3.45580E+06 5.24679E-05-8.64244E+05
 -1      1104-3.45580E+06-4.90126E-05-7.67942E+05
 -1      1113 3.04595E+06-8.41589E+04 6.39648E+05
 -1      1115 3.04595E+06 8.41589E+04 6.39648E+05
 -1      1116-3.06704E+06 3.62061E-05-4.68774E+05
 -1      1118-3.06704E+06-1.00759E-04-3.61549E+05
 -1      1127 2.62549E+06-1.03223E+05 1.14128E+06
 -1      1129 2.62549E+06 1.03223E+05 1.14128E+06
 -1      1130-2.64335E+06 4.40847E-05-9.17411E+05
 -1      1132-2.64335E+06-6.80177E-05-7.85897E+05
 -1      1141 2.00961E+06-1.29179E+05 1.21067E+06
 -1      1143 2.00961E+06 1.29179E+05 1.21067E+06
 -1      1144-2.02011E+06 4.60510E-05-9.51291E+05
 -1      1146-2.02011E+06-1.68266E-05-7.86708E+05
 -1      1155 1.35622E+06-1.35272E+05 1.38816E+06
 -1      1157 1.35622E+06 1.35272E+05 1.38816E+06
 -1      1158-1.35618E+06 1.60346E-05-1.09822E+06
 -1      1160-1.35618E+06 1.31493E-05-9.25874E+05
 -1      1169 6.41449E+05-1.45825E+05 1.41614E+06
 -1      1171 6.41449E+05 1.45825E+05 1.41614E+06
 -1      1172-6.28742E+05-2.94914E-06-1.11853E+06
 -1      1174-6.28742E+05 6.53666E-05-9.32740E+05
 -1      1183-7.56826E+04-1.39347E+05 1.40424E+06
 -1      1185-7.56826E+04 1.39347E+05 1.40424E+06
 -1      1186 1.01987E+05-1.48835E-05-1.10966E+06
 -1      1188 1.01987E+05 9.90299E-05-9.32126E+05
 -1      1197-7.61378E+05-1.32337E+05 1.29859E+06
 -1      1199-7.61378E+05 1.32337E+05 1.29859E+06
 -1      1200 8.01038E+05-4.56179E-05-1.02815E+06
 -1      1202 8.01038E+05 7.27310E-05-8.59544E+05
 -1      1211-1.37770E+06-1.13226E+05 1.13201E+06
 -1      1213-1.37770E+06 1.13226E+05 1.13201E+06
 -1      1214 1.42935E+06-7.59403E-05-8.97998E+05
 -1      1216 1.42935E+06 5.10164E-05-7.53739E+05
 -1      1225-1.89074E+06-9.16234E+04 8.99579E+05
 -1      1227-1.89074E+06 9.16234E+04 8.99579E+05
 -1      1228 1.95198E+06-8.69076E-05-7.17587E+05
 -1      1230 1.95198E+06 7.22084E-05-6.00852E+05
 -1      1239-2.27363E+06-6.28294E+04 6.23821E+05
 -1      1241-2.27363E+06 6.28294E+04 6.23821E+05
 -1      1242 2.34123E+06-8.05158E-05-5.02539E+05
 -1      1244 2.34123E+06 1.20472E-04-4.22490E+05
 -1      1253-2.50641E+06-3.29164E+04 3.16220E+05
 -1      1255-2.50641E+06 3.29164E+04 3.16220E+05
 -1      1256 2.57653E+06-8.53137E-05-2.63382E+05
 -1      1258 2.57653E+06 1.47352E-04-2.21444E+05
 -1      1267-2.57909E+06-5.04678E+02-7.74505E+02
 -1      1269-2.57909E+06 5.04678E+02-7.74506E+02
 -1      1270 2.64750E+06-1.13315E-04-1.62878E+04
 -1      1272 2.64750E+06 1.28594E-04-1.56448E+04
 -1      1281-2.49104E+06 2.98730E+04-3.09842E+05
 -1      1283-2.49104E+06-2.98730E+04-3.09842E+05
 -1      1284 2.55339E+06-1.22260E-04 2.24179E+05
 -1      1286 2.55339E+06 9.93294E-05 1.86119E+05
 -1      1295-2.25199E+06 5.84051E+04-5.90100E+05
 -1      1297-2.25199E+06-5.84051E+04-5.90100E+05
 -1      1298 2.30413E+06-9.90893E-05 4.42790E+05
 -1      1300 2.30413E+06 8.98785E-05 3.68378E+05
 -1      1309-1.88102E+06 8.14742E+04-8.24924E+05
 -1      1311-1.88102E+06-8.14742E+04-8.24924E+05
 -1      1312 1.91918E+06-7.70910E-05 6.25698E+05
 -1      1314 1.91918E+06 7.65568E-05 5.21893E+05
 -1      1323-1.40558E+06 9.93128E+04-9.98817E+05
 -1      1325-1.40558E+06-9.93128E+04-9.98817E+05
 -1      1326 1.42667E+06-5.03645E-05 7.61863E+05
 -1      1328 1.42667E+06 5.31080E-05 6.35332E+05
 -1      1337-8.60108E+05 1.09086E+05-1.10071E+06
 -1      1339-8.60108E+05-1.09086E+05-1.10071E+06
 -1      1340 8.61837E+05-1.14200E-05 8.41692E+05
 -1      1342 8.61837E+05 6.16366E-05 7.02708E+05
 -1      1351-2.83217E+05 1.11929E+05-1.12394E+06
 -1      1353-2.83217E+05-1.11929E+05-1.12394E+06
 -1      1354 2.64240E+05-2.73327E-05 8.61274E+05
 -1      1356 2.64240E+05 6.40544E-05 7.18667E+05
 -1      1365 2.83178E+05 1.05572E+05-1.06581E+06
 -1      1367 2.83178E+05-1.05572E+05-1.06581E+06
 -1      1368-3.23212E+05-8.11959E-05 8.17154E+05
 -1      1370-3.23212E+05 6.12778E-05 6.82647E+05
 -1      1379 7.98843E+05 9.27864E+04-9.30268E+05
 -1      1381 7.98843E+05-9.27864E+04-9.30268E+05
 -1      1382-8.59303E+05-7.91131E-05 7.14350E+05
 -1      1384-8.59303E+05 9.06868E-05 5.96133E+05
 -1      1393 1.22382E+06 7.12452E+04-7.23382E+05
 -1      1395 1.22382E+06-7.12452E+04-7.23382E+05
 -1      1396-1.30318E+06-5.68855E-05 5.55395E+05
 -1      1398-1.30318E+06 1.13979E-04 4.64624E+05
 -1      1407 1.52618E+06 4.61180E+04-4.58948E+05
 -1      1409 1.52618E+06-4.61180E+04-4.58948E+05
 -1      1410-1.62217E+06-8.11358E-05 3.54138E+05
 -1      1412-1.62217E+06 1.04904E-04 2.95380E+05
 -1      1421 1.67811E+06 1.36999E+04-1.51086E+05
 -1      1423 1.67811E+06-1.36999E+04-1.51086E+05
 -1      1424-1.78789E+06-1.23260E-04 1.18117E+05
 -1      1426-1.78789E+06 9.60173E-05 1.00662E+05
 -1      1435 1.66098E+06-1.66461E+04 1.83668E+05
 -1      1437 1.66098E+06 1.66461E+04 1.83668E+05
 -1      1438-1.78143E+06-1.36560E-04-1.35103E+05
 -1      1440-1.78143E+06 1.14180E-04-1.13895E+05
 -1      1449 1.47095E+06-5.47018E+04 5.14808E+05
 -1      1451 1.47095E+06 5.47018E+04 5.14808E+05
 -1      1452-1.59892E+06-1.35192E-04-3.86528E+05
 -1      1454-1.59892E+06 1.37762E-04-3.16834E+05
 -1      1463 1.11619E+06-8.11122E+04 8.58593E+05
 -1      1465 1.11619E+06 8.11122E+04 8.58593E+05
 -1      1466-1.24881E+06-1.36382E-04-6.45500E+05
 -1      1468-1.24881E+06 1.58892E-04-5.42157E+05
 -1      1477 6.39813E+05-1.07734E+05 1.09683E+06
 -1      1479 6.39813E+05 1.07734E+05 1.09683E+06
 -1      1480-7.74853E+05-1.42989E-04-8.06401E+05
 -1      1482-7.74853E+05 1.59042E-04-6.69139E+05
 -1      1491 3.14105E+04 8.10341E-06 1.57095E+05
 -1      1493 3.14105E+04-1.12323E-05 1.57095E+05
 -1      1494 2.27075E-06 2.31753E-05 1.56521E+05
 -1      1496 3.49136E-06-1.02322E-06 1.56521E+05
 -1      1497-3.14105E+04 9.41267E-06 1.57095E+05
 -1      1499-3.14105E+04-2.67964E-06 1.57095E+05
 -1      1500-3.16699E+03-5.95527E+02 3.58687E+04
 -1      1502-3.16699E+03-5.95527E+02 3.58687E+04
 -1      1503-5.33582E+03-3.59760E+02 7.61017E+04
 -1      1505-5.33582E+03-3.59760E+02 7.61017E+04
 -1      1506-5.98477E+03 9.68735E+01 1.14096E+05
 -1      1508-5.98477E+03 9.68735E+01 1.14096E+05
 -1      1509-5.07602E+03 3.85651E+02 1.46523E+05
 -1      1511-5.07602E+03 3.85651E+02 1.46523E+05
 -1      1512-2.83855E+03 6.30372E+02 1.72282E+05
 -1      1514-2.83855E+03 6.30372E+02 1.72282E+05
 -1      1515 4.13787E+02 8.13438E+02 1.89297E+05
 -1      1517 4.13787E+02 8.13438E+02 1.89297E+05
 -1      1518 4.34014E+03 9.14690E+02 1.96592E+05
 -1      1520 4.34014E+03 9.14690E+02 1.96592E+05
 -1      1521 8.57124E+03 9.37264E+02 1.93539E+05
 -1      1523 8.57124E+03 9.37264E+02 1.93539E+05
 -1      1524 1.27325E+04 8.80541E+02 1.80272E+05
 -1      1526 1.27325E+04 8.80541E+02 1.80272E+05
 -1      1527 1.64660E+04 7.50563E+02 1.57523E+05
 -1      1529 1.64660E+04 7.50563E+02 1.57523E+05
 -1      1530 1.94502E+04 5.57070E+02 1.26643E+05
 -1      1532 1.94502E+04 5.57070E+02 1.26643E+05
 -1      1533 2.14175E+04 3.13420E+02 8.94965E+04
 -1      1535 2.14175E+04 3.13420E+02 8.94965E+04
 -1      1536 2.21695E+04 3.57070E+01 4.83536E+04
 -1      1538 2.21695E+04 3.57070E+01 4.83536E+04
 -1      1539 2.15870E+04-2.58216E+02 5.74502E+03
 -1      1541 2.15870E+04-2.58216E+02 5.74502E+03
 -1      1542 1.96360E+04-5.49840E+02-3.56939E+04
 -1      1544 1.96360E+04-5.49840E+02-3.56939E+04
 -1      1545 1.63676E+04-8.21154E+02-7.33890E+04
 -1      1547 1.63676E+04-8.21154E+02-7.33890E+04
 -1      1548 1.19135E+04-1.05577E+03-1.04989E+05
 -1      1550 1.19135E+04-1.05577E+03-1.04989E+05
 -1      1551 6.47566E+03-1.23996E+03-1.28512E+05
 -1      1553 6.47566E+03-1.23996E+03-1.28512E+05
 -1      1554 3.11850E+02-1.36352E+03-1.42474E+05
 -1      1556 3.11850E+02-1.36352E+03-1.42474E+05
 -1      1557-6.28233E+03-1.42043E+03-1.45981E+05
 -1      1559-6.28233E+03-1.42043E+03-1.45981E+05
 -1      1560-1.29941E+04-1.40929E+03-1.38789E+05
 -1      1562-1.29941E+04-1.40929E+03-1.38789E+05
 -1      1563-1.95152E+04-1.33335E+03-1.21324E+05
 -1      1565-1.95152E+04-1.33335E+03-1.21324E+05
 -1      1566-2.55636E+04-1.20058E+03-9.46557E+04
 -1      1568-2.55636E+04-1.20058E+03-9.46557E+04
 -1      1569-3.09040E+04-1.02262E+03-6.04445E+04
 -1      1571-3.09040E+04-1.02262E+03-6.04445E+04
 -1      1572-3.53652E+04-8.15795E+02-2.08340E+04
 -1      1574-3.53652E+04-8.15795E+02-2.08340E+04
 -1      1575-3.88535E+04-5.96530E+02 2.16540E+04
 -1      1577-3.88535E+04-5.96530E+02 2.16540E+04
 -1      1578-4.13648E+04-3.82523E+02 6.43030E+04
 -1      1580-4.13648E+04-3.82523E+02 6.43030E+04
 -1      1581-4.29824E+04-2.13148E+02 1.04254E+05
 -1      1583-4.29824E+04-2.13148E+02 1.04254E+05
 -1      1584-4.38415E+04-6.66892E+01 1.38792E+05
 -1      1586-4.38415E+04-6.66892E+01 1.38792E+05
 -1      1587-4.42119E+04 1.22886E+01 1.38737E+05
 -1      1589-4.42119E+04 1.22886E+01 1.38737E+05
 -1      1590 3.73730E+06 4.50233E+05 6.74411E+04
 -1      1592 5.97231E+05 3.52887E+05 6.74411E+04
 -1      1593-4.42119E+04-1.22886E+01 1.38737E+05
 -1      1595-4.42119E+04-1.22886E+01 1.38737E+05
 -1      1596-3.16699E+03 5.95527E+02 3.58687E+04
 -1      1598-3.16699E+03 5.95527E+02 3.58687E+04
 -1      1599-5.33582E+03 3.59760E+02 7.61017E+04
 -1      1601-5.33582E+03 3.59760E+02 7.61017E+04
 -1      1602-5.98477E+03-9.68735E+01 1.14096E+05
 -1      1604-5.98477E+03-9.68735E+01 1.14096E+05
 -1      1605-5.07602E+03-3.85651E+02 1.46523E+05
 -1      1607-5.07602E+03-3.85651E+02 1.46523E+05
 -1      1608-2.83855E+03-6.30372E+02 1.72282E+05
 -1      1610-2.83855E+03-6.30372E+02 1.72282E+05
 -1      1611 4.13787E+02-8.13438E+02 1.89297E+05
 -1      1613 4.13787E+02-8.13438E+02 1.89297E+05
 -1      1614 4.34014E+03-9.14690E+02 1.96592E+05
 -1      1616 4.34014E+03-9.14690E+02 1.96592E+05
 -1      1617 8.57124E+03-9.37264E+02 1.93539E+05
 -1      1619 8.57124E+03-9.37264E+02 1.93539E+05
 -1      1620 1.27325E+04-8.80541E+02 1.80272E+05
 -1      1622 1.27325E+04-8.80541E+02 1.80272E+05
 -1      1623 1.64660E+04-7.50563E+02 1.57523E+05
 -1      1625 1.64660E+04-7.50563E+02 1.57523E+05
 -1      1626 1.94502E+04-5.57070E+02 1.26643E+05
 -1      1628 1.94502E+04-5.57070E+02 1.26643E+05
 -1      1629 2.14175E+04-3.13420E+02 8.94965E+04
 -1      1631 2.14175E+04-3.13420E+02 8.94965E+04
 -1      1632 2.21695E+04-3.57070E+01 4.83536E+04
 -1      1634 2.21695E+04-3.57070E+01 4.83536E+04
 -1      1635 2.15870E+04 2.58216E+02 5.74502E+03
 -1      1637 2.15870E+04 2.58216E+02 5.74502E+03
 -1      1638 1.96360E+04 5.49840E+02-3.56939E+04
 -1      1640 1.96360E+04 5.49840E+02-3.56939E+04
 -1      1641 1.63676E+04 8.21154E+02-7.33890E+04
 -1      1643 1.63676E+04 8.21154E+02-7.33890E+04
 -1      1644 1.19135E+04 1.05577E+03-1.04989E+05
 -1      1646 1.19135E+04 1.05577E+03-1.04989E+05
 -1      1647 6.47566E+03 1.23996E+03-1.28512E+05
 -1      1649 6.47566E+03 1.23996E+03-1.28512E+05
 -1      1650 3.11850E+02 1.36352E+03-1.42474E+05
 -1      1652 3.11850E+02 1.36352E+03-1.42474E+05
 -1      1653-6.28233E+03 1.42043E+03-1.45981E+05
 -1      1655-6.28233E+03 1.42043E+03-1.45981E+05
 -1      1656-1.29941E+04 1.40929E+03-1.38789E+05
 -1      1658-1.29941E+04 1.40929E+03-1.38789E+05
 -1      1659-1.95152E+04 1.33335E+03-1.21324E+05
 -1      1661-1.95152E+04 1.33335E+03-1.21324E+05
 -1      1662-2.55636E+04 1.20058E+03-9.46557E+04
 -1      1664-2.55636E+04 1.20058E+03-9.46557E+04
 -1      1665-3.09040E+04 1.02262E+03-6.04445E+04
 -1      1667-3.09040E+04 1.02262E+03-6.04445E+04
 -1      1668-3.53652E+04 8.15795E+02-2.08340E+04
 -1      1670-3.53652E+04 8.15795E+02-2.08340E+04
 -1      1671-3.88535E+04 5.96530E+02 2.16540E+04
 -1      1673-3.88535E+04 5.96530E+02 2.16540E+04
 -1      1674-4.13648E+04 3.82523E+02 6.43030E+04
 -1      1676-4.13648E+04 3.82523E+02 6.43030E+04
 -1      1677-4.29824E+04 2.13148E+02 1.04254E+05
 -1      1679-4.29824E+04 2.13148E+02 1.04254E+05
 -1      1680-4.38415E+04 6.66892E+01 1.38792E+05
 -1      1682-4.38415E+04 6.66892E+01 1.38792E+05
 -1      1683 3.73730E+06-4.50233E+05 6.74411E+04
 -1      1685 5.97231E+05-3.52887E+05 6.74411E+04
 -1      1686 7.08335E+03-8.06438E+02 5.84988E+04
 -1      1688 7.08335E+03-8.06438E+02 5.84988E+04
 -1      1689 1.17037E+04-4.82904E+02 1.23865E+05
 -1      1691 1.17037E+04-4.82904E+02 1.23865E+05
 -1      1692 1.29054E+04 1.36341E+02 1.85726E+05
 -1      1694 1.29054E+04 1.36341E+02 1.85726E+05
 -1      1695 1.09236E+04 5.21644E+02 2.38787E+05
 -1      1697 1.09236E+04 5.21644E+02 2.38787E+05
 -1      1698 6.28050E+03 8.48544E+02 2.81034E+05
 -1      1700 6.28050E+03 8.48544E+02 2.81034E+05
 -1      1701-4.24617E+02 1.09406E+03 3.08944E+05
 -1      1703-4.24617E+02 1.09406E+03 3.08944E+05
 -1      1704-8.49132E+03 1.22922E+03 3.20810E+05
 -1      1706-8.49132E+03 1.22922E+03 3.20810E+05
 -1      1707-1.71692E+04 1.25921E+03 3.15532E+05
 -1      1709-1.71692E+04 1.25921E+03 3.15532E+05
 -1      1710-2.56980E+04 1.18288E+03 2.93293E+05
 -1      1712-2.56980E+04 1.18288E+03 2.93293E+05
 -1      1713-3.33504E+04 1.00841E+03 2.55282E+05
 -1      1715-3.33504E+04 1.00841E+03 2.55282E+05
 -1      1716-3.94730E+04 7.48823E+02 2.03737E+05
 -1      1718-3.94730E+04 7.48823E+02 2.03737E+05
 -1      1719-4.35227E+04 4.22043E+02 1.41757E+05
 -1      1721-4.35227E+04 4.22043E+02 1.41757E+05
 -1      1722-4.50964E+04 4.96404E+01 7.31250E+04
 -1      1724-4.50964E+04 4.96404E+01 7.31250E+04
 -1      1725-4.39527E+04-3.44450E+02 2.06749E+03
 -1      1727-4.39527E+04-3.44450E+02 2.06749E+03
 -1      1728-4.00235E+04-7.35414E+02-6.70093E+04
 -1      1730-4.00235E+04-7.35414E+02-6.70093E+04
 -1      1731-3.34139E+04-1.09910E+03-1.29796E+05
 -1      1733-3.34139E+04-1.09910E+03-1.29796E+05
 -1      1734-2.43930E+04-1.41354E+03-1.82349E+05
 -1      1736-2.43930E+04-1.41354E+03-1.82349E+05
 -1      1737-1.33731E+04-1.66033E+03-2.21338E+05
 -1      1739-1.33731E+04-1.66033E+03-2.21338E+05
 -1      1740-8.79952E+02-1.82577E+03-2.44257E+05
 -1      1742-8.79952E+02-1.82577E+03-2.44257E+05
 -1      1743 1.24834E+04-1.90181E+03-2.49576E+05
 -1      1745 1.24834E+04-1.90181E+03-2.49576E+05
 -1      1746 2.60790E+04-1.88652E+03-2.36846E+05
 -1      1748 2.60790E+04-1.88652E+03-2.36846E+05
 -1      1749 3.92778E+04-1.78435E+03-2.06724E+05
 -1      1751 3.92778E+04-1.78435E+03-2.06724E+05
 -1      1752 5.15044E+04-1.60583E+03-1.60935E+05
 -1      1754 5.15044E+04-1.60583E+03-1.60935E+05
 -1      1755 6.22778E+04-1.36674E+03-1.02173E+05
 -1      1757 6.22778E+04-1.36674E+03-1.02173E+05
 -1      1758 7.12476E+04-1.08875E+03-3.39239E+04
 -1      1760 7.12476E+04-1.08875E+03-3.39239E+04
 -1      1761 7.82223E+04-7.94229E+02 3.97155E+04
 -1      1763 7.82223E+04-7.94229E+02 3.97155E+04
 -1      1764 8.31866E+04-5.05915E+02 1.14345E+05
 -1      1766 8.31866E+04-5.05915E+02 1.14345E+05
 -1      1767 8.63143E+04-2.79650E+02 1.85363E+05
 -1      1769 8.63143E+04-2.79650E+02 1.85363E+05
 -1      1770 8.79384E+04-8.40861E+01 2.48423E+05
 -1      1772 8.79384E+04-8.40861E+01 2.48423E+05
 -1      1773 7.08335E+03 8.06438E+02 5.84988E+04
 -1      1775 7.08335E+03 8.06438E+02 5.84988E+04
 -1      1776 1.17037E+04 4.82904E+02 1.23865E+05
 -1      1778 1.17037E+04 4.82904E+02 1.23865E+05
 -1      1779 1.29054E+04-1.36341E+02 1.85726E+05
 -1      1781 1.29054E+04-1.36341E+02 1.85726E+05
 -1      1782 1.09236E+04-5.21644E+02 2.38787E+05
 -1      1784 1.09236E+04-5.21644E+02 2.38787E+05
 -1      1785 6.28050E+03-8.48544E+02 2.81034E+05
 -1      1787 6.28050E+03-8.48544E+02 2.81034E+05
 -1      1788-4.24617E+02-1.09406E+03 3.08944E+05
 -1      1790-4.24617E+02-1.09406E+03 3.08944E+05
 -1      1791-8.49132E+03-1.22922E+03 3.20810E+05
 -1      1793-8.49132E+03-1.22922E+03 3.20810E+05
 -1      1794-1.71692E+04-1.25921E+03 3.15532E+05
 -1      1796-1.71692E+04-1.25921E+03 3.15532E+05
 -1      1797-2.56980E+04-1.18288E+03 2.93293E+05
 -1      1799-2.56980E+04-1.18288E+03 2.93293E+05
 -1      1800-3.33504E+04-1.00841E+03 2.55282E+05
 -1      1802-3.33504E+04-1.00841E+03 2.55282E+05
 -1      1803-3.94730E+04-7.48823E+02 2.03737E+05
 -1      1805-3.94730E+04-7.48823E+02 2.03737E+05
 -1      1806-4.35227E+04-4.22043E+02 1.41757E+05
 -1      1808-4.35227E+04-4.22043E+02 1.41757E+05
 -1      1809-4.50964E+04-4.96404E+01 7.31250E+04
 -1      1811-4.50964E+04-4.96405E+01 7.31250E+04
 -1      1812-4.39527E+04 3.44450E+02 2.06749E+03
 -1      1814-4.39527E+04 3.44450E+02 2.06749E+03
 -1      1815-4.00235E+04 7.35414E+02-6.70093E+04
 -1      1817-4.00235E+04 7.35414E+02-6.70093E+04
 -1      1818-3.34139E+04 1.09910E+03-1.29796E+05
 -1      1820-3.34139E+04 1.09910E+03-1.29796E+05
 -1      1821-2.43930E+04 1.41354E+03-1.82349E+05
 -1      1823-2.43930E+04 1.41354E+03-1.82349E+05
 -1      1824-1.33731E+04 1.66033E+03-2.21338E+05
 -1      1826-1.33731E+04 1.66033E+03-2.21338E+05
 -1      1827-8.79952E+02 1.82577E+03-2.44257E+05
 -1      1829-8.79952E+02 1.82577E+03-2.44257E+05
 -1      1830 1.24834E+04 1.90181E+03-2.49576E+05
 -1      1832 1.24834E+04 1.90181E+03-2.49576E+05
 -1      1833 2.60790E+04 1.88652E+03-2.36846E+05
 -1      1835 2.60790E+04 1.88652E+03-2.36846E+05
 -1      1836 3.92778E+04 1.78435E+03-2.06724E+05
 -1      1838 3.92778E+04 1.78435E+03-2.06724E+05
 -1      1839 5.15044E+04 1.60583E+03-1.60935E+05
 -1      1841 5.15044E+04 1.60583E+03-1.60935E+05
 -1      1842 6.22778E+04 1.36674E+03-1.02173E+05
 -1      1844 6.22778E+04 1.36674E+03-1.02173E+05
 -1      1845 7.12476E+04 1.08875E+03-3.39239E+04
 -1      1847 7.12476E+04 1.08875E+03-3.39239E+04
 -1      1848 7.82223E+04 7.94229E+02 3.97155E+04
 -1      1850 7.82223E+04 7.94229E+02 3.97155E+04
 -1      1851 8.31866E+04 5.05915E+02 1.14345E+05
 -1      1853 8.31866E+04 5.05915E+02 1.14345E+05
 -1      1854 8.63143E+04 2.79650E+02 1.85363E+05
 -1      1856 8.63143E+04 2.79650E+02 1.85363E+05
 -1      1857 8.79384E+04 8.40861E+01 2.48423E+05
 -1      1859 8.79384E+04 8.40861E+01 2.48423E+05
 -1      1860 4.93898E+03 9.33288E-06 5.21936E+04
 -1      1862 4.93898E+03 1.65085E-05 5.21936E+04
 -1      1863 8.21596E+03 9.34021E-06 1.07568E+05
 -1      1865 8.21596E+03 1.83652E-05 1.07568E+05
 -1      1866 9.16107E+03-4.99300E-06 1.61718E+05
 -1      1868 9.16107E+03-5.37823E-07 1.61718E+05
 -1      1869 7.80297E+03 3.42828E-06 2.09640E+05
 -1      1871 7.80297E+03-5.39093E-06 2.09640E+05
 -1      1872 4.51121E+03 8.67259E-06 2.47846E+05
 -1      1874 4.51121E+03 5.34453E-06 2.47846E+05
 -1      1875-2.42252E+02-2.32995E-06 2.73246E+05
 -1      1877-2.42252E+02 8.14725E-06 2.73246E+05
 -1      1878-5.96525E+03-4.38261E-06 2.83802E+05
 -1      1880-5.96525E+03 1.00814E-05 2.83802E+05
 -1      1881-1.21192E+04 1.68455E-05 2.78426E+05
 -1      1883-1.21192E+04 7.40697E-06 2.78426E+05
 -1      1884-1.81675E+04 1.79486E-05 2.57139E+05
 -1      1886-1.81675E+04-2.63332E-06 2.57139E+05
 -1      1887-2.35944E+04 1.50875E-05 2.21009E+05
 -1      1889-2.35944E+04-8.55427E-06 2.21009E+05
 -1      1890-2.79375E+04 7.36470E-06 1.72101E+05
 -1      1892-2.79375E+04-9.14524E-06 1.72101E+05
 -1      1893-3.08120E+04-2.01574E-06 1.13328E+05
 -1      1895-3.08120E+04 4.21400E-07 1.13328E+05
 -1      1896-3.19328E+04-7.30306E-06 4.82724E+04
 -1      1898-3.19328E+04 2.79781E-05 4.82724E+04
 -1      1899-3.11289E+04-8.20781E-06-1.90478E+04
 -1      1901-3.11289E+04 2.92718E-05-1.90478E+04
 -1      1902-2.83521E+04-1.13183E-05-8.44266E+04
 -1      1904-2.83521E+04 6.81610E-07-8.44266E+04
 -1      1905-2.36771E+04 5.19377E-07-1.43735E+05
 -1      1907-2.36771E+04-6.68619E-07-1.43735E+05
 -1      1908-1.72945E+04-2.51152E-05-1.93180E+05
 -1      1910-1.72945E+04 1.35796E-05-1.93180E+05
 -1      1911-9.49641E+03-1.64562E-05-2.29533E+05
 -1      1913-9.49641E+03-2.57027E-06-2.29533E+05
 -1      1914-6.55296E+02-4.45901E-07-2.50335E+05
 -1      1916-6.55296E+02-1.45574E-05-2.50335E+05
 -1      1917 8.80168E+03 1.46609E-06-2.54039E+05
 -1      1919 8.80168E+03 3.85270E-06-2.54039E+05
 -1      1920 1.84225E+04-3.67217E-06-2.40103E+05
 -1      1922 1.84225E+04-3.07850E-06-2.40103E+05
 -1      1923 2.77617E+04 5.22913E-06-2.09010E+05
 -1      1925 2.77617E+04 6.97267E-06-2.09010E+05
 -1      1926 3.64115E+04 4.46606E-06-1.62232E+05
 -1      1928 3.64115E+04 4.08231E-06-1.62232E+05
 -1      1929 4.40312E+04 2.03899E-05-1.02123E+05
 -1      1931 4.40312E+04-5.24173E-06-1.02123E+05
 -1      1932 5.03734E+04 1.66591E-05-3.17519E+04
 -1      1934 5.03734E+04-8.10584E-06-3.17519E+04
 -1      1935 5.53039E+04 1.13462E-05 4.53021E+04
 -1      1937 5.53039E+04 1.24260E-06 4.53021E+04
 -1      1938 5.88207E+04 8.89686E-06 1.25203E+05
 -1      1940 5.88207E+04-3.59151E-06 1.25203E+05
 -1      1941 6.10708E+04-1.39894E-05 2.04106E+05
 -1      1943 6.10708E+04-1.59453E-05 2.04106E+05
 -1      1944 6.23642E+04 2.84604E-06 2.78511E+05
 -1      1946 6.23642E+04-2.94638E-05 2.78511E+05
 -1      1947-5.90923E-06 1.23748E-05 5.19682E+04
 -1      1949-5.84368E-06 1.16711E-05 5.19682E+04
 -1      1950-1.72000E-06 7.02848E-06 1.06847E+05
 -1      1952-1.33020E-06 8.39127E-06 1.06847E+05
 -1      1953-1.44138E-06-2.92571E-06 1.60983E+05
 -1      1955-8.52295E-07-5.42457E-06 1.60983E+05
 -1      1956 1.83088E-07 2.30306E-06 2.09082E+05
 -1      1958 4.90316E-07-9.08594E-06 2.09082E+05
 -1      1959 4.15831E-06 1.35146E-05 2.47364E+05
 -1      1961 4.12277E-06-2.29369E-06 2.47364E+05
 -1      1962 3.04924E-06-9.98954E-07 2.72850E+05
 -1      1964 3.15057E-06 5.23330E-06 2.72850E+05
 -1      1965 7.08652E-06 1.17131E-05 2.83462E+05
 -1      1967 7.03279E-06 2.32865E-05 2.83462E+05
 -1      1968 1.07351E-05 2.31078E-05 2.78132E+05
 -1      1970 1.07942E-05 1.27688E-05 2.78132E+05
 -1      1971 6.50425E-06 2.73822E-05 2.56875E+05
 -1      1973 7.51102E-06 2.73917E-06 2.56875E+05
 -1      1974 7.34251E-06 2.37022E-05 2.20764E+05
 -1      1976 7.89171E-06 2.00040E-06 2.20764E+05
 -1      1977 8.16031E-06-2.69170E-07 1.71861E+05
 -1      1979 7.72625E-06 1.67395E-05 1.71861E+05
 -1      1980 3.29669E-06-2.24906E-06 1.13085E+05
 -1      1982 2.86326E-06 1.43497E-05 1.13085E+05
 -1      1983-1.45219E-06 2.11978E-05 4.80159E+04
 -1      1985-1.91859E-06 2.68400E-05 4.80159E+04
 -1      1986-7.35007E-06 1.46484E-05-1.93243E+04
 -1      1988-7.40755E-06 3.19522E-05-1.93243E+04
 -1      1989-1.45993E-05 1.07397E-05-8.47286E+04
 -1      1991-1.50470E-05 7.01447E-06-8.47286E+04
 -1      1992-1.52024E-05-1.25399E-06-1.44067E+05
 -1      1994-1.61949E-05 1.02528E-05-1.44067E+05
 -1      1995-5.61428E-06-2.18286E-05-1.93544E+05
 -1      1997-6.76911E-06-1.10020E-06-1.93544E+05
 -1      1998 2.01373E-06-2.18471E-06-2.29933E+05
 -1      2000 1.37407E-06 3.88624E-07-2.29933E+05
 -1      2001-4.26764E-06 2.65069E-05-2.50772E+05
 -1      2003-5.79751E-06 1.46578E-05-2.50772E+05
 -1      2004-8.69952E-06 2.43031E-05-2.54514E+05
 -1      2006-1.07494E-05 9.85693E-06-2.54514E+05
 -1      2007-1.60965E-06 1.17777E-05-2.40618E+05
 -1      2009-3.18550E-06-7.90238E-06-2.40618E+05
 -1      2010 1.26759E-06 2.03880E-05-2.09568E+05
 -1      2012 7.06116E-07-1.18461E-06-2.09568E+05
 -1      2013 4.18758E-07 2.39257E-05-1.62837E+05
 -1      2015 6.85849E-07 1.07320E-05-1.62837E+05
 -1      2016 4.39566E-06 1.94996E-05-1.02780E+05
 -1      2018 4.44155E-06-3.51253E-06-1.02780E+05
 -1      2019 7.74079E-06 1.54145E-05-3.24702E+04
 -1      2021 7.36090E-06-1.05065E-05-3.24702E+04
 -1      2022 7.54912E-06 1.40472E-05 4.45127E+04
 -1      2024 5.86946E-06-2.69755E-06 4.45127E+04
 -1      2025 5.74921E-06 2.78871E-06 1.24322E+05
 -1      2027 2.95447E-06 2.75596E-06 1.24322E+05
 -1      2028 8.93607E-07 1.80649E-05 2.03117E+05
 -1      2030-2.12025E-07 6.29835E-07 2.03117E+05
 -1      2031 1.69113E-06-1.71657E-06 2.77416E+05
 -1      2033 3.08262E-06-1.45155E-05 2.77416E+05
 -1      2034-4.93898E+03 4.11417E-06 5.21936E+04
 -1      2036-4.93898E+03-1.40184E-06 5.21936E+04
 -1      2037-8.21596E+03-1.54192E-06 1.07568E+05
 -1      2039-8.21596E+03-8.69438E-06 1.07568E+05
 -1      2040-9.16107E+03-1.00492E-05 1.61718E+05
 -1      2042-9.16107E+03-1.78115E-05 1.61718E+05
 -1      2043-7.80297E+03-1.14429E-06 2.09640E+05
 -1      2045-7.80297E+03-9.91750E-06 2.09640E+05
 -1      2046-4.51121E+03 1.07955E-05 2.47846E+05
 -1      2048-4.51121E+03-2.05607E-06 2.47846E+05
 -1      2049 2.42252E+02 4.56124E-06 2.73246E+05
 -1      2051 2.42252E+02 1.74984E-06 2.73246E+05
 -1      2052 5.96525E+03 8.38815E-06 2.83802E+05
 -1      2054 5.96525E+03 1.56763E-05 2.83802E+05
 -1      2055 1.21192E+04 1.37008E-05 2.78426E+05
 -1      2057 1.21192E+04 2.20385E-05 2.78426E+05
 -1      2058 1.81675E+04 1.05153E-05 2.57139E+05
 -1      2060 1.81675E+04 4.00976E-06 2.57139E+05
 -1      2061 2.35944E+04 3.64671E-06 2.21009E+05
 -1      2063 2.35944E+04-9.02354E-06 2.21009E+05
 -1      2064 2.79375E+04-1.17367E-05 1.72101E+05
 -1      2066 2.79375E+04 2.29256E-05 1.72101E+05
 -1      2067 3.08120E+04-1.25833E-05 1.13328E+05
 -1      2069 3.08120E+04 3.33880E-05 1.13328E+05
 -1      2070 3.19328E+04 1.20860E-05 4.82724E+04
 -1      2072 3.19328E+04 2.67713E-05 4.82724E+04
 -1      2073 3.11289E+04-2.68474E-06-1.90478E+04
 -1      2075 3.11289E+04 6.83492E-06-1.90478E+04
 -1      2076 2.83521E+04-1.20045E-05-8.44266E+04
 -1      2078 2.83521E+04 2.59792E-05-8.44266E+04
 -1      2079 2.36771E+04-2.22428E-05-1.43735E+05
 -1      2081 2.36771E+04 2.26518E-05-1.43735E+05
 -1      2082 1.72945E+04 7.53350E-06-1.93180E+05
 -1      2084 1.72945E+04 1.72112E-05-1.93180E+05
 -1      2085 9.49641E+03 6.81741E-06-2.29533E+05
 -1      2087 9.49641E+03 6.47709E-07-2.29533E+05
 -1      2088 6.55296E+02 8.73781E-06-2.50335E+05
 -1      2090 6.55296E+02 2.06219E-05-2.50335E+05
 -1      2091-8.80168E+03 1.95539E-05-2.54039E+05
 -1      2093-8.80168E+03 6.55200E-06-2.54039E+05
 -1      2094-1.84225E+04 5.32530E-06-2.40103E+05
 -1      2096-1.84225E+04-8.19289E-06-2.40103E+05
 -1      2097-2.77617E+04 1.35642E-05-2.09010E+05
 -1      2099-2.77617E+04-1.34068E-05-2.09010E+05
 -1      2100-3.64115E+04 1.37838E-05-1.62232E+05
 -1      2102-3.64115E+04 1.49814E-06-1.62232E+05
 -1      2103-4.40312E+04 3.05537E-06-1.02123E+05
 -1      2105-4.40312E+04 6.92831E-06-1.02123E+05
 -1      2106-5.03734E+04-1.31789E-05-3.17519E+04
 -1      2108-5.03734E+04-1.29921E-05-3.17519E+04
 -1      2109-5.53039E+04-1.25032E-05 4.53021E+04
 -1      2111-5.53039E+04-6.96692E-06 4.53021E+04
 -1      2112-5.88207E+04 9.38121E-06 1.25203E+05
 -1      2114-5.88207E+04-5.72901E-07 1.25203E+05
 -1      2115-6.10708E+04 2.30214E-05 2.04106E+05
 -1      2117-6.10708E+04-4.16582E-07 2.04106E+05
 -1      2118-6.23642E+04 1.66826E-05 2.78511E+05
 -1      2120-6.23642E+04 5.52946E-06 2.78511E+05
 -1      2121-7.08335E+03-8.06438E+02 5.84988E+04
 -1      2123-7.08335E+03-8.06438E+02 5.84988E+04
 -1      2124-1.17037E+04-4.82904E+02 1.23865E+05
 -1      2126-1.17037E+04-4.82904E+02 1.23865E+05
 -1      2127-1.29054E+04 1.36341E+02 1.85726E+05
 -1      2129-1.29054E+04 1.36341E+02 1.85726E+05
 -1      2130-1.09236E+04 5.21644E+02 2.38787E+05
 -1      2132-1.09236E+04 5.21644E+02 2.38787E+05
 -1      2133-6.28050E+03 8.48544E+02 2.81034E+05
 -1      2135-6.28050E+03 8.48544E+02 2.81034E+05
 -1      2136 4.24617E+02 1.09406E+03 3.08944E+05
 -1      2138 4.24617E+02 1.09406E+03 3.08944E+05
 -1      2139 8.49132E+03 1.22922E+03 3.20810E+05
 -1      2141 8.49132E+03 1.22922E+03 3.20810E+05
 -1      2142 1.71692E+04 1.25921E+03 3.15532E+05
 -1      2144 1.71692E+04 1.25921E+03 3.15532E+05
 -1      2145 2.56980E+04 1.18288E+03 2.93293E+05
 -1      2147 2.56980E+04 1.18288E+03 2.93293E+05
 -1      2148 3.33504E+04 1.00841E+03 2.55282E+05
 -1      2150 3.33504E+04 1.00841E+03 2.55282E+05
 -1      2151 3.94730E+04 7.48823E+02 2.03737E+05
 -1      2153 3.94730E+04 7.48823E+02 2.03737E+05
 -1      2154 4.35227E+04 4.22043E+02 1.41757E+05
 -1      2156 4.35227E+04 4.22043E+02 1.41757E+05
 -1      2157 4.50964E+04 4.96405E+01 7.31250E+04
 -1      2159 4.50964E+04 4.96405E+01 7.31250E+04
 -1      2160 4.39527E+04-3.44450E+02 2.06749E+03
 -1      2162 4.39527E+04-3.44450E+02 2.06749E+03
 -1      2163 4.00235E+04-7.35414E+02-6.70093E+04
 -1      2165 4.00235E+04-7.35414E+02-6.70093E+04
 -1      2166 3.34139E+04-1.09910E+03-1.29796E+05
 -1      2168 3.34139E+04-1.09910E+03-1.29796E+05
 -1      2169 2.43930E+04-1.41354E+03-1.82349E+05
 -1      2171 2.43930E+04-1.41354E+03-1.82349E+05
 -1      2172 1.33731E+04-1.66033E+03-2.21338E+05
 -1      2174 1.33731E+04-1.66033E+03-2.21338E+05
 -1      2175 8.79952E+02-1.82577E+03-2.44257E+05
 -1      2177 8.79952E+02-1.82577E+03-2.44257E+05
 -1      2178-1.24834E+04-1.90181E+03-2.49576E+05
 -1      2180-1.24834E+04-1.90181E+03-2.49576E+05
 -1      2181-2.60790E+04-1.88652E+03-2.36846E+05
 -1      2183-2.60790E+04-1.88652E+03-2.36846E+05
 -1      2184-3.92778E+04-1.78435E+03-2.06724E+05
 -1      2186-3.92778E+04-1.78435E+03-2.06724E+05
 -1      2187-5.15044E+04-1.60583E+03-1.60935E+05
 -1      2189-5.15044E+04-1.60583E+03-1.60935E+05
 -1      2190-6.22778E+04-1.36674E+03-1.02173E+05
 -1      2192-6.22778E+04-1.36674E+03-1.02173E+05
 -1      2193-7.12476E+04-1.08875E+03-3.39239E+04
 -1      2195-7.12476E+04-1.08875E+03-3.39239E+04
 -1      2196-7.82223E+04-7.94229E+02 3.97155E+04
 -1      2198-7.82223E+04-7.94229E+02 3.97155E+04
 -1      2199-8.31866E+04-5.05915E+02 1.14345E+05
 -1      2201-8.31866E+04-5.05915E+02 1.14345E+05
 -1      2202-8.63143E+04-2.79650E+02 1.85363E+05
 -1      2204-8.63143E+04-2.79650E+02 1.85363E+05
 -1      2205-8.79384E+04-8.40861E+01 2.48423E+05
 -1      2207-8.79384E+04-8.40861E+01 2.48423E+05
 -1      2208-7.08335E+03 8.06438E+02 5.84988E+04
 -1      2210-7.08335E+03 8.06438E+02 5.84988E+04
 -1      2211-1.17037E+04 4.82904E+02 1.23865E+05
 -1      2213-1.17037E+04 4.82904E+02 1.23865E+05
 -1      2214-1.29054E+04-1.36341E+02 1.85726E+05
 -1      2216-1.29054E+04-1.36341E+02 1.85726E+05
 -1      2217-1.09236E+04-5.21644E+02 2.38787E+05
 -1      2219-1.09236E+04-5.21644E+02 2.38787E+05
 -1      2220-6.28050E+03-8.48544E+02 2.81034E+05
 -1      2222-6.28050E+03-8.48544E+02 2.81034E+05
 -1      2223 4.24618E+02-1.09406E+03 3.08944E+05
 -1      2225 4.24618E+02-1.09406E+03 3.08944E+05
 -1      2226 8.49132E+03-1.22922E+03 3.20810E+05
 -1      2228 8.49132E+03-1.22922E+03 3.20810E+05
 -1      2229 1.71692E+04-1.25921E+03 3.15532E+05
 -1      2231 1.71692E+04-1.25921E+03 3.15532E+05
 -1      2232 2.56980E+04-1.18288E+03 2.93293E+05
 -1      2234 2.56980E+04-1.18288E+03 2.93293E+05
 -1      2235 3.33504E+04-1.00841E+03 2.55282E+05
 -1      2237 3.33504E+04-1.00841E+03 2.55282E+05
 -1      2238 3.94730E+04-7.48823E+02 2.03737E+05
 -1      2240 3.94730E+04-7.48823E+02 2.03737E+05
 -1      2241 4.35227E+04-4.22043E+02 1.41757E+05
 -1      2243 4.35227E+04-4.22043E+02 1.41757E+05
 -1      2244 4.50964E+04-4.96404E+01 7.31250E+04
 -1      2246 4.50964E+04-4.96404E+01 7.31250E+04
 -1      2247 4.39527E+04 3.44450E+02 2.06749E+03
 -1      2249 4.39527E+04 3.44450E+02 2.06749E+03
 -1      2250 4.00235E+04 7.35414E+02-6.70093E+04
 -1      2252 4.00235E+04 7.35414E+02-6.70093E+04
 -1      2253 3.34139E+04 1.09910E+03-1.29796E+05
 -1      2255 3.34139E+04 1.09910E+03-1.29796E+05
 -1      2256 2.43930E+04 1.41354E+03-1.82349E+05
 -1      2258 2.43930E+04 1.41354E+03-1.82349E+05
 -1      2259 1.33731E+04 1.66033E+03-2.21338E+05
 -1      2261 1.33731E+04 1.66033E+03-2.21338E+05
 -1      2262 8.79952E+02 1.82577E+03-2.44257E+05
 -1      2264 8.79952E+02 1.82577E+03-2.44257E+05
 -1      2265-1.24834E+04 1.90181E+03-2.49576E+05
 -1      2267-1.24834E+04 1.90181E+03-2.49576E+05
 -1      2268-2.60790E+04 1.88652E+03-2.36846E+05
 -1      2270-2.60790E+04 1.88652E+03-2.36846E+05
 -1      2271-3.92778E+04 1.78435E+03-2.06724E+05
 -1      2273-3.92778E+04 1.78435E+03-2.06724E+05
 -1      2274-5.15044E+04 1.60583E+03-1.60935E+05
 -1      2276-5.15044E+04 1.60583E+03-1.60935E+05
 -1      2277-6.22778E+04 1.36674E+03-1.02173E+05
 -1      2279-6.22778E+04 1.36674E+03-1.02173E+05
 -1      2280-7.12476E+04 1.08875E+03-3.39239E+04
 -1      2282-7.12476E+04 1.08875E+03-3.39239E+04
 -1      2283-7.82223E+04 7.94229E+02 3.97155E+04
 -1      2285-7.82223E+04 7.94229E+02 3.97155E+04
 -1      2286-8.31866E+04 5.05915E+02 1.14345E+05
 -1      2288-8.31866E+04 5.05915E+02 1.14345E+05
 -1      2289-8.63143E+04 2.79650E+02 1.85363E+05
 -1      2291-8.63143E+04 2.79650E+02 1.85363E+05
 -1      2292-8.79384E+04 8.40861E+01 2.48423E+05
 -1      2294-8.79384E+04 8.40861E+01 2.48423E+05
 -3
    1PSTEP                        60           1           1          
    1PGM                1.000000E+00                                  
    1PGK                1.086716E+07                                  
    1PHID                         -1                                  
    1PSUBC                         0                                  
    1PMODE                        15                                  
  100CL  115 524.6603102         930                     2   15MODAL      1
 -4  ERROR       1    1
 -5  STR(%)      1    1    0    0
 -1       404 0.00000E+00
 -1       406 0.00000E+00
 -1       407 0.00000E+00
 -1       409 0.00000E+00
 -1       410 0.00000E+00
 -1       412 0.00000E+00
 -1       413 0.00000E+00
 -1       415 0.00000E+00
 -1       424 0.00000E+00
 -1       426 0.00000E+00
 -1       427 0.00000E+00
 -1       429 0.00000E+00
 -1       438 0.00000E+00
 -1       440 0.00000E+00
 -1       441 0.00000E+00
 -1       443 0.00000E+00
 -1       444 0.00000E+00
 -1       446 0.00000E+00
 -1       447 0.00000E+00
 -1       449 0.00000E+00
 -1       458 0.00000E+00
 -1       460 0.00000E+00
 -1       461 0.00000E+00
 -1       463 0.00000E+00
 -1       472 0.00000E+00
 -1       474 0.00000E+00
 -1       475 0.00000E+00
 -1       477 0.00000E+00
 -1       478 0.00000E+00
 -1       480 0.00000E+00
 -1       481 0.00000E+00
 -1       483 0.00000E+00
 -1       484 0.00000E+00
 -1       486 0.00000E+00
 -1       487 0.00000E+00
 -1       489 0.00000E+00
 -1       490 0.00000E+00
 -1       492 0.00000E+00
 -1       493 0.00000E+00
 -1       495 0.00000E+00
 -1       496 0.00000E+00
 -1       498 0.00000E+00
 -1       499 0.00000E+00
 -1       501 0.00000E+00
 -1       502 0.00000E+00
 -1       504 0.00000E+00
 -1       505 0.00000E+00
 -1       507 0.00000E+00
 -1       508 0.00000E+00
 -1       510 0.00000E+00
 -1       511 0.00000E+00
 -1       513 0.00000E+00
 -1       514 0.00000E+00
 -1       516 0.00000E+00
 -1       517 0.00000E+00
 -1       519 0.00000E+00
 -1       520 0.00000E+00
 -1       522 0.00000E+00
 -1       523 0.00000E+00
 -1       525 0.00000E+00
 -1       526 0.00000E+00
 -1       528 0.00000E+00
 -1       529 0.00000E+00
 -1       531 0.00000E+00
 -1       532 0.00000E+00
 -1       534 0.00000E+00
 -1       535 0.00000E+00
 -1       537 0.00000E+00
 -1       538 0.00000E+00
 -1       540 0.00000E+00
 -1       541 0.00000E+00
 -1       543 0.00000E+00
 -1       544 0.00000E+00
 -1       546 0.00000E+00
 -1       547 0.00000E+00
 -1       549 0.00000E+00
 -1       550 0.00000E+00
 -1       552 0.00000E+00
 -1       553 0.00000E+00
 -1       555 0.00000E+00
 -1       556 0.00000E+00
 -1       558 0.00000E+00
 -1       559 0.00000E+00
 -1       561 0.00000E+00
 -1       562 0.00000E+00
 -1       564 0.00000E+00
 -1       565 0.00000E+00
 -1       567 0.00000E+00
 -1       568 0.00000E+00
 -1       570 0.00000E+00
 -1       571 0.00000E+00
 -1       573 0.00000E+00
 -1       574 0.00000E+00
 -1       576 0.00000E+00
 -1       577 0.00000E+00
 -1       579 0.00000E+00
 -1       588 0.00000E+00
 -1       590 0.00000E+00
 -1       591 0.00000E+00
 -1       593 0.00000E+00
 -1       602 0.00000E+00
 -1       604 0.00000E+00
 -1       605 0.00000E+00
 -1       607 0.00000E+00
 -1       616 0.00000E+00
 -1       618 0.00000E+00
 -1       619 0.00000E+00
 -1       621 0.00000E+00
 -1       630 0.00000E+00
 -1       632 0.00000E+00
 -1       633 0.00000E+00
 -1       635 0.00000E+00
 -1       644 0.00000E+00
 -1       646 0.00000E+00
 -1       647 0.00000E+00
 -1       649 0.00000E+00
 -1       658 0.00000E+00
 -1       660 0.00000E+00
 -1       661 0.00000E+00
 -1       663 0.00000E+00
 -1       672 0.00000E+00
 -1       674 0.00000E+00
 -1       675 0.00000E+00
 -1       677 0.00000E+00
 -1       686 0.00000E+00
 -1       688 0.00000E+00
 -1       689 0.00000E+00
 -1       691 0.00000E+00
 -1       700 0.00000E+00
 -1       702 0.00000E+00
 -1       703 0.00000E+00
 -1       705 0.00000E+00
 -1       714 0.00000E+00
 -1       716 0.00000E+00
 -1       717 0.00000E+00
 -1       719 0.00000E+00
 -1       728 0.00000E+00
 -1       730 0.00000E+00
 -1       731 0.00000E+00
 -1       733 0.00000E+00
 -1       742 0.00000E+00
 -1       744 0.00000E+00
 -1       745 0.00000E+00
 -1       747 0.00000E+00
 -1       756 0.00000E+00
 -1       758 0.00000E+00
 -1       759 0.00000E+00
 -1       761 0.00000E+00
 -1       770 0.00000E+00
 -1       772 0.00000E+00
 -1       773 0.00000E+00
 -1       775 0.00000E+00
 -1       784 0.00000E+00
 -1       786 0.00000E+00
 -1       787 0.00000E+00
 -1       789 0.00000E+00
 -1       798 0.00000E+00
 -1       800 0.00000E+00
 -1       801 0.00000E+00
 -1       803 0.00000E+00
 -1       812 0.00000E+00
 -1       814 0.00000E+00
 -1       815 0.00000E+00
 -1       817 0.00000E+00
 -1       826 0.00000E+00
 -1       828 0.00000E+00
 -1       829 0.00000E+00
 -1       831 0.00000E+00
 -1       840 0.00000E+00
 -1       842 0.00000E+00
 -1       843 0.00000E+00
 -1       845 0.00000E+00
 -1       854 0.00000E+00
 -1       856 0.00000E+00
 -1       857 0.00000E+00
 -1       859 0.00000E+00
 -1       868 0.00000E+00
 -1       870 0.00000E+00
 -1       871 0.00000E+00
 -1       873 0.00000E+00
 -1       882 0.00000E+00
 -1       884 0.00000E+00
 -1       885 0.00000E+00
 -1       887 0.00000E+00
 -1       896 0.00000E+00
 -1       898 0.00000E+00
 -1       899 0.00000E+00
 -1       901 0.00000E+00
 -1       910 0.00000E+00
 -1       912 0.00000E+00
 -1       913 0.00000E+00
 -1       915 0.00000E+00
 -1       924 0.00000E+00
 -1       926 0.00000E+00
 -1       927 0.00000E+00
 -1       929 0.00000E+00
 -1       938 0.00000E+00
 -1       940 0.00000E+00
 -1       941 0.00000E+00
 -1       943 0.00000E+00
 -1       952 0.00000E+00
 -1       954 0.00000E+00
 -1       955 0.00000E+00
 -1       957 0.00000E+00
 -1       966 0.00000E+00
 -1       968 0.00000E+00
 -1       969 0.00000E+00
 -1       971 0.00000E+00
 -1       980 0.00000E+00
 -1       982 0.00000E+00
 -1       983 0.00000E+00
 -1       985 0.00000E+00
 -1       986 0.00000E+00
 -1       988 0.00000E+00
 -1       989 0.00000E+00
 -1       991 0.00000E+00
 -1       992 0.00000E+00
 -1       994 0.00000E+00
 -1       995 0.00000E+00
 -1       997 0.00000E+00
 -1       998 0.00000E+00
 -1      1000 0.00000E+00
 -1      1001 0.00000E+00
 -1      1003 0.00000E+00
 -1      1004 0.00000E+00
 -1      1006 0.00000E+00
 -1      1007 0.00000E+00
 -1      1009 0.00000E+00
 -1      1010 0.00000E+00
 -1      1012 0.00000E+00
 -1      1013 0.00000E+00
 -1      1015 0.00000E+00
 -1      1016 0.00000E+00
 -1      1018 0.00000E+00
 -1      1019 0.00000E+00
 -1      1021 0.00000E+00
 -1      1022 0.00000E+00
 -1      1024 0.00000E+00
 -1      1025 0.00000E+00
 -1      1027 0.00000E+00
 -1      1028 0.00000E+00
 -1      1030 0.00000E+00
 -1      1031 0.00000E+00
 -1      1033 0.00000E+00
 -1      1034 0.00000E+00
 -1      1036 0.00000E+00
 -1      1037 0.00000E+00
 -1      1039 0.00000E+00
 -1      1040 0.00000E+00
 -1      1042 0.00000E+00
 -1      1043 0.00000E+00
 -1      1045 0.00000E+00
 -1      1046 0.00000E+00
 -1      1048 0.00000E+00
 -1      1049 0.00000E+00
 -1      1051 0.00000E+00
 -1      1052 0.00000E+00
 -1      1054 0.00000E+00
 -1      1055 0.00000E+00
 -1      1057 0.00000E+00
 -1      1058 0.00000E+00
 -1      1060 0.00000E+00
 -1      1061 0.00000E+00
 -1      1063 0.00000E+00
 -1      1064 0.00000E+00
 -1      1066 0.00000E+00
 -1      1067 0.00000E+00
 -1      1069 0.00000E+00
 -1      1070 0.00000E+00
 -1      1072 0.00000E+00
 -1      1073 0.00000E+00
 -1      1075 0.00000E+00
 -1      1076 0.00000E+00
 -1      1078 0.00000E+00
 -1      1079 0.00000E+00
 -1      1081 0.00000E+00
 -1      1082 0.00000E+00
 -1      1084 0.00000E+00
 -1      1085 0.00000E+00
 -1      1087 0.00000E+00
 -1      1088 0.00000E+00
 -1      1090 0.00000E+00
 -1      1099 0.00000E+00
 -1      1101 0.00000E+00
 -1      1102 0.00000E+00
 -1      1104 0.00000E+00
 -1      1113 0.00000E+00
 -1      1115 0.00000E+00
 -1      1116 0.00000E+00
 -1      1118 0.00000E+00
 -1      1127 0.00000E+00
 -1      1129 0.00000E+00
 -1      1130 0.00000E+00
 -1      1132 0.00000E+00
 -1      1141 0.00000E+00
 -1      1143 0.00000E+00
 -1      1144 0.00000E+00
 -1      1146 0.00000E+00
 -1      1155 0.00000E+00
 -1      1157 0.00000E+00
 -1      1158 0.00000E+00
 -1      1160 0.00000E+00
 -1      1169 0.00000E+00
 -1      1171 0.00000E+00
 -1      1172 0.00000E+00
 -1      1174 0.00000E+00
 -1      1183 0.00000E+00
 -1      1185 0.00000E+00
 -1      1186 0.00000E+00
 -1      1188 0.00000E+00
 -1      1197 0.00000E+00
 -1      1199 0.00000E+00
 -1      1200 0.00000E+00
 -1      1202 0.00000E+00
 -1      1211 0.00000E+00
 -1      1213 0.00000E+00
 -1      1214 0.00000E+00
 -1      1216 0.00000E+00
 -1      1225 0.00000E+00
 -1      1227 0.00000E+00
 -1      1228 0.00000E+00
 -1      1230 0.00000E+00
 -1      1239 0.00000E+00
 -1      1241 0.00000E+00
 -1      1242 0.00000E+00
 -1      1244 0.00000E+00
 -1      1253 0.00000E+00
 -1      1255 0.00000E+00
 -1      1256 0.00000E+00
 -1      1258 0.00000E+00
 -1      1267 0.00000E+00
 -1      1269 0.00000E+00
 -1      1270 0.00000E+00
 -1      1272 0.00000E+00
 -1      1281 0.00000E+00
 -1      1283 0.00000E+00
 -1      1284 0.00000E+00
 -1      1286 0.00000E+00
 -1      1295 0.00000E+00
 -1      1297 0.00000E+00
 -1      1298 0.00000E+00
 -1      1300 0.00000E+00
 -1      1309 0.00000E+00
 -1      1311 0.00000E+00
 -1      1312 0.00000E+00
 -1      1314 0.00000E+00
 -1      1323 0.00000E+00
 -1      1325 0.00000E+00
 -1      1326 0.00000E+00
 -1      1328 0.00000E+00
 -1      1337 0.00000E+00
 -1      1339 0.00000E+00
 -1      1340 0.00000E+00
 -1      1342 0.00000E+00
 -1      1351 0.00000E+00
 -1      1353 0.00000E+00
 -1      1354 0.00000E+00
 -1      1356 0.00000E+00
 -1      1365 0.00000E+00
 -1      1367 0.00000E+00
 -1      1368 0.00000E+00
 -1      1370 0.00000E+00
 -1      1379 0.00000E+00
 -1      1381 0.00000E+00
 -1      1382 0.00000E+00
 -1      1384 0.00000E+00
 -1      1393 0.00000E+00
 -1      1395 0.00000E+00
 -1      1396 0.00000E+00
 -1      1398 0.00000E+00
 -1      1407 0.00000E+00
 -1      1409 0.00000E+00
 -1      1410 0.00000E+00
 -1      1412 0.00000E+00
 -1      1421 0.00000E+00
 -1      1423 0.00000E+00
 -1      1424 0.00000E+00
 -1      1426 0.00000E+00
 -1      1435 0.00000E+00
 -1      1437 0.00000E+00
 -1      1438 0.00000E+00
 -1      1440 0.00000E+00
 -1      1449 0.00000E+00
 -1      1451 0.00000E+00
 -1      1452 0.00000E+00
 -1      1454 0.00000E+00
 -1      1463 0.00000E+00
 -1      1465 0.00000E+00
 -1      1466 0.00000E+00
 -1      1468 0.00000E+00
 -1      1477 0.00000E+00
 -1      1479 0.00000E+00
 -1      1480 0.00000E+00
 -1      1482 0.00000E+00
 -1      1491 0.00000E+00
 -1      1493 0.00000E+00
 -1      1494 0.00000E+00
 -1      1496 0.00000E+00
 -1      1497 0.00000E+00
 -1      1499 0.00000E+00
 -1      1500 0.00000E+00
 -1      1502 0.00000E+00
 -1      1503 0.00000E+00
 -1      1505 0.00000E+00
 -1      1506 0.00000E+00
 -1      1508 0.00000E+00
 -1      1509 0.00000E+00
 -1      1511 0.00000E+00
 -1      1512 0.00000E+00
 -1      1514 0.00000E+00
 -1      1515 0.00000E+00
 -1      1517 0.00000E+00
 -1      1518 0.00000E+00
 -1      1520 0.00000E+00
 -1      1521 0.00000E+00
 -1      1523 0.00000E+00
 -1      1524 0.00000E+00
 -1      1526 0.00000E+00
 -1      1527 0.00000E+00
 -1      1529 0.00000E+00
 -1      1530 0.00000E+00
 -1      1532 0.00000E+00
 -1      1533 0.00000E+00
 -1      1535 0.00000E+00
 -1      1536 0.00000E+00
 -1      1538 0.00000E+00
 -1      1539 0.00000E+00
 -1      1541 0.00000E+00
 -1      1542 0.00000E+00
 -1      1544 0.00000E+00
 -1      1545 0.00000E+00
 -1      1547 0.00000E+00
 -1      1548 0.00000E+00
 -1      1550 0.00000E+00
 -1      1551 0.00000E+00
 -1      1553 0.00000E+00
 -1      1554 0.00000E+00
 -1      1556 0.00000E+00
 -1      1557 0.00000E+00
 -1      1559 0.00000E+00
 -1      1560 0.00000E+00
 -1      1562 0.00000E+00
 -1      1563 0.00000E+00
 -1      1565 0.00000E+00
 -1      1566 0.00000E+00
 -1      1568 0.00000E+00
 -1      1569 0.00000E+00
 -1      1571 0.00000E+00
 -1      1572 0.00000E+00
 -1      1574 0.00000E+00
 -1      1575 0.00000E+00
 -1      1577 0.00000E+00
 -1      1578 0.00000E+00
 -1      1580 0.00000E+00
 -1      1581 0.00000E+00
 -1      1583 0.00000E+00
 -1      1584 0.00000E+00
 -1      1586 0.00000E+00
 -1      1587 0.00000E+00
 -1      1589 0.00000E+00
 -1      1590 0.00000E+00
 -1      1592 0.00000E+00
 -1      1593 0.00000E+00
 -1      1595 0.00000E+00
 -1      1596 0.00000E+00
 -1      1598 0.00000E+00
 -1      1599 0.00000E+00
 -1      1601 0.00000E+00
 -1      1602 0.00000E+00
 -1      1604 0.00000E+00
 -1      1605 0.00000E+00
 -1      1607 0.00000E+00
 -1      1608 0.00000E+00
 -1      1610 0.00000E+00
 -1      1611 0.00000E+00
 -1      1613 0.00000E+00
 -1      1614 0.00000E+00
 -1      1616 0.00000E+00
 -1      1617 0.00000E+00
 -1      1619 0.00000E+00
 -1      1620 0.00000E+00
 -1      1622 0.00000E+00
 -1      1623 0.00000E+00
 -1      1625 0.00000E+00
 -1      1626 0.00000E+00
 -1      1628 0.00000E+00
 -1      1629 0.00000E+00
 -1      1631 0.00000E+00
 -1      1632 0.00000E+00
 -1      1634 0.00000E+00
 -1      1635 0.00000E+00
 -1      1637 0.00000E+00
 -1      1638 0.00000E+00
 -1      1640 0.00000E+00
 -1      1641 0.00000E+00
 -1      1643 0.00000E+00
 -1      1644 0.00000E+00
 -1      1646 0.00000E+00
 -1      1647 0.00000E+00
 -1      1649 0.00000E+00
 -1      1650 0.00000E+00
 -1      1652 0.00000E+00
 -1      1653 0.00000E+00
 -1      1655 0.00000E+00
 -1      1656 0.00000E+00
 -1      1658 0.00000E+00
 -1      1659 0.00000E+00
 -1      1661 0.00000E+00
 -1      1662 0.00000E+00
 -1      1664 0.00000E+00
 -1      1665 0.00000E+00
 -1      1667 0.00000E+00
 -1      1668 0.00000E+00
 -1      1670 0.00000E+00
 -1      1671 0.00000E+00
 -1      1673 0.00000E+00
 -1      1674 0.00000E+00
 -1      1676 0.00000E+00
 -1      1677 0.00000E+00
 -1      1679 0.00000E+00
 -1      1680 0.00000E+00
 -1      1682 0.00000E+00
 -1      1683 0.00000E+00
 -1      1685 0.00000E+00
 -1      1686 0.00000E+00
 -1      1688 0.00000E+00
 -1      1689 0.00000E+00
 -1      1691 0.00000E+00
 -1      1692 0.00000E+00
 -1      1694 0.00000E+00
 -1      1695 0.00000E+00
 -1      1697 0.00000E+00
 -1      1698 0.00000E+00
 -1      1700 0.00000E+00
 -1      1701 0.00000E+00
 -1      1703 0.00000E+00
 -1      1704 0.00000E+00
 -1      1706 0.00000E+00
 -1      1707 0.00000E+00
 -1      1709 0.00000E+00
 -1      1710 0.00000E+00
 -1      1712 0.00000E+00
 -1      1713 0.00000E+00
 -1      1715 0.00000E+00
 -1      1716 0.00000E+00
 -1      1718 0.00000E+00
 -1      1719 0.00000E+00
 -1      1721 0.00000E+00
 -1      1722 0.00000E+00
 -1      1724 0.00000E+00
 -1      1725 0.00000E+00
 -1      1727 0.00000E+00
 -1      1728 0.00000E+00
 -1      1730 0.00000E+00
 -1      1731 0.00000E+00
 -1      1733 0.00000E+00
 -1      1734 0.00000E+00
 -1      1736 0.00000E+00
 -1      1737 0.00000E+00
 -1      1739 0.00000E+00
 -1      1740 0.00000E+00
 -1      1742 0.00000E+00
 -1      1743 0.00000E+00
 -1      1745 0.00000E+00
 -1      1746 0.00000E+00
 -1      1748 0.00000E+00
 -1      1749 0.00000E+00
 -1      1751 0.00000E+00
 -1      1752 0.00000E+00
 -1      1754 0.00000E+00
 -1      1755 0.00000E+00
 -1      1757 0.00000E+00
 -1      1758 0.00000E+00
 -1      1760 0.00000E+00
 -1      1761 0.00000E+00
 -1      1763 0.00000E+00
 -1      1764 0.00000E+00
 -1      1766 0.00000E+00
 -1      1767 0.00000E+00
 -1      1769 0.00000E+00
 -1      1770 0.00000E+00
 -1      1772 0.00000E+00
 -1      1773 0.00000E+00
 -1      1775 0.00000E+00
 -1      1776 0.00000E+00
 -1      1778 0.00000E+00
 -1      1779 0.00000E+00
 -1      1781 0.00000E+00
 -1      1782 0.00000E+00
 -1      1784 0.00000E+00
 -1      1785 0.00000E+00
 -1      1787 0.00000E+00
 -1      1788 0.00000E+00
 -1      1790 0.00000E+00
 -1      1791 0.00000E+00
 -1      1793 0.00000E+00
 -1      1794 0.00000E+00
 -1      1796 0.00000E+00
 -1      1797 0.00000E+00
 -1      1799 0.00000E+00
 -1      1800 0.00000E+00
 -1      1802 0.00000E+00
 -1      1803 0.00000E+00
 -1      1805 0.00000E+00
 -1      1806 0.00000E+00
 -1      1808 0.00000E+00
 -1      1809 0.00000E+00
 -1      1811 0.00000E+00
 -1      1812 0.00000E+00
 -1      1814 0.00000E+00
 -1      1815 0.00000E+00
 -1      1817 0.00000E+00
 -1      1818 0.00000E+00
 -1      1820 0.00000E+00
 -1      1821 0.00000E+00
 -1      1823 0.00000E+00
 -1      1824 0.00000E+00
 -1      1826 0.00000E+00
 -1      1827 0.00000E+00
 -1      1829 0.00000E+00
 -1      1830 0.00000E+00
 -1      1832 0.00000E+00
 -1      1833 0.00000E+00
 -1      1835 0.00000E+00
 -1      1836 0.00000E+00
 -1      1838 0.00000E+00
 -1      1839 0.00000E+00
 -1      1841 0.00000E+00
 -1      1842 0.00000E+00
 -1      1844 0.00000E+00
 -1      1845 0.00000E+00
 -1      1847 0.00000E+00
 -1      1848 0.00000E+00
 -1      1850 0.00000E+00
 -1      1851 0.00000E+00
 -1      1853 0.00000E+00
 -1      1854 0.00000E+00
 -1      1856 0.00000E+00
 -1      1857 0.00000E+00
 -1      1859 0.00000E+00
 -1      1860 0.00000E+00
 -1      1862 0.00000E+00
 -1      1863 0.00000E+00
 -1      1865 0.00000E+00
 -1      1866 0.00000E+00
 -1      1868 0.00000E+00
 -1      1869 0.00000E+00
 -1      1871 0.00000E+00
 -1      1872 0.00000E+00
 -1      1874 0.00000E+00
 -1      1875 0.00000E+00
 -1      1877 0.00000E+00
 -1      1878 0.00000E+00
 -1      1880 0.00000E+00
 -1      1881 0.00000E+00
 -1      1883 0.00000E+00
 -1      1884 0.00000E+00
 -1      1886 0.00000E+00
 -1      1887 0.00000E+00
 -1      1889 0.00000E+00
 -1      1890 0.00000E+00
 -1      1892 0.00000E+00
 -1      1893 0.00000E+00
 -1      1895 0.00000E+00
 -1      1896 0.00000E+00
 -1      1898 0.00000E+00
 -1      1899 0.00000E+00
 -1      1901 0.00000E+00
 -1      1902 0.00000E+00
 -1      1904 0.00000E+00
 -1      1905 0.00000E+00
 -1      1907 0.00000E+00
 -1      1908 0.00000E+00
 -1      1910 0.00000E+00
 -1      1911 0.00000E+00
 -1      1913 0.00000E+00
 -1      1914 0.00000E+00
 -1      1916 0.00000E+00
 -1      1917 0.00000E+00
 -1      1919 0.00000E+00
 -1      1920 0.00000E+00
 -1      1922 0.00000E+00
 -1      1923 0.00000E+00
 -1      1925 0.00000E+00
 -1      1926 0.00000E+00
 -1      1928 0.00000E+00
 -1      1929 0.00000E+00
 -1      1931 0.00000E+00
 -1      1932 0.00000E+00
 -1      1934 0.00000E+00
 -1      1935 0.00000E+00
 -1      1937 0.00000E+00
 -1      1938 0.00000E+00
 -1      1940 0.00000E+00
 -1      1941 0.00000E+00
 -1      1943 0.00000E+00
 -1      1944 0.00000E+00
 -1      1946 0.00000E+00
 -1      1947 0.00000E+00
 -1      1949 0.00000E+00
 -1      1950 0.00000E+00
 -1      1952 0.00000E+00
 -1      1953 0.00000E+00
 -1      1955 0.00000E+00
 -1      1956 0.00000E+00
 -1      1958 0.00000E+00
 -1      1959 0.00000E+00
 -1      1961 0.00000E+00
 -1      1962 0.00000E+00
 -1      1964 0.00000E+00
 -1      1965 0.00000E+00
 -1      1967 0.00000E+00
 -1      1968 0.00000E+00
 -1      1970 0.00000E+00
 -1      1971 0.00000E+00
 -1      1973 0.00000E+00
 -1      1974 0.00000E+00
 -1      1976 0.00000E+00
 -1      1977 0.00000E+00
 -1      1979 0.00000E+00
 -1      1980 0.00000E+00
 -1      1982 0.00000E+00
 -1      1983 0.00000E+00
 -1      1985 0.00000E+00
 -1      1986 0.00000E+00
 -1      1988 0.00000E+00
 -1      1989 0.00000E+00
 -1      1991 0.00000E+00
 -1      1992 0.00000E+00
 -1      1994 0.00000E+00
 -1      1995 0.00000E+00
 -1      1997 0.00000E+00
 -1      1998 0.00000E+00
 -1      2000 0.00000E+00
 -1      2001 0.00000E+00
 -1      2003 0.00000E+00
 -1      2004 0.00000E+00
 -1      2006 0.00000E+00
 -1      2007 0.00000E+00
 -1      2009 0.00000E+00
 -1      2010 0.00000E+00
 -1      2012 0.00000E+00
 -1      2013 0.00000E+00
 -1      2015 0.00000E+00
 -1      2016 0.00000E+00
 -1      2018 0.00000E+00
 -1      2019 0.00000E+00
 -1      2021 0.00000E+00
 -1      2022 0.00000E+00
 -1      2024 0.00000E+00
 -1      2025 0.00000E+00
 -1      2027 0.00000E+00
 -1      2028 0.00000E+00
 -1      2030 0.00000E+00
 -1      2031 0.00000E+00
 -1      2033 0.00000E+00
 -1      2034 0.00000E+00
 -1      2036 0.00000E+00
 -1      2037 0.00000E+00
 -1      2039 0.00000E+00
 -1      2040 0.00000E+00
 -1      2042 0.00000E+00
 -1      2043 0.00000E+00
 -1      2045 0.00000E+00
 -1      2046 0.00000E+00
 -1      2048 0.00000E+00
 -1      2049 0.00000E+00
 -1      2051 0.00000E+00
 -1      2052 0.00000E+00
 -1      2054 0.00000E+00
 -1      2055 0.00000E+00
 -1      2057 0.00000E+00
 -1      2058 0.00000E+00
 -1      2060 0.00000E+00
 -1      2061 0.00000E+00
 -1      2063 0.00000E+00
 -1      2064 0.00000E+00
 -1      2066 0.00000E+00
 -1      2067 0.00000E+00
 -1      2069 0.00000E+00
 -1      2070 0.00000E+00
 -1      2072 0.00000E+00
 -1      2073 0.00000E+00
 -1      2075 0.00000E+00
 -1      2076 0.00000E+00
 -1      2078 0.00000E+00
 -1      2079 0.00000E+00
 -1      2081 0.00000E+00
 -1      2082 0.00000E+00
 -1      2084 0.00000E+00
 -1      2085 0.00000E+00
 -1      2087 0.00000E+00
 -1      2088 0.00000E+00
 -1      2090 0.00000E+00
 -1      2091 0.00000E+00
 -1      2093 0.00000E+00
 -1      2094 0.00000E+00
 -1      2096 0.00000E+00
 -1      2097 0.00000E+00
 -1      2099 0.00000E+00
 -1      2100 0.00000E+00
 -1      2102 0.00000E+00
 -1      2103 0.00000E+00
 -1      2105 0.00000E+00
 -1      2106 0.00000E+00
 -1      2108 0.00000E+00
 -1      2109 0.00000E+00
 -1      2111 0.00000E+00
 -1      2112 0.00000E+00
 -1      2114 0.00000E+00
 -1      2115 0.00000E+00
 -1      2117 0.00000E+00
 -1      2118 0.00000E+00
 -1      2120 0.00000E+00
 -1      2121 0.00000E+00
 -1      2123 0.00000E+00
 -1      2124 0.00000E+00
 -1      2126 0.00000E+00
 -1      2127 0.00000E+00
 -1      2129 0.00000E+00
 -1      2130 0.00000E+00
 -1      2132 0.00000E+00
 -1      2133 0.00000E+00
 -1      2135 0.00000E+00
 -1      2136 0.00000E+00
 -1      2138 0.00000E+00
 -1      2139 0.00000E+00
 -1      2141 0.00000E+00
 -1      2142 0.00000E+00
 -1      2144 0.00000E+00
 -1      2145 0.00000E+00
 -1      2147 0.00000E+00
 -1      2148 0.00000E+00
 -1      2150 0.00000E+00
 -1      2151 0.00000E+00
 -1      2153 0.00000E+00
 -1      2154 0.00000E+00
 -1      2156 0.00000E+00
 -1      2157 0.00000E+00
 -1      2159 0.00000E+00
 -1      2160 0.00000E+00
 -1      2162 0.00000E+00
 -1      2163 0.00000E+00
 -1      2165 0.00000E+00
 -1      2166 0.00000E+00
 -1      2168 0.00000E+00
 -1      2169 0.00000E+00
 -1      2171 0.00000E+00
 -1      2172 0.00000E+00
 -1      2174 0.00000E+00
 -1      2175 0.00000E+00
 -1      2177 0.00000E+00
 -1      2178 0.00000E+00
 -1      2180 0.00000E+00
 -1      2181 0.00000E+00
 -1      2183 0.00000E+00
 -1      2184 0.00000E+00
 -1      2186 0.00000E+00
 -1      2187 0.00000E+00
 -1      2189 0.00000E+00
 -1      2190 0.00000E+00
 -1      2192 0.00000E+00
 -1      2193 0.00000E+00
 -1      2195 0.00000E+00
 -1      2196 0.00000E+00
 -1      2198 0.00000E+00
 -1      2199 0.00000E+00
 -1      2201 0.00000E+00
 -1      2202 0.00000E+00
 -1      2204 0.00000E+00
 -1      2205 0.00000E+00
 -1      2207 0.00000E+00
 -1      2208 0.00000E+00
 -1      2210 0.00000E+00
 -1      2211 0.00000E+00
 -1      2213 0.00000E+00
 -1      2214 0.00000E+00
 -1      2216 0.00000E+00
 -1      2217 0.00000E+00
 -1      2219 0.00000E+00
 -1      2220 0.00000E+00
 -1      2222 0.00000E+00
 -1      2223 0.00000E+00
 -1      2225 0.00000E+00
 -1      2226 0.00000E+00
 -1      2228 0.00000E+00
 -1      2229 0.00000E+00
 -1      2231 0.00000E+00
 -1      2232 0.00000E+00
 -1      2234 0.00000E+00
 -1      2235 0.00000E+00
 -1      2237 0.00000E+00
 -1      2238 0.00000E+00
 -1      2240 0.00000E+00
 -1      2241 0.00000E+00
 -1      2243 0.00000E+00
 -1      2244 0.00000E+00
 -1      2246 0.00000E+00
 -1      2247 0.00000E+00
 -1      2249 0.00000E+00
 -1      2250 0.00000E+00
 -1      2252 0.00000E+00
 -1      2253 0.00000E+00
 -1      2255 0.00000E+00
 -1      2256 0.00000E+00
 -1      2258 0.00000E+00
 -1      2259 0.00000E+00
 -1      2261 0.00000E+00
 -1      2262 0.00000E+00
 -1      2264 0.00000E+00
 -1      2265 0.00000E+00
 -1      2267 0.00000E+00
 -1      2268 0.00000E+00
 -1      2270 0.00000E+00
 -1      2271 0.00000E+00
 -1      2273 0.00000E+00
 -1      2274 0.00000E+00
 -1      2276 0.00000E+00
 -1      2277 0.00000E+00
 -1      2279 0.00000E+00
 -1      2280 0.00000E+00
 -1      2282 0.00000E+00
 -1      2283 0.00000E+00
 -1      2285 0.00000E+00
 -1      2286 0.00000E+00
 -1      2288 0.00000E+00
 -1      2289 0.00000E+00
 -1      2291 0.00000E+00
 -1      2292 0.00000E+00
 -1      2294 0.00000E+00
 -3
    1PSTEP                        61           1           1          
    1PGM                1.000000E+00                                  
    1PGK                1.338004E+07                                  
    1PHID                         -1                                  
    1PSUBC                         0                                  
    1PMODE                        16                                  
  100CL  116 582.1687554         930                     2   16MODAL      1
 -4  DISP        4    1
 -5  D1          1    2    1    0
 -5  D2          1    2    2    0
 -5  D3          1    2    3    0
 -5  ALL         1    2    0    0    1ALL
 -1       404 0.00000E+00 0.00000E+00 7.60407E-06
 -1       406 0.00000E+00-0.00000E+00-7.60407E-06
 -1       407 1.72725E-03-3.11166E-02-2.75878E-01
 -1       409 1.67298E-03 3.10311E-02-2.75914E-01
 -1       410 1.52907E-03 8.98171E-12-2.73988E-03
 -1       412 1.44944E-03 8.99738E-12-2.75981E-03
 -1       413 1.48926E-03 6.34974E-06-2.74984E-03
 -1       415 1.48926E-03-6.34972E-06-2.74984E-03
 -1       424 0.00000E+00 0.00000E+00 7.20236E-06
 -1       426 0.00000E+00 0.00000E+00-7.20236E-06
 -1       427 0.00000E+00 4.58817E-06 0.00000E+00
 -1       429 0.00000E+00-4.58817E-06 0.00000E+00
 -1       438 1.72725E-03 3.11166E-02-2.75878E-01
 -1       440 1.67298E-03-3.10311E-02-2.75914E-01
 -1       441 0.00000E+00 0.00000E+00 7.60407E-06
 -1       443 0.00000E+00-0.00000E+00-7.60407E-06
 -1       444 0.00000E+00 4.58817E-06 0.00000E+00
 -1       446 0.00000E+00-4.58817E-06 0.00000E+00
 -1       447 0.00000E+00 0.00000E+00-7.20236E-06
 -1       449 0.00000E+00 0.00000E+00 7.20236E-06
 -1       458 1.48926E-03 6.34973E-06 2.74984E-03
 -1       460 1.48926E-03-6.34973E-06 2.74984E-03
 -1       461 1.52907E-03 6.82506E-13 2.73988E-03
 -1       463 1.44944E-03 1.02138E-12 2.75981E-03
 -1       472 0.00000E+00 0.00000E+00-7.60407E-06
 -1       474 0.00000E+00 0.00000E+00 7.60407E-06
 -1       475 1.72725E-03 3.11166E-02 2.75878E-01
 -1       477 1.67298E-03-3.10311E-02 2.75914E-01
 -1       478 1.72725E-03-3.11166E-02 2.75878E-01
 -1       480 1.67298E-03 3.10311E-02 2.75914E-01
 -1       481 0.00000E+00 0.00000E+00-7.60407E-06
 -1       483 0.00000E+00 0.00000E+00 7.60407E-06
 -1       484-1.03015E-03-1.61240E-03-1.16913E-02
 -1       486 1.60757E-03 1.42221E-03-1.16992E-02
 -1       487-1.12862E-04-3.16843E-03-2.73924E-02
 -1       489 1.20639E-03 3.02559E-03-2.74078E-02
 -1       490-1.47338E-04-4.73766E-03-4.10667E-02
 -1       492 1.79833E-03 4.58979E-03-4.10830E-02
 -1       493 2.82184E-04-6.34242E-03-5.55156E-02
 -1       495 1.88708E-03 6.20449E-03-5.55312E-02
 -1       496 4.54749E-04-7.90170E-03-6.94184E-02
 -1       498 2.21314E-03 7.77015E-03-6.94375E-02
 -1       499 7.48170E-04-9.46113E-03-8.33334E-02
 -1       501 2.38582E-03 9.34031E-03-8.33513E-02
 -1       502 9.49629E-04-1.09870E-02-9.69406E-02
 -1       504 2.61561E-03 1.08750E-02-9.69610E-02
 -1       505 1.18081E-03-1.24868E-02-1.10343E-01
 -1       507 2.77899E-03 1.23860E-02-1.10363E-01
 -1       508 1.36610E-03-1.39551E-02-1.23428E-01
 -1       510 2.94858E-03 1.38647E-02-1.23449E-01
 -1       511 1.55162E-03-1.53828E-02-1.36201E-01
 -1       513 3.07788E-03 1.53040E-02-1.36223E-01
 -1       514 1.70659E-03-1.67739E-02-1.48600E-01
 -1       516 3.19567E-03 1.67062E-02-1.48623E-01
 -1       517 1.85026E-03-1.81152E-02-1.60607E-01
 -1       519 3.28254E-03 1.80594E-02-1.60630E-01
 -1       520 1.96930E-03-1.94121E-02-1.72175E-01
 -1       522 3.35082E-03 1.93678E-02-1.72199E-01
 -1       523 2.07207E-03-2.06524E-02-1.83280E-01
 -1       525 3.39215E-03 2.06200E-02-1.83303E-01
 -1       526 2.15284E-03-2.18400E-02-1.93883E-01
 -1       528 3.41213E-03 2.18193E-02-1.93908E-01
 -1       529 2.21535E-03-2.29651E-02-2.03959E-01
 -1       531 3.40727E-03 2.29562E-02-2.03983E-01
 -1       532 2.25736E-03-2.40301E-02-2.13475E-01
 -1       534 3.38044E-03 2.40325E-02-2.13500E-01
 -1       535 2.28071E-03-2.50270E-02-2.22407E-01
 -1       537 3.33035E-03 2.50408E-02-2.22431E-01
 -1       538 2.28484E-03-2.59573E-02-2.30725E-01
 -1       540 3.25896E-03 2.59816E-02-2.30751E-01
 -1       541 2.27089E-03-2.68143E-02-2.38409E-01
 -1       543 3.16594E-03 2.68497E-02-2.38434E-01
 -1       544 2.23919E-03-2.75994E-02-2.45434E-01
 -1       546 3.05326E-03 2.76440E-02-2.45460E-01
 -1       547 2.19087E-03-2.83063E-02-2.51781E-01
 -1       549 2.92100E-03 2.83617E-02-2.51806E-01
 -1       550 2.12704E-03-2.89377E-02-2.57432E-01
 -1       552 2.77197E-03 2.89996E-02-2.57458E-01
 -1       553 2.04945E-03-2.94853E-02-2.62374E-01
 -1       555 2.60688E-03 2.95590E-02-2.62399E-01
 -1       556 1.96175E-03-2.99576E-02-2.66591E-01
 -1       558 2.43084E-03 3.00300E-02-2.66617E-01
 -1       559 1.86554E-03-3.03363E-02-2.70080E-01
 -1       561 2.24633E-03 3.04267E-02-2.70106E-01
 -1       562 1.78329E-03-3.06523E-02-2.72814E-01
 -1       564 2.06868E-03 3.07150E-02-2.72841E-01
 -1       565 1.68279E-03-3.08577E-02-2.74796E-01
 -1       567 1.88180E-03 3.09426E-02-2.74824E-01
 -1       568 1.69094E-03-3.09892E-02-2.75854E-01
 -1       570 1.74492E-03 3.10720E-02-2.75882E-01
 -1       571 1.68006E-03-2.53661E-02-8.77086E-02
 -1       573 1.61310E-03 2.52744E-02-8.76737E-02
 -1       574 4.25162E-04-6.16447E-13 2.50783E-04
 -1       576 1.27700E-04-6.61594E-13 2.40696E-04
 -1       577 2.76431E-04 3.21315E-06 2.45740E-04
 -1       579 2.76431E-04-3.21315E-06 2.45740E-04
 -1       588 5.46578E-04-1.75361E-12-1.10138E-04
 -1       590 5.57823E-04-1.79102E-12-1.25163E-04
 -1       591 5.52200E-04 4.78585E-06-1.17651E-04
 -1       593 5.52200E-04-4.78586E-06-1.17651E-04
 -1       602 9.69187E-04-2.70991E-12-2.39060E-04
 -1       604 6.97726E-04-2.69107E-12-2.55375E-04
 -1       605 8.33457E-04 5.19656E-06-2.47217E-04
 -1       607 8.33457E-04-5.19656E-06-2.47217E-04
 -1       616 1.11847E-03-3.40877E-12-4.02124E-04
 -1       618 1.07057E-03-3.34069E-12-4.18534E-04
 -1       619 1.09452E-03 5.22691E-06-4.10329E-04
 -1       621 1.09452E-03-5.22692E-06-4.10329E-04
 -1       630 1.45251E-03-3.46683E-12-5.89959E-04
 -1       632 1.23940E-03-3.38854E-12-6.08744E-04
 -1       633 1.34596E-03 5.98319E-06-5.99352E-04
 -1       635 1.34596E-03-5.98320E-06-5.99352E-04
 -1       644 1.62535E-03-2.76504E-12-7.27833E-04
 -1       646 1.53328E-03-2.69669E-12-7.46459E-04
 -1       647 1.57931E-03 5.93273E-06-7.37146E-04
 -1       649 1.57931E-03-5.93274E-06-7.37146E-04
 -1       658 1.88197E-03-1.33790E-12-9.04498E-04
 -1       660 1.70857E-03-1.29144E-12-9.24932E-04
 -1       661 1.79527E-03 6.50875E-06-9.14715E-04
 -1       663 1.79527E-03-6.50875E-06-9.14715E-04
 -1       672 2.04885E-03 6.25330E-13-1.04519E-03
 -1       674 1.93622E-03 6.41573E-13-1.06579E-03
 -1       675 1.99254E-03 6.56267E-06-1.05549E-03
 -1       677 1.99254E-03-6.56267E-06-1.05549E-03
 -1       686 2.24443E-03 2.91883E-12-1.20726E-03
 -1       688 2.09530E-03 2.91013E-12-1.22911E-03
 -1       689 2.16987E-03 6.96005E-06-1.21818E-03
 -1       691 2.16987E-03-6.96005E-06-1.21818E-03
 -1       700 2.38630E-03 5.17828E-12-1.34880E-03
 -1       702 2.26791E-03 5.13763E-12-1.37103E-03
 -1       703 2.32710E-03 7.08175E-06-1.35991E-03
 -1       705 2.32710E-03-7.08174E-06-1.35991E-03
 -1       714 2.52960E-03 7.00710E-12-1.49873E-03
 -1       716 2.39684E-03 6.89765E-12-1.52182E-03
 -1       717 2.46322E-03 7.35259E-06-1.51027E-03
 -1       719 2.46322E-03-7.35257E-06-1.51027E-03
 -1       728 2.63621E-03 8.20943E-12-1.63634E-03
 -1       730 2.52024E-03 7.99507E-12-1.65989E-03
 -1       731 2.57823E-03 7.50218E-06-1.64812E-03
 -1       733 2.57823E-03-7.50216E-06-1.64812E-03
 -1       742 2.73134E-03 8.81330E-12-1.77514E-03
 -1       744 2.61171E-03 8.51472E-12-1.79925E-03
 -1       745 2.67152E-03 7.67925E-06-1.78720E-03
 -1       747 2.67152E-03-7.67924E-06-1.78720E-03
 -1       756 2.79773E-03 8.94365E-12-1.90513E-03
 -1       758 2.68875E-03 8.62428E-12-1.92974E-03
 -1       759 2.74324E-03 7.83718E-06-1.91743E-03
 -1       761 2.74324E-03-7.83716E-06-1.91743E-03
 -1       770 2.84684E-03 8.64547E-12-2.03249E-03
 -1       772 2.73945E-03 8.37704E-12-2.05741E-03
 -1       773 2.79314E-03 7.93546E-06-2.04495E-03
 -1       775 2.79314E-03-7.93544E-06-2.04495E-03
 -1       784 2.87119E-03 7.93738E-12-2.15221E-03
 -1       786 2.77198E-03 7.76731E-12-2.17763E-03
 -1       787 2.82158E-03 8.09662E-06-2.16492E-03
 -1       789 2.82158E-03-8.09660E-06-2.16492E-03
 -1       798 2.87608E-03 6.91257E-12-2.26720E-03
 -1       800 2.78110E-03 6.84853E-12-2.29269E-03
 -1       801 2.82859E-03 8.12042E-06-2.27995E-03
 -1       803 2.82859E-03-8.12040E-06-2.27995E-03
 -1       812 2.85860E-03 5.72781E-12-2.37465E-03
 -1       814 2.77099E-03 5.74515E-12-2.40067E-03
 -1       815 2.81480E-03 8.28835E-06-2.38766E-03
 -1       817 2.81480E-03-8.28833E-06-2.38766E-03
 -1       826 2.82142E-03 4.56052E-12-2.47619E-03
 -1       828 2.73945E-03 4.63986E-12-2.50204E-03
 -1       829 2.78044E-03 8.23600E-06-2.48911E-03
 -1       831 2.78044E-03-8.23599E-06-2.48911E-03
 -1       840 2.76380E-03 3.56355E-12-2.56995E-03
 -1       842 2.68918E-03 3.70489E-12-2.59638E-03
 -1       843 2.72649E-03 8.41926E-06-2.58317E-03
 -1       845 2.72649E-03-8.41926E-06-2.58317E-03
 -1       854 2.68736E-03 2.88430E-12-2.65736E-03
 -1       856 2.61918E-03 3.08158E-12-2.68338E-03
 -1       857 2.65327E-03 8.28744E-06-2.67037E-03
 -1       859 2.65327E-03-8.28743E-06-2.67037E-03
 -1       868 2.59251E-03 2.63214E-12-2.73722E-03
 -1       870 2.53215E-03 2.84930E-12-2.76390E-03
 -1       871 2.56233E-03 8.49673E-06-2.75056E-03
 -1       873 2.56233E-03-8.49673E-06-2.75056E-03
 -1       882 2.48063E-03 2.86530E-12-2.81176E-03
 -1       884 2.42726E-03 3.06877E-12-2.83779E-03
 -1       885 2.45394E-03 8.29082E-06-2.82477E-03
 -1       887 2.45394E-03-8.29081E-06-2.82477E-03
 -1       896 2.35285E-03 3.49183E-12-2.88150E-03
 -1       898 2.30858E-03 3.67716E-12-2.90830E-03
 -1       899 2.33071E-03 8.53628E-06-2.89490E-03
 -1       901 2.33071E-03-8.53627E-06-2.89490E-03
 -1       910 2.21218E-03 4.31968E-12-2.95056E-03
 -1       912 2.17538E-03 4.48698E-12-2.97662E-03
 -1       913 2.19378E-03 8.30126E-06-2.96359E-03
 -1       915 2.19378E-03-8.30125E-06-2.96359E-03
 -1       924 2.05912E-03 5.19304E-12-3.02368E-03
 -1       926 2.03448E-03 5.31875E-12-3.05073E-03
 -1       927 2.04680E-03 8.61533E-06-3.03720E-03
 -1       929 2.04680E-03-8.61532E-06-3.03720E-03
 -1       938 1.90818E-03 6.13284E-12-3.09914E-03
 -1       940 1.88880E-03 6.20745E-12-3.12564E-03
 -1       941 1.89849E-03 8.44064E-06-3.11239E-03
 -1       943 1.89849E-03-8.44063E-06-3.11239E-03
 -1       952 1.76181E-03 7.12395E-12-3.16717E-03
 -1       954 1.75515E-03 7.16118E-12-3.19557E-03
 -1       955 1.75848E-03 9.04887E-06-3.18137E-03
 -1       957 1.75848E-03-9.04885E-06-3.18137E-03
 -1       966 1.65894E-03 8.14979E-12-3.12540E-03
 -1       968 1.62530E-03 8.17883E-12-3.15489E-03
 -1       969 1.64212E-03 9.39410E-06-3.14014E-03
 -1       971 1.64212E-03-9.39408E-06-3.14014E-03
 -1       980 0.00000E+00 0.00000E+00 7.80522E-06
 -1       982 0.00000E+00-0.00000E+00-7.80522E-06
 -1       983 1.68006E-03 2.53661E-02-8.77086E-02
 -1       985 1.61310E-03-2.52744E-02-8.76737E-02
 -1       986-1.03015E-03 1.61240E-03-1.16913E-02
 -1       988 1.60757E-03-1.42221E-03-1.16992E-02
 -1       989-1.12862E-04 3.16843E-03-2.73924E-02
 -1       991 1.20639E-03-3.02559E-03-2.74078E-02
 -1       992-1.47338E-04 4.73766E-03-4.10667E-02
 -1       994 1.79833E-03-4.58979E-03-4.10830E-02
 -1       995 2.82184E-04 6.34242E-03-5.55156E-02
 -1       997 1.88708E-03-6.20449E-03-5.55312E-02
 -1       998 4.54749E-04 7.90170E-03-6.94184E-02
 -1      1000 2.21314E-03-7.77015E-03-6.94375E-02
 -1      1001 7.48170E-04 9.46113E-03-8.33334E-02
 -1      1003 2.38582E-03-9.34031E-03-8.33513E-02
 -1      1004 9.49629E-04 1.09870E-02-9.69406E-02
 -1      1006 2.61561E-03-1.08750E-02-9.69610E-02
 -1      1007 1.18081E-03 1.24868E-02-1.10343E-01
 -1      1009 2.77899E-03-1.23860E-02-1.10363E-01
 -1      1010 1.36610E-03 1.39551E-02-1.23428E-01
 -1      1012 2.94858E-03-1.38647E-02-1.23449E-01
 -1      1013 1.55162E-03 1.53828E-02-1.36201E-01
 -1      1015 3.07788E-03-1.53040E-02-1.36223E-01
 -1      1016 1.70659E-03 1.67739E-02-1.48600E-01
 -1      1018 3.19567E-03-1.67062E-02-1.48623E-01
 -1      1019 1.85026E-03 1.81152E-02-1.60607E-01
 -1      1021 3.28254E-03-1.80594E-02-1.60630E-01
 -1      1022 1.96930E-03 1.94121E-02-1.72175E-01
 -1      1024 3.35082E-03-1.93678E-02-1.72199E-01
 -1      1025 2.07207E-03 2.06524E-02-1.83280E-01
 -1      1027 3.39215E-03-2.06200E-02-1.83303E-01
 -1      1028 2.15284E-03 2.18400E-02-1.93883E-01
 -1      1030 3.41213E-03-2.18193E-02-1.93908E-01
 -1      1031 2.21535E-03 2.29651E-02-2.03959E-01
 -1      1033 3.40727E-03-2.29562E-02-2.03983E-01
 -1      1034 2.25736E-03 2.40301E-02-2.13475E-01
 -1      1036 3.38044E-03-2.40325E-02-2.13500E-01
 -1      1037 2.28071E-03 2.50270E-02-2.22407E-01
 -1      1039 3.33035E-03-2.50408E-02-2.22431E-01
 -1      1040 2.28484E-03 2.59573E-02-2.30725E-01
 -1      1042 3.25896E-03-2.59816E-02-2.30751E-01
 -1      1043 2.27089E-03 2.68143E-02-2.38409E-01
 -1      1045 3.16594E-03-2.68497E-02-2.38434E-01
 -1      1046 2.23919E-03 2.75994E-02-2.45434E-01
 -1      1048 3.05326E-03-2.76440E-02-2.45460E-01
 -1      1049 2.19087E-03 2.83063E-02-2.51781E-01
 -1      1051 2.92100E-03-2.83617E-02-2.51806E-01
 -1      1052 2.12704E-03 2.89377E-02-2.57432E-01
 -1      1054 2.77197E-03-2.89996E-02-2.57458E-01
 -1      1055 2.04945E-03 2.94853E-02-2.62374E-01
 -1      1057 2.60688E-03-2.95590E-02-2.62399E-01
 -1      1058 1.96175E-03 2.99576E-02-2.66591E-01
 -1      1060 2.43084E-03-3.00300E-02-2.66617E-01
 -1      1061 1.86554E-03 3.03363E-02-2.70080E-01
 -1      1063 2.24633E-03-3.04267E-02-2.70106E-01
 -1      1064 1.78329E-03 3.06523E-02-2.72814E-01
 -1      1066 2.06868E-03-3.07150E-02-2.72841E-01
 -1      1067 1.68279E-03 3.08577E-02-2.74796E-01
 -1      1069 1.88180E-03-3.09426E-02-2.74824E-01
 -1      1070 1.69094E-03 3.09892E-02-2.75854E-01
 -1      1072 1.74492E-03-3.10720E-02-2.75882E-01
 -1      1073 0.00000E+00 0.00000E+00 7.80522E-06
 -1      1075 0.00000E+00-0.00000E+00-7.80522E-06
 -1      1076 0.00000E+00 5.22243E-06 0.00000E+00
 -1      1078 0.00000E+00-5.22243E-06 0.00000E+00
 -1      1079 0.00000E+00 6.64691E-06 0.00000E+00
 -1      1081 0.00000E+00-6.64691E-06 0.00000E+00
 -1      1082 0.00000E+00 5.22243E-06 0.00000E+00
 -1      1084 0.00000E+00-5.22243E-06 0.00000E+00
 -1      1085 2.76431E-04 3.21315E-06-2.45740E-04
 -1      1087 2.76431E-04-3.21315E-06-2.45740E-04
 -1      1088 4.25162E-04 4.66775E-13-2.50783E-04
 -1      1090 1.27700E-04 3.31378E-13-2.40696E-04
 -1      1099 5.52200E-04 4.78586E-06 1.17651E-04
 -1      1101 5.52200E-04-4.78585E-06 1.17651E-04
 -1      1102 5.46578E-04 1.30510E-12 1.10138E-04
 -1      1104 5.57823E-04 9.81821E-13 1.25163E-04
 -1      1113 8.33457E-04 5.19656E-06 2.47217E-04
 -1      1115 8.33457E-04-5.19656E-06 2.47217E-04
 -1      1116 9.69187E-04 2.39904E-12 2.39060E-04
 -1      1118 6.97726E-04 1.94029E-12 2.55375E-04
 -1      1127 1.09452E-03 5.22692E-06 4.10329E-04
 -1      1129 1.09452E-03-5.22691E-06 4.10329E-04
 -1      1130 1.11847E-03 3.34795E-12 4.02124E-04
 -1      1132 1.07057E-03 2.79502E-12 4.18534E-04
 -1      1141 1.34596E-03 5.98320E-06 5.99352E-04
 -1      1143 1.34596E-03-5.98319E-06 5.99352E-04
 -1      1144 1.45251E-03 4.10306E-12 5.89959E-04
 -1      1146 1.23940E-03 3.51188E-12 6.08744E-04
 -1      1155 1.57931E-03 5.93274E-06 7.37146E-04
 -1      1157 1.57931E-03-5.93273E-06 7.37146E-04
 -1      1158 1.62535E-03 4.59168E-12 7.27833E-04
 -1      1160 1.53328E-03 4.03283E-12 7.46459E-04
 -1      1169 1.79527E-03 6.50876E-06 9.14715E-04
 -1      1171 1.79527E-03-6.50875E-06 9.14715E-04
 -1      1172 1.88197E-03 4.84017E-12 9.04498E-04
 -1      1174 1.70857E-03 4.35865E-12 9.24932E-04
 -1      1183 1.99254E-03 6.56267E-06 1.05549E-03
 -1      1185 1.99254E-03-6.56266E-06 1.05549E-03
 -1      1186 2.04885E-03 4.93964E-12 1.04519E-03
 -1      1188 1.93622E-03 4.55258E-12 1.06579E-03
 -1      1197 2.16987E-03 6.96005E-06 1.21818E-03
 -1      1199 2.16987E-03-6.96005E-06 1.21818E-03
 -1      1200 2.24443E-03 4.92932E-12 1.20726E-03
 -1      1202 2.09530E-03 4.65520E-12 1.22911E-03
 -1      1211 2.32710E-03 7.08175E-06 1.35991E-03
 -1      1213 2.32710E-03-7.08174E-06 1.35991E-03
 -1      1214 2.38630E-03 4.67595E-12 1.34880E-03
 -1      1216 2.26791E-03 4.52325E-12 1.37103E-03
 -1      1225 2.46322E-03 7.35258E-06 1.51027E-03
 -1      1227 2.46322E-03-7.35258E-06 1.51027E-03
 -1      1228 2.52960E-03 4.14248E-12 1.49873E-03
 -1      1230 2.39684E-03 4.09468E-12 1.52182E-03
 -1      1239 2.57823E-03 7.50218E-06 1.64812E-03
 -1      1241 2.57823E-03-7.50217E-06 1.64812E-03
 -1      1242 2.63621E-03 3.46620E-12 1.63634E-03
 -1      1244 2.52024E-03 3.50095E-12 1.65989E-03
 -1      1253 2.67152E-03 7.67925E-06 1.78720E-03
 -1      1255 2.67152E-03-7.67924E-06 1.78720E-03
 -1      1256 2.73134E-03 2.91766E-12 1.77514E-03
 -1      1258 2.61171E-03 2.99675E-12 1.79925E-03
 -1      1267 2.74324E-03 7.83717E-06 1.91743E-03
 -1      1269 2.74324E-03-7.83717E-06 1.91743E-03
 -1      1270 2.79773E-03 2.66182E-12 1.90513E-03
 -1      1272 2.68875E-03 2.75454E-12 1.92974E-03
 -1      1281 2.79314E-03 7.93545E-06 2.04495E-03
 -1      1283 2.79314E-03-7.93545E-06 2.04495E-03
 -1      1284 2.84684E-03 2.69672E-12 2.03249E-03
 -1      1286 2.73945E-03 2.74737E-12 2.05741E-03
 -1      1295 2.82158E-03 8.09661E-06 2.16492E-03
 -1      1297 2.82158E-03-8.09661E-06 2.16492E-03
 -1      1298 2.87119E-03 3.00730E-12 2.15221E-03
 -1      1300 2.77198E-03 2.95524E-12 2.17763E-03
 -1      1309 2.82859E-03 8.12041E-06 2.27995E-03
 -1      1311 2.82859E-03-8.12041E-06 2.27995E-03
 -1      1312 2.87608E-03 3.63171E-12 2.26720E-03
 -1      1314 2.78110E-03 3.45754E-12 2.29269E-03
 -1      1323 2.81480E-03 8.28834E-06 2.38766E-03
 -1      1325 2.81480E-03-8.28833E-06 2.38766E-03
 -1      1326 2.85860E-03 4.54990E-12 2.37465E-03
 -1      1328 2.77099E-03 4.25419E-12 2.40067E-03
 -1      1337 2.78044E-03 8.23600E-06 2.48911E-03
 -1      1339 2.78044E-03-8.23599E-06 2.48911E-03
 -1      1340 2.82142E-03 5.65193E-12 2.47619E-03
 -1      1342 2.73945E-03 5.25171E-12 2.50204E-03
 -1      1351 2.72649E-03 8.41927E-06 2.58317E-03
 -1      1353 2.72649E-03-8.41925E-06 2.58317E-03
 -1      1354 2.76380E-03 6.86858E-12 2.56995E-03
 -1      1356 2.68918E-03 6.43961E-12 2.59638E-03
 -1      1365 2.65327E-03 8.28744E-06 2.67037E-03
 -1      1367 2.65327E-03-8.28743E-06 2.67037E-03
 -1      1368 2.68736E-03 7.99385E-12 2.65736E-03
 -1      1370 2.61918E-03 7.60159E-12 2.68338E-03
 -1      1379 2.56233E-03 8.49674E-06 2.75056E-03
 -1      1381 2.56233E-03-8.49672E-06 2.75056E-03
 -1      1382 2.59251E-03 8.74850E-12 2.73722E-03
 -1      1384 2.53215E-03 8.40471E-12 2.76390E-03
 -1      1393 2.45394E-03 8.29082E-06 2.82477E-03
 -1      1395 2.45394E-03-8.29080E-06 2.82477E-03
 -1      1396 2.48063E-03 9.07851E-12 2.81176E-03
 -1      1398 2.42726E-03 8.78667E-12 2.83779E-03
 -1      1407 2.33071E-03 8.53629E-06 2.89490E-03
 -1      1409 2.33071E-03-8.53627E-06 2.89490E-03
 -1      1410 2.35285E-03 8.99166E-12 2.88150E-03
 -1      1412 2.30858E-03 8.80610E-12 2.90830E-03
 -1      1421 2.19378E-03 8.30126E-06 2.96359E-03
 -1      1423 2.19378E-03-8.30124E-06 2.96359E-03
 -1      1424 2.21218E-03 8.41200E-12 2.95056E-03
 -1      1426 2.17538E-03 8.36398E-12 2.97662E-03
 -1      1435 2.04680E-03 8.61533E-06 3.03720E-03
 -1      1437 2.04680E-03-8.61532E-06 3.03720E-03
 -1      1438 2.05912E-03 7.29036E-12 3.02368E-03
 -1      1440 2.03448E-03 7.35339E-12 3.05073E-03
 -1      1449 1.89849E-03 8.44064E-06 3.11239E-03
 -1      1451 1.89849E-03-8.44063E-06 3.11239E-03
 -1      1452 1.90818E-03 5.72968E-12 3.09914E-03
 -1      1454 1.88880E-03 5.88390E-12 3.12564E-03
 -1      1463 1.75848E-03 9.04886E-06 3.18137E-03
 -1      1465 1.75848E-03-9.04886E-06 3.18137E-03
 -1      1466 1.76181E-03 3.97010E-12 3.16717E-03
 -1      1468 1.75515E-03 4.21742E-12 3.19557E-03
 -1      1477 1.64212E-03 9.39409E-06 3.14014E-03
 -1      1479 1.64212E-03-9.39409E-06 3.14014E-03
 -1      1480 1.65894E-03 2.22938E-12 3.12540E-03
 -1      1482 1.62530E-03 2.53967E-12 3.15489E-03
 -1      1491 7.28112E-04 3.40302E-05-1.32425E-03
 -1      1493 7.28112E-04-3.40302E-05-1.32425E-03
 -1      1494 5.65566E-04-6.87089E-08 2.14604E-12
 -1      1496 5.65566E-04 6.86620E-08 2.39593E-12
 -1      1497 7.28112E-04 3.40302E-05 1.32425E-03
 -1      1499 7.28112E-04-3.40302E-05 1.32425E-03
 -1      1500-1.03015E-03 1.61240E-03 1.16913E-02
 -1      1502 1.60757E-03-1.42221E-03 1.16992E-02
 -1      1503-1.12862E-04 3.16843E-03 2.73924E-02
 -1      1505 1.20639E-03-3.02559E-03 2.74078E-02
 -1      1506-1.47338E-04 4.73766E-03 4.10667E-02
 -1      1508 1.79833E-03-4.58979E-03 4.10830E-02
 -1      1509 2.82184E-04 6.34242E-03 5.55156E-02
 -1      1511 1.88708E-03-6.20449E-03 5.55312E-02
 -1      1512 4.54749E-04 7.90170E-03 6.94184E-02
 -1      1514 2.21314E-03-7.77015E-03 6.94375E-02
 -1      1515 7.48170E-04 9.46113E-03 8.33334E-02
 -1      1517 2.38582E-03-9.34031E-03 8.33513E-02
 -1      1518 9.49629E-04 1.09870E-02 9.69406E-02
 -1      1520 2.61561E-03-1.08750E-02 9.69610E-02
 -1      1521 1.18081E-03 1.24868E-02 1.10343E-01
 -1      1523 2.77899E-03-1.23860E-02 1.10363E-01
 -1      1524 1.36610E-03 1.39551E-02 1.23428E-01
 -1      1526 2.94858E-03-1.38647E-02 1.23449E-01
 -1      1527 1.55162E-03 1.53828E-02 1.36201E-01
 -1      1529 3.07788E-03-1.53040E-02 1.36223E-01
 -1      1530 1.70659E-03 1.67739E-02 1.48600E-01
 -1      1532 3.19567E-03-1.67062E-02 1.48623E-01
 -1      1533 1.85026E-03 1.81152E-02 1.60607E-01
 -1      1535 3.28254E-03-1.80594E-02 1.60630E-01
 -1      1536 1.96930E-03 1.94121E-02 1.72175E-01
 -1      1538 3.35082E-03-1.93678E-02 1.72199E-01
 -1      1539 2.07207E-03 2.06524E-02 1.83280E-01
 -1      1541 3.39215E-03-2.06200E-02 1.83303E-01
 -1      1542 2.15284E-03 2.18400E-02 1.93883E-01
 -1      1544 3.41213E-03-2.18193E-02 1.93908E-01
 -1      1545 2.21535E-03 2.29651E-02 2.03959E-01
 -1      1547 3.40727E-03-2.29562E-02 2.03983E-01
 -1      1548 2.25736E-03 2.40301E-02 2.13475E-01
 -1      1550 3.38044E-03-2.40325E-02 2.13500E-01
 -1      1551 2.28071E-03 2.50270E-02 2.22407E-01
 -1      1553 3.33035E-03-2.50408E-02 2.22431E-01
 -1      1554 2.28484E-03 2.59573E-02 2.30725E-01
 -1      1556 3.25896E-03-2.59816E-02 2.30751E-01
 -1      1557 2.27089E-03 2.68143E-02 2.38409E-01
 -1      1559 3.16594E-03-2.68497E-02 2.38434E-01
 -1      1560 2.23919E-03 2.75994E-02 2.45434E-01
 -1      1562 3.05326E-03-2.76440E-02 2.45460E-01
 -1      1563 2.19087E-03 2.83063E-02 2.51781E-01
 -1      1565 2.92100E-03-2.83617E-02 2.51806E-01
 -1      1566 2.12704E-03 2.89377E-02 2.57432E-01
 -1      1568 2.77197E-03-2.89996E-02 2.57458E-01
 -1      1569 2.04945E-03 2.94853E-02 2.62374E-01
 -1      1571 2.60688E-03-2.95590E-02 2.62399E-01
 -1      1572 1.96175E-03 2.99576E-02 2.66591E-01
 -1      1574 2.43084E-03-3.00300E-02 2.66617E-01
 -1      1575 1.86554E-03 3.03363E-02 2.70080E-01
 -1      1577 2.24633E-03-3.04267E-02 2.70106E-01
 -1      1578 1.78329E-03 3.06523E-02 2.72814E-01
 -1      1580 2.06868E-03-3.07150E-02 2.72841E-01
 -1      1581 1.68279E-03 3.08577E-02 2.74796E-01
 -1      1583 1.88180E-03-3.09426E-02 2.74824E-01
 -1      1584 1.69094E-03 3.09892E-02 2.75854E-01
 -1      1586 1.74492E-03-3.10720E-02 2.75882E-01
 -1      1587 1.68006E-03 2.53661E-02 8.77086E-02
 -1      1589 1.61310E-03-2.52744E-02 8.76737E-02
 -1      1590 0.00000E+00 0.00000E+00-7.80522E-06
 -1      1592 0.00000E+00 0.00000E+00 7.80522E-06
 -1      1593 1.68006E-03-2.53661E-02 8.77086E-02
 -1      1595 1.61310E-03 2.52744E-02 8.76737E-02
 -1      1596-1.03015E-03-1.61240E-03 1.16913E-02
 -1      1598 1.60757E-03 1.42221E-03 1.16992E-02
 -1      1599-1.12862E-04-3.16843E-03 2.73924E-02
 -1      1601 1.20639E-03 3.02559E-03 2.74078E-02
 -1      1602-1.47338E-04-4.73766E-03 4.10667E-02
 -1      1604 1.79833E-03 4.58979E-03 4.10830E-02
 -1      1605 2.82184E-04-6.34242E-03 5.55156E-02
 -1      1607 1.88708E-03 6.20449E-03 5.55312E-02
 -1      1608 4.54749E-04-7.90170E-03 6.94184E-02
 -1      1610 2.21314E-03 7.77015E-03 6.94375E-02
 -1      1611 7.48170E-04-9.46113E-03 8.33334E-02
 -1      1613 2.38582E-03 9.34031E-03 8.33513E-02
 -1      1614 9.49629E-04-1.09870E-02 9.69406E-02
 -1      1616 2.61561E-03 1.08750E-02 9.69610E-02
 -1      1617 1.18081E-03-1.24868E-02 1.10343E-01
 -1      1619 2.77899E-03 1.23860E-02 1.10363E-01
 -1      1620 1.36610E-03-1.39551E-02 1.23428E-01
 -1      1622 2.94858E-03 1.38647E-02 1.23449E-01
 -1      1623 1.55162E-03-1.53828E-02 1.36201E-01
 -1      1625 3.07788E-03 1.53040E-02 1.36223E-01
 -1      1626 1.70659E-03-1.67739E-02 1.48600E-01
 -1      1628 3.19567E-03 1.67062E-02 1.48623E-01
 -1      1629 1.85026E-03-1.81152E-02 1.60607E-01
 -1      1631 3.28254E-03 1.80594E-02 1.60630E-01
 -1      1632 1.96930E-03-1.94121E-02 1.72175E-01
 -1      1634 3.35082E-03 1.93678E-02 1.72199E-01
 -1      1635 2.07207E-03-2.06524E-02 1.83280E-01
 -1      1637 3.39215E-03 2.06200E-02 1.83303E-01
 -1      1638 2.15284E-03-2.18400E-02 1.93883E-01
 -1      1640 3.41213E-03 2.18193E-02 1.93908E-01
 -1      1641 2.21535E-03-2.29651E-02 2.03959E-01
 -1      1643 3.40727E-03 2.29562E-02 2.03983E-01
 -1      1644 2.25736E-03-2.40301E-02 2.13475E-01
 -1      1646 3.38044E-03 2.40325E-02 2.13500E-01
 -1      1647 2.28071E-03-2.50270E-02 2.22407E-01
 -1      1649 3.33035E-03 2.50408E-02 2.22431E-01
 -1      1650 2.28484E-03-2.59573E-02 2.30725E-01
 -1      1652 3.25896E-03 2.59816E-02 2.30751E-01
 -1      1653 2.27089E-03-2.68143E-02 2.38409E-01
 -1      1655 3.16594E-03 2.68497E-02 2.38434E-01
 -1      1656 2.23919E-03-2.75994E-02 2.45434E-01
 -1      1658 3.05326E-03 2.76440E-02 2.45460E-01
 -1      1659 2.19087E-03-2.83063E-02 2.51781E-01
 -1      1661 2.92100E-03 2.83617E-02 2.51806E-01
 -1      1662 2.12704E-03-2.89377E-02 2.57432E-01
 -1      1664 2.77197E-03 2.89996E-02 2.57458E-01
 -1      1665 2.04945E-03-2.94853E-02 2.62374E-01
 -1      1667 2.60688E-03 2.95590E-02 2.62399E-01
 -1      1668 1.96175E-03-2.99576E-02 2.66591E-01
 -1      1670 2.43084E-03 3.00300E-02 2.66617E-01
 -1      1671 1.86554E-03-3.03363E-02 2.70080E-01
 -1      1673 2.24633E-03 3.04267E-02 2.70106E-01
 -1      1674 1.78329E-03-3.06523E-02 2.72814E-01
 -1      1676 2.06868E-03 3.07150E-02 2.72841E-01
 -1      1677 1.68279E-03-3.08577E-02 2.74796E-01
 -1      1679 1.88180E-03 3.09426E-02 2.74824E-01
 -1      1680 1.69094E-03-3.09892E-02 2.75854E-01
 -1      1682 1.74492E-03 3.10720E-02 2.75882E-01
 -1      1683 0.00000E+00 0.00000E+00-7.80522E-06
 -1      1685 0.00000E+00 0.00000E+00 7.80522E-06
 -1      1686-3.16968E-04-1.08434E-03-3.15085E-03
 -1      1688 8.53160E-04 1.00024E-03-3.16291E-03
 -1      1689 2.26482E-04-2.55767E-03-8.64362E-03
 -1      1691 8.91729E-04 2.47543E-03-8.65058E-03
 -1      1692 4.04923E-04-3.82422E-03-1.28838E-02
 -1      1694 1.24203E-03 3.75600E-03-1.28897E-02
 -1      1695 7.00426E-04-5.13150E-03-1.75526E-02
 -1      1697 1.47892E-03 5.05906E-03-1.75569E-02
 -1      1698 9.51064E-04-6.41964E-03-2.19864E-02
 -1      1700 1.72371E-03 6.35574E-03-2.19875E-02
 -1      1701 1.18486E-03-7.67910E-03-2.64191E-02
 -1      1703 1.95766E-03 7.61778E-03-2.64187E-02
 -1      1704 1.41382E-03-8.93391E-03-3.07719E-02
 -1      1706 2.16011E-03 8.87883E-03-3.07686E-02
 -1      1707 1.61279E-03-1.01515E-02-3.50378E-02
 -1      1709 2.35557E-03 1.01010E-02-3.50325E-02
 -1      1710 1.80345E-03-1.13537E-02-3.92213E-02
 -1      1712 2.52013E-03 1.13091E-02-3.92135E-02
 -1      1713 1.96709E-03-1.25167E-02-4.32911E-02
 -1      1715 2.67102E-03 1.24775E-02-4.32810E-02
 -1      1716 2.11641E-03-1.36534E-02-4.72530E-02
 -1      1718 2.79457E-03 1.36201E-02-4.72406E-02
 -1      1719 2.24157E-03-1.47478E-02-5.10820E-02
 -1      1721 2.89972E-03 1.47203E-02-5.10673E-02
 -1      1722 2.34879E-03-1.58068E-02-5.47772E-02
 -1      1724 2.97974E-03 1.57853E-02-5.47604E-02
 -1      1725 2.43343E-03-1.68195E-02-5.83209E-02
 -1      1727 3.03899E-03 1.68038E-02-5.83017E-02
 -1      1728 2.49849E-03-1.77892E-02-6.17078E-02
 -1      1730 3.07444E-03 1.77795E-02-6.16866E-02
 -1      1731 2.54200E-03-1.87082E-02-6.49247E-02
 -1      1733 3.08836E-03 1.87042E-02-6.49013E-02
 -1      1734 2.56557E-03-1.95778E-02-6.79646E-02
 -1      1736 3.07962E-03 1.95797E-02-6.79394E-02
 -1      1737 2.56859E-03-2.03923E-02-7.08171E-02
 -1      1739 3.04961E-03 2.03997E-02-7.07899E-02
 -1      1740 2.55220E-03-2.11520E-02-7.34752E-02
 -1      1742 2.99828E-03 2.11651E-02-7.34462E-02
 -1      1743 2.51648E-03-2.18526E-02-7.59303E-02
 -1      1745 2.92669E-03 2.18706E-02-7.58996E-02
 -1      1746 2.46263E-03-2.24936E-02-7.81760E-02
 -1      1748 2.83558E-03 2.25173E-02-7.81438E-02
 -1      1749 2.39107E-03-2.30721E-02-8.02062E-02
 -1      1751 2.72595E-03 2.30997E-02-8.01725E-02
 -1      1752 2.30372E-03-2.35870E-02-8.20156E-02
 -1      1754 2.59950E-03 2.36206E-02-8.19806E-02
 -1      1755 2.20121E-03-2.40370E-02-8.36020E-02
 -1      1757 2.45779E-03 2.40723E-02-8.35660E-02
 -1      1758 2.08786E-03-2.44195E-02-8.49613E-02
 -1      1760 2.30400E-03 2.44616E-02-8.49243E-02
 -1      1761 1.96643E-03-2.47358E-02-8.60999E-02
 -1      1763 2.14450E-03 2.47765E-02-8.60627E-02
 -1      1764 1.84512E-03-2.49824E-02-8.70006E-02
 -1      1766 1.97812E-03 2.50270E-02-8.69626E-02
 -1      1767 1.74489E-03-2.51675E-02-8.76701E-02
 -1      1769 1.84107E-03 2.51932E-02-8.76338E-02
 -1      1770 1.66240E-03-2.52384E-02-8.79540E-02
 -1      1772 1.67257E-03 2.53264E-02-8.79201E-02
 -1      1773-3.16968E-04 1.08434E-03-3.15085E-03
 -1      1775 8.53160E-04-1.00024E-03-3.16291E-03
 -1      1776 2.26482E-04 2.55767E-03-8.64362E-03
 -1      1778 8.91729E-04-2.47543E-03-8.65058E-03
 -1      1779 4.04923E-04 3.82422E-03-1.28838E-02
 -1      1781 1.24203E-03-3.75600E-03-1.28897E-02
 -1      1782 7.00426E-04 5.13150E-03-1.75526E-02
 -1      1784 1.47892E-03-5.05906E-03-1.75569E-02
 -1      1785 9.51064E-04 6.41964E-03-2.19864E-02
 -1      1787 1.72371E-03-6.35574E-03-2.19875E-02
 -1      1788 1.18486E-03 7.67910E-03-2.64191E-02
 -1      1790 1.95766E-03-7.61778E-03-2.64187E-02
 -1      1791 1.41382E-03 8.93391E-03-3.07719E-02
 -1      1793 2.16011E-03-8.87883E-03-3.07686E-02
 -1      1794 1.61279E-03 1.01515E-02-3.50378E-02
 -1      1796 2.35557E-03-1.01010E-02-3.50325E-02
 -1      1797 1.80345E-03 1.13537E-02-3.92213E-02
 -1      1799 2.52013E-03-1.13091E-02-3.92135E-02
 -1      1800 1.96709E-03 1.25167E-02-4.32911E-02
 -1      1802 2.67102E-03-1.24775E-02-4.32810E-02
 -1      1803 2.11641E-03 1.36534E-02-4.72530E-02
 -1      1805 2.79457E-03-1.36201E-02-4.72406E-02
 -1      1806 2.24157E-03 1.47478E-02-5.10820E-02
 -1      1808 2.89972E-03-1.47203E-02-5.10673E-02
 -1      1809 2.34879E-03 1.58068E-02-5.47772E-02
 -1      1811 2.97974E-03-1.57853E-02-5.47604E-02
 -1      1812 2.43343E-03 1.68195E-02-5.83209E-02
 -1      1814 3.03899E-03-1.68038E-02-5.83017E-02
 -1      1815 2.49849E-03 1.77892E-02-6.17078E-02
 -1      1817 3.07444E-03-1.77795E-02-6.16866E-02
 -1      1818 2.54200E-03 1.87082E-02-6.49247E-02
 -1      1820 3.08836E-03-1.87042E-02-6.49013E-02
 -1      1821 2.56557E-03 1.95778E-02-6.79646E-02
 -1      1823 3.07962E-03-1.95797E-02-6.79394E-02
 -1      1824 2.56859E-03 2.03923E-02-7.08171E-02
 -1      1826 3.04961E-03-2.03997E-02-7.07899E-02
 -1      1827 2.55220E-03 2.11520E-02-7.34752E-02
 -1      1829 2.99828E-03-2.11651E-02-7.34462E-02
 -1      1830 2.51648E-03 2.18526E-02-7.59303E-02
 -1      1832 2.92669E-03-2.18706E-02-7.58996E-02
 -1      1833 2.46263E-03 2.24936E-02-7.81760E-02
 -1      1835 2.83558E-03-2.25173E-02-7.81438E-02
 -1      1836 2.39107E-03 2.30721E-02-8.02062E-02
 -1      1838 2.72595E-03-2.30997E-02-8.01725E-02
 -1      1839 2.30372E-03 2.35870E-02-8.20156E-02
 -1      1841 2.59950E-03-2.36206E-02-8.19806E-02
 -1      1842 2.20121E-03 2.40370E-02-8.36020E-02
 -1      1844 2.45779E-03-2.40723E-02-8.35660E-02
 -1      1845 2.08786E-03 2.44195E-02-8.49613E-02
 -1      1847 2.30400E-03-2.44616E-02-8.49243E-02
 -1      1848 1.96643E-03 2.47358E-02-8.60999E-02
 -1      1850 2.14450E-03-2.47765E-02-8.60627E-02
 -1      1851 1.84512E-03 2.49824E-02-8.70006E-02
 -1      1853 1.97812E-03-2.50270E-02-8.69626E-02
 -1      1854 1.74489E-03 2.51675E-02-8.76701E-02
 -1      1856 1.84107E-03-2.51932E-02-8.76338E-02
 -1      1857 1.66240E-03 2.52384E-02-8.79540E-02
 -1      1859 1.67257E-03-2.53264E-02-8.79201E-02
 -1      1860 3.48046E-04 3.85282E-06 7.90161E-05
 -1      1862 3.48046E-04-3.85282E-06 7.90161E-05
 -1      1863 6.96249E-04 8.53671E-06-2.45028E-05
 -1      1865 6.96249E-04-8.53672E-06-2.45028E-05
 -1      1866 9.85117E-04 1.02064E-05-1.23930E-04
 -1      1868 9.85117E-04-1.02064E-05-1.23930E-04
 -1      1869 1.26511E-03 1.14456E-05-2.06446E-04
 -1      1871 1.26511E-03-1.14456E-05-2.06446E-04
 -1      1872 1.51807E-03 1.43951E-05-2.95046E-04
 -1      1874 1.51807E-03-1.43951E-05-2.95046E-04
 -1      1875 1.75222E-03 1.54655E-05-3.73941E-04
 -1      1877 1.75222E-03-1.54655E-05-3.73941E-04
 -1      1878 1.96713E-03 1.80219E-05-4.55509E-04
 -1      1880 1.96713E-03-1.80220E-05-4.55509E-04
 -1      1881 2.16130E-03 1.93759E-05-5.32351E-04
 -1      1883 2.16130E-03-1.93759E-05-5.32351E-04
 -1      1884 2.33582E-03 2.14963E-05-6.09671E-04
 -1      1886 2.33582E-03-2.14963E-05-6.09671E-04
 -1      1887 2.48879E-03 2.29930E-05-6.83936E-04
 -1      1889 2.48879E-03-2.29930E-05-6.83936E-04
 -1      1890 2.62077E-03 2.48031E-05-7.57272E-04
 -1      1892 2.62077E-03-2.48031E-05-7.57272E-04
 -1      1893 2.73067E-03 2.63063E-05-8.27937E-04
 -1      1895 2.73067E-03-2.63064E-05-8.27937E-04
 -1      1896 2.81872E-03 2.78825E-05-8.96748E-04
 -1      1898 2.81872E-03-2.78825E-05-8.96748E-04
 -1      1899 2.88450E-03 2.93123E-05-9.62800E-04
 -1      1901 2.88450E-03-2.93123E-05-9.62800E-04
 -1      1902 2.92821E-03 3.06864E-05-1.02635E-03
 -1      1904 2.92821E-03-3.06864E-05-1.02635E-03
 -1      1905 2.94989E-03 3.19982E-05-1.08688E-03
 -1      1907 2.94989E-03-3.19982E-05-1.08688E-03
 -1      1908 2.94986E-03 3.31796E-05-1.14441E-03
 -1      1910 2.94986E-03-3.31796E-05-1.14441E-03
 -1      1911 2.92852E-03 3.43469E-05-1.19862E-03
 -1      1913 2.92852E-03-3.43469E-05-1.19862E-03
 -1      1914 2.88635E-03 3.53356E-05-1.24948E-03
 -1      1916 2.88635E-03-3.53356E-05-1.24948E-03
 -1      1917 2.82400E-03 3.63421E-05-1.29681E-03
 -1      1919 2.82400E-03-3.63421E-05-1.29681E-03
 -1      1920 2.74205E-03 3.71329E-05-1.34070E-03
 -1      1922 2.74205E-03-3.71329E-05-1.34070E-03
 -1      1923 2.64108E-03 3.79733E-05-1.38131E-03
 -1      1925 2.64108E-03-3.79733E-05-1.38131E-03
 -1      1926 2.52130E-03 3.85493E-05-1.41939E-03
 -1      1928 2.52130E-03-3.85493E-05-1.41939E-03
 -1      1929 2.38204E-03 3.92378E-05-1.45625E-03
 -1      1931 2.38204E-03-3.92378E-05-1.45625E-03
 -1      1932 2.22090E-03 3.95484E-05-1.49433E-03
 -1      1934 2.22090E-03-3.95484E-05-1.49433E-03
 -1      1935 2.03218E-03 4.00495E-05-1.53727E-03
 -1      1937 2.03218E-03-4.00495E-05-1.53727E-03
 -1      1938 1.80468E-03 3.99939E-05-1.58617E-03
 -1      1940 1.80468E-03-3.99939E-05-1.58617E-03
 -1      1941 1.52047E-03 3.98107E-05-1.62842E-03
 -1      1943 1.52047E-03-3.98107E-05-1.62842E-03
 -1      1944 1.15792E-03 3.77357E-05-1.59363E-03
 -1      1946 1.15792E-03-3.77358E-05-1.59363E-03
 -1      1947 3.61494E-04 7.50699E-06 4.59320E-13
 -1      1949 3.61494E-04-7.50700E-06 4.18849E-13
 -1      1950 7.22488E-04 4.20501E-06 9.86388E-13
 -1      1952 7.22488E-04-4.20502E-06 8.81115E-13
 -1      1953 1.03966E-03 4.94325E-06 1.46765E-12
 -1      1955 1.03966E-03-4.94326E-06 1.31291E-12
 -1      1956 1.31843E-03 6.15585E-06 1.87711E-12
 -1      1958 1.31843E-03-6.15586E-06 1.69420E-12
 -1      1959 1.57574E-03 5.37702E-06 2.18497E-12
 -1      1961 1.57574E-03-5.37704E-06 1.99978E-12
 -1      1962 1.80997E-03 6.70903E-06 2.35309E-12
 -1      1964 1.80997E-03-6.70905E-06 2.19553E-12
 -1      1965 2.02425E-03 6.27149E-06 2.40314E-12
 -1      1967 2.02425E-03-6.27152E-06 2.29005E-12
 -1      1968 2.21804E-03 7.10297E-06 2.31495E-12
 -1      1970 2.21804E-03-7.10300E-06 2.25038E-12
 -1      1971 2.39109E-03 7.01108E-06 2.05515E-12
 -1      1973 2.39109E-03-7.01111E-06 2.03818E-12
 -1      1974 2.54307E-03 7.50830E-06 1.60552E-12
 -1      1976 2.54307E-03-7.50833E-06 1.64629E-12
 -1      1977 2.67335E-03 7.57667E-06 1.00919E-12
 -1      1979 2.67335E-03-7.57670E-06 1.11848E-12
 -1      1980 2.78177E-03 7.89827E-06 3.58841E-13
 -1      1982 2.78177E-03-7.89831E-06 5.38604E-13
 -1      1983 2.86791E-03 8.00981E-06-2.91617E-13
 -1      1985 2.86791E-03-8.00985E-06-6.77375E-14
 -1      1986 2.93181E-03 8.24266E-06-8.92467E-13
 -1      1988 2.93181E-03-8.24270E-06-6.49147E-13
 -1      1989 2.97336E-03 8.33884E-06-1.37985E-12
 -1      1991 2.97336E-03-8.33888E-06-1.14196E-12
 -1      1992 2.99284E-03 8.52708E-06-1.74398E-12
 -1      1994 2.99284E-03-8.52712E-06-1.54078E-12
 -1      1995 2.99041E-03 8.57913E-06-2.01661E-12
 -1      1997 2.99041E-03-8.57917E-06-1.85761E-12
 -1      1998 2.96658E-03 8.74801E-06-2.19155E-12
 -1      2000 2.96658E-03-8.74805E-06-2.08416E-12
 -1      2001 2.92175E-03 8.73973E-06-2.26697E-12
 -1      2003 2.92175E-03-8.73977E-06-2.21867E-12
 -1      2004 2.85663E-03 8.90777E-06-2.22713E-12
 -1      2006 2.85663E-03-8.90782E-06-2.23608E-12
 -1      2007 2.77162E-03 8.82955E-06-2.04271E-12
 -1      2009 2.77162E-03-8.82959E-06-2.10238E-12
 -1      2010 2.66728E-03 9.01028E-06-1.72394E-12
 -1      2012 2.66728E-03-9.01032E-06-1.81568E-12
 -1      2013 2.54315E-03 8.86351E-06-1.30933E-12
 -1      2015 2.54315E-03-8.86355E-06-1.41067E-12
 -1      2016 2.39787E-03 9.04884E-06-8.39526E-13
 -1      2018 2.39787E-03-9.04889E-06-9.29846E-13
 -1      2019 2.22661E-03 8.82581E-06-3.42476E-13
 -1      2021 2.22661E-03-8.82586E-06-3.98327E-13
 -1      2022 2.01958E-03 8.93586E-06 1.94289E-13
 -1      2024 2.01958E-03-8.93590E-06 1.95729E-13
 -1      2025 1.75776E-03 8.26871E-06 7.51624E-13
 -1      2027 1.75776E-03-8.26875E-06 8.37367E-13
 -1      2028 1.41554E-03 7.53932E-06 1.27355E-12
 -1      2030 1.41554E-03-7.53937E-06 1.44373E-12
 -1      2031 9.87483E-04 4.68677E-06 1.73817E-12
 -1      2033 9.87483E-04-4.68681E-06 1.96059E-12
 -1      2034 3.48046E-04 3.85282E-06-7.90161E-05
 -1      2036 3.48046E-04-3.85282E-06-7.90161E-05
 -1      2037 6.96249E-04 8.53672E-06 2.45028E-05
 -1      2039 6.96249E-04-8.53672E-06 2.45028E-05
 -1      2040 9.85117E-04 1.02064E-05 1.23930E-04
 -1      2042 9.85117E-04-1.02064E-05 1.23930E-04
 -1      2043 1.26511E-03 1.14456E-05 2.06446E-04
 -1      2045 1.26511E-03-1.14456E-05 2.06446E-04
 -1      2046 1.51807E-03 1.43951E-05 2.95046E-04
 -1      2048 1.51807E-03-1.43951E-05 2.95046E-04
 -1      2049 1.75222E-03 1.54655E-05 3.73941E-04
 -1      2051 1.75222E-03-1.54655E-05 3.73941E-04
 -1      2052 1.96713E-03 1.80220E-05 4.55509E-04
 -1      2054 1.96713E-03-1.80220E-05 4.55509E-04
 -1      2055 2.16130E-03 1.93759E-05 5.32351E-04
 -1      2057 2.16130E-03-1.93759E-05 5.32351E-04
 -1      2058 2.33582E-03 2.14963E-05 6.09671E-04
 -1      2060 2.33582E-03-2.14963E-05 6.09671E-04
 -1      2061 2.48879E-03 2.29930E-05 6.83936E-04
 -1      2063 2.48879E-03-2.29930E-05 6.83936E-04
 -1      2064 2.62077E-03 2.48031E-05 7.57272E-04
 -1      2066 2.62077E-03-2.48031E-05 7.57272E-04
 -1      2067 2.73067E-03 2.63063E-05 8.27937E-04
 -1      2069 2.73067E-03-2.63064E-05 8.27937E-04
 -1      2070 2.81872E-03 2.78825E-05 8.96748E-04
 -1      2072 2.81872E-03-2.78825E-05 8.96748E-04
 -1      2073 2.88450E-03 2.93123E-05 9.62800E-04
 -1      2075 2.88450E-03-2.93123E-05 9.62800E-04
 -1      2076 2.92821E-03 3.06864E-05 1.02635E-03
 -1      2078 2.92821E-03-3.06864E-05 1.02635E-03
 -1      2079 2.94989E-03 3.19982E-05 1.08688E-03
 -1      2081 2.94989E-03-3.19982E-05 1.08688E-03
 -1      2082 2.94986E-03 3.31796E-05 1.14441E-03
 -1      2084 2.94986E-03-3.31796E-05 1.14441E-03
 -1      2085 2.92852E-03 3.43469E-05 1.19862E-03
 -1      2087 2.92852E-03-3.43470E-05 1.19862E-03
 -1      2088 2.88635E-03 3.53356E-05 1.24948E-03
 -1      2090 2.88635E-03-3.53356E-05 1.24948E-03
 -1      2091 2.82400E-03 3.63421E-05 1.29681E-03
 -1      2093 2.82400E-03-3.63421E-05 1.29681E-03
 -1      2094 2.74205E-03 3.71329E-05 1.34070E-03
 -1      2096 2.74205E-03-3.71329E-05 1.34070E-03
 -1      2097 2.64108E-03 3.79733E-05 1.38131E-03
 -1      2099 2.64108E-03-3.79733E-05 1.38131E-03
 -1      2100 2.52130E-03 3.85493E-05 1.41939E-03
 -1      2102 2.52130E-03-3.85493E-05 1.41939E-03
 -1      2103 2.38204E-03 3.92378E-05 1.45625E-03
 -1      2105 2.38204E-03-3.92378E-05 1.45625E-03
 -1      2106 2.22090E-03 3.95484E-05 1.49433E-03
 -1      2108 2.22090E-03-3.95484E-05 1.49433E-03
 -1      2109 2.03218E-03 4.00495E-05 1.53727E-03
 -1      2111 2.03218E-03-4.00495E-05 1.53727E-03
 -1      2112 1.80468E-03 3.99939E-05 1.58617E-03
 -1      2114 1.80468E-03-3.99939E-05 1.58617E-03
 -1      2115 1.52047E-03 3.98107E-05 1.62842E-03
 -1      2117 1.52047E-03-3.98107E-05 1.62842E-03
 -1      2118 1.15792E-03 3.77357E-05 1.59363E-03
 -1      2120 1.15792E-03-3.77358E-05 1.59363E-03
 -1      2121-3.16968E-04 1.08434E-03 3.15085E-03
 -1      2123 8.53160E-04-1.00024E-03 3.16291E-03
 -1      2124 2.26482E-04 2.55767E-03 8.64362E-03
 -1      2126 8.91729E-04-2.47543E-03 8.65058E-03
 -1      2127 4.04923E-04 3.82422E-03 1.28838E-02
 -1      2129 1.24203E-03-3.75600E-03 1.28897E-02
 -1      2130 7.00426E-04 5.13150E-03 1.75526E-02
 -1      2132 1.47892E-03-5.05906E-03 1.75569E-02
 -1      2133 9.51064E-04 6.41964E-03 2.19864E-02
 -1      2135 1.72371E-03-6.35574E-03 2.19875E-02
 -1      2136 1.18486E-03 7.67910E-03 2.64191E-02
 -1      2138 1.95766E-03-7.61778E-03 2.64187E-02
 -1      2139 1.41382E-03 8.93391E-03 3.07719E-02
 -1      2141 2.16011E-03-8.87883E-03 3.07686E-02
 -1      2142 1.61279E-03 1.01515E-02 3.50378E-02
 -1      2144 2.35557E-03-1.01010E-02 3.50325E-02
 -1      2145 1.80345E-03 1.13537E-02 3.92213E-02
 -1      2147 2.52013E-03-1.13091E-02 3.92135E-02
 -1      2148 1.96709E-03 1.25167E-02 4.32911E-02
 -1      2150 2.67102E-03-1.24775E-02 4.32810E-02
 -1      2151 2.11641E-03 1.36534E-02 4.72530E-02
 -1      2153 2.79457E-03-1.36201E-02 4.72406E-02
 -1      2154 2.24157E-03 1.47478E-02 5.10820E-02
 -1      2156 2.89972E-03-1.47203E-02 5.10673E-02
 -1      2157 2.34879E-03 1.58068E-02 5.47772E-02
 -1      2159 2.97974E-03-1.57853E-02 5.47604E-02
 -1      2160 2.43343E-03 1.68195E-02 5.83209E-02
 -1      2162 3.03899E-03-1.68038E-02 5.83017E-02
 -1      2163 2.49849E-03 1.77892E-02 6.17078E-02
 -1      2165 3.07444E-03-1.77795E-02 6.16866E-02
 -1      2166 2.54200E-03 1.87082E-02 6.49247E-02
 -1      2168 3.08836E-03-1.87042E-02 6.49013E-02
 -1      2169 2.56557E-03 1.95778E-02 6.79646E-02
 -1      2171 3.07962E-03-1.95797E-02 6.79394E-02
 -1      2172 2.56859E-03 2.03923E-02 7.08171E-02
 -1      2174 3.04961E-03-2.03997E-02 7.07899E-02
 -1      2175 2.55220E-03 2.11520E-02 7.34752E-02
 -1      2177 2.99828E-03-2.11651E-02 7.34462E-02
 -1      2178 2.51648E-03 2.18526E-02 7.59303E-02
 -1      2180 2.92669E-03-2.18706E-02 7.58996E-02
 -1      2181 2.46263E-03 2.24936E-02 7.81760E-02
 -1      2183 2.83558E-03-2.25173E-02 7.81438E-02
 -1      2184 2.39107E-03 2.30721E-02 8.02062E-02
 -1      2186 2.72595E-03-2.30997E-02 8.01725E-02
 -1      2187 2.30372E-03 2.35870E-02 8.20156E-02
 -1      2189 2.59950E-03-2.36206E-02 8.19806E-02
 -1      2190 2.20121E-03 2.40370E-02 8.36020E-02
 -1      2192 2.45779E-03-2.40723E-02 8.35660E-02
 -1      2193 2.08786E-03 2.44195E-02 8.49613E-02
 -1      2195 2.30400E-03-2.44616E-02 8.49243E-02
 -1      2196 1.96643E-03 2.47358E-02 8.60999E-02
 -1      2198 2.14450E-03-2.47765E-02 8.60627E-02
 -1      2199 1.84512E-03 2.49824E-02 8.70006E-02
 -1      2201 1.97812E-03-2.50270E-02 8.69626E-02
 -1      2202 1.74489E-03 2.51675E-02 8.76701E-02
 -1      2204 1.84107E-03-2.51932E-02 8.76338E-02
 -1      2205 1.66240E-03 2.52384E-02 8.79540E-02
 -1      2207 1.67257E-03-2.53264E-02 8.79201E-02
 -1      2208-3.16968E-04-1.08434E-03 3.15085E-03
 -1      2210 8.53160E-04 1.00024E-03 3.16291E-03
 -1      2211 2.26482E-04-2.55767E-03 8.64362E-03
 -1      2213 8.91729E-04 2.47543E-03 8.65058E-03
 -1      2214 4.04923E-04-3.82422E-03 1.28838E-02
 -1      2216 1.24203E-03 3.75600E-03 1.28897E-02
 -1      2217 7.00426E-04-5.13150E-03 1.75526E-02
 -1      2219 1.47892E-03 5.05906E-03 1.75569E-02
 -1      2220 9.51064E-04-6.41964E-03 2.19864E-02
 -1      2222 1.72371E-03 6.35574E-03 2.19875E-02
 -1      2223 1.18486E-03-7.67910E-03 2.64191E-02
 -1      2225 1.95766E-03 7.61778E-03 2.64187E-02
 -1      2226 1.41382E-03-8.93391E-03 3.07719E-02
 -1      2228 2.16011E-03 8.87883E-03 3.07686E-02
 -1      2229 1.61279E-03-1.01515E-02 3.50378E-02
 -1      2231 2.35557E-03 1.01010E-02 3.50325E-02
 -1      2232 1.80345E-03-1.13537E-02 3.92213E-02
 -1      2234 2.52013E-03 1.13091E-02 3.92135E-02
 -1      2235 1.96709E-03-1.25167E-02 4.32911E-02
 -1      2237 2.67102E-03 1.24775E-02 4.32810E-02
 -1      2238 2.11641E-03-1.36534E-02 4.72530E-02
 -1      2240 2.79457E-03 1.36201E-02 4.72406E-02
 -1      2241 2.24157E-03-1.47478E-02 5.10820E-02
 -1      2243 2.89972E-03 1.47203E-02 5.10673E-02
 -1      2244 2.34879E-03-1.58068E-02 5.47772E-02
 -1      2246 2.97974E-03 1.57853E-02 5.47604E-02
 -1      2247 2.43343E-03-1.68195E-02 5.83209E-02
 -1      2249 3.03899E-03 1.68038E-02 5.83017E-02
 -1      2250 2.49849E-03-1.77892E-02 6.17078E-02
 -1      2252 3.07444E-03 1.77795E-02 6.16866E-02
 -1      2253 2.54200E-03-1.87082E-02 6.49247E-02
 -1      2255 3.08836E-03 1.87042E-02 6.49013E-02
 -1      2256 2.56557E-03-1.95778E-02 6.79646E-02
 -1      2258 3.07962E-03 1.95797E-02 6.79394E-02
 -1      2259 2.56859E-03-2.03923E-02 7.08171E-02
 -1      2261 3.04961E-03 2.03997E-02 7.07899E-02
 -1      2262 2.55220E-03-2.11520E-02 7.34752E-02
 -1      2264 2.99828E-03 2.11651E-02 7.34462E-02
 -1      2265 2.51648E-03-2.18526E-02 7.59303E-02
 -1      2267 2.92669E-03 2.18706E-02 7.58996E-02
 -1      2268 2.46263E-03-2.24936E-02 7.81760E-02
 -1      2270 2.83558E-03 2.25173E-02 7.81438E-02
 -1      2271 2.39107E-03-2.30721E-02 8.02062E-02
 -1      2273 2.72595E-03 2.30997E-02 8.01725E-02
 -1      2274 2.30372E-03-2.35870E-02 8.20156E-02
 -1      2276 2.59950E-03 2.36206E-02 8.19806E-02
 -1      2277 2.20121E-03-2.40370E-02 8.36020E-02
 -1      2279 2.45779E-03 2.40723E-02 8.35660E-02
 -1      2280 2.08786E-03-2.44195E-02 8.49613E-02
 -1      2282 2.30400E-03 2.44616E-02 8.49243E-02
 -1      2283 1.96643E-03-2.47358E-02 8.60999E-02
 -1      2285 2.14450E-03 2.47765E-02 8.60627E-02
 -1      2286 1.84512E-03-2.49824E-02 8.70006E-02
 -1      2288 1.97812E-03 2.50270E-02 8.69626E-02
 -1      2289 1.74489E-03-2.51675E-02 8.76701E-02
 -1      2291 1.84107E-03 2.51932E-02 8.76338E-02
 -1      2292 1.66240E-03-2.52384E-02 8.79540E-02
 -1      2294 1.67257E-03 2.53264E-02 8.79201E-02
 -3
    1PSTEP                        62           1           1          
    1PGM                1.000000E+00                                  
    1PGK                1.338004E+07                                  
    1PHID                         -1                                  
    1PSUBC                         0                                  
    1PMODE                        16                                  
  100CL  116 582.1687554         930                     2   16MODAL      1
 -4  STRESS      6    1
 -5  SXX         1    4    1    1
 -5  SYY         1    4    2    2
 -5  SZZ         1    4    3    3
 -5  SXY         1    4    1    2
 -5  SYZ         1    4    2    3
 -5  SZX         1    4    3    1
 -1       404 6.01745E+08 5.68113E+07 1.73673E+05-3.68851E+07-5.76915E+06-3.02496E+08
 -1       406 6.01745E+08 5.68113E+07 1.73673E+05-3.68851E+07-5.76915E+06-3.02496E+08
 -1       407-4.31932E+07-1.10278E+07 2.57282E+06 2.30584E+07-3.99548E+08 2.75844E+06
 -1       409-4.31932E+07-1.10278E+07 2.57282E+06 2.30584E+07-3.99548E+08 2.75844E+06
 -1       410-2.04920E+08-6.78941E+07-6.96209E+06-6.40280E-02-8.50986E-02 2.55955E+06
 -1       412-2.04920E+08-6.78941E+07-6.96209E+06-6.40280E-02-8.50986E-02 2.55955E+06
 -1       413 3.60424E+08 9.16885E+06 3.23158E+09 9.30197E-04-1.79260E-01-2.36519E+08
 -1       415 3.60424E+08 9.16885E+06 3.23158E+09 9.30197E-04-1.79260E-01-2.36519E+08
 -1       424 5.96040E+08 8.07496E+07 2.05043E+05-3.08899E-01 5.19536E-03 1.29616E+08
 -1       426 5.96040E+08 8.07496E+07 2.05043E+05-3.08899E-01 5.19536E-03 1.29616E+08
 -1       427 6.62803E+08-8.34976E+04 2.37560E+07-1.09084E-02 2.97337E-03 1.60073E+08
 -1       429 6.62803E+08-8.34976E+04 2.37560E+07-1.09084E-02 2.97337E-03 1.60073E+08
 -1       438-4.31932E+07-1.10278E+07 2.57282E+06-2.30584E+07 3.99548E+08 2.75844E+06
 -1       440-4.31932E+07-1.10278E+07 2.57282E+06-2.30584E+07 3.99548E+08 2.75844E+06
 -1       441 6.01745E+08 5.68113E+07 1.73673E+05 3.68851E+07 5.76915E+06-3.02496E+08
 -1       443 6.01745E+08 5.68113E+07 1.73673E+05 3.68851E+07 5.76915E+06-3.02496E+08
 -1       444 6.62803E+08-8.34976E+04 2.37560E+07 1.38770E-02-4.28913E-03-1.60073E+08
 -1       446 6.62803E+08-8.34976E+04 2.37560E+07 1.38770E-02-4.28913E-03-1.60073E+08
 -1       447 5.96040E+08 8.07496E+07 2.05043E+05 1.50329E-01 7.10089E-04-1.29616E+08
 -1       449 5.96040E+08 8.07496E+07 2.05043E+05 1.50329E-01 7.10089E-04-1.29616E+08
 -1       458 3.60424E+08 9.16885E+06 3.23158E+09-9.80217E-04 1.84565E-01 2.36519E+08
 -1       460 3.60424E+08 9.16885E+06 3.23158E+09-9.80217E-04 1.84565E-01 2.36519E+08
 -1       461-2.04920E+08-6.78941E+07-6.96209E+06 2.64019E-02 8.14489E-02-2.55955E+06
 -1       463-2.04920E+08-6.78941E+07-6.96209E+06 2.64019E-02 8.14489E-02-2.55955E+06
 -1       472 6.01745E+08 5.68113E+07 1.73673E+05 3.68851E+07-5.76915E+06 3.02496E+08
 -1       474 6.01745E+08 5.68113E+07 1.73673E+05 3.68851E+07-5.76915E+06 3.02496E+08
 -1       475-4.31932E+07-1.10278E+07 2.57282E+06-2.30584E+07-3.99548E+08-2.75844E+06
 -1       477-4.31932E+07-1.10278E+07 2.57282E+06-2.30584E+07-3.99548E+08-2.75844E+06
 -1       478-4.31932E+07-1.10278E+07 2.57282E+06 2.30584E+07 3.99548E+08-2.75844E+06
 -1       480-4.31932E+07-1.10278E+07 2.57282E+06 2.30584E+07 3.99548E+08-2.75844E+06
 -1       481 6.01745E+08 5.68113E+07 1.73673E+05-3.68851E+07 5.76915E+06 3.02496E+08
 -1       483 6.01745E+08 5.68113E+07 1.73673E+05-3.68851E+07 5.76915E+06 3.02496E+08
 -1       484 5.85438E+08 1.64466E+07-2.57796E+05-9.76118E+06-2.42325E+07-9.91380E+07
 -1       486 5.85438E+08 1.64466E+07-2.57796E+05-9.76118E+06-2.42325E+07-9.91380E+07
 -1       487 5.71204E+08-7.57612E+06 3.09501E+05 4.95750E+06-4.37103E+07 4.83974E+04
 -1       489 5.71204E+08-7.57612E+06 3.09501E+05 4.95750E+06-4.37103E+07 4.83974E+04
 -1       490 5.61691E+08 2.15188E+06 3.80981E+05-4.50209E+06-5.89548E+07-4.85443E+07
 -1       492 5.61691E+08 2.15188E+06 3.80981E+05-4.50209E+06-5.89548E+07-4.85443E+07
 -1       493 5.36468E+08-1.27613E+06 3.68817E+05-3.07747E+06-8.22775E+07-2.37778E+07
 -1       495 5.36468E+08-1.27613E+06 3.68817E+05-3.07747E+06-8.22775E+07-2.37778E+07
 -1       496 5.06344E+08 2.64537E+05 6.40476E+05-4.41119E+06-1.00370E+08-3.62989E+07
 -1       498 5.06344E+08 2.64537E+05 6.40476E+05-4.41119E+06-1.00370E+08-3.62989E+07
 -1       499 4.71656E+08-3.67578E+05 6.07685E+05-4.45055E+06-1.21474E+08-2.87637E+07
 -1       501 4.71656E+08-3.67578E+05 6.07685E+05-4.45055E+06-1.21474E+08-2.87637E+07
 -1       502 4.33823E+08 4.24262E+04 8.36666E+05-4.61816E+06-1.40698E+08-3.23395E+07
 -1       504 4.33823E+08 4.24262E+04 8.36666E+05-4.61816E+06-1.40698E+08-3.23395E+07
 -1       505 3.93719E+08-1.50342E+05 8.50075E+05-4.55345E+06-1.60103E+08-2.92383E+07
 -1       507 3.93719E+08-1.50342E+05 8.50075E+05-4.55345E+06-1.60103E+08-2.92383E+07
 -1       508 3.51913E+08-1.99317E+03 1.03163E+06-4.49130E+06-1.79177E+08-3.00857E+07
 -1       510 3.51913E+08-1.99317E+03 1.03163E+06-4.49130E+06-1.79177E+08-3.00857E+07
 -1       511 3.08735E+08-7.33714E+04 1.07351E+06-4.37762E+06-1.97353E+08-2.83004E+07
 -1       513 3.08735E+08-7.33714E+04 1.07351E+06-4.37762E+06-1.97353E+08-2.83004E+07
 -1       514 2.64569E+08-1.52304E+03 1.22523E+06-4.25049E+06-2.15574E+08-2.80784E+07
 -1       516 2.64569E+08-1.52304E+03 1.22523E+06-4.25049E+06-2.15574E+08-2.80784E+07
 -1       517 2.19666E+08-3.28937E+04 1.27779E+06-4.10752E+06-2.32606E+08-2.67002E+07
 -1       519 2.19666E+08-3.28937E+04 1.27779E+06-4.10752E+06-2.32606E+08-2.67002E+07
 -1       520 1.74347E+08 1.41572E+04 1.41175E+06-3.95057E+06-2.49596E+08-2.59550E+07
 -1       522 1.74347E+08 1.41572E+04 1.41175E+06-3.95057E+06-2.49596E+08-2.59550E+07
 -1       523 1.28868E+08-4.69827E+03 1.46352E+06-3.78369E+06-2.65377E+08-2.46661E+07
 -1       525 1.28868E+08-4.69827E+03 1.46352E+06-3.78369E+06-2.65377E+08-2.46661E+07
 -1       526 8.35263E+07 3.78331E+04 1.58682E+06-3.60319E+06-2.80905E+08-2.36170E+07
 -1       528 8.35263E+07 3.78331E+04 1.58682E+06-3.60319E+06-2.80905E+08-2.36170E+07
 -1       529 3.85801E+07 1.46991E+04 1.63007E+06-3.41561E+06-2.95263E+08-2.22939E+07
 -1       531 3.85801E+07 1.46991E+04 1.63007E+06-3.41561E+06-2.95263E+08-2.22939E+07
 -1       532-5.68026E+06 7.10492E+04 1.74746E+06-3.21102E+06-3.09157E+08-2.10438E+07
 -1       534-5.68026E+06 7.10492E+04 1.74746E+06-3.21102E+06-3.09157E+08-2.10438E+07
 -1       535-4.90008E+07 2.02132E+04 1.77612E+06-3.00410E+06-3.21912E+08-1.96396E+07
 -1       537-4.90008E+07 2.02132E+04 1.77612E+06-3.00410E+06-3.21912E+08-1.96396E+07
 -1       538-9.10780E+07 1.27658E+05 1.89136E+06-2.76300E+06-3.34028E+08-1.82446E+07
 -1       540-9.10780E+07 1.27658E+05 1.89136E+06-2.76300E+06-3.34028E+08-1.82446E+07
 -1       541-1.31631E+08-3.60109E+03 1.90043E+06-2.52261E+06-3.45016E+08-1.67450E+07
 -1       543-1.31631E+08-3.60109E+03 1.90043E+06-2.52261E+06-3.45016E+08-1.67450E+07
 -1       544-1.70233E+08 2.57395E+05 2.01579E+06-2.17691E+06-3.55227E+08-1.52415E+07
 -1       546-1.70233E+08 2.57395E+05 2.01579E+06-2.17691E+06-3.55227E+08-1.52415E+07
 -1       547-2.06385E+08-8.99850E+04 2.00335E+06-1.80095E+06-3.64307E+08-1.36471E+07
 -1       549-2.06385E+08-8.99850E+04 2.00335E+06-1.80095E+06-3.64307E+08-1.36471E+07
 -1       550-2.38983E+08 6.33292E+05 2.11473E+06-1.02577E+06-3.72493E+08-1.20587E+07
 -1       552-2.38983E+08 6.33292E+05 2.11473E+06-1.02577E+06-3.72493E+08-1.20587E+07
 -1       553-2.66640E+08-3.26250E+05 2.09018E+06-6.93731E+04-3.79550E+08-1.03910E+07
 -1       555-2.66640E+08-3.26250E+05 2.09018E+06-6.93731E+04-3.79550E+08-1.03910E+07
 -1       556-2.85617E+08 1.73005E+06 2.17292E+06 2.17399E+06-3.85587E+08-8.70022E+06
 -1       558-2.85617E+08 1.73005E+06 2.17292E+06 2.17399E+06-3.85587E+08-8.70022E+06
 -1       559-2.90646E+08-4.00945E+05 2.16902E+06 6.30995E+06-3.90535E+08-7.11036E+06
 -1       561-2.90646E+08-4.00945E+05 2.16902E+06 6.30995E+06-3.90535E+08-7.11036E+06
 -1       562-2.80470E+08 1.12842E+06 2.19278E+06 6.22205E+06-3.94330E+08-5.10562E+06
 -1       564-2.80470E+08 1.12842E+06 2.19278E+06 6.22205E+06-3.94330E+08-5.10562E+06
 -1       565-2.34666E+08 6.91788E+06 2.18411E+06 2.58873E+07-3.97168E+08-4.47457E+06
 -1       567-2.34666E+08 6.91788E+06 2.18411E+06 2.58873E+07-3.97168E+08-4.47457E+06
 -1       568-1.20386E+08-3.35922E+06 2.08663E+06 3.54472E+07-3.98981E+08-1.11715E+06
 -1       570-1.20386E+08-3.35922E+06 2.08663E+06 3.54472E+07-3.98981E+08-1.11715E+06
 -1       571-1.24056E+08-3.94609E+07-2.19464E+06 7.53719E+07-6.76668E+08 2.65900E+06
 -1       573-1.24056E+08-3.94609E+07-2.19464E+06 7.53719E+07-6.76668E+08 2.65900E+06
 -1       574 5.93097E+08 3.19163E+07 2.88693E+05-3.32229E-01 7.35868E-04 4.13868E+07
 -1       576 5.93097E+08 3.19163E+07 2.88693E+05-3.32229E-01 7.35868E-04 4.13868E+07
 -1       577 6.78290E+08-8.84042E+05 7.70648E+07-1.03067E-03-6.32952E-03 2.93040E+07
 -1       579 6.78290E+08-8.84042E+05 7.70648E+07-1.03067E-03-6.32952E-03 2.93040E+07
 -1       588 5.80478E+08-1.09198E+07-8.59276E+05-2.72440E-01-5.18528E-03 2.32842E+07
 -1       590 5.80478E+08-1.09198E+07-8.59276E+05-2.72440E-01-5.18528E-03 2.32842E+07
 -1       591 7.14199E+08 1.33398E+06 2.89661E+08 3.83162E-03-1.90134E-02-3.72609E+07
 -1       593 7.14199E+08 1.33398E+06 2.89661E+08 3.83162E-03-1.90134E-02-3.72609E+07
 -1       602 5.62534E+08-1.37447E+06-1.06746E+06-1.89240E-01-9.96703E-03 4.05985E+07
 -1       604 5.62534E+08-1.37447E+06-1.06746E+06-1.89240E-01-9.96703E-03 4.05985E+07
 -1       605 7.35821E+08 1.56001E+06 5.06607E+08 9.62292E-04-2.73240E-02 2.89435E+07
 -1       607 7.35821E+08 1.56001E+06 5.06607E+08 9.62292E-04-2.73240E-02 2.89435E+07
 -1       616 5.38377E+08-4.24641E+05-1.20399E+06-1.43397E-01-1.91819E-02 2.55965E+07
 -1       618 5.38377E+08-4.24641E+05-1.20399E+06-1.43397E-01-1.91819E-02 2.55965E+07
 -1       619 7.48417E+08 1.60464E+06 6.63570E+08 2.76238E-03-4.34489E-02 2.86148E+07
 -1       621 7.48417E+08 1.60464E+06 6.63570E+08 2.76238E-03-4.34489E-02 2.86148E+07
 -1       630 5.06442E+08-1.19107E+06-1.83045E+06-4.45461E-02-2.55654E-02 3.65060E+07
 -1       632 5.06442E+08-1.19107E+06-1.83045E+06-4.45461E-02-2.55654E-02 3.65060E+07
 -1       633 7.65351E+08 2.68807E+06 8.47654E+08 3.43219E-03-5.82852E-02 3.90562E+07
 -1       635 7.65351E+08 2.68807E+06 8.47654E+08 3.43219E-03-5.82852E-02 3.90562E+07
 -1       644 4.71306E+08-1.28625E+05-1.91701E+06 5.62694E-02-2.89461E-02 2.78446E+07
 -1       646 4.71306E+08-1.28625E+05-1.91701E+06 5.62694E-02-2.89461E-02 2.78446E+07
 -1       647 7.77284E+08 2.62840E+06 1.01618E+09 5.19824E-03-6.80650E-02 4.32031E+07
 -1       649 7.77284E+08 2.62840E+06 1.01618E+09 5.19824E-03-6.80650E-02 4.32031E+07
 -1       658 4.32884E+08-3.60288E+05-2.44122E+06 1.30972E-01-3.54092E-02 3.31322E+07
 -1       660 4.32884E+08-3.60288E+05-2.44122E+06 1.30972E-01-3.54092E-02 3.31322E+07
 -1       661 7.88271E+08 3.51331E+06 1.18503E+09 5.47531E-03-8.15723E-02 4.21266E+07
 -1       663 7.88271E+08 3.51331E+06 1.18503E+09 5.47531E-03-8.15723E-02 4.21266E+07
 -1       672 3.92637E+08-5.84066E+04-2.63302E+06 1.89068E-01-4.19686E-02 2.84598E+07
 -1       674 3.92637E+08-5.84066E+04-2.63302E+06 1.89068E-01-4.19686E-02 2.84598E+07
 -1       675 7.96282E+08 3.67551E+06 1.34984E+09 5.88535E-03-9.46727E-02 4.39604E+07
 -1       677 7.96282E+08 3.67551E+06 1.34984E+09 5.88535E-03-9.46727E-02 4.39604E+07
 -1       686 3.50508E+08-1.15225E+05-3.04489E+06 2.25267E-01-4.69522E-02 3.05459E+07
 -1       688 3.50508E+08-1.15225E+05-3.04489E+06 2.25267E-01-4.69522E-02 3.05459E+07
 -1       689 8.01991E+08 4.33463E+06 1.51037E+09 6.26372E-03-1.03350E-01 4.16668E+07
 -1       691 8.01991E+08 4.33463E+06 1.51037E+09 6.26372E-03-1.03350E-01 4.16668E+07
 -1       700 3.07221E+08 4.48764E+03-3.29542E+06 1.82303E-01-5.16532E-02 2.78512E+07
 -1       702 3.07221E+08 4.48764E+03-3.29542E+06 1.82303E-01-5.16532E-02 2.78512E+07
 -1       703 8.05266E+08 4.63530E+06 1.66754E+09 5.70350E-03-1.10822E-01 4.18348E+07
 -1       705 8.05266E+08 4.63530E+06 1.66754E+09 5.70350E-03-1.10822E-01 4.18348E+07
 -1       714 2.62835E+08-3.95474E+02-3.63967E+06 7.41729E-02-5.26105E-02 2.82772E+07
 -1       716 2.62835E+08-3.95474E+02-3.63967E+06 7.41729E-02-5.26105E-02 2.82772E+07
 -1       717 8.06242E+08 5.15524E+06 1.81955E+09 4.74476E-03-1.15039E-01 3.97828E+07
 -1       719 8.06242E+08 5.15524E+06 1.81955E+09 4.74476E-03-1.15039E-01 3.97828E+07
 -1       728 2.17811E+08 6.83441E+04-3.90442E+06-1.53377E-02-4.85214E-02 2.64521E+07
 -1       730 2.17811E+08 6.83441E+04-3.90442E+06-1.53377E-02-4.85214E-02 2.64521E+07
 -1       731 8.05088E+08 5.51055E+06 1.96718E+09 3.79640E-03-1.14266E-01 3.90176E+07
 -1       733 8.05088E+08 5.51055E+06 1.96718E+09 3.79640E-03-1.14266E-01 3.90176E+07
 -1       742 1.72315E+08 8.33055E+04-4.20878E+06-4.11113E-02-4.58357E-02 2.60174E+07
 -1       744 1.72315E+08 8.33055E+04-4.20878E+06-4.11113E-02-4.58357E-02 2.60174E+07
 -1       745 8.01910E+08 5.94617E+06 2.10911E+09 2.69612E-03-1.15306E-01 3.71379E+07
 -1       747 8.01910E+08 5.94617E+06 2.10911E+09 2.69612E-03-1.15306E-01 3.71379E+07
 -1       756 1.26711E+08 1.37187E+05-4.46155E+06-3.19003E-02-4.54860E-02 2.45210E+07
 -1       758 1.26711E+08 1.37187E+05-4.46155E+06-3.19003E-02-4.54860E-02 2.45210E+07
 -1       759 7.96897E+08 6.30827E+06 2.24558E+09 1.94742E-03-1.17530E-01 3.58277E+07
 -1       761 7.96897E+08 6.30827E+06 2.24558E+09 1.94742E-03-1.17530E-01 3.58277E+07
 -1       770 8.12141E+07 1.55811E+05-4.73936E+06-3.83805E-02-4.94944E-02 2.36171E+07
 -1       772 8.12141E+07 1.55811E+05-4.73936E+06-3.83805E-02-4.94944E-02 2.36171E+07
 -1       773 7.90188E+08 6.68519E+06 2.37575E+09 5.06708E-04-1.23741E-01 3.39495E+07
 -1       775 7.90188E+08 6.68519E+06 2.37575E+09 5.06708E-04-1.23741E-01 3.39495E+07
 -1       784 3.61510E+07 2.09856E+05-4.96471E+06-7.38258E-02-6.01967E-02 2.22006E+07
 -1       786 3.61510E+07 2.09856E+05-4.96471E+06-7.38258E-02-6.01967E-02 2.22006E+07
 -1       787 7.81952E+08 7.02861E+06 2.49956E+09-3.55675E-04-1.38132E-01 3.22839E+07
 -1       789 7.81952E+08 7.02861E+06 2.49956E+09-3.55675E-04-1.38132E-01 3.22839E+07
 -1       798-8.25446E+06 2.20821E+05-5.22257E+06-1.12962E-01-6.79847E-02 2.10188E+07
 -1       800-8.25446E+06 2.20821E+05-5.22257E+06-1.12962E-01-6.79847E-02 2.10188E+07
 -1       801 7.72358E+08 7.35739E+06 2.61644E+09-1.16262E-03-1.49191E-01 3.03012E+07
 -1       803 7.72358E+08 7.35739E+06 2.61644E+09-1.16262E-03-1.49191E-01 3.03012E+07
 -1       812-5.16807E+07 2.92061E+05-5.40972E+06-1.27560E-01-6.72404E-02 1.95739E+07
 -1       814-5.16807E+07 2.92061E+05-5.40972E+06-1.27560E-01-6.72404E-02 1.95739E+07
 -1       815 7.61541E+08 7.66748E+06 2.72621E+09-1.05624E-03-1.48203E-01 2.83435E+07
 -1       817 7.61541E+08 7.66748E+06 2.72621E+09-1.05624E-03-1.48203E-01 2.83435E+07
 -1       826-9.39187E+07 2.85419E+05-5.65191E+06-1.19899E-01-6.58684E-02 1.82126E+07
 -1       828-9.39187E+07 2.85419E+05-5.65191E+06-1.19899E-01-6.58684E-02 1.82126E+07
 -1       829 7.49698E+08 7.95214E+06 2.82849E+09-1.36993E-03-1.47326E-01 2.61196E+07
 -1       831 7.49698E+08 7.95214E+06 2.82849E+09-1.36993E-03-1.47326E-01 2.61196E+07
 -1       840-1.34592E+08 4.21558E+05-5.79210E+06-9.89281E-02-6.83210E-02 1.66966E+07
 -1       842-1.34592E+08 4.21558E+05-5.79210E+06-9.89281E-02-6.83210E-02 1.66966E+07
 -1       843 7.36874E+08 8.21938E+06 2.92309E+09-1.14969E-03-1.51978E-01 2.36724E+07
 -1       845 7.36874E+08 8.21938E+06 2.92309E+09-1.14969E-03-1.51978E-01 2.36724E+07
 -1       854-1.73483E+08 4.04923E+05-6.02131E+06-6.14372E-02-7.13116E-02 1.52141E+07
 -1       856-1.73483E+08 4.04923E+05-6.02131E+06-6.14372E-02-7.13116E-02 1.52141E+07
 -1       857 7.23285E+08 8.46026E+06 3.00987E+09-1.01720E-03-1.56402E-01 2.05808E+07
 -1       859 7.23285E+08 8.46026E+06 3.00987E+09-1.01720E-03-1.56402E-01 2.05808E+07
 -1       868-2.09933E+08 7.60937E+05-6.10950E+06-6.81379E-03-7.07646E-02 1.36114E+07
 -1       870-2.09933E+08 7.60937E+05-6.10950E+06-6.81379E-03-7.07646E-02 1.36114E+07
 -1       871 7.08716E+08 8.68010E+06 3.08883E+09 2.97387E-05-1.56578E-01 1.62652E+07
 -1       873 7.08716E+08 8.68010E+06 3.08883E+09 2.97387E-05-1.56578E-01 1.62652E+07
 -1       882-2.43448E+08 9.18984E+05-6.32181E+06 4.95963E-02-6.61733E-02 1.20553E+07
 -1       884-2.43448E+08 9.18984E+05-6.32181E+06 4.95963E-02-6.61733E-02 1.20553E+07
 -1       885 6.93191E+08 8.87009E+06 3.16042E+09 8.49483E-04-1.51626E-01 9.19212E+06
 -1       887 6.93191E+08 8.87009E+06 3.16042E+09 8.49483E-04-1.51626E-01 9.19212E+06
 -1       896-2.72215E+08 1.70916E+06-6.36441E+06 7.16691E-02-6.41243E-02 1.03482E+07
 -1       898-2.72215E+08 1.70916E+06-6.36441E+06 7.16691E-02-6.41243E-02 1.03482E+07
 -1       899 6.76000E+08 9.04898E+06 3.22528E+09 1.71431E-03-1.49256E-01-3.35411E+06
 -1       901 6.76000E+08 9.04898E+06 3.22528E+09 1.71431E-03-1.49256E-01-3.35411E+06
 -1       910-2.93892E+08 3.30221E+06-6.54081E+06 4.21390E-02-6.54381E-02 8.78168E+06
 -1       912-2.93892E+08 3.30221E+06-6.54081E+06 4.21390E-02-6.54381E-02 8.78168E+06
 -1       913 6.55483E+08 9.16927E+06 3.28487E+09 1.89818E-03-1.50072E-01-2.67290E+07
 -1       915 6.55483E+08 9.16927E+06 3.28487E+09 1.89818E-03-1.50072E-01-2.67290E+07
 -1       924-3.04832E+08 4.74450E+06-6.54131E+06 1.17159E-02-6.40840E-02 6.86947E+06
 -1       926-3.04832E+08 4.74450E+06-6.54131E+06 1.17159E-02-6.40840E-02 6.86947E+06
 -1       927 6.31159E+08 9.30956E+06 3.33969E+09 2.03256E-03-1.48308E-01-6.79617E+07
 -1       929 6.31159E+08 9.30956E+06 3.33969E+09 2.03256E-03-1.48308E-01-6.79617E+07
 -1       938-2.90696E+08 1.62201E+06-6.69698E+06 1.77578E-02-6.20618E-02 5.38938E+06
 -1       940-2.90696E+08 1.62201E+06-6.69698E+06 1.77578E-02-6.20618E-02 5.38938E+06
 -1       941 5.99161E+08 9.40045E+06 3.38786E+09 2.53667E-03-1.46979E-01-1.36409E+08
 -1       943 5.99161E+08 9.40045E+06 3.38786E+09 2.53667E-03-1.46979E-01-1.36409E+08
 -1       952-2.56216E+08 2.84297E+07-6.61202E+06 2.34379E-02-6.31021E-02 2.77914E+06
 -1       954-2.56216E+08 2.84297E+07-6.61202E+06 2.34379E-02-6.31021E-02 2.77914E+06
 -1       955 5.52410E+08 9.49992E+06 3.41235E+09 2.72594E-03-1.47596E-01-2.19943E+08
 -1       957 5.52410E+08 9.49992E+06 3.41235E+09 2.72594E-03-1.47596E-01-2.19943E+08
 -1       966-2.21355E+08-4.19424E+06-6.30842E+06-2.23016E-02-7.47908E-02 1.42350E+06
 -1       968-2.21355E+08-4.19424E+06-6.30842E+06-2.23016E-02-7.47908E-02 1.42350E+06
 -1       969 4.42460E+08 9.48518E+06 3.32315E+09 3.29172E-03-1.63470E-01-2.48743E+08
 -1       971 4.42460E+08 9.48518E+06 3.32315E+09 3.29172E-03-1.63470E-01-2.48743E+08
 -1       980 5.98892E+08 6.87804E+07 1.89358E+05-3.06741E+07 2.92811E+07-8.64402E+07
 -1       982 5.98892E+08 6.87804E+07 1.89358E+05-3.06741E+07 2.92811E+07-8.64402E+07
 -1       983-1.24056E+08-3.94609E+07-2.19464E+06-7.53719E+07 6.76668E+08 2.65900E+06
 -1       985-1.24056E+08-3.94609E+07-2.19464E+06-7.53719E+07 6.76668E+08 2.65900E+06
 -1       986 5.85438E+08 1.64466E+07-2.57796E+05 9.76118E+06 2.42325E+07-9.91380E+07
 -1       988 5.85438E+08 1.64466E+07-2.57796E+05 9.76118E+06 2.42325E+07-9.91380E+07
 -1       989 5.71204E+08-7.57612E+06 3.09501E+05-4.95750E+06 4.37103E+07 4.83974E+04
 -1       991 5.71204E+08-7.57612E+06 3.09501E+05-4.95750E+06 4.37103E+07 4.83974E+04
 -1       992 5.61691E+08 2.15188E+06 3.80981E+05 4.50209E+06 5.89548E+07-4.85443E+07
 -1       994 5.61691E+08 2.15188E+06 3.80981E+05 4.50209E+06 5.89548E+07-4.85443E+07
 -1       995 5.36468E+08-1.27613E+06 3.68817E+05 3.07747E+06 8.22775E+07-2.37778E+07
 -1       997 5.36468E+08-1.27613E+06 3.68817E+05 3.07747E+06 8.22775E+07-2.37778E+07
 -1       998 5.06344E+08 2.64537E+05 6.40476E+05 4.41119E+06 1.00370E+08-3.62989E+07
 -1      1000 5.06344E+08 2.64537E+05 6.40476E+05 4.41119E+06 1.00370E+08-3.62989E+07
 -1      1001 4.71656E+08-3.67578E+05 6.07685E+05 4.45055E+06 1.21474E+08-2.87637E+07
 -1      1003 4.71656E+08-3.67578E+05 6.07685E+05 4.45055E+06 1.21474E+08-2.87637E+07
 -1      1004 4.33823E+08 4.24262E+04 8.36666E+05 4.61816E+06 1.40698E+08-3.23395E+07
 -1      1006 4.33823E+08 4.24262E+04 8.36666E+05 4.61816E+06 1.40698E+08-3.23395E+07
 -1      1007 3.93719E+08-1.50342E+05 8.50075E+05 4.55345E+06 1.60103E+08-2.92383E+07
 -1      1009 3.93719E+08-1.50342E+05 8.50075E+05 4.55345E+06 1.60103E+08-2.92383E+07
 -1      1010 3.51913E+08-1.99319E+03 1.03163E+06 4.49130E+06 1.79177E+08-3.00857E+07
 -1      1012 3.51913E+08-1.99319E+03 1.03163E+06 4.49130E+06 1.79177E+08-3.00857E+07
 -1      1013 3.08735E+08-7.33714E+04 1.07351E+06 4.37762E+06 1.97353E+08-2.83004E+07
 -1      1015 3.08735E+08-7.33714E+04 1.07351E+06 4.37762E+06 1.97353E+08-2.83004E+07
 -1      1016 2.64569E+08-1.52307E+03 1.22523E+06 4.25049E+06 2.15574E+08-2.80784E+07
 -1      1018 2.64569E+08-1.52307E+03 1.22523E+06 4.25049E+06 2.15574E+08-2.80784E+07
 -1      1019 2.19666E+08-3.28937E+04 1.27779E+06 4.10752E+06 2.32606E+08-2.67002E+07
 -1      1021 2.19666E+08-3.28937E+04 1.27779E+06 4.10752E+06 2.32606E+08-2.67002E+07
 -1      1022 1.74347E+08 1.41572E+04 1.41175E+06 3.95057E+06 2.49596E+08-2.59550E+07
 -1      1024 1.74347E+08 1.41572E+04 1.41175E+06 3.95057E+06 2.49596E+08-2.59550E+07
 -1      1025 1.28868E+08-4.69831E+03 1.46352E+06 3.78369E+06 2.65377E+08-2.46661E+07
 -1      1027 1.28868E+08-4.69831E+03 1.46352E+06 3.78369E+06 2.65377E+08-2.46661E+07
 -1      1028 8.35263E+07 3.78331E+04 1.58682E+06 3.60319E+06 2.80905E+08-2.36170E+07
 -1      1030 8.35263E+07 3.78331E+04 1.58682E+06 3.60319E+06 2.80905E+08-2.36170E+07
 -1      1031 3.85801E+07 1.46991E+04 1.63007E+06 3.41561E+06 2.95263E+08-2.22939E+07
 -1      1033 3.85801E+07 1.46991E+04 1.63007E+06 3.41561E+06 2.95263E+08-2.22939E+07
 -1      1034-5.68026E+06 7.10492E+04 1.74746E+06 3.21102E+06 3.09157E+08-2.10438E+07
 -1      1036-5.68026E+06 7.10492E+04 1.74746E+06 3.21102E+06 3.09157E+08-2.10438E+07
 -1      1037-4.90008E+07 2.02132E+04 1.77612E+06 3.00410E+06 3.21912E+08-1.96396E+07
 -1      1039-4.90008E+07 2.02132E+04 1.77612E+06 3.00410E+06 3.21912E+08-1.96396E+07
 -1      1040-9.10780E+07 1.27658E+05 1.89136E+06 2.76300E+06 3.34028E+08-1.82446E+07
 -1      1042-9.10780E+07 1.27658E+05 1.89136E+06 2.76300E+06 3.34028E+08-1.82446E+07
 -1      1043-1.31631E+08-3.60109E+03 1.90043E+06 2.52261E+06 3.45016E+08-1.67450E+07
 -1      1045-1.31631E+08-3.60109E+03 1.90043E+06 2.52261E+06 3.45016E+08-1.67450E+07
 -1      1046-1.70233E+08 2.57395E+05 2.01579E+06 2.17691E+06 3.55227E+08-1.52415E+07
 -1      1048-1.70233E+08 2.57395E+05 2.01579E+06 2.17691E+06 3.55227E+08-1.52415E+07
 -1      1049-2.06385E+08-8.99850E+04 2.00335E+06 1.80095E+06 3.64307E+08-1.36471E+07
 -1      1051-2.06385E+08-8.99850E+04 2.00335E+06 1.80095E+06 3.64307E+08-1.36471E+07
 -1      1052-2.38983E+08 6.33292E+05 2.11473E+06 1.02577E+06 3.72493E+08-1.20587E+07
 -1      1054-2.38983E+08 6.33292E+05 2.11473E+06 1.02577E+06 3.72493E+08-1.20587E+07
 -1      1055-2.66640E+08-3.26250E+05 2.09018E+06 6.93732E+04 3.79550E+08-1.03910E+07
 -1      1057-2.66640E+08-3.26250E+05 2.09018E+06 6.93732E+04 3.79550E+08-1.03910E+07
 -1      1058-2.85617E+08 1.73005E+06 2.17292E+06-2.17399E+06 3.85587E+08-8.70022E+06
 -1      1060-2.85617E+08 1.73005E+06 2.17292E+06-2.17399E+06 3.85587E+08-8.70022E+06
 -1      1061-2.90646E+08-4.00945E+05 2.16902E+06-6.30995E+06 3.90535E+08-7.11036E+06
 -1      1063-2.90646E+08-4.00945E+05 2.16902E+06-6.30995E+06 3.90535E+08-7.11036E+06
 -1      1064-2.80470E+08 1.12842E+06 2.19278E+06-6.22205E+06 3.94330E+08-5.10562E+06
 -1      1066-2.80470E+08 1.12842E+06 2.19278E+06-6.22205E+06 3.94330E+08-5.10562E+06
 -1      1067-2.34666E+08 6.91788E+06 2.18411E+06-2.58873E+07 3.97168E+08-4.47457E+06
 -1      1069-2.34666E+08 6.91788E+06 2.18411E+06-2.58873E+07 3.97168E+08-4.47457E+06
 -1      1070-1.20386E+08-3.35922E+06 2.08663E+06-3.54472E+07 3.98981E+08-1.11715E+06
 -1      1072-1.20386E+08-3.35922E+06 2.08663E+06-3.54472E+07 3.98981E+08-1.11715E+06
 -1      1073 5.98892E+08 6.87804E+07 1.89358E+05 3.06741E+07-2.92811E+07-8.64402E+07
 -1      1075 5.98892E+08 6.87804E+07 1.89358E+05 3.06741E+07-2.92811E+07-8.64402E+07
 -1      1076 7.27111E+08 4.14739E+04 8.91324E+07-4.50710E-02-1.33934E-03 9.87069E+07
 -1      1078 7.27111E+08 4.14739E+04 8.91324E+07-4.50710E-02-1.33934E-03 9.87069E+07
 -1      1079 7.91419E+08 1.66445E+05 1.54509E+08-7.64284E-02-7.35863E-04 3.31455E-01
 -1      1081 7.91419E+08 1.66445E+05 1.54509E+08-7.64284E-02-7.35863E-04 3.31455E-01
 -1      1082 7.27111E+08 4.14739E+04 8.91324E+07-2.98731E-02-5.43991E-05-9.87069E+07
 -1      1084 7.27111E+08 4.14739E+04 8.91324E+07-2.98731E-02-5.43991E-05-9.87069E+07
 -1      1085 6.78290E+08-8.84042E+05 7.70648E+07 6.36390E-03-2.55801E-03-2.93040E+07
 -1      1087 6.78290E+08-8.84042E+05 7.70648E+07 6.36390E-03-2.55801E-03-2.93040E+07
 -1      1088 5.93097E+08 3.19163E+07 2.88693E+05 1.41871E-01-1.69732E-03-4.13868E+07
 -1      1090 5.93097E+08 3.19163E+07 2.88693E+05 1.41871E-01-1.69732E-03-4.13868E+07
 -1      1099 7.14199E+08 1.33398E+06 2.89661E+08 6.93778E-03-2.88024E-03 3.72609E+07
 -1      1101 7.14199E+08 1.33398E+06 2.89661E+08 6.93778E-03-2.88024E-03 3.72609E+07
 -1      1102 5.80478E+08-1.09198E+07-8.59276E+05 1.40744E-01-7.14292E-03-2.32842E+07
 -1      1104 5.80478E+08-1.09198E+07-8.59276E+05 1.40744E-01-7.14292E-03-2.32842E+07
 -1      1113 7.35821E+08 1.56001E+06 5.06607E+08 7.39642E-03-1.24496E-03-2.89435E+07
 -1      1115 7.35821E+08 1.56001E+06 5.06607E+08 7.39642E-03-1.24496E-03-2.89435E+07
 -1      1116 5.62534E+08-1.37447E+06-1.06746E+06 1.12477E-01-8.77719E-03-4.05985E+07
 -1      1118 5.62534E+08-1.37447E+06-1.06746E+06 1.12477E-01-8.77719E-03-4.05985E+07
 -1      1127 7.48417E+08 1.60464E+06 6.63570E+08 5.13913E-03 1.44805E-02-2.86148E+07
 -1      1129 7.48417E+08 1.60464E+06 6.63570E+08 5.13913E-03 1.44805E-02-2.86148E+07
 -1      1130 5.38377E+08-4.24641E+05-1.20399E+06 4.62576E-02-2.17118E-03-2.55965E+07
 -1      1132 5.38377E+08-4.24641E+05-1.20399E+06 4.62576E-02-2.17118E-03-2.55965E+07
 -1      1141 7.65351E+08 2.68807E+06 8.47654E+08 5.54099E-03 3.51429E-02-3.90562E+07
 -1      1143 7.65351E+08 2.68807E+06 8.47654E+08 5.54099E-03 3.51429E-02-3.90562E+07
 -1      1144 5.06442E+08-1.19107E+06-1.83045E+06-2.80237E-03 7.52571E-03-3.65060E+07
 -1      1146 5.06442E+08-1.19107E+06-1.83045E+06-2.80237E-03 7.52571E-03-3.65060E+07
 -1      1155 7.77284E+08 2.62840E+06 1.01618E+09 3.11016E-03 5.51312E-02-4.32031E+07
 -1      1157 7.77284E+08 2.62840E+06 1.01618E+09 3.11016E-03 5.51312E-02-4.32031E+07
 -1      1158 4.71306E+08-1.28625E+05-1.91701E+06-3.53351E-02 1.83065E-02-2.78446E+07
 -1      1160 4.71306E+08-1.28625E+05-1.91701E+06-3.53351E-02 1.83065E-02-2.78446E+07
 -1      1169 7.88271E+08 3.51331E+06 1.18503E+09 2.45859E-03 7.73277E-02-4.21266E+07
 -1      1171 7.88271E+08 3.51331E+06 1.18503E+09 2.45859E-03 7.73277E-02-4.21266E+07
 -1      1172 4.32884E+08-3.60288E+05-2.44122E+06-3.39640E-02 3.12955E-02-3.31322E+07
 -1      1174 4.32884E+08-3.60288E+05-2.44122E+06-3.39640E-02 3.12955E-02-3.31322E+07
 -1      1183 7.96282E+08 3.67551E+06 1.34984E+09 1.06424E-03 9.35107E-02-4.39604E+07
 -1      1185 7.96282E+08 3.67551E+06 1.34984E+09 1.06424E-03 9.35107E-02-4.39604E+07
 -1      1186 3.92637E+08-5.84067E+04-2.63302E+06 7.03143E-03 3.94287E-02-2.84598E+07
 -1      1188 3.92637E+08-5.84067E+04-2.63302E+06 7.03143E-03 3.94287E-02-2.84598E+07
 -1      1197 8.01991E+08 4.33463E+06 1.51037E+09 1.29348E-03 1.01070E-01-4.16668E+07
 -1      1199 8.01991E+08 4.33463E+06 1.51037E+09 1.29348E-03 1.01070E-01-4.16668E+07
 -1      1200 3.50508E+08-1.15225E+05-3.04489E+06 1.56393E-02 4.24529E-02-3.05459E+07
 -1      1202 3.50508E+08-1.15225E+05-3.04489E+06 1.56393E-02 4.24529E-02-3.05459E+07
 -1      1211 8.05266E+08 4.63530E+06 1.66754E+09-1.72608E-04 1.08711E-01-4.18348E+07
 -1      1213 8.05266E+08 4.63530E+06 1.66754E+09-1.72608E-04 1.08711E-01-4.18348E+07
 -1      1214 3.07221E+08 4.48764E+03-3.29542E+06-4.60684E-02 4.66428E-02-2.78512E+07
 -1      1216 3.07221E+08 4.48764E+03-3.29542E+06-4.60684E-02 4.66428E-02-2.78512E+07
 -1      1225 8.06242E+08 5.15524E+06 1.81955E+09 5.88052E-04 1.21266E-01-3.97828E+07
 -1      1227 8.06242E+08 5.15524E+06 1.81955E+09 5.88052E-04 1.21266E-01-3.97828E+07
 -1      1228 2.62835E+08-3.95453E+02-3.63967E+06-1.16771E-01 5.35924E-02-2.82772E+07
 -1      1230 2.62835E+08-3.95453E+02-3.63967E+06-1.16771E-01 5.35924E-02-2.82772E+07
 -1      1239 8.05088E+08 5.51055E+06 1.96718E+09 5.63383E-04 1.36439E-01-3.90176E+07
 -1      1241 8.05088E+08 5.51055E+06 1.96718E+09 5.63383E-04 1.36439E-01-3.90176E+07
 -1      1242 2.17811E+08 6.83441E+04-3.90442E+06-1.20814E-01 6.21157E-02-2.64521E+07
 -1      1244 2.17811E+08 6.83441E+04-3.90442E+06-1.20814E-01 6.21157E-02-2.64521E+07
 -1      1253 8.01910E+08 5.94617E+06 2.10911E+09 1.75757E-03 1.49242E-01-3.71379E+07
 -1      1255 8.01910E+08 5.94617E+06 2.10911E+09 1.75757E-03 1.49242E-01-3.71379E+07
 -1      1256 1.72315E+08 8.33055E+04-4.20878E+06-6.28786E-02 6.87469E-02-2.60174E+07
 -1      1258 1.72315E+08 8.33055E+04-4.20878E+06-6.28786E-02 6.87469E-02-2.60174E+07
 -1      1267 7.96897E+08 6.30827E+06 2.24558E+09 1.96343E-03 1.55794E-01-3.58277E+07
 -1      1269 7.96897E+08 6.30827E+06 2.24558E+09 1.96343E-03 1.55794E-01-3.58277E+07
 -1      1270 1.26711E+08 1.37187E+05-4.46155E+06-2.28074E-02 7.26835E-02-2.45210E+07
 -1      1272 1.26711E+08 1.37187E+05-4.46155E+06-2.28074E-02 7.26835E-02-2.45210E+07
 -1      1281 7.90188E+08 6.68519E+06 2.37575E+09 2.35639E-03 1.56701E-01-3.39495E+07
 -1      1283 7.90188E+08 6.68519E+06 2.37575E+09 2.35639E-03 1.56701E-01-3.39495E+07
 -1      1284 8.12141E+07 1.55811E+05-4.73936E+06-2.30738E-02 7.16119E-02-2.36171E+07
 -1      1286 8.12141E+07 1.55811E+05-4.73936E+06-2.30738E-02 7.16119E-02-2.36171E+07
 -1      1295 7.81952E+08 7.02861E+06 2.49956E+09 2.59872E-03 1.55164E-01-3.22839E+07
 -1      1297 7.81952E+08 7.02861E+06 2.49956E+09 2.59872E-03 1.55164E-01-3.22839E+07
 -1      1298 3.61510E+07 2.09856E+05-4.96471E+06-5.83503E-03 6.74198E-02-2.22006E+07
 -1      1300 3.61510E+07 2.09856E+05-4.96471E+06-5.83503E-03 6.74198E-02-2.22006E+07
 -1      1309 7.72358E+08 7.35739E+06 2.61644E+09 3.63110E-03 1.52549E-01-3.03012E+07
 -1      1311 7.72358E+08 7.35739E+06 2.61644E+09 3.63110E-03 1.52549E-01-3.03012E+07
 -1      1312-8.25446E+06 2.20821E+05-5.22257E+06 3.91944E-02 6.31469E-02-2.10188E+07
 -1      1314-8.25446E+06 2.20821E+05-5.22257E+06 3.91944E-02 6.31469E-02-2.10188E+07
 -1      1323 7.61541E+08 7.66748E+06 2.72621E+09 4.00635E-03 1.44043E-01-2.83435E+07
 -1      1325 7.61541E+08 7.66748E+06 2.72621E+09 4.00635E-03 1.44043E-01-2.83435E+07
 -1      1326-5.16807E+07 2.92061E+05-5.40972E+06 7.10296E-02 5.57983E-02-1.95739E+07
 -1      1328-5.16807E+07 2.92061E+05-5.40972E+06 7.10296E-02 5.57983E-02-1.95739E+07
 -1      1337 7.49698E+08 7.95214E+06 2.82849E+09 2.89843E-03 1.37648E-01-2.61196E+07
 -1      1339 7.49698E+08 7.95214E+06 2.82849E+09 2.89843E-03 1.37648E-01-2.61196E+07
 -1      1340-9.39187E+07 2.85419E+05-5.65191E+06 1.06892E-01 5.02655E-02-1.82126E+07
 -1      1342-9.39187E+07 2.85419E+05-5.65191E+06 1.06892E-01 5.02655E-02-1.82126E+07
 -1      1351 7.36874E+08 8.21938E+06 2.92309E+09 3.25828E-03 1.42715E-01-2.36724E+07
 -1      1353 7.36874E+08 8.21938E+06 2.92309E+09 3.25828E-03 1.42715E-01-2.36724E+07
 -1      1354-1.34592E+08 4.21558E+05-5.79210E+06 1.43056E-01 5.31933E-02-1.66966E+07
 -1      1356-1.34592E+08 4.21558E+05-5.79210E+06 1.43056E-01 5.31933E-02-1.66966E+07
 -1      1365 7.23285E+08 8.46026E+06 3.00987E+09 1.74482E-03 1.52108E-01-2.05808E+07
 -1      1367 7.23285E+08 8.46026E+06 3.00987E+09 1.74482E-03 1.52108E-01-2.05808E+07
 -1      1368-1.73483E+08 4.04923E+05-6.02131E+06 1.09891E-01 6.14745E-02-1.52141E+07
 -1      1370-1.73483E+08 4.04923E+05-6.02131E+06 1.09891E-01 6.14745E-02-1.52141E+07
 -1      1379 7.08716E+08 8.68010E+06 3.08883E+09 2.93605E-04 1.56460E-01-1.62652E+07
 -1      1381 7.08716E+08 8.68010E+06 3.08883E+09 2.93605E-04 1.56460E-01-1.62652E+07
 -1      1382-2.09933E+08 7.60937E+05-6.10950E+06 4.01212E-02 6.47251E-02-1.36114E+07
 -1      1384-2.09933E+08 7.60937E+05-6.10950E+06 4.01212E-02 6.47251E-02-1.36114E+07
 -1      1393 6.93191E+08 8.87009E+06 3.16042E+09-5.15788E-04 1.54899E-01-9.19212E+06
 -1      1395 6.93191E+08 8.87009E+06 3.16042E+09-5.15788E-04 1.54899E-01-9.19212E+06
 -1      1396-2.43448E+08 9.18984E+05-6.32181E+06 2.02645E-02 6.26762E-02-1.20553E+07
 -1      1398-2.43448E+08 9.18984E+05-6.32181E+06 2.02645E-02 6.26762E-02-1.20553E+07
 -1      1407 6.76000E+08 9.04898E+06 3.22528E+09-9.93886E-04 1.56999E-01 3.35411E+06
 -1      1409 6.76000E+08 9.04898E+06 3.22528E+09-9.93886E-04 1.56999E-01 3.35411E+06
 -1      1410-2.72215E+08 1.70916E+06-6.36441E+06 2.04846E-02 6.48776E-02-1.03482E+07
 -1      1412-2.72215E+08 1.70916E+06-6.36441E+06 2.04846E-02 6.48776E-02-1.03482E+07
 -1      1421 6.55483E+08 9.16927E+06 3.28487E+09-1.63241E-03 1.64142E-01 2.67290E+07
 -1      1423 6.55483E+08 9.16927E+06 3.28487E+09-1.63241E-03 1.64142E-01 2.67290E+07
 -1      1424-2.93892E+08 3.30221E+06-6.54081E+06-2.62870E-02 7.10963E-02-8.78168E+06
 -1      1426-2.93892E+08 3.30221E+06-6.54081E+06-2.62870E-02 7.10963E-02-8.78168E+06
 -1      1435 6.31159E+08 9.30956E+06 3.33969E+09-2.44818E-03 1.71702E-01 6.79617E+07
 -1      1437 6.31159E+08 9.30956E+06 3.33969E+09-2.44818E-03 1.71702E-01 6.79617E+07
 -1      1438-3.04832E+08 4.74450E+06-6.54131E+06-9.65292E-02 7.54813E-02-6.86947E+06
 -1      1440-3.04832E+08 4.74450E+06-6.54131E+06-9.65292E-02 7.54813E-02-6.86947E+06
 -1      1449 5.99161E+08 9.40045E+06 3.38786E+09-2.32194E-03 1.77503E-01 1.36409E+08
 -1      1451 5.99161E+08 9.40045E+06 3.38786E+09-2.32194E-03 1.77503E-01 1.36409E+08
 -1      1452-2.90696E+08 1.62201E+06-6.69698E+06-1.26785E-01 7.81491E-02-5.38938E+06
 -1      1454-2.90696E+08 1.62201E+06-6.69698E+06-1.26785E-01 7.81491E-02-5.38938E+06
 -1      1463 5.52410E+08 9.49992E+06 3.41235E+09-2.62991E-03 1.85094E-01 2.19943E+08
 -1      1465 5.52410E+08 9.49992E+06 3.41235E+09-2.62991E-03 1.85094E-01 2.19943E+08
 -1      1466-2.56216E+08 2.84297E+07-6.61202E+06-9.31513E-02 8.28613E-02-2.77914E+06
 -1      1468-2.56216E+08 2.84297E+07-6.61202E+06-9.31513E-02 8.28613E-02-2.77914E+06
 -1      1477 4.42460E+08 9.48518E+06 3.32315E+09-2.42072E-03 1.87705E-01 2.48743E+08
 -1      1479 4.42460E+08 9.48518E+06 3.32315E+09-2.42072E-03 1.87705E-01 2.48743E+08
 -1      1480-2.21355E+08-4.19424E+06-6.30842E+06-1.71175E-02 8.37401E-02-1.42350E+06
 -1      1482-2.21355E+08-4.19424E+06-6.30842E+06-1.71175E-02 8.37401E-02-1.42350E+06
 -1      1491 1.93038E+08 2.68484E+06 3.15096E+09-1.61977E-03-1.27519E-01-1.31101E+08
 -1      1493 1.93038E+08 2.68484E+06 3.15096E+09-1.61977E-03-1.27519E-01-1.31101E+08
 -1      1494 2.56532E+07-3.79918E+06 3.07034E+09-1.76626E-03-6.88792E-03 3.82922E-02
 -1      1496 2.56532E+07-3.79918E+06 3.07034E+09-1.76626E-03-6.88792E-03 3.82922E-02
 -1      1497 1.93038E+08 2.68484E+06 3.15096E+09-1.71493E-04 1.23284E-01 1.31101E+08
 -1      1499 1.93038E+08 2.68484E+06 3.15096E+09-1.71493E-04 1.23284E-01 1.31101E+08
 -1      1500 5.85438E+08 1.64466E+07-2.57796E+05 9.76118E+06-2.42325E+07 9.91380E+07
 -1      1502 5.85438E+08 1.64466E+07-2.57796E+05 9.76118E+06-2.42325E+07 9.91380E+07
 -1      1503 5.71204E+08-7.57612E+06 3.09501E+05-4.95750E+06-4.37103E+07-4.83974E+04
 -1      1505 5.71204E+08-7.57612E+06 3.09501E+05-4.95750E+06-4.37103E+07-4.83974E+04
 -1      1506 5.61691E+08 2.15188E+06 3.80981E+05 4.50209E+06-5.89548E+07 4.85443E+07
 -1      1508 5.61691E+08 2.15188E+06 3.80981E+05 4.50209E+06-5.89548E+07 4.85443E+07
 -1      1509 5.36468E+08-1.27613E+06 3.68817E+05 3.07747E+06-8.22775E+07 2.37778E+07
 -1      1511 5.36468E+08-1.27613E+06 3.68817E+05 3.07747E+06-8.22775E+07 2.37778E+07
 -1      1512 5.06344E+08 2.64537E+05 6.40476E+05 4.41119E+06-1.00370E+08 3.62989E+07
 -1      1514 5.06344E+08 2.64537E+05 6.40476E+05 4.41119E+06-1.00370E+08 3.62989E+07
 -1      1515 4.71656E+08-3.67578E+05 6.07685E+05 4.45055E+06-1.21474E+08 2.87637E+07
 -1      1517 4.71656E+08-3.67578E+05 6.07685E+05 4.45055E+06-1.21474E+08 2.87637E+07
 -1      1518 4.33823E+08 4.24262E+04 8.36666E+05 4.61816E+06-1.40698E+08 3.23395E+07
 -1      1520 4.33823E+08 4.24262E+04 8.36666E+05 4.61816E+06-1.40698E+08 3.23395E+07
 -1      1521 3.93719E+08-1.50342E+05 8.50075E+05 4.55345E+06-1.60103E+08 2.92383E+07
 -1      1523 3.93719E+08-1.50342E+05 8.50075E+05 4.55345E+06-1.60103E+08 2.92383E+07
 -1      1524 3.51913E+08-1.99321E+03 1.03163E+06 4.49130E+06-1.79177E+08 3.00857E+07
 -1      1526 3.51913E+08-1.99321E+03 1.03163E+06 4.49130E+06-1.79177E+08 3.00857E+07
 -1      1527 3.08735E+08-7.33714E+04 1.07351E+06 4.37762E+06-1.97353E+08 2.83004E+07
 -1      1529 3.08735E+08-7.33714E+04 1.07351E+06 4.37762E+06-1.97353E+08 2.83004E+07
 -1      1530 2.64569E+08-1.52305E+03 1.22523E+06 4.25049E+06-2.15574E+08 2.80784E+07
 -1      1532 2.64569E+08-1.52305E+03 1.22523E+06 4.25049E+06-2.15574E+08 2.80784E+07
 -1      1533 2.19666E+08-3.28937E+04 1.27779E+06 4.10752E+06-2.32606E+08 2.67002E+07
 -1      1535 2.19666E+08-3.28937E+04 1.27779E+06 4.10752E+06-2.32606E+08 2.67002E+07
 -1      1536 1.74347E+08 1.41572E+04 1.41175E+06 3.95057E+06-2.49596E+08 2.59550E+07
 -1      1538 1.74347E+08 1.41572E+04 1.41175E+06 3.95057E+06-2.49596E+08 2.59550E+07
 -1      1539 1.28868E+08-4.69830E+03 1.46352E+06 3.78369E+06-2.65377E+08 2.46661E+07
 -1      1541 1.28868E+08-4.69830E+03 1.46352E+06 3.78369E+06-2.65377E+08 2.46661E+07
 -1      1542 8.35263E+07 3.78331E+04 1.58682E+06 3.60319E+06-2.80905E+08 2.36170E+07
 -1      1544 8.35263E+07 3.78331E+04 1.58682E+06 3.60319E+06-2.80905E+08 2.36170E+07
 -1      1545 3.85801E+07 1.46991E+04 1.63007E+06 3.41561E+06-2.95263E+08 2.22939E+07
 -1      1547 3.85801E+07 1.46991E+04 1.63007E+06 3.41561E+06-2.95263E+08 2.22939E+07
 -1      1548-5.68026E+06 7.10492E+04 1.74746E+06 3.21102E+06-3.09157E+08 2.10438E+07
 -1      1550-5.68026E+06 7.10492E+04 1.74746E+06 3.21102E+06-3.09157E+08 2.10438E+07
 -1      1551-4.90008E+07 2.02132E+04 1.77612E+06 3.00410E+06-3.21912E+08 1.96396E+07
 -1      1553-4.90008E+07 2.02132E+04 1.77612E+06 3.00410E+06-3.21912E+08 1.96396E+07
 -1      1554-9.10780E+07 1.27658E+05 1.89136E+06 2.76300E+06-3.34028E+08 1.82446E+07
 -1      1556-9.10780E+07 1.27658E+05 1.89136E+06 2.76300E+06-3.34028E+08 1.82446E+07
 -1      1557-1.31631E+08-3.60113E+03 1.90043E+06 2.52261E+06-3.45016E+08 1.67450E+07
 -1      1559-1.31631E+08-3.60113E+03 1.90043E+06 2.52261E+06-3.45016E+08 1.67450E+07
 -1      1560-1.70233E+08 2.57395E+05 2.01579E+06 2.17691E+06-3.55227E+08 1.52415E+07
 -1      1562-1.70233E+08 2.57395E+05 2.01579E+06 2.17691E+06-3.55227E+08 1.52415E+07
 -1      1563-2.06385E+08-8.99850E+04 2.00335E+06 1.80095E+06-3.64307E+08 1.36471E+07
 -1      1565-2.06385E+08-8.99850E+04 2.00335E+06 1.80095E+06-3.64307E+08 1.36471E+07
 -1      1566-2.38983E+08 6.33292E+05 2.11473E+06 1.02577E+06-3.72493E+08 1.20587E+07
 -1      1568-2.38983E+08 6.33292E+05 2.11473E+06 1.02577E+06-3.72493E+08 1.20587E+07
 -1      1569-2.66640E+08-3.26250E+05 2.09018E+06 6.93732E+04-3.79550E+08 1.03910E+07
 -1      1571-2.66640E+08-3.26250E+05 2.09018E+06 6.93732E+04-3.79550E+08 1.03910E+07
 -1      1572-2.85617E+08 1.73005E+06 2.17292E+06-2.17399E+06-3.85587E+08 8.70022E+06
 -1      1574-2.85617E+08 1.73005E+06 2.17292E+06-2.17399E+06-3.85587E+08 8.70022E+06
 -1      1575-2.90646E+08-4.00945E+05 2.16902E+06-6.30995E+06-3.90535E+08 7.11036E+06
 -1      1577-2.90646E+08-4.00945E+05 2.16902E+06-6.30995E+06-3.90535E+08 7.11036E+06
 -1      1578-2.80470E+08 1.12842E+06 2.19278E+06-6.22205E+06-3.94330E+08 5.10562E+06
 -1      1580-2.80470E+08 1.12842E+06 2.19278E+06-6.22205E+06-3.94330E+08 5.10562E+06
 -1      1581-2.34666E+08 6.91788E+06 2.18411E+06-2.58873E+07-3.97168E+08 4.47457E+06
 -1      1583-2.34666E+08 6.91788E+06 2.18411E+06-2.58873E+07-3.97168E+08 4.47457E+06
 -1      1584-1.20386E+08-3.35922E+06 2.08663E+06-3.54472E+07-3.98981E+08 1.11715E+06
 -1      1586-1.20386E+08-3.35922E+06 2.08663E+06-3.54472E+07-3.98981E+08 1.11715E+06
 -1      1587-1.24056E+08-3.94609E+07-2.19464E+06-7.53719E+07-6.76668E+08-2.65900E+06
 -1      1589-1.24056E+08-3.94609E+07-2.19464E+06-7.53719E+07-6.76668E+08-2.65900E+06
 -1      1590 5.98892E+08 6.87804E+07 1.89358E+05 3.06741E+07 2.92811E+07 8.64402E+07
 -1      1592 5.98892E+08 6.87804E+07 1.89358E+05 3.06741E+07 2.92811E+07 8.64402E+07
 -1      1593-1.24056E+08-3.94609E+07-2.19464E+06 7.53719E+07 6.76668E+08-2.65900E+06
 -1      1595-1.24056E+08-3.94609E+07-2.19464E+06 7.53719E+07 6.76668E+08-2.65900E+06
 -1      1596 5.85438E+08 1.64466E+07-2.57796E+05-9.76118E+06 2.42325E+07 9.91380E+07
 -1      1598 5.85438E+08 1.64466E+07-2.57796E+05-9.76118E+06 2.42325E+07 9.91380E+07
 -1      1599 5.71204E+08-7.57612E+06 3.09501E+05 4.95750E+06 4.37103E+07-4.83974E+04
 -1      1601 5.71204E+08-7.57612E+06 3.09501E+05 4.95750E+06 4.37103E+07-4.83974E+04
 -1      1602 5.61691E+08 2.15188E+06 3.80981E+05-4.50209E+06 5.89548E+07 4.85443E+07
 -1      1604 5.61691E+08 2.15188E+06 3.80981E+05-4.50209E+06 5.89548E+07 4.85443E+07
 -1      1605 5.36468E+08-1.27613E+06 3.68817E+05-3.07747E+06 8.22775E+07 2.37778E+07
 -1      1607 5.36468E+08-1.27613E+06 3.68817E+05-3.07747E+06 8.22775E+07 2.37778E+07
 -1      1608 5.06344E+08 2.64537E+05 6.40476E+05-4.41119E+06 1.00370E+08 3.62989E+07
 -1      1610 5.06344E+08 2.64537E+05 6.40476E+05-4.41119E+06 1.00370E+08 3.62989E+07
 -1      1611 4.71656E+08-3.67578E+05 6.07685E+05-4.45055E+06 1.21474E+08 2.87637E+07
 -1      1613 4.71656E+08-3.67578E+05 6.07685E+05-4.45055E+06 1.21474E+08 2.87637E+07
 -1      1614 4.33823E+08 4.24262E+04 8.36666E+05-4.61816E+06 1.40698E+08 3.23395E+07
 -1      1616 4.33823E+08 4.24262E+04 8.36666E+05-4.61816E+06 1.40698E+08 3.23395E+07
 -1      1617 3.93719E+08-1.50342E+05 8.50075E+05-4.55345E+06 1.60103E+08 2.92383E+07
 -1      1619 3.93719E+08-1.50342E+05 8.50075E+05-4.55345E+06 1.60103E+08 2.92383E+07
 -1      1620 3.51913E+08-1.99317E+03 1.03163E+06-4.49130E+06 1.79177E+08 3.00857E+07
 -1      1622 3.51913E+08-1.99317E+03 1.03163E+06-4.49130E+06 1.79177E+08 3.00857E+07
 -1      1623 3.08735E+08-7.33714E+04 1.07351E+06-4.37762E+06 1.97353E+08 2.83004E+07
 -1      1625 3.08735E+08-7.33714E+04 1.07351E+06-4.37762E+06 1.97353E+08 2.83004E+07
 -1      1626 2.64569E+08-1.52304E+03 1.22523E+06-4.25049E+06 2.15574E+08 2.80784E+07
 -1      1628 2.64569E+08-1.52304E+03 1.22523E+06-4.25049E+06 2.15574E+08 2.80784E+07
 -1      1629 2.19666E+08-3.28937E+04 1.27779E+06-4.10752E+06 2.32606E+08 2.67002E+07
 -1      1631 2.19666E+08-3.28937E+04 1.27779E+06-4.10752E+06 2.32606E+08 2.67002E+07
 -1      1632 1.74347E+08 1.41572E+04 1.41175E+06-3.95057E+06 2.49596E+08 2.59550E+07
 -1      1634 1.74347E+08 1.41572E+04 1.41175E+06-3.95057E+06 2.49596E+08 2.59550E+07
 -1      1635 1.28868E+08-4.69827E+03 1.46352E+06-3.78369E+06 2.65377E+08 2.46661E+07
 -1      1637 1.28868E+08-4.69827E+03 1.46352E+06-3.78369E+06 2.65377E+08 2.46661E+07
 -1      1638 8.35263E+07 3.78331E+04 1.58682E+06-3.60319E+06 2.80905E+08 2.36170E+07
 -1      1640 8.35263E+07 3.78331E+04 1.58682E+06-3.60319E+06 2.80905E+08 2.36170E+07
 -1      1641 3.85801E+07 1.46991E+04 1.63007E+06-3.41561E+06 2.95263E+08 2.22939E+07
 -1      1643 3.85801E+07 1.46991E+04 1.63007E+06-3.41561E+06 2.95263E+08 2.22939E+07
 -1      1644-5.68027E+06 7.10493E+04 1.74746E+06-3.21102E+06 3.09157E+08 2.10438E+07
 -1      1646-5.68027E+06 7.10493E+04 1.74746E+06-3.21102E+06 3.09157E+08 2.10438E+07
 -1      1647-4.90008E+07 2.02132E+04 1.77612E+06-3.00410E+06 3.21912E+08 1.96396E+07
 -1      1649-4.90008E+07 2.02132E+04 1.77612E+06-3.00410E+06 3.21912E+08 1.96396E+07
 -1      1650-9.10780E+07 1.27658E+05 1.89136E+06-2.76300E+06 3.34028E+08 1.82446E+07
 -1      1652-9.10780E+07 1.27658E+05 1.89136E+06-2.76300E+06 3.34028E+08 1.82446E+07
 -1      1653-1.31631E+08-3.60109E+03 1.90043E+06-2.52261E+06 3.45016E+08 1.67450E+07
 -1      1655-1.31631E+08-3.60109E+03 1.90043E+06-2.52261E+06 3.45016E+08 1.67450E+07
 -1      1656-1.70233E+08 2.57395E+05 2.01579E+06-2.17691E+06 3.55227E+08 1.52415E+07
 -1      1658-1.70233E+08 2.57395E+05 2.01579E+06-2.17691E+06 3.55227E+08 1.52415E+07
 -1      1659-2.06385E+08-8.99850E+04 2.00335E+06-1.80095E+06 3.64307E+08 1.36471E+07
 -1      1661-2.06385E+08-8.99850E+04 2.00335E+06-1.80095E+06 3.64307E+08 1.36471E+07
 -1      1662-2.38983E+08 6.33292E+05 2.11473E+06-1.02577E+06 3.72493E+08 1.20587E+07
 -1      1664-2.38983E+08 6.33292E+05 2.11473E+06-1.02577E+06 3.72493E+08 1.20587E+07
 -1      1665-2.66640E+08-3.26250E+05 2.09018E+06-6.93731E+04 3.79550E+08 1.03910E+07
 -1      1667-2.66640E+08-3.26250E+05 2.09018E+06-6.93731E+04 3.79550E+08 1.03910E+07
 -1      1668-2.85617E+08 1.73005E+06 2.17292E+06 2.17399E+06 3.85587E+08 8.70022E+06
 -1      1670-2.85617E+08 1.73005E+06 2.17292E+06 2.17399E+06 3.85587E+08 8.70022E+06
 -1      1671-2.90646E+08-4.00945E+05 2.16902E+06 6.30995E+06 3.90535E+08 7.11036E+06
 -1      1673-2.90646E+08-4.00945E+05 2.16902E+06 6.30995E+06 3.90535E+08 7.11036E+06
 -1      1674-2.80470E+08 1.12842E+06 2.19278E+06 6.22205E+06 3.94330E+08 5.10562E+06
 -1      1676-2.80470E+08 1.12842E+06 2.19278E+06 6.22205E+06 3.94330E+08 5.10562E+06
 -1      1677-2.34666E+08 6.91788E+06 2.18411E+06 2.58873E+07 3.97168E+08 4.47457E+06
 -1      1679-2.34666E+08 6.91788E+06 2.18411E+06 2.58873E+07 3.97168E+08 4.47457E+06
 -1      1680-1.20386E+08-3.35922E+06 2.08663E+06 3.54472E+07 3.98981E+08 1.11715E+06
 -1      1682-1.20386E+08-3.35922E+06 2.08663E+06 3.54472E+07 3.98981E+08 1.11715E+06
 -1      1683 5.98892E+08 6.87804E+07 1.89358E+05-3.06741E+07-2.92811E+07 8.64402E+07
 -1      1685 5.98892E+08 6.87804E+07 1.89358E+05-3.06741E+07-2.92811E+07 8.64402E+07
 -1      1686 5.89267E+08 2.41815E+07 1.54487E+04-1.12230E+07-1.15741E+07-2.88756E+07
 -1      1688 5.89267E+08 2.41815E+07 1.54487E+04-1.12230E+07-1.15741E+07-2.88756E+07
 -1      1689 5.75841E+08-9.24796E+06-2.74888E+05 2.27003E+06-7.03246E+07 1.16663E+07
 -1      1691 5.75841E+08-9.24796E+06-2.74888E+05 2.27003E+06-7.03246E+07 1.16663E+07
 -1      1692 5.62113E+08 3.88704E+05-3.43241E+05-5.77302E+06-9.96393E+07-3.97292E+06
 -1      1694 5.62113E+08 3.88704E+05-3.43241E+05-5.77302E+06-9.96393E+07-3.97292E+06
 -1      1695 5.37422E+08-8.50388E+05-4.17584E+05-7.65781E+06-1.35682E+08 9.09344E+05
 -1      1697 5.37422E+08-8.50388E+05-4.17584E+05-7.65781E+06-1.35682E+08 9.09344E+05
 -1      1698 5.06393E+08-4.63265E+05-5.94989E+05-8.38465E+06-1.70829E+08 1.03541E+05
 -1      1700 5.06393E+08-4.63265E+05-5.94989E+05-8.38465E+06-1.70829E+08 1.03541E+05
 -1      1701 4.71481E+08-2.48102E+05-6.54662E+05-9.17969E+06-2.03634E+08-4.59521E+05
 -1      1703 4.71481E+08-2.48102E+05-6.54662E+05-9.17969E+06-2.03634E+08-4.59521E+05
 -1      1704 4.33353E+08-1.58931E+05-8.02279E+05-9.16909E+06-2.38140E+08 3.96339E+05
 -1      1706 4.33353E+08-1.58931E+05-8.02279E+05-9.16909E+06-2.38140E+08 3.96339E+05
 -1      1707 3.93178E+08-1.04374E+05-8.91471E+05-9.16983E+06-2.70009E+08-3.89246E+05
 -1      1709 3.93178E+08-1.04374E+05-8.91471E+05-9.16983E+06-2.70009E+08-3.89246E+05
 -1      1710 3.51211E+08-5.86093E+04-1.00663E+06-8.98093E+06-3.02810E+08 2.30114E+05
 -1      1712 3.51211E+08-5.86093E+04-1.00663E+06-8.98093E+06-3.02810E+08 2.30114E+05
 -1      1713 3.07978E+08-3.44419E+04-1.11096E+06-8.77505E+06-3.33509E+08-2.24602E+05
 -1      1715 3.07978E+08-3.44419E+04-1.11096E+06-8.77505E+06-3.33509E+08-2.24602E+05
 -1      1716 2.63702E+08-9.59240E+02-1.20722E+06-8.51079E+06-3.64330E+08 9.93983E+04
 -1      1718 2.63702E+08-9.59240E+02-1.20722E+06-8.51079E+06-3.64330E+08 9.93983E+04
 -1      1719 2.18738E+08 1.77252E+04-1.31331E+06-8.22666E+06-3.93380E+08-1.24054E+05
 -1      1721 2.18738E+08 1.77252E+04-1.31331E+06-8.22666E+06-3.93380E+08-1.24054E+05
 -1      1722 1.73331E+08 4.87314E+04-1.39851E+06-7.91250E+06-4.21991E+08 3.11871E+04
 -1      1724 1.73331E+08 4.87314E+04-1.39851E+06-7.91250E+06-4.21991E+08 3.11871E+04
 -1      1725 1.27789E+08 6.62445E+04-1.49901E+06-7.57628E+06-4.48963E+08-7.25161E+04
 -1      1727 1.27789E+08 6.62445E+04-1.49901E+06-7.57628E+06-4.48963E+08-7.25161E+04
 -1      1728 8.23702E+07 9.68221E+04-1.57627E+06-7.21868E+06-4.75109E+08 5.65784E+01
 -1      1730 8.23702E+07 9.68221E+04-1.57627E+06-7.21868E+06-4.75109E+08 5.65784E+01
 -1      1731 3.73655E+07 1.12278E+05-1.66732E+06-6.83658E+06-4.99638E+08-4.66637E+04
 -1      1733 3.73655E+07 1.12278E+05-1.66732E+06-6.83658E+06-4.99638E+08-4.66637E+04
 -1      1734-6.96736E+06 1.45935E+05-1.73756E+06-6.43833E+06-5.23062E+08-1.25289E+04
 -1      1736-6.96736E+06 1.45935E+05-1.73756E+06-6.43833E+06-5.23062E+08-1.25289E+04
 -1      1737-5.03408E+07 1.56137E+05-1.81680E+06-6.00625E+06-5.44831E+08-3.28422E+04
 -1      1739-5.03408E+07 1.56137E+05-1.81680E+06-6.00625E+06-5.44831E+08-3.28422E+04
 -1      1740-9.24983E+07 2.06538E+05-1.88027E+06-5.55718E+06-5.65291E+08-1.60186E+04
 -1      1742-9.24983E+07 2.06538E+05-1.88027E+06-5.55718E+06-5.65291E+08-1.60186E+04
 -1      1743-1.33112E+08 2.08978E+05-1.94584E+06-5.02959E+06-5.84023E+08-2.41957E+04
 -1      1745-1.33112E+08 2.08978E+05-1.94584E+06-5.02959E+06-5.84023E+08-2.41957E+04
 -1      1746-1.71858E+08 3.31159E+05-2.00276E+06-4.43609E+06-6.01306E+08-1.36895E+04
 -1      1748-1.71858E+08 3.31159E+05-2.00276E+06-4.43609E+06-6.01306E+08-1.36895E+04
 -1      1749-2.08159E+08 3.35476E+05-2.05308E+06-3.57286E+06-6.16762E+08-1.78525E+04
 -1      1751-2.08159E+08 3.35476E+05-2.05308E+06-3.57286E+06-6.16762E+08-1.78525E+04
 -1      1752-2.41216E+08 7.76138E+05-2.10354E+06-2.29798E+06-6.30697E+08-1.68803E+03
 -1      1754-2.41216E+08 7.76138E+05-2.10354E+06-2.29798E+06-6.30697E+08-1.68803E+03
 -1      1755-2.69428E+08 6.91453E+05-2.13711E+06-1.90980E+05-6.42676E+08-2.13898E+04
 -1      1757-2.69428E+08 6.91453E+05-2.13711E+06-1.90980E+05-6.42676E+08-2.13898E+04
 -1      1758-2.89754E+08 2.51613E+06-2.18395E+06 4.00459E+06-6.53137E+08 4.07304E+04
 -1      1760-2.89754E+08 2.51613E+06-2.18395E+06 4.00459E+06-6.53137E+08 4.07304E+04
 -1      1761-2.97739E+08 2.17178E+06-2.18615E+06 1.06043E+07-6.61487E+08-1.20448E+05
 -1      1763-2.97739E+08 2.17178E+06-2.18615E+06 1.06043E+07-6.61487E+08-1.20448E+05
 -1      1764-2.85583E+08 1.37522E+06-2.25210E+06 1.79255E+07-6.68311E+08 1.41880E+05
 -1      1766-2.85583E+08 1.37522E+06-2.25210E+06 1.79255E+07-6.68311E+08 1.41880E+05
 -1      1767-2.45441E+08 1.76738E+07-2.21396E+06 3.92489E+07-6.72975E+08-8.47719E+05
 -1      1769-2.45441E+08 1.76738E+07-2.21396E+06 3.92489E+07-6.72975E+08-8.47719E+05
 -1      1770-1.70871E+08-3.77673E+06-2.11090E+06 6.62226E+07-6.75362E+08 1.53172E+05
 -1      1772-1.70871E+08-3.77673E+06-2.11090E+06 6.62226E+07-6.75362E+08 1.53172E+05
 -1      1773 5.89267E+08 2.41815E+07 1.54487E+04 1.12230E+07 1.15741E+07-2.88756E+07
 -1      1775 5.89267E+08 2.41815E+07 1.54487E+04 1.12230E+07 1.15741E+07-2.88756E+07
 -1      1776 5.75841E+08-9.24796E+06-2.74888E+05-2.27003E+06 7.03246E+07 1.16663E+07
 -1      1778 5.75841E+08-9.24796E+06-2.74888E+05-2.27003E+06 7.03246E+07 1.16663E+07
 -1      1779 5.62113E+08 3.88704E+05-3.43241E+05 5.77302E+06 9.96393E+07-3.97292E+06
 -1      1781 5.62113E+08 3.88704E+05-3.43241E+05 5.77302E+06 9.96393E+07-3.97292E+06
 -1      1782 5.37422E+08-8.50388E+05-4.17584E+05 7.65781E+06 1.35682E+08 9.09344E+05
 -1      1784 5.37422E+08-8.50388E+05-4.17584E+05 7.65781E+06 1.35682E+08 9.09344E+05
 -1      1785 5.06393E+08-4.63265E+05-5.94989E+05 8.38465E+06 1.70829E+08 1.03541E+05
 -1      1787 5.06393E+08-4.63265E+05-5.94989E+05 8.38465E+06 1.70829E+08 1.03541E+05
 -1      1788 4.71481E+08-2.48102E+05-6.54662E+05 9.17969E+06 2.03634E+08-4.59521E+05
 -1      1790 4.71481E+08-2.48102E+05-6.54662E+05 9.17969E+06 2.03634E+08-4.59521E+05
 -1      1791 4.33353E+08-1.58931E+05-8.02279E+05 9.16909E+06 2.38140E+08 3.96339E+05
 -1      1793 4.33353E+08-1.58931E+05-8.02279E+05 9.16909E+06 2.38140E+08 3.96339E+05
 -1      1794 3.93178E+08-1.04374E+05-8.91471E+05 9.16983E+06 2.70009E+08-3.89246E+05
 -1      1796 3.93178E+08-1.04374E+05-8.91471E+05 9.16983E+06 2.70009E+08-3.89246E+05
 -1      1797 3.51211E+08-5.86093E+04-1.00663E+06 8.98093E+06 3.02810E+08 2.30114E+05
 -1      1799 3.51211E+08-5.86093E+04-1.00663E+06 8.98093E+06 3.02810E+08 2.30114E+05
 -1      1800 3.07978E+08-3.44419E+04-1.11096E+06 8.77505E+06 3.33509E+08-2.24602E+05
 -1      1802 3.07978E+08-3.44419E+04-1.11096E+06 8.77505E+06 3.33509E+08-2.24602E+05
 -1      1803 2.63702E+08-9.59287E+02-1.20722E+06 8.51080E+06 3.64330E+08 9.93983E+04
 -1      1805 2.63702E+08-9.59287E+02-1.20722E+06 8.51080E+06 3.64330E+08 9.93983E+04
 -1      1806 2.18738E+08 1.77252E+04-1.31331E+06 8.22666E+06 3.93380E+08-1.24054E+05
 -1      1808 2.18738E+08 1.77252E+04-1.31331E+06 8.22666E+06 3.93380E+08-1.24054E+05
 -1      1809 1.73331E+08 4.87313E+04-1.39851E+06 7.91250E+06 4.21991E+08 3.11870E+04
 -1      1811 1.73331E+08 4.87313E+04-1.39851E+06 7.91250E+06 4.21991E+08 3.11870E+04
 -1      1812 1.27789E+08 6.62444E+04-1.49901E+06 7.57628E+06 4.48963E+08-7.25161E+04
 -1      1814 1.27789E+08 6.62444E+04-1.49901E+06 7.57628E+06 4.48963E+08-7.25161E+04
 -1      1815 8.23702E+07 9.68220E+04-1.57627E+06 7.21868E+06 4.75109E+08 5.65781E+01
 -1      1817 8.23702E+07 9.68220E+04-1.57627E+06 7.21868E+06 4.75109E+08 5.65781E+01
 -1      1818 3.73655E+07 1.12278E+05-1.66732E+06 6.83658E+06 4.99638E+08-4.66637E+04
 -1      1820 3.73655E+07 1.12278E+05-1.66732E+06 6.83658E+06 4.99638E+08-4.66637E+04
 -1      1821-6.96736E+06 1.45935E+05-1.73756E+06 6.43833E+06 5.23062E+08-1.25289E+04
 -1      1823-6.96736E+06 1.45935E+05-1.73756E+06 6.43833E+06 5.23062E+08-1.25289E+04
 -1      1824-5.03408E+07 1.56137E+05-1.81680E+06 6.00625E+06 5.44831E+08-3.28422E+04
 -1      1826-5.03408E+07 1.56137E+05-1.81680E+06 6.00625E+06 5.44831E+08-3.28422E+04
 -1      1827-9.24983E+07 2.06538E+05-1.88027E+06 5.55718E+06 5.65291E+08-1.60186E+04
 -1      1829-9.24983E+07 2.06538E+05-1.88027E+06 5.55718E+06 5.65291E+08-1.60186E+04
 -1      1830-1.33112E+08 2.08978E+05-1.94584E+06 5.02959E+06 5.84023E+08-2.41957E+04
 -1      1832-1.33112E+08 2.08978E+05-1.94584E+06 5.02959E+06 5.84023E+08-2.41957E+04
 -1      1833-1.71858E+08 3.31159E+05-2.00276E+06 4.43609E+06 6.01306E+08-1.36895E+04
 -1      1835-1.71858E+08 3.31159E+05-2.00276E+06 4.43609E+06 6.01306E+08-1.36895E+04
 -1      1836-2.08159E+08 3.35476E+05-2.05308E+06 3.57286E+06 6.16762E+08-1.78525E+04
 -1      1838-2.08159E+08 3.35476E+05-2.05308E+06 3.57286E+06 6.16762E+08-1.78525E+04
 -1      1839-2.41216E+08 7.76138E+05-2.10354E+06 2.29798E+06 6.30697E+08-1.68803E+03
 -1      1841-2.41216E+08 7.76138E+05-2.10354E+06 2.29798E+06 6.30697E+08-1.68803E+03
 -1      1842-2.69428E+08 6.91453E+05-2.13711E+06 1.90981E+05 6.42676E+08-2.13898E+04
 -1      1844-2.69428E+08 6.91453E+05-2.13711E+06 1.90981E+05 6.42676E+08-2.13898E+04
 -1      1845-2.89754E+08 2.51613E+06-2.18395E+06-4.00459E+06 6.53137E+08 4.07304E+04
 -1      1847-2.89754E+08 2.51613E+06-2.18395E+06-4.00459E+06 6.53137E+08 4.07304E+04
 -1      1848-2.97739E+08 2.17178E+06-2.18615E+06-1.06043E+07 6.61487E+08-1.20448E+05
 -1      1850-2.97739E+08 2.17178E+06-2.18615E+06-1.06043E+07 6.61487E+08-1.20448E+05
 -1      1851-2.85583E+08 1.37522E+06-2.25210E+06-1.79255E+07 6.68311E+08 1.41880E+05
 -1      1853-2.85583E+08 1.37522E+06-2.25210E+06-1.79255E+07 6.68311E+08 1.41880E+05
 -1      1854-2.45441E+08 1.76738E+07-2.21396E+06-3.92489E+07 6.72975E+08-8.47719E+05
 -1      1856-2.45441E+08 1.76738E+07-2.21396E+06-3.92489E+07 6.72975E+08-8.47719E+05
 -1      1857-1.70871E+08-3.77673E+06-2.11090E+06-6.62226E+07 6.75362E+08 1.53172E+05
 -1      1859-1.70871E+08-3.77673E+06-2.11090E+06-6.62226E+07 6.75362E+08 1.53172E+05
 -1      1860 7.36908E+08-2.84356E+05 1.22857E+08-1.06706E-02-7.54849E-03 1.75427E+07
 -1      1862 7.36908E+08-2.84356E+05 1.22857E+08-1.06706E-02-7.54849E-03 1.75427E+07
 -1      1863 7.44526E+08 4.39600E+05 2.85644E+08 5.56405E-03-1.73381E-02-2.69574E+07
 -1      1865 7.44526E+08 4.39600E+05 2.85644E+08 5.56405E-03-1.73381E-02-2.69574E+07
 -1      1866 7.45235E+08 5.18625E+05 4.92110E+08-2.69467E-03-2.45628E-02 1.51484E+07
 -1      1868 7.45235E+08 5.18625E+05 4.92110E+08-2.69467E-03-2.45628E-02 1.51484E+07
 -1      1869 7.54460E+08 5.43648E+05 6.64148E+08 8.40779E-04-3.31327E-02 1.91255E+07
 -1      1871 7.54460E+08 5.43648E+05 6.64148E+08 8.40779E-04-3.31327E-02 1.91255E+07
 -1      1872 7.66078E+08 8.94233E+05 8.45963E+08-8.45472E-04-4.08900E-02 2.54742E+07
 -1      1874 7.66078E+08 8.94233E+05 8.45963E+08-8.45472E-04-4.08900E-02 2.54742E+07
 -1      1875 7.77044E+08 8.83745E+05 1.01782E+09 1.18875E-03-4.79100E-02 2.86517E+07
 -1      1877 7.77044E+08 8.83745E+05 1.01782E+09 1.18875E-03-4.79100E-02 2.86517E+07
 -1      1878 7.86867E+08 1.17348E+06 1.18720E+09-2.87860E-04-5.55903E-02 2.81644E+07
 -1      1880 7.86867E+08 1.17348E+06 1.18720E+09-2.87860E-04-5.55903E-02 2.81644E+07
 -1      1881 7.94372E+08 1.23146E+06 1.35270E+09 9.13217E-04-6.34724E-02 2.92206E+07
 -1      1883 7.94372E+08 1.23146E+06 1.35270E+09 9.13217E-04-6.34724E-02 2.92206E+07
 -1      1884 7.99691E+08 1.44986E+06 1.51393E+09 1.11515E-03-7.12192E-02 2.78988E+07
 -1      1886 7.99691E+08 1.44986E+06 1.51393E+09 1.11515E-03-7.12192E-02 2.78988E+07
 -1      1887 8.02590E+08 1.55166E+06 1.67142E+09 7.77641E-04-7.80153E-02 2.78650E+07
 -1      1889 8.02590E+08 1.55166E+06 1.67142E+09 7.77641E-04-7.80153E-02 2.78650E+07
 -1      1890 8.03286E+08 1.72455E+06 1.82400E+09 3.25980E-04-8.27047E-02 2.66095E+07
 -1      1892 8.03286E+08 1.72455E+06 1.82400E+09 3.25980E-04-8.27047E-02 2.66095E+07
 -1      1893 8.01809E+08 1.84468E+06 1.97194E+09-5.26699E-04-8.53542E-02 2.60195E+07
 -1      1895 8.01809E+08 1.84468E+06 1.97194E+09-5.26699E-04-8.53542E-02 2.60195E+07
 -1      1896 7.98364E+08 1.98851E+06 2.11434E+09-8.70177E-04-8.89065E-02 2.48202E+07
 -1      1898 7.98364E+08 1.98851E+06 2.11434E+09-8.70177E-04-8.89065E-02 2.48202E+07
 -1      1899 7.93064E+08 2.11231E+06 2.25114E+09 9.55566E-04-9.24221E-02 2.39072E+07
 -1      1901 7.93064E+08 2.11231E+06 2.25114E+09 9.55566E-04-9.24221E-02 2.39072E+07
 -1      1902 7.86099E+08 2.23469E+06 2.38172E+09 3.59188E-04-9.65208E-02 2.26792E+07
 -1      1904 7.86099E+08 2.23469E+06 2.38172E+09 3.59188E-04-9.65208E-02 2.26792E+07
 -1      1905 7.77607E+08 2.35439E+06 2.50586E+09 2.70167E-04-1.01881E-01 2.15490E+07
 -1      1907 7.77607E+08 2.35439E+06 2.50586E+09 2.70167E-04-1.01881E-01 2.15490E+07
 -1      1908 7.67771E+08 2.45823E+06 2.62309E+09 2.69401E-04-1.06533E-01 2.02367E+07
 -1      1910 7.67771E+08 2.45823E+06 2.62309E+09 2.69401E-04-1.06533E-01 2.02367E+07
 -1      1911 7.56721E+08 2.56948E+06 2.73319E+09-4.76272E-04-1.10209E-01 1.89185E+07
 -1      1913 7.56721E+08 2.56948E+06 2.73319E+09-4.76272E-04-1.10209E-01 1.89185E+07
 -1      1914 7.44623E+08 2.65558E+06 2.83581E+09-1.02940E-03-1.13699E-01 1.74331E+07
 -1      1916 7.44623E+08 2.65558E+06 2.83581E+09-1.02940E-03-1.13699E-01 1.74331E+07
 -1      1917 7.31523E+08 2.75578E+06 2.93081E+09 1.02177E-04-1.15306E-01 1.57754E+07
 -1      1919 7.31523E+08 2.75578E+06 2.93081E+09 1.02177E-04-1.15306E-01 1.57754E+07
 -1      1920 7.17461E+08 2.82361E+06 3.01813E+09-4.72818E-04-1.15629E-01 1.36688E+07
 -1      1922 7.17461E+08 2.82361E+06 3.01813E+09-4.72818E-04-1.15629E-01 1.36688E+07
 -1      1923 7.02094E+08 2.91199E+06 3.09802E+09-8.76262E-04-1.16181E-01 1.06693E+07
 -1      1925 7.02094E+08 2.91199E+06 3.09802E+09-8.76262E-04-1.16181E-01 1.06693E+07
 -1      1926 6.84746E+08 2.95832E+06 3.17125E+09-1.19231E-04-1.16545E-01 5.68492E+06
 -1      1928 6.84746E+08 2.95832E+06 3.17125E+09-1.19231E-04-1.16545E-01 5.68492E+06
 -1      1929 6.63588E+08 3.03808E+06 3.23926E+09 4.89868E-04-1.16348E-01-3.26494E+06
 -1      1931 6.63588E+08 3.03808E+06 3.23926E+09 4.89868E-04-1.16348E-01-3.26494E+06
 -1      1932 6.34731E+08 3.05555E+06 3.30440E+09 1.82096E-04-1.16544E-01-2.00665E+07
 -1      1934 6.34731E+08 3.05555E+06 3.30440E+09 1.82096E-04-1.16544E-01-2.00665E+07
 -1      1935 5.92267E+08 3.12933E+06 3.36809E+09 9.27019E-05-1.16326E-01-4.99606E+07
 -1      1937 5.92267E+08 3.12933E+06 3.36809E+09 9.27019E-05-1.16326E-01-4.99606E+07
 -1      1938 5.25541E+08 3.13029E+06 3.42498E+09 6.56647E-04-1.17367E-01-9.87481E+07
 -1      1940 5.25541E+08 3.13029E+06 3.42498E+09 6.56647E-04-1.17367E-01-9.87481E+07
 -1      1941 4.23796E+08 3.20035E+06 3.43961E+09 8.53757E-04-1.17676E-01-1.53857E+08
 -1      1943 4.23796E+08 3.20035E+06 3.43961E+09 8.53757E-04-1.17676E-01-1.53857E+08
 -1      1944 2.78136E+08 3.14847E+06 3.28990E+09 9.05789E-04-1.21742E-01-1.55081E+08
 -1      1946 2.78136E+08 3.14847E+06 3.28990E+09 9.05789E-04-1.21742E-01-1.55081E+08
 -1      1947 7.95526E+08 3.15329E+05 1.68650E+08-2.06657E-02 1.00063E-03 3.37799E-01
 -1      1949 7.95526E+08 3.15329E+05 1.68650E+08-2.06657E-02 1.00063E-03 3.37799E-01
 -1      1950 7.74852E+08-4.54778E+05 2.81627E+08 4.88847E-03 3.78000E-03 3.21591E-01
 -1      1952 7.74852E+08-4.54778E+05 2.81627E+08 4.88847E-03 3.78000E-03 3.21591E-01
 -1      1953 7.54648E+08-5.22764E+05 4.77612E+08-8.49144E-03 5.03343E-03 2.78595E-01
 -1      1955 7.54648E+08-5.22764E+05 4.77612E+08-8.49144E-03 5.03343E-03 2.78595E-01
 -1      1956 7.60504E+08-5.17348E+05 6.64727E+08-3.00193E-03 5.08772E-03 2.25919E-01
 -1      1958 7.60504E+08-5.17348E+05 6.64727E+08-3.00193E-03 5.08772E-03 2.25919E-01
 -1      1959 7.66804E+08-8.99607E+05 8.44273E+08-5.76261E-03 4.08996E-03 1.51007E-01
 -1      1961 7.66804E+08-8.99607E+05 8.44273E+08-5.76261E-03 4.08996E-03 1.51007E-01
 -1      1962 7.76804E+08-8.60910E+05 1.01946E+09-2.87027E-03 2.18904E-03 8.15456E-02
 -1      1964 7.76804E+08-8.60910E+05 1.01946E+09-2.87027E-03 2.18904E-03 8.15456E-02
 -1      1965 7.85464E+08-1.16634E+06 1.18938E+09-5.02849E-03 5.21107E-04 2.51316E-02
 -1      1967 7.85464E+08-1.16634E+06 1.18938E+09-5.02849E-03 5.21107E-04 2.51316E-02
 -1      1968 7.92462E+08-1.21260E+06 1.35556E+09-2.35797E-03-3.39020E-04-5.40035E-02
 -1      1970 7.92462E+08-1.21260E+06 1.35556E+09-2.35797E-03-3.39020E-04-5.40035E-02
 -1      1971 7.97390E+08-1.43491E+06 1.51749E+09-1.75436E-03-5.55275E-04-1.63939E-01
 -1      1973 7.97390E+08-1.43491E+06 1.51749E+09-1.75436E-03-5.55275E-04-1.63939E-01
 -1      1974 7.99915E+08-1.53197E+06 1.67529E+09-2.31095E-03-1.15113E-03-2.64968E-01
 -1      1976 7.99915E+08-1.53197E+06 1.67529E+09-2.31095E-03-1.15113E-03-2.64968E-01
 -1      1977 8.00330E+08-1.70614E+06 1.82846E+09-2.62408E-03-3.05371E-03-3.09267E-01
 -1      1979 8.00330E+08-1.70614E+06 1.82846E+09-2.62408E-03-3.05371E-03-3.09267E-01
 -1      1980 7.98531E+08-1.82119E+06 1.97671E+09-3.82562E-03-5.84613E-03-3.06593E-01
 -1      1982 7.98531E+08-1.82119E+06 1.97671E+09-3.82562E-03-5.84613E-03-3.06593E-01
 -1      1983 7.94819E+08-1.96914E+06 2.11958E+09-3.46368E-03-7.84485E-03-2.89841E-01
 -1      1985 7.94819E+08-1.96914E+06 2.11958E+09-3.46368E-03-7.84485E-03-2.89841E-01
 -1      1986 7.89232E+08-2.08364E+06 2.25671E+09-7.82579E-04-8.47517E-03-2.57655E-01
 -1      1988 7.89232E+08-2.08364E+06 2.25671E+09-7.82579E-04-8.47517E-03-2.57655E-01
 -1      1989 7.82010E+08-2.21581E+06 2.38769E+09-1.37825E-03-8.06185E-03-2.13084E-01
 -1      1991 7.82010E+08-2.21581E+06 2.38769E+09-1.37825E-03-8.06185E-03-2.13084E-01
 -1      1992 7.73262E+08-2.31983E+06 2.51215E+09-1.35956E-03-5.98452E-03-1.77830E-01
 -1      1994 7.73262E+08-2.31983E+06 2.51215E+09-1.35956E-03-5.98452E-03-1.77830E-01
 -1      1995 7.63183E+08-2.44093E+06 2.62974E+09-1.04886E-03-3.94710E-03-1.54477E-01
 -1      1997 7.63183E+08-2.44093E+06 2.62974E+09-1.04886E-03-3.94710E-03-1.54477E-01
 -1      1998 7.51902E+08-2.52853E+06 2.74016E+09-1.99760E-03-2.73984E-03-1.29289E-01
 -1      2000 7.51902E+08-2.52853E+06 2.74016E+09-1.99760E-03-2.73984E-03-1.29289E-01
 -1      2001 7.39548E+08-2.64097E+06 2.84313E+09-2.35007E-03-1.76958E-03-9.13354E-02
 -1      2003 7.39548E+08-2.64097E+06 2.84313E+09-2.35007E-03-1.76958E-03-9.13354E-02
 -1      2004 7.26172E+08-2.70782E+06 2.93853E+09 9.77563E-04-1.04206E-03-2.57394E-02
 -1      2006 7.26172E+08-2.70782E+06 2.93853E+09 9.77563E-04-1.04206E-03-2.57394E-02
 -1      2007 7.11638E+08-2.81305E+06 3.02639E+09 3.30508E-04-1.20585E-03 6.18217E-02
 -1      2009 7.11638E+08-2.81305E+06 3.02639E+09 3.30508E-04-1.20585E-03 6.18217E-02
 -1      2010 6.95471E+08-2.85612E+06 3.10721E+09-1.04357E-03-8.58560E-04 1.31838E-01
 -1      2012 6.95471E+08-2.85612E+06 3.10721E+09-1.04357E-03-8.58560E-04 1.31838E-01
 -1      2013 6.76302E+08-2.95345E+06 3.18208E+09 3.16481E-05-9.34186E-04 1.57838E-01
 -1      2015 6.76302E+08-2.95345E+06 3.18208E+09 3.16481E-05-9.34186E-04 1.57838E-01
 -1      2016 6.51175E+08-2.97282E+06 3.25323E+09 1.31378E-03-1.11469E-03 1.54807E-01
 -1      2018 6.51175E+08-2.97282E+06 3.25323E+09 1.31378E-03-1.11469E-03 1.54807E-01
 -1      2019 6.13979E+08-3.05817E+06 3.32392E+09 2.51444E-04-1.82059E-03 1.60778E-01
 -1      2021 6.13979E+08-3.05817E+06 3.32392E+09 2.51444E-04-1.82059E-03 1.60778E-01
 -1      2022 5.53375E+08-3.05091E+06 3.39650E+09-7.34635E-04-3.45940E-03 1.80707E-01
 -1      2024 5.53375E+08-3.05091E+06 3.39650E+09-7.34635E-04-3.45940E-03 1.80707E-01
 -1      2025 4.51922E+08-3.13987E+06 3.46211E+09-5.91514E-04-5.89280E-03 1.73089E-01
 -1      2027 4.51922E+08-3.13987E+06 3.46211E+09-5.91514E-04-5.89280E-03 1.73089E-01
 -1      2028 2.95182E+08-3.09922E+06 3.46686E+09 7.68081E-05-7.80214E-03 1.26785E-01
 -1      2030 2.95182E+08-3.09922E+06 3.46686E+09 7.68081E-05-7.80214E-03 1.26785E-01
 -1      2031 1.13813E+08-3.18823E+06 3.25665E+09 4.20057E-04-7.12711E-03 6.78706E-02
 -1      2033 1.13813E+08-3.18823E+06 3.25665E+09 4.20057E-04-7.12711E-03 6.78706E-02
 -1      2034 7.36908E+08-2.84356E+05 1.22857E+08-7.32854E-03 4.10536E-03-1.75427E+07
 -1      2036 7.36908E+08-2.84356E+05 1.22857E+08-7.32854E-03 4.10536E-03-1.75427E+07
 -1      2037 7.44526E+08 4.39600E+05 2.85644E+08 4.70912E-03 1.01713E-02 2.69574E+07
 -1      2039 7.44526E+08 4.39600E+05 2.85644E+08 4.70912E-03 1.01713E-02 2.69574E+07
 -1      2040 7.45235E+08 5.18625E+05 4.92110E+08-1.61740E-03 1.53118E-02-1.51484E+07
 -1      2042 7.45235E+08 5.18625E+05 4.92110E+08-1.61740E-03 1.53118E-02-1.51484E+07
 -1      2043 7.54460E+08 5.43648E+05 6.64148E+08 1.08045E-04 2.37362E-02-1.91255E+07
 -1      2045 7.54460E+08 5.43648E+05 6.64148E+08 1.08045E-04 2.37362E-02-1.91255E+07
 -1      2046 7.66078E+08 8.94233E+05 8.45963E+08-4.30547E-04 3.34088E-02-2.54742E+07
 -1      2048 7.66078E+08 8.94233E+05 8.45963E+08-4.30547E-04 3.34088E-02-2.54742E+07
 -1      2049 7.77044E+08 8.83745E+05 1.01782E+09 9.51802E-05 4.36322E-02-2.86517E+07
 -1      2051 7.77044E+08 8.83745E+05 1.01782E+09 9.51802E-05 4.36322E-02-2.86517E+07
 -1      2052 7.86867E+08 1.17348E+06 1.18720E+09-7.73682E-04 5.39891E-02-2.81644E+07
 -1      2054 7.86867E+08 1.17348E+06 1.18720E+09-7.73682E-04 5.39891E-02-2.81644E+07
 -1      2055 7.94372E+08 1.23146E+06 1.35270E+09 2.03609E-04 6.25523E-02-2.92206E+07
 -1      2057 7.94372E+08 1.23146E+06 1.35270E+09 2.03609E-04 6.25523E-02-2.92206E+07
 -1      2058 7.99691E+08 1.44986E+06 1.51393E+09 9.09092E-04 6.95243E-02-2.78988E+07
 -1      2060 7.99691E+08 1.44986E+06 1.51393E+09 9.09092E-04 6.95243E-02-2.78988E+07
 -1      2061 8.02590E+08 1.55166E+06 1.67142E+09-3.23147E-04 7.58089E-02-2.78650E+07
 -1      2063 8.02590E+08 1.55166E+06 1.67142E+09-3.23147E-04 7.58089E-02-2.78650E+07
 -1      2064 8.03286E+08 1.72455E+06 1.82400E+09-2.83648E-04 8.27647E-02-2.66095E+07
 -1      2066 8.03286E+08 1.72455E+06 1.82400E+09-2.83648E-04 8.27647E-02-2.66095E+07
 -1      2067 8.01809E+08 1.84468E+06 1.97194E+09-1.11903E-03 9.05947E-02-2.60195E+07
 -1      2069 8.01809E+08 1.84468E+06 1.97194E+09-1.11903E-03 9.05947E-02-2.60195E+07
 -1      2070 7.98364E+08 1.98851E+06 2.11434E+09-3.66656E-04 9.80300E-02-2.48202E+07
 -1      2072 7.98364E+08 1.98851E+06 2.11434E+09-3.66656E-04 9.80300E-02-2.48202E+07
 -1      2073 7.93064E+08 2.11231E+06 2.25114E+09 2.17279E-04 1.03079E-01-2.39072E+07
 -1      2075 7.93064E+08 2.11231E+06 2.25114E+09 2.17279E-04 1.03079E-01-2.39072E+07
 -1      2076 7.86099E+08 2.23469E+06 2.38172E+09-3.05891E-04 1.04939E-01-2.26792E+07
 -1      2078 7.86099E+08 2.23469E+06 2.38172E+09-3.05891E-04 1.04939E-01-2.26792E+07
 -1      2079 7.77607E+08 2.35439E+06 2.50586E+09-5.08209E-04 1.04413E-01-2.15490E+07
 -1      2081 7.77607E+08 2.35439E+06 2.50586E+09-5.08209E-04 1.04413E-01-2.15490E+07
 -1      2082 7.67771E+08 2.45823E+06 2.62309E+09-8.40237E-05 1.04265E-01-2.02367E+07
 -1      2084 7.67771E+08 2.45823E+06 2.62309E+09-8.40237E-05 1.04265E-01-2.02367E+07
 -1      2085 7.56721E+08 2.56948E+06 2.73319E+09-4.62681E-05 1.05389E-01-1.89185E+07
 -1      2087 7.56721E+08 2.56948E+06 2.73319E+09-4.62681E-05 1.05389E-01-1.89185E+07
 -1      2088 7.44623E+08 2.65558E+06 2.83581E+09-5.56421E-04 1.07091E-01-1.74331E+07
 -1      2090 7.44623E+08 2.65558E+06 2.83581E+09-5.56421E-04 1.07091E-01-1.74331E+07
 -1      2091 7.31523E+08 2.75578E+06 2.93081E+09 1.92968E-03 1.09632E-01-1.57754E+07
 -1      2093 7.31523E+08 2.75578E+06 2.93081E+09 1.92968E-03 1.09632E-01-1.57754E+07
 -1      2094 7.17461E+08 2.82361E+06 3.01813E+09 1.16714E-03 1.12276E-01-1.36688E+07
 -1      2096 7.17461E+08 2.82361E+06 3.01813E+09 1.16714E-03 1.12276E-01-1.36688E+07
 -1      2097 7.02094E+08 2.91199E+06 3.09802E+09-5.63925E-06 1.15263E-01-1.06693E+07
 -1      2099 7.02094E+08 2.91199E+06 3.09802E+09-5.63925E-06 1.15263E-01-1.06693E+07
 -1      2100 6.84746E+08 2.95832E+06 3.17125E+09 3.17727E-04 1.17247E-01-5.68492E+06
 -1      2102 6.84746E+08 2.95832E+06 3.17125E+09 3.17727E-04 1.17247E-01-5.68492E+06
 -1      2103 6.63588E+08 3.03808E+06 3.23926E+09 1.18412E-03 1.19106E-01 3.26494E+06
 -1      2105 6.63588E+08 3.03808E+06 3.23926E+09 1.18412E-03 1.19106E-01 3.26494E+06
 -1      2106 6.34731E+08 3.05555E+06 3.30440E+09 2.02230E-04 1.21758E-01 2.00665E+07
 -1      2108 6.34731E+08 3.05555E+06 3.30440E+09 2.02230E-04 1.21758E-01 2.00665E+07
 -1      2109 5.92267E+08 3.12933E+06 3.36809E+09-1.03515E-03 1.24563E-01 4.99606E+07
 -1      2111 5.92267E+08 3.12933E+06 3.36809E+09-1.03515E-03 1.24563E-01 4.99606E+07
 -1      2112 5.25541E+08 3.13029E+06 3.42498E+09-1.14079E-03 1.26736E-01 9.87481E+07
 -1      2114 5.25541E+08 3.13029E+06 3.42498E+09-1.14079E-03 1.26736E-01 9.87481E+07
 -1      2115 4.23796E+08 3.20035E+06 3.43961E+09-7.28937E-04 1.28623E-01 1.53857E+08
 -1      2117 4.23796E+08 3.20035E+06 3.43961E+09-7.28937E-04 1.28623E-01 1.53857E+08
 -1      2118 2.78136E+08 3.14847E+06 3.28990E+09-5.02318E-05 1.26732E-01 1.55081E+08
 -1      2120 2.78136E+08 3.14847E+06 3.28990E+09-5.02318E-05 1.26732E-01 1.55081E+08
 -1      2121 5.89267E+08 2.41815E+07 1.54487E+04 1.12230E+07-1.15741E+07 2.88756E+07
 -1      2123 5.89267E+08 2.41815E+07 1.54487E+04 1.12230E+07-1.15741E+07 2.88756E+07
 -1      2124 5.75841E+08-9.24796E+06-2.74888E+05-2.27003E+06-7.03246E+07-1.16663E+07
 -1      2126 5.75841E+08-9.24796E+06-2.74888E+05-2.27003E+06-7.03246E+07-1.16663E+07
 -1      2127 5.62113E+08 3.88704E+05-3.43241E+05 5.77302E+06-9.96393E+07 3.97292E+06
 -1      2129 5.62113E+08 3.88704E+05-3.43241E+05 5.77302E+06-9.96393E+07 3.97292E+06
 -1      2130 5.37422E+08-8.50388E+05-4.17584E+05 7.65781E+06-1.35682E+08-9.09344E+05
 -1      2132 5.37422E+08-8.50388E+05-4.17584E+05 7.65781E+06-1.35682E+08-9.09344E+05
 -1      2133 5.06393E+08-4.63265E+05-5.94989E+05 8.38465E+06-1.70829E+08-1.03541E+05
 -1      2135 5.06393E+08-4.63265E+05-5.94989E+05 8.38465E+06-1.70829E+08-1.03541E+05
 -1      2136 4.71481E+08-2.48102E+05-6.54662E+05 9.17969E+06-2.03634E+08 4.59521E+05
 -1      2138 4.71481E+08-2.48102E+05-6.54662E+05 9.17969E+06-2.03634E+08 4.59521E+05
 -1      2139 4.33353E+08-1.58931E+05-8.02279E+05 9.16909E+06-2.38140E+08-3.96339E+05
 -1      2141 4.33353E+08-1.58931E+05-8.02279E+05 9.16909E+06-2.38140E+08-3.96339E+05
 -1      2142 3.93178E+08-1.04374E+05-8.91471E+05 9.16983E+06-2.70009E+08 3.89246E+05
 -1      2144 3.93178E+08-1.04374E+05-8.91471E+05 9.16983E+06-2.70009E+08 3.89246E+05
 -1      2145 3.51211E+08-5.86093E+04-1.00663E+06 8.98093E+06-3.02810E+08-2.30114E+05
 -1      2147 3.51211E+08-5.86093E+04-1.00663E+06 8.98093E+06-3.02810E+08-2.30114E+05
 -1      2148 3.07978E+08-3.44419E+04-1.11096E+06 8.77505E+06-3.33509E+08 2.24602E+05
 -1      2150 3.07978E+08-3.44419E+04-1.11096E+06 8.77505E+06-3.33509E+08 2.24602E+05
 -1      2151 2.63702E+08-9.59260E+02-1.20722E+06 8.51079E+06-3.64330E+08-9.93983E+04
 -1      2153 2.63702E+08-9.59260E+02-1.20722E+06 8.51079E+06-3.64330E+08-9.93983E+04
 -1      2154 2.18738E+08 1.77252E+04-1.31331E+06 8.22666E+06-3.93380E+08 1.24054E+05
 -1      2156 2.18738E+08 1.77252E+04-1.31331E+06 8.22666E+06-3.93380E+08 1.24054E+05
 -1      2157 1.73331E+08 4.87313E+04-1.39851E+06 7.91250E+06-4.21991E+08-3.11870E+04
 -1      2159 1.73331E+08 4.87313E+04-1.39851E+06 7.91250E+06-4.21991E+08-3.11870E+04
 -1      2160 1.27789E+08 6.62445E+04-1.49901E+06 7.57628E+06-4.48963E+08 7.25161E+04
 -1      2162 1.27789E+08 6.62445E+04-1.49901E+06 7.57628E+06-4.48963E+08 7.25161E+04
 -1      2163 8.23702E+07 9.68221E+04-1.57627E+06 7.21868E+06-4.75109E+08-5.65777E+01
 -1      2165 8.23702E+07 9.68221E+04-1.57627E+06 7.21868E+06-4.75109E+08-5.65777E+01
 -1      2166 3.73655E+07 1.12278E+05-1.66732E+06 6.83658E+06-4.99638E+08 4.66637E+04
 -1      2168 3.73655E+07 1.12278E+05-1.66732E+06 6.83658E+06-4.99638E+08 4.66637E+04
 -1      2169-6.96736E+06 1.45935E+05-1.73756E+06 6.43833E+06-5.23062E+08 1.25289E+04
 -1      2171-6.96736E+06 1.45935E+05-1.73756E+06 6.43833E+06-5.23062E+08 1.25289E+04
 -1      2172-5.03408E+07 1.56137E+05-1.81680E+06 6.00625E+06-5.44831E+08 3.28422E+04
 -1      2174-5.03408E+07 1.56137E+05-1.81680E+06 6.00625E+06-5.44831E+08 3.28422E+04
 -1      2175-9.24983E+07 2.06538E+05-1.88027E+06 5.55718E+06-5.65291E+08 1.60186E+04
 -1      2177-9.24983E+07 2.06538E+05-1.88027E+06 5.55718E+06-5.65291E+08 1.60186E+04
 -1      2178-1.33112E+08 2.08978E+05-1.94584E+06 5.02959E+06-5.84023E+08 2.41957E+04
 -1      2180-1.33112E+08 2.08978E+05-1.94584E+06 5.02959E+06-5.84023E+08 2.41957E+04
 -1      2181-1.71858E+08 3.31159E+05-2.00276E+06 4.43609E+06-6.01306E+08 1.36895E+04
 -1      2183-1.71858E+08 3.31159E+05-2.00276E+06 4.43609E+06-6.01306E+08 1.36895E+04
 -1      2184-2.08159E+08 3.35476E+05-2.05308E+06 3.57286E+06-6.16762E+08 1.78525E+04
 -1      2186-2.08159E+08 3.35476E+05-2.05308E+06 3.57286E+06-6.16762E+08 1.78525E+04
 -1      2187-2.41216E+08 7.76138E+05-2.10354E+06 2.29798E+06-6.30697E+08 1.68803E+03
 -1      2189-2.41216E+08 7.76138E+05-2.10354E+06 2.29798E+06-6.30697E+08 1.68803E+03
 -1      2190-2.69428E+08 6.91453E+05-2.13711E+06 1.90981E+05-6.42676E+08 2.13898E+04
 -1      2192-2.69428E+08 6.91453E+05-2.13711E+06 1.90981E+05-6.42676E+08 2.13898E+04
 -1      2193-2.89754E+08 2.51613E+06-2.18395E+06-4.00459E+06-6.53137E+08-4.07304E+04
 -1      2195-2.89754E+08 2.51613E+06-2.18395E+06-4.00459E+06-6.53137E+08-4.07304E+04
 -1      2196-2.97739E+08 2.17178E+06-2.18615E+06-1.06043E+07-6.61487E+08 1.20448E+05
 -1      2198-2.97739E+08 2.17178E+06-2.18615E+06-1.06043E+07-6.61487E+08 1.20448E+05
 -1      2199-2.85583E+08 1.37522E+06-2.25210E+06-1.79255E+07-6.68311E+08-1.41880E+05
 -1      2201-2.85583E+08 1.37522E+06-2.25210E+06-1.79255E+07-6.68311E+08-1.41880E+05
 -1      2202-2.45441E+08 1.76738E+07-2.21396E+06-3.92489E+07-6.72975E+08 8.47719E+05
 -1      2204-2.45441E+08 1.76738E+07-2.21396E+06-3.92489E+07-6.72975E+08 8.47719E+05
 -1      2205-1.70871E+08-3.77673E+06-2.11090E+06-6.62226E+07-6.75362E+08-1.53172E+05
 -1      2207-1.70871E+08-3.77673E+06-2.11090E+06-6.62226E+07-6.75362E+08-1.53172E+05
 -1      2208 5.89267E+08 2.41815E+07 1.54487E+04-1.12230E+07 1.15741E+07 2.88756E+07
 -1      2210 5.89267E+08 2.41815E+07 1.54487E+04-1.12230E+07 1.15741E+07 2.88756E+07
 -1      2211 5.75841E+08-9.24796E+06-2.74888E+05 2.27003E+06 7.03246E+07-1.16663E+07
 -1      2213 5.75841E+08-9.24796E+06-2.74888E+05 2.27003E+06 7.03246E+07-1.16663E+07
 -1      2214 5.62113E+08 3.88704E+05-3.43241E+05-5.77302E+06 9.96393E+07 3.97292E+06
 -1      2216 5.62113E+08 3.88704E+05-3.43241E+05-5.77302E+06 9.96393E+07 3.97292E+06
 -1      2217 5.37422E+08-8.50388E+05-4.17584E+05-7.65781E+06 1.35682E+08-9.09344E+05
 -1      2219 5.37422E+08-8.50388E+05-4.17584E+05-7.65781E+06 1.35682E+08-9.09344E+05
 -1      2220 5.06393E+08-4.63265E+05-5.94989E+05-8.38465E+06 1.70829E+08-1.03541E+05
 -1      2222 5.06393E+08-4.63265E+05-5.94989E+05-8.38465E+06 1.70829E+08-1.03541E+05
 -1      2223 4.71481E+08-2.48101E+05-6.54662E+05-9.17969E+06 2.03634E+08 4.59521E+05
 -1      2225 4.71481E+08-2.48101E+05-6.54662E+05-9.17969E+06 2.03634E+08 4.59521E+05
 -1      2226 4.33353E+08-1.58931E+05-8.02279E+05-9.16909E+06 2.38140E+08-3.96339E+05
 -1      2228 4.33353E+08-1.58931E+05-8.02279E+05-9.16909E+06 2.38140E+08-3.96339E+05
 -1      2229 3.93178E+08-1.04374E+05-8.91471E+05-9.16983E+06 2.70009E+08 3.89246E+05
 -1      2231 3.93178E+08-1.04374E+05-8.91471E+05-9.16983E+06 2.70009E+08 3.89246E+05
 -1      2232 3.51211E+08-5.86093E+04-1.00663E+06-8.98093E+06 3.02810E+08-2.30114E+05
 -1      2234 3.51211E+08-5.86093E+04-1.00663E+06-8.98093E+06 3.02810E+08-2.30114E+05
 -1      2235 3.07978E+08-3.44419E+04-1.11096E+06-8.77505E+06 3.33509E+08 2.24602E+05
 -1      2237 3.07978E+08-3.44419E+04-1.11096E+06-8.77505E+06 3.33509E+08 2.24602E+05
 -1      2238 2.63702E+08-9.59236E+02-1.20722E+06-8.51080E+06 3.64330E+08-9.93983E+04
 -1      2240 2.63702E+08-9.59236E+02-1.20722E+06-8.51080E+06 3.64330E+08-9.93983E+04
 -1      2241 2.18738E+08 1.77252E+04-1.31331E+06-8.22666E+06 3.93380E+08 1.24054E+05
 -1      2243 2.18738E+08 1.77252E+04-1.31331E+06-8.22666E+06 3.93380E+08 1.24054E+05
 -1      2244 1.73331E+08 4.87314E+04-1.39851E+06-7.91250E+06 4.21991E+08-3.11871E+04
 -1      2246 1.73331E+08 4.87314E+04-1.39851E+06-7.91250E+06 4.21991E+08-3.11871E+04
 -1      2247 1.27789E+08 6.62445E+04-1.49901E+06-7.57628E+06 4.48963E+08 7.25161E+04
 -1      2249 1.27789E+08 6.62445E+04-1.49901E+06-7.57628E+06 4.48963E+08 7.25161E+04
 -1      2250 8.23702E+07 9.68221E+04-1.57627E+06-7.21868E+06 4.75109E+08-5.65800E+01
 -1      2252 8.23702E+07 9.68221E+04-1.57627E+06-7.21868E+06 4.75109E+08-5.65800E+01
 -1      2253 3.73655E+07 1.12278E+05-1.66732E+06-6.83658E+06 4.99638E+08 4.66637E+04
 -1      2255 3.73655E+07 1.12278E+05-1.66732E+06-6.83658E+06 4.99638E+08 4.66637E+04
 -1      2256-6.96736E+06 1.45935E+05-1.73756E+06-6.43833E+06 5.23062E+08 1.25289E+04
 -1      2258-6.96736E+06 1.45935E+05-1.73756E+06-6.43833E+06 5.23062E+08 1.25289E+04
 -1      2259-5.03408E+07 1.56137E+05-1.81680E+06-6.00625E+06 5.44831E+08 3.28422E+04
 -1      2261-5.03408E+07 1.56137E+05-1.81680E+06-6.00625E+06 5.44831E+08 3.28422E+04
 -1      2262-9.24983E+07 2.06538E+05-1.88027E+06-5.55718E+06 5.65291E+08 1.60186E+04
 -1      2264-9.24983E+07 2.06538E+05-1.88027E+06-5.55718E+06 5.65291E+08 1.60186E+04
 -1      2265-1.33112E+08 2.08978E+05-1.94584E+06-5.02959E+06 5.84023E+08 2.41957E+04
 -1      2267-1.33112E+08 2.08978E+05-1.94584E+06-5.02959E+06 5.84023E+08 2.41957E+04
 -1      2268-1.71858E+08 3.31159E+05-2.00276E+06-4.43609E+06 6.01306E+08 1.36895E+04
 -1      2270-1.71858E+08 3.31159E+05-2.00276E+06-4.43609E+06 6.01306E+08 1.36895E+04
 -1      2271-2.08159E+08 3.35476E+05-2.05308E+06-3.57286E+06 6.16762E+08 1.78525E+04
 -1      2273-2.08159E+08 3.35476E+05-2.05308E+06-3.57286E+06 6.16762E+08 1.78525E+04
 -1      2274-2.41216E+08 7.76138E+05-2.10354E+06-2.29798E+06 6.30697E+08 1.68803E+03
 -1      2276-2.41216E+08 7.76138E+05-2.10354E+06-2.29798E+06 6.30697E+08 1.68803E+03
 -1      2277-2.69428E+08 6.91453E+05-2.13711E+06-1.90980E+05 6.42676E+08 2.13898E+04
 -1      2279-2.69428E+08 6.91453E+05-2.13711E+06-1.90980E+05 6.42676E+08 2.13898E+04
 -1      2280-2.89754E+08 2.51613E+06-2.18395E+06 4.00459E+06 6.53137E+08-4.07304E+04
 -1      2282-2.89754E+08 2.51613E+06-2.18395E+06 4.00459E+06 6.53137E+08-4.07304E+04
 -1      2283-2.97739E+08 2.17178E+06-2.18615E+06 1.06043E+07 6.61487E+08 1.20448E+05
 -1      2285-2.97739E+08 2.17178E+06-2.18615E+06 1.06043E+07 6.61487E+08 1.20448E+05
 -1      2286-2.85583E+08 1.37522E+06-2.25210E+06 1.79255E+07 6.68311E+08-1.41880E+05
 -1      2288-2.85583E+08 1.37522E+06-2.25210E+06 1.79255E+07 6.68311E+08-1.41880E+05
 -1      2289-2.45441E+08 1.76738E+07-2.21396E+06 3.92489E+07 6.72975E+08 8.47719E+05
 -1      2291-2.45441E+08 1.76738E+07-2.21396E+06 3.92489E+07 6.72975E+08 8.47719E+05
 -1      2292-1.70871E+08-3.77673E+06-2.11090E+06 6.62226E+07 6.75362E+08-1.53172E+05
 -1      2294-1.70871E+08-3.77673E+06-2.11090E+06 6.62226E+07 6.75362E+08-1.53172E+05
 -3
    1PSTEP                        63           1           1          
    1PGM                1.000000E+00                                  
    1PGK                1.338004E+07                                  
    1PHID                         -1                                  
    1PSUBC                         0                                  
    1PMODE                        16                                  
  100CL  116 582.1687554         930                     2   16MODAL      1
 -4  FORC        4    1
 -5  F1          1    2    1    0
 -5  F2          1    2    2    0
 -5  F3          1    2    3    0
 -5  ALL         1    2    0    0    1ALL
 -1       404 3.09519E+05 1.32605E+05 3.75181E+05
 -1       406-5.18796E+05-7.89384E+04 3.75181E+05
 -1       407 1.34238E+03-6.40991E-01-1.45041E+05
 -1       409 1.34238E+03-6.40995E-01-1.45041E+05
 -1       410-1.58668E+05 3.95657E-04 6.75290E+05
 -1       412-1.58668E+05-5.85219E-04 6.36281E+05
 -1       413 1.62655E+05-3.06176E+04-7.30661E+05
 -1       415 1.62655E+05 3.06176E+04-7.30661E+05
 -1       424-4.22968E+05 7.28066E-05-3.47005E+05
 -1       426 9.26056E+04 8.54741E-05-3.46506E+05
 -1       427-1.68045E+05 3.91633E+02-6.01800E+04
 -1       429-1.68045E+05-3.91633E+02-6.01800E+04
 -1       438 1.34238E+03 6.41007E-01-1.45041E+05
 -1       440 1.34238E+03 6.41008E-01-1.45041E+05
 -1       441 3.09519E+05-1.32605E+05 3.75181E+05
 -1       443-5.18796E+05 7.89384E+04 3.75181E+05
 -1       444-1.68045E+05 3.91633E+02 6.01800E+04
 -1       446-1.68045E+05-3.91633E+02 6.01800E+04
 -1       447-4.22968E+05-9.09640E-08 3.47005E+05
 -1       449 9.26056E+04 9.30635E-06 3.46506E+05
 -1       458 1.62655E+05-3.06176E+04 7.30661E+05
 -1       460 1.62655E+05 3.06176E+04 7.30661E+05
 -1       461-1.58668E+05 5.07404E-04-6.75290E+05
 -1       463-1.58668E+05-4.83840E-04-6.36281E+05
 -1       472 3.09519E+05-1.32605E+05-3.75181E+05
 -1       474-5.18796E+05 7.89384E+04-3.75181E+05
 -1       475 1.34238E+03 6.41004E-01 1.45041E+05
 -1       477 1.34238E+03 6.41002E-01 1.45041E+05
 -1       478 1.34238E+03-6.40996E-01 1.45041E+05
 -1       480 1.34238E+03-6.40997E-01 1.45041E+05
 -1       481 3.09519E+05 1.32605E+05-3.75181E+05
 -1       483-5.18796E+05-7.89384E+04-3.75181E+05
 -1       484 4.42564E+02-7.71344E+01-1.31108E+04
 -1       486 4.42564E+02-7.71344E+01-1.31108E+04
 -1       487 8.80849E+02-9.37702E+01-2.80970E+04
 -1       489 8.80849E+02-9.37702E+01-2.80970E+04
 -1       490 1.31167E+03-8.64992E+01-4.32793E+04
 -1       492 1.31167E+03-8.64992E+01-4.32793E+04
 -1       493 1.72858E+03-8.29752E+01-5.81314E+04
 -1       495 1.72858E+03-8.29752E+01-5.81314E+04
 -1       496 2.12464E+03-7.81042E+01-7.29142E+04
 -1       498 2.12464E+03-7.81042E+01-7.29142E+04
 -1       499 2.49597E+03-7.24567E+01-8.74682E+04
 -1       501 2.49597E+03-7.24567E+01-8.74682E+04
 -1       502 2.83975E+03-6.65438E+01-1.01812E+05
 -1       504 2.83975E+03-6.65438E+01-1.01812E+05
 -1       505 3.15387E+03-6.02710E+01-1.15881E+05
 -1       507 3.15387E+03-6.02710E+01-1.15881E+05
 -1       508 3.43687E+03-5.37684E+01-1.29649E+05
 -1       510 3.43687E+03-5.37684E+01-1.29649E+05
 -1       511 3.68756E+03-4.70632E+01-1.43071E+05
 -1       513 3.68756E+03-4.70632E+01-1.43071E+05
 -1       514 3.90505E+03-4.02087E+01-1.56111E+05
 -1       516 3.90505E+03-4.02087E+01-1.56111E+05
 -1       517 4.08869E+03-3.32466E+01-1.68732E+05
 -1       519 4.08869E+03-3.32466E+01-1.68732E+05
 -1       520 4.23803E+03-2.62199E+01-1.80896E+05
 -1       522 4.23803E+03-2.62199E+01-1.80896E+05
 -1       523 4.35287E+03-1.91729E+01-1.92571E+05
 -1       525 4.35287E+03-1.91729E+01-1.92571E+05
 -1       526 4.43319E+03-1.21467E+01-2.03721E+05
 -1       528 4.43319E+03-1.21467E+01-2.03721E+05
 -1       529 4.47919E+03-5.18558E+00-2.14314E+05
 -1       531 4.47919E+03-5.18558E+00-2.14314E+05
 -1       532 4.49129E+03 1.67132E+00-2.24321E+05
 -1       534 4.49129E+03 1.67132E+00-2.24321E+05
 -1       535 4.47011E+03 8.37921E+00-2.33713E+05
 -1       537 4.47011E+03 8.37921E+00-2.33713E+05
 -1       538 4.41647E+03 1.49031E+01-2.42461E+05
 -1       540 4.41647E+03 1.49031E+01-2.42461E+05
 -1       541 4.33144E+03 2.11915E+01-2.50541E+05
 -1       543 4.33144E+03 2.11915E+01-2.50541E+05
 -1       544 4.21632E+03 2.72154E+01-2.57929E+05
 -1       546 4.21632E+03 2.72155E+01-2.57929E+05
 -1       547 4.07280E+03 3.28790E+01-2.64606E+05
 -1       549 4.07280E+03 3.28790E+01-2.64606E+05
 -1       550 3.90311E+03 3.81811E+01-2.70553E+05
 -1       552 3.90311E+03 3.81811E+01-2.70553E+05
 -1       553 3.71056E+03 4.26609E+01-2.75756E+05
 -1       555 3.71056E+03 4.26609E+01-2.75756E+05
 -1       556 3.50016E+03 4.67666E+01-2.80203E+05
 -1       558 3.50016E+03 4.67666E+01-2.80203E+05
 -1       559 3.28064E+03 4.82754E+01-2.83886E+05
 -1       561 3.28064E+03 4.82754E+01-2.83886E+05
 -1       562 3.06315E+03 4.55128E+01-2.86787E+05
 -1       564 3.06315E+03 4.55128E+01-2.86787E+05
 -1       565 2.86608E+03 4.97733E+01-2.88837E+05
 -1       567 2.86608E+03 4.97733E+01-2.88837E+05
 -1       568 2.73034E+03 2.74044E+01-2.89858E+05
 -1       570 2.73034E+03 2.74044E+01-2.89858E+05
 -1       571 2.62760E+03-1.01098E+00-1.81236E+05
 -1       573 2.62760E+03-1.01099E+00-1.81236E+05
 -1       574 2.07412E+04 1.88547E-05-8.35249E+04
 -1       576 2.07412E+04-5.58564E-05-7.97180E+04
 -1       577-1.91587E+04 2.98795E+03 7.59474E+04
 -1       579-1.91587E+04-2.98795E+03 7.59474E+04
 -1       588 3.94939E+03 1.13615E-05 1.72246E+05
 -1       590 3.94939E+03-1.90949E-04 1.62039E+05
 -1       591-7.90644E+02-8.01137E+03-1.80626E+05
 -1       593-7.90644E+02 8.01137E+03-1.80626E+05
 -1       602 1.62404E+04 1.72542E-04 1.97377E+05
 -1       604 1.62404E+04-1.39777E-04 1.84404E+05
 -1       605-1.15594E+04-1.01825E+04-2.12450E+05
 -1       607-1.15594E+04 1.01825E+04-2.12450E+05
 -1       616 2.54876E+04 2.22483E-04 2.59864E+05
 -1       618 2.54876E+04-2.48114E-04 2.45331E+05
 -1       619-1.93606E+04-1.14070E+04-2.81877E+05
 -1       621-1.93606E+04 1.14070E+04-2.81877E+05
 -1       630 2.67588E+04 2.69780E-04 3.49131E+05
 -1       632 2.67588E+04-3.43890E-04 3.27120E+05
 -1       633-1.92677E+04-1.72765E+04-3.75127E+05
 -1       635-1.92677E+04 1.72765E+04-3.75127E+05
 -1       644 3.03167E+04 3.29441E-04 3.95632E+05
 -1       646 3.03167E+04-3.96923E-04 3.72535E+05
 -1       647-2.15538E+04-1.81281E+04-4.28653E+05
 -1       649-2.15538E+04 1.81281E+04-4.28653E+05
 -1       658 3.02796E+04 4.03539E-04 4.79442E+05
 -1       660 3.02796E+04-4.61737E-04 4.50063E+05
 -1       661-2.03431E+04-2.30588E+04-5.16783E+05
 -1       663-2.03431E+04 2.30588E+04-5.16783E+05
 -1       672 3.13443E+04 4.48362E-04 5.31810E+05
 -1       674 3.13443E+04-5.53190E-04 5.00130E+05
 -1       675-2.03375E+04-2.48653E+04-5.75316E+05
 -1       677-2.03375E+04 2.48653E+04-5.75316E+05
 -1       686 3.10519E+04 5.15921E-04 6.04968E+05
 -1       688 3.10519E+04-5.93863E-04 5.68318E+05
 -1       689-1.90826E+04-2.87658E+04-6.53149E+05
 -1       691-1.90826E+04 2.87658E+04-6.53149E+05
 -1       700 3.12163E+04 5.94662E-04 6.60794E+05
 -1       702 3.12163E+04-6.09117E-04 6.21146E+05
 -1       703-1.83957E+04-3.11193E+04-7.14460E+05
 -1       705-1.83957E+04 3.11193E+04-7.14460E+05
 -1       714 3.07814E+04 6.24580E-04 7.25765E+05
 -1       716 3.07814E+04-6.36704E-04 6.81973E+05
 -1       717-1.72238E+04-3.43716E+04-7.84144E+05
 -1       719-1.72238E+04 3.43716E+04-7.84144E+05
 -1       728 3.04792E+04 5.98037E-04 7.81311E+05
 -1       730 3.04792E+04-6.77876E-04 7.34317E+05
 -1       731-1.63009E+04-3.68845E+04-8.44660E+05
 -1       733-1.63009E+04 3.68845E+04-8.44660E+05
 -1       742 2.98631E+04 5.68775E-04 8.39830E+05
 -1       744 2.98631E+04-7.29056E-04 7.89220E+05
 -1       745-1.51820E+04-3.97230E+04-9.07706E+05
 -1       747-1.51820E+04 3.97230E+04-9.07706E+05
 -1       756 2.92220E+04 5.95206E-04 8.92626E+05
 -1       758 2.92220E+04-7.39369E-04 8.38898E+05
 -1       759-1.41567E+04-4.21700E+04-9.65026E+05
 -1       761-1.41567E+04 4.21700E+04-9.65026E+05
 -1       770 2.83950E+04 6.56682E-04 9.45327E+05
 -1       772 2.83950E+04-7.51299E-04 8.88374E+05
 -1       773-1.30638E+04-4.47013E+04-1.02193E+06
 -1       775-1.30638E+04 4.47013E+04-1.02193E+06
 -1       784 2.74588E+04 7.27314E-04 9.93856E+05
 -1       786 2.74588E+04-8.14583E-04 9.34032E+05
 -1       787-1.19797E+04-4.69554E+04-1.07454E+06
 -1       789-1.19797E+04 4.69554E+04-1.07454E+06
 -1       798 2.64154E+04 7.88903E-04 1.04076E+06
 -1       800 2.64154E+04-8.55550E-04 9.78046E+05
 -1       801-1.09047E+04-4.92223E+04-1.12522E+06
 -1       803-1.09047E+04 4.92223E+04-1.12522E+06
 -1       812 2.51834E+04 8.06127E-04 1.08403E+06
 -1       814 2.51834E+04-8.58104E-04 1.01879E+06
 -1       815-9.75542E+03-5.12025E+04-1.17213E+06
 -1       817-9.75542E+03 5.12025E+04-1.17213E+06
 -1       826 2.39115E+04 7.97478E-04 1.12489E+06
 -1       828 2.39115E+04-8.76726E-04 1.05708E+06
 -1       829-8.67764E+03-5.32225E+04-1.21627E+06
 -1       831-8.67764E+03 5.32225E+04-1.21627E+06
 -1       840 2.22649E+04 8.10991E-04 1.16220E+06
 -1       842 2.22649E+04-9.01855E-04 1.09229E+06
 -1       843-7.33328E+03-5.48696E+04-1.25676E+06
 -1       845-7.33328E+03 5.48696E+04-1.25676E+06
 -1       854 2.05784E+04 8.36327E-04 1.19668E+06
 -1       856 2.05784E+04-9.12676E-04 1.12451E+06
 -1       857-6.05284E+03-5.66454E+04-1.29397E+06
 -1       859-6.05284E+03 5.66454E+04-1.29397E+06
 -1       868 1.78771E+04 8.20313E-04 1.22752E+06
 -1       870 1.78771E+04-9.30855E-04 1.15372E+06
 -1       871-3.85682E+03-5.79248E+04-1.32750E+06
 -1       873-3.85682E+03 5.79248E+04-1.32750E+06
 -1       882 1.45789E+04 8.01834E-04 1.25526E+06
 -1       884 1.45789E+04-9.13103E-04 1.17956E+06
 -1       885-1.15764E+03-5.94163E+04-1.35742E+06
 -1       887-1.15764E+03 5.94163E+04-1.35742E+06
 -1       896 8.28411E+03 8.27106E-04 1.27940E+06
 -1       898 8.28411E+03-8.70800E-04 1.20251E+06
 -1       899 4.45097E+03-6.03541E+04-1.38373E+06
 -1       901 4.45097E+03 6.03541E+04-1.38373E+06
 -1       910-2.15257E+03 8.48448E-04 1.29986E+06
 -1       912-2.15257E+03-8.61051E-04 1.22160E+06
 -1       913 1.41223E+04-6.14239E+04-1.40591E+06
 -1       915 1.41223E+04 6.14239E+04-1.40591E+06
 -1       924-1.91065E+04 8.16337E-04 1.31772E+06
 -1       926-1.91065E+04-8.87788E-04 1.23873E+06
 -1       927 3.02428E+04-6.19970E+04-1.42546E+06
 -1       929 3.02428E+04 6.19970E+04-1.42546E+06
 -1       938-4.84409E+04 7.80123E-04 1.32947E+06
 -1       940-4.84409E+04-9.16960E-04 1.24956E+06
 -1       941 5.86998E+04-6.27211E+04-1.43844E+06
 -1       943 5.86998E+04 6.27211E+04-1.43844E+06
 -1       952-8.45835E+04 8.15480E-04 1.34351E+06
 -1       954-8.45835E+04-9.09579E-04 1.26390E+06
 -1       955 9.39423E+04-6.24781E+04-1.45378E+06
 -1       957 9.39423E+04 6.24781E+04-1.45378E+06
 -1       966-1.29987E+05 8.97798E-04 1.33704E+06
 -1       968-1.29987E+05-9.52232E-04 1.25952E+06
 -1       969 1.38426E+05-6.08499E+04-1.44839E+06
 -1       971 1.38426E+05 6.08499E+04-1.44839E+06
 -1       980 1.08666E+05 9.07972E+04-1.49291E+05
 -1       982-4.61862E+05-5.68567E+04-1.49291E+05
 -1       983 2.62760E+03 1.01101E+00-1.81236E+05
 -1       985 2.62760E+03 1.01101E+00-1.81236E+05
 -1       986 4.42564E+02 7.71344E+01-1.31108E+04
 -1       988 4.42564E+02 7.71344E+01-1.31108E+04
 -1       989 8.80849E+02 9.37702E+01-2.80970E+04
 -1       991 8.80849E+02 9.37702E+01-2.80970E+04
 -1       992 1.31167E+03 8.64992E+01-4.32793E+04
 -1       994 1.31167E+03 8.64992E+01-4.32793E+04
 -1       995 1.72858E+03 8.29751E+01-5.81314E+04
 -1       997 1.72858E+03 8.29751E+01-5.81314E+04
 -1       998 2.12464E+03 7.81041E+01-7.29142E+04
 -1      1000 2.12464E+03 7.81041E+01-7.29142E+04
 -1      1001 2.49597E+03 7.24567E+01-8.74682E+04
 -1      1003 2.49597E+03 7.24567E+01-8.74682E+04
 -1      1004 2.83975E+03 6.65438E+01-1.01812E+05
 -1      1006 2.83975E+03 6.65438E+01-1.01812E+05
 -1      1007 3.15387E+03 6.02710E+01-1.15881E+05
 -1      1009 3.15387E+03 6.02710E+01-1.15881E+05
 -1      1010 3.43687E+03 5.37684E+01-1.29649E+05
 -1      1012 3.43687E+03 5.37684E+01-1.29649E+05
 -1      1013 3.68756E+03 4.70632E+01-1.43071E+05
 -1      1015 3.68756E+03 4.70632E+01-1.43071E+05
 -1      1016 3.90505E+03 4.02087E+01-1.56111E+05
 -1      1018 3.90505E+03 4.02087E+01-1.56111E+05
 -1      1019 4.08869E+03 3.32467E+01-1.68732E+05
 -1      1021 4.08869E+03 3.32467E+01-1.68732E+05
 -1      1022 4.23803E+03 2.62200E+01-1.80896E+05
 -1      1024 4.23803E+03 2.62200E+01-1.80896E+05
 -1      1025 4.35287E+03 1.91730E+01-1.92571E+05
 -1      1027 4.35287E+03 1.91730E+01-1.92571E+05
 -1      1028 4.43319E+03 1.21467E+01-2.03721E+05
 -1      1030 4.43319E+03 1.21467E+01-2.03721E+05
 -1      1031 4.47919E+03 5.18561E+00-2.14314E+05
 -1      1033 4.47919E+03 5.18561E+00-2.14314E+05
 -1      1034 4.49129E+03-1.67131E+00-2.24321E+05
 -1      1036 4.49129E+03-1.67130E+00-2.24321E+05
 -1      1037 4.47011E+03-8.37921E+00-2.33713E+05
 -1      1039 4.47011E+03-8.37921E+00-2.33713E+05
 -1      1040 4.41647E+03-1.49031E+01-2.42461E+05
 -1      1042 4.41647E+03-1.49031E+01-2.42461E+05
 -1      1043 4.33144E+03-2.11915E+01-2.50541E+05
 -1      1045 4.33144E+03-2.11915E+01-2.50541E+05
 -1      1046 4.21632E+03-2.72155E+01-2.57929E+05
 -1      1048 4.21632E+03-2.72155E+01-2.57929E+05
 -1      1049 4.07280E+03-3.28790E+01-2.64606E+05
 -1      1051 4.07280E+03-3.28790E+01-2.64606E+05
 -1      1052 3.90311E+03-3.81811E+01-2.70553E+05
 -1      1054 3.90311E+03-3.81811E+01-2.70553E+05
 -1      1055 3.71056E+03-4.26609E+01-2.75756E+05
 -1      1057 3.71056E+03-4.26609E+01-2.75756E+05
 -1      1058 3.50016E+03-4.67666E+01-2.80203E+05
 -1      1060 3.50016E+03-4.67666E+01-2.80203E+05
 -1      1061 3.28064E+03-4.82754E+01-2.83886E+05
 -1      1063 3.28064E+03-4.82754E+01-2.83886E+05
 -1      1064 3.06315E+03-4.55128E+01-2.86787E+05
 -1      1066 3.06315E+03-4.55128E+01-2.86787E+05
 -1      1067 2.86608E+03-4.97732E+01-2.88837E+05
 -1      1069 2.86608E+03-4.97732E+01-2.88837E+05
 -1      1070 2.73034E+03-2.74043E+01-2.89858E+05
 -1      1072 2.73034E+03-2.74043E+01-2.89858E+05
 -1      1073 1.08666E+05-9.07972E+04-1.49291E+05
 -1      1075-4.61862E+05 5.68567E+04-1.49291E+05
 -1      1076-2.93477E+05 6.81397E-05-5.96889E+04
 -1      1078-2.93477E+05 6.87783E-05-5.96889E+04
 -1      1079-3.27586E+05 2.53318E-04-1.36349E-04
 -1      1081-3.27586E+05 2.53830E-04-1.31120E-04
 -1      1082-2.93477E+05 4.56653E-05 5.96889E+04
 -1      1084-2.93477E+05 4.44274E-05 5.96889E+04
 -1      1085-1.91587E+04 2.98795E+03-7.59474E+04
 -1      1087-1.91587E+04-2.98795E+03-7.59474E+04
 -1      1088 2.07412E+04 5.54745E-05 8.35249E+04
 -1      1090 2.07412E+04 4.21779E-05 7.97180E+04
 -1      1099-7.90643E+02-8.01137E+03 1.80626E+05
 -1      1101-7.90643E+02 8.01137E+03 1.80626E+05
 -1      1102 3.94939E+03-9.98720E-06-1.72246E+05
 -1      1104 3.94939E+03-3.56699E-05-1.62039E+05
 -1      1113-1.15594E+04-1.01825E+04 2.12450E+05
 -1      1115-1.15594E+04 1.01825E+04 2.12450E+05
 -1      1116 1.62404E+04 7.93693E-05-1.97377E+05
 -1      1118 1.62404E+04 1.00045E-05-1.84404E+05
 -1      1127-1.93606E+04-1.14070E+04 2.81877E+05
 -1      1129-1.93606E+04 1.14070E+04 2.81877E+05
 -1      1130 2.54876E+04 1.04831E-04-2.59864E+05
 -1      1132 2.54876E+04-1.06936E-04-2.45331E+05
 -1      1141-1.92677E+04-1.72765E+04 3.75127E+05
 -1      1143-1.92677E+04 1.72765E+04 3.75127E+05
 -1      1144 2.67588E+04 1.52145E-04-3.49131E+05
 -1      1146 2.67588E+04-2.44498E-04-3.27120E+05
 -1      1155-2.15538E+04-1.81281E+04 4.28653E+05
 -1      1157-2.15538E+04 1.81281E+04 4.28653E+05
 -1      1158 3.03167E+04 2.49573E-04-3.95632E+05
 -1      1160 3.03167E+04-3.39353E-04-3.72535E+05
 -1      1169-2.03431E+04-2.30588E+04 5.16783E+05
 -1      1171-2.03431E+04 2.30588E+04 5.16783E+05
 -1      1172 3.02796E+04 3.28500E-04-4.79442E+05
 -1      1174 3.02796E+04-4.69485E-04-4.50063E+05
 -1      1183-2.03375E+04-2.48653E+04 5.75316E+05
 -1      1185-2.03375E+04 2.48653E+04 5.75316E+05
 -1      1186 3.13443E+04 3.91208E-04-5.31810E+05
 -1      1188 3.13443E+04-5.66219E-04-5.00130E+05
 -1      1197-1.90826E+04-2.87658E+04 6.53149E+05
 -1      1199-1.90826E+04 2.87658E+04 6.53149E+05
 -1      1200 3.10519E+04 4.88325E-04-6.04968E+05
 -1      1202 3.10519E+04-5.66737E-04-5.68318E+05
 -1      1211-1.83957E+04-3.11193E+04 7.14460E+05
 -1      1213-1.83957E+04 3.11193E+04 7.14460E+05
 -1      1214 3.12163E+04 5.82528E-04-6.60794E+05
 -1      1216 3.12163E+04-5.72719E-04-6.21146E+05
 -1      1225-1.72238E+04-3.43716E+04 7.84144E+05
 -1      1227-1.72238E+04 3.43716E+04 7.84144E+05
 -1      1228 3.07814E+04 6.36511E-04-7.25765E+05
 -1      1230 3.07814E+04-6.49614E-04-6.81973E+05
 -1      1239-1.63009E+04-3.68845E+04 8.44660E+05
 -1      1241-1.63009E+04 3.68845E+04 8.44660E+05
 -1      1242 3.04792E+04 6.57963E-04-7.81311E+05
 -1      1244 3.04792E+04-7.70065E-04-7.34317E+05
 -1      1253-1.51820E+04-3.97230E+04 9.07706E+05
 -1      1255-1.51820E+04 3.97230E+04 9.07706E+05
 -1      1256 2.98631E+04 6.92576E-04-8.39830E+05
 -1      1258 2.98631E+04-8.53066E-04-7.89220E+05
 -1      1267-1.41567E+04-4.21700E+04 9.65026E+05
 -1      1269-1.41567E+04 4.21700E+04 9.65026E+05
 -1      1270 2.92220E+04 7.58961E-04-8.92626E+05
 -1      1272 2.92220E+04-8.59418E-04-8.38898E+05
 -1      1281-1.30638E+04-4.47013E+04 1.02193E+06
 -1      1283-1.30638E+04 4.47013E+04 1.02193E+06
 -1      1284 2.83950E+04 7.90938E-04-9.45327E+05
 -1      1286 2.83950E+04-8.43446E-04-8.88374E+05
 -1      1295-1.19797E+04-4.69554E+04 1.07454E+06
 -1      1297-1.19797E+04 4.69554E+04 1.07454E+06
 -1      1298 2.74588E+04 7.65115E-04-9.93856E+05
 -1      1300 2.74588E+04-8.54633E-04-9.34032E+05
 -1      1309-1.09047E+04-4.92223E+04 1.12522E+06
 -1      1311-1.09047E+04 4.92223E+04 1.12522E+06
 -1      1312 2.64154E+04 7.39453E-04-1.04076E+06
 -1      1314 2.64154E+04-8.55365E-04-9.78046E+05
 -1      1323-9.75542E+03-5.12025E+04 1.17213E+06
 -1      1325-9.75542E+03 5.12025E+04 1.17213E+06
 -1      1326 2.51834E+04 7.09169E-04-1.08403E+06
 -1      1328 2.51834E+04-8.28954E-04-1.01879E+06
 -1      1337-8.67764E+03-5.32225E+04 1.21627E+06
 -1      1339-8.67764E+03 5.32225E+04 1.21627E+06
 -1      1340 2.39115E+04 6.56436E-04-1.12489E+06
 -1      1342 2.39115E+04-8.52547E-04-1.05708E+06
 -1      1351-7.33328E+03-5.48696E+04 1.25676E+06
 -1      1353-7.33328E+03 5.48696E+04 1.25676E+06
 -1      1354 2.22649E+04 6.93985E-04-1.16220E+06
 -1      1356 2.22649E+04-8.62531E-04-1.09229E+06
 -1      1365-6.05284E+03-5.66454E+04 1.29397E+06
 -1      1367-6.05284E+03 5.66454E+04 1.29397E+06
 -1      1368 2.05784E+04 7.96328E-04-1.19668E+06
 -1      1370 2.05784E+04-8.55564E-04-1.12451E+06
 -1      1379-3.85682E+03-5.79248E+04 1.32750E+06
 -1      1381-3.85682E+03 5.79248E+04 1.32750E+06
 -1      1382 1.78771E+04 8.01843E-04-1.22752E+06
 -1      1384 1.78771E+04-9.03558E-04-1.15372E+06
 -1      1393-1.15764E+03-5.94163E+04 1.35742E+06
 -1      1395-1.15764E+03 5.94163E+04 1.35742E+06
 -1      1396 1.45789E+04 7.71128E-04-1.25526E+06
 -1      1398 1.45789E+04-9.43982E-04-1.17956E+06
 -1      1407 4.45097E+03-6.03541E+04 1.38373E+06
 -1      1409 4.45097E+03 6.03541E+04 1.38373E+06
 -1      1410 8.28411E+03 8.18908E-04-1.27940E+06
 -1      1412 8.28411E+03-9.32932E-04-1.20251E+06
 -1      1421 1.41223E+04-6.14239E+04 1.40591E+06
 -1      1423 1.41223E+04 6.14239E+04 1.40591E+06
 -1      1424-2.15257E+03 8.96270E-04-1.29986E+06
 -1      1426-2.15257E+03-9.26335E-04-1.22160E+06
 -1      1435 3.02428E+04-6.19970E+04 1.42546E+06
 -1      1437 3.02428E+04 6.19970E+04 1.42546E+06
 -1      1438-1.91065E+04 9.17958E-04-1.31772E+06
 -1      1440-1.91065E+04-9.70071E-04-1.23873E+06
 -1      1449 5.86998E+04-6.27211E+04 1.43844E+06
 -1      1451 5.86998E+04 6.27211E+04 1.43844E+06
 -1      1452-4.84409E+04 9.16257E-04-1.32947E+06
 -1      1454-4.84409E+04-1.02121E-03-1.24956E+06
 -1      1463 9.39423E+04-6.24781E+04 1.45378E+06
 -1      1465 9.39423E+04 6.24781E+04 1.45378E+06
 -1      1466-8.45835E+04 9.14177E-04-1.34351E+06
 -1      1468-8.45835E+04-1.07694E-03-1.26390E+06
 -1      1477 1.38426E+05-6.08499E+04 1.44839E+06
 -1      1479 1.38426E+05 6.08499E+04 1.44839E+06
 -1      1480-1.29987E+05 9.23834E-04-1.33704E+06
 -1      1482-1.29987E+05-1.08185E-03-1.25952E+06
 -1      1491 2.38707E+03-3.08631E-05-3.30991E+03
 -1      1493 2.38707E+03-9.74001E-07-3.30991E+03
 -1      1494 1.94155E+03-6.64053E-05 8.53014E-06
 -1      1496 1.94155E+03-4.07392E-05 4.60938E-06
 -1      1497 2.38707E+03-3.71330E-05 3.30991E+03
 -1      1499 2.38707E+03-2.36288E-05 3.30991E+03
 -1      1500 4.42564E+02 7.71344E+01 1.31108E+04
 -1      1502 4.42564E+02 7.71344E+01 1.31108E+04
 -1      1503 8.80849E+02 9.37702E+01 2.80970E+04
 -1      1505 8.80849E+02 9.37702E+01 2.80970E+04
 -1      1506 1.31167E+03 8.64992E+01 4.32793E+04
 -1      1508 1.31167E+03 8.64992E+01 4.32793E+04
 -1      1509 1.72858E+03 8.29752E+01 5.81314E+04
 -1      1511 1.72858E+03 8.29752E+01 5.81314E+04
 -1      1512 2.12464E+03 7.81042E+01 7.29142E+04
 -1      1514 2.12464E+03 7.81042E+01 7.29142E+04
 -1      1515 2.49597E+03 7.24567E+01 8.74682E+04
 -1      1517 2.49597E+03 7.24567E+01 8.74682E+04
 -1      1518 2.83975E+03 6.65438E+01 1.01812E+05
 -1      1520 2.83975E+03 6.65438E+01 1.01812E+05
 -1      1521 3.15387E+03 6.02710E+01 1.15881E+05
 -1      1523 3.15387E+03 6.02710E+01 1.15881E+05
 -1      1524 3.43687E+03 5.37684E+01 1.29649E+05
 -1      1526 3.43687E+03 5.37684E+01 1.29649E+05
 -1      1527 3.68756E+03 4.70632E+01 1.43071E+05
 -1      1529 3.68756E+03 4.70632E+01 1.43071E+05
 -1      1530 3.90505E+03 4.02087E+01 1.56111E+05
 -1      1532 3.90505E+03 4.02087E+01 1.56111E+05
 -1      1533 4.08869E+03 3.32466E+01 1.68732E+05
 -1      1535 4.08869E+03 3.32466E+01 1.68732E+05
 -1      1536 4.23803E+03 2.62199E+01 1.80896E+05
 -1      1538 4.23803E+03 2.62199E+01 1.80896E+05
 -1      1539 4.35287E+03 1.91730E+01 1.92571E+05
 -1      1541 4.35287E+03 1.91730E+01 1.92571E+05
 -1      1542 4.43319E+03 1.21467E+01 2.03721E+05
 -1      1544 4.43319E+03 1.21467E+01 2.03721E+05
 -1      1545 4.47919E+03 5.18558E+00 2.14314E+05
 -1      1547 4.47919E+03 5.18558E+00 2.14314E+05
 -1      1548 4.49129E+03-1.67132E+00 2.24321E+05
 -1      1550 4.49129E+03-1.67132E+00 2.24321E+05
 -1      1551 4.47011E+03-8.37920E+00 2.33713E+05
 -1      1553 4.47011E+03-8.37920E+00 2.33713E+05
 -1      1554 4.41647E+03-1.49031E+01 2.42461E+05
 -1      1556 4.41647E+03-1.49031E+01 2.42461E+05
 -1      1557 4.33144E+03-2.11914E+01 2.50541E+05
 -1      1559 4.33144E+03-2.11914E+01 2.50541E+05
 -1      1560 4.21632E+03-2.72154E+01 2.57929E+05
 -1      1562 4.21632E+03-2.72154E+01 2.57929E+05
 -1      1563 4.07280E+03-3.28790E+01 2.64606E+05
 -1      1565 4.07280E+03-3.28790E+01 2.64606E+05
 -1      1566 3.90311E+03-3.81811E+01 2.70553E+05
 -1      1568 3.90311E+03-3.81810E+01 2.70553E+05
 -1      1569 3.71056E+03-4.26609E+01 2.75756E+05
 -1      1571 3.71056E+03-4.26609E+01 2.75756E+05
 -1      1572 3.50016E+03-4.67666E+01 2.80203E+05
 -1      1574 3.50016E+03-4.67666E+01 2.80203E+05
 -1      1575 3.28064E+03-4.82754E+01 2.83886E+05
 -1      1577 3.28064E+03-4.82754E+01 2.83886E+05
 -1      1578 3.06315E+03-4.55128E+01 2.86787E+05
 -1      1580 3.06315E+03-4.55128E+01 2.86787E+05
 -1      1581 2.86608E+03-4.97733E+01 2.88837E+05
 -1      1583 2.86608E+03-4.97733E+01 2.88837E+05
 -1      1584 2.73034E+03-2.74044E+01 2.89858E+05
 -1      1586 2.73034E+03-2.74044E+01 2.89858E+05
 -1      1587 2.62760E+03 1.01100E+00 1.81236E+05
 -1      1589 2.62760E+03 1.01100E+00 1.81236E+05
 -1      1590 1.08666E+05-9.07972E+04 1.49291E+05
 -1      1592-4.61862E+05 5.68567E+04 1.49291E+05
 -1      1593 2.62760E+03-1.01099E+00 1.81236E+05
 -1      1595 2.62760E+03-1.01099E+00 1.81236E+05
 -1      1596 4.42564E+02-7.71344E+01 1.31108E+04
 -1      1598 4.42564E+02-7.71344E+01 1.31108E+04
 -1      1599 8.80849E+02-9.37702E+01 2.80970E+04
 -1      1601 8.80849E+02-9.37702E+01 2.80970E+04
 -1      1602 1.31167E+03-8.64992E+01 4.32793E+04
 -1      1604 1.31167E+03-8.64992E+01 4.32793E+04
 -1      1605 1.72858E+03-8.29751E+01 5.81314E+04
 -1      1607 1.72858E+03-8.29751E+01 5.81314E+04
 -1      1608 2.12464E+03-7.81041E+01 7.29142E+04
 -1      1610 2.12464E+03-7.81041E+01 7.29142E+04
 -1      1611 2.49597E+03-7.24567E+01 8.74682E+04
 -1      1613 2.49597E+03-7.24567E+01 8.74682E+04
 -1      1614 2.83975E+03-6.65438E+01 1.01812E+05
 -1      1616 2.83975E+03-6.65438E+01 1.01812E+05
 -1      1617 3.15387E+03-6.02710E+01 1.15881E+05
 -1      1619 3.15387E+03-6.02710E+01 1.15881E+05
 -1      1620 3.43687E+03-5.37684E+01 1.29649E+05
 -1      1622 3.43687E+03-5.37684E+01 1.29649E+05
 -1      1623 3.68756E+03-4.70632E+01 1.43071E+05
 -1      1625 3.68756E+03-4.70632E+01 1.43071E+05
 -1      1626 3.90505E+03-4.02087E+01 1.56111E+05
 -1      1628 3.90505E+03-4.02087E+01 1.56111E+05
 -1      1629 4.08869E+03-3.32466E+01 1.68732E+05
 -1      1631 4.08869E+03-3.32466E+01 1.68732E+05
 -1      1632 4.23803E+03-2.62199E+01 1.80896E+05
 -1      1634 4.23803E+03-2.62199E+01 1.80896E+05
 -1      1635 4.35287E+03-1.91729E+01 1.92571E+05
 -1      1637 4.35287E+03-1.91729E+01 1.92571E+05
 -1      1638 4.43319E+03-1.21467E+01 2.03721E+05
 -1      1640 4.43319E+03-1.21467E+01 2.03721E+05
 -1      1641 4.47919E+03-5.18559E+00 2.14314E+05
 -1      1643 4.47919E+03-5.18559E+00 2.14314E+05
 -1      1644 4.49129E+03 1.67132E+00 2.24321E+05
 -1      1646 4.49129E+03 1.67132E+00 2.24321E+05
 -1      1647 4.47011E+03 8.37922E+00 2.33713E+05
 -1      1649 4.47011E+03 8.37922E+00 2.33713E+05
 -1      1650 4.41647E+03 1.49031E+01 2.42461E+05
 -1      1652 4.41647E+03 1.49031E+01 2.42461E+05
 -1      1653 4.33144E+03 2.11915E+01 2.50541E+05
 -1      1655 4.33144E+03 2.11915E+01 2.50541E+05
 -1      1656 4.21632E+03 2.72155E+01 2.57929E+05
 -1      1658 4.21632E+03 2.72155E+01 2.57929E+05
 -1      1659 4.07280E+03 3.28790E+01 2.64606E+05
 -1      1661 4.07280E+03 3.28790E+01 2.64606E+05
 -1      1662 3.90311E+03 3.81811E+01 2.70553E+05
 -1      1664 3.90311E+03 3.81811E+01 2.70553E+05
 -1      1665 3.71056E+03 4.26609E+01 2.75756E+05
 -1      1667 3.71056E+03 4.26609E+01 2.75756E+05
 -1      1668 3.50016E+03 4.67667E+01 2.80203E+05
 -1      1670 3.50016E+03 4.67667E+01 2.80203E+05
 -1      1671 3.28064E+03 4.82754E+01 2.83886E+05
 -1      1673 3.28064E+03 4.82754E+01 2.83886E+05
 -1      1674 3.06315E+03 4.55128E+01 2.86787E+05
 -1      1676 3.06315E+03 4.55128E+01 2.86787E+05
 -1      1677 2.86608E+03 4.97733E+01 2.88837E+05
 -1      1679 2.86608E+03 4.97733E+01 2.88837E+05
 -1      1680 2.73034E+03 2.74044E+01 2.89858E+05
 -1      1682 2.73034E+03 2.74044E+01 2.89858E+05
 -1      1683 1.08666E+05 9.07972E+04 1.49291E+05
 -1      1685-4.61862E+05-5.68567E+04 1.49291E+05
 -1      1686 8.81314E+02-1.02105E+02-1.60195E+04
 -1      1688 8.81314E+02-1.02105E+02-1.60195E+04
 -1      1689 1.76301E+03-1.25356E+02-3.47917E+04
 -1      1691 1.76301E+03-1.25356E+02-3.47917E+04
 -1      1692 2.62957E+03-1.15523E+02-5.38470E+04
 -1      1694 2.62957E+03-1.15523E+02-5.38470E+04
 -1      1695 3.46508E+03-1.10591E+02-7.24184E+04
 -1      1697 3.46508E+03-1.10591E+02-7.24184E+04
 -1      1698 4.25851E+03-1.04181E+02-9.09187E+04
 -1      1700 4.25851E+03-1.04181E+02-9.09187E+04
 -1      1701 5.00176E+03-9.65462E+01-1.09120E+05
 -1      1703 5.00176E+03-9.65462E+01-1.09120E+05
 -1      1704 5.68951E+03-8.86759E+01-1.27059E+05
 -1      1706 5.68951E+03-8.86759E+01-1.27059E+05
 -1      1707 6.31781E+03-8.02781E+01-1.44655E+05
 -1      1709 6.31781E+03-8.02781E+01-1.44655E+05
 -1      1710 6.88372E+03-7.16039E+01-1.61873E+05
 -1      1712 6.88372E+03-7.16039E+01-1.61873E+05
 -1      1713 7.38496E+03-6.26459E+01-1.78661E+05
 -1      1715 7.38496E+03-6.26459E+01-1.78661E+05
 -1      1716 7.81975E+03-5.34987E+01-1.94971E+05
 -1      1718 7.81975E+03-5.34987E+01-1.94971E+05
 -1      1719 8.18679E+03-4.42028E+01-2.10757E+05
 -1      1721 8.18679E+03-4.42028E+01-2.10757E+05
 -1      1722 8.48522E+03-3.48252E+01-2.25973E+05
 -1      1724 8.48522E+03-3.48252E+01-2.25973E+05
 -1      1725 8.71459E+03-2.54177E+01-2.40577E+05
 -1      1727 8.71459E+03-2.54177E+01-2.40577E+05
 -1      1728 8.87489E+03-1.60412E+01-2.54526E+05
 -1      1730 8.87489E+03-1.60412E+01-2.54526E+05
 -1      1731 8.96654E+03-6.74875E+00-2.67779E+05
 -1      1733 8.96654E+03-6.74875E+00-2.67779E+05
 -1      1734 8.99034E+03 2.40010E+00-2.80299E+05
 -1      1736 8.99034E+03 2.40010E+00-2.80299E+05
 -1      1737 8.94755E+03 1.13564E+01-2.92050E+05
 -1      1739 8.94755E+03 1.13564E+01-2.92050E+05
 -1      1740 8.83981E+03 2.00573E+01-3.02996E+05
 -1      1742 8.83981E+03 2.00573E+01-3.02996E+05
 -1      1743 8.66921E+03 2.84616E+01-3.13108E+05
 -1      1745 8.66921E+03 2.84616E+01-3.13108E+05
 -1      1746 8.43833E+03 3.64886E+01-3.22355E+05
 -1      1748 8.43833E+03 3.64886E+01-3.22355E+05
 -1      1749 8.15043E+03 4.40864E+01-3.30714E+05
 -1      1751 8.15043E+03 4.40864E+01-3.30714E+05
 -1      1752 7.80977E+03 5.11449E+01-3.38162E+05
 -1      1754 7.80977E+03 5.11449E+01-3.38162E+05
 -1      1755 7.42251E+03 5.72369E+01-3.44685E+05
 -1      1757 7.42251E+03 5.72369E+01-3.44685E+05
 -1      1758 6.99800E+03 6.27355E+01-3.50274E+05
 -1      1760 6.99800E+03 6.27355E+01-3.50274E+05
 -1      1761 6.55166E+03 6.50517E+01-3.54919E+05
 -1      1763 6.55166E+03 6.50517E+01-3.54919E+05
 -1      1764 6.10876E+03 6.10386E+01-3.58598E+05
 -1      1766 6.10876E+03 6.10386E+01-3.58598E+05
 -1      1767 5.70207E+03 6.81086E+01-3.61187E+05
 -1      1769 5.70207E+03 6.81086E+01-3.61187E+05
 -1      1770 5.38365E+03 3.83608E+01-3.62326E+05
 -1      1772 5.38365E+03 3.83608E+01-3.62326E+05
 -1      1773 8.81314E+02 1.02105E+02-1.60195E+04
 -1      1775 8.81314E+02 1.02105E+02-1.60195E+04
 -1      1776 1.76301E+03 1.25356E+02-3.47917E+04
 -1      1778 1.76301E+03 1.25356E+02-3.47917E+04
 -1      1779 2.62957E+03 1.15523E+02-5.38470E+04
 -1      1781 2.62957E+03 1.15523E+02-5.38470E+04
 -1      1782 3.46508E+03 1.10591E+02-7.24184E+04
 -1      1784 3.46508E+03 1.10591E+02-7.24184E+04
 -1      1785 4.25851E+03 1.04181E+02-9.09187E+04
 -1      1787 4.25851E+03 1.04181E+02-9.09187E+04
 -1      1788 5.00176E+03 9.65462E+01-1.09120E+05
 -1      1790 5.00176E+03 9.65462E+01-1.09120E+05
 -1      1791 5.68951E+03 8.86759E+01-1.27059E+05
 -1      1793 5.68951E+03 8.86759E+01-1.27059E+05
 -1      1794 6.31781E+03 8.02781E+01-1.44655E+05
 -1      1796 6.31781E+03 8.02781E+01-1.44655E+05
 -1      1797 6.88372E+03 7.16040E+01-1.61873E+05
 -1      1799 6.88372E+03 7.16039E+01-1.61873E+05
 -1      1800 7.38496E+03 6.26460E+01-1.78661E+05
 -1      1802 7.38496E+03 6.26460E+01-1.78661E+05
 -1      1803 7.81975E+03 5.34988E+01-1.94971E+05
 -1      1805 7.81975E+03 5.34988E+01-1.94971E+05
 -1      1806 8.18679E+03 4.42028E+01-2.10757E+05
 -1      1808 8.18679E+03 4.42029E+01-2.10757E+05
 -1      1809 8.48522E+03 3.48252E+01-2.25973E+05
 -1      1811 8.48522E+03 3.48252E+01-2.25973E+05
 -1      1812 8.71459E+03 2.54177E+01-2.40577E+05
 -1      1814 8.71459E+03 2.54177E+01-2.40577E+05
 -1      1815 8.87489E+03 1.60413E+01-2.54526E+05
 -1      1817 8.87489E+03 1.60413E+01-2.54526E+05
 -1      1818 8.96654E+03 6.74881E+00-2.67779E+05
 -1      1820 8.96654E+03 6.74881E+00-2.67779E+05
 -1      1821 8.99034E+03-2.40005E+00-2.80299E+05
 -1      1823 8.99034E+03-2.40005E+00-2.80299E+05
 -1      1824 8.94755E+03-1.13564E+01-2.92050E+05
 -1      1826 8.94755E+03-1.13564E+01-2.92050E+05
 -1      1827 8.83981E+03-2.00573E+01-3.02996E+05
 -1      1829 8.83981E+03-2.00573E+01-3.02996E+05
 -1      1830 8.66921E+03-2.84616E+01-3.13108E+05
 -1      1832 8.66921E+03-2.84616E+01-3.13108E+05
 -1      1833 8.43833E+03-3.64886E+01-3.22355E+05
 -1      1835 8.43833E+03-3.64886E+01-3.22355E+05
 -1      1836 8.15043E+03-4.40864E+01-3.30714E+05
 -1      1838 8.15043E+03-4.40864E+01-3.30714E+05
 -1      1839 7.80977E+03-5.11449E+01-3.38162E+05
 -1      1841 7.80977E+03-5.11449E+01-3.38162E+05
 -1      1842 7.42251E+03-5.72369E+01-3.44685E+05
 -1      1844 7.42251E+03-5.72369E+01-3.44685E+05
 -1      1845 6.99800E+03-6.27354E+01-3.50274E+05
 -1      1847 6.99800E+03-6.27354E+01-3.50274E+05
 -1      1848 6.55166E+03-6.50517E+01-3.54919E+05
 -1      1850 6.55166E+03-6.50517E+01-3.54919E+05
 -1      1851 6.10876E+03-6.10386E+01-3.58598E+05
 -1      1853 6.10876E+03-6.10386E+01-3.58598E+05
 -1      1854 5.70207E+03-6.81085E+01-3.61187E+05
 -1      1856 5.70207E+03-6.81085E+01-3.61187E+05
 -1      1857 5.38365E+03-3.83607E+01-3.62326E+05
 -1      1859 5.38365E+03-3.83607E+01-3.62326E+05
 -1      1860 1.50601E+03-2.65877E-05 1.80908E+02
 -1      1862 1.50601E+03-2.57847E-05 1.80908E+02
 -1      1863 2.96722E+03-3.24764E-05-1.19860E+02
 -1      1865 2.96722E+03-3.20389E-05-1.19860E+02
 -1      1866 4.31801E+03-1.05182E-05-5.58918E+02
 -1      1868 4.31801E+03-5.62760E-06-5.58918E+02
 -1      1869 5.55734E+03-1.95765E-05-9.40255E+02
 -1      1871 5.55734E+03-6.33393E-06-9.40255E+02
 -1      1872 6.70481E+03-2.85852E-05-1.32307E+03
 -1      1874 6.70481E+03-2.97409E-05-1.32307E+03
 -1      1875 7.76235E+03-1.55009E-05-1.68949E+03
 -1      1877 7.76235E+03-2.93563E-05-1.68949E+03
 -1      1878 8.73208E+03-7.86177E-06-2.04840E+03
 -1      1880 8.73208E+03-3.08537E-05-2.04840E+03
 -1      1881 9.61230E+03-3.71898E-05-2.40038E+03
 -1      1883 9.61230E+03-3.24351E-05-2.40038E+03
 -1      1884 1.04008E+04-3.89442E-05-2.74459E+03
 -1      1886 1.04008E+04-1.67232E-05-2.74459E+03
 -1      1887 1.10952E+04-3.86265E-05-3.08188E+03
 -1      1889 1.10952E+04-3.03546E-06-3.08188E+03
 -1      1890 1.16934E+04-2.54278E-05-3.41031E+03
 -1      1892 1.16934E+04-2.03510E-06-3.41031E+03
 -1      1893 1.21937E+04-1.25354E-05-3.72987E+03
 -1      1895 1.21937E+04-1.53169E-05-3.72987E+03
 -1      1896 1.25950E+04-6.70351E-06-4.03894E+03
 -1      1898 1.25950E+04-6.06909E-05-4.03894E+03
 -1      1899 1.28967E+04-1.10087E-05-4.33702E+03
 -1      1901 1.28967E+04-6.59700E-05-4.33702E+03
 -1      1902 1.30988E+04-1.51549E-05-4.62285E+03
 -1      1904 1.30988E+04-1.98783E-05-4.62285E+03
 -1      1905 1.32021E+04-4.56133E-05-4.89575E+03
 -1      1907 1.32021E+04-1.44377E-05-4.89575E+03
 -1      1908 1.32078E+04-9.54369E-06-5.15469E+03
 -1      1910 1.32078E+04-4.12554E-05-5.15469E+03
 -1      1911 1.31175E+04-1.58492E-05-5.39902E+03
 -1      1913 1.31175E+04-2.09904E-05-5.39902E+03
 -1      1914 1.29337E+04-3.28210E-05-5.62800E+03
 -1      1916 1.29337E+04-1.38848E-05-5.62800E+03
 -1      1917 1.26590E+04-3.40676E-05-5.84128E+03
 -1      1919 1.26590E+04-4.31818E-05-5.84128E+03
 -1      1920 1.22962E+04-2.92268E-05-6.03889E+03
 -1      1922 1.22962E+04-2.61409E-05-6.03889E+03
 -1      1923 1.18478E+04-4.14404E-05-6.22186E+03
 -1      1925 1.18478E+04-4.56668E-05-6.22186E+03
 -1      1926 1.13148E+04-3.55304E-05-6.39292E+03
 -1      1928 1.13148E+04-3.95932E-05-6.39292E+03
 -1      1929 1.06947E+04-5.78524E-05-6.55747E+03
 -1      1931 1.06947E+04-3.28703E-05-6.55747E+03
 -1      1932 9.97787E+03-5.14456E-05-6.72487E+03
 -1      1934 9.97787E+03-2.14934E-05-6.72487E+03
 -1      1935 9.14275E+03-4.74128E-05-6.90463E+03
 -1      1937 9.14275E+03-3.41675E-05-6.90463E+03
 -1      1938 8.15130E+03-4.24714E-05-7.09064E+03
 -1      1940 8.15130E+03-2.73135E-05-7.09064E+03
 -1      1941 6.95558E+03-9.03484E-06-7.19484E+03
 -1      1943 6.95558E+03-9.04451E-06-7.19484E+03
 -1      1944 5.53740E+03-3.66501E-05-6.91335E+03
 -1      1946 5.53740E+03 1.15998E-05-6.91335E+03
 -1      1947 1.60210E+03-2.69787E-05 1.58517E-05
 -1      1949 1.60210E+03-2.41919E-05 1.38570E-05
 -1      1950 3.14558E+03-2.41589E-05 2.96552E-05
 -1      1952 3.14558E+03-2.32287E-05 2.77122E-05
 -1      1953 4.54570E+03-1.35510E-05 1.15614E-05
 -1      1955 4.54570E+03-2.94219E-06 1.05477E-05
 -1      1956 5.80682E+03-1.91239E-05 1.95880E-06
 -1      1958 5.80682E+03-7.01506E-06 1.63396E-06
 -1      1959 6.96284E+03-3.45731E-05 1.46761E-05
 -1      1961 6.96284E+03-2.68064E-05 1.40269E-05
 -1      1962 8.02207E+03-1.75448E-05 2.02132E-05
 -1      1964 8.02207E+03-3.51740E-05 2.15449E-05
 -1      1965 8.99012E+03-4.00826E-05 2.78837E-05
 -1      1967 8.99012E+03-6.16573E-05 3.23844E-05
 -1      1968 9.86669E+03-5.20178E-05 1.72122E-05
 -1      1970 9.86669E+03-5.71467E-05 2.21621E-05
 -1      1971 1.06503E+04-6.23480E-05 1.17324E-05
 -1      1973 1.06503E+04-4.18426E-05 1.09038E-05
 -1      1974 1.13389E+04-6.93168E-05 1.33563E-05
 -1      1976 1.13389E+04-3.23033E-05 1.08825E-05
 -1      1977 1.19305E+04-3.60193E-05 6.33361E-06
 -1      1979 1.19305E+04-5.74465E-05 2.21692E-06
 -1      1980 1.24234E+04-3.39109E-05 4.06101E-06
 -1      1982 1.24234E+04-5.44030E-05 4.68820E-06
 -1      1983 1.28165E+04-7.71348E-05-8.28448E-06
 -1      1985 1.28165E+04-8.07765E-05-9.89187E-06
 -1      1986 1.31094E+04-7.08535E-05-2.78342E-05
 -1      1988 1.31094E+04-1.00167E-04-2.55679E-05
 -1      1989 1.33021E+04-7.08886E-05-1.92323E-05
 -1      1991 1.33021E+04-6.18201E-05-1.79504E-05
 -1      1992 1.33953E+04-6.25575E-05-1.84527E-06
 -1      1994 1.33953E+04-6.21770E-05-1.99406E-06
 -1      1995 1.33903E+04-3.82300E-05-5.44548E-08
 -1      1997 1.33903E+04-4.10029E-05 4.96072E-06
 -1      1998 1.32888E+04-6.55684E-05 7.89241E-06
 -1      2000 1.32888E+04-4.97115E-05 1.13087E-05
 -1      2001 1.30931E+04-1.03127E-04 4.30085E-06
 -1      2003 1.30931E+04-8.66229E-05 4.58150E-06
 -1      2004 1.28058E+04-9.91421E-05-6.68375E-06
 -1      2006 1.28058E+04-8.23591E-05-3.50583E-06
 -1      2007 1.24294E+04-7.56297E-05-1.88827E-06
 -1      2009 1.24294E+04-4.53381E-05-1.08919E-05
 -1      2010 1.19656E+04-8.51695E-05-5.16757E-06
 -1      2012 1.19656E+04-5.46057E-05-9.28025E-06
 -1      2013 1.14137E+04-9.25939E-05-3.64968E-07
 -1      2015 1.14137E+04-7.65465E-05-2.27714E-06
 -1      2016 1.07671E+04-8.22558E-05 1.21078E-05
 -1      2018 1.07671E+04-5.76486E-05 1.42882E-05
 -1      2019 1.00077E+04-7.92672E-05 1.32633E-05
 -1      2021 1.00077E+04-4.24833E-05 1.98846E-05
 -1      2022 9.09693E+03-8.75890E-05 1.77728E-05
 -1      2024 9.09693E+03-4.90604E-05 1.88206E-05
 -1      2025 7.96736E+03-7.27143E-05 2.71240E-05
 -1      2027 7.96736E+03-6.13824E-05 2.96275E-05
 -1      2028 6.53746E+03-9.61433E-05 2.78607E-05
 -1      2030 6.53746E+03-6.79632E-05 2.80529E-05
 -1      2031 4.81028E+03-5.55159E-05 1.83184E-05
 -1      2033 4.81028E+03-4.81878E-05 9.88835E-06
 -1      2034 1.50601E+03-3.85076E-06-1.80908E+02
 -1      2036 1.50601E+03-5.91629E-06-1.80908E+02
 -1      2037 2.96722E+03 4.97986E-06 1.19860E+02
 -1      2039 2.96722E+03 1.33126E-06 1.19860E+02
 -1      2040 4.31801E+03 1.54805E-05 5.58918E+02
 -1      2042 4.31801E+03 1.76548E-05 5.58918E+02
 -1      2043 5.55734E+03-4.55090E-07 9.40255E+02
 -1      2045 5.55734E+03 3.19041E-06 9.40255E+02
 -1      2046 6.70481E+03-1.94260E-05 1.32307E+03
 -1      2048 6.70481E+03-1.18194E-05 1.32307E+03
 -1      2049 7.76235E+03-1.37487E-05 1.68949E+03
 -1      2051 7.76235E+03-1.37659E-05 1.68949E+03
 -1      2052 8.73208E+03-1.91064E-05 2.04840E+03
 -1      2054 8.73208E+03-3.72639E-05 2.04840E+03
 -1      2055 9.61230E+03-2.64105E-05 2.40038E+03
 -1      2057 9.61230E+03-5.22743E-05 2.40038E+03
 -1      2058 1.04008E+04-2.33370E-05 2.74459E+03
 -1      2060 1.04008E+04-2.35942E-05 2.74459E+03
 -1      2061 1.10952E+04-2.34298E-05 3.08188E+03
 -1      2063 1.10952E+04 6.48085E-06 3.08188E+03
 -1      2064 1.16934E+04-4.40048E-06 3.41031E+03
 -1      2066 1.16934E+04-4.44490E-05 3.41031E+03
 -1      2067 1.21937E+04-4.90607E-06 3.72987E+03
 -1      2069 1.21937E+04-6.82562E-05 3.72987E+03
 -1      2070 1.25950E+04-4.68543E-05 4.03894E+03
 -1      2072 1.25950E+04-6.45352E-05 4.03894E+03
 -1      2073 1.28967E+04-2.52418E-05 4.33702E+03
 -1      2075 1.28967E+04-3.86498E-05 4.33702E+03
 -1      2076 1.30988E+04-1.48572E-05 4.62285E+03
 -1      2078 1.30988E+04-7.38484E-05 4.62285E+03
 -1      2079 1.32021E+04-5.94298E-08 4.89575E+03
 -1      2081 1.32021E+04-6.71551E-05 4.89575E+03
 -1      2082 1.32078E+04-5.57071E-05 5.15469E+03
 -1      2084 1.32078E+04-6.12624E-05 5.15469E+03
 -1      2085 1.31175E+04-4.38190E-05 5.39902E+03
 -1      2087 1.31175E+04-3.79753E-05 5.39902E+03
 -1      2088 1.29337E+04-4.15218E-05 5.62800E+03
 -1      2090 1.29337E+04-7.27986E-05 5.62800E+03
 -1      2091 1.26590E+04-6.12146E-05 5.84128E+03
 -1      2093 1.26590E+04-4.50209E-05 5.84128E+03
 -1      2094 1.22962E+04-3.59515E-05 6.03889E+03
 -1      2096 1.22962E+04-1.68866E-05 6.03889E+03
 -1      2097 1.18478E+04-4.36775E-05 6.22186E+03
 -1      2099 1.18478E+04-8.42677E-06 6.22186E+03
 -1      2100 1.13148E+04-4.23283E-05 6.39292E+03
 -1      2102 1.13148E+04-3.19137E-05 6.39292E+03
 -1      2103 1.06947E+04-2.89709E-05 6.55747E+03
 -1      2105 1.06947E+04-3.47862E-05 6.55747E+03
 -1      2106 9.97787E+03-7.67283E-06 6.72487E+03
 -1      2108 9.97787E+03-7.50083E-07 6.72487E+03
 -1      2109 9.14275E+03-1.54418E-05 6.90463E+03
 -1      2111 9.14275E+03-1.49327E-05 6.90463E+03
 -1      2112 8.15130E+03-5.38517E-05 7.09064E+03
 -1      2114 8.15130E+03-2.98894E-05 7.09064E+03
 -1      2115 6.95558E+03-7.57730E-05 7.19484E+03
 -1      2117 6.95558E+03-3.93524E-05 7.19484E+03
 -1      2118 5.53740E+03-6.44910E-05 6.91335E+03
 -1      2120 5.53740E+03-5.59334E-05 6.91335E+03
 -1      2121 8.81314E+02 1.02105E+02 1.60195E+04
 -1      2123 8.81314E+02 1.02105E+02 1.60195E+04
 -1      2124 1.76301E+03 1.25356E+02 3.47917E+04
 -1      2126 1.76301E+03 1.25356E+02 3.47917E+04
 -1      2127 2.62957E+03 1.15523E+02 5.38470E+04
 -1      2129 2.62957E+03 1.15523E+02 5.38470E+04
 -1      2130 3.46508E+03 1.10591E+02 7.24184E+04
 -1      2132 3.46508E+03 1.10591E+02 7.24184E+04
 -1      2133 4.25851E+03 1.04181E+02 9.09187E+04
 -1      2135 4.25851E+03 1.04181E+02 9.09187E+04
 -1      2136 5.00176E+03 9.65462E+01 1.09120E+05
 -1      2138 5.00176E+03 9.65462E+01 1.09120E+05
 -1      2139 5.68951E+03 8.86759E+01 1.27059E+05
 -1      2141 5.68951E+03 8.86759E+01 1.27059E+05
 -1      2142 6.31781E+03 8.02781E+01 1.44655E+05
 -1      2144 6.31781E+03 8.02781E+01 1.44655E+05
 -1      2145 6.88372E+03 7.16040E+01 1.61873E+05
 -1      2147 6.88372E+03 7.16040E+01 1.61873E+05
 -1      2148 7.38496E+03 6.26460E+01 1.78661E+05
 -1      2150 7.38496E+03 6.26460E+01 1.78661E+05
 -1      2151 7.81975E+03 5.34988E+01 1.94971E+05
 -1      2153 7.81975E+03 5.34988E+01 1.94971E+05
 -1      2154 8.18679E+03 4.42028E+01 2.10757E+05
 -1      2156 8.18679E+03 4.42028E+01 2.10757E+05
 -1      2157 8.48522E+03 3.48252E+01 2.25973E+05
 -1      2159 8.48522E+03 3.48252E+01 2.25973E+05
 -1      2160 8.71459E+03 2.54177E+01 2.40577E+05
 -1      2162 8.71459E+03 2.54177E+01 2.40577E+05
 -1      2163 8.87489E+03 1.60413E+01 2.54526E+05
 -1      2165 8.87489E+03 1.60413E+01 2.54526E+05
 -1      2166 8.96654E+03 6.74877E+00 2.67779E+05
 -1      2168 8.96654E+03 6.74877E+00 2.67779E+05
 -1      2169 8.99034E+03-2.40008E+00 2.80299E+05
 -1      2171 8.99034E+03-2.40008E+00 2.80299E+05
 -1      2172 8.94755E+03-1.13564E+01 2.92050E+05
 -1      2174 8.94755E+03-1.13564E+01 2.92050E+05
 -1      2175 8.83981E+03-2.00573E+01 3.02996E+05
 -1      2177 8.83981E+03-2.00573E+01 3.02996E+05
 -1      2178 8.66921E+03-2.84616E+01 3.13108E+05
 -1      2180 8.66921E+03-2.84616E+01 3.13108E+05
 -1      2181 8.43833E+03-3.64885E+01 3.22355E+05
 -1      2183 8.43833E+03-3.64885E+01 3.22355E+05
 -1      2184 8.15043E+03-4.40864E+01 3.30714E+05
 -1      2186 8.15043E+03-4.40864E+01 3.30714E+05
 -1      2187 7.80977E+03-5.11448E+01 3.38162E+05
 -1      2189 7.80977E+03-5.11448E+01 3.38162E+05
 -1      2190 7.42251E+03-5.72369E+01 3.44685E+05
 -1      2192 7.42251E+03-5.72369E+01 3.44685E+05
 -1      2193 6.99800E+03-6.27354E+01 3.50274E+05
 -1      2195 6.99800E+03-6.27354E+01 3.50274E+05
 -1      2196 6.55166E+03-6.50517E+01 3.54919E+05
 -1      2198 6.55166E+03-6.50517E+01 3.54919E+05
 -1      2199 6.10876E+03-6.10386E+01 3.58598E+05
 -1      2201 6.10876E+03-6.10386E+01 3.58598E+05
 -1      2202 5.70207E+03-6.81086E+01 3.61187E+05
 -1      2204 5.70207E+03-6.81086E+01 3.61187E+05
 -1      2205 5.38365E+03-3.83608E+01 3.62326E+05
 -1      2207 5.38365E+03-3.83608E+01 3.62326E+05
 -1      2208 8.81314E+02-1.02105E+02 1.60195E+04
 -1      2210 8.81314E+02-1.02105E+02 1.60195E+04
 -1      2211 1.76301E+03-1.25356E+02 3.47917E+04
 -1      2213 1.76301E+03-1.25356E+02 3.47917E+04
 -1      2214 2.62957E+03-1.15523E+02 5.38470E+04
 -1      2216 2.62957E+03-1.15523E+02 5.38470E+04
 -1      2217 3.46508E+03-1.10591E+02 7.24184E+04
 -1      2219 3.46508E+03-1.10591E+02 7.24184E+04
 -1      2220 4.25851E+03-1.04181E+02 9.09187E+04
 -1      2222 4.25851E+03-1.04181E+02 9.09187E+04
 -1      2223 5.00176E+03-9.65461E+01 1.09120E+05
 -1      2225 5.00176E+03-9.65461E+01 1.09120E+05
 -1      2226 5.68951E+03-8.86759E+01 1.27059E+05
 -1      2228 5.68951E+03-8.86759E+01 1.27059E+05
 -1      2229 6.31781E+03-8.02781E+01 1.44655E+05
 -1      2231 6.31781E+03-8.02781E+01 1.44655E+05
 -1      2232 6.88372E+03-7.16039E+01 1.61873E+05
 -1      2234 6.88372E+03-7.16039E+01 1.61873E+05
 -1      2235 7.38496E+03-6.26459E+01 1.78661E+05
 -1      2237 7.38496E+03-6.26459E+01 1.78661E+05
 -1      2238 7.81975E+03-5.34987E+01 1.94971E+05
 -1      2240 7.81975E+03-5.34987E+01 1.94971E+05
 -1      2241 8.18679E+03-4.42028E+01 2.10757E+05
 -1      2243 8.18679E+03-4.42028E+01 2.10757E+05
 -1      2244 8.48522E+03-3.48252E+01 2.25973E+05
 -1      2246 8.48522E+03-3.48252E+01 2.25973E+05
 -1      2247 8.71459E+03-2.54177E+01 2.40577E+05
 -1      2249 8.71459E+03-2.54177E+01 2.40577E+05
 -1      2250 8.87489E+03-1.60412E+01 2.54526E+05
 -1      2252 8.87489E+03-1.60412E+01 2.54526E+05
 -1      2253 8.96654E+03-6.74876E+00 2.67779E+05
 -1      2255 8.96654E+03-6.74876E+00 2.67779E+05
 -1      2256 8.99034E+03 2.40009E+00 2.80299E+05
 -1      2258 8.99034E+03 2.40009E+00 2.80299E+05
 -1      2259 8.94755E+03 1.13564E+01 2.92050E+05
 -1      2261 8.94755E+03 1.13564E+01 2.92050E+05
 -1      2262 8.83981E+03 2.00573E+01 3.02996E+05
 -1      2264 8.83981E+03 2.00573E+01 3.02996E+05
 -1      2265 8.66921E+03 2.84616E+01 3.13108E+05
 -1      2267 8.66921E+03 2.84616E+01 3.13108E+05
 -1      2268 8.43833E+03 3.64886E+01 3.22355E+05
 -1      2270 8.43833E+03 3.64886E+01 3.22355E+05
 -1      2271 8.15043E+03 4.40865E+01 3.30714E+05
 -1      2273 8.15043E+03 4.40865E+01 3.30714E+05
 -1      2274 7.80977E+03 5.11449E+01 3.38162E+05
 -1      2276 7.80977E+03 5.11449E+01 3.38162E+05
 -1      2277 7.42251E+03 5.72370E+01 3.44685E+05
 -1      2279 7.42251E+03 5.72370E+01 3.44685E+05
 -1      2280 6.99800E+03 6.27355E+01 3.50274E+05
 -1      2282 6.99800E+03 6.27355E+01 3.50274E+05
 -1      2283 6.55166E+03 6.50517E+01 3.54919E+05
 -1      2285 6.55166E+03 6.50517E+01 3.54919E+05
 -1      2286 6.10876E+03 6.10386E+01 3.58598E+05
 -1      2288 6.10876E+03 6.10386E+01 3.58598E+05
 -1      2289 5.70207E+03 6.81086E+01 3.61187E+05
 -1      2291 5.70207E+03 6.81086E+01 3.61187E+05
 -1      2292 5.38365E+03 3.83608E+01 3.62326E+05
 -1      2294 5.38365E+03 3.83608E+01 3.62326E+05
 -3
    1PSTEP                        64           1           1          
    1PGM                1.000000E+00                                  
    1PGK                1.338004E+07                                  
    1PHID                         -1                                  
    1PSUBC                         0                                  
    1PMODE                        16                                  
  100CL  116 582.1687554         930                     2   16MODAL      1
 -4  ERROR       1    1
 -5  STR(%)      1    1    0    0
 -1       404 0.00000E+00
 -1       406 0.00000E+00
 -1       407 0.00000E+00
 -1       409 0.00000E+00
 -1       410 0.00000E+00
 -1       412 0.00000E+00
 -1       413 0.00000E+00
 -1       415 0.00000E+00
 -1       424 0.00000E+00
 -1       426 0.00000E+00
 -1       427 0.00000E+00
 -1       429 0.00000E+00
 -1       438 0.00000E+00
 -1       440 0.00000E+00
 -1       441 0.00000E+00
 -1       443 0.00000E+00
 -1       444 0.00000E+00
 -1       446 0.00000E+00
 -1       447 0.00000E+00
 -1       449 0.00000E+00
 -1       458 0.00000E+00
 -1       460 0.00000E+00
 -1       461 0.00000E+00
 -1       463 0.00000E+00
 -1       472 0.00000E+00
 -1       474 0.00000E+00
 -1       475 0.00000E+00
 -1       477 0.00000E+00
 -1       478 0.00000E+00
 -1       480 0.00000E+00
 -1       481 0.00000E+00
 -1       483 0.00000E+00
 -1       484 0.00000E+00
 -1       486 0.00000E+00
 -1       487 0.00000E+00
 -1       489 0.00000E+00
 -1       490 0.00000E+00
 -1       492 0.00000E+00
 -1       493 0.00000E+00
 -1       495 0.00000E+00
 -1       496 0.00000E+00
 -1       498 0.00000E+00
 -1       499 0.00000E+00
 -1       501 0.00000E+00
 -1       502 0.00000E+00
 -1       504 0.00000E+00
 -1       505 0.00000E+00
 -1       507 0.00000E+00
 -1       508 0.00000E+00
 -1       510 0.00000E+00
 -1       511 0.00000E+00
 -1       513 0.00000E+00
 -1       514 0.00000E+00
 -1       516 0.00000E+00
 -1       517 0.00000E+00
 -1       519 0.00000E+00
 -1       520 0.00000E+00
 -1       522 0.00000E+00
 -1       523 0.00000E+00
 -1       525 0.00000E+00
 -1       526 0.00000E+00
 -1       528 0.00000E+00
 -1       529 0.00000E+00
 -1       531 0.00000E+00
 -1       532 0.00000E+00
 -1       534 0.00000E+00
 -1       535 0.00000E+00
 -1       537 0.00000E+00
 -1       538 0.00000E+00
 -1       540 0.00000E+00
 -1       541 0.00000E+00
 -1       543 0.00000E+00
 -1       544 0.00000E+00
 -1       546 0.00000E+00
 -1       547 0.00000E+00
 -1       549 0.00000E+00
 -1       550 0.00000E+00
 -1       552 0.00000E+00
 -1       553 0.00000E+00
 -1       555 0.00000E+00
 -1       556 0.00000E+00
 -1       558 0.00000E+00
 -1       559 0.00000E+00
 -1       561 0.00000E+00
 -1       562 0.00000E+00
 -1       564 0.00000E+00
 -1       565 0.00000E+00
 -1       567 0.00000E+00
 -1       568 0.00000E+00
 -1       570 0.00000E+00
 -1       571 0.00000E+00
 -1       573 0.00000E+00
 -1       574 0.00000E+00
 -1       576 0.00000E+00
 -1       577 0.00000E+00
 -1       579 0.00000E+00
 -1       588 0.00000E+00
 -1       590 0.00000E+00
 -1       591 0.00000E+00
 -1       593 0.00000E+00
 -1       602 0.00000E+00
 -1       604 0.00000E+00
 -1       605 0.00000E+00
 -1       607 0.00000E+00
 -1       616 0.00000E+00
 -1       618 0.00000E+00
 -1       619 0.00000E+00
 -1       621 0.00000E+00
 -1       630 0.00000E+00
 -1       632 0.00000E+00
 -1       633 0.00000E+00
 -1       635 0.00000E+00
 -1       644 0.00000E+00
 -1       646 0.00000E+00
 -1       647 0.00000E+00
 -1       649 0.00000E+00
 -1       658 0.00000E+00
 -1       660 0.00000E+00
 -1       661 0.00000E+00
 -1       663 0.00000E+00
 -1       672 0.00000E+00
 -1       674 0.00000E+00
 -1       675 0.00000E+00
 -1       677 0.00000E+00
 -1       686 0.00000E+00
 -1       688 0.00000E+00
 -1       689 0.00000E+00
 -1       691 0.00000E+00
 -1       700 0.00000E+00
 -1       702 0.00000E+00
 -1       703 0.00000E+00
 -1       705 0.00000E+00
 -1       714 0.00000E+00
 -1       716 0.00000E+00
 -1       717 0.00000E+00
 -1       719 0.00000E+00
 -1       728 0.00000E+00
 -1       730 0.00000E+00
 -1       731 0.00000E+00
 -1       733 0.00000E+00
 -1       742 0.00000E+00
 -1       744 0.00000E+00
 -1       745 0.00000E+00
 -1       747 0.00000E+00
 -1       756 0.00000E+00
 -1       758 0.00000E+00
 -1       759 0.00000E+00
 -1       761 0.00000E+00
 -1       770 0.00000E+00
 -1       772 0.00000E+00
 -1       773 0.00000E+00
 -1       775 0.00000E+00
 -1       784 0.00000E+00
 -1       786 0.00000E+00
 -1       787 0.00000E+00
 -1       789 0.00000E+00
 -1       798 0.00000E+00
 -1       800 0.00000E+00
 -1       801 0.00000E+00
 -1       803 0.00000E+00
 -1       812 0.00000E+00
 -1       814 0.00000E+00
 -1       815 0.00000E+00
 -1       817 0.00000E+00
 -1       826 0.00000E+00
 -1       828 0.00000E+00
 -1       829 0.00000E+00
 -1       831 0.00000E+00
 -1       840 0.00000E+00
 -1       842 0.00000E+00
 -1       843 0.00000E+00
 -1       845 0.00000E+00
 -1       854 0.00000E+00
 -1       856 0.00000E+00
 -1       857 0.00000E+00
 -1       859 0.00000E+00
 -1       868 0.00000E+00
 -1       870 0.00000E+00
 -1       871 0.00000E+00
 -1       873 0.00000E+00
 -1       882 0.00000E+00
 -1       884 0.00000E+00
 -1       885 0.00000E+00
 -1       887 0.00000E+00
 -1       896 0.00000E+00
 -1       898 0.00000E+00
 -1       899 0.00000E+00
 -1       901 0.00000E+00
 -1       910 0.00000E+00
 -1       912 0.00000E+00
 -1       913 0.00000E+00
 -1       915 0.00000E+00
 -1       924 0.00000E+00
 -1       926 0.00000E+00
 -1       927 0.00000E+00
 -1       929 0.00000E+00
 -1       938 0.00000E+00
 -1       940 0.00000E+00
 -1       941 0.00000E+00
 -1       943 0.00000E+00
 -1       952 0.00000E+00
 -1       954 0.00000E+00
 -1       955 0.00000E+00
 -1       957 0.00000E+00
 -1       966 0.00000E+00
 -1       968 0.00000E+00
 -1       969 0.00000E+00
 -1       971 0.00000E+00
 -1       980 0.00000E+00
 -1       982 0.00000E+00
 -1       983 0.00000E+00
 -1       985 0.00000E+00
 -1       986 0.00000E+00
 -1       988 0.00000E+00
 -1       989 0.00000E+00
 -1       991 0.00000E+00
 -1       992 0.00000E+00
 -1       994 0.00000E+00
 -1       995 0.00000E+00
 -1       997 0.00000E+00
 -1       998 0.00000E+00
 -1      1000 0.00000E+00
 -1      1001 0.00000E+00
 -1      1003 0.00000E+00
 -1      1004 0.00000E+00
 -1      1006 0.00000E+00
 -1      1007 0.00000E+00
 -1      1009 0.00000E+00
 -1      1010 0.00000E+00
 -1      1012 0.00000E+00
 -1      1013 0.00000E+00
 -1      1015 0.00000E+00
 -1      1016 0.00000E+00
 -1      1018 0.00000E+00
 -1      1019 0.00000E+00
 -1      1021 0.00000E+00
 -1      1022 0.00000E+00
 -1      1024 0.00000E+00
 -1      1025 0.00000E+00
 -1      1027 0.00000E+00
 -1      1028 0.00000E+00
 -1      1030 0.00000E+00
 -1      1031 0.00000E+00
 -1      1033 0.00000E+00
 -1      1034 0.00000E+00
 -1      1036 0.00000E+00
 -1      1037 0.00000E+00
 -1      1039 0.00000E+00
 -1      1040 0.00000E+00
 -1      1042 0.00000E+00
 -1      1043 0.00000E+00
 -1      1045 0.00000E+00
 -1      1046 0.00000E+00
 -1      1048 0.00000E+00
 -1      1049 0.00000E+00
 -1      1051 0.00000E+00
 -1      1052 0.00000E+00
 -1      1054 0.00000E+00
 -1      1055 0.00000E+00
 -1      1057 0.00000E+00
 -1      1058 0.00000E+00
 -1      1060 0.00000E+00
 -1      1061 0.00000E+00
 -1      1063 0.00000E+00
 -1      1064 0.00000E+00
 -1      1066 0.00000E+00
 -1      1067 0.00000E+00
 -1      1069 0.00000E+00
 -1      1070 0.00000E+00
 -1      1072 0.00000E+00
 -1      1073 0.00000E+00
 -1      1075 0.00000E+00
 -1      1076 0.00000E+00
 -1      1078 0.00000E+00
 -1      1079 0.00000E+00
 -1      1081 0.00000E+00
 -1      1082 0.00000E+00
 -1      1084 0.00000E+00
 -1      1085 0.00000E+00
 -1      1087 0.00000E+00
 -1      1088 0.00000E+00
 -1      1090 0.00000E+00
 -1      1099 0.00000E+00
 -1      1101 0.00000E+00
 -1      1102 0.00000E+00
 -1      1104 0.00000E+00
 -1      1113 0.00000E+00
 -1      1115 0.00000E+00
 -1      1116 0.00000E+00
 -1      1118 0.00000E+00
 -1      1127 0.00000E+00
 -1      1129 0.00000E+00
 -1      1130 0.00000E+00
 -1      1132 0.00000E+00
 -1      1141 0.00000E+00
 -1      1143 0.00000E+00
 -1      1144 0.00000E+00
 -1      1146 0.00000E+00
 -1      1155 0.00000E+00
 -1      1157 0.00000E+00
 -1      1158 0.00000E+00
 -1      1160 0.00000E+00
 -1      1169 0.00000E+00
 -1      1171 0.00000E+00
 -1      1172 0.00000E+00
 -1      1174 0.00000E+00
 -1      1183 0.00000E+00
 -1      1185 0.00000E+00
 -1      1186 0.00000E+00
 -1      1188 0.00000E+00
 -1      1197 0.00000E+00
 -1      1199 0.00000E+00
 -1      1200 0.00000E+00
 -1      1202 0.00000E+00
 -1      1211 0.00000E+00
 -1      1213 0.00000E+00
 -1      1214 0.00000E+00
 -1      1216 0.00000E+00
 -1      1225 0.00000E+00
 -1      1227 0.00000E+00
 -1      1228 0.00000E+00
 -1      1230 0.00000E+00
 -1      1239 0.00000E+00
 -1      1241 0.00000E+00
 -1      1242 0.00000E+00
 -1      1244 0.00000E+00
 -1      1253 0.00000E+00
 -1      1255 0.00000E+00
 -1      1256 0.00000E+00
 -1      1258 0.00000E+00
 -1      1267 0.00000E+00
 -1      1269 0.00000E+00
 -1      1270 0.00000E+00
 -1      1272 0.00000E+00
 -1      1281 0.00000E+00
 -1      1283 0.00000E+00
 -1      1284 0.00000E+00
 -1      1286 0.00000E+00
 -1      1295 0.00000E+00
 -1      1297 0.00000E+00
 -1      1298 0.00000E+00
 -1      1300 0.00000E+00
 -1      1309 0.00000E+00
 -1      1311 0.00000E+00
 -1      1312 0.00000E+00
 -1      1314 0.00000E+00
 -1      1323 0.00000E+00
 -1      1325 0.00000E+00
 -1      1326 0.00000E+00
 -1      1328 0.00000E+00
 -1      1337 0.00000E+00
 -1      1339 0.00000E+00
 -1      1340 0.00000E+00
 -1      1342 0.00000E+00
 -1      1351 0.00000E+00
 -1      1353 0.00000E+00
 -1      1354 0.00000E+00
 -1      1356 0.00000E+00
 -1      1365 0.00000E+00
 -1      1367 0.00000E+00
 -1      1368 0.00000E+00
 -1      1370 0.00000E+00
 -1      1379 0.00000E+00
 -1      1381 0.00000E+00
 -1      1382 0.00000E+00
 -1      1384 0.00000E+00
 -1      1393 0.00000E+00
 -1      1395 0.00000E+00
 -1      1396 0.00000E+00
 -1      1398 0.00000E+00
 -1      1407 0.00000E+00
 -1      1409 0.00000E+00
 -1      1410 0.00000E+00
 -1      1412 0.00000E+00
 -1      1421 0.00000E+00
 -1      1423 0.00000E+00
 -1      1424 0.00000E+00
 -1      1426 0.00000E+00
 -1      1435 0.00000E+00
 -1      1437 0.00000E+00
 -1      1438 0.00000E+00
 -1      1440 0.00000E+00
 -1      1449 0.00000E+00
 -1      1451 0.00000E+00
 -1      1452 0.00000E+00
 -1      1454 0.00000E+00
 -1      1463 0.00000E+00
 -1      1465 0.00000E+00
 -1      1466 0.00000E+00
 -1      1468 0.00000E+00
 -1      1477 0.00000E+00
 -1      1479 0.00000E+00
 -1      1480 0.00000E+00
 -1      1482 0.00000E+00
 -1      1491 0.00000E+00
 -1      1493 0.00000E+00
 -1      1494 0.00000E+00
 -1      1496 0.00000E+00
 -1      1497 0.00000E+00
 -1      1499 0.00000E+00
 -1      1500 0.00000E+00
 -1      1502 0.00000E+00
 -1      1503 0.00000E+00
 -1      1505 0.00000E+00
 -1      1506 0.00000E+00
 -1      1508 0.00000E+00
 -1      1509 0.00000E+00
 -1      1511 0.00000E+00
 -1      1512 0.00000E+00
 -1      1514 0.00000E+00
 -1      1515 0.00000E+00
 -1      1517 0.00000E+00
 -1      1518 0.00000E+00
 -1      1520 0.00000E+00
 -1      1521 0.00000E+00
 -1      1523 0.00000E+00
 -1      1524 0.00000E+00
 -1      1526 0.00000E+00
 -1      1527 0.00000E+00
 -1      1529 0.00000E+00
 -1      1530 0.00000E+00
 -1      1532 0.00000E+00
 -1      1533 0.00000E+00
 -1      1535 0.00000E+00
 -1      1536 0.00000E+00
 -1      1538 0.00000E+00
 -1      1539 0.00000E+00
 -1      1541 0.00000E+00
 -1      1542 0.00000E+00
 -1      1544 0.00000E+00
 -1      1545 0.00000E+00
 -1      1547 0.00000E+00
 -1      1548 0.00000E+00
 -1      1550 0.00000E+00
 -1      1551 0.00000E+00
 -1      1553 0.00000E+00
 -1      1554 0.00000E+00
 -1      1556 0.00000E+00
 -1      1557 0.00000E+00
 -1      1559 0.00000E+00
 -1      1560 0.00000E+00
 -1      1562 0.00000E+00
 -1      1563 0.00000E+00
 -1      1565 0.00000E+00
 -1      1566 0.00000E+00
 -1      1568 0.00000E+00
 -1      1569 0.00000E+00
 -1      1571 0.00000E+00
 -1      1572 0.00000E+00
 -1      1574 0.00000E+00
 -1      1575 0.00000E+00
 -1      1577 0.00000E+00
 -1      1578 0.00000E+00
 -1      1580 0.00000E+00
 -1      1581 0.00000E+00
 -1      1583 0.00000E+00
 -1      1584 0.00000E+00
 -1      1586 0.00000E+00
 -1      1587 0.00000E+00
 -1      1589 0.00000E+00
 -1      1590 0.00000E+00
 -1      1592 0.00000E+00
 -1      1593 0.00000E+00
 -1      1595 0.00000E+00
 -1      1596 0.00000E+00
 -1      1598 0.00000E+00
 -1      1599 0.00000E+00
 -1      1601 0.00000E+00
 -1      1602 0.00000E+00
 -1      1604 0.00000E+00
 -1      1605 0.00000E+00
 -1      1607 0.00000E+00
 -1      1608 0.00000E+00
 -1      1610 0.00000E+00
 -1      1611 0.00000E+00
 -1      1613 0.00000E+00
 -1      1614 0.00000E+00
 -1      1616 0.00000E+00
 -1      1617 0.00000E+00
 -1      1619 0.00000E+00
 -1      1620 0.00000E+00
 -1      1622 0.00000E+00
 -1      1623 0.00000E+00
 -1      1625 0.00000E+00
 -1      1626 0.00000E+00
 -1      1628 0.00000E+00
 -1      1629 0.00000E+00
 -1      1631 0.00000E+00
 -1      1632 0.00000E+00
 -1      1634 0.00000E+00
 -1      1635 0.00000E+00
 -1      1637 0.00000E+00
 -1      1638 0.00000E+00
 -1      1640 0.00000E+00
 -1      1641 0.00000E+00
 -1      1643 0.00000E+00
 -1      1644 0.00000E+00
 -1      1646 0.00000E+00
 -1      1647 0.00000E+00
 -1      1649 0.00000E+00
 -1      1650 0.00000E+00
 -1      1652 0.00000E+00
 -1      1653 0.00000E+00
 -1      1655 0.00000E+00
 -1      1656 0.00000E+00
 -1      1658 0.00000E+00
 -1      1659 0.00000E+00
 -1      1661 0.00000E+00
 -1      1662 0.00000E+00
 -1      1664 0.00000E+00
 -1      1665 0.00000E+00
 -1      1667 0.00000E+00
 -1      1668 0.00000E+00
 -1      1670 0.00000E+00
 -1      1671 0.00000E+00
 -1      1673 0.00000E+00
 -1      1674 0.00000E+00
 -1      1676 0.00000E+00
 -1      1677 0.00000E+00
 -1      1679 0.00000E+00
 -1      1680 0.00000E+00
 -1      1682 0.00000E+00
 -1      1683 0.00000E+00
 -1      1685 0.00000E+00
 -1      1686 0.00000E+00
 -1      1688 0.00000E+00
 -1      1689 0.00000E+00
 -1      1691 0.00000E+00
 -1      1692 0.00000E+00
 -1      1694 0.00000E+00
 -1      1695 0.00000E+00
 -1      1697 0.00000E+00
 -1      1698 0.00000E+00
 -1      1700 0.00000E+00
 -1      1701 0.00000E+00
 -1      1703 0.00000E+00
 -1      1704 0.00000E+00
 -1      1706 0.00000E+00
 -1      1707 0.00000E+00
 -1      1709 0.00000E+00
 -1      1710 0.00000E+00
 -1      1712 0.00000E+00
 -1      1713 0.00000E+00
 -1      1715 0.00000E+00
 -1      1716 0.00000E+00
 -1      1718 0.00000E+00
 -1      1719 0.00000E+00
 -1      1721 0.00000E+00
 -1      1722 0.00000E+00
 -1      1724 0.00000E+00
 -1      1725 0.00000E+00
 -1      1727 0.00000E+00
 -1      1728 0.00000E+00
 -1      1730 0.00000E+00
 -1      1731 0.00000E+00
 -1      1733 0.00000E+00
 -1      1734 0.00000E+00
 -1      1736 0.00000E+00
 -1      1737 0.00000E+00
 -1      1739 0.00000E+00
 -1      1740 0.00000E+00
 -1      1742 0.00000E+00
 -1      1743 0.00000E+00
 -1      1745 0.00000E+00
 -1      1746 0.00000E+00
 -1      1748 0.00000E+00
 -1      1749 0.00000E+00
 -1      1751 0.00000E+00
 -1      1752 0.00000E+00
 -1      1754 0.00000E+00
 -1      1755 0.00000E+00
 -1      1757 0.00000E+00
 -1      1758 0.00000E+00
 -1      1760 0.00000E+00
 -1      1761 0.00000E+00
 -1      1763 0.00000E+00
 -1      1764 0.00000E+00
 -1      1766 0.00000E+00
 -1      1767 0.00000E+00
 -1      1769 0.00000E+00
 -1      1770 0.00000E+00
 -1      1772 0.00000E+00
 -1      1773 0.00000E+00
 -1      1775 0.00000E+00
 -1      1776 0.00000E+00
 -1      1778 0.00000E+00
 -1      1779 0.00000E+00
 -1      1781 0.00000E+00
 -1      1782 0.00000E+00
 -1      1784 0.00000E+00
 -1      1785 0.00000E+00
 -1      1787 0.00000E+00
 -1      1788 0.00000E+00
 -1      1790 0.00000E+00
 -1      1791 0.00000E+00
 -1      1793 0.00000E+00
 -1      1794 0.00000E+00
 -1      1796 0.00000E+00
 -1      1797 0.00000E+00
 -1      1799 0.00000E+00
 -1      1800 0.00000E+00
 -1      1802 0.00000E+00
 -1      1803 0.00000E+00
 -1      1805 0.00000E+00
 -1      1806 0.00000E+00
 -1      1808 0.00000E+00
 -1      1809 0.00000E+00
 -1      1811 0.00000E+00
 -1      1812 0.00000E+00
 -1      1814 0.00000E+00
 -1      1815 0.00000E+00
 -1      1817 0.00000E+00
 -1      1818 0.00000E+00
 -1      1820 0.00000E+00
 -1      1821 0.00000E+00
 -1      1823 0.00000E+00
 -1      1824 0.00000E+00
 -1      1826 0.00000E+00
 -1      1827 0.00000E+00
 -1      1829 0.00000E+00
 -1      1830 0.00000E+00
 -1      1832 0.00000E+00
 -1      1833 0.00000E+00
 -1      1835 0.00000E+00
 -1      1836 0.00000E+00
 -1      1838 0.00000E+00
 -1      1839 0.00000E+00
 -1      1841 0.00000E+00
 -1      1842 0.00000E+00
 -1      1844 0.00000E+00
 -1      1845 0.00000E+00
 -1      1847 0.00000E+00
 -1      1848 0.00000E+00
 -1      1850 0.00000E+00
 -1      1851 0.00000E+00
 -1      1853 0.00000E+00
 -1      1854 0.00000E+00
 -1      1856 0.00000E+00
 -1      1857 0.00000E+00
 -1      1859 0.00000E+00
 -1      1860 0.00000E+00
 -1      1862 0.00000E+00
 -1      1863 0.00000E+00
 -1      1865 0.00000E+00
 -1      1866 0.00000E+00
 -1      1868 0.00000E+00
 -1      1869 0.00000E+00
 -1      1871 0.00000E+00
 -1      1872 0.00000E+00
 -1      1874 0.00000E+00
 -1      1875 0.00000E+00
 -1      1877 0.00000E+00
 -1      1878 0.00000E+00
 -1      1880 0.00000E+00
 -1      1881 0.00000E+00
 -1      1883 0.00000E+00
 -1      1884 0.00000E+00
 -1      1886 0.00000E+00
 -1      1887 0.00000E+00
 -1      1889 0.00000E+00
 -1      1890 0.00000E+00
 -1      1892 0.00000E+00
 -1      1893 0.00000E+00
 -1      1895 0.00000E+00
 -1      1896 0.00000E+00
 -1      1898 0.00000E+00
 -1      1899 0.00000E+00
 -1      1901 0.00000E+00
 -1      1902 0.00000E+00
 -1      1904 0.00000E+00
 -1      1905 0.00000E+00
 -1      1907 0.00000E+00
 -1      1908 0.00000E+00
 -1      1910 0.00000E+00
 -1      1911 0.00000E+00
 -1      1913 0.00000E+00
 -1      1914 0.00000E+00
 -1      1916 0.00000E+00
 -1      1917 0.00000E+00
 -1      1919 0.00000E+00
 -1      1920 0.00000E+00
 -1      1922 0.00000E+00
 -1      1923 0.00000E+00
 -1      1925 0.00000E+00
 -1      1926 0.00000E+00
 -1      1928 0.00000E+00
 -1      1929 0.00000E+00
 -1      1931 0.00000E+00
 -1      1932 0.00000E+00
 -1      1934 0.00000E+00
 -1      1935 0.00000E+00
 -1      1937 0.00000E+00
 -1      1938 0.00000E+00
 -1      1940 0.00000E+00
 -1      1941 0.00000E+00
 -1      1943 0.00000E+00
 -1      1944 0.00000E+00
 -1      1946 0.00000E+00
 -1      1947 0.00000E+00
 -1      1949 0.00000E+00
 -1      1950 0.00000E+00
 -1      1952 0.00000E+00
 -1      1953 0.00000E+00
 -1      1955 0.00000E+00
 -1      1956 0.00000E+00
 -1      1958 0.00000E+00
 -1      1959 0.00000E+00
 -1      1961 0.00000E+00
 -1      1962 0.00000E+00
 -1      1964 0.00000E+00
 -1      1965 0.00000E+00
 -1      1967 0.00000E+00
 -1      1968 0.00000E+00
 -1      1970 0.00000E+00
 -1      1971 0.00000E+00
 -1      1973 0.00000E+00
 -1      1974 0.00000E+00
 -1      1976 0.00000E+00
 -1      1977 0.00000E+00
 -1      1979 0.00000E+00
 -1      1980 0.00000E+00
 -1      1982 0.00000E+00
 -1      1983 0.00000E+00
 -1      1985 0.00000E+00
 -1      1986 0.00000E+00
 -1      1988 0.00000E+00
 -1      1989 0.00000E+00
 -1      1991 0.00000E+00
 -1      1992 0.00000E+00
 -1      1994 0.00000E+00
 -1      1995 0.00000E+00
 -1      1997 0.00000E+00
 -1      1998 0.00000E+00
 -1      2000 0.00000E+00
 -1      2001 0.00000E+00
 -1      2003 0.00000E+00
 -1      2004 0.00000E+00
 -1      2006 0.00000E+00
 -1      2007 0.00000E+00
 -1      2009 0.00000E+00
 -1      2010 0.00000E+00
 -1      2012 0.00000E+00
 -1      2013 0.00000E+00
 -1      2015 0.00000E+00
 -1      2016 0.00000E+00
 -1      2018 0.00000E+00
 -1      2019 0.00000E+00
 -1      2021 0.00000E+00
 -1      2022 0.00000E+00
 -1      2024 0.00000E+00
 -1      2025 0.00000E+00
 -1      2027 0.00000E+00
 -1      2028 0.00000E+00
 -1      2030 0.00000E+00
 -1      2031 0.00000E+00
 -1      2033 0.00000E+00
 -1      2034 0.00000E+00
 -1      2036 0.00000E+00
 -1      2037 0.00000E+00
 -1      2039 0.00000E+00
 -1      2040 0.00000E+00
 -1      2042 0.00000E+00
 -1      2043 0.00000E+00
 -1      2045 0.00000E+00
 -1      2046 0.00000E+00
 -1      2048 0.00000E+00
 -1      2049 0.00000E+00
 -1      2051 0.00000E+00
 -1      2052 0.00000E+00
 -1      2054 0.00000E+00
 -1      2055 0.00000E+00
 -1      2057 0.00000E+00
 -1      2058 0.00000E+00
 -1      2060 0.00000E+00
 -1      2061 0.00000E+00
 -1      2063 0.00000E+00
 -1      2064 0.00000E+00
 -1      2066 0.00000E+00
 -1      2067 0.00000E+00
 -1      2069 0.00000E+00
 -1      2070 0.00000E+00
 -1      2072 0.00000E+00
 -1      2073 0.00000E+00
 -1      2075 0.00000E+00
 -1      2076 0.00000E+00
 -1      2078 0.00000E+00
 -1      2079 0.00000E+00
 -1      2081 0.00000E+00
 -1      2082 0.00000E+00
 -1      2084 0.00000E+00
 -1      2085 0.00000E+00
 -1      2087 0.00000E+00
 -1      2088 0.00000E+00
 -1      2090 0.00000E+00
 -1      2091 0.00000E+00
 -1      2093 0.00000E+00
 -1      2094 0.00000E+00
 -1      2096 0.00000E+00
 -1      2097 0.00000E+00
 -1      2099 0.00000E+00
 -1      2100 0.00000E+00
 -1      2102 0.00000E+00
 -1      2103 0.00000E+00
 -1      2105 0.00000E+00
 -1      2106 0.00000E+00
 -1      2108 0.00000E+00
 -1      2109 0.00000E+00
 -1      2111 0.00000E+00
 -1      2112 0.00000E+00
 -1      2114 0.00000E+00
 -1      2115 0.00000E+00
 -1      2117 0.00000E+00
 -1      2118 0.00000E+00
 -1      2120 0.00000E+00
 -1      2121 0.00000E+00
 -1      2123 0.00000E+00
 -1      2124 0.00000E+00
 -1      2126 0.00000E+00
 -1      2127 0.00000E+00
 -1      2129 0.00000E+00
 -1      2130 0.00000E+00
 -1      2132 0.00000E+00
 -1      2133 0.00000E+00
 -1      2135 0.00000E+00
 -1      2136 0.00000E+00
 -1      2138 0.00000E+00
 -1      2139 0.00000E+00
 -1      2141 0.00000E+00
 -1      2142 0.00000E+00
 -1      2144 0.00000E+00
 -1      2145 0.00000E+00
 -1      2147 0.00000E+00
 -1      2148 0.00000E+00
 -1      2150 0.00000E+00
 -1      2151 0.00000E+00
 -1      2153 0.00000E+00
 -1      2154 0.00000E+00
 -1      2156 0.00000E+00
 -1      2157 0.00000E+00
 -1      2159 0.00000E+00
 -1      2160 0.00000E+00
 -1      2162 0.00000E+00
 -1      2163 0.00000E+00
 -1      2165 0.00000E+00
 -1      2166 0.00000E+00
 -1      2168 0.00000E+00
 -1      2169 0.00000E+00
 -1      2171 0.00000E+00
 -1      2172 0.00000E+00
 -1      2174 0.00000E+00
 -1      2175 0.00000E+00
 -1      2177 0.00000E+00
 -1      2178 0.00000E+00
 -1      2180 0.00000E+00
 -1      2181 0.00000E+00
 -1      2183 0.00000E+00
 -1      2184 0.00000E+00
 -1      2186 0.00000E+00
 -1      2187 0.00000E+00
 -1      2189 0.00000E+00
 -1      2190 0.00000E+00
 -1      2192 0.00000E+00
 -1      2193 0.00000E+00
 -1      2195 0.00000E+00
 -1      2196 0.00000E+00
 -1      2198 0.00000E+00
 -1      2199 0.00000E+00
 -1      2201 0.00000E+00
 -1      2202 0.00000E+00
 -1      2204 0.00000E+00
 -1      2205 0.00000E+00
 -1      2207 0.00000E+00
 -1      2208 0.00000E+00
 -1      2210 0.00000E+00
 -1      2211 0.00000E+00
 -1      2213 0.00000E+00
 -1      2214 0.00000E+00
 -1      2216 0.00000E+00
 -1      2217 0.00000E+00
 -1      2219 0.00000E+00
 -1      2220 0.00000E+00
 -1      2222 0.00000E+00
 -1      2223 0.00000E+00
 -1      2225 0.00000E+00
 -1      2226 0.00000E+00
 -1      2228 0.00000E+00
 -1      2229 0.00000E+00
 -1      2231 0.00000E+00
 -1      2232 0.00000E+00
 -1      2234 0.00000E+00
 -1      2235 0.00000E+00
 -1      2237 0.00000E+00
 -1      2238 0.00000E+00
 -1      2240 0.00000E+00
 -1      2241 0.00000E+00
 -1      2243 0.00000E+00
 -1      2244 0.00000E+00
 -1      2246 0.00000E+00
 -1      2247 0.00000E+00
 -1      2249 0.00000E+00
 -1      2250 0.00000E+00
 -1      2252 0.00000E+00
 -1      2253 0.00000E+00
 -1      2255 0.00000E+00
 -1      2256 0.00000E+00
 -1      2258 0.00000E+00
 -1      2259 0.00000E+00
 -1      2261 0.00000E+00
 -1      2262 0.00000E+00
 -1      2264 0.00000E+00
 -1      2265 0.00000E+00
 -1      2267 0.00000E+00
 -1      2268 0.00000E+00
 -1      2270 0.00000E+00
 -1      2271 0.00000E+00
 -1      2273 0.00000E+00
 -1      2274 0.00000E+00
 -1      2276 0.00000E+00
 -1      2277 0.00000E+00
 -1      2279 0.00000E+00
 -1      2280 0.00000E+00
 -1      2282 0.00000E+00
 -1      2283 0.00000E+00
 -1      2285 0.00000E+00
 -1      2286 0.00000E+00
 -1      2288 0.00000E+00
 -1      2289 0.00000E+00
 -1      2291 0.00000E+00
 -1      2292 0.00000E+00
 -1      2294 0.00000E+00
 -3
    1PSTEP                        65           1           1          
    1PGM                1.000000E+00                                  
    1PGK                1.388928E+07                                  
    1PHID                         -1                                  
    1PSUBC                         0                                  
    1PMODE                        17                                  
  100CL  117 593.1438794         930                     2   17MODAL      1
 -4  DISP        4    1
 -5  D1          1    2    1    0
 -5  D2          1    2    2    0
 -5  D3          1    2    3    0
 -5  ALL         1    2    0    0    1ALL
 -1       404 0.00000E+00 0.00000E+00 4.50692E-06
 -1       406 0.00000E+00-0.00000E+00-4.50692E-06
 -1       407 3.21333E-03 2.35143E-02-1.82226E-01
 -1       409 3.22356E-03 6.51783E-02-1.82211E-01
 -1       410 2.00641E-13 4.44557E-02 1.31188E-12
 -1       412 1.86486E-13 4.40278E-02 1.31347E-12
 -1       413-1.54258E-04 4.42417E-02-1.36276E-04
 -1       415 1.54258E-04 4.42417E-02 1.36276E-04
 -1       424 0.00000E+00 0.00000E+00 1.60046E-15
 -1       426 0.00000E+00 0.00000E+00-1.60046E-15
 -1       427 0.00000E+00 1.01955E-15 0.00000E+00
 -1       429 0.00000E+00-1.01955E-15 0.00000E+00
 -1       438-3.21333E-03 2.35143E-02 1.82226E-01
 -1       440-3.22356E-03 6.51783E-02 1.82211E-01
 -1       441 0.00000E+00 0.00000E+00-4.50692E-06
 -1       443 0.00000E+00-0.00000E+00 4.50692E-06
 -1       444 0.00000E+00-2.20688E-15 0.00000E+00
 -1       446 0.00000E+00 2.20688E-15 0.00000E+00
 -1       447 0.00000E+00 0.00000E+00 3.46429E-15
 -1       449 0.00000E+00 0.00000E+00-3.46429E-15
 -1       458-1.54258E-04 4.42417E-02 1.36276E-04
 -1       460 1.54258E-04 4.42417E-02-1.36276E-04
 -1       461-4.46473E-13 4.44557E-02 6.32068E-13
 -1       463-4.14817E-13 4.40278E-02 6.29909E-13
 -1       472 0.00000E+00 0.00000E+00 4.50692E-06
 -1       474 0.00000E+00 0.00000E+00-4.50692E-06
 -1       475-3.21333E-03 2.35143E-02-1.82226E-01
 -1       477-3.22356E-03 6.51783E-02-1.82211E-01
 -1       478 3.21333E-03 2.35143E-02 1.82226E-01
 -1       480 3.22356E-03 6.51783E-02 1.82211E-01
 -1       481 0.00000E+00 0.00000E+00-4.50692E-06
 -1       483 0.00000E+00 0.00000E+00 4.50692E-06
 -1       484-1.22401E-03-1.06749E-03-7.99531E-03
 -1       486 7.12950E-04 1.02996E-03-7.98244E-03
 -1       487-1.38795E-03-1.77902E-03-1.85641E-02
 -1       489-4.38280E-04 2.49450E-03-1.85177E-02
 -1       490-2.62541E-03-1.44354E-03-2.77843E-02
 -1       492-1.18082E-03 4.99714E-03-2.77426E-02
 -1       493-3.57664E-03 1.69231E-04-3.76939E-02
 -1       495-2.37250E-03 8.82847E-03-3.76453E-02
 -1       496-4.58180E-03 3.05519E-03-4.72554E-02
 -1       498-3.26458E-03 1.38698E-02-4.72164E-02
 -1       499-5.20547E-03 6.96028E-03-5.68824E-02
 -1       501-3.96255E-03 1.99169E-02-5.68612E-02
 -1       502-5.40771E-03 1.14371E-02-6.62587E-02
 -1       504-4.16731E-03 2.64802E-02-6.62536E-02
 -1       505-5.11040E-03 1.58990E-02-7.53865E-02
 -1       507-3.92705E-03 3.29730E-02-7.54049E-02
 -1       508-4.36773E-03 1.97905E-02-8.41292E-02
 -1       510-3.23415E-03 3.88315E-02-8.41595E-02
 -1       511-3.31748E-03 2.26393E-02-9.24302E-02
 -1       513-2.25047E-03 4.35688E-02-9.24723E-02
 -1       514-2.15071E-03 2.41968E-02-1.00244E-01
 -1       516-1.14961E-03 4.69409E-02-1.00283E-01
 -1       517-1.08713E-03 2.44523E-02-1.07568E-01
 -1       519-1.51036E-04 4.89249E-02-1.07600E-01
 -1       520-3.18143E-04 2.36540E-02-1.14438E-01
 -1       522 5.60342E-04 4.97793E-02-1.14452E-01
 -1       523 2.11073E-05 2.22477E-02-1.20913E-01
 -1       525 8.52328E-04 4.99441E-02-1.20908E-01
 -1       526-1.14178E-04 2.07894E-02-1.27073E-01
 -1       528 6.80864E-04 4.99864E-02-1.27047E-01
 -1       529-6.74380E-04 1.98336E-02-1.32996E-01
 -1       531 9.49007E-05 5.04588E-02-1.32955E-01
 -1       532-1.52219E-03 1.98179E-02-1.38742E-01
 -1       534-7.72136E-04 5.18069E-02-1.38692E-01
 -1       535-2.46197E-03 2.09786E-02-1.44344E-01
 -1       537-1.72886E-03 5.42631E-02-1.44295E-01
 -1       538-3.27757E-03 2.32966E-02-1.49797E-01
 -1       540-2.56487E-03 5.78107E-02-1.49756E-01
 -1       541-3.77577E-03 2.65047E-02-1.55059E-01
 -1       543-3.09144E-03 6.21748E-02-1.55035E-01
 -1       544-3.82454E-03 3.01349E-02-1.60059E-01
 -1       546-3.18040E-03 6.68833E-02-1.60055E-01
 -1       547-3.37853E-03 3.36127E-02-1.64705E-01
 -1       549-2.78765E-03 7.13513E-02-1.64721E-01
 -1       550-2.48793E-03 3.63669E-02-1.68904E-01
 -1       552-1.96309E-03 7.50006E-02-1.68935E-01
 -1       553-1.28672E-03 3.79414E-02-1.72572E-01
 -1       555-8.37527E-04 7.73649E-02-1.72613E-01
 -1       556 3.63411E-05 3.80815E-02-1.75652E-01
 -1       558 4.03312E-04 7.81835E-02-1.75693E-01
 -1       559 1.27581E-03 3.67733E-02-1.78117E-01
 -1       561 1.56067E-03 7.74356E-02-1.78150E-01
 -1       562 2.26113E-03 3.42482E-02-1.79969E-01
 -1       564 2.46399E-03 7.53491E-02-1.79989E-01
 -1       565 2.88854E-03 3.08886E-02-1.81245E-01
 -1       567 3.02099E-03 7.23033E-02-1.81248E-01
 -1       568 3.15424E-03 2.71976E-02-1.81974E-01
 -1       570 3.21153E-03 6.87992E-02-1.81964E-01
 -1       571 1.57765E-03 2.73793E-02-5.61299E-02
 -1       573 1.58010E-03 6.12724E-02-5.61480E-02
 -1       574 3.75498E-14 5.57886E-05 1.31091E-13
 -1       576 4.59719E-14-4.69037E-05 1.28789E-13
 -1       577-3.10356E-05 4.44246E-06-3.27094E-05
 -1       579 3.10356E-05 4.44246E-06 3.27094E-05
 -1       588 7.11624E-14 1.93708E-04 4.01904E-13
 -1       590 5.01294E-14 4.13695E-05 4.02179E-13
 -1       591 3.30893E-05 1.17539E-04-4.85227E-05
 -1       593-3.30893E-05 1.17539E-04 4.85227E-05
 -1       602 4.80489E-14 1.81252E-03 6.59045E-13
 -1       604 4.88389E-14 1.58431E-03 6.61642E-13
 -1       605 8.52151E-05 1.69841E-03-7.26899E-05
 -1       607-8.52151E-05 1.69841E-03 7.26899E-05
 -1       616 1.49843E-14 4.37891E-03 9.21859E-13
 -1       618-2.83515E-15 4.17463E-03 9.27090E-13
 -1       619 1.35475E-04 4.27677E-03-6.50643E-05
 -1       621-1.35475E-04 4.27677E-03 6.50643E-05
 -1       630-5.65487E-14 8.42756E-03 1.09643E-12
 -1       632-3.94908E-14 8.27160E-03 1.10192E-12
 -1       633 2.07621E-04 8.34958E-03-4.96773E-05
 -1       635-2.07621E-04 8.34958E-03 4.96773E-05
 -1       644-1.08258E-13 1.33643E-02 1.15231E-12
 -1       646-9.27566E-14 1.32975E-02 1.15604E-12
 -1       647 2.25329E-04 1.33309E-02-2.13020E-05
 -1       649-2.25329E-04 1.33309E-02 2.13020E-05
 -1       658-1.64275E-13 1.89116E-02 1.14500E-12
 -1       660-1.37823E-13 1.89512E-02 1.14803E-12
 -1       661 2.55428E-04 1.89314E-02 1.26171E-05
 -1       663-2.55428E-04 1.89314E-02-1.26171E-05
 -1       672-2.15018E-13 2.44008E-02 1.13663E-12
 -1       674-2.04785E-13 2.45306E-02 1.14075E-12
 -1       675 2.24286E-04 2.44657E-02 4.13339E-05
 -1       677-2.24286E-04 2.44657E-02-4.13339E-05
 -1       686-2.96417E-13 2.92925E-02 1.10736E-12
 -1       688-2.70893E-13 2.94846E-02 1.11343E-12
 -1       689 1.96030E-04 2.93885E-02 6.11749E-05
 -1       691-1.96030E-04 2.93885E-02-6.11749E-05
 -1       700-3.82702E-13 3.31127E-02 9.43647E-13
 -1       702-3.35878E-13 3.33081E-02 9.49247E-13
 -1       703 1.28307E-04 3.32104E-02 6.22404E-05
 -1       705-1.28307E-04 3.32104E-02-6.22404E-05
 -1       714-4.42189E-13 3.55969E-02 6.56663E-13
 -1       716-3.84757E-13 3.57381E-02 6.60325E-13
 -1       717 7.12973E-05 3.56675E-02 4.49755E-05
 -1       719-7.12973E-05 3.56675E-02-4.49755E-05
 -1       728-4.65255E-13 3.67459E-02 3.46382E-13
 -1       730-4.14160E-13 3.67690E-02 3.50505E-13
 -1       731 7.43874E-06 3.67574E-02 7.36009E-06
 -1       733-7.43874E-06 3.67574E-02-7.36009E-06
 -1       742-4.67750E-13 3.67957E-02 7.43975E-14
 -1       744-4.23232E-13 3.66570E-02 7.81887E-14
 -1       745-3.00545E-05 3.67264E-02-4.41746E-05
 -1       747 3.00545E-05 3.67264E-02 4.41746E-05
 -1       756-4.49973E-13 3.62018E-02-1.51097E-13
 -1       758-4.11651E-13 3.58752E-02-1.49836E-13
 -1       759-5.00097E-05 3.60385E-02-1.04049E-04
 -1       761 5.00097E-05 3.60385E-02 1.04049E-04
 -1       770-4.18247E-13 3.55152E-02-3.49170E-13
 -1       772-3.79649E-13 3.50056E-02-3.46572E-13
 -1       773-3.78998E-05 3.52604E-02-1.62336E-04
 -1       775 3.78998E-05 3.52604E-02 1.62336E-04
 -1       784-3.69560E-13 3.52964E-02-5.12734E-13
 -1       786-3.38374E-13 3.46331E-02-5.10489E-13
 -1       787-5.21222E-06 3.49648E-02-2.11281E-04
 -1       789 5.21222E-06 3.49648E-02 2.11281E-04
 -1       798-2.98592E-13 3.59812E-02-6.11509E-13
 -1       800-2.78440E-13 3.52174E-02-6.11124E-13
 -1       801 4.65145E-05 3.55993E-02-2.43254E-04
 -1       803-4.65145E-05 3.55993E-02 2.43254E-04
 -1       812-2.13548E-13 3.78070E-02-6.47321E-13
 -1       814-2.00430E-13 3.70072E-02-6.47074E-13
 -1       815 1.01736E-04 3.74071E-02-2.54760E-04
 -1       817-1.01736E-04 3.74071E-02 2.54760E-04
 -1       826-1.38901E-13 4.07527E-02-6.54753E-13
 -1       828-1.25887E-13 3.99832E-02-6.53951E-13
 -1       829 1.51418E-04 4.03679E-02-2.45118E-04
 -1       831-1.51418E-04 4.03679E-02 2.45118E-04
 -1       840-7.48114E-14 4.45484E-02-6.39944E-13
 -1       842-6.67628E-14 4.38641E-02-6.39103E-13
 -1       843 1.82322E-04 4.42063E-02-2.17971E-04
 -1       845-1.82322E-04 4.42063E-02 2.17971E-04
 -1       854-1.44727E-14 4.87221E-02-5.56580E-13
 -1       856-2.24699E-14 4.81587E-02-5.55281E-13
 -1       857 1.88692E-04 4.84404E-02-1.79435E-04
 -1       859-1.88692E-04 4.84404E-02 1.79435E-04
 -1       868 3.14935E-14 5.26940E-02-4.08194E-13
 -1       870 1.97519E-14 5.22618E-02-4.05072E-13
 -1       871 1.66635E-04 5.24779E-02-1.37668E-04
 -1       873-1.66635E-04 5.24779E-02 1.37668E-04
 -1       882 6.65347E-14 5.58897E-02-2.53409E-13
 -1       884 5.66771E-14 5.55737E-02-2.49050E-13
 -1       885 1.20263E-04 5.57317E-02-1.00635E-04
 -1       887-1.20263E-04 5.57317E-02 1.00635E-04
 -1       896 1.01542E-13 5.78471E-02-7.74644E-14
 -1       898 8.25314E-14 5.76117E-02-7.57048E-14
 -1       899 5.58659E-05 5.77294E-02-7.49983E-05
 -1       901-5.58659E-05 5.77294E-02 7.49983E-05
 -1       910 1.37476E-13 5.83108E-02 1.44253E-13
 -1       912 1.10806E-13 5.81085E-02 1.47084E-13
 -1       913-1.39559E-05 5.82096E-02-6.44482E-05
 -1       915 1.39559E-05 5.82096E-02 6.44482E-05
 -1       924 1.69636E-13 5.72645E-02 3.99061E-13
 -1       926 1.39245E-13 5.70470E-02 4.02478E-13
 -1       927-7.99442E-05 5.71557E-02-6.92868E-05
 -1       929 7.99442E-05 5.71557E-02 6.92868E-05
 -1       938 1.87987E-13 5.49361E-02 6.63811E-13
 -1       940 1.57300E-13 5.46658E-02 6.67638E-13
 -1       941-1.28573E-04 5.48010E-02-8.60903E-05
 -1       943 1.28573E-04 5.48010E-02 8.60903E-05
 -1       952 1.96808E-13 5.17232E-02 9.20757E-13
 -1       954 1.66034E-13 5.13824E-02 9.23337E-13
 -1       955-1.58125E-04 5.15528E-02-1.08544E-04
 -1       957 1.58125E-04 5.15528E-02 1.08544E-04
 -1       966 1.94888E-13 4.80954E-02 1.15294E-12
 -1       968 1.68710E-13 4.76928E-02 1.15750E-12
 -1       969-1.62478E-04 4.78941E-02-1.28215E-04
 -1       971 1.62478E-04 4.78941E-02 1.28216E-04
 -1       980 0.00000E+00 0.00000E+00-1.00781E-05
 -1       982 0.00000E+00-0.00000E+00 1.00781E-05
 -1       983-1.57765E-03 2.73793E-02 5.61299E-02
 -1       985-1.58010E-03 6.12724E-02 5.61480E-02
 -1       986 1.22401E-03-1.06749E-03 7.99531E-03
 -1       988-7.12950E-04 1.02996E-03 7.98244E-03
 -1       989 1.38795E-03-1.77902E-03 1.85641E-02
 -1       991 4.38280E-04 2.49450E-03 1.85177E-02
 -1       992 2.62541E-03-1.44354E-03 2.77843E-02
 -1       994 1.18082E-03 4.99714E-03 2.77426E-02
 -1       995 3.57664E-03 1.69231E-04 3.76939E-02
 -1       997 2.37250E-03 8.82847E-03 3.76453E-02
 -1       998 4.58180E-03 3.05519E-03 4.72554E-02
 -1      1000 3.26458E-03 1.38698E-02 4.72164E-02
 -1      1001 5.20547E-03 6.96028E-03 5.68824E-02
 -1      1003 3.96255E-03 1.99169E-02 5.68612E-02
 -1      1004 5.40771E-03 1.14371E-02 6.62587E-02
 -1      1006 4.16731E-03 2.64802E-02 6.62536E-02
 -1      1007 5.11040E-03 1.58990E-02 7.53865E-02
 -1      1009 3.92705E-03 3.29730E-02 7.54049E-02
 -1      1010 4.36773E-03 1.97905E-02 8.41292E-02
 -1      1012 3.23415E-03 3.88315E-02 8.41595E-02
 -1      1013 3.31748E-03 2.26393E-02 9.24302E-02
 -1      1015 2.25047E-03 4.35688E-02 9.24723E-02
 -1      1016 2.15071E-03 2.41968E-02 1.00244E-01
 -1      1018 1.14961E-03 4.69409E-02 1.00283E-01
 -1      1019 1.08713E-03 2.44523E-02 1.07568E-01
 -1      1021 1.51036E-04 4.89249E-02 1.07600E-01
 -1      1022 3.18143E-04 2.36540E-02 1.14438E-01
 -1      1024-5.60342E-04 4.97793E-02 1.14452E-01
 -1      1025-2.11073E-05 2.22477E-02 1.20913E-01
 -1      1027-8.52328E-04 4.99441E-02 1.20908E-01
 -1      1028 1.14178E-04 2.07894E-02 1.27073E-01
 -1      1030-6.80864E-04 4.99864E-02 1.27047E-01
 -1      1031 6.74380E-04 1.98336E-02 1.32996E-01
 -1      1033-9.49007E-05 5.04588E-02 1.32955E-01
 -1      1034 1.52219E-03 1.98179E-02 1.38742E-01
 -1      1036 7.72136E-04 5.18069E-02 1.38692E-01
 -1      1037 2.46197E-03 2.09786E-02 1.44344E-01
 -1      1039 1.72886E-03 5.42631E-02 1.44295E-01
 -1      1040 3.27757E-03 2.32966E-02 1.49797E-01
 -1      1042 2.56487E-03 5.78107E-02 1.49756E-01
 -1      1043 3.77577E-03 2.65047E-02 1.55059E-01
 -1      1045 3.09144E-03 6.21748E-02 1.55035E-01
 -1      1046 3.82454E-03 3.01349E-02 1.60059E-01
 -1      1048 3.18040E-03 6.68833E-02 1.60055E-01
 -1      1049 3.37853E-03 3.36127E-02 1.64705E-01
 -1      1051 2.78765E-03 7.13513E-02 1.64721E-01
 -1      1052 2.48793E-03 3.63669E-02 1.68904E-01
 -1      1054 1.96309E-03 7.50006E-02 1.68935E-01
 -1      1055 1.28672E-03 3.79414E-02 1.72572E-01
 -1      1057 8.37527E-04 7.73649E-02 1.72613E-01
 -1      1058-3.63411E-05 3.80815E-02 1.75652E-01
 -1      1060-4.03312E-04 7.81835E-02 1.75693E-01
 -1      1061-1.27581E-03 3.67733E-02 1.78117E-01
 -1      1063-1.56067E-03 7.74356E-02 1.78150E-01
 -1      1064-2.26113E-03 3.42482E-02 1.79969E-01
 -1      1066-2.46399E-03 7.53491E-02 1.79989E-01
 -1      1067-2.88854E-03 3.08886E-02 1.81245E-01
 -1      1069-3.02099E-03 7.23033E-02 1.81248E-01
 -1      1070-3.15424E-03 2.71976E-02 1.81974E-01
 -1      1072-3.21153E-03 6.87992E-02 1.81964E-01
 -1      1073 0.00000E+00 0.00000E+00 1.00781E-05
 -1      1075 0.00000E+00-0.00000E+00-1.00781E-05
 -1      1076 0.00000E+00-7.73849E-17 0.00000E+00
 -1      1078 0.00000E+00 7.73849E-17 0.00000E+00
 -1      1079 0.00000E+00-5.86879E-16 0.00000E+00
 -1      1081 0.00000E+00 5.86879E-16 0.00000E+00
 -1      1082 0.00000E+00-1.03013E-15 0.00000E+00
 -1      1084 0.00000E+00 1.03013E-15 0.00000E+00
 -1      1085-3.10356E-05 4.44246E-06 3.27094E-05
 -1      1087 3.10356E-05 4.44246E-06-3.27094E-05
 -1      1088-1.41501E-13 5.57886E-05 2.50091E-13
 -1      1090-5.34227E-14-4.69037E-05 2.47137E-13
 -1      1099 3.30893E-05 1.17539E-04 4.85227E-05
 -1      1101-3.30893E-05 1.17539E-04-4.85227E-05
 -1      1102-1.55186E-13 1.93708E-04 4.30642E-13
 -1      1104-1.48504E-13 4.13695E-05 4.29219E-13
 -1      1113 8.52151E-05 1.69841E-03 7.26899E-05
 -1      1115-8.52151E-05 1.69841E-03-7.26899E-05
 -1      1116-2.14854E-13 1.81252E-03 5.71182E-13
 -1      1118-1.54226E-13 1.58431E-03 5.69627E-13
 -1      1127 1.35475E-04 4.27677E-03 6.50643E-05
 -1      1129-1.35475E-04 4.27677E-03-6.50643E-05
 -1      1130-2.10681E-13 4.37891E-03 7.06425E-13
 -1      1132-1.92000E-13 4.17463E-03 7.05917E-13
 -1      1141 2.07621E-04 8.34958E-03 4.96773E-05
 -1      1143-2.07621E-04 8.34958E-03-4.96773E-05
 -1      1144-2.22261E-13 8.42756E-03 7.91546E-13
 -1      1146-1.84357E-13 8.27160E-03 7.91688E-13
 -1      1155 2.25329E-04 1.33309E-02 2.13020E-05
 -1      1157-2.25329E-04 1.33309E-02-2.13020E-05
 -1      1158-1.99173E-13 1.33643E-02 8.47897E-13
 -1      1160-1.82646E-13 1.32975E-02 8.47789E-13
 -1      1169 2.55428E-04 1.89314E-02-1.26171E-05
 -1      1171-2.55428E-04 1.89314E-02 1.26171E-05
 -1      1172-1.76166E-13 1.89116E-02 8.98362E-13
 -1      1174-1.41656E-13 1.89512E-02 8.98555E-13
 -1      1183 2.24286E-04 2.44657E-02-4.13339E-05
 -1      1185-2.24286E-04 2.44657E-02 4.13339E-05
 -1      1186-1.10170E-13 2.44008E-02 9.09938E-13
 -1      1188-1.01160E-13 2.45306E-02 9.12840E-13
 -1      1197 1.96030E-04 2.93885E-02-6.11749E-05
 -1      1199-1.96030E-04 2.93885E-02 6.11749E-05
 -1      1200-4.69088E-14 2.92925E-02 7.73101E-13
 -1      1202-5.89891E-14 2.94846E-02 7.75008E-13
 -1      1211 1.28307E-04 3.32104E-02-6.22404E-05
 -1      1213-1.28307E-04 3.32104E-02 6.22404E-05
 -1      1214-5.61663E-15 3.31127E-02 5.30276E-13
 -1      1216-2.75838E-14 3.33081E-02 5.30511E-13
 -1      1225 7.12973E-05 3.56675E-02-4.49755E-05
 -1      1227-7.12973E-05 3.56675E-02 4.49755E-05
 -1      1228 1.92188E-14 3.55969E-02 2.75548E-13
 -1      1230 3.93889E-15 3.57381E-02 2.74970E-13
 -1      1239 7.43874E-06 3.67574E-02-7.36009E-06
 -1      1241-7.43874E-06 3.67574E-02 7.36009E-06
 -1      1242 3.98742E-14 3.67459E-02 2.99545E-14
 -1      1244 2.18542E-14 3.67690E-02 2.59634E-14
 -1      1253-3.00545E-05 3.67264E-02 4.41746E-05
 -1      1255 3.00545E-05 3.67264E-02-4.41746E-05
 -1      1256 3.70288E-14 3.67957E-02-2.25560E-13
 -1      1258 1.95371E-14 3.66570E-02-2.29347E-13
 -1      1267-5.00097E-05 3.60385E-02 1.04049E-04
 -1      1269 5.00097E-05 3.60385E-02-1.04049E-04
 -1      1270 9.91196E-15 3.62018E-02-4.94509E-13
 -1      1272-1.09780E-14 3.58752E-02-4.97919E-13
 -1      1281-3.78998E-05 3.52604E-02 1.62336E-04
 -1      1283 3.78998E-05 3.52604E-02-1.62336E-04
 -1      1284-4.21071E-14 3.55152E-02-7.34708E-13
 -1      1286-5.29974E-14 3.50056E-02-7.42167E-13
 -1      1295-5.21222E-06 3.49648E-02 2.11281E-04
 -1      1297 5.21222E-06 3.49648E-02-2.11281E-04
 -1      1298-9.75792E-14 3.52964E-02-9.00008E-13
 -1      1300-9.67653E-14 3.46331E-02-9.06561E-13
 -1      1309 4.65145E-05 3.55993E-02 2.43254E-04
 -1      1311-4.65145E-05 3.55993E-02-2.43254E-04
 -1      1312-1.39158E-13 3.59812E-02-1.04094E-12
 -1      1314-1.44324E-13 3.52174E-02-1.04687E-12
 -1      1323 1.01736E-04 3.74071E-02 2.54760E-04
 -1      1325-1.01736E-04 3.74071E-02-2.54760E-04
 -1      1326-1.82098E-13 3.78070E-02-1.18668E-12
 -1      1328-1.84643E-13 3.70072E-02-1.19264E-12
 -1      1337 1.51418E-04 4.03679E-02 2.45118E-04
 -1      1339-1.51418E-04 4.03679E-02-2.45118E-04
 -1      1340-2.23409E-13 4.07527E-02-1.28367E-12
 -1      1342-2.16441E-13 3.99832E-02-1.28935E-12
 -1      1351 1.82322E-04 4.42063E-02 2.17971E-04
 -1      1353-1.82322E-04 4.42063E-02-2.17971E-04
 -1      1354-2.65110E-13 4.45484E-02-1.31499E-12
 -1      1356-2.52930E-13 4.38641E-02-1.32224E-12
 -1      1365 1.88692E-04 4.84404E-02 1.79435E-04
 -1      1367-1.88692E-04 4.84404E-02-1.79435E-04
 -1      1368-3.17360E-13 4.87221E-02-1.26742E-12
 -1      1370-2.93235E-13 4.81587E-02-1.27563E-12
 -1      1379 1.66635E-04 5.24779E-02 1.37668E-04
 -1      1381-1.66635E-04 5.24779E-02-1.37668E-04
 -1      1382-3.70732E-13 5.26940E-02-1.10610E-12
 -1      1384-3.31908E-13 5.22618E-02-1.11323E-12
 -1      1393 1.20263E-04 5.57317E-02 1.00635E-04
 -1      1395-1.20263E-04 5.57317E-02-1.00635E-04
 -1      1396-4.14383E-13 5.58897E-02-8.65798E-13
 -1      1398-3.72030E-13 5.55737E-02-8.72367E-13
 -1      1407 5.58659E-05 5.77294E-02 7.49983E-05
 -1      1409-5.58659E-05 5.77294E-02-7.49983E-05
 -1      1410-4.46260E-13 5.78471E-02-6.46786E-13
 -1      1412-4.17797E-13 5.76117E-02-6.51509E-13
 -1      1421-1.39559E-05 5.82096E-02 6.44482E-05
 -1      1423 1.39559E-05 5.82096E-02-6.44482E-05
 -1      1424-4.77039E-13 5.83108E-02-4.68743E-13
 -1      1426-4.50847E-13 5.81085E-02-4.74225E-13
 -1      1435-7.99442E-05 5.71557E-02 6.92868E-05
 -1      1437 7.99442E-05 5.71557E-02-6.92868E-05
 -1      1438-5.01122E-13 5.72645E-02-2.56180E-13
 -1      1440-4.63544E-13 5.70470E-02-2.62645E-13
 -1      1449-1.28573E-04 5.48010E-02 8.60903E-05
 -1      1451 1.28573E-04 5.48010E-02-8.60903E-05
 -1      1452-5.03992E-13 5.49361E-02 5.78194E-15
 -1      1454-4.63178E-13 5.46658E-02 4.02966E-15
 -1      1463-1.58125E-04 5.15528E-02 1.08544E-04
 -1      1465 1.58125E-04 5.15528E-02-1.08544E-04
 -1      1466-4.83362E-13 5.17232E-02 2.42492E-13
 -1      1468-4.55697E-13 5.13824E-02 2.39039E-13
 -1      1477-1.62478E-04 4.78941E-02 1.28215E-04
 -1      1479 1.62478E-04 4.78941E-02-1.28215E-04
 -1      1480-4.62700E-13 4.80954E-02 4.27235E-13
 -1      1482-4.38846E-13 4.76928E-02 4.25722E-13
 -1      1491-1.58570E-04-8.69546E-02-1.09846E-02
 -1      1493 1.58570E-04-8.69546E-02 1.09846E-02
 -1      1494-1.62883E-04-2.15493E-01 8.80532E-13
 -1      1496 1.62883E-04-2.15493E-01 1.02706E-12
 -1      1497-1.58570E-04-8.69546E-02 1.09846E-02
 -1      1499 1.58570E-04-8.69546E-02-1.09846E-02
 -1      1500 1.22401E-03-1.06749E-03-7.99531E-03
 -1      1502-7.12950E-04 1.02996E-03-7.98244E-03
 -1      1503 1.38795E-03-1.77902E-03-1.85641E-02
 -1      1505 4.38280E-04 2.49450E-03-1.85177E-02
 -1      1506 2.62541E-03-1.44354E-03-2.77843E-02
 -1      1508 1.18082E-03 4.99714E-03-2.77426E-02
 -1      1509 3.57664E-03 1.69231E-04-3.76939E-02
 -1      1511 2.37250E-03 8.82847E-03-3.76453E-02
 -1      1512 4.58180E-03 3.05519E-03-4.72554E-02
 -1      1514 3.26458E-03 1.38698E-02-4.72164E-02
 -1      1515 5.20547E-03 6.96028E-03-5.68824E-02
 -1      1517 3.96255E-03 1.99169E-02-5.68612E-02
 -1      1518 5.40771E-03 1.14371E-02-6.62587E-02
 -1      1520 4.16731E-03 2.64802E-02-6.62536E-02
 -1      1521 5.11040E-03 1.58990E-02-7.53865E-02
 -1      1523 3.92705E-03 3.29730E-02-7.54049E-02
 -1      1524 4.36773E-03 1.97905E-02-8.41292E-02
 -1      1526 3.23415E-03 3.88315E-02-8.41595E-02
 -1      1527 3.31748E-03 2.26393E-02-9.24302E-02
 -1      1529 2.25047E-03 4.35688E-02-9.24723E-02
 -1      1530 2.15071E-03 2.41968E-02-1.00244E-01
 -1      1532 1.14961E-03 4.69409E-02-1.00283E-01
 -1      1533 1.08713E-03 2.44523E-02-1.07568E-01
 -1      1535 1.51036E-04 4.89249E-02-1.07600E-01
 -1      1536 3.18143E-04 2.36540E-02-1.14438E-01
 -1      1538-5.60342E-04 4.97793E-02-1.14452E-01
 -1      1539-2.11073E-05 2.22477E-02-1.20913E-01
 -1      1541-8.52328E-04 4.99441E-02-1.20908E-01
 -1      1542 1.14178E-04 2.07894E-02-1.27073E-01
 -1      1544-6.80864E-04 4.99864E-02-1.27047E-01
 -1      1545 6.74380E-04 1.98336E-02-1.32996E-01
 -1      1547-9.49007E-05 5.04588E-02-1.32955E-01
 -1      1548 1.52219E-03 1.98179E-02-1.38742E-01
 -1      1550 7.72136E-04 5.18069E-02-1.38692E-01
 -1      1551 2.46197E-03 2.09786E-02-1.44344E-01
 -1      1553 1.72886E-03 5.42631E-02-1.44295E-01
 -1      1554 3.27757E-03 2.32966E-02-1.49797E-01
 -1      1556 2.56487E-03 5.78107E-02-1.49756E-01
 -1      1557 3.77577E-03 2.65047E-02-1.55059E-01
 -1      1559 3.09144E-03 6.21748E-02-1.55035E-01
 -1      1560 3.82454E-03 3.01349E-02-1.60059E-01
 -1      1562 3.18040E-03 6.68833E-02-1.60055E-01
 -1      1563 3.37853E-03 3.36127E-02-1.64705E-01
 -1      1565 2.78765E-03 7.13513E-02-1.64721E-01
 -1      1566 2.48793E-03 3.63669E-02-1.68904E-01
 -1      1568 1.96309E-03 7.50006E-02-1.68935E-01
 -1      1569 1.28672E-03 3.79414E-02-1.72572E-01
 -1      1571 8.37527E-04 7.73649E-02-1.72613E-01
 -1      1572-3.63411E-05 3.80815E-02-1.75652E-01
 -1      1574-4.03312E-04 7.81835E-02-1.75693E-01
 -1      1575-1.27581E-03 3.67733E-02-1.78117E-01
 -1      1577-1.56067E-03 7.74356E-02-1.78150E-01
 -1      1578-2.26113E-03 3.42482E-02-1.79969E-01
 -1      1580-2.46399E-03 7.53491E-02-1.79989E-01
 -1      1581-2.88854E-03 3.08886E-02-1.81245E-01
 -1      1583-3.02099E-03 7.23033E-02-1.81248E-01
 -1      1584-3.15424E-03 2.71976E-02-1.81974E-01
 -1      1586-3.21153E-03 6.87992E-02-1.81964E-01
 -1      1587-1.57765E-03 2.73793E-02-5.61299E-02
 -1      1589-1.58010E-03 6.12724E-02-5.61480E-02
 -1      1590 0.00000E+00 0.00000E+00-1.00781E-05
 -1      1592 0.00000E+00 0.00000E+00 1.00781E-05
 -1      1593 1.57765E-03 2.73793E-02 5.61299E-02
 -1      1595 1.58010E-03 6.12724E-02 5.61480E-02
 -1      1596-1.22401E-03-1.06749E-03 7.99531E-03
 -1      1598 7.12950E-04 1.02996E-03 7.98244E-03
 -1      1599-1.38795E-03-1.77902E-03 1.85641E-02
 -1      1601-4.38280E-04 2.49450E-03 1.85177E-02
 -1      1602-2.62541E-03-1.44354E-03 2.77843E-02
 -1      1604-1.18082E-03 4.99714E-03 2.77426E-02
 -1      1605-3.57664E-03 1.69231E-04 3.76939E-02
 -1      1607-2.37250E-03 8.82847E-03 3.76453E-02
 -1      1608-4.58180E-03 3.05519E-03 4.72554E-02
 -1      1610-3.26458E-03 1.38698E-02 4.72164E-02
 -1      1611-5.20547E-03 6.96028E-03 5.68824E-02
 -1      1613-3.96255E-03 1.99169E-02 5.68612E-02
 -1      1614-5.40771E-03 1.14371E-02 6.62587E-02
 -1      1616-4.16731E-03 2.64802E-02 6.62536E-02
 -1      1617-5.11040E-03 1.58990E-02 7.53865E-02
 -1      1619-3.92705E-03 3.29730E-02 7.54049E-02
 -1      1620-4.36773E-03 1.97905E-02 8.41292E-02
 -1      1622-3.23415E-03 3.88315E-02 8.41595E-02
 -1      1623-3.31748E-03 2.26393E-02 9.24302E-02
 -1      1625-2.25047E-03 4.35688E-02 9.24723E-02
 -1      1626-2.15071E-03 2.41968E-02 1.00244E-01
 -1      1628-1.14961E-03 4.69409E-02 1.00283E-01
 -1      1629-1.08713E-03 2.44523E-02 1.07568E-01
 -1      1631-1.51036E-04 4.89249E-02 1.07600E-01
 -1      1632-3.18143E-04 2.36540E-02 1.14438E-01
 -1      1634 5.60342E-04 4.97793E-02 1.14452E-01
 -1      1635 2.11073E-05 2.22477E-02 1.20913E-01
 -1      1637 8.52328E-04 4.99441E-02 1.20908E-01
 -1      1638-1.14178E-04 2.07894E-02 1.27073E-01
 -1      1640 6.80864E-04 4.99864E-02 1.27047E-01
 -1      1641-6.74380E-04 1.98336E-02 1.32996E-01
 -1      1643 9.49007E-05 5.04588E-02 1.32955E-01
 -1      1644-1.52219E-03 1.98179E-02 1.38742E-01
 -1      1646-7.72136E-04 5.18069E-02 1.38692E-01
 -1      1647-2.46197E-03 2.09786E-02 1.44344E-01
 -1      1649-1.72886E-03 5.42631E-02 1.44295E-01
 -1      1650-3.27757E-03 2.32966E-02 1.49797E-01
 -1      1652-2.56487E-03 5.78107E-02 1.49756E-01
 -1      1653-3.77577E-03 2.65047E-02 1.55059E-01
 -1      1655-3.09144E-03 6.21748E-02 1.55035E-01
 -1      1656-3.82454E-03 3.01349E-02 1.60059E-01
 -1      1658-3.18040E-03 6.68833E-02 1.60055E-01
 -1      1659-3.37853E-03 3.36127E-02 1.64705E-01
 -1      1661-2.78765E-03 7.13513E-02 1.64721E-01
 -1      1662-2.48793E-03 3.63669E-02 1.68904E-01
 -1      1664-1.96309E-03 7.50006E-02 1.68935E-01
 -1      1665-1.28672E-03 3.79414E-02 1.72572E-01
 -1      1667-8.37527E-04 7.73649E-02 1.72613E-01
 -1      1668 3.63411E-05 3.80815E-02 1.75652E-01
 -1      1670 4.03312E-04 7.81835E-02 1.75693E-01
 -1      1671 1.27581E-03 3.67733E-02 1.78117E-01
 -1      1673 1.56067E-03 7.74356E-02 1.78150E-01
 -1      1674 2.26113E-03 3.42482E-02 1.79969E-01
 -1      1676 2.46399E-03 7.53491E-02 1.79989E-01
 -1      1677 2.88854E-03 3.08886E-02 1.81245E-01
 -1      1679 3.02099E-03 7.23033E-02 1.81248E-01
 -1      1680 3.15424E-03 2.71976E-02 1.81974E-01
 -1      1682 3.21153E-03 6.87992E-02 1.81964E-01
 -1      1683 0.00000E+00 0.00000E+00 1.00781E-05
 -1      1685 0.00000E+00 0.00000E+00-1.00781E-05
 -1      1686-4.86320E-04-7.65415E-04-2.13814E-03
 -1      1688 1.59727E-04 6.48073E-04-2.12371E-03
 -1      1689-6.48636E-04-1.47385E-03-5.62440E-03
 -1      1691-3.44935E-04 1.98832E-03-5.61964E-03
 -1      1692-1.20231E-03-9.41016E-04-8.33149E-03
 -1      1694-7.33210E-04 4.27844E-03-8.30920E-03
 -1      1695-1.66842E-03 8.77834E-04-1.14914E-02
 -1      1697-1.26169E-03 7.90144E-03-1.14782E-02
 -1      1698-2.15728E-03 3.95753E-03-1.45005E-02
 -1      1700-1.71667E-03 1.27726E-02-1.44906E-02
 -1      1701-2.44904E-03 8.11318E-03-1.76228E-02
 -1      1703-2.02030E-03 1.86712E-02-1.76189E-02
 -1      1704-2.55482E-03 1.28019E-02-2.06559E-02
 -1      1706-2.13298E-03 2.50910E-02-2.06655E-02
 -1      1707-2.40829E-03 1.75085E-02-2.36139E-02
 -1      1709-2.00464E-03 3.14566E-02-2.36291E-02
 -1      1710-2.05634E-03 2.16052E-02-2.63981E-02
 -1      1712-1.67954E-03 3.71683E-02-2.64252E-02
 -1      1713-1.55207E-03 2.46604E-02-2.89846E-02
 -1      1715-1.20507E-03 4.17534E-02-2.90131E-02
 -1      1716-9.94419E-04 2.63882E-02-3.13365E-02
 -1      1718-6.80783E-04 4.49455E-02-3.13690E-02
 -1      1719-4.85158E-04 2.67997E-02-3.34639E-02
 -1      1721-2.01194E-04 4.67355E-02-3.34913E-02
 -1      1722-1.17761E-04 2.61316E-02-3.53893E-02
 -1      1724 1.40759E-04 4.73782E-02-3.54125E-02
 -1      1725 4.35238E-05 2.48447E-02-3.71639E-02
 -1      1727 2.85069E-04 4.73296E-02-3.71781E-02
 -1      1728-2.29177E-05 2.34966E-02-3.88439E-02
 -1      1730 2.09444E-04 4.71645E-02-3.88515E-02
 -1      1731-2.93335E-04 2.26526E-02-4.04894E-02
 -1      1733-6.22392E-05 4.74498E-02-4.04903E-02
 -1      1734-7.01693E-04 2.27541E-02-4.21456E-02
 -1      1736-4.66971E-04 4.86388E-02-4.21442E-02
 -1      1737-1.15425E-03 2.40412E-02-4.38391E-02
 -1      1739-9.13874E-04 5.09706E-02-4.38383E-02
 -1      1740-1.54708E-03 2.64938E-02-4.55694E-02
 -1      1742-1.30306E-03 5.44274E-02-4.55735E-02
 -1      1743-1.78763E-03 2.98415E-02-4.73106E-02
 -1      1745-1.54514E-03 5.87306E-02-4.73224E-02
 -1      1746-1.81226E-03 3.36087E-02-4.90157E-02
 -1      1748-1.57898E-03 6.33984E-02-4.90368E-02
 -1      1749-1.59936E-03 3.72140E-02-5.06251E-02
 -1      1751-1.38394E-03 6.78359E-02-5.06555E-02
 -1      1752-1.17269E-03 4.00768E-02-5.20780E-02
 -1      1754-9.83134E-04 7.14528E-02-5.21158E-02
 -1      1755-5.96306E-04 4.17370E-02-5.33229E-02
 -1      1757-4.38703E-04 7.37763E-02-5.33653E-02
 -1      1758 3.88690E-05 4.19332E-02-5.43270E-02
 -1      1760 1.61572E-04 7.45391E-02-5.43696E-02
 -1      1761 6.36486E-04 4.06575E-02-5.50809E-02
 -1      1763 7.24730E-04 7.37261E-02-5.51213E-02
 -1      1764 1.11239E-03 3.81352E-02-5.55985E-02
 -1      1766 1.16947E-03 7.15635E-02-5.56327E-02
 -1      1767 1.41962E-03 3.47738E-02-5.59169E-02
 -1      1769 1.45220E-03 6.84580E-02-5.59452E-02
 -1      1770 1.56876E-03 3.10543E-02-5.60736E-02
 -1      1772 1.58115E-03 6.48931E-02-5.60974E-02
 -1      1773 4.86320E-04-7.65415E-04 2.13814E-03
 -1      1775-1.59727E-04 6.48073E-04 2.12371E-03
 -1      1776 6.48636E-04-1.47385E-03 5.62440E-03
 -1      1778 3.44935E-04 1.98832E-03 5.61964E-03
 -1      1779 1.20231E-03-9.41016E-04 8.33149E-03
 -1      1781 7.33210E-04 4.27844E-03 8.30920E-03
 -1      1782 1.66842E-03 8.77834E-04 1.14914E-02
 -1      1784 1.26169E-03 7.90144E-03 1.14782E-02
 -1      1785 2.15728E-03 3.95753E-03 1.45005E-02
 -1      1787 1.71667E-03 1.27726E-02 1.44906E-02
 -1      1788 2.44904E-03 8.11318E-03 1.76228E-02
 -1      1790 2.02030E-03 1.86712E-02 1.76189E-02
 -1      1791 2.55482E-03 1.28019E-02 2.06559E-02
 -1      1793 2.13298E-03 2.50910E-02 2.06655E-02
 -1      1794 2.40829E-03 1.75085E-02 2.36139E-02
 -1      1796 2.00464E-03 3.14566E-02 2.36291E-02
 -1      1797 2.05634E-03 2.16052E-02 2.63981E-02
 -1      1799 1.67954E-03 3.71683E-02 2.64252E-02
 -1      1800 1.55207E-03 2.46604E-02 2.89846E-02
 -1      1802 1.20507E-03 4.17534E-02 2.90131E-02
 -1      1803 9.94419E-04 2.63882E-02 3.13365E-02
 -1      1805 6.80783E-04 4.49455E-02 3.13690E-02
 -1      1806 4.85158E-04 2.67997E-02 3.34639E-02
 -1      1808 2.01194E-04 4.67355E-02 3.34913E-02
 -1      1809 1.17761E-04 2.61316E-02 3.53893E-02
 -1      1811-1.40759E-04 4.73782E-02 3.54125E-02
 -1      1812-4.35238E-05 2.48447E-02 3.71639E-02
 -1      1814-2.85069E-04 4.73296E-02 3.71781E-02
 -1      1815 2.29177E-05 2.34966E-02 3.88439E-02
 -1      1817-2.09444E-04 4.71645E-02 3.88515E-02
 -1      1818 2.93335E-04 2.26526E-02 4.04894E-02
 -1      1820 6.22392E-05 4.74498E-02 4.04903E-02
 -1      1821 7.01693E-04 2.27541E-02 4.21456E-02
 -1      1823 4.66971E-04 4.86388E-02 4.21442E-02
 -1      1824 1.15425E-03 2.40412E-02 4.38391E-02
 -1      1826 9.13874E-04 5.09706E-02 4.38383E-02
 -1      1827 1.54708E-03 2.64938E-02 4.55694E-02
 -1      1829 1.30306E-03 5.44274E-02 4.55735E-02
 -1      1830 1.78763E-03 2.98415E-02 4.73106E-02
 -1      1832 1.54514E-03 5.87306E-02 4.73224E-02
 -1      1833 1.81226E-03 3.36087E-02 4.90157E-02
 -1      1835 1.57898E-03 6.33984E-02 4.90368E-02
 -1      1836 1.59936E-03 3.72140E-02 5.06251E-02
 -1      1838 1.38394E-03 6.78359E-02 5.06555E-02
 -1      1839 1.17269E-03 4.00768E-02 5.20780E-02
 -1      1841 9.83134E-04 7.14528E-02 5.21158E-02
 -1      1842 5.96306E-04 4.17370E-02 5.33229E-02
 -1      1844 4.38703E-04 7.37763E-02 5.33653E-02
 -1      1845-3.88690E-05 4.19332E-02 5.43270E-02
 -1      1847-1.61572E-04 7.45391E-02 5.43696E-02
 -1      1848-6.36486E-04 4.06575E-02 5.50809E-02
 -1      1850-7.24730E-04 7.37261E-02 5.51213E-02
 -1      1851-1.11239E-03 3.81352E-02 5.55985E-02
 -1      1853-1.16947E-03 7.15635E-02 5.56327E-02
 -1      1854-1.41962E-03 3.47738E-02 5.59169E-02
 -1      1856-1.45220E-03 6.84580E-02 5.59452E-02
 -1      1857-1.56876E-03 3.10543E-02 5.60736E-02
 -1      1859-1.58115E-03 6.48931E-02 5.60974E-02
 -1      1860-5.28364E-04-6.41254E-03-5.28628E-04
 -1      1862 5.28364E-04-6.41254E-03 5.28628E-04
 -1      1863-1.58631E-04-1.44644E-02-1.17403E-03
 -1      1865 1.58631E-04-1.44644E-02 1.17403E-03
 -1      1866-2.72227E-04-1.95504E-02-1.73866E-03
 -1      1868 2.72227E-04-1.95504E-02 1.73866E-03
 -1      1869-9.82378E-05-2.38591E-02-2.31294E-03
 -1      1871 9.82378E-05-2.38591E-02 2.31294E-03
 -1      1872-7.98234E-05-2.58930E-02-2.85705E-03
 -1      1874 7.98234E-05-2.58930E-02 2.85705E-03
 -1      1875-7.39464E-06-2.68330E-02-3.37962E-03
 -1      1877 7.39464E-06-2.68330E-02 3.37962E-03
 -1      1878 1.13069E-06-2.68168E-02-3.89171E-03
 -1      1880-1.13069E-06-2.68168E-02 3.89171E-03
 -1      1881-9.09019E-06-2.68302E-02-4.38717E-03
 -1      1883 9.09019E-06-2.68302E-02 4.38717E-03
 -1      1884-5.29070E-05-2.75035E-02-4.88378E-03
 -1      1886 5.29070E-05-2.75035E-02 4.88378E-03
 -1      1887-1.16839E-04-2.94813E-02-5.37500E-03
 -1      1889 1.16839E-04-2.94813E-02 5.37500E-03
 -1      1890-1.85850E-04-3.30640E-02-5.87132E-03
 -1      1892 1.85850E-04-3.30640E-02 5.87132E-03
 -1      1893-2.48634E-04-3.82374E-02-6.36432E-03
 -1      1895 2.48634E-04-3.82374E-02 6.36432E-03
 -1      1896-2.88225E-04-4.46453E-02-6.85468E-03
 -1      1898 2.88225E-04-4.46453E-02 6.85468E-03
 -1      1899-2.98676E-04-5.16583E-02-7.33125E-03
 -1      1901 2.98676E-04-5.16583E-02 7.33125E-03
 -1      1902-2.74355E-04-5.85063E-02-7.78858E-03
 -1      1904 2.74355E-04-5.85063E-02 7.78858E-03
 -1      1905-2.20673E-04-6.44175E-02-8.21602E-03
 -1      1907 2.20673E-04-6.44175E-02 8.21602E-03
 -1      1908-1.45677E-04-6.87814E-02-8.60843E-03
 -1      1910 1.45677E-04-6.87814E-02 8.60843E-03
 -1      1911-6.38811E-05-7.12592E-02-8.96030E-03
 -1      1913 6.38811E-05-7.12592E-02 8.96030E-03
 -1      1914 1.05576E-05-7.18564E-02-9.27173E-03
 -1      1916-1.05576E-05-7.18564E-02 9.27173E-03
 -1      1917 6.37720E-05-7.09157E-02-9.54421E-03
 -1      1919-6.37720E-05-7.09157E-02 9.54421E-03
 -1      1920 8.71116E-05-6.90505E-02-9.78337E-03
 -1      1922-8.71116E-05-6.90505E-02 9.78337E-03
 -1      1923 7.69464E-05-6.70220E-02-9.99488E-03
 -1      1925-7.69464E-05-6.70220E-02 9.99488E-03
 -1      1926 3.74317E-05-6.55858E-02-1.01857E-02
 -1      1928-3.74317E-05-6.55858E-02 1.01857E-02
 -1      1929-2.33371E-05-6.53501E-02-1.03601E-02
 -1      1931 2.33371E-05-6.53501E-02 1.03601E-02
 -1      1932-9.01263E-05-6.66436E-02-1.05209E-02
 -1      1934 9.01263E-05-6.66436E-02 1.05209E-02
 -1      1935-1.52126E-04-6.94808E-02-1.06665E-02
 -1      1937 1.52126E-04-6.94808E-02 1.06665E-02
 -1      1938-1.90972E-04-7.35273E-02-1.07934E-02
 -1      1940 1.90972E-04-7.35273E-02 1.07934E-02
 -1      1941-2.08152E-04-7.82411E-02-1.08942E-02
 -1      1943 2.08152E-04-7.82411E-02 1.08942E-02
 -1      1944-1.87441E-04-8.29062E-02-1.09604E-02
 -1      1946 1.87441E-04-8.29062E-02 1.09604E-02
 -1      1947-1.02569E-03-1.27036E-02 2.02387E-13
 -1      1949 1.02569E-03-1.27036E-02 1.81735E-13
 -1      1950-3.50351E-04-2.81579E-02 4.38056E-13
 -1      1952 3.50351E-04-2.81579E-02 3.83298E-13
 -1      1953-6.29670E-04-3.98778E-02 6.53840E-13
 -1      1955 6.29670E-04-3.98778E-02 5.72591E-13
 -1      1956-3.31951E-04-5.09397E-02 8.38059E-13
 -1      1958 3.31951E-04-5.09397E-02 7.41258E-13
 -1      1959-3.67268E-04-5.92802E-02 9.76320E-13
 -1      1961 3.67268E-04-5.92802E-02 8.77565E-13
 -1      1962-2.40119E-04-6.64112E-02 1.05147E-12
 -1      1964 2.40119E-04-6.64112E-02 9.67060E-13
 -1      1965-2.53167E-04-7.23311E-02 1.07582E-12
 -1      1967 2.53167E-04-7.23311E-02 1.01476E-12
 -1      1968-2.42466E-04-7.82039E-02 1.03994E-12
 -1      1970 2.42466E-04-7.82039E-02 1.00479E-12
 -1      1971-3.01844E-04-8.46520E-02 9.25916E-13
 -1      1973 3.01844E-04-8.46520E-02 9.16029E-13
 -1      1974-3.61985E-04-9.24152E-02 7.22587E-13
 -1      1976 3.61985E-04-9.24152E-02 7.42929E-13
 -1      1977-4.42998E-04-1.01781E-01 4.50072E-13
 -1      1979 4.42998E-04-1.01781E-01 5.06616E-13
 -1      1980-5.04706E-04-1.12740E-01 1.53958E-13
 -1      1982 5.04706E-04-1.12740E-01 2.47642E-13
 -1      1983-5.46395E-04-1.24868E-01-1.39310E-13
 -1      1985 5.46395E-04-1.24868E-01-2.14273E-14
 -1      1986-5.47341E-04-1.37462E-01-4.06244E-13
 -1      1988 5.47341E-04-1.37462E-01-2.77320E-13
 -1      1989-5.10810E-04-1.49647E-01-6.17440E-13
 -1      1991 5.10810E-04-1.49647E-01-4.91031E-13
 -1      1992-4.36134E-04-1.60561E-01-7.69926E-13
 -1      1994 4.36134E-04-1.60561E-01-6.61417E-13
 -1      1995-3.37868E-04-1.69510E-01-8.81385E-13
 -1      1997 3.37868E-04-1.69510E-01-7.96717E-13
 -1      1998-2.29498E-04-1.76110E-01-9.51787E-13
 -1      2000 2.29498E-04-1.76110E-01-8.94840E-13
 -1      2001-1.30302E-04-1.80352E-01-9.81590E-13
 -1      2003 1.30302E-04-1.80352E-01-9.55996E-13
 -1      2004-5.47778E-05-1.82609E-01-9.62061E-13
 -1      2006 5.47778E-05-1.82609E-01-9.67402E-13
 -1      2007-1.44686E-05-1.83547E-01-8.78473E-13
 -1      2009 1.44686E-05-1.83547E-01-9.10229E-13
 -1      2010-1.27424E-05-1.84003E-01-7.36202E-13
 -1      2012 1.27424E-05-1.84003E-01-7.83115E-13
 -1      2013-4.54000E-05-1.84803E-01-5.53474E-13
 -1      2015 4.54000E-05-1.84803E-01-6.04097E-13
 -1      2016-1.02540E-04-1.86612E-01-3.51394E-13
 -1      2018 1.02540E-04-1.86612E-01-3.94802E-13
 -1      2019-1.66297E-04-1.89784E-01-1.43312E-13
 -1      2021 1.66297E-04-1.89784E-01-1.65735E-13
 -1      2022-2.24308E-04-1.94324E-01 8.03585E-14
 -1      2024 2.24308E-04-1.94324E-01 9.10712E-14
 -1      2025-2.53371E-04-1.99845E-01 3.12618E-13
 -1      2027 2.53371E-04-1.99845E-01 3.69642E-13
 -1      2028-2.58180E-04-2.05733E-01 5.27862E-13
 -1      2030 2.58180E-04-2.05733E-01 6.30086E-13
 -1      2031-2.12404E-04-2.11162E-01 7.16510E-13
 -1      2033 2.12404E-04-2.11162E-01 8.47579E-13
 -1      2034-5.28364E-04-6.41254E-03 5.28628E-04
 -1      2036 5.28364E-04-6.41254E-03-5.28628E-04
 -1      2037-1.58631E-04-1.44644E-02 1.17403E-03
 -1      2039 1.58631E-04-1.44644E-02-1.17403E-03
 -1      2040-2.72227E-04-1.95504E-02 1.73866E-03
 -1      2042 2.72227E-04-1.95504E-02-1.73866E-03
 -1      2043-9.82378E-05-2.38591E-02 2.31294E-03
 -1      2045 9.82378E-05-2.38591E-02-2.31294E-03
 -1      2046-7.98234E-05-2.58930E-02 2.85705E-03
 -1      2048 7.98234E-05-2.58930E-02-2.85705E-03
 -1      2049-7.39464E-06-2.68330E-02 3.37962E-03
 -1      2051 7.39464E-06-2.68330E-02-3.37962E-03
 -1      2052 1.13069E-06-2.68168E-02 3.89171E-03
 -1      2054-1.13069E-06-2.68168E-02-3.89171E-03
 -1      2055-9.09019E-06-2.68302E-02 4.38717E-03
 -1      2057 9.09019E-06-2.68302E-02-4.38717E-03
 -1      2058-5.29070E-05-2.75035E-02 4.88378E-03
 -1      2060 5.29070E-05-2.75035E-02-4.88378E-03
 -1      2061-1.16839E-04-2.94813E-02 5.37500E-03
 -1      2063 1.16839E-04-2.94813E-02-5.37500E-03
 -1      2064-1.85850E-04-3.30640E-02 5.87132E-03
 -1      2066 1.85850E-04-3.30640E-02-5.87132E-03
 -1      2067-2.48634E-04-3.82374E-02 6.36432E-03
 -1      2069 2.48634E-04-3.82374E-02-6.36432E-03
 -1      2070-2.88225E-04-4.46453E-02 6.85468E-03
 -1      2072 2.88225E-04-4.46453E-02-6.85468E-03
 -1      2073-2.98676E-04-5.16583E-02 7.33125E-03
 -1      2075 2.98676E-04-5.16583E-02-7.33125E-03
 -1      2076-2.74355E-04-5.85063E-02 7.78858E-03
 -1      2078 2.74355E-04-5.85063E-02-7.78858E-03
 -1      2079-2.20673E-04-6.44175E-02 8.21602E-03
 -1      2081 2.20673E-04-6.44175E-02-8.21602E-03
 -1      2082-1.45677E-04-6.87814E-02 8.60843E-03
 -1      2084 1.45677E-04-6.87814E-02-8.60843E-03
 -1      2085-6.38811E-05-7.12592E-02 8.96030E-03
 -1      2087 6.38811E-05-7.12592E-02-8.96030E-03
 -1      2088 1.05576E-05-7.18564E-02 9.27173E-03
 -1      2090-1.05576E-05-7.18564E-02-9.27173E-03
 -1      2091 6.37720E-05-7.09157E-02 9.54421E-03
 -1      2093-6.37720E-05-7.09157E-02-9.54421E-03
 -1      2094 8.71116E-05-6.90505E-02 9.78337E-03
 -1      2096-8.71116E-05-6.90505E-02-9.78337E-03
 -1      2097 7.69464E-05-6.70220E-02 9.99488E-03
 -1      2099-7.69464E-05-6.70220E-02-9.99488E-03
 -1      2100 3.74317E-05-6.55858E-02 1.01857E-02
 -1      2102-3.74317E-05-6.55858E-02-1.01857E-02
 -1      2103-2.33371E-05-6.53501E-02 1.03601E-02
 -1      2105 2.33371E-05-6.53501E-02-1.03601E-02
 -1      2106-9.01263E-05-6.66436E-02 1.05209E-02
 -1      2108 9.01263E-05-6.66436E-02-1.05209E-02
 -1      2109-1.52126E-04-6.94808E-02 1.06665E-02
 -1      2111 1.52126E-04-6.94808E-02-1.06665E-02
 -1      2112-1.90972E-04-7.35273E-02 1.07934E-02
 -1      2114 1.90972E-04-7.35273E-02-1.07934E-02
 -1      2115-2.08152E-04-7.82411E-02 1.08942E-02
 -1      2117 2.08152E-04-7.82411E-02-1.08942E-02
 -1      2118-1.87441E-04-8.29062E-02 1.09604E-02
 -1      2120 1.87441E-04-8.29062E-02-1.09604E-02
 -1      2121 4.86320E-04-7.65415E-04-2.13814E-03
 -1      2123-1.59727E-04 6.48073E-04-2.12371E-03
 -1      2124 6.48636E-04-1.47385E-03-5.62440E-03
 -1      2126 3.44935E-04 1.98832E-03-5.61964E-03
 -1      2127 1.20231E-03-9.41016E-04-8.33149E-03
 -1      2129 7.33210E-04 4.27844E-03-8.30920E-03
 -1      2130 1.66842E-03 8.77834E-04-1.14914E-02
 -1      2132 1.26169E-03 7.90144E-03-1.14782E-02
 -1      2133 2.15728E-03 3.95753E-03-1.45005E-02
 -1      2135 1.71667E-03 1.27726E-02-1.44906E-02
 -1      2136 2.44904E-03 8.11318E-03-1.76228E-02
 -1      2138 2.02030E-03 1.86712E-02-1.76189E-02
 -1      2139 2.55482E-03 1.28019E-02-2.06559E-02
 -1      2141 2.13298E-03 2.50910E-02-2.06655E-02
 -1      2142 2.40829E-03 1.75085E-02-2.36139E-02
 -1      2144 2.00464E-03 3.14566E-02-2.36291E-02
 -1      2145 2.05634E-03 2.16052E-02-2.63981E-02
 -1      2147 1.67954E-03 3.71683E-02-2.64252E-02
 -1      2148 1.55207E-03 2.46604E-02-2.89846E-02
 -1      2150 1.20507E-03 4.17534E-02-2.90131E-02
 -1      2151 9.94419E-04 2.63882E-02-3.13365E-02
 -1      2153 6.80783E-04 4.49455E-02-3.13690E-02
 -1      2154 4.85158E-04 2.67997E-02-3.34639E-02
 -1      2156 2.01194E-04 4.67355E-02-3.34913E-02
 -1      2157 1.17761E-04 2.61316E-02-3.53893E-02
 -1      2159-1.40759E-04 4.73782E-02-3.54125E-02
 -1      2160-4.35238E-05 2.48447E-02-3.71639E-02
 -1      2162-2.85069E-04 4.73296E-02-3.71781E-02
 -1      2163 2.29177E-05 2.34966E-02-3.88439E-02
 -1      2165-2.09444E-04 4.71645E-02-3.88515E-02
 -1      2166 2.93335E-04 2.26526E-02-4.04894E-02
 -1      2168 6.22392E-05 4.74498E-02-4.04903E-02
 -1      2169 7.01693E-04 2.27541E-02-4.21456E-02
 -1      2171 4.66971E-04 4.86388E-02-4.21442E-02
 -1      2172 1.15425E-03 2.40412E-02-4.38391E-02
 -1      2174 9.13874E-04 5.09706E-02-4.38383E-02
 -1      2175 1.54708E-03 2.64938E-02-4.55694E-02
 -1      2177 1.30306E-03 5.44274E-02-4.55735E-02
 -1      2178 1.78763E-03 2.98415E-02-4.73106E-02
 -1      2180 1.54514E-03 5.87306E-02-4.73224E-02
 -1      2181 1.81226E-03 3.36087E-02-4.90157E-02
 -1      2183 1.57898E-03 6.33984E-02-4.90368E-02
 -1      2184 1.59936E-03 3.72140E-02-5.06251E-02
 -1      2186 1.38394E-03 6.78359E-02-5.06555E-02
 -1      2187 1.17269E-03 4.00768E-02-5.20780E-02
 -1      2189 9.83134E-04 7.14528E-02-5.21158E-02
 -1      2190 5.96306E-04 4.17370E-02-5.33229E-02
 -1      2192 4.38703E-04 7.37763E-02-5.33653E-02
 -1      2193-3.88690E-05 4.19332E-02-5.43270E-02
 -1      2195-1.61572E-04 7.45391E-02-5.43696E-02
 -1      2196-6.36486E-04 4.06575E-02-5.50809E-02
 -1      2198-7.24730E-04 7.37261E-02-5.51213E-02
 -1      2199-1.11239E-03 3.81352E-02-5.55985E-02
 -1      2201-1.16947E-03 7.15635E-02-5.56327E-02
 -1      2202-1.41962E-03 3.47738E-02-5.59169E-02
 -1      2204-1.45220E-03 6.84580E-02-5.59452E-02
 -1      2205-1.56876E-03 3.10543E-02-5.60736E-02
 -1      2207-1.58115E-03 6.48931E-02-5.60974E-02
 -1      2208-4.86320E-04-7.65415E-04 2.13814E-03
 -1      2210 1.59727E-04 6.48073E-04 2.12371E-03
 -1      2211-6.48636E-04-1.47385E-03 5.62440E-03
 -1      2213-3.44935E-04 1.98832E-03 5.61964E-03
 -1      2214-1.20231E-03-9.41016E-04 8.33149E-03
 -1      2216-7.33210E-04 4.27844E-03 8.30920E-03
 -1      2217-1.66842E-03 8.77834E-04 1.14914E-02
 -1      2219-1.26169E-03 7.90144E-03 1.14782E-02
 -1      2220-2.15728E-03 3.95753E-03 1.45005E-02
 -1      2222-1.71667E-03 1.27726E-02 1.44906E-02
 -1      2223-2.44904E-03 8.11318E-03 1.76228E-02
 -1      2225-2.02030E-03 1.86712E-02 1.76189E-02
 -1      2226-2.55482E-03 1.28019E-02 2.06559E-02
 -1      2228-2.13298E-03 2.50910E-02 2.06655E-02
 -1      2229-2.40829E-03 1.75085E-02 2.36139E-02
 -1      2231-2.00464E-03 3.14566E-02 2.36291E-02
 -1      2232-2.05634E-03 2.16052E-02 2.63981E-02
 -1      2234-1.67954E-03 3.71683E-02 2.64252E-02
 -1      2235-1.55207E-03 2.46604E-02 2.89846E-02
 -1      2237-1.20507E-03 4.17534E-02 2.90131E-02
 -1      2238-9.94419E-04 2.63882E-02 3.13365E-02
 -1      2240-6.80783E-04 4.49455E-02 3.13690E-02
 -1      2241-4.85158E-04 2.67997E-02 3.34639E-02
 -1      2243-2.01194E-04 4.67355E-02 3.34913E-02
 -1      2244-1.17761E-04 2.61316E-02 3.53893E-02
 -1      2246 1.40759E-04 4.73782E-02 3.54125E-02
 -1      2247 4.35238E-05 2.48447E-02 3.71639E-02
 -1      2249 2.85069E-04 4.73296E-02 3.71781E-02
 -1      2250-2.29177E-05 2.34966E-02 3.88439E-02
 -1      2252 2.09444E-04 4.71645E-02 3.88515E-02
 -1      2253-2.93335E-04 2.26526E-02 4.04894E-02
 -1      2255-6.22392E-05 4.74498E-02 4.04903E-02
 -1      2256-7.01693E-04 2.27541E-02 4.21456E-02
 -1      2258-4.66971E-04 4.86388E-02 4.21442E-02
 -1      2259-1.15425E-03 2.40412E-02 4.38391E-02
 -1      2261-9.13874E-04 5.09706E-02 4.38383E-02
 -1      2262-1.54708E-03 2.64938E-02 4.55694E-02
 -1      2264-1.30306E-03 5.44274E-02 4.55735E-02
 -1      2265-1.78763E-03 2.98415E-02 4.73106E-02
 -1      2267-1.54514E-03 5.87306E-02 4.73224E-02
 -1      2268-1.81226E-03 3.36087E-02 4.90157E-02
 -1      2270-1.57898E-03 6.33984E-02 4.90368E-02
 -1      2271-1.59936E-03 3.72140E-02 5.06251E-02
 -1      2273-1.38394E-03 6.78359E-02 5.06555E-02
 -1      2274-1.17269E-03 4.00768E-02 5.20780E-02
 -1      2276-9.83134E-04 7.14528E-02 5.21158E-02
 -1      2277-5.96306E-04 4.17370E-02 5.33229E-02
 -1      2279-4.38703E-04 7.37763E-02 5.33653E-02
 -1      2280 3.88690E-05 4.19332E-02 5.43270E-02
 -1      2282 1.61572E-04 7.45391E-02 5.43696E-02
 -1      2283 6.36486E-04 4.06575E-02 5.50809E-02
 -1      2285 7.24730E-04 7.37261E-02 5.51213E-02
 -1      2286 1.11239E-03 3.81352E-02 5.55985E-02
 -1      2288 1.16947E-03 7.15635E-02 5.56327E-02
 -1      2289 1.41962E-03 3.47738E-02 5.59169E-02
 -1      2291 1.45220E-03 6.84580E-02 5.59452E-02
 -1      2292 1.56876E-03 3.10543E-02 5.60736E-02
 -1      2294 1.58115E-03 6.48931E-02 5.60974E-02
 -3
    1PSTEP                        66           1           1          
    1PGM                1.000000E+00                                  
    1PGK                1.388928E+07                                  
    1PHID                         -1                                  
    1PSUBC                         0                                  
    1PMODE                        17                                  
  100CL  117 593.1438794         930                     2   17MODAL      1
 -4  STRESS      6    1
 -5  SXX         1    4    1    1
 -5  SYY         1    4    2    2
 -5  SZZ         1    4    3    3
 -5  SXY         1    4    1    2
 -5  SYZ         1    4    2    3
 -5  SZX         1    4    3    1
 -1       404-4.52009E+08-4.20964E+07 1.28435E+06-1.14043E+08-5.73030E+06-2.23376E+08
 -1       406-4.52009E+08-4.20964E+07 1.28435E+06-1.14043E+08-5.73030E+06-2.23376E+08
 -1       407 7.97283E+07 1.28875E+08-1.31953E+06-3.36541E+07-2.69934E+08 7.14259E+05
 -1       409 7.97283E+07 1.28875E+08-1.31953E+06-3.36541E+07-2.69934E+08 7.14259E+05
 -1       410 1.02155E-02 8.34271E-03 9.81852E-04-1.17808E+08-6.47976E+08-7.37288E-04
 -1       412 1.02155E-02 8.34271E-03 9.81852E-04-1.17808E+08-6.47976E+08-7.37288E-04
 -1       413-6.00710E-02-2.08712E-03-4.19242E-01 2.26571E+06-1.51285E+09 4.78866E-02
 -1       415-6.00710E-02-2.08712E-03-4.19242E-01 2.26571E+06-1.51285E+09 4.78866E-02
 -1       424 7.58348E-02 4.81802E-03-2.52619E-04-1.68448E+08 4.82236E+07-1.41380E-02
 -1       426 7.58348E-02 4.81802E-03-2.52619E-04-1.68448E+08 4.82236E+07-1.41380E-02
 -1       427 4.31786E-02 5.25538E-04 4.79412E-02 3.89901E+07 4.45009E+07 9.56326E-02
 -1       429 4.31786E-02 5.25538E-04 4.79412E-02 3.89901E+07 4.45009E+07 9.56326E-02
 -1       438-7.97283E+07-1.28875E+08 1.31953E+06-3.36541E+07-2.69934E+08-7.14259E+05
 -1       440-7.97283E+07-1.28875E+08 1.31953E+06-3.36541E+07-2.69934E+08-7.14259E+05
 -1       441 4.52009E+08 4.20964E+07-1.28435E+06-1.14043E+08-5.73030E+06 2.23376E+08
 -1       443 4.52009E+08 4.20964E+07-1.28435E+06-1.14043E+08-5.73030E+06 2.23376E+08
 -1       444-1.76716E-01-3.85843E-04-1.99470E-02 3.89901E+07-4.45009E+07 1.74943E-01
 -1       446-1.76716E-01-3.85843E-04-1.99470E-02 3.89901E+07-4.45009E+07 1.74943E-01
 -1       447-1.86006E-01-2.38784E-02 4.18425E-05-1.68448E+08-4.82236E+07 2.37987E-02
 -1       449-1.86006E-01-2.38784E-02 4.18425E-05-1.68448E+08-4.82236E+07 2.37987E-02
 -1       458-4.09116E-02 6.50384E-04-3.74098E-01 2.26571E+06 1.51285E+09-2.30865E-02
 -1       460-4.09116E-02 6.50384E-04-3.74098E-01 2.26571E+06 1.51285E+09-2.30865E-02
 -1       461 2.97185E-02 1.67887E-02 7.23958E-04-1.17808E+08 6.47976E+08 4.02490E-04
 -1       463 2.97185E-02 1.67887E-02 7.23958E-04-1.17808E+08 6.47976E+08 4.02490E-04
 -1       472 4.52009E+08 4.20964E+07-1.28435E+06-1.14043E+08 5.73030E+06-2.23376E+08
 -1       474 4.52009E+08 4.20964E+07-1.28435E+06-1.14043E+08 5.73030E+06-2.23376E+08
 -1       475-7.97283E+07-1.28875E+08 1.31953E+06-3.36541E+07 2.69934E+08 7.14259E+05
 -1       477-7.97283E+07-1.28875E+08 1.31953E+06-3.36541E+07 2.69934E+08 7.14259E+05
 -1       478 7.97283E+07 1.28875E+08-1.31953E+06-3.36541E+07 2.69934E+08-7.14259E+05
 -1       480 7.97283E+07 1.28875E+08-1.31953E+06-3.36541E+07 2.69934E+08-7.14259E+05
 -1       481-4.52009E+08-4.20964E+07 1.28435E+06-1.14043E+08 5.73030E+06 2.23376E+08
 -1       483-4.52009E+08-4.20964E+07 1.28435E+06-1.14043E+08 5.73030E+06 2.23376E+08
 -1       484-7.43998E+08-1.27844E+07 1.19371E+05-1.45408E+08-1.74290E+07-7.82331E+07
 -1       486-7.43998E+08-1.27844E+07 1.19371E+05-1.45408E+08-1.74290E+07-7.82331E+07
 -1       487-1.28106E+09 2.23995E+07-1.52664E+06-1.23359E+08-3.05622E+07-5.11938E+06
 -1       489-1.28106E+09 2.23995E+07-1.52664E+06-1.23359E+08-3.05622E+07-5.11938E+06
 -1       490-1.58445E+09 2.12985E+07-7.98440E+05-3.29638E+07-4.12584E+07-4.19347E+07
 -1       492-1.58445E+09 2.12985E+07-7.98440E+05-3.29638E+07-4.12584E+07-4.19347E+07
 -1       493-1.56211E+09 2.55399E+07-1.31346E+06 3.64969E+07-5.70474E+07-2.36161E+07
 -1       495-1.56211E+09 2.55399E+07-1.31346E+06 3.64969E+07-5.70474E+07-2.36161E+07
 -1       496-1.23823E+09 3.69992E+07-1.09612E+06 1.08928E+08-6.94721E+07-3.22331E+07
 -1       498-1.23823E+09 3.69992E+07-1.09612E+06 1.08928E+08-6.94721E+07-3.22331E+07
 -1       499-6.55849E+08 3.91702E+07-6.49110E+05 1.59908E+08-8.32786E+07-2.74098E+07
 -1       501-6.55849E+08 3.91702E+07-6.49110E+05 1.59908E+08-8.32786E+07-2.74098E+07
 -1       502 6.30348E+07 4.70273E+07-5.05919E+05 1.75311E+08-9.60535E+07-2.87895E+07
 -1       504 6.30348E+07 4.70273E+07-5.05919E+05 1.75311E+08-9.60535E+07-2.87895E+07
 -1       505 7.83557E+08 5.22726E+07 1.54118E+05 1.59559E+08-1.08706E+08-2.68945E+07
 -1       507 7.83557E+08 5.22726E+07 1.54118E+05 1.59559E+08-1.08706E+08-2.68945E+07
 -1       508 1.36278E+09 5.77535E+07 2.01228E+05 1.08995E+08-1.21324E+08-2.62625E+07
 -1       510 1.36278E+09 5.77535E+07 2.01228E+05 1.08995E+08-1.21324E+08-2.62625E+07
 -1       511 1.68955E+09 6.43094E+07 5.72306E+05 3.84583E+07-1.33480E+08-2.48494E+07
 -1       513 1.68955E+09 6.43094E+07 5.72306E+05 3.84583E+07-1.33480E+08-2.48494E+07
 -1       514 1.70116E+09 6.97076E+07 3.38142E+05-4.08643E+07-1.45832E+08-2.36629E+07
 -1       516 1.70116E+09 6.97076E+07 3.38142E+05-4.08643E+07-1.45832E+08-2.36629E+07
 -1       517 1.39871E+09 7.65076E+07 2.46809E+05-1.11563E+08-1.57658E+08-2.23842E+07
 -1       519 1.39871E+09 7.65076E+07 2.46809E+05-1.11563E+08-1.57658E+08-2.23842E+07
 -1       520 8.45337E+08 8.23240E+07-2.67363E+05-1.60280E+08-1.69535E+08-2.12130E+07
 -1       522 8.45337E+08 8.23240E+07-2.67363E+05-1.60280E+08-1.69535E+08-2.12130E+07
 -1       523 1.54556E+08 8.88287E+07-6.55264E+05-1.76960E+08-1.80762E+08-2.01682E+07
 -1       525 1.54556E+08 8.88287E+07-6.55264E+05-1.76960E+08-1.80762E+08-2.01682E+07
 -1       526-5.32987E+08 9.45258E+07-1.20097E+06-1.58350E+08-1.91725E+08-1.92421E+07
 -1       528-5.32987E+08 9.45258E+07-1.20097E+06-1.58350E+08-1.91725E+08-1.92421E+07
 -1       529-1.07716E+09 1.00184E+08-1.53046E+06-1.08134E+08-2.01854E+08-1.84571E+07
 -1       531-1.07716E+09 1.00184E+08-1.53046E+06-1.08134E+08-2.01854E+08-1.84571E+07
 -1       532-1.36655E+09 1.05028E+08-1.79523E+06-3.62532E+07-2.11417E+08-1.77304E+07
 -1       534-1.36655E+09 1.05028E+08-1.79523E+06-3.62532E+07-2.11417E+08-1.77304E+07
 -1       535-1.34048E+09 1.09418E+08-1.78530E+06 4.29639E+07-2.20032E+08-1.70358E+07
 -1       537-1.34048E+09 1.09418E+08-1.78530E+06 4.29639E+07-2.20032E+08-1.70358E+07
 -1       538-1.00110E+09 1.13028E+08-1.63893E+06 1.13855E+08-2.27939E+08-1.62727E+07
 -1       540-1.00110E+09 1.13028E+08-1.63893E+06 1.13855E+08-2.27939E+08-1.62727E+07
 -1       541-4.12736E+08 1.16147E+08-1.28408E+06 1.62371E+08-2.34937E+08-1.54019E+07
 -1       543-4.12736E+08 1.16147E+08-1.28408E+06 1.62371E+08-2.34937E+08-1.54019E+07
 -1       544 3.11088E+08 1.18673E+08-8.86208E+05 1.79096E+08-2.41274E+08-1.43531E+07
 -1       546 3.11088E+08 1.18673E+08-8.86208E+05 1.79096E+08-2.41274E+08-1.43531E+07
 -1       547 1.03086E+09 1.20966E+08-4.52179E+05 1.61014E+08-2.46863E+08-1.31247E+07
 -1       549 1.03086E+09 1.20966E+08-4.52179E+05 1.61014E+08-2.46863E+08-1.31247E+07
 -1       550 1.60924E+09 1.22832E+08-1.33517E+05 1.12206E+08-2.51923E+08-1.16950E+07
 -1       552 1.60924E+09 1.22832E+08-1.33517E+05 1.12206E+08-2.51923E+08-1.16950E+07
 -1       553 1.93983E+09 1.24982E+08 4.57143E+04 4.34249E+07-2.56385E+08-1.01356E+07
 -1       555 1.93983E+09 1.24982E+08 4.57143E+04 4.34249E+07-2.56385E+08-1.01356E+07
 -1       556 1.96909E+09 1.26237E+08 4.39077E+04-3.09238E+07-2.60367E+08-8.41713E+06
 -1       558 1.96909E+09 1.26237E+08 4.39077E+04-3.09238E+07-2.60367E+08-8.41713E+06
 -1       559 1.70997E+09 1.29057E+08-1.87870E+05-9.32201E+07-2.63753E+08-6.74976E+06
 -1       561 1.70997E+09 1.29057E+08-1.87870E+05-9.32201E+07-2.63753E+08-6.74976E+06
 -1       562 1.24173E+09 1.28878E+08-4.59059E+05-1.29321E+08-2.66508E+08-4.86852E+06
 -1       564 1.24173E+09 1.28878E+08-4.59059E+05-1.29321E+08-2.66508E+08-4.86852E+06
 -1       565 6.97894E+08 1.32145E+08-9.44377E+05-1.28735E+08-2.68496E+08-3.44704E+06
 -1       567 6.97894E+08 1.32145E+08-9.44377E+05-1.28735E+08-2.68496E+08-3.44704E+06
 -1       568 2.53255E+08 1.33788E+08-1.24826E+06-7.56519E+07-2.69591E+08-1.21698E+06
 -1       570 2.53255E+08 1.33788E+08-1.24826E+06-7.56519E+07-2.69591E+08-1.21698E+06
 -1       571 1.05704E+08 2.75630E+08 7.50114E+05-7.57309E+07-4.58955E+08 6.68736E+05
 -1       573 1.05704E+08 2.75630E+08 7.50114E+05-7.57309E+07-4.58955E+08 6.68736E+05
 -1       574 5.64509E-02-2.54854E-03-2.82124E-04-2.93789E+08 8.20601E+05-5.70831E-03
 -1       576 5.64509E-02-2.54854E-03-2.82124E-04-2.93789E+08 8.20601E+05-5.70831E-03
 -1       577 2.15816E-02 3.79923E-04 3.84418E-02 2.46821E+07-2.94454E+07 1.17833E-01
 -1       579 2.15816E-02 3.79923E-04 3.84418E-02 2.46821E+07-2.94454E+07 1.17833E-01
 -1       588 5.71279E-03-4.94067E-03-1.16192E-04-2.62509E+08-7.14112E+07-4.86558E-03
 -1       590 5.71279E-03-4.94067E-03-1.16192E-04-2.62509E+08-7.14112E+07-4.86558E-03
 -1       591-2.91920E-02-1.74482E-04-9.39343E-03 3.12773E+07-1.63320E+08 1.25990E-01
 -1       593-2.91920E-02-1.74482E-04-9.39343E-03 3.12773E+07-1.63320E+08 1.25990E-01
 -1       602-5.39750E-02 1.63283E-03 3.27490E-04-7.45458E+07-1.02350E+08-6.33101E-03
 -1       604-5.39750E-02 1.63283E-03 3.27490E-04-7.45458E+07-1.02350E+08-6.33101E-03
 -1       605-8.69731E-02-5.62799E-04-9.00861E-02 2.83493E+07-2.47163E+08 1.07332E-01
 -1       607-8.69731E-02-5.62799E-04-9.00861E-02 2.83493E+07-2.47163E+08 1.07332E-01
 -1       616-9.49742E-02 2.12020E-03 7.27084E-04 7.69741E+07-1.36316E+08-4.45326E-03
 -1       618-9.49742E-02 2.12020E-03 7.27084E-04 7.69741E+07-1.36316E+08-4.45326E-03
 -1       619-1.29073E-01-9.56990E-04-1.72472E-01 2.64782E+07-3.22933E+08 8.11470E-02
 -1       621-1.29073E-01-9.56990E-04-1.72472E-01 2.64782E+07-3.22933E+08 8.11470E-02
 -1       630-1.07325E-01-4.53897E-04 6.38325E-04 2.47618E+08-1.71496E+08-5.07234E-03
 -1       632-1.07325E-01-4.53897E-04 6.38325E-04 2.47618E+08-1.71496E+08-5.07234E-03
 -1       633-1.42519E-01-1.10160E-03-2.14526E-01 2.85017E+07-4.01768E+08 3.20942E-02
 -1       635-1.42519E-01-1.10160E-03-2.14526E-01 2.85017E+07-4.01768E+08 3.20942E-02
 -1       644-1.06386E-01-5.91457E-04 3.28814E-04 3.46954E+08-2.00884E+08-3.41009E-03
 -1       646-1.06386E-01-5.91457E-04 3.28814E-04 3.46954E+08-2.00884E+08-3.41009E-03
 -1       647-1.41339E-01-7.65283E-04-1.94107E-01 2.43439E+07-4.68941E+08-9.40271E-03
 -1       649-1.41339E-01-7.65283E-04-1.94107E-01 2.43439E+07-4.68941E+08-9.40271E-03
 -1       658-1.14016E-01 3.56496E-03 3.68749E-04 3.91453E+08-2.33196E+08-3.72380E-03
 -1       660-1.14016E-01 3.56496E-03 3.68749E-04 3.91453E+08-2.33196E+08-3.72380E-03
 -1       661-1.48672E-01-9.93028E-04-1.65695E-01 2.71878E+07-5.38346E+08-2.40006E-02
 -1       663-1.48672E-01-9.93028E-04-1.65695E-01 2.71878E+07-5.38346E+08-2.40006E-02
 -1       672-1.34001E-01 8.74326E-03 5.01044E-04 3.49583E+08-2.61494E+08-2.65432E-03
 -1       674-1.34001E-01 8.74326E-03 5.01044E-04 3.49583E+08-2.61494E+08-2.65432E-03
 -1       675-1.70727E-01-9.89766E-04-1.88821E-01 2.38930E+07-6.02459E+08-2.92743E-02
 -1       677-1.70727E-01-9.89766E-04-1.88821E-01 2.38930E+07-6.02459E+08-2.92743E-02
 -1       686-1.45594E-01 1.19006E-02 3.97153E-04 2.42372E+08-2.91380E+08-2.79647E-03
 -1       688-1.45594E-01 1.19006E-02 3.97153E-04 2.42372E+08-2.91380E+08-2.79647E-03
 -1       689-1.84678E-01-7.23784E-04-2.43344E-01 2.61508E+07-6.68162E+08-6.51304E-02
 -1       691-1.84678E-01-7.23784E-04-2.43344E-01 2.61508E+07-6.68162E+08-6.51304E-02
 -1       700-1.28238E-01 6.95413E-03 4.60893E-04 8.47668E+07-3.19106E+08-2.51575E-03
 -1       702-1.28238E-01 6.95413E-03 4.60893E-04 8.47668E+07-3.19106E+08-2.51575E-03
 -1       703-1.66203E-01-5.25782E-04-2.57662E-01 2.41591E+07-7.32904E+08-1.22477E-01
 -1       705-1.66203E-01-5.25782E-04-2.57662E-01 2.41591E+07-7.32904E+08-1.22477E-01
 -1       714-8.56921E-02-4.05247E-03 2.49743E-05-8.90581E+07-3.47544E+08-2.18078E-03
 -1       716-8.56921E-02-4.05247E-03 2.49743E-05-8.90581E+07-3.47544E+08-2.18078E-03
 -1       717-1.25831E-01-2.16530E-04-2.21891E-01 2.55037E+07-7.99399E+08-1.48536E-01
 -1       719-1.25831E-01-2.16530E-04-2.21891E-01 2.55037E+07-7.99399E+08-1.48536E-01
 -1       728-3.61265E-02-5.68938E-03 9.84073E-05-2.45151E+08-3.74669E+08-1.85523E-03
 -1       730-3.61265E-02-5.68938E-03 9.84073E-05-2.45151E+08-3.74669E+08-1.85523E-03
 -1       731-8.78492E-02-1.20155E-03-1.88394E-01 2.41537E+07-8.66092E+08-1.36795E-01
 -1       733-8.78492E-02-1.20155E-03-1.88394E-01 2.41537E+07-8.66092E+08-1.36795E-01
 -1       742 9.05561E-03 3.38346E-04 4.99502E-04-3.52511E+08-4.01765E+08-2.02081E-03
 -1       744 9.05561E-03 3.38346E-04 4.99502E-04-3.52511E+08-4.01765E+08-2.02081E-03
 -1       745-5.34762E-02-1.99057E-03-1.88793E-01 2.44330E+07-9.33176E+08-1.11562E-01
 -1       747-5.34762E-02-1.99057E-03-1.88793E-01 2.44330E+07-9.33176E+08-1.11562E-01
 -1       756 4.47995E-02-1.08325E-03 5.31085E-04-3.89167E+08-4.27566E+08-2.09132E-03
 -1       758 4.47995E-02-1.08325E-03 5.31085E-04-3.89167E+08-4.27566E+08-2.09132E-03
 -1       759-2.30828E-02-2.15617E-03-2.09091E-01 2.29914E+07-9.98769E+08-8.68128E-02
 -1       761-2.30828E-02-2.15617E-03-2.09091E-01 2.29914E+07-9.98769E+08-8.68128E-02
 -1       770 7.26871E-02-1.08751E-02 5.68753E-04-3.48338E+08-4.52541E+08-2.42678E-03
 -1       772 7.26871E-02-1.08751E-02 5.68753E-04-3.48338E+08-4.52541E+08-2.42678E-03
 -1       773-4.05897E-03-1.69291E-03-2.21364E-01 2.21998E+07-1.06181E+09-6.72031E-02
 -1       775-4.05897E-03-1.69291E-03-2.21364E-01 2.21998E+07-1.06181E+09-6.72031E-02
 -1       784 1.07940E-01-1.82168E-02 6.17007E-04-2.37595E+08-4.75853E+08-2.51568E-03
 -1       786 1.07940E-01-1.82168E-02 6.17007E-04-2.37595E+08-4.75853E+08-2.51568E-03
 -1       787 1.32804E-02-1.15406E-04-2.26839E-01 2.03564E+07-1.12048E+09-4.95433E-02
 -1       789 1.32804E-02-1.15406E-04-2.26839E-01 2.03564E+07-1.12048E+09-4.95433E-02
 -1       798 1.47915E-01-1.41754E-02 9.73408E-04-7.93650E+07-4.97687E+08-2.51417E-03
 -1       800 1.47915E-01-1.41754E-02 9.73408E-04-7.93650E+07-4.97687E+08-2.51417E-03
 -1       801 3.26518E-02-1.72995E-03-2.51126E-01 1.87948E+07-1.17381E+09-3.42998E-02
 -1       803 3.26518E-02-1.72995E-03-2.51126E-01 1.87948E+07-1.17381E+09-3.42998E-02
 -1       812 1.61880E-01-1.39239E-03 8.58697E-04 9.52382E+07-5.17597E+08-2.32492E-03
 -1       814 1.61880E-01-1.39239E-03 8.58697E-04 9.52382E+07-5.17597E+08-2.32492E-03
 -1       815 3.70562E-02-1.89968E-03-2.90913E-01 1.67354E+07-1.22091E+09-2.84920E-02
 -1       817 3.70562E-02-1.89968E-03-2.90913E-01 1.67354E+07-1.22091E+09-2.84920E-02
 -1       826 1.45435E-01 9.37831E-03 6.99153E-04 2.51329E+08-5.35806E+08-2.38499E-03
 -1       828 1.45435E-01 9.37831E-03 6.99153E-04 2.51329E+08-5.35806E+08-2.38499E-03
 -1       829 2.10526E-02-3.86149E-04-3.17659E-01 1.49532E+07-1.26189E+09-2.71232E-02
 -1       831 2.10526E-02-3.86149E-04-3.17659E-01 1.49532E+07-1.26189E+09-2.71232E-02
 -1       840 1.21365E-01 1.16688E-02 8.86347E-04 3.58283E+08-5.52216E+08-2.50388E-03
 -1       842 1.21365E-01 1.16688E-02 8.86347E-04 3.58283E+08-5.52216E+08-2.50388E-03
 -1       843-3.35015E-03-3.38394E-04-3.30945E-01 1.30988E+07-1.29716E+09-9.55175E-03
 -1       845-3.35015E-03-3.38394E-04-3.30945E-01 1.30988E+07-1.29716E+09-9.55175E-03
 -1       854 1.00043E-01 7.43008E-03 8.56012E-04 3.95078E+08-5.67170E+08-2.12617E-03
 -1       856 1.00043E-01 7.43008E-03 8.56012E-04 3.95078E+08-5.67170E+08-2.12617E-03
 -1       857-2.72383E-02-7.76457E-04-3.54680E-01 1.16032E+07-1.32792E+09 2.30585E-02
 -1       859-2.72383E-02-7.76457E-04-3.54680E-01 1.16032E+07-1.32792E+09 2.30585E-02
 -1       868 8.27730E-02 1.57470E-03 7.74443E-04 3.55301E+08-5.80746E+08-1.94644E-03
 -1       870 8.27730E-02 1.57470E-03 7.74443E-04 3.55301E+08-5.80746E+08-1.94644E-03
 -1       871-4.60273E-02-1.14914E-03-3.76069E-01 1.02197E+07-1.35535E+09 4.16789E-02
 -1       873-4.60273E-02-1.14914E-03-3.76069E-01 1.02197E+07-1.35535E+09 4.16789E-02
 -1       882 6.92167E-02-4.48103E-03 8.09178E-04 2.47903E+08-5.93302E+08-1.79198E-03
 -1       884 6.92167E-02-4.48103E-03 8.09178E-04 2.47903E+08-5.93302E+08-1.79198E-03
 -1       885-5.72618E-02-1.41444E-03-3.65330E-01 9.18357E+06-1.38090E+09 4.58107E-02
 -1       887-5.72618E-02-1.41444E-03-3.65330E-01 9.18357E+06-1.38090E+09 4.58107E-02
 -1       896 6.33502E-02-9.75186E-03 6.85871E-04 9.62359E+07-6.04834E+08-1.29572E-03
 -1       898 6.33502E-02-9.75186E-03 6.85871E-04 9.62359E+07-6.04834E+08-1.29572E-03
 -1       899-5.79402E-02-6.36842E-04-3.42087E-01 8.13414E+06-1.40538E+09 5.48171E-02
 -1       901-5.79402E-02-6.36842E-04-3.42087E-01 8.13414E+06-1.40538E+09 5.48171E-02
 -1       910 6.25498E-02-6.82713E-03 7.63208E-04-6.67735E+07-6.15570E+08-1.21488E-03
 -1       912 6.25498E-02-6.82713E-03 7.63208E-04-6.67735E+07-6.15570E+08-1.21488E-03
 -1       913-5.51971E-02-3.20171E-04-3.39811E-01 7.33628E+06-1.42948E+09 6.71932E-02
 -1       915-5.51971E-02-3.20171E-04-3.39811E-01 7.33628E+06-1.42948E+09 6.71932E-02
 -1       924 5.18100E-02 2.25110E-03 1.23510E-03-2.04423E+08-6.25221E+08-1.14888E-03
 -1       926 5.18100E-02 2.25110E-03 1.23510E-03-2.04423E+08-6.25221E+08-1.14888E-03
 -1       927-6.12291E-02 2.86681E-04-3.52428E-01 6.15071E+06-1.45275E+09 7.49361E-02
 -1       929-6.12291E-02 2.86681E-04-3.52428E-01 6.15071E+06-1.45275E+09 7.49361E-02
 -1       938 2.89801E-02 2.55232E-03 8.02234E-04-2.83621E+08-6.33836E+08-1.10763E-03
 -1       940 2.89801E-02 2.55232E-03 8.02234E-04-2.83621E+08-6.33836E+08-1.10763E-03
 -1       941-7.27367E-02-7.41517E-05-3.67459E-01 5.17537E+06-1.47468E+09 7.60869E-02
 -1       943-7.27367E-02-7.41517E-05-3.67459E-01 5.17537E+06-1.47468E+09 7.60869E-02
 -1       952 6.60537E-03-1.11050E-02 8.50752E-04-2.75711E+08-6.40854E+08-7.85947E-04
 -1       954 6.60537E-03-1.11050E-02 8.50752E-04-2.75711E+08-6.40854E+08-7.85947E-04
 -1       955-8.18736E-02-2.48352E-03-3.90833E-01 3.39532E+06-1.49350E+09 7.41120E-02
 -1       957-8.18736E-02-2.48352E-03-3.90833E-01 3.39532E+06-1.49350E+09 7.41120E-02
 -1       966 3.80336E-03-6.26203E-03 1.35795E-03-1.82100E+08-6.45821E+08-4.04539E-04
 -1       968 3.80336E-03-6.26203E-03 1.35795E-03-1.82100E+08-6.45821E+08-4.04539E-04
 -1       969-7.26391E-02-2.28450E-03-4.12383E-01 1.96053E+06-1.50719E+09 6.05387E-02
 -1       971-7.26391E-02-2.28450E-03-4.12383E-01 1.96053E+06-1.50719E+09 6.05387E-02
 -1       980-3.45090E+08-1.30827E+08-7.60357E+05-1.41246E+08 2.12466E+07-5.88157E+07
 -1       982-3.45090E+08-1.30827E+08-7.60357E+05-1.41246E+08 2.12466E+07-5.88157E+07
 -1       983-1.05704E+08-2.75630E+08-7.50114E+05-7.57309E+07-4.58955E+08-6.68736E+05
 -1       985-1.05704E+08-2.75630E+08-7.50114E+05-7.57309E+07-4.58955E+08-6.68736E+05
 -1       986 7.43998E+08 1.27844E+07-1.19371E+05-1.45408E+08-1.74290E+07 7.82331E+07
 -1       988 7.43998E+08 1.27844E+07-1.19371E+05-1.45408E+08-1.74290E+07 7.82331E+07
 -1       989 1.28106E+09-2.23995E+07 1.52664E+06-1.23359E+08-3.05622E+07 5.11938E+06
 -1       991 1.28106E+09-2.23995E+07 1.52664E+06-1.23359E+08-3.05622E+07 5.11938E+06
 -1       992 1.58445E+09-2.12985E+07 7.98440E+05-3.29638E+07-4.12584E+07 4.19347E+07
 -1       994 1.58445E+09-2.12985E+07 7.98440E+05-3.29638E+07-4.12584E+07 4.19347E+07
 -1       995 1.56211E+09-2.55399E+07 1.31346E+06 3.64969E+07-5.70474E+07 2.36161E+07
 -1       997 1.56211E+09-2.55399E+07 1.31346E+06 3.64969E+07-5.70474E+07 2.36161E+07
 -1       998 1.23823E+09-3.69992E+07 1.09612E+06 1.08928E+08-6.94721E+07 3.22331E+07
 -1      1000 1.23823E+09-3.69992E+07 1.09612E+06 1.08928E+08-6.94721E+07 3.22331E+07
 -1      1001 6.55849E+08-3.91702E+07 6.49110E+05 1.59908E+08-8.32786E+07 2.74098E+07
 -1      1003 6.55849E+08-3.91702E+07 6.49110E+05 1.59908E+08-8.32786E+07 2.74098E+07
 -1      1004-6.30348E+07-4.70273E+07 5.05919E+05 1.75311E+08-9.60535E+07 2.87895E+07
 -1      1006-6.30348E+07-4.70273E+07 5.05919E+05 1.75311E+08-9.60535E+07 2.87895E+07
 -1      1007-7.83557E+08-5.22726E+07-1.54118E+05 1.59559E+08-1.08706E+08 2.68945E+07
 -1      1009-7.83557E+08-5.22726E+07-1.54118E+05 1.59559E+08-1.08706E+08 2.68945E+07
 -1      1010-1.36278E+09-5.77535E+07-2.01228E+05 1.08995E+08-1.21324E+08 2.62625E+07
 -1      1012-1.36278E+09-5.77535E+07-2.01228E+05 1.08995E+08-1.21324E+08 2.62625E+07
 -1      1013-1.68955E+09-6.43094E+07-5.72306E+05 3.84583E+07-1.33480E+08 2.48494E+07
 -1      1015-1.68955E+09-6.43094E+07-5.72306E+05 3.84583E+07-1.33480E+08 2.48494E+07
 -1      1016-1.70116E+09-6.97076E+07-3.38142E+05-4.08643E+07-1.45832E+08 2.36629E+07
 -1      1018-1.70116E+09-6.97076E+07-3.38142E+05-4.08643E+07-1.45832E+08 2.36629E+07
 -1      1019-1.39871E+09-7.65076E+07-2.46809E+05-1.11563E+08-1.57658E+08 2.23842E+07
 -1      1021-1.39871E+09-7.65076E+07-2.46809E+05-1.11563E+08-1.57658E+08 2.23842E+07
 -1      1022-8.45337E+08-8.23240E+07 2.67362E+05-1.60280E+08-1.69535E+08 2.12130E+07
 -1      1024-8.45337E+08-8.23240E+07 2.67362E+05-1.60280E+08-1.69535E+08 2.12130E+07
 -1      1025-1.54556E+08-8.88287E+07 6.55264E+05-1.76960E+08-1.80762E+08 2.01682E+07
 -1      1027-1.54556E+08-8.88287E+07 6.55264E+05-1.76960E+08-1.80762E+08 2.01682E+07
 -1      1028 5.32987E+08-9.45258E+07 1.20097E+06-1.58350E+08-1.91725E+08 1.92421E+07
 -1      1030 5.32987E+08-9.45258E+07 1.20097E+06-1.58350E+08-1.91725E+08 1.92421E+07
 -1      1031 1.07716E+09-1.00184E+08 1.53046E+06-1.08134E+08-2.01854E+08 1.84571E+07
 -1      1033 1.07716E+09-1.00184E+08 1.53046E+06-1.08134E+08-2.01854E+08 1.84571E+07
 -1      1034 1.36655E+09-1.05028E+08 1.79523E+06-3.62532E+07-2.11417E+08 1.77304E+07
 -1      1036 1.36655E+09-1.05028E+08 1.79523E+06-3.62532E+07-2.11417E+08 1.77304E+07
 -1      1037 1.34048E+09-1.09418E+08 1.78530E+06 4.29639E+07-2.20032E+08 1.70358E+07
 -1      1039 1.34048E+09-1.09418E+08 1.78530E+06 4.29639E+07-2.20032E+08 1.70358E+07
 -1      1040 1.00110E+09-1.13028E+08 1.63893E+06 1.13855E+08-2.27939E+08 1.62727E+07
 -1      1042 1.00110E+09-1.13028E+08 1.63893E+06 1.13855E+08-2.27939E+08 1.62727E+07
 -1      1043 4.12736E+08-1.16147E+08 1.28408E+06 1.62371E+08-2.34937E+08 1.54019E+07
 -1      1045 4.12736E+08-1.16147E+08 1.28408E+06 1.62371E+08-2.34937E+08 1.54019E+07
 -1      1046-3.11088E+08-1.18673E+08 8.86208E+05 1.79096E+08-2.41274E+08 1.43531E+07
 -1      1048-3.11088E+08-1.18673E+08 8.86208E+05 1.79096E+08-2.41274E+08 1.43531E+07
 -1      1049-1.03086E+09-1.20966E+08 4.52179E+05 1.61014E+08-2.46863E+08 1.31247E+07
 -1      1051-1.03086E+09-1.20966E+08 4.52179E+05 1.61014E+08-2.46863E+08 1.31247E+07
 -1      1052-1.60924E+09-1.22832E+08 1.33517E+05 1.12206E+08-2.51923E+08 1.16950E+07
 -1      1054-1.60924E+09-1.22832E+08 1.33517E+05 1.12206E+08-2.51923E+08 1.16950E+07
 -1      1055-1.93983E+09-1.24982E+08-4.57143E+04 4.34249E+07-2.56385E+08 1.01356E+07
 -1      1057-1.93983E+09-1.24982E+08-4.57143E+04 4.34249E+07-2.56385E+08 1.01356E+07
 -1      1058-1.96909E+09-1.26237E+08-4.39077E+04-3.09238E+07-2.60367E+08 8.41713E+06
 -1      1060-1.96909E+09-1.26237E+08-4.39077E+04-3.09238E+07-2.60367E+08 8.41713E+06
 -1      1061-1.70997E+09-1.29057E+08 1.87870E+05-9.32201E+07-2.63753E+08 6.74976E+06
 -1      1063-1.70997E+09-1.29057E+08 1.87870E+05-9.32201E+07-2.63753E+08 6.74976E+06
 -1      1064-1.24173E+09-1.28878E+08 4.59059E+05-1.29321E+08-2.66508E+08 4.86852E+06
 -1      1066-1.24173E+09-1.28878E+08 4.59059E+05-1.29321E+08-2.66508E+08 4.86852E+06
 -1      1067-6.97894E+08-1.32145E+08 9.44377E+05-1.28735E+08-2.68496E+08 3.44704E+06
 -1      1069-6.97894E+08-1.32145E+08 9.44377E+05-1.28735E+08-2.68496E+08 3.44704E+06
 -1      1070-2.53255E+08-1.33788E+08 1.24826E+06-7.56519E+07-2.69591E+08 1.21698E+06
 -1      1072-2.53255E+08-1.33788E+08 1.24826E+06-7.56519E+07-2.69591E+08 1.21698E+06
 -1      1073 3.45090E+08 1.30827E+08 7.60357E+05-1.41246E+08 2.12466E+07 5.88157E+07
 -1      1075 3.45090E+08 1.30827E+08 7.60357E+05-1.41246E+08 2.12466E+07 5.88157E+07
 -1      1076-4.22806E-03 1.65448E-04 3.13947E-02-1.91660E+08-6.87128E+06 1.14609E-01
 -1      1078-4.22806E-03 1.65448E-04 3.13947E-02-1.91660E+08-6.87128E+06 1.14609E-01
 -1      1079-8.11994E-02 4.76167E-04 4.08012E-03-4.22310E+08-3.45375E-04 1.44112E-01
 -1      1081-8.11994E-02 4.76167E-04 4.08012E-03-4.22310E+08-3.45375E-04 1.44112E-01
 -1      1082-1.43740E-01 3.80567E-04-1.33175E-02-1.91660E+08 6.87128E+06 1.64791E-01
 -1      1084-1.43740E-01 3.80567E-04-1.33175E-02-1.91660E+08 6.87128E+06 1.64791E-01
 -1      1085-1.47442E-01 2.68162E-04-6.94021E-03 2.46821E+07 2.94454E+07 1.53595E-01
 -1      1087-1.47442E-01 2.68162E-04-6.94021E-03 2.46821E+07 2.94454E+07 1.53595E-01
 -1      1088-1.52561E-01-5.32085E-03 9.87984E-05-2.93789E+08-8.20601E+05 6.19152E-03
 -1      1090-1.52561E-01-5.32085E-03 9.87984E-05-2.93789E+08-8.20601E+05 6.19152E-03
 -1      1099-9.87561E-02 3.43426E-04-1.52348E-02 3.12773E+07 1.63320E+08 1.17557E-01
 -1      1101-9.87561E-02 3.43426E-04-1.52348E-02 3.12773E+07 1.63320E+08 1.17557E-01
 -1      1102-9.53149E-02 7.34702E-03 2.95360E-04-2.62509E+08 7.14112E+07 1.25986E-03
 -1      1104-9.53149E-02 7.34702E-03 2.95360E-04-2.62509E+08 7.14112E+07 1.25986E-03
 -1      1113-6.87184E-02 1.80814E-04-5.37804E-02 2.83493E+07 2.47163E+08 9.80559E-02
 -1      1115-6.87184E-02 1.80814E-04-5.37804E-02 2.83493E+07 2.47163E+08 9.80559E-02
 -1      1116-5.75427E-02-3.80465E-03 2.18160E-04-7.45458E+07 1.02350E+08 5.25390E-03
 -1      1118-5.75427E-02-3.80465E-03 2.18160E-04-7.45458E+07 1.02350E+08 5.25390E-03
 -1      1127-5.09435E-02 4.85064E-04-9.18741E-02 2.64782E+07 3.22933E+08 7.84837E-02
 -1      1129-5.09435E-02 4.85064E-04-9.18741E-02 2.64782E+07 3.22933E+08 7.84837E-02
 -1      1130-2.52455E-02-6.66218E-03-6.73085E-05 7.69741E+07 1.36316E+08 2.79899E-03
 -1      1132-2.52455E-02-6.66218E-03-6.73085E-05 7.69741E+07 1.36316E+08 2.79899E-03
 -1      1141-3.73215E-02 1.16044E-04-1.38551E-01 2.85017E+07 4.01768E+08 5.22450E-02
 -1      1143-3.73215E-02 1.16044E-04-1.38551E-01 2.85017E+07 4.01768E+08 5.22450E-02
 -1      1144 9.79455E-03 6.93321E-04-1.33328E-04 2.47618E+08 1.71496E+08 4.55074E-03
 -1      1146 9.79455E-03 6.93321E-04-1.33328E-04 2.47618E+08 1.71496E+08 4.55074E-03
 -1      1155-2.07999E-02-3.20667E-04-1.70711E-01 2.43439E+07 4.68941E+08 3.98916E-02
 -1      1157-2.07999E-02-3.20667E-04-1.70711E-01 2.43439E+07 4.68941E+08 3.98916E-02
 -1      1158 4.77945E-02 4.53512E-03 1.62199E-04 3.46954E+08 2.00884E+08 2.94509E-03
 -1      1160 4.77945E-02 4.53512E-03 1.62199E-04 3.46954E+08 2.00884E+08 2.94509E-03
 -1      1169 3.75888E-03-5.13835E-04-1.57989E-01 2.71878E+07 5.38346E+08 3.40635E-02
 -1      1171 3.75888E-03-5.13835E-04-1.57989E-01 2.71878E+07 5.38346E+08 3.40635E-02
 -1      1172 8.74375E-02-1.63913E-06 5.14079E-04 3.91453E+08 2.33196E+08 4.09751E-03
 -1      1174 8.74375E-02-1.63913E-06 5.14079E-04 3.91453E+08 2.33196E+08 4.09751E-03
 -1      1183 2.09744E-02-9.49610E-04-1.32631E-01 2.38930E+07 6.02459E+08-4.34047E-03
 -1      1185 2.09744E-02-9.49610E-04-1.32631E-01 2.38930E+07 6.02459E+08-4.34047E-03
 -1      1186 1.04034E-01-3.06959E-03 2.91754E-04 3.49583E+08 2.61494E+08 3.27554E-03
 -1      1188 1.04034E-01-3.06959E-03 2.91754E-04 3.49583E+08 2.61494E+08 3.27554E-03
 -1      1197 1.19211E-02-5.09512E-04-1.52497E-01 2.61508E+07 6.68162E+08-6.39769E-02
 -1      1199 1.19211E-02-5.09512E-04-1.52497E-01 2.61508E+07 6.68162E+08-6.39769E-02
 -1      1200 8.84720E-02-8.96804E-04 1.50755E-04 2.42372E+08 2.91380E+08 3.14895E-03
 -1      1202 8.84720E-02-8.96804E-04 1.50755E-04 2.42372E+08 2.91380E+08 3.14895E-03
 -1      1211-6.24825E-03-7.51138E-04-1.97539E-01 2.41591E+07 7.32904E+08-9.46091E-02
 -1      1213-6.24825E-03-7.51138E-04-1.97539E-01 2.41591E+07 7.32904E+08-9.46091E-02
 -1      1214 6.73537E-02 3.73916E-03 6.81773E-04 8.47668E+07 3.19106E+08 2.83713E-03
 -1      1216 6.73537E-02 3.73916E-03 6.81773E-04 8.47668E+07 3.19106E+08 2.83713E-03
 -1      1225-1.80103E-02-1.42443E-03-2.11181E-01 2.55037E+07 7.99399E+08-9.79281E-02
 -1      1227-1.80103E-02-1.42443E-03-2.11181E-01 2.55037E+07 7.99399E+08-9.79281E-02
 -1      1228 4.94587E-02 6.37390E-03 8.04722E-04-8.90581E+07 3.47544E+08 3.04026E-03
 -1      1230 4.94587E-02 6.37390E-03 8.04722E-04-8.90581E+07 3.47544E+08 3.04026E-03
 -1      1239-4.23214E-02-1.66553E-03-1.95289E-01 2.41537E+07 8.66092E+08-9.99638E-02
 -1      1241-4.23214E-02-1.66553E-03-1.95289E-01 2.41537E+07 8.66092E+08-9.99638E-02
 -1      1242 1.52548E-02 3.83078E-03 2.78130E-04-2.45151E+08 3.74669E+08 2.85160E-03
 -1      1244 1.52548E-02 3.83078E-03 2.78130E-04-2.45151E+08 3.74669E+08 2.85160E-03
 -1      1253-8.33810E-02-1.22001E-03-1.83675E-01 2.44330E+07 9.33176E+08-1.06700E-01
 -1      1255-8.33810E-02-1.22001E-03-1.83675E-01 2.44330E+07 9.33176E+08-1.06700E-01
 -1      1256-3.28228E-02 4.23101E-03-9.26852E-06-3.52511E+08 4.01765E+08 3.23397E-03
 -1      1258-3.28228E-02 4.23101E-03-9.26852E-06-3.52511E+08 4.01765E+08 3.23397E-03
 -1      1267-1.22571E-01-7.40401E-04-1.98997E-01 2.29914E+07 9.98769E+08-1.02846E-01
 -1      1269-1.22571E-01-7.40401E-04-1.98997E-01 2.29914E+07 9.98769E+08-1.02846E-01
 -1      1270-7.13873E-02 1.09552E-02 2.73295E-04-3.89167E+08 4.27566E+08 3.18244E-03
 -1      1272-7.13873E-02 1.09552E-02 2.73295E-04-3.89167E+08 4.27566E+08 3.18244E-03
 -1      1281-1.46771E-01-2.07275E-03-2.28122E-01 2.21998E+07 1.06181E+09-7.67206E-02
 -1      1283-1.46771E-01-2.07275E-03-2.28122E-01 2.21998E+07 1.06181E+09-7.67206E-02
 -1      1284-9.06241E-02 1.00898E-02 7.61850E-04-3.48338E+08 4.52541E+08 3.40238E-03
 -1      1286-9.06241E-02 1.00898E-02 7.61850E-04-3.48338E+08 4.52541E+08 3.40238E-03
 -1      1295-1.54834E-01-2.93780E-03-2.47268E-01 2.03564E+07 1.12048E+09-5.39318E-02
 -1      1297-1.54834E-01-2.93780E-03-2.47268E-01 2.03564E+07 1.12048E+09-5.39318E-02
 -1      1298-9.57751E-02 6.39409E-04 7.27819E-04-2.37595E+08 4.75853E+08 3.68345E-03
 -1      1300-9.57751E-02 6.39409E-04 7.27819E-04-2.37595E+08 4.75853E+08 3.68345E-03
 -1      1309-1.55584E-01-1.29292E-03-2.75307E-01 1.87948E+07 1.17381E+09-5.41604E-02
 -1      1311-1.55584E-01-1.29292E-03-2.75307E-01 1.87948E+07 1.17381E+09-5.41604E-02
 -1      1312-9.19064E-02-2.30935E-03 6.69011E-04-7.93650E+07 4.97687E+08 3.20647E-03
 -1      1314-9.19064E-02-2.30935E-03 6.69011E-04-7.93650E+07 4.97687E+08 3.20647E-03
 -1      1323-1.52989E-01-1.16451E-03-3.25268E-01 1.67354E+07 1.22091E+09-5.14303E-02
 -1      1325-1.52989E-01-1.16451E-03-3.25268E-01 1.67354E+07 1.22091E+09-5.14303E-02
 -1      1326-8.40390E-02-4.36677E-03 4.91004E-04 9.52382E+07 5.17597E+08 3.18360E-03
 -1      1328-8.40390E-02-4.36677E-03 4.91004E-04 9.52382E+07 5.17597E+08 3.18360E-03
 -1      1337-1.55628E-01-2.63750E-03-3.73702E-01 1.49532E+07 1.26189E+09-3.37625E-02
 -1      1339-1.55628E-01-2.63750E-03-3.73702E-01 1.49532E+07 1.26189E+09-3.37625E-02
 -1      1340-8.36177E-02-1.34935E-02 8.69668E-04 2.51329E+08 5.35806E+08 3.17319E-03
 -1      1342-8.36177E-02-1.34935E-02 8.69668E-04 2.51329E+08 5.35806E+08 3.17319E-03
 -1      1351-1.69099E-01-1.58603E-03-4.12216E-01 1.30988E+07 1.29716E+09-7.99400E-03
 -1      1353-1.69099E-01-1.58603E-03-4.12216E-01 1.30988E+07 1.29716E+09-7.99400E-03
 -1      1354-9.19394E-02-1.46739E-02 9.09463E-04 3.58283E+08 5.52216E+08 2.60167E-03
 -1      1356-9.19394E-02-1.46739E-02 9.09463E-04 3.58283E+08 5.52216E+08 2.60167E-03
 -1      1365-1.80159E-01-8.53652E-04-4.33764E-01 1.16032E+07 1.32792E+09 2.97981E-02
 -1      1367-1.80159E-01-8.53652E-04-4.33764E-01 1.16032E+07 1.32792E+09 2.97981E-02
 -1      1368-9.48515E-02-5.34256E-03 8.04044E-04 3.95078E+08 5.67170E+08 1.94798E-03
 -1      1370-9.48515E-02-5.34256E-03 8.04044E-04 3.95078E+08 5.67170E+08 1.94798E-03
 -1      1379-1.82169E-01-6.74877E-04-4.11341E-01 1.02197E+07 1.35535E+09 6.61214E-02
 -1      1381-1.82169E-01-6.74877E-04-4.11341E-01 1.02197E+07 1.35535E+09 6.61214E-02
 -1      1382-9.11954E-02-4.49590E-03 1.03864E-03 3.55301E+08 5.80746E+08 1.34969E-03
 -1      1384-9.11954E-02-4.49590E-03 1.03864E-03 3.55301E+08 5.80746E+08 1.34969E-03
 -1      1393-1.79878E-01-5.62320E-04-3.62198E-01 9.18357E+06 1.38090E+09 7.22506E-02
 -1      1395-1.79878E-01-5.62320E-04-3.62198E-01 9.18357E+06 1.38090E+09 7.22506E-02
 -1      1396-8.64815E-02-8.04581E-03 5.49644E-04 2.47903E+08 5.93302E+08 9.94885E-04
 -1      1398-8.64815E-02-8.04581E-03 5.49644E-04 2.47903E+08 5.93302E+08 9.94885E-04
 -1      1407-1.70573E-01-5.70947E-04-3.47517E-01 8.13414E+06 1.40538E+09 5.15790E-02
 -1      1409-1.70573E-01-5.70947E-04-3.47517E-01 8.13414E+06 1.40538E+09 5.15790E-02
 -1      1410-7.42936E-02-1.90033E-03 5.70029E-04 9.62359E+07 6.04834E+08 5.67297E-04
 -1      1412-7.42936E-02-1.90033E-03 5.70029E-04 9.62359E+07 6.04834E+08 5.67297E-04
 -1      1421-1.50238E-01-1.20503E-03-3.76183E-01 7.33628E+06 1.42948E+09 4.39405E-02
 -1      1423-1.50238E-01-1.20503E-03-3.76183E-01 7.33628E+06 1.42948E+09 4.39405E-02
 -1      1424-5.03389E-02 4.64290E-03 1.04909E-03-6.67735E+07 6.15570E+08 7.15001E-04
 -1      1426-5.03389E-02 4.64290E-03 1.04909E-03-6.67735E+07 6.15570E+08 7.15001E-04
 -1      1435-1.21095E-01-2.71100E-03-3.95269E-01 6.15071E+06 1.45275E+09 5.80732E-02
 -1      1437-1.21095E-01-2.71100E-03-3.95269E-01 6.15071E+06 1.45275E+09 5.80732E-02
 -1      1438-1.88663E-02 4.55695E-03 1.77503E-03-2.04423E+08 6.25221E+08 8.69441E-04
 -1      1440-1.88663E-02 4.55695E-03 1.77503E-03-2.04423E+08 6.25221E+08 8.69441E-04
 -1      1449-8.75760E-02-1.57653E-03-3.82729E-01 5.17537E+06 1.47468E+09 5.10656E-02
 -1      1451-8.75760E-02-1.57653E-03-3.82729E-01 5.17537E+06 1.47468E+09 5.10656E-02
 -1      1452 1.01223E-02 2.66336E-03 1.03851E-03-2.83621E+08 6.33836E+08 6.90880E-04
 -1      1454 1.01223E-02 2.66336E-03 1.03851E-03-2.83621E+08 6.33836E+08 6.90880E-04
 -1      1463-6.24271E-02 7.28088E-04-3.73617E-01 3.39532E+06 1.49350E+09 1.23991E-02
 -1      1465-6.24271E-02 7.28088E-04-3.73617E-01 3.39532E+06 1.49350E+09 1.23991E-02
 -1      1466 2.79857E-02-2.91255E-03 3.86581E-04-2.75711E+08 6.40854E+08 1.00281E-04
 -1      1468 2.79857E-02-2.91255E-03 3.86581E-04-2.75711E+08 6.40854E+08 1.00281E-04
 -1      1477-4.76392E-02 9.19801E-04-3.75176E-01 1.96053E+06 1.50719E+09-1.68478E-02
 -1      1479-4.76392E-02 9.19801E-04-3.75176E-01 1.96053E+06 1.50719E+09-1.68478E-02
 -1      1480 3.16844E-02 4.49839E-03 8.10936E-04-1.82100E+08 6.45821E+08-4.09828E-05
 -1      1482 3.16844E-02 4.49839E-03 8.10936E-04-1.82100E+08 6.45821E+08-4.09828E-05
 -1      1491-3.34873E-02 3.45417E-04-3.94274E-01 2.86168E+06-1.08344E+09 3.30250E-02
 -1      1493-3.34873E-02 3.45417E-04-3.94274E-01 2.86168E+06-1.08344E+09 3.30250E-02
 -1      1494-6.49654E-03 1.99256E-03-3.60518E-01 3.45765E+06-3.89177E-03 1.69262E-02
 -1      1496-6.49654E-03 1.99256E-03-3.60518E-01 3.45765E+06-3.89177E-03 1.69262E-02
 -1      1497-2.35005E-02 9.28773E-04-3.62914E-01 2.86168E+06 1.08344E+09-3.69866E-03
 -1      1499-2.35005E-02 9.28773E-04-3.62914E-01 2.86168E+06 1.08344E+09-3.69866E-03
 -1      1500 7.43998E+08 1.27844E+07-1.19371E+05-1.45408E+08 1.74290E+07-7.82331E+07
 -1      1502 7.43998E+08 1.27844E+07-1.19371E+05-1.45408E+08 1.74290E+07-7.82331E+07
 -1      1503 1.28106E+09-2.23995E+07 1.52664E+06-1.23359E+08 3.05622E+07-5.11938E+06
 -1      1505 1.28106E+09-2.23995E+07 1.52664E+06-1.23359E+08 3.05622E+07-5.11938E+06
 -1      1506 1.58445E+09-2.12985E+07 7.98440E+05-3.29638E+07 4.12584E+07-4.19347E+07
 -1      1508 1.58445E+09-2.12985E+07 7.98440E+05-3.29638E+07 4.12584E+07-4.19347E+07
 -1      1509 1.56211E+09-2.55399E+07 1.31346E+06 3.64969E+07 5.70474E+07-2.36161E+07
 -1      1511 1.56211E+09-2.55399E+07 1.31346E+06 3.64969E+07 5.70474E+07-2.36161E+07
 -1      1512 1.23823E+09-3.69992E+07 1.09612E+06 1.08928E+08 6.94721E+07-3.22331E+07
 -1      1514 1.23823E+09-3.69992E+07 1.09612E+06 1.08928E+08 6.94721E+07-3.22331E+07
 -1      1515 6.55849E+08-3.91702E+07 6.49110E+05 1.59908E+08 8.32786E+07-2.74098E+07
 -1      1517 6.55849E+08-3.91702E+07 6.49110E+05 1.59908E+08 8.32786E+07-2.74098E+07
 -1      1518-6.30348E+07-4.70273E+07 5.05919E+05 1.75311E+08 9.60535E+07-2.87895E+07
 -1      1520-6.30348E+07-4.70273E+07 5.05919E+05 1.75311E+08 9.60535E+07-2.87895E+07
 -1      1521-7.83557E+08-5.22726E+07-1.54118E+05 1.59559E+08 1.08706E+08-2.68945E+07
 -1      1523-7.83557E+08-5.22726E+07-1.54118E+05 1.59559E+08 1.08706E+08-2.68945E+07
 -1      1524-1.36278E+09-5.77535E+07-2.01228E+05 1.08995E+08 1.21324E+08-2.62625E+07
 -1      1526-1.36278E+09-5.77535E+07-2.01228E+05 1.08995E+08 1.21324E+08-2.62625E+07
 -1      1527-1.68955E+09-6.43094E+07-5.72306E+05 3.84583E+07 1.33480E+08-2.48494E+07
 -1      1529-1.68955E+09-6.43094E+07-5.72306E+05 3.84583E+07 1.33480E+08-2.48494E+07
 -1      1530-1.70116E+09-6.97076E+07-3.38142E+05-4.08643E+07 1.45832E+08-2.36629E+07
 -1      1532-1.70116E+09-6.97076E+07-3.38142E+05-4.08643E+07 1.45832E+08-2.36629E+07
 -1      1533-1.39871E+09-7.65076E+07-2.46809E+05-1.11563E+08 1.57658E+08-2.23842E+07
 -1      1535-1.39871E+09-7.65076E+07-2.46809E+05-1.11563E+08 1.57658E+08-2.23842E+07
 -1      1536-8.45337E+08-8.23240E+07 2.67363E+05-1.60280E+08 1.69535E+08-2.12130E+07
 -1      1538-8.45337E+08-8.23240E+07 2.67363E+05-1.60280E+08 1.69535E+08-2.12130E+07
 -1      1539-1.54556E+08-8.88287E+07 6.55264E+05-1.76960E+08 1.80762E+08-2.01682E+07
 -1      1541-1.54556E+08-8.88287E+07 6.55264E+05-1.76960E+08 1.80762E+08-2.01682E+07
 -1      1542 5.32987E+08-9.45258E+07 1.20097E+06-1.58350E+08 1.91725E+08-1.92421E+07
 -1      1544 5.32987E+08-9.45258E+07 1.20097E+06-1.58350E+08 1.91725E+08-1.92421E+07
 -1      1545 1.07716E+09-1.00184E+08 1.53046E+06-1.08134E+08 2.01854E+08-1.84571E+07
 -1      1547 1.07716E+09-1.00184E+08 1.53046E+06-1.08134E+08 2.01854E+08-1.84571E+07
 -1      1548 1.36655E+09-1.05028E+08 1.79523E+06-3.62532E+07 2.11417E+08-1.77304E+07
 -1      1550 1.36655E+09-1.05028E+08 1.79523E+06-3.62532E+07 2.11417E+08-1.77304E+07
 -1      1551 1.34048E+09-1.09418E+08 1.78530E+06 4.29639E+07 2.20032E+08-1.70358E+07
 -1      1553 1.34048E+09-1.09418E+08 1.78530E+06 4.29639E+07 2.20032E+08-1.70358E+07
 -1      1554 1.00110E+09-1.13028E+08 1.63893E+06 1.13855E+08 2.27939E+08-1.62727E+07
 -1      1556 1.00110E+09-1.13028E+08 1.63893E+06 1.13855E+08 2.27939E+08-1.62727E+07
 -1      1557 4.12736E+08-1.16147E+08 1.28408E+06 1.62371E+08 2.34937E+08-1.54019E+07
 -1      1559 4.12736E+08-1.16147E+08 1.28408E+06 1.62371E+08 2.34937E+08-1.54019E+07
 -1      1560-3.11088E+08-1.18673E+08 8.86208E+05 1.79096E+08 2.41274E+08-1.43531E+07
 -1      1562-3.11088E+08-1.18673E+08 8.86208E+05 1.79096E+08 2.41274E+08-1.43531E+07
 -1      1563-1.03086E+09-1.20966E+08 4.52179E+05 1.61014E+08 2.46863E+08-1.31247E+07
 -1      1565-1.03086E+09-1.20966E+08 4.52179E+05 1.61014E+08 2.46863E+08-1.31247E+07
 -1      1566-1.60924E+09-1.22832E+08 1.33517E+05 1.12206E+08 2.51923E+08-1.16950E+07
 -1      1568-1.60924E+09-1.22832E+08 1.33517E+05 1.12206E+08 2.51923E+08-1.16950E+07
 -1      1569-1.93983E+09-1.24982E+08-4.57143E+04 4.34249E+07 2.56385E+08-1.01356E+07
 -1      1571-1.93983E+09-1.24982E+08-4.57143E+04 4.34249E+07 2.56385E+08-1.01356E+07
 -1      1572-1.96909E+09-1.26237E+08-4.39077E+04-3.09238E+07 2.60367E+08-8.41713E+06
 -1      1574-1.96909E+09-1.26237E+08-4.39077E+04-3.09238E+07 2.60367E+08-8.41713E+06
 -1      1575-1.70997E+09-1.29057E+08 1.87870E+05-9.32201E+07 2.63753E+08-6.74976E+06
 -1      1577-1.70997E+09-1.29057E+08 1.87870E+05-9.32201E+07 2.63753E+08-6.74976E+06
 -1      1578-1.24173E+09-1.28878E+08 4.59059E+05-1.29321E+08 2.66508E+08-4.86852E+06
 -1      1580-1.24173E+09-1.28878E+08 4.59059E+05-1.29321E+08 2.66508E+08-4.86852E+06
 -1      1581-6.97894E+08-1.32145E+08 9.44377E+05-1.28735E+08 2.68496E+08-3.44704E+06
 -1      1583-6.97894E+08-1.32145E+08 9.44377E+05-1.28735E+08 2.68496E+08-3.44704E+06
 -1      1584-2.53255E+08-1.33788E+08 1.24826E+06-7.56519E+07 2.69591E+08-1.21698E+06
 -1      1586-2.53255E+08-1.33788E+08 1.24826E+06-7.56519E+07 2.69591E+08-1.21698E+06
 -1      1587-1.05704E+08-2.75630E+08-7.50114E+05-7.57309E+07 4.58955E+08 6.68736E+05
 -1      1589-1.05704E+08-2.75630E+08-7.50114E+05-7.57309E+07 4.58955E+08 6.68736E+05
 -1      1590 3.45090E+08 1.30827E+08 7.60357E+05-1.41246E+08-2.12466E+07-5.88157E+07
 -1      1592 3.45090E+08 1.30827E+08 7.60357E+05-1.41246E+08-2.12466E+07-5.88157E+07
 -1      1593 1.05704E+08 2.75630E+08 7.50114E+05-7.57309E+07 4.58955E+08-6.68736E+05
 -1      1595 1.05704E+08 2.75630E+08 7.50114E+05-7.57309E+07 4.58955E+08-6.68736E+05
 -1      1596-7.43998E+08-1.27844E+07 1.19371E+05-1.45408E+08 1.74290E+07 7.82331E+07
 -1      1598-7.43998E+08-1.27844E+07 1.19371E+05-1.45408E+08 1.74290E+07 7.82331E+07
 -1      1599-1.28106E+09 2.23995E+07-1.52664E+06-1.23359E+08 3.05622E+07 5.11938E+06
 -1      1601-1.28106E+09 2.23995E+07-1.52664E+06-1.23359E+08 3.05622E+07 5.11938E+06
 -1      1602-1.58445E+09 2.12985E+07-7.98440E+05-3.29638E+07 4.12584E+07 4.19347E+07
 -1      1604-1.58445E+09 2.12985E+07-7.98440E+05-3.29638E+07 4.12584E+07 4.19347E+07
 -1      1605-1.56211E+09 2.55399E+07-1.31346E+06 3.64969E+07 5.70474E+07 2.36161E+07
 -1      1607-1.56211E+09 2.55399E+07-1.31346E+06 3.64969E+07 5.70474E+07 2.36161E+07
 -1      1608-1.23823E+09 3.69992E+07-1.09612E+06 1.08928E+08 6.94721E+07 3.22331E+07
 -1      1610-1.23823E+09 3.69992E+07-1.09612E+06 1.08928E+08 6.94721E+07 3.22331E+07
 -1      1611-6.55849E+08 3.91702E+07-6.49110E+05 1.59908E+08 8.32786E+07 2.74098E+07
 -1      1613-6.55849E+08 3.91702E+07-6.49110E+05 1.59908E+08 8.32786E+07 2.74098E+07
 -1      1614 6.30348E+07 4.70273E+07-5.05919E+05 1.75311E+08 9.60535E+07 2.87895E+07
 -1      1616 6.30348E+07 4.70273E+07-5.05919E+05 1.75311E+08 9.60535E+07 2.87895E+07
 -1      1617 7.83557E+08 5.22726E+07 1.54118E+05 1.59559E+08 1.08706E+08 2.68945E+07
 -1      1619 7.83557E+08 5.22726E+07 1.54118E+05 1.59559E+08 1.08706E+08 2.68945E+07
 -1      1620 1.36278E+09 5.77535E+07 2.01228E+05 1.08995E+08 1.21324E+08 2.62625E+07
 -1      1622 1.36278E+09 5.77535E+07 2.01228E+05 1.08995E+08 1.21324E+08 2.62625E+07
 -1      1623 1.68955E+09 6.43094E+07 5.72306E+05 3.84583E+07 1.33480E+08 2.48494E+07
 -1      1625 1.68955E+09 6.43094E+07 5.72306E+05 3.84583E+07 1.33480E+08 2.48494E+07
 -1      1626 1.70116E+09 6.97076E+07 3.38142E+05-4.08643E+07 1.45832E+08 2.36629E+07
 -1      1628 1.70116E+09 6.97076E+07 3.38142E+05-4.08643E+07 1.45832E+08 2.36629E+07
 -1      1629 1.39871E+09 7.65076E+07 2.46809E+05-1.11563E+08 1.57658E+08 2.23842E+07
 -1      1631 1.39871E+09 7.65076E+07 2.46809E+05-1.11563E+08 1.57658E+08 2.23842E+07
 -1      1632 8.45337E+08 8.23240E+07-2.67363E+05-1.60280E+08 1.69535E+08 2.12130E+07
 -1      1634 8.45337E+08 8.23240E+07-2.67363E+05-1.60280E+08 1.69535E+08 2.12130E+07
 -1      1635 1.54556E+08 8.88287E+07-6.55264E+05-1.76960E+08 1.80762E+08 2.01682E+07
 -1      1637 1.54556E+08 8.88287E+07-6.55264E+05-1.76960E+08 1.80762E+08 2.01682E+07
 -1      1638-5.32987E+08 9.45258E+07-1.20097E+06-1.58350E+08 1.91725E+08 1.92421E+07
 -1      1640-5.32987E+08 9.45258E+07-1.20097E+06-1.58350E+08 1.91725E+08 1.92421E+07
 -1      1641-1.07716E+09 1.00184E+08-1.53046E+06-1.08134E+08 2.01854E+08 1.84571E+07
 -1      1643-1.07716E+09 1.00184E+08-1.53046E+06-1.08134E+08 2.01854E+08 1.84571E+07
 -1      1644-1.36655E+09 1.05028E+08-1.79523E+06-3.62532E+07 2.11417E+08 1.77304E+07
 -1      1646-1.36655E+09 1.05028E+08-1.79523E+06-3.62532E+07 2.11417E+08 1.77304E+07
 -1      1647-1.34048E+09 1.09418E+08-1.78530E+06 4.29639E+07 2.20032E+08 1.70358E+07
 -1      1649-1.34048E+09 1.09418E+08-1.78530E+06 4.29639E+07 2.20032E+08 1.70358E+07
 -1      1650-1.00110E+09 1.13028E+08-1.63893E+06 1.13855E+08 2.27939E+08 1.62727E+07
 -1      1652-1.00110E+09 1.13028E+08-1.63893E+06 1.13855E+08 2.27939E+08 1.62727E+07
 -1      1653-4.12736E+08 1.16147E+08-1.28408E+06 1.62371E+08 2.34937E+08 1.54019E+07
 -1      1655-4.12736E+08 1.16147E+08-1.28408E+06 1.62371E+08 2.34937E+08 1.54019E+07
 -1      1656 3.11088E+08 1.18673E+08-8.86208E+05 1.79096E+08 2.41274E+08 1.43531E+07
 -1      1658 3.11088E+08 1.18673E+08-8.86208E+05 1.79096E+08 2.41274E+08 1.43531E+07
 -1      1659 1.03086E+09 1.20966E+08-4.52179E+05 1.61014E+08 2.46863E+08 1.31247E+07
 -1      1661 1.03086E+09 1.20966E+08-4.52179E+05 1.61014E+08 2.46863E+08 1.31247E+07
 -1      1662 1.60924E+09 1.22832E+08-1.33517E+05 1.12206E+08 2.51923E+08 1.16950E+07
 -1      1664 1.60924E+09 1.22832E+08-1.33517E+05 1.12206E+08 2.51923E+08 1.16950E+07
 -1      1665 1.93983E+09 1.24982E+08 4.57143E+04 4.34249E+07 2.56385E+08 1.01356E+07
 -1      1667 1.93983E+09 1.24982E+08 4.57143E+04 4.34249E+07 2.56385E+08 1.01356E+07
 -1      1668 1.96909E+09 1.26237E+08 4.39077E+04-3.09238E+07 2.60367E+08 8.41713E+06
 -1      1670 1.96909E+09 1.26237E+08 4.39077E+04-3.09238E+07 2.60367E+08 8.41713E+06
 -1      1671 1.70997E+09 1.29057E+08-1.87870E+05-9.32201E+07 2.63753E+08 6.74976E+06
 -1      1673 1.70997E+09 1.29057E+08-1.87870E+05-9.32201E+07 2.63753E+08 6.74976E+06
 -1      1674 1.24173E+09 1.28878E+08-4.59059E+05-1.29321E+08 2.66508E+08 4.86852E+06
 -1      1676 1.24173E+09 1.28878E+08-4.59059E+05-1.29321E+08 2.66508E+08 4.86852E+06
 -1      1677 6.97894E+08 1.32145E+08-9.44377E+05-1.28735E+08 2.68496E+08 3.44704E+06
 -1      1679 6.97894E+08 1.32145E+08-9.44377E+05-1.28735E+08 2.68496E+08 3.44704E+06
 -1      1680 2.53255E+08 1.33788E+08-1.24826E+06-7.56519E+07 2.69591E+08 1.21698E+06
 -1      1682 2.53255E+08 1.33788E+08-1.24826E+06-7.56519E+07 2.69591E+08 1.21698E+06
 -1      1683-3.45090E+08-1.30827E+08-7.60357E+05-1.41246E+08-2.12466E+07 5.88157E+07
 -1      1685-3.45090E+08-1.30827E+08-7.60357E+05-1.41246E+08-2.12466E+07 5.88157E+07
 -1      1686-5.12849E+08-4.08858E+07-2.60001E+05-2.19598E+08-8.30421E+06-1.00055E+07
 -1      1688-5.12849E+08-4.08858E+07-2.60001E+05-2.19598E+08-8.30421E+06-1.00055E+07
 -1      1689-8.36080E+08 6.18143E+07 7.04903E+05-1.92934E+08-5.09867E+07 1.66649E+07
 -1      1691-8.36080E+08 6.18143E+07 7.04903E+05-1.92934E+08-5.09867E+07 1.66649E+07
 -1      1692-1.03432E+09 5.07525E+07-2.29982E+05-5.37548E+07-7.18044E+07 3.59699E+06
 -1      1694-1.03432E+09 5.07525E+07-2.29982E+05-5.37548E+07-7.18044E+07 3.59699E+06
 -1      1695-1.01952E+09 6.49365E+07 3.63076E+05 5.67355E+07-9.66815E+07 9.08788E+06
 -1      1697-1.01952E+09 6.49365E+07 3.63076E+05 5.67355E+07-9.66815E+07 9.08788E+06
 -1      1698-8.01313E+08 8.37712E+07 2.72103E+05 1.78273E+08-1.20484E+08 6.31410E+06
 -1      1700-8.01313E+08 8.37712E+07 2.72103E+05 1.78273E+08-1.20484E+08 6.31410E+06
 -1      1701-4.15659E+08 8.27007E+07 1.72146E+05 2.53431E+08-1.42081E+08 6.99657E+06
 -1      1703-4.15659E+08 8.27007E+07 1.72146E+05 2.53431E+08-1.42081E+08 6.99657E+06
 -1      1704 6.07551E+07 9.55788E+07 4.61225E+05 2.83382E+08-1.64625E+08 6.50695E+06
 -1      1706 6.07551E+07 9.55788E+07 4.61225E+05 2.83382E+08-1.64625E+08 6.50695E+06
 -1      1707 5.38165E+08 9.75034E+07 1.97619E+05 2.54571E+08-1.85100E+08 6.43934E+06
 -1      1709 5.38165E+08 9.75034E+07 1.97619E+05 2.54571E+08-1.85100E+08 6.43934E+06
 -1      1710 9.22279E+08 1.07030E+08 5.06903E+05 1.75683E+08-2.06352E+08 6.45250E+06
 -1      1712 9.22279E+08 1.07030E+08 5.06903E+05 1.75683E+08-2.06352E+08 6.45250E+06
 -1      1713 1.14019E+09 1.15290E+08 3.02376E+05 6.16126E+07-2.26293E+08 6.40255E+06
 -1      1715 1.14019E+09 1.15290E+08 3.02376E+05 6.16126E+07-2.26293E+08 6.40255E+06
 -1      1716 1.15042E+09 1.27981E+08 5.40965E+05-6.49612E+07-2.46688E+08 6.48015E+06
 -1      1718 1.15042E+09 1.27981E+08 5.40965E+05-6.49612E+07-2.46688E+08 6.48015E+06
 -1      1719 9.53670E+08 1.42696E+08 4.31027E+05-1.78357E+08-2.66163E+08 6.41517E+06
 -1      1721 9.53670E+08 1.42696E+08 4.31027E+05-1.78357E+08-2.66163E+08 6.41517E+06
 -1      1722 5.91652E+08 1.59667E+08 6.02321E+05-2.56396E+08-2.85650E+08 6.34857E+06
 -1      1724 5.91652E+08 1.59667E+08 6.02321E+05-2.56396E+08-2.85650E+08 6.34857E+06
 -1      1725 1.38941E+08 1.77523E+08 5.61844E+05-2.83064E+08-3.04164E+08 6.11637E+06
 -1      1727 1.38941E+08 1.77523E+08 5.61844E+05-2.83064E+08-3.04164E+08 6.11637E+06
 -1      1728-3.11653E+08 1.94771E+08 6.80456E+05-2.53344E+08-3.22133E+08 5.80753E+06
 -1      1730-3.11653E+08 1.94771E+08 6.80456E+05-2.53344E+08-3.22133E+08 5.80753E+06
 -1      1731-6.67997E+08 2.10151E+08 6.74564E+05-1.72864E+08-3.38853E+08 5.36424E+06
 -1      1733-6.67997E+08 2.10151E+08 6.74564E+05-1.72864E+08-3.38853E+08 5.36424E+06
 -1      1734-8.56596E+08 2.22377E+08 7.49179E+05-5.78091E+07-3.54552E+08 4.86472E+06
 -1      1736-8.56596E+08 2.22377E+08 7.49179E+05-5.78091E+07-3.54552E+08 4.86472E+06
 -1      1737-8.37570E+08 2.30944E+08 7.52184E+05 6.91011E+07-3.68814E+08 4.31834E+06
 -1      1739-8.37570E+08 2.30944E+08 7.52184E+05 6.91011E+07-3.68814E+08 4.31834E+06
 -1      1740-6.12275E+08 2.35768E+08 7.90348E+05 1.82592E+08-3.81872E+08 3.79402E+06
 -1      1742-6.12275E+08 2.35768E+08 7.90348E+05 1.82592E+08-3.81872E+08 3.79402E+06
 -1      1743-2.23131E+08 2.37492E+08 7.92713E+05 2.60327E+08-3.93576E+08 3.31952E+06
 -1      1745-2.23131E+08 2.37492E+08 7.92713E+05 2.60327E+08-3.93576E+08 3.31952E+06
 -1      1746 2.55156E+08 2.37238E+08 8.05221E+05 2.87087E+08-4.04222E+08 2.93071E+06
 -1      1748 2.55156E+08 2.37238E+08 8.05221E+05 2.87087E+08-4.04222E+08 2.93071E+06
 -1      1749 7.30642E+08 2.36329E+08 8.12783E+05 2.58157E+08-4.13805E+08 2.63494E+06
 -1      1751 7.30642E+08 2.36329E+08 8.12783E+05 2.58157E+08-4.13805E+08 2.63494E+06
 -1      1752 1.11302E+09 2.36162E+08 8.09892E+05 1.80055E+08-4.22613E+08 2.41834E+06
 -1      1754 1.11302E+09 2.36162E+08 8.09892E+05 1.80055E+08-4.22613E+08 2.41834E+06
 -1      1755 1.33207E+09 2.37986E+08 8.37698E+05 6.98304E+07-4.30610E+08 2.25603E+06
 -1      1757 1.33207E+09 2.37986E+08 8.37698E+05 6.98304E+07-4.30610E+08 2.25603E+06
 -1      1758 1.35286E+09 2.41691E+08 8.20872E+05-4.88487E+07-4.37969E+08 2.09996E+06
 -1      1760 1.35286E+09 2.41691E+08 8.20872E+05-4.88487E+07-4.37969E+08 2.09996E+06
 -1      1761 1.18387E+09 2.49221E+08 8.80556E+05-1.48821E+08-4.44487E+08 1.89704E+06
 -1      1763 1.18387E+09 2.49221E+08 8.80556E+05-1.48821E+08-4.44487E+08 1.89704E+06
 -1      1764 8.76892E+08 2.55886E+08 8.53389E+05-2.06471E+08-4.50172E+08 1.63677E+06
 -1      1766 8.76892E+08 2.55886E+08 8.53389E+05-2.06471E+08-4.50172E+08 1.63677E+06
 -1      1767 5.23632E+08 2.67209E+08 9.02160E+05-2.02223E+08-4.54675E+08 1.17623E+06
 -1      1769 5.23632E+08 2.67209E+08 9.02160E+05-2.02223E+08-4.54675E+08 1.17623E+06
 -1      1770 2.27492E+08 2.76410E+08 9.77636E+05-1.28876E+08-4.57706E+08 7.69835E+05
 -1      1772 2.27492E+08 2.76410E+08 9.77636E+05-1.28876E+08-4.57706E+08 7.69835E+05
 -1      1773 5.12849E+08 4.08858E+07 2.60001E+05-2.19598E+08-8.30421E+06 1.00055E+07
 -1      1775 5.12849E+08 4.08858E+07 2.60001E+05-2.19598E+08-8.30421E+06 1.00055E+07
 -1      1776 8.36080E+08-6.18143E+07-7.04903E+05-1.92934E+08-5.09867E+07-1.66649E+07
 -1      1778 8.36080E+08-6.18143E+07-7.04903E+05-1.92934E+08-5.09867E+07-1.66649E+07
 -1      1779 1.03432E+09-5.07525E+07 2.29982E+05-5.37548E+07-7.18044E+07-3.59699E+06
 -1      1781 1.03432E+09-5.07525E+07 2.29982E+05-5.37548E+07-7.18044E+07-3.59699E+06
 -1      1782 1.01952E+09-6.49365E+07-3.63076E+05 5.67355E+07-9.66815E+07-9.08788E+06
 -1      1784 1.01952E+09-6.49365E+07-3.63076E+05 5.67355E+07-9.66815E+07-9.08788E+06
 -1      1785 8.01313E+08-8.37712E+07-2.72103E+05 1.78273E+08-1.20484E+08-6.31410E+06
 -1      1787 8.01313E+08-8.37712E+07-2.72103E+05 1.78273E+08-1.20484E+08-6.31410E+06
 -1      1788 4.15659E+08-8.27007E+07-1.72146E+05 2.53431E+08-1.42081E+08-6.99657E+06
 -1      1790 4.15659E+08-8.27007E+07-1.72146E+05 2.53431E+08-1.42081E+08-6.99657E+06
 -1      1791-6.07551E+07-9.55788E+07-4.61225E+05 2.83382E+08-1.64625E+08-6.50695E+06
 -1      1793-6.07551E+07-9.55788E+07-4.61225E+05 2.83382E+08-1.64625E+08-6.50695E+06
 -1      1794-5.38165E+08-9.75034E+07-1.97619E+05 2.54571E+08-1.85100E+08-6.43934E+06
 -1      1796-5.38165E+08-9.75034E+07-1.97619E+05 2.54571E+08-1.85100E+08-6.43934E+06
 -1      1797-9.22279E+08-1.07030E+08-5.06903E+05 1.75683E+08-2.06352E+08-6.45250E+06
 -1      1799-9.22279E+08-1.07030E+08-5.06903E+05 1.75683E+08-2.06352E+08-6.45250E+06
 -1      1800-1.14019E+09-1.15290E+08-3.02376E+05 6.16126E+07-2.26293E+08-6.40255E+06
 -1      1802-1.14019E+09-1.15290E+08-3.02376E+05 6.16126E+07-2.26293E+08-6.40255E+06
 -1      1803-1.15042E+09-1.27981E+08-5.40965E+05-6.49612E+07-2.46688E+08-6.48015E+06
 -1      1805-1.15042E+09-1.27981E+08-5.40965E+05-6.49612E+07-2.46688E+08-6.48015E+06
 -1      1806-9.53670E+08-1.42696E+08-4.31027E+05-1.78357E+08-2.66163E+08-6.41517E+06
 -1      1808-9.53670E+08-1.42696E+08-4.31027E+05-1.78357E+08-2.66163E+08-6.41517E+06
 -1      1809-5.91652E+08-1.59667E+08-6.02321E+05-2.56396E+08-2.85650E+08-6.34857E+06
 -1      1811-5.91652E+08-1.59667E+08-6.02321E+05-2.56396E+08-2.85650E+08-6.34857E+06
 -1      1812-1.38941E+08-1.77523E+08-5.61844E+05-2.83064E+08-3.04164E+08-6.11637E+06
 -1      1814-1.38941E+08-1.77523E+08-5.61844E+05-2.83064E+08-3.04164E+08-6.11637E+06
 -1      1815 3.11653E+08-1.94771E+08-6.80456E+05-2.53344E+08-3.22133E+08-5.80753E+06
 -1      1817 3.11653E+08-1.94771E+08-6.80456E+05-2.53344E+08-3.22133E+08-5.80753E+06
 -1      1818 6.67997E+08-2.10151E+08-6.74564E+05-1.72864E+08-3.38853E+08-5.36424E+06
 -1      1820 6.67997E+08-2.10151E+08-6.74564E+05-1.72864E+08-3.38853E+08-5.36424E+06
 -1      1821 8.56596E+08-2.22377E+08-7.49179E+05-5.78091E+07-3.54552E+08-4.86472E+06
 -1      1823 8.56596E+08-2.22377E+08-7.49179E+05-5.78091E+07-3.54552E+08-4.86472E+06
 -1      1824 8.37570E+08-2.30944E+08-7.52184E+05 6.91011E+07-3.68814E+08-4.31834E+06
 -1      1826 8.37570E+08-2.30944E+08-7.52184E+05 6.91011E+07-3.68814E+08-4.31834E+06
 -1      1827 6.12275E+08-2.35768E+08-7.90348E+05 1.82592E+08-3.81872E+08-3.79402E+06
 -1      1829 6.12275E+08-2.35768E+08-7.90348E+05 1.82592E+08-3.81872E+08-3.79402E+06
 -1      1830 2.23131E+08-2.37492E+08-7.92713E+05 2.60327E+08-3.93576E+08-3.31952E+06
 -1      1832 2.23131E+08-2.37492E+08-7.92713E+05 2.60327E+08-3.93576E+08-3.31952E+06
 -1      1833-2.55156E+08-2.37238E+08-8.05221E+05 2.87087E+08-4.04222E+08-2.93071E+06
 -1      1835-2.55156E+08-2.37238E+08-8.05221E+05 2.87087E+08-4.04222E+08-2.93071E+06
 -1      1836-7.30642E+08-2.36329E+08-8.12783E+05 2.58157E+08-4.13805E+08-2.63494E+06
 -1      1838-7.30642E+08-2.36329E+08-8.12783E+05 2.58157E+08-4.13805E+08-2.63494E+06
 -1      1839-1.11302E+09-2.36162E+08-8.09892E+05 1.80055E+08-4.22613E+08-2.41834E+06
 -1      1841-1.11302E+09-2.36162E+08-8.09892E+05 1.80055E+08-4.22613E+08-2.41834E+06
 -1      1842-1.33207E+09-2.37986E+08-8.37698E+05 6.98304E+07-4.30610E+08-2.25603E+06
 -1      1844-1.33207E+09-2.37986E+08-8.37698E+05 6.98304E+07-4.30610E+08-2.25603E+06
 -1      1845-1.35286E+09-2.41691E+08-8.20872E+05-4.88487E+07-4.37969E+08-2.09996E+06
 -1      1847-1.35286E+09-2.41691E+08-8.20872E+05-4.88487E+07-4.37969E+08-2.09996E+06
 -1      1848-1.18387E+09-2.49221E+08-8.80556E+05-1.48821E+08-4.44487E+08-1.89704E+06
 -1      1850-1.18387E+09-2.49221E+08-8.80556E+05-1.48821E+08-4.44487E+08-1.89704E+06
 -1      1851-8.76892E+08-2.55886E+08-8.53389E+05-2.06471E+08-4.50172E+08-1.63677E+06
 -1      1853-8.76892E+08-2.55886E+08-8.53389E+05-2.06471E+08-4.50172E+08-1.63677E+06
 -1      1854-5.23632E+08-2.67209E+08-9.02160E+05-2.02223E+08-4.54675E+08-1.17623E+06
 -1      1856-5.23632E+08-2.67209E+08-9.02160E+05-2.02223E+08-4.54675E+08-1.17623E+06
 -1      1857-2.27492E+08-2.76410E+08-9.77636E+05-1.28876E+08-4.57706E+08-7.69835E+05
 -1      1859-2.27492E+08-2.76410E+08-9.77636E+05-1.28876E+08-4.57706E+08-7.69835E+05
 -1      1860-2.07192E-02 1.65688E-04 2.87147E-02-4.45093E+07-4.80918E+07 1.30685E-01
 -1      1862-2.07192E-02 1.65688E-04 2.87147E-02-4.45093E+07-4.80918E+07 1.30685E-01
 -1      1863-5.39895E-02-2.33756E-04-7.79694E-03 2.39536E+07-1.15862E+08 1.35597E-01
 -1      1865-5.39895E-02-2.33756E-04-7.79694E-03 2.39536E+07-1.15862E+08 1.35597E-01
 -1      1866-8.66151E-02-1.55254E-04-8.38919E-02-1.42526E+07-1.68887E+08 1.16923E-01
 -1      1868-8.66151E-02-1.55254E-04-8.38919E-02-1.42526E+07-1.68887E+08 1.16923E-01
 -1      1869-1.08348E-01 1.85910E-04-1.60805E-01 7.71024E+06-2.26877E+08 9.00893E-02
 -1      1871-1.08348E-01 1.85910E-04-1.60805E-01 7.71024E+06-2.26877E+08 9.00893E-02
 -1      1872-1.14228E-01 4.14611E-06-1.98117E-01-2.67693E+06-2.81421E+08 4.55703E-02
 -1      1874-1.14228E-01 4.14611E-06-1.98117E-01-2.67693E+06-2.81421E+08 4.55703E-02
 -1      1875-1.17510E-01-2.68717E-04-1.83193E-01 3.16703E+06-3.34258E+08 6.13062E-03
 -1      1877-1.17510E-01-2.68717E-04-1.83193E-01 3.16703E+06-3.34258E+08 6.13062E-03
 -1      1878-1.29092E-01-3.99179E-04-1.60564E-01 9.29055E+05-3.86716E+08-1.39931E-02
 -1      1880-1.29092E-01-3.99179E-04-1.60564E-01 9.29055E+05-3.86716E+08-1.39931E-02
 -1      1881-1.43099E-01 4.47466E-05-1.80282E-01 1.66500E+06-4.36763E+08-3.06850E-02
 -1      1883-1.43099E-01 4.47466E-05-1.80282E-01 1.66500E+06-4.36763E+08-3.06850E-02
 -1      1884-1.44430E-01 5.23539E-04-2.29249E-01 9.96890E+05-4.87009E+08-7.14861E-02
 -1      1886-1.44430E-01 5.23539E-04-2.29249E-01 9.96890E+05-4.87009E+08-7.14861E-02
 -1      1887-1.27041E-01 4.29604E-04-2.47184E-01 2.51753E+05-5.35497E+08-1.26368E-01
 -1      1889-1.27041E-01 4.29604E-04-2.47184E-01 2.51753E+05-5.35497E+08-1.26368E-01
 -1      1890-1.02047E-01 3.94779E-05-2.20031E-01-3.08666E+05-5.84019E+08-1.52051E-01
 -1      1892-1.02047E-01 3.94779E-05-2.20031E-01-3.08666E+05-5.84019E+08-1.52051E-01
 -1      1893-7.99508E-02-3.56624E-04-1.90017E-01-1.14941E+06-6.31084E+08-1.43301E-01
 -1      1895-7.99508E-02-3.56624E-04-1.90017E-01-1.14941E+06-6.31084E+08-1.43301E-01
 -1      1896-5.65980E-02-1.10094E-03-1.88534E-01-1.44418E+06-6.77480E+08-1.21926E-01
 -1      1898-5.65980E-02-1.10094E-03-1.88534E-01-1.44418E+06-6.77480E+08-1.21926E-01
 -1      1899-3.40538E-02-1.41553E-03-2.06376E-01-1.72325E+06-7.22008E+08-9.82917E-02
 -1      1901-3.40538E-02-1.41553E-03-2.06376E-01-1.72325E+06-7.22008E+08-9.82917E-02
 -1      1902-2.32994E-02-3.91146E-04-2.19234E-01-1.45513E+06-7.64809E+08-7.72082E-02
 -1      1904-2.32994E-02-3.91146E-04-2.19234E-01-1.45513E+06-7.64809E+08-7.72082E-02
 -1      1905-1.83326E-02 3.35516E-04-2.26480E-01-1.05633E+06-8.04973E+08-6.03075E-02
 -1      1907-1.83326E-02 3.35516E-04-2.26480E-01-1.05633E+06-8.04973E+08-6.03075E-02
 -1      1908-7.75403E-03-1.37091E-03-2.48342E-01-3.36971E+05-8.42464E+08-4.74113E-02
 -1      1910-7.75403E-03-1.37091E-03-2.48342E-01-3.36971E+05-8.42464E+08-4.74113E-02
 -1      1911 8.08111E-04-1.42327E-03-2.87466E-01 3.64607E+05-8.76776E+08-4.07465E-02
 -1      1913 8.08111E-04-1.42327E-03-2.87466E-01 3.64607E+05-8.76776E+08-4.07465E-02
 -1      1914-6.68700E-03-2.08030E-04-3.24997E-01 1.05187E+06-9.08041E+08-3.45964E-02
 -1      1916-6.68700E-03-2.08030E-04-3.24997E-01 1.05187E+06-9.08041E+08-3.45964E-02
 -1      1917-2.82278E-02-3.00749E-04-3.50667E-01 1.48058E+06-9.36179E+08-1.23484E-02
 -1      1919-2.82278E-02-3.00749E-04-3.50667E-01 1.48058E+06-9.36179E+08-1.23484E-02
 -1      1920-4.93550E-02-2.20698E-04-3.70579E-01 1.66049E+06-9.61553E+08 2.33091E-02
 -1      1922-4.93550E-02-2.20698E-04-3.70579E-01 1.66049E+06-9.61553E+08 2.33091E-02
 -1      1923-6.44795E-02-4.32672E-04-3.79631E-01 1.45454E+06-9.84316E+08 4.72434E-02
 -1      1925-6.44795E-02-4.32672E-04-3.79631E-01 1.45454E+06-9.84316E+08 4.72434E-02
 -1      1926-7.58499E-02-6.27491E-04-3.65413E-01 1.05335E+06-1.00488E+09 5.50289E-02
 -1      1928-7.58499E-02-6.27491E-04-3.65413E-01 1.05335E+06-1.00488E+09 5.50289E-02
 -1      1929-7.76739E-02 3.02047E-04-3.43665E-01 2.98367E+05-1.02331E+09 6.08676E-02
 -1      1931-7.76739E-02 3.02047E-04-3.43665E-01 2.98367E+05-1.02331E+09 6.08676E-02
 -1      1932-7.04141E-02 5.25849E-04-3.39104E-01-2.37357E+05-1.03981E+09 7.02401E-02
 -1      1934-7.04141E-02 5.25849E-04-3.39104E-01-2.37357E+05-1.03981E+09 7.02401E-02
 -1      1935-6.57864E-02 2.40378E-04-3.49074E-01-1.14750E+06-1.05414E+09 7.89152E-02
 -1      1937-6.57864E-02 2.40378E-04-3.49074E-01-1.14750E+06-1.05414E+09 7.89152E-02
 -1      1938-6.52862E-02-1.36038E-04-3.62797E-01-1.07375E+06-1.06614E+09 7.88702E-02
 -1      1940-6.52862E-02-1.36038E-04-3.62797E-01-1.07375E+06-1.06614E+09 7.88702E-02
 -1      1941-6.21763E-02-7.55945E-04-3.82157E-01-1.87788E+06-1.07534E+09 6.97974E-02
 -1      1943-6.21763E-02-7.55945E-04-3.82157E-01-1.87788E+06-1.07534E+09 6.97974E-02
 -1      1944-4.63435E-02-4.26396E-05-3.94096E-01-4.04404E+05-1.08121E+09 4.84536E-02
 -1      1946-4.63435E-02-4.26396E-05-3.94096E-01-4.04404E+05-1.08121E+09 4.84536E-02
 -1      1947-8.78504E-02 3.55990E-04 8.84419E-03-1.13701E+08 5.57292E-04 1.46943E-01
 -1      1949-8.78504E-02 3.55990E-04 8.84419E-03-1.13701E+08 5.57292E-04 1.46943E-01
 -1      1950-8.96329E-02 1.13905E-04-1.15229E-02 1.66299E+07 1.98538E-03 1.39935E-01
 -1      1952-8.96329E-02 1.13905E-04-1.15229E-02 1.66299E+07 1.98538E-03 1.39935E-01
 -1      1953-8.26833E-02 3.78792E-04-7.33698E-02-5.68546E+07 2.57470E-03 1.21209E-01
 -1      1955-8.26833E-02 3.78792E-04-7.33698E-02-5.68546E+07 2.57470E-03 1.21209E-01
 -1      1956-7.78874E-02 4.97076E-04-1.37068E-01-1.10578E+07 2.61953E-03 9.74105E-02
 -1      1958-7.78874E-02 4.97076E-04-1.37068E-01-1.10578E+07 2.61953E-03 9.74105E-02
 -1      1959-7.26428E-02 7.16267E-04-1.71348E-01-3.38556E+07 2.13195E-03 6.30678E-02
 -1      1961-7.26428E-02 7.16267E-04-1.71348E-01-3.38556E+07 2.13195E-03 6.30678E-02
 -1      1962-7.53314E-02 3.68627E-04-1.71236E-01-1.80099E+07 1.09735E-03 3.26929E-02
 -1      1964-7.53314E-02 3.68627E-04-1.71236E-01-1.80099E+07 1.09735E-03 3.26929E-02
 -1      1965-8.59379E-02-7.86583E-05-1.56234E-01-2.53297E+07 2.60048E-04 9.62897E-03
 -1      1967-8.59379E-02-7.86583E-05-1.56234E-01-2.53297E+07 2.60048E-04 9.62897E-03
 -1      1968-8.78112E-02 1.20768E-06-1.61108E-01-2.05630E+07-1.49086E-04-2.51840E-02
 -1      1970-8.78112E-02 1.20768E-06-1.61108E-01-2.05630E+07-1.49086E-04-2.51840E-02
 -1      1971-7.68935E-02 6.13739E-04-1.96524E-01-2.41570E+07-2.30908E-04-7.67686E-02
 -1      1973-7.68935E-02 6.13739E-04-1.96524E-01-2.41570E+07-2.30908E-04-7.67686E-02
 -1      1974-6.45033E-02 8.75656E-04-2.24866E-01-2.36556E+07-4.79728E-04-1.24918E-01
 -1      1976-6.45033E-02 8.75656E-04-2.24866E-01-2.36556E+07-4.79728E-04-1.24918E-01
 -1      1977-5.96176E-02-8.20345E-04-2.17958E-01-2.61210E+07-1.45942E-03-1.45142E-01
 -1      1979-5.96176E-02-8.20345E-04-2.17958E-01-2.61210E+07-1.45942E-03-1.45142E-01
 -1      1980-6.25068E-02-6.22019E-04-1.95640E-01-2.64525E+07-2.89640E-03-1.42016E-01
 -1      1982-6.25068E-02-6.22019E-04-1.95640E-01-2.64525E+07-2.89640E-03-1.42016E-01
 -1      1983-6.48879E-02 3.15802E-04-1.88500E-01-2.73213E+07-4.00835E-03-1.32128E-01
 -1      1985-6.48879E-02 3.15802E-04-1.88500E-01-2.73213E+07-4.00835E-03-1.32128E-01
 -1      1986-6.35086E-02-3.04349E-04-2.01156E-01-2.64379E+07-4.42529E-03-1.15332E-01
 -1      1988-6.35086E-02-3.04349E-04-2.01156E-01-2.64379E+07-4.42529E-03-1.15332E-01
 -1      1989-6.77018E-02-1.58839E-04-2.17422E-01-2.51100E+07-4.26391E-03-9.31770E-02
 -1      1991-6.77018E-02-1.58839E-04-2.17422E-01-2.51100E+07-4.26391E-03-9.31770E-02
 -1      1992-7.83387E-02-4.73716E-04-2.29984E-01-2.24690E+07-3.27525E-03-7.66087E-02
 -1      1994-7.83387E-02-4.73716E-04-2.29984E-01-2.24690E+07-3.27525E-03-7.66087E-02
 -1      1995-7.93696E-02-7.51141E-04-2.52027E-01-1.94687E+07-2.23505E-03-6.73872E-02
 -1      1997-7.93696E-02-7.51141E-04-2.52027E-01-1.94687E+07-2.23505E-03-6.73872E-02
 -1      1998-6.68754E-02-5.61092E-04-2.94274E-01-1.60062E+07-1.59612E-03-5.84318E-02
 -1      2000-6.68754E-02-5.61092E-04-2.94274E-01-1.60062E+07-1.59612E-03-5.84318E-02
 -1      2001-6.26645E-02-1.86816E-04-3.46354E-01-1.28494E+07-1.10295E-03-4.29824E-02
 -1      2003-6.26645E-02-1.86816E-04-3.46354E-01-1.28494E+07-1.10295E-03-4.29824E-02
 -1      2004-7.64171E-02 4.16457E-05-3.87795E-01-1.01376E+07-7.03871E-04-1.25382E-02
 -1      2006-7.64171E-02 4.16457E-05-3.87795E-01-1.01376E+07-7.03871E-04-1.25382E-02
 -1      2007-9.13993E-02 4.93988E-04-4.02896E-01-8.28223E+06-7.93546E-04 2.94925E-02
 -1      2009-9.13993E-02 4.93988E-04-4.02896E-01-8.28223E+06-7.93546E-04 2.94925E-02
 -1      2010-1.03689E-01 1.10938E-03-3.90693E-01-7.31058E+06-7.03901E-04 6.24988E-02
 -1      2012-1.03689E-01 1.10938E-03-3.90693E-01-7.31058E+06-7.03901E-04 6.24988E-02
 -1      2013-1.17953E-01 4.66393E-04-3.66565E-01-7.07687E+06-7.53254E-04 7.30168E-02
 -1      2015-1.17953E-01 4.66393E-04-3.66565E-01-7.07687E+06-7.53254E-04 7.30168E-02
 -1      2016-1.19698E-01 3.64042E-04-3.50240E-01-7.53741E+06-7.89106E-04 6.90066E-02
 -1      2018-1.19698E-01 3.64042E-04-3.50240E-01-7.53741E+06-7.89106E-04 6.90066E-02
 -1      2019-1.01798E-01 1.09545E-03-3.50858E-01-7.81100E+06-1.17469E-03 7.05699E-02
 -1      2021-1.01798E-01 1.09545E-03-3.50858E-01-7.81100E+06-1.17469E-03 7.05699E-02
 -1      2022-7.94752E-02 7.95850E-04-3.59530E-01-8.44570E+06-2.05347E-03 8.06724E-02
 -1      2024-7.94752E-02 7.95850E-04-3.59530E-01-8.44570E+06-2.05347E-03 8.06724E-02
 -1      2025-6.13009E-02 5.46179E-04-3.66490E-01-7.32287E+06-3.36269E-03 7.81613E-02
 -1      2027-6.13009E-02 5.46179E-04-3.66490E-01-7.32287E+06-3.36269E-03 7.81613E-02
 -1      2028-4.25959E-02 3.83704E-04-3.74779E-01-7.15108E+06-4.35355E-03 5.68947E-02
 -1      2030-4.25959E-02 3.83704E-04-3.74779E-01-7.15108E+06-4.35355E-03 5.68947E-02
 -1      2031-1.94179E-02 8.37478E-04-3.70410E-01-2.76934E+06-3.98144E-03 3.00958E-02
 -1      2033-1.94179E-02 8.37478E-04-3.70410E-01-2.76934E+06-3.98144E-03 3.00958E-02
 -1      2034-1.30061E-01 5.14345E-04-4.11977E-03-4.45093E+07 4.80918E+07 1.51972E-01
 -1      2036-1.30061E-01 5.14345E-04-4.11977E-03-4.45093E+07 4.80918E+07 1.51972E-01
 -1      2037-9.96175E-02 4.32133E-04-1.60401E-02 2.39536E+07 1.15862E+08 1.26111E-01
 -1      2039-9.96175E-02 4.32133E-04-1.60401E-02 2.39536E+07 1.15862E+08 1.26111E-01
 -1      2040-7.39139E-02 3.43053E-04-6.14112E-02-1.42526E+07 1.68887E+08 1.06980E-01
 -1      2042-7.39139E-02 3.43053E-04-6.14112E-02-1.42526E+07 1.68887E+08 1.06980E-01
 -1      2043-5.95479E-02 7.52028E-05-1.08436E-01 7.71024E+06 2.26877E+08 8.71366E-02
 -1      2045-5.95479E-02 7.52028E-05-1.08436E-01 7.71024E+06 2.26877E+08 8.71366E-02
 -1      2046-4.83351E-02 2.19344E-04-1.49769E-01-2.67693E+06 2.81421E+08 5.96671E-02
 -1      2048-4.83351E-02 2.19344E-04-1.49769E-01-2.67693E+06 2.81421E+08 5.96671E-02
 -1      2049-3.88910E-02 9.43688E-05-1.70452E-01 3.16703E+06 3.34258E+08 4.18068E-02
 -1      2051-3.88910E-02 9.43688E-05-1.70452E-01 3.16703E+06 3.34258E+08 4.18068E-02
 -1      2052-2.93030E-02-4.32910E-04-1.57511E-01 9.29055E+05 3.86716E+08 2.86535E-02
 -1      2054-2.93030E-02-4.32910E-04-1.57511E-01 9.29055E+05 3.86716E+08 2.86535E-02
 -1      2055-1.95887E-02-1.01323E-03-1.41551E-01 1.66500E+06 4.36763E+08-1.13064E-02
 -1      2057-1.95887E-02-1.01323E-03-1.41551E-01 1.66500E+06 4.36763E+08-1.13064E-02
 -1      2058-1.88418E-02-5.26448E-04-1.65195E-01 9.96890E+05 4.87009E+08-6.98362E-02
 -1      2060-1.88418E-02-5.26448E-04-1.65195E-01 9.96890E+05 4.87009E+08-6.98362E-02
 -1      2061-2.36876E-02-1.92408E-04-2.05282E-01 2.51753E+05 5.35497E+08-1.07092E-01
 -1      2063-2.36876E-02-1.92408E-04-2.05282E-01 2.51753E+05 5.35497E+08-1.07092E-01
 -1      2064-2.94915E-02-1.68031E-03-2.14463E-01-3.08666E+05 5.84019E+08-1.16323E-01
 -1      2066-2.94915E-02-1.68031E-03-2.14463E-01-3.08666E+05 5.84019E+08-1.16323E-01
 -1      2067-4.76413E-02-1.69894E-03-1.97464E-01-1.14941E+06 6.31084E+08-1.17094E-01
 -1      2069-4.76413E-02-1.69894E-03-1.97464E-01-1.14941E+06 6.31084E+08-1.17094E-01
 -1      2070-7.67185E-02-1.88547E-04-1.86200E-01-1.44418E+06 6.77480E+08-1.19332E-01
 -1      2072-7.67185E-02-1.88547E-04-1.86200E-01-1.44418E+06 6.77480E+08-1.19332E-01
 -1      2073-1.02282E-01-3.37108E-04-1.98824E-01-1.72325E+06 7.22008E+08-1.11870E-01
 -1      2075-1.02282E-01-3.37108E-04-1.98824E-01-1.72325E+06 7.22008E+08-1.11870E-01
 -1      2076-1.19817E-01-1.65052E-03-2.22931E-01-1.45513E+06 7.64809E+08-8.79306E-02
 -1      2078-1.19817E-01-1.65052E-03-2.22931E-01-1.45513E+06 7.64809E+08-8.79306E-02
 -1      2079-1.30783E-01-2.33584E-03-2.40557E-01-1.05633E+06 8.04973E+08-6.80388E-02
 -1      2081-1.30783E-01-2.33584E-03-2.40557E-01-1.05633E+06 8.04973E+08-6.80388E-02
 -1      2082-1.33082E-01-8.91670E-04-2.66901E-01-3.36971E+05 8.42464E+08-6.42060E-02
 -1      2084-1.33082E-01-8.91670E-04-2.66901E-01-3.36971E+05 8.42464E+08-6.42060E-02
 -1      2085-1.25650E-01-6.69917E-04-3.14899E-01 3.64607E+05 8.76776E+08-5.76465E-02
 -1      2087-1.25650E-01-6.69917E-04-3.14899E-01 3.64607E+05 8.76776E+08-5.76465E-02
 -1      2088-1.23265E-01-1.49061E-03-3.67037E-01 1.05187E+06 9.08041E+08-3.88288E-02
 -1      2090-1.23265E-01-1.49061E-03-3.67037E-01 1.05187E+06 9.08041E+08-3.88288E-02
 -1      2091-1.34414E-01-6.19818E-04-4.08708E-01 1.48058E+06 9.36179E+08-8.96270E-03
 -1      2093-1.34414E-01-6.19818E-04-4.08708E-01 1.48058E+06 9.36179E+08-8.96270E-03
 -1      2094-1.45743E-01-1.00368E-04-4.26540E-01 1.66049E+06 9.61553E+08 3.26116E-02
 -1      2096-1.45743E-01-1.00368E-04-4.26540E-01 1.66049E+06 9.61553E+08 3.26116E-02
 -1      2097-1.53308E-01 6.30042E-04-4.04766E-01 1.45454E+06 9.84316E+08 6.91556E-02
 -1      2099-1.53308E-01 6.30042E-04-4.04766E-01 1.45454E+06 9.84316E+08 6.91556E-02
 -1      2100-1.60673E-01 1.05505E-04-3.64916E-01 1.05335E+06 1.00488E+09 7.70185E-02
 -1      2102-1.60673E-01 1.05505E-04-3.64916E-01 1.05335E+06 1.00488E+09 7.70185E-02
 -1      2103-1.56280E-01-5.41900E-04-3.51377E-01 2.98367E+05 1.02331E+09 6.13371E-02
 -1      2105-1.56280E-01-5.41900E-04-3.51377E-01 2.98367E+05 1.02331E+09 6.13371E-02
 -1      2106-1.34102E-01-1.93000E-04-3.69750E-01-2.37357E+05 1.03981E+09 5.58966E-02
 -1      2108-1.34102E-01-1.93000E-04-3.69750E-01-2.37357E+05 1.03981E+09 5.58966E-02
 -1      2109-1.04851E-01-6.56689E-04-3.84304E-01-1.14750E+06 1.05414E+09 6.82619E-02
 -1      2111-1.04851E-01-6.56689E-04-3.84304E-01-1.14750E+06 1.05414E+09 6.82619E-02
 -1      2112-7.61711E-02-1.43124E-04-3.78787E-01-1.07375E+06 1.06614E+09 6.28674E-02
 -1      2114-7.61711E-02-1.43124E-04-3.78787E-01-1.07375E+06 1.06614E+09 6.28674E-02
 -1      2115-5.25698E-02 2.61934E-04-3.74848E-01-1.87788E+06 1.07534E+09 3.03529E-02
 -1      2117-5.25698E-02 2.61934E-04-3.74848E-01-1.87788E+06 1.07534E+09 3.03529E-02
 -1      2118-3.32136E-02 1.97767E-04-3.70093E-01-4.04404E+05 1.08121E+09 3.48772E-03
 -1      2120-3.32136E-02 1.97767E-04-3.70093E-01-4.04404E+05 1.08121E+09 3.48772E-03
 -1      2121 5.12849E+08 4.08858E+07 2.60001E+05-2.19598E+08 8.30421E+06-1.00055E+07
 -1      2123 5.12849E+08 4.08858E+07 2.60001E+05-2.19598E+08 8.30421E+06-1.00055E+07
 -1      2124 8.36080E+08-6.18143E+07-7.04903E+05-1.92934E+08 5.09867E+07 1.66649E+07
 -1      2126 8.36080E+08-6.18143E+07-7.04903E+05-1.92934E+08 5.09867E+07 1.66649E+07
 -1      2127 1.03432E+09-5.07525E+07 2.29982E+05-5.37548E+07 7.18044E+07 3.59699E+06
 -1      2129 1.03432E+09-5.07525E+07 2.29982E+05-5.37548E+07 7.18044E+07 3.59699E+06
 -1      2130 1.01952E+09-6.49365E+07-3.63076E+05 5.67355E+07 9.66815E+07 9.08788E+06
 -1      2132 1.01952E+09-6.49365E+07-3.63076E+05 5.67355E+07 9.66815E+07 9.08788E+06
 -1      2133 8.01313E+08-8.37712E+07-2.72103E+05 1.78273E+08 1.20484E+08 6.31410E+06
 -1      2135 8.01313E+08-8.37712E+07-2.72103E+05 1.78273E+08 1.20484E+08 6.31410E+06
 -1      2136 4.15659E+08-8.27007E+07-1.72146E+05 2.53431E+08 1.42081E+08 6.99657E+06
 -1      2138 4.15659E+08-8.27007E+07-1.72146E+05 2.53431E+08 1.42081E+08 6.99657E+06
 -1      2139-6.07551E+07-9.55788E+07-4.61225E+05 2.83382E+08 1.64625E+08 6.50695E+06
 -1      2141-6.07551E+07-9.55788E+07-4.61225E+05 2.83382E+08 1.64625E+08 6.50695E+06
 -1      2142-5.38165E+08-9.75034E+07-1.97619E+05 2.54571E+08 1.85100E+08 6.43934E+06
 -1      2144-5.38165E+08-9.75034E+07-1.97619E+05 2.54571E+08 1.85100E+08 6.43934E+06
 -1      2145-9.22279E+08-1.07030E+08-5.06903E+05 1.75683E+08 2.06352E+08 6.45250E+06
 -1      2147-9.22279E+08-1.07030E+08-5.06903E+05 1.75683E+08 2.06352E+08 6.45250E+06
 -1      2148-1.14019E+09-1.15290E+08-3.02376E+05 6.16126E+07 2.26293E+08 6.40255E+06
 -1      2150-1.14019E+09-1.15290E+08-3.02376E+05 6.16126E+07 2.26293E+08 6.40255E+06
 -1      2151-1.15042E+09-1.27981E+08-5.40965E+05-6.49612E+07 2.46688E+08 6.48015E+06
 -1      2153-1.15042E+09-1.27981E+08-5.40965E+05-6.49612E+07 2.46688E+08 6.48015E+06
 -1      2154-9.53670E+08-1.42696E+08-4.31027E+05-1.78357E+08 2.66163E+08 6.41517E+06
 -1      2156-9.53670E+08-1.42696E+08-4.31027E+05-1.78357E+08 2.66163E+08 6.41517E+06
 -1      2157-5.91652E+08-1.59667E+08-6.02321E+05-2.56396E+08 2.85650E+08 6.34857E+06
 -1      2159-5.91652E+08-1.59667E+08-6.02321E+05-2.56396E+08 2.85650E+08 6.34857E+06
 -1      2160-1.38941E+08-1.77523E+08-5.61844E+05-2.83064E+08 3.04164E+08 6.11637E+06
 -1      2162-1.38941E+08-1.77523E+08-5.61844E+05-2.83064E+08 3.04164E+08 6.11637E+06
 -1      2163 3.11653E+08-1.94771E+08-6.80456E+05-2.53344E+08 3.22133E+08 5.80753E+06
 -1      2165 3.11653E+08-1.94771E+08-6.80456E+05-2.53344E+08 3.22133E+08 5.80753E+06
 -1      2166 6.67997E+08-2.10151E+08-6.74564E+05-1.72864E+08 3.38853E+08 5.36424E+06
 -1      2168 6.67997E+08-2.10151E+08-6.74564E+05-1.72864E+08 3.38853E+08 5.36424E+06
 -1      2169 8.56596E+08-2.22377E+08-7.49179E+05-5.78091E+07 3.54552E+08 4.86472E+06
 -1      2171 8.56596E+08-2.22377E+08-7.49179E+05-5.78091E+07 3.54552E+08 4.86472E+06
 -1      2172 8.37570E+08-2.30944E+08-7.52184E+05 6.91011E+07 3.68814E+08 4.31834E+06
 -1      2174 8.37570E+08-2.30944E+08-7.52184E+05 6.91011E+07 3.68814E+08 4.31834E+06
 -1      2175 6.12275E+08-2.35768E+08-7.90348E+05 1.82592E+08 3.81872E+08 3.79402E+06
 -1      2177 6.12275E+08-2.35768E+08-7.90348E+05 1.82592E+08 3.81872E+08 3.79402E+06
 -1      2178 2.23131E+08-2.37492E+08-7.92713E+05 2.60327E+08 3.93576E+08 3.31952E+06
 -1      2180 2.23131E+08-2.37492E+08-7.92713E+05 2.60327E+08 3.93576E+08 3.31952E+06
 -1      2181-2.55156E+08-2.37238E+08-8.05221E+05 2.87087E+08 4.04222E+08 2.93071E+06
 -1      2183-2.55156E+08-2.37238E+08-8.05221E+05 2.87087E+08 4.04222E+08 2.93071E+06
 -1      2184-7.30642E+08-2.36329E+08-8.12783E+05 2.58157E+08 4.13805E+08 2.63494E+06
 -1      2186-7.30642E+08-2.36329E+08-8.12783E+05 2.58157E+08 4.13805E+08 2.63494E+06
 -1      2187-1.11302E+09-2.36162E+08-8.09892E+05 1.80055E+08 4.22613E+08 2.41834E+06
 -1      2189-1.11302E+09-2.36162E+08-8.09892E+05 1.80055E+08 4.22613E+08 2.41834E+06
 -1      2190-1.33207E+09-2.37986E+08-8.37698E+05 6.98304E+07 4.30610E+08 2.25603E+06
 -1      2192-1.33207E+09-2.37986E+08-8.37698E+05 6.98304E+07 4.30610E+08 2.25603E+06
 -1      2193-1.35286E+09-2.41691E+08-8.20872E+05-4.88487E+07 4.37969E+08 2.09996E+06
 -1      2195-1.35286E+09-2.41691E+08-8.20872E+05-4.88487E+07 4.37969E+08 2.09996E+06
 -1      2196-1.18387E+09-2.49221E+08-8.80556E+05-1.48821E+08 4.44487E+08 1.89704E+06
 -1      2198-1.18387E+09-2.49221E+08-8.80556E+05-1.48821E+08 4.44487E+08 1.89704E+06
 -1      2199-8.76892E+08-2.55886E+08-8.53389E+05-2.06471E+08 4.50172E+08 1.63677E+06
 -1      2201-8.76892E+08-2.55886E+08-8.53389E+05-2.06471E+08 4.50172E+08 1.63677E+06
 -1      2202-5.23632E+08-2.67209E+08-9.02160E+05-2.02223E+08 4.54675E+08 1.17623E+06
 -1      2204-5.23632E+08-2.67209E+08-9.02160E+05-2.02223E+08 4.54675E+08 1.17623E+06
 -1      2205-2.27492E+08-2.76410E+08-9.77636E+05-1.28876E+08 4.57706E+08 7.69835E+05
 -1      2207-2.27492E+08-2.76410E+08-9.77636E+05-1.28876E+08 4.57706E+08 7.69835E+05
 -1      2208-5.12849E+08-4.08858E+07-2.60001E+05-2.19598E+08 8.30421E+06 1.00055E+07
 -1      2210-5.12849E+08-4.08858E+07-2.60001E+05-2.19598E+08 8.30421E+06 1.00055E+07
 -1      2211-8.36080E+08 6.18143E+07 7.04903E+05-1.92934E+08 5.09867E+07-1.66649E+07
 -1      2213-8.36080E+08 6.18143E+07 7.04903E+05-1.92934E+08 5.09867E+07-1.66649E+07
 -1      2214-1.03432E+09 5.07525E+07-2.29982E+05-5.37548E+07 7.18044E+07-3.59699E+06
 -1      2216-1.03432E+09 5.07525E+07-2.29982E+05-5.37548E+07 7.18044E+07-3.59699E+06
 -1      2217-1.01952E+09 6.49365E+07 3.63076E+05 5.67355E+07 9.66815E+07-9.08788E+06
 -1      2219-1.01952E+09 6.49365E+07 3.63076E+05 5.67355E+07 9.66815E+07-9.08788E+06
 -1      2220-8.01313E+08 8.37712E+07 2.72103E+05 1.78273E+08 1.20484E+08-6.31410E+06
 -1      2222-8.01313E+08 8.37712E+07 2.72103E+05 1.78273E+08 1.20484E+08-6.31410E+06
 -1      2223-4.15659E+08 8.27007E+07 1.72146E+05 2.53431E+08 1.42081E+08-6.99657E+06
 -1      2225-4.15659E+08 8.27007E+07 1.72146E+05 2.53431E+08 1.42081E+08-6.99657E+06
 -1      2226 6.07551E+07 9.55788E+07 4.61225E+05 2.83382E+08 1.64625E+08-6.50695E+06
 -1      2228 6.07551E+07 9.55788E+07 4.61225E+05 2.83382E+08 1.64625E+08-6.50695E+06
 -1      2229 5.38165E+08 9.75034E+07 1.97619E+05 2.54571E+08 1.85100E+08-6.43934E+06
 -1      2231 5.38165E+08 9.75034E+07 1.97619E+05 2.54571E+08 1.85100E+08-6.43934E+06
 -1      2232 9.22279E+08 1.07030E+08 5.06903E+05 1.75683E+08 2.06352E+08-6.45250E+06
 -1      2234 9.22279E+08 1.07030E+08 5.06903E+05 1.75683E+08 2.06352E+08-6.45250E+06
 -1      2235 1.14019E+09 1.15290E+08 3.02376E+05 6.16126E+07 2.26293E+08-6.40255E+06
 -1      2237 1.14019E+09 1.15290E+08 3.02376E+05 6.16126E+07 2.26293E+08-6.40255E+06
 -1      2238 1.15042E+09 1.27981E+08 5.40965E+05-6.49612E+07 2.46688E+08-6.48015E+06
 -1      2240 1.15042E+09 1.27981E+08 5.40965E+05-6.49612E+07 2.46688E+08-6.48015E+06
 -1      2241 9.53670E+08 1.42696E+08 4.31027E+05-1.78357E+08 2.66163E+08-6.41517E+06
 -1      2243 9.53670E+08 1.42696E+08 4.31027E+05-1.78357E+08 2.66163E+08-6.41517E+06
 -1      2244 5.91652E+08 1.59667E+08 6.02321E+05-2.56396E+08 2.85650E+08-6.34857E+06
 -1      2246 5.91652E+08 1.59667E+08 6.02321E+05-2.56396E+08 2.85650E+08-6.34857E+06
 -1      2247 1.38941E+08 1.77523E+08 5.61844E+05-2.83064E+08 3.04164E+08-6.11637E+06
 -1      2249 1.38941E+08 1.77523E+08 5.61844E+05-2.83064E+08 3.04164E+08-6.11637E+06
 -1      2250-3.11653E+08 1.94771E+08 6.80456E+05-2.53344E+08 3.22133E+08-5.80753E+06
 -1      2252-3.11653E+08 1.94771E+08 6.80456E+05-2.53344E+08 3.22133E+08-5.80753E+06
 -1      2253-6.67997E+08 2.10151E+08 6.74564E+05-1.72864E+08 3.38853E+08-5.36424E+06
 -1      2255-6.67997E+08 2.10151E+08 6.74564E+05-1.72864E+08 3.38853E+08-5.36424E+06
 -1      2256-8.56596E+08 2.22377E+08 7.49179E+05-5.78091E+07 3.54552E+08-4.86472E+06
 -1      2258-8.56596E+08 2.22377E+08 7.49179E+05-5.78091E+07 3.54552E+08-4.86472E+06
 -1      2259-8.37570E+08 2.30944E+08 7.52184E+05 6.91011E+07 3.68814E+08-4.31834E+06
 -1      2261-8.37570E+08 2.30944E+08 7.52184E+05 6.91011E+07 3.68814E+08-4.31834E+06
 -1      2262-6.12275E+08 2.35768E+08 7.90348E+05 1.82592E+08 3.81872E+08-3.79402E+06
 -1      2264-6.12275E+08 2.35768E+08 7.90348E+05 1.82592E+08 3.81872E+08-3.79402E+06
 -1      2265-2.23131E+08 2.37492E+08 7.92713E+05 2.60327E+08 3.93576E+08-3.31952E+06
 -1      2267-2.23131E+08 2.37492E+08 7.92713E+05 2.60327E+08 3.93576E+08-3.31952E+06
 -1      2268 2.55156E+08 2.37238E+08 8.05221E+05 2.87087E+08 4.04222E+08-2.93071E+06
 -1      2270 2.55156E+08 2.37238E+08 8.05221E+05 2.87087E+08 4.04222E+08-2.93071E+06
 -1      2271 7.30642E+08 2.36329E+08 8.12783E+05 2.58157E+08 4.13805E+08-2.63494E+06
 -1      2273 7.30642E+08 2.36329E+08 8.12783E+05 2.58157E+08 4.13805E+08-2.63494E+06
 -1      2274 1.11302E+09 2.36162E+08 8.09892E+05 1.80055E+08 4.22613E+08-2.41834E+06
 -1      2276 1.11302E+09 2.36162E+08 8.09892E+05 1.80055E+08 4.22613E+08-2.41834E+06
 -1      2277 1.33207E+09 2.37986E+08 8.37698E+05 6.98304E+07 4.30610E+08-2.25603E+06
 -1      2279 1.33207E+09 2.37986E+08 8.37698E+05 6.98304E+07 4.30610E+08-2.25603E+06
 -1      2280 1.35286E+09 2.41691E+08 8.20872E+05-4.88487E+07 4.37969E+08-2.09996E+06
 -1      2282 1.35286E+09 2.41691E+08 8.20872E+05-4.88487E+07 4.37969E+08-2.09996E+06
 -1      2283 1.18387E+09 2.49221E+08 8.80556E+05-1.48821E+08 4.44487E+08-1.89704E+06
 -1      2285 1.18387E+09 2.49221E+08 8.80556E+05-1.48821E+08 4.44487E+08-1.89704E+06
 -1      2286 8.76892E+08 2.55886E+08 8.53389E+05-2.06471E+08 4.50172E+08-1.63677E+06
 -1      2288 8.76892E+08 2.55886E+08 8.53389E+05-2.06471E+08 4.50172E+08-1.63677E+06
 -1      2289 5.23632E+08 2.67209E+08 9.02160E+05-2.02223E+08 4.54675E+08-1.17623E+06
 -1      2291 5.23632E+08 2.67209E+08 9.02160E+05-2.02223E+08 4.54675E+08-1.17623E+06
 -1      2292 2.27492E+08 2.76410E+08 9.77636E+05-1.28876E+08 4.57706E+08-7.69835E+05
 -1      2294 2.27492E+08 2.76410E+08 9.77636E+05-1.28876E+08 4.57706E+08-7.69835E+05
 -3
    1PSTEP                        67           1           1          
    1PGM                1.000000E+00                                  
    1PGK                1.388928E+07                                  
    1PHID                         -1                                  
    1PSUBC                         0                                  
    1PMODE                        17                                  
  100CL  117 593.1438794         930                     2   17MODAL      1
 -4  FORC        4    1
 -5  F1          1    2    1    0
 -5  F2          1    2    2    0
 -5  F3          1    2    3    0
 -5  ALL         1    2    0    0    1ALL
 -1       404 3.35130E+05 7.61022E+04 2.59209E+05
 -1       406-2.67656E+05-7.29728E+04 2.59209E+05
 -1       407 1.97781E+03 3.82192E+04-9.86118E+04
 -1       409 1.97781E+03 3.82192E+04-9.86118E+04
 -1       410 1.85995E-05 3.79805E+06-9.07532E-05
 -1       412 1.87116E-05-4.44053E+06-8.57441E-05
 -1       413-2.80639E-05 3.74819E+05 6.46633E+06
 -1       415-2.81807E-05 3.74819E+05-6.46633E+06
 -1       424 9.14324E-06 1.36812E+05 5.38771E-05
 -1       426-3.77261E-05 2.52132E+05 5.22351E-05
 -1       427-2.81662E+04-8.13009E+05-4.17031E+04
 -1       429 2.81662E+04-8.13009E+05 4.17031E+04
 -1       438-1.97781E+03 3.82192E+04 9.86118E+04
 -1       440-1.97781E+03 3.82192E+04 9.86118E+04
 -1       441-3.35130E+05 7.61022E+04-2.59209E+05
 -1       443 2.67656E+05-7.29728E+04-2.59209E+05
 -1       444-2.81662E+04-8.13009E+05 4.17031E+04
 -1       446 2.81662E+04-8.13009E+05-4.17031E+04
 -1       447 9.41018E-05 1.36812E+05-3.81526E-05
 -1       449-1.45352E-05 2.52132E+05-3.92334E-05
 -1       458-1.72322E-05 3.74819E+05-6.46633E+06
 -1       460-1.70965E-05 3.74819E+05 6.46633E+06
 -1       461 2.39233E-05 3.79805E+06 7.93388E-05
 -1       463 2.38234E-05-4.44053E+06 7.51482E-05
 -1       472-3.35130E+05 7.61022E+04 2.59209E+05
 -1       474 2.67656E+05-7.29728E+04 2.59209E+05
 -1       475-1.97781E+03 3.82192E+04-9.86118E+04
 -1       477-1.97781E+03 3.82192E+04-9.86118E+04
 -1       478 1.97781E+03 3.82192E+04 9.86118E+04
 -1       480 1.97781E+03 3.82192E+04 9.86118E+04
 -1       481 3.35130E+05 7.61022E+04-2.59209E+05
 -1       483-2.67656E+05-7.29728E+04-2.59209E+05
 -1       484-4.65216E+02 9.52378E+01-9.19080E+03
 -1       486-4.65216E+02 9.52378E+01-9.19080E+03
 -1       487-1.26460E+03 9.51740E+02-1.95665E+04
 -1       489-1.26460E+03 9.51740E+02-1.95665E+04
 -1       490-2.39926E+03 3.39347E+03-3.01137E+04
 -1       492-2.39926E+03 3.39347E+03-3.01137E+04
 -1       493-3.64512E+03 7.87592E+03-4.05954E+04
 -1       495-3.64512E+03 7.87592E+03-4.05954E+04
 -1       496-4.75631E+03 1.43597E+04-5.11489E+04
 -1       498-4.75631E+03 1.43597E+04-5.11489E+04
 -1       499-5.51188E+03 2.24363E+04-6.16067E+04
 -1       501-5.51188E+03 2.24363E+04-6.16067E+04
 -1       502-5.75566E+03 3.13710E+04-7.18960E+04
 -1       504-5.75566E+03 3.13710E+04-7.18960E+04
 -1       505-5.43358E+03 4.02468E+04-8.18654E+04
 -1       507-5.43358E+03 4.02468E+04-8.18654E+04
 -1       508-4.60042E+03 4.81507E+04-9.14018E+04
 -1       510-4.60042E+03 4.81507E+04-9.14018E+04
 -1       511-3.41153E+03 5.43459E+04-1.00404E+05
 -1       513-3.41153E+03 5.43459E+04-1.00404E+05
 -1       514-2.09065E+03 5.84201E+04-1.08823E+05
 -1       516-2.09065E+03 5.84201E+04-1.08823E+05
 -1       517-8.85844E+02 6.03618E+04-1.16656E+05
 -1       519-8.85844E+02 6.03618E+04-1.16656E+05
 -1       520-1.98813E+01 6.05611E+04-1.23952E+05
 -1       522-1.98813E+01 6.05611E+04-1.23952E+05
 -1       523 3.54205E+02 5.97277E+04-1.30799E+05
 -1       525 3.54205E+02 5.97277E+04-1.30799E+05
 -1       526 1.83536E+02 5.87469E+04-1.37308E+05
 -1       528 1.83536E+02 5.87469E+04-1.37308E+05
 -1       529-4.73991E+02 5.84995E+04-1.43588E+05
 -1       531-4.73991E+02 5.84995E+04-1.43588E+05
 -1       532-1.46134E+03 5.96834E+04-1.49725E+05
 -1       534-1.46134E+03 5.96834E+04-1.49725E+05
 -1       535-2.55356E+03 6.26712E+04-1.55764E+05
 -1       537-2.55356E+03 6.26712E+04-1.55764E+05
 -1       538-3.50267E+03 6.74329E+04-1.61703E+05
 -1       540-3.50267E+03 6.74329E+04-1.61703E+05
 -1       541-4.08685E+03 7.35385E+04-1.67486E+05
 -1       543-4.08685E+03 7.35385E+04-1.67486E+05
 -1       544-4.15444E+03 8.02407E+04-1.73018E+05
 -1       546-4.15444E+03 8.02407E+04-1.73018E+05
 -1       547-3.65355E+03 8.66194E+04-1.78177E+05
 -1       549-3.65355E+03 8.66194E+04-1.78177E+05
 -1       550-2.64142E+03 9.17608E+04-1.82837E+05
 -1       552-2.64142E+03 9.17608E+04-1.82837E+05
 -1       553-1.27145E+03 9.49325E+04-1.86892E+05
 -1       555-1.27145E+03 9.49325E+04-1.86892E+05
 -1       556 2.39965E+02 9.57203E+04-1.90266E+05
 -1       558 2.39965E+02 9.57203E+04-1.90266E+05
 -1       559 1.66030E+03 9.40988E+04-1.92931E+05
 -1       561 1.66030E+03 9.40988E+04-1.92931E+05
 -1       562 2.79362E+03 9.04134E+04-1.94900E+05
 -1       564 2.79362E+03 9.04134E+04-1.94900E+05
 -1       565 3.52764E+03 8.52883E+04-1.96226E+05
 -1       567 3.52764E+03 8.52883E+04-1.96226E+05
 -1       568 3.87144E+03 7.94480E+04-1.96979E+05
 -1       570 3.87144E+03 7.94480E+04-1.96979E+05
 -1       571 2.63061E+03 7.63952E+04-1.21841E+05
 -1       573 2.63061E+03 7.63952E+04-1.21841E+05
 -1       574 3.58075E-05 4.48147E+05 3.04943E-05
 -1       576 3.57511E-05-6.83337E+04 2.71845E-05
 -1       577-4.01068E-05-1.97756E+05 4.05377E+05
 -1       579-4.01474E-05-1.97756E+05-4.05377E+05
 -1       588 4.53917E-05 6.09146E+05-1.91252E-05
 -1       590 4.54239E-05-1.13051E+06-1.99844E-05
 -1       591-3.80860E-05 2.46846E+05 1.36543E+06
 -1       593-3.80516E-05 2.46846E+05-1.36543E+06
 -1       602 4.16023E-05 1.20836E+06-3.35167E-05
 -1       604 4.16548E-05-1.41460E+06-2.95973E-05
 -1       605-3.01375E-05 8.92444E+04 2.05872E+06
 -1       607-3.01238E-05 8.92444E+04-2.05872E+06
 -1       616 2.39670E-05 1.50282E+06-7.28774E-05
 -1       618 2.39516E-05-1.96776E+06-6.42267E-05
 -1       619-2.65192E-05 2.26112E+05 2.72400E+06
 -1       621-2.64935E-05 2.26112E+05-2.72400E+06
 -1       630 5.40734E-06 1.96752E+06-9.38326E-05
 -1       632 5.36373E-06-2.35909E+06-8.59971E-05
 -1       633-1.41586E-05 2.04300E+05 3.39589E+06
 -1       635-1.40092E-05 2.04300E+05-3.39589E+06
 -1       644-2.90515E-06 2.34542E+06-8.33689E-05
 -1       646-2.95745E-06-2.75991E+06-7.93816E-05
 -1       647 1.68728E-06 2.36608E+05 4.00709E+06
 -1       649 1.80889E-06 2.36608E+05-4.00709E+06
 -1       658-6.18003E-08 2.75830E+06-7.06511E-05
 -1       660-1.17090E-07-3.13466E+06-6.67878E-05
 -1       661 1.33648E-05 2.41594E+05 4.62528E+06
 -1       663 1.38747E-05 2.41594E+05-4.62528E+06
 -1       672-4.01668E-08 3.14636E+06-7.79734E-05
 -1       674-8.71988E-08-3.48938E+06-7.24217E-05
 -1       675 2.09331E-05 2.48904E+05 5.20828E+06
 -1       677 2.09784E-05 2.48904E+05-5.20828E+06
 -1       686-1.78067E-05 3.52312E+06-1.01115E-04
 -1       688-1.78738E-05-3.85781E+06-9.53882E-05
 -1       689 3.05640E-05 2.65272E+05 5.79317E+06
 -1       691 3.01262E-05 2.65272E+05-5.79317E+06
 -1       700-4.18298E-05 3.88217E+06-1.07899E-04
 -1       702-4.17746E-05-4.22361E+06-1.01745E-04
 -1       703 4.31772E-05 2.83076E+05 6.36210E+06
 -1       705 4.26068E-05 2.83076E+05-6.36210E+06
 -1       714-5.29104E-05 4.21682E+06-9.54514E-05
 -1       716-5.27729E-05-4.61404E+06-9.40313E-05
 -1       717 5.10806E-05 3.17793E+05 6.93120E+06
 -1       719 5.09502E-05 3.17793E+05-6.93120E+06
 -1       728-5.26661E-05 4.53239E+06-8.38936E-05
 -1       730-5.26923E-05-5.00996E+06-8.09565E-05
 -1       731 5.00528E-05 3.57183E+05 7.48963E+06
 -1       733 4.99738E-05 3.57183E+05-7.48963E+06
 -1       742-4.95590E-05 4.82484E+06-8.61629E-05
 -1       744-4.94850E-05-5.41931E+06-7.92157E-05
 -1       745 4.01658E-05 4.08719E+05 8.04046E+06
 -1       747 3.99486E-05 4.08719E+05-8.04046E+06
 -1       756-3.97727E-05 5.10173E+06-9.52949E-05
 -1       758-3.97247E-05-5.82095E+06-8.92239E-05
 -1       759 3.14295E-05 4.60684E+05 8.57304E+06
 -1       761 3.15052E-05 4.60684E+05-8.57304E+06
 -1       770-2.77656E-05 5.36352E+06-1.00542E-04
 -1       772-2.76442E-05-6.20983E+06-9.30874E-05
 -1       773 2.40416E-05 5.13614E+05 9.08373E+06
 -1       775 2.47505E-05 5.13614E+05-9.08373E+06
 -1       784-2.48407E-05 5.61663E+06-1.00851E-04
 -1       786-2.47855E-05-6.56742E+06-9.28545E-05
 -1       787 1.42044E-05 5.58305E+05 9.56306E+06
 -1       789 1.45836E-05 5.58305E+05-9.56306E+06
 -1       798-1.82663E-05 5.86231E+06-1.13863E-04
 -1       800-1.84098E-05-6.88763E+06-1.03300E-04
 -1       801 1.06104E-05 5.93689E+05 1.00072E+07
 -1       803 1.07463E-05 5.93689E+05-1.00072E+07
 -1       812-1.85343E-06 6.10324E+06-1.28758E-04
 -1       814-1.85156E-06-7.16160E+06-1.18981E-04
 -1       815 1.62036E-05 6.15391E+05 1.04114E+07
 -1       817 1.58576E-05 6.15391E+05-1.04114E+07
 -1       826 6.55759E-06 6.33812E+06-1.29891E-04
 -1       828 6.38144E-06-7.39130E+06-1.21265E-04
 -1       829 1.73357E-05 6.24958E+05 1.07760E+07
 -1       831 1.80868E-05 6.24958E+05-1.07760E+07
 -1       840 9.78418E-06 6.56497E+06-1.27866E-04
 -1       842 9.73212E-06-7.58022E+06-1.17807E-04
 -1       843 9.11036E-06 6.23564E+05 1.11023E+07
 -1       845 9.39234E-06 6.23564E+05-1.11023E+07
 -1       854 1.61428E-05 6.77957E+06-1.39332E-04
 -1       856 1.59733E-05-7.73907E+06-1.29560E-04
 -1       857-4.20755E-06 6.15951E+05 1.13955E+07
 -1       859-4.54008E-06 6.15951E+05-1.13955E+07
 -1       868 2.15706E-05 6.97686E+06-1.55630E-04
 -1       870 2.15480E-05-7.87883E+06-1.45742E-04
 -1       871-1.42028E-05 6.06763E+05 1.16600E+07
 -1       873-1.42578E-05 6.06763E+05-1.16600E+07
 -1       882 2.24440E-05 7.15244E+06-1.55524E-04
 -1       884 2.24410E-05-8.01157E+06-1.44802E-04
 -1       885-1.84995E-05 6.00886E+05 1.19020E+07
 -1       887-1.86329E-05 6.00886E+05-1.19020E+07
 -1       896 1.71596E-05 7.30071E+06-1.45508E-04
 -1       898 1.73891E-05-8.14658E+06-1.37622E-04
 -1       899-2.52516E-05 6.03089E+05 1.21243E+07
 -1       901-2.53719E-05 6.03089E+05-1.21243E+07
 -1       910 1.72875E-05 7.42158E+06-1.48045E-04
 -1       912 1.72875E-05-8.28723E+06-1.38776E-04
 -1       913-2.81359E-05 6.13594E+05 1.23296E+07
 -1       915-2.75360E-05 6.13594E+05-1.23296E+07
 -1       924 2.39311E-05 7.50908E+06-1.56596E-04
 -1       926 2.39135E-05-8.43578E+06-1.42758E-04
 -1       927-2.78327E-05 6.36440E+05 1.25149E+07
 -1       929-2.77956E-05 6.36440E+05-1.25149E+07
 -1       938 2.76855E-05 7.57222E+06-1.58070E-04
 -1       940 2.76702E-05-8.57965E+06-1.48132E-04
 -1       941-2.85517E-05 6.62142E+05 1.26773E+07
 -1       943-2.83894E-05 6.62142E+05-1.26773E+07
 -1       952 2.77423E-05 7.59853E+06-1.68108E-04
 -1       954 2.82185E-05-8.72002E+06-1.58946E-04
 -1       955-2.82491E-05 6.99855E+05 1.28082E+07
 -1       957-2.79510E-05 6.99855E+05-1.28082E+07
 -1       966 2.04374E-05 7.61063E+06-1.76994E-04
 -1       968 2.06698E-05-8.82199E+06-1.62025E-04
 -1       969-3.06272E-05 7.23576E+05 1.28977E+07
 -1       971-3.10123E-05 7.23576E+05-1.28977E+07
 -1       980 2.84175E+05 3.27135E+04-1.08489E+05
 -1       982-1.05744E+05-5.87014E+04-1.08489E+05
 -1       983-2.63061E+03 7.63952E+04 1.21841E+05
 -1       985-2.63061E+03 7.63952E+04 1.21841E+05
 -1       986 4.65216E+02 9.52378E+01 9.19080E+03
 -1       988 4.65216E+02 9.52378E+01 9.19080E+03
 -1       989 1.26460E+03 9.51740E+02 1.95665E+04
 -1       991 1.26460E+03 9.51740E+02 1.95665E+04
 -1       992 2.39926E+03 3.39347E+03 3.01137E+04
 -1       994 2.39926E+03 3.39347E+03 3.01137E+04
 -1       995 3.64512E+03 7.87592E+03 4.05954E+04
 -1       997 3.64512E+03 7.87592E+03 4.05954E+04
 -1       998 4.75631E+03 1.43597E+04 5.11489E+04
 -1      1000 4.75631E+03 1.43597E+04 5.11489E+04
 -1      1001 5.51188E+03 2.24363E+04 6.16067E+04
 -1      1003 5.51188E+03 2.24363E+04 6.16067E+04
 -1      1004 5.75566E+03 3.13710E+04 7.18960E+04
 -1      1006 5.75566E+03 3.13710E+04 7.18960E+04
 -1      1007 5.43358E+03 4.02468E+04 8.18654E+04
 -1      1009 5.43358E+03 4.02468E+04 8.18654E+04
 -1      1010 4.60042E+03 4.81507E+04 9.14018E+04
 -1      1012 4.60042E+03 4.81507E+04 9.14018E+04
 -1      1013 3.41153E+03 5.43459E+04 1.00404E+05
 -1      1015 3.41153E+03 5.43459E+04 1.00404E+05
 -1      1016 2.09065E+03 5.84201E+04 1.08823E+05
 -1      1018 2.09065E+03 5.84201E+04 1.08823E+05
 -1      1019 8.85844E+02 6.03618E+04 1.16656E+05
 -1      1021 8.85844E+02 6.03618E+04 1.16656E+05
 -1      1022 1.98814E+01 6.05611E+04 1.23952E+05
 -1      1024 1.98814E+01 6.05611E+04 1.23952E+05
 -1      1025-3.54205E+02 5.97277E+04 1.30799E+05
 -1      1027-3.54205E+02 5.97277E+04 1.30799E+05
 -1      1028-1.83536E+02 5.87469E+04 1.37308E+05
 -1      1030-1.83536E+02 5.87469E+04 1.37308E+05
 -1      1031 4.73991E+02 5.84995E+04 1.43588E+05
 -1      1033 4.73991E+02 5.84995E+04 1.43588E+05
 -1      1034 1.46134E+03 5.96834E+04 1.49725E+05
 -1      1036 1.46134E+03 5.96834E+04 1.49725E+05
 -1      1037 2.55356E+03 6.26712E+04 1.55764E+05
 -1      1039 2.55356E+03 6.26712E+04 1.55764E+05
 -1      1040 3.50267E+03 6.74329E+04 1.61703E+05
 -1      1042 3.50267E+03 6.74329E+04 1.61703E+05
 -1      1043 4.08685E+03 7.35385E+04 1.67486E+05
 -1      1045 4.08685E+03 7.35385E+04 1.67486E+05
 -1      1046 4.15444E+03 8.02407E+04 1.73018E+05
 -1      1048 4.15444E+03 8.02407E+04 1.73018E+05
 -1      1049 3.65355E+03 8.66194E+04 1.78177E+05
 -1      1051 3.65355E+03 8.66194E+04 1.78177E+05
 -1      1052 2.64142E+03 9.17608E+04 1.82837E+05
 -1      1054 2.64142E+03 9.17608E+04 1.82837E+05
 -1      1055 1.27145E+03 9.49325E+04 1.86892E+05
 -1      1057 1.27145E+03 9.49325E+04 1.86892E+05
 -1      1058-2.39965E+02 9.57203E+04 1.90266E+05
 -1      1060-2.39965E+02 9.57203E+04 1.90266E+05
 -1      1061-1.66030E+03 9.40988E+04 1.92931E+05
 -1      1063-1.66030E+03 9.40988E+04 1.92931E+05
 -1      1064-2.79362E+03 9.04134E+04 1.94900E+05
 -1      1066-2.79362E+03 9.04134E+04 1.94900E+05
 -1      1067-3.52764E+03 8.52883E+04 1.96226E+05
 -1      1069-3.52764E+03 8.52883E+04 1.96226E+05
 -1      1070-3.87144E+03 7.94480E+04 1.96979E+05
 -1      1072-3.87144E+03 7.94480E+04 1.96979E+05
 -1      1073-2.84175E+05 3.27135E+04 1.08489E+05
 -1      1075 1.05744E+05-5.87014E+04 1.08489E+05
 -1      1076 1.22015E+06 1.20106E+05 1.69402E+05
 -1      1078-1.22015E+06 1.20106E+05-1.69402E+05
 -1      1079 2.49664E+06 1.71546E+06-5.93885E-05
 -1      1081-2.49664E+06 1.71546E+06-5.62785E-05
 -1      1082 1.22015E+06 1.20106E+05-1.69402E+05
 -1      1084-1.22015E+06 1.20106E+05 1.69402E+05
 -1      1085 4.88158E-05-1.97756E+05-4.05377E+05
 -1      1087 4.86329E-05-1.97756E+05 4.05377E+05
 -1      1088-6.43883E-05 4.48147E+05-1.13499E-06
 -1      1090-6.44226E-05-6.83337E+04-1.96384E-06
 -1      1099 4.29398E-05 2.46846E+05-1.36543E+06
 -1      1101 4.29768E-05 2.46846E+05 1.36543E+06
 -1      1102-5.31167E-05 6.09146E+05 7.28921E-06
 -1      1104-5.31908E-05-1.13051E+06 4.81202E-06
 -1      1113 3.73093E-05 8.92444E+04-2.05872E+06
 -1      1115 3.74015E-05 8.92444E+04 2.05872E+06
 -1      1116-3.63000E-05 1.20836E+06 1.89196E-05
 -1      1118-3.63113E-05-1.41460E+06 1.67342E-05
 -1      1127 3.02030E-05 2.26112E+05-2.72400E+06
 -1      1129 3.01364E-05 2.26112E+05 2.72400E+06
 -1      1130-3.07098E-05 1.50282E+06 1.99929E-05
 -1      1132-3.07132E-05-1.96776E+06 2.06621E-05
 -1      1141 1.95735E-05 2.04300E+05-3.39589E+06
 -1      1143 1.94190E-05 2.04300E+05 3.39589E+06
 -1      1144-2.51228E-05 1.96752E+06 4.35641E-05
 -1      1146-2.51478E-05-2.35909E+06 4.47187E-05
 -1      1155 1.07392E-05 2.36608E+05-4.00709E+06
 -1      1157 1.08770E-05 2.36608E+05 4.00709E+06
 -1      1158-2.42632E-05 2.34542E+06 5.85577E-05
 -1      1160-2.41936E-05-2.75991E+06 5.64086E-05
 -1      1169 5.31927E-06 2.41594E+05-4.62528E+06
 -1      1171 5.11933E-06 2.41594E+05 4.62528E+06
 -1      1172-1.99467E-05 2.75830E+06 6.03871E-05
 -1      1174-1.97984E-05-3.13466E+06 5.48536E-05
 -1      1183-2.64728E-06 2.48904E+05-5.20828E+06
 -1      1185-2.70444E-06 2.48904E+05 5.20828E+06
 -1      1186 2.86661E-07 3.14636E+06 5.15394E-05
 -1      1188 1.79384E-07-3.48938E+06 4.95130E-05
 -1      1197-1.91484E-05 2.65272E+05-5.79317E+06
 -1      1199-1.96154E-05 2.65272E+05 5.79317E+06
 -1      1200 2.01301E-05 3.52312E+06 6.38189E-05
 -1      1202 1.97912E-05-3.85781E+06 6.26029E-05
 -1      1211-3.55108E-05 2.83076E+05-6.36210E+06
 -1      1213-3.64874E-05 2.83076E+05 6.36210E+06
 -1      1214 2.35984E-05 3.88217E+06 8.15430E-05
 -1      1216 2.32840E-05-4.22361E+06 7.47277E-05
 -1      1225-3.92104E-05 3.17793E+05-6.93120E+06
 -1      1227-3.93262E-05 3.17793E+05 6.93120E+06
 -1      1228 3.06696E-05 4.21682E+06 8.45605E-05
 -1      1230 3.04744E-05-4.61404E+06 7.63217E-05
 -1      1239-3.47531E-05 3.57183E+05-7.48963E+06
 -1      1241-3.44358E-05 3.57183E+05 7.48963E+06
 -1      1242 4.53781E-05 4.53239E+06 7.58391E-05
 -1      1244 4.51612E-05-5.00996E+06 7.06426E-05
 -1      1253-3.48640E-05 4.08719E+05-8.04046E+06
 -1      1255-3.56147E-05 4.08719E+05 8.04046E+06
 -1      1256 5.02690E-05 4.82484E+06 7.41098E-05
 -1      1258 5.01557E-05-5.41931E+06 7.21829E-05
 -1      1267-3.49229E-05 4.60684E+05-8.57304E+06
 -1      1269-3.54772E-05 4.60684E+05 8.57304E+06
 -1      1270 4.03471E-05 5.10173E+06 8.63498E-05
 -1      1272 4.02096E-05-5.82095E+06 8.25023E-05
 -1      1281-3.00642E-05 5.13614E+05-9.08373E+06
 -1      1283-2.99508E-05 5.13614E+05 9.08373E+06
 -1      1284 2.24541E-05 5.36352E+06 1.04385E-04
 -1      1286 2.23823E-05-6.20983E+06 9.38907E-05
 -1      1295-2.37287E-05 5.58305E+05-9.56306E+06
 -1      1297-2.38706E-05 5.58305E+05 9.56306E+06
 -1      1298 7.40503E-06 5.61663E+06 1.10474E-04
 -1      1300 7.14684E-06-6.56742E+06 1.01021E-04
 -1      1309-2.32152E-05 5.93689E+05-1.00072E+07
 -1      1311-2.20762E-05 5.93689E+05 1.00072E+07
 -1      1312 2.40287E-06 5.86231E+06 1.16917E-04
 -1      1314 2.10564E-06-6.88763E+06 1.08369E-04
 -1      1323-2.23076E-05 6.15391E+05-1.04114E+07
 -1      1325-2.11302E-05 6.15391E+05 1.04114E+07
 -1      1326 5.43295E-06 6.10324E+06 1.28845E-04
 -1      1328 5.21476E-06-7.16160E+06 1.21801E-04
 -1      1337-1.13904E-05 6.24958E+05-1.07760E+07
 -1      1339-1.16028E-05 6.24958E+05 1.07760E+07
 -1      1340 1.12201E-05 6.33812E+06 1.43412E-04
 -1      1342 1.13372E-05-7.39130E+06 1.33252E-04
 -1      1351 1.34523E-06 6.23564E+05-1.11023E+07
 -1      1353 1.08640E-06 6.23564E+05 1.11023E+07
 -1      1354 8.12054E-06 6.56497E+06 1.59309E-04
 -1      1356 8.20312E-06-7.58022E+06 1.47931E-04
 -1      1365 1.32821E-05 6.15951E+05-1.13955E+07
 -1      1367 1.37103E-05 6.15951E+05 1.13955E+07
 -1      1368-1.95377E-06 6.77957E+06 1.73347E-04
 -1      1370-1.85134E-06-7.73907E+06 1.62238E-04
 -1      1379 2.54377E-05 6.06763E+05-1.16600E+07
 -1      1381 2.54650E-05 6.06763E+05 1.16600E+07
 -1      1382-6.37855E-06 6.97686E+06 1.71562E-04
 -1      1384-6.28559E-06-7.87883E+06 1.58981E-04
 -1      1393 2.80589E-05 6.00886E+05-1.19020E+07
 -1      1395 2.86054E-05 6.00886E+05 1.19020E+07
 -1      1396-1.10878E-05 7.15244E+06 1.47320E-04
 -1      1398-1.08145E-05-8.01157E+06 1.39453E-04
 -1      1407 1.94628E-05 6.03089E+05-1.21243E+07
 -1      1409 1.97367E-05 6.03089E+05 1.21243E+07
 -1      1410-1.65765E-05 7.30071E+06 1.35414E-04
 -1      1412-1.62509E-05-8.14658E+06 1.28281E-04
 -1      1421 1.45605E-05 6.13594E+05-1.23296E+07
 -1      1423 1.45194E-05 6.13594E+05 1.23296E+07
 -1      1424-1.94925E-05 7.42158E+06 1.51981E-04
 -1      1426-1.97627E-05-8.28723E+06 1.39718E-04
 -1      1435 1.75757E-05 6.36440E+05-1.25149E+07
 -1      1437 1.74881E-05 6.36440E+05 1.25149E+07
 -1      1438-2.10427E-05 7.50908E+06 1.68004E-04
 -1      1440-2.12027E-05-8.43578E+06 1.48250E-04
 -1      1449 1.38378E-05 6.62142E+05-1.26773E+07
 -1      1451 1.39365E-05 6.62142E+05 1.26773E+07
 -1      1452-1.39293E-05 7.57222E+06 1.58047E-04
 -1      1454-1.40078E-05-8.57965E+06 1.47510E-04
 -1      1463 3.01452E-06 6.99855E+05-1.28082E+07
 -1      1465 2.49942E-06 6.99855E+05 1.28082E+07
 -1      1466 3.26613E-06 7.59853E+06 1.49554E-04
 -1      1468 3.16788E-06-8.72002E+06 1.43646E-04
 -1      1477-8.76563E-06 7.23576E+05-1.28977E+07
 -1      1479-9.12780E-06 7.23576E+05 1.28977E+07
 -1      1480 2.07959E-05 7.61063E+06 1.54737E-04
 -1      1482 2.08634E-05-8.82199E+06 1.46094E-04
 -1      1491-2.46237E-06-1.97566E+05 1.82518E-06
 -1      1493-2.57742E-06-1.97566E+05 1.30365E-07
 -1      1494-2.53563E-06-3.49583E+05 3.97261E-06
 -1      1496-3.35731E-06-3.49583E+05 1.89307E-06
 -1      1497 1.90260E-06-1.97566E+05 4.78333E-06
 -1      1499 1.58428E-06-1.97566E+05 4.48303E-06
 -1      1500 4.65216E+02 9.52378E+01-9.19080E+03
 -1      1502 4.65216E+02 9.52378E+01-9.19080E+03
 -1      1503 1.26460E+03 9.51740E+02-1.95665E+04
 -1      1505 1.26460E+03 9.51740E+02-1.95665E+04
 -1      1506 2.39926E+03 3.39347E+03-3.01137E+04
 -1      1508 2.39926E+03 3.39347E+03-3.01137E+04
 -1      1509 3.64512E+03 7.87592E+03-4.05954E+04
 -1      1511 3.64512E+03 7.87592E+03-4.05954E+04
 -1      1512 4.75631E+03 1.43597E+04-5.11489E+04
 -1      1514 4.75631E+03 1.43597E+04-5.11489E+04
 -1      1515 5.51188E+03 2.24363E+04-6.16067E+04
 -1      1517 5.51188E+03 2.24363E+04-6.16067E+04
 -1      1518 5.75566E+03 3.13710E+04-7.18960E+04
 -1      1520 5.75566E+03 3.13710E+04-7.18960E+04
 -1      1521 5.43358E+03 4.02468E+04-8.18654E+04
 -1      1523 5.43358E+03 4.02468E+04-8.18654E+04
 -1      1524 4.60042E+03 4.81507E+04-9.14018E+04
 -1      1526 4.60042E+03 4.81507E+04-9.14018E+04
 -1      1527 3.41153E+03 5.43459E+04-1.00404E+05
 -1      1529 3.41153E+03 5.43459E+04-1.00404E+05
 -1      1530 2.09065E+03 5.84201E+04-1.08823E+05
 -1      1532 2.09065E+03 5.84201E+04-1.08823E+05
 -1      1533 8.85844E+02 6.03618E+04-1.16656E+05
 -1      1535 8.85844E+02 6.03618E+04-1.16656E+05
 -1      1536 1.98813E+01 6.05611E+04-1.23952E+05
 -1      1538 1.98813E+01 6.05611E+04-1.23952E+05
 -1      1539-3.54205E+02 5.97277E+04-1.30799E+05
 -1      1541-3.54205E+02 5.97277E+04-1.30799E+05
 -1      1542-1.83536E+02 5.87469E+04-1.37308E+05
 -1      1544-1.83536E+02 5.87469E+04-1.37308E+05
 -1      1545 4.73991E+02 5.84995E+04-1.43588E+05
 -1      1547 4.73991E+02 5.84995E+04-1.43588E+05
 -1      1548 1.46134E+03 5.96834E+04-1.49725E+05
 -1      1550 1.46134E+03 5.96834E+04-1.49725E+05
 -1      1551 2.55356E+03 6.26712E+04-1.55764E+05
 -1      1553 2.55356E+03 6.26712E+04-1.55764E+05
 -1      1554 3.50267E+03 6.74329E+04-1.61703E+05
 -1      1556 3.50267E+03 6.74329E+04-1.61703E+05
 -1      1557 4.08685E+03 7.35385E+04-1.67486E+05
 -1      1559 4.08685E+03 7.35385E+04-1.67486E+05
 -1      1560 4.15444E+03 8.02407E+04-1.73018E+05
 -1      1562 4.15444E+03 8.02407E+04-1.73018E+05
 -1      1563 3.65355E+03 8.66194E+04-1.78177E+05
 -1      1565 3.65355E+03 8.66194E+04-1.78177E+05
 -1      1566 2.64142E+03 9.17608E+04-1.82837E+05
 -1      1568 2.64142E+03 9.17608E+04-1.82837E+05
 -1      1569 1.27145E+03 9.49325E+04-1.86892E+05
 -1      1571 1.27145E+03 9.49325E+04-1.86892E+05
 -1      1572-2.39965E+02 9.57203E+04-1.90266E+05
 -1      1574-2.39965E+02 9.57203E+04-1.90266E+05
 -1      1575-1.66030E+03 9.40988E+04-1.92931E+05
 -1      1577-1.66030E+03 9.40988E+04-1.92931E+05
 -1      1578-2.79362E+03 9.04134E+04-1.94900E+05
 -1      1580-2.79362E+03 9.04134E+04-1.94900E+05
 -1      1581-3.52764E+03 8.52883E+04-1.96226E+05
 -1      1583-3.52764E+03 8.52883E+04-1.96226E+05
 -1      1584-3.87144E+03 7.94480E+04-1.96979E+05
 -1      1586-3.87144E+03 7.94480E+04-1.96979E+05
 -1      1587-2.63061E+03 7.63952E+04-1.21841E+05
 -1      1589-2.63061E+03 7.63952E+04-1.21841E+05
 -1      1590-2.84175E+05 3.27135E+04-1.08489E+05
 -1      1592 1.05744E+05-5.87014E+04-1.08489E+05
 -1      1593 2.63061E+03 7.63952E+04 1.21841E+05
 -1      1595 2.63061E+03 7.63952E+04 1.21841E+05
 -1      1596-4.65216E+02 9.52378E+01 9.19080E+03
 -1      1598-4.65216E+02 9.52378E+01 9.19080E+03
 -1      1599-1.26460E+03 9.51740E+02 1.95665E+04
 -1      1601-1.26460E+03 9.51740E+02 1.95665E+04
 -1      1602-2.39926E+03 3.39347E+03 3.01137E+04
 -1      1604-2.39926E+03 3.39347E+03 3.01137E+04
 -1      1605-3.64512E+03 7.87592E+03 4.05954E+04
 -1      1607-3.64512E+03 7.87592E+03 4.05954E+04
 -1      1608-4.75631E+03 1.43597E+04 5.11489E+04
 -1      1610-4.75631E+03 1.43597E+04 5.11489E+04
 -1      1611-5.51188E+03 2.24363E+04 6.16067E+04
 -1      1613-5.51188E+03 2.24363E+04 6.16067E+04
 -1      1614-5.75566E+03 3.13710E+04 7.18960E+04
 -1      1616-5.75566E+03 3.13710E+04 7.18960E+04
 -1      1617-5.43358E+03 4.02468E+04 8.18654E+04
 -1      1619-5.43358E+03 4.02468E+04 8.18654E+04
 -1      1620-4.60042E+03 4.81507E+04 9.14018E+04
 -1      1622-4.60042E+03 4.81507E+04 9.14018E+04
 -1      1623-3.41153E+03 5.43459E+04 1.00404E+05
 -1      1625-3.41153E+03 5.43459E+04 1.00404E+05
 -1      1626-2.09065E+03 5.84201E+04 1.08823E+05
 -1      1628-2.09065E+03 5.84201E+04 1.08823E+05
 -1      1629-8.85844E+02 6.03618E+04 1.16656E+05
 -1      1631-8.85844E+02 6.03618E+04 1.16656E+05
 -1      1632-1.98814E+01 6.05611E+04 1.23952E+05
 -1      1634-1.98814E+01 6.05611E+04 1.23952E+05
 -1      1635 3.54205E+02 5.97277E+04 1.30799E+05
 -1      1637 3.54205E+02 5.97277E+04 1.30799E+05
 -1      1638 1.83536E+02 5.87469E+04 1.37308E+05
 -1      1640 1.83536E+02 5.87469E+04 1.37308E+05
 -1      1641-4.73991E+02 5.84995E+04 1.43588E+05
 -1      1643-4.73991E+02 5.84995E+04 1.43588E+05
 -1      1644-1.46134E+03 5.96834E+04 1.49725E+05
 -1      1646-1.46134E+03 5.96834E+04 1.49725E+05
 -1      1647-2.55356E+03 6.26712E+04 1.55764E+05
 -1      1649-2.55356E+03 6.26712E+04 1.55764E+05
 -1      1650-3.50267E+03 6.74329E+04 1.61703E+05
 -1      1652-3.50267E+03 6.74329E+04 1.61703E+05
 -1      1653-4.08685E+03 7.35385E+04 1.67486E+05
 -1      1655-4.08685E+03 7.35385E+04 1.67486E+05
 -1      1656-4.15444E+03 8.02407E+04 1.73018E+05
 -1      1658-4.15444E+03 8.02407E+04 1.73018E+05
 -1      1659-3.65355E+03 8.66194E+04 1.78177E+05
 -1      1661-3.65355E+03 8.66194E+04 1.78177E+05
 -1      1662-2.64142E+03 9.17608E+04 1.82837E+05
 -1      1664-2.64142E+03 9.17608E+04 1.82837E+05
 -1      1665-1.27145E+03 9.49325E+04 1.86892E+05
 -1      1667-1.27145E+03 9.49325E+04 1.86892E+05
 -1      1668 2.39965E+02 9.57203E+04 1.90266E+05
 -1      1670 2.39965E+02 9.57203E+04 1.90266E+05
 -1      1671 1.66030E+03 9.40988E+04 1.92931E+05
 -1      1673 1.66030E+03 9.40988E+04 1.92931E+05
 -1      1674 2.79362E+03 9.04134E+04 1.94900E+05
 -1      1676 2.79362E+03 9.04134E+04 1.94900E+05
 -1      1677 3.52764E+03 8.52883E+04 1.96226E+05
 -1      1679 3.52764E+03 8.52883E+04 1.96226E+05
 -1      1680 3.87144E+03 7.94480E+04 1.96979E+05
 -1      1682 3.87144E+03 7.94480E+04 1.96979E+05
 -1      1683 2.84175E+05 3.27135E+04 1.08489E+05
 -1      1685-1.05744E+05-5.87014E+04 1.08489E+05
 -1      1686-6.35646E+02 1.50362E+02-1.12366E+04
 -1      1688-6.35646E+02 1.50362E+02-1.12366E+04
 -1      1689-1.70437E+03 1.79262E+03-2.40572E+04
 -1      1691-1.70437E+03 1.79262E+03-2.40572E+04
 -1      1692-3.20597E+03 6.65880E+03-3.70990E+04
 -1      1694-3.20597E+03 6.65880E+03-3.70990E+04
 -1      1695-4.85287E+03 1.56203E+04-5.00725E+04
 -1      1697-4.85287E+03 1.56203E+04-5.00725E+04
 -1      1698-6.32397E+03 2.86044E+04-6.31742E+04
 -1      1700-6.32397E+03 2.86044E+04-6.31742E+04
 -1      1701-7.32307E+03 4.47991E+04-7.61782E+04
 -1      1703-7.32307E+03 4.47991E+04-7.61782E+04
 -1      1704-7.64524E+03 6.27146E+04-8.89858E+04
 -1      1706-7.64524E+03 6.27146E+04-8.89858E+04
 -1      1707-7.21881E+03 8.05163E+04-1.01388E+05
 -1      1709-7.21881E+03 8.05163E+04-1.01388E+05
 -1      1710-6.11576E+03 9.63616E+04-1.13227E+05
 -1      1712-6.11576E+03 9.63616E+04-1.13227E+05
 -1      1713-4.54224E+03 1.08772E+05-1.24366E+05
 -1      1715-4.54224E+03 1.08772E+05-1.24366E+05
 -1      1716-2.79378E+03 1.16917E+05-1.34734E+05
 -1      1718-2.79378E+03 1.16917E+05-1.34734E+05
 -1      1719-1.19890E+03 1.20775E+05-1.44332E+05
 -1      1721-1.19890E+03 1.20775E+05-1.44332E+05
 -1      1722-5.21472E+01 1.21129E+05-1.53230E+05
 -1      1724-5.21472E+01 1.21129E+05-1.53230E+05
 -1      1725 4.43904E+02 1.19407E+05-1.61556E+05
 -1      1727 4.43904E+02 1.19407E+05-1.61556E+05
 -1      1728 2.19353E+02 1.17392E+05-1.69465E+05
 -1      1730 2.19353E+02 1.17392E+05-1.69465E+05
 -1      1731-6.49236E+02 1.16853E+05-1.77114E+05
 -1      1733-6.49236E+02 1.16853E+05-1.77114E+05
 -1      1734-1.95407E+03 1.19197E+05-1.84627E+05
 -1      1736-1.95407E+03 1.19197E+05-1.84627E+05
 -1      1737-3.39756E+03 1.25171E+05-1.92069E+05
 -1      1739-3.39756E+03 1.25171E+05-1.92069E+05
 -1      1740-4.65157E+03 1.34717E+05-1.99437E+05
 -1      1742-4.65157E+03 1.34717E+05-1.99437E+05
 -1      1743-5.42264E+03 1.46969E+05-2.06655E+05
 -1      1745-5.42264E+03 1.46969E+05-2.06655E+05
 -1      1746-5.51007E+03 1.60424E+05-2.13590E+05
 -1      1748-5.51007E+03 1.60424E+05-2.13590E+05
 -1      1749-4.84515E+03 1.73233E+05-2.20072E+05
 -1      1751-4.84515E+03 1.73233E+05-2.20072E+05
 -1      1752-3.50352E+03 1.83556E+05-2.25928E+05
 -1      1754-3.50352E+03 1.83556E+05-2.25928E+05
 -1      1755-1.68806E+03 1.89922E+05-2.31008E+05
 -1      1757-1.68806E+03 1.89922E+05-2.31008E+05
 -1      1758 3.15214E+02 1.91499E+05-2.35212E+05
 -1      1760 3.15214E+02 1.91499E+05-2.35212E+05
 -1      1761 2.19896E+03 1.88235E+05-2.38502E+05
 -1      1763 2.19896E+03 1.88235E+05-2.38502E+05
 -1      1764 3.70403E+03 1.80829E+05-2.40906E+05
 -1      1766 3.70403E+03 1.80829E+05-2.40906E+05
 -1      1767 4.68422E+03 1.70538E+05-2.42501E+05
 -1      1769 4.68422E+03 1.70538E+05-2.42501E+05
 -1      1770 5.14746E+03 1.58822E+05-2.43394E+05
 -1      1772 5.14746E+03 1.58822E+05-2.43394E+05
 -1      1773 6.35646E+02 1.50362E+02 1.12366E+04
 -1      1775 6.35646E+02 1.50362E+02 1.12366E+04
 -1      1776 1.70437E+03 1.79262E+03 2.40572E+04
 -1      1778 1.70437E+03 1.79262E+03 2.40572E+04
 -1      1779 3.20597E+03 6.65880E+03 3.70990E+04
 -1      1781 3.20597E+03 6.65880E+03 3.70990E+04
 -1      1782 4.85287E+03 1.56203E+04 5.00725E+04
 -1      1784 4.85287E+03 1.56203E+04 5.00725E+04
 -1      1785 6.32397E+03 2.86044E+04 6.31742E+04
 -1      1787 6.32397E+03 2.86044E+04 6.31742E+04
 -1      1788 7.32307E+03 4.47991E+04 7.61782E+04
 -1      1790 7.32307E+03 4.47991E+04 7.61782E+04
 -1      1791 7.64524E+03 6.27146E+04 8.89858E+04
 -1      1793 7.64524E+03 6.27146E+04 8.89858E+04
 -1      1794 7.21881E+03 8.05163E+04 1.01388E+05
 -1      1796 7.21881E+03 8.05163E+04 1.01388E+05
 -1      1797 6.11576E+03 9.63616E+04 1.13227E+05
 -1      1799 6.11576E+03 9.63616E+04 1.13227E+05
 -1      1800 4.54224E+03 1.08772E+05 1.24366E+05
 -1      1802 4.54224E+03 1.08772E+05 1.24366E+05
 -1      1803 2.79378E+03 1.16917E+05 1.34734E+05
 -1      1805 2.79378E+03 1.16917E+05 1.34734E+05
 -1      1806 1.19890E+03 1.20775E+05 1.44332E+05
 -1      1808 1.19890E+03 1.20775E+05 1.44332E+05
 -1      1809 5.21472E+01 1.21129E+05 1.53230E+05
 -1      1811 5.21472E+01 1.21129E+05 1.53230E+05
 -1      1812-4.43904E+02 1.19407E+05 1.61556E+05
 -1      1814-4.43904E+02 1.19407E+05 1.61556E+05
 -1      1815-2.19353E+02 1.17392E+05 1.69465E+05
 -1      1817-2.19353E+02 1.17392E+05 1.69465E+05
 -1      1818 6.49236E+02 1.16853E+05 1.77114E+05
 -1      1820 6.49236E+02 1.16853E+05 1.77114E+05
 -1      1821 1.95407E+03 1.19197E+05 1.84627E+05
 -1      1823 1.95407E+03 1.19197E+05 1.84627E+05
 -1      1824 3.39756E+03 1.25171E+05 1.92069E+05
 -1      1826 3.39756E+03 1.25171E+05 1.92069E+05
 -1      1827 4.65157E+03 1.34717E+05 1.99437E+05
 -1      1829 4.65157E+03 1.34717E+05 1.99437E+05
 -1      1830 5.42264E+03 1.46969E+05 2.06655E+05
 -1      1832 5.42264E+03 1.46969E+05 2.06655E+05
 -1      1833 5.51007E+03 1.60424E+05 2.13590E+05
 -1      1835 5.51007E+03 1.60424E+05 2.13590E+05
 -1      1836 4.84515E+03 1.73233E+05 2.20072E+05
 -1      1838 4.84515E+03 1.73233E+05 2.20072E+05
 -1      1839 3.50352E+03 1.83556E+05 2.25928E+05
 -1      1841 3.50352E+03 1.83556E+05 2.25928E+05
 -1      1842 1.68806E+03 1.89922E+05 2.31008E+05
 -1      1844 1.68806E+03 1.89922E+05 2.31008E+05
 -1      1845-3.15214E+02 1.91499E+05 2.35212E+05
 -1      1847-3.15214E+02 1.91499E+05 2.35212E+05
 -1      1848-2.19896E+03 1.88235E+05 2.38502E+05
 -1      1850-2.19896E+03 1.88235E+05 2.38502E+05
 -1      1851-3.70403E+03 1.80829E+05 2.40906E+05
 -1      1853-3.70403E+03 1.80829E+05 2.40906E+05
 -1      1854-4.68422E+03 1.70538E+05 2.42501E+05
 -1      1856-4.68422E+03 1.70538E+05 2.42501E+05
 -1      1857-5.14746E+03 1.58822E+05 2.43394E+05
 -1      1859-5.14746E+03 1.58822E+05 2.43394E+05
 -1      1860 2.13009E-06-3.16514E+04-2.18152E-06
 -1      1862 1.95755E-06-3.16514E+04-1.70077E-06
 -1      1863 4.30836E-06-6.35101E+04 2.23645E-06
 -1      1865 4.21007E-06-6.35101E+04 2.97726E-06
 -1      1866 3.93153E-06-8.96381E+04 4.47610E-06
 -1      1868 3.82667E-06-8.96381E+04 4.63585E-06
 -1      1869-5.03403E-06-1.08054E+05 6.66670E-06
 -1      1871-4.97751E-06-1.08054E+05 6.14594E-06
 -1      1872-1.10976E-05-1.19131E+05 6.55464E-06
 -1      1874-1.08127E-05-1.19131E+05 5.57127E-06
 -1      1875-8.45018E-06-1.24019E+05 3.56429E-06
 -1      1877-8.08985E-06-1.24019E+05 2.40045E-06
 -1      1878-8.68843E-07-1.25475E+05 6.86763E-07
 -1      1880-4.06536E-07-1.25475E+05 2.58909E-06
 -1      1881 4.18304E-06-1.26614E+05 9.12041E-07
 -1      1883 4.17015E-06-1.26614E+05 3.88632E-06
 -1      1884 2.46236E-07-1.30719E+05 1.20475E-05
 -1      1886-1.50241E-06-1.30719E+05 1.22717E-05
 -1      1887-5.29212E-06-1.40312E+05 1.29548E-05
 -1      1889-7.69642E-06-1.40312E+05 1.24157E-05
 -1      1890-3.46318E-06-1.56798E+05 2.00169E-07
 -1      1892-4.60639E-06-1.56798E+05-6.67314E-07
 -1      1893-2.63173E-06-1.80087E+05-6.92445E-06
 -1      1895-2.91755E-06-1.80087E+05-5.43649E-06
 -1      1896-4.17258E-06-2.08649E+05-1.05004E-05
 -1      1898-4.60491E-06-2.08649E+05-1.03571E-05
 -1      1899 1.06716E-06-2.39782E+05-1.34932E-05
 -1      1901 1.27169E-06-2.39782E+05-1.29322E-05
 -1      1902 8.07458E-06-2.70156E+05-1.00542E-05
 -1      1904 8.97438E-06-2.70156E+05-9.54344E-06
 -1      1905 7.18753E-06-2.96459E+05-6.42758E-06
 -1      1907 7.82645E-06-2.96459E+05-5.43623E-06
 -1      1908 4.67133E-06-3.16052E+05-7.30167E-06
 -1      1910 4.82650E-06-3.16052E+05-7.56554E-06
 -1      1911 8.17461E-06-3.27484E+05-6.63842E-06
 -1      1913 8.52481E-06-3.27484E+05-6.94154E-06
 -1      1914 1.42390E-05-3.30776E+05 2.09121E-06
 -1      1916 1.52723E-05-3.30776E+05 1.92820E-06
 -1      1917 1.42829E-05-3.27413E+05 5.45437E-06
 -1      1919 1.43718E-05-3.27413E+05 4.56117E-06
 -1      1920 6.08730E-06-3.20042E+05-3.11145E-07
 -1      1922 5.69882E-06-3.20042E+05-3.64507E-07
 -1      1923-1.52587E-07-3.11946E+05-3.63361E-06
 -1      1925-3.15917E-07-3.11946E+05-4.94512E-06
 -1      1926-2.98721E-06-3.06393E+05-2.80598E-06
 -1      1928-3.52014E-06-3.06393E+05-1.40799E-06
 -1      1929-6.73565E-06-3.05992E+05-1.18979E-06
 -1      1931-6.98417E-06-3.05992E+05-5.12984E-07
 -1      1932-6.31899E-06-3.12195E+05-7.09528E-06
 -1      1934-6.43763E-06-3.12195E+05-5.07877E-06
 -1      1935-4.80091E-06-3.25024E+05-7.18953E-06
 -1      1937-4.40778E-06-3.25024E+05-4.45834E-06
 -1      1938-4.10424E-06-3.43124E+05-2.27948E-07
 -1      1940-3.03683E-06-3.43124E+05-1.83648E-06
 -1      1941-1.63566E-06-3.64079E+05-1.06806E-06
 -1      1943-3.65931E-07-3.64079E+05-2.19566E-06
 -1      1944-3.17191E-06-3.85024E+05 4.05804E-07
 -1      1946-2.29309E-06-3.85024E+05-1.54597E-06
 -1      1947 4.80629E-06-4.73841E+04 6.54592E-06
 -1      1949 4.46747E-06-4.73841E+04 7.33929E-06
 -1      1950 1.04645E-06-9.59870E+04 1.30744E-05
 -1      1952 5.02252E-07-9.59870E+04 1.36375E-05
 -1      1953 2.17255E-07-1.38468E+05 5.08969E-06
 -1      1955-6.70971E-08-1.38468E+05 4.69534E-06
 -1      1956-8.97510E-07-1.72413E+05 6.51897E-07
 -1      1958-1.40617E-06-1.72413E+05 4.42931E-07
 -1      1959-4.69268E-06-1.98310E+05 6.51451E-06
 -1      1961-4.76676E-06-1.98310E+05 6.14330E-06
 -1      1962-3.96728E-06-2.17310E+05 9.59961E-06
 -1      1964-3.89485E-06-2.17310E+05 9.48107E-06
 -1      1965-7.11518E-06-2.32409E+05 1.31629E-05
 -1      1967-7.38972E-06-2.32409E+05 1.51801E-05
 -1      1968-1.01182E-05-2.46941E+05 8.15329E-06
 -1      1970-1.08903E-05-2.46941E+05 1.12537E-05
 -1      1971-6.52118E-06-2.64446E+05 5.99355E-06
 -1      1973-9.30258E-06-2.64446E+05 6.00471E-06
 -1      1974-6.57681E-06-2.87625E+05 6.62962E-06
 -1      1976-1.00195E-05-2.87625E+05 5.61324E-06
 -1      1977-7.82424E-06-3.17965E+05 3.07533E-06
 -1      1979-9.41783E-06-3.17965E+05 9.33534E-07
 -1      1980-5.09008E-06-3.55325E+05 1.37338E-06
 -1      1982-4.40070E-06-3.55325E+05 1.63192E-06
 -1      1983-8.48293E-07-3.97994E+05-4.54570E-06
 -1      1985-5.41844E-07-3.97994E+05-5.44339E-06
 -1      1986 3.98221E-06-4.42992E+05-1.36000E-05
 -1      1988 4.31845E-06-4.42992E+05-1.28828E-05
 -1      1989 1.00550E-05-4.86652E+05-9.29283E-06
 -1      1991 1.04504E-05-4.86652E+05-9.17278E-06
 -1      1992 1.10127E-05-5.25329E+05-3.82213E-07
 -1      1994 1.06196E-05-5.25329E+05-1.34923E-06
 -1      1995 2.73712E-06-5.56112E+05 6.41907E-07
 -1      1997 3.70270E-06-5.56112E+05 2.19579E-06
 -1      1998-4.13152E-06-5.77390E+05 4.17647E-06
 -1      2000-2.82395E-06-5.77390E+05 5.65770E-06
 -1      2001 1.97539E-06-5.89153E+05 2.30302E-06
 -1      2003 2.32805E-06-5.89153E+05 2.93471E-06
 -1      2004 6.36456E-06-5.92988E+05-2.77307E-06
 -1      2006 5.85032E-06-5.92988E+05-1.02750E-06
 -1      2007 5.58262E-07-5.91751E+05-2.02563E-07
 -1      2009 1.64911E-07-5.91751E+05-5.10766E-06
 -1      2010-2.37741E-06-5.88992E+05-2.04212E-06
 -1      2012-2.80271E-06-5.88992E+05-4.92126E-06
 -1      2013-2.06114E-06-5.88247E+05 5.47450E-07
 -1      2015-2.01491E-06-5.88247E+05-1.71414E-06
 -1      2016-5.50899E-06-5.92335E+05 6.30494E-06
 -1      2018-5.68246E-06-5.92335E+05 6.29087E-06
 -1      2019-7.92066E-06-6.02815E+05 6.12030E-06
 -1      2021-8.17111E-06-6.02815E+05 9.24124E-06
 -1      2022-7.23684E-06-6.19685E+05 8.01160E-06
 -1      2024-7.44160E-06-6.19685E+05 9.24136E-06
 -1      2025-5.29805E-06-6.41436E+05 1.29228E-05
 -1      2027-4.80276E-06-6.41436E+05 1.44227E-05
 -1      2028-2.03453E-06-6.65385E+05 1.35910E-05
 -1      2030-1.20919E-06-6.65385E+05 1.27272E-05
 -1      2031-3.21009E-06-6.88340E+05 8.62446E-06
 -1      2033-3.74524E-06-6.88340E+05 3.90721E-06
 -1      2034-1.02448E-05-3.16514E+04 1.09429E-05
 -1      2036-1.06355E-05-3.16514E+04 1.16960E-05
 -1      2037-9.74960E-06-6.35101E+04 1.26718E-05
 -1      2039-1.00477E-05-6.35101E+04 1.27771E-05
 -1      2040 7.23317E-07-8.96381E+04 1.92449E-07
 -1      2042 6.81619E-07-8.96381E+04-3.69721E-07
 -1      2043 3.60302E-06-1.08054E+05-6.00360E-06
 -1      2045 2.96328E-06-1.08054E+05-6.10246E-06
 -1      2046 5.27436E-07-1.19131E+05 1.15912E-06
 -1      2048 9.64119E-08-1.19131E+05 2.32781E-06
 -1      2049-9.56324E-07-1.24019E+05 4.25172E-06
 -1      2051-1.03094E-06-1.24019E+05 5.03901E-06
 -1      2052-6.65471E-06-1.25475E+05 1.03456E-05
 -1      2054-7.10826E-06-1.25475E+05 1.15593E-05
 -1      2055-8.02287E-06-1.26614E+05 1.79563E-05
 -1      2057-9.24879E-06-1.26614E+05 1.82816E-05
 -1      2058-3.98595E-06-1.30719E+05 1.10891E-05
 -1      2060-5.48230E-06-1.30719E+05 1.19254E-05
 -1      2061-1.01278E-05-1.40312E+05 1.65595E-06
 -1      2063-1.26001E-05-1.40312E+05 1.34492E-06
 -1      2064-1.21765E-05-1.56798E+05-1.90402E-06
 -1      2066-1.34949E-05-1.56798E+05-3.33948E-06
 -1      2067-1.34369E-06-1.80087E+05 5.03424E-08
 -1      2069-5.39440E-07-1.80087E+05-1.38527E-07
 -1      2070 3.37963E-06-2.08649E+05-1.98086E-06
 -1      2072 2.92945E-06-2.08649E+05-1.65268E-06
 -1      2073 1.18345E-06-2.39782E+05-9.36661E-06
 -1      2075 2.51101E-07-2.39782E+05-7.30716E-06
 -1      2076-3.66878E-06-2.70156E+05-8.10687E-06
 -1      2078-3.94461E-06-2.70156E+05-7.71035E-06
 -1      2079-7.61148E-06-2.96459E+05 2.48285E-06
 -1      2081-8.30604E-06-2.96459E+05 7.97590E-07
 -1      2082-1.18471E-05-3.16052E+05 7.39594E-06
 -1      2084-1.05555E-05-3.16052E+05 7.65214E-06
 -1      2085-1.25264E-05-3.27484E+05 2.64819E-06
 -1      2087-1.04594E-05-3.27484E+05 6.00240E-06
 -1      2088-2.09267E-06-3.30776E+05-4.50995E-06
 -1      2090-1.95321E-06-3.30776E+05-4.36299E-06
 -1      2091 4.55425E-06-3.27413E+05-1.49019E-05
 -1      2093 3.89441E-06-3.27413E+05-1.44053E-05
 -1      2094 5.23257E-06-3.20042E+05-1.23273E-05
 -1      2096 5.41062E-06-3.20042E+05-1.43201E-05
 -1      2097 9.80990E-06-3.11946E+05-3.51038E-06
 -1      2099 1.00505E-05-3.11946E+05-3.27478E-06
 -1      2100 9.22122E-06-3.06393E+05 1.14844E-06
 -1      2102 9.62585E-06-3.06393E+05-2.36669E-07
 -1      2103-3.33502E-07-3.05992E+05 5.07678E-06
 -1      2105 3.74965E-08-3.05992E+05 2.34042E-06
 -1      2106-4.55790E-06-3.12195E+05 2.83228E-06
 -1      2108-4.63813E-06-3.12195E+05 2.41324E-06
 -1      2109-3.57324E-06-3.25024E+05 2.90102E-06
 -1      2111-3.88090E-06-3.25024E+05 6.59403E-06
 -1      2112-1.12881E-06-3.43124E+05 1.28190E-05
 -1      2114-9.36085E-07-3.43124E+05 1.55265E-05
 -1      2115 6.43790E-06-3.64079E+05 1.36030E-05
 -1      2117 6.08137E-06-3.64079E+05 1.45962E-05
 -1      2118 7.75568E-06-3.85024E+05 1.02473E-05
 -1      2120 6.55938E-06-3.85024E+05 9.83186E-06
 -1      2121 6.35646E+02 1.50362E+02-1.12366E+04
 -1      2123 6.35646E+02 1.50362E+02-1.12366E+04
 -1      2124 1.70437E+03 1.79262E+03-2.40572E+04
 -1      2126 1.70437E+03 1.79262E+03-2.40572E+04
 -1      2127 3.20597E+03 6.65880E+03-3.70990E+04
 -1      2129 3.20597E+03 6.65880E+03-3.70990E+04
 -1      2130 4.85287E+03 1.56203E+04-5.00725E+04
 -1      2132 4.85287E+03 1.56203E+04-5.00725E+04
 -1      2133 6.32397E+03 2.86044E+04-6.31742E+04
 -1      2135 6.32397E+03 2.86044E+04-6.31742E+04
 -1      2136 7.32307E+03 4.47991E+04-7.61782E+04
 -1      2138 7.32307E+03 4.47991E+04-7.61782E+04
 -1      2139 7.64524E+03 6.27146E+04-8.89858E+04
 -1      2141 7.64524E+03 6.27146E+04-8.89858E+04
 -1      2142 7.21881E+03 8.05163E+04-1.01388E+05
 -1      2144 7.21881E+03 8.05163E+04-1.01388E+05
 -1      2145 6.11576E+03 9.63616E+04-1.13227E+05
 -1      2147 6.11576E+03 9.63616E+04-1.13227E+05
 -1      2148 4.54224E+03 1.08772E+05-1.24366E+05
 -1      2150 4.54224E+03 1.08772E+05-1.24366E+05
 -1      2151 2.79378E+03 1.16917E+05-1.34734E+05
 -1      2153 2.79378E+03 1.16917E+05-1.34734E+05
 -1      2154 1.19890E+03 1.20775E+05-1.44332E+05
 -1      2156 1.19890E+03 1.20775E+05-1.44332E+05
 -1      2157 5.21472E+01 1.21129E+05-1.53230E+05
 -1      2159 5.21472E+01 1.21129E+05-1.53230E+05
 -1      2160-4.43904E+02 1.19407E+05-1.61556E+05
 -1      2162-4.43904E+02 1.19407E+05-1.61556E+05
 -1      2163-2.19353E+02 1.17392E+05-1.69465E+05
 -1      2165-2.19353E+02 1.17392E+05-1.69465E+05
 -1      2166 6.49236E+02 1.16853E+05-1.77114E+05
 -1      2168 6.49236E+02 1.16853E+05-1.77114E+05
 -1      2169 1.95407E+03 1.19197E+05-1.84627E+05
 -1      2171 1.95407E+03 1.19197E+05-1.84627E+05
 -1      2172 3.39756E+03 1.25171E+05-1.92069E+05
 -1      2174 3.39756E+03 1.25171E+05-1.92069E+05
 -1      2175 4.65157E+03 1.34717E+05-1.99437E+05
 -1      2177 4.65157E+03 1.34717E+05-1.99437E+05
 -1      2178 5.42264E+03 1.46969E+05-2.06655E+05
 -1      2180 5.42264E+03 1.46969E+05-2.06655E+05
 -1      2181 5.51007E+03 1.60424E+05-2.13590E+05
 -1      2183 5.51007E+03 1.60424E+05-2.13590E+05
 -1      2184 4.84515E+03 1.73233E+05-2.20072E+05
 -1      2186 4.84515E+03 1.73233E+05-2.20072E+05
 -1      2187 3.50352E+03 1.83556E+05-2.25928E+05
 -1      2189 3.50352E+03 1.83556E+05-2.25928E+05
 -1      2190 1.68806E+03 1.89922E+05-2.31008E+05
 -1      2192 1.68806E+03 1.89922E+05-2.31008E+05
 -1      2193-3.15214E+02 1.91499E+05-2.35212E+05
 -1      2195-3.15214E+02 1.91499E+05-2.35212E+05
 -1      2196-2.19896E+03 1.88235E+05-2.38502E+05
 -1      2198-2.19896E+03 1.88235E+05-2.38502E+05
 -1      2199-3.70403E+03 1.80829E+05-2.40906E+05
 -1      2201-3.70403E+03 1.80829E+05-2.40906E+05
 -1      2202-4.68422E+03 1.70538E+05-2.42501E+05
 -1      2204-4.68422E+03 1.70538E+05-2.42501E+05
 -1      2205-5.14746E+03 1.58822E+05-2.43394E+05
 -1      2207-5.14746E+03 1.58822E+05-2.43394E+05
 -1      2208-6.35646E+02 1.50362E+02 1.12366E+04
 -1      2210-6.35646E+02 1.50362E+02 1.12366E+04
 -1      2211-1.70437E+03 1.79262E+03 2.40572E+04
 -1      2213-1.70437E+03 1.79262E+03 2.40572E+04
 -1      2214-3.20597E+03 6.65880E+03 3.70990E+04
 -1      2216-3.20597E+03 6.65880E+03 3.70990E+04
 -1      2217-4.85287E+03 1.56203E+04 5.00725E+04
 -1      2219-4.85287E+03 1.56203E+04 5.00725E+04
 -1      2220-6.32397E+03 2.86044E+04 6.31742E+04
 -1      2222-6.32397E+03 2.86044E+04 6.31742E+04
 -1      2223-7.32307E+03 4.47991E+04 7.61782E+04
 -1      2225-7.32307E+03 4.47991E+04 7.61782E+04
 -1      2226-7.64524E+03 6.27146E+04 8.89858E+04
 -1      2228-7.64524E+03 6.27146E+04 8.89858E+04
 -1      2229-7.21881E+03 8.05163E+04 1.01388E+05
 -1      2231-7.21881E+03 8.05163E+04 1.01388E+05
 -1      2232-6.11576E+03 9.63616E+04 1.13227E+05
 -1      2234-6.11576E+03 9.63616E+04 1.13227E+05
 -1      2235-4.54224E+03 1.08772E+05 1.24366E+05
 -1      2237-4.54224E+03 1.08772E+05 1.24366E+05
 -1      2238-2.79378E+03 1.16917E+05 1.34734E+05
 -1      2240-2.79378E+03 1.16917E+05 1.34734E+05
 -1      2241-1.19890E+03 1.20775E+05 1.44332E+05
 -1      2243-1.19890E+03 1.20775E+05 1.44332E+05
 -1      2244-5.21472E+01 1.21129E+05 1.53230E+05
 -1      2246-5.21472E+01 1.21129E+05 1.53230E+05
 -1      2247 4.43904E+02 1.19407E+05 1.61556E+05
 -1      2249 4.43904E+02 1.19407E+05 1.61556E+05
 -1      2250 2.19353E+02 1.17392E+05 1.69465E+05
 -1      2252 2.19353E+02 1.17392E+05 1.69465E+05
 -1      2253-6.49236E+02 1.16853E+05 1.77114E+05
 -1      2255-6.49236E+02 1.16853E+05 1.77114E+05
 -1      2256-1.95407E+03 1.19197E+05 1.84627E+05
 -1      2258-1.95407E+03 1.19197E+05 1.84627E+05
 -1      2259-3.39756E+03 1.25171E+05 1.92069E+05
 -1      2261-3.39756E+03 1.25171E+05 1.92069E+05
 -1      2262-4.65157E+03 1.34717E+05 1.99437E+05
 -1      2264-4.65157E+03 1.34717E+05 1.99437E+05
 -1      2265-5.42264E+03 1.46969E+05 2.06655E+05
 -1      2267-5.42264E+03 1.46969E+05 2.06655E+05
 -1      2268-5.51007E+03 1.60424E+05 2.13590E+05
 -1      2270-5.51007E+03 1.60424E+05 2.13590E+05
 -1      2271-4.84515E+03 1.73233E+05 2.20072E+05
 -1      2273-4.84515E+03 1.73233E+05 2.20072E+05
 -1      2274-3.50352E+03 1.83556E+05 2.25928E+05
 -1      2276-3.50352E+03 1.83556E+05 2.25928E+05
 -1      2277-1.68806E+03 1.89922E+05 2.31008E+05
 -1      2279-1.68806E+03 1.89922E+05 2.31008E+05
 -1      2280 3.15214E+02 1.91499E+05 2.35212E+05
 -1      2282 3.15214E+02 1.91499E+05 2.35212E+05
 -1      2283 2.19896E+03 1.88235E+05 2.38502E+05
 -1      2285 2.19896E+03 1.88235E+05 2.38502E+05
 -1      2286 3.70403E+03 1.80829E+05 2.40906E+05
 -1      2288 3.70403E+03 1.80829E+05 2.40906E+05
 -1      2289 4.68422E+03 1.70538E+05 2.42501E+05
 -1      2291 4.68422E+03 1.70538E+05 2.42501E+05
 -1      2292 5.14746E+03 1.58822E+05 2.43394E+05
 -1      2294 5.14746E+03 1.58822E+05 2.43394E+05
 -3
    1PSTEP                        68           1           1          
    1PGM                1.000000E+00                                  
    1PGK                1.388928E+07                                  
    1PHID                         -1                                  
    1PSUBC                         0                                  
    1PMODE                        17                                  
  100CL  117 593.1438794         930                     2   17MODAL      1
 -4  ERROR       1    1
 -5  STR(%)      1    1    0    0
 -1       404 0.00000E+00
 -1       406 0.00000E+00
 -1       407 0.00000E+00
 -1       409 0.00000E+00
 -1       410 0.00000E+00
 -1       412 0.00000E+00
 -1       413 0.00000E+00
 -1       415 0.00000E+00
 -1       424 0.00000E+00
 -1       426 0.00000E+00
 -1       427 0.00000E+00
 -1       429 0.00000E+00
 -1       438 0.00000E+00
 -1       440 0.00000E+00
 -1       441 0.00000E+00
 -1       443 0.00000E+00
 -1       444 0.00000E+00
 -1       446 0.00000E+00
 -1       447 0.00000E+00
 -1       449 0.00000E+00
 -1       458 0.00000E+00
 -1       460 0.00000E+00
 -1       461 0.00000E+00
 -1       463 0.00000E+00
 -1       472 0.00000E+00
 -1       474 0.00000E+00
 -1       475 0.00000E+00
 -1       477 0.00000E+00
 -1       478 0.00000E+00
 -1       480 0.00000E+00
 -1       481 0.00000E+00
 -1       483 0.00000E+00
 -1       484 0.00000E+00
 -1       486 0.00000E+00
 -1       487 0.00000E+00
 -1       489 0.00000E+00
 -1       490 0.00000E+00
 -1       492 0.00000E+00
 -1       493 0.00000E+00
 -1       495 0.00000E+00
 -1       496 0.00000E+00
 -1       498 0.00000E+00
 -1       499 0.00000E+00
 -1       501 0.00000E+00
 -1       502 0.00000E+00
 -1       504 0.00000E+00
 -1       505 0.00000E+00
 -1       507 0.00000E+00
 -1       508 0.00000E+00
 -1       510 0.00000E+00
 -1       511 0.00000E+00
 -1       513 0.00000E+00
 -1       514 0.00000E+00
 -1       516 0.00000E+00
 -1       517 0.00000E+00
 -1       519 0.00000E+00
 -1       520 0.00000E+00
 -1       522 0.00000E+00
 -1       523 0.00000E+00
 -1       525 0.00000E+00
 -1       526 0.00000E+00
 -1       528 0.00000E+00
 -1       529 0.00000E+00
 -1       531 0.00000E+00
 -1       532 0.00000E+00
 -1       534 0.00000E+00
 -1       535 0.00000E+00
 -1       537 0.00000E+00
 -1       538 0.00000E+00
 -1       540 0.00000E+00
 -1       541 0.00000E+00
 -1       543 0.00000E+00
 -1       544 0.00000E+00
 -1       546 0.00000E+00
 -1       547 0.00000E+00
 -1       549 0.00000E+00
 -1       550 0.00000E+00
 -1       552 0.00000E+00
 -1       553 0.00000E+00
 -1       555 0.00000E+00
 -1       556 0.00000E+00
 -1       558 0.00000E+00
 -1       559 0.00000E+00
 -1       561 0.00000E+00
 -1       562 0.00000E+00
 -1       564 0.00000E+00
 -1       565 0.00000E+00
 -1       567 0.00000E+00
 -1       568 0.00000E+00
 -1       570 0.00000E+00
 -1       571 0.00000E+00
 -1       573 0.00000E+00
 -1       574 0.00000E+00
 -1       576 0.00000E+00
 -1       577 0.00000E+00
 -1       579 0.00000E+00
 -1       588 0.00000E+00
 -1       590 0.00000E+00
 -1       591 0.00000E+00
 -1       593 0.00000E+00
 -1       602 0.00000E+00
 -1       604 0.00000E+00
 -1       605 0.00000E+00
 -1       607 0.00000E+00
 -1       616 0.00000E+00
 -1       618 0.00000E+00
 -1       619 0.00000E+00
 -1       621 0.00000E+00
 -1       630 0.00000E+00
 -1       632 0.00000E+00
 -1       633 0.00000E+00
 -1       635 0.00000E+00
 -1       644 0.00000E+00
 -1       646 0.00000E+00
 -1       647 0.00000E+00
 -1       649 0.00000E+00
 -1       658 0.00000E+00
 -1       660 0.00000E+00
 -1       661 0.00000E+00
 -1       663 0.00000E+00
 -1       672 0.00000E+00
 -1       674 0.00000E+00
 -1       675 0.00000E+00
 -1       677 0.00000E+00
 -1       686 0.00000E+00
 -1       688 0.00000E+00
 -1       689 0.00000E+00
 -1       691 0.00000E+00
 -1       700 0.00000E+00
 -1       702 0.00000E+00
 -1       703 0.00000E+00
 -1       705 0.00000E+00
 -1       714 0.00000E+00
 -1       716 0.00000E+00
 -1       717 0.00000E+00
 -1       719 0.00000E+00
 -1       728 0.00000E+00
 -1       730 0.00000E+00
 -1       731 0.00000E+00
 -1       733 0.00000E+00
 -1       742 0.00000E+00
 -1       744 0.00000E+00
 -1       745 0.00000E+00
 -1       747 0.00000E+00
 -1       756 0.00000E+00
 -1       758 0.00000E+00
 -1       759 0.00000E+00
 -1       761 0.00000E+00
 -1       770 0.00000E+00
 -1       772 0.00000E+00
 -1       773 0.00000E+00
 -1       775 0.00000E+00
 -1       784 0.00000E+00
 -1       786 0.00000E+00
 -1       787 0.00000E+00
 -1       789 0.00000E+00
 -1       798 0.00000E+00
 -1       800 0.00000E+00
 -1       801 0.00000E+00
 -1       803 0.00000E+00
 -1       812 0.00000E+00
 -1       814 0.00000E+00
 -1       815 0.00000E+00
 -1       817 0.00000E+00
 -1       826 0.00000E+00
 -1       828 0.00000E+00
 -1       829 0.00000E+00
 -1       831 0.00000E+00
 -1       840 0.00000E+00
 -1       842 0.00000E+00
 -1       843 0.00000E+00
 -1       845 0.00000E+00
 -1       854 0.00000E+00
 -1       856 0.00000E+00
 -1       857 0.00000E+00
 -1       859 0.00000E+00
 -1       868 0.00000E+00
 -1       870 0.00000E+00
 -1       871 0.00000E+00
 -1       873 0.00000E+00
 -1       882 0.00000E+00
 -1       884 0.00000E+00
 -1       885 0.00000E+00
 -1       887 0.00000E+00
 -1       896 0.00000E+00
 -1       898 0.00000E+00
 -1       899 0.00000E+00
 -1       901 0.00000E+00
 -1       910 0.00000E+00
 -1       912 0.00000E+00
 -1       913 0.00000E+00
 -1       915 0.00000E+00
 -1       924 0.00000E+00
 -1       926 0.00000E+00
 -1       927 0.00000E+00
 -1       929 0.00000E+00
 -1       938 0.00000E+00
 -1       940 0.00000E+00
 -1       941 0.00000E+00
 -1       943 0.00000E+00
 -1       952 0.00000E+00
 -1       954 0.00000E+00
 -1       955 0.00000E+00
 -1       957 0.00000E+00
 -1       966 0.00000E+00
 -1       968 0.00000E+00
 -1       969 0.00000E+00
 -1       971 0.00000E+00
 -1       980 0.00000E+00
 -1       982 0.00000E+00
 -1       983 0.00000E+00
 -1       985 0.00000E+00
 -1       986 0.00000E+00
 -1       988 0.00000E+00
 -1       989 0.00000E+00
 -1       991 0.00000E+00
 -1       992 0.00000E+00
 -1       994 0.00000E+00
 -1       995 0.00000E+00
 -1       997 0.00000E+00
 -1       998 0.00000E+00
 -1      1000 0.00000E+00
 -1      1001 0.00000E+00
 -1      1003 0.00000E+00
 -1      1004 0.00000E+00
 -1      1006 0.00000E+00
 -1      1007 0.00000E+00
 -1      1009 0.00000E+00
 -1      1010 0.00000E+00
 -1      1012 0.00000E+00
 -1      1013 0.00000E+00
 -1      1015 0.00000E+00
 -1      1016 0.00000E+00
 -1      1018 0.00000E+00
 -1      1019 0.00000E+00
 -1      1021 0.00000E+00
 -1      1022 0.00000E+00
 -1      1024 0.00000E+00
 -1      1025 0.00000E+00
 -1      1027 0.00000E+00
 -1      1028 0.00000E+00
 -1      1030 0.00000E+00
 -1      1031 0.00000E+00
 -1      1033 0.00000E+00
 -1      1034 0.00000E+00
 -1      1036 0.00000E+00
 -1      1037 0.00000E+00
 -1      1039 0.00000E+00
 -1      1040 0.00000E+00
 -1      1042 0.00000E+00
 -1      1043 0.00000E+00
 -1      1045 0.00000E+00
 -1      1046 0.00000E+00
 -1      1048 0.00000E+00
 -1      1049 0.00000E+00
 -1      1051 0.00000E+00
 -1      1052 0.00000E+00
 -1      1054 0.00000E+00
 -1      1055 0.00000E+00
 -1      1057 0.00000E+00
 -1      1058 0.00000E+00
 -1      1060 0.00000E+00
 -1      1061 0.00000E+00
 -1      1063 0.00000E+00
 -1      1064 0.00000E+00
 -1      1066 0.00000E+00
 -1      1067 0.00000E+00
 -1      1069 0.00000E+00
 -1      1070 0.00000E+00
 -1      1072 0.00000E+00
 -1      1073 0.00000E+00
 -1      1075 0.00000E+00
 -1      1076 0.00000E+00
 -1      1078 0.00000E+00
 -1      1079 0.00000E+00
 -1      1081 0.00000E+00
 -1      1082 0.00000E+00
 -1      1084 0.00000E+00
 -1      1085 0.00000E+00
 -1      1087 0.00000E+00
 -1      1088 0.00000E+00
 -1      1090 0.00000E+00
 -1      1099 0.00000E+00
 -1      1101 0.00000E+00
 -1      1102 0.00000E+00
 -1      1104 0.00000E+00
 -1      1113 0.00000E+00
 -1      1115 0.00000E+00
 -1      1116 0.00000E+00
 -1      1118 0.00000E+00
 -1      1127 0.00000E+00
 -1      1129 0.00000E+00
 -1      1130 0.00000E+00
 -1      1132 0.00000E+00
 -1      1141 0.00000E+00
 -1      1143 0.00000E+00
 -1      1144 0.00000E+00
 -1      1146 0.00000E+00
 -1      1155 0.00000E+00
 -1      1157 0.00000E+00
 -1      1158 0.00000E+00
 -1      1160 0.00000E+00
 -1      1169 0.00000E+00
 -1      1171 0.00000E+00
 -1      1172 0.00000E+00
 -1      1174 0.00000E+00
 -1      1183 0.00000E+00
 -1      1185 0.00000E+00
 -1      1186 0.00000E+00
 -1      1188 0.00000E+00
 -1      1197 0.00000E+00
 -1      1199 0.00000E+00
 -1      1200 0.00000E+00
 -1      1202 0.00000E+00
 -1      1211 0.00000E+00
 -1      1213 0.00000E+00
 -1      1214 0.00000E+00
 -1      1216 0.00000E+00
 -1      1225 0.00000E+00
 -1      1227 0.00000E+00
 -1      1228 0.00000E+00
 -1      1230 0.00000E+00
 -1      1239 0.00000E+00
 -1      1241 0.00000E+00
 -1      1242 0.00000E+00
 -1      1244 0.00000E+00
 -1      1253 0.00000E+00
 -1      1255 0.00000E+00
 -1      1256 0.00000E+00
 -1      1258 0.00000E+00
 -1      1267 0.00000E+00
 -1      1269 0.00000E+00
 -1      1270 0.00000E+00
 -1      1272 0.00000E+00
 -1      1281 0.00000E+00
 -1      1283 0.00000E+00
 -1      1284 0.00000E+00
 -1      1286 0.00000E+00
 -1      1295 0.00000E+00
 -1      1297 0.00000E+00
 -1      1298 0.00000E+00
 -1      1300 0.00000E+00
 -1      1309 0.00000E+00
 -1      1311 0.00000E+00
 -1      1312 0.00000E+00
 -1      1314 0.00000E+00
 -1      1323 0.00000E+00
 -1      1325 0.00000E+00
 -1      1326 0.00000E+00
 -1      1328 0.00000E+00
 -1      1337 0.00000E+00
 -1      1339 0.00000E+00
 -1      1340 0.00000E+00
 -1      1342 0.00000E+00
 -1      1351 0.00000E+00
 -1      1353 0.00000E+00
 -1      1354 0.00000E+00
 -1      1356 0.00000E+00
 -1      1365 0.00000E+00
 -1      1367 0.00000E+00
 -1      1368 0.00000E+00
 -1      1370 0.00000E+00
 -1      1379 0.00000E+00
 -1      1381 0.00000E+00
 -1      1382 0.00000E+00
 -1      1384 0.00000E+00
 -1      1393 0.00000E+00
 -1      1395 0.00000E+00
 -1      1396 0.00000E+00
 -1      1398 0.00000E+00
 -1      1407 0.00000E+00
 -1      1409 0.00000E+00
 -1      1410 0.00000E+00
 -1      1412 0.00000E+00
 -1      1421 0.00000E+00
 -1      1423 0.00000E+00
 -1      1424 0.00000E+00
 -1      1426 0.00000E+00
 -1      1435 0.00000E+00
 -1      1437 0.00000E+00
 -1      1438 0.00000E+00
 -1      1440 0.00000E+00
 -1      1449 0.00000E+00
 -1      1451 0.00000E+00
 -1      1452 0.00000E+00
 -1      1454 0.00000E+00
 -1      1463 0.00000E+00
 -1      1465 0.00000E+00
 -1      1466 0.00000E+00
 -1      1468 0.00000E+00
 -1      1477 0.00000E+00
 -1      1479 0.00000E+00
 -1      1480 0.00000E+00
 -1      1482 0.00000E+00
 -1      1491 0.00000E+00
 -1      1493 0.00000E+00
 -1      1494 0.00000E+00
 -1      1496 0.00000E+00
 -1      1497 0.00000E+00
 -1      1499 0.00000E+00
 -1      1500 0.00000E+00
 -1      1502 0.00000E+00
 -1      1503 0.00000E+00
 -1      1505 0.00000E+00
 -1      1506 0.00000E+00
 -1      1508 0.00000E+00
 -1      1509 0.00000E+00
 -1      1511 0.00000E+00
 -1      1512 0.00000E+00
 -1      1514 0.00000E+00
 -1      1515 0.00000E+00
 -1      1517 0.00000E+00
 -1      1518 0.00000E+00
 -1      1520 0.00000E+00
 -1      1521 0.00000E+00
 -1      1523 0.00000E+00
 -1      1524 0.00000E+00
 -1      1526 0.00000E+00
 -1      1527 0.00000E+00
 -1      1529 0.00000E+00
 -1      1530 0.00000E+00
 -1      1532 0.00000E+00
 -1      1533 0.00000E+00
 -1      1535 0.00000E+00
 -1      1536 0.00000E+00
 -1      1538 0.00000E+00
 -1      1539 0.00000E+00
 -1      1541 0.00000E+00
 -1      1542 0.00000E+00
 -1      1544 0.00000E+00
 -1      1545 0.00000E+00
 -1      1547 0.00000E+00
 -1      1548 0.00000E+00
 -1      1550 0.00000E+00
 -1      1551 0.00000E+00
 -1      1553 0.00000E+00
 -1      1554 0.00000E+00
 -1      1556 0.00000E+00
 -1      1557 0.00000E+00
 -1      1559 0.00000E+00
 -1      1560 0.00000E+00
 -1      1562 0.00000E+00
 -1      1563 0.00000E+00
 -1      1565 0.00000E+00
 -1      1566 0.00000E+00
 -1      1568 0.00000E+00
 -1      1569 0.00000E+00
 -1      1571 0.00000E+00
 -1      1572 0.00000E+00
 -1      1574 0.00000E+00
 -1      1575 0.00000E+00
 -1      1577 0.00000E+00
 -1      1578 0.00000E+00
 -1      1580 0.00000E+00
 -1      1581 0.00000E+00
 -1      1583 0.00000E+00
 -1      1584 0.00000E+00
 -1      1586 0.00000E+00
 -1      1587 0.00000E+00
 -1      1589 0.00000E+00
 -1      1590 0.00000E+00
 -1      1592 0.00000E+00
 -1      1593 0.00000E+00
 -1      1595 0.00000E+00
 -1      1596 0.00000E+00
 -1      1598 0.00000E+00
 -1      1599 0.00000E+00
 -1      1601 0.00000E+00
 -1      1602 0.00000E+00
 -1      1604 0.00000E+00
 -1      1605 0.00000E+00
 -1      1607 0.00000E+00
 -1      1608 0.00000E+00
 -1      1610 0.00000E+00
 -1      1611 0.00000E+00
 -1      1613 0.00000E+00
 -1      1614 0.00000E+00
 -1      1616 0.00000E+00
 -1      1617 0.00000E+00
 -1      1619 0.00000E+00
 -1      1620 0.00000E+00
 -1      1622 0.00000E+00
 -1      1623 0.00000E+00
 -1      1625 0.00000E+00
 -1      1626 0.00000E+00
 -1      1628 0.00000E+00
 -1      1629 0.00000E+00
 -1      1631 0.00000E+00
 -1      1632 0.00000E+00
 -1      1634 0.00000E+00
 -1      1635 0.00000E+00
 -1      1637 0.00000E+00
 -1      1638 0.00000E+00
 -1      1640 0.00000E+00
 -1      1641 0.00000E+00
 -1      1643 0.00000E+00
 -1      1644 0.00000E+00
 -1      1646 0.00000E+00
 -1      1647 0.00000E+00
 -1      1649 0.00000E+00
 -1      1650 0.00000E+00
 -1      1652 0.00000E+00
 -1      1653 0.00000E+00
 -1      1655 0.00000E+00
 -1      1656 0.00000E+00
 -1      1658 0.00000E+00
 -1      1659 0.00000E+00
 -1      1661 0.00000E+00
 -1      1662 0.00000E+00
 -1      1664 0.00000E+00
 -1      1665 0.00000E+00
 -1      1667 0.00000E+00
 -1      1668 0.00000E+00
 -1      1670 0.00000E+00
 -1      1671 0.00000E+00
 -1      1673 0.00000E+00
 -1      1674 0.00000E+00
 -1      1676 0.00000E+00
 -1      1677 0.00000E+00
 -1      1679 0.00000E+00
 -1      1680 0.00000E+00
 -1      1682 0.00000E+00
 -1      1683 0.00000E+00
 -1      1685 0.00000E+00
 -1      1686 0.00000E+00
 -1      1688 0.00000E+00
 -1      1689 0.00000E+00
 -1      1691 0.00000E+00
 -1      1692 0.00000E+00
 -1      1694 0.00000E+00
 -1      1695 0.00000E+00
 -1      1697 0.00000E+00
 -1      1698 0.00000E+00
 -1      1700 0.00000E+00
 -1      1701 0.00000E+00
 -1      1703 0.00000E+00
 -1      1704 0.00000E+00
 -1      1706 0.00000E+00
 -1      1707 0.00000E+00
 -1      1709 0.00000E+00
 -1      1710 0.00000E+00
 -1      1712 0.00000E+00
 -1      1713 0.00000E+00
 -1      1715 0.00000E+00
 -1      1716 0.00000E+00
 -1      1718 0.00000E+00
 -1      1719 0.00000E+00
 -1      1721 0.00000E+00
 -1      1722 0.00000E+00
 -1      1724 0.00000E+00
 -1      1725 0.00000E+00
 -1      1727 0.00000E+00
 -1      1728 0.00000E+00
 -1      1730 0.00000E+00
 -1      1731 0.00000E+00
 -1      1733 0.00000E+00
 -1      1734 0.00000E+00
 -1      1736 0.00000E+00
 -1      1737 0.00000E+00
 -1      1739 0.00000E+00
 -1      1740 0.00000E+00
 -1      1742 0.00000E+00
 -1      1743 0.00000E+00
 -1      1745 0.00000E+00
 -1      1746 0.00000E+00
 -1      1748 0.00000E+00
 -1      1749 0.00000E+00
 -1      1751 0.00000E+00
 -1      1752 0.00000E+00
 -1      1754 0.00000E+00
 -1      1755 0.00000E+00
 -1      1757 0.00000E+00
 -1      1758 0.00000E+00
 -1      1760 0.00000E+00
 -1      1761 0.00000E+00
 -1      1763 0.00000E+00
 -1      1764 0.00000E+00
 -1      1766 0.00000E+00
 -1      1767 0.00000E+00
 -1      1769 0.00000E+00
 -1      1770 0.00000E+00
 -1      1772 0.00000E+00
 -1      1773 0.00000E+00
 -1      1775 0.00000E+00
 -1      1776 0.00000E+00
 -1      1778 0.00000E+00
 -1      1779 0.00000E+00
 -1      1781 0.00000E+00
 -1      1782 0.00000E+00
 -1      1784 0.00000E+00
 -1      1785 0.00000E+00
 -1      1787 0.00000E+00
 -1      1788 0.00000E+00
 -1      1790 0.00000E+00
 -1      1791 0.00000E+00
 -1      1793 0.00000E+00
 -1      1794 0.00000E+00
 -1      1796 0.00000E+00
 -1      1797 0.00000E+00
 -1      1799 0.00000E+00
 -1      1800 0.00000E+00
 -1      1802 0.00000E+00
 -1      1803 0.00000E+00
 -1      1805 0.00000E+00
 -1      1806 0.00000E+00
 -1      1808 0.00000E+00
 -1      1809 0.00000E+00
 -1      1811 0.00000E+00
 -1      1812 0.00000E+00
 -1      1814 0.00000E+00
 -1      1815 0.00000E+00
 -1      1817 0.00000E+00
 -1      1818 0.00000E+00
 -1      1820 0.00000E+00
 -1      1821 0.00000E+00
 -1      1823 0.00000E+00
 -1      1824 0.00000E+00
 -1      1826 0.00000E+00
 -1      1827 0.00000E+00
 -1      1829 0.00000E+00
 -1      1830 0.00000E+00
 -1      1832 0.00000E+00
 -1      1833 0.00000E+00
 -1      1835 0.00000E+00
 -1      1836 0.00000E+00
 -1      1838 0.00000E+00
 -1      1839 0.00000E+00
 -1      1841 0.00000E+00
 -1      1842 0.00000E+00
 -1      1844 0.00000E+00
 -1      1845 0.00000E+00
 -1      1847 0.00000E+00
 -1      1848 0.00000E+00
 -1      1850 0.00000E+00
 -1      1851 0.00000E+00
 -1      1853 0.00000E+00
 -1      1854 0.00000E+00
 -1      1856 0.00000E+00
 -1      1857 0.00000E+00
 -1      1859 0.00000E+00
 -1      1860 0.00000E+00
 -1      1862 0.00000E+00
 -1      1863 0.00000E+00
 -1      1865 0.00000E+00
 -1      1866 0.00000E+00
 -1      1868 0.00000E+00
 -1      1869 0.00000E+00
 -1      1871 0.00000E+00
 -1      1872 0.00000E+00
 -1      1874 0.00000E+00
 -1      1875 0.00000E+00
 -1      1877 0.00000E+00
 -1      1878 0.00000E+00
 -1      1880 0.00000E+00
 -1      1881 0.00000E+00
 -1      1883 0.00000E+00
 -1      1884 0.00000E+00
 -1      1886 0.00000E+00
 -1      1887 0.00000E+00
 -1      1889 0.00000E+00
 -1      1890 0.00000E+00
 -1      1892 0.00000E+00
 -1      1893 0.00000E+00
 -1      1895 0.00000E+00
 -1      1896 0.00000E+00
 -1      1898 0.00000E+00
 -1      1899 0.00000E+00
 -1      1901 0.00000E+00
 -1      1902 0.00000E+00
 -1      1904 0.00000E+00
 -1      1905 0.00000E+00
 -1      1907 0.00000E+00
 -1      1908 0.00000E+00
 -1      1910 0.00000E+00
 -1      1911 0.00000E+00
 -1      1913 0.00000E+00
 -1      1914 0.00000E+00
 -1      1916 0.00000E+00
 -1      1917 0.00000E+00
 -1      1919 0.00000E+00
 -1      1920 0.00000E+00
 -1      1922 0.00000E+00
 -1      1923 0.00000E+00
 -1      1925 0.00000E+00
 -1      1926 0.00000E+00
 -1      1928 0.00000E+00
 -1      1929 0.00000E+00
 -1      1931 0.00000E+00
 -1      1932 0.00000E+00
 -1      1934 0.00000E+00
 -1      1935 0.00000E+00
 -1      1937 0.00000E+00
 -1      1938 0.00000E+00
 -1      1940 0.00000E+00
 -1      1941 0.00000E+00
 -1      1943 0.00000E+00
 -1      1944 0.00000E+00
 -1      1946 0.00000E+00
 -1      1947 0.00000E+00
 -1      1949 0.00000E+00
 -1      1950 0.00000E+00
 -1      1952 0.00000E+00
 -1      1953 0.00000E+00
 -1      1955 0.00000E+00
 -1      1956 0.00000E+00
 -1      1958 0.00000E+00
 -1      1959 0.00000E+00
 -1      1961 0.00000E+00
 -1      1962 0.00000E+00
 -1      1964 0.00000E+00
 -1      1965 0.00000E+00
 -1      1967 0.00000E+00
 -1      1968 0.00000E+00
 -1      1970 0.00000E+00
 -1      1971 0.00000E+00
 -1      1973 0.00000E+00
 -1      1974 0.00000E+00
 -1      1976 0.00000E+00
 -1      1977 0.00000E+00
 -1      1979 0.00000E+00
 -1      1980 0.00000E+00
 -1      1982 0.00000E+00
 -1      1983 0.00000E+00
 -1      1985 0.00000E+00
 -1      1986 0.00000E+00
 -1      1988 0.00000E+00
 -1      1989 0.00000E+00
 -1      1991 0.00000E+00
 -1      1992 0.00000E+00
 -1      1994 0.00000E+00
 -1      1995 0.00000E+00
 -1      1997 0.00000E+00
 -1      1998 0.00000E+00
 -1      2000 0.00000E+00
 -1      2001 0.00000E+00
 -1      2003 0.00000E+00
 -1      2004 0.00000E+00
 -1      2006 0.00000E+00
 -1      2007 0.00000E+00
 -1      2009 0.00000E+00
 -1      2010 0.00000E+00
 -1      2012 0.00000E+00
 -1      2013 0.00000E+00
 -1      2015 0.00000E+00
 -1      2016 0.00000E+00
 -1      2018 0.00000E+00
 -1      2019 0.00000E+00
 -1      2021 0.00000E+00
 -1      2022 0.00000E+00
 -1      2024 0.00000E+00
 -1      2025 0.00000E+00
 -1      2027 0.00000E+00
 -1      2028 0.00000E+00
 -1      2030 0.00000E+00
 -1      2031 0.00000E+00
 -1      2033 0.00000E+00
 -1      2034 0.00000E+00
 -1      2036 0.00000E+00
 -1      2037 0.00000E+00
 -1      2039 0.00000E+00
 -1      2040 0.00000E+00
 -1      2042 0.00000E+00
 -1      2043 0.00000E+00
 -1      2045 0.00000E+00
 -1      2046 0.00000E+00
 -1      2048 0.00000E+00
 -1      2049 0.00000E+00
 -1      2051 0.00000E+00
 -1      2052 0.00000E+00
 -1      2054 0.00000E+00
 -1      2055 0.00000E+00
 -1      2057 0.00000E+00
 -1      2058 0.00000E+00
 -1      2060 0.00000E+00
 -1      2061 0.00000E+00
 -1      2063 0.00000E+00
 -1      2064 0.00000E+00
 -1      2066 0.00000E+00
 -1      2067 0.00000E+00
 -1      2069 0.00000E+00
 -1      2070 0.00000E+00
 -1      2072 0.00000E+00
 -1      2073 0.00000E+00
 -1      2075 0.00000E+00
 -1      2076 0.00000E+00
 -1      2078 0.00000E+00
 -1      2079 0.00000E+00
 -1      2081 0.00000E+00
 -1      2082 0.00000E+00
 -1      2084 0.00000E+00
 -1      2085 0.00000E+00
 -1      2087 0.00000E+00
 -1      2088 0.00000E+00
 -1      2090 0.00000E+00
 -1      2091 0.00000E+00
 -1      2093 0.00000E+00
 -1      2094 0.00000E+00
 -1      2096 0.00000E+00
 -1      2097 0.00000E+00
 -1      2099 0.00000E+00
 -1      2100 0.00000E+00
 -1      2102 0.00000E+00
 -1      2103 0.00000E+00
 -1      2105 0.00000E+00
 -1      2106 0.00000E+00
 -1      2108 0.00000E+00
 -1      2109 0.00000E+00
 -1      2111 0.00000E+00
 -1      2112 0.00000E+00
 -1      2114 0.00000E+00
 -1      2115 0.00000E+00
 -1      2117 0.00000E+00
 -1      2118 0.00000E+00
 -1      2120 0.00000E+00
 -1      2121 0.00000E+00
 -1      2123 0.00000E+00
 -1      2124 0.00000E+00
 -1      2126 0.00000E+00
 -1      2127 0.00000E+00
 -1      2129 0.00000E+00
 -1      2130 0.00000E+00
 -1      2132 0.00000E+00
 -1      2133 0.00000E+00
 -1      2135 0.00000E+00
 -1      2136 0.00000E+00
 -1      2138 0.00000E+00
 -1      2139 0.00000E+00
 -1      2141 0.00000E+00
 -1      2142 0.00000E+00
 -1      2144 0.00000E+00
 -1      2145 0.00000E+00
 -1      2147 0.00000E+00
 -1      2148 0.00000E+00
 -1      2150 0.00000E+00
 -1      2151 0.00000E+00
 -1      2153 0.00000E+00
 -1      2154 0.00000E+00
 -1      2156 0.00000E+00
 -1      2157 0.00000E+00
 -1      2159 0.00000E+00
 -1      2160 0.00000E+00
 -1      2162 0.00000E+00
 -1      2163 0.00000E+00
 -1      2165 0.00000E+00
 -1      2166 0.00000E+00
 -1      2168 0.00000E+00
 -1      2169 0.00000E+00
 -1      2171 0.00000E+00
 -1      2172 0.00000E+00
 -1      2174 0.00000E+00
 -1      2175 0.00000E+00
 -1      2177 0.00000E+00
 -1      2178 0.00000E+00
 -1      2180 0.00000E+00
 -1      2181 0.00000E+00
 -1      2183 0.00000E+00
 -1      2184 0.00000E+00
 -1      2186 0.00000E+00
 -1      2187 0.00000E+00
 -1      2189 0.00000E+00
 -1      2190 0.00000E+00
 -1      2192 0.00000E+00
 -1      2193 0.00000E+00
 -1      2195 0.00000E+00
 -1      2196 0.00000E+00
 -1      2198 0.00000E+00
 -1      2199 0.00000E+00
 -1      2201 0.00000E+00
 -1      2202 0.00000E+00
 -1      2204 0.00000E+00
 -1      2205 0.00000E+00
 -1      2207 0.00000E+00
 -1      2208 0.00000E+00
 -1      2210 0.00000E+00
 -1      2211 0.00000E+00
 -1      2213 0.00000E+00
 -1      2214 0.00000E+00
 -1      2216 0.00000E+00
 -1      2217 0.00000E+00
 -1      2219 0.00000E+00
 -1      2220 0.00000E+00
 -1      2222 0.00000E+00
 -1      2223 0.00000E+00
 -1      2225 0.00000E+00
 -1      2226 0.00000E+00
 -1      2228 0.00000E+00
 -1      2229 0.00000E+00
 -1      2231 0.00000E+00
 -1      2232 0.00000E+00
 -1      2234 0.00000E+00
 -1      2235 0.00000E+00
 -1      2237 0.00000E+00
 -1      2238 0.00000E+00
 -1      2240 0.00000E+00
 -1      2241 0.00000E+00
 -1      2243 0.00000E+00
 -1      2244 0.00000E+00
 -1      2246 0.00000E+00
 -1      2247 0.00000E+00
 -1      2249 0.00000E+00
 -1      2250 0.00000E+00
 -1      2252 0.00000E+00
 -1      2253 0.00000E+00
 -1      2255 0.00000E+00
 -1      2256 0.00000E+00
 -1      2258 0.00000E+00
 -1      2259 0.00000E+00
 -1      2261 0.00000E+00
 -1      2262 0.00000E+00
 -1      2264 0.00000E+00
 -1      2265 0.00000E+00
 -1      2267 0.00000E+00
 -1      2268 0.00000E+00
 -1      2270 0.00000E+00
 -1      2271 0.00000E+00
 -1      2273 0.00000E+00
 -1      2274 0.00000E+00
 -1      2276 0.00000E+00
 -1      2277 0.00000E+00
 -1      2279 0.00000E+00
 -1      2280 0.00000E+00
 -1      2282 0.00000E+00
 -1      2283 0.00000E+00
 -1      2285 0.00000E+00
 -1      2286 0.00000E+00
 -1      2288 0.00000E+00
 -1      2289 0.00000E+00
 -1      2291 0.00000E+00
 -1      2292 0.00000E+00
 -1      2294 0.00000E+00
 -3
    1PSTEP                        69           1           1          
    1PGM                1.000000E+00                                  
    1PGK                1.582052E+07                                  
    1PHID                         -1                                  
    1PSUBC                         0                                  
    1PMODE                        18                                  
  100CL  118 633.0390862         930                     2   18MODAL      1
 -4  DISP        4    1
 -5  D1          1    2    1    0
 -5  D2          1    2    2    0
 -5  D3          1    2    3    0
 -5  ALL         1    2    0    0    1ALL
 -1       404 0.00000E+00 0.00000E+00-5.72543E-04
 -1       406 0.00000E+00-0.00000E+00 5.72543E-04
 -1       407-4.91125E-02 1.22904E-01-7.21274E-02
 -1       409-4.90062E-02 1.36125E-01-7.21580E-02
 -1       410 2.15236E-14 1.26768E-01-4.56139E-14
 -1       412 2.15982E-14 1.32387E-01-4.48693E-14
 -1       413 2.36586E-03 1.29578E-01 1.78974E-03
 -1       415-2.36586E-03 1.29578E-01-1.78974E-03
 -1       424 0.00000E+00 0.00000E+00-2.46687E-16
 -1       426 0.00000E+00 0.00000E+00 2.46687E-16
 -1       427 0.00000E+00-1.57149E-16 0.00000E+00
 -1       429 0.00000E+00 1.57149E-16 0.00000E+00
 -1       438 4.91125E-02 1.22904E-01 7.21274E-02
 -1       440 4.90062E-02 1.36125E-01 7.21580E-02
 -1       441 0.00000E+00 0.00000E+00 5.72543E-04
 -1       443 0.00000E+00-0.00000E+00-5.72543E-04
 -1       444 0.00000E+00 3.16886E-16 0.00000E+00
 -1       446 0.00000E+00-3.16886E-16 0.00000E+00
 -1       447 0.00000E+00 0.00000E+00-4.97438E-16
 -1       449 0.00000E+00 0.00000E+00 4.97438E-16
 -1       458 2.36586E-03 1.29578E-01-1.78974E-03
 -1       460-2.36586E-03 1.29578E-01 1.78974E-03
 -1       461 5.91887E-15 1.26768E-01-1.80342E-14
 -1       463 6.44364E-15 1.32387E-01-1.74790E-14
 -1       472 0.00000E+00 0.00000E+00-5.72543E-04
 -1       474 0.00000E+00 0.00000E+00 5.72543E-04
 -1       475 4.91125E-02 1.22904E-01-7.21274E-02
 -1       477 4.90062E-02 1.36125E-01-7.21580E-02
 -1       478-4.91125E-02 1.22904E-01 7.21274E-02
 -1       480-4.90062E-02 1.36125E-01 7.21580E-02
 -1       481 0.00000E+00 0.00000E+00 5.72543E-04
 -1       483 0.00000E+00 0.00000E+00-5.72543E-04
 -1       484-1.65315E-02 1.66190E-02-1.09858E-02
 -1       486-1.37649E-02 1.78003E-02-1.07318E-02
 -1       487-1.98083E-02 4.04368E-02-2.47272E-02
 -1       489-1.87822E-02 4.28231E-02-2.47456E-02
 -1       490-1.60616E-02 6.48799E-02-3.28098E-02
 -1       492-1.49176E-02 6.80671E-02-3.31050E-02
 -1       493-5.40153E-03 7.90794E-02-3.73522E-02
 -1       495-5.27088E-03 8.26619E-02-3.79290E-02
 -1       496 7.86913E-03 7.88496E-02-3.62035E-02
 -1       498 7.41687E-03 8.22457E-02-3.67283E-02
 -1       499 2.07072E-02 6.22570E-02-3.00197E-02
 -1       501 1.95074E-02 6.49343E-02-3.05401E-02
 -1       502 2.96975E-02 3.24099E-02-1.94108E-02
 -1       504 2.80142E-02 3.38906E-02-1.96369E-02
 -1       505 3.27046E-02-4.81259E-03-5.80402E-03
 -1       507 3.07162E-02-4.87675E-03-5.81672E-03
 -1       508 2.88422E-02-4.13980E-02 8.95796E-03
 -1       510 2.68325E-02-4.31789E-02 9.28356E-03
 -1       511 1.88125E-02-6.94096E-02 2.30698E-02
 -1       513 1.70227E-02-7.29076E-02 2.35734E-02
 -1       514 4.67674E-03-8.25565E-02 3.47954E-02
 -1       516 3.31262E-03-8.75860E-02 3.54489E-02
 -1       517-1.05982E-02-7.77020E-02 4.29983E-02
 -1       519-1.14146E-02-8.39451E-02 4.35996E-02
 -1       520-2.37624E-02-5.55317E-02 4.70327E-02
 -1       522-2.39981E-02-6.25600E-02 4.75050E-02
 -1       523-3.20179E-02-2.04665E-02 4.69987E-02
 -1       525-3.17254E-02-2.78115E-02 4.71974E-02
 -1       526-3.35893E-02 2.02656E-02 4.34556E-02
 -1       528-3.28863E-02 1.30826E-02 4.33725E-02
 -1       529-2.81420E-02 5.81562E-02 3.73943E-02
 -1       531-2.71781E-02 5.15689E-02 3.70166E-02
 -1       532-1.68277E-02 8.52260E-02 2.98604E-02
 -1       534-1.57506E-02 7.96125E-02 2.92918E-02
 -1       535-2.06973E-03 9.57367E-02 2.18275E-02
 -1       537-9.93345E-04 9.13956E-02 2.11689E-02
 -1       538 1.29757E-02 8.74206E-02 1.39209E-02
 -1       540 1.39903E-02 8.45854E-02 1.33291E-02
 -1       541 2.50661E-02 6.19944E-02 6.40191E-03
 -1       543 2.60167E-02 6.08308E-02 5.99071E-03
 -1       544 3.15819E-02 2.48064E-02-8.74921E-04
 -1       546 3.25137E-02 2.54351E-02-1.00502E-03
 -1       547 3.10534E-02-1.62494E-02-8.29333E-03
 -1       549 3.20370E-02-1.37561E-02-8.11984E-03
 -1       550 2.34850E-02-5.23912E-02-1.63229E-02
 -1       552 2.45849E-02-4.79975E-02-1.58697E-02
 -1       553 1.03037E-02-7.57234E-02-2.52827E-02
 -1       555 1.15531E-02-6.94484E-02-2.46440E-02
 -1       556-5.94722E-03-8.08642E-02-3.51697E-02
 -1       558-4.57790E-03-7.27839E-02-3.44607E-02
 -1       559-2.22456E-02-6.58967E-02-4.55687E-02
 -1       561-2.08330E-02-5.61670E-02-4.49275E-02
 -1       562-3.57530E-02-3.26707E-02-5.55971E-02
 -1       564-3.44652E-02-2.15271E-02-5.51157E-02
 -1       565-4.46588E-02 1.40676E-02-6.41753E-02
 -1       567-4.36176E-02 2.63138E-02-6.39229E-02
 -1       568-4.84516E-02 6.77765E-02-6.98918E-02
 -1       570-4.79383E-02 8.07385E-02-6.98305E-02
 -1       571-2.44203E-02 1.23381E-01-2.97864E-02
 -1       573-2.43520E-02 1.35560E-01-2.97645E-02
 -1       574-8.10176E-15 1.33966E-02-6.62924E-15
 -1       576-9.90294E-15 1.58624E-02-5.95792E-15
 -1       577 1.47038E-03 1.46295E-02 7.85401E-04
 -1       579-1.47038E-03 1.46295E-02-7.85401E-04
 -1       588-2.04993E-14 3.96431E-02-2.48033E-14
 -1       590-1.84469E-14 4.51908E-02-2.39164E-14
 -1       591 1.17645E-03 4.24169E-02 1.76702E-03
 -1       593-1.17645E-03 4.24169E-02-1.76702E-03
 -1       602-2.49054E-14 6.34388E-02-5.68128E-14
 -1       604-2.14516E-14 7.09362E-02-5.72869E-14
 -1       605 1.11595E-03 6.71875E-02 2.38808E-03
 -1       607-1.11595E-03 6.71875E-02-2.38808E-03
 -1       616-1.94706E-14 7.85189E-02-9.29295E-14
 -1       618-1.63675E-14 8.71588E-02-9.32584E-14
 -1       619 3.30396E-04 8.28389E-02 2.75196E-03
 -1       621-3.30396E-04 8.28389E-02-2.75196E-03
 -1       630-1.20274E-14 7.80619E-02-1.07803E-13
 -1       632-1.39327E-14 8.66051E-02-1.08142E-13
 -1       633-3.85891E-04 8.23335E-02 2.72119E-03
 -1       635 3.85891E-04 8.23335E-02-2.72119E-03
 -1       644-1.14017E-14 6.16184E-02-9.69469E-14
 -1       646-1.52957E-14 6.88867E-02-9.63637E-14
 -1       647-1.18699E-03 6.52525E-02 2.31510E-03
 -1       649 1.18699E-03 6.52525E-02-2.31510E-03
 -1       658-1.47892E-14 3.14659E-02-7.68260E-14
 -1       660-1.81394E-14 3.65143E-02-7.67317E-14
 -1       661-1.69190E-03 3.39901E-02 1.60803E-03
 -1       663 1.69190E-03 3.39901E-02-1.60803E-03
 -1       672-1.72613E-14-5.96845E-03-7.86894E-14
 -1       674-1.36515E-14-3.77956E-03-7.88374E-14
 -1       675-1.88914E-03-4.87401E-03 6.97201E-04
 -1       677 1.88914E-03-4.87401E-03-6.97201E-04
 -1       686-6.09911E-15-4.29005E-02-9.31372E-14
 -1       688-4.81577E-15-4.36808E-02-9.43994E-14
 -1       689-1.66645E-03-4.32907E-02-2.48520E-04
 -1       691 1.66645E-03-4.32907E-02 2.48520E-04
 -1       700 1.23693E-14-7.11573E-02-7.00854E-14
 -1       702 4.78537E-15-7.46076E-02-7.04472E-14
 -1       703-1.10089E-03-7.28825E-02-1.09900E-03
 -1       705 1.10089E-03-7.28825E-02 1.09900E-03
 -1       714 2.08200E-14-8.44938E-02-1.21256E-14
 -1       716 1.21337E-14-8.98712E-02-1.21189E-14
 -1       717-2.90364E-04-8.71825E-02-1.71280E-03
 -1       719 2.90364E-04-8.71825E-02 1.71280E-03
 -1       728 2.00764E-14-7.96738E-02 3.85975E-14
 -1       730 1.49681E-14-8.60422E-02 3.86636E-14
 -1       731 5.82660E-04-8.28580E-02-2.02845E-03
 -1       733-5.82660E-04-8.28580E-02 2.02845E-03
 -1       742 1.78251E-14-5.74068E-02 6.83437E-14
 -1       744 1.56568E-14-6.37469E-02 6.83091E-14
 -1       745 1.33882E-03-6.05768E-02-2.01941E-03
 -1       747-1.33882E-03-6.05768E-02 2.01941E-03
 -1       756 1.35311E-14-2.20986E-02 8.27484E-14
 -1       758 1.23614E-14-2.75654E-02 8.32368E-14
 -1       759 1.81307E-03-2.48320E-02-1.74129E-03
 -1       761-1.81307E-03-2.48320E-02 1.74129E-03
 -1       770 8.57197E-15 1.89770E-02 9.48756E-14
 -1       772 6.31890E-15 1.49577E-02 9.46464E-14
 -1       773 1.90625E-03 1.69674E-02-1.28022E-03
 -1       775-1.90625E-03 1.69674E-02 1.28022E-03
 -1       784 3.01124E-15 5.72816E-02 1.03613E-13
 -1       786 1.97782E-15 5.48874E-02 1.03843E-13
 -1       787 1.59684E-03 5.60845E-02-7.62576E-04
 -1       789-1.59684E-03 5.60845E-02 7.62576E-04
 -1       798-9.12291E-15 8.47831E-02 9.85981E-14
 -1       800-7.20431E-15 8.38370E-02 9.90979E-14
 -1       801 9.51959E-04 8.43100E-02-3.01343E-04
 -1       803-9.51959E-04 8.43100E-02 3.01343E-04
 -1       812-2.50302E-14 9.57127E-02 8.23304E-14
 -1       814-2.26756E-14 9.57348E-02 8.29923E-14
 -1       815 1.08864E-04 9.57238E-02 7.04299E-06
 -1       817-1.08864E-04 9.57238E-02-7.04298E-06
 -1       826-3.26989E-14 8.77741E-02 7.29560E-14
 -1       828-3.29708E-14 8.81558E-02 7.22334E-14
 -1       829-7.51119E-04 8.79650E-02 1.21589E-04
 -1       831 7.51119E-04 8.79650E-02-1.21589E-04
 -1       840-3.23848E-14 6.26830E-02 7.41561E-14
 -1       842-3.38851E-14 6.28303E-02 7.43154E-14
 -1       843-1.44336E-03 6.27566E-02 4.69247E-05
 -1       845 1.44336E-03 6.27566E-02-4.69247E-05
 -1       854-3.03773E-14 2.57922E-02 6.67191E-14
 -1       856-2.78790E-14 2.53098E-02 6.63237E-14
 -1       857-1.81819E-03 2.55510E-02-1.53647E-04
 -1       859 1.81819E-03 2.55510E-02 1.53647E-04
 -1       868-2.35755E-14-1.49750E-02 4.92763E-14
 -1       870-2.23426E-14-1.62031E-02 4.88605E-14
 -1       871-1.79142E-03-1.55891E-02-3.91182E-04
 -1       873 1.79142E-03-1.55891E-02 3.91182E-04
 -1       882-1.39954E-14-5.08239E-02 4.65344E-14
 -1       884-1.62027E-14-5.25709E-02 4.52445E-14
 -1       885-1.36667E-03-5.16974E-02-5.56475E-04
 -1       887 1.36667E-03-5.16974E-02 5.56475E-04
 -1       896-7.16822E-15-7.38207E-02 4.43720E-14
 -1       898-6.08159E-15-7.55986E-02 4.42082E-14
 -1       899-6.21785E-04-7.47096E-02-5.66324E-04
 -1       901 6.21785E-04-7.47096E-02 5.66324E-04
 -1       910-2.93029E-15-7.86034E-02 3.18241E-14
 -1       912-1.25950E-15-7.97489E-02 3.15713E-14
 -1       913 2.84958E-04-7.91762E-02-3.64868E-04
 -1       915-2.84958E-04-7.91762E-02 3.64868E-04
 -1       924-1.48449E-15-6.32294E-02 1.43153E-14
 -1       926 1.24857E-15-6.31129E-02 1.43077E-14
 -1       927 1.19572E-03-6.31711E-02 3.71175E-05
 -1       929-1.19572E-03-6.31711E-02-3.71175E-05
 -1       938 3.79724E-15-2.96072E-02-4.76471E-15
 -1       940 5.46271E-15-2.77772E-02-4.97403E-15
 -1       941 1.91225E-03-2.86922E-02 5.82876E-04
 -1       943-1.91225E-03-2.86922E-02-5.82876E-04
 -1       952 1.00215E-14 1.74899E-02-1.86913E-14
 -1       954 1.17285E-14 2.11192E-02-1.85914E-14
 -1       955 2.36970E-03 1.93046E-02 1.15601E-03
 -1       957-2.36970E-03 1.93046E-02-1.15601E-03
 -1       966 1.67084E-14 7.15368E-02-3.46892E-14
 -1       968 1.94988E-14 7.65789E-02-3.55879E-14
 -1       969 2.45999E-03 7.40578E-02 1.60600E-03
 -1       971-2.45999E-03 7.40578E-02-1.60600E-03
 -1       980 0.00000E+00 0.00000E+00-1.55449E-04
 -1       982 0.00000E+00-0.00000E+00 1.55449E-04
 -1       983 2.44203E-02 1.23381E-01 2.97864E-02
 -1       985 2.43520E-02 1.35560E-01 2.97645E-02
 -1       986 1.65315E-02 1.66190E-02 1.09858E-02
 -1       988 1.37649E-02 1.78003E-02 1.07318E-02
 -1       989 1.98083E-02 4.04368E-02 2.47272E-02
 -1       991 1.87822E-02 4.28231E-02 2.47456E-02
 -1       992 1.60616E-02 6.48799E-02 3.28098E-02
 -1       994 1.49176E-02 6.80671E-02 3.31050E-02
 -1       995 5.40153E-03 7.90794E-02 3.73522E-02
 -1       997 5.27088E-03 8.26619E-02 3.79290E-02
 -1       998-7.86913E-03 7.88496E-02 3.62035E-02
 -1      1000-7.41687E-03 8.22457E-02 3.67283E-02
 -1      1001-2.07072E-02 6.22570E-02 3.00197E-02
 -1      1003-1.95074E-02 6.49343E-02 3.05401E-02
 -1      1004-2.96975E-02 3.24099E-02 1.94108E-02
 -1      1006-2.80142E-02 3.38906E-02 1.96369E-02
 -1      1007-3.27046E-02-4.81259E-03 5.80402E-03
 -1      1009-3.07162E-02-4.87675E-03 5.81672E-03
 -1      1010-2.88422E-02-4.13980E-02-8.95796E-03
 -1      1012-2.68325E-02-4.31789E-02-9.28356E-03
 -1      1013-1.88125E-02-6.94096E-02-2.30698E-02
 -1      1015-1.70227E-02-7.29076E-02-2.35734E-02
 -1      1016-4.67674E-03-8.25565E-02-3.47954E-02
 -1      1018-3.31262E-03-8.75860E-02-3.54489E-02
 -1      1019 1.05982E-02-7.77020E-02-4.29983E-02
 -1      1021 1.14146E-02-8.39451E-02-4.35996E-02
 -1      1022 2.37624E-02-5.55317E-02-4.70327E-02
 -1      1024 2.39981E-02-6.25600E-02-4.75050E-02
 -1      1025 3.20179E-02-2.04665E-02-4.69987E-02
 -1      1027 3.17254E-02-2.78115E-02-4.71974E-02
 -1      1028 3.35893E-02 2.02656E-02-4.34556E-02
 -1      1030 3.28863E-02 1.30826E-02-4.33725E-02
 -1      1031 2.81420E-02 5.81562E-02-3.73943E-02
 -1      1033 2.71781E-02 5.15689E-02-3.70166E-02
 -1      1034 1.68277E-02 8.52260E-02-2.98604E-02
 -1      1036 1.57506E-02 7.96125E-02-2.92918E-02
 -1      1037 2.06973E-03 9.57367E-02-2.18275E-02
 -1      1039 9.93345E-04 9.13956E-02-2.11689E-02
 -1      1040-1.29757E-02 8.74206E-02-1.39209E-02
 -1      1042-1.39903E-02 8.45854E-02-1.33291E-02
 -1      1043-2.50661E-02 6.19944E-02-6.40191E-03
 -1      1045-2.60167E-02 6.08308E-02-5.99071E-03
 -1      1046-3.15819E-02 2.48064E-02 8.74921E-04
 -1      1048-3.25137E-02 2.54351E-02 1.00502E-03
 -1      1049-3.10534E-02-1.62494E-02 8.29333E-03
 -1      1051-3.20370E-02-1.37561E-02 8.11984E-03
 -1      1052-2.34850E-02-5.23912E-02 1.63229E-02
 -1      1054-2.45849E-02-4.79975E-02 1.58697E-02
 -1      1055-1.03037E-02-7.57234E-02 2.52827E-02
 -1      1057-1.15531E-02-6.94484E-02 2.46440E-02
 -1      1058 5.94722E-03-8.08642E-02 3.51697E-02
 -1      1060 4.57790E-03-7.27839E-02 3.44607E-02
 -1      1061 2.22456E-02-6.58967E-02 4.55687E-02
 -1      1063 2.08330E-02-5.61670E-02 4.49275E-02
 -1      1064 3.57530E-02-3.26707E-02 5.55971E-02
 -1      1066 3.44652E-02-2.15271E-02 5.51157E-02
 -1      1067 4.46588E-02 1.40676E-02 6.41753E-02
 -1      1069 4.36176E-02 2.63138E-02 6.39229E-02
 -1      1070 4.84516E-02 6.77765E-02 6.98918E-02
 -1      1072 4.79383E-02 8.07385E-02 6.98305E-02
 -1      1073 0.00000E+00 0.00000E+00 1.55449E-04
 -1      1075 0.00000E+00-0.00000E+00-1.55449E-04
 -1      1076 0.00000E+00-1.32273E-17 0.00000E+00
 -1      1078 0.00000E+00 1.32273E-17 0.00000E+00
 -1      1079 0.00000E+00-1.01807E-16 0.00000E+00
 -1      1081 0.00000E+00 1.01807E-16 0.00000E+00
 -1      1082 0.00000E+00 1.65754E-16 0.00000E+00
 -1      1084 0.00000E+00-1.65754E-16 0.00000E+00
 -1      1085 1.47038E-03 1.46295E-02-7.85401E-04
 -1      1087-1.47038E-03 1.46295E-02 7.85401E-04
 -1      1088 1.72063E-14 1.33966E-02-3.32196E-14
 -1      1090 7.83135E-15 1.58624E-02-3.31648E-14
 -1      1099 1.17645E-03 4.24169E-02-1.76702E-03
 -1      1101-1.17645E-03 4.24169E-02 1.76702E-03
 -1      1102 1.41090E-14 3.96431E-02-4.82673E-14
 -1      1104 1.71021E-14 4.51908E-02-4.84088E-14
 -1      1113 1.11595E-03 6.71875E-02-2.38808E-03
 -1      1115-1.11595E-03 6.71875E-02 2.38808E-03
 -1      1116 1.79116E-14 6.34388E-02-4.82730E-14
 -1      1118 1.42710E-14 7.09362E-02-4.81152E-14
 -1      1127 3.30396E-04 8.28389E-02-2.75196E-03
 -1      1129-3.30396E-04 8.28389E-02 2.75196E-03
 -1      1130 1.81875E-14 7.85189E-02-5.33912E-14
 -1      1132 1.81099E-14 8.71588E-02-5.37731E-14
 -1      1141-3.85891E-04 8.23335E-02-2.72119E-03
 -1      1143 3.85891E-04 8.23335E-02 2.72119E-03
 -1      1144 2.01102E-14 7.80619E-02-5.38527E-14
 -1      1146 1.90564E-14 8.66051E-02-5.45675E-14
 -1      1155-1.18699E-03 6.52525E-02-2.31510E-03
 -1      1157 1.18699E-03 6.52525E-02 2.31510E-03
 -1      1158 2.03296E-14 6.16184E-02-5.31969E-14
 -1      1160 2.03843E-14 6.88867E-02-5.27184E-14
 -1      1169-1.69190E-03 3.39901E-02-1.60803E-03
 -1      1171 1.69190E-03 3.39901E-02 1.60803E-03
 -1      1172 1.89938E-14 3.14659E-02-7.10187E-14
 -1      1174 1.19606E-14 3.65143E-02-7.08192E-14
 -1      1183-1.88914E-03-4.87401E-03-6.97201E-04
 -1      1185 1.88914E-03-4.87401E-03 6.97201E-04
 -1      1186 3.49054E-15-5.96845E-03-9.52826E-14
 -1      1188 1.04750E-15-3.77956E-03-9.58839E-14
 -1      1197-1.66645E-03-4.32907E-02 2.48520E-04
 -1      1199 1.66645E-03-4.32907E-02-2.48520E-04
 -1      1200-1.26175E-14-4.29005E-02-7.55931E-14
 -1      1202-5.50685E-15-4.36808E-02-7.59419E-14
 -1      1211-1.10089E-03-7.28825E-02 1.09900E-03
 -1      1213 1.10089E-03-7.28825E-02-1.09900E-03
 -1      1214-1.63332E-14-7.11573E-02-2.82751E-14
 -1      1216-9.86110E-15-7.46076E-02-2.82580E-14
 -1      1225-2.90364E-04-8.71825E-02 1.71280E-03
 -1      1227 2.90364E-04-8.71825E-02-1.71280E-03
 -1      1228-1.91978E-14-8.44938E-02 5.07458E-15
 -1      1230-1.62148E-14-8.98712E-02 4.93824E-15
 -1      1239 5.82660E-04-8.28580E-02 2.02845E-03
 -1      1241-5.82660E-04-8.28580E-02-2.02845E-03
 -1      1242-2.49014E-14-7.96738E-02 2.45162E-14
 -1      1244-2.27064E-14-8.60422E-02 2.49582E-14
 -1      1253 1.33882E-03-6.05768E-02 2.01941E-03
 -1      1255-1.33882E-03-6.05768E-02-2.01941E-03
 -1      1256-2.46993E-14-5.74068E-02 4.09944E-14
 -1      1258-2.31166E-14-6.37469E-02 4.07319E-14
 -1      1267 1.81307E-03-2.48320E-02 1.74129E-03
 -1      1269-1.81307E-03-2.48320E-02-1.74129E-03
 -1      1270-1.81704E-14-2.20986E-02 6.32924E-14
 -1      1272-1.42377E-14-2.75654E-02 6.36477E-14
 -1      1281 1.90625E-03 1.69674E-02 1.28022E-03
 -1      1283-1.90625E-03 1.69674E-02-1.28022E-03
 -1      1284-4.74419E-15 1.89770E-02 8.08934E-14
 -1      1286-4.54785E-15 1.49577E-02 8.14212E-14
 -1      1295 1.59684E-03 5.60845E-02 7.62576E-04
 -1      1297-1.59684E-03 5.60845E-02-7.62576E-04
 -1      1298 5.38881E-15 5.72816E-02 7.38254E-14
 -1      1300 1.94907E-15 5.48874E-02 7.44449E-14
 -1      1309 9.51959E-04 8.43100E-02 3.01343E-04
 -1      1311-9.51959E-04 8.43100E-02-3.01343E-04
 -1      1312 5.68784E-15 8.47831E-02 7.16867E-14
 -1      1314 7.11095E-15 8.38370E-02 7.12823E-14
 -1      1323 1.08864E-04 9.57238E-02-7.04298E-06
 -1      1325-1.08864E-04 9.57238E-02 7.04299E-06
 -1      1326 3.99347E-15 9.57127E-02 8.99064E-14
 -1      1328 6.70630E-15 9.57348E-02 9.03557E-14
 -1      1337-7.51119E-04 8.79650E-02-1.21589E-04
 -1      1339 7.51119E-04 8.79650E-02 1.21589E-04
 -1      1340 1.86720E-16 8.77741E-02 1.04481E-13
 -1      1342-8.78412E-17 8.81558E-02 1.04501E-13
 -1      1351-1.44336E-03 6.27566E-02-4.69247E-05
 -1      1353 1.44336E-03 6.27566E-02 4.69247E-05
 -1      1354-4.57183E-15 6.26830E-02 1.09474E-13
 -1      1356-4.69333E-15 6.28303E-02 1.10341E-13
 -1      1365-1.81819E-03 2.55510E-02 1.53647E-04
 -1      1367 1.81819E-03 2.55510E-02-1.53647E-04
 -1      1368-4.28446E-15 2.57922E-02 1.08808E-13
 -1      1370-5.49244E-15 2.53098E-02 1.09101E-13
 -1      1379-1.79142E-03-1.55891E-02 3.91182E-04
 -1      1381 1.79142E-03-1.55891E-02-3.91182E-04
 -1      1382 3.15154E-16-1.49750E-02 8.16545E-14
 -1      1384-6.55235E-15-1.62031E-02 8.25171E-14
 -1      1393-1.36667E-03-5.16974E-02 5.56475E-04
 -1      1395 1.36667E-03-5.16974E-02-5.56475E-04
 -1      1396 3.27943E-15-5.08239E-02 3.66813E-14
 -1      1398-3.21937E-15-5.25709E-02 3.63645E-14
 -1      1407-6.21785E-04-7.47096E-02 5.66324E-04
 -1      1409 6.21785E-04-7.47096E-02-5.66324E-04
 -1      1410 5.95279E-15-7.38207E-02 1.43430E-14
 -1      1412 6.82172E-15-7.55986E-02 1.54457E-14
 -1      1421 2.84958E-04-7.91762E-02 3.64868E-04
 -1      1423-2.84958E-04-7.91762E-02-3.64868E-04
 -1      1424 1.25174E-14-7.86034E-02 2.12461E-14
 -1      1426 1.41314E-14-7.97489E-02 2.07481E-14
 -1      1435 1.19572E-03-6.31711E-02-3.71175E-05
 -1      1437-1.19572E-03-6.31711E-02 3.71175E-05
 -1      1438 1.96788E-14-6.32294E-02 1.12890E-14
 -1      1440 1.55638E-14-6.31129E-02 1.28028E-14
 -1      1449 1.91225E-03-2.86922E-02-5.82876E-04
 -1      1451-1.91225E-03-2.86922E-02 5.82876E-04
 -1      1452 1.99231E-14-2.96072E-02-1.72507E-14
 -1      1454 1.47818E-14-2.77772E-02-1.82210E-14
 -1      1463 2.36970E-03 1.93046E-02-1.15601E-03
 -1      1465-2.36970E-03 1.93046E-02 1.15601E-03
 -1      1466 1.30034E-14 1.74899E-02-3.32075E-14
 -1      1468 1.33384E-14 2.11192E-02-3.31144E-14
 -1      1477 2.45999E-03 7.40578E-02-1.60600E-03
 -1      1479-2.45999E-03 7.40578E-02 1.60600E-03
 -1      1480 7.36500E-15 7.15368E-02-2.56907E-14
 -1      1482 9.20291E-15 7.65789E-02-2.63233E-14
 -1      1491 2.40373E-03 1.35234E-01-1.28641E-03
 -1      1493-2.40373E-03 1.35234E-01 1.28641E-03
 -1      1494 2.44160E-03 1.20030E-01-3.49026E-15
 -1      1496-2.44160E-03 1.20030E-01-5.73153E-14
 -1      1497 2.40373E-03 1.35234E-01 1.28641E-03
 -1      1499-2.40373E-03 1.35234E-01-1.28641E-03
 -1      1500 1.65315E-02 1.66190E-02-1.09858E-02
 -1      1502 1.37649E-02 1.78003E-02-1.07318E-02
 -1      1503 1.98083E-02 4.04368E-02-2.47272E-02
 -1      1505 1.87822E-02 4.28231E-02-2.47456E-02
 -1      1506 1.60616E-02 6.48799E-02-3.28098E-02
 -1      1508 1.49176E-02 6.80671E-02-3.31050E-02
 -1      1509 5.40153E-03 7.90794E-02-3.73522E-02
 -1      1511 5.27088E-03 8.26619E-02-3.79290E-02
 -1      1512-7.86913E-03 7.88496E-02-3.62035E-02
 -1      1514-7.41687E-03 8.22457E-02-3.67283E-02
 -1      1515-2.07072E-02 6.22570E-02-3.00197E-02
 -1      1517-1.95074E-02 6.49343E-02-3.05401E-02
 -1      1518-2.96975E-02 3.24099E-02-1.94108E-02
 -1      1520-2.80142E-02 3.38906E-02-1.96369E-02
 -1      1521-3.27046E-02-4.81259E-03-5.80402E-03
 -1      1523-3.07162E-02-4.87675E-03-5.81672E-03
 -1      1524-2.88422E-02-4.13980E-02 8.95796E-03
 -1      1526-2.68325E-02-4.31789E-02 9.28356E-03
 -1      1527-1.88125E-02-6.94096E-02 2.30698E-02
 -1      1529-1.70227E-02-7.29076E-02 2.35734E-02
 -1      1530-4.67674E-03-8.25565E-02 3.47954E-02
 -1      1532-3.31262E-03-8.75860E-02 3.54489E-02
 -1      1533 1.05982E-02-7.77020E-02 4.29983E-02
 -1      1535 1.14146E-02-8.39451E-02 4.35996E-02
 -1      1536 2.37624E-02-5.55317E-02 4.70327E-02
 -1      1538 2.39981E-02-6.25600E-02 4.75050E-02
 -1      1539 3.20179E-02-2.04665E-02 4.69987E-02
 -1      1541 3.17254E-02-2.78115E-02 4.71974E-02
 -1      1542 3.35893E-02 2.02656E-02 4.34556E-02
 -1      1544 3.28863E-02 1.30826E-02 4.33725E-02
 -1      1545 2.81420E-02 5.81562E-02 3.73943E-02
 -1      1547 2.71781E-02 5.15689E-02 3.70166E-02
 -1      1548 1.68277E-02 8.52260E-02 2.98604E-02
 -1      1550 1.57506E-02 7.96125E-02 2.92918E-02
 -1      1551 2.06973E-03 9.57367E-02 2.18275E-02
 -1      1553 9.93345E-04 9.13956E-02 2.11689E-02
 -1      1554-1.29757E-02 8.74206E-02 1.39209E-02
 -1      1556-1.39903E-02 8.45854E-02 1.33291E-02
 -1      1557-2.50661E-02 6.19944E-02 6.40191E-03
 -1      1559-2.60167E-02 6.08308E-02 5.99071E-03
 -1      1560-3.15819E-02 2.48064E-02-8.74921E-04
 -1      1562-3.25137E-02 2.54351E-02-1.00502E-03
 -1      1563-3.10534E-02-1.62494E-02-8.29333E-03
 -1      1565-3.20370E-02-1.37561E-02-8.11984E-03
 -1      1566-2.34850E-02-5.23912E-02-1.63229E-02
 -1      1568-2.45849E-02-4.79975E-02-1.58697E-02
 -1      1569-1.03037E-02-7.57234E-02-2.52827E-02
 -1      1571-1.15531E-02-6.94484E-02-2.46440E-02
 -1      1572 5.94722E-03-8.08642E-02-3.51697E-02
 -1      1574 4.57790E-03-7.27839E-02-3.44607E-02
 -1      1575 2.22456E-02-6.58967E-02-4.55687E-02
 -1      1577 2.08330E-02-5.61670E-02-4.49275E-02
 -1      1578 3.57530E-02-3.26707E-02-5.55971E-02
 -1      1580 3.44652E-02-2.15271E-02-5.51157E-02
 -1      1581 4.46588E-02 1.40676E-02-6.41753E-02
 -1      1583 4.36176E-02 2.63138E-02-6.39229E-02
 -1      1584 4.84516E-02 6.77765E-02-6.98918E-02
 -1      1586 4.79383E-02 8.07385E-02-6.98305E-02
 -1      1587 2.44203E-02 1.23381E-01-2.97864E-02
 -1      1589 2.43520E-02 1.35560E-01-2.97645E-02
 -1      1590 0.00000E+00 0.00000E+00-1.55449E-04
 -1      1592 0.00000E+00 0.00000E+00 1.55449E-04
 -1      1593-2.44203E-02 1.23381E-01 2.97864E-02
 -1      1595-2.43520E-02 1.35560E-01 2.97645E-02
 -1      1596-1.65315E-02 1.66190E-02 1.09858E-02
 -1      1598-1.37649E-02 1.78003E-02 1.07318E-02
 -1      1599-1.98083E-02 4.04368E-02 2.47272E-02
 -1      1601-1.87822E-02 4.28231E-02 2.47456E-02
 -1      1602-1.60616E-02 6.48799E-02 3.28098E-02
 -1      1604-1.49176E-02 6.80671E-02 3.31050E-02
 -1      1605-5.40153E-03 7.90794E-02 3.73522E-02
 -1      1607-5.27088E-03 8.26619E-02 3.79290E-02
 -1      1608 7.86913E-03 7.88496E-02 3.62035E-02
 -1      1610 7.41687E-03 8.22457E-02 3.67283E-02
 -1      1611 2.07072E-02 6.22570E-02 3.00197E-02
 -1      1613 1.95074E-02 6.49343E-02 3.05401E-02
 -1      1614 2.96975E-02 3.24099E-02 1.94108E-02
 -1      1616 2.80142E-02 3.38906E-02 1.96369E-02
 -1      1617 3.27046E-02-4.81259E-03 5.80402E-03
 -1      1619 3.07162E-02-4.87675E-03 5.81672E-03
 -1      1620 2.88422E-02-4.13980E-02-8.95796E-03
 -1      1622 2.68325E-02-4.31789E-02-9.28356E-03
 -1      1623 1.88125E-02-6.94096E-02-2.30698E-02
 -1      1625 1.70227E-02-7.29076E-02-2.35734E-02
 -1      1626 4.67674E-03-8.25565E-02-3.47954E-02
 -1      1628 3.31262E-03-8.75860E-02-3.54489E-02
 -1      1629-1.05982E-02-7.77020E-02-4.29983E-02
 -1      1631-1.14146E-02-8.39451E-02-4.35996E-02
 -1      1632-2.37624E-02-5.55317E-02-4.70327E-02
 -1      1634-2.39981E-02-6.25600E-02-4.75050E-02
 -1      1635-3.20179E-02-2.04665E-02-4.69987E-02
 -1      1637-3.17254E-02-2.78115E-02-4.71974E-02
 -1      1638-3.35893E-02 2.02656E-02-4.34556E-02
 -1      1640-3.28863E-02 1.30826E-02-4.33725E-02
 -1      1641-2.81420E-02 5.81562E-02-3.73943E-02
 -1      1643-2.71781E-02 5.15689E-02-3.70166E-02
 -1      1644-1.68277E-02 8.52260E-02-2.98604E-02
 -1      1646-1.57506E-02 7.96125E-02-2.92918E-02
 -1      1647-2.06973E-03 9.57367E-02-2.18275E-02
 -1      1649-9.93345E-04 9.13956E-02-2.11689E-02
 -1      1650 1.29757E-02 8.74206E-02-1.39209E-02
 -1      1652 1.39903E-02 8.45854E-02-1.33291E-02
 -1      1653 2.50661E-02 6.19944E-02-6.40191E-03
 -1      1655 2.60167E-02 6.08308E-02-5.99071E-03
 -1      1656 3.15819E-02 2.48064E-02 8.74921E-04
 -1      1658 3.25137E-02 2.54351E-02 1.00502E-03
 -1      1659 3.10534E-02-1.62494E-02 8.29333E-03
 -1      1661 3.20370E-02-1.37561E-02 8.11984E-03
 -1      1662 2.34850E-02-5.23912E-02 1.63229E-02
 -1      1664 2.45849E-02-4.79975E-02 1.58697E-02
 -1      1665 1.03037E-02-7.57234E-02 2.52827E-02
 -1      1667 1.15531E-02-6.94484E-02 2.46440E-02
 -1      1668-5.94722E-03-8.08642E-02 3.51697E-02
 -1      1670-4.57790E-03-7.27839E-02 3.44607E-02
 -1      1671-2.22456E-02-6.58967E-02 4.55687E-02
 -1      1673-2.08330E-02-5.61670E-02 4.49275E-02
 -1      1674-3.57530E-02-3.26707E-02 5.55971E-02
 -1      1676-3.44652E-02-2.15271E-02 5.51157E-02
 -1      1677-4.46588E-02 1.40676E-02 6.41753E-02
 -1      1679-4.36176E-02 2.63138E-02 6.39229E-02
 -1      1680-4.84516E-02 6.77765E-02 6.98918E-02
 -1      1682-4.79383E-02 8.07385E-02 6.98305E-02
 -1      1683 0.00000E+00 0.00000E+00 1.55449E-04
 -1      1685 0.00000E+00 0.00000E+00-1.55449E-04
 -1      1686-6.73152E-03 1.45351E-02-6.57919E-03
 -1      1688-5.02321E-03 1.59956E-02-6.36489E-03
 -1      1689-9.25148E-03 4.04486E-02-1.50614E-02
 -1      1691-8.61896E-03 4.38761E-02-1.50306E-02
 -1      1692-7.26770E-03 6.46847E-02-1.99895E-02
 -1      1694-6.55256E-03 6.92628E-02-2.01251E-02
 -1      1695-2.44518E-03 7.96747E-02-2.29737E-02
 -1      1697-2.34287E-03 8.48375E-02-2.31669E-02
 -1      1698 3.92094E-03 7.93363E-02-2.23990E-02
 -1      1700 3.66685E-03 8.43341E-02-2.26403E-02
 -1      1701 9.96706E-03 6.27184E-02-1.88966E-02
 -1      1703 9.26368E-03 6.68187E-02-1.90839E-02
 -1      1704 1.42608E-02 3.24470E-02-1.26826E-02
 -1      1706 1.32685E-02 3.50588E-02-1.27887E-02
 -1      1707 1.56627E-02-5.21670E-03-4.80345E-03
 -1      1709 1.45019E-02-4.54426E-03-4.79008E-03
 -1      1710 1.38075E-02-4.22963E-02 3.66187E-03
 -1      1712 1.26552E-02-4.37402E-02 3.79638E-03
 -1      1713 8.99538E-03-7.06485E-02 1.15079E-02
 -1      1715 8.00426E-03-7.41764E-02 1.17311E-02
 -1      1716 2.22941E-03-8.39393E-02 1.77253E-02
 -1      1718 1.52118E-03-8.92621E-02 1.80014E-02
 -1      1719-5.08135E-03-7.89552E-02 2.16392E-02
 -1      1721-5.44103E-03-8.56367E-02 2.18975E-02
 -1      1722-1.13778E-02-5.64115E-02 2.29884E-02
 -1      1724-1.13864E-02-6.38911E-02 2.31871E-02
 -1      1725-1.53242E-02-2.07813E-02 2.19738E-02
 -1      1727-1.50353E-02-2.84904E-02 2.20564E-02
 -1      1728-1.60709E-02 2.05909E-02 1.91299E-02
 -1      1730-1.55804E-02 1.31942E-02 1.90910E-02
 -1      1731-1.34586E-02 5.90778E-02 1.52322E-02
 -1      1733-1.28791E-02 5.24309E-02 1.50668E-02
 -1      1734-8.03953E-03 8.65773E-02 1.10644E-02
 -1      1736-7.47592E-03 8.10143E-02 1.08184E-02
 -1      1737-9.73564E-04 9.72691E-02 7.29325E-03
 -1      1739-5.00074E-04 9.30017E-02 7.00760E-03
 -1      1740 6.22718E-03 8.88505E-02 4.29016E-03
 -1      1742 6.58026E-03 8.60110E-02 4.03513E-03
 -1      1743 1.20115E-02 6.30620E-02 2.11322E-03
 -1      1745 1.22610E-02 6.17189E-02 1.93416E-03
 -1      1746 1.51223E-02 2.53329E-02 4.90118E-04
 -1      1748 1.53232E-02 2.55430E-02 4.33948E-04
 -1      1749 1.48579E-02-1.63343E-02-1.04908E-03
 -1      1751 1.50854E-02-1.45208E-02-9.76197E-04
 -1      1752 1.12136E-02-5.30208E-02-3.05043E-03
 -1      1754 1.15396E-02-4.95366E-02-2.85496E-03
 -1      1755 4.87435E-03-7.67338E-02-5.94597E-03
 -1      1757 5.34630E-03-7.15309E-02-5.66991E-03
 -1      1758-2.95344E-03-8.19954E-02-9.91523E-03
 -1      1760-2.33522E-03-7.50542E-02-9.60667E-03
 -1      1761-1.08271E-02-6.69043E-02-1.48077E-02
 -1      1763-1.01039E-02-5.83016E-02-1.45218E-02
 -1      1764-1.74023E-02-3.32963E-02-2.00709E-02
 -1      1766-1.66839E-02-2.32133E-02-1.98519E-02
 -1      1767-2.18174E-02 1.38927E-02-2.49612E-02
 -1      1769-2.11972E-02 2.51216E-02-2.48266E-02
 -1      1770-2.39345E-02 6.81313E-02-2.83935E-02
 -1      1772-2.36177E-02 8.00594E-02-2.83275E-02
 -1      1773 6.73152E-03 1.45351E-02 6.57919E-03
 -1      1775 5.02321E-03 1.59956E-02 6.36489E-03
 -1      1776 9.25148E-03 4.04486E-02 1.50614E-02
 -1      1778 8.61896E-03 4.38761E-02 1.50306E-02
 -1      1779 7.26770E-03 6.46847E-02 1.99895E-02
 -1      1781 6.55256E-03 6.92628E-02 2.01251E-02
 -1      1782 2.44518E-03 7.96747E-02 2.29737E-02
 -1      1784 2.34287E-03 8.48375E-02 2.31669E-02
 -1      1785-3.92094E-03 7.93363E-02 2.23990E-02
 -1      1787-3.66685E-03 8.43341E-02 2.26403E-02
 -1      1788-9.96706E-03 6.27184E-02 1.88966E-02
 -1      1790-9.26368E-03 6.68187E-02 1.90839E-02
 -1      1791-1.42608E-02 3.24470E-02 1.26826E-02
 -1      1793-1.32685E-02 3.50588E-02 1.27887E-02
 -1      1794-1.56627E-02-5.21670E-03 4.80345E-03
 -1      1796-1.45019E-02-4.54426E-03 4.79008E-03
 -1      1797-1.38075E-02-4.22963E-02-3.66187E-03
 -1      1799-1.26552E-02-4.37402E-02-3.79638E-03
 -1      1800-8.99538E-03-7.06485E-02-1.15079E-02
 -1      1802-8.00426E-03-7.41764E-02-1.17311E-02
 -1      1803-2.22941E-03-8.39393E-02-1.77253E-02
 -1      1805-1.52118E-03-8.92621E-02-1.80014E-02
 -1      1806 5.08135E-03-7.89552E-02-2.16392E-02
 -1      1808 5.44103E-03-8.56367E-02-2.18975E-02
 -1      1809 1.13778E-02-5.64115E-02-2.29884E-02
 -1      1811 1.13864E-02-6.38911E-02-2.31871E-02
 -1      1812 1.53242E-02-2.07813E-02-2.19738E-02
 -1      1814 1.50353E-02-2.84904E-02-2.20564E-02
 -1      1815 1.60709E-02 2.05909E-02-1.91299E-02
 -1      1817 1.55804E-02 1.31942E-02-1.90910E-02
 -1      1818 1.34586E-02 5.90778E-02-1.52322E-02
 -1      1820 1.28791E-02 5.24309E-02-1.50668E-02
 -1      1821 8.03953E-03 8.65773E-02-1.10644E-02
 -1      1823 7.47592E-03 8.10143E-02-1.08184E-02
 -1      1824 9.73564E-04 9.72691E-02-7.29325E-03
 -1      1826 5.00074E-04 9.30017E-02-7.00760E-03
 -1      1827-6.22718E-03 8.88505E-02-4.29016E-03
 -1      1829-6.58026E-03 8.60110E-02-4.03513E-03
 -1      1830-1.20115E-02 6.30620E-02-2.11322E-03
 -1      1832-1.22610E-02 6.17189E-02-1.93416E-03
 -1      1833-1.51223E-02 2.53329E-02-4.90118E-04
 -1      1835-1.53232E-02 2.55430E-02-4.33948E-04
 -1      1836-1.48579E-02-1.63343E-02 1.04908E-03
 -1      1838-1.50854E-02-1.45208E-02 9.76197E-04
 -1      1839-1.12136E-02-5.30208E-02 3.05043E-03
 -1      1841-1.15396E-02-4.95366E-02 2.85496E-03
 -1      1842-4.87435E-03-7.67338E-02 5.94597E-03
 -1      1844-5.34630E-03-7.15309E-02 5.66991E-03
 -1      1845 2.95344E-03-8.19954E-02 9.91523E-03
 -1      1847 2.33522E-03-7.50542E-02 9.60667E-03
 -1      1848 1.08271E-02-6.69043E-02 1.48077E-02
 -1      1850 1.01039E-02-5.83016E-02 1.45218E-02
 -1      1851 1.74023E-02-3.32963E-02 2.00709E-02
 -1      1853 1.66839E-02-2.32133E-02 1.98519E-02
 -1      1854 2.18174E-02 1.38927E-02 2.49612E-02
 -1      1856 2.11972E-02 2.51216E-02 2.48266E-02
 -1      1857 2.39345E-02 6.81313E-02 2.83935E-02
 -1      1859 2.36177E-02 8.00594E-02 2.83275E-02
 -1      1860 2.44010E-03 3.14873E-02 6.61015E-04
 -1      1862-2.44010E-03 3.14873E-02-6.61015E-04
 -1      1863 1.50848E-03 7.98988E-02 1.43097E-03
 -1      1865-1.50848E-03 7.98988E-02-1.43097E-03
 -1      1866 1.56965E-03 1.17755E-01 1.94953E-03
 -1      1868-1.56965E-03 1.17755E-01-1.94953E-03
 -1      1869 4.02171E-04 1.41688E-01 2.27013E-03
 -1      1871-4.02171E-04 1.41688E-01-2.27013E-03
 -1      1872-4.74299E-04 1.40791E-01 2.28887E-03
 -1      1874 4.74299E-04 1.40791E-01-2.28887E-03
 -1      1875-1.54140E-03 1.16140E-01 2.02904E-03
 -1      1877 1.54140E-03 1.16140E-01-2.02904E-03
 -1      1878-2.18275E-03 7.07131E-02 1.54182E-03
 -1      1880 2.18275E-03 7.07131E-02-1.54182E-03
 -1      1881-2.46207E-03 1.39964E-02 9.13926E-04
 -1      1883 2.46207E-03 1.39964E-02-9.13926E-04
 -1      1884-2.20313E-03-4.30825E-02 2.74512E-04
 -1      1886 2.20313E-03-4.30825E-02-2.74512E-04
 -1      1887-1.52001E-03-8.88870E-02-2.71332E-04
 -1      1889 1.52001E-03-8.88870E-02 2.71332E-04
 -1      1890-5.24281E-04-1.14472E-01-6.19238E-04
 -1      1892 5.24281E-04-1.14472E-01 6.19238E-04
 -1      1893 5.55228E-04-1.15004E-01-7.29985E-04
 -1      1895-5.55228E-04-1.15004E-01 7.29985E-04
 -1      1896 1.49887E-03-9.10470E-02-5.98520E-04
 -1      1898-1.49887E-03-9.10470E-02 5.98520E-04
 -1      1899 2.10221E-03-4.82817E-02-2.87803E-04
 -1      1901-2.10221E-03-4.82817E-02 2.87803E-04
 -1      1902 2.24175E-03 3.65245E-03 1.13572E-04
 -1      1904-2.24175E-03 3.65245E-03-1.13572E-04
 -1      1905 1.88955E-03 5.32779E-02 4.86887E-04
 -1      1907-1.88955E-03 5.32779E-02-4.86887E-04
 -1      1908 1.12560E-03 8.97271E-02 7.29259E-04
 -1      1910-1.12560E-03 8.97271E-02-7.29259E-04
 -1      1911 1.16832E-04 1.05087E-01 7.58596E-04
 -1      1913-1.16832E-04 1.05087E-01-7.58596E-04
 -1      1914-9.16484E-04 9.60890E-02 5.46448E-04
 -1      1916 9.16484E-04 9.60890E-02-5.46448E-04
 -1      1917-1.74914E-03 6.48110E-02 1.10353E-04
 -1      1919 1.74914E-03 6.48110E-02-1.10353E-04
 -1      1920-2.19926E-03 1.82177E-02-4.77145E-04
 -1      1922 2.19926E-03 1.82177E-02 4.77145E-04
 -1      1923-2.16470E-03-3.33175E-02-1.11706E-03
 -1      1925 2.16470E-03-3.33175E-02 1.11706E-03
 -1      1926-1.65154E-03-7.82709E-02-1.69275E-03
 -1      1928 1.65154E-03-7.82709E-02 1.69275E-03
 -1      1929-7.55906E-04-1.06355E-01-2.10914E-03
 -1      1931 7.55906E-04-1.06355E-01 2.10914E-03
 -1      1932 3.24115E-04-1.10821E-01-2.30019E-03
 -1      1934-3.24115E-04-1.10821E-01 2.30019E-03
 -1      1935 1.39774E-03-8.96114E-02-2.25875E-03
 -1      1937-1.39774E-03-8.96114E-02 2.25875E-03
 -1      1938 2.20476E-03-4.60805E-02-2.02720E-03
 -1      1940-2.20476E-03-4.60805E-02 2.02720E-03
 -1      1941 2.68834E-03 1.25560E-02-1.70122E-03
 -1      1943-2.68834E-03 1.25560E-02 1.70122E-03
 -1      1944 2.64500E-03 7.59840E-02-1.41093E-03
 -1      1946-2.64500E-03 7.59840E-02 1.41093E-03
 -1      1947 3.40982E-03 3.90676E-02-2.38681E-14
 -1      1949-3.40982E-03 3.90676E-02-1.52222E-14
 -1      1950 1.84051E-03 9.65885E-02-5.32976E-14
 -1      1952-1.84051E-03 9.65885E-02-3.15512E-14
 -1      1953 2.02335E-03 1.40311E-01-7.17438E-14
 -1      1955-2.02335E-03 1.40311E-01-3.98597E-14
 -1      1956 4.73946E-04 1.68072E-01-8.66234E-14
 -1      1958-4.73946E-04 1.68072E-01-4.78246E-14
 -1      1959-5.62707E-04 1.67307E-01-9.88584E-14
 -1      1961 5.62707E-04 1.67307E-01-5.64722E-14
 -1      1962-1.89582E-03 1.39740E-01-1.02331E-13
 -1      1964 1.89582E-03 1.39740E-01-6.19817E-14
 -1      1965-2.67360E-03 8.86281E-02-1.04224E-13
 -1      1967 2.67360E-03 8.86281E-02-7.05339E-14
 -1      1968-3.03500E-03 2.47221E-02-1.00501E-13
 -1      1970 3.03500E-03 2.47221E-02-7.54804E-14
 -1      1971-2.73981E-03-3.97882E-02-8.43259E-14
 -1      1973 2.73981E-03-3.97882E-02-6.88137E-14
 -1      1974-1.93913E-03-9.18662E-02-5.07788E-14
 -1      1976 1.93913E-03-9.18662E-02-4.80766E-14
 -1      1977-7.58198E-04-1.21523E-01-5.13825E-15
 -1      1979 7.58198E-04-1.21523E-01-1.81695E-14
 -1      1980 5.27797E-04-1.23341E-01 3.77649E-14
 -1      1982-5.27797E-04-1.23341E-01 8.77770E-15
 -1      1983 1.65892E-03-9.79334E-02 7.58629E-14
 -1      1985-1.65892E-03-9.79334E-02 3.58984E-14
 -1      1986 2.39135E-03-5.16136E-02 1.04344E-13
 -1      1988-2.39135E-03-5.16136E-02 5.94039E-14
 -1      1989 2.57725E-03 4.88776E-03 1.13076E-13
 -1      1991-2.57725E-03 4.88776E-03 6.94375E-14
 -1      1992 2.18226E-03 5.87903E-02 1.07664E-13
 -1      1994-2.18226E-03 5.87903E-02 7.12347E-14
 -1      1995 1.29925E-03 9.79915E-02 9.97050E-14
 -1      1997-1.29925E-03 9.79915E-02 7.37813E-14
 -1      1998 1.24801E-04 1.13680E-01 9.07434E-14
 -1      2000-1.24801E-04 1.13680E-01 7.71119E-14
 -1      2001-1.08185E-03 1.02219E-01 8.35304E-14
 -1      2003 1.08185E-03 1.02219E-01 8.35373E-14
 -1      2004-2.05491E-03 6.59258E-02 7.69558E-14
 -1      2006 2.05491E-03 6.59258E-02 9.13263E-14
 -1      2007-2.58034E-03 1.25592E-02 6.36349E-14
 -1      2009 2.58034E-03 1.25592E-02 9.01813E-14
 -1      2010-2.53798E-03-4.63309E-02 4.68861E-14
 -1      2012 2.53798E-03-4.63309E-02 7.98320E-14
 -1      2013-1.93640E-03-9.79245E-02 2.99049E-14
 -1      2015 1.93640E-03-9.79245E-02 6.22679E-14
 -1      2016-8.90026E-04-1.30796E-01 1.52933E-14
 -1      2018 8.90026E-04-1.30796E-01 4.35242E-14
 -1      2019 3.63272E-04-1.37493E-01 7.51829E-15
 -1      2021-3.63272E-04-1.37493E-01 2.72594E-14
 -1      2022 1.59976E-03-1.15816E-01-6.59195E-16
 -1      2024-1.59976E-03-1.15816E-01 5.59969E-15
 -1      2025 2.49727E-03-6.96830E-02-1.11508E-14
 -1      2027-2.49727E-03-6.96830E-02-2.43069E-14
 -1      2028 3.00698E-03-7.32383E-03-1.37668E-14
 -1      2030-3.00698E-03-7.32383E-03-4.63032E-14
 -1      2031 2.83000E-03 5.93445E-02-9.13158E-15
 -1      2033-2.83000E-03 5.93445E-02-5.53377E-14
 -1      2034 2.44010E-03 3.14873E-02-6.61015E-04
 -1      2036-2.44010E-03 3.14873E-02 6.61015E-04
 -1      2037 1.50848E-03 7.98988E-02-1.43097E-03
 -1      2039-1.50848E-03 7.98988E-02 1.43097E-03
 -1      2040 1.56965E-03 1.17755E-01-1.94953E-03
 -1      2042-1.56965E-03 1.17755E-01 1.94953E-03
 -1      2043 4.02171E-04 1.41688E-01-2.27013E-03
 -1      2045-4.02171E-04 1.41688E-01 2.27013E-03
 -1      2046-4.74299E-04 1.40791E-01-2.28887E-03
 -1      2048 4.74299E-04 1.40791E-01 2.28887E-03
 -1      2049-1.54140E-03 1.16140E-01-2.02904E-03
 -1      2051 1.54140E-03 1.16140E-01 2.02904E-03
 -1      2052-2.18275E-03 7.07131E-02-1.54182E-03
 -1      2054 2.18275E-03 7.07131E-02 1.54182E-03
 -1      2055-2.46207E-03 1.39964E-02-9.13926E-04
 -1      2057 2.46207E-03 1.39964E-02 9.13926E-04
 -1      2058-2.20313E-03-4.30825E-02-2.74512E-04
 -1      2060 2.20313E-03-4.30825E-02 2.74512E-04
 -1      2061-1.52001E-03-8.88870E-02 2.71332E-04
 -1      2063 1.52001E-03-8.88870E-02-2.71332E-04
 -1      2064-5.24281E-04-1.14472E-01 6.19238E-04
 -1      2066 5.24281E-04-1.14472E-01-6.19238E-04
 -1      2067 5.55228E-04-1.15004E-01 7.29985E-04
 -1      2069-5.55228E-04-1.15004E-01-7.29985E-04
 -1      2070 1.49887E-03-9.10470E-02 5.98520E-04
 -1      2072-1.49887E-03-9.10470E-02-5.98520E-04
 -1      2073 2.10221E-03-4.82817E-02 2.87803E-04
 -1      2075-2.10221E-03-4.82817E-02-2.87803E-04
 -1      2076 2.24175E-03 3.65245E-03-1.13572E-04
 -1      2078-2.24175E-03 3.65245E-03 1.13572E-04
 -1      2079 1.88955E-03 5.32779E-02-4.86887E-04
 -1      2081-1.88955E-03 5.32779E-02 4.86887E-04
 -1      2082 1.12560E-03 8.97271E-02-7.29259E-04
 -1      2084-1.12560E-03 8.97271E-02 7.29259E-04
 -1      2085 1.16832E-04 1.05087E-01-7.58596E-04
 -1      2087-1.16832E-04 1.05087E-01 7.58596E-04
 -1      2088-9.16484E-04 9.60890E-02-5.46448E-04
 -1      2090 9.16484E-04 9.60890E-02 5.46448E-04
 -1      2091-1.74914E-03 6.48110E-02-1.10353E-04
 -1      2093 1.74914E-03 6.48110E-02 1.10353E-04
 -1      2094-2.19926E-03 1.82177E-02 4.77145E-04
 -1      2096 2.19926E-03 1.82177E-02-4.77145E-04
 -1      2097-2.16470E-03-3.33175E-02 1.11706E-03
 -1      2099 2.16470E-03-3.33175E-02-1.11706E-03
 -1      2100-1.65154E-03-7.82709E-02 1.69275E-03
 -1      2102 1.65154E-03-7.82709E-02-1.69275E-03
 -1      2103-7.55906E-04-1.06355E-01 2.10914E-03
 -1      2105 7.55906E-04-1.06355E-01-2.10914E-03
 -1      2106 3.24115E-04-1.10821E-01 2.30019E-03
 -1      2108-3.24115E-04-1.10821E-01-2.30019E-03
 -1      2109 1.39774E-03-8.96114E-02 2.25875E-03
 -1      2111-1.39774E-03-8.96114E-02-2.25875E-03
 -1      2112 2.20476E-03-4.60805E-02 2.02720E-03
 -1      2114-2.20476E-03-4.60805E-02-2.02720E-03
 -1      2115 2.68834E-03 1.25560E-02 1.70122E-03
 -1      2117-2.68834E-03 1.25560E-02-1.70122E-03
 -1      2118 2.64500E-03 7.59840E-02 1.41093E-03
 -1      2120-2.64500E-03 7.59840E-02-1.41093E-03
 -1      2121 6.73152E-03 1.45351E-02-6.57919E-03
 -1      2123 5.02321E-03 1.59956E-02-6.36489E-03
 -1      2124 9.25148E-03 4.04486E-02-1.50614E-02
 -1      2126 8.61896E-03 4.38761E-02-1.50306E-02
 -1      2127 7.26770E-03 6.46847E-02-1.99895E-02
 -1      2129 6.55256E-03 6.92628E-02-2.01251E-02
 -1      2130 2.44518E-03 7.96747E-02-2.29737E-02
 -1      2132 2.34287E-03 8.48375E-02-2.31669E-02
 -1      2133-3.92094E-03 7.93363E-02-2.23990E-02
 -1      2135-3.66685E-03 8.43341E-02-2.26403E-02
 -1      2136-9.96706E-03 6.27184E-02-1.88966E-02
 -1      2138-9.26368E-03 6.68187E-02-1.90839E-02
 -1      2139-1.42608E-02 3.24470E-02-1.26826E-02
 -1      2141-1.32685E-02 3.50588E-02-1.27887E-02
 -1      2142-1.56627E-02-5.21670E-03-4.80345E-03
 -1      2144-1.45019E-02-4.54426E-03-4.79008E-03
 -1      2145-1.38075E-02-4.22963E-02 3.66187E-03
 -1      2147-1.26552E-02-4.37402E-02 3.79638E-03
 -1      2148-8.99538E-03-7.06485E-02 1.15079E-02
 -1      2150-8.00426E-03-7.41764E-02 1.17311E-02
 -1      2151-2.22941E-03-8.39393E-02 1.77253E-02
 -1      2153-1.52118E-03-8.92621E-02 1.80014E-02
 -1      2154 5.08135E-03-7.89552E-02 2.16392E-02
 -1      2156 5.44103E-03-8.56367E-02 2.18975E-02
 -1      2157 1.13778E-02-5.64115E-02 2.29884E-02
 -1      2159 1.13864E-02-6.38911E-02 2.31871E-02
 -1      2160 1.53242E-02-2.07813E-02 2.19738E-02
 -1      2162 1.50353E-02-2.84904E-02 2.20564E-02
 -1      2163 1.60709E-02 2.05909E-02 1.91299E-02
 -1      2165 1.55804E-02 1.31942E-02 1.90910E-02
 -1      2166 1.34586E-02 5.90778E-02 1.52322E-02
 -1      2168 1.28791E-02 5.24309E-02 1.50668E-02
 -1      2169 8.03953E-03 8.65773E-02 1.10644E-02
 -1      2171 7.47592E-03 8.10143E-02 1.08184E-02
 -1      2172 9.73564E-04 9.72691E-02 7.29325E-03
 -1      2174 5.00074E-04 9.30017E-02 7.00760E-03
 -1      2175-6.22718E-03 8.88505E-02 4.29016E-03
 -1      2177-6.58026E-03 8.60110E-02 4.03513E-03
 -1      2178-1.20115E-02 6.30620E-02 2.11322E-03
 -1      2180-1.22610E-02 6.17189E-02 1.93416E-03
 -1      2181-1.51223E-02 2.53329E-02 4.90118E-04
 -1      2183-1.53232E-02 2.55430E-02 4.33948E-04
 -1      2184-1.48579E-02-1.63343E-02-1.04908E-03
 -1      2186-1.50854E-02-1.45208E-02-9.76197E-04
 -1      2187-1.12136E-02-5.30208E-02-3.05043E-03
 -1      2189-1.15396E-02-4.95366E-02-2.85496E-03
 -1      2190-4.87435E-03-7.67338E-02-5.94597E-03
 -1      2192-5.34630E-03-7.15309E-02-5.66991E-03
 -1      2193 2.95344E-03-8.19954E-02-9.91523E-03
 -1      2195 2.33522E-03-7.50542E-02-9.60667E-03
 -1      2196 1.08271E-02-6.69043E-02-1.48077E-02
 -1      2198 1.01039E-02-5.83016E-02-1.45218E-02
 -1      2199 1.74023E-02-3.32963E-02-2.00709E-02
 -1      2201 1.66839E-02-2.32133E-02-1.98519E-02
 -1      2202 2.18174E-02 1.38927E-02-2.49612E-02
 -1      2204 2.11972E-02 2.51216E-02-2.48266E-02
 -1      2205 2.39345E-02 6.81313E-02-2.83935E-02
 -1      2207 2.36177E-02 8.00594E-02-2.83275E-02
 -1      2208-6.73152E-03 1.45351E-02 6.57919E-03
 -1      2210-5.02321E-03 1.59956E-02 6.36489E-03
 -1      2211-9.25148E-03 4.04486E-02 1.50614E-02
 -1      2213-8.61896E-03 4.38761E-02 1.50306E-02
 -1      2214-7.26770E-03 6.46847E-02 1.99895E-02
 -1      2216-6.55256E-03 6.92628E-02 2.01251E-02
 -1      2217-2.44518E-03 7.96747E-02 2.29737E-02
 -1      2219-2.34287E-03 8.48375E-02 2.31669E-02
 -1      2220 3.92094E-03 7.93363E-02 2.23990E-02
 -1      2222 3.66685E-03 8.43341E-02 2.26403E-02
 -1      2223 9.96706E-03 6.27184E-02 1.88966E-02
 -1      2225 9.26368E-03 6.68187E-02 1.90839E-02
 -1      2226 1.42608E-02 3.24470E-02 1.26826E-02
 -1      2228 1.32685E-02 3.50588E-02 1.27887E-02
 -1      2229 1.56627E-02-5.21670E-03 4.80345E-03
 -1      2231 1.45019E-02-4.54426E-03 4.79008E-03
 -1      2232 1.38075E-02-4.22963E-02-3.66187E-03
 -1      2234 1.26552E-02-4.37402E-02-3.79638E-03
 -1      2235 8.99538E-03-7.06485E-02-1.15079E-02
 -1      2237 8.00426E-03-7.41764E-02-1.17311E-02
 -1      2238 2.22941E-03-8.39393E-02-1.77253E-02
 -1      2240 1.52118E-03-8.92621E-02-1.80014E-02
 -1      2241-5.08135E-03-7.89552E-02-2.16392E-02
 -1      2243-5.44103E-03-8.56367E-02-2.18975E-02
 -1      2244-1.13778E-02-5.64115E-02-2.29884E-02
 -1      2246-1.13864E-02-6.38911E-02-2.31871E-02
 -1      2247-1.53242E-02-2.07813E-02-2.19738E-02
 -1      2249-1.50353E-02-2.84904E-02-2.20564E-02
 -1      2250-1.60709E-02 2.05909E-02-1.91299E-02
 -1      2252-1.55804E-02 1.31942E-02-1.90910E-02
 -1      2253-1.34586E-02 5.90778E-02-1.52322E-02
 -1      2255-1.28791E-02 5.24309E-02-1.50668E-02
 -1      2256-8.03953E-03 8.65773E-02-1.10644E-02
 -1      2258-7.47592E-03 8.10143E-02-1.08184E-02
 -1      2259-9.73564E-04 9.72691E-02-7.29325E-03
 -1      2261-5.00074E-04 9.30017E-02-7.00760E-03
 -1      2262 6.22718E-03 8.88505E-02-4.29016E-03
 -1      2264 6.58026E-03 8.60110E-02-4.03513E-03
 -1      2265 1.20115E-02 6.30620E-02-2.11322E-03
 -1      2267 1.22610E-02 6.17189E-02-1.93416E-03
 -1      2268 1.51223E-02 2.53329E-02-4.90118E-04
 -1      2270 1.53232E-02 2.55430E-02-4.33948E-04
 -1      2271 1.48579E-02-1.63343E-02 1.04908E-03
 -1      2273 1.50854E-02-1.45208E-02 9.76197E-04
 -1      2274 1.12136E-02-5.30208E-02 3.05043E-03
 -1      2276 1.15396E-02-4.95366E-02 2.85496E-03
 -1      2277 4.87435E-03-7.67338E-02 5.94597E-03
 -1      2279 5.34630E-03-7.15309E-02 5.66991E-03
 -1      2280-2.95344E-03-8.19954E-02 9.91523E-03
 -1      2282-2.33522E-03-7.50542E-02 9.60667E-03
 -1      2283-1.08271E-02-6.69043E-02 1.48077E-02
 -1      2285-1.01039E-02-5.83016E-02 1.45218E-02
 -1      2286-1.74023E-02-3.32963E-02 2.00709E-02
 -1      2288-1.66839E-02-2.32133E-02 1.98519E-02
 -1      2289-2.18174E-02 1.38927E-02 2.49612E-02
 -1      2291-2.11972E-02 2.51216E-02 2.48266E-02
 -1      2292-2.39345E-02 6.81313E-02 2.83935E-02
 -1      2294-2.36177E-02 8.00594E-02 2.83275E-02
 -3
    1PSTEP                        70           1           1          
    1PGM                1.000000E+00                                  
    1PGK                1.582052E+07                                  
    1PHID                         -1                                  
    1PSUBC                         0                                  
    1PMODE                        18                                  
  100CL  118 633.0390862         930                     2   18MODAL      1
 -4  STRESS      6    1
 -5  SXX         1    4    1    1
 -5  SYY         1    4    2    2
 -5  SZZ         1    4    3    3
 -5  SXY         1    4    1    2
 -5  SYZ         1    4    2    3
 -5  SZX         1    4    3    1
 -1       404-2.27842E+10-2.31239E+09-4.57884E+07 4.79495E+09 1.45632E+07-3.05753E+08
 -1       406-2.27842E+10-2.31239E+09-4.57884E+07 4.79495E+09 1.45632E+07-3.05753E+08
 -1       407-1.54132E+09 1.86341E+07 4.15199E+06 6.21241E+08-4.47109E+07 9.98488E+06
 -1       409-1.54132E+09 1.86341E+07 4.15199E+06 6.21241E+08-4.47109E+07 9.98488E+06
 -1       410 8.53348E-03 2.60475E-03 1.10149E-04 1.56213E+09-1.68662E+08 9.00221E-05
 -1       412 8.53348E-03 2.60475E-03 1.10149E-04 1.56213E+09-1.68662E+08 9.00221E-05
 -1       413 8.36596E-03 4.55365E-05 1.54114E-02-2.03760E+07-2.17501E+08-6.24929E-03
 -1       415 8.36596E-03 4.55365E-05 1.54114E-02-2.03760E+07-2.17501E+08-6.24929E-03
 -1       424-1.97482E-02-6.12855E-04-4.69685E-05 6.79836E+09 6.43331E+07 8.55807E-04
 -1       426-1.97482E-02-6.12855E-04-4.69685E-05 6.79836E+09 6.43331E+07 8.55807E-04
 -1       427-1.71536E-02-4.98099E-05-1.05238E-02 2.60928E+08 1.57799E+07-5.25582E-03
 -1       429-1.71536E-02-4.98099E-05-1.05238E-02 2.60928E+08 1.57799E+07-5.25582E-03
 -1       438 1.54132E+09-1.86341E+07-4.15199E+06 6.21241E+08-4.47109E+07-9.98488E+06
 -1       440 1.54132E+09-1.86341E+07-4.15199E+06 6.21241E+08-4.47109E+07-9.98488E+06
 -1       441 2.27842E+10 2.31239E+09 4.57884E+07 4.79495E+09 1.45632E+07 3.05753E+08
 -1       443 2.27842E+10 2.31239E+09 4.57884E+07 4.79495E+09 1.45632E+07 3.05753E+08
 -1       444 2.34722E-02 1.16556E-04 6.19629E-04 2.60928E+08-1.57799E+07-2.31534E-02
 -1       446 2.34722E-02 1.16556E-04 6.19629E-04 2.60928E+08-1.57799E+07-2.31534E-02
 -1       447 2.20647E-02 3.38328E-03-8.58307E-06 6.79836E+09-6.43331E+07-2.53659E-03
 -1       449 2.20647E-02 3.38328E-03-8.58307E-06 6.79836E+09-6.43331E+07-2.53659E-03
 -1       458 1.59747E-03 2.06858E-04 1.49460E-02-2.03760E+07 2.17501E+08 3.73921E-03
 -1       460 1.59747E-03 2.06858E-04 1.49460E-02-2.03760E+07 2.17501E+08 3.73921E-03
 -1       461-5.13101E-03-6.74081E-03-1.63406E-04 1.56213E+09 1.68662E+08-1.08237E-04
 -1       463-5.13101E-03-6.74081E-03-1.63406E-04 1.56213E+09 1.68662E+08-1.08237E-04
 -1       472 2.27842E+10 2.31239E+09 4.57884E+07 4.79495E+09-1.45632E+07-3.05753E+08
 -1       474 2.27842E+10 2.31239E+09 4.57884E+07 4.79495E+09-1.45632E+07-3.05753E+08
 -1       475 1.54132E+09-1.86341E+07-4.15199E+06 6.21241E+08 4.47109E+07 9.98488E+06
 -1       477 1.54132E+09-1.86341E+07-4.15199E+06 6.21241E+08 4.47109E+07 9.98488E+06
 -1       478-1.54132E+09 1.86341E+07 4.15199E+06 6.21241E+08 4.47109E+07-9.98488E+06
 -1       480-1.54132E+09 1.86341E+07 4.15199E+06 6.21241E+08 4.47109E+07-9.98488E+06
 -1       481-2.27842E+10-2.31239E+09-4.57884E+07 4.79495E+09-1.45632E+07 3.05753E+08
 -1       483-2.27842E+10-2.31239E+09-4.57884E+07 4.79495E+09-1.45632E+07 3.05753E+08
 -1       484-1.49946E+10-5.81892E+08 3.21637E+06 3.95094E+09 1.41931E+07-9.93342E+07
 -1       486-1.49946E+10-5.81892E+08 3.21637E+06 3.95094E+09 1.41931E+07-9.93342E+07
 -1       487-6.46132E+08 2.49199E+08 1.80739E+06 3.08148E+09 2.53768E+07 1.24340E+07
 -1       489-6.46132E+08 2.49199E+08 1.80739E+06 3.08148E+09 2.53768E+07 1.24340E+07
 -1       490 1.07074E+10-1.90488E+08 6.39546E+06 2.35103E+09 3.95854E+07-3.05318E+07
 -1       492 1.07074E+10-1.90488E+08 6.39546E+06 2.35103E+09 3.95854E+07-3.05318E+07
 -1       493 1.77747E+10 1.89507E+07 1.61859E+07 1.07977E+09 4.30127E+07 4.94366E+06
 -1       495 1.77747E+10 1.89507E+07 1.61859E+07 1.07977E+09 4.30127E+07 4.94366E+06
 -1       496 1.96375E+10-9.46549E+07 1.02447E+07-1.77320E+08 4.43207E+07 4.61318E+06
 -1       498 1.96375E+10-9.46549E+07 1.02447E+07-1.77320E+08 4.43207E+07 4.61318E+06
 -1       499 1.63674E+10-2.75785E+07 1.42182E+07-1.36485E+09 3.98492E+07 2.07701E+07
 -1       501 1.63674E+10-2.75785E+07 1.42182E+07-1.36485E+09 3.98492E+07 2.07701E+07
 -1       502 8.94879E+09-4.70494E+07 3.77020E+06-2.17078E+09 3.21145E+07 2.64032E+07
 -1       504 8.94879E+09-4.70494E+07 3.77020E+06-2.17078E+09 3.21145E+07 2.64032E+07
 -1       505-8.17975E+08-1.28894E+07 1.98936E+06-2.48633E+09 2.23889E+07 3.25068E+07
 -1       507-8.17975E+08-1.28894E+07 1.98936E+06-2.48633E+09 2.23889E+07 3.25068E+07
 -1       508-1.07011E+10-5.29458E+06-8.25026E+06-2.23134E+09 1.18922E+07 3.29523E+07
 -1       510-1.07011E+10-5.29458E+06-8.25026E+06-2.23134E+09 1.18922E+07 3.29523E+07
 -1       511-1.84779E+10 1.51337E+07-1.02156E+07-1.48229E+09 3.06050E+06 3.03577E+07
 -1       513-1.84779E+10 1.51337E+07-1.02156E+07-1.48229E+09 3.06050E+06 3.03577E+07
 -1       514-2.24075E+10 2.25897E+07-1.53662E+07-3.97348E+08-3.61228E+06 2.42323E+07
 -1       516-2.24075E+10 2.25897E+07-1.53662E+07-3.97348E+08-3.61228E+06 2.42323E+07
 -1       517-2.15897E+10 2.89260E+07-1.28455E+07 7.82731E+08-6.58654E+06 1.60545E+07
 -1       519-2.15897E+10 2.89260E+07-1.28455E+07 7.82731E+08-6.58654E+06 1.60545E+07
 -1       520-1.61569E+10 2.63800E+07-1.11671E+07 1.80457E+09-6.62171E+06 6.91700E+06
 -1       522-1.61569E+10 2.63800E+07-1.11671E+07 1.80457E+09-6.62171E+06 6.91700E+06
 -1       523-7.24060E+09 2.06943E+07-4.12165E+06 2.44535E+09-3.75490E+06-1.96322E+06
 -1       525-7.24060E+09 2.06943E+07-4.12165E+06 2.44535E+09-3.75490E+06-1.96322E+06
 -1       526 3.27052E+09 1.10267E+07 1.37189E+06 2.56619E+09 1.40244E+05-9.58724E+06
 -1       528 3.27052E+09 1.10267E+07 1.37189E+06 2.56619E+09 1.40244E+05-9.58724E+06
 -1       529 1.31368E+10 1.85852E+06 8.61232E+06 2.13848E+09 4.08758E+06-1.54338E+07
 -1       531 1.31368E+10 1.85852E+06 8.61232E+06 2.13848E+09 4.08758E+06-1.54338E+07
 -1       532 2.02463E+10-5.61667E+06 1.23420E+07 1.25160E+09 6.14027E+06-1.93260E+07
 -1       534 2.02463E+10-5.61667E+06 1.23420E+07 1.25160E+09 6.14027E+06-1.93260E+07
 -1       535 2.30670E+10-8.73479E+06 1.48192E+07 9.28102E+07 5.68942E+06-2.15734E+07
 -1       537 2.30670E+10-8.73479E+06 1.48192E+07 9.28102E+07 5.68942E+06-2.15734E+07
 -1       538 2.09734E+10-7.07183E+06 1.29806E+07-1.09275E+09 1.86664E+06-2.26845E+07
 -1       540 2.09734E+10-7.07183E+06 1.29806E+07-1.09275E+09 1.86664E+06-2.26845E+07
 -1       541 1.43790E+10-9.26563E+05 9.27450E+06-2.05466E+09-4.66025E+06-2.33089E+07
 -1       543 1.43790E+10-9.26563E+05 9.27450E+06-2.05466E+09-4.66025E+06-2.33089E+07
 -1       544 4.64400E+09 8.63824E+06 2.79586E+06-2.59184E+09-1.33761E+07-2.39416E+07
 -1       546 4.64400E+09 8.63824E+06 2.79586E+06-2.59184E+09-1.33761E+07-2.39416E+07
 -1       547-6.22148E+09 1.86276E+07-3.73130E+06-2.59532E+09-2.25484E+07-2.48945E+07
 -1       549-6.22148E+09 1.86276E+07-3.73130E+06-2.59532E+09-2.25484E+07-2.48945E+07
 -1       550-1.59956E+10 2.82272E+07-1.00558E+07-2.07366E+09-3.11104E+07-2.59825E+07
 -1       552-1.59956E+10 2.82272E+07-1.00558E+07-2.07366E+09-3.11104E+07-2.59825E+07
 -1       553-2.27366E+10 3.24275E+07-1.39129E+07-1.15222E+09-3.74493E+07-2.70583E+07
 -1       555-2.27366E+10 3.24275E+07-1.39129E+07-1.15222E+09-3.74493E+07-2.70583E+07
 -1       556-2.52168E+10 3.57908E+07-1.54741E+07-4.69445E+07-4.12810E+07-2.69129E+07
 -1       558-2.52168E+10 3.57908E+07-1.54741E+07-4.69445E+07-4.12810E+07-2.69129E+07
 -1       559-2.32247E+10 2.70524E+07-1.34229E+07 9.71917E+08-4.24518E+07-2.61627E+07
 -1       561-2.32247E+10 2.70524E+07-1.34229E+07 9.71917E+08-4.24518E+07-2.61627E+07
 -1       562-1.76560E+10 2.76046E+07-9.79314E+06 1.64369E+09-4.21338E+07-2.14832E+07
 -1       564-1.76560E+10 2.76046E+07-9.79314E+06 1.64369E+09-4.21338E+07-2.14832E+07
 -1       565-1.04028E+10 1.06699E+07-3.59795E+06 1.75957E+09-4.22613E+07-1.87102E+07
 -1       567-1.04028E+10 1.06699E+07-3.59795E+06 1.75957E+09-4.22613E+07-1.87102E+07
 -1       568-4.09514E+09-1.65734E+06 1.23038E+06 1.13849E+09-4.34391E+07-5.25628E+06
 -1       570-4.09514E+09-1.65734E+06 1.23038E+06 1.13849E+09-4.34391E+07-5.25628E+06
 -1       571-1.15026E+09-1.86609E+08 2.67694E+05 1.09168E+09-1.06687E+08 7.27434E+06
 -1       573-1.15026E+09-1.86609E+08 2.67694E+05 1.09168E+09-1.06687E+08 7.27434E+06
 -1       574-2.01145E-02 1.27453E-03 2.63453E-05 7.79456E+09 2.50935E+07 4.22439E-04
 -1       576-2.01145E-02 1.27453E-03 2.63453E-05 7.79456E+09 2.50935E+07 4.22439E-04
 -1       577-1.65076E-02-3.58950E-04-1.46094E-02 3.11517E+07 7.55189E+07-6.31705E-03
 -1       579-1.65076E-02-3.58950E-04-1.46094E-02 3.11517E+07 7.55189E+07-6.31705E-03
 -1       588-1.36771E-02 1.84363E-03-1.90735E-05 7.29703E+09-1.54892E+07 3.98339E-04
 -1       590-1.36771E-02 1.84363E-03-1.90735E-05 7.29703E+09-1.54892E+07 3.98339E-04
 -1       591-9.69894E-03-5.25579E-04-1.42019E-02-6.32963E+07 1.53592E+08-7.43395E-03
 -1       593-9.69894E-03-5.25579E-04-1.42019E-02-6.32963E+07 1.53592E+08-7.43395E-03
 -1       602 1.17683E-03 6.12140E-05-1.76132E-04 4.97293E+09-7.10364E+06 4.71443E-04
 -1       604 1.17683E-03 6.12140E-05-1.76132E-04 4.97293E+09-7.10364E+06 4.71443E-04
 -1       605 4.54696E-03-1.74954E-04 3.65172E-03 3.44252E+06 2.03635E+08-7.09494E-03
 -1       607 4.54696E-03-1.74954E-04 3.65172E-03 3.44252E+06 2.03635E+08-7.09494E-03
 -1       616 9.26924E-03 1.60336E-04-1.18077E-04 2.51240E+09-6.23384E+06 3.69599E-04
 -1       618 9.26924E-03 1.60336E-04-1.18077E-04 2.51240E+09-6.23384E+06 3.69599E-04
 -1       619 1.30439E-02 2.30561E-04 2.59607E-02-1.60419E+07 2.49798E+08-2.11707E-03
 -1       621 1.30439E-02 2.30561E-04 2.59607E-02-1.60419E+07 2.49798E+08-2.11707E-03
 -1       630 4.53997E-03 1.41239E-03-3.62396E-05-4.37092E+08-4.68394E+06 2.86407E-04
 -1       632 4.53997E-03 1.41239E-03-3.62396E-05-4.37092E+08-4.68394E+06 2.86407E-04
 -1       633 8.37171E-03 6.59447E-05 3.09391E-02 1.55883E+07 2.48407E+08 8.42201E-03
 -1       635 8.37171E-03 6.59447E-05 3.09391E-02 1.55883E+07 2.48407E+08 8.42201E-03
 -1       644-2.66433E-03 1.20258E-03-9.36985E-05-2.96256E+09-2.13122E+06 7.35591E-05
 -1       646-2.66433E-03 1.20258E-03-9.36985E-05-2.96256E+09-2.13122E+06 7.35591E-05
 -1       647 2.15160E-05-2.28409E-04 1.42939E-02 1.72400E+07 2.11455E+08 1.64449E-02
 -1       649 2.15160E-05-2.28409E-04 1.42939E-02 1.72400E+07 2.11455E+08 1.64449E-02
 -1       658-1.07288E-03-1.59627E-03-7.02590E-05-4.78872E+09-3.39254E+06 9.65376E-05
 -1       660-1.07288E-03-1.59627E-03-7.02590E-05-4.78872E+09-3.39254E+06 9.65376E-05
 -1       661-1.36701E-04-7.71537E-05-4.21998E-03 3.20574E+07 1.42275E+08 1.40562E-02
 -1       663-1.36701E-04-7.71537E-05-4.21998E-03 3.20574E+07 1.42275E+08 1.40562E-02
 -1       672 1.04321E-02-4.51016E-03-3.25292E-05-5.45764E+09-9.80141E+05-1.04523E-04
 -1       674 1.04321E-02-4.51016E-03-3.25292E-05-5.45764E+09-9.80141E+05-1.04523E-04
 -1       675 1.07830E-02 1.21543E-04 5.54976E-05 3.30449E+07 5.56404E+07 6.53579E-03
 -1       677 1.07830E-02 1.21543E-04 5.54976E-05 3.30449E+07 5.56404E+07 6.53579E-03
 -1       686 2.09701E-02-5.83887E-03-1.62244E-04-4.91274E+09 2.51101E+06-7.08979E-05
 -1       688 2.09701E-02-5.83887E-03-1.62244E-04-4.91274E+09 2.51101E+06-7.08979E-05
 -1       689 2.07259E-02 7.47963E-04 1.81382E-02 3.41881E+07-2.46813E+07 1.23743E-02
 -1       691 2.07259E-02 7.47963E-04 1.81382E-02 3.41881E+07-2.46813E+07 1.23743E-02
 -1       700 2.06106E-02-2.63888E-03-7.88569E-05-3.25642E+09 1.36276E+07 7.57314E-05
 -1       702 2.06106E-02-2.63888E-03-7.88569E-05-3.25642E+09 1.36276E+07 7.57314E-05
 -1       703 1.63561E-02 4.07869E-04 1.82658E-02 2.77266E+07-8.23461E+07 2.83534E-02
 -1       705 1.63561E-02 4.07869E-04 1.82658E-02 2.77266E+07-8.23461E+07 2.83534E-02
 -1       714 1.15459E-02 3.39079E-03 1.74403E-04-8.73805E+08 3.01654E+07-4.96702E-05
 -1       716 1.15459E-02 3.39079E-03 1.74403E-04-8.73805E+08 3.01654E+07-4.96702E-05
 -1       717 4.40507E-03-5.23567E-04-7.10196E-04 1.95608E+07-9.84112E+07 3.13762E-02
 -1       719 4.40507E-03-5.23567E-04-7.10196E-04 1.95608E+07-9.84112E+07 3.13762E-02
 -1       728 1.74952E-03 3.42476E-03 1.44958E-04 1.72560E+09 5.46466E+07-1.12264E-04
 -1       730 1.74952E-03 3.42476E-03 1.44958E-04 1.72560E+09 5.46466E+07-1.12264E-04
 -1       731-3.02325E-03-1.29845E-04-1.46624E-02 8.98156E+06-6.95355E+07 2.12769E-02
 -1       733-3.02325E-03-1.29845E-04-1.46624E-02 8.98156E+06-6.95355E+07 2.12769E-02
 -1       742-5.42045E-03-6.64055E-04-3.37362E-05 3.97276E+09 8.25903E+07-5.91096E-05
 -1       744-5.42045E-03-6.64055E-04-3.37362E-05 3.97276E+09 8.25903E+07-5.91096E-05
 -1       745-8.79891E-03 2.54374E-04-1.36290E-02-4.45443E+05 3.03198E+06 9.98155E-03
 -1       747-8.79891E-03 2.54374E-04-1.36290E-02-4.45443E+05 3.03198E+06 9.98155E-03
 -1       756-8.06576E-03 1.59770E-04-8.15019E-05 5.38342E+09 1.12031E+08-2.99665E-05
 -1       758-8.06576E-03 1.59770E-04-8.15019E-05 5.38342E+09 1.12031E+08-2.99665E-05
 -1       759-1.41827E-02 6.11853E-05-7.52915E-03-7.72384E+06 1.03053E+08 1.03610E-03
 -1       761-1.41827E-02 6.11853E-05-7.52915E-03-7.72384E+06 1.03053E+08 1.03610E-03
 -1       770-6.92189E-03 6.27223E-03 5.56484E-05 5.64850E+09 1.36481E+08 5.18065E-05
 -1       772-6.92189E-03 6.27223E-03 5.56484E-05 5.64850E+09 1.36481E+08 5.18065E-05
 -1       773-1.38648E-02 1.93561E-04-8.37723E-03-1.10935E+07 2.10985E+08-4.77076E-03
 -1       775-1.38648E-02 1.93561E-04-8.37723E-03-1.10935E+07 2.10985E+08-4.77076E-03
 -1       784-1.25709E-02 1.06577E-02 1.78814E-07 4.70684E+09 1.52087E+08 1.09568E-04
 -1       786-1.25709E-02 1.06577E-02 1.78814E-07 4.70684E+09 1.52087E+08 1.09568E-04
 -1       787-1.43893E-02 8.99411E-05-1.34440E-02-1.04969E+07 3.00905E+08-8.34845E-03
 -1       789-1.43893E-02 8.99411E-05-1.34440E-02-1.04969E+07 3.00905E+08-8.34845E-03
 -1       798-2.48985E-02 7.81810E-03-9.04799E-05 2.75423E+09 1.53390E+08 7.95843E-05
 -1       800-2.48985E-02 7.81810E-03-9.04799E-05 2.75423E+09 1.53390E+08 7.95843E-05
 -1       801-2.00228E-02-1.75768E-04-1.05613E-02-6.23314E+06 3.51780E+08-9.34698E-03
 -1       803-2.00228E-02-1.75768E-04-1.05613E-02-6.23314E+06 3.51780E+08-9.34698E-03
 -1       812-2.58148E-02-1.02282E-04-2.62260E-05 2.03180E+08 1.38710E+08 2.14381E-05
 -1       814-2.58148E-02-1.02282E-04-2.62260E-05 2.03180E+08 1.38710E+08 2.14381E-05
 -1       815-1.94301E-02-6.60263E-04-3.34502E-04 2.36871E+05 3.47006E+08-5.18516E-03
 -1       817-1.94301E-02-6.60263E-04-3.34502E-04 2.36871E+05 3.47006E+08-5.18516E-03
 -1       826-1.26555E-02-6.62482E-03 2.52724E-05-2.40674E+09 1.06839E+08 6.66268E-05
 -1       828-1.26555E-02-6.62482E-03 2.52724E-05-2.40674E+09 1.06839E+08 6.66268E-05
 -1       829-8.48845E-03-3.14471E-04 5.26417E-03 7.26193E+06 2.82377E+08 2.00382E-03
 -1       831-8.48845E-03-3.14471E-04 5.26417E-03 7.26193E+06 2.82377E+08 2.00382E-03
 -1       840 1.14322E-03-7.91955E-03 1.27554E-05-4.52492E+09 6.08565E+07 2.09801E-04
 -1       842 1.14322E-03-7.91955E-03 1.27554E-05-4.52492E+09 6.08565E+07 2.09801E-04
 -1       843 4.13977E-03 3.40279E-04 5.42663E-03 1.29634E+07 1.63286E+08 2.51720E-03
 -1       845 4.13977E-03 3.40279E-04 5.42663E-03 1.29634E+07 1.63286E+08 2.51720E-03
 -1       854 1.00501E-02-4.93418E-03-3.55095E-05-5.70784E+09 4.41873E+06 1.01969E-04
 -1       856 1.00501E-02-4.93418E-03-3.55095E-05-5.70784E+09 4.41873E+06 1.01969E-04
 -1       857 1.28426E-02 3.18873E-04 1.05830E-02 1.58102E+07 7.59574E+06-3.95185E-03
 -1       859 1.28426E-02 3.18873E-04 1.05830E-02 1.58102E+07 7.59574E+06-3.95185E-03
 -1       868 1.46918E-02-1.21509E-03 1.15782E-05-5.71740E+09-5.54542E+07 1.07378E-04
 -1       870 1.46918E-02-1.21509E-03 1.15782E-05-5.71740E+09-5.54542E+07 1.07378E-04
 -1       871 1.68197E-02-1.15023E-04 1.48352E-02 1.52782E+07-1.61517E+08-5.43527E-03
 -1       873 1.68197E-02-1.15023E-04 1.48352E-02 1.52782E+07-1.61517E+08-5.43527E-03
 -1       882 1.70484E-02 2.63774E-03-4.70877E-05-4.57073E+09-1.13026E+08 1.60288E-04
 -1       884 1.70484E-02 2.63774E-03-4.70877E-05-4.57073E+09-1.13026E+08 1.60288E-04
 -1       885 1.71798E-02-2.14972E-04 5.34064E-03 1.08247E+07-3.16198E+08-3.42824E-03
 -1       887 1.71798E-02-2.14972E-04 5.34064E-03 1.08247E+07-3.16198E+08-3.42824E-03
 -1       896 1.48008E-02 6.03199E-03-7.86781E-06-2.54569E+09-1.60878E+08-3.54517E-05
 -1       898 1.48008E-02 6.03199E-03-7.86781E-06-2.54569E+09-1.60878E+08-3.54517E-05
 -1       899 1.29539E-02 7.94896E-05-7.55968E-03 4.71405E+06-4.33543E+08-5.13233E-03
 -1       901 1.29539E-02 7.94896E-05-7.55968E-03 4.71405E+06-4.33543E+08-5.13233E-03
 -1       910 8.35156E-03 4.26817E-03-1.56641E-04-1.18123E+08-1.95495E+08 5.27510E-05
 -1       912 8.35156E-03 4.26817E-03-1.56641E-04-1.18123E+08-1.95495E+08 5.27510E-05
 -1       913 6.97953E-03 5.40779E-04-1.04616E-02-3.82231E+06-4.95732E+08-7.78311E-03
 -1       915 6.97953E-03 5.40779E-04-1.04616E-02-3.82231E+06-4.95732E+08-7.78311E-03
 -1       924 6.60753E-03-1.31667E-03-2.75970E-04 2.11836E+09-2.12537E+08 2.74628E-05
 -1       926 6.60753E-03-1.31667E-03-2.75970E-04 2.11836E+09-2.12537E+08 2.74628E-05
 -1       927 5.83264E-03 5.74190E-04-8.62047E-03-8.60463E+06-4.97630E+08-9.41556E-03
 -1       929 5.83264E-03 5.74190E-04-8.62047E-03-8.60463E+06-4.97630E+08-9.41556E-03
 -1       938 1.10459E-02-1.40172E-03-1.01268E-04 3.59181E+09-2.13553E+08 1.00531E-04
 -1       940 1.10459E-02-1.40172E-03-1.01268E-04 3.59181E+09-2.13553E+08 1.00531E-04
 -1       941 7.78608E-03 7.80163E-05-7.95346E-03-1.45590E+07-4.44997E+08-8.16993E-03
 -1       943 7.78608E-03 7.80163E-05-7.95346E-03-1.45590E+07-4.44997E+08-8.16993E-03
 -1       952 1.61530E-02 4.89083E-03 4.36008E-05 3.79670E+09-1.99051E+08 8.82710E-05
 -1       954 1.61530E-02 4.89083E-03 4.36008E-05 3.79670E+09-1.99051E+08 8.82710E-05
 -1       955 1.03319E-02-1.02107E-05-2.82752E-03-9.42834E+06-3.54106E+08-7.04073E-03
 -1       957 1.03319E-02-1.02107E-05-2.82752E-03-9.42834E+06-3.54106E+08-7.04073E-03
 -1       966 1.34130E-02 5.58972E-03 1.38789E-04 2.54014E+09-1.77195E+08-3.88462E-05
 -1       968 1.34130E-02 5.58972E-03 1.38789E-04 2.54014E+09-1.77195E+08-3.88462E-05
 -1       969 1.01458E-02-1.26084E-04 8.70737E-03-8.86256E+06-2.60389E+08-7.04810E-03
 -1       971 1.01458E-02-1.26084E-04 8.70737E-03-8.86256E+06-2.60389E+08-7.04810E-03
 -1       980-1.45287E+10-1.34851E+09-3.25235E+05 5.79666E+09 3.94481E+07-1.82148E+08
 -1       982-1.45287E+10-1.34851E+09-3.25235E+05 5.79666E+09 3.94481E+07-1.82148E+08
 -1       983 1.15026E+09 1.86609E+08-2.67694E+05 1.09168E+09-1.06687E+08-7.27434E+06
 -1       985 1.15026E+09 1.86609E+08-2.67694E+05 1.09168E+09-1.06687E+08-7.27434E+06
 -1       986 1.49946E+10 5.81892E+08-3.21637E+06 3.95094E+09 1.41931E+07 9.93342E+07
 -1       988 1.49946E+10 5.81892E+08-3.21637E+06 3.95094E+09 1.41931E+07 9.93342E+07
 -1       989 6.46132E+08-2.49199E+08-1.80739E+06 3.08148E+09 2.53768E+07-1.24340E+07
 -1       991 6.46132E+08-2.49199E+08-1.80739E+06 3.08148E+09 2.53768E+07-1.24340E+07
 -1       992-1.07074E+10 1.90488E+08-6.39546E+06 2.35103E+09 3.95854E+07 3.05318E+07
 -1       994-1.07074E+10 1.90488E+08-6.39546E+06 2.35103E+09 3.95854E+07 3.05318E+07
 -1       995-1.77747E+10-1.89507E+07-1.61859E+07 1.07977E+09 4.30127E+07-4.94366E+06
 -1       997-1.77747E+10-1.89507E+07-1.61859E+07 1.07977E+09 4.30127E+07-4.94366E+06
 -1       998-1.96375E+10 9.46549E+07-1.02447E+07-1.77320E+08 4.43207E+07-4.61318E+06
 -1      1000-1.96375E+10 9.46549E+07-1.02447E+07-1.77320E+08 4.43207E+07-4.61318E+06
 -1      1001-1.63674E+10 2.75785E+07-1.42182E+07-1.36485E+09 3.98492E+07-2.07701E+07
 -1      1003-1.63674E+10 2.75785E+07-1.42182E+07-1.36485E+09 3.98492E+07-2.07701E+07
 -1      1004-8.94879E+09 4.70494E+07-3.77020E+06-2.17078E+09 3.21145E+07-2.64032E+07
 -1      1006-8.94879E+09 4.70494E+07-3.77020E+06-2.17078E+09 3.21145E+07-2.64032E+07
 -1      1007 8.17975E+08 1.28894E+07-1.98936E+06-2.48633E+09 2.23889E+07-3.25068E+07
 -1      1009 8.17975E+08 1.28894E+07-1.98936E+06-2.48633E+09 2.23889E+07-3.25068E+07
 -1      1010 1.07011E+10 5.29458E+06 8.25026E+06-2.23134E+09 1.18922E+07-3.29523E+07
 -1      1012 1.07011E+10 5.29458E+06 8.25026E+06-2.23134E+09 1.18922E+07-3.29523E+07
 -1      1013 1.84779E+10-1.51337E+07 1.02156E+07-1.48229E+09 3.06050E+06-3.03577E+07
 -1      1015 1.84779E+10-1.51337E+07 1.02156E+07-1.48229E+09 3.06050E+06-3.03577E+07
 -1      1016 2.24075E+10-2.25897E+07 1.53662E+07-3.97348E+08-3.61228E+06-2.42323E+07
 -1      1018 2.24075E+10-2.25897E+07 1.53662E+07-3.97348E+08-3.61228E+06-2.42323E+07
 -1      1019 2.15897E+10-2.89260E+07 1.28455E+07 7.82731E+08-6.58654E+06-1.60545E+07
 -1      1021 2.15897E+10-2.89260E+07 1.28455E+07 7.82731E+08-6.58654E+06-1.60545E+07
 -1      1022 1.61569E+10-2.63800E+07 1.11671E+07 1.80457E+09-6.62171E+06-6.91700E+06
 -1      1024 1.61569E+10-2.63800E+07 1.11671E+07 1.80457E+09-6.62171E+06-6.91700E+06
 -1      1025 7.24060E+09-2.06943E+07 4.12165E+06 2.44535E+09-3.75490E+06 1.96322E+06
 -1      1027 7.24060E+09-2.06943E+07 4.12165E+06 2.44535E+09-3.75490E+06 1.96322E+06
 -1      1028-3.27052E+09-1.10267E+07-1.37189E+06 2.56619E+09 1.40244E+05 9.58724E+06
 -1      1030-3.27052E+09-1.10267E+07-1.37189E+06 2.56619E+09 1.40244E+05 9.58724E+06
 -1      1031-1.31368E+10-1.85852E+06-8.61232E+06 2.13848E+09 4.08758E+06 1.54338E+07
 -1      1033-1.31368E+10-1.85852E+06-8.61232E+06 2.13848E+09 4.08758E+06 1.54338E+07
 -1      1034-2.02463E+10 5.61667E+06-1.23420E+07 1.25160E+09 6.14027E+06 1.93260E+07
 -1      1036-2.02463E+10 5.61667E+06-1.23420E+07 1.25160E+09 6.14027E+06 1.93260E+07
 -1      1037-2.30670E+10 8.73479E+06-1.48192E+07 9.28102E+07 5.68942E+06 2.15734E+07
 -1      1039-2.30670E+10 8.73479E+06-1.48192E+07 9.28102E+07 5.68942E+06 2.15734E+07
 -1      1040-2.09734E+10 7.07183E+06-1.29806E+07-1.09275E+09 1.86664E+06 2.26845E+07
 -1      1042-2.09734E+10 7.07183E+06-1.29806E+07-1.09275E+09 1.86664E+06 2.26845E+07
 -1      1043-1.43790E+10 9.26563E+05-9.27450E+06-2.05466E+09-4.66025E+06 2.33089E+07
 -1      1045-1.43790E+10 9.26563E+05-9.27450E+06-2.05466E+09-4.66025E+06 2.33089E+07
 -1      1046-4.64400E+09-8.63824E+06-2.79586E+06-2.59184E+09-1.33761E+07 2.39416E+07
 -1      1048-4.64400E+09-8.63824E+06-2.79586E+06-2.59184E+09-1.33761E+07 2.39416E+07
 -1      1049 6.22148E+09-1.86276E+07 3.73130E+06-2.59532E+09-2.25484E+07 2.48945E+07
 -1      1051 6.22148E+09-1.86276E+07 3.73130E+06-2.59532E+09-2.25484E+07 2.48945E+07
 -1      1052 1.59956E+10-2.82272E+07 1.00558E+07-2.07366E+09-3.11104E+07 2.59825E+07
 -1      1054 1.59956E+10-2.82272E+07 1.00558E+07-2.07366E+09-3.11104E+07 2.59825E+07
 -1      1055 2.27366E+10-3.24275E+07 1.39129E+07-1.15222E+09-3.74493E+07 2.70583E+07
 -1      1057 2.27366E+10-3.24275E+07 1.39129E+07-1.15222E+09-3.74493E+07 2.70583E+07
 -1      1058 2.52168E+10-3.57908E+07 1.54741E+07-4.69445E+07-4.12810E+07 2.69129E+07
 -1      1060 2.52168E+10-3.57908E+07 1.54741E+07-4.69445E+07-4.12810E+07 2.69129E+07
 -1      1061 2.32247E+10-2.70524E+07 1.34229E+07 9.71917E+08-4.24518E+07 2.61627E+07
 -1      1063 2.32247E+10-2.70524E+07 1.34229E+07 9.71917E+08-4.24518E+07 2.61627E+07
 -1      1064 1.76560E+10-2.76046E+07 9.79314E+06 1.64369E+09-4.21338E+07 2.14832E+07
 -1      1066 1.76560E+10-2.76046E+07 9.79314E+06 1.64369E+09-4.21338E+07 2.14832E+07
 -1      1067 1.04028E+10-1.06699E+07 3.59795E+06 1.75957E+09-4.22613E+07 1.87102E+07
 -1      1069 1.04028E+10-1.06699E+07 3.59795E+06 1.75957E+09-4.22613E+07 1.87102E+07
 -1      1070 4.09514E+09 1.65734E+06-1.23038E+06 1.13849E+09-4.34391E+07 5.25628E+06
 -1      1072 4.09514E+09 1.65734E+06-1.23038E+06 1.13849E+09-4.34391E+07 5.25628E+06
 -1      1073 1.45287E+10 1.34851E+09 3.25235E+05 5.79666E+09 3.94481E+07 1.82148E+08
 -1      1075 1.45287E+10 1.34851E+09 3.25235E+05 5.79666E+09 3.94481E+07 1.82148E+08
 -1      1076-1.24765E-02-6.57652E-06-1.07047E-02 6.41848E+08-1.35039E+07-8.00383E-03
 -1      1078-1.24765E-02-6.57652E-06-1.07047E-02 6.41848E+08-1.35039E+07-8.00383E-03
 -1      1079 3.23878E-04-3.37583E-05-8.13025E-03 1.02277E+09 7.56606E-05-1.28414E-02
 -1      1081 3.23878E-04-3.37583E-05-8.13025E-03 1.02277E+09 7.56606E-05-1.28414E-02
 -1      1082 1.59597E-02 6.19121E-06-2.37764E-03 6.41848E+08 1.35039E+07-1.90422E-02
 -1      1084 1.59597E-02 6.19121E-06-2.37764E-03 6.41848E+08 1.35039E+07-1.90422E-02
 -1      1085 1.55476E-02-3.42531E-04-2.66174E-03 3.11517E+07-7.55189E+07-1.80784E-02
 -1      1087 1.55476E-02-3.42531E-04-2.66174E-03 3.11517E+07-7.55189E+07-1.80784E-02
 -1      1088 1.48140E-02-4.27961E-05 5.96642E-05 7.79456E+09-2.50935E+07-4.87873E-04
 -1      1090 1.48140E-02-4.27961E-05 5.96642E-05 7.79456E+09-2.50935E+07-4.87873E-04
 -1      1099 3.58108E-03-2.97826E-04-1.93150E-03-6.32963E+07-1.53592E+08-7.07518E-03
 -1      1101 3.58108E-03-2.97826E-04-1.93150E-03-6.32963E+07-1.53592E+08-7.07518E-03
 -1      1102 5.78606E-03-2.39772E-03 1.23054E-04 7.29703E+09 1.54892E+07 1.97347E-04
 -1      1104 5.78606E-03-2.39772E-03 1.23054E-04 7.29703E+09 1.54892E+07 1.97347E-04
 -1      1113 1.21470E-03 2.59816E-04 5.09145E-03 3.44252E+06-2.03635E+08-1.15301E-03
 -1      1115 1.21470E-03 2.59816E-04 5.09145E-03 3.44252E+06-2.03635E+08-1.15301E-03
 -1      1116 5.30887E-03 1.36346E-03 2.28584E-05 4.97293E+09 7.10364E+06-3.44816E-04
 -1      1118 5.30887E-03 1.36346E-03 2.28584E-05 4.97293E+09 7.10364E+06-3.44816E-04
 -1      1127 4.10497E-03-1.90610E-04 1.20462E-02-1.60419E+07-2.49798E+08 4.25460E-04
 -1      1129 4.10497E-03-1.90610E-04 1.20462E-02-1.60419E+07-2.49798E+08 4.25460E-04
 -1      1130 5.12099E-03 3.20607E-03 1.06812E-04 2.51240E+09 6.23384E+06-1.67189E-04
 -1      1132 5.12099E-03 3.20607E-03 1.06812E-04 2.51240E+09 6.23384E+06-1.67189E-04
 -1      1141 5.86515E-03-9.58946E-04 2.35789E-02 1.55883E+07-2.48407E+08 4.09832E-03
 -1      1143 5.86515E-03-9.58946E-04 2.35789E-02 1.55883E+07-2.48407E+08 4.09832E-03
 -1      1144 1.52111E-03-1.12653E-03 1.63794E-04-4.37092E+08 4.68394E+06-2.99455E-04
 -1      1146 1.52111E-03-1.12653E-03 1.63794E-04-4.37092E+08 4.68394E+06-2.99455E-04
 -1      1155 4.03825E-03-7.15063E-04 3.16589E-02 1.72400E+07-2.11455E+08 1.18038E-03
 -1      1157 4.03825E-03-7.15063E-04 3.16589E-02 1.72400E+07-2.11455E+08 1.18038E-03
 -1      1158-6.86741E-03-3.85165E-03-7.50422E-05-2.96256E+09 2.13122E+06-4.88292E-05
 -1      1160-6.86741E-03-3.85165E-03-7.50422E-05-2.96256E+09 2.13122E+06-4.88292E-05
 -1      1169-4.80418E-03 1.42135E-04 1.97525E-02 3.20574E+07-1.42275E+08-7.62682E-03
 -1      1171-4.80418E-03 1.42135E-04 1.97525E-02 3.20574E+07-1.42275E+08-7.62682E-03
 -1      1172-1.98876E-02-1.23271E-03-1.47745E-04-4.78872E+09 3.39254E+06-3.14552E-04
 -1      1174-1.98876E-02-1.23271E-03-1.47745E-04-4.78872E+09 3.39254E+06-3.14552E-04
 -1      1183-1.26850E-02 2.30561E-04-1.27277E-04 3.30449E+07-5.56404E+07-1.92957E-03
 -1      1185-1.26850E-02 2.30561E-04-1.27277E-04 3.30449E+07-5.56404E+07-1.92957E-03
 -1      1186-2.41734E-02 3.11524E-04-3.56585E-05-5.45764E+09 9.80141E+05-1.77943E-04
 -1      1188-2.41734E-02 3.11524E-04-3.56585E-05-5.45764E+09 9.80141E+05-1.77943E-04
 -1      1197-9.26396E-03 7.38567E-05 7.28286E-04 3.41881E+07 2.46813E+07 1.43293E-02
 -1      1199-9.26396E-03 7.38567E-05 7.28286E-04 3.41881E+07 2.46813E+07 1.43293E-02
 -1      1200-1.56701E-02-8.90672E-04 7.73966E-05-4.91274E+09-2.51101E+06 1.20497E-04
 -1      1202-1.56701E-02-8.90672E-04 7.73966E-05-4.91274E+09-2.51101E+06 1.20497E-04
 -1      1211-5.68597E-03 5.17691E-04 1.39397E-02 2.77266E+07 8.23461E+07 1.82348E-02
 -1      1213-5.68597E-03 5.17691E-04 1.39397E-02 2.77266E+07 8.23461E+07 1.82348E-02
 -1      1214-1.05152E-02-3.12179E-03-9.45926E-05-3.25642E+09-1.36276E+07 8.61688E-05
 -1      1216-1.05152E-02-3.12179E-03-9.45926E-05-3.25642E+09-1.36276E+07 8.61688E-05
 -1      1225-1.00855E-02 7.24954E-04 1.31238E-02 1.95608E+07 9.84112E+07 1.23342E-02
 -1      1227-1.00855E-02 7.24954E-04 1.31238E-02 1.95608E+07 9.84112E+07 1.23342E-02
 -1      1228-1.19817E-02-4.45700E-03-1.94311E-04-8.73805E+08-3.01654E+07 7.03363E-05
 -1      1230-1.19817E-02-4.45700E-03-1.94311E-04-8.73805E+08-3.01654E+07 7.03363E-05
 -1      1239-8.71711E-03 8.21119E-04-5.14028E-04 8.98156E+06 6.95355E+07 9.24766E-03
 -1      1241-8.71711E-03 8.21119E-04-5.14028E-04 8.98156E+06 6.95355E+07 9.24766E-03
 -1      1242-5.65958E-03-2.87342E-03-7.15256E-05 1.72560E+09-5.46466E+07 1.13595E-04
 -1      1244-5.65958E-03-2.87342E-03-7.15256E-05 1.72560E+09-5.46466E+07 1.13595E-04
 -1      1253 1.52634E-03 3.65719E-04-1.35966E-02-4.45443E+05-3.03198E+06 1.12067E-02
 -1      1255 1.52634E-03 3.65719E-04-1.35966E-02-4.45443E+05-3.03198E+06 1.12067E-02
 -1      1256 7.96056E-03-2.56175E-03-2.40207E-05 3.97276E+09-8.25903E+07-3.95468E-05
 -1      1258 7.96056E-03-2.56175E-03-2.40207E-05 3.97276E+09-8.25903E+07-3.95468E-05
 -1      1267 1.05847E-02-2.59325E-04-1.58643E-02-7.72384E+06-1.03053E+08 1.13755E-02
 -1      1269 1.05847E-02-2.59325E-04-1.58643E-02-7.72384E+06-1.03053E+08 1.13755E-02
 -1      1270 1.61101E-02-5.72880E-03-1.02982E-04 5.38342E+09-1.12031E+08 1.29594E-06
 -1      1272 1.61101E-02-5.72880E-03-1.02982E-04 5.38342E+09-1.12031E+08 1.29594E-06
 -1      1281 1.26956E-02 1.06847E-05-1.14020E-02-1.10935E+07-2.10985E+08 3.06721E-03
 -1      1283 1.26956E-02 1.06847E-05-1.14020E-02-1.10935E+07-2.10985E+08 3.06721E-03
 -1      1284 1.57356E-02-4.88283E-03-1.91674E-04 5.64850E+09-1.36481E+08-1.39797E-04
 -1      1286 1.57356E-02-4.88283E-03-1.91674E-04 5.64850E+09-1.36481E+08-1.39797E-04
 -1      1295 8.47938E-03 2.57763E-04-1.11951E-02-1.04969E+07-3.00905E+08-2.46092E-03
 -1      1297 8.47938E-03 2.57763E-04-1.11951E-02-1.04969E+07-3.00905E+08-2.46092E-03
 -1      1298 1.09797E-02 2.35200E-04-4.64916E-06 4.70684E+09-1.52087E+08-2.87090E-04
 -1      1300 1.09797E-02 2.35200E-04-4.64916E-06 4.70684E+09-1.52087E+08-2.87090E-04
 -1      1309 2.65568E-03 3.05127E-05-6.43975E-03-6.23314E+06-3.51780E+08 3.84264E-03
 -1      1311 2.65568E-03 3.05127E-05-6.43975E-03-6.23314E+06-3.51780E+08 3.84264E-03
 -1      1312 3.73554E-03 1.51062E-03 9.51886E-05 2.75423E+09-1.53390E+08-1.03052E-04
 -1      1314 3.73554E-03 1.51062E-03 9.51886E-05 2.75423E+09-1.53390E+08-1.03052E-04
 -1      1323-4.12558E-03 2.12694E-04 7.63232E-03 2.36871E+05-3.47006E+08 8.81583E-03
 -1      1325-4.12558E-03 2.12694E-04 7.63232E-03 2.36871E+05-3.47006E+08 8.81583E-03
 -1      1326-4.29821E-03 2.59316E-03 5.12600E-05 2.03180E+08-1.38710E+08-1.31283E-04
 -1      1328-4.29821E-03 2.59316E-03 5.12600E-05 2.03180E+08-1.38710E+08-1.31283E-04
 -1      1337-7.46160E-03-5.56498E-05 1.80786E-02 7.26193E+06-2.82377E+08 6.78573E-03
 -1      1339-7.46160E-03-5.56498E-05 1.80786E-02 7.26193E+06-2.82377E+08 6.78573E-03
 -1      1340-6.42490E-03 8.60894E-03-1.51277E-04-2.40674E+09-1.06839E+08-2.90906E-04
 -1      1342-6.42490E-03 8.60894E-03-1.51277E-04-2.40674E+09-1.06839E+08-2.90906E-04
 -1      1351-2.35558E-03-1.73121E-04 2.48212E-02 1.29634E+07-1.63286E+08 3.21082E-03
 -1      1353-2.35558E-03-1.73121E-04 2.48212E-02 1.29634E+07-1.63286E+08 3.21082E-03
 -1      1354-1.59717E-03 1.02075E-02-2.01464E-05-4.52492E+09-6.08565E+07-1.99836E-04
 -1      1356-1.59717E-03 1.02075E-02-2.01464E-05-4.52492E+09-6.08565E+07-1.99836E-04
 -1      1365 4.18560E-03 1.80837E-04 2.96406E-02 1.58102E+07-7.59574E+06-4.61407E-03
 -1      1367 4.18560E-03 1.80837E-04 2.96406E-02 1.58102E+07-7.59574E+06-4.61407E-03
 -1      1368 2.38451E-03 4.41184E-03-1.03343E-04-5.70784E+09-4.41873E+06-2.11727E-05
 -1      1370 2.38451E-03 4.41184E-03-1.03343E-04-5.70784E+09-4.41873E+06-2.11727E-05
 -1      1379 8.51354E-03-2.06631E-04 1.89307E-02 1.52782E+07 1.61517E+08-1.47011E-02
 -1      1381 8.51354E-03-2.06631E-04 1.89307E-02 1.52782E+07 1.61517E+08-1.47011E-02
 -1      1382 5.80132E-03 3.38396E-03-2.97911E-05-5.71740E+09 5.54542E+07-2.13869E-05
 -1      1384 5.80132E-03 3.38396E-03-2.97911E-05-5.71740E+09 5.54542E+07-2.13869E-05
 -1      1393 1.37915E-02-4.49883E-04-1.92407E-03 1.08247E+07 3.16198E+08-1.40336E-02
 -1      1395 1.37915E-02-4.49883E-04-1.92407E-03 1.08247E+07 3.16198E+08-1.40336E-02
 -1      1396 1.13981E-02 5.25737E-03 1.80960E-04-4.57073E+09 1.13026E+08 3.84245E-05
 -1      1398 1.13981E-02 5.25737E-03 1.80960E-04-4.57073E+09 1.13026E+08 3.84245E-05
 -1      1407 1.67738E-02-2.65370E-04-5.53471E-03 4.71405E+06 4.33543E+08-2.91557E-03
 -1      1409 1.67738E-02-2.65370E-04-5.53471E-03 4.71405E+06 4.33543E+08-2.91557E-03
 -1      1410 1.39041E-02 1.21808E-03 1.03831E-04-2.54569E+09 1.60878E+08 1.32510E-04
 -1      1412 1.39041E-02 1.21808E-03 1.03831E-04-2.54569E+09 1.60878E+08 1.32510E-04
 -1      1421 1.38508E-02-1.52676E-04 8.64413E-03-3.82231E+06 4.95732E+08-6.20505E-04
 -1      1423 1.38508E-02-1.52676E-04 8.64413E-03-3.82231E+06 4.95732E+08-6.20505E-04
 -1      1424 1.01218E-02-3.02839E-03-1.17660E-04-1.18123E+08 1.95495E+08 9.10647E-06
 -1      1426 1.01218E-02-3.02839E-03-1.17660E-04-1.18123E+08 1.95495E+08 9.10647E-06
 -1      1435 6.80775E-03-4.71390E-05 1.44069E-02-8.60463E+06 4.97630E+08-1.02191E-02
 -1      1437 6.80775E-03-4.71390E-05 1.44069E-02-8.60463E+06 4.97630E+08-1.02191E-02
 -1      1438 2.87533E-03-3.16703E-03-2.55108E-04 2.11836E+09 2.12537E+08-1.48448E-04
 -1      1440 2.87533E-03-3.16703E-03-2.55108E-04 2.11836E+09 2.12537E+08-1.48448E-04
 -1      1449-1.27518E-03-3.02818E-05 6.03147E-03-1.45590E+07 4.44997E+08-1.14983E-02
 -1      1451-1.27518E-03-3.02818E-05 6.03147E-03-1.45590E+07 4.44997E+08-1.14983E-02
 -1      1452-4.16780E-03-2.32297E-03-1.79827E-04 3.59181E+09 2.13553E+08-1.21897E-04
 -1      1454-4.16780E-03-2.32297E-03-1.79827E-04 3.59181E+09 2.13553E+08-1.21897E-04
 -1      1463-4.28263E-03 2.58411E-04 2.30738E-03-9.42834E+06 3.54106E+08-1.36063E-03
 -1      1465-4.28263E-03 2.58411E-04 2.30738E-03-9.42834E+06 3.54106E+08-1.36063E-03
 -1      1466-7.96580E-03-8.56370E-04-9.53674E-05 3.79670E+09 1.99051E+08 4.18234E-05
 -1      1468-7.96580E-03-8.56370E-04-9.53674E-05 3.79670E+09 1.99051E+08 4.18234E-05
 -1      1477-8.76245E-04 5.06313E-04 9.71379E-03-8.86256E+06 2.60389E+08 4.08198E-03
 -1      1479-8.76245E-04 5.06313E-04 9.71379E-03-8.86256E+06 2.60389E+08 4.08198E-03
 -1      1480-6.88100E-03-3.12665E-03 2.40952E-05 2.54014E+09 1.77195E+08-6.97072E-06
 -1      1482-6.88100E-03-3.12665E-03 2.40952E-05 2.54014E+09 1.77195E+08-6.97072E-06
 -1      1491 5.68824E-03 3.80790E-04 1.11242E-02-2.39142E+07-2.05483E+08-3.97618E-03
 -1      1493 5.68824E-03 3.80790E-04 1.11242E-02-2.39142E+07-2.05483E+08-3.97618E-03
 -1      1494 2.48547E-03 6.92943E-04 6.50788E-03-2.74525E+07 7.03916E-04-3.07242E-03
 -1      1496 2.48547E-03 6.92943E-04 6.50788E-03-2.74525E+07 7.03916E-04-3.07242E-03
 -1      1497 1.77894E-03 4.38350E-04 1.05624E-02-2.39142E+07 2.05483E+08-3.51279E-04
 -1      1499 1.77894E-03 4.38350E-04 1.05624E-02-2.39142E+07 2.05483E+08-3.51279E-04
 -1      1500 1.49946E+10 5.81892E+08-3.21637E+06 3.95094E+09-1.41931E+07-9.93342E+07
 -1      1502 1.49946E+10 5.81892E+08-3.21637E+06 3.95094E+09-1.41931E+07-9.93342E+07
 -1      1503 6.46132E+08-2.49199E+08-1.80739E+06 3.08148E+09-2.53768E+07 1.24340E+07
 -1      1505 6.46132E+08-2.49199E+08-1.80739E+06 3.08148E+09-2.53768E+07 1.24340E+07
 -1      1506-1.07074E+10 1.90488E+08-6.39546E+06 2.35103E+09-3.95854E+07-3.05318E+07
 -1      1508-1.07074E+10 1.90488E+08-6.39546E+06 2.35103E+09-3.95854E+07-3.05318E+07
 -1      1509-1.77747E+10-1.89507E+07-1.61859E+07 1.07977E+09-4.30127E+07 4.94366E+06
 -1      1511-1.77747E+10-1.89507E+07-1.61859E+07 1.07977E+09-4.30127E+07 4.94366E+06
 -1      1512-1.96375E+10 9.46549E+07-1.02447E+07-1.77320E+08-4.43207E+07 4.61318E+06
 -1      1514-1.96375E+10 9.46549E+07-1.02447E+07-1.77320E+08-4.43207E+07 4.61318E+06
 -1      1515-1.63674E+10 2.75785E+07-1.42182E+07-1.36485E+09-3.98492E+07 2.07701E+07
 -1      1517-1.63674E+10 2.75785E+07-1.42182E+07-1.36485E+09-3.98492E+07 2.07701E+07
 -1      1518-8.94879E+09 4.70494E+07-3.77020E+06-2.17078E+09-3.21145E+07 2.64032E+07
 -1      1520-8.94879E+09 4.70494E+07-3.77020E+06-2.17078E+09-3.21145E+07 2.64032E+07
 -1      1521 8.17975E+08 1.28894E+07-1.98936E+06-2.48633E+09-2.23889E+07 3.25068E+07
 -1      1523 8.17975E+08 1.28894E+07-1.98936E+06-2.48633E+09-2.23889E+07 3.25068E+07
 -1      1524 1.07011E+10 5.29458E+06 8.25026E+06-2.23134E+09-1.18922E+07 3.29523E+07
 -1      1526 1.07011E+10 5.29458E+06 8.25026E+06-2.23134E+09-1.18922E+07 3.29523E+07
 -1      1527 1.84779E+10-1.51337E+07 1.02156E+07-1.48229E+09-3.06050E+06 3.03577E+07
 -1      1529 1.84779E+10-1.51337E+07 1.02156E+07-1.48229E+09-3.06050E+06 3.03577E+07
 -1      1530 2.24075E+10-2.25897E+07 1.53662E+07-3.97348E+08 3.61228E+06 2.42323E+07
 -1      1532 2.24075E+10-2.25897E+07 1.53662E+07-3.97348E+08 3.61228E+06 2.42323E+07
 -1      1533 2.15897E+10-2.89260E+07 1.28455E+07 7.82731E+08 6.58654E+06 1.60545E+07
 -1      1535 2.15897E+10-2.89260E+07 1.28455E+07 7.82731E+08 6.58654E+06 1.60545E+07
 -1      1536 1.61569E+10-2.63800E+07 1.11671E+07 1.80457E+09 6.62171E+06 6.91700E+06
 -1      1538 1.61569E+10-2.63800E+07 1.11671E+07 1.80457E+09 6.62171E+06 6.91700E+06
 -1      1539 7.24060E+09-2.06943E+07 4.12165E+06 2.44535E+09 3.75490E+06-1.96322E+06
 -1      1541 7.24060E+09-2.06943E+07 4.12165E+06 2.44535E+09 3.75490E+06-1.96322E+06
 -1      1542-3.27052E+09-1.10267E+07-1.37189E+06 2.56619E+09-1.40244E+05-9.58724E+06
 -1      1544-3.27052E+09-1.10267E+07-1.37189E+06 2.56619E+09-1.40244E+05-9.58724E+06
 -1      1545-1.31368E+10-1.85852E+06-8.61232E+06 2.13848E+09-4.08758E+06-1.54338E+07
 -1      1547-1.31368E+10-1.85852E+06-8.61232E+06 2.13848E+09-4.08758E+06-1.54338E+07
 -1      1548-2.02463E+10 5.61667E+06-1.23420E+07 1.25160E+09-6.14027E+06-1.93260E+07
 -1      1550-2.02463E+10 5.61667E+06-1.23420E+07 1.25160E+09-6.14027E+06-1.93260E+07
 -1      1551-2.30670E+10 8.73479E+06-1.48192E+07 9.28102E+07-5.68942E+06-2.15734E+07
 -1      1553-2.30670E+10 8.73479E+06-1.48192E+07 9.28102E+07-5.68942E+06-2.15734E+07
 -1      1554-2.09734E+10 7.07183E+06-1.29806E+07-1.09275E+09-1.86664E+06-2.26845E+07
 -1      1556-2.09734E+10 7.07183E+06-1.29806E+07-1.09275E+09-1.86664E+06-2.26845E+07
 -1      1557-1.43790E+10 9.26563E+05-9.27450E+06-2.05466E+09 4.66025E+06-2.33089E+07
 -1      1559-1.43790E+10 9.26563E+05-9.27450E+06-2.05466E+09 4.66025E+06-2.33089E+07
 -1      1560-4.64400E+09-8.63824E+06-2.79586E+06-2.59184E+09 1.33761E+07-2.39416E+07
 -1      1562-4.64400E+09-8.63824E+06-2.79586E+06-2.59184E+09 1.33761E+07-2.39416E+07
 -1      1563 6.22148E+09-1.86276E+07 3.73130E+06-2.59532E+09 2.25484E+07-2.48945E+07
 -1      1565 6.22148E+09-1.86276E+07 3.73130E+06-2.59532E+09 2.25484E+07-2.48945E+07
 -1      1566 1.59956E+10-2.82272E+07 1.00558E+07-2.07366E+09 3.11104E+07-2.59825E+07
 -1      1568 1.59956E+10-2.82272E+07 1.00558E+07-2.07366E+09 3.11104E+07-2.59825E+07
 -1      1569 2.27366E+10-3.24275E+07 1.39129E+07-1.15222E+09 3.74493E+07-2.70583E+07
 -1      1571 2.27366E+10-3.24275E+07 1.39129E+07-1.15222E+09 3.74493E+07-2.70583E+07
 -1      1572 2.52168E+10-3.57908E+07 1.54741E+07-4.69445E+07 4.12810E+07-2.69129E+07
 -1      1574 2.52168E+10-3.57908E+07 1.54741E+07-4.69445E+07 4.12810E+07-2.69129E+07
 -1      1575 2.32247E+10-2.70524E+07 1.34229E+07 9.71917E+08 4.24518E+07-2.61627E+07
 -1      1577 2.32247E+10-2.70524E+07 1.34229E+07 9.71917E+08 4.24518E+07-2.61627E+07
 -1      1578 1.76560E+10-2.76046E+07 9.79314E+06 1.64369E+09 4.21338E+07-2.14832E+07
 -1      1580 1.76560E+10-2.76046E+07 9.79314E+06 1.64369E+09 4.21338E+07-2.14832E+07
 -1      1581 1.04028E+10-1.06699E+07 3.59795E+06 1.75957E+09 4.22613E+07-1.87102E+07
 -1      1583 1.04028E+10-1.06699E+07 3.59795E+06 1.75957E+09 4.22613E+07-1.87102E+07
 -1      1584 4.09514E+09 1.65734E+06-1.23038E+06 1.13849E+09 4.34391E+07-5.25628E+06
 -1      1586 4.09514E+09 1.65734E+06-1.23038E+06 1.13849E+09 4.34391E+07-5.25628E+06
 -1      1587 1.15026E+09 1.86609E+08-2.67694E+05 1.09168E+09 1.06687E+08 7.27434E+06
 -1      1589 1.15026E+09 1.86609E+08-2.67694E+05 1.09168E+09 1.06687E+08 7.27434E+06
 -1      1590 1.45287E+10 1.34851E+09 3.25235E+05 5.79666E+09-3.94481E+07-1.82148E+08
 -1      1592 1.45287E+10 1.34851E+09 3.25235E+05 5.79666E+09-3.94481E+07-1.82148E+08
 -1      1593-1.15026E+09-1.86609E+08 2.67694E+05 1.09168E+09 1.06687E+08-7.27434E+06
 -1      1595-1.15026E+09-1.86609E+08 2.67694E+05 1.09168E+09 1.06687E+08-7.27434E+06
 -1      1596-1.49946E+10-5.81892E+08 3.21637E+06 3.95094E+09-1.41931E+07 9.93342E+07
 -1      1598-1.49946E+10-5.81892E+08 3.21637E+06 3.95094E+09-1.41931E+07 9.93342E+07
 -1      1599-6.46132E+08 2.49199E+08 1.80739E+06 3.08148E+09-2.53768E+07-1.24340E+07
 -1      1601-6.46132E+08 2.49199E+08 1.80739E+06 3.08148E+09-2.53768E+07-1.24340E+07
 -1      1602 1.07074E+10-1.90488E+08 6.39546E+06 2.35103E+09-3.95854E+07 3.05318E+07
 -1      1604 1.07074E+10-1.90488E+08 6.39546E+06 2.35103E+09-3.95854E+07 3.05318E+07
 -1      1605 1.77747E+10 1.89507E+07 1.61859E+07 1.07977E+09-4.30127E+07-4.94366E+06
 -1      1607 1.77747E+10 1.89507E+07 1.61859E+07 1.07977E+09-4.30127E+07-4.94366E+06
 -1      1608 1.96375E+10-9.46549E+07 1.02447E+07-1.77320E+08-4.43207E+07-4.61318E+06
 -1      1610 1.96375E+10-9.46549E+07 1.02447E+07-1.77320E+08-4.43207E+07-4.61318E+06
 -1      1611 1.63674E+10-2.75785E+07 1.42182E+07-1.36485E+09-3.98492E+07-2.07701E+07
 -1      1613 1.63674E+10-2.75785E+07 1.42182E+07-1.36485E+09-3.98492E+07-2.07701E+07
 -1      1614 8.94879E+09-4.70494E+07 3.77020E+06-2.17078E+09-3.21145E+07-2.64032E+07
 -1      1616 8.94879E+09-4.70494E+07 3.77020E+06-2.17078E+09-3.21145E+07-2.64032E+07
 -1      1617-8.17975E+08-1.28894E+07 1.98936E+06-2.48633E+09-2.23889E+07-3.25068E+07
 -1      1619-8.17975E+08-1.28894E+07 1.98936E+06-2.48633E+09-2.23889E+07-3.25068E+07
 -1      1620-1.07011E+10-5.29458E+06-8.25026E+06-2.23134E+09-1.18922E+07-3.29523E+07
 -1      1622-1.07011E+10-5.29458E+06-8.25026E+06-2.23134E+09-1.18922E+07-3.29523E+07
 -1      1623-1.84779E+10 1.51337E+07-1.02156E+07-1.48229E+09-3.06050E+06-3.03577E+07
 -1      1625-1.84779E+10 1.51337E+07-1.02156E+07-1.48229E+09-3.06050E+06-3.03577E+07
 -1      1626-2.24075E+10 2.25897E+07-1.53662E+07-3.97348E+08 3.61228E+06-2.42323E+07
 -1      1628-2.24075E+10 2.25897E+07-1.53662E+07-3.97348E+08 3.61228E+06-2.42323E+07
 -1      1629-2.15897E+10 2.89260E+07-1.28455E+07 7.82731E+08 6.58654E+06-1.60545E+07
 -1      1631-2.15897E+10 2.89260E+07-1.28455E+07 7.82731E+08 6.58654E+06-1.60545E+07
 -1      1632-1.61569E+10 2.63800E+07-1.11671E+07 1.80457E+09 6.62171E+06-6.91700E+06
 -1      1634-1.61569E+10 2.63800E+07-1.11671E+07 1.80457E+09 6.62171E+06-6.91700E+06
 -1      1635-7.24060E+09 2.06943E+07-4.12165E+06 2.44535E+09 3.75490E+06 1.96322E+06
 -1      1637-7.24060E+09 2.06943E+07-4.12165E+06 2.44535E+09 3.75490E+06 1.96322E+06
 -1      1638 3.27052E+09 1.10267E+07 1.37189E+06 2.56619E+09-1.40244E+05 9.58724E+06
 -1      1640 3.27052E+09 1.10267E+07 1.37189E+06 2.56619E+09-1.40244E+05 9.58724E+06
 -1      1641 1.31368E+10 1.85852E+06 8.61232E+06 2.13848E+09-4.08758E+06 1.54338E+07
 -1      1643 1.31368E+10 1.85852E+06 8.61232E+06 2.13848E+09-4.08758E+06 1.54338E+07
 -1      1644 2.02463E+10-5.61667E+06 1.23420E+07 1.25160E+09-6.14027E+06 1.93260E+07
 -1      1646 2.02463E+10-5.61667E+06 1.23420E+07 1.25160E+09-6.14027E+06 1.93260E+07
 -1      1647 2.30670E+10-8.73479E+06 1.48192E+07 9.28102E+07-5.68942E+06 2.15734E+07
 -1      1649 2.30670E+10-8.73479E+06 1.48192E+07 9.28102E+07-5.68942E+06 2.15734E+07
 -1      1650 2.09734E+10-7.07183E+06 1.29806E+07-1.09275E+09-1.86664E+06 2.26845E+07
 -1      1652 2.09734E+10-7.07183E+06 1.29806E+07-1.09275E+09-1.86664E+06 2.26845E+07
 -1      1653 1.43790E+10-9.26563E+05 9.27450E+06-2.05466E+09 4.66025E+06 2.33089E+07
 -1      1655 1.43790E+10-9.26563E+05 9.27450E+06-2.05466E+09 4.66025E+06 2.33089E+07
 -1      1656 4.64400E+09 8.63824E+06 2.79586E+06-2.59184E+09 1.33761E+07 2.39416E+07
 -1      1658 4.64400E+09 8.63824E+06 2.79586E+06-2.59184E+09 1.33761E+07 2.39416E+07
 -1      1659-6.22148E+09 1.86276E+07-3.73130E+06-2.59532E+09 2.25484E+07 2.48945E+07
 -1      1661-6.22148E+09 1.86276E+07-3.73130E+06-2.59532E+09 2.25484E+07 2.48945E+07
 -1      1662-1.59956E+10 2.82272E+07-1.00558E+07-2.07366E+09 3.11104E+07 2.59825E+07
 -1      1664-1.59956E+10 2.82272E+07-1.00558E+07-2.07366E+09 3.11104E+07 2.59825E+07
 -1      1665-2.27366E+10 3.24275E+07-1.39129E+07-1.15222E+09 3.74493E+07 2.70583E+07
 -1      1667-2.27366E+10 3.24275E+07-1.39129E+07-1.15222E+09 3.74493E+07 2.70583E+07
 -1      1668-2.52168E+10 3.57908E+07-1.54741E+07-4.69445E+07 4.12810E+07 2.69129E+07
 -1      1670-2.52168E+10 3.57908E+07-1.54741E+07-4.69445E+07 4.12810E+07 2.69129E+07
 -1      1671-2.32247E+10 2.70524E+07-1.34229E+07 9.71917E+08 4.24518E+07 2.61627E+07
 -1      1673-2.32247E+10 2.70524E+07-1.34229E+07 9.71917E+08 4.24518E+07 2.61627E+07
 -1      1674-1.76560E+10 2.76046E+07-9.79314E+06 1.64369E+09 4.21338E+07 2.14832E+07
 -1      1676-1.76560E+10 2.76046E+07-9.79314E+06 1.64369E+09 4.21338E+07 2.14832E+07
 -1      1677-1.04028E+10 1.06699E+07-3.59795E+06 1.75957E+09 4.22613E+07 1.87102E+07
 -1      1679-1.04028E+10 1.06699E+07-3.59795E+06 1.75957E+09 4.22613E+07 1.87102E+07
 -1      1680-4.09514E+09-1.65734E+06 1.23038E+06 1.13849E+09 4.34391E+07 5.25628E+06
 -1      1682-4.09514E+09-1.65734E+06 1.23038E+06 1.13849E+09 4.34391E+07 5.25628E+06
 -1      1683-1.45287E+10-1.34851E+09-3.25235E+05 5.79666E+09-3.94481E+07 1.82148E+08
 -1      1685-1.45287E+10-1.34851E+09-3.25235E+05 5.79666E+09-3.94481E+07 1.82148E+08
 -1      1686-9.88031E+09-4.13294E+08-1.09319E+06 5.87275E+09 1.96433E+07-5.46280E+07
 -1      1688-9.88031E+09-4.13294E+08-1.09319E+06 5.87275E+09 1.96433E+07-5.46280E+07
 -1      1689-6.38644E+08-2.15013E+07-1.25153E+06 5.18926E+09 4.94384E+06 1.38750E+07
 -1      1691-6.38644E+08-2.15013E+07-1.25153E+06 5.18926E+09 4.94384E+06 1.38750E+07
 -1      1692 6.99618E+09-3.41167E+08 5.06513E+05 3.66198E+09 1.62409E+07-1.58052E+07
 -1      1694 6.99618E+09-3.41167E+08 5.06513E+05 3.66198E+09 1.62409E+07-1.58052E+07
 -1      1695 1.16098E+10-2.72050E+08-1.76401E+06 1.79608E+09 1.83894E+07 2.79013E+06
 -1      1697 1.16098E+10-2.72050E+08-1.76401E+06 1.79608E+09 1.83894E+07 2.79013E+06
 -1      1698 1.28840E+10-3.32927E+08-5.33667E+04-3.07206E+08 1.98184E+07-5.46055E+05
 -1      1700 1.28840E+10-3.32927E+08-5.33667E+04-3.07206E+08 1.98184E+07-5.46055E+05
 -1      1701 1.07288E+10-2.46339E+08-1.03069E+06-2.16371E+09 1.88590E+07 6.08837E+06
 -1      1703 1.07288E+10-2.46339E+08-1.03069E+06-2.16371E+09 1.88590E+07 6.08837E+06
 -1      1704 5.86494E+09-1.69793E+08-2.57510E+05-3.47975E+09 1.43610E+07 7.00103E+06
 -1      1706 5.86494E+09-1.69793E+08-2.57510E+05-3.47975E+09 1.43610E+07 7.00103E+06
 -1      1707-5.59023E+08-3.87897E+07-1.27025E+05-3.97199E+09 1.07044E+07 8.49315E+06
 -1      1709-5.59023E+08-3.87897E+07-1.27025E+05-3.97199E+09 1.07044E+07 8.49315E+06
 -1      1710-7.05366E+09 7.58627E+07 3.96102E+03-3.57204E+09 7.20163E+06 7.44062E+06
 -1      1712-7.05366E+09 7.58627E+07 3.96102E+03-3.57204E+09 7.20163E+06 7.44062E+06
 -1      1713-1.21672E+10 1.77411E+08 5.59137E+05-2.36935E+09 8.34404E+06 5.25445E+06
 -1      1715-1.21672E+10 1.77411E+08 5.59137E+05-2.36935E+09 8.34404E+06 5.25445E+06
 -1      1716-1.47476E+10 2.31321E+08 2.61726E+05-6.35576E+08 1.32766E+07 1.99387E+06
 -1      1718-1.47476E+10 2.31321E+08 2.61726E+05-6.35576E+08 1.32766E+07 1.99387E+06
 -1      1719-1.42061E+10 2.36569E+08 7.69733E+05 1.25417E+09 2.40300E+07-1.50841E+06
 -1      1721-1.42061E+10 2.36569E+08 7.69733E+05 1.25417E+09 2.40300E+07-1.50841E+06
 -1      1722-1.06276E+10 1.88900E+08 1.80840E+05 2.88867E+09 3.79843E+07-4.45906E+06
 -1      1724-1.06276E+10 1.88900E+08 1.80840E+05 2.88867E+09 3.79843E+07-4.45906E+06
 -1      1725-4.75812E+09 1.03158E+08 4.96825E+05 3.91439E+09 5.41380E+07-6.25268E+06
 -1      1727-4.75812E+09 1.03158E+08 4.96825E+05 3.91439E+09 5.41380E+07-6.25268E+06
 -1      1728 2.16040E+09-2.68040E+06-1.93507E+05 4.10735E+09 6.83105E+07-6.40525E+06
 -1      1730 2.16040E+09-2.68040E+06-1.93507E+05 4.10735E+09 6.83105E+07-6.40525E+06
 -1      1731 8.65362E+09-1.03567E+08 3.38213E+04 3.42266E+09 7.80873E+07-4.90566E+06
 -1      1733 8.65362E+09-1.03567E+08 3.38213E+04 3.42266E+09 7.80873E+07-4.90566E+06
 -1      1734 1.33320E+10-1.77904E+08-5.32462E+05 2.00292E+09 7.97652E+07-1.99394E+06
 -1      1736 1.33320E+10-1.77904E+08-5.32462E+05 2.00292E+09 7.97652E+07-1.99394E+06
 -1      1737 1.51873E+10-2.08511E+08-2.23460E+05 1.47995E+08 7.21997E+07 1.70676E+06
 -1      1739 1.51873E+10-2.08511E+08-2.23460E+05 1.47995E+08 7.21997E+07 1.70676E+06
 -1      1740 1.38081E+10-1.89297E+08-5.27663E+05-1.74975E+09 5.43528E+07 5.45317E+06
 -1      1742 1.38081E+10-1.89297E+08-5.27663E+05-1.74975E+09 5.43528E+07 5.45317E+06
 -1      1743 9.46610E+09-1.23697E+08-7.72737E+04-3.28979E+09 2.80981E+07 8.45424E+06
 -1      1745 9.46610E+09-1.23697E+08-7.72737E+04-3.28979E+09 2.80981E+07 8.45424E+06
 -1      1746 3.05640E+09-2.71227E+07-1.56017E+05-4.14984E+09-4.47866E+06 1.00901E+07
 -1      1748 3.05640E+09-2.71227E+07-1.56017E+05-4.14984E+09-4.47866E+06 1.00901E+07
 -1      1749-4.09837E+09 8.03846E+07 3.18874E+05-4.15636E+09-3.90013E+07 1.00080E+07
 -1      1751-4.09837E+09 8.03846E+07 3.18874E+05-4.15636E+09-3.90013E+07 1.00080E+07
 -1      1752-1.05370E+10 1.73363E+08 3.04981E+05-3.32219E+09-7.20682E+07 8.27093E+06
 -1      1754-1.05370E+10 1.73363E+08 3.04981E+05-3.32219E+09-7.20682E+07 8.27093E+06
 -1      1755-1.49818E+10 2.32129E+08 5.81743E+05-1.84896E+09-9.91636E+07 5.14230E+06
 -1      1757-1.49818E+10 2.32129E+08 5.81743E+05-1.84896E+09-9.91636E+07 5.14230E+06
 -1      1758-1.66270E+10 2.42904E+08 5.14240E+05-8.25339E+07-1.18388E+08 1.60480E+06
 -1      1760-1.66270E+10 2.42904E+08 5.14240E+05-8.25339E+07-1.18388E+08 1.60480E+06
 -1      1761-1.53349E+10 1.96949E+08 4.16450E+05 1.54514E+09-1.27494E+08-2.25624E+06
 -1      1763-1.53349E+10 1.96949E+08 4.16450E+05 1.54514E+09-1.27494E+08-2.25624E+06
 -1      1764-1.16945E+10 1.15396E+08 3.00410E+05 2.61775E+09-1.27843E+08-3.89719E+06
 -1      1766-1.16945E+10 1.15396E+08 3.00410E+05 2.61775E+09-1.27843E+08-3.89719E+06
 -1      1767-6.97356E+09-1.23594E+07 7.54198E+03 2.77814E+09-1.20656E+08-6.41556E+06
 -1      1769-6.97356E+09-1.23594E+07 7.54198E+03 2.77814E+09-1.20656E+08-6.41556E+06
 -1      1770-2.84578E+09-1.41333E+08-5.77591E+05 1.83932E+09-1.10317E+08-1.08274E+06
 -1      1772-2.84578E+09-1.41333E+08-5.77591E+05 1.83932E+09-1.10317E+08-1.08274E+06
 -1      1773 9.88031E+09 4.13294E+08 1.09319E+06 5.87275E+09 1.96433E+07 5.46280E+07
 -1      1775 9.88031E+09 4.13294E+08 1.09319E+06 5.87275E+09 1.96433E+07 5.46280E+07
 -1      1776 6.38644E+08 2.15013E+07 1.25153E+06 5.18926E+09 4.94384E+06-1.38750E+07
 -1      1778 6.38644E+08 2.15013E+07 1.25153E+06 5.18926E+09 4.94384E+06-1.38750E+07
 -1      1779-6.99618E+09 3.41167E+08-5.06513E+05 3.66198E+09 1.62409E+07 1.58052E+07
 -1      1781-6.99618E+09 3.41167E+08-5.06513E+05 3.66198E+09 1.62409E+07 1.58052E+07
 -1      1782-1.16098E+10 2.72050E+08 1.76401E+06 1.79608E+09 1.83894E+07-2.79013E+06
 -1      1784-1.16098E+10 2.72050E+08 1.76401E+06 1.79608E+09 1.83894E+07-2.79013E+06
 -1      1785-1.28840E+10 3.32927E+08 5.33667E+04-3.07206E+08 1.98184E+07 5.46055E+05
 -1      1787-1.28840E+10 3.32927E+08 5.33667E+04-3.07206E+08 1.98184E+07 5.46055E+05
 -1      1788-1.07288E+10 2.46339E+08 1.03069E+06-2.16371E+09 1.88590E+07-6.08837E+06
 -1      1790-1.07288E+10 2.46339E+08 1.03069E+06-2.16371E+09 1.88590E+07-6.08837E+06
 -1      1791-5.86494E+09 1.69793E+08 2.57510E+05-3.47975E+09 1.43610E+07-7.00103E+06
 -1      1793-5.86494E+09 1.69793E+08 2.57510E+05-3.47975E+09 1.43610E+07-7.00103E+06
 -1      1794 5.59023E+08 3.87897E+07 1.27025E+05-3.97199E+09 1.07044E+07-8.49315E+06
 -1      1796 5.59023E+08 3.87897E+07 1.27025E+05-3.97199E+09 1.07044E+07-8.49315E+06
 -1      1797 7.05366E+09-7.58627E+07-3.96102E+03-3.57204E+09 7.20163E+06-7.44062E+06
 -1      1799 7.05366E+09-7.58627E+07-3.96102E+03-3.57204E+09 7.20163E+06-7.44062E+06
 -1      1800 1.21672E+10-1.77411E+08-5.59137E+05-2.36935E+09 8.34404E+06-5.25445E+06
 -1      1802 1.21672E+10-1.77411E+08-5.59137E+05-2.36935E+09 8.34404E+06-5.25445E+06
 -1      1803 1.47476E+10-2.31321E+08-2.61726E+05-6.35576E+08 1.32766E+07-1.99387E+06
 -1      1805 1.47476E+10-2.31321E+08-2.61726E+05-6.35576E+08 1.32766E+07-1.99387E+06
 -1      1806 1.42061E+10-2.36569E+08-7.69733E+05 1.25417E+09 2.40300E+07 1.50841E+06
 -1      1808 1.42061E+10-2.36569E+08-7.69733E+05 1.25417E+09 2.40300E+07 1.50841E+06
 -1      1809 1.06276E+10-1.88900E+08-1.80840E+05 2.88867E+09 3.79843E+07 4.45906E+06
 -1      1811 1.06276E+10-1.88900E+08-1.80840E+05 2.88867E+09 3.79843E+07 4.45906E+06
 -1      1812 4.75812E+09-1.03158E+08-4.96825E+05 3.91439E+09 5.41380E+07 6.25268E+06
 -1      1814 4.75812E+09-1.03158E+08-4.96825E+05 3.91439E+09 5.41380E+07 6.25268E+06
 -1      1815-2.16040E+09 2.68040E+06 1.93507E+05 4.10735E+09 6.83105E+07 6.40525E+06
 -1      1817-2.16040E+09 2.68040E+06 1.93507E+05 4.10735E+09 6.83105E+07 6.40525E+06
 -1      1818-8.65362E+09 1.03567E+08-3.38213E+04 3.42266E+09 7.80873E+07 4.90566E+06
 -1      1820-8.65362E+09 1.03567E+08-3.38213E+04 3.42266E+09 7.80873E+07 4.90566E+06
 -1      1821-1.33320E+10 1.77904E+08 5.32462E+05 2.00292E+09 7.97652E+07 1.99394E+06
 -1      1823-1.33320E+10 1.77904E+08 5.32462E+05 2.00292E+09 7.97652E+07 1.99394E+06
 -1      1824-1.51873E+10 2.08511E+08 2.23460E+05 1.47995E+08 7.21997E+07-1.70676E+06
 -1      1826-1.51873E+10 2.08511E+08 2.23460E+05 1.47995E+08 7.21997E+07-1.70676E+06
 -1      1827-1.38081E+10 1.89297E+08 5.27663E+05-1.74975E+09 5.43528E+07-5.45317E+06
 -1      1829-1.38081E+10 1.89297E+08 5.27663E+05-1.74975E+09 5.43528E+07-5.45317E+06
 -1      1830-9.46610E+09 1.23697E+08 7.72737E+04-3.28979E+09 2.80981E+07-8.45424E+06
 -1      1832-9.46610E+09 1.23697E+08 7.72737E+04-3.28979E+09 2.80981E+07-8.45424E+06
 -1      1833-3.05640E+09 2.71227E+07 1.56017E+05-4.14984E+09-4.47866E+06-1.00901E+07
 -1      1835-3.05640E+09 2.71227E+07 1.56017E+05-4.14984E+09-4.47866E+06-1.00901E+07
 -1      1836 4.09837E+09-8.03846E+07-3.18874E+05-4.15636E+09-3.90013E+07-1.00080E+07
 -1      1838 4.09837E+09-8.03846E+07-3.18874E+05-4.15636E+09-3.90013E+07-1.00080E+07
 -1      1839 1.05370E+10-1.73363E+08-3.04981E+05-3.32219E+09-7.20682E+07-8.27093E+06
 -1      1841 1.05370E+10-1.73363E+08-3.04981E+05-3.32219E+09-7.20682E+07-8.27093E+06
 -1      1842 1.49818E+10-2.32129E+08-5.81743E+05-1.84896E+09-9.91636E+07-5.14230E+06
 -1      1844 1.49818E+10-2.32129E+08-5.81743E+05-1.84896E+09-9.91636E+07-5.14230E+06
 -1      1845 1.66270E+10-2.42904E+08-5.14240E+05-8.25339E+07-1.18388E+08-1.60480E+06
 -1      1847 1.66270E+10-2.42904E+08-5.14240E+05-8.25339E+07-1.18388E+08-1.60480E+06
 -1      1848 1.53349E+10-1.96949E+08-4.16450E+05 1.54514E+09-1.27494E+08 2.25624E+06
 -1      1850 1.53349E+10-1.96949E+08-4.16450E+05 1.54514E+09-1.27494E+08 2.25624E+06
 -1      1851 1.16945E+10-1.15396E+08-3.00410E+05 2.61775E+09-1.27843E+08 3.89719E+06
 -1      1853 1.16945E+10-1.15396E+08-3.00410E+05 2.61775E+09-1.27843E+08 3.89719E+06
 -1      1854 6.97356E+09 1.23594E+07-7.54198E+03 2.77814E+09-1.20656E+08 6.41556E+06
 -1      1856 6.97356E+09 1.23594E+07-7.54198E+03 2.77814E+09-1.20656E+08 6.41556E+06
 -1      1857 2.84578E+09 1.41333E+08 5.77591E+05 1.83932E+09-1.10317E+08 1.08274E+06
 -1      1859 2.84578E+09 1.41333E+08 5.77591E+05 1.83932E+09-1.10317E+08 1.08274E+06
 -1      1860-9.82895E-03-2.32315E-04-1.47264E-02 1.67101E+08 2.14644E+07-8.88502E-03
 -1      1862-9.82895E-03-2.32315E-04-1.47264E-02 1.67101E+08 2.14644E+07-8.88502E-03
 -1      1863-3.22590E-03-4.67051E-04-1.37575E-02-4.92023E+07 6.49609E+07-8.64899E-03
 -1      1865-3.22590E-03-4.67051E-04-1.37575E-02-4.92023E+07 6.49609E+07-8.64899E-03
 -1      1866 4.98550E-03-2.96061E-04 4.09180E-03 6.08913E+07 8.29754E+07-7.19132E-03
 -1      1868 4.98550E-03-2.96061E-04 4.09180E-03 6.08913E+07 8.29754E+07-7.19132E-03
 -1      1869 8.61745E-03-3.27360E-04 2.43308E-02-1.44223E+07 1.00997E+08-3.63555E-03
 -1      1871 8.61745E-03-3.27360E-04 2.43308E-02-1.44223E+07 1.00997E+08-3.63555E-03
 -1      1872 4.30130E-03-7.09316E-04 2.75680E-02 9.44766E+06 1.03562E+08 4.60407E-03
 -1      1874 4.30130E-03-7.09316E-04 2.75680E-02 9.44766E+06 1.03562E+08 4.60407E-03
 -1      1875-9.98913E-05-4.95901E-04 1.25911E-02-2.11001E+07 9.57448E+07 1.11422E-02
 -1      1877-9.98913E-05-4.95901E-04 1.25911E-02-2.11001E+07 9.57448E+07 1.11422E-02
 -1      1878 2.34868E-03 1.11440E-04-3.45381E-03-1.79422E+07 7.91410E+07 1.04227E-02
 -1      1880 2.34868E-03 1.11440E-04-3.45381E-03-1.79422E+07 7.91410E+07 1.04227E-02
 -1      1881 9.30880E-03 1.30845E-04-2.85069E-04-2.66756E+07 5.67525E+07 7.44344E-03
 -1      1883 9.30880E-03 1.30845E-04-2.85069E-04-2.66756E+07 5.67525E+07 7.44344E-03
 -1      1884 1.28437E-02 3.92390E-04 1.60533E-02-2.10224E+07 3.60272E+07 1.44660E-02
 -1      1886 1.28437E-02 3.92390E-04 1.60533E-02-2.10224E+07 3.60272E+07 1.44660E-02
 -1      1887 8.02455E-03 3.02778E-04 1.80868E-02-1.54926E+07 1.97343E+07 2.84397E-02
 -1      1889 8.02455E-03 3.02778E-04 1.80868E-02-1.54926E+07 1.97343E+07 2.84397E-02
 -1      1890 4.12036E-04-3.40529E-04 1.71692E-03-4.15220E+06 1.39364E+07 3.09937E-02
 -1      1892 4.12036E-04-3.40529E-04 1.71692E-03-4.15220E+06 1.39364E+07 3.09937E-02
 -1      1893-4.12853E-03-3.10077E-04-1.25259E-02 6.73354E+06 1.81489E+07 2.21039E-02
 -1      1895-4.12853E-03-3.10077E-04-1.25259E-02 6.73354E+06 1.81489E+07 2.21039E-02
 -1      1896-9.03868E-03-3.13063E-07-1.35582E-02 1.68654E+07 3.29806E+07 1.23911E-02
 -1      1898-9.03868E-03-3.13063E-07-1.35582E-02 1.68654E+07 3.29806E+07 1.23911E-02
 -1      1899-1.38085E-02 1.70806E-04-8.85421E-03 2.29855E+07 5.32576E+07 3.96043E-03
 -1      1901-1.38085E-02 1.70806E-04-8.85421E-03 2.29855E+07 5.32576E+07 3.96043E-03
 -1      1902-1.23345E-02 2.76483E-04-9.49025E-03 2.43705E+07 7.46986E+07-2.07869E-03
 -1      1904-1.23345E-02 2.76483E-04-9.49025E-03 2.43705E+07 7.46986E+07-2.07869E-03
 -1      1905-9.11740E-03 1.76142E-04-1.42707E-02 2.04063E+07 8.99964E+07-4.52112E-03
 -1      1907-9.11740E-03 1.76142E-04-1.42707E-02 2.04063E+07 8.99964E+07-4.52112E-03
 -1      1908-1.15332E-02 9.77547E-06-1.32255E-02 1.21331E+07 9.43908E+07-3.91187E-03
 -1      1910-1.15332E-02 9.77547E-06-1.32255E-02 1.21331E+07 9.43908E+07-3.91187E-03
 -1      1911-1.41066E-02-3.42016E-04-3.97545E-03 1.21648E+06 8.32280E+07 1.98010E-04
 -1      1913-1.41066E-02-3.42016E-04-3.97545E-03 1.21648E+06 8.32280E+07 1.98010E-04
 -1      1914-8.53532E-03-2.34401E-04 6.04424E-03-9.94475E+06 5.60313E+07 5.72028E-03
 -1      1916-8.53532E-03-2.34401E-04 6.04424E-03-9.94475E+06 5.60313E+07 5.72028E-03
 -1      1917 2.76422E-03 2.54528E-04 1.17039E-02-1.89580E+07 1.39242E+07 4.59582E-03
 -1      1919 2.76422E-03 2.54528E-04 1.17039E-02-1.89580E+07 1.39242E+07 4.59582E-03
 -1      1920 1.11942E-02 2.18605E-04 1.52292E-02-2.40209E+07-3.79228E+07-2.78230E-03
 -1      1922 1.11942E-02 2.18605E-04 1.52292E-02-2.40209E+07-3.79228E+07-2.78230E-03
 -1      1923 1.45509E-02-5.52130E-05 1.46318E-02-2.37193E+07-9.38218E+07-6.42877E-03
 -1      1925 1.45509E-02-5.52130E-05 1.46318E-02-2.37193E+07-9.38218E+07-6.42877E-03
 -1      1926 1.62334E-02-4.02582E-05 4.80995E-03-1.89550E+07-1.46078E+08-6.03776E-03
 -1      1928 1.62334E-02-4.02582E-05 4.80995E-03-1.89550E+07-1.46078E+08-6.03776E-03
 -1      1929 1.42121E-02 2.96817E-04-7.16092E-03-9.13826E+06-1.89192E+08-6.17748E-03
 -1      1931 1.42121E-02 2.96817E-04-7.16092E-03-9.13826E+06-1.89192E+08-6.17748E-03
 -1      1932 8.41809E-03 9.20254E-04-1.17233E-02 3.16882E+05-2.18156E+08-7.77530E-03
 -1      1934 8.41809E-03 9.20254E-04-1.17233E-02 3.16882E+05-2.18156E+08-7.77530E-03
 -1      1935 4.96452E-03 7.05352E-04-1.16478E-02 1.32130E+07-2.32218E+08-1.05617E-02
 -1      1937 4.96452E-03 7.05352E-04-1.16478E-02 1.32130E+07-2.32218E+08-1.05617E-02
 -1      1938 5.00686E-03-4.87022E-05-1.13670E-02 1.60295E+07-2.32501E+08-9.98993E-03
 -1      1940 5.00686E-03-4.87022E-05-1.13670E-02 1.60295E+07-2.32501E+08-9.98993E-03
 -1      1941 6.89350E-03-1.76283E-04-6.58738E-03 2.61139E+07-2.23505E+08-7.16348E-03
 -1      1943 6.89350E-03-1.76283E-04-6.58738E-03 2.61139E+07-2.23505E+08-7.16348E-03
 -1      1944 6.98203E-03 2.34206E-05 4.52024E-03 9.80913E+06-2.12036E+08-5.18911E-03
 -1      1946 6.98203E-03 2.34206E-05 4.52024E-03 9.80913E+06-2.12036E+08-5.18911E-03
 -1      1947 3.00287E-03-3.26286E-05-1.11552E-02 3.03051E+08-1.68134E-04-1.18180E-02
 -1      1949 3.00287E-03-3.26286E-05-1.11552E-02 3.03051E+08-1.68134E-04-1.18180E-02
 -1      1950 4.64902E-03-3.61709E-04-9.04106E-03-3.51082E+07-6.21259E-04-7.71667E-03
 -1      1952 4.64902E-03-3.61709E-04-9.04106E-03-3.51082E+07-6.21259E-04-7.71667E-03
 -1      1953 3.69420E-03-4.67222E-04 6.17259E-03 1.18340E+08-7.68935E-04-4.95004E-03
 -1      1955 3.69420E-03-4.67222E-04 6.17259E-03 1.18340E+08-7.68935E-04-4.95004E-03
 -1      1956 3.32760E-03-7.09038E-04 2.15094E-02-1.28027E+07-7.33631E-04-4.34961E-03
 -1      1958 3.32760E-03-7.09038E-04 2.15094E-02-1.28027E+07-7.33631E-04-4.34961E-03
 -1      1959 1.17464E-03-1.03918E-03 2.48156E-02 3.30705E+06-6.53483E-04-3.30144E-04
 -1      1961 1.17464E-03-1.03918E-03 2.48156E-02 3.30705E+06-6.53483E-04-3.30144E-04
 -1      1962 1.12102E-03-4.53215E-04 1.62532E-02-5.94402E+07-4.85349E-04 2.02179E-03
 -1      1964 1.12102E-03-4.53215E-04 1.62532E-02-5.94402E+07-4.85349E-04 2.02179E-03
 -1      1965 4.72283E-03 8.02800E-05 3.05404E-03-6.79419E+07-3.11049E-04 1.20624E-03
 -1      1967 4.72283E-03 8.02800E-05 3.05404E-03-6.79419E+07-3.11049E-04 1.20624E-03
 -1      1968 5.26208E-03 8.24123E-05-1.16960E-03-8.63962E+07-2.45757E-04 5.36547E-03
 -1      1970 5.26208E-03 8.24123E-05-1.16960E-03-8.63962E+07-2.45757E-04 5.36547E-03
 -1      1971 1.50820E-03 2.16638E-05 8.93904E-03-7.62330E+07-3.49149E-04 1.63937E-02
 -1      1973 1.50820E-03 2.16638E-05 8.93904E-03-7.62330E+07-3.49149E-04 1.63937E-02
 -1      1974-3.28935E-03 7.21852E-05 1.59645E-02-5.87118E+07-3.63857E-04 2.66696E-02
 -1      1976-3.28935E-03 7.21852E-05 1.59645E-02-5.87118E+07-3.63857E-04 2.66696E-02
 -1      1977-6.97671E-03-8.22459E-05 7.24656E-03-2.78652E+07-3.85307E-05 2.67638E-02
 -1      1979-6.97671E-03-8.22459E-05 7.24656E-03-2.78652E+07-3.85307E-05 2.67638E-02
 -1      1980-7.44572E-03-4.52289E-04-6.41869E-03 4.48552E+06 5.04121E-04 2.03963E-02
 -1      1982-7.44572E-03-4.52289E-04-6.41869E-03 4.48552E+06 5.04121E-04 2.03963E-02
 -1      1983-7.03193E-03-6.04672E-05-1.26762E-02 3.41762E+07 9.51922E-04 1.55705E-02
 -1      1985-7.03193E-03-6.04672E-05-1.26762E-02 3.41762E+07 9.51922E-04 1.55705E-02
 -1      1986-7.76672E-03 4.48977E-04-1.20745E-02 5.36947E+07 1.16010E-03 1.02863E-02
 -1      1988-7.76672E-03 4.48977E-04-1.20745E-02 5.36947E+07 1.16010E-03 1.02863E-02
 -1      1989-5.41643E-03 2.12051E-04-1.18339E-02 5.98344E+07 1.09186E-03 4.45783E-03
 -1      1991-5.41643E-03 2.12051E-04-1.18339E-02 5.98344E+07 1.09186E-03 4.45783E-03
 -1      1992 3.54261E-04 2.06512E-04-1.46261E-02 5.13096E+07 7.90656E-04 3.04243E-03
 -1      1994 3.54261E-04 2.06512E-04-1.46261E-02 5.13096E+07 7.90656E-04 3.04243E-03
 -1      1995 9.01514E-04 2.85471E-04-1.39388E-02 3.04994E+07 4.93184E-04 5.61675E-03
 -1      1997 9.01514E-04 2.85471E-04-1.39388E-02 3.04994E+07 4.93184E-04 5.61675E-03
 -1      1998-6.27464E-03-2.42426E-04-4.09247E-03 2.19609E+06 3.09639E-04 8.50834E-03
 -1      2000-6.27464E-03-2.42426E-04-4.09247E-03 2.19609E+06 3.09639E-04 8.50834E-03
 -1      2001-8.59932E-03-4.18826E-04 1.12444E-02-2.71514E+07 2.16611E-04 9.73040E-03
 -1      2003-8.59932E-03-4.18826E-04 1.12444E-02-2.71514E+07 2.16611E-04 9.73040E-03
 -1      2004-9.52669E-04-5.73163E-05 2.31049E-02-5.08794E+07 5.59799E-05 5.16739E-03
 -1      2006-9.52669E-04-5.73163E-05 2.31049E-02-5.08794E+07 5.59799E-05 5.16739E-03
 -1      2007 6.05600E-03 2.02068E-05 2.46507E-02-6.38520E+07-1.24767E-04-4.59835E-03
 -1      2009 6.05600E-03 2.02068E-05 2.46507E-02-6.38520E+07-1.24767E-04-4.59835E-03
 -1      2010 1.03232E-02-1.59724E-04 1.59369E-02-6.27167E+07-2.10169E-04-1.21513E-02
 -1      2012 1.03232E-02-1.59724E-04 1.59369E-02-6.27167E+07-2.10169E-04-1.21513E-02
 -1      2013 1.63120E-02-1.47950E-05 3.76701E-03-4.87346E+07-1.05364E-04-1.28422E-02
 -1      2015 1.63120E-02-1.47950E-05 3.76701E-03-4.87346E+07-1.05364E-04-1.28422E-02
 -1      2016 1.76809E-02 1.98644E-04-4.35108E-03-2.29906E+07-1.06484E-04-8.52252E-03
 -1      2018 1.76809E-02 1.98644E-04-4.35108E-03-2.29906E+07-1.06484E-04-8.52252E-03
 -1      2019 1.09729E-02 3.59344E-04-6.43330E-03 4.45607E+06-4.03505E-05-7.75732E-03
 -1      2021 1.09729E-02 3.59344E-04-6.43330E-03 4.45607E+06-4.03505E-05-7.75732E-03
 -1      2022 3.99452E-03 1.04738E-04-7.06488E-03 3.50307E+07 1.68135E-04-1.30433E-02
 -1      2024 3.99452E-03 1.04738E-04-7.06488E-03 3.50307E+07 1.68135E-04-1.30433E-02
 -1      2025 1.34524E-03-4.22728E-04-8.94730E-03 4.66181E+07 6.42275E-04-1.40461E-02
 -1      2027 1.34524E-03-4.22728E-04-8.94730E-03 4.66181E+07 6.42275E-04-1.40461E-02
 -1      2028 2.41719E-03-9.67037E-05-6.71760E-03 6.16562E+07 8.79902E-04-8.60358E-03
 -1      2030 2.41719E-03-9.67037E-05-6.71760E-03 6.16562E+07 8.79902E-04-8.60358E-03
 -1      2031 3.13928E-03 4.69718E-04 1.49622E-03 2.84808E+07 6.55726E-04-4.28346E-03
 -1      2033 3.13928E-03 4.69718E-04 1.49622E-03 2.84808E+07 6.55726E-04-4.28346E-03
 -1      2034 1.23518E-02-1.51054E-04-5.06437E-03 1.67101E+08-2.14644E+07-1.51307E-02
 -1      2036 1.23518E-02-1.51054E-04-5.06437E-03 1.67101E+08-2.14644E+07-1.51307E-02
 -1      2037 4.81599E-03-3.06360E-04-3.35029E-03-4.92023E+07-6.49609E+07-6.32225E-03
 -1      2039 4.81599E-03-3.06360E-04-3.35029E-03-4.92023E+07-6.49609E+07-6.32225E-03
 -1      2040 1.58953E-03-1.28731E-04 6.45237E-03 6.08913E+07-8.29754E+07-1.88269E-03
 -1      2042 1.58953E-03-1.28731E-04 6.45237E-03 6.08913E+07-8.29754E+07-1.88269E-03
 -1      2043 3.28459E-03-3.61702E-04 1.61821E-02-1.44223E+07-1.00997E+08-1.55987E-03
 -1      2045 3.28459E-03-3.61702E-04 1.61821E-02-1.44223E+07-1.00997E+08-1.55987E-03
 -1      2046 3.99178E-03-7.76367E-04 2.45066E-02 9.44766E+06-1.03562E+08 1.32596E-03
 -1      2048 3.99178E-03-7.76367E-04 2.45066E-02 9.44766E+06-1.03562E+08 1.32596E-03
 -1      2049 3.25079E-03-4.29050E-04 2.66384E-02-2.11001E+07-9.57448E+07-3.07818E-04
 -1      2051 3.25079E-03-4.29050E-04 2.66384E-02-2.11001E+07-9.57448E+07-3.07818E-04
 -1      2052-9.62922E-05 1.33107E-06 1.42741E-02-1.79422E+07-7.91410E+07-6.00174E-03
 -1      2054-9.62922E-05 1.33107E-06 1.42741E-02-1.79422E+07-7.91410E+07-6.00174E-03
 -1      2055-4.99772E-03 1.27619E-04-9.20416E-04-2.66756E+07-5.67525E+07 2.25141E-04
 -1      2057-4.99772E-03 1.27619E-04-9.20416E-04-2.66756E+07-5.67525E+07 2.25141E-04
 -1      2058-5.60450E-03 4.01838E-05 2.31896E-03-2.10224E+07-3.60272E+07 1.52795E-02
 -1      2060-5.60450E-03 4.01838E-05 2.31896E-03-2.10224E+07-3.60272E+07 1.52795E-02
 -1      2061-5.97886E-03 2.32187E-04 1.39804E-02-1.54926E+07-1.97343E+07 2.15239E-02
 -1      2063-5.97886E-03 2.32187E-04 1.39804E-02-1.54926E+07-1.97343E+07 2.15239E-02
 -1      2064-1.02290E-02 3.58976E-04 1.17364E-02-4.15220E+06-1.39364E+07 1.76254E-02
 -1      2066-1.02290E-02 3.58976E-04 1.17364E-02-4.15220E+06-1.39364E+07 1.76254E-02
 -1      2067-9.18737E-03 2.03426E-04-1.48102E-03 6.73354E+06-1.81489E+07 1.35546E-02
 -1      2069-9.18737E-03 2.03426E-04-1.48102E-03 6.73354E+06-1.81489E+07 1.35546E-02
 -1      2070-1.62954E-03 2.49892E-04-1.27309E-02 1.68654E+07-3.29806E+07 1.37735E-02
 -1      2072-1.62954E-03 2.49892E-04-1.27309E-02 1.68654E+07-3.29806E+07 1.37735E-02
 -1      2073 4.24281E-03 1.79101E-04-1.49170E-02 2.29855E+07-5.32576E+07 1.25317E-02
 -1      2075 4.24281E-03 1.79101E-04-1.49170E-02 2.29855E+07-5.32576E+07 1.25317E-02
 -1      2076 6.33350E-03 3.76908E-05-1.22332E-02 2.43705E+07-7.46986E+07 5.68475E-03
 -1      2078 6.33350E-03 3.76908E-05-1.22332E-02 2.43705E+07-7.46986E+07 5.68475E-03
 -1      2079 6.51670E-03 2.04222E-04-1.26749E-02 2.04063E+07-8.99964E+07 2.15887E-03
 -1      2081 6.51670E-03 2.04222E-04-1.26749E-02 2.04063E+07-8.99964E+07 2.15887E-03
 -1      2082 3.75112E-03 2.03068E-04-9.21376E-03 1.21331E+07-9.43908E+07 6.77645E-03
 -1      2084 3.75112E-03 2.03068E-04-9.21376E-03 1.21331E+07-9.43908E+07 6.77645E-03
 -1      2085-3.94588E-03-1.24195E-04 3.53190E-03 1.21648E+06-8.32280E+07 1.01257E-02
 -1      2087-3.94588E-03-1.24195E-04 3.53190E-03 1.21648E+06-8.32280E+07 1.01257E-02
 -1      2088-8.03902E-03-3.69485E-04 1.68716E-02-9.94475E+06-5.60313E+07 8.40489E-03
 -1      2090-8.03902E-03-3.69485E-04 1.68716E-02-9.94475E+06-5.60313E+07 8.40489E-03
 -1      2091-2.82479E-03-2.28265E-04 2.65249E-02-1.89580E+07-1.39242E+07 3.43558E-03
 -1      2093-2.82479E-03-2.28265E-04 2.65249E-02-1.89580E+07-1.39242E+07 3.43558E-03
 -1      2094 3.37594E-03 5.14562E-05 2.95333E-02-2.40209E+07 3.79228E+07-6.09900E-03
 -1      2096 3.37594E-03 5.14562E-05 2.95333E-02-2.40209E+07 3.79228E+07-6.09900E-03
 -1      2097 8.43886E-03-2.65338E-04 1.81880E-02-2.37193E+07 9.38218E+07-1.57907E-02
 -1      2099 8.43886E-03-2.65338E-04 1.81880E-02-2.37193E+07 9.38218E+07-1.57907E-02
 -1      2100 1.55643E-02-3.06964E-04 6.65345E-04-1.89550E+07 1.46078E+08-1.55354E-02
 -1      2102 1.55643E-02-3.06964E-04 6.65345E-04-1.89550E+07 1.46078E+08-1.55354E-02
 -1      2103 1.83326E-02-1.91113E-04-3.73735E-03-9.13826E+06 1.89192E+08-6.36898E-03
 -1      2105 1.83326E-02-1.91113E-04-3.73735E-03-9.13826E+06 1.89192E+08-6.36898E-03
 -1      2106 1.29699E-02-3.66858E-04 4.38123E-03 3.16882E+05 2.18156E+08-4.18382E-03
 -1      2108 1.29699E-02-3.66858E-04 4.38123E-03 3.16882E+05 2.18156E+08-4.18382E-03
 -1      2109 5.35019E-03-3.37088E-04 7.47613E-03 1.32130E+07 2.32218E+08-1.22990E-02
 -1      2111 5.35019E-03-3.37088E-04 7.47613E-03 1.32130E+07 2.32218E+08-1.22990E-02
 -1      2112-4.06168E-04-3.50158E-04 1.45873E-03 1.60295E+07 2.32501E+08-1.38903E-02
 -1      2114-4.06168E-04-3.50158E-04 1.45873E-03 1.60295E+07 2.32501E+08-1.38903E-02
 -1      2115-1.45168E-03 2.03679E-04-3.90292E-04 2.61139E+07 2.23505E+08-5.64078E-03
 -1      2117-1.45168E-03 2.03679E-04-3.90292E-04 2.61139E+07 2.23505E+08-5.64078E-03
 -1      2118 7.92042E-04 6.36412E-04 6.18656E-03 9.80913E+06 2.12036E+08-5.77411E-04
 -1      2120 7.92042E-04 6.36412E-04 6.18656E-03 9.80913E+06 2.12036E+08-5.77411E-04
 -1      2121 9.88031E+09 4.13294E+08 1.09319E+06 5.87275E+09-1.96433E+07-5.46280E+07
 -1      2123 9.88031E+09 4.13294E+08 1.09319E+06 5.87275E+09-1.96433E+07-5.46280E+07
 -1      2124 6.38644E+08 2.15013E+07 1.25153E+06 5.18926E+09-4.94384E+06 1.38750E+07
 -1      2126 6.38644E+08 2.15013E+07 1.25153E+06 5.18926E+09-4.94384E+06 1.38750E+07
 -1      2127-6.99618E+09 3.41167E+08-5.06513E+05 3.66198E+09-1.62409E+07-1.58052E+07
 -1      2129-6.99618E+09 3.41167E+08-5.06513E+05 3.66198E+09-1.62409E+07-1.58052E+07
 -1      2130-1.16098E+10 2.72050E+08 1.76401E+06 1.79608E+09-1.83894E+07 2.79013E+06
 -1      2132-1.16098E+10 2.72050E+08 1.76401E+06 1.79608E+09-1.83894E+07 2.79013E+06
 -1      2133-1.28840E+10 3.32927E+08 5.33667E+04-3.07206E+08-1.98184E+07-5.46055E+05
 -1      2135-1.28840E+10 3.32927E+08 5.33667E+04-3.07206E+08-1.98184E+07-5.46055E+05
 -1      2136-1.07288E+10 2.46339E+08 1.03069E+06-2.16371E+09-1.88590E+07 6.08837E+06
 -1      2138-1.07288E+10 2.46339E+08 1.03069E+06-2.16371E+09-1.88590E+07 6.08837E+06
 -1      2139-5.86494E+09 1.69793E+08 2.57510E+05-3.47975E+09-1.43610E+07 7.00103E+06
 -1      2141-5.86494E+09 1.69793E+08 2.57510E+05-3.47975E+09-1.43610E+07 7.00103E+06
 -1      2142 5.59023E+08 3.87897E+07 1.27025E+05-3.97199E+09-1.07044E+07 8.49315E+06
 -1      2144 5.59023E+08 3.87897E+07 1.27025E+05-3.97199E+09-1.07044E+07 8.49315E+06
 -1      2145 7.05366E+09-7.58627E+07-3.96102E+03-3.57204E+09-7.20163E+06 7.44062E+06
 -1      2147 7.05366E+09-7.58627E+07-3.96102E+03-3.57204E+09-7.20163E+06 7.44062E+06
 -1      2148 1.21672E+10-1.77411E+08-5.59137E+05-2.36935E+09-8.34404E+06 5.25445E+06
 -1      2150 1.21672E+10-1.77411E+08-5.59137E+05-2.36935E+09-8.34404E+06 5.25445E+06
 -1      2151 1.47476E+10-2.31321E+08-2.61726E+05-6.35576E+08-1.32766E+07 1.99387E+06
 -1      2153 1.47476E+10-2.31321E+08-2.61726E+05-6.35576E+08-1.32766E+07 1.99387E+06
 -1      2154 1.42061E+10-2.36569E+08-7.69733E+05 1.25417E+09-2.40300E+07-1.50841E+06
 -1      2156 1.42061E+10-2.36569E+08-7.69733E+05 1.25417E+09-2.40300E+07-1.50841E+06
 -1      2157 1.06276E+10-1.88900E+08-1.80840E+05 2.88867E+09-3.79843E+07-4.45906E+06
 -1      2159 1.06276E+10-1.88900E+08-1.80840E+05 2.88867E+09-3.79843E+07-4.45906E+06
 -1      2160 4.75812E+09-1.03158E+08-4.96825E+05 3.91439E+09-5.41380E+07-6.25268E+06
 -1      2162 4.75812E+09-1.03158E+08-4.96825E+05 3.91439E+09-5.41380E+07-6.25268E+06
 -1      2163-2.16040E+09 2.68040E+06 1.93507E+05 4.10735E+09-6.83105E+07-6.40525E+06
 -1      2165-2.16040E+09 2.68040E+06 1.93507E+05 4.10735E+09-6.83105E+07-6.40525E+06
 -1      2166-8.65362E+09 1.03567E+08-3.38213E+04 3.42266E+09-7.80873E+07-4.90566E+06
 -1      2168-8.65362E+09 1.03567E+08-3.38213E+04 3.42266E+09-7.80873E+07-4.90566E+06
 -1      2169-1.33320E+10 1.77904E+08 5.32462E+05 2.00292E+09-7.97652E+07-1.99394E+06
 -1      2171-1.33320E+10 1.77904E+08 5.32462E+05 2.00292E+09-7.97652E+07-1.99394E+06
 -1      2172-1.51873E+10 2.08511E+08 2.23460E+05 1.47995E+08-7.21997E+07 1.70676E+06
 -1      2174-1.51873E+10 2.08511E+08 2.23460E+05 1.47995E+08-7.21997E+07 1.70676E+06
 -1      2175-1.38081E+10 1.89297E+08 5.27663E+05-1.74975E+09-5.43528E+07 5.45317E+06
 -1      2177-1.38081E+10 1.89297E+08 5.27663E+05-1.74975E+09-5.43528E+07 5.45317E+06
 -1      2178-9.46610E+09 1.23697E+08 7.72737E+04-3.28979E+09-2.80981E+07 8.45424E+06
 -1      2180-9.46610E+09 1.23697E+08 7.72737E+04-3.28979E+09-2.80981E+07 8.45424E+06
 -1      2181-3.05640E+09 2.71227E+07 1.56017E+05-4.14984E+09 4.47866E+06 1.00901E+07
 -1      2183-3.05640E+09 2.71227E+07 1.56017E+05-4.14984E+09 4.47866E+06 1.00901E+07
 -1      2184 4.09837E+09-8.03846E+07-3.18874E+05-4.15636E+09 3.90013E+07 1.00080E+07
 -1      2186 4.09837E+09-8.03846E+07-3.18874E+05-4.15636E+09 3.90013E+07 1.00080E+07
 -1      2187 1.05370E+10-1.73363E+08-3.04981E+05-3.32219E+09 7.20682E+07 8.27093E+06
 -1      2189 1.05370E+10-1.73363E+08-3.04981E+05-3.32219E+09 7.20682E+07 8.27093E+06
 -1      2190 1.49818E+10-2.32129E+08-5.81743E+05-1.84896E+09 9.91636E+07 5.14230E+06
 -1      2192 1.49818E+10-2.32129E+08-5.81743E+05-1.84896E+09 9.91636E+07 5.14230E+06
 -1      2193 1.66270E+10-2.42904E+08-5.14240E+05-8.25339E+07 1.18388E+08 1.60480E+06
 -1      2195 1.66270E+10-2.42904E+08-5.14240E+05-8.25339E+07 1.18388E+08 1.60480E+06
 -1      2196 1.53349E+10-1.96949E+08-4.16450E+05 1.54514E+09 1.27494E+08-2.25624E+06
 -1      2198 1.53349E+10-1.96949E+08-4.16450E+05 1.54514E+09 1.27494E+08-2.25624E+06
 -1      2199 1.16945E+10-1.15396E+08-3.00410E+05 2.61775E+09 1.27843E+08-3.89719E+06
 -1      2201 1.16945E+10-1.15396E+08-3.00410E+05 2.61775E+09 1.27843E+08-3.89719E+06
 -1      2202 6.97356E+09 1.23594E+07-7.54198E+03 2.77814E+09 1.20656E+08-6.41556E+06
 -1      2204 6.97356E+09 1.23594E+07-7.54198E+03 2.77814E+09 1.20656E+08-6.41556E+06
 -1      2205 2.84578E+09 1.41333E+08 5.77591E+05 1.83932E+09 1.10317E+08-1.08274E+06
 -1      2207 2.84578E+09 1.41333E+08 5.77591E+05 1.83932E+09 1.10317E+08-1.08274E+06
 -1      2208-9.88031E+09-4.13294E+08-1.09319E+06 5.87275E+09-1.96433E+07 5.46280E+07
 -1      2210-9.88031E+09-4.13294E+08-1.09319E+06 5.87275E+09-1.96433E+07 5.46280E+07
 -1      2211-6.38644E+08-2.15013E+07-1.25153E+06 5.18926E+09-4.94384E+06-1.38750E+07
 -1      2213-6.38644E+08-2.15013E+07-1.25153E+06 5.18926E+09-4.94384E+06-1.38750E+07
 -1      2214 6.99618E+09-3.41167E+08 5.06513E+05 3.66198E+09-1.62409E+07 1.58052E+07
 -1      2216 6.99618E+09-3.41167E+08 5.06513E+05 3.66198E+09-1.62409E+07 1.58052E+07
 -1      2217 1.16098E+10-2.72050E+08-1.76401E+06 1.79608E+09-1.83894E+07-2.79013E+06
 -1      2219 1.16098E+10-2.72050E+08-1.76401E+06 1.79608E+09-1.83894E+07-2.79013E+06
 -1      2220 1.28840E+10-3.32927E+08-5.33667E+04-3.07206E+08-1.98184E+07 5.46055E+05
 -1      2222 1.28840E+10-3.32927E+08-5.33667E+04-3.07206E+08-1.98184E+07 5.46055E+05
 -1      2223 1.07288E+10-2.46339E+08-1.03069E+06-2.16371E+09-1.88590E+07-6.08837E+06
 -1      2225 1.07288E+10-2.46339E+08-1.03069E+06-2.16371E+09-1.88590E+07-6.08837E+06
 -1      2226 5.86494E+09-1.69793E+08-2.57510E+05-3.47975E+09-1.43610E+07-7.00103E+06
 -1      2228 5.86494E+09-1.69793E+08-2.57510E+05-3.47975E+09-1.43610E+07-7.00103E+06
 -1      2229-5.59023E+08-3.87897E+07-1.27025E+05-3.97199E+09-1.07044E+07-8.49315E+06
 -1      2231-5.59023E+08-3.87897E+07-1.27025E+05-3.97199E+09-1.07044E+07-8.49315E+06
 -1      2232-7.05366E+09 7.58627E+07 3.96102E+03-3.57204E+09-7.20163E+06-7.44062E+06
 -1      2234-7.05366E+09 7.58627E+07 3.96102E+03-3.57204E+09-7.20163E+06-7.44062E+06
 -1      2235-1.21672E+10 1.77411E+08 5.59137E+05-2.36935E+09-8.34404E+06-5.25445E+06
 -1      2237-1.21672E+10 1.77411E+08 5.59137E+05-2.36935E+09-8.34404E+06-5.25445E+06
 -1      2238-1.47476E+10 2.31321E+08 2.61726E+05-6.35576E+08-1.32766E+07-1.99387E+06
 -1      2240-1.47476E+10 2.31321E+08 2.61726E+05-6.35576E+08-1.32766E+07-1.99387E+06
 -1      2241-1.42061E+10 2.36569E+08 7.69733E+05 1.25417E+09-2.40300E+07 1.50841E+06
 -1      2243-1.42061E+10 2.36569E+08 7.69733E+05 1.25417E+09-2.40300E+07 1.50841E+06
 -1      2244-1.06276E+10 1.88900E+08 1.80840E+05 2.88867E+09-3.79843E+07 4.45906E+06
 -1      2246-1.06276E+10 1.88900E+08 1.80840E+05 2.88867E+09-3.79843E+07 4.45906E+06
 -1      2247-4.75812E+09 1.03158E+08 4.96825E+05 3.91439E+09-5.41380E+07 6.25268E+06
 -1      2249-4.75812E+09 1.03158E+08 4.96825E+05 3.91439E+09-5.41380E+07 6.25268E+06
 -1      2250 2.16040E+09-2.68040E+06-1.93507E+05 4.10735E+09-6.83105E+07 6.40525E+06
 -1      2252 2.16040E+09-2.68040E+06-1.93507E+05 4.10735E+09-6.83105E+07 6.40525E+06
 -1      2253 8.65362E+09-1.03567E+08 3.38213E+04 3.42266E+09-7.80873E+07 4.90566E+06
 -1      2255 8.65362E+09-1.03567E+08 3.38213E+04 3.42266E+09-7.80873E+07 4.90566E+06
 -1      2256 1.33320E+10-1.77904E+08-5.32462E+05 2.00292E+09-7.97652E+07 1.99394E+06
 -1      2258 1.33320E+10-1.77904E+08-5.32462E+05 2.00292E+09-7.97652E+07 1.99394E+06
 -1      2259 1.51873E+10-2.08511E+08-2.23460E+05 1.47995E+08-7.21997E+07-1.70676E+06
 -1      2261 1.51873E+10-2.08511E+08-2.23460E+05 1.47995E+08-7.21997E+07-1.70676E+06
 -1      2262 1.38081E+10-1.89297E+08-5.27663E+05-1.74975E+09-5.43528E+07-5.45317E+06
 -1      2264 1.38081E+10-1.89297E+08-5.27663E+05-1.74975E+09-5.43528E+07-5.45317E+06
 -1      2265 9.46610E+09-1.23697E+08-7.72737E+04-3.28979E+09-2.80981E+07-8.45424E+06
 -1      2267 9.46610E+09-1.23697E+08-7.72737E+04-3.28979E+09-2.80981E+07-8.45424E+06
 -1      2268 3.05640E+09-2.71227E+07-1.56017E+05-4.14984E+09 4.47866E+06-1.00901E+07
 -1      2270 3.05640E+09-2.71227E+07-1.56017E+05-4.14984E+09 4.47866E+06-1.00901E+07
 -1      2271-4.09837E+09 8.03846E+07 3.18874E+05-4.15636E+09 3.90013E+07-1.00080E+07
 -1      2273-4.09837E+09 8.03846E+07 3.18874E+05-4.15636E+09 3.90013E+07-1.00080E+07
 -1      2274-1.05370E+10 1.73363E+08 3.04981E+05-3.32219E+09 7.20682E+07-8.27093E+06
 -1      2276-1.05370E+10 1.73363E+08 3.04981E+05-3.32219E+09 7.20682E+07-8.27093E+06
 -1      2277-1.49818E+10 2.32129E+08 5.81743E+05-1.84896E+09 9.91636E+07-5.14230E+06
 -1      2279-1.49818E+10 2.32129E+08 5.81743E+05-1.84896E+09 9.91636E+07-5.14230E+06
 -1      2280-1.66270E+10 2.42904E+08 5.14240E+05-8.25339E+07 1.18388E+08-1.60480E+06
 -1      2282-1.66270E+10 2.42904E+08 5.14240E+05-8.25339E+07 1.18388E+08-1.60480E+06
 -1      2283-1.53349E+10 1.96949E+08 4.16450E+05 1.54514E+09 1.27494E+08 2.25624E+06
 -1      2285-1.53349E+10 1.96949E+08 4.16450E+05 1.54514E+09 1.27494E+08 2.25624E+06
 -1      2286-1.16945E+10 1.15396E+08 3.00410E+05 2.61775E+09 1.27843E+08 3.89719E+06
 -1      2288-1.16945E+10 1.15396E+08 3.00410E+05 2.61775E+09 1.27843E+08 3.89719E+06
 -1      2289-6.97356E+09-1.23594E+07 7.54198E+03 2.77814E+09 1.20656E+08 6.41556E+06
 -1      2291-6.97356E+09-1.23594E+07 7.54198E+03 2.77814E+09 1.20656E+08 6.41556E+06
 -1      2292-2.84578E+09-1.41333E+08-5.77591E+05 1.83932E+09 1.10317E+08 1.08274E+06
 -1      2294-2.84578E+09-1.41333E+08-5.77591E+05 1.83932E+09 1.10317E+08 1.08274E+06
 -3
    1PSTEP                        71           1           1          
    1PGM                1.000000E+00                                  
    1PGK                1.582052E+07                                  
    1PHID                         -1                                  
    1PSUBC                         0                                  
    1PMODE                        18                                  
  100CL  118 633.0390862         930                     2   18MODAL      1
 -4  FORC        4    1
 -5  F1          1    2    1    0
 -5  F2          1    2    2    0
 -5  F3          1    2    3    0
 -5  ALL         1    2    0    0    1ALL
 -1       404 5.86901E+06-1.54923E+06 2.21504E+05
 -1       406 5.00749E+06-1.61893E+06 2.21504E+05
 -1       407-3.42847E+04 9.60375E+04-4.71868E+04
 -1       409-3.42847E+04 9.60375E+04-4.71868E+04
 -1       410 1.24723E-06 1.60655E+06 3.22016E-06
 -1       412 1.18842E-06-1.06076E+05 4.01692E-06
 -1       413 3.60205E-06-4.19761E+05 1.34421E+06
 -1       415 3.51527E-06-4.19761E+05-1.34421E+06
 -1       424 4.20862E-06-1.74851E+06-2.90869E-06
 -1       426 7.23268E-06-1.76359E+06-3.08740E-06
 -1       427-1.13682E+06 2.02918E+06-2.18659E+05
 -1       429 1.13682E+06 2.02918E+06 2.18659E+05
 -1       438 3.42847E+04 9.60375E+04 4.71868E+04
 -1       440 3.42847E+04 9.60375E+04 4.71868E+04
 -1       441-5.86901E+06-1.54923E+06-2.21504E+05
 -1       443-5.00749E+06-1.61893E+06-2.21504E+05
 -1       444-1.13682E+06 2.02918E+06 2.18659E+05
 -1       446 1.13682E+06 2.02918E+06-2.18659E+05
 -1       447-9.93538E-06-1.74851E+06 1.90437E-06
 -1       449 2.46862E-06-1.76359E+06 2.09828E-06
 -1       458 1.04783E-06-4.19761E+05-1.34421E+06
 -1       460 9.01618E-07-4.19761E+05 1.34421E+06
 -1       461-5.31743E-06 1.60655E+06-4.43072E-06
 -1       463-5.26079E-06-1.06076E+05-3.45880E-06
 -1       472-5.86901E+06-1.54923E+06 2.21504E+05
 -1       474-5.00749E+06-1.61893E+06 2.21504E+05
 -1       475 3.42847E+04 9.60375E+04-4.71868E+04
 -1       477 3.42847E+04 9.60375E+04-4.71868E+04
 -1       478-3.42847E+04 9.60375E+04 4.71868E+04
 -1       480-3.42847E+04 9.60375E+04 4.71868E+04
 -1       481 5.86901E+06-1.54923E+06-2.21504E+05
 -1       483 5.00749E+06-1.61893E+06-2.21504E+05
 -1       484-1.65702E+04 3.50688E+04-1.75516E+04
 -1       486-1.65702E+04 3.50688E+04-1.75516E+04
 -1       487-2.35500E+04 7.86306E+04-3.53442E+04
 -1       489-2.35500E+04 7.86306E+04-3.53442E+04
 -1       490-1.90407E+04 1.21141E+05-4.86916E+04
 -1       492-1.90407E+04 1.21141E+05-4.86916E+04
 -1       493-6.22978E+03 1.46668E+05-5.50337E+04
 -1       495-6.22978E+03 1.46668E+05-5.50337E+04
 -1       496 1.05781E+04 1.45294E+05-5.37440E+04
 -1       498 1.05781E+04 1.45294E+05-5.37440E+04
 -1       499 2.67604E+04 1.14587E+05-4.47455E+04
 -1       501 2.67604E+04 1.14587E+05-4.47455E+04
 -1       502 3.81372E+04 5.95188E+04-2.93288E+04
 -1       504 3.81372E+04 5.95188E+04-2.93288E+04
 -1       505 4.17959E+04-8.92477E+03-9.57785E+03
 -1       507 4.17959E+04-8.92477E+03-9.57785E+03
 -1       508 3.66261E+04-7.63679E+04 1.17964E+04
 -1       510 3.66261E+04-7.63679E+04 1.17964E+04
 -1       511 2.35235E+04-1.28287E+05 3.19980E+04
 -1       513 2.35235E+04-1.28287E+05 3.19980E+04
 -1       514 5.16093E+03-1.53258E+05 4.85635E+04
 -1       516 5.16093E+03-1.53258E+05 4.85635E+04
 -1       517-1.46006E+04-1.45495E+05 5.97619E+04
 -1       519-1.46006E+04-1.45495E+05 5.97619E+04
 -1       520-3.15562E+04-1.06164E+05 6.48114E+04
 -1       522-3.15562E+04-1.06164E+05 6.48114E+04
 -1       523-4.20679E+04-4.31882E+04 6.39187E+04
 -1       525-4.20679E+04-4.31882E+04 6.39187E+04
 -1       526-4.38548E+04 3.04084E+04 5.81211E+04
 -1       528-4.38548E+04 3.04084E+04 5.81211E+04
 -1       529-3.64896E+04 9.92624E+04 4.89814E+04
 -1       531-3.64896E+04 9.92624E+04 4.89814E+04
 -1       532-2.15000E+04 1.48947E+05 3.82037E+04
 -1       534-2.15000E+04 1.48947E+05 3.82037E+04
 -1       535-2.05046E+03 1.69059E+05 2.72555E+04
 -1       537-2.05046E+03 1.69059E+05 2.72555E+04
 -1       538 1.77258E+04 1.55460E+05 1.70800E+04
 -1       540 1.77258E+04 1.55460E+05 1.70800E+04
 -1       541 3.36001E+04 1.11188E+05 7.95714E+03
 -1       543 3.36001E+04 1.11188E+05 7.95714E+03
 -1       544 4.21403E+04 4.58548E+04-4.60950E+02
 -1       546 4.21403E+04 4.58548E+04-4.60950E+02
 -1       547 4.14283E+04-2.63531E+04-8.95106E+03
 -1       549 4.14283E+04-2.63531E+04-8.95106E+03
 -1       550 3.14466E+04-8.96146E+04-1.84109E+04
 -1       552 3.14466E+04-8.96146E+04-1.84109E+04
 -1       553 1.40476E+04-1.29734E+05-2.95107E+04
 -1       555 1.40476E+04-1.29734E+05-2.95107E+04
 -1       556-7.49270E+03-1.36994E+05-4.23999E+04
 -1       558-7.49270E+03-1.36994E+05-4.23999E+04
 -1       559-2.92515E+04-1.07976E+05-5.65185E+04
 -1       561-2.92515E+04-1.07976E+05-5.65185E+04
 -1       562-4.76147E+04-4.58911E+04-7.06108E+04
 -1       564-4.76147E+04-4.58911E+04-7.06108E+04
 -1       565-6.02188E+04 4.06454E+04-8.28552E+04
 -1       567-6.02188E+04 4.06454E+04-8.28552E+04
 -1       568-6.67304E+04 1.40374E+05-9.13144E+04
 -1       570-6.67304E+04 1.40374E+05-9.13144E+04
 -1       571-4.56399E+04 1.92043E+05-6.08934E+04
 -1       573-4.56399E+04 1.92043E+05-6.08934E+04
 -1       574 7.33329E-07-6.18624E+05-3.75012E-06
 -1       576 7.08445E-07-1.67909E+05-3.31996E-06
 -1       577 3.22549E-06 5.32951E+05-3.53759E+05
 -1       579 3.31264E-06 5.32951E+05 3.53759E+05
 -1       588-3.21337E-06 1.03935E+06-2.73942E-06
 -1       590-3.17933E-06 1.70899E+06-2.49758E-06
 -1       591-1.35280E-07-1.05827E+06-5.25589E+05
 -1       593 1.26771E-07-1.05827E+06 5.25589E+05
 -1       602-4.53489E-06 6.62405E+05 1.90231E-06
 -1       604-4.53977E-06 1.61088E+06 4.62821E-08
 -1       605-1.84051E-06-6.53172E+05-7.44446E+05
 -1       607-1.55624E-06-6.53172E+05 7.44446E+05
 -1       616 1.78238E-06 1.19706E+06 9.99353E-06
 -1       618 1.77405E-06 2.37418E+06 8.84615E-06
 -1       619 1.77362E-07-1.20318E+06-9.23898E+05
 -1       621 3.46397E-07-1.20318E+06 9.23898E+05
 -1       630 6.73511E-06 9.64050E+05 1.35787E-05
 -1       632 6.76197E-06 2.17029E+06 1.31145E-05
 -1       633-8.88482E-07-9.88766E+05-9.46761E+05
 -1       635-1.13713E-06-9.88766E+05 9.46761E+05
 -1       644 5.85150E-06 8.37137E+05 8.89956E-06
 -1       646 5.94693E-06 1.92015E+06 8.40843E-06
 -1       647-4.71781E-06-9.16168E+05-8.50041E+05
 -1       649-5.01237E-06-9.16168E+05 8.50041E+05
 -1       658-1.56714E-07 3.65261E+05 8.56904E-07
 -1       660-1.20624E-07 1.17543E+06 2.60043E-07
 -1       661-7.22152E-06-5.16269E+05-6.35889E+05
 -1       663-7.30203E-06-5.16269E+05 6.35889E+05
 -1       672-4.60932E-06-1.21215E+05 1.20595E-06
 -1       674-4.59540E-06 3.62753E+05 8.88828E-07
 -1       675-7.29553E-06-1.26515E+05-3.79859E+05
 -1       677-7.26302E-06-1.26515E+05 3.79859E+05
 -1       686 3.07025E-07-6.80429E+05 8.25940E-06
 -1       688 2.76041E-07-4.77596E+05 6.20509E-06
 -1       689-7.33520E-06 3.15900E+05-1.59200E+05
 -1       691-7.33447E-06 3.15900E+05 1.59200E+05
 -1       700 8.21850E-06-1.14403E+06 8.29561E-06
 -1       702 8.13971E-06-1.07739E+06 7.58588E-06
 -1       703-8.81686E-06 6.46927E+05-5.23039E+04
 -1       705-8.77498E-06 6.46927E+05 5.23039E+04
 -1       714 1.02280E-05-1.48029E+06 2.56022E-06
 -1       716 1.01570E-05-1.33220E+06 4.31067E-06
 -1       717-9.94939E-06 8.41321E+05-1.16232E+05
 -1       719-9.93394E-06 8.41321E+05 1.16232E+05
 -1       728 8.61429E-06-1.61912E+06-1.78634E-06
 -1       730 8.65651E-06-1.15271E+06-3.80154E-07
 -1       731-8.15087E-06 8.41300E+05-3.66076E+05
 -1       733-8.14320E-06 8.41300E+05 3.66076E+05
 -1       742 8.22636E-06-1.56324E+06-5.48146E-07
 -1       744 8.30790E-06-5.75964E+05-9.46510E-07
 -1       745-3.02268E-06 6.62888E+05-7.74896E+05
 -1       747-3.12547E-06 6.62888E+05 7.74896E+05
 -1       756 4.20496E-06-1.33153E+06 2.29713E-06
 -1       758 4.23504E-06 2.85910E+05 1.77278E-06
 -1       759 2.63121E-07 3.42668E+05-1.26950E+06
 -1       761 3.49337E-09 3.42668E+05 1.26950E+06
 -1       770-1.07085E-06-9.83012E+05 1.02761E-06
 -1       772-1.07637E-06 1.24562E+06 1.37421E-06
 -1       773 1.73828E-06-4.40963E+04-1.74921E+06
 -1       775 1.76041E-06-4.40963E+04 1.74921E+06
 -1       784 1.57453E-07-5.86372E+05-1.49169E-06
 -1       786 2.27765E-07 2.08988E+06-1.37626E-06
 -1       787 5.54009E-06-4.13073E+05-2.10054E+06
 -1       789 5.73771E-06-4.13073E+05 2.10054E+06
 -1       798-3.30397E-07-2.13561E+05 1.92540E-06
 -1       800-3.27233E-07 2.62040E+06 1.21478E-06
 -1       801 5.52579E-06-6.82450E+05-2.22433E+06
 -1       803 5.55339E-06-6.82450E+05 2.22433E+06
 -1       812-7.03807E-06 8.05833E+04 5.67324E-06
 -1       814-7.09516E-06 2.69697E+06 5.54176E-06
 -1       815-5.03409E-07-7.93243E+05-2.05356E+06
 -1       817-5.17572E-07-7.93243E+05 2.05356E+06
 -1       826-8.51162E-06 2.67328E+05 3.57311E-06
 -1       828-8.53554E-06 2.26922E+06 3.12327E-06
 -1       829-4.39589E-06-7.21392E+05-1.57125E+06
 -1       831-4.56160E-06-7.21392E+05 1.57125E+06
 -1       840-6.35020E-06 3.50010E+05-1.33492E-07
 -1       842-6.34479E-06 1.38648E+06-5.75483E-09
 -1       843-3.08534E-06-4.82278E+05-8.13508E+05
 -1       845-3.29922E-06-4.82278E+05 8.13508E+05
 -1       854-6.06744E-06 3.61268E+05 3.79512E-06
 -1       856-6.10284E-06 1.91281E+05 3.29251E-06
 -1       857 2.74697E-07-1.28331E+05 1.33420E+05
 -1       859 3.11213E-08-1.28331E+05-1.33420E+05
 -1       868-6.39508E-06 3.55704E+05 8.62849E-06
 -1       870-6.43697E-06-1.11001E+06 8.63906E-06
 -1       871 1.95052E-06 2.61972E+05 1.15042E+06
 -1       873 1.82028E-06 2.61972E+05-1.15042E+06
 -1       882-5.44238E-06 3.90735E+05 6.83358E-06
 -1       884-5.50223E-06-2.29136E+06 5.83915E-06
 -1       885 2.10081E-06 6.04872E+05 2.10513E+06
 -1       887 1.82564E-06 6.04872E+05-2.10513E+06
 -1       896-6.81344E-07 5.26491E+05 1.95830E-06
 -1       898-8.15291E-07-3.14058E+06 2.03925E-06
 -1       899 4.38204E-06 8.16099E+05 2.87823E+06
 -1       901 4.12709E-06 8.16099E+05-2.87823E+06
 -1       910 8.96426E-07 7.78880E+05 3.27713E-06
 -1       912 8.28558E-07-3.53278E+06 1.86616E-06
 -1       913 4.28269E-06 8.60479E+05 3.38415E+06
 -1       915 4.19832E-06 8.60479E+05-3.38415E+06
 -1       924-1.87352E-06 1.18316E+06 4.84611E-06
 -1       926-1.92016E-06-3.38390E+06 2.43497E-06
 -1       927 3.15633E-06 6.90186E+05 3.58461E+06
 -1       929 3.22592E-06 6.90186E+05-3.58461E+06
 -1       938-3.50459E-06 1.65576E+06 3.98071E-06
 -1       940-3.54285E-06-2.80788E+06 3.07080E-06
 -1       941 2.86711E-06 3.91073E+05 3.50344E+06
 -1       943 2.97823E-06 3.91073E+05-3.50344E+06
 -1       952-3.78790E-06 2.26489E+06 5.09477E-06
 -1       954-3.89656E-06-1.82010E+06 5.78709E-06
 -1       955 2.05144E-06-9.63952E+04 3.20624E+06
 -1       957 2.25586E-06-9.63952E+04-3.20624E+06
 -1       966 3.71695E-07 2.79105E+06 6.65185E-06
 -1       968 2.64384E-07-8.40890E+05 7.56121E-06
 -1       969 3.80353E-06-4.95731E+05 2.85065E+06
 -1       971 3.84471E-06-4.95731E+05-2.85065E+06
 -1       980 5.48736E+06-1.02074E+06 1.53009E+05
 -1       982 4.42786E+06-1.09798E+06 1.53009E+05
 -1       983 4.56399E+04 1.92043E+05 6.08934E+04
 -1       985 4.56399E+04 1.92043E+05 6.08934E+04
 -1       986 1.65702E+04 3.50688E+04 1.75516E+04
 -1       988 1.65702E+04 3.50688E+04 1.75516E+04
 -1       989 2.35500E+04 7.86306E+04 3.53442E+04
 -1       991 2.35500E+04 7.86306E+04 3.53442E+04
 -1       992 1.90407E+04 1.21141E+05 4.86916E+04
 -1       994 1.90407E+04 1.21141E+05 4.86916E+04
 -1       995 6.22978E+03 1.46668E+05 5.50337E+04
 -1       997 6.22978E+03 1.46668E+05 5.50337E+04
 -1       998-1.05781E+04 1.45294E+05 5.37440E+04
 -1      1000-1.05781E+04 1.45294E+05 5.37440E+04
 -1      1001-2.67604E+04 1.14587E+05 4.47455E+04
 -1      1003-2.67604E+04 1.14587E+05 4.47455E+04
 -1      1004-3.81372E+04 5.95188E+04 2.93288E+04
 -1      1006-3.81372E+04 5.95188E+04 2.93288E+04
 -1      1007-4.17959E+04-8.92477E+03 9.57785E+03
 -1      1009-4.17959E+04-8.92477E+03 9.57785E+03
 -1      1010-3.66261E+04-7.63679E+04-1.17964E+04
 -1      1012-3.66261E+04-7.63679E+04-1.17964E+04
 -1      1013-2.35235E+04-1.28287E+05-3.19980E+04
 -1      1015-2.35235E+04-1.28287E+05-3.19980E+04
 -1      1016-5.16093E+03-1.53258E+05-4.85635E+04
 -1      1018-5.16093E+03-1.53258E+05-4.85635E+04
 -1      1019 1.46006E+04-1.45495E+05-5.97619E+04
 -1      1021 1.46006E+04-1.45495E+05-5.97619E+04
 -1      1022 3.15562E+04-1.06164E+05-6.48114E+04
 -1      1024 3.15562E+04-1.06164E+05-6.48114E+04
 -1      1025 4.20679E+04-4.31882E+04-6.39187E+04
 -1      1027 4.20679E+04-4.31882E+04-6.39187E+04
 -1      1028 4.38548E+04 3.04084E+04-5.81211E+04
 -1      1030 4.38548E+04 3.04084E+04-5.81211E+04
 -1      1031 3.64896E+04 9.92624E+04-4.89814E+04
 -1      1033 3.64896E+04 9.92624E+04-4.89814E+04
 -1      1034 2.15000E+04 1.48947E+05-3.82037E+04
 -1      1036 2.15000E+04 1.48947E+05-3.82037E+04
 -1      1037 2.05046E+03 1.69059E+05-2.72555E+04
 -1      1039 2.05046E+03 1.69059E+05-2.72555E+04
 -1      1040-1.77258E+04 1.55460E+05-1.70800E+04
 -1      1042-1.77258E+04 1.55460E+05-1.70800E+04
 -1      1043-3.36001E+04 1.11188E+05-7.95714E+03
 -1      1045-3.36001E+04 1.11188E+05-7.95714E+03
 -1      1046-4.21403E+04 4.58548E+04 4.60950E+02
 -1      1048-4.21403E+04 4.58548E+04 4.60950E+02
 -1      1049-4.14283E+04-2.63531E+04 8.95106E+03
 -1      1051-4.14283E+04-2.63531E+04 8.95106E+03
 -1      1052-3.14466E+04-8.96146E+04 1.84109E+04
 -1      1054-3.14466E+04-8.96146E+04 1.84109E+04
 -1      1055-1.40476E+04-1.29734E+05 2.95107E+04
 -1      1057-1.40476E+04-1.29734E+05 2.95107E+04
 -1      1058 7.49270E+03-1.36994E+05 4.23999E+04
 -1      1060 7.49270E+03-1.36994E+05 4.23999E+04
 -1      1061 2.92515E+04-1.07976E+05 5.65185E+04
 -1      1063 2.92515E+04-1.07976E+05 5.65185E+04
 -1      1064 4.76147E+04-4.58911E+04 7.06108E+04
 -1      1066 4.76147E+04-4.58911E+04 7.06108E+04
 -1      1067 6.02188E+04 4.06454E+04 8.28552E+04
 -1      1069 6.02188E+04 4.06454E+04 8.28552E+04
 -1      1070 6.67304E+04 1.40374E+05 9.13144E+04
 -1      1072 6.67304E+04 1.40374E+05 9.13144E+04
 -1      1073-5.48736E+06-1.02074E+06-1.53009E+05
 -1      1075-4.42786E+06-1.09798E+06-1.53009E+05
 -1      1076-4.41854E+06-1.41289E+06-1.93589E+05
 -1      1078 4.41854E+06-1.41289E+06 1.93589E+05
 -1      1079-6.56344E+06-2.33657E+06 5.50965E-06
 -1      1081 6.56344E+06-2.33657E+06 3.32478E-06
 -1      1082-4.41854E+06-1.41289E+06 1.93589E+05
 -1      1084 4.41854E+06-1.41289E+06-1.93589E+05
 -1      1085-3.76657E-06 5.32951E+05 3.53759E+05
 -1      1087-3.49604E-06 5.32951E+05-3.53759E+05
 -1      1088 1.30570E-05-6.18624E+05-4.69885E-07
 -1      1090 1.30010E-05-1.67909E+05-1.14887E-06
 -1      1099-1.99047E-06-1.05827E+06 5.25589E+05
 -1      1101-1.87688E-06-1.05827E+06-5.25589E+05
 -1      1102 7.30585E-06 1.03935E+06 1.51045E-06
 -1      1104 7.29121E-06 1.70899E+06 2.76816E-07
 -1      1113-1.50969E-06-6.53172E+05 7.44446E+05
 -1      1115-1.34240E-06-6.53172E+05-7.44446E+05
 -1      1116-7.23761E-07 6.62405E+05 9.92577E-08
 -1      1118-6.95050E-07 1.61088E+06-8.92314E-08
 -1      1127-4.14813E-07-1.20318E+06 9.23898E+05
 -1      1129 1.30578E-07-1.20318E+06-9.23898E+05
 -1      1130-1.13883E-06 1.19706E+06 1.56989E-06
 -1      1132-1.13599E-06 2.37418E+06 2.73897E-07
 -1      1141 1.16884E-06-9.88766E+05 9.46761E+05
 -1      1143 1.43466E-06-9.88766E+05-9.46761E+05
 -1      1144-1.01611E-07 9.64050E+05-3.96241E-06
 -1      1146-7.19065E-08 2.17029E+06-5.87862E-06
 -1      1155 2.40267E-06-9.16168E+05 8.50041E+05
 -1      1157 2.19193E-06-9.16168E+05-8.50041E+05
 -1      1158 3.35011E-06 8.37137E+05-9.20557E-06
 -1      1160 3.45957E-06 1.92015E+06-8.11199E-06
 -1      1169 9.09209E-07-5.16269E+05 6.35889E+05
 -1      1171 8.75027E-07-5.16269E+05-6.35889E+05
 -1      1172 5.78349E-06 3.65261E+05-6.59245E-06
 -1      1174 5.88758E-06 1.17543E+06-4.89820E-06
 -1      1183-4.88273E-07-1.26515E+05 3.79859E+05
 -1      1185-4.58313E-07-1.26515E+05-3.79859E+05
 -1      1186 5.52607E-08-1.21215E+05-1.27938E-06
 -1      1188 5.86226E-08 3.62753E+05-1.04252E-06
 -1      1197 2.84758E-06 3.15900E+05 1.59200E+05
 -1      1199 2.78721E-06 3.15900E+05-1.59200E+05
 -1      1200-4.70514E-06-6.80429E+05-3.29028E-06
 -1      1202-4.73673E-06-4.77596E+05-4.00430E-06
 -1      1211 7.89718E-06 6.46927E+05 5.23039E+04
 -1      1213 7.81742E-06 6.46927E+05-5.23039E+04
 -1      1214-1.10165E-06-1.14403E+06-7.63760E-06
 -1      1216-1.02916E-06-1.07739E+06-6.62176E-06
 -1      1225 6.73649E-06 8.41321E+05 1.16232E+05
 -1      1227 6.65296E-06 8.41321E+05-1.16232E+05
 -1      1228-1.86010E-06-1.48029E+06-5.90994E-06
 -1      1230-1.68865E-06-1.33220E+06-4.06059E-06
 -1      1239 2.27395E-06 8.41300E+05 3.66076E+05
 -1      1241 2.05077E-06 8.41300E+05-3.66076E+05
 -1      1242-9.21468E-06-1.61912E+06-1.14137E-07
 -1      1244-9.18881E-06-1.15271E+06 9.01395E-07
 -1      1253 2.30234E-06 6.62888E+05 7.74896E+05
 -1      1255 2.06722E-06 6.62888E+05-7.74896E+05
 -1      1256-1.15619E-05-1.56324E+06 3.57979E-06
 -1      1258-1.15845E-05-5.75964E+05 3.56603E-06
 -1      1267 3.13520E-06 3.42668E+05 1.26950E+06
 -1      1269 3.03329E-06 3.42668E+05-1.26950E+06
 -1      1270-6.91721E-06-1.33153E+06 1.56603E-06
 -1      1272-6.84418E-06 2.85910E+05 2.58403E-06
 -1      1281 2.27394E-06-4.40963E+04 1.74921E+06
 -1      1283 2.18896E-06-4.40963E+04-1.74921E+06
 -1      1284 1.11393E-06-9.83012E+05-1.58117E-06
 -1      1286 1.13450E-06 1.24562E+06 3.36540E-07
 -1      1295 1.06021E-06-4.13073E+05 2.10054E+06
 -1      1297 9.47288E-07-4.13073E+05-2.10054E+06
 -1      1298 7.10996E-06-5.86372E+05-8.09485E-07
 -1      1300 7.08276E-06 2.08988E+06-5.09675E-07
 -1      1309 2.80800E-06-6.82450E+05 2.22433E+06
 -1      1311 2.63399E-06-6.82450E+05-2.22433E+06
 -1      1312 7.52464E-06-2.13561E+05-7.34091E-08
 -1      1314 7.54399E-06 2.62040E+06-1.23356E-06
 -1      1323 4.88790E-06-7.93243E+05 2.05356E+06
 -1      1325 5.14985E-06-7.93243E+05-2.05356E+06
 -1      1326 3.09509E-06 8.05833E+04-2.37957E-06
 -1      1328 3.12271E-06 2.69697E+06-2.54238E-06
 -1      1337 2.37965E-06-7.21392E+05 1.57125E+06
 -1      1339 2.65296E-06-7.21392E+05-1.57125E+06
 -1      1340-3.68489E-06 2.67328E+05-4.96888E-06
 -1      1342-3.68198E-06 2.26922E+06-3.63083E-06
 -1      1351-9.83391E-07-4.82278E+05 8.13508E+05
 -1      1353-8.73808E-07-4.82278E+05-8.13508E+05
 -1      1354-5.41372E-06 3.50010E+05-6.50792E-06
 -1      1356-5.43086E-06 1.38648E+06-5.88719E-06
 -1      1365-3.03996E-06-1.28331E+05-1.33420E+05
 -1      1367-2.77921E-06-1.28331E+05 1.33420E+05
 -1      1368-3.85920E-06 3.61268E+05-1.11548E-05
 -1      1370-3.95239E-06 1.91281E+05-1.01271E-05
 -1      1379-6.44911E-06 2.61972E+05-1.15042E+06
 -1      1381-6.13975E-06 2.61972E+05 1.15042E+06
 -1      1382-5.20033E-06 3.55704E+05-1.09056E-05
 -1      1384-5.23130E-06-1.11001E+06-1.02161E-05
 -1      1393-6.81679E-06 6.04872E+05-2.10513E+06
 -1      1395-6.64336E-06 6.04872E+05 2.10513E+06
 -1      1396-4.21101E-06 3.90735E+05 1.11749E-07
 -1      1398-4.24537E-06-2.29136E+06-1.89868E-06
 -1      1407-1.74967E-06 8.16099E+05-2.87823E+06
 -1      1409-1.91720E-06 8.16099E+05 2.87823E+06
 -1      1410-1.05150E-06 5.26491E+05 3.65999E-06
 -1      1412-1.00992E-06-3.14058E+06 3.22981E-06
 -1      1421 4.36841E-07 8.60479E+05-3.38415E+06
 -1      1423 3.20942E-07 8.60479E+05 3.38415E+06
 -1      1424 1.09411E-06 7.78880E+05-3.75266E-06
 -1      1426 1.10212E-06-3.53278E+06-3.09181E-06
 -1      1435-2.37098E-06 6.90186E+05-3.58461E+06
 -1      1437-2.23578E-06 6.90186E+05 3.58461E+06
 -1      1438 2.42181E-06 1.18316E+06-8.95522E-06
 -1      1440 2.32709E-06-3.38390E+06-5.72883E-06
 -1      1449-2.89742E-06 3.91073E+05-3.50344E+06
 -1      1451-2.65019E-06 3.91073E+05 3.50344E+06
 -1      1452 1.04114E-06 1.65576E+06-5.11968E-06
 -1      1454 9.62189E-07-2.80788E+06-4.04261E-06
 -1      1463-8.72104E-07-9.63952E+04-3.20624E+06
 -1      1465-6.94410E-07-9.63952E+04 3.20624E+06
 -1      1466-4.37180E-06 2.26489E+06-2.84342E-06
 -1      1468-4.37097E-06-1.82010E+06-1.81791E-06
 -1      1477 2.91759E-07-4.95731E+05-2.85065E+06
 -1      1479 1.79884E-07-4.95731E+05 2.85065E+06
 -1      1480-8.20033E-06 2.79105E+06-4.61700E-06
 -1      1482-8.14511E-06-8.40890E+05-5.10368E-06
 -1      1491 9.19572E-07 2.68829E+05-8.79663E-09
 -1      1493 1.05481E-06 2.68829E+05 2.46040E-07
 -1      1494 1.74681E-06 2.60731E+05-6.88804E-07
 -1      1496 2.02494E-06 2.60731E+05-9.89836E-07
 -1      1497-9.28307E-07 2.68829E+05-1.82532E-06
 -1      1499-1.04028E-06 2.68829E+05-2.17913E-06
 -1      1500 1.65702E+04 3.50688E+04-1.75516E+04
 -1      1502 1.65702E+04 3.50688E+04-1.75516E+04
 -1      1503 2.35500E+04 7.86306E+04-3.53442E+04
 -1      1505 2.35500E+04 7.86306E+04-3.53442E+04
 -1      1506 1.90407E+04 1.21141E+05-4.86916E+04
 -1      1508 1.90407E+04 1.21141E+05-4.86916E+04
 -1      1509 6.22978E+03 1.46668E+05-5.50337E+04
 -1      1511 6.22978E+03 1.46668E+05-5.50337E+04
 -1      1512-1.05781E+04 1.45294E+05-5.37440E+04
 -1      1514-1.05781E+04 1.45294E+05-5.37440E+04
 -1      1515-2.67604E+04 1.14587E+05-4.47455E+04
 -1      1517-2.67604E+04 1.14587E+05-4.47455E+04
 -1      1518-3.81372E+04 5.95188E+04-2.93288E+04
 -1      1520-3.81372E+04 5.95188E+04-2.93288E+04
 -1      1521-4.17959E+04-8.92477E+03-9.57785E+03
 -1      1523-4.17959E+04-8.92477E+03-9.57785E+03
 -1      1524-3.66261E+04-7.63679E+04 1.17964E+04
 -1      1526-3.66261E+04-7.63679E+04 1.17964E+04
 -1      1527-2.35235E+04-1.28287E+05 3.19980E+04
 -1      1529-2.35235E+04-1.28287E+05 3.19980E+04
 -1      1530-5.16093E+03-1.53258E+05 4.85635E+04
 -1      1532-5.16093E+03-1.53258E+05 4.85635E+04
 -1      1533 1.46006E+04-1.45495E+05 5.97619E+04
 -1      1535 1.46006E+04-1.45495E+05 5.97619E+04
 -1      1536 3.15562E+04-1.06164E+05 6.48114E+04
 -1      1538 3.15562E+04-1.06164E+05 6.48114E+04
 -1      1539 4.20679E+04-4.31882E+04 6.39187E+04
 -1      1541 4.20679E+04-4.31882E+04 6.39187E+04
 -1      1542 4.38548E+04 3.04084E+04 5.81211E+04
 -1      1544 4.38548E+04 3.04084E+04 5.81211E+04
 -1      1545 3.64896E+04 9.92624E+04 4.89814E+04
 -1      1547 3.64896E+04 9.92624E+04 4.89814E+04
 -1      1548 2.15000E+04 1.48947E+05 3.82037E+04
 -1      1550 2.15000E+04 1.48947E+05 3.82037E+04
 -1      1551 2.05046E+03 1.69059E+05 2.72555E+04
 -1      1553 2.05046E+03 1.69059E+05 2.72555E+04
 -1      1554-1.77258E+04 1.55460E+05 1.70800E+04
 -1      1556-1.77258E+04 1.55460E+05 1.70800E+04
 -1      1557-3.36001E+04 1.11188E+05 7.95714E+03
 -1      1559-3.36001E+04 1.11188E+05 7.95714E+03
 -1      1560-4.21403E+04 4.58548E+04-4.60950E+02
 -1      1562-4.21403E+04 4.58548E+04-4.60950E+02
 -1      1563-4.14283E+04-2.63531E+04-8.95106E+03
 -1      1565-4.14283E+04-2.63531E+04-8.95106E+03
 -1      1566-3.14466E+04-8.96146E+04-1.84109E+04
 -1      1568-3.14466E+04-8.96146E+04-1.84109E+04
 -1      1569-1.40476E+04-1.29734E+05-2.95107E+04
 -1      1571-1.40476E+04-1.29734E+05-2.95107E+04
 -1      1572 7.49270E+03-1.36994E+05-4.23999E+04
 -1      1574 7.49270E+03-1.36994E+05-4.23999E+04
 -1      1575 2.92515E+04-1.07976E+05-5.65185E+04
 -1      1577 2.92515E+04-1.07976E+05-5.65185E+04
 -1      1578 4.76147E+04-4.58911E+04-7.06108E+04
 -1      1580 4.76147E+04-4.58911E+04-7.06108E+04
 -1      1581 6.02188E+04 4.06454E+04-8.28552E+04
 -1      1583 6.02188E+04 4.06454E+04-8.28552E+04
 -1      1584 6.67304E+04 1.40374E+05-9.13144E+04
 -1      1586 6.67304E+04 1.40374E+05-9.13144E+04
 -1      1587 4.56399E+04 1.92043E+05-6.08934E+04
 -1      1589 4.56399E+04 1.92043E+05-6.08934E+04
 -1      1590-5.48736E+06-1.02074E+06 1.53009E+05
 -1      1592-4.42786E+06-1.09798E+06 1.53009E+05
 -1      1593-4.56399E+04 1.92043E+05 6.08934E+04
 -1      1595-4.56399E+04 1.92043E+05 6.08934E+04
 -1      1596-1.65702E+04 3.50688E+04 1.75516E+04
 -1      1598-1.65702E+04 3.50688E+04 1.75516E+04
 -1      1599-2.35500E+04 7.86306E+04 3.53442E+04
 -1      1601-2.35500E+04 7.86306E+04 3.53442E+04
 -1      1602-1.90407E+04 1.21141E+05 4.86916E+04
 -1      1604-1.90407E+04 1.21141E+05 4.86916E+04
 -1      1605-6.22978E+03 1.46668E+05 5.50337E+04
 -1      1607-6.22978E+03 1.46668E+05 5.50337E+04
 -1      1608 1.05781E+04 1.45294E+05 5.37440E+04
 -1      1610 1.05781E+04 1.45294E+05 5.37440E+04
 -1      1611 2.67604E+04 1.14587E+05 4.47455E+04
 -1      1613 2.67604E+04 1.14587E+05 4.47455E+04
 -1      1614 3.81372E+04 5.95188E+04 2.93288E+04
 -1      1616 3.81372E+04 5.95188E+04 2.93288E+04
 -1      1617 4.17959E+04-8.92477E+03 9.57785E+03
 -1      1619 4.17959E+04-8.92477E+03 9.57785E+03
 -1      1620 3.66261E+04-7.63679E+04-1.17964E+04
 -1      1622 3.66261E+04-7.63679E+04-1.17964E+04
 -1      1623 2.35235E+04-1.28287E+05-3.19980E+04
 -1      1625 2.35235E+04-1.28287E+05-3.19980E+04
 -1      1626 5.16093E+03-1.53258E+05-4.85635E+04
 -1      1628 5.16093E+03-1.53258E+05-4.85635E+04
 -1      1629-1.46006E+04-1.45495E+05-5.97619E+04
 -1      1631-1.46006E+04-1.45495E+05-5.97619E+04
 -1      1632-3.15562E+04-1.06164E+05-6.48114E+04
 -1      1634-3.15562E+04-1.06164E+05-6.48114E+04
 -1      1635-4.20679E+04-4.31882E+04-6.39187E+04
 -1      1637-4.20679E+04-4.31882E+04-6.39187E+04
 -1      1638-4.38548E+04 3.04084E+04-5.81211E+04
 -1      1640-4.38548E+04 3.04084E+04-5.81211E+04
 -1      1641-3.64896E+04 9.92624E+04-4.89814E+04
 -1      1643-3.64896E+04 9.92624E+04-4.89814E+04
 -1      1644-2.15000E+04 1.48947E+05-3.82037E+04
 -1      1646-2.15000E+04 1.48947E+05-3.82037E+04
 -1      1647-2.05046E+03 1.69059E+05-2.72555E+04
 -1      1649-2.05046E+03 1.69059E+05-2.72555E+04
 -1      1650 1.77258E+04 1.55460E+05-1.70800E+04
 -1      1652 1.77258E+04 1.55460E+05-1.70800E+04
 -1      1653 3.36001E+04 1.11188E+05-7.95714E+03
 -1      1655 3.36001E+04 1.11188E+05-7.95714E+03
 -1      1656 4.21403E+04 4.58548E+04 4.60950E+02
 -1      1658 4.21403E+04 4.58548E+04 4.60950E+02
 -1      1659 4.14283E+04-2.63531E+04 8.95106E+03
 -1      1661 4.14283E+04-2.63531E+04 8.95106E+03
 -1      1662 3.14466E+04-8.96146E+04 1.84109E+04
 -1      1664 3.14466E+04-8.96146E+04 1.84109E+04
 -1      1665 1.40476E+04-1.29734E+05 2.95107E+04
 -1      1667 1.40476E+04-1.29734E+05 2.95107E+04
 -1      1668-7.49270E+03-1.36994E+05 4.23999E+04
 -1      1670-7.49270E+03-1.36994E+05 4.23999E+04
 -1      1671-2.92515E+04-1.07976E+05 5.65185E+04
 -1      1673-2.92515E+04-1.07976E+05 5.65185E+04
 -1      1674-4.76147E+04-4.58911E+04 7.06108E+04
 -1      1676-4.76147E+04-4.58911E+04 7.06108E+04
 -1      1677-6.02188E+04 4.06454E+04 8.28552E+04
 -1      1679-6.02188E+04 4.06454E+04 8.28552E+04
 -1      1680-6.67304E+04 1.40374E+05 9.13144E+04
 -1      1682-6.67304E+04 1.40374E+05 9.13144E+04
 -1      1683 5.48736E+06-1.02074E+06-1.53009E+05
 -1      1685 4.42786E+06-1.09798E+06-1.53009E+05
 -1      1686-2.14482E+04 6.91066E+04-2.41508E+04
 -1      1688-2.14482E+04 6.91066E+04-2.41508E+04
 -1      1689-3.07782E+04 1.57192E+05-4.86937E+04
 -1      1691-3.07782E+04 1.57192E+05-4.86937E+04
 -1      1692-2.49702E+04 2.43269E+05-6.71360E+04
 -1      1694-2.49702E+04 2.43269E+05-6.71360E+04
 -1      1695-8.09337E+03 2.94854E+05-7.59505E+04
 -1      1697-8.09337E+03 2.94854E+05-7.59505E+04
 -1      1698 1.40696E+04 2.92285E+05-7.42794E+04
 -1      1700 1.40696E+04 2.92285E+05-7.42794E+04
 -1      1701 3.54342E+04 2.30575E+05-6.20122E+04
 -1      1703 3.54342E+04 2.30575E+05-6.20122E+04
 -1      1704 5.04507E+04 1.19817E+05-4.09424E+04
 -1      1706 5.04507E+04 1.19817E+05-4.09424E+04
 -1      1707 5.52726E+04-1.79017E+04-1.39632E+04
 -1      1709 5.52726E+04-1.79017E+04-1.39632E+04
 -1      1710 4.84252E+04-1.53622E+05 1.51634E+04
 -1      1712 4.84252E+04-1.53622E+05 1.51634E+04
 -1      1713 3.10932E+04-2.58121E+05 4.25679E+04
 -1      1715 3.10932E+04-2.58121E+05 4.25679E+04
 -1      1716 6.80877E+03-3.08398E+05 6.48586E+04
 -1      1718 6.80877E+03-3.08398E+05 6.48586E+04
 -1      1719-1.93229E+04-2.92808E+05 7.96815E+04
 -1      1721-1.93229E+04-2.92808E+05 7.96815E+04
 -1      1722-4.17427E+04-2.13693E+05 8.60210E+04
 -1      1724-4.17427E+04-2.13693E+05 8.60210E+04
 -1      1725-5.56405E+04-8.69950E+04 8.42487E+04
 -1      1727-5.56405E+04-8.69950E+04 8.42487E+04
 -1      1728-5.80009E+04 6.10798E+04 7.58946E+04
 -1      1730-5.80009E+04 6.10798E+04 7.58946E+04
 -1      1731-4.82594E+04 1.99616E+05 6.32103E+04
 -1      1733-4.82594E+04 1.99616E+05 6.32103E+04
 -1      1734-2.84366E+04 2.99582E+05 4.86206E+04
 -1      1736-2.84366E+04 2.99582E+05 4.86206E+04
 -1      1737-2.71713E+03 3.40043E+05 3.41882E+04
 -1      1739-2.71713E+03 3.40043E+05 3.41882E+04
 -1      1740 2.34330E+04 3.12670E+05 2.12059E+04
 -1      1742 2.34330E+04 3.12670E+05 2.12059E+04
 -1      1743 4.44216E+04 2.23574E+05 1.00017E+04
 -1      1745 4.44216E+04 2.23574E+05 1.00017E+04
 -1      1746 5.57096E+04 9.20911E+04-4.70863E+00
 -1      1748 5.57096E+04 9.20911E+04-4.70863E+00
 -1      1749 5.47594E+04-5.32356E+04-1.00158E+04
 -1      1751 5.47594E+04-5.32356E+04-1.00158E+04
 -1      1752 4.15458E+04-1.80577E+05-2.14112E+04
 -1      1754 4.15458E+04-1.80577E+05-2.14112E+04
 -1      1755 1.85161E+04-2.61378E+05-3.52468E+04
 -1      1757 1.85161E+04-2.61378E+05-3.52468E+04
 -1      1758-1.00022E+04-2.76102E+05-5.18294E+04
 -1      1760-1.00022E+04-2.76102E+05-5.18294E+04
 -1      1761-3.88281E+04-2.17890E+05-7.04411E+04
 -1      1763-3.88281E+04-2.17890E+05-7.04411E+04
 -1      1764-6.31893E+04-9.32468E+04-8.93501E+04
 -1      1766-6.31893E+04-9.32468E+04-8.93501E+04
 -1      1767-7.99842E+04 8.04502E+04-1.05986E+05
 -1      1769-7.99842E+04 8.04502E+04-1.05986E+05
 -1      1770-8.87620E+04 2.80460E+05-1.17577E+05
 -1      1772-8.87620E+04 2.80460E+05-1.17577E+05
 -1      1773 2.14482E+04 6.91066E+04 2.41508E+04
 -1      1775 2.14482E+04 6.91066E+04 2.41508E+04
 -1      1776 3.07782E+04 1.57192E+05 4.86937E+04
 -1      1778 3.07782E+04 1.57192E+05 4.86937E+04
 -1      1779 2.49702E+04 2.43269E+05 6.71360E+04
 -1      1781 2.49702E+04 2.43269E+05 6.71360E+04
 -1      1782 8.09337E+03 2.94854E+05 7.59505E+04
 -1      1784 8.09337E+03 2.94854E+05 7.59505E+04
 -1      1785-1.40696E+04 2.92285E+05 7.42794E+04
 -1      1787-1.40696E+04 2.92285E+05 7.42794E+04
 -1      1788-3.54342E+04 2.30575E+05 6.20122E+04
 -1      1790-3.54342E+04 2.30575E+05 6.20122E+04
 -1      1791-5.04507E+04 1.19817E+05 4.09424E+04
 -1      1793-5.04507E+04 1.19817E+05 4.09424E+04
 -1      1794-5.52726E+04-1.79017E+04 1.39632E+04
 -1      1796-5.52726E+04-1.79017E+04 1.39632E+04
 -1      1797-4.84252E+04-1.53622E+05-1.51634E+04
 -1      1799-4.84252E+04-1.53622E+05-1.51634E+04
 -1      1800-3.10932E+04-2.58121E+05-4.25679E+04
 -1      1802-3.10932E+04-2.58121E+05-4.25679E+04
 -1      1803-6.80877E+03-3.08398E+05-6.48586E+04
 -1      1805-6.80877E+03-3.08398E+05-6.48586E+04
 -1      1806 1.93229E+04-2.92808E+05-7.96815E+04
 -1      1808 1.93229E+04-2.92808E+05-7.96815E+04
 -1      1809 4.17427E+04-2.13693E+05-8.60210E+04
 -1      1811 4.17427E+04-2.13693E+05-8.60210E+04
 -1      1812 5.56405E+04-8.69950E+04-8.42487E+04
 -1      1814 5.56405E+04-8.69950E+04-8.42487E+04
 -1      1815 5.80009E+04 6.10798E+04-7.58946E+04
 -1      1817 5.80009E+04 6.10798E+04-7.58946E+04
 -1      1818 4.82594E+04 1.99616E+05-6.32103E+04
 -1      1820 4.82594E+04 1.99616E+05-6.32103E+04
 -1      1821 2.84366E+04 2.99582E+05-4.86206E+04
 -1      1823 2.84366E+04 2.99582E+05-4.86206E+04
 -1      1824 2.71713E+03 3.40043E+05-3.41882E+04
 -1      1826 2.71713E+03 3.40043E+05-3.41882E+04
 -1      1827-2.34330E+04 3.12670E+05-2.12059E+04
 -1      1829-2.34330E+04 3.12670E+05-2.12059E+04
 -1      1830-4.44216E+04 2.23574E+05-1.00017E+04
 -1      1832-4.44216E+04 2.23574E+05-1.00017E+04
 -1      1833-5.57096E+04 9.20911E+04 4.70863E+00
 -1      1835-5.57096E+04 9.20911E+04 4.70863E+00
 -1      1836-5.47594E+04-5.32356E+04 1.00158E+04
 -1      1838-5.47594E+04-5.32356E+04 1.00158E+04
 -1      1839-4.15458E+04-1.80577E+05 2.14112E+04
 -1      1841-4.15458E+04-1.80577E+05 2.14112E+04
 -1      1842-1.85161E+04-2.61378E+05 3.52468E+04
 -1      1844-1.85161E+04-2.61378E+05 3.52468E+04
 -1      1845 1.00022E+04-2.76102E+05 5.18294E+04
 -1      1847 1.00022E+04-2.76102E+05 5.18294E+04
 -1      1848 3.88281E+04-2.17890E+05 7.04411E+04
 -1      1850 3.88281E+04-2.17890E+05 7.04411E+04
 -1      1851 6.31893E+04-9.32468E+04 8.93501E+04
 -1      1853 6.31893E+04-9.32468E+04 8.93501E+04
 -1      1854 7.99842E+04 8.04502E+04 1.05986E+05
 -1      1856 7.99842E+04 8.04502E+04 1.05986E+05
 -1      1857 8.87620E+04 2.80460E+05 1.17577E+05
 -1      1859 8.87620E+04 2.80460E+05 1.17577E+05
 -1      1860-9.33913E-07 1.77611E+05 1.32257E-06
 -1      1862-6.75587E-07 1.77611E+05 1.37341E-06
 -1      1863-2.70482E-06 3.86260E+05-1.24962E-06
 -1      1865-1.98791E-06 3.86260E+05-7.50115E-07
 -1      1866-3.03949E-06 5.73775E+05-1.47149E-06
 -1      1868-2.48481E-06 5.73775E+05-1.07844E-06
 -1      1869 2.46203E-06 6.81814E+05-1.74740E-06
 -1      1871 2.68583E-06 6.81814E+05-1.45313E-06
 -1      1872 6.20809E-06 6.78877E+05-1.14179E-06
 -1      1874 6.33301E-06 6.78877E+05-7.68589E-07
 -1      1875 4.47985E-06 5.57323E+05 3.29179E-07
 -1      1877 4.45004E-06 5.57323E+05 5.99059E-07
 -1      1878 7.81256E-08 3.38170E+05 1.15708E-06
 -1      1880 9.98625E-08 3.38170E+05 3.75061E-07
 -1      1881-3.33080E-06 6.35760E+04 1.40101E-06
 -1      1883-3.53915E-06 6.35760E+04 5.09594E-07
 -1      1884-4.43952E-07-2.11329E+05-4.19622E-06
 -1      1886-5.49107E-07-2.11329E+05-4.52218E-06
 -1      1887 3.17931E-06-4.31202E+05-5.24707E-06
 -1      1889 3.30834E-06-4.31202E+05-5.69224E-06
 -1      1890 1.57163E-06-5.52055E+05 1.02618E-06
 -1      1892 1.59138E-06-5.52055E+05 4.62198E-07
 -1      1893 5.79734E-07-5.50933E+05 2.77585E-06
 -1      1895 7.81671E-07-5.50933E+05 2.23307E-06
 -1      1896 2.08881E-06-4.30697E+05 3.84657E-06
 -1      1898 1.90465E-06-4.30697E+05 3.80912E-06
 -1      1899-8.32388E-07-2.19437E+05 4.88095E-06
 -1      1901-1.18676E-06-2.19437E+05 4.94233E-06
 -1      1902-5.48580E-06 3.56265E+04 2.82927E-06
 -1      1904-5.30455E-06 3.56265E+04 2.58151E-06
 -1      1905-4.67036E-06 2.78284E+05 3.62503E-07
 -1      1907-3.92096E-06 2.78284E+05 4.31573E-07
 -1      1908-2.38444E-06 4.55427E+05 1.79036E-06
 -1      1910-1.85912E-06 4.55427E+05 1.81321E-06
 -1      1911-4.40241E-06 5.28439E+05 1.79472E-06
 -1      1913-4.42615E-06 5.28439E+05 1.56213E-06
 -1      1914-7.84775E-06 4.81490E+05-2.82647E-06
 -1      1916-8.20270E-06 4.81490E+05-2.45294E-06
 -1      1917-7.26500E-06 3.24924E+05-4.47736E-06
 -1      1919-7.66585E-06 3.24924E+05-3.26586E-06
 -1      1920-2.40838E-06 9.30668E+04-1.49848E-06
 -1      1922-2.88112E-06 9.30668E+04-1.12360E-06
 -1      1923 6.49999E-07-1.63120E+05 1.32450E-06
 -1      1925 4.59111E-07-1.63120E+05 1.21073E-06
 -1      1926 1.56126E-06-3.86865E+05 2.37167E-07
 -1      1928 1.17024E-06-3.86865E+05 2.86032E-07
 -1      1929 3.08939E-06-5.27649E+05-1.02192E-06
 -1      1931 2.86933E-06-5.27649E+05-5.47345E-07
 -1      1932 2.45606E-06-5.51728E+05 2.58352E-06
 -1      1934 2.44170E-06-5.51728E+05 2.81315E-06
 -1      1935 1.74223E-06-4.49001E+05 4.06321E-06
 -1      1937 1.47737E-06-4.49001E+05 3.84083E-06
 -1      1938 1.27521E-06-2.34365E+05 1.00761E-06
 -1      1940 1.34421E-06-2.34365E+05 1.23010E-06
 -1      1941-1.13377E-06 5.64126E+04 2.51208E-06
 -1      1943-4.19936E-07 5.64126E+04 2.30526E-06
 -1      1944-6.28806E-07 3.76455E+05 2.82064E-06
 -1      1946-2.21262E-08 3.76455E+05 2.63558E-06
 -1      1947-3.43131E-06 2.12005E+05-3.63310E-06
 -1      1949-3.08761E-06 2.12005E+05-3.39386E-06
 -1      1950-1.36926E-06 4.54984E+05-7.47449E-06
 -1      1952-8.65584E-07 4.54984E+05-7.13552E-06
 -1      1953-1.13877E-06 6.69116E+05-1.56631E-06
 -1      1955-8.88649E-07 6.69116E+05-1.33795E-06
 -1      1956-4.96191E-07 7.91477E+05 8.51372E-07
 -1      1958 9.51550E-08 7.91477E+05 1.42061E-06
 -1      1959 1.66946E-06 7.88909E+05-3.11976E-06
 -1      1961 2.11097E-06 7.88909E+05-2.15006E-06
 -1      1962 1.01513E-06 6.53643E+05-4.50786E-06
 -1      1964 1.52793E-06 6.53643E+05-4.21005E-06
 -1      1965 3.18384E-06 4.09382E+05-6.14524E-06
 -1      1967 3.33630E-06 4.09382E+05-6.67517E-06
 -1      1968 5.01312E-06 1.02737E+05-2.64510E-06
 -1      1970 4.47180E-06 1.02737E+05-2.98832E-06
 -1      1971 2.58750E-06-2.05449E+05-8.87521E-08
 -1      1973 2.30281E-06-2.05449E+05-1.62836E-08
 -1      1974 3.27350E-06-4.54167E+05-7.68057E-07
 -1      1976 3.24679E-06-4.54167E+05-1.64874E-06
 -1      1977 4.31026E-06-5.94826E+05-2.24572E-08
 -1      1979 4.12392E-06-5.94826E+05-8.65755E-07
 -1      1980 1.89688E-06-6.01887E+05-1.24093E-06
 -1      1982 1.94468E-06-6.01887E+05-2.26502E-06
 -1      1983-4.51200E-08-4.78084E+05 1.04113E-06
 -1      1985-3.13239E-07-4.78084E+05 9.42702E-07
 -1      1986-2.63256E-06-2.53814E+05 5.59419E-06
 -1      1988-2.73280E-06-2.53814E+05 5.75260E-06
 -1      1989-6.13041E-06 1.95274E+04 3.04007E-06
 -1      1991-5.79684E-06 1.95274E+04 2.94839E-06
 -1      1992-7.18176E-06 2.80625E+05-1.41020E-06
 -1      1994-6.29932E-06 2.80625E+05-1.64649E-06
 -1      1995-2.36596E-06 4.71456E+05-2.30315E-06
 -1      1997-1.73369E-06 4.71456E+05-2.90972E-06
 -1      1998 2.06066E-06 5.49750E+05-4.09332E-06
 -1      2000 2.23266E-06 5.49750E+05-4.86943E-06
 -1      2001-1.18101E-06 4.98056E+05-3.87427E-06
 -1      2003-1.37934E-06 4.98056E+05-3.56110E-06
 -1      2004-3.14011E-06 3.27461E+05-9.00909E-07
 -1      2006-3.42885E-06 3.27461E+05 1.53348E-07
 -1      2007 5.38751E-07 7.51916E+04-1.12204E-06
 -1      2009 6.08882E-07 7.51916E+04-8.45757E-08
 -1      2010 1.92125E-06-2.03406E+05 6.10511E-07
 -1      2012 2.61306E-06-2.03406E+05 1.03348E-06
 -1      2013 7.41886E-07-4.46703E+05 3.59578E-08
 -1      2015 1.30732E-06-4.46703E+05 2.74944E-07
 -1      2016 2.25694E-06-5.99981E+05-4.05287E-06
 -1      2018 2.39567E-06-5.99981E+05-4.20205E-06
 -1      2019 3.72449E-06-6.26946E+05-4.59356E-06
 -1      2021 3.65161E-06-6.26946E+05-4.70709E-06
 -1      2022 3.52081E-06-5.17289E+05-4.32437E-06
 -1      2024 3.26217E-06-5.17289E+05-3.93295E-06
 -1      2025 2.04883E-06-2.88186E+05-7.23283E-06
 -1      2027 2.30828E-06-2.88186E+05-6.49568E-06
 -1      2028-5.39181E-07 2.00454E+04-5.69426E-06
 -1      2030 3.36480E-07 2.00454E+04-6.19521E-06
 -1      2031 9.41825E-07 3.54559E+05-1.53322E-06
 -1      2033 1.72227E-06 3.54559E+05-2.54511E-06
 -1      2034 5.85530E-06 1.77611E+05-5.50692E-06
 -1      2036 6.29883E-06 1.77611E+05-5.27914E-06
 -1      2037 5.21631E-06 3.86260E+05-6.15814E-06
 -1      2039 5.49367E-06 3.86260E+05-5.99916E-06
 -1      2040-1.81665E-06 5.73775E+05 1.21423E-06
 -1      2042-1.43623E-06 5.73775E+05 1.18449E-06
 -1      2043-3.68830E-06 6.81814E+05 4.21433E-06
 -1      2045-2.56962E-06 6.81814E+05 4.38747E-06
 -1      2046-1.93491E-06 6.78877E+05-6.78818E-07
 -1      2048-1.27919E-06 6.78877E+05-5.46112E-07
 -1      2049-1.11885E-06 5.57323E+05-1.83117E-06
 -1      2051-1.21559E-06 5.57323E+05-1.67900E-06
 -1      2052 2.57856E-06 3.38170E+05-4.14073E-06
 -1      2054 2.55012E-06 3.38170E+05-4.19322E-06
 -1      2055 3.48317E-06 6.35760E+04-7.61623E-06
 -1      2057 3.23709E-06 6.35760E+04-7.40363E-06
 -1      2058 7.07771E-07-2.11329E+05-3.68518E-06
 -1      2060 5.26003E-07-2.11329E+05-3.76283E-06
 -1      2061 5.43308E-06-4.31202E+05 8.75800E-07
 -1      2063 5.20520E-06-4.31202E+05 2.34060E-07
 -1      2064 7.11094E-06-5.52055E+05 2.12694E-06
 -1      2066 6.82473E-06-5.52055E+05 6.57379E-07
 -1      2067 9.81017E-08-5.50933E+05-6.80720E-08
 -1      2069-3.34163E-07-5.50933E+05-1.19791E-06
 -1      2070-1.76167E-06-4.30697E+05 2.38558E-07
 -1      2072-2.20048E-06-4.30697E+05 1.17976E-07
 -1      2073-2.63061E-07-2.19437E+05 2.95147E-06
 -1      2075-4.74630E-07-2.19437E+05 3.82632E-06
 -1      2076 2.06640E-06 3.56265E+04 2.39494E-06
 -1      2078 2.11403E-06 3.56265E+04 3.30235E-06
 -1      2079 3.74569E-06 2.78284E+05-1.95712E-06
 -1      2081 3.91988E-06 2.78284E+05-1.88283E-06
 -1      2082 5.30548E-06 4.55427E+05-5.24494E-06
 -1      2084 5.46167E-06 4.55427E+05-5.63724E-06
 -1      2085 5.69722E-06 5.28439E+05-4.19399E-06
 -1      2087 6.20624E-06 5.28439E+05-4.32483E-06
 -1      2088 3.39925E-07 4.81490E+05-4.43833E-10
 -1      2090 7.25704E-07 4.81490E+05 4.02717E-07
 -1      2091-2.79367E-06 3.24924E+05 5.37770E-06
 -1      2093-2.80153E-06 3.24924E+05 5.84384E-06
 -1      2094-2.90142E-06 9.30668E+04 4.55409E-06
 -1      2096-2.43734E-06 9.30668E+04 5.36104E-06
 -1      2097-5.92095E-06-1.63120E+05 1.14547E-06
 -1      2099-4.87507E-06-1.63120E+05 1.40021E-06
 -1      2100-6.17146E-06-3.86865E+05-1.16561E-07
 -1      2102-5.40275E-06-3.86865E+05-3.06492E-07
 -1      2103-8.07275E-07-5.27649E+05-1.90579E-06
 -1      2105-8.88936E-07-5.27649E+05-2.04712E-06
 -1      2106 1.62944E-06-5.51728E+05-1.80942E-06
 -1      2108 1.47878E-06-5.51728E+05-1.81911E-06
 -1      2109 8.01996E-07-4.49001E+05-2.41604E-06
 -1      2111 8.91854E-07-4.49001E+05-2.27500E-06
 -1      2112-7.72309E-07-2.34365E+05-6.98674E-06
 -1      2114-3.17691E-07-2.34365E+05-6.27858E-06
 -1      2115-5.29947E-06 5.64126E+04-6.02139E-06
 -1      2117-4.76503E-06 5.64126E+04-6.05529E-06
 -1      2118-4.60292E-06 3.76455E+05-3.03094E-06
 -1      2120-4.47375E-06 3.76455E+05-3.98215E-06
 -1      2121 2.14482E+04 6.91066E+04-2.41508E+04
 -1      2123 2.14482E+04 6.91066E+04-2.41508E+04
 -1      2124 3.07782E+04 1.57192E+05-4.86937E+04
 -1      2126 3.07782E+04 1.57192E+05-4.86937E+04
 -1      2127 2.49702E+04 2.43269E+05-6.71360E+04
 -1      2129 2.49702E+04 2.43269E+05-6.71360E+04
 -1      2130 8.09337E+03 2.94854E+05-7.59505E+04
 -1      2132 8.09337E+03 2.94854E+05-7.59505E+04
 -1      2133-1.40696E+04 2.92285E+05-7.42794E+04
 -1      2135-1.40696E+04 2.92285E+05-7.42794E+04
 -1      2136-3.54342E+04 2.30575E+05-6.20122E+04
 -1      2138-3.54342E+04 2.30575E+05-6.20122E+04
 -1      2139-5.04507E+04 1.19817E+05-4.09424E+04
 -1      2141-5.04507E+04 1.19817E+05-4.09424E+04
 -1      2142-5.52726E+04-1.79017E+04-1.39632E+04
 -1      2144-5.52726E+04-1.79017E+04-1.39632E+04
 -1      2145-4.84252E+04-1.53622E+05 1.51634E+04
 -1      2147-4.84252E+04-1.53622E+05 1.51634E+04
 -1      2148-3.10932E+04-2.58121E+05 4.25679E+04
 -1      2150-3.10932E+04-2.58121E+05 4.25679E+04
 -1      2151-6.80877E+03-3.08398E+05 6.48586E+04
 -1      2153-6.80877E+03-3.08398E+05 6.48586E+04
 -1      2154 1.93229E+04-2.92808E+05 7.96815E+04
 -1      2156 1.93229E+04-2.92808E+05 7.96815E+04
 -1      2157 4.17427E+04-2.13693E+05 8.60210E+04
 -1      2159 4.17427E+04-2.13693E+05 8.60210E+04
 -1      2160 5.56405E+04-8.69950E+04 8.42487E+04
 -1      2162 5.56405E+04-8.69950E+04 8.42487E+04
 -1      2163 5.80009E+04 6.10798E+04 7.58946E+04
 -1      2165 5.80009E+04 6.10798E+04 7.58946E+04
 -1      2166 4.82594E+04 1.99616E+05 6.32103E+04
 -1      2168 4.82594E+04 1.99616E+05 6.32103E+04
 -1      2169 2.84366E+04 2.99582E+05 4.86206E+04
 -1      2171 2.84366E+04 2.99582E+05 4.86206E+04
 -1      2172 2.71713E+03 3.40043E+05 3.41882E+04
 -1      2174 2.71713E+03 3.40043E+05 3.41882E+04
 -1      2175-2.34330E+04 3.12670E+05 2.12059E+04
 -1      2177-2.34330E+04 3.12670E+05 2.12059E+04
 -1      2178-4.44216E+04 2.23574E+05 1.00017E+04
 -1      2180-4.44216E+04 2.23574E+05 1.00017E+04
 -1      2181-5.57096E+04 9.20911E+04-4.70862E+00
 -1      2183-5.57096E+04 9.20911E+04-4.70863E+00
 -1      2184-5.47594E+04-5.32356E+04-1.00158E+04
 -1      2186-5.47594E+04-5.32356E+04-1.00158E+04
 -1      2187-4.15458E+04-1.80577E+05-2.14112E+04
 -1      2189-4.15458E+04-1.80577E+05-2.14112E+04
 -1      2190-1.85161E+04-2.61378E+05-3.52468E+04
 -1      2192-1.85161E+04-2.61378E+05-3.52468E+04
 -1      2193 1.00022E+04-2.76102E+05-5.18294E+04
 -1      2195 1.00022E+04-2.76102E+05-5.18294E+04
 -1      2196 3.88281E+04-2.17890E+05-7.04411E+04
 -1      2198 3.88281E+04-2.17890E+05-7.04411E+04
 -1      2199 6.31893E+04-9.32468E+04-8.93501E+04
 -1      2201 6.31893E+04-9.32468E+04-8.93501E+04
 -1      2202 7.99842E+04 8.04502E+04-1.05986E+05
 -1      2204 7.99842E+04 8.04502E+04-1.05986E+05
 -1      2205 8.87620E+04 2.80460E+05-1.17577E+05
 -1      2207 8.87620E+04 2.80460E+05-1.17577E+05
 -1      2208-2.14482E+04 6.91066E+04 2.41508E+04
 -1      2210-2.14482E+04 6.91066E+04 2.41508E+04
 -1      2211-3.07782E+04 1.57192E+05 4.86937E+04
 -1      2213-3.07782E+04 1.57192E+05 4.86937E+04
 -1      2214-2.49702E+04 2.43269E+05 6.71360E+04
 -1      2216-2.49702E+04 2.43269E+05 6.71360E+04
 -1      2217-8.09337E+03 2.94854E+05 7.59505E+04
 -1      2219-8.09337E+03 2.94854E+05 7.59505E+04
 -1      2220 1.40696E+04 2.92285E+05 7.42794E+04
 -1      2222 1.40696E+04 2.92285E+05 7.42794E+04
 -1      2223 3.54342E+04 2.30575E+05 6.20122E+04
 -1      2225 3.54342E+04 2.30575E+05 6.20122E+04
 -1      2226 5.04507E+04 1.19817E+05 4.09424E+04
 -1      2228 5.04507E+04 1.19817E+05 4.09424E+04
 -1      2229 5.52726E+04-1.79017E+04 1.39632E+04
 -1      2231 5.52726E+04-1.79017E+04 1.39632E+04
 -1      2232 4.84252E+04-1.53622E+05-1.51634E+04
 -1      2234 4.84252E+04-1.53622E+05-1.51634E+04
 -1      2235 3.10932E+04-2.58121E+05-4.25679E+04
 -1      2237 3.10932E+04-2.58121E+05-4.25679E+04
 -1      2238 6.80877E+03-3.08398E+05-6.48586E+04
 -1      2240 6.80877E+03-3.08398E+05-6.48586E+04
 -1      2241-1.93229E+04-2.92808E+05-7.96815E+04
 -1      2243-1.93229E+04-2.92808E+05-7.96815E+04
 -1      2244-4.17427E+04-2.13693E+05-8.60210E+04
 -1      2246-4.17427E+04-2.13693E+05-8.60210E+04
 -1      2247-5.56405E+04-8.69950E+04-8.42487E+04
 -1      2249-5.56405E+04-8.69950E+04-8.42487E+04
 -1      2250-5.80009E+04 6.10798E+04-7.58946E+04
 -1      2252-5.80009E+04 6.10798E+04-7.58946E+04
 -1      2253-4.82594E+04 1.99616E+05-6.32103E+04
 -1      2255-4.82594E+04 1.99616E+05-6.32103E+04
 -1      2256-2.84366E+04 2.99582E+05-4.86206E+04
 -1      2258-2.84366E+04 2.99582E+05-4.86206E+04
 -1      2259-2.71713E+03 3.40043E+05-3.41882E+04
 -1      2261-2.71713E+03 3.40043E+05-3.41882E+04
 -1      2262 2.34330E+04 3.12670E+05-2.12059E+04
 -1      2264 2.34330E+04 3.12670E+05-2.12059E+04
 -1      2265 4.44216E+04 2.23574E+05-1.00017E+04
 -1      2267 4.44216E+04 2.23574E+05-1.00017E+04
 -1      2268 5.57096E+04 9.20911E+04 4.70863E+00
 -1      2270 5.57096E+04 9.20911E+04 4.70863E+00
 -1      2271 5.47594E+04-5.32356E+04 1.00158E+04
 -1      2273 5.47594E+04-5.32356E+04 1.00158E+04
 -1      2274 4.15458E+04-1.80577E+05 2.14112E+04
 -1      2276 4.15458E+04-1.80577E+05 2.14112E+04
 -1      2277 1.85161E+04-2.61378E+05 3.52468E+04
 -1      2279 1.85161E+04-2.61378E+05 3.52468E+04
 -1      2280-1.00022E+04-2.76102E+05 5.18294E+04
 -1      2282-1.00022E+04-2.76102E+05 5.18294E+04
 -1      2283-3.88281E+04-2.17890E+05 7.04411E+04
 -1      2285-3.88281E+04-2.17890E+05 7.04411E+04
 -1      2286-6.31893E+04-9.32468E+04 8.93501E+04
 -1      2288-6.31893E+04-9.32468E+04 8.93501E+04
 -1      2289-7.99842E+04 8.04502E+04 1.05986E+05
 -1      2291-7.99842E+04 8.04502E+04 1.05986E+05
 -1      2292-8.87620E+04 2.80460E+05 1.17577E+05
 -1      2294-8.87620E+04 2.80460E+05 1.17577E+05
 -3
    1PSTEP                        72           1           1          
    1PGM                1.000000E+00                                  
    1PGK                1.582052E+07                                  
    1PHID                         -1                                  
    1PSUBC                         0                                  
    1PMODE                        18                                  
  100CL  118 633.0390862         930                     2   18MODAL      1
 -4  ERROR       1    1
 -5  STR(%)      1    1    0    0
 -1       404 0.00000E+00
 -1       406 0.00000E+00
 -1       407 0.00000E+00
 -1       409 0.00000E+00
 -1       410 0.00000E+00
 -1       412 0.00000E+00
 -1       413 0.00000E+00
 -1       415 0.00000E+00
 -1       424 0.00000E+00
 -1       426 0.00000E+00
 -1       427 0.00000E+00
 -1       429 0.00000E+00
 -1       438 0.00000E+00
 -1       440 0.00000E+00
 -1       441 0.00000E+00
 -1       443 0.00000E+00
 -1       444 0.00000E+00
 -1       446 0.00000E+00
 -1       447 0.00000E+00
 -1       449 0.00000E+00
 -1       458 0.00000E+00
 -1       460 0.00000E+00
 -1       461 0.00000E+00
 -1       463 0.00000E+00
 -1       472 0.00000E+00
 -1       474 0.00000E+00
 -1       475 0.00000E+00
 -1       477 0.00000E+00
 -1       478 0.00000E+00
 -1       480 0.00000E+00
 -1       481 0.00000E+00
 -1       483 0.00000E+00
 -1       484 0.00000E+00
 -1       486 0.00000E+00
 -1       487 0.00000E+00
 -1       489 0.00000E+00
 -1       490 0.00000E+00
 -1       492 0.00000E+00
 -1       493 0.00000E+00
 -1       495 0.00000E+00
 -1       496 0.00000E+00
 -1       498 0.00000E+00
 -1       499 0.00000E+00
 -1       501 0.00000E+00
 -1       502 0.00000E+00
 -1       504 0.00000E+00
 -1       505 0.00000E+00
 -1       507 0.00000E+00
 -1       508 0.00000E+00
 -1       510 0.00000E+00
 -1       511 0.00000E+00
 -1       513 0.00000E+00
 -1       514 0.00000E+00
 -1       516 0.00000E+00
 -1       517 0.00000E+00
 -1       519 0.00000E+00
 -1       520 0.00000E+00
 -1       522 0.00000E+00
 -1       523 0.00000E+00
 -1       525 0.00000E+00
 -1       526 0.00000E+00
 -1       528 0.00000E+00
 -1       529 0.00000E+00
 -1       531 0.00000E+00
 -1       532 0.00000E+00
 -1       534 0.00000E+00
 -1       535 0.00000E+00
 -1       537 0.00000E+00
 -1       538 0.00000E+00
 -1       540 0.00000E+00
 -1       541 0.00000E+00
 -1       543 0.00000E+00
 -1       544 0.00000E+00
 -1       546 0.00000E+00
 -1       547 0.00000E+00
 -1       549 0.00000E+00
 -1       550 0.00000E+00
 -1       552 0.00000E+00
 -1       553 0.00000E+00
 -1       555 0.00000E+00
 -1       556 0.00000E+00
 -1       558 0.00000E+00
 -1       559 0.00000E+00
 -1       561 0.00000E+00
 -1       562 0.00000E+00
 -1       564 0.00000E+00
 -1       565 0.00000E+00
 -1       567 0.00000E+00
 -1       568 0.00000E+00
 -1       570 0.00000E+00
 -1       571 0.00000E+00
 -1       573 0.00000E+00
 -1       574 0.00000E+00
 -1       576 0.00000E+00
 -1       577 0.00000E+00
 -1       579 0.00000E+00
 -1       588 0.00000E+00
 -1       590 0.00000E+00
 -1       591 0.00000E+00
 -1       593 0.00000E+00
 -1       602 0.00000E+00
 -1       604 0.00000E+00
 -1       605 0.00000E+00
 -1       607 0.00000E+00
 -1       616 0.00000E+00
 -1       618 0.00000E+00
 -1       619 0.00000E+00
 -1       621 0.00000E+00
 -1       630 0.00000E+00
 -1       632 0.00000E+00
 -1       633 0.00000E+00
 -1       635 0.00000E+00
 -1       644 0.00000E+00
 -1       646 0.00000E+00
 -1       647 0.00000E+00
 -1       649 0.00000E+00
 -1       658 0.00000E+00
 -1       660 0.00000E+00
 -1       661 0.00000E+00
 -1       663 0.00000E+00
 -1       672 0.00000E+00
 -1       674 0.00000E+00
 -1       675 0.00000E+00
 -1       677 0.00000E+00
 -1       686 0.00000E+00
 -1       688 0.00000E+00
 -1       689 0.00000E+00
 -1       691 0.00000E+00
 -1       700 0.00000E+00
 -1       702 0.00000E+00
 -1       703 0.00000E+00
 -1       705 0.00000E+00
 -1       714 0.00000E+00
 -1       716 0.00000E+00
 -1       717 0.00000E+00
 -1       719 0.00000E+00
 -1       728 0.00000E+00
 -1       730 0.00000E+00
 -1       731 0.00000E+00
 -1       733 0.00000E+00
 -1       742 0.00000E+00
 -1       744 0.00000E+00
 -1       745 0.00000E+00
 -1       747 0.00000E+00
 -1       756 0.00000E+00
 -1       758 0.00000E+00
 -1       759 0.00000E+00
 -1       761 0.00000E+00
 -1       770 0.00000E+00
 -1       772 0.00000E+00
 -1       773 0.00000E+00
 -1       775 0.00000E+00
 -1       784 0.00000E+00
 -1       786 0.00000E+00
 -1       787 0.00000E+00
 -1       789 0.00000E+00
 -1       798 0.00000E+00
 -1       800 0.00000E+00
 -1       801 0.00000E+00
 -1       803 0.00000E+00
 -1       812 0.00000E+00
 -1       814 0.00000E+00
 -1       815 0.00000E+00
 -1       817 0.00000E+00
 -1       826 0.00000E+00
 -1       828 0.00000E+00
 -1       829 0.00000E+00
 -1       831 0.00000E+00
 -1       840 0.00000E+00
 -1       842 0.00000E+00
 -1       843 0.00000E+00
 -1       845 0.00000E+00
 -1       854 0.00000E+00
 -1       856 0.00000E+00
 -1       857 0.00000E+00
 -1       859 0.00000E+00
 -1       868 0.00000E+00
 -1       870 0.00000E+00
 -1       871 0.00000E+00
 -1       873 0.00000E+00
 -1       882 0.00000E+00
 -1       884 0.00000E+00
 -1       885 0.00000E+00
 -1       887 0.00000E+00
 -1       896 0.00000E+00
 -1       898 0.00000E+00
 -1       899 0.00000E+00
 -1       901 0.00000E+00
 -1       910 0.00000E+00
 -1       912 0.00000E+00
 -1       913 0.00000E+00
 -1       915 0.00000E+00
 -1       924 0.00000E+00
 -1       926 0.00000E+00
 -1       927 0.00000E+00
 -1       929 0.00000E+00
 -1       938 0.00000E+00
 -1       940 0.00000E+00
 -1       941 0.00000E+00
 -1       943 0.00000E+00
 -1       952 0.00000E+00
 -1       954 0.00000E+00
 -1       955 0.00000E+00
 -1       957 0.00000E+00
 -1       966 0.00000E+00
 -1       968 0.00000E+00
 -1       969 0.00000E+00
 -1       971 0.00000E+00
 -1       980 0.00000E+00
 -1       982 0.00000E+00
 -1       983 0.00000E+00
 -1       985 0.00000E+00
 -1       986 0.00000E+00
 -1       988 0.00000E+00
 -1       989 0.00000E+00
 -1       991 0.00000E+00
 -1       992 0.00000E+00
 -1       994 0.00000E+00
 -1       995 0.00000E+00
 -1       997 0.00000E+00
 -1       998 0.00000E+00
 -1      1000 0.00000E+00
 -1      1001 0.00000E+00
 -1      1003 0.00000E+00
 -1      1004 0.00000E+00
 -1      1006 0.00000E+00
 -1      1007 0.00000E+00
 -1      1009 0.00000E+00
 -1      1010 0.00000E+00
 -1      1012 0.00000E+00
 -1      1013 0.00000E+00
 -1      1015 0.00000E+00
 -1      1016 0.00000E+00
 -1      1018 0.00000E+00
 -1      1019 0.00000E+00
 -1      1021 0.00000E+00
 -1      1022 0.00000E+00
 -1      1024 0.00000E+00
 -1      1025 0.00000E+00
 -1      1027 0.00000E+00
 -1      1028 0.00000E+00
 -1      1030 0.00000E+00
 -1      1031 0.00000E+00
 -1      1033 0.00000E+00
 -1      1034 0.00000E+00
 -1      1036 0.00000E+00
 -1      1037 0.00000E+00
 -1      1039 0.00000E+00
 -1      1040 0.00000E+00
 -1      1042 0.00000E+00
 -1      1043 0.00000E+00
 -1      1045 0.00000E+00
 -1      1046 0.00000E+00
 -1      1048 0.00000E+00
 -1      1049 0.00000E+00
 -1      1051 0.00000E+00
 -1      1052 0.00000E+00
 -1      1054 0.00000E+00
 -1      1055 0.00000E+00
 -1      1057 0.00000E+00
 -1      1058 0.00000E+00
 -1      1060 0.00000E+00
 -1      1061 0.00000E+00
 -1      1063 0.00000E+00
 -1      1064 0.00000E+00
 -1      1066 0.00000E+00
 -1      1067 0.00000E+00
 -1      1069 0.00000E+00
 -1      1070 0.00000E+00
 -1      1072 0.00000E+00
 -1      1073 0.00000E+00
 -1      1075 0.00000E+00
 -1      1076 0.00000E+00
 -1      1078 0.00000E+00
 -1      1079 0.00000E+00
 -1      1081 0.00000E+00
 -1      1082 0.00000E+00
 -1      1084 0.00000E+00
 -1      1085 0.00000E+00
 -1      1087 0.00000E+00
 -1      1088 0.00000E+00
 -1      1090 0.00000E+00
 -1      1099 0.00000E+00
 -1      1101 0.00000E+00
 -1      1102 0.00000E+00
 -1      1104 0.00000E+00
 -1      1113 0.00000E+00
 -1      1115 0.00000E+00
 -1      1116 0.00000E+00
 -1      1118 0.00000E+00
 -1      1127 0.00000E+00
 -1      1129 0.00000E+00
 -1      1130 0.00000E+00
 -1      1132 0.00000E+00
 -1      1141 0.00000E+00
 -1      1143 0.00000E+00
 -1      1144 0.00000E+00
 -1      1146 0.00000E+00
 -1      1155 0.00000E+00
 -1      1157 0.00000E+00
 -1      1158 0.00000E+00
 -1      1160 0.00000E+00
 -1      1169 0.00000E+00
 -1      1171 0.00000E+00
 -1      1172 0.00000E+00
 -1      1174 0.00000E+00
 -1      1183 0.00000E+00
 -1      1185 0.00000E+00
 -1      1186 0.00000E+00
 -1      1188 0.00000E+00
 -1      1197 0.00000E+00
 -1      1199 0.00000E+00
 -1      1200 0.00000E+00
 -1      1202 0.00000E+00
 -1      1211 0.00000E+00
 -1      1213 0.00000E+00
 -1      1214 0.00000E+00
 -1      1216 0.00000E+00
 -1      1225 0.00000E+00
 -1      1227 0.00000E+00
 -1      1228 0.00000E+00
 -1      1230 0.00000E+00
 -1      1239 0.00000E+00
 -1      1241 0.00000E+00
 -1      1242 0.00000E+00
 -1      1244 0.00000E+00
 -1      1253 0.00000E+00
 -1      1255 0.00000E+00
 -1      1256 0.00000E+00
 -1      1258 0.00000E+00
 -1      1267 0.00000E+00
 -1      1269 0.00000E+00
 -1      1270 0.00000E+00
 -1      1272 0.00000E+00
 -1      1281 0.00000E+00
 -1      1283 0.00000E+00
 -1      1284 0.00000E+00
 -1      1286 0.00000E+00
 -1      1295 0.00000E+00
 -1      1297 0.00000E+00
 -1      1298 0.00000E+00
 -1      1300 0.00000E+00
 -1      1309 0.00000E+00
 -1      1311 0.00000E+00
 -1      1312 0.00000E+00
 -1      1314 0.00000E+00
 -1      1323 0.00000E+00
 -1      1325 0.00000E+00
 -1      1326 0.00000E+00
 -1      1328 0.00000E+00
 -1      1337 0.00000E+00
 -1      1339 0.00000E+00
 -1      1340 0.00000E+00
 -1      1342 0.00000E+00
 -1      1351 0.00000E+00
 -1      1353 0.00000E+00
 -1      1354 0.00000E+00
 -1      1356 0.00000E+00
 -1      1365 0.00000E+00
 -1      1367 0.00000E+00
 -1      1368 0.00000E+00
 -1      1370 0.00000E+00
 -1      1379 0.00000E+00
 -1      1381 0.00000E+00
 -1      1382 0.00000E+00
 -1      1384 0.00000E+00
 -1      1393 0.00000E+00
 -1      1395 0.00000E+00
 -1      1396 0.00000E+00
 -1      1398 0.00000E+00
 -1      1407 0.00000E+00
 -1      1409 0.00000E+00
 -1      1410 0.00000E+00
 -1      1412 0.00000E+00
 -1      1421 0.00000E+00
 -1      1423 0.00000E+00
 -1      1424 0.00000E+00
 -1      1426 0.00000E+00
 -1      1435 0.00000E+00
 -1      1437 0.00000E+00
 -1      1438 0.00000E+00
 -1      1440 0.00000E+00
 -1      1449 0.00000E+00
 -1      1451 0.00000E+00
 -1      1452 0.00000E+00
 -1      1454 0.00000E+00
 -1      1463 0.00000E+00
 -1      1465 0.00000E+00
 -1      1466 0.00000E+00
 -1      1468 0.00000E+00
 -1      1477 0.00000E+00
 -1      1479 0.00000E+00
 -1      1480 0.00000E+00
 -1      1482 0.00000E+00
 -1      1491 0.00000E+00
 -1      1493 0.00000E+00
 -1      1494 0.00000E+00
 -1      1496 0.00000E+00
 -1      1497 0.00000E+00
 -1      1499 0.00000E+00
 -1      1500 0.00000E+00
 -1      1502 0.00000E+00
 -1      1503 0.00000E+00
 -1      1505 0.00000E+00
 -1      1506 0.00000E+00
 -1      1508 0.00000E+00
 -1      1509 0.00000E+00
 -1      1511 0.00000E+00
 -1      1512 0.00000E+00
 -1      1514 0.00000E+00
 -1      1515 0.00000E+00
 -1      1517 0.00000E+00
 -1      1518 0.00000E+00
 -1      1520 0.00000E+00
 -1      1521 0.00000E+00
 -1      1523 0.00000E+00
 -1      1524 0.00000E+00
 -1      1526 0.00000E+00
 -1      1527 0.00000E+00
 -1      1529 0.00000E+00
 -1      1530 0.00000E+00
 -1      1532 0.00000E+00
 -1      1533 0.00000E+00
 -1      1535 0.00000E+00
 -1      1536 0.00000E+00
 -1      1538 0.00000E+00
 -1      1539 0.00000E+00
 -1      1541 0.00000E+00
 -1      1542 0.00000E+00
 -1      1544 0.00000E+00
 -1      1545 0.00000E+00
 -1      1547 0.00000E+00
 -1      1548 0.00000E+00
 -1      1550 0.00000E+00
 -1      1551 0.00000E+00
 -1      1553 0.00000E+00
 -1      1554 0.00000E+00
 -1      1556 0.00000E+00
 -1      1557 0.00000E+00
 -1      1559 0.00000E+00
 -1      1560 0.00000E+00
 -1      1562 0.00000E+00
 -1      1563 0.00000E+00
 -1      1565 0.00000E+00
 -1      1566 0.00000E+00
 -1      1568 0.00000E+00
 -1      1569 0.00000E+00
 -1      1571 0.00000E+00
 -1      1572 0.00000E+00
 -1      1574 0.00000E+00
 -1      1575 0.00000E+00
 -1      1577 0.00000E+00
 -1      1578 0.00000E+00
 -1      1580 0.00000E+00
 -1      1581 0.00000E+00
 -1      1583 0.00000E+00
 -1      1584 0.00000E+00
 -1      1586 0.00000E+00
 -1      1587 0.00000E+00
 -1      1589 0.00000E+00
 -1      1590 0.00000E+00
 -1      1592 0.00000E+00
 -1      1593 0.00000E+00
 -1      1595 0.00000E+00
 -1      1596 0.00000E+00
 -1      1598 0.00000E+00
 -1      1599 0.00000E+00
 -1      1601 0.00000E+00
 -1      1602 0.00000E+00
 -1      1604 0.00000E+00
 -1      1605 0.00000E+00
 -1      1607 0.00000E+00
 -1      1608 0.00000E+00
 -1      1610 0.00000E+00
 -1      1611 0.00000E+00
 -1      1613 0.00000E+00
 -1      1614 0.00000E+00
 -1      1616 0.00000E+00
 -1      1617 0.00000E+00
 -1      1619 0.00000E+00
 -1      1620 0.00000E+00
 -1      1622 0.00000E+00
 -1      1623 0.00000E+00
 -1      1625 0.00000E+00
 -1      1626 0.00000E+00
 -1      1628 0.00000E+00
 -1      1629 0.00000E+00
 -1      1631 0.00000E+00
 -1      1632 0.00000E+00
 -1      1634 0.00000E+00
 -1      1635 0.00000E+00
 -1      1637 0.00000E+00
 -1      1638 0.00000E+00
 -1      1640 0.00000E+00
 -1      1641 0.00000E+00
 -1      1643 0.00000E+00
 -1      1644 0.00000E+00
 -1      1646 0.00000E+00
 -1      1647 0.00000E+00
 -1      1649 0.00000E+00
 -1      1650 0.00000E+00
 -1      1652 0.00000E+00
 -1      1653 0.00000E+00
 -1      1655 0.00000E+00
 -1      1656 0.00000E+00
 -1      1658 0.00000E+00
 -1      1659 0.00000E+00
 -1      1661 0.00000E+00
 -1      1662 0.00000E+00
 -1      1664 0.00000E+00
 -1      1665 0.00000E+00
 -1      1667 0.00000E+00
 -1      1668 0.00000E+00
 -1      1670 0.00000E+00
 -1      1671 0.00000E+00
 -1      1673 0.00000E+00
 -1      1674 0.00000E+00
 -1      1676 0.00000E+00
 -1      1677 0.00000E+00
 -1      1679 0.00000E+00
 -1      1680 0.00000E+00
 -1      1682 0.00000E+00
 -1      1683 0.00000E+00
 -1      1685 0.00000E+00
 -1      1686 0.00000E+00
 -1      1688 0.00000E+00
 -1      1689 0.00000E+00
 -1      1691 0.00000E+00
 -1      1692 0.00000E+00
 -1      1694 0.00000E+00
 -1      1695 0.00000E+00
 -1      1697 0.00000E+00
 -1      1698 0.00000E+00
 -1      1700 0.00000E+00
 -1      1701 0.00000E+00
 -1      1703 0.00000E+00
 -1      1704 0.00000E+00
 -1      1706 0.00000E+00
 -1      1707 0.00000E+00
 -1      1709 0.00000E+00
 -1      1710 0.00000E+00
 -1      1712 0.00000E+00
 -1      1713 0.00000E+00
 -1      1715 0.00000E+00
 -1      1716 0.00000E+00
 -1      1718 0.00000E+00
 -1      1719 0.00000E+00
 -1      1721 0.00000E+00
 -1      1722 0.00000E+00
 -1      1724 0.00000E+00
 -1      1725 0.00000E+00
 -1      1727 0.00000E+00
 -1      1728 0.00000E+00
 -1      1730 0.00000E+00
 -1      1731 0.00000E+00
 -1      1733 0.00000E+00
 -1      1734 0.00000E+00
 -1      1736 0.00000E+00
 -1      1737 0.00000E+00
 -1      1739 0.00000E+00
 -1      1740 0.00000E+00
 -1      1742 0.00000E+00
 -1      1743 0.00000E+00
 -1      1745 0.00000E+00
 -1      1746 0.00000E+00
 -1      1748 0.00000E+00
 -1      1749 0.00000E+00
 -1      1751 0.00000E+00
 -1      1752 0.00000E+00
 -1      1754 0.00000E+00
 -1      1755 0.00000E+00
 -1      1757 0.00000E+00
 -1      1758 0.00000E+00
 -1      1760 0.00000E+00
 -1      1761 0.00000E+00
 -1      1763 0.00000E+00
 -1      1764 0.00000E+00
 -1      1766 0.00000E+00
 -1      1767 0.00000E+00
 -1      1769 0.00000E+00
 -1      1770 0.00000E+00
 -1      1772 0.00000E+00
 -1      1773 0.00000E+00
 -1      1775 0.00000E+00
 -1      1776 0.00000E+00
 -1      1778 0.00000E+00
 -1      1779 0.00000E+00
 -1      1781 0.00000E+00
 -1      1782 0.00000E+00
 -1      1784 0.00000E+00
 -1      1785 0.00000E+00
 -1      1787 0.00000E+00
 -1      1788 0.00000E+00
 -1      1790 0.00000E+00
 -1      1791 0.00000E+00
 -1      1793 0.00000E+00
 -1      1794 0.00000E+00
 -1      1796 0.00000E+00
 -1      1797 0.00000E+00
 -1      1799 0.00000E+00
 -1      1800 0.00000E+00
 -1      1802 0.00000E+00
 -1      1803 0.00000E+00
 -1      1805 0.00000E+00
 -1      1806 0.00000E+00
 -1      1808 0.00000E+00
 -1      1809 0.00000E+00
 -1      1811 0.00000E+00
 -1      1812 0.00000E+00
 -1      1814 0.00000E+00
 -1      1815 0.00000E+00
 -1      1817 0.00000E+00
 -1      1818 0.00000E+00
 -1      1820 0.00000E+00
 -1      1821 0.00000E+00
 -1      1823 0.00000E+00
 -1      1824 0.00000E+00
 -1      1826 0.00000E+00
 -1      1827 0.00000E+00
 -1      1829 0.00000E+00
 -1      1830 0.00000E+00
 -1      1832 0.00000E+00
 -1      1833 0.00000E+00
 -1      1835 0.00000E+00
 -1      1836 0.00000E+00
 -1      1838 0.00000E+00
 -1      1839 0.00000E+00
 -1      1841 0.00000E+00
 -1      1842 0.00000E+00
 -1      1844 0.00000E+00
 -1      1845 0.00000E+00
 -1      1847 0.00000E+00
 -1      1848 0.00000E+00
 -1      1850 0.00000E+00
 -1      1851 0.00000E+00
 -1      1853 0.00000E+00
 -1      1854 0.00000E+00
 -1      1856 0.00000E+00
 -1      1857 0.00000E+00
 -1      1859 0.00000E+00
 -1      1860 0.00000E+00
 -1      1862 0.00000E+00
 -1      1863 0.00000E+00
 -1      1865 0.00000E+00
 -1      1866 0.00000E+00
 -1      1868 0.00000E+00
 -1      1869 0.00000E+00
 -1      1871 0.00000E+00
 -1      1872 0.00000E+00
 -1      1874 0.00000E+00
 -1      1875 0.00000E+00
 -1      1877 0.00000E+00
 -1      1878 0.00000E+00
 -1      1880 0.00000E+00
 -1      1881 0.00000E+00
 -1      1883 0.00000E+00
 -1      1884 0.00000E+00
 -1      1886 0.00000E+00
 -1      1887 0.00000E+00
 -1      1889 0.00000E+00
 -1      1890 0.00000E+00
 -1      1892 0.00000E+00
 -1      1893 0.00000E+00
 -1      1895 0.00000E+00
 -1      1896 0.00000E+00
 -1      1898 0.00000E+00
 -1      1899 0.00000E+00
 -1      1901 0.00000E+00
 -1      1902 0.00000E+00
 -1      1904 0.00000E+00
 -1      1905 0.00000E+00
 -1      1907 0.00000E+00
 -1      1908 0.00000E+00
 -1      1910 0.00000E+00
 -1      1911 0.00000E+00
 -1      1913 0.00000E+00
 -1      1914 0.00000E+00
 -1      1916 0.00000E+00
 -1      1917 0.00000E+00
 -1      1919 0.00000E+00
 -1      1920 0.00000E+00
 -1      1922 0.00000E+00
 -1      1923 0.00000E+00
 -1      1925 0.00000E+00
 -1      1926 0.00000E+00
 -1      1928 0.00000E+00
 -1      1929 0.00000E+00
 -1      1931 0.00000E+00
 -1      1932 0.00000E+00
 -1      1934 0.00000E+00
 -1      1935 0.00000E+00
 -1      1937 0.00000E+00
 -1      1938 0.00000E+00
 -1      1940 0.00000E+00
 -1      1941 0.00000E+00
 -1      1943 0.00000E+00
 -1      1944 0.00000E+00
 -1      1946 0.00000E+00
 -1      1947 0.00000E+00
 -1      1949 0.00000E+00
 -1      1950 0.00000E+00
 -1      1952 0.00000E+00
 -1      1953 0.00000E+00
 -1      1955 0.00000E+00
 -1      1956 0.00000E+00
 -1      1958 0.00000E+00
 -1      1959 0.00000E+00
 -1      1961 0.00000E+00
 -1      1962 0.00000E+00
 -1      1964 0.00000E+00
 -1      1965 0.00000E+00
 -1      1967 0.00000E+00
 -1      1968 0.00000E+00
 -1      1970 0.00000E+00
 -1      1971 0.00000E+00
 -1      1973 0.00000E+00
 -1      1974 0.00000E+00
 -1      1976 0.00000E+00
 -1      1977 0.00000E+00
 -1      1979 0.00000E+00
 -1      1980 0.00000E+00
 -1      1982 0.00000E+00
 -1      1983 0.00000E+00
 -1      1985 0.00000E+00
 -1      1986 0.00000E+00
 -1      1988 0.00000E+00
 -1      1989 0.00000E+00
 -1      1991 0.00000E+00
 -1      1992 0.00000E+00
 -1      1994 0.00000E+00
 -1      1995 0.00000E+00
 -1      1997 0.00000E+00
 -1      1998 0.00000E+00
 -1      2000 0.00000E+00
 -1      2001 0.00000E+00
 -1      2003 0.00000E+00
 -1      2004 0.00000E+00
 -1      2006 0.00000E+00
 -1      2007 0.00000E+00
 -1      2009 0.00000E+00
 -1      2010 0.00000E+00
 -1      2012 0.00000E+00
 -1      2013 0.00000E+00
 -1      2015 0.00000E+00
 -1      2016 0.00000E+00
 -1      2018 0.00000E+00
 -1      2019 0.00000E+00
 -1      2021 0.00000E+00
 -1      2022 0.00000E+00
 -1      2024 0.00000E+00
 -1      2025 0.00000E+00
 -1      2027 0.00000E+00
 -1      2028 0.00000E+00
 -1      2030 0.00000E+00
 -1      2031 0.00000E+00
 -1      2033 0.00000E+00
 -1      2034 0.00000E+00
 -1      2036 0.00000E+00
 -1      2037 0.00000E+00
 -1      2039 0.00000E+00
 -1      2040 0.00000E+00
 -1      2042 0.00000E+00
 -1      2043 0.00000E+00
 -1      2045 0.00000E+00
 -1      2046 0.00000E+00
 -1      2048 0.00000E+00
 -1      2049 0.00000E+00
 -1      2051 0.00000E+00
 -1      2052 0.00000E+00
 -1      2054 0.00000E+00
 -1      2055 0.00000E+00
 -1      2057 0.00000E+00
 -1      2058 0.00000E+00
 -1      2060 0.00000E+00
 -1      2061 0.00000E+00
 -1      2063 0.00000E+00
 -1      2064 0.00000E+00
 -1      2066 0.00000E+00
 -1      2067 0.00000E+00
 -1      2069 0.00000E+00
 -1      2070 0.00000E+00
 -1      2072 0.00000E+00
 -1      2073 0.00000E+00
 -1      2075 0.00000E+00
 -1      2076 0.00000E+00
 -1      2078 0.00000E+00
 -1      2079 0.00000E+00
 -1      2081 0.00000E+00
 -1      2082 0.00000E+00
 -1      2084 0.00000E+00
 -1      2085 0.00000E+00
 -1      2087 0.00000E+00
 -1      2088 0.00000E+00
 -1      2090 0.00000E+00
 -1      2091 0.00000E+00
 -1      2093 0.00000E+00
 -1      2094 0.00000E+00
 -1      2096 0.00000E+00
 -1      2097 0.00000E+00
 -1      2099 0.00000E+00
 -1      2100 0.00000E+00
 -1      2102 0.00000E+00
 -1      2103 0.00000E+00
 -1      2105 0.00000E+00
 -1      2106 0.00000E+00
 -1      2108 0.00000E+00
 -1      2109 0.00000E+00
 -1      2111 0.00000E+00
 -1      2112 0.00000E+00
 -1      2114 0.00000E+00
 -1      2115 0.00000E+00
 -1      2117 0.00000E+00
 -1      2118 0.00000E+00
 -1      2120 0.00000E+00
 -1      2121 0.00000E+00
 -1      2123 0.00000E+00
 -1      2124 0.00000E+00
 -1      2126 0.00000E+00
 -1      2127 0.00000E+00
 -1      2129 0.00000E+00
 -1      2130 0.00000E+00
 -1      2132 0.00000E+00
 -1      2133 0.00000E+00
 -1      2135 0.00000E+00
 -1      2136 0.00000E+00
 -1      2138 0.00000E+00
 -1      2139 0.00000E+00
 -1      2141 0.00000E+00
 -1      2142 0.00000E+00
 -1      2144 0.00000E+00
 -1      2145 0.00000E+00
 -1      2147 0.00000E+00
 -1      2148 0.00000E+00
 -1      2150 0.00000E+00
 -1      2151 0.00000E+00
 -1      2153 0.00000E+00
 -1      2154 0.00000E+00
 -1      2156 0.00000E+00
 -1      2157 0.00000E+00
 -1      2159 0.00000E+00
 -1      2160 0.00000E+00
 -1      2162 0.00000E+00
 -1      2163 0.00000E+00
 -1      2165 0.00000E+00
 -1      2166 0.00000E+00
 -1      2168 0.00000E+00
 -1      2169 0.00000E+00
 -1      2171 0.00000E+00
 -1      2172 0.00000E+00
 -1      2174 0.00000E+00
 -1      2175 0.00000E+00
 -1      2177 0.00000E+00
 -1      2178 0.00000E+00
 -1      2180 0.00000E+00
 -1      2181 0.00000E+00
 -1      2183 0.00000E+00
 -1      2184 0.00000E+00
 -1      2186 0.00000E+00
 -1      2187 0.00000E+00
 -1      2189 0.00000E+00
 -1      2190 0.00000E+00
 -1      2192 0.00000E+00
 -1      2193 0.00000E+00
 -1      2195 0.00000E+00
 -1      2196 0.00000E+00
 -1      2198 0.00000E+00
 -1      2199 0.00000E+00
 -1      2201 0.00000E+00
 -1      2202 0.00000E+00
 -1      2204 0.00000E+00
 -1      2205 0.00000E+00
 -1      2207 0.00000E+00
 -1      2208 0.00000E+00
 -1      2210 0.00000E+00
 -1      2211 0.00000E+00
 -1      2213 0.00000E+00
 -1      2214 0.00000E+00
 -1      2216 0.00000E+00
 -1      2217 0.00000E+00
 -1      2219 0.00000E+00
 -1      2220 0.00000E+00
 -1      2222 0.00000E+00
 -1      2223 0.00000E+00
 -1      2225 0.00000E+00
 -1      2226 0.00000E+00
 -1      2228 0.00000E+00
 -1      2229 0.00000E+00
 -1      2231 0.00000E+00
 -1      2232 0.00000E+00
 -1      2234 0.00000E+00
 -1      2235 0.00000E+00
 -1      2237 0.00000E+00
 -1      2238 0.00000E+00
 -1      2240 0.00000E+00
 -1      2241 0.00000E+00
 -1      2243 0.00000E+00
 -1      2244 0.00000E+00
 -1      2246 0.00000E+00
 -1      2247 0.00000E+00
 -1      2249 0.00000E+00
 -1      2250 0.00000E+00
 -1      2252 0.00000E+00
 -1      2253 0.00000E+00
 -1      2255 0.00000E+00
 -1      2256 0.00000E+00
 -1      2258 0.00000E+00
 -1      2259 0.00000E+00
 -1      2261 0.00000E+00
 -1      2262 0.00000E+00
 -1      2264 0.00000E+00
 -1      2265 0.00000E+00
 -1      2267 0.00000E+00
 -1      2268 0.00000E+00
 -1      2270 0.00000E+00
 -1      2271 0.00000E+00
 -1      2273 0.00000E+00
 -1      2274 0.00000E+00
 -1      2276 0.00000E+00
 -1      2277 0.00000E+00
 -1      2279 0.00000E+00
 -1      2280 0.00000E+00
 -1      2282 0.00000E+00
 -1      2283 0.00000E+00
 -1      2285 0.00000E+00
 -1      2286 0.00000E+00
 -1      2288 0.00000E+00
 -1      2289 0.00000E+00
 -1      2291 0.00000E+00
 -1      2292 0.00000E+00
 -1      2294 0.00000E+00
 -3
    1PSTEP                        73           1           1          
    1PGM                1.000000E+00                                  
    1PGK                1.666853E+07                                  
    1PHID                         -1                                  
    1PSUBC                         0                                  
    1PMODE                        19                                  
  100CL  119 649.7837111         930                     2   19MODAL      1
 -4  DISP        4    1
 -5  D1          1    2    1    0
 -5  D2          1    2    2    0
 -5  D3          1    2    3    0
 -5  ALL         1    2    0    0    1ALL
 -1       404 0.00000E+00 0.00000E+00-1.78497E-04
 -1       406 0.00000E+00-0.00000E+00 1.78497E-04
 -1       407-1.26994E-02 7.30994E-02 2.18419E-01
 -1       409-1.30638E-02 3.89981E-02 2.18424E-01
 -1       410-1.81357E-14 6.76940E-02-4.63476E-15
 -1       412-1.73983E-14 4.42332E-02-4.92356E-15
 -1       413 6.07853E-04 5.59636E-02-7.47269E-03
 -1       415-6.07853E-04 5.59636E-02 7.47269E-03
 -1       424 0.00000E+00 0.00000E+00 1.86346E-16
 -1       426 0.00000E+00 0.00000E+00-1.86346E-16
 -1       427 0.00000E+00 1.18709E-16 0.00000E+00
 -1       429 0.00000E+00-1.18709E-16 0.00000E+00
 -1       438 1.26994E-02 7.30994E-02-2.18419E-01
 -1       440 1.30638E-02 3.89981E-02-2.18424E-01
 -1       441 0.00000E+00 0.00000E+00 1.78497E-04
 -1       443 0.00000E+00-0.00000E+00-1.78497E-04
 -1       444 0.00000E+00 1.62911E-17 0.00000E+00
 -1       446 0.00000E+00-1.62911E-17 0.00000E+00
 -1       447 0.00000E+00 0.00000E+00-2.55733E-17
 -1       449 0.00000E+00 0.00000E+00 2.55733E-17
 -1       458 6.07853E-04 5.59636E-02 7.47269E-03
 -1       460-6.07853E-04 5.59636E-02-7.47269E-03
 -1       461 3.78084E-15 6.76940E-02-4.02166E-15
 -1       463 2.82498E-15 4.42332E-02-3.13928E-15
 -1       472 0.00000E+00 0.00000E+00-1.78497E-04
 -1       474 0.00000E+00 0.00000E+00 1.78497E-04
 -1       475 1.26994E-02 7.30994E-02 2.18419E-01
 -1       477 1.30638E-02 3.89981E-02 2.18424E-01
 -1       478-1.26994E-02 7.30994E-02-2.18419E-01
 -1       480-1.30638E-02 3.89981E-02-2.18424E-01
 -1       481 0.00000E+00 0.00000E+00 1.78497E-04
 -1       483 0.00000E+00 0.00000E+00-1.78497E-04
 -1       484 2.61612E-04 1.02500E-02 4.74970E-02
 -1       486-1.15441E-02 1.41190E-03 4.76058E-02
 -1       487-5.83527E-03 2.36881E-02 1.09176E-01
 -1       489-1.08964E-02 6.00944E-03 1.09274E-01
 -1       490-5.62729E-03 3.88362E-02 1.54674E-01
 -1       492-1.24441E-02 1.35530E-02 1.54652E-01
 -1       493-5.52110E-03 5.23814E-02 1.94252E-01
 -1       495-9.34728E-03 2.07878E-02 1.94140E-01
 -1       496-2.83855E-03 6.17788E-02 2.18919E-01
 -1       498-5.51925E-03 2.61471E-02 2.18780E-01
 -1       499 1.94585E-04 6.53582E-02 2.30223E-01
 -1       501-1.57989E-04 2.79337E-02 2.30024E-01
 -1       502 3.68433E-03 6.23966E-02 2.25869E-01
 -1       504 5.20495E-03 2.56925E-02 2.25717E-01
 -1       505 6.46081E-03 5.31411E-02 2.06867E-01
 -1       507 9.99060E-03 1.95858E-02 2.06721E-01
 -1       508 8.19653E-03 3.89432E-02 1.74006E-01
 -1       510 1.34091E-02 1.07444E-02 1.73951E-01
 -1       511 8.44455E-03 2.16706E-02 1.29582E-01
 -1       513 1.50545E-02 7.24159E-04 1.29572E-01
 -1       514 7.27093E-03 3.67365E-03 7.63435E-02
 -1       516 1.48294E-02-8.66019E-03 7.64184E-02
 -1       517 4.93143E-03-1.29325E-02 1.78621E-02
 -1       519 1.29453E-02-1.58166E-02 1.79678E-02
 -1       520 1.97073E-03-2.63719E-02-4.19999E-02
 -1       522 9.89801E-03-1.96589E-02-4.18580E-02
 -1       523-9.90957E-04-3.56734E-02-9.91285E-02
 -1       525 6.30338E-03-1.98211E-02-9.90027E-02
 -1       526-3.34533E-03-4.05883E-02-1.49585E-01
 -1       528 2.80592E-03-1.67221E-02-1.49479E-01
 -1       529-4.65694E-03-4.16515E-02-1.89783E-01
 -1       531-9.03270E-05-1.14104E-02-1.89728E-01
 -1       532-4.73784E-03-3.98448E-02-2.16846E-01
 -1       534-2.08733E-03-5.34122E-03-2.16833E-01
 -1       535-3.69393E-03-3.63820E-02-2.28777E-01
 -1       537-3.15864E-03 7.40444E-06-2.28809E-01
 -1       538-1.88731E-03-3.23071E-02-2.24683E-01
 -1       540-3.51109E-03 3.43636E-03-2.24733E-01
 -1       541 1.46031E-04-2.83048E-02-2.04819E-01
 -1       543-3.52310E-03 4.33721E-03-2.04872E-01
 -1       544 1.82440E-03-2.44983E-02-1.70623E-01
 -1       546-3.62271E-03 2.78772E-03-1.70652E-01
 -1       547 2.65400E-03-2.05198E-02-1.24576E-01
 -1       549-4.17456E-03-4.35800E-04-1.24571E-01
 -1       550 2.33638E-03-1.56068E-02-7.00511E-02
 -1       552-5.37091E-03-4.07764E-03-7.00012E-02
 -1       553 8.48492E-04-8.91527E-03-1.09946E-02
 -1       555-7.18648E-03-6.66110E-03-1.09097E-02
 -1       556-1.59257E-03 2.43743E-04 4.82968E-02
 -1       558-9.35825E-03-6.85709E-03 4.84061E-02
 -1       559-4.51453E-03 1.21039E-02 1.03663E-01
 -1       561-1.15029E-02-3.75278E-03 1.03772E-01
 -1       562-7.47162E-03 2.63357E-02 1.51079E-01
 -1       564-1.31080E-02 2.93427E-03 1.51170E-01
 -1       565-9.86640E-03 4.20733E-02 1.87571E-01
 -1       567-1.39564E-02 1.28657E-02 1.87628E-01
 -1       568-1.17532E-02 5.80423E-02 2.10104E-01
 -1       570-1.36404E-02 2.51978E-02 2.10125E-01
 -1       571-6.33374E-03 7.43268E-02 1.00573E-01
 -1       573-6.51081E-03 3.77169E-02 1.00562E-01
 -1       574 1.93647E-15 7.42247E-03-7.37864E-15
 -1       576 3.34403E-15 2.76737E-03-7.35784E-15
 -1       577 2.21776E-05 5.09492E-03-1.48274E-03
 -1       579-2.21776E-05 5.09492E-03 1.48274E-03
 -1       588 3.11767E-15 1.98624E-02-1.80840E-14
 -1       590 3.85592E-15 9.13142E-03-1.79740E-14
 -1       591 3.55217E-04 1.44969E-02-3.41802E-03
 -1       593-3.55217E-04 1.44969E-02 3.41802E-03
 -1       602 4.24349E-15 3.38828E-02-2.19371E-14
 -1       604 4.01380E-15 1.88636E-02-2.21076E-14
 -1       605 2.95389E-04 2.63732E-02-4.78390E-03
 -1       607-2.95389E-04 2.63732E-02 4.78390E-03
 -1       616 5.88992E-15 4.62063E-02-2.55105E-14
 -1       618 6.46153E-15 2.73640E-02-2.56778E-14
 -1       619 3.10544E-04 3.67851E-02-6.00161E-03
 -1       621-3.10544E-04 3.67851E-02 6.00161E-03
 -1       630 8.34939E-15 5.51361E-02-3.18750E-14
 -1       632 8.86947E-15 3.38813E-02-3.15500E-14
 -1       633 1.56141E-04 4.45087E-02-6.77005E-03
 -1       635-1.56141E-04 4.45087E-02 6.77005E-03
 -1       644 1.05376E-14 5.83362E-02-4.27774E-14
 -1       646 1.25056E-14 3.60145E-02-4.31886E-14
 -1       647-1.08350E-05 4.71753E-02-7.10986E-03
 -1       649 1.08350E-05 4.71753E-02 7.10986E-03
 -1       658 1.46666E-14 5.56007E-02-5.48266E-14
 -1       660 1.53163E-14 3.35736E-02-5.47247E-14
 -1       661-1.88158E-04 4.45871E-02-7.01601E-03
 -1       663 1.88158E-04 4.45871E-02 7.01601E-03
 -1       672 1.89505E-14 4.68766E-02-4.81810E-14
 -1       674 1.58689E-14 2.66450E-02-4.89080E-14
 -1       675-3.44353E-04 3.67608E-02-6.44415E-03
 -1       677 3.44353E-04 3.67608E-02 6.44415E-03
 -1       686 1.78549E-14 3.36409E-02-3.27028E-14
 -1       688 1.56877E-14 1.64500E-02-3.25505E-14
 -1       689-4.20514E-04 2.50454E-02-5.47561E-03
 -1       691 4.20514E-04 2.50454E-02 5.47561E-03
 -1       700 1.30234E-14 1.76324E-02-2.97325E-14
 -1       702 1.40636E-14 4.72574E-03-2.96471E-14
 -1       703-4.32982E-04 1.11791E-02-4.11102E-03
 -1       705 4.32982E-04 1.11791E-02 4.11102E-03
 -1       714 8.32216E-15 1.15365E-03-4.09851E-14
 -1       716 1.07390E-14-6.60025E-03-4.09077E-14
 -1       717-3.51127E-04-2.72330E-03-2.46976E-03
 -1       719 3.51127E-04-2.72330E-03 2.46976E-03
 -1       728 6.73225E-15-1.37820E-02-5.21645E-14
 -1       730 7.90881E-15-1.57127E-02-5.23630E-14
 -1       731-2.19383E-04-1.47474E-02-6.14944E-04
 -1       733 2.19383E-04-1.47474E-02 6.14944E-04
 -1       742 8.21027E-15-2.55083E-02-5.29683E-14
 -1       744 7.58265E-15-2.14075E-02-5.27527E-14
 -1       745-4.66578E-05-2.34579E-02 1.30620E-03
 -1       747 4.66578E-05-2.34579E-02-1.30620E-03
 -1       756 9.39591E-15-3.31607E-02-4.33698E-14
 -1       758 7.70152E-15-2.31611E-02-4.33664E-14
 -1       759 1.13972E-04-2.81609E-02 3.18505E-03
 -1       761-1.13972E-04-2.81609E-02-3.18505E-03
 -1       770 9.59193E-15-3.66086E-02-3.34732E-14
 -1       772 9.29573E-15-2.13293E-02-3.33623E-14
 -1       773 2.40889E-04-2.89689E-02 4.86671E-03
 -1       775-2.40889E-04-2.89689E-02-4.86671E-03
 -1       784 1.38608E-14-3.64810E-02-2.49409E-14
 -1       786 1.27985E-14-1.69017E-02-2.48665E-14
 -1       787 3.00158E-04-2.66913E-02 6.23636E-03
 -1       789-3.00158E-04-2.66913E-02-6.23636E-03
 -1       798 1.85250E-14-3.38485E-02-1.02699E-14
 -1       800 1.62666E-14-1.13387E-02-1.05884E-14
 -1       801 2.88776E-04-2.25936E-02 7.16978E-03
 -1       803-2.88776E-04-2.25936E-02-7.16978E-03
 -1       812 1.98133E-14-2.99778E-02 6.05709E-15
 -1       814 1.79204E-14-6.13046E-03 6.41905E-15
 -1       815 2.09206E-04-1.80542E-02 7.59583E-03
 -1       817-2.09206E-04-1.80542E-02-7.59583E-03
 -1       826 1.85898E-14-2.59447E-02 7.84659E-15
 -1       828 2.04346E-14-2.51654E-03 7.96021E-15
 -1       829 8.66180E-05-1.42306E-02 7.46231E-03
 -1       831-8.66180E-05-1.42306E-02-7.46231E-03
 -1       840 1.81699E-14-2.24250E-02-4.17003E-16
 -1       842 1.94528E-14-1.13740E-03-4.44336E-17
 -1       843-4.86364E-05-1.17812E-02 6.78048E-03
 -1       845 4.86364E-05-1.17812E-02-6.78048E-03
 -1       854 1.48652E-14-1.95051E-02 6.28733E-17
 -1       856 1.40873E-14-1.95431E-03 3.46521E-16
 -1       857-1.61429E-04-1.07297E-02 5.59027E-03
 -1       859 1.61429E-04-1.07297E-02-5.59027E-03
 -1       868 5.96712E-15-1.67475E-02-5.64566E-17
 -1       870 7.57196E-15-4.21441E-03-2.50754E-17
 -1       871-2.21851E-04-1.04809E-02 3.99201E-03
 -1       873 2.21851E-04-1.04809E-02-3.99201E-03
 -1       882-2.19769E-15-1.32941E-02-1.04378E-14
 -1       884-1.94289E-18-6.69738E-03-9.69886E-15
 -1       885-2.13860E-04-9.99572E-03 2.10117E-03
 -1       887 2.13860E-04-9.99572E-03-2.10117E-03
 -1       896-6.41644E-15-8.19471E-03-2.03075E-14
 -1       898-4.78987E-15-7.95609E-03-2.05487E-14
 -1       899-1.33107E-04-8.07540E-03 7.60028E-05
 -1       901 1.33107E-04-8.07540E-03-7.60028E-05
 -1       910-8.42681E-15-6.29602E-04-2.23624E-14
 -1       912-8.60817E-15-6.72150E-03-2.21437E-14
 -1       913 3.41049E-06-3.67555E-03-1.94038E-03
 -1       915-3.41049E-06-3.67555E-03 1.94038E-03
 -1       924-1.11000E-14 9.72984E-03-1.86439E-14
 -1       926-1.09917E-14-2.15893E-03-1.86041E-14
 -1       927 1.72713E-04 3.78546E-03-3.78679E-03
 -1       929-1.72713E-04 3.78546E-03 3.78679E-03
 -1       938-1.28002E-14 2.27050E-02-1.46278E-14
 -1       940-1.32693E-14 5.92066E-03-1.47376E-14
 -1       941 3.41003E-04 1.43128E-02-5.34612E-03
 -1       943-3.41003E-04 1.43128E-02 5.34612E-03
 -1       952-1.52784E-14 3.74477E-02-7.64183E-15
 -1       954-1.59189E-14 1.70014E-02-7.79027E-15
 -1       955 4.77627E-04 2.72245E-02-6.51254E-03
 -1       957-4.77627E-04 2.72245E-02 6.51254E-03
 -1       966-1.75506E-14 5.28604E-02-3.44142E-15
 -1       968-1.73954E-14 3.01925E-02-2.80359E-15
 -1       969 5.74146E-04 4.15264E-02-7.22012E-03
 -1       971-5.74146E-04 4.15264E-02 7.22012E-03
 -1       980 0.00000E+00 0.00000E+00-7.96243E-05
 -1       982 0.00000E+00-0.00000E+00 7.96243E-05
 -1       983 6.33374E-03 7.43268E-02-1.00573E-01
 -1       985 6.51081E-03 3.77169E-02-1.00562E-01
 -1       986-2.61612E-04 1.02500E-02-4.74970E-02
 -1       988 1.15441E-02 1.41190E-03-4.76058E-02
 -1       989 5.83527E-03 2.36881E-02-1.09176E-01
 -1       991 1.08964E-02 6.00944E-03-1.09274E-01
 -1       992 5.62729E-03 3.88362E-02-1.54674E-01
 -1       994 1.24441E-02 1.35530E-02-1.54652E-01
 -1       995 5.52110E-03 5.23814E-02-1.94252E-01
 -1       997 9.34728E-03 2.07878E-02-1.94140E-01
 -1       998 2.83855E-03 6.17788E-02-2.18919E-01
 -1      1000 5.51925E-03 2.61471E-02-2.18780E-01
 -1      1001-1.94585E-04 6.53582E-02-2.30223E-01
 -1      1003 1.57989E-04 2.79337E-02-2.30024E-01
 -1      1004-3.68433E-03 6.23966E-02-2.25869E-01
 -1      1006-5.20495E-03 2.56925E-02-2.25717E-01
 -1      1007-6.46081E-03 5.31411E-02-2.06867E-01
 -1      1009-9.99060E-03 1.95858E-02-2.06721E-01
 -1      1010-8.19653E-03 3.89432E-02-1.74006E-01
 -1      1012-1.34091E-02 1.07444E-02-1.73951E-01
 -1      1013-8.44455E-03 2.16706E-02-1.29582E-01
 -1      1015-1.50545E-02 7.24159E-04-1.29572E-01
 -1      1016-7.27093E-03 3.67365E-03-7.63435E-02
 -1      1018-1.48294E-02-8.66019E-03-7.64184E-02
 -1      1019-4.93143E-03-1.29325E-02-1.78621E-02
 -1      1021-1.29453E-02-1.58166E-02-1.79678E-02
 -1      1022-1.97073E-03-2.63719E-02 4.19999E-02
 -1      1024-9.89801E-03-1.96589E-02 4.18580E-02
 -1      1025 9.90957E-04-3.56734E-02 9.91285E-02
 -1      1027-6.30338E-03-1.98211E-02 9.90027E-02
 -1      1028 3.34533E-03-4.05883E-02 1.49585E-01
 -1      1030-2.80592E-03-1.67221E-02 1.49479E-01
 -1      1031 4.65694E-03-4.16515E-02 1.89783E-01
 -1      1033 9.03270E-05-1.14104E-02 1.89728E-01
 -1      1034 4.73784E-03-3.98448E-02 2.16846E-01
 -1      1036 2.08733E-03-5.34122E-03 2.16833E-01
 -1      1037 3.69393E-03-3.63820E-02 2.28777E-01
 -1      1039 3.15864E-03 7.40444E-06 2.28809E-01
 -1      1040 1.88731E-03-3.23071E-02 2.24683E-01
 -1      1042 3.51109E-03 3.43636E-03 2.24733E-01
 -1      1043-1.46031E-04-2.83048E-02 2.04819E-01
 -1      1045 3.52310E-03 4.33721E-03 2.04872E-01
 -1      1046-1.82440E-03-2.44983E-02 1.70623E-01
 -1      1048 3.62271E-03 2.78772E-03 1.70652E-01
 -1      1049-2.65400E-03-2.05198E-02 1.24576E-01
 -1      1051 4.17456E-03-4.35800E-04 1.24571E-01
 -1      1052-2.33638E-03-1.56068E-02 7.00511E-02
 -1      1054 5.37091E-03-4.07764E-03 7.00012E-02
 -1      1055-8.48492E-04-8.91527E-03 1.09946E-02
 -1      1057 7.18648E-03-6.66110E-03 1.09097E-02
 -1      1058 1.59257E-03 2.43743E-04-4.82968E-02
 -1      1060 9.35825E-03-6.85709E-03-4.84061E-02
 -1      1061 4.51453E-03 1.21039E-02-1.03663E-01
 -1      1063 1.15029E-02-3.75278E-03-1.03772E-01
 -1      1064 7.47162E-03 2.63357E-02-1.51079E-01
 -1      1066 1.31080E-02 2.93427E-03-1.51170E-01
 -1      1067 9.86640E-03 4.20733E-02-1.87571E-01
 -1      1069 1.39564E-02 1.28657E-02-1.87628E-01
 -1      1070 1.17532E-02 5.80423E-02-2.10104E-01
 -1      1072 1.36404E-02 2.51978E-02-2.10125E-01
 -1      1073 0.00000E+00 0.00000E+00 7.96243E-05
 -1      1075 0.00000E+00-0.00000E+00-7.96243E-05
 -1      1076 0.00000E+00-9.83371E-17 0.00000E+00
 -1      1078 0.00000E+00 9.83371E-17 0.00000E+00
 -1      1079 0.00000E+00-3.94650E-17 0.00000E+00
 -1      1081 0.00000E+00 3.94650E-17 0.00000E+00
 -1      1082 0.00000E+00 1.00289E-17 0.00000E+00
 -1      1084 0.00000E+00-1.00289E-17 0.00000E+00
 -1      1085 2.21776E-05 5.09492E-03 1.48274E-03
 -1      1087-2.21776E-05 5.09492E-03-1.48274E-03
 -1      1088-2.32744E-16 7.42247E-03 4.09572E-15
 -1      1090 5.90097E-16 2.76737E-03 4.25871E-15
 -1      1099 3.55217E-04 1.44969E-02 3.41802E-03
 -1      1101-3.55217E-04 1.44969E-02-3.41802E-03
 -1      1102 9.38364E-16 1.98624E-02-2.76718E-15
 -1      1104-2.79365E-15 9.13142E-03-3.35293E-15
 -1      1113 2.95389E-04 2.63732E-02 4.78390E-03
 -1      1115-2.95389E-04 2.63732E-02-4.78390E-03
 -1      1116-2.18036E-15 3.38828E-02-2.06223E-14
 -1      1118-4.52955E-15 1.88636E-02-2.05808E-14
 -1      1127 3.10544E-04 3.67851E-02 6.00161E-03
 -1      1129-3.10544E-04 3.67851E-02-6.00161E-03
 -1      1130-4.74491E-15 4.62063E-02-3.43891E-14
 -1      1132-7.22468E-15 2.73640E-02-3.44378E-14
 -1      1141 1.56141E-04 4.45087E-02 6.77005E-03
 -1      1143-1.56141E-04 4.45087E-02-6.77005E-03
 -1      1144-8.21903E-15 5.51361E-02-4.97203E-14
 -1      1146-1.06617E-14 3.38813E-02-4.99916E-14
 -1      1155-1.08350E-05 4.71753E-02 7.10986E-03
 -1      1157 1.08350E-05 4.71753E-02-7.10986E-03
 -1      1158-1.26179E-14 5.83362E-02-5.37582E-14
 -1      1160-1.20169E-14 3.60145E-02-5.40999E-14
 -1      1169-1.88158E-04 4.45871E-02 7.01601E-03
 -1      1171 1.88158E-04 4.45871E-02-7.01601E-03
 -1      1172-1.55503E-14 5.56007E-02-3.64391E-14
 -1      1174-1.16415E-14 3.35736E-02-3.68703E-14
 -1      1183-3.44353E-04 3.67608E-02 6.44415E-03
 -1      1185 3.44353E-04 3.67608E-02-6.44415E-03
 -1      1186-1.31924E-14 4.68766E-02-1.80137E-14
 -1      1188-1.19334E-14 2.66450E-02-1.74857E-14
 -1      1197-4.20514E-04 2.50454E-02 5.47561E-03
 -1      1199 4.20514E-04 2.50454E-02-5.47561E-03
 -1      1200-7.30377E-15 3.36409E-02-1.73100E-14
 -1      1202-9.21774E-15 1.64500E-02-1.68294E-14
 -1      1211-4.32982E-04 1.11791E-02 4.11102E-03
 -1      1213 4.32982E-04 1.11791E-02-4.11102E-03
 -1      1214-2.20367E-15 1.76324E-02-2.59685E-14
 -1      1216-3.71521E-15 4.72574E-03-2.57454E-14
 -1      1225-3.51127E-04-2.72330E-03 2.46976E-03
 -1      1227 3.51127E-04-2.72330E-03-2.46976E-03
 -1      1228-1.34565E-15 1.15365E-03-2.93515E-14
 -1      1230-1.47155E-15-6.60025E-03-2.95528E-14
 -1      1239-2.19383E-04-1.47474E-02 6.14944E-04
 -1      1241 2.19383E-04-1.47474E-02-6.14944E-04
 -1      1242-3.63516E-15-1.37820E-02-2.45851E-14
 -1      1244-2.74862E-15-1.57127E-02-2.51286E-14
 -1      1253-4.66578E-05-2.34579E-02-1.30620E-03
 -1      1255 4.66578E-05-2.34579E-02 1.30620E-03
 -1      1256-6.26871E-15-2.55083E-02-1.73032E-14
 -1      1258-5.29149E-15-2.14075E-02-1.71553E-14
 -1      1267 1.13972E-04-2.81609E-02-3.18505E-03
 -1      1269-1.13972E-04-2.81609E-02 3.18505E-03
 -1      1270-9.95742E-15-3.31607E-02-7.62805E-15
 -1      1272-8.19820E-15-2.31611E-02-7.85956E-15
 -1      1281 2.40889E-04-2.89689E-02-4.86671E-03
 -1      1283-2.40889E-04-2.89689E-02 4.86671E-03
 -1      1284-1.37830E-14-3.66086E-02 6.00231E-15
 -1      1286-1.13497E-14-2.13293E-02 5.77993E-15
 -1      1295 3.00158E-04-2.66913E-02-6.23636E-03
 -1      1297-3.00158E-04-2.66913E-02 6.23636E-03
 -1      1298-1.58931E-14-3.64810E-02 2.27743E-14
 -1      1300-1.30004E-14-1.69017E-02 2.23563E-14
 -1      1309 2.88776E-04-2.25936E-02-7.16978E-03
 -1      1311-2.88776E-04-2.25936E-02 7.16978E-03
 -1      1312-1.26497E-14-3.38485E-02 2.87866E-14
 -1      1314-1.28715E-14-1.13387E-02 2.95001E-14
 -1      1323 2.09206E-04-1.80542E-02-7.59583E-03
 -1      1325-2.09206E-04-1.80542E-02 7.59583E-03
 -1      1326-7.46891E-15-2.99778E-02 1.90572E-14
 -1      1328-9.23300E-15-6.13046E-03 1.92108E-14
 -1      1337 8.66180E-05-1.42306E-02-7.46231E-03
 -1      1339-8.66180E-05-1.42306E-02 7.46231E-03
 -1      1340-3.24033E-15-2.59447E-02 6.17557E-15
 -1      1342-4.09062E-15-2.51654E-03 6.09239E-15
 -1      1351-4.86364E-05-1.17812E-02-6.78048E-03
 -1      1353 4.86364E-05-1.17812E-02 6.78048E-03
 -1      1354 1.33719E-15-2.24250E-02-2.71261E-15
 -1      1356 1.04979E-15-1.13740E-03-2.74830E-15
 -1      1365-1.61429E-04-1.07297E-02-5.59027E-03
 -1      1367 1.61429E-04-1.07297E-02 5.59027E-03
 -1      1368 4.86600E-15-1.95051E-02-7.16733E-15
 -1      1370 5.52847E-15-1.95431E-03-7.10597E-15
 -1      1379-2.21851E-04-1.04809E-02-3.99201E-03
 -1      1381 2.21851E-04-1.04809E-02 3.99201E-03
 -1      1382 4.67365E-15-1.67475E-02-1.51635E-15
 -1      1384 6.96981E-15-4.21441E-03-2.57760E-15
 -1      1393-2.13860E-04-9.99572E-03-2.10117E-03
 -1      1395 2.13860E-04-9.99572E-03 2.10117E-03
 -1      1396 3.07494E-15-1.32941E-02 1.22869E-14
 -1      1398 6.59788E-15-6.69738E-03 1.32760E-14
 -1      1407-1.33107E-04-8.07540E-03-7.60028E-05
 -1      1409 1.33107E-04-8.07540E-03 7.60028E-05
 -1      1410 4.07974E-15-8.19471E-03 1.73999E-14
 -1      1412 3.22692E-15-7.95609E-03 1.69615E-14
 -1      1421 3.41049E-06-3.67555E-03 1.94038E-03
 -1      1423-3.41049E-06-3.67555E-03-1.94038E-03
 -1      1424 1.86953E-15-6.29602E-04 5.64685E-15
 -1      1426 1.21930E-16-6.72150E-03 5.26803E-15
 -1      1435 1.72713E-04 3.78546E-03 3.78679E-03
 -1      1437-1.72713E-04 3.78546E-03-3.78679E-03
 -1      1438-2.81505E-15 9.72984E-03 1.53540E-15
 -1      1440-1.54257E-15-2.15893E-03 1.36419E-15
 -1      1449 3.41003E-04 1.43128E-02 5.34612E-03
 -1      1451-3.41003E-04 1.43128E-02-5.34612E-03
 -1      1452-3.25999E-15 2.27050E-02 8.86562E-15
 -1      1454-1.71173E-15 5.92066E-03 8.23181E-15
 -1      1463 4.77627E-04 2.72245E-02 6.51254E-03
 -1      1465-4.77627E-04 2.72245E-02-6.51254E-03
 -1      1466-1.57444E-16 3.74477E-02 1.13010E-14
 -1      1468-2.62360E-16 1.70014E-02 1.23467E-14
 -1      1477 5.74146E-04 4.15264E-02 7.22012E-03
 -1      1479-5.74146E-04 4.15264E-02-7.22012E-03
 -1      1480 2.95355E-15 5.28604E-02 6.62644E-15
 -1      1482 1.50122E-15 3.01925E-02 5.31539E-15
 -1      1491 5.93854E-04-4.13840E-02-9.96866E-04
 -1      1493-5.93854E-04-4.13840E-02 9.96866E-04
 -1      1494 5.79856E-04-5.34374E-02-1.40757E-14
 -1      1496-5.79856E-04-5.34374E-02 4.21191E-15
 -1      1497 5.93854E-04-4.13840E-02 9.96866E-04
 -1      1499-5.93854E-04-4.13840E-02-9.96866E-04
 -1      1500-2.61612E-04 1.02500E-02 4.74970E-02
 -1      1502 1.15441E-02 1.41190E-03 4.76058E-02
 -1      1503 5.83527E-03 2.36881E-02 1.09176E-01
 -1      1505 1.08964E-02 6.00944E-03 1.09274E-01
 -1      1506 5.62729E-03 3.88362E-02 1.54674E-01
 -1      1508 1.24441E-02 1.35530E-02 1.54652E-01
 -1      1509 5.52110E-03 5.23814E-02 1.94252E-01
 -1      1511 9.34728E-03 2.07878E-02 1.94140E-01
 -1      1512 2.83855E-03 6.17788E-02 2.18919E-01
 -1      1514 5.51925E-03 2.61471E-02 2.18780E-01
 -1      1515-1.94585E-04 6.53582E-02 2.30223E-01
 -1      1517 1.57989E-04 2.79337E-02 2.30024E-01
 -1      1518-3.68433E-03 6.23966E-02 2.25869E-01
 -1      1520-5.20495E-03 2.56925E-02 2.25717E-01
 -1      1521-6.46081E-03 5.31411E-02 2.06867E-01
 -1      1523-9.99060E-03 1.95858E-02 2.06721E-01
 -1      1524-8.19653E-03 3.89432E-02 1.74006E-01
 -1      1526-1.34091E-02 1.07444E-02 1.73951E-01
 -1      1527-8.44455E-03 2.16706E-02 1.29582E-01
 -1      1529-1.50545E-02 7.24159E-04 1.29572E-01
 -1      1530-7.27093E-03 3.67365E-03 7.63435E-02
 -1      1532-1.48294E-02-8.66019E-03 7.64184E-02
 -1      1533-4.93143E-03-1.29325E-02 1.78621E-02
 -1      1535-1.29453E-02-1.58166E-02 1.79678E-02
 -1      1536-1.97073E-03-2.63719E-02-4.19999E-02
 -1      1538-9.89801E-03-1.96589E-02-4.18580E-02
 -1      1539 9.90957E-04-3.56734E-02-9.91285E-02
 -1      1541-6.30338E-03-1.98211E-02-9.90027E-02
 -1      1542 3.34533E-03-4.05883E-02-1.49585E-01
 -1      1544-2.80592E-03-1.67221E-02-1.49479E-01
 -1      1545 4.65694E-03-4.16515E-02-1.89783E-01
 -1      1547 9.03270E-05-1.14104E-02-1.89728E-01
 -1      1548 4.73784E-03-3.98448E-02-2.16846E-01
 -1      1550 2.08733E-03-5.34122E-03-2.16833E-01
 -1      1551 3.69393E-03-3.63820E-02-2.28777E-01
 -1      1553 3.15864E-03 7.40444E-06-2.28809E-01
 -1      1554 1.88731E-03-3.23071E-02-2.24683E-01
 -1      1556 3.51109E-03 3.43636E-03-2.24733E-01
 -1      1557-1.46031E-04-2.83048E-02-2.04819E-01
 -1      1559 3.52310E-03 4.33721E-03-2.04872E-01
 -1      1560-1.82440E-03-2.44983E-02-1.70623E-01
 -1      1562 3.62271E-03 2.78772E-03-1.70652E-01
 -1      1563-2.65400E-03-2.05198E-02-1.24576E-01
 -1      1565 4.17456E-03-4.35800E-04-1.24571E-01
 -1      1566-2.33638E-03-1.56068E-02-7.00511E-02
 -1      1568 5.37091E-03-4.07764E-03-7.00012E-02
 -1      1569-8.48492E-04-8.91527E-03-1.09946E-02
 -1      1571 7.18648E-03-6.66110E-03-1.09097E-02
 -1      1572 1.59257E-03 2.43743E-04 4.82968E-02
 -1      1574 9.35825E-03-6.85709E-03 4.84061E-02
 -1      1575 4.51453E-03 1.21039E-02 1.03663E-01
 -1      1577 1.15029E-02-3.75278E-03 1.03772E-01
 -1      1578 7.47162E-03 2.63357E-02 1.51079E-01
 -1      1580 1.31080E-02 2.93427E-03 1.51170E-01
 -1      1581 9.86640E-03 4.20733E-02 1.87571E-01
 -1      1583 1.39564E-02 1.28657E-02 1.87628E-01
 -1      1584 1.17532E-02 5.80423E-02 2.10104E-01
 -1      1586 1.36404E-02 2.51978E-02 2.10125E-01
 -1      1587 6.33374E-03 7.43268E-02 1.00573E-01
 -1      1589 6.51081E-03 3.77169E-02 1.00562E-01
 -1      1590 0.00000E+00 0.00000E+00-7.96243E-05
 -1      1592 0.00000E+00 0.00000E+00 7.96243E-05
 -1      1593-6.33374E-03 7.43268E-02-1.00573E-01
 -1      1595-6.51081E-03 3.77169E-02-1.00562E-01
 -1      1596 2.61612E-04 1.02500E-02-4.74970E-02
 -1      1598-1.15441E-02 1.41190E-03-4.76058E-02
 -1      1599-5.83527E-03 2.36881E-02-1.09176E-01
 -1      1601-1.08964E-02 6.00944E-03-1.09274E-01
 -1      1602-5.62729E-03 3.88362E-02-1.54674E-01
 -1      1604-1.24441E-02 1.35530E-02-1.54652E-01
 -1      1605-5.52110E-03 5.23814E-02-1.94252E-01
 -1      1607-9.34728E-03 2.07878E-02-1.94140E-01
 -1      1608-2.83855E-03 6.17788E-02-2.18919E-01
 -1      1610-5.51925E-03 2.61471E-02-2.18780E-01
 -1      1611 1.94585E-04 6.53582E-02-2.30223E-01
 -1      1613-1.57989E-04 2.79337E-02-2.30024E-01
 -1      1614 3.68433E-03 6.23966E-02-2.25869E-01
 -1      1616 5.20495E-03 2.56925E-02-2.25717E-01
 -1      1617 6.46081E-03 5.31411E-02-2.06867E-01
 -1      1619 9.99060E-03 1.95858E-02-2.06721E-01
 -1      1620 8.19653E-03 3.89432E-02-1.74006E-01
 -1      1622 1.34091E-02 1.07444E-02-1.73951E-01
 -1      1623 8.44455E-03 2.16706E-02-1.29582E-01
 -1      1625 1.50545E-02 7.24159E-04-1.29572E-01
 -1      1626 7.27093E-03 3.67365E-03-7.63435E-02
 -1      1628 1.48294E-02-8.66019E-03-7.64184E-02
 -1      1629 4.93143E-03-1.29325E-02-1.78621E-02
 -1      1631 1.29453E-02-1.58166E-02-1.79678E-02
 -1      1632 1.97073E-03-2.63719E-02 4.19999E-02
 -1      1634 9.89801E-03-1.96589E-02 4.18580E-02
 -1      1635-9.90957E-04-3.56734E-02 9.91285E-02
 -1      1637 6.30338E-03-1.98211E-02 9.90027E-02
 -1      1638-3.34533E-03-4.05883E-02 1.49585E-01
 -1      1640 2.80592E-03-1.67221E-02 1.49479E-01
 -1      1641-4.65694E-03-4.16515E-02 1.89783E-01
 -1      1643-9.03270E-05-1.14104E-02 1.89728E-01
 -1      1644-4.73784E-03-3.98448E-02 2.16846E-01
 -1      1646-2.08733E-03-5.34122E-03 2.16833E-01
 -1      1647-3.69393E-03-3.63820E-02 2.28777E-01
 -1      1649-3.15864E-03 7.40444E-06 2.28809E-01
 -1      1650-1.88731E-03-3.23071E-02 2.24683E-01
 -1      1652-3.51109E-03 3.43636E-03 2.24733E-01
 -1      1653 1.46031E-04-2.83048E-02 2.04819E-01
 -1      1655-3.52310E-03 4.33721E-03 2.04872E-01
 -1      1656 1.82440E-03-2.44983E-02 1.70623E-01
 -1      1658-3.62271E-03 2.78772E-03 1.70652E-01
 -1      1659 2.65400E-03-2.05198E-02 1.24576E-01
 -1      1661-4.17456E-03-4.35800E-04 1.24571E-01
 -1      1662 2.33638E-03-1.56068E-02 7.00511E-02
 -1      1664-5.37091E-03-4.07764E-03 7.00012E-02
 -1      1665 8.48492E-04-8.91527E-03 1.09946E-02
 -1      1667-7.18648E-03-6.66110E-03 1.09097E-02
 -1      1668-1.59257E-03 2.43743E-04-4.82968E-02
 -1      1670-9.35825E-03-6.85709E-03-4.84061E-02
 -1      1671-4.51453E-03 1.21039E-02-1.03663E-01
 -1      1673-1.15029E-02-3.75278E-03-1.03772E-01
 -1      1674-7.47162E-03 2.63357E-02-1.51079E-01
 -1      1676-1.31080E-02 2.93427E-03-1.51170E-01
 -1      1677-9.86640E-03 4.20733E-02-1.87571E-01
 -1      1679-1.39564E-02 1.28657E-02-1.87628E-01
 -1      1680-1.17532E-02 5.80423E-02-2.10104E-01
 -1      1682-1.36404E-02 2.51978E-02-2.10125E-01
 -1      1683 0.00000E+00 0.00000E+00 7.96243E-05
 -1      1685 0.00000E+00 0.00000E+00-7.96243E-05
 -1      1686 4.87304E-04 8.91538E-03 2.00872E-02
 -1      1688-5.08978E-03 1.29764E-03 2.01926E-02
 -1      1689-2.86555E-03 2.39912E-02 4.90783E-02
 -1      1691-5.17893E-03 5.62218E-03 4.90865E-02
 -1      1692-2.67727E-03 3.93109E-02 6.87892E-02
 -1      1694-5.80194E-03 1.30167E-02 6.87857E-02
 -1      1695-2.63219E-03 5.32982E-02 8.67640E-02
 -1      1697-4.40733E-03 2.04659E-02 8.67073E-02
 -1      1698-1.38697E-03 6.28915E-02 9.76220E-02
 -1      1700-2.60220E-03 2.57066E-02 9.75366E-02
 -1      1701 1.40314E-04 6.66036E-02 1.02768E-01
 -1      1703-4.46853E-05 2.76307E-02 1.02681E-01
 -1      1704 1.79278E-03 6.35891E-02 1.00889E-01
 -1      1706 2.48872E-03 2.52779E-02 1.00793E-01
 -1      1707 3.18211E-03 5.41978E-02 9.25296E-02
 -1      1709 4.78084E-03 1.92055E-02 9.24641E-02
 -1      1710 4.01883E-03 3.97239E-02 7.79823E-02
 -1      1712 6.40676E-03 1.02782E-02 7.79344E-02
 -1      1713 4.17361E-03 2.21355E-02 5.82119E-02
 -1      1715 7.20537E-03 2.83561E-04 5.82063E-02
 -1      1716 3.61961E-03 3.77340E-03 3.44238E-02
 -1      1718 7.10783E-03-9.08296E-03 3.44435E-02
 -1      1719 2.51268E-03-1.31705E-02 8.15265E-03
 -1      1721 6.22480E-03-1.61114E-02 8.20244E-03
 -1      1722 1.09067E-03-2.69124E-02-1.88613E-02
 -1      1724 4.78226E-03-1.97789E-02-1.88002E-02
 -1      1725-3.36512E-04-3.64405E-02-4.47790E-02
 -1      1727 3.07489E-03-1.96849E-02-4.47130E-02
 -1      1728-1.48571E-03-4.15080E-02-6.77736E-02
 -1      1730 1.40478E-03-1.63068E-02-6.77169E-02
 -1      1731-2.14214E-03-4.26430E-02-8.61823E-02
 -1      1733 1.25020E-05-1.07113E-02-8.61402E-02
 -1      1734-2.21726E-03-4.08434E-02-9.86276E-02
 -1      1736-9.60826E-04-4.41246E-03-9.86039E-02
 -1      1737-1.75741E-03-3.73344E-02-1.04149E-01
 -1      1739-1.49993E-03 1.08123E-03-1.04141E-01
 -1      1740-9.34094E-04-3.31773E-02-1.02286E-01
 -1      1742-1.70088E-03 4.53314E-03-1.02288E-01
 -1      1743-8.12980E-07-2.90665E-02-9.31361E-02
 -1      1745-1.73952E-03 5.32983E-03-9.31404E-02
 -1      1746 7.67347E-04-2.51310E-02-7.73556E-02
 -1      1748-1.81642E-03 3.55040E-03-7.73539E-02
 -1      1749 1.13446E-03-2.10026E-02-5.61087E-02
 -1      1751-2.10173E-03 6.70909E-06-5.60954E-02
 -1      1752 9.62280E-04-1.59128E-02-3.09796E-02
 -1      1754-2.68569E-03-4.01456E-03-3.09532E-02
 -1      1755 2.34315E-04-9.01577E-03-3.82338E-03
 -1      1757-3.55689E-03-6.97480E-03-3.78573E-03
 -1      1758-9.37362E-04 3.84530E-04 2.33503E-02
 -1      1760-4.59141E-03-7.51919E-03 2.33922E-02
 -1      1761-2.34361E-03 1.25037E-02 4.86298E-02
 -1      1763-5.61463E-03-4.67673E-03 4.86686E-02
 -1      1764-3.75609E-03 2.70159E-02 7.01567E-02
 -1      1766-6.38479E-03 1.82109E-03 7.01844E-02
 -1      1767-4.91711E-03 4.29981E-02 8.66759E-02
 -1      1769-6.81253E-03 1.16576E-02 8.66872E-02
 -1      1770-5.85387E-03 5.91695E-02 9.67452E-02
 -1      1772-6.72118E-03 2.39642E-02 9.67461E-02
 -1      1773-4.87304E-04 8.91538E-03-2.00872E-02
 -1      1775 5.08978E-03 1.29764E-03-2.01926E-02
 -1      1776 2.86555E-03 2.39912E-02-4.90783E-02
 -1      1778 5.17893E-03 5.62218E-03-4.90865E-02
 -1      1779 2.67727E-03 3.93109E-02-6.87892E-02
 -1      1781 5.80194E-03 1.30167E-02-6.87857E-02
 -1      1782 2.63219E-03 5.32982E-02-8.67640E-02
 -1      1784 4.40733E-03 2.04659E-02-8.67073E-02
 -1      1785 1.38697E-03 6.28915E-02-9.76220E-02
 -1      1787 2.60220E-03 2.57066E-02-9.75366E-02
 -1      1788-1.40314E-04 6.66036E-02-1.02768E-01
 -1      1790 4.46853E-05 2.76307E-02-1.02681E-01
 -1      1791-1.79278E-03 6.35891E-02-1.00889E-01
 -1      1793-2.48872E-03 2.52779E-02-1.00793E-01
 -1      1794-3.18211E-03 5.41978E-02-9.25296E-02
 -1      1796-4.78084E-03 1.92055E-02-9.24641E-02
 -1      1797-4.01883E-03 3.97239E-02-7.79823E-02
 -1      1799-6.40676E-03 1.02782E-02-7.79344E-02
 -1      1800-4.17361E-03 2.21355E-02-5.82119E-02
 -1      1802-7.20537E-03 2.83561E-04-5.82063E-02
 -1      1803-3.61961E-03 3.77340E-03-3.44238E-02
 -1      1805-7.10783E-03-9.08296E-03-3.44435E-02
 -1      1806-2.51268E-03-1.31705E-02-8.15265E-03
 -1      1808-6.22480E-03-1.61114E-02-8.20244E-03
 -1      1809-1.09067E-03-2.69124E-02 1.88613E-02
 -1      1811-4.78226E-03-1.97789E-02 1.88002E-02
 -1      1812 3.36512E-04-3.64405E-02 4.47790E-02
 -1      1814-3.07489E-03-1.96849E-02 4.47130E-02
 -1      1815 1.48571E-03-4.15080E-02 6.77736E-02
 -1      1817-1.40478E-03-1.63068E-02 6.77169E-02
 -1      1818 2.14214E-03-4.26430E-02 8.61823E-02
 -1      1820-1.25020E-05-1.07113E-02 8.61402E-02
 -1      1821 2.21726E-03-4.08434E-02 9.86276E-02
 -1      1823 9.60826E-04-4.41246E-03 9.86039E-02
 -1      1824 1.75741E-03-3.73344E-02 1.04149E-01
 -1      1826 1.49993E-03 1.08123E-03 1.04141E-01
 -1      1827 9.34094E-04-3.31773E-02 1.02286E-01
 -1      1829 1.70088E-03 4.53314E-03 1.02288E-01
 -1      1830 8.12980E-07-2.90665E-02 9.31361E-02
 -1      1832 1.73952E-03 5.32983E-03 9.31404E-02
 -1      1833-7.67347E-04-2.51310E-02 7.73556E-02
 -1      1835 1.81642E-03 3.55040E-03 7.73539E-02
 -1      1836-1.13446E-03-2.10026E-02 5.61087E-02
 -1      1838 2.10173E-03 6.70909E-06 5.60954E-02
 -1      1839-9.62280E-04-1.59128E-02 3.09796E-02
 -1      1841 2.68569E-03-4.01456E-03 3.09532E-02
 -1      1842-2.34315E-04-9.01577E-03 3.82338E-03
 -1      1844 3.55689E-03-6.97480E-03 3.78573E-03
 -1      1845 9.37362E-04 3.84530E-04-2.33503E-02
 -1      1847 4.59141E-03-7.51919E-03-2.33922E-02
 -1      1848 2.34361E-03 1.25037E-02-4.86298E-02
 -1      1850 5.61463E-03-4.67673E-03-4.86686E-02
 -1      1851 3.75609E-03 2.70159E-02-7.01567E-02
 -1      1853 6.38479E-03 1.82109E-03-7.01844E-02
 -1      1854 4.91711E-03 4.29981E-02-8.66759E-02
 -1      1856 6.81253E-03 1.16576E-02-8.66872E-02
 -1      1857 5.85387E-03 5.91695E-02-9.67452E-02
 -1      1859 6.72118E-03 2.39642E-02-9.67461E-02
 -1      1860-6.31244E-04-1.23040E-02 2.21506E-05
 -1      1862 6.31244E-04-1.23040E-02-2.21506E-05
 -1      1863 1.24241E-04-2.29737E-02 1.11265E-04
 -1      1865-1.24241E-04-2.29737E-02-1.11265E-04
 -1      1866-8.00511E-05-2.67310E-02 1.58775E-04
 -1      1868 8.00511E-05-2.67310E-02-1.58775E-04
 -1      1869 1.35051E-04-2.93741E-02 2.13058E-04
 -1      1871-1.35051E-04-2.93741E-02-2.13058E-04
 -1      1872 3.34689E-07-3.00305E-02 2.50628E-04
 -1      1874-3.34689E-07-3.00305E-02-2.50628E-04
 -1      1875-3.24509E-05-3.13818E-02 2.45976E-04
 -1      1877 3.24509E-05-3.13818E-02-2.45976E-04
 -1      1878-1.38480E-04-3.30734E-02 2.21991E-04
 -1      1880 1.38480E-04-3.30734E-02-2.21991E-04
 -1      1881-1.80043E-04-3.51993E-02 1.61868E-04
 -1      1883 1.80043E-04-3.51993E-02-1.61868E-04
 -1      1884-1.70169E-04-3.64902E-02 9.71240E-05
 -1      1886 1.70169E-04-3.64902E-02-9.71240E-05
 -1      1887-8.35597E-05-3.55984E-02 3.39394E-05
 -1      1889 8.35597E-05-3.55984E-02-3.39394E-05
 -1      1890 7.12078E-05-3.10488E-02-1.91939E-06
 -1      1892-7.12078E-05-3.10488E-02 1.91939E-06
 -1      1893 2.64039E-04-2.18869E-02-2.67094E-08
 -1      1895-2.64039E-04-2.18869E-02 2.67093E-08
 -1      1896 4.60267E-04-7.96390E-03 4.67738E-05
 -1      1898-4.60267E-04-7.96390E-03-4.67738E-05
 -1      1899 6.11203E-04 9.85523E-03 1.34426E-04
 -1      1901-6.11203E-04 9.85523E-03-1.34426E-04
 -1      1902 6.81630E-04 2.97180E-02 2.46909E-04
 -1      1904-6.81630E-04 2.97180E-02-2.46909E-04
 -1      1905 6.44019E-04 4.90558E-02 3.63526E-04
 -1      1907-6.44019E-04 4.90558E-02-3.63526E-04
 -1      1908 4.96136E-04 6.50075E-02 4.56017E-04
 -1      1910-4.96136E-04 6.50075E-02-4.56017E-04
 -1      1911 2.54398E-04 7.49601E-02 5.01883E-04
 -1      1913-2.54398E-04 7.49601E-02-5.01883E-04
 -1      1914-4.29961E-05 7.70501E-02 4.81200E-04
 -1      1916 4.29961E-05 7.70501E-02-4.81200E-04
 -1      1917-3.47135E-04 7.05563E-02 3.88274E-04
 -1      1919 3.47135E-04 7.05563E-02-3.88274E-04
 -1      1920-6.05639E-04 5.60712E-02 2.26551E-04
 -1      1922 6.05639E-04 5.60712E-02-2.26551E-04
 -1      1923-7.74309E-04 3.54327E-02 1.34055E-05
 -1      1925 7.74309E-04 3.54327E-02-1.34055E-05
 -1      1926-8.25211E-04 1.14174E-02-2.26507E-04
 -1      1928 8.25211E-04 1.14174E-02 2.26507E-04
 -1      1929-7.52586E-04-1.27433E-02-4.64936E-04
 -1      1931 7.52586E-04-1.27433E-02 4.64936E-04
 -1      1932-5.71209E-04-3.39009E-02-6.73640E-04
 -1      1934 5.71209E-04-3.39009E-02 6.73640E-04
 -1      1935-3.19084E-04-4.95402E-02-8.35160E-04
 -1      1937 3.19084E-04-4.95402E-02 8.35160E-04
 -1      1938-3.15437E-05-5.80600E-02-9.37641E-04
 -1      1940 3.15437E-05-5.80600E-02 9.37641E-04
 -1      1941 2.28120E-04-5.90880E-02-9.87587E-04
 -1      1943-2.28120E-04-5.90880E-02 9.87587E-04
 -1      1944 4.65983E-04-5.30380E-02-1.00028E-03
 -1      1946-4.65983E-04-5.30380E-02 1.00028E-03
 -1      1947-1.28467E-03-1.14807E-02-4.78090E-15
 -1      1949 1.28467E-03-1.14807E-02-1.25941E-15
 -1      1950-1.06734E-04-2.21719E-02-1.32463E-14
 -1      1952 1.06734E-04-2.21719E-02-8.50708E-15
 -1      1953-4.55491E-04-2.49602E-02-2.34118E-14
 -1      1955 4.55491E-04-2.49602E-02-1.64972E-14
 -1      1956-4.04432E-05-2.72519E-02-3.64691E-14
 -1      1958 4.04432E-05-2.72519E-02-2.63158E-14
 -1      1959-1.55471E-04-2.74698E-02-5.00884E-14
 -1      1961 1.55471E-04-2.74698E-02-3.60666E-14
 -1      1962-5.40667E-05-2.88735E-02-5.67411E-14
 -1      1964 5.40667E-05-2.88735E-02-3.88144E-14
 -1      1965-8.88023E-05-3.08706E-02-5.27811E-14
 -1      1967 8.88023E-05-3.08706E-02-3.43402E-14
 -1      1968-1.57335E-05-3.36208E-02-3.96055E-14
 -1      1970 1.57335E-05-3.36208E-02-2.39548E-14
 -1      1971 8.01763E-05-3.56244E-02-2.90670E-14
 -1      1973-8.01763E-05-3.56244E-02-1.82684E-14
 -1      1974 2.65862E-04-3.53687E-02-2.86420E-14
 -1      1976-2.65862E-04-3.53687E-02-2.28702E-14
 -1      1977 4.93543E-04-3.11477E-02-3.37479E-14
 -1      1979-4.93543E-04-3.11477E-02-3.14124E-14
 -1      1980 7.47462E-04-2.18657E-02-3.78980E-14
 -1      1982-7.47462E-04-2.18657E-02-3.78931E-14
 -1      1983 9.67192E-04-7.30303E-03-3.40422E-14
 -1      1985-9.67192E-04-7.30303E-03-3.71092E-14
 -1      1986 1.10843E-03 1.16104E-02-2.38698E-14
 -1      1988-1.10843E-03 1.16104E-02-2.94331E-14
 -1      1989 1.12237E-03 3.28514E-02-1.23512E-14
 -1      1991-1.12237E-03 3.28514E-02-1.91513E-14
 -1      1992 9.87880E-04 5.35825E-02 2.63678E-16
 -1      1994-9.87880E-04 5.35825E-02-7.91034E-15
 -1      1995 7.03496E-04 7.06396E-02 9.59649E-15
 -1      1997-7.03496E-04 7.06396E-02 2.44943E-15
 -1      1998 2.99591E-04 8.11219E-02 1.08212E-14
 -1      2000-2.99591E-04 8.11219E-02 7.18176E-15
 -1      2001-1.72610E-04 8.29601E-02 7.10196E-15
 -1      2003 1.72610E-04 8.29601E-02 6.40460E-15
 -1      2004-6.45633E-04 7.53468E-02 3.69323E-15
 -1      2006 6.45633E-04 7.53468E-02 4.06446E-15
 -1      2007-1.04985E-03 5.89339E-02 9.73180E-16
 -1      2009 1.04985E-03 5.89339E-02 1.63552E-15
 -1      2010-1.32677E-03 3.57511E-02 1.56646E-15
 -1      2012 1.32677E-03 3.57511E-02 2.72872E-15
 -1      2013-1.43656E-03 8.86978E-03 5.49040E-16
 -1      2015 1.43656E-03 8.86978E-03 2.35575E-15
 -1      2016-1.37207E-03-1.81453E-02-5.74887E-15
 -1      2018 1.37207E-03-1.81453E-02-1.47105E-15
 -1      2019-1.14583E-03-4.18249E-02-1.06489E-14
 -1      2021 1.14583E-03-4.18249E-02-3.79211E-15
 -1      2022-8.10881E-04-5.94280E-02-1.03355E-14
 -1      2024 8.10881E-04-5.94280E-02-1.03043E-15
 -1      2025-4.04090E-04-6.92297E-02-8.40647E-15
 -1      2027 4.04090E-04-6.92297E-02 5.01682E-15
 -1      2028-2.13865E-05-7.09229E-02-7.25808E-15
 -1      2030 2.13865E-05-7.09229E-02 1.11369E-14
 -1      2031 3.57819E-04-6.50498E-02-8.79852E-15
 -1      2033-3.57819E-04-6.50498E-02 1.06755E-14
 -1      2034-6.31244E-04-1.23040E-02-2.21506E-05
 -1      2036 6.31244E-04-1.23040E-02 2.21506E-05
 -1      2037 1.24241E-04-2.29737E-02-1.11265E-04
 -1      2039-1.24241E-04-2.29737E-02 1.11265E-04
 -1      2040-8.00511E-05-2.67310E-02-1.58775E-04
 -1      2042 8.00511E-05-2.67310E-02 1.58775E-04
 -1      2043 1.35051E-04-2.93741E-02-2.13058E-04
 -1      2045-1.35051E-04-2.93741E-02 2.13058E-04
 -1      2046 3.34689E-07-3.00305E-02-2.50628E-04
 -1      2048-3.34689E-07-3.00305E-02 2.50628E-04
 -1      2049-3.24509E-05-3.13818E-02-2.45976E-04
 -1      2051 3.24509E-05-3.13818E-02 2.45976E-04
 -1      2052-1.38480E-04-3.30734E-02-2.21991E-04
 -1      2054 1.38480E-04-3.30734E-02 2.21991E-04
 -1      2055-1.80043E-04-3.51993E-02-1.61868E-04
 -1      2057 1.80043E-04-3.51993E-02 1.61868E-04
 -1      2058-1.70169E-04-3.64902E-02-9.71240E-05
 -1      2060 1.70169E-04-3.64902E-02 9.71240E-05
 -1      2061-8.35597E-05-3.55984E-02-3.39394E-05
 -1      2063 8.35597E-05-3.55984E-02 3.39394E-05
 -1      2064 7.12078E-05-3.10488E-02 1.91939E-06
 -1      2066-7.12078E-05-3.10488E-02-1.91939E-06
 -1      2067 2.64039E-04-2.18869E-02 2.67093E-08
 -1      2069-2.64039E-04-2.18869E-02-2.67094E-08
 -1      2070 4.60267E-04-7.96390E-03-4.67738E-05
 -1      2072-4.60267E-04-7.96390E-03 4.67738E-05
 -1      2073 6.11203E-04 9.85523E-03-1.34426E-04
 -1      2075-6.11203E-04 9.85523E-03 1.34426E-04
 -1      2076 6.81630E-04 2.97180E-02-2.46909E-04
 -1      2078-6.81630E-04 2.97180E-02 2.46909E-04
 -1      2079 6.44019E-04 4.90558E-02-3.63526E-04
 -1      2081-6.44019E-04 4.90558E-02 3.63526E-04
 -1      2082 4.96136E-04 6.50075E-02-4.56017E-04
 -1      2084-4.96136E-04 6.50075E-02 4.56017E-04
 -1      2085 2.54398E-04 7.49601E-02-5.01883E-04
 -1      2087-2.54398E-04 7.49601E-02 5.01883E-04
 -1      2088-4.29961E-05 7.70501E-02-4.81200E-04
 -1      2090 4.29961E-05 7.70501E-02 4.81200E-04
 -1      2091-3.47135E-04 7.05563E-02-3.88274E-04
 -1      2093 3.47135E-04 7.05563E-02 3.88274E-04
 -1      2094-6.05639E-04 5.60712E-02-2.26551E-04
 -1      2096 6.05639E-04 5.60712E-02 2.26551E-04
 -1      2097-7.74309E-04 3.54327E-02-1.34055E-05
 -1      2099 7.74309E-04 3.54327E-02 1.34055E-05
 -1      2100-8.25211E-04 1.14174E-02 2.26507E-04
 -1      2102 8.25211E-04 1.14174E-02-2.26507E-04
 -1      2103-7.52586E-04-1.27433E-02 4.64936E-04
 -1      2105 7.52586E-04-1.27433E-02-4.64936E-04
 -1      2106-5.71209E-04-3.39009E-02 6.73640E-04
 -1      2108 5.71209E-04-3.39009E-02-6.73640E-04
 -1      2109-3.19084E-04-4.95402E-02 8.35160E-04
 -1      2111 3.19084E-04-4.95402E-02-8.35160E-04
 -1      2112-3.15437E-05-5.80600E-02 9.37641E-04
 -1      2114 3.15437E-05-5.80600E-02-9.37641E-04
 -1      2115 2.28120E-04-5.90880E-02 9.87587E-04
 -1      2117-2.28120E-04-5.90880E-02-9.87587E-04
 -1      2118 4.65983E-04-5.30380E-02 1.00028E-03
 -1      2120-4.65983E-04-5.30380E-02-1.00028E-03
 -1      2121-4.87304E-04 8.91538E-03 2.00872E-02
 -1      2123 5.08978E-03 1.29764E-03 2.01926E-02
 -1      2124 2.86555E-03 2.39912E-02 4.90783E-02
 -1      2126 5.17893E-03 5.62218E-03 4.90865E-02
 -1      2127 2.67727E-03 3.93109E-02 6.87892E-02
 -1      2129 5.80194E-03 1.30167E-02 6.87857E-02
 -1      2130 2.63219E-03 5.32982E-02 8.67640E-02
 -1      2132 4.40733E-03 2.04659E-02 8.67073E-02
 -1      2133 1.38697E-03 6.28915E-02 9.76220E-02
 -1      2135 2.60220E-03 2.57066E-02 9.75366E-02
 -1      2136-1.40314E-04 6.66036E-02 1.02768E-01
 -1      2138 4.46853E-05 2.76307E-02 1.02681E-01
 -1      2139-1.79278E-03 6.35891E-02 1.00889E-01
 -1      2141-2.48872E-03 2.52779E-02 1.00793E-01
 -1      2142-3.18211E-03 5.41978E-02 9.25296E-02
 -1      2144-4.78084E-03 1.92055E-02 9.24641E-02
 -1      2145-4.01883E-03 3.97239E-02 7.79823E-02
 -1      2147-6.40676E-03 1.02782E-02 7.79344E-02
 -1      2148-4.17361E-03 2.21355E-02 5.82119E-02
 -1      2150-7.20537E-03 2.83561E-04 5.82063E-02
 -1      2151-3.61961E-03 3.77340E-03 3.44238E-02
 -1      2153-7.10783E-03-9.08296E-03 3.44435E-02
 -1      2154-2.51268E-03-1.31705E-02 8.15265E-03
 -1      2156-6.22480E-03-1.61114E-02 8.20244E-03
 -1      2157-1.09067E-03-2.69124E-02-1.88613E-02
 -1      2159-4.78226E-03-1.97789E-02-1.88002E-02
 -1      2160 3.36512E-04-3.64405E-02-4.47790E-02
 -1      2162-3.07489E-03-1.96849E-02-4.47130E-02
 -1      2163 1.48571E-03-4.15080E-02-6.77736E-02
 -1      2165-1.40478E-03-1.63068E-02-6.77169E-02
 -1      2166 2.14214E-03-4.26430E-02-8.61823E-02
 -1      2168-1.25020E-05-1.07113E-02-8.61402E-02
 -1      2169 2.21726E-03-4.08434E-02-9.86276E-02
 -1      2171 9.60826E-04-4.41246E-03-9.86039E-02
 -1      2172 1.75741E-03-3.73344E-02-1.04149E-01
 -1      2174 1.49993E-03 1.08123E-03-1.04141E-01
 -1      2175 9.34094E-04-3.31773E-02-1.02286E-01
 -1      2177 1.70088E-03 4.53314E-03-1.02288E-01
 -1      2178 8.12980E-07-2.90665E-02-9.31361E-02
 -1      2180 1.73952E-03 5.32983E-03-9.31404E-02
 -1      2181-7.67347E-04-2.51310E-02-7.73556E-02
 -1      2183 1.81642E-03 3.55040E-03-7.73539E-02
 -1      2184-1.13446E-03-2.10026E-02-5.61087E-02
 -1      2186 2.10173E-03 6.70909E-06-5.60954E-02
 -1      2187-9.62280E-04-1.59128E-02-3.09796E-02
 -1      2189 2.68569E-03-4.01456E-03-3.09532E-02
 -1      2190-2.34315E-04-9.01577E-03-3.82338E-03
 -1      2192 3.55689E-03-6.97480E-03-3.78573E-03
 -1      2193 9.37362E-04 3.84530E-04 2.33503E-02
 -1      2195 4.59141E-03-7.51919E-03 2.33922E-02
 -1      2196 2.34361E-03 1.25037E-02 4.86298E-02
 -1      2198 5.61463E-03-4.67673E-03 4.86686E-02
 -1      2199 3.75609E-03 2.70159E-02 7.01567E-02
 -1      2201 6.38479E-03 1.82109E-03 7.01844E-02
 -1      2202 4.91711E-03 4.29981E-02 8.66759E-02
 -1      2204 6.81253E-03 1.16576E-02 8.66872E-02
 -1      2205 5.85387E-03 5.91695E-02 9.67452E-02
 -1      2207 6.72118E-03 2.39642E-02 9.67461E-02
 -1      2208 4.87304E-04 8.91538E-03-2.00872E-02
 -1      2210-5.08978E-03 1.29764E-03-2.01926E-02
 -1      2211-2.86555E-03 2.39912E-02-4.90783E-02
 -1      2213-5.17893E-03 5.62218E-03-4.90865E-02
 -1      2214-2.67727E-03 3.93109E-02-6.87892E-02
 -1      2216-5.80194E-03 1.30167E-02-6.87857E-02
 -1      2217-2.63219E-03 5.32982E-02-8.67640E-02
 -1      2219-4.40733E-03 2.04659E-02-8.67073E-02
 -1      2220-1.38697E-03 6.28915E-02-9.76220E-02
 -1      2222-2.60220E-03 2.57066E-02-9.75366E-02
 -1      2223 1.40314E-04 6.66036E-02-1.02768E-01
 -1      2225-4.46853E-05 2.76307E-02-1.02681E-01
 -1      2226 1.79278E-03 6.35891E-02-1.00889E-01
 -1      2228 2.48872E-03 2.52779E-02-1.00793E-01
 -1      2229 3.18211E-03 5.41978E-02-9.25296E-02
 -1      2231 4.78084E-03 1.92055E-02-9.24641E-02
 -1      2232 4.01883E-03 3.97239E-02-7.79823E-02
 -1      2234 6.40676E-03 1.02782E-02-7.79344E-02
 -1      2235 4.17361E-03 2.21355E-02-5.82119E-02
 -1      2237 7.20537E-03 2.83561E-04-5.82063E-02
 -1      2238 3.61961E-03 3.77340E-03-3.44238E-02
 -1      2240 7.10783E-03-9.08296E-03-3.44435E-02
 -1      2241 2.51268E-03-1.31705E-02-8.15265E-03
 -1      2243 6.22480E-03-1.61114E-02-8.20244E-03
 -1      2244 1.09067E-03-2.69124E-02 1.88613E-02
 -1      2246 4.78226E-03-1.97789E-02 1.88002E-02
 -1      2247-3.36512E-04-3.64405E-02 4.47790E-02
 -1      2249 3.07489E-03-1.96849E-02 4.47130E-02
 -1      2250-1.48571E-03-4.15080E-02 6.77736E-02
 -1      2252 1.40478E-03-1.63068E-02 6.77169E-02
 -1      2253-2.14214E-03-4.26430E-02 8.61823E-02
 -1      2255 1.25020E-05-1.07113E-02 8.61402E-02
 -1      2256-2.21726E-03-4.08434E-02 9.86276E-02
 -1      2258-9.60826E-04-4.41246E-03 9.86039E-02
 -1      2259-1.75741E-03-3.73344E-02 1.04149E-01
 -1      2261-1.49993E-03 1.08123E-03 1.04141E-01
 -1      2262-9.34094E-04-3.31773E-02 1.02286E-01
 -1      2264-1.70088E-03 4.53314E-03 1.02288E-01
 -1      2265-8.12980E-07-2.90665E-02 9.31361E-02
 -1      2267-1.73952E-03 5.32983E-03 9.31404E-02
 -1      2268 7.67347E-04-2.51310E-02 7.73556E-02
 -1      2270-1.81642E-03 3.55040E-03 7.73539E-02
 -1      2271 1.13446E-03-2.10026E-02 5.61087E-02
 -1      2273-2.10173E-03 6.70909E-06 5.60954E-02
 -1      2274 9.62280E-04-1.59128E-02 3.09796E-02
 -1      2276-2.68569E-03-4.01456E-03 3.09532E-02
 -1      2277 2.34315E-04-9.01577E-03 3.82338E-03
 -1      2279-3.55689E-03-6.97480E-03 3.78573E-03
 -1      2280-9.37362E-04 3.84530E-04-2.33503E-02
 -1      2282-4.59141E-03-7.51919E-03-2.33922E-02
 -1      2283-2.34361E-03 1.25037E-02-4.86298E-02
 -1      2285-5.61463E-03-4.67673E-03-4.86686E-02
 -1      2286-3.75609E-03 2.70159E-02-7.01567E-02
 -1      2288-6.38479E-03 1.82109E-03-7.01844E-02
 -1      2289-4.91711E-03 4.29981E-02-8.66759E-02
 -1      2291-6.81253E-03 1.16576E-02-8.66872E-02
 -1      2292-5.85387E-03 5.91695E-02-9.67452E-02
 -1      2294-6.72118E-03 2.39642E-02-9.67461E-02
 -3
    1PSTEP                        74           1           1          
    1PGM                1.000000E+00                                  
    1PGK                1.666853E+07                                  
    1PHID                         -1                                  
    1PSUBC                         0                                  
    1PMODE                        19                                  
  100CL  119 649.7837111         930                     2   19MODAL      1
 -4  STRESS      6    1
 -5  SXX         1    4    1    1
 -5  SYY         1    4    2    2
 -5  SZZ         1    4    3    3
 -5  SXY         1    4    1    2
 -5  SYZ         1    4    2    3
 -5  SZX         1    4    3    1
 -1       404-8.61232E+09-8.96973E+08-1.20242E+07 1.41959E+09-1.33152E+07 1.33691E+09
 -1       406-8.61232E+09-8.96973E+08-1.20242E+07 1.41959E+09-1.33152E+07 1.33691E+09
 -1       407-3.07185E+08 9.46206E+07-7.59902E+04 1.15805E+08-4.06113E+07-3.16891E+07
 -1       409-3.07185E+08 9.46206E+07-7.59902E+04 1.15805E+08-4.06113E+07-3.16891E+07
 -1       410-7.04899E-05 2.22406E-03-4.46290E-05 2.61751E+08 6.64220E+08-1.15592E-04
 -1       412-7.04899E-05 2.22406E-03-4.46290E-05 2.61751E+08 6.64220E+08-1.15592E-04
 -1       413-3.52417E-04-1.21652E-04 7.24065E-04 9.39532E+06 8.71154E+08-1.61644E-03
 -1       415-3.52417E-04-1.21652E-04 7.24065E-04 9.39532E+06 8.71154E+08-1.61644E-03
 -1       424 6.37269E-03 1.82551E-03 1.36256E-04 2.05460E+09-2.82569E+08 1.21623E-04
 -1       426 6.37269E-03 1.82551E-03 1.36256E-04 2.05460E+09-2.82569E+08 1.21623E-04
 -1       427 3.99184E-03-2.58291E-04 2.51075E-03-5.12557E+07-1.67751E+08-6.28129E-03
 -1       429 3.99184E-03-2.58291E-04 2.51075E-03-5.12557E+07-1.67751E+08-6.28129E-03
 -1       438 3.07185E+08-9.46206E+07 7.59902E+04 1.15805E+08-4.06113E+07 3.16891E+07
 -1       440 3.07185E+08-9.46206E+07 7.59902E+04 1.15805E+08-4.06113E+07 3.16891E+07
 -1       441 8.61232E+09 8.96973E+08 1.20242E+07 1.41959E+09-1.33152E+07-1.33691E+09
 -1       443 8.61232E+09 8.96973E+08 1.20242E+07 1.41959E+09-1.33152E+07-1.33691E+09
 -1       444 8.00296E-04-1.22869E-04 3.72508E-03-5.12557E+07 1.67751E+08 2.27938E-03
 -1       446 8.00296E-04-1.22869E-04 3.72508E-03-5.12557E+07 1.67751E+08 2.27938E-03
 -1       447-6.78301E-04 1.48296E-04-5.60284E-06 2.05460E+09 2.82569E+08 3.09363E-04
 -1       449-6.78301E-04 1.48296E-04-5.60284E-06 2.05460E+09 2.82569E+08 3.09363E-04
 -1       458 2.70660E-03 2.75145E-05 2.82521E-03 9.39532E+06-8.71154E+08-1.54094E-03
 -1       460 2.70660E-03 2.75145E-05 2.82521E-03 9.39532E+06-8.71154E+08-1.54094E-03
 -1       461 1.82523E-03-1.10486E-03 4.86188E-05 2.61751E+08-6.64220E+08-2.38232E-06
 -1       463 1.82523E-03-1.10486E-03 4.86188E-05 2.61751E+08-6.64220E+08-2.38232E-06
 -1       472 8.61232E+09 8.96973E+08 1.20242E+07 1.41959E+09 1.33152E+07 1.33691E+09
 -1       474 8.61232E+09 8.96973E+08 1.20242E+07 1.41959E+09 1.33152E+07 1.33691E+09
 -1       475 3.07185E+08-9.46206E+07 7.59902E+04 1.15805E+08 4.06113E+07-3.16891E+07
 -1       477 3.07185E+08-9.46206E+07 7.59902E+04 1.15805E+08 4.06113E+07-3.16891E+07
 -1       478-3.07185E+08 9.46206E+07-7.59902E+04 1.15805E+08 4.06113E+07 3.16891E+07
 -1       480-3.07185E+08 9.46206E+07-7.59902E+04 1.15805E+08 4.06113E+07 3.16891E+07
 -1       481-8.61232E+09-8.96973E+08-1.20242E+07 1.41959E+09 1.33152E+07-1.33691E+09
 -1       483-8.61232E+09-8.96973E+08-1.20242E+07 1.41959E+09 1.33152E+07-1.33691E+09
 -1       484-6.57286E+09-2.31961E+08 1.55373E+06 1.04162E+09 1.50433E+07 4.50852E+08
 -1       486-6.57286E+09-2.31961E+08 1.55373E+06 1.04162E+09 1.50433E+07 4.50852E+08
 -1       487-2.75517E+09 1.51765E+08-3.29049E+06 8.14942E+08 1.12126E+07-1.36559E+07
 -1       489-2.75517E+09 1.51765E+08-3.29049E+06 8.14942E+08 1.12126E+07-1.36559E+07
 -1       490 7.53089E+08 3.18906E+04 5.61488E+05 8.36815E+08-1.17486E+07 1.86832E+08
 -1       492 7.53089E+08 3.18906E+04 5.61488E+05 8.36815E+08-1.17486E+07 1.86832E+08
 -1       493 3.75211E+09 7.62017E+07 2.69376E+06 6.04583E+08-4.28368E+06 4.80061E+07
 -1       495 3.75211E+09 7.62017E+07 2.69376E+06 6.04583E+08-4.28368E+06 4.80061E+07
 -1       496 5.80434E+09 6.09046E+07 1.76919E+06 3.68310E+08-1.20904E+07 6.47743E+07
 -1       498 5.80434E+09 6.09046E+07 1.76919E+06 3.68310E+08-1.20904E+07 6.47743E+07
 -1       499 6.72163E+09 7.27172E+07 4.69475E+06 7.07909E+07-1.06070E+07 5.69647E+05
 -1       501 6.72163E+09 7.27172E+07 4.69475E+06 7.07909E+07-1.06070E+07 5.69647E+05
 -1       502 6.39486E+09 6.74034E+07 1.93717E+06-2.20598E+08-1.15732E+07-2.70734E+07
 -1       504 6.39486E+09 6.74034E+07 1.93717E+06-2.20598E+08-1.15732E+07-2.70734E+07
 -1       505 4.97176E+09 6.62832E+07 3.38157E+06-4.49885E+08-1.13149E+07-7.03720E+07
 -1       507 4.97176E+09 6.62832E+07 3.38157E+06-4.49885E+08-1.13149E+07-7.03720E+07
 -1       508 2.76271E+09 5.31896E+07 8.79375E+04-5.88676E+08-9.00113E+06-1.01099E+08
 -1       510 2.76271E+09 5.31896E+07 8.79375E+04-5.88676E+08-9.00113E+06-1.01099E+08
 -1       511 2.22243E+08 4.34192E+07 3.62901E+05-6.05867E+08-7.41168E+06-1.28856E+08
 -1       513 2.22243E+08 4.34192E+07 3.62901E+05-6.05867E+08-7.41168E+06-1.28856E+08
 -1       514-2.16277E+09 2.39431E+07-2.33244E+06-5.10409E+08-2.87005E+06-1.46589E+08
 -1       516-2.16277E+09 2.39431E+07-2.33244E+06-5.10409E+08-2.87005E+06-1.46589E+08
 -1       517-3.95860E+09 7.06781E+06-2.04215E+06-3.24070E+08 6.82384E+05-1.55097E+08
 -1       519-3.95860E+09 7.06781E+06-2.04215E+06-3.24070E+08 6.82384E+05-1.55097E+08
 -1       520-4.87844E+09-1.51584E+07-3.29053E+06-9.19879E+07 6.65485E+06-1.52986E+08
 -1       522-4.87844E+09-1.51584E+07-3.29053E+06-9.19879E+07 6.65485E+06-1.52986E+08
 -1       523-4.83102E+09-3.44212E+07-2.21467E+06 1.35537E+08 1.13075E+07-1.40348E+08
 -1       525-4.83102E+09-3.44212E+07-2.21467E+06 1.35537E+08 1.13075E+07-1.40348E+08
 -1       526-3.93539E+09-5.41760E+07-2.02012E+06 3.09875E+08 1.71189E+07-1.18083E+08
 -1       528-3.93539E+09-5.41760E+07-2.02012E+06 3.09875E+08 1.71189E+07-1.18083E+08
 -1       529-2.48387E+09-6.91395E+07-3.89092E+05 3.96359E+08 2.08498E+07-8.74169E+07
 -1       531-2.48387E+09-6.91395E+07-3.89092E+05 3.96359E+08 2.08498E+07-8.74169E+07
 -1       532-8.72685E+08-8.04355E+07 3.57848E+05 3.80910E+08 2.42926E+07-5.06497E+07
 -1       534-8.72685E+08-8.04355E+07 3.57848E+05 3.80910E+08 2.42926E+07-5.06497E+07
 -1       535 4.92084E+08-8.49922E+07 1.62710E+06 2.72868E+08 2.48529E+07-1.01748E+07
 -1       537 4.92084E+08-8.49922E+07 1.62710E+06 2.72868E+08 2.48529E+07-1.01748E+07
 -1       538 1.28601E+09-8.35682E+07 1.82557E+06 1.02482E+08 2.41634E+07 3.09789E+07
 -1       540 1.28601E+09-8.35682E+07 1.82557E+06 1.02482E+08 2.41634E+07 3.09789E+07
 -1       541 1.33943E+09-7.49562E+07 1.99806E+06-8.64850E+07 2.03597E+07 6.99554E+07
 -1       543 1.33943E+09-7.49562E+07 1.99806E+06-8.64850E+07 2.03597E+07 6.99554E+07
 -1       544 6.72419E+08-6.06781E+07 1.19085E+06-2.46745E+08 1.53289E+07 1.03801E+08
 -1       546 6.72419E+08-6.06781E+07 1.19085E+06-2.46745E+08 1.53289E+07 1.03801E+08
 -1       547-5.13721E+08-4.10647E+07 3.91758E+05-3.39053E+08 7.84098E+06 1.30266E+08
 -1       549-5.13721E+08-4.10647E+07 3.91758E+05-3.39053E+08 7.84098E+06 1.30266E+08
 -1       550-1.88863E+09-1.83795E+07-9.14896E+05-3.40556E+08 8.39168E+04 1.47022E+08
 -1       552-1.88863E+09-1.83795E+07-9.14896E+05-3.40556E+08 8.39168E+04 1.47022E+08
 -1       553-3.07575E+09 5.73708E+06-1.78038E+06-2.52468E+08-8.79367E+06 1.53880E+08
 -1       555-3.07575E+09 5.73708E+06-1.78038E+06-2.52468E+08-8.79367E+06 1.53880E+08
 -1       556-3.74952E+09 2.99443E+07-2.60278E+06-9.72504E+07-1.67598E+07 1.48259E+08
 -1       558-3.74952E+09 2.99443E+07-2.60278E+06-9.72504E+07-1.67598E+07 1.48259E+08
 -1       559-3.72395E+09 5.02437E+07-2.62659E+06 7.97747E+07-2.43207E+07 1.35357E+08
 -1       561-3.72395E+09 5.02437E+07-2.62659E+06 7.97747E+07-2.43207E+07 1.35357E+08
 -1       562-3.01865E+09 6.98526E+07-2.38382E+06 2.26080E+08-3.07374E+07 1.06157E+08
 -1       564-3.01865E+09 6.98526E+07-2.38382E+06 2.26080E+08-3.07374E+07 1.06157E+08
 -1       565-1.87880E+09 8.09892E+07-1.52779E+06 2.86394E+08-3.51818E+07 8.38638E+07
 -1       567-1.87880E+09 8.09892E+07-1.52779E+06 2.86394E+08-3.51818E+07 8.38638E+07
 -1       568-7.75856E+08 8.77609E+07-5.10555E+05 2.01249E+08-3.96760E+07 2.63893E+07
 -1       570-7.75856E+08 8.77609E+07-5.10555E+05 2.01249E+08-3.96760E+07 2.63893E+07
 -1       571-1.93053E+08 1.50786E+08 7.72329E+05 1.88778E+08 3.11804E+08-2.52022E+07
 -1       573-1.93053E+08 1.50786E+08 7.72329E+05 1.88778E+08 3.11804E+08-2.52022E+07
 -1       574 4.54426E-03 1.16557E-03 1.25468E-04 2.04701E+09-2.12594E+07 7.48299E-05
 -1       576 4.54426E-03 1.16557E-03 1.25468E-04 2.04701E+09-2.12594E+07 7.48299E-05
 -1       577 2.42765E-03-1.74360E-04 4.20898E-03 2.27007E+07 3.01285E+07-8.26928E-03
 -1       579 2.42765E-03-1.74360E-04 4.20898E-03 2.27007E+07 3.01285E+07-8.26928E-03
 -1       588 2.28181E-03 3.39180E-04 1.18295E-04 2.00383E+09 3.50718E+08 6.07967E-05
 -1       590 2.28181E-03 3.39180E-04 1.18295E-04 2.00383E+09 3.50718E+08 6.07967E-05
 -1       591 7.50787E-04-1.78455E-04 5.80420E-03 5.64124E+07 4.48461E+08-9.64077E-03
 -1       593 7.50787E-04-1.78455E-04 5.80420E-03 5.64124E+07 4.48461E+08-9.64077E-03
 -1       602 3.16727E-03 6.53155E-04-1.13901E-05 1.76904E+09 4.74422E+08 2.88635E-05
 -1       604 3.16727E-03 6.53155E-04-1.13901E-05 1.76904E+09 4.74422E+08 2.88635E-05
 -1       605 2.27867E-03-2.79813E-04 2.73386E-03 2.49627E+07 7.03157E+08-9.54676E-03
 -1       607 2.27867E-03-2.79813E-04 2.73386E-03 2.49627E+07 7.03157E+08-9.54676E-03
 -1       616 4.81683E-03 9.16436E-04-3.87534E-04 1.36775E+09 5.98762E+08-1.70916E-05
 -1       618 4.81683E-03 9.16436E-04-3.87534E-04 1.36775E+09 5.98762E+08-1.70916E-05
 -1       619 4.59424E-03-1.92833E-04-3.37184E-03 3.02649E+07 8.56881E+08-1.04942E-02
 -1       621 4.59424E-03-1.92833E-04-3.37184E-03 3.02649E+07 8.56881E+08-1.04942E-02
 -1       630 5.71316E-03 5.03778E-04-4.10378E-04 8.16778E+08 6.90043E+08 8.23862E-05
 -1       632 5.71316E-03 5.03778E-04-4.10378E-04 8.16778E+08 6.90043E+08 8.23862E-05
 -1       633 5.37030E-03-5.02086E-05-6.39253E-03 1.32291E+07 9.97766E+08-1.12555E-02
 -1       635 5.37030E-03-5.02086E-05-6.39253E-03 1.32291E+07 9.97766E+08-1.12555E-02
 -1       644 6.42002E-03-5.40704E-04-2.75880E-04 1.51483E+08 7.13717E+08 1.15242E-04
 -1       646 6.42002E-03-5.40704E-04-2.75880E-04 1.51483E+08 7.13717E+08 1.15242E-04
 -1       647 5.42272E-03 1.66253E-04-2.05605E-04 4.21391E+06 1.03364E+09-1.10900E-02
 -1       649 5.42272E-03 1.66253E-04-2.05605E-04 4.21391E+06 1.03364E+09-1.10900E-02
 -1       658 5.44417E-03-1.78406E-03-2.07156E-04-4.76860E+08 7.08108E+08 1.37940E-04
 -1       660 5.44417E-03-1.78406E-03-2.07156E-04-4.76860E+08 7.08108E+08 1.37940E-04
 -1       661 4.79002E-03 2.51383E-04 1.15133E-02-7.04504E+06 1.01461E+09-6.46670E-03
 -1       663 4.79002E-03 2.51383E-04 1.15133E-02-7.04504E+06 1.01461E+09-6.46670E-03
 -1       672 1.46621E-03-1.51038E-03 4.92930E-05-9.96983E+08 6.37948E+08 1.45435E-04
 -1       674 1.46621E-03-1.51038E-03 4.92930E-05-9.96983E+08 6.37948E+08 1.45435E-04
 -1       675 3.23709E-03 2.07620E-04 1.52907E-02-1.95441E+07 9.13492E+08-1.29089E-03
 -1       677 3.23709E-03 2.07620E-04 1.52907E-02-1.95441E+07 9.13492E+08-1.29089E-03
 -1       686-4.23174E-03-6.92315E-04-1.98156E-04-1.29530E+09 5.36865E+08 3.41907E-05
 -1       688-4.23174E-03-6.92315E-04-1.98156E-04-1.29530E+09 5.36865E+08 3.41907E-05
 -1       689 1.08844E-03 4.08926E-04 9.28966E-03-2.82938E+07 7.53127E+08-3.89615E-03
 -1       691 1.08844E-03 4.08926E-04 9.28966E-03-2.82938E+07 7.53127E+08-3.89615E-03
 -1       700-7.38402E-03 2.94454E-04-1.36627E-04-1.33968E+09 3.90421E+08-1.56984E-05
 -1       702-7.38402E-03 2.94454E-04-1.36627E-04-1.33968E+09 3.90421E+08-1.56984E-05
 -1       703-6.33588E-04 1.83547E-04 5.80149E-03-3.86607E+07 5.41282E+08-1.01529E-02
 -1       705-6.33588E-04 1.83547E-04 5.80149E-03-3.86607E+07 5.41282E+08-1.01529E-02
 -1       714-6.24901E-03 1.34335E-03-2.21711E-05-1.12805E+09 2.25664E+08-3.27826E-05
 -1       716-6.24901E-03 1.34335E-03-2.21711E-05-1.12805E+09 2.25664E+08-3.27826E-05
 -1       717 8.29246E-04 1.22870E-04 1.04508E-02-4.40410E+07 2.97153E+08-1.14089E-02
 -1       719 8.29246E-04 1.22870E-04 1.04508E-02-4.40410E+07 2.97153E+08-1.14089E-02
 -1       728-2.99853E-03 5.34058E-04-1.39281E-04-7.19658E+08 4.19049E+07-4.87491E-05
 -1       730-2.99853E-03 5.34058E-04-1.39281E-04-7.19658E+08 4.19049E+07-4.87491E-05
 -1       731 4.94879E-03 1.94967E-04 1.66649E-02-4.90162E+07 4.02328E+07-5.51505E-03
 -1       733 4.94879E-03 1.94967E-04 1.66649E-02-4.90162E+07 4.02328E+07-5.51505E-03
 -1       742-6.60539E-04-9.24379E-04 6.85751E-05-2.08672E+08-1.38601E+08-6.27637E-05
 -1       744-6.60539E-04-9.24379E-04 6.85751E-05-2.08672E+08-1.38601E+08-6.27637E-05
 -1       745 6.74973E-03-3.01383E-04 1.82415E-02-4.88239E+07-2.11544E+08 2.72495E-03
 -1       747 6.74973E-03-3.01383E-04 1.82415E-02-4.88239E+07-2.11544E+08 2.72495E-03
 -1       756 1.50621E-03-2.78130E-04 5.09620E-06 2.92405E+08-3.10713E+08-4.34220E-05
 -1       758 1.50621E-03-2.78130E-04 5.09620E-06 2.92405E+08-3.10713E+08-4.34220E-05
 -1       759 6.27478E-03-4.96483E-04 1.66673E-02-4.64548E+07-4.39551E+08 6.76093E-03
 -1       761 6.27478E-03-4.96483E-04 1.66673E-02-4.64548E+07-4.39551E+08 6.76093E-03
 -1       770 6.28626E-03 2.17739E-03-8.70079E-05 6.76789E+08-4.57375E+08-1.14325E-04
 -1       772 6.28626E-03 2.17739E-03-8.70079E-05 6.76789E+08-4.57375E+08-1.14325E-04
 -1       773 8.07334E-03-1.93027E-04 1.70460E-02-3.93324E+07-6.31125E+08 6.12108E-03
 -1       775 8.07334E-03-1.93027E-04 1.70460E-02-3.93324E+07-6.31125E+08 6.12108E-03
 -1       784 9.52771E-03 3.46163E-03-1.24246E-04 8.68494E+08-5.73509E+08-1.02699E-04
 -1       786 9.52771E-03 3.46163E-03-1.24246E-04 8.68494E+08-5.73509E+08-1.02699E-04
 -1       787 1.00269E-02 3.71840E-04 1.83742E-02-2.96000E+07-7.74575E+08 5.36956E-03
 -1       789 1.00269E-02 3.71840E-04 1.83742E-02-2.96000E+07-7.74575E+08 5.36956E-03
 -1       798 7.15228E-03 1.94129E-03 1.31704E-04 8.35923E+08-6.48290E+08-9.25455E-05
 -1       800 7.15228E-03 1.94129E-03 1.31704E-04 8.35923E+08-6.48290E+08-9.25455E-05
 -1       801 7.83005E-03 3.28872E-04 1.32391E-02-1.65380E+07-8.64793E+08 4.70225E-03
 -1       803 7.83005E-03 3.28872E-04 1.32391E-02-1.65380E+07-8.64793E+08 4.70225E-03
 -1       812 3.26611E-03-6.53476E-04 1.80301E-04 5.99996E+08-6.80331E+08-1.64276E-05
 -1       814 3.26611E-03-6.53476E-04 1.80301E-04 5.99996E+08-6.80331E+08-1.64276E-05
 -1       815 4.82913E-03 1.31874E-04 4.12031E-03-2.03432E+06-8.97977E+08-5.23625E-04
 -1       817 4.82913E-03 1.31874E-04 4.12031E-03-2.03432E+06-8.97977E+08-5.23625E-04
 -1       826-4.94987E-04-2.22322E-03-9.04128E-06 2.26711E+08-6.65384E+08-7.00206E-05
 -1       828-4.94987E-04-2.22322E-03-9.04128E-06 2.26711E+08-6.65384E+08-7.00206E-05
 -1       829 2.97240E-03 3.04148E-04 1.98550E-03 1.33283E+07-8.75669E+08-6.84187E-03
 -1       831 2.97240E-03 3.04148E-04 1.98550E-03 1.33283E+07-8.75669E+08-6.84187E-03
 -1       840-6.47256E-03-2.24473E-03-1.06592E-04-1.87416E+08-6.07387E+08-4.53927E-05
 -1       842-6.47256E-03-2.24473E-03-1.06592E-04-1.87416E+08-6.07387E+08-4.53927E-05
 -1       843-9.69747E-04 2.10116E-04 4.42904E-03 2.78995E+07-8.00077E+08-5.56613E-03
 -1       845-9.69747E-04 2.10116E-04 4.42904E-03 2.78995E+07-8.00077E+08-5.56613E-03
 -1       854-1.29268E-02-9.36173E-04 5.88344E-05-5.38956E+08-5.07899E+08-2.66209E-05
 -1       856-1.29268E-02-9.36173E-04 5.88344E-05-5.38956E+08-5.07899E+08-2.66209E-05
 -1       857-7.37962E-03-1.58044E-04 2.38415E-03 4.05059E+07-6.77262E+08-6.46894E-04
 -1       859-7.37962E-03-1.58044E-04 2.38415E-03 4.05059E+07-6.77262E+08-6.46894E-04
 -1       868-1.59799E-02 2.72639E-04 1.51545E-05-7.40930E+08-3.76375E+08-1.04524E-04
 -1       870-1.59799E-02 2.72639E-04 1.51545E-05-7.40930E+08-3.76375E+08-1.04524E-04
 -1       871-1.19877E-02-2.58989E-06 8.85162E-04 5.01456E+07-5.13641E+08-4.27666E-04
 -1       873-1.19877E-02-2.58989E-06 8.85162E-04 5.01456E+07-5.13641E+08-4.27666E-04
 -1       882-1.28642E-02 1.47233E-03 4.13023E-04-7.44710E+08-2.18300E+08-3.36319E-05
 -1       884-1.28642E-02 1.47233E-03 4.13023E-04-7.44710E+08-2.18300E+08-3.36319E-05
 -1       885-1.11559E-02-3.18345E-04 5.61636E-03 5.57327E+07-3.18421E+08-2.11750E-03
 -1       887-1.11559E-02-3.18345E-04 5.61636E-03 5.57327E+07-3.18421E+08-2.11750E-03
 -1       896-7.85559E-03 2.07748E-03 1.31160E-04-5.50238E+08-4.79571E+07-4.81978E-05
 -1       898-7.85559E-03 2.07748E-03 1.31160E-04-5.50238E+08-4.79571E+07-4.81978E-05
 -1       899-6.85437E-03 9.64802E-05 1.15766E-02 5.73256E+07-1.02154E+08-4.34357E-04
 -1       901-6.85437E-03 9.64802E-05 1.15766E-02 5.73256E+07-1.02154E+08-4.34357E-04
 -1       910-5.66167E-03 1.08081E-03 5.23627E-05-2.12182E+08 1.28190E+08-4.42788E-05
 -1       912-5.66167E-03 1.08081E-03 5.23627E-05-2.12182E+08 1.28190E+08-4.42788E-05
 -1       913-3.37218E-03 2.06995E-04 1.35386E-02 5.43903E+07 1.23786E+08 2.86822E-03
 -1       915-3.37218E-03 2.06995E-04 1.35386E-02 5.43903E+07 1.23786E+08 2.86822E-03
 -1       924-5.02223E-03-7.42391E-04 2.32548E-04 1.77387E+08 2.92374E+08-1.09285E-04
 -1       926-5.02223E-03-7.42391E-04 2.32548E-04 1.77387E+08 2.92374E+08-1.09285E-04
 -1       927-1.34799E-03 2.27054E-04 1.31356E-02 4.78940E+07 3.43333E+08 4.21801E-03
 -1       929-1.34799E-03 2.27054E-04 1.31356E-02 4.78940E+07 3.43333E+08 4.21801E-03
 -1       938-4.78870E-03-4.17039E-04 1.40667E-05 4.93247E+08 4.40385E+08-8.96715E-05
 -1       940-4.78870E-03-4.17039E-04 1.40667E-05 4.93247E+08 4.40385E+08-8.96715E-05
 -1       941-1.84943E-03 9.35775E-05 1.13124E-02 3.84019E+07 5.46070E+08 4.96149E-03
 -1       943-1.84943E-03 9.35775E-05 1.13124E-02 3.84019E+07 5.46070E+08 4.96149E-03
 -1       952-3.41555E-03 2.26997E-03 3.49635E-04 6.17119E+08 5.54757E+08-9.99011E-05
 -1       954-3.41555E-03 2.26997E-03 3.49635E-04 6.17119E+08 5.54757E+08-9.99011E-05
 -1       955-2.92807E-03-6.27305E-04 7.32631E-03 2.62650E+07 7.09173E+08 4.41141E-03
 -1       957-2.92807E-03-6.27305E-04 7.32631E-03 2.62650E+07 7.09173E+08 4.41141E-03
 -1       966-1.12189E-03 2.86031E-03 3.84022E-05 4.40972E+08 6.28588E+08-1.18468E-04
 -1       968-1.12189E-03 2.86031E-03 3.84022E-05 4.40972E+08 6.28588E+08-1.18468E-04
 -1       969-1.47007E-03-1.39477E-04 2.94804E-03 1.50031E+07 8.23233E+08 7.46974E-04
 -1       971-1.47007E-03-1.39477E-04 2.94804E-03 1.50031E+07 8.23233E+08 7.46974E-04
 -1       980-5.62779E+09-8.30372E+08-2.40331E+06 1.73709E+09-1.47942E+08 5.64266E+08
 -1       982-5.62779E+09-8.30372E+08-2.40331E+06 1.73709E+09-1.47942E+08 5.64266E+08
 -1       983 1.93053E+08-1.50786E+08-7.72329E+05 1.88778E+08 3.11804E+08 2.52022E+07
 -1       985 1.93053E+08-1.50786E+08-7.72329E+05 1.88778E+08 3.11804E+08 2.52022E+07
 -1       986 6.57286E+09 2.31961E+08-1.55373E+06 1.04162E+09 1.50433E+07-4.50852E+08
 -1       988 6.57286E+09 2.31961E+08-1.55373E+06 1.04162E+09 1.50433E+07-4.50852E+08
 -1       989 2.75517E+09-1.51765E+08 3.29049E+06 8.14942E+08 1.12126E+07 1.36559E+07
 -1       991 2.75517E+09-1.51765E+08 3.29049E+06 8.14942E+08 1.12126E+07 1.36559E+07
 -1       992-7.53089E+08-3.18906E+04-5.61488E+05 8.36815E+08-1.17486E+07-1.86832E+08
 -1       994-7.53089E+08-3.18906E+04-5.61488E+05 8.36815E+08-1.17486E+07-1.86832E+08
 -1       995-3.75211E+09-7.62017E+07-2.69376E+06 6.04583E+08-4.28368E+06-4.80061E+07
 -1       997-3.75211E+09-7.62017E+07-2.69376E+06 6.04583E+08-4.28368E+06-4.80061E+07
 -1       998-5.80434E+09-6.09046E+07-1.76919E+06 3.68310E+08-1.20904E+07-6.47743E+07
 -1      1000-5.80434E+09-6.09046E+07-1.76919E+06 3.68310E+08-1.20904E+07-6.47743E+07
 -1      1001-6.72163E+09-7.27172E+07-4.69475E+06 7.07909E+07-1.06070E+07-5.69647E+05
 -1      1003-6.72163E+09-7.27172E+07-4.69475E+06 7.07909E+07-1.06070E+07-5.69647E+05
 -1      1004-6.39486E+09-6.74034E+07-1.93717E+06-2.20598E+08-1.15732E+07 2.70734E+07
 -1      1006-6.39486E+09-6.74034E+07-1.93717E+06-2.20598E+08-1.15732E+07 2.70734E+07
 -1      1007-4.97176E+09-6.62832E+07-3.38157E+06-4.49885E+08-1.13149E+07 7.03720E+07
 -1      1009-4.97176E+09-6.62832E+07-3.38157E+06-4.49885E+08-1.13149E+07 7.03720E+07
 -1      1010-2.76271E+09-5.31896E+07-8.79375E+04-5.88676E+08-9.00113E+06 1.01099E+08
 -1      1012-2.76271E+09-5.31896E+07-8.79375E+04-5.88676E+08-9.00113E+06 1.01099E+08
 -1      1013-2.22243E+08-4.34192E+07-3.62901E+05-6.05867E+08-7.41168E+06 1.28856E+08
 -1      1015-2.22243E+08-4.34192E+07-3.62901E+05-6.05867E+08-7.41168E+06 1.28856E+08
 -1      1016 2.16277E+09-2.39431E+07 2.33244E+06-5.10409E+08-2.87005E+06 1.46589E+08
 -1      1018 2.16277E+09-2.39431E+07 2.33244E+06-5.10409E+08-2.87005E+06 1.46589E+08
 -1      1019 3.95860E+09-7.06781E+06 2.04215E+06-3.24070E+08 6.82384E+05 1.55097E+08
 -1      1021 3.95860E+09-7.06781E+06 2.04215E+06-3.24070E+08 6.82384E+05 1.55097E+08
 -1      1022 4.87844E+09 1.51584E+07 3.29053E+06-9.19879E+07 6.65485E+06 1.52986E+08
 -1      1024 4.87844E+09 1.51584E+07 3.29053E+06-9.19879E+07 6.65485E+06 1.52986E+08
 -1      1025 4.83102E+09 3.44212E+07 2.21467E+06 1.35537E+08 1.13075E+07 1.40348E+08
 -1      1027 4.83102E+09 3.44212E+07 2.21467E+06 1.35537E+08 1.13075E+07 1.40348E+08
 -1      1028 3.93539E+09 5.41760E+07 2.02012E+06 3.09875E+08 1.71189E+07 1.18083E+08
 -1      1030 3.93539E+09 5.41760E+07 2.02012E+06 3.09875E+08 1.71189E+07 1.18083E+08
 -1      1031 2.48387E+09 6.91395E+07 3.89092E+05 3.96359E+08 2.08498E+07 8.74169E+07
 -1      1033 2.48387E+09 6.91395E+07 3.89092E+05 3.96359E+08 2.08498E+07 8.74169E+07
 -1      1034 8.72685E+08 8.04355E+07-3.57848E+05 3.80910E+08 2.42926E+07 5.06497E+07
 -1      1036 8.72685E+08 8.04355E+07-3.57848E+05 3.80910E+08 2.42926E+07 5.06497E+07
 -1      1037-4.92084E+08 8.49922E+07-1.62710E+06 2.72868E+08 2.48529E+07 1.01748E+07
 -1      1039-4.92084E+08 8.49922E+07-1.62710E+06 2.72868E+08 2.48529E+07 1.01748E+07
 -1      1040-1.28601E+09 8.35682E+07-1.82557E+06 1.02482E+08 2.41634E+07-3.09789E+07
 -1      1042-1.28601E+09 8.35682E+07-1.82557E+06 1.02482E+08 2.41634E+07-3.09789E+07
 -1      1043-1.33943E+09 7.49562E+07-1.99806E+06-8.64850E+07 2.03597E+07-6.99554E+07
 -1      1045-1.33943E+09 7.49562E+07-1.99806E+06-8.64850E+07 2.03597E+07-6.99554E+07
 -1      1046-6.72419E+08 6.06781E+07-1.19085E+06-2.46745E+08 1.53289E+07-1.03801E+08
 -1      1048-6.72419E+08 6.06781E+07-1.19085E+06-2.46745E+08 1.53289E+07-1.03801E+08
 -1      1049 5.13721E+08 4.10647E+07-3.91758E+05-3.39053E+08 7.84098E+06-1.30266E+08
 -1      1051 5.13721E+08 4.10647E+07-3.91758E+05-3.39053E+08 7.84098E+06-1.30266E+08
 -1      1052 1.88863E+09 1.83795E+07 9.14896E+05-3.40556E+08 8.39168E+04-1.47022E+08
 -1      1054 1.88863E+09 1.83795E+07 9.14896E+05-3.40556E+08 8.39168E+04-1.47022E+08
 -1      1055 3.07575E+09-5.73708E+06 1.78038E+06-2.52468E+08-8.79367E+06-1.53880E+08
 -1      1057 3.07575E+09-5.73708E+06 1.78038E+06-2.52468E+08-8.79367E+06-1.53880E+08
 -1      1058 3.74952E+09-2.99443E+07 2.60278E+06-9.72504E+07-1.67598E+07-1.48259E+08
 -1      1060 3.74952E+09-2.99443E+07 2.60278E+06-9.72504E+07-1.67598E+07-1.48259E+08
 -1      1061 3.72395E+09-5.02437E+07 2.62659E+06 7.97747E+07-2.43207E+07-1.35357E+08
 -1      1063 3.72395E+09-5.02437E+07 2.62659E+06 7.97747E+07-2.43207E+07-1.35357E+08
 -1      1064 3.01865E+09-6.98526E+07 2.38382E+06 2.26080E+08-3.07374E+07-1.06157E+08
 -1      1066 3.01865E+09-6.98526E+07 2.38382E+06 2.26080E+08-3.07374E+07-1.06157E+08
 -1      1067 1.87880E+09-8.09892E+07 1.52779E+06 2.86394E+08-3.51818E+07-8.38638E+07
 -1      1069 1.87880E+09-8.09892E+07 1.52779E+06 2.86394E+08-3.51818E+07-8.38638E+07
 -1      1070 7.75856E+08-8.77609E+07 5.10555E+05 2.01249E+08-3.96760E+07-2.63893E+07
 -1      1072 7.75856E+08-8.77609E+07 5.10555E+05 2.01249E+08-3.96760E+07-2.63893E+07
 -1      1073 5.62779E+09 8.30372E+08 2.40331E+06 1.73709E+09-1.47942E+08-5.64266E+08
 -1      1075 5.62779E+09 8.30372E+08 2.40331E+06 1.73709E+09-1.47942E+08-5.64266E+08
 -1      1076 1.20358E-03-1.29496E-04 2.60998E-03-3.29871E+08 3.03528E+07-5.64293E-03
 -1      1078 1.20358E-03-1.29496E-04 2.60998E-03-3.29871E+08 3.03528E+07-5.64293E-03
 -1      1079-1.98375E-03 3.41786E-05 3.03027E-03-6.08486E+08-1.22532E-04-2.46843E-03
 -1      1081-1.98375E-03 3.41786E-05 3.03027E-03-6.08486E+08-1.22532E-04-2.46843E-03
 -1      1082-7.91270E-04-2.69054E-05 3.53821E-03-3.29871E+08-3.03528E+07 1.17355E-03
 -1      1084-7.91270E-04-2.69054E-05 3.53821E-03-3.29871E+08-3.03528E+07 1.17355E-03
 -1      1085-1.09284E-03 2.04569E-05 5.18281E-03 2.27007E+07-3.01285E+07-1.08540E-03
 -1      1087-1.09284E-03 2.04569E-05 5.18281E-03 2.27007E+07-3.01285E+07-1.08540E-03
 -1      1088-2.05910E-03-5.94437E-04-1.24872E-05 2.04701E+09 2.12594E+07 4.53927E-05
 -1      1090-2.05910E-03-5.94437E-04-1.24872E-05 2.04701E+09 2.12594E+07 4.53927E-05
 -1      1099-4.68011E-03-1.74869E-04 3.78635E-03 5.64124E+07-4.48461E+08-6.80112E-03
 -1      1101-4.68011E-03-1.74869E-04 3.78635E-03 5.64124E+07-4.48461E+08-6.80112E-03
 -1      1102-3.98184E-03-1.40809E-03 2.76323E-05 2.00383E+09-3.50718E+08-1.75692E-04
 -1      1104-3.98184E-03-1.40809E-03 2.76323E-05 2.00383E+09-3.50718E+08-1.75692E-04
 -1      1113-5.69144E-03-4.64051E-04-9.45766E-04 2.49627E+07-7.03157E+08-8.74411E-03
 -1      1115-5.69144E-03-4.64051E-04-9.45766E-04 2.49627E+07-7.03157E+08-8.74411E-03
 -1      1116-4.83397E-03-4.04716E-05 2.11051E-04 1.76904E+09-4.74422E+08-9.33073E-05
 -1      1118-4.83397E-03-4.04716E-05 2.11051E-04 1.76904E+09-4.74422E+08-9.33073E-05
 -1      1127-4.70451E-03 2.96731E-05-3.12357E-03 3.02649E+07-8.56881E+08-9.51202E-03
 -1      1129-4.70451E-03 2.96731E-05-3.12357E-03 3.02649E+07-8.56881E+08-9.51202E-03
 -1      1130-6.02305E-03 1.37815E-03 4.51654E-05 1.36775E+09-5.98762E+08-7.77617E-05
 -1      1132-6.02305E-03 1.37815E-03 4.51654E-05 1.36775E+09-5.98762E+08-7.77617E-05
 -1      1141-4.10191E-03 5.62233E-04-5.13732E-03 1.32291E+07-9.97766E+08-7.59906E-03
 -1      1143-4.10191E-03 5.62233E-04-5.13732E-03 1.32291E+07-9.97766E+08-7.59906E-03
 -1      1144-6.18571E-03 2.77326E-04-3.94195E-04 8.16778E+08-6.90043E+08-5.17732E-05
 -1      1146-6.18571E-03 2.77326E-04-3.94195E-04 8.16778E+08-6.90043E+08-5.17732E-05
 -1      1155-2.35545E-03 4.20073E-04-4.13245E-03 4.21391E+06-1.03364E+09 1.29192E-03
 -1      1157-2.35545E-03 4.20073E-04-4.13245E-03 4.21391E+06-1.03364E+09 1.29192E-03
 -1      1158-3.92222E-03-7.05659E-04-4.80026E-04 1.51483E+08-7.13717E+08-3.68141E-05
 -1      1160-3.92222E-03-7.05659E-04-4.80026E-04 1.51483E+08-7.13717E+08-3.68141E-05
 -1      1169 6.52952E-04 6.25492E-05 4.60706E-03-7.04504E+06-1.01461E+09 8.31072E-03
 -1      1171 6.52952E-04 6.25492E-05 4.60706E-03-7.04504E+06-1.01461E+09 8.31072E-03
 -1      1172-3.29614E-04-7.63208E-04-5.45979E-04-4.76860E+08-7.08108E+08 8.93138E-06
 -1      1174-3.29614E-04-7.63208E-04-5.45979E-04-4.76860E+08-7.08108E+08 8.93138E-06
 -1      1183 4.54106E-03-7.09379E-05 1.11542E-02-1.95441E+07-9.13492E+08 5.69641E-03
 -1      1185 4.54106E-03-7.09379E-05 1.11542E-02-1.95441E+07-9.13492E+08 5.69641E-03
 -1      1186 4.84842E-03-1.10637E-03-4.52578E-04-9.96983E+08-6.37948E+08-6.24917E-05
 -1      1188 4.84842E-03-1.10637E-03-4.52578E-04-9.96983E+08-6.37948E+08-6.24917E-05
 -1      1197 9.19015E-03-1.55634E-04 8.16565E-03-2.82938E+07-7.53127E+08-9.70261E-04
 -1      1199 9.19015E-03-1.55634E-04 8.16565E-03-2.82938E+07-7.53127E+08-9.70261E-04
 -1      1200 9.02897E-03-9.58376E-04-1.46583E-04-1.29530E+09-5.36865E+08-9.44287E-05
 -1      1202 9.02897E-03-9.58376E-04-1.46583E-04-1.29530E+09-5.36865E+08-9.44287E-05
 -1      1211 9.95499E-03-2.16822E-05 3.72840E-03-3.86607E+07-5.41282E+08-3.51760E-03
 -1      1213 9.95499E-03-2.16822E-05 3.72840E-03-3.86607E+07-5.41282E+08-3.51760E-03
 -1      1214 6.64675E-03-1.00179E-03 1.00674E-04-1.33968E+09-3.90421E+08-9.75132E-05
 -1      1216 6.64675E-03-1.00179E-03 1.00674E-04-1.33968E+09-3.90421E+08-9.75132E-05
 -1      1225 5.69140E-03-1.53328E-04 5.96000E-03-4.40410E+07-2.97153E+08-2.10302E-03
 -1      1227 5.69140E-03-1.53328E-04 5.96000E-03-4.40410E+07-2.97153E+08-2.10302E-03
 -1      1228-2.23666E-04-1.87740E-03 3.47365E-05-1.12805E+09-2.25664E+08-1.07609E-04
 -1      1230-2.23666E-04-1.87740E-03 3.47365E-05-1.12805E+09-2.25664E+08-1.07609E-04
 -1      1239 2.54023E-03-5.08154E-04 1.29216E-02-4.90162E+07-4.02328E+07-4.45065E-04
 -1      1241 2.54023E-03-5.08154E-04 1.29216E-02-4.90162E+07-4.02328E+07-4.45065E-04
 -1      1242-4.30948E-03-1.50678E-03-1.84178E-05-7.19658E+08-4.19049E+07-6.05360E-05
 -1      1244-4.30948E-03-1.50678E-03-1.84178E-05-7.19658E+08-4.19049E+07-6.05360E-05
 -1      1253 1.61386E-03-2.62348E-04 1.77371E-02-4.88239E+07 2.11544E+08 3.43351E-04
 -1      1255 1.61386E-03-2.62348E-04 1.77371E-02-4.88239E+07 2.11544E+08 3.43351E-04
 -1      1256-5.93758E-03-5.44906E-04 3.40044E-05-2.08672E+08 1.38601E+08-1.84849E-05
 -1      1258-5.93758E-03-5.44906E-04 3.40044E-05-2.08672E+08 1.38601E+08-1.84849E-05
 -1      1267 6.13373E-04 3.44994E-05 1.86974E-02-4.64548E+07 4.39551E+08 1.35216E-03
 -1      1269 6.13373E-04 3.44994E-05 1.86974E-02-4.64548E+07 4.39551E+08 1.35216E-03
 -1      1270-7.81435E-03-7.23779E-04-3.82960E-05 2.92405E+08 3.10713E+08 7.14511E-05
 -1      1272-7.81435E-03-7.23779E-04-3.82960E-05 2.92405E+08 3.10713E+08 7.14511E-05
 -1      1281 7.18049E-04-1.75928E-05 2.02842E-02-3.93324E+07 6.31125E+08 2.80584E-03
 -1      1283 7.18049E-04-1.75928E-05 2.02842E-02-3.93324E+07 6.31125E+08 2.80584E-03
 -1      1284-6.76197E-03-3.90671E-04 1.59144E-05 6.76789E+08 4.57375E+08 6.24955E-05
 -1      1286-6.76197E-03-3.90671E-04 1.59144E-05 6.76789E+08 4.57375E+08 6.24955E-05
 -1      1295 3.83839E-03-7.35305E-05 2.37387E-02-2.96000E+07 7.74575E+08 1.18819E-03
 -1      1297 3.83839E-03-7.35305E-05 2.37387E-02-2.96000E+07 7.74575E+08 1.18819E-03
 -1      1298-7.29620E-04 4.16972E-04 2.48402E-05 8.68494E+08 5.73509E+08 1.39415E-04
 -1      1300-7.29620E-04 4.16972E-04 2.48402E-05 8.68494E+08 5.73509E+08 1.39415E-04
 -1      1309 8.75887E-03 1.23305E-04 2.27384E-02-1.65380E+07 8.64793E+08-4.88856E-03
 -1      1311 8.75887E-03 1.23305E-04 2.27384E-02-1.65380E+07 8.64793E+08-4.88856E-03
 -1      1312 6.14323E-03-1.61827E-04 1.33350E-04 8.35923E+08 6.48290E+08 1.16854E-04
 -1      1314 6.14323E-03-1.61827E-04 1.33350E-04 8.35923E+08 6.48290E+08 1.16854E-04
 -1      1323 1.14279E-02 2.71643E-04 1.38803E-02-2.03432E+06 8.97977E+08-9.18495E-03
 -1      1325 1.14279E-02 2.71643E-04 1.38803E-02-2.03432E+06 8.97977E+08-9.18495E-03
 -1      1326 9.64799E-03-4.08590E-04-1.57544E-04 5.99996E+08 6.80331E+08 1.26943E-04
 -1      1328 9.64799E-03-4.08590E-04-1.57544E-04 5.99996E+08 6.80331E+08 1.26943E-04
 -1      1337 1.14880E-02 1.23503E-04 3.37873E-03 1.33283E+07 8.75669E+08-8.63902E-03
 -1      1339 1.14880E-02 1.23503E-04 3.37873E-03 1.33283E+07 8.75669E+08-8.63902E-03
 -1      1340 1.12754E-02 2.04484E-03-1.29440E-04 2.26711E+08 6.65384E+08 1.85087E-04
 -1      1342 1.12754E-02 2.04484E-03-1.29440E-04 2.26711E+08 6.65384E+08 1.85087E-04
 -1      1351 9.60237E-03-8.88115E-05-4.14745E-03 2.78995E+07 8.00077E+08-6.63723E-03
 -1      1353 9.60237E-03-8.88115E-05-4.14745E-03 2.78995E+07 8.00077E+08-6.63723E-03
 -1      1354 1.08045E-02 3.14260E-03-3.76129E-05-1.87416E+08 6.07387E+08 2.08203E-04
 -1      1356 1.08045E-02 3.14260E-03-3.76129E-05-1.87416E+08 6.07387E+08 2.08203E-04
 -1      1365 3.89037E-03-2.79897E-04-8.47599E-03 4.05059E+07 6.77262E+08-3.20298E-03
 -1      1367 3.89037E-03-2.79897E-04-8.47599E-03 4.05059E+07 6.77262E+08-3.20298E-03
 -1      1368 5.79490E-03 1.35525E-03-1.79309E-04-5.38956E+08 5.07899E+08 1.69534E-04
 -1      1370 5.79490E-03 1.35525E-03-1.79309E-04-5.38956E+08 5.07899E+08 1.69534E-04
 -1      1379-1.85780E-03-2.40392E-04-5.04419E-03 5.01456E+07 5.13641E+08 1.88725E-03
 -1      1381-1.85780E-03-2.40392E-04-5.04419E-03 5.01456E+07 5.13641E+08 1.88725E-03
 -1      1382 3.13133E-04 1.24698E-03-1.11826E-04-7.40930E+08 3.76375E+08 8.26716E-05
 -1      1384 3.13133E-04 1.24698E-03-1.11826E-04-7.40930E+08 3.76375E+08 8.26716E-05
 -1      1393-3.32093E-03 2.69011E-04 6.91825E-03 5.57327E+07 3.18421E+08 2.06801E-03
 -1      1395-3.32093E-03 2.69011E-04 6.91825E-03 5.57327E+07 3.18421E+08 2.06801E-03
 -1      1396-2.33364E-03 2.02224E-03-1.42120E-04-7.44710E+08 2.18300E+08 1.23292E-04
 -1      1398-2.33364E-03 2.02224E-03-1.42120E-04-7.44710E+08 2.18300E+08 1.23292E-04
 -1      1407-3.87230E-03-2.49663E-04 1.37454E-02 5.73256E+07 1.02154E+08-3.23375E-03
 -1      1409-3.87230E-03-2.49663E-04 1.37454E-02 5.73256E+07 1.02154E+08-3.23375E-03
 -1      1410-4.50927E-03 8.61228E-04-1.45122E-04-5.50238E+08 4.79571E+07 3.02568E-05
 -1      1412-4.50927E-03 8.61228E-04-1.45122E-04-5.50238E+08 4.79571E+07 3.02568E-05
 -1      1421-4.11827E-03-4.39574E-04 9.29770E-03 5.43903E+07-1.23786E+08-3.16594E-03
 -1      1423-4.11827E-03-4.39574E-04 9.29770E-03 5.43903E+07-1.23786E+08-3.16594E-03
 -1      1424-5.93847E-03-4.20377E-04-9.35048E-05-2.12182E+08-1.28190E+08 6.27786E-05
 -1      1426-5.93847E-03-4.20377E-04-9.35048E-05-2.12182E+08-1.28190E+08 6.27786E-05
 -1      1435-1.19667E-03 2.44362E-04 5.50842E-03 4.78940E+07-3.43333E+08 2.90205E-03
 -1      1437-1.19667E-03 2.44362E-04 5.50842E-03 4.78940E+07-3.43333E+08 2.90205E-03
 -1      1438-3.32433E-03-8.93950E-04-1.55866E-04 1.77387E+08-2.92374E+08 1.31711E-04
 -1      1440-3.32433E-03-8.93950E-04-1.55866E-04 1.77387E+08-2.92374E+08 1.31711E-04
 -1      1449 2.60584E-03 9.93215E-05 7.36197E-03 3.84019E+07-5.46070E+08 5.55312E-03
 -1      1451 2.60584E-03 9.93215E-05 7.36197E-03 3.84019E+07-5.46070E+08 5.55312E-03
 -1      1452 1.68493E-03-1.42205E-03-2.89977E-05 4.93247E+08-4.40385E+08 6.05322E-05
 -1      1454 1.68493E-03-1.42205E-03-2.89977E-05 4.93247E+08-4.40385E+08 6.05322E-05
 -1      1463 4.85786E-03 3.28099E-04 8.35944E-03 2.62650E+07-7.09173E+08 2.86850E-03
 -1      1465 4.85786E-03 3.28099E-04 8.35944E-03 2.62650E+07-7.09173E+08 2.86850E-03
 -1      1466 4.22895E-03-1.53741E-03-2.04314E-05 6.17119E+08-5.54757E+08 1.19098E-05
 -1      1468 4.22895E-03-1.53741E-03-2.04314E-05 6.17119E+08-5.54757E+08 1.19098E-05
 -1      1477 4.17857E-03 3.64677E-04 5.27488E-03 1.50031E+07-8.23233E+08-4.58754E-04
 -1      1479 4.17857E-03 3.64677E-04 5.27488E-03 1.50031E+07-8.23233E+08-4.58754E-04
 -1      1480 3.12550E-03-1.25070E-03-1.54343E-04 4.40972E+08-6.28588E+08-2.40300E-05
 -1      1482 3.12550E-03-1.25070E-03-1.54343E-04 4.40972E+08-6.28588E+08-2.40300E-05
 -1      1491 3.48810E-04 2.78088E-04 2.28789E-03 1.26746E+07 2.65445E+08 1.70990E-04
 -1      1493 3.48810E-04 2.78088E-04 2.28789E-03 1.26746E+07 2.65445E+08 1.70990E-04
 -1      1494 1.62530E-03 2.43725E-04 4.62721E-03 1.59538E+07 1.64211E-04 5.23197E-04
 -1      1496 1.62530E-03 2.43725E-04 4.62721E-03 1.59538E+07 1.64211E-04 5.23197E-04
 -1      1497 2.45358E-03-8.14315E-05 4.11395E-03 1.26746E+07-2.65445E+08-1.22648E-03
 -1      1499 2.45358E-03-8.14315E-05 4.11395E-03 1.26746E+07-2.65445E+08-1.22648E-03
 -1      1500 6.57286E+09 2.31961E+08-1.55373E+06 1.04162E+09-1.50433E+07 4.50852E+08
 -1      1502 6.57286E+09 2.31961E+08-1.55373E+06 1.04162E+09-1.50433E+07 4.50852E+08
 -1      1503 2.75517E+09-1.51765E+08 3.29049E+06 8.14942E+08-1.12126E+07-1.36559E+07
 -1      1505 2.75517E+09-1.51765E+08 3.29049E+06 8.14942E+08-1.12126E+07-1.36559E+07
 -1      1506-7.53089E+08-3.18906E+04-5.61488E+05 8.36815E+08 1.17486E+07 1.86832E+08
 -1      1508-7.53089E+08-3.18906E+04-5.61488E+05 8.36815E+08 1.17486E+07 1.86832E+08
 -1      1509-3.75211E+09-7.62017E+07-2.69376E+06 6.04583E+08 4.28368E+06 4.80061E+07
 -1      1511-3.75211E+09-7.62017E+07-2.69376E+06 6.04583E+08 4.28368E+06 4.80061E+07
 -1      1512-5.80434E+09-6.09046E+07-1.76919E+06 3.68310E+08 1.20904E+07 6.47743E+07
 -1      1514-5.80434E+09-6.09046E+07-1.76919E+06 3.68310E+08 1.20904E+07 6.47743E+07
 -1      1515-6.72163E+09-7.27172E+07-4.69475E+06 7.07909E+07 1.06070E+07 5.69647E+05
 -1      1517-6.72163E+09-7.27172E+07-4.69475E+06 7.07909E+07 1.06070E+07 5.69647E+05
 -1      1518-6.39486E+09-6.74034E+07-1.93717E+06-2.20598E+08 1.15732E+07-2.70734E+07
 -1      1520-6.39486E+09-6.74034E+07-1.93717E+06-2.20598E+08 1.15732E+07-2.70734E+07
 -1      1521-4.97176E+09-6.62832E+07-3.38157E+06-4.49885E+08 1.13149E+07-7.03720E+07
 -1      1523-4.97176E+09-6.62832E+07-3.38157E+06-4.49885E+08 1.13149E+07-7.03720E+07
 -1      1524-2.76271E+09-5.31896E+07-8.79375E+04-5.88676E+08 9.00113E+06-1.01099E+08
 -1      1526-2.76271E+09-5.31896E+07-8.79375E+04-5.88676E+08 9.00113E+06-1.01099E+08
 -1      1527-2.22243E+08-4.34192E+07-3.62901E+05-6.05867E+08 7.41168E+06-1.28856E+08
 -1      1529-2.22243E+08-4.34192E+07-3.62901E+05-6.05867E+08 7.41168E+06-1.28856E+08
 -1      1530 2.16277E+09-2.39431E+07 2.33244E+06-5.10409E+08 2.87005E+06-1.46589E+08
 -1      1532 2.16277E+09-2.39431E+07 2.33244E+06-5.10409E+08 2.87005E+06-1.46589E+08
 -1      1533 3.95860E+09-7.06781E+06 2.04215E+06-3.24070E+08-6.82384E+05-1.55097E+08
 -1      1535 3.95860E+09-7.06781E+06 2.04215E+06-3.24070E+08-6.82384E+05-1.55097E+08
 -1      1536 4.87844E+09 1.51584E+07 3.29053E+06-9.19879E+07-6.65485E+06-1.52986E+08
 -1      1538 4.87844E+09 1.51584E+07 3.29053E+06-9.19879E+07-6.65485E+06-1.52986E+08
 -1      1539 4.83102E+09 3.44212E+07 2.21467E+06 1.35537E+08-1.13075E+07-1.40348E+08
 -1      1541 4.83102E+09 3.44212E+07 2.21467E+06 1.35537E+08-1.13075E+07-1.40348E+08
 -1      1542 3.93539E+09 5.41760E+07 2.02012E+06 3.09875E+08-1.71189E+07-1.18083E+08
 -1      1544 3.93539E+09 5.41760E+07 2.02012E+06 3.09875E+08-1.71189E+07-1.18083E+08
 -1      1545 2.48387E+09 6.91395E+07 3.89092E+05 3.96359E+08-2.08498E+07-8.74169E+07
 -1      1547 2.48387E+09 6.91395E+07 3.89092E+05 3.96359E+08-2.08498E+07-8.74169E+07
 -1      1548 8.72685E+08 8.04355E+07-3.57848E+05 3.80910E+08-2.42926E+07-5.06497E+07
 -1      1550 8.72685E+08 8.04355E+07-3.57848E+05 3.80910E+08-2.42926E+07-5.06497E+07
 -1      1551-4.92084E+08 8.49922E+07-1.62710E+06 2.72868E+08-2.48529E+07-1.01748E+07
 -1      1553-4.92084E+08 8.49922E+07-1.62710E+06 2.72868E+08-2.48529E+07-1.01748E+07
 -1      1554-1.28601E+09 8.35682E+07-1.82557E+06 1.02482E+08-2.41634E+07 3.09789E+07
 -1      1556-1.28601E+09 8.35682E+07-1.82557E+06 1.02482E+08-2.41634E+07 3.09789E+07
 -1      1557-1.33943E+09 7.49562E+07-1.99806E+06-8.64850E+07-2.03597E+07 6.99554E+07
 -1      1559-1.33943E+09 7.49562E+07-1.99806E+06-8.64850E+07-2.03597E+07 6.99554E+07
 -1      1560-6.72419E+08 6.06781E+07-1.19085E+06-2.46745E+08-1.53289E+07 1.03801E+08
 -1      1562-6.72419E+08 6.06781E+07-1.19085E+06-2.46745E+08-1.53289E+07 1.03801E+08
 -1      1563 5.13721E+08 4.10647E+07-3.91758E+05-3.39053E+08-7.84098E+06 1.30266E+08
 -1      1565 5.13721E+08 4.10647E+07-3.91758E+05-3.39053E+08-7.84098E+06 1.30266E+08
 -1      1566 1.88863E+09 1.83795E+07 9.14896E+05-3.40556E+08-8.39168E+04 1.47022E+08
 -1      1568 1.88863E+09 1.83795E+07 9.14896E+05-3.40556E+08-8.39168E+04 1.47022E+08
 -1      1569 3.07575E+09-5.73708E+06 1.78038E+06-2.52468E+08 8.79367E+06 1.53880E+08
 -1      1571 3.07575E+09-5.73708E+06 1.78038E+06-2.52468E+08 8.79367E+06 1.53880E+08
 -1      1572 3.74952E+09-2.99443E+07 2.60278E+06-9.72504E+07 1.67598E+07 1.48259E+08
 -1      1574 3.74952E+09-2.99443E+07 2.60278E+06-9.72504E+07 1.67598E+07 1.48259E+08
 -1      1575 3.72395E+09-5.02437E+07 2.62659E+06 7.97747E+07 2.43207E+07 1.35357E+08
 -1      1577 3.72395E+09-5.02437E+07 2.62659E+06 7.97747E+07 2.43207E+07 1.35357E+08
 -1      1578 3.01865E+09-6.98526E+07 2.38382E+06 2.26080E+08 3.07374E+07 1.06157E+08
 -1      1580 3.01865E+09-6.98526E+07 2.38382E+06 2.26080E+08 3.07374E+07 1.06157E+08
 -1      1581 1.87880E+09-8.09892E+07 1.52779E+06 2.86394E+08 3.51818E+07 8.38638E+07
 -1      1583 1.87880E+09-8.09892E+07 1.52779E+06 2.86394E+08 3.51818E+07 8.38638E+07
 -1      1584 7.75856E+08-8.77609E+07 5.10555E+05 2.01249E+08 3.96760E+07 2.63893E+07
 -1      1586 7.75856E+08-8.77609E+07 5.10555E+05 2.01249E+08 3.96760E+07 2.63893E+07
 -1      1587 1.93053E+08-1.50786E+08-7.72329E+05 1.88778E+08-3.11804E+08-2.52022E+07
 -1      1589 1.93053E+08-1.50786E+08-7.72329E+05 1.88778E+08-3.11804E+08-2.52022E+07
 -1      1590 5.62779E+09 8.30372E+08 2.40331E+06 1.73709E+09 1.47942E+08 5.64266E+08
 -1      1592 5.62779E+09 8.30372E+08 2.40331E+06 1.73709E+09 1.47942E+08 5.64266E+08
 -1      1593-1.93053E+08 1.50786E+08 7.72329E+05 1.88778E+08-3.11804E+08 2.52022E+07
 -1      1595-1.93053E+08 1.50786E+08 7.72329E+05 1.88778E+08-3.11804E+08 2.52022E+07
 -1      1596-6.57286E+09-2.31961E+08 1.55373E+06 1.04162E+09-1.50433E+07-4.50852E+08
 -1      1598-6.57286E+09-2.31961E+08 1.55373E+06 1.04162E+09-1.50433E+07-4.50852E+08
 -1      1599-2.75517E+09 1.51765E+08-3.29049E+06 8.14942E+08-1.12126E+07 1.36559E+07
 -1      1601-2.75517E+09 1.51765E+08-3.29049E+06 8.14942E+08-1.12126E+07 1.36559E+07
 -1      1602 7.53089E+08 3.18906E+04 5.61488E+05 8.36815E+08 1.17486E+07-1.86832E+08
 -1      1604 7.53089E+08 3.18906E+04 5.61488E+05 8.36815E+08 1.17486E+07-1.86832E+08
 -1      1605 3.75211E+09 7.62017E+07 2.69376E+06 6.04583E+08 4.28368E+06-4.80061E+07
 -1      1607 3.75211E+09 7.62017E+07 2.69376E+06 6.04583E+08 4.28368E+06-4.80061E+07
 -1      1608 5.80434E+09 6.09046E+07 1.76919E+06 3.68310E+08 1.20904E+07-6.47743E+07
 -1      1610 5.80434E+09 6.09046E+07 1.76919E+06 3.68310E+08 1.20904E+07-6.47743E+07
 -1      1611 6.72163E+09 7.27172E+07 4.69475E+06 7.07909E+07 1.06070E+07-5.69647E+05
 -1      1613 6.72163E+09 7.27172E+07 4.69475E+06 7.07909E+07 1.06070E+07-5.69647E+05
 -1      1614 6.39486E+09 6.74034E+07 1.93717E+06-2.20598E+08 1.15732E+07 2.70734E+07
 -1      1616 6.39486E+09 6.74034E+07 1.93717E+06-2.20598E+08 1.15732E+07 2.70734E+07
 -1      1617 4.97176E+09 6.62832E+07 3.38157E+06-4.49885E+08 1.13149E+07 7.03720E+07
 -1      1619 4.97176E+09 6.62832E+07 3.38157E+06-4.49885E+08 1.13149E+07 7.03720E+07
 -1      1620 2.76271E+09 5.31896E+07 8.79375E+04-5.88676E+08 9.00113E+06 1.01099E+08
 -1      1622 2.76271E+09 5.31896E+07 8.79375E+04-5.88676E+08 9.00113E+06 1.01099E+08
 -1      1623 2.22243E+08 4.34192E+07 3.62901E+05-6.05867E+08 7.41168E+06 1.28856E+08
 -1      1625 2.22243E+08 4.34192E+07 3.62901E+05-6.05867E+08 7.41168E+06 1.28856E+08
 -1      1626-2.16277E+09 2.39431E+07-2.33244E+06-5.10409E+08 2.87005E+06 1.46589E+08
 -1      1628-2.16277E+09 2.39431E+07-2.33244E+06-5.10409E+08 2.87005E+06 1.46589E+08
 -1      1629-3.95860E+09 7.06781E+06-2.04215E+06-3.24070E+08-6.82384E+05 1.55097E+08
 -1      1631-3.95860E+09 7.06781E+06-2.04215E+06-3.24070E+08-6.82384E+05 1.55097E+08
 -1      1632-4.87844E+09-1.51584E+07-3.29053E+06-9.19879E+07-6.65485E+06 1.52986E+08
 -1      1634-4.87844E+09-1.51584E+07-3.29053E+06-9.19879E+07-6.65485E+06 1.52986E+08
 -1      1635-4.83102E+09-3.44212E+07-2.21467E+06 1.35537E+08-1.13075E+07 1.40348E+08
 -1      1637-4.83102E+09-3.44212E+07-2.21467E+06 1.35537E+08-1.13075E+07 1.40348E+08
 -1      1638-3.93539E+09-5.41760E+07-2.02012E+06 3.09875E+08-1.71189E+07 1.18083E+08
 -1      1640-3.93539E+09-5.41760E+07-2.02012E+06 3.09875E+08-1.71189E+07 1.18083E+08
 -1      1641-2.48387E+09-6.91395E+07-3.89092E+05 3.96359E+08-2.08498E+07 8.74169E+07
 -1      1643-2.48387E+09-6.91395E+07-3.89092E+05 3.96359E+08-2.08498E+07 8.74169E+07
 -1      1644-8.72685E+08-8.04355E+07 3.57848E+05 3.80910E+08-2.42926E+07 5.06497E+07
 -1      1646-8.72685E+08-8.04355E+07 3.57848E+05 3.80910E+08-2.42926E+07 5.06497E+07
 -1      1647 4.92084E+08-8.49922E+07 1.62710E+06 2.72868E+08-2.48529E+07 1.01748E+07
 -1      1649 4.92084E+08-8.49922E+07 1.62710E+06 2.72868E+08-2.48529E+07 1.01748E+07
 -1      1650 1.28601E+09-8.35682E+07 1.82557E+06 1.02482E+08-2.41634E+07-3.09789E+07
 -1      1652 1.28601E+09-8.35682E+07 1.82557E+06 1.02482E+08-2.41634E+07-3.09789E+07
 -1      1653 1.33943E+09-7.49562E+07 1.99806E+06-8.64850E+07-2.03597E+07-6.99554E+07
 -1      1655 1.33943E+09-7.49562E+07 1.99806E+06-8.64850E+07-2.03597E+07-6.99554E+07
 -1      1656 6.72419E+08-6.06781E+07 1.19085E+06-2.46745E+08-1.53289E+07-1.03801E+08
 -1      1658 6.72419E+08-6.06781E+07 1.19085E+06-2.46745E+08-1.53289E+07-1.03801E+08
 -1      1659-5.13721E+08-4.10647E+07 3.91758E+05-3.39053E+08-7.84098E+06-1.30266E+08
 -1      1661-5.13721E+08-4.10647E+07 3.91758E+05-3.39053E+08-7.84098E+06-1.30266E+08
 -1      1662-1.88863E+09-1.83795E+07-9.14896E+05-3.40556E+08-8.39168E+04-1.47022E+08
 -1      1664-1.88863E+09-1.83795E+07-9.14896E+05-3.40556E+08-8.39168E+04-1.47022E+08
 -1      1665-3.07575E+09 5.73708E+06-1.78038E+06-2.52468E+08 8.79367E+06-1.53880E+08
 -1      1667-3.07575E+09 5.73708E+06-1.78038E+06-2.52468E+08 8.79367E+06-1.53880E+08
 -1      1668-3.74952E+09 2.99443E+07-2.60278E+06-9.72504E+07 1.67598E+07-1.48259E+08
 -1      1670-3.74952E+09 2.99443E+07-2.60278E+06-9.72504E+07 1.67598E+07-1.48259E+08
 -1      1671-3.72395E+09 5.02437E+07-2.62659E+06 7.97747E+07 2.43207E+07-1.35357E+08
 -1      1673-3.72395E+09 5.02437E+07-2.62659E+06 7.97747E+07 2.43207E+07-1.35357E+08
 -1      1674-3.01865E+09 6.98526E+07-2.38382E+06 2.26080E+08 3.07374E+07-1.06157E+08
 -1      1676-3.01865E+09 6.98526E+07-2.38382E+06 2.26080E+08 3.07374E+07-1.06157E+08
 -1      1677-1.87880E+09 8.09892E+07-1.52779E+06 2.86394E+08 3.51818E+07-8.38638E+07
 -1      1679-1.87880E+09 8.09892E+07-1.52779E+06 2.86394E+08 3.51818E+07-8.38638E+07
 -1      1680-7.75856E+08 8.77609E+07-5.10555E+05 2.01249E+08 3.96760E+07-2.63893E+07
 -1      1682-7.75856E+08 8.77609E+07-5.10555E+05 2.01249E+08 3.96760E+07-2.63893E+07
 -1      1683-5.62779E+09-8.30372E+08-2.40331E+06 1.73709E+09 1.47942E+08-5.64266E+08
 -1      1685-5.62779E+09-8.30372E+08-2.40331E+06 1.73709E+09 1.47942E+08-5.64266E+08
 -1      1686-4.38347E+09-2.51429E+08-1.11156E+06 1.54431E+09-3.10806E+06 1.44918E+08
 -1      1688-4.38347E+09-2.51429E+08-1.11156E+06 1.54431E+09-3.10806E+06 1.44918E+08
 -1      1689-1.85420E+09 1.79921E+08 1.66519E+06 1.40939E+09 1.80966E+08-7.92464E+07
 -1      1691-1.85420E+09 1.79921E+08 1.66519E+06 1.40939E+09 1.80966E+08-7.92464E+07
 -1      1692 5.18841E+08 3.54424E+07-4.93812E+05 1.30293E+09 2.31337E+08 2.92983E+07
 -1      1694 5.18841E+08 3.54424E+07-4.93812E+05 1.30293E+09 2.31337E+08 2.92983E+07
 -1      1695 2.48000E+09 8.76958E+07 5.01815E+05 9.86165E+08 2.97239E+08-1.95144E+07
 -1      1697 2.48000E+09 8.76958E+07 5.01815E+05 9.86165E+08 2.97239E+08-1.95144E+07
 -1      1698 3.85799E+09 9.51503E+07 6.37436E+05 5.92544E+08 3.38976E+08 4.83702E+06
 -1      1700 3.85799E+09 9.51503E+07 6.37436E+05 5.92544E+08 3.38976E+08 4.83702E+06
 -1      1701 4.46044E+09 8.57186E+07-1.15996E+04 1.11137E+08 3.51555E+08-2.94701E+06
 -1      1703 4.46044E+09 8.57186E+07-1.15996E+04 1.11137E+08 3.51555E+08-2.94701E+06
 -1      1704 4.25043E+09 1.01823E+08 8.70998E+05-3.48729E+08 3.48268E+08 2.99372E+06
 -1      1706 4.25043E+09 1.01823E+08 8.70998E+05-3.48729E+08 3.48268E+08 2.99372E+06
 -1      1707 3.31047E+09 9.54313E+07-1.19167E+04-7.23434E+08 3.13317E+08 3.34321E+06
 -1      1709 3.31047E+09 9.54313E+07-1.19167E+04-7.23434E+08 3.13317E+08 3.34321E+06
 -1      1710 1.85173E+09 9.93432E+07 7.10025E+05-9.41990E+08 2.63932E+08 5.04515E+06
 -1      1712 1.85173E+09 9.93432E+07 7.10025E+05-9.41990E+08 2.63932E+08 5.04515E+06
 -1      1713 1.70941E+08 8.91873E+07 4.29410E+04-9.72772E+08 1.91505E+08 5.87077E+06
 -1      1715 1.70941E+08 8.91873E+07 4.29410E+04-9.72772E+08 1.91505E+08 5.87077E+06
 -1      1716-1.40902E+09 7.39152E+07 4.16890E+05-8.19229E+08 1.11397E+08 5.90443E+06
 -1      1718-1.40902E+09 7.39152E+07 4.16890E+05-8.19229E+08 1.11397E+08 5.90443E+06
 -1      1719-2.60336E+09 4.61869E+07-3.28741E+04-5.21864E+08 2.12936E+07 5.72214E+06
 -1      1721-2.60336E+09 4.61869E+07-3.28741E+04-5.21864E+08 2.12936E+07 5.72214E+06
 -1      1722-3.22122E+09 8.64079E+06 5.86393E+04-1.50330E+08-6.59733E+07 4.78716E+06
 -1      1724-3.22122E+09 8.64079E+06 5.86393E+04-1.50330E+08-6.59733E+07 4.78716E+06
 -1      1725-3.20266E+09-3.71144E+07-2.46442E+05 2.13971E+08-1.49703E+08 3.85512E+06
 -1      1727-3.20266E+09-3.71144E+07-2.46442E+05 2.13971E+08-1.49703E+08 3.85512E+06
 -1      1728-2.62421E+09-8.64307E+07-3.08565E+05 4.93332E+08-2.20128E+08 2.62741E+06
 -1      1730-2.62421E+09-8.64307E+07-3.08565E+05 4.93332E+08-2.20128E+08 2.62741E+06
 -1      1731-1.67808E+09-1.33066E+08-4.97612E+05 6.32426E+08-2.76330E+08 1.60810E+06
 -1      1733-1.67808E+09-1.33066E+08-4.97612E+05 6.32426E+08-2.76330E+08 1.60810E+06
 -1      1734-6.23719E+08-1.70681E+08-5.80638E+05 6.08416E+08-3.11998E+08 6.46445E+05
 -1      1736-6.23719E+08-1.70681E+08-5.80638E+05 6.08416E+08-3.11998E+08 6.46445E+05
 -1      1737 2.71713E+08-1.93078E+08-6.43499E+05 4.36432E+08-3.27739E+08-5.66720E+04
 -1      1739 2.71713E+08-1.93078E+08-6.43499E+05 4.36432E+08-3.27739E+08-5.66720E+04
 -1      1740 7.95283E+08-1.96313E+08-6.47265E+05 1.64597E+08-3.20610E+08-6.13778E+05
 -1      1742 7.95283E+08-1.96313E+08-6.47265E+05 1.64597E+08-3.20610E+08-6.13778E+05
 -1      1743 8.35026E+08-1.78699E+08-5.80872E+05-1.36950E+08-2.93514E+08-1.05906E+06
 -1      1745 8.35026E+08-1.78699E+08-5.80872E+05-1.36950E+08-2.93514E+08-1.05906E+06
 -1      1746 4.03922E+08-1.41785E+08-4.67294E+05-3.92850E+08-2.46285E+08-1.45042E+06
 -1      1748 4.03922E+08-1.41785E+08-4.67294E+05-3.92850E+08-2.46285E+08-1.45042E+06
 -1      1749-3.66368E+08-9.00285E+07-3.10903E+05-5.39991E+08-1.84267E+08-1.89914E+06
 -1      1751-3.66368E+08-9.00285E+07-3.10903E+05-5.39991E+08-1.84267E+08-1.89914E+06
 -1      1752-1.25941E+09-2.94057E+07-1.09845E+05-5.42633E+08-1.09108E+08-2.40194E+06
 -1      1754-1.25941E+09-2.94057E+07-1.09845E+05-5.42633E+08-1.09108E+08-2.40194E+06
 -1      1755-2.02853E+09 3.12559E+07 6.01126E+04-4.01353E+08-2.83754E+07-2.81186E+06
 -1      1757-2.02853E+09 3.12559E+07 6.01126E+04-4.01353E+08-2.83754E+07-2.81186E+06
 -1      1758-2.46104E+09 8.72310E+07 2.70451E+05-1.54716E+08 5.57149E+07-3.57973E+06
 -1      1760-2.46104E+09 8.72310E+07 2.70451E+05-1.54716E+08 5.57149E+07-3.57973E+06
 -1      1761-2.43608E+09 1.27535E+08 3.94460E+05 1.28581E+08 1.34027E+08-2.98253E+06
 -1      1763-2.43608E+09 1.27535E+08 3.94460E+05 1.28581E+08 1.34027E+08-2.98253E+06
 -1      1764-1.96742E+09 1.56240E+08 4.95424E+05 3.59663E+08 2.04824E+08-4.91155E+06
 -1      1766-1.96742E+09 1.56240E+08 4.95424E+05 3.59663E+08 2.04824E+08-4.91155E+06
 -1      1767-1.22205E+09 1.61872E+08 6.35208E+05 4.51756E+08 2.59788E+08 2.13326E+05
 -1      1769-1.22205E+09 1.61872E+08 6.35208E+05 4.51756E+08 2.59788E+08 2.13326E+05
 -1      1770-5.01842E+08 1.51283E+08 4.07631E+05 3.21111E+08 2.94456E+08-8.47300E+06
 -1      1772-5.01842E+08 1.51283E+08 4.07631E+05 3.21111E+08 2.94456E+08-8.47300E+06
 -1      1773 4.38347E+09 2.51429E+08 1.11156E+06 1.54431E+09-3.10806E+06-1.44918E+08
 -1      1775 4.38347E+09 2.51429E+08 1.11156E+06 1.54431E+09-3.10806E+06-1.44918E+08
 -1      1776 1.85420E+09-1.79921E+08-1.66519E+06 1.40939E+09 1.80966E+08 7.92464E+07
 -1      1778 1.85420E+09-1.79921E+08-1.66519E+06 1.40939E+09 1.80966E+08 7.92464E+07
 -1      1779-5.18841E+08-3.54424E+07 4.93812E+05 1.30293E+09 2.31337E+08-2.92983E+07
 -1      1781-5.18841E+08-3.54424E+07 4.93812E+05 1.30293E+09 2.31337E+08-2.92983E+07
 -1      1782-2.48000E+09-8.76958E+07-5.01815E+05 9.86165E+08 2.97239E+08 1.95144E+07
 -1      1784-2.48000E+09-8.76958E+07-5.01815E+05 9.86165E+08 2.97239E+08 1.95144E+07
 -1      1785-3.85799E+09-9.51503E+07-6.37436E+05 5.92544E+08 3.38976E+08-4.83702E+06
 -1      1787-3.85799E+09-9.51503E+07-6.37436E+05 5.92544E+08 3.38976E+08-4.83702E+06
 -1      1788-4.46044E+09-8.57186E+07 1.15996E+04 1.11137E+08 3.51555E+08 2.94701E+06
 -1      1790-4.46044E+09-8.57186E+07 1.15996E+04 1.11137E+08 3.51555E+08 2.94701E+06
 -1      1791-4.25043E+09-1.01823E+08-8.70998E+05-3.48729E+08 3.48268E+08-2.99372E+06
 -1      1793-4.25043E+09-1.01823E+08-8.70998E+05-3.48729E+08 3.48268E+08-2.99372E+06
 -1      1794-3.31047E+09-9.54313E+07 1.19167E+04-7.23434E+08 3.13317E+08-3.34321E+06
 -1      1796-3.31047E+09-9.54313E+07 1.19167E+04-7.23434E+08 3.13317E+08-3.34321E+06
 -1      1797-1.85173E+09-9.93432E+07-7.10025E+05-9.41990E+08 2.63932E+08-5.04515E+06
 -1      1799-1.85173E+09-9.93432E+07-7.10025E+05-9.41990E+08 2.63932E+08-5.04515E+06
 -1      1800-1.70941E+08-8.91873E+07-4.29410E+04-9.72772E+08 1.91505E+08-5.87077E+06
 -1      1802-1.70941E+08-8.91873E+07-4.29410E+04-9.72772E+08 1.91505E+08-5.87077E+06
 -1      1803 1.40902E+09-7.39152E+07-4.16890E+05-8.19229E+08 1.11397E+08-5.90443E+06
 -1      1805 1.40902E+09-7.39152E+07-4.16890E+05-8.19229E+08 1.11397E+08-5.90443E+06
 -1      1806 2.60336E+09-4.61869E+07 3.28741E+04-5.21864E+08 2.12936E+07-5.72214E+06
 -1      1808 2.60336E+09-4.61869E+07 3.28741E+04-5.21864E+08 2.12936E+07-5.72214E+06
 -1      1809 3.22122E+09-8.64079E+06-5.86393E+04-1.50330E+08-6.59733E+07-4.78716E+06
 -1      1811 3.22122E+09-8.64079E+06-5.86393E+04-1.50330E+08-6.59733E+07-4.78716E+06
 -1      1812 3.20266E+09 3.71144E+07 2.46442E+05 2.13971E+08-1.49703E+08-3.85512E+06
 -1      1814 3.20266E+09 3.71144E+07 2.46442E+05 2.13971E+08-1.49703E+08-3.85512E+06
 -1      1815 2.62421E+09 8.64307E+07 3.08565E+05 4.93332E+08-2.20128E+08-2.62741E+06
 -1      1817 2.62421E+09 8.64307E+07 3.08565E+05 4.93332E+08-2.20128E+08-2.62741E+06
 -1      1818 1.67808E+09 1.33066E+08 4.97612E+05 6.32426E+08-2.76330E+08-1.60810E+06
 -1      1820 1.67808E+09 1.33066E+08 4.97612E+05 6.32426E+08-2.76330E+08-1.60810E+06
 -1      1821 6.23719E+08 1.70681E+08 5.80638E+05 6.08416E+08-3.11998E+08-6.46445E+05
 -1      1823 6.23719E+08 1.70681E+08 5.80638E+05 6.08416E+08-3.11998E+08-6.46445E+05
 -1      1824-2.71713E+08 1.93078E+08 6.43499E+05 4.36432E+08-3.27739E+08 5.66720E+04
 -1      1826-2.71713E+08 1.93078E+08 6.43499E+05 4.36432E+08-3.27739E+08 5.66720E+04
 -1      1827-7.95283E+08 1.96313E+08 6.47265E+05 1.64597E+08-3.20610E+08 6.13778E+05
 -1      1829-7.95283E+08 1.96313E+08 6.47265E+05 1.64597E+08-3.20610E+08 6.13778E+05
 -1      1830-8.35026E+08 1.78699E+08 5.80872E+05-1.36950E+08-2.93514E+08 1.05906E+06
 -1      1832-8.35026E+08 1.78699E+08 5.80872E+05-1.36950E+08-2.93514E+08 1.05906E+06
 -1      1833-4.03922E+08 1.41785E+08 4.67294E+05-3.92850E+08-2.46285E+08 1.45042E+06
 -1      1835-4.03922E+08 1.41785E+08 4.67294E+05-3.92850E+08-2.46285E+08 1.45042E+06
 -1      1836 3.66368E+08 9.00285E+07 3.10903E+05-5.39991E+08-1.84267E+08 1.89914E+06
 -1      1838 3.66368E+08 9.00285E+07 3.10903E+05-5.39991E+08-1.84267E+08 1.89914E+06
 -1      1839 1.25941E+09 2.94057E+07 1.09845E+05-5.42633E+08-1.09108E+08 2.40194E+06
 -1      1841 1.25941E+09 2.94057E+07 1.09845E+05-5.42633E+08-1.09108E+08 2.40194E+06
 -1      1842 2.02853E+09-3.12559E+07-6.01126E+04-4.01353E+08-2.83754E+07 2.81186E+06
 -1      1844 2.02853E+09-3.12559E+07-6.01126E+04-4.01353E+08-2.83754E+07 2.81186E+06
 -1      1845 2.46104E+09-8.72310E+07-2.70451E+05-1.54716E+08 5.57149E+07 3.57973E+06
 -1      1847 2.46104E+09-8.72310E+07-2.70451E+05-1.54716E+08 5.57149E+07 3.57973E+06
 -1      1848 2.43608E+09-1.27535E+08-3.94460E+05 1.28581E+08 1.34027E+08 2.98253E+06
 -1      1850 2.43608E+09-1.27535E+08-3.94460E+05 1.28581E+08 1.34027E+08 2.98253E+06
 -1      1851 1.96742E+09-1.56240E+08-4.95424E+05 3.59663E+08 2.04824E+08 4.91155E+06
 -1      1853 1.96742E+09-1.56240E+08-4.95424E+05 3.59663E+08 2.04824E+08 4.91155E+06
 -1      1854 1.22205E+09-1.61872E+08-6.35208E+05 4.51756E+08 2.59788E+08-2.13326E+05
 -1      1856 1.22205E+09-1.61872E+08-6.35208E+05 4.51756E+08 2.59788E+08-2.13326E+05
 -1      1857 5.01842E+08-1.51283E+08-4.07631E+05 3.21111E+08 2.94456E+08 8.47300E+06
 -1      1859 5.01842E+08-1.51283E+08-4.07631E+05 3.21111E+08 2.94456E+08 8.47300E+06
 -1      1860 5.95381E-05-1.87650E-04 4.13819E-03-6.87258E+07 7.96270E+07-7.74649E-03
 -1      1862 5.95381E-05-1.87650E-04 4.13819E-03-6.87258E+07 7.96270E+07-7.74649E-03
 -1      1863-1.08726E-03-3.03363E-04 5.04985E-03 4.75662E+07 1.74400E+08-9.67395E-03
 -1      1865-1.08726E-03-3.03363E-04 5.04985E-03 4.75662E+07 1.74400E+08-9.67395E-03
 -1      1866 8.70723E-04-3.58110E-04 1.62707E-03-2.07850E+07 2.50822E+08-1.02134E-02
 -1      1868 8.70723E-04-3.58110E-04 1.62707E-03-2.07850E+07 2.50822E+08-1.02134E-02
 -1      1869 4.07357E-03-3.18216E-04-4.31828E-03 1.73368E+07 3.13403E+08-1.15679E-02
 -1      1871 4.07357E-03-3.18216E-04-4.31828E-03 1.73368E+07 3.13403E+08-1.15679E-02
 -1      1872 5.21670E-03-1.59325E-04-7.18553E-03-5.05163E+06 3.56099E+08-1.19239E-02
 -1      1874 5.21670E-03-1.59325E-04-7.18553E-03-5.05163E+06 3.56099E+08-1.19239E-02
 -1      1875 4.03207E-03-1.04860E-04-1.33126E-03 3.62993E+06 3.71849E+08-1.00737E-02
 -1      1877 4.03207E-03-1.04860E-04-1.33126E-03 3.62993E+06 3.71849E+08-1.00737E-02
 -1      1878 1.81609E-03-1.87597E-04 9.56565E-03-3.19492E+06 3.64687E+08-4.41785E-03
 -1      1880 1.81609E-03-1.87597E-04 9.56565E-03-3.19492E+06 3.64687E+08-4.41785E-03
 -1      1881 1.17480E-03 1.37037E-04 1.45337E-02-2.54923E+06 3.30614E+08-5.96528E-05
 -1      1883 1.17480E-03 1.37037E-04 1.45337E-02-2.54923E+06 3.30614E+08-5.96528E-05
 -1      1884 2.55169E-03 3.95393E-04 1.10842E-02-3.80293E+06 2.76050E+08-3.67309E-03
 -1      1886 2.55169E-03 3.95393E-04 1.10842E-02-3.80293E+06 2.76050E+08-3.67309E-03
 -1      1887 3.62359E-03 8.57153E-05 7.78032E-03-3.37791E+06 2.03000E+08-9.76785E-03
 -1      1889 3.62359E-03 8.57153E-05 7.78032E-03-3.37791E+06 2.03000E+08-9.76785E-03
 -1      1890 4.66676E-03-4.67929E-05 1.05990E-02-1.88645E+06 1.18629E+08-1.06132E-02
 -1      1892 4.66676E-03-4.67929E-05 1.05990E-02-1.88645E+06 1.18629E+08-1.06132E-02
 -1      1893 6.47885E-03-1.25947E-05 1.62207E-02-1.68307E+05 2.85391E+07-4.95908E-03
 -1      1895 6.47885E-03-1.25947E-05 1.62207E-02-1.68307E+05 2.85391E+07-4.95908E-03
 -1      1896 7.13520E-03-2.97644E-04 1.92771E-02 2.24466E+06-6.05869E+07 2.66335E-03
 -1      1898 7.13520E-03-2.97644E-04 1.92771E-02 2.24466E+06-6.05869E+07 2.66335E-03
 -1      1899 6.63479E-03-3.24732E-04 1.98232E-02 3.98997E+06-1.42698E+08 6.33277E-03
 -1      1901 6.63479E-03-3.24732E-04 1.98232E-02 3.98997E+06-1.42698E+08 6.33277E-03
 -1      1902 7.18508E-03 2.01499E-05 2.13260E-02 5.35432E+06-2.12955E+08 5.83850E-03
 -1      1904 7.18508E-03 2.01499E-05 2.13260E-02 5.35432E+06-2.12955E+08 5.83850E-03
 -1      1905 8.01000E-03 3.41962E-04 2.24869E-02 5.46508E+06-2.67036E+08 4.70615E-03
 -1      1907 8.01000E-03 3.41962E-04 2.24869E-02 5.46508E+06-2.67036E+08 4.70615E-03
 -1      1908 7.40292E-03 2.14984E-04 1.71335E-02 4.65137E+06-3.02690E+08 2.77338E-03
 -1      1910 7.40292E-03 2.14984E-04 1.71335E-02 4.65137E+06-3.02690E+08 2.77338E-03
 -1      1911 6.56047E-03 2.23028E-04 7.45290E-03 2.75834E+06-3.18118E+08-2.43207E-03
 -1      1913 6.56047E-03 2.23028E-04 7.45290E-03 2.75834E+06-3.18118E+08-2.43207E-03
 -1      1914 5.36995E-03 3.65490E-04 2.87190E-03 3.34241E+05-3.13549E+08-7.16765E-03
 -1      1916 5.36995E-03 3.65490E-04 2.87190E-03 3.34241E+05-3.13549E+08-7.16765E-03
 -1      1917 2.12915E-03 1.75968E-04 2.79005E-03-2.26163E+06-2.89549E+08-5.63038E-03
 -1      1919 2.12915E-03 1.75968E-04 2.79005E-03-2.26163E+06-2.89549E+08-5.63038E-03
 -1      1920-3.30291E-03-1.09655E-04 1.16936E-03-4.45214E+06-2.48266E+08-9.38511E-04
 -1      1922-3.30291E-03-1.09655E-04 1.16936E-03-4.45214E+06-2.48266E+08-9.38511E-04
 -1      1923-8.70010E-03-2.16732E-04 1.76041E-03-5.83655E+06-1.92225E+08 7.16330E-05
 -1      1925-8.70010E-03-2.16732E-04 1.76041E-03-5.83655E+06-1.92225E+08 7.16330E-05
 -1      1926-1.01798E-02-3.20490E-05 7.96009E-03-6.12190E+06-1.24957E+08-1.60533E-03
 -1      1928-1.01798E-02-3.20490E-05 7.96009E-03-6.12190E+06-1.24957E+08-1.60533E-03
 -1      1929-7.55738E-03 4.49973E-04 1.36668E-02-5.38976E+06-5.06960E+07-6.31263E-04
 -1      1931-7.55738E-03 4.49973E-04 1.36668E-02-5.38976E+06-5.06960E+07-6.31263E-04
 -1      1932-3.70032E-03 6.05093E-04 1.47882E-02-3.50623E+06 2.61189E+07 2.73053E-03
 -1      1934-3.70032E-03 6.05093E-04 1.47882E-02-3.50623E+06 2.61189E+07 2.73053E-03
 -1      1935-1.06067E-03 3.88841E-04 1.39729E-02-1.75516E+06 9.98716E+07 4.86658E-03
 -1      1937-1.06067E-03 3.88841E-04 1.39729E-02-1.75516E+06 9.98716E+07 4.86658E-03
 -1      1938-1.36092E-03-1.95322E-04 1.23186E-02 1.38153E+06 1.65843E+08 6.01113E-03
 -1      1940-1.36092E-03-1.95322E-04 1.23186E-02 1.38153E+06 1.65843E+08 6.01113E-03
 -1      1941-1.86135E-03-4.35658E-04 8.89959E-03 1.08050E+06 2.18262E+08 5.49965E-03
 -1      1943-1.86135E-03-4.35658E-04 8.89959E-03 1.08050E+06 2.18262E+08 5.49965E-03
 -1      1944-5.03960E-04 1.33700E-04 4.56340E-03 5.45108E+06 2.52643E+08 2.22745E-03
 -1      1946-5.03960E-04 1.33700E-04 4.56340E-03 5.45108E+06 2.52643E+08 2.22745E-03
 -1      1947-2.93966E-03-2.07639E-04 4.55957E-03-1.60152E+08-2.85478E-05-4.78795E-03
 -1      1949-2.93966E-03-2.07639E-04 4.55957E-03-1.60152E+08-2.85478E-05-4.78795E-03
 -1      1950-3.96870E-03-4.99315E-04 4.53864E-03 3.87201E+07 2.45690E-04-8.18976E-03
 -1      1952-3.96870E-03-4.99315E-04 4.53864E-03 3.87201E+07 2.45690E-04-8.18976E-03
 -1      1953-1.95120E-03-2.83773E-04 2.28131E-04-6.65328E+07 4.55089E-04-1.04983E-02
 -1      1955-1.95120E-03-2.83773E-04 2.28131E-04-6.65328E+07 4.55089E-04-1.04983E-02
 -1      1956 1.70013E-03-1.26642E-04-5.26975E-03 4.40878E+06 4.99859E-04-1.25837E-02
 -1      1958 1.70013E-03-1.26642E-04-5.26975E-03 4.40878E+06 4.99859E-04-1.25837E-02
 -1      1959 3.28299E-03-5.48488E-05-7.62361E-03-2.33323E+07 3.57985E-04-1.16054E-02
 -1      1961 3.28299E-03-5.48488E-05-7.62361E-03-2.33323E+07 3.57985E-04-1.16054E-02
 -1      1962 2.10524E-03-3.10723E-04-2.40268E-03 3.04594E+06 1.28344E-04-6.29390E-03
 -1      1964 2.10524E-03-3.10723E-04-2.40268E-03 3.04594E+06 1.28344E-04-6.29390E-03
 -1      1965-6.59741E-04-6.07918E-04 7.24035E-03 6.55199E+05 1.29461E-04 4.77077E-04
 -1      1967-6.59741E-04-6.07918E-04 7.24035E-03 6.55199E+05 1.29461E-04 4.77077E-04
 -1      1968-9.47884E-04-3.09425E-04 1.26813E-02 1.44456E+07 2.53633E-04 2.44139E-03
 -1      1970-9.47884E-04-3.09425E-04 1.26813E-02 1.44456E+07 2.53633E-04 2.44139E-03
 -1      1971 4.26543E-03 1.43850E-05 1.15199E-02 2.06879E+07 3.90567E-04-2.70117E-03
 -1      1973 4.26543E-03 1.43850E-05 1.15199E-02 2.06879E+07 3.90567E-04-2.70117E-03
 -1      1974 9.55772E-03 1.03355E-04 8.77796E-03 3.19049E+07 4.44978E-04-7.64599E-03
 -1      1976 9.55772E-03 1.03355E-04 8.77796E-03 3.19049E+07 4.44978E-04-7.64599E-03
 -1      1977 9.73105E-03-4.46750E-04 9.82129E-03 4.02681E+07 3.13194E-04-7.45773E-03
 -1      1979 9.73105E-03-4.46750E-04 9.82129E-03 4.02681E+07 3.13194E-04-7.45773E-03
 -1      1980 7.94911E-03-5.24718E-04 1.52777E-02 4.86796E+07 2.64905E-05-3.02332E-03
 -1      1982 7.94911E-03-5.24718E-04 1.52777E-02 4.86796E+07 2.64905E-05-3.02332E-03
 -1      1983 6.92367E-03-2.77950E-04 2.04092E-02 5.33133E+07-2.33091E-04 2.42048E-03
 -1      1985 6.92367E-03-2.77950E-04 2.04092E-02 5.33133E+07-2.33091E-04 2.42048E-03
 -1      1986 6.07927E-03-1.84149E-04 2.33828E-02 5.44348E+07-4.28893E-04 5.28832E-03
 -1      1988 6.07927E-03-1.84149E-04 2.33828E-02 5.44348E+07-4.28893E-04 5.28832E-03
 -1      1989 5.00110E-03 7.50542E-05 2.65296E-02 5.00411E+07-6.41793E-04 5.57727E-03
 -1      1991 5.00110E-03 7.50542E-05 2.65296E-02 5.00411E+07-6.41793E-04 5.57727E-03
 -1      1992 4.71080E-03 1.98165E-04 2.80852E-02 4.05301E+07-7.15986E-04 3.80671E-03
 -1      1994 4.71080E-03 1.98165E-04 2.80852E-02 4.05301E+07-7.15986E-04 3.80671E-03
 -1      1995 6.56067E-03 2.08972E-04 2.31238E-02 2.58407E+07-8.05378E-04-8.66308E-04
 -1      1997 6.56067E-03 2.08972E-04 2.31238E-02 2.58407E+07-8.05378E-04-8.66308E-04
 -1      1998 8.79261E-03 7.52150E-05 1.27522E-02 7.55099E+06-1.08181E-03-6.40230E-03
 -1      2000 8.79261E-03 7.52150E-05 1.27522E-02 7.55099E+06-1.08181E-03-6.40230E-03
 -1      2001 9.40421E-03 2.92786E-04 4.16167E-03-1.26598E+07-1.21618E-03-8.57243E-03
 -1      2003 9.40421E-03 2.92786E-04 4.16167E-03-1.26598E+07-1.21618E-03-8.57243E-03
 -1      2004 7.90337E-03 4.34674E-04-1.20633E-04-3.24228E+07-1.12944E-03-6.63461E-03
 -1      2006 7.90337E-03 4.34674E-04-1.20633E-04-3.24228E+07-1.12944E-03-6.63461E-03
 -1      2007 3.34475E-03 3.27727E-04-1.55288E-03-4.94102E+07-1.03168E-03-2.47905E-03
 -1      2009 3.34475E-03 3.27727E-04-1.55288E-03-4.94102E+07-1.03168E-03-2.47905E-03
 -1      2010-3.51274E-03 5.23909E-06 1.87874E-03-6.18188E+07-7.50016E-04 2.21333E-04
 -1      2012-3.51274E-03 5.23909E-06 1.87874E-03-6.18188E+07-7.50016E-04 2.21333E-04
 -1      2013-8.28687E-03 3.71801E-05 1.03926E-02-6.79765E+07-3.92979E-04-9.30937E-04
 -1      2015-8.28687E-03 3.71801E-05 1.03926E-02-6.79765E+07-3.92979E-04-9.30937E-04
 -1      2016-7.91563E-03 3.33073E-04 1.64477E-02-6.81051E+07-1.90973E-04-1.91840E-03
 -1      2018-7.91563E-03 3.33073E-04 1.64477E-02-6.81051E+07-1.90973E-04-1.91840E-03
 -1      2019-3.64088E-03 5.73339E-04 1.62185E-02-6.14028E+07-2.57790E-05 7.84099E-04
 -1      2021-3.64088E-03 5.73339E-04 1.62185E-02-6.14028E+07-2.57790E-05 7.84099E-04
 -1      2022 6.82382E-05 5.12627E-04 1.45025E-02-5.14043E+07 9.69693E-05 4.56235E-03
 -1      2024 6.82382E-05 5.12627E-04 1.45025E-02-5.14043E+07 9.69693E-05 4.56235E-03
 -1      2025 5.68783E-04 2.39656E-04 1.37137E-02-3.56389E+07 4.65289E-05 6.42665E-03
 -1      2027 5.68783E-04 2.39656E-04 1.37137E-02-3.56389E+07 4.65289E-05 6.42665E-03
 -1      2028 7.60043E-04-1.90684E-05 1.14555E-02-2.41040E+07-1.58876E-04 5.23034E-03
 -1      2030 7.60043E-04-1.90684E-05 1.14555E-02-2.41040E+07-1.58876E-04 5.23034E-03
 -1      2031 1.49806E-03-6.29608E-05 7.07394E-03-4.10098E+06-5.66095E-05 2.09950E-03
 -1      2033 1.49806E-03-6.29608E-05 7.07394E-03-4.10098E+06-5.66095E-05 2.09950E-03
 -1      2034-2.33179E-03-9.69405E-05 5.11728E-03-6.87258E+07-7.96270E+07-1.71879E-03
 -1      2036-2.33179E-03-9.69405E-05 5.11728E-03-6.87258E+07-7.96270E+07-1.71879E-03
 -1      2037-4.84610E-03-3.72614E-04 4.28406E-03 4.75662E+07-1.74400E+08-6.73675E-03
 -1      2039-4.84610E-03-3.72614E-04 4.28406E-03 4.75662E+07-1.74400E+08-6.73675E-03
 -1      2040-4.52831E-03-2.97595E-04-5.04889E-04-2.07850E+07-2.50822E+08-9.43032E-03
 -1      2042-4.52831E-03-2.97595E-04-5.04889E-04-2.07850E+07-2.50822E+08-9.43032E-03
 -1      2043-2.42858E-03 1.09994E-04-4.19918E-03 1.73368E+07-3.13403E+08-1.10189E-02
 -1      2045-2.42858E-03 1.09994E-04-4.19918E-03 1.73368E+07-3.13403E+08-1.10189E-02
 -1      2046-1.29951E-03 3.60489E-04-6.20301E-03-5.05163E+06-3.56099E+08-9.10878E-03
 -1      2048-1.29951E-03 3.60489E-04-6.20301E-03-5.05163E+06-3.56099E+08-9.10878E-03
 -1      2049-3.93194E-04 8.73006E-05-3.24044E-03 3.62993E+06-3.71849E+08-1.11925E-03
 -1      2051-3.93194E-04 8.73006E-05-3.24044E-03 3.62993E+06-3.71849E+08-1.11925E-03
 -1      2052 2.45656E-04-2.63355E-04 5.73490E-03-3.19492E+06-3.64687E+08 5.81694E-03
 -1      2054 2.45656E-04-2.63355E-04 5.73490E-03-3.19492E+06-3.64687E+08 5.81694E-03
 -1      2055 1.76639E-03-3.78121E-04 1.13700E-02-2.54923E+06-3.30614E+08 4.70381E-03
 -1      2057 1.76639E-03-3.78121E-04 1.13700E-02-2.54923E+06-3.30614E+08 4.70381E-03
 -1      2058 6.85304E-03-2.54362E-04 9.16338E-03-3.80293E+06-2.76050E+08-1.46129E-03
 -1      2060 6.85304E-03-2.54362E-04 9.16338E-03-3.80293E+06-2.76050E+08-1.46129E-03
 -1      2061 1.05948E-02 9.85720E-05 5.76259E-03-3.37791E+06-2.03000E+08-4.71340E-03
 -1      2063 1.05948E-02 9.85720E-05 5.76259E-03-3.37791E+06-2.03000E+08-4.71340E-03
 -1      2064 8.32460E-03-4.15186E-04 7.42773E-03-1.88645E+06-1.18629E+08-3.60050E-03
 -1      2066 8.32460E-03-4.15186E-04 7.42773E-03-1.88645E+06-1.18629E+08-3.60050E-03
 -1      2067 5.21477E-03-6.68717E-04 1.38503E-02-1.68307E+05-2.85391E+07-1.04430E-03
 -1      2069 5.21477E-03-6.68717E-04 1.38503E-02-1.68307E+05-2.85391E+07-1.04430E-03
 -1      2070 3.97027E-03-2.62172E-04 1.91214E-02 2.24466E+06 6.05869E+07 1.29128E-03
 -1      2072 3.97027E-03-2.62172E-04 1.91214E-02 2.24466E+06 6.05869E+07 1.29128E-03
 -1      2073 2.88855E-03-9.04091E-05 2.12419E-02 3.98997E+06 1.42698E+08 3.01209E-03
 -1      2075 2.88855E-03-9.04091E-05 2.12419E-02 3.98997E+06 1.42698E+08 3.01209E-03
 -1      2076 2.21172E-03-5.04054E-05 2.38687E-02 5.35432E+06 2.12955E+08 4.20223E-03
 -1      2078 2.21172E-03-5.04054E-05 2.38687E-02 5.35432E+06 2.12955E+08 4.20223E-03
 -1      2079 3.63344E-03 5.35820E-06 2.66546E-02 5.46508E+06 2.67036E+08 2.37944E-03
 -1      2081 3.63344E-03 5.35820E-06 2.66546E-02 5.46508E+06 2.67036E+08 2.37944E-03
 -1      2082 7.45221E-03 2.20077E-04 2.39790E-02 4.65137E+06 3.02690E+08-3.73284E-03
 -1      2084 7.45221E-03 2.20077E-04 2.39790E-02 4.65137E+06 3.02690E+08-3.73284E-03
 -1      2085 1.03606E-02 5.39456E-05 1.42996E-02 2.75834E+06 3.18118E+08-8.82453E-03
 -1      2087 1.03606E-02 5.39456E-05 1.42996E-02 2.75834E+06 3.18118E+08-8.82453E-03
 -1      2088 1.12645E-02 1.41122E-04 3.97189E-03 3.34241E+05 3.13549E+08-9.14522E-03
 -1      2090 1.12645E-02 1.41122E-04 3.97189E-03 3.34241E+05 3.13549E+08-9.14522E-03
 -1      2091 1.00905E-02 3.19358E-04-2.76989E-03-2.26163E+06 2.89549E+08-7.10591E-03
 -1      2093 1.00905E-02 3.19358E-04-2.76989E-03-2.26163E+06 2.89549E+08-7.10591E-03
 -1      2094 4.90303E-03 2.18411E-04-5.76816E-03-4.45214E+06 2.48266E+08-3.46547E-03
 -1      2096 4.90303E-03 2.18411E-04-5.76816E-03-4.45214E+06 2.48266E+08-3.46547E-03
 -1      2097-1.73539E-03 1.00480E-04-1.96118E-03-5.83655E+06 1.92225E+08 8.79491E-04
 -1      2099-1.73539E-03 1.00480E-04-1.96118E-03-5.83655E+06 1.92225E+08 8.79491E-04
 -1      2100-5.34546E-03 4.45623E-05 8.69977E-03-6.12190E+06 1.24957E+08 6.49646E-04
 -1      2102-5.34546E-03 4.45623E-05 8.69977E-03-6.12190E+06 1.24957E+08 6.49646E-04
 -1      2103-5.72159E-03-1.93491E-04 1.54419E-02-5.38976E+06 5.06960E+07-3.12118E-03
 -1      2105-5.72159E-03-1.93491E-04 1.54419E-02-5.38976E+06 5.06960E+07-3.12118E-03
 -1      2106-3.68578E-03-1.48043E-04 1.28485E-02-3.50623E+06-2.61189E+07-2.09529E-03
 -1      2108-3.68578E-03-1.48043E-04 1.28485E-02-3.50623E+06-2.61189E+07-2.09529E-03
 -1      2109-1.43421E-04 3.59494E-04 9.85159E-03-1.75516E+06-9.98716E+07 3.25580E-03
 -1      2111-1.43421E-04 3.59494E-04 9.85159E-03-1.75516E+06-9.98716E+07 3.25580E-03
 -1      2112 2.30790E-03 5.31427E-04 1.07323E-02 1.38153E+06-1.65843E+08 5.67283E-03
 -1      2114 2.30790E-03 5.31427E-04 1.07323E-02 1.38153E+06-1.65843E+08 5.67283E-03
 -1      2115 3.58629E-03 2.66987E-04 1.03988E-02 1.08050E+06-2.18262E+08 3.37065E-03
 -1      2117 3.58629E-03 2.66987E-04 1.03988E-02 1.08050E+06-2.18262E+08 3.37065E-03
 -1      2118 3.35626E-03-8.40608E-05 6.62199E-03 5.45108E+06-2.52643E+08 1.61589E-05
 -1      2120 3.35626E-03-8.40608E-05 6.62199E-03 5.45108E+06-2.52643E+08 1.61589E-05
 -1      2121 4.38347E+09 2.51429E+08 1.11156E+06 1.54431E+09 3.10806E+06 1.44918E+08
 -1      2123 4.38347E+09 2.51429E+08 1.11156E+06 1.54431E+09 3.10806E+06 1.44918E+08
 -1      2124 1.85420E+09-1.79921E+08-1.66519E+06 1.40939E+09-1.80966E+08-7.92464E+07
 -1      2126 1.85420E+09-1.79921E+08-1.66519E+06 1.40939E+09-1.80966E+08-7.92464E+07
 -1      2127-5.18841E+08-3.54424E+07 4.93812E+05 1.30293E+09-2.31337E+08 2.92983E+07
 -1      2129-5.18841E+08-3.54424E+07 4.93812E+05 1.30293E+09-2.31337E+08 2.92983E+07
 -1      2130-2.48000E+09-8.76958E+07-5.01815E+05 9.86165E+08-2.97239E+08-1.95144E+07
 -1      2132-2.48000E+09-8.76958E+07-5.01815E+05 9.86165E+08-2.97239E+08-1.95144E+07
 -1      2133-3.85799E+09-9.51503E+07-6.37436E+05 5.92544E+08-3.38976E+08 4.83702E+06
 -1      2135-3.85799E+09-9.51503E+07-6.37436E+05 5.92544E+08-3.38976E+08 4.83702E+06
 -1      2136-4.46044E+09-8.57186E+07 1.15996E+04 1.11137E+08-3.51555E+08-2.94701E+06
 -1      2138-4.46044E+09-8.57186E+07 1.15996E+04 1.11137E+08-3.51555E+08-2.94701E+06
 -1      2139-4.25043E+09-1.01823E+08-8.70998E+05-3.48729E+08-3.48268E+08 2.99372E+06
 -1      2141-4.25043E+09-1.01823E+08-8.70998E+05-3.48729E+08-3.48268E+08 2.99372E+06
 -1      2142-3.31047E+09-9.54313E+07 1.19167E+04-7.23434E+08-3.13317E+08 3.34321E+06
 -1      2144-3.31047E+09-9.54313E+07 1.19167E+04-7.23434E+08-3.13317E+08 3.34321E+06
 -1      2145-1.85173E+09-9.93432E+07-7.10025E+05-9.41990E+08-2.63932E+08 5.04515E+06
 -1      2147-1.85173E+09-9.93432E+07-7.10025E+05-9.41990E+08-2.63932E+08 5.04515E+06
 -1      2148-1.70941E+08-8.91873E+07-4.29410E+04-9.72772E+08-1.91505E+08 5.87077E+06
 -1      2150-1.70941E+08-8.91873E+07-4.29410E+04-9.72772E+08-1.91505E+08 5.87077E+06
 -1      2151 1.40902E+09-7.39152E+07-4.16890E+05-8.19229E+08-1.11397E+08 5.90443E+06
 -1      2153 1.40902E+09-7.39152E+07-4.16890E+05-8.19229E+08-1.11397E+08 5.90443E+06
 -1      2154 2.60336E+09-4.61869E+07 3.28741E+04-5.21864E+08-2.12936E+07 5.72214E+06
 -1      2156 2.60336E+09-4.61869E+07 3.28741E+04-5.21864E+08-2.12936E+07 5.72214E+06
 -1      2157 3.22122E+09-8.64079E+06-5.86393E+04-1.50330E+08 6.59733E+07 4.78716E+06
 -1      2159 3.22122E+09-8.64079E+06-5.86393E+04-1.50330E+08 6.59733E+07 4.78716E+06
 -1      2160 3.20266E+09 3.71144E+07 2.46442E+05 2.13971E+08 1.49703E+08 3.85512E+06
 -1      2162 3.20266E+09 3.71144E+07 2.46442E+05 2.13971E+08 1.49703E+08 3.85512E+06
 -1      2163 2.62421E+09 8.64307E+07 3.08565E+05 4.93332E+08 2.20128E+08 2.62741E+06
 -1      2165 2.62421E+09 8.64307E+07 3.08565E+05 4.93332E+08 2.20128E+08 2.62741E+06
 -1      2166 1.67808E+09 1.33066E+08 4.97612E+05 6.32426E+08 2.76330E+08 1.60810E+06
 -1      2168 1.67808E+09 1.33066E+08 4.97612E+05 6.32426E+08 2.76330E+08 1.60810E+06
 -1      2169 6.23719E+08 1.70681E+08 5.80638E+05 6.08416E+08 3.11998E+08 6.46445E+05
 -1      2171 6.23719E+08 1.70681E+08 5.80638E+05 6.08416E+08 3.11998E+08 6.46445E+05
 -1      2172-2.71713E+08 1.93078E+08 6.43499E+05 4.36432E+08 3.27739E+08-5.66720E+04
 -1      2174-2.71713E+08 1.93078E+08 6.43499E+05 4.36432E+08 3.27739E+08-5.66720E+04
 -1      2175-7.95283E+08 1.96313E+08 6.47265E+05 1.64597E+08 3.20610E+08-6.13778E+05
 -1      2177-7.95283E+08 1.96313E+08 6.47265E+05 1.64597E+08 3.20610E+08-6.13778E+05
 -1      2178-8.35026E+08 1.78699E+08 5.80872E+05-1.36950E+08 2.93514E+08-1.05906E+06
 -1      2180-8.35026E+08 1.78699E+08 5.80872E+05-1.36950E+08 2.93514E+08-1.05906E+06
 -1      2181-4.03922E+08 1.41785E+08 4.67294E+05-3.92850E+08 2.46285E+08-1.45042E+06
 -1      2183-4.03922E+08 1.41785E+08 4.67294E+05-3.92850E+08 2.46285E+08-1.45042E+06
 -1      2184 3.66368E+08 9.00285E+07 3.10903E+05-5.39991E+08 1.84267E+08-1.89914E+06
 -1      2186 3.66368E+08 9.00285E+07 3.10903E+05-5.39991E+08 1.84267E+08-1.89914E+06
 -1      2187 1.25941E+09 2.94057E+07 1.09845E+05-5.42633E+08 1.09108E+08-2.40194E+06
 -1      2189 1.25941E+09 2.94057E+07 1.09845E+05-5.42633E+08 1.09108E+08-2.40194E+06
 -1      2190 2.02853E+09-3.12559E+07-6.01126E+04-4.01353E+08 2.83754E+07-2.81186E+06
 -1      2192 2.02853E+09-3.12559E+07-6.01126E+04-4.01353E+08 2.83754E+07-2.81186E+06
 -1      2193 2.46104E+09-8.72310E+07-2.70451E+05-1.54716E+08-5.57149E+07-3.57973E+06
 -1      2195 2.46104E+09-8.72310E+07-2.70451E+05-1.54716E+08-5.57149E+07-3.57973E+06
 -1      2196 2.43608E+09-1.27535E+08-3.94460E+05 1.28581E+08-1.34027E+08-2.98253E+06
 -1      2198 2.43608E+09-1.27535E+08-3.94460E+05 1.28581E+08-1.34027E+08-2.98253E+06
 -1      2199 1.96742E+09-1.56240E+08-4.95424E+05 3.59663E+08-2.04824E+08-4.91155E+06
 -1      2201 1.96742E+09-1.56240E+08-4.95424E+05 3.59663E+08-2.04824E+08-4.91155E+06
 -1      2202 1.22205E+09-1.61872E+08-6.35208E+05 4.51756E+08-2.59788E+08 2.13326E+05
 -1      2204 1.22205E+09-1.61872E+08-6.35208E+05 4.51756E+08-2.59788E+08 2.13326E+05
 -1      2205 5.01842E+08-1.51283E+08-4.07631E+05 3.21111E+08-2.94456E+08-8.47300E+06
 -1      2207 5.01842E+08-1.51283E+08-4.07631E+05 3.21111E+08-2.94456E+08-8.47300E+06
 -1      2208-4.38347E+09-2.51429E+08-1.11156E+06 1.54431E+09 3.10806E+06-1.44918E+08
 -1      2210-4.38347E+09-2.51429E+08-1.11156E+06 1.54431E+09 3.10806E+06-1.44918E+08
 -1      2211-1.85420E+09 1.79921E+08 1.66519E+06 1.40939E+09-1.80966E+08 7.92464E+07
 -1      2213-1.85420E+09 1.79921E+08 1.66519E+06 1.40939E+09-1.80966E+08 7.92464E+07
 -1      2214 5.18841E+08 3.54424E+07-4.93812E+05 1.30293E+09-2.31337E+08-2.92983E+07
 -1      2216 5.18841E+08 3.54424E+07-4.93812E+05 1.30293E+09-2.31337E+08-2.92983E+07
 -1      2217 2.48000E+09 8.76958E+07 5.01815E+05 9.86165E+08-2.97239E+08 1.95144E+07
 -1      2219 2.48000E+09 8.76958E+07 5.01815E+05 9.86165E+08-2.97239E+08 1.95144E+07
 -1      2220 3.85799E+09 9.51503E+07 6.37436E+05 5.92544E+08-3.38976E+08-4.83702E+06
 -1      2222 3.85799E+09 9.51503E+07 6.37436E+05 5.92544E+08-3.38976E+08-4.83702E+06
 -1      2223 4.46044E+09 8.57186E+07-1.15996E+04 1.11137E+08-3.51555E+08 2.94701E+06
 -1      2225 4.46044E+09 8.57186E+07-1.15996E+04 1.11137E+08-3.51555E+08 2.94701E+06
 -1      2226 4.25043E+09 1.01823E+08 8.70998E+05-3.48729E+08-3.48268E+08-2.99372E+06
 -1      2228 4.25043E+09 1.01823E+08 8.70998E+05-3.48729E+08-3.48268E+08-2.99372E+06
 -1      2229 3.31047E+09 9.54313E+07-1.19167E+04-7.23434E+08-3.13317E+08-3.34321E+06
 -1      2231 3.31047E+09 9.54313E+07-1.19167E+04-7.23434E+08-3.13317E+08-3.34321E+06
 -1      2232 1.85173E+09 9.93432E+07 7.10025E+05-9.41990E+08-2.63932E+08-5.04515E+06
 -1      2234 1.85173E+09 9.93432E+07 7.10025E+05-9.41990E+08-2.63932E+08-5.04515E+06
 -1      2235 1.70941E+08 8.91873E+07 4.29410E+04-9.72772E+08-1.91505E+08-5.87077E+06
 -1      2237 1.70941E+08 8.91873E+07 4.29410E+04-9.72772E+08-1.91505E+08-5.87077E+06
 -1      2238-1.40902E+09 7.39152E+07 4.16890E+05-8.19229E+08-1.11397E+08-5.90443E+06
 -1      2240-1.40902E+09 7.39152E+07 4.16890E+05-8.19229E+08-1.11397E+08-5.90443E+06
 -1      2241-2.60336E+09 4.61869E+07-3.28741E+04-5.21864E+08-2.12936E+07-5.72214E+06
 -1      2243-2.60336E+09 4.61869E+07-3.28741E+04-5.21864E+08-2.12936E+07-5.72214E+06
 -1      2244-3.22122E+09 8.64079E+06 5.86393E+04-1.50330E+08 6.59733E+07-4.78716E+06
 -1      2246-3.22122E+09 8.64079E+06 5.86393E+04-1.50330E+08 6.59733E+07-4.78716E+06
 -1      2247-3.20266E+09-3.71144E+07-2.46442E+05 2.13971E+08 1.49703E+08-3.85512E+06
 -1      2249-3.20266E+09-3.71144E+07-2.46442E+05 2.13971E+08 1.49703E+08-3.85512E+06
 -1      2250-2.62421E+09-8.64307E+07-3.08565E+05 4.93332E+08 2.20128E+08-2.62741E+06
 -1      2252-2.62421E+09-8.64307E+07-3.08565E+05 4.93332E+08 2.20128E+08-2.62741E+06
 -1      2253-1.67808E+09-1.33066E+08-4.97612E+05 6.32426E+08 2.76330E+08-1.60810E+06
 -1      2255-1.67808E+09-1.33066E+08-4.97612E+05 6.32426E+08 2.76330E+08-1.60810E+06
 -1      2256-6.23719E+08-1.70681E+08-5.80638E+05 6.08416E+08 3.11998E+08-6.46445E+05
 -1      2258-6.23719E+08-1.70681E+08-5.80638E+05 6.08416E+08 3.11998E+08-6.46445E+05
 -1      2259 2.71713E+08-1.93078E+08-6.43499E+05 4.36432E+08 3.27739E+08 5.66720E+04
 -1      2261 2.71713E+08-1.93078E+08-6.43499E+05 4.36432E+08 3.27739E+08 5.66720E+04
 -1      2262 7.95283E+08-1.96313E+08-6.47265E+05 1.64597E+08 3.20610E+08 6.13778E+05
 -1      2264 7.95283E+08-1.96313E+08-6.47265E+05 1.64597E+08 3.20610E+08 6.13778E+05
 -1      2265 8.35026E+08-1.78699E+08-5.80872E+05-1.36950E+08 2.93514E+08 1.05906E+06
 -1      2267 8.35026E+08-1.78699E+08-5.80872E+05-1.36950E+08 2.93514E+08 1.05906E+06
 -1      2268 4.03922E+08-1.41785E+08-4.67294E+05-3.92850E+08 2.46285E+08 1.45042E+06
 -1      2270 4.03922E+08-1.41785E+08-4.67294E+05-3.92850E+08 2.46285E+08 1.45042E+06
 -1      2271-3.66368E+08-9.00285E+07-3.10903E+05-5.39991E+08 1.84267E+08 1.89914E+06
 -1      2273-3.66368E+08-9.00285E+07-3.10903E+05-5.39991E+08 1.84267E+08 1.89914E+06
 -1      2274-1.25941E+09-2.94057E+07-1.09845E+05-5.42633E+08 1.09108E+08 2.40194E+06
 -1      2276-1.25941E+09-2.94057E+07-1.09845E+05-5.42633E+08 1.09108E+08 2.40194E+06
 -1      2277-2.02853E+09 3.12559E+07 6.01126E+04-4.01353E+08 2.83754E+07 2.81186E+06
 -1      2279-2.02853E+09 3.12559E+07 6.01126E+04-4.01353E+08 2.83754E+07 2.81186E+06
 -1      2280-2.46104E+09 8.72310E+07 2.70451E+05-1.54716E+08-5.57149E+07 3.57973E+06
 -1      2282-2.46104E+09 8.72310E+07 2.70451E+05-1.54716E+08-5.57149E+07 3.57973E+06
 -1      2283-2.43608E+09 1.27535E+08 3.94460E+05 1.28581E+08-1.34027E+08 2.98253E+06
 -1      2285-2.43608E+09 1.27535E+08 3.94460E+05 1.28581E+08-1.34027E+08 2.98253E+06
 -1      2286-1.96742E+09 1.56240E+08 4.95424E+05 3.59663E+08-2.04824E+08 4.91155E+06
 -1      2288-1.96742E+09 1.56240E+08 4.95424E+05 3.59663E+08-2.04824E+08 4.91155E+06
 -1      2289-1.22205E+09 1.61872E+08 6.35208E+05 4.51756E+08-2.59788E+08-2.13326E+05
 -1      2291-1.22205E+09 1.61872E+08 6.35208E+05 4.51756E+08-2.59788E+08-2.13326E+05
 -1      2292-5.01842E+08 1.51283E+08 4.07631E+05 3.21111E+08-2.94456E+08 8.47300E+06
 -1      2294-5.01842E+08 1.51283E+08 4.07631E+05 3.21111E+08-2.94456E+08 8.47300E+06
 -3
    1PSTEP                        75           1           1          
    1PGM                1.000000E+00                                  
    1PGK                1.666853E+07                                  
    1PHID                         -1                                  
    1PSUBC                         0                                  
    1PMODE                        19                                  
  100CL  119 649.7837111         930                     2   19MODAL      1
 -4  FORC        4    1
 -5  F1          1    2    1    0
 -5  F2          1    2    2    0
 -5  F3          1    2    3    0
 -5  ALL         1    2    0    0    1ALL
 -1       404 7.55198E+04-8.50591E+05-1.27077E+06
 -1       406 3.75780E+06-2.42264E+05-1.27077E+06
 -1       407-9.51105E+03 4.85033E+04 1.55465E+05
 -1       409-9.51105E+03 4.85033E+04 1.55465E+05
 -1       410-6.20657E-08-2.49088E+06-1.60023E-06
 -1       412-1.64206E-07 2.36774E+06-1.89692E-06
 -1       413 2.89823E-07 1.59562E+05-3.81345E+06
 -1       415 2.34078E-07 1.59562E+05 3.81345E+06
 -1       424-1.95033E-06 5.21018E+04-1.89778E-06
 -1       426-2.11745E-06-2.67382E+05-1.35556E-06
 -1       427 2.03602E+05-2.10862E+06 6.00343E+05
 -1       429-2.03602E+05-2.10862E+06-6.00343E+05
 -1       438 9.51105E+03 4.85033E+04-1.55465E+05
 -1       440 9.51105E+03 4.85033E+04-1.55465E+05
 -1       441-7.55198E+04-8.50591E+05 1.27077E+06
 -1       443-3.75780E+06-2.42264E+05 1.27077E+06
 -1       444 2.03602E+05-2.10862E+06-6.00343E+05
 -1       446-2.03602E+05-2.10862E+06 6.00343E+05
 -1       447 1.56037E-06 5.21018E+04 5.54357E-07
 -1       449-1.87210E-07-2.67382E+05 5.99435E-07
 -1       458 4.09991E-07 1.59562E+05 3.81345E+06
 -1       460 1.87121E-07 1.59562E+05-3.81345E+06
 -1       461-3.22429E-07-2.49088E+06 5.31692E-07
 -1       463-1.65392E-07 2.36774E+06 5.93171E-07
 -1       472-7.55198E+04-8.50591E+05-1.27077E+06
 -1       474-3.75780E+06-2.42264E+05-1.27077E+06
 -1       475 9.51105E+03 4.85033E+04 1.55465E+05
 -1       477 9.51105E+03 4.85033E+04 1.55465E+05
 -1       478-9.51105E+03 4.85033E+04-1.55465E+05
 -1       480-9.51105E+03 4.85033E+04-1.55465E+05
 -1       481 7.55198E+04-8.50591E+05 1.27077E+06
 -1       483 3.75780E+06-2.42264E+05 1.27077E+06
 -1       484-7.02322E+03 1.28005E+04 7.29546E+04
 -1       486-7.02322E+03 1.28005E+04 7.29546E+04
 -1       487-1.14252E+04 3.04564E+04 1.50971E+05
 -1       489-1.14252E+04 3.04564E+04 1.50971E+05
 -1       490-1.23936E+04 5.16286E+04 2.20123E+05
 -1       492-1.23936E+04 5.16286E+04 2.20123E+05
 -1       493-1.02733E+04 7.14303E+04 2.73680E+05
 -1       495-1.02733E+04 7.14303E+04 2.73680E+05
 -1       496-5.77168E+03 8.53908E+04 3.09673E+05
 -1       498-5.77168E+03 8.53908E+04 3.09673E+05
 -1       499 1.35165E+02 9.04862E+04 3.25104E+05
 -1       501 1.35165E+02 9.04862E+04 3.25104E+05
 -1       502 6.32048E+03 8.53983E+04 3.19304E+05
 -1       504 6.32048E+03 8.53983E+04 3.19304E+05
 -1       505 1.16789E+04 7.06601E+04 2.92413E+05
 -1       507 1.16789E+04 7.06601E+04 2.92413E+05
 -1       508 1.53211E+04 4.84795E+04 2.46159E+05
 -1       510 1.53211E+04 4.84795E+04 2.46159E+05
 -1       511 1.67197E+04 2.22350E+04 1.83404E+05
 -1       513 1.67197E+04 2.22350E+04 1.83404E+05
 -1       514 1.57922E+04-4.19925E+03 1.08183E+05
 -1       516 1.57922E+04-4.19925E+03 1.08183E+05
 -1       517 1.28921E+04-2.72105E+04 2.53971E+04
 -1       519 1.28921E+04-2.72105E+04 2.53971E+04
 -1       520 8.71267E+03-4.41040E+04-5.94284E+04
 -1       522 8.71267E+03-4.41040E+04-5.94284E+04
 -1       523 4.12640E+03-5.35425E+04-1.40514E+05
 -1       525 4.12640E+03-5.35425E+04-1.40514E+05
 -1       526-8.29131E+00-5.56787E+04-2.12210E+05
 -1       528-8.29131E+00-5.56787E+04-2.12210E+05
 -1       529-3.02775E+03-5.19666E+04-2.69414E+05
 -1       531-3.02775E+03-5.19666E+04-2.69414E+05
 -1       532-4.59469E+03-4.47042E+04-3.07966E+05
 -1       534-4.59469E+03-4.47042E+04-3.07966E+05
 -1       535-4.75158E+03-3.64179E+04-3.24997E+05
 -1       537-4.75158E+03-3.64179E+04-3.24997E+05
 -1       538-3.88683E+03-2.92327E+04-3.19180E+05
 -1       540-3.88683E+03-2.92327E+04-3.19180E+05
 -1       541-2.62262E+03-2.43705E+04-2.90873E+05
 -1       543-2.62262E+03-2.43705E+04-2.90873E+05
 -1       544-1.65191E+03-2.18894E+04-2.42108E+05
 -1       546-1.65191E+03-2.18894E+04-2.42108E+05
 -1       547-1.56260E+03-2.07179E+04-1.76452E+05
 -1       549-1.56260E+03-2.07179E+04-1.76452E+05
 -1       550-2.69077E+03-1.89711E+04-9.87211E+04
 -1       552-2.69077E+03-1.89711E+04-9.87211E+04
 -1       553-5.03752E+03-1.44689E+04-1.46022E+04
 -1       555-5.03752E+03-1.44689E+04-1.46022E+04
 -1       556-8.27138E+03-5.32645E+03 6.98160E+04
 -1       558-8.27138E+03-5.32645E+03 6.98160E+04
 -1       559-1.18181E+04 9.52828E+03 1.48485E+05
 -1       561-1.18181E+04 9.52828E+03 1.48485E+05
 -1       562-1.50248E+04 3.00556E+04 2.15925E+05
 -1       564-1.50248E+04 3.00556E+04 2.15925E+05
 -1       565-1.73629E+04 5.51053E+04 2.67464E+05
 -1       567-1.73629E+04 5.51053E+04 2.67464E+05
 -1       568-1.86426E+04 8.27795E+04 2.99824E+05
 -1       570-1.86426E+04 8.27795E+04 2.99824E+05
 -1       571-1.26682E+04 9.69621E+04 2.04479E+05
 -1       573-1.26682E+04 9.69621E+04 2.04479E+05
 -1       574 3.78444E-07-1.48089E+05 2.34484E-08
 -1       576 3.08464E-07 9.33198E+05 1.21847E-06
 -1       577 4.15716E-06-3.75911E+05-8.48685E+05
 -1       579 4.19675E-06-3.75911E+05 8.48685E+05
 -1       588-1.82344E-06-2.90702E+06 3.21993E-06
 -1       590-1.83521E-06 2.26164E+06 4.36709E-06
 -1       591 4.28815E-06 3.74355E+05-4.05680E+06
 -1       593 4.17666E-06 3.74355E+05 4.05680E+06
 -1       602-3.80944E-06-3.72298E+06 1.85033E-06
 -1       604-3.75821E-06 3.90178E+06 1.68276E-06
 -1       605 3.68559E-06 1.33296E+04-5.98455E+06
 -1       607 3.61351E-06 1.33296E+04 5.98455E+06
 -1       616-3.25030E-06-4.78420E+06 1.03463E-06
 -1       618-3.18942E-06 4.66683E+06-2.48144E-06
 -1       619 4.40486E-06 2.12282E+05-7.41797E+06
 -1       621 4.59736E-06 2.12282E+05 7.41797E+06
 -1       630-3.37080E-06-5.35230E+06-1.13784E-06
 -1       632-3.39558E-06 5.49788E+06-4.55042E-06
 -1       633 4.58123E-06 1.17236E+05-8.51613E+06
 -1       635 4.79953E-06 1.17236E+05 8.51613E+06
 -1       644-3.09483E-06-5.60756E+06-2.73692E-07
 -1       646-3.08403E-06 5.68715E+06-2.94908E-06
 -1       647 4.21094E-06 1.62494E+05-8.86504E+06
 -1       649 4.18490E-06 1.62494E+05 8.86504E+06
 -1       658-2.38355E-06-5.53142E+06 5.30183E-06
 -1       660-2.25823E-06 5.57203E+06 3.54120E-06
 -1       661 2.76746E-06 1.65689E+05-8.71492E+06
 -1       663 2.75425E-06 1.65689E+05 8.71492E+06
 -1       672-1.61161E-06-5.07408E+06 6.33899E-06
 -1       674-1.44726E-06 4.97830E+06 6.32676E-06
 -1       675 1.58998E-06 1.91096E+05-7.88995E+06
 -1       677 1.66951E-06 1.91096E+05 7.88995E+06
 -1       686-1.66750E-06-4.32663E+06 2.18187E-06
 -1       688-1.56430E-06 4.05261E+06 4.17103E-07
 -1       689 2.79939E-06 2.18271E+05-6.57672E+06
 -1       691 2.85423E-06 2.18271E+05 6.57672E+06
 -1       700-3.37318E-06-3.26953E+06 9.25989E-07
 -1       702-3.36610E-06 2.84386E+06-3.59628E-07
 -1       703 4.77352E-06 2.24197E+05-4.79830E+06
 -1       705 4.52088E-06 2.24197E+05 4.79830E+06
 -1       714-4.30728E-06-2.01349E+06 3.33022E-06
 -1       716-4.37546E-06 1.47742E+06 3.08648E-06
 -1       717 3.82697E-06 2.13990E+05-2.73996E+06
 -1       719 3.69947E-06 2.13990E+05 2.73996E+06
 -1       728-2.41490E-06-5.96043E+05 5.27407E-06
 -1       730-2.58255E-06 6.60884E+04 3.84043E-06
 -1       731 1.15461E-06 1.61161E+05-5.19696E+05
 -1       733 1.11045E-06 1.61161E+05 5.19696E+05
 -1       742 1.91599E-06 8.63110E+05 3.88643E-06
 -1       744 1.80471E-06-1.27997E+06 4.65112E-06
 -1       745-1.05535E-06 7.79716E+04 1.68207E+06
 -1       747-1.07963E-06 7.79716E+04-1.68207E+06
 -1       756 3.08097E-06 2.28745E+06 2.07449E-06
 -1       758 2.99700E-06-2.46610E+06 2.17467E-06
 -1       759-2.98410E-06-4.22064E+04 3.73099E+06
 -1       761-2.76203E-06-4.22064E+04-3.73099E+06
 -1       770 1.31884E-06 3.56027E+06 2.44148E-06
 -1       772 1.23918E-06-3.42589E+06 1.84423E-06
 -1       773-3.99742E-06-1.77190E+05 5.48333E+06
 -1       775-3.73205E-06-1.77190E+05-5.48333E+06
 -1       784 2.40873E-06 4.59922E+06 4.23816E-06
 -1       786 2.39223E-06-4.11603E+06 3.31079E-06
 -1       787-2.33589E-06-3.14936E+05 6.84046E+06
 -1       789-2.41385E-06-3.14936E+05-6.84046E+06
 -1       798 3.14674E-06 5.31498E+06 1.28744E-06
 -1       800 3.21431E-06-4.52077E+06 2.36445E-06
 -1       801-6.04839E-07-4.28821E+05 7.71992E+06
 -1       803-5.24375E-07-4.28821E+05-7.71992E+06
 -1       812 2.15325E-07 5.65663E+06-3.30022E-06
 -1       814 2.07106E-07-4.64196E+06-1.41242E-06
 -1       815 7.86840E-07-5.02906E+05 8.08319E+06
 -1       817 9.28114E-07-5.02906E+05-8.08319E+06
 -1       826-1.17970E-06 5.58870E+06-1.05620E-06
 -1       828-1.22119E-06-4.49565E+06-1.08386E-06
 -1       829 3.30477E-06-5.19761E+05 7.91504E+06
 -1       831 3.38944E-06-5.19761E+05-7.91504E+06
 -1       840-3.49006E-07 5.11917E+06 4.24006E-06
 -1       842-2.66002E-07-4.10494E+06 3.46245E-06
 -1       843 3.68504E-06-4.76119E+05 7.23985E+06
 -1       845 3.95753E-06-4.76119E+05-7.23985E+06
 -1       854-2.60463E-07 4.27856E+06 1.42587E-06
 -1       856-1.99112E-07-3.49517E+06 1.95646E-06
 -1       857 1.79865E-06-3.73914E+05 6.10147E+06
 -1       859 2.20142E-06-3.73914E+05-6.10147E+06
 -1       868-1.97396E-06 3.13864E+06-1.72643E-06
 -1       870-1.83892E-06-2.69605E+06-1.81353E-06
 -1       871 1.71114E-07-2.28757E+05 4.57955E+06
 -1       873 4.81448E-07-2.28757E+05-4.57955E+06
 -1       882-3.90749E-06 1.78316E+06-1.78827E-06
 -1       884-3.72283E-06-1.73602E+06 2.30050E-06
 -1       885-5.63876E-07-5.93550E+04 2.76215E+06
 -1       887-4.33485E-07-5.93550E+04-2.76215E+06
 -1       896-1.25829E-06 3.27722E+05 1.86425E-06
 -1       898-1.13007E-06-6.58522E+05 2.82077E-06
 -1       899-1.04449E-06 1.08561E+05 7.74087E+05
 -1       901-7.92649E-07 1.08561E+05-7.74087E+05
 -1       910 8.05338E-07-1.12526E+06 2.03734E-06
 -1       912 7.37777E-07 4.97443E+05 2.58179E-06
 -1       913-1.70109E-06 2.52712E+05-1.27363E+06
 -1       915-1.17871E-06 2.52712E+05 1.27363E+06
 -1       924 1.57086E-06-2.45105E+06 6.39599E-07
 -1       926 1.48490E-06 1.65449E+06 2.68010E-06
 -1       927-2.28452E-06 3.55830E+05-3.22237E+06
 -1       929-2.11950E-06 3.55830E+05 3.22237E+06
 -1       938 1.02824E-06-3.56569E+06 1.62734E-06
 -1       940 1.04617E-06 2.76692E+06 1.57035E-06
 -1       941-1.47038E-06 4.00797E+05-4.97036E+06
 -1       943-1.53183E-06 4.00797E+05 4.97036E+06
 -1       952-2.03148E-07-4.37658E+06-8.94243E-07
 -1       954-1.72306E-07 3.70802E+06 2.17033E-06
 -1       955-1.91246E-06 4.02200E+05-6.34548E+06
 -1       957-2.11612E-06 4.02200E+05 6.34548E+06
 -1       966-5.30088E-07-4.79787E+06-1.99942E-06
 -1       968-6.62354E-07 4.44817E+06-1.23564E-06
 -1       969-6.63513E-07 3.25980E+05-7.25706E+06
 -1       971-8.83763E-07 3.25980E+05 7.25706E+06
 -1       980 1.68585E+05-6.79329E+05 1.97831E+04
 -1       982 3.59835E+06-2.30744E+05 1.97831E+04
 -1       983 1.26682E+04 9.69621E+04-2.04479E+05
 -1       985 1.26682E+04 9.69621E+04-2.04479E+05
 -1       986 7.02322E+03 1.28005E+04-7.29546E+04
 -1       988 7.02322E+03 1.28005E+04-7.29546E+04
 -1       989 1.14252E+04 3.04564E+04-1.50971E+05
 -1       991 1.14252E+04 3.04564E+04-1.50971E+05
 -1       992 1.23936E+04 5.16286E+04-2.20123E+05
 -1       994 1.23936E+04 5.16286E+04-2.20123E+05
 -1       995 1.02733E+04 7.14303E+04-2.73680E+05
 -1       997 1.02733E+04 7.14303E+04-2.73680E+05
 -1       998 5.77168E+03 8.53908E+04-3.09673E+05
 -1      1000 5.77168E+03 8.53908E+04-3.09673E+05
 -1      1001-1.35165E+02 9.04862E+04-3.25104E+05
 -1      1003-1.35165E+02 9.04862E+04-3.25104E+05
 -1      1004-6.32048E+03 8.53983E+04-3.19304E+05
 -1      1006-6.32048E+03 8.53983E+04-3.19304E+05
 -1      1007-1.16789E+04 7.06601E+04-2.92413E+05
 -1      1009-1.16789E+04 7.06601E+04-2.92413E+05
 -1      1010-1.53211E+04 4.84795E+04-2.46159E+05
 -1      1012-1.53211E+04 4.84795E+04-2.46159E+05
 -1      1013-1.67197E+04 2.22350E+04-1.83404E+05
 -1      1015-1.67197E+04 2.22350E+04-1.83404E+05
 -1      1016-1.57922E+04-4.19925E+03-1.08183E+05
 -1      1018-1.57922E+04-4.19925E+03-1.08183E+05
 -1      1019-1.28921E+04-2.72105E+04-2.53971E+04
 -1      1021-1.28921E+04-2.72105E+04-2.53971E+04
 -1      1022-8.71267E+03-4.41040E+04 5.94284E+04
 -1      1024-8.71267E+03-4.41040E+04 5.94284E+04
 -1      1025-4.12640E+03-5.35425E+04 1.40514E+05
 -1      1027-4.12640E+03-5.35425E+04 1.40514E+05
 -1      1028 8.29131E+00-5.56787E+04 2.12210E+05
 -1      1030 8.29131E+00-5.56787E+04 2.12210E+05
 -1      1031 3.02775E+03-5.19666E+04 2.69414E+05
 -1      1033 3.02775E+03-5.19666E+04 2.69414E+05
 -1      1034 4.59469E+03-4.47042E+04 3.07966E+05
 -1      1036 4.59469E+03-4.47042E+04 3.07966E+05
 -1      1037 4.75158E+03-3.64179E+04 3.24997E+05
 -1      1039 4.75158E+03-3.64179E+04 3.24997E+05
 -1      1040 3.88683E+03-2.92327E+04 3.19180E+05
 -1      1042 3.88683E+03-2.92327E+04 3.19180E+05
 -1      1043 2.62262E+03-2.43705E+04 2.90873E+05
 -1      1045 2.62262E+03-2.43705E+04 2.90873E+05
 -1      1046 1.65191E+03-2.18894E+04 2.42108E+05
 -1      1048 1.65191E+03-2.18894E+04 2.42108E+05
 -1      1049 1.56260E+03-2.07179E+04 1.76452E+05
 -1      1051 1.56260E+03-2.07179E+04 1.76452E+05
 -1      1052 2.69077E+03-1.89711E+04 9.87211E+04
 -1      1054 2.69077E+03-1.89711E+04 9.87211E+04
 -1      1055 5.03752E+03-1.44689E+04 1.46022E+04
 -1      1057 5.03752E+03-1.44689E+04 1.46022E+04
 -1      1058 8.27138E+03-5.32645E+03-6.98160E+04
 -1      1060 8.27138E+03-5.32645E+03-6.98160E+04
 -1      1061 1.18181E+04 9.52828E+03-1.48485E+05
 -1      1063 1.18181E+04 9.52828E+03-1.48485E+05
 -1      1064 1.50248E+04 3.00556E+04-2.15925E+05
 -1      1066 1.50248E+04 3.00556E+04-2.15925E+05
 -1      1067 1.73629E+04 5.51053E+04-2.67464E+05
 -1      1069 1.73629E+04 5.51053E+04-2.67464E+05
 -1      1070 1.86426E+04 8.27795E+04-2.99824E+05
 -1      1072 1.86426E+04 8.27795E+04-2.99824E+05
 -1      1073-1.68585E+05-6.79329E+05-1.97831E+04
 -1      1075-3.59835E+06-2.30744E+05-1.97831E+04
 -1      1076 1.96220E+06 2.31437E+06 2.64568E+04
 -1      1078-1.96220E+06 2.31437E+06-2.64568E+04
 -1      1079 3.51719E+06 1.55881E+05 2.46387E-06
 -1      1081-3.51719E+06 1.55881E+05-4.15046E-07
 -1      1082 1.96220E+06 2.31437E+06-2.64568E+04
 -1      1084-1.96220E+06 2.31437E+06 2.64568E+04
 -1      1085-2.15441E-08-3.75911E+05 8.48685E+05
 -1      1087 2.31747E-07-3.75911E+05-8.48685E+05
 -1      1088 3.18953E-06-1.48089E+05-8.51780E-07
 -1      1090 3.12227E-06 9.33198E+05-6.02480E-07
 -1      1099-2.13580E-06 3.74355E+05 4.05680E+06
 -1      1101-1.94782E-06 3.74355E+05-4.05680E+06
 -1      1102 3.45738E-06-2.90702E+06 1.66582E-07
 -1      1104 3.45305E-06 2.26164E+06-3.72172E-07
 -1      1113-3.79216E-06 1.33296E+04 5.98455E+06
 -1      1115-3.63368E-06 1.33296E+04-5.98455E+06
 -1      1116 2.00165E-06-3.72298E+06 1.78849E-06
 -1      1118 2.09179E-06 3.90178E+06-1.52550E-08
 -1      1127-4.03398E-06 2.12282E+05 7.41797E+06
 -1      1129-3.87498E-06 2.12282E+05-7.41797E+06
 -1      1130 2.39872E-06-4.78420E+06-1.88139E-06
 -1      1132 2.30722E-06 4.66683E+06-2.25357E-06
 -1      1141-3.35528E-06 1.17236E+05 8.51613E+06
 -1      1143-3.35220E-06 1.17236E+05-8.51613E+06
 -1      1144 1.36821E-06-5.35230E+06-2.73655E-06
 -1      1146 1.21949E-06 5.49788E+06 7.12992E-07
 -1      1155-2.99256E-07 1.62494E+05 8.86504E+06
 -1      1157-2.96168E-07 1.62494E+05-8.86504E+06
 -1      1158-9.01629E-07-5.60756E+06 8.64918E-07
 -1      1160-9.94136E-07 5.68715E+06 5.02602E-06
 -1      1169 2.35085E-06 1.65689E+05 8.71492E+06
 -1      1171 2.21088E-06 1.65689E+05-8.71492E+06
 -1      1172-2.40421E-06-5.53142E+06-1.89539E-06
 -1      1174-2.52991E-06 5.57203E+06 2.75919E-06
 -1      1183 1.07948E-06 1.91096E+05 7.88995E+06
 -1      1185 1.22205E-06 1.91096E+05-7.88995E+06
 -1      1186-2.96467E-06-5.07408E+06-6.54594E-06
 -1      1188-3.06128E-06 4.97830E+06-2.20349E-06
 -1      1197-8.49897E-07 2.18271E+05 6.57672E+06
 -1      1199-8.70930E-07 2.18271E+05-6.57672E+06
 -1      1200-7.30446E-07-4.32663E+06-2.73720E-06
 -1      1202-8.15236E-07 4.05261E+06-1.20486E-06
 -1      1211-1.09781E-07 2.24197E+05 4.79830E+06
 -1      1213-3.53166E-07 2.24197E+05-4.79830E+06
 -1      1214 3.11282E-06-3.26953E+06 1.00721E-06
 -1      1216 3.05794E-06 2.84386E+06 2.03862E-07
 -1      1225 2.15551E-07 2.13990E+05 2.73996E+06
 -1      1227 2.81795E-07 2.13990E+05-2.73996E+06
 -1      1228 2.81651E-06-2.01349E+06-1.75999E-06
 -1      1230 2.69277E-06 1.47742E+06-2.13073E-06
 -1      1239-1.87280E-07 1.61161E+05 5.19696E+05
 -1      1241-1.63264E-07 1.61161E+05-5.19696E+05
 -1      1242-4.97495E-07-5.96043E+05-4.42791E-06
 -1      1244-6.77339E-07 6.60884E+04-4.49393E-06
 -1      1253 4.34407E-07 7.79716E+04-1.68207E+06
 -1      1255 2.19266E-07 7.79716E+04 1.68207E+06
 -1      1256-1.47730E-06 8.63110E+05-5.65633E-06
 -1      1258-1.61198E-06-1.27997E+06-5.82304E-06
 -1      1267 7.35086E-07-4.22064E+04-3.73099E+06
 -1      1269 7.25799E-07-4.22064E+04 3.73099E+06
 -1      1270-1.34093E-06 2.28745E+06-4.97546E-06
 -1      1272-1.52023E-06-2.46610E+06-4.70738E-06
 -1      1281 4.61921E-07-1.77190E+05-5.48333E+06
 -1      1283 6.94261E-07-1.77190E+05 5.48333E+06
 -1      1284-1.33819E-06 3.56027E+06-2.59372E-06
 -1      1286-1.34507E-06-3.42589E+06-2.79910E-06
 -1      1295-9.81381E-07-3.14936E+05-6.84046E+06
 -1      1297-9.95395E-07-3.14936E+05 6.84046E+06
 -1      1298-2.86094E-07 4.59922E+06-4.19310E-06
 -1      1300-5.20402E-07-4.11603E+06-4.66354E-06
 -1      1309-3.07106E-06-4.28821E+05-7.71992E+06
 -1      1311-3.04679E-06-4.28821E+05 7.71992E+06
 -1      1312 1.70383E-06 5.31498E+06-5.41113E-06
 -1      1314 1.42989E-06-4.52077E+06-6.22673E-06
 -1      1323-3.70963E-06-5.02906E+05-8.08319E+06
 -1      1325-3.56460E-06-5.02906E+05 8.08319E+06
 -1      1326 2.41488E-06 5.65663E+06-3.15002E-06
 -1      1328 2.33598E-06-4.64196E+06-1.75851E-06
 -1      1337-3.34907E-06-5.19761E+05-7.91504E+06
 -1      1339-3.44317E-06-5.19761E+05 7.91504E+06
 -1      1340 9.04638E-07 5.58870E+06-1.81891E-06
 -1      1342 8.39045E-07-4.49565E+06-8.72615E-07
 -1      1351-1.98177E-06-4.76119E+05-7.23985E+06
 -1      1353-2.20021E-06-4.76119E+05 7.23985E+06
 -1      1354 1.20574E-06 5.11917E+06-5.41154E-07
 -1      1356 1.15215E-06-4.10494E+06-4.53150E-07
 -1      1365 4.50909E-07-3.73914E+05-6.10147E+06
 -1      1367 2.25467E-07-3.73914E+05 6.10147E+06
 -1      1368 1.16643E-06 4.27856E+06 2.62583E-06
 -1      1370 1.20739E-06-3.49517E+06 4.18342E-06
 -1      1379 1.38015E-06-2.28757E+05-4.57955E+06
 -1      1381 1.02454E-06-2.28757E+05 4.57955E+06
 -1      1382-1.44267E-06 3.13864E+06 3.82602E-06
 -1      1384-1.41768E-06-2.69605E+06 4.21036E-06
 -1      1393 4.64926E-07-5.93550E+04-2.76215E+06
 -1      1395 2.23514E-07-5.93550E+04 2.76215E+06
 -1      1396-1.62866E-06 1.78316E+06-2.23497E-06
 -1      1398-1.55118E-06-1.73602E+06-4.09289E-07
 -1      1407-7.48978E-07 1.08561E+05-7.74087E+05
 -1      1409-7.90027E-07 1.08561E+05 7.74087E+05
 -1      1410 5.17845E-07 3.27722E+05-4.55000E-06
 -1      1412 6.44708E-07-6.58522E+05-3.48336E-06
 -1      1421-1.13705E-06 2.52712E+05 1.27363E+06
 -1      1423-1.08855E-06 2.52712E+05-1.27363E+06
 -1      1424-5.41158E-08-1.12526E+06 2.32170E-07
 -1      1426 1.60917E-08 4.97443E+05 9.16850E-07
 -1      1435 1.24037E-07 3.55830E+05 3.22237E+06
 -1      1437 1.51631E-08 3.55830E+05-3.22237E+06
 -1      1438-2.76273E-06-2.45105E+06 1.99467E-06
 -1      1440-2.80871E-06 1.65449E+06 3.32865E-06
 -1      1449 1.36324E-06 4.00797E+05 4.97036E+06
 -1      1451 1.35326E-06 4.00797E+05-4.97036E+06
 -1      1452-3.54941E-06-3.56569E+06 2.41520E-07
 -1      1454-3.46059E-06 2.76692E+06 1.46027E-07
 -1      1463 8.64184E-07 4.02200E+05 6.34548E+06
 -1      1465 1.25116E-06 4.02200E+05-6.34548E+06
 -1      1466-2.23969E-06-4.37658E+06-5.99368E-07
 -1      1468-2.09444E-06 3.70802E+06 1.80797E-07
 -1      1477 5.82018E-07 3.25980E+05 7.25706E+06
 -1      1479 6.65830E-07 3.25980E+05-7.25706E+06
 -1      1480-1.01738E-06-4.79787E+06 6.03590E-07
 -1      1482-8.75943E-07 4.44817E+06 1.14893E-06
 -1      1491-7.30968E-07-7.37915E+04-2.95679E-07
 -1      1493-5.19272E-07-7.37915E+04-8.90098E-07
 -1      1494 1.18418E-06-1.49741E+05 3.59198E-08
 -1      1496 1.29076E-06-1.49741E+05-2.81014E-07
 -1      1497 1.37479E-06-7.37915E+04-2.23135E-07
 -1      1499 1.09921E-06-7.37915E+04 1.50361E-07
 -1      1500 7.02322E+03 1.28005E+04 7.29546E+04
 -1      1502 7.02322E+03 1.28005E+04 7.29546E+04
 -1      1503 1.14252E+04 3.04564E+04 1.50971E+05
 -1      1505 1.14252E+04 3.04564E+04 1.50971E+05
 -1      1506 1.23936E+04 5.16286E+04 2.20123E+05
 -1      1508 1.23936E+04 5.16286E+04 2.20123E+05
 -1      1509 1.02733E+04 7.14303E+04 2.73680E+05
 -1      1511 1.02733E+04 7.14303E+04 2.73680E+05
 -1      1512 5.77168E+03 8.53908E+04 3.09673E+05
 -1      1514 5.77168E+03 8.53908E+04 3.09673E+05
 -1      1515-1.35165E+02 9.04862E+04 3.25104E+05
 -1      1517-1.35165E+02 9.04862E+04 3.25104E+05
 -1      1518-6.32048E+03 8.53983E+04 3.19304E+05
 -1      1520-6.32048E+03 8.53983E+04 3.19304E+05
 -1      1521-1.16789E+04 7.06601E+04 2.92413E+05
 -1      1523-1.16789E+04 7.06601E+04 2.92413E+05
 -1      1524-1.53211E+04 4.84795E+04 2.46159E+05
 -1      1526-1.53211E+04 4.84795E+04 2.46159E+05
 -1      1527-1.67197E+04 2.22350E+04 1.83404E+05
 -1      1529-1.67197E+04 2.22350E+04 1.83404E+05
 -1      1530-1.57922E+04-4.19925E+03 1.08183E+05
 -1      1532-1.57922E+04-4.19925E+03 1.08183E+05
 -1      1533-1.28921E+04-2.72105E+04 2.53971E+04
 -1      1535-1.28921E+04-2.72105E+04 2.53971E+04
 -1      1536-8.71267E+03-4.41040E+04-5.94284E+04
 -1      1538-8.71267E+03-4.41040E+04-5.94284E+04
 -1      1539-4.12640E+03-5.35425E+04-1.40514E+05
 -1      1541-4.12640E+03-5.35425E+04-1.40514E+05
 -1      1542 8.29131E+00-5.56787E+04-2.12210E+05
 -1      1544 8.29131E+00-5.56787E+04-2.12210E+05
 -1      1545 3.02775E+03-5.19666E+04-2.69414E+05
 -1      1547 3.02775E+03-5.19666E+04-2.69414E+05
 -1      1548 4.59469E+03-4.47042E+04-3.07966E+05
 -1      1550 4.59469E+03-4.47042E+04-3.07966E+05
 -1      1551 4.75158E+03-3.64179E+04-3.24997E+05
 -1      1553 4.75158E+03-3.64179E+04-3.24997E+05
 -1      1554 3.88683E+03-2.92327E+04-3.19180E+05
 -1      1556 3.88683E+03-2.92327E+04-3.19180E+05
 -1      1557 2.62262E+03-2.43705E+04-2.90873E+05
 -1      1559 2.62262E+03-2.43705E+04-2.90873E+05
 -1      1560 1.65191E+03-2.18894E+04-2.42108E+05
 -1      1562 1.65191E+03-2.18894E+04-2.42108E+05
 -1      1563 1.56260E+03-2.07179E+04-1.76452E+05
 -1      1565 1.56260E+03-2.07179E+04-1.76452E+05
 -1      1566 2.69077E+03-1.89711E+04-9.87211E+04
 -1      1568 2.69077E+03-1.89711E+04-9.87211E+04
 -1      1569 5.03752E+03-1.44689E+04-1.46022E+04
 -1      1571 5.03752E+03-1.44689E+04-1.46022E+04
 -1      1572 8.27138E+03-5.32645E+03 6.98160E+04
 -1      1574 8.27138E+03-5.32645E+03 6.98160E+04
 -1      1575 1.18181E+04 9.52828E+03 1.48485E+05
 -1      1577 1.18181E+04 9.52828E+03 1.48485E+05
 -1      1578 1.50248E+04 3.00556E+04 2.15925E+05
 -1      1580 1.50248E+04 3.00556E+04 2.15925E+05
 -1      1581 1.73629E+04 5.51053E+04 2.67464E+05
 -1      1583 1.73629E+04 5.51053E+04 2.67464E+05
 -1      1584 1.86426E+04 8.27795E+04 2.99824E+05
 -1      1586 1.86426E+04 8.27795E+04 2.99824E+05
 -1      1587 1.26682E+04 9.69621E+04 2.04479E+05
 -1      1589 1.26682E+04 9.69621E+04 2.04479E+05
 -1      1590-1.68585E+05-6.79329E+05 1.97831E+04
 -1      1592-3.59835E+06-2.30744E+05 1.97831E+04
 -1      1593-1.26682E+04 9.69621E+04-2.04479E+05
 -1      1595-1.26682E+04 9.69621E+04-2.04479E+05
 -1      1596-7.02322E+03 1.28005E+04-7.29546E+04
 -1      1598-7.02322E+03 1.28005E+04-7.29546E+04
 -1      1599-1.14252E+04 3.04564E+04-1.50971E+05
 -1      1601-1.14252E+04 3.04564E+04-1.50971E+05
 -1      1602-1.23936E+04 5.16286E+04-2.20123E+05
 -1      1604-1.23936E+04 5.16286E+04-2.20123E+05
 -1      1605-1.02733E+04 7.14303E+04-2.73680E+05
 -1      1607-1.02733E+04 7.14303E+04-2.73680E+05
 -1      1608-5.77168E+03 8.53908E+04-3.09673E+05
 -1      1610-5.77168E+03 8.53908E+04-3.09673E+05
 -1      1611 1.35165E+02 9.04862E+04-3.25104E+05
 -1      1613 1.35165E+02 9.04862E+04-3.25104E+05
 -1      1614 6.32048E+03 8.53983E+04-3.19304E+05
 -1      1616 6.32048E+03 8.53983E+04-3.19304E+05
 -1      1617 1.16789E+04 7.06601E+04-2.92413E+05
 -1      1619 1.16789E+04 7.06601E+04-2.92413E+05
 -1      1620 1.53211E+04 4.84795E+04-2.46159E+05
 -1      1622 1.53211E+04 4.84795E+04-2.46159E+05
 -1      1623 1.67197E+04 2.22350E+04-1.83404E+05
 -1      1625 1.67197E+04 2.22350E+04-1.83404E+05
 -1      1626 1.57922E+04-4.19925E+03-1.08183E+05
 -1      1628 1.57922E+04-4.19925E+03-1.08183E+05
 -1      1629 1.28921E+04-2.72105E+04-2.53971E+04
 -1      1631 1.28921E+04-2.72105E+04-2.53971E+04
 -1      1632 8.71267E+03-4.41040E+04 5.94284E+04
 -1      1634 8.71267E+03-4.41040E+04 5.94284E+04
 -1      1635 4.12640E+03-5.35425E+04 1.40514E+05
 -1      1637 4.12640E+03-5.35425E+04 1.40514E+05
 -1      1638-8.29131E+00-5.56787E+04 2.12210E+05
 -1      1640-8.29131E+00-5.56787E+04 2.12210E+05
 -1      1641-3.02775E+03-5.19666E+04 2.69414E+05
 -1      1643-3.02775E+03-5.19666E+04 2.69414E+05
 -1      1644-4.59469E+03-4.47042E+04 3.07966E+05
 -1      1646-4.59469E+03-4.47042E+04 3.07966E+05
 -1      1647-4.75158E+03-3.64179E+04 3.24997E+05
 -1      1649-4.75158E+03-3.64179E+04 3.24997E+05
 -1      1650-3.88683E+03-2.92327E+04 3.19180E+05
 -1      1652-3.88683E+03-2.92327E+04 3.19180E+05
 -1      1653-2.62262E+03-2.43705E+04 2.90873E+05
 -1      1655-2.62262E+03-2.43705E+04 2.90873E+05
 -1      1656-1.65191E+03-2.18894E+04 2.42108E+05
 -1      1658-1.65191E+03-2.18894E+04 2.42108E+05
 -1      1659-1.56260E+03-2.07179E+04 1.76452E+05
 -1      1661-1.56260E+03-2.07179E+04 1.76452E+05
 -1      1662-2.69077E+03-1.89711E+04 9.87211E+04
 -1      1664-2.69077E+03-1.89711E+04 9.87211E+04
 -1      1665-5.03752E+03-1.44689E+04 1.46022E+04
 -1      1667-5.03752E+03-1.44689E+04 1.46022E+04
 -1      1668-8.27138E+03-5.32645E+03-6.98160E+04
 -1      1670-8.27138E+03-5.32645E+03-6.98160E+04
 -1      1671-1.18181E+04 9.52828E+03-1.48485E+05
 -1      1673-1.18181E+04 9.52828E+03-1.48485E+05
 -1      1674-1.50248E+04 3.00556E+04-2.15925E+05
 -1      1676-1.50248E+04 3.00556E+04-2.15925E+05
 -1      1677-1.73629E+04 5.51053E+04-2.67464E+05
 -1      1679-1.73629E+04 5.51053E+04-2.67464E+05
 -1      1680-1.86426E+04 8.27795E+04-2.99824E+05
 -1      1682-1.86426E+04 8.27795E+04-2.99824E+05
 -1      1683 1.68585E+05-6.79329E+05-1.97831E+04
 -1      1685 3.59835E+06-2.30744E+05-1.97831E+04
 -1      1686-9.16566E+03 2.51479E+04 9.51527E+04
 -1      1688-9.16566E+03 2.51479E+04 9.51527E+04
 -1      1689-1.50483E+04 6.05994E+04 1.97446E+05
 -1      1691-1.50483E+04 6.05994E+04 1.97446E+05
 -1      1692-1.63734E+04 1.03308E+05 2.88036E+05
 -1      1694-1.63734E+04 1.03308E+05 2.88036E+05
 -1      1695-1.35706E+04 1.43140E+05 3.58098E+05
 -1      1697-1.35706E+04 1.43140E+05 3.58098E+05
 -1      1698-7.62508E+03 1.71234E+05 4.05215E+05
 -1      1700-7.62508E+03 1.71234E+05 4.05215E+05
 -1      1701 1.95228E+02 1.81506E+05 4.25428E+05
 -1      1703 1.95228E+02 1.81506E+05 4.25428E+05
 -1      1704 8.38494E+03 1.71296E+05 4.17897E+05
 -1      1706 8.38494E+03 1.71296E+05 4.17897E+05
 -1      1707 1.54837E+04 1.41702E+05 3.82781E+05
 -1      1709 1.54837E+04 1.41702E+05 3.82781E+05
 -1      1710 2.03132E+04 9.71533E+04 3.22326E+05
 -1      1712 2.03132E+04 9.71533E+04 3.22326E+05
 -1      1713 2.21735E+04 4.44539E+04 2.40242E+05
 -1      1715 2.21735E+04 4.44539E+04 2.40242E+05
 -1      1716 2.09555E+04-8.60992E+03 1.41781E+05
 -1      1718 2.09555E+04-8.60992E+03 1.41781E+05
 -1      1719 1.71243E+04-5.47733E+04 3.33357E+04
 -1      1721 1.71243E+04-5.47733E+04 3.33357E+04
 -1      1722 1.15969E+04-8.86233E+04-7.78676E+04
 -1      1724 1.15969E+04-8.86233E+04-7.78676E+04
 -1      1725 5.52602E+03-1.07478E+05-1.84250E+05
 -1      1727 5.52602E+03-1.07478E+05-1.84250E+05
 -1      1728 4.72145E+01-1.11656E+05-2.78385E+05
 -1      1730 4.72145E+01-1.11656E+05-2.78385E+05
 -1      1731-3.96155E+03-1.04091E+05-3.53545E+05
 -1      1733-3.96155E+03-1.04091E+05-3.53545E+05
 -1      1734-6.05323E+03-8.94155E+04-4.04233E+05
 -1      1736-6.05323E+03-8.94155E+04-4.04233E+05
 -1      1737-6.28272E+03-7.27190E+04-4.26643E+05
 -1      1739-6.28272E+03-7.27190E+04-4.26643E+05
 -1      1740-5.16210E+03-5.82803E+04-4.19004E+05
 -1      1742-5.16210E+03-5.82803E+04-4.19004E+05
 -1      1743-3.51251E+03-4.85583E+04-3.81769E+05
 -1      1745-3.51251E+03-4.85583E+04-3.81769E+05
 -1      1746-2.24880E+03-4.36668E+04-3.17611E+05
 -1      1748-2.24880E+03-4.36668E+04-3.17611E+05
 -1      1749-2.14723E+03-4.14442E+04-2.31232E+05
 -1      1751-2.14723E+03-4.14442E+04-2.31232E+05
 -1      1752-3.65169E+03-3.80905E+04-1.28987E+05
 -1      1754-3.65169E+03-3.80905E+04-1.28987E+05
 -1      1755-6.76362E+03-2.92103E+04-1.83790E+04
 -1      1757-6.76362E+03-2.92103E+04-1.83790E+04
 -1      1758-1.10459E+04-1.10044E+04 9.25669E+04
 -1      1760-1.10459E+04-1.10044E+04 9.25669E+04
 -1      1761-1.57412E+04 1.86911E+04 1.95891E+05
 -1      1763-1.57412E+04 1.86911E+04 1.95891E+05
 -1      1764-1.99891E+04 5.97933E+04 2.84403E+05
 -1      1766-1.99891E+04 5.97933E+04 2.84403E+05
 -1      1767-2.30980E+04 1.09986E+05 3.51991E+05
 -1      1769-2.30980E+04 1.09986E+05 3.51991E+05
 -1      1770-2.48185E+04 1.65430E+05 3.94403E+05
 -1      1772-2.48185E+04 1.65430E+05 3.94403E+05
 -1      1773 9.16566E+03 2.51479E+04-9.51527E+04
 -1      1775 9.16566E+03 2.51479E+04-9.51527E+04
 -1      1776 1.50483E+04 6.05994E+04-1.97446E+05
 -1      1778 1.50483E+04 6.05994E+04-1.97446E+05
 -1      1779 1.63734E+04 1.03308E+05-2.88036E+05
 -1      1781 1.63734E+04 1.03308E+05-2.88036E+05
 -1      1782 1.35706E+04 1.43140E+05-3.58098E+05
 -1      1784 1.35706E+04 1.43140E+05-3.58098E+05
 -1      1785 7.62508E+03 1.71234E+05-4.05215E+05
 -1      1787 7.62508E+03 1.71234E+05-4.05215E+05
 -1      1788-1.95228E+02 1.81506E+05-4.25428E+05
 -1      1790-1.95228E+02 1.81506E+05-4.25428E+05
 -1      1791-8.38494E+03 1.71296E+05-4.17897E+05
 -1      1793-8.38494E+03 1.71296E+05-4.17897E+05
 -1      1794-1.54837E+04 1.41702E+05-3.82781E+05
 -1      1796-1.54837E+04 1.41702E+05-3.82781E+05
 -1      1797-2.03132E+04 9.71533E+04-3.22326E+05
 -1      1799-2.03132E+04 9.71533E+04-3.22326E+05
 -1      1800-2.21735E+04 4.44539E+04-2.40242E+05
 -1      1802-2.21735E+04 4.44539E+04-2.40242E+05
 -1      1803-2.09555E+04-8.60992E+03-1.41781E+05
 -1      1805-2.09555E+04-8.60992E+03-1.41781E+05
 -1      1806-1.71243E+04-5.47733E+04-3.33357E+04
 -1      1808-1.71243E+04-5.47733E+04-3.33357E+04
 -1      1809-1.15969E+04-8.86233E+04 7.78676E+04
 -1      1811-1.15969E+04-8.86233E+04 7.78676E+04
 -1      1812-5.52602E+03-1.07478E+05 1.84250E+05
 -1      1814-5.52602E+03-1.07478E+05 1.84250E+05
 -1      1815-4.72145E+01-1.11656E+05 2.78385E+05
 -1      1817-4.72145E+01-1.11656E+05 2.78385E+05
 -1      1818 3.96155E+03-1.04091E+05 3.53545E+05
 -1      1820 3.96155E+03-1.04091E+05 3.53545E+05
 -1      1821 6.05323E+03-8.94155E+04 4.04233E+05
 -1      1823 6.05323E+03-8.94155E+04 4.04233E+05
 -1      1824 6.28272E+03-7.27190E+04 4.26643E+05
 -1      1826 6.28272E+03-7.27190E+04 4.26643E+05
 -1      1827 5.16210E+03-5.82803E+04 4.19004E+05
 -1      1829 5.16210E+03-5.82803E+04 4.19004E+05
 -1      1830 3.51251E+03-4.85583E+04 3.81769E+05
 -1      1832 3.51251E+03-4.85583E+04 3.81769E+05
 -1      1833 2.24880E+03-4.36668E+04 3.17611E+05
 -1      1835 2.24880E+03-4.36668E+04 3.17611E+05
 -1      1836 2.14723E+03-4.14442E+04 2.31232E+05
 -1      1838 2.14723E+03-4.14442E+04 2.31232E+05
 -1      1839 3.65169E+03-3.80905E+04 1.28987E+05
 -1      1841 3.65169E+03-3.80905E+04 1.28987E+05
 -1      1842 6.76362E+03-2.92103E+04 1.83790E+04
 -1      1844 6.76362E+03-2.92103E+04 1.83790E+04
 -1      1845 1.10459E+04-1.10044E+04-9.25669E+04
 -1      1847 1.10459E+04-1.10044E+04-9.25669E+04
 -1      1848 1.57412E+04 1.86911E+04-1.95891E+05
 -1      1850 1.57412E+04 1.86911E+04-1.95891E+05
 -1      1851 1.99891E+04 5.97933E+04-2.84403E+05
 -1      1853 1.99891E+04 5.97933E+04-2.84403E+05
 -1      1854 2.30980E+04 1.09986E+05-3.51991E+05
 -1      1856 2.30980E+04 1.09986E+05-3.51991E+05
 -1      1857 2.48185E+04 1.65430E+05-3.94403E+05
 -1      1859 2.48185E+04 1.65430E+05-3.94403E+05
 -1      1860 9.41662E-07-4.06548E+04 1.28605E-06
 -1      1862 8.16624E-07-4.06548E+04 1.37329E-06
 -1      1863 2.51646E-07-6.69154E+04 8.96613E-07
 -1      1865-1.02147E-07-6.69154E+04 8.82615E-07
 -1      1866-1.36572E-06-7.27695E+04 1.31311E-06
 -1      1868-1.60737E-06-7.27695E+04 1.62294E-06
 -1      1869-5.57753E-07-6.80452E+04 1.26384E-06
 -1      1871-2.93892E-07-6.80452E+04 1.46157E-06
 -1      1872 4.96781E-07-6.31995E+04 9.76584E-07
 -1      1874 9.92000E-07-6.31995E+04 2.34771E-07
 -1      1875 7.56558E-07-6.48364E+04 8.75270E-08
 -1      1877 9.56888E-07-6.48364E+04-1.46904E-06
 -1      1878-4.52166E-07-7.61614E+04-8.95283E-07
 -1      1880-4.85308E-07-7.61614E+04-2.26348E-06
 -1      1881-2.40297E-06-9.51248E+04 1.28443E-06
 -1      1883-2.32737E-06-9.51248E+04 1.69571E-07
 -1      1884-1.33775E-06-1.15963E+05 1.83742E-06
 -1      1886-1.42087E-06-1.15963E+05 6.61241E-07
 -1      1887 1.61974E-07-1.30218E+05 2.26392E-07
 -1      1889-4.53663E-07-1.30218E+05-2.85861E-07
 -1      1890-9.93959E-07-1.29307E+05-6.92406E-07
 -1      1892-1.46841E-06-1.29307E+05-9.22824E-07
 -1      1893-1.21031E-06-1.06703E+05-3.20827E-06
 -1      1895-1.32860E-06-1.06703E+05-3.19668E-06
 -1      1896 1.86930E-07-5.99937E+04-3.63245E-06
 -1      1898 2.53489E-07-5.99937E+04-3.73371E-06
 -1      1899 2.49605E-07 8.07025E+03-3.31488E-06
 -1      1901 6.04376E-07 8.07025E+03-2.89962E-06
 -1      1902-4.24792E-07 8.96012E+04-3.49372E-06
 -1      1904 3.95885E-08 8.96012E+04-2.72077E-06
 -1      1905 8.08912E-07 1.72798E+05-3.74356E-06
 -1      1907 6.69919E-07 1.72798E+05-3.18643E-06
 -1      1908 1.87640E-06 2.44088E+05-2.07294E-06
 -1      1910 1.94680E-06 2.44088E+05-1.63298E-06
 -1      1911 1.42554E-06 2.90771E+05-3.38189E-07
 -1      1913 1.74152E-06 2.90771E+05 1.55318E-07
 -1      1914 1.52793E-06 3.03592E+05-4.40652E-07
 -1      1916 1.56950E-06 3.03592E+05 6.01785E-07
 -1      1917 1.71740E-06 2.78697E+05-8.32915E-07
 -1      1919 2.28254E-06 2.78697E+05 2.17304E-07
 -1      1920 2.17710E-06 2.18555E+05-4.91349E-07
 -1      1922 2.98468E-06 2.18555E+05-2.65696E-07
 -1      1923 1.25394E-06 1.31633E+05-7.59719E-08
 -1      1925 1.71719E-06 1.31633E+05 1.06484E-08
 -1      1926-7.67995E-07 3.08913E+04-2.14448E-06
 -1      1928-5.02719E-07 3.08913E+04-1.14330E-06
 -1      1929-1.63180E-06-6.85754E+04-3.77932E-06
 -1      1931-1.02180E-06-6.85754E+04-3.18299E-06
 -1      1932-2.12922E-06-1.52278E+05-2.51818E-06
 -1      1934-1.43828E-06-1.52278E+05-2.24247E-06
 -1      1935-1.28415E-06-2.08807E+05-1.19113E-06
 -1      1937-9.05577E-07-2.08807E+05-6.98876E-07
 -1      1938-1.82081E-08-2.31624E+05-1.43527E-06
 -1      1940-4.00469E-08-2.31624E+05-1.67101E-06
 -1      1941-1.22064E-06-2.19567E+05 2.06276E-07
 -1      1943-1.49401E-06-2.19567E+05-8.33182E-07
 -1      1944-2.27436E-06-1.76289E+05 1.03416E-06
 -1      1946-2.12299E-06-1.76289E+05-2.93293E-07
 -1      1947-1.90290E-06-6.52073E+04 1.83711E-06
 -1      1949-2.07290E-06-6.52073E+04 1.13753E-06
 -1      1950-1.30443E-06-1.16585E+05 8.91741E-07
 -1      1952-1.55289E-06-1.16585E+05 1.40373E-07
 -1      1953-1.94802E-06-1.44286E+05 1.76148E-06
 -1      1955-2.02599E-06-1.44286E+05 1.47580E-06
 -1      1956-1.51619E-06-1.56446E+05 8.39116E-07
 -1      1958-1.58450E-06-1.56446E+05 6.19400E-07
 -1      1959-8.34676E-07-1.63084E+05-1.55753E-06
 -1      1961-4.93666E-07-1.63084E+05-2.79135E-06
 -1      1962-1.28005E-06-1.70169E+05-2.05379E-06
 -1      1964-1.25054E-06-1.70169E+05-3.77632E-06
 -1      1965-1.08960E-06-1.80724E+05-1.97983E-06
 -1      1967-1.18274E-06-1.80724E+05-3.02349E-06
 -1      1968-1.92515E-06-1.92494E+05 2.36800E-06
 -1      1970-1.88848E-06-1.92494E+05 1.80898E-06
 -1      1971-3.90022E-06-1.99751E+05 4.78453E-06
 -1      1973-4.32859E-06-1.99751E+05 4.14905E-06
 -1      1974-2.88124E-06-1.94286E+05 2.19857E-06
 -1      1976-3.61350E-06-1.94286E+05 1.51610E-06
 -1      1977-1.00260E-06-1.68170E+05-1.28562E-07
 -1      1979-1.40313E-06-1.68170E+05-2.87261E-07
 -1      1980-4.19448E-07-1.16024E+05-2.42907E-06
 -1      1982-2.97219E-07-1.16024E+05-2.16808E-06
 -1      1983 6.66721E-07-3.71493E+04-2.22597E-06
 -1      1985 6.61598E-07-3.71493E+04-2.17348E-06
 -1      1986 1.00025E-06 6.34620E+04-1.17422E-06
 -1      1988 1.20203E-06 6.34620E+04-1.20377E-07
 -1      1989 6.26882E-07 1.75294E+05-1.36504E-06
 -1      1991 8.95503E-07 1.75294E+05 1.68093E-08
 -1      1992-3.40744E-07 2.83780E+05-4.50325E-07
 -1      1994-4.07596E-07 2.83780E+05 4.28363E-07
 -1      1995 1.17114E-07 3.72764E+05 1.44450E-07
 -1      1997-4.84579E-09 3.72764E+05 1.77098E-06
 -1      1998 1.26228E-06 4.27486E+05-4.83574E-07
 -1      2000 1.19434E-06 4.27486E+05 5.54003E-07
 -1      2001 9.01931E-07 4.37461E+05-1.16641E-06
 -1      2003 7.72958E-07 4.37461E+05-2.25933E-07
 -1      2004 1.64308E-06 3.98650E+05-3.87041E-07
 -1      2006 1.81121E-06 3.98650E+05 7.22666E-07
 -1      2007 4.00965E-06 3.14447E+05-4.75407E-07
 -1      2009 4.09981E-06 3.14447E+05-1.24763E-06
 -1      2010 3.96185E-06 1.95280E+05 6.60835E-07
 -1      2012 3.67124E-06 1.95280E+05 4.64668E-07
 -1      2013 1.00870E-06 5.68762E+04 9.39137E-07
 -1      2015 7.47501E-07 5.68762E+04 1.29091E-06
 -1      2016-6.82609E-07-8.24389E+04-1.65127E-06
 -1      2018-3.47398E-07-8.24389E+04-9.22533E-07
 -1      2019-9.66049E-07-2.04880E+05-2.58706E-06
 -1      2021-6.13340E-07-2.04880E+05-1.58391E-06
 -1      2022 3.06736E-08-2.96059E+05-1.15950E-06
 -1      2024-5.28107E-08-2.96059E+05-5.48043E-07
 -1      2025 8.68558E-07-3.47124E+05-6.29912E-07
 -1      2027 7.52001E-07-3.47124E+05-4.57523E-07
 -1      2028 5.48283E-07-3.55451E+05 7.68119E-07
 -1      2030 7.11352E-07-3.55451E+05-1.09277E-07
 -1      2031 1.18989E-06-3.24230E+05 1.21141E-06
 -1      2033 1.60332E-06-3.24230E+05 1.20364E-08
 -1      2034 1.30028E-06-4.06548E+04 3.16312E-06
 -1      2036 1.58931E-06-4.06548E+04 1.86655E-06
 -1      2037 8.00646E-07-6.69154E+04 2.51643E-06
 -1      2039 8.84909E-07-6.69154E+04 1.73663E-06
 -1      2040-2.14417E-06-7.27695E+04 1.61235E-06
 -1      2042-1.97047E-06-7.27695E+04 1.26899E-06
 -1      2043-2.13596E-06-6.80452E+04-2.58209E-07
 -1      2045-2.05767E-06-6.80452E+04-6.93020E-07
 -1      2046-1.81333E-06-6.31995E+04-3.76646E-06
 -1      2048-1.78373E-06-6.31995E+04-4.19192E-06
 -1      2049-2.55434E-06-6.48364E+04-2.74162E-06
 -1      2051-2.70812E-06-6.48364E+04-3.56168E-06
 -1      2052-1.52004E-06-7.61614E+04-1.10755E-07
 -1      2054-1.64918E-06-7.61614E+04-6.04239E-07
 -1      2055-1.91800E-06-9.51248E+04 2.30754E-06
 -1      2057-1.82873E-06-9.51248E+04 2.30242E-06
 -1      2058-4.14527E-06-1.15963E+05 3.76662E-06
 -1      2060-4.30459E-06-1.15963E+05 3.88708E-06
 -1      2061-1.24141E-06-1.30218E+05 2.07653E-06
 -1      2063-1.85808E-06-1.30218E+05 1.99486E-06
 -1      2064 1.13338E-06-1.29307E+05 3.71831E-07
 -1      2066 9.85953E-07-1.29307E+05-1.59664E-07
 -1      2067 2.49010E-07-1.06703E+05-4.12227E-07
 -1      2069 2.80989E-07-1.06703E+05-7.07689E-07
 -1      2070 1.41385E-06-5.99937E+04 1.47353E-07
 -1      2072 1.13348E-06-5.99937E+04 5.35714E-07
 -1      2073 1.94708E-06 8.07025E+03 4.95143E-07
 -1      2075 1.88992E-06 8.07025E+03 2.33113E-06
 -1      2076 1.47244E-06 8.96012E+04 2.11518E-06
 -1      2078 1.79094E-06 8.96012E+04 3.82910E-06
 -1      2079 2.63215E-07 1.72798E+05 4.26442E-06
 -1      2081 1.76849E-07 1.72798E+05 5.22762E-06
 -1      2082-1.00896E-06 2.44088E+05 3.42247E-06
 -1      2084-1.17193E-06 2.44088E+05 4.74961E-06
 -1      2085-8.29052E-07 2.90771E+05 8.69457E-07
 -1      2087-8.49814E-07 2.90771E+05 2.00177E-06
 -1      2088-9.19208E-07 3.03592E+05-3.37022E-07
 -1      2090-1.15460E-06 3.03592E+05-3.33006E-07
 -1      2091 9.63209E-07 2.78697E+05 1.08994E-08
 -1      2093 7.08507E-07 2.78697E+05 1.38869E-07
 -1      2094 3.30481E-06 2.18555E+05 4.82454E-07
 -1      2096 2.69200E-06 2.18555E+05-7.62811E-08
 -1      2097 2.37171E-06 1.31633E+05 1.23304E-06
 -1      2099 1.42448E-06 1.31633E+05 1.41383E-06
 -1      2100 2.35662E-07 3.08913E+04 3.07159E-06
 -1      2102-3.60360E-07 3.08913E+04 3.59406E-06
 -1      2103-3.53184E-07-6.85754E+04 2.30630E-06
 -1      2105-3.66152E-07-6.85754E+04 2.74411E-06
 -1      2106-1.14190E-06-1.52278E+05 6.48928E-07
 -1      2108-1.09814E-06-1.52278E+05 1.04177E-06
 -1      2109-9.82454E-07-2.08807E+05 1.41151E-06
 -1      2111-1.31482E-06-2.08807E+05 2.20424E-06
 -1      2112 7.23612E-08-2.31624E+05 2.64996E-06
 -1      2114 2.48092E-08-2.31624E+05 3.19816E-06
 -1      2115-6.71043E-07-2.19567E+05 3.64070E-06
 -1      2117-1.02991E-08-2.19567E+05 3.57018E-06
 -1      2118 9.39552E-07-1.76289E+05 2.17567E-06
 -1      2120 1.13596E-06-1.76289E+05 2.21356E-06
 -1      2121 9.16566E+03 2.51479E+04 9.51527E+04
 -1      2123 9.16566E+03 2.51479E+04 9.51527E+04
 -1      2124 1.50483E+04 6.05994E+04 1.97446E+05
 -1      2126 1.50483E+04 6.05994E+04 1.97446E+05
 -1      2127 1.63734E+04 1.03308E+05 2.88036E+05
 -1      2129 1.63734E+04 1.03308E+05 2.88036E+05
 -1      2130 1.35706E+04 1.43140E+05 3.58098E+05
 -1      2132 1.35706E+04 1.43140E+05 3.58098E+05
 -1      2133 7.62508E+03 1.71234E+05 4.05215E+05
 -1      2135 7.62508E+03 1.71234E+05 4.05215E+05
 -1      2136-1.95228E+02 1.81506E+05 4.25428E+05
 -1      2138-1.95228E+02 1.81506E+05 4.25428E+05
 -1      2139-8.38494E+03 1.71296E+05 4.17897E+05
 -1      2141-8.38494E+03 1.71296E+05 4.17897E+05
 -1      2142-1.54837E+04 1.41702E+05 3.82781E+05
 -1      2144-1.54837E+04 1.41702E+05 3.82781E+05
 -1      2145-2.03132E+04 9.71533E+04 3.22326E+05
 -1      2147-2.03132E+04 9.71533E+04 3.22326E+05
 -1      2148-2.21735E+04 4.44539E+04 2.40242E+05
 -1      2150-2.21735E+04 4.44539E+04 2.40242E+05
 -1      2151-2.09555E+04-8.60992E+03 1.41781E+05
 -1      2153-2.09555E+04-8.60992E+03 1.41781E+05
 -1      2154-1.71243E+04-5.47733E+04 3.33357E+04
 -1      2156-1.71243E+04-5.47733E+04 3.33357E+04
 -1      2157-1.15969E+04-8.86233E+04-7.78676E+04
 -1      2159-1.15969E+04-8.86233E+04-7.78676E+04
 -1      2160-5.52602E+03-1.07478E+05-1.84250E+05
 -1      2162-5.52602E+03-1.07478E+05-1.84250E+05
 -1      2163-4.72145E+01-1.11656E+05-2.78385E+05
 -1      2165-4.72145E+01-1.11656E+05-2.78385E+05
 -1      2166 3.96155E+03-1.04091E+05-3.53545E+05
 -1      2168 3.96155E+03-1.04091E+05-3.53545E+05
 -1      2169 6.05323E+03-8.94155E+04-4.04233E+05
 -1      2171 6.05323E+03-8.94155E+04-4.04233E+05
 -1      2172 6.28272E+03-7.27190E+04-4.26643E+05
 -1      2174 6.28272E+03-7.27190E+04-4.26643E+05
 -1      2175 5.16210E+03-5.82803E+04-4.19004E+05
 -1      2177 5.16210E+03-5.82803E+04-4.19004E+05
 -1      2178 3.51251E+03-4.85583E+04-3.81769E+05
 -1      2180 3.51251E+03-4.85583E+04-3.81769E+05
 -1      2181 2.24880E+03-4.36668E+04-3.17611E+05
 -1      2183 2.24880E+03-4.36668E+04-3.17611E+05
 -1      2184 2.14723E+03-4.14442E+04-2.31232E+05
 -1      2186 2.14723E+03-4.14442E+04-2.31232E+05
 -1      2187 3.65169E+03-3.80905E+04-1.28987E+05
 -1      2189 3.65169E+03-3.80905E+04-1.28987E+05
 -1      2190 6.76362E+03-2.92103E+04-1.83790E+04
 -1      2192 6.76362E+03-2.92103E+04-1.83790E+04
 -1      2193 1.10459E+04-1.10044E+04 9.25669E+04
 -1      2195 1.10459E+04-1.10044E+04 9.25669E+04
 -1      2196 1.57412E+04 1.86911E+04 1.95891E+05
 -1      2198 1.57412E+04 1.86911E+04 1.95891E+05
 -1      2199 1.99891E+04 5.97933E+04 2.84403E+05
 -1      2201 1.99891E+04 5.97933E+04 2.84403E+05
 -1      2202 2.30980E+04 1.09986E+05 3.51991E+05
 -1      2204 2.30980E+04 1.09986E+05 3.51991E+05
 -1      2205 2.48185E+04 1.65430E+05 3.94403E+05
 -1      2207 2.48185E+04 1.65430E+05 3.94403E+05
 -1      2208-9.16566E+03 2.51479E+04-9.51527E+04
 -1      2210-9.16566E+03 2.51479E+04-9.51527E+04
 -1      2211-1.50483E+04 6.05994E+04-1.97446E+05
 -1      2213-1.50483E+04 6.05994E+04-1.97446E+05
 -1      2214-1.63734E+04 1.03308E+05-2.88036E+05
 -1      2216-1.63734E+04 1.03308E+05-2.88036E+05
 -1      2217-1.35706E+04 1.43140E+05-3.58098E+05
 -1      2219-1.35706E+04 1.43140E+05-3.58098E+05
 -1      2220-7.62508E+03 1.71234E+05-4.05215E+05
 -1      2222-7.62508E+03 1.71234E+05-4.05215E+05
 -1      2223 1.95228E+02 1.81506E+05-4.25428E+05
 -1      2225 1.95228E+02 1.81506E+05-4.25428E+05
 -1      2226 8.38494E+03 1.71296E+05-4.17897E+05
 -1      2228 8.38494E+03 1.71296E+05-4.17897E+05
 -1      2229 1.54837E+04 1.41702E+05-3.82781E+05
 -1      2231 1.54837E+04 1.41702E+05-3.82781E+05
 -1      2232 2.03132E+04 9.71533E+04-3.22326E+05
 -1      2234 2.03132E+04 9.71533E+04-3.22326E+05
 -1      2235 2.21735E+04 4.44539E+04-2.40242E+05
 -1      2237 2.21735E+04 4.44539E+04-2.40242E+05
 -1      2238 2.09555E+04-8.60992E+03-1.41781E+05
 -1      2240 2.09555E+04-8.60992E+03-1.41781E+05
 -1      2241 1.71243E+04-5.47733E+04-3.33357E+04
 -1      2243 1.71243E+04-5.47733E+04-3.33357E+04
 -1      2244 1.15969E+04-8.86233E+04 7.78676E+04
 -1      2246 1.15969E+04-8.86233E+04 7.78676E+04
 -1      2247 5.52602E+03-1.07478E+05 1.84250E+05
 -1      2249 5.52602E+03-1.07478E+05 1.84250E+05
 -1      2250 4.72145E+01-1.11656E+05 2.78385E+05
 -1      2252 4.72145E+01-1.11656E+05 2.78385E+05
 -1      2253-3.96155E+03-1.04091E+05 3.53545E+05
 -1      2255-3.96155E+03-1.04091E+05 3.53545E+05
 -1      2256-6.05323E+03-8.94155E+04 4.04233E+05
 -1      2258-6.05323E+03-8.94155E+04 4.04233E+05
 -1      2259-6.28272E+03-7.27190E+04 4.26643E+05
 -1      2261-6.28272E+03-7.27190E+04 4.26643E+05
 -1      2262-5.16210E+03-5.82803E+04 4.19004E+05
 -1      2264-5.16210E+03-5.82803E+04 4.19004E+05
 -1      2265-3.51251E+03-4.85583E+04 3.81769E+05
 -1      2267-3.51251E+03-4.85583E+04 3.81769E+05
 -1      2268-2.24880E+03-4.36668E+04 3.17611E+05
 -1      2270-2.24880E+03-4.36668E+04 3.17611E+05
 -1      2271-2.14723E+03-4.14442E+04 2.31232E+05
 -1      2273-2.14723E+03-4.14442E+04 2.31232E+05
 -1      2274-3.65169E+03-3.80905E+04 1.28987E+05
 -1      2276-3.65169E+03-3.80905E+04 1.28987E+05
 -1      2277-6.76362E+03-2.92103E+04 1.83790E+04
 -1      2279-6.76362E+03-2.92103E+04 1.83790E+04
 -1      2280-1.10459E+04-1.10044E+04-9.25669E+04
 -1      2282-1.10459E+04-1.10044E+04-9.25669E+04
 -1      2283-1.57412E+04 1.86911E+04-1.95891E+05
 -1      2285-1.57412E+04 1.86911E+04-1.95891E+05
 -1      2286-1.99891E+04 5.97933E+04-2.84403E+05
 -1      2288-1.99891E+04 5.97933E+04-2.84403E+05
 -1      2289-2.30980E+04 1.09986E+05-3.51991E+05
 -1      2291-2.30980E+04 1.09986E+05-3.51991E+05
 -1      2292-2.48185E+04 1.65430E+05-3.94403E+05
 -1      2294-2.48185E+04 1.65430E+05-3.94403E+05
 -3
    1PSTEP                        76           1           1          
    1PGM                1.000000E+00                                  
    1PGK                1.666853E+07                                  
    1PHID                         -1                                  
    1PSUBC                         0                                  
    1PMODE                        19                                  
  100CL  119 649.7837111         930                     2   19MODAL      1
 -4  ERROR       1    1
 -5  STR(%)      1    1    0    0
 -1       404 0.00000E+00
 -1       406 0.00000E+00
 -1       407 0.00000E+00
 -1       409 0.00000E+00
 -1       410 0.00000E+00
 -1       412 0.00000E+00
 -1       413 0.00000E+00
 -1       415 0.00000E+00
 -1       424 0.00000E+00
 -1       426 0.00000E+00
 -1       427 0.00000E+00
 -1       429 0.00000E+00
 -1       438 0.00000E+00
 -1       440 0.00000E+00
 -1       441 0.00000E+00
 -1       443 0.00000E+00
 -1       444 0.00000E+00
 -1       446 0.00000E+00
 -1       447 0.00000E+00
 -1       449 0.00000E+00
 -1       458 0.00000E+00
 -1       460 0.00000E+00
 -1       461 0.00000E+00
 -1       463 0.00000E+00
 -1       472 0.00000E+00
 -1       474 0.00000E+00
 -1       475 0.00000E+00
 -1       477 0.00000E+00
 -1       478 0.00000E+00
 -1       480 0.00000E+00
 -1       481 0.00000E+00
 -1       483 0.00000E+00
 -1       484 0.00000E+00
 -1       486 0.00000E+00
 -1       487 0.00000E+00
 -1       489 0.00000E+00
 -1       490 0.00000E+00
 -1       492 0.00000E+00
 -1       493 0.00000E+00
 -1       495 0.00000E+00
 -1       496 0.00000E+00
 -1       498 0.00000E+00
 -1       499 0.00000E+00
 -1       501 0.00000E+00
 -1       502 0.00000E+00
 -1       504 0.00000E+00
 -1       505 0.00000E+00
 -1       507 0.00000E+00
 -1       508 0.00000E+00
 -1       510 0.00000E+00
 -1       511 0.00000E+00
 -1       513 0.00000E+00
 -1       514 0.00000E+00
 -1       516 0.00000E+00
 -1       517 0.00000E+00
 -1       519 0.00000E+00
 -1       520 0.00000E+00
 -1       522 0.00000E+00
 -1       523 0.00000E+00
 -1       525 0.00000E+00
 -1       526 0.00000E+00
 -1       528 0.00000E+00
 -1       529 0.00000E+00
 -1       531 0.00000E+00
 -1       532 0.00000E+00
 -1       534 0.00000E+00
 -1       535 0.00000E+00
 -1       537 0.00000E+00
 -1       538 0.00000E+00
 -1       540 0.00000E+00
 -1       541 0.00000E+00
 -1       543 0.00000E+00
 -1       544 0.00000E+00
 -1       546 0.00000E+00
 -1       547 0.00000E+00
 -1       549 0.00000E+00
 -1       550 0.00000E+00
 -1       552 0.00000E+00
 -1       553 0.00000E+00
 -1       555 0.00000E+00
 -1       556 0.00000E+00
 -1       558 0.00000E+00
 -1       559 0.00000E+00
 -1       561 0.00000E+00
 -1       562 0.00000E+00
 -1       564 0.00000E+00
 -1       565 0.00000E+00
 -1       567 0.00000E+00
 -1       568 0.00000E+00
 -1       570 0.00000E+00
 -1       571 0.00000E+00
 -1       573 0.00000E+00
 -1       574 0.00000E+00
 -1       576 0.00000E+00
 -1       577 0.00000E+00
 -1       579 0.00000E+00
 -1       588 0.00000E+00
 -1       590 0.00000E+00
 -1       591 0.00000E+00
 -1       593 0.00000E+00
 -1       602 0.00000E+00
 -1       604 0.00000E+00
 -1       605 0.00000E+00
 -1       607 0.00000E+00
 -1       616 0.00000E+00
 -1       618 0.00000E+00
 -1       619 0.00000E+00
 -1       621 0.00000E+00
 -1       630 0.00000E+00
 -1       632 0.00000E+00
 -1       633 0.00000E+00
 -1       635 0.00000E+00
 -1       644 0.00000E+00
 -1       646 0.00000E+00
 -1       647 0.00000E+00
 -1       649 0.00000E+00
 -1       658 0.00000E+00
 -1       660 0.00000E+00
 -1       661 0.00000E+00
 -1       663 0.00000E+00
 -1       672 0.00000E+00
 -1       674 0.00000E+00
 -1       675 0.00000E+00
 -1       677 0.00000E+00
 -1       686 0.00000E+00
 -1       688 0.00000E+00
 -1       689 0.00000E+00
 -1       691 0.00000E+00
 -1       700 0.00000E+00
 -1       702 0.00000E+00
 -1       703 0.00000E+00
 -1       705 0.00000E+00
 -1       714 0.00000E+00
 -1       716 0.00000E+00
 -1       717 0.00000E+00
 -1       719 0.00000E+00
 -1       728 0.00000E+00
 -1       730 0.00000E+00
 -1       731 0.00000E+00
 -1       733 0.00000E+00
 -1       742 0.00000E+00
 -1       744 0.00000E+00
 -1       745 0.00000E+00
 -1       747 0.00000E+00
 -1       756 0.00000E+00
 -1       758 0.00000E+00
 -1       759 0.00000E+00
 -1       761 0.00000E+00
 -1       770 0.00000E+00
 -1       772 0.00000E+00
 -1       773 0.00000E+00
 -1       775 0.00000E+00
 -1       784 0.00000E+00
 -1       786 0.00000E+00
 -1       787 0.00000E+00
 -1       789 0.00000E+00
 -1       798 0.00000E+00
 -1       800 0.00000E+00
 -1       801 0.00000E+00
 -1       803 0.00000E+00
 -1       812 0.00000E+00
 -1       814 0.00000E+00
 -1       815 0.00000E+00
 -1       817 0.00000E+00
 -1       826 0.00000E+00
 -1       828 0.00000E+00
 -1       829 0.00000E+00
 -1       831 0.00000E+00
 -1       840 0.00000E+00
 -1       842 0.00000E+00
 -1       843 0.00000E+00
 -1       845 0.00000E+00
 -1       854 0.00000E+00
 -1       856 0.00000E+00
 -1       857 0.00000E+00
 -1       859 0.00000E+00
 -1       868 0.00000E+00
 -1       870 0.00000E+00
 -1       871 0.00000E+00
 -1       873 0.00000E+00
 -1       882 0.00000E+00
 -1       884 0.00000E+00
 -1       885 0.00000E+00
 -1       887 0.00000E+00
 -1       896 0.00000E+00
 -1       898 0.00000E+00
 -1       899 0.00000E+00
 -1       901 0.00000E+00
 -1       910 0.00000E+00
 -1       912 0.00000E+00
 -1       913 0.00000E+00
 -1       915 0.00000E+00
 -1       924 0.00000E+00
 -1       926 0.00000E+00
 -1       927 0.00000E+00
 -1       929 0.00000E+00
 -1       938 0.00000E+00
 -1       940 0.00000E+00
 -1       941 0.00000E+00
 -1       943 0.00000E+00
 -1       952 0.00000E+00
 -1       954 0.00000E+00
 -1       955 0.00000E+00
 -1       957 0.00000E+00
 -1       966 0.00000E+00
 -1       968 0.00000E+00
 -1       969 0.00000E+00
 -1       971 0.00000E+00
 -1       980 0.00000E+00
 -1       982 0.00000E+00
 -1       983 0.00000E+00
 -1       985 0.00000E+00
 -1       986 0.00000E+00
 -1       988 0.00000E+00
 -1       989 0.00000E+00
 -1       991 0.00000E+00
 -1       992 0.00000E+00
 -1       994 0.00000E+00
 -1       995 0.00000E+00
 -1       997 0.00000E+00
 -1       998 0.00000E+00
 -1      1000 0.00000E+00
 -1      1001 0.00000E+00
 -1      1003 0.00000E+00
 -1      1004 0.00000E+00
 -1      1006 0.00000E+00
 -1      1007 0.00000E+00
 -1      1009 0.00000E+00
 -1      1010 0.00000E+00
 -1      1012 0.00000E+00
 -1      1013 0.00000E+00
 -1      1015 0.00000E+00
 -1      1016 0.00000E+00
 -1      1018 0.00000E+00
 -1      1019 0.00000E+00
 -1      1021 0.00000E+00
 -1      1022 0.00000E+00
 -1      1024 0.00000E+00
 -1      1025 0.00000E+00
 -1      1027 0.00000E+00
 -1      1028 0.00000E+00
 -1      1030 0.00000E+00
 -1      1031 0.00000E+00
 -1      1033 0.00000E+00
 -1      1034 0.00000E+00
 -1      1036 0.00000E+00
 -1      1037 0.00000E+00
 -1      1039 0.00000E+00
 -1      1040 0.00000E+00
 -1      1042 0.00000E+00
 -1      1043 0.00000E+00
 -1      1045 0.00000E+00
 -1      1046 0.00000E+00
 -1      1048 0.00000E+00
 -1      1049 0.00000E+00
 -1      1051 0.00000E+00
 -1      1052 0.00000E+00
 -1      1054 0.00000E+00
 -1      1055 0.00000E+00
 -1      1057 0.00000E+00
 -1      1058 0.00000E+00
 -1      1060 0.00000E+00
 -1      1061 0.00000E+00
 -1      1063 0.00000E+00
 -1      1064 0.00000E+00
 -1      1066 0.00000E+00
 -1      1067 0.00000E+00
 -1      1069 0.00000E+00
 -1      1070 0.00000E+00
 -1      1072 0.00000E+00
 -1      1073 0.00000E+00
 -1      1075 0.00000E+00
 -1      1076 0.00000E+00
 -1      1078 0.00000E+00
 -1      1079 0.00000E+00
 -1      1081 0.00000E+00
 -1      1082 0.00000E+00
 -1      1084 0.00000E+00
 -1      1085 0.00000E+00
 -1      1087 0.00000E+00
 -1      1088 0.00000E+00
 -1      1090 0.00000E+00
 -1      1099 0.00000E+00
 -1      1101 0.00000E+00
 -1      1102 0.00000E+00
 -1      1104 0.00000E+00
 -1      1113 0.00000E+00
 -1      1115 0.00000E+00
 -1      1116 0.00000E+00
 -1      1118 0.00000E+00
 -1      1127 0.00000E+00
 -1      1129 0.00000E+00
 -1      1130 0.00000E+00
 -1      1132 0.00000E+00
 -1      1141 0.00000E+00
 -1      1143 0.00000E+00
 -1      1144 0.00000E+00
 -1      1146 0.00000E+00
 -1      1155 0.00000E+00
 -1      1157 0.00000E+00
 -1      1158 0.00000E+00
 -1      1160 0.00000E+00
 -1      1169 0.00000E+00
 -1      1171 0.00000E+00
 -1      1172 0.00000E+00
 -1      1174 0.00000E+00
 -1      1183 0.00000E+00
 -1      1185 0.00000E+00
 -1      1186 0.00000E+00
 -1      1188 0.00000E+00
 -1      1197 0.00000E+00
 -1      1199 0.00000E+00
 -1      1200 0.00000E+00
 -1      1202 0.00000E+00
 -1      1211 0.00000E+00
 -1      1213 0.00000E+00
 -1      1214 0.00000E+00
 -1      1216 0.00000E+00
 -1      1225 0.00000E+00
 -1      1227 0.00000E+00
 -1      1228 0.00000E+00
 -1      1230 0.00000E+00
 -1      1239 0.00000E+00
 -1      1241 0.00000E+00
 -1      1242 0.00000E+00
 -1      1244 0.00000E+00
 -1      1253 0.00000E+00
 -1      1255 0.00000E+00
 -1      1256 0.00000E+00
 -1      1258 0.00000E+00
 -1      1267 0.00000E+00
 -1      1269 0.00000E+00
 -1      1270 0.00000E+00
 -1      1272 0.00000E+00
 -1      1281 0.00000E+00
 -1      1283 0.00000E+00
 -1      1284 0.00000E+00
 -1      1286 0.00000E+00
 -1      1295 0.00000E+00
 -1      1297 0.00000E+00
 -1      1298 0.00000E+00
 -1      1300 0.00000E+00
 -1      1309 0.00000E+00
 -1      1311 0.00000E+00
 -1      1312 0.00000E+00
 -1      1314 0.00000E+00
 -1      1323 0.00000E+00
 -1      1325 0.00000E+00
 -1      1326 0.00000E+00
 -1      1328 0.00000E+00
 -1      1337 0.00000E+00
 -1      1339 0.00000E+00
 -1      1340 0.00000E+00
 -1      1342 0.00000E+00
 -1      1351 0.00000E+00
 -1      1353 0.00000E+00
 -1      1354 0.00000E+00
 -1      1356 0.00000E+00
 -1      1365 0.00000E+00
 -1      1367 0.00000E+00
 -1      1368 0.00000E+00
 -1      1370 0.00000E+00
 -1      1379 0.00000E+00
 -1      1381 0.00000E+00
 -1      1382 0.00000E+00
 -1      1384 0.00000E+00
 -1      1393 0.00000E+00
 -1      1395 0.00000E+00
 -1      1396 0.00000E+00
 -1      1398 0.00000E+00
 -1      1407 0.00000E+00
 -1      1409 0.00000E+00
 -1      1410 0.00000E+00
 -1      1412 0.00000E+00
 -1      1421 0.00000E+00
 -1      1423 0.00000E+00
 -1      1424 0.00000E+00
 -1      1426 0.00000E+00
 -1      1435 0.00000E+00
 -1      1437 0.00000E+00
 -1      1438 0.00000E+00
 -1      1440 0.00000E+00
 -1      1449 0.00000E+00
 -1      1451 0.00000E+00
 -1      1452 0.00000E+00
 -1      1454 0.00000E+00
 -1      1463 0.00000E+00
 -1      1465 0.00000E+00
 -1      1466 0.00000E+00
 -1      1468 0.00000E+00
 -1      1477 0.00000E+00
 -1      1479 0.00000E+00
 -1      1480 0.00000E+00
 -1      1482 0.00000E+00
 -1      1491 0.00000E+00
 -1      1493 0.00000E+00
 -1      1494 0.00000E+00
 -1      1496 0.00000E+00
 -1      1497 0.00000E+00
 -1      1499 0.00000E+00
 -1      1500 0.00000E+00
 -1      1502 0.00000E+00
 -1      1503 0.00000E+00
 -1      1505 0.00000E+00
 -1      1506 0.00000E+00
 -1      1508 0.00000E+00
 -1      1509 0.00000E+00
 -1      1511 0.00000E+00
 -1      1512 0.00000E+00
 -1      1514 0.00000E+00
 -1      1515 0.00000E+00
 -1      1517 0.00000E+00
 -1      1518 0.00000E+00
 -1      1520 0.00000E+00
 -1      1521 0.00000E+00
 -1      1523 0.00000E+00
 -1      1524 0.00000E+00
 -1      1526 0.00000E+00
 -1      1527 0.00000E+00
 -1      1529 0.00000E+00
 -1      1530 0.00000E+00
 -1      1532 0.00000E+00
 -1      1533 0.00000E+00
 -1      1535 0.00000E+00
 -1      1536 0.00000E+00
 -1      1538 0.00000E+00
 -1      1539 0.00000E+00
 -1      1541 0.00000E+00
 -1      1542 0.00000E+00
 -1      1544 0.00000E+00
 -1      1545 0.00000E+00
 -1      1547 0.00000E+00
 -1      1548 0.00000E+00
 -1      1550 0.00000E+00
 -1      1551 0.00000E+00
 -1      1553 0.00000E+00
 -1      1554 0.00000E+00
 -1      1556 0.00000E+00
 -1      1557 0.00000E+00
 -1      1559 0.00000E+00
 -1      1560 0.00000E+00
 -1      1562 0.00000E+00
 -1      1563 0.00000E+00
 -1      1565 0.00000E+00
 -1      1566 0.00000E+00
 -1      1568 0.00000E+00
 -1      1569 0.00000E+00
 -1      1571 0.00000E+00
 -1      1572 0.00000E+00
 -1      1574 0.00000E+00
 -1      1575 0.00000E+00
 -1      1577 0.00000E+00
 -1      1578 0.00000E+00
 -1      1580 0.00000E+00
 -1      1581 0.00000E+00
 -1      1583 0.00000E+00
 -1      1584 0.00000E+00
 -1      1586 0.00000E+00
 -1      1587 0.00000E+00
 -1      1589 0.00000E+00
 -1      1590 0.00000E+00
 -1      1592 0.00000E+00
 -1      1593 0.00000E+00
 -1      1595 0.00000E+00
 -1      1596 0.00000E+00
 -1      1598 0.00000E+00
 -1      1599 0.00000E+00
 -1      1601 0.00000E+00
 -1      1602 0.00000E+00
 -1      1604 0.00000E+00
 -1      1605 0.00000E+00
 -1      1607 0.00000E+00
 -1      1608 0.00000E+00
 -1      1610 0.00000E+00
 -1      1611 0.00000E+00
 -1      1613 0.00000E+00
 -1      1614 0.00000E+00
 -1      1616 0.00000E+00
 -1      1617 0.00000E+00
 -1      1619 0.00000E+00
 -1      1620 0.00000E+00
 -1      1622 0.00000E+00
 -1      1623 0.00000E+00
 -1      1625 0.00000E+00
 -1      1626 0.00000E+00
 -1      1628 0.00000E+00
 -1      1629 0.00000E+00
 -1      1631 0.00000E+00
 -1      1632 0.00000E+00
 -1      1634 0.00000E+00
 -1      1635 0.00000E+00
 -1      1637 0.00000E+00
 -1      1638 0.00000E+00
 -1      1640 0.00000E+00
 -1      1641 0.00000E+00
 -1      1643 0.00000E+00
 -1      1644 0.00000E+00
 -1      1646 0.00000E+00
 -1      1647 0.00000E+00
 -1      1649 0.00000E+00
 -1      1650 0.00000E+00
 -1      1652 0.00000E+00
 -1      1653 0.00000E+00
 -1      1655 0.00000E+00
 -1      1656 0.00000E+00
 -1      1658 0.00000E+00
 -1      1659 0.00000E+00
 -1      1661 0.00000E+00
 -1      1662 0.00000E+00
 -1      1664 0.00000E+00
 -1      1665 0.00000E+00
 -1      1667 0.00000E+00
 -1      1668 0.00000E+00
 -1      1670 0.00000E+00
 -1      1671 0.00000E+00
 -1      1673 0.00000E+00
 -1      1674 0.00000E+00
 -1      1676 0.00000E+00
 -1      1677 0.00000E+00
 -1      1679 0.00000E+00
 -1      1680 0.00000E+00
 -1      1682 0.00000E+00
 -1      1683 0.00000E+00
 -1      1685 0.00000E+00
 -1      1686 0.00000E+00
 -1      1688 0.00000E+00
 -1      1689 0.00000E+00
 -1      1691 0.00000E+00
 -1      1692 0.00000E+00
 -1      1694 0.00000E+00
 -1      1695 0.00000E+00
 -1      1697 0.00000E+00
 -1      1698 0.00000E+00
 -1      1700 0.00000E+00
 -1      1701 0.00000E+00
 -1      1703 0.00000E+00
 -1      1704 0.00000E+00
 -1      1706 0.00000E+00
 -1      1707 0.00000E+00
 -1      1709 0.00000E+00
 -1      1710 0.00000E+00
 -1      1712 0.00000E+00
 -1      1713 0.00000E+00
 -1      1715 0.00000E+00
 -1      1716 0.00000E+00
 -1      1718 0.00000E+00
 -1      1719 0.00000E+00
 -1      1721 0.00000E+00
 -1      1722 0.00000E+00
 -1      1724 0.00000E+00
 -1      1725 0.00000E+00
 -1      1727 0.00000E+00
 -1      1728 0.00000E+00
 -1      1730 0.00000E+00
 -1      1731 0.00000E+00
 -1      1733 0.00000E+00
 -1      1734 0.00000E+00
 -1      1736 0.00000E+00
 -1      1737 0.00000E+00
 -1      1739 0.00000E+00
 -1      1740 0.00000E+00
 -1      1742 0.00000E+00
 -1      1743 0.00000E+00
 -1      1745 0.00000E+00
 -1      1746 0.00000E+00
 -1      1748 0.00000E+00
 -1      1749 0.00000E+00
 -1      1751 0.00000E+00
 -1      1752 0.00000E+00
 -1      1754 0.00000E+00
 -1      1755 0.00000E+00
 -1      1757 0.00000E+00
 -1      1758 0.00000E+00
 -1      1760 0.00000E+00
 -1      1761 0.00000E+00
 -1      1763 0.00000E+00
 -1      1764 0.00000E+00
 -1      1766 0.00000E+00
 -1      1767 0.00000E+00
 -1      1769 0.00000E+00
 -1      1770 0.00000E+00
 -1      1772 0.00000E+00
 -1      1773 0.00000E+00
 -1      1775 0.00000E+00
 -1      1776 0.00000E+00
 -1      1778 0.00000E+00
 -1      1779 0.00000E+00
 -1      1781 0.00000E+00
 -1      1782 0.00000E+00
 -1      1784 0.00000E+00
 -1      1785 0.00000E+00
 -1      1787 0.00000E+00
 -1      1788 0.00000E+00
 -1      1790 0.00000E+00
 -1      1791 0.00000E+00
 -1      1793 0.00000E+00
 -1      1794 0.00000E+00
 -1      1796 0.00000E+00
 -1      1797 0.00000E+00
 -1      1799 0.00000E+00
 -1      1800 0.00000E+00
 -1      1802 0.00000E+00
 -1      1803 0.00000E+00
 -1      1805 0.00000E+00
 -1      1806 0.00000E+00
 -1      1808 0.00000E+00
 -1      1809 0.00000E+00
 -1      1811 0.00000E+00
 -1      1812 0.00000E+00
 -1      1814 0.00000E+00
 -1      1815 0.00000E+00
 -1      1817 0.00000E+00
 -1      1818 0.00000E+00
 -1      1820 0.00000E+00
 -1      1821 0.00000E+00
 -1      1823 0.00000E+00
 -1      1824 0.00000E+00
 -1      1826 0.00000E+00
 -1      1827 0.00000E+00
 -1      1829 0.00000E+00
 -1      1830 0.00000E+00
 -1      1832 0.00000E+00
 -1      1833 0.00000E+00
 -1      1835 0.00000E+00
 -1      1836 0.00000E+00
 -1      1838 0.00000E+00
 -1      1839 0.00000E+00
 -1      1841 0.00000E+00
 -1      1842 0.00000E+00
 -1      1844 0.00000E+00
 -1      1845 0.00000E+00
 -1      1847 0.00000E+00
 -1      1848 0.00000E+00
 -1      1850 0.00000E+00
 -1      1851 0.00000E+00
 -1      1853 0.00000E+00
 -1      1854 0.00000E+00
 -1      1856 0.00000E+00
 -1      1857 0.00000E+00
 -1      1859 0.00000E+00
 -1      1860 0.00000E+00
 -1      1862 0.00000E+00
 -1      1863 0.00000E+00
 -1      1865 0.00000E+00
 -1      1866 0.00000E+00
 -1      1868 0.00000E+00
 -1      1869 0.00000E+00
 -1      1871 0.00000E+00
 -1      1872 0.00000E+00
 -1      1874 0.00000E+00
 -1      1875 0.00000E+00
 -1      1877 0.00000E+00
 -1      1878 0.00000E+00
 -1      1880 0.00000E+00
 -1      1881 0.00000E+00
 -1      1883 0.00000E+00
 -1      1884 0.00000E+00
 -1      1886 0.00000E+00
 -1      1887 0.00000E+00
 -1      1889 0.00000E+00
 -1      1890 0.00000E+00
 -1      1892 0.00000E+00
 -1      1893 0.00000E+00
 -1      1895 0.00000E+00
 -1      1896 0.00000E+00
 -1      1898 0.00000E+00
 -1      1899 0.00000E+00
 -1      1901 0.00000E+00
 -1      1902 0.00000E+00
 -1      1904 0.00000E+00
 -1      1905 0.00000E+00
 -1      1907 0.00000E+00
 -1      1908 0.00000E+00
 -1      1910 0.00000E+00
 -1      1911 0.00000E+00
 -1      1913 0.00000E+00
 -1      1914 0.00000E+00
 -1      1916 0.00000E+00
 -1      1917 0.00000E+00
 -1      1919 0.00000E+00
 -1      1920 0.00000E+00
 -1      1922 0.00000E+00
 -1      1923 0.00000E+00
 -1      1925 0.00000E+00
 -1      1926 0.00000E+00
 -1      1928 0.00000E+00
 -1      1929 0.00000E+00
 -1      1931 0.00000E+00
 -1      1932 0.00000E+00
 -1      1934 0.00000E+00
 -1      1935 0.00000E+00
 -1      1937 0.00000E+00
 -1      1938 0.00000E+00
 -1      1940 0.00000E+00
 -1      1941 0.00000E+00
 -1      1943 0.00000E+00
 -1      1944 0.00000E+00
 -1      1946 0.00000E+00
 -1      1947 0.00000E+00
 -1      1949 0.00000E+00
 -1      1950 0.00000E+00
 -1      1952 0.00000E+00
 -1      1953 0.00000E+00
 -1      1955 0.00000E+00
 -1      1956 0.00000E+00
 -1      1958 0.00000E+00
 -1      1959 0.00000E+00
 -1      1961 0.00000E+00
 -1      1962 0.00000E+00
 -1      1964 0.00000E+00
 -1      1965 0.00000E+00
 -1      1967 0.00000E+00
 -1      1968 0.00000E+00
 -1      1970 0.00000E+00
 -1      1971 0.00000E+00
 -1      1973 0.00000E+00
 -1      1974 0.00000E+00
 -1      1976 0.00000E+00
 -1      1977 0.00000E+00
 -1      1979 0.00000E+00
 -1      1980 0.00000E+00
 -1      1982 0.00000E+00
 -1      1983 0.00000E+00
 -1      1985 0.00000E+00
 -1      1986 0.00000E+00
 -1      1988 0.00000E+00
 -1      1989 0.00000E+00
 -1      1991 0.00000E+00
 -1      1992 0.00000E+00
 -1      1994 0.00000E+00
 -1      1995 0.00000E+00
 -1      1997 0.00000E+00
 -1      1998 0.00000E+00
 -1      2000 0.00000E+00
 -1      2001 0.00000E+00
 -1      2003 0.00000E+00
 -1      2004 0.00000E+00
 -1      2006 0.00000E+00
 -1      2007 0.00000E+00
 -1      2009 0.00000E+00
 -1      2010 0.00000E+00
 -1      2012 0.00000E+00
 -1      2013 0.00000E+00
 -1      2015 0.00000E+00
 -1      2016 0.00000E+00
 -1      2018 0.00000E+00
 -1      2019 0.00000E+00
 -1      2021 0.00000E+00
 -1      2022 0.00000E+00
 -1      2024 0.00000E+00
 -1      2025 0.00000E+00
 -1      2027 0.00000E+00
 -1      2028 0.00000E+00
 -1      2030 0.00000E+00
 -1      2031 0.00000E+00
 -1      2033 0.00000E+00
 -1      2034 0.00000E+00
 -1      2036 0.00000E+00
 -1      2037 0.00000E+00
 -1      2039 0.00000E+00
 -1      2040 0.00000E+00
 -1      2042 0.00000E+00
 -1      2043 0.00000E+00
 -1      2045 0.00000E+00
 -1      2046 0.00000E+00
 -1      2048 0.00000E+00
 -1      2049 0.00000E+00
 -1      2051 0.00000E+00
 -1      2052 0.00000E+00
 -1      2054 0.00000E+00
 -1      2055 0.00000E+00
 -1      2057 0.00000E+00
 -1      2058 0.00000E+00
 -1      2060 0.00000E+00
 -1      2061 0.00000E+00
 -1      2063 0.00000E+00
 -1      2064 0.00000E+00
 -1      2066 0.00000E+00
 -1      2067 0.00000E+00
 -1      2069 0.00000E+00
 -1      2070 0.00000E+00
 -1      2072 0.00000E+00
 -1      2073 0.00000E+00
 -1      2075 0.00000E+00
 -1      2076 0.00000E+00
 -1      2078 0.00000E+00
 -1      2079 0.00000E+00
 -1      2081 0.00000E+00
 -1      2082 0.00000E+00
 -1      2084 0.00000E+00
 -1      2085 0.00000E+00
 -1      2087 0.00000E+00
 -1      2088 0.00000E+00
 -1      2090 0.00000E+00
 -1      2091 0.00000E+00
 -1      2093 0.00000E+00
 -1      2094 0.00000E+00
 -1      2096 0.00000E+00
 -1      2097 0.00000E+00
 -1      2099 0.00000E+00
 -1      2100 0.00000E+00
 -1      2102 0.00000E+00
 -1      2103 0.00000E+00
 -1      2105 0.00000E+00
 -1      2106 0.00000E+00
 -1      2108 0.00000E+00
 -1      2109 0.00000E+00
 -1      2111 0.00000E+00
 -1      2112 0.00000E+00
 -1      2114 0.00000E+00
 -1      2115 0.00000E+00
 -1      2117 0.00000E+00
 -1      2118 0.00000E+00
 -1      2120 0.00000E+00
 -1      2121 0.00000E+00
 -1      2123 0.00000E+00
 -1      2124 0.00000E+00
 -1      2126 0.00000E+00
 -1      2127 0.00000E+00
 -1      2129 0.00000E+00
 -1      2130 0.00000E+00
 -1      2132 0.00000E+00
 -1      2133 0.00000E+00
 -1      2135 0.00000E+00
 -1      2136 0.00000E+00
 -1      2138 0.00000E+00
 -1      2139 0.00000E+00
 -1      2141 0.00000E+00
 -1      2142 0.00000E+00
 -1      2144 0.00000E+00
 -1      2145 0.00000E+00
 -1      2147 0.00000E+00
 -1      2148 0.00000E+00
 -1      2150 0.00000E+00
 -1      2151 0.00000E+00
 -1      2153 0.00000E+00
 -1      2154 0.00000E+00
 -1      2156 0.00000E+00
 -1      2157 0.00000E+00
 -1      2159 0.00000E+00
 -1      2160 0.00000E+00
 -1      2162 0.00000E+00
 -1      2163 0.00000E+00
 -1      2165 0.00000E+00
 -1      2166 0.00000E+00
 -1      2168 0.00000E+00
 -1      2169 0.00000E+00
 -1      2171 0.00000E+00
 -1      2172 0.00000E+00
 -1      2174 0.00000E+00
 -1      2175 0.00000E+00
 -1      2177 0.00000E+00
 -1      2178 0.00000E+00
 -1      2180 0.00000E+00
 -1      2181 0.00000E+00
 -1      2183 0.00000E+00
 -1      2184 0.00000E+00
 -1      2186 0.00000E+00
 -1      2187 0.00000E+00
 -1      2189 0.00000E+00
 -1      2190 0.00000E+00
 -1      2192 0.00000E+00
 -1      2193 0.00000E+00
 -1      2195 0.00000E+00
 -1      2196 0.00000E+00
 -1      2198 0.00000E+00
 -1      2199 0.00000E+00
 -1      2201 0.00000E+00
 -1      2202 0.00000E+00
 -1      2204 0.00000E+00
 -1      2205 0.00000E+00
 -1      2207 0.00000E+00
 -1      2208 0.00000E+00
 -1      2210 0.00000E+00
 -1      2211 0.00000E+00
 -1      2213 0.00000E+00
 -1      2214 0.00000E+00
 -1      2216 0.00000E+00
 -1      2217 0.00000E+00
 -1      2219 0.00000E+00
 -1      2220 0.00000E+00
 -1      2222 0.00000E+00
 -1      2223 0.00000E+00
 -1      2225 0.00000E+00
 -1      2226 0.00000E+00
 -1      2228 0.00000E+00
 -1      2229 0.00000E+00
 -1      2231 0.00000E+00
 -1      2232 0.00000E+00
 -1      2234 0.00000E+00
 -1      2235 0.00000E+00
 -1      2237 0.00000E+00
 -1      2238 0.00000E+00
 -1      2240 0.00000E+00
 -1      2241 0.00000E+00
 -1      2243 0.00000E+00
 -1      2244 0.00000E+00
 -1      2246 0.00000E+00
 -1      2247 0.00000E+00
 -1      2249 0.00000E+00
 -1      2250 0.00000E+00
 -1      2252 0.00000E+00
 -1      2253 0.00000E+00
 -1      2255 0.00000E+00
 -1      2256 0.00000E+00
 -1      2258 0.00000E+00
 -1      2259 0.00000E+00
 -1      2261 0.00000E+00
 -1      2262 0.00000E+00
 -1      2264 0.00000E+00
 -1      2265 0.00000E+00
 -1      2267 0.00000E+00
 -1      2268 0.00000E+00
 -1      2270 0.00000E+00
 -1      2271 0.00000E+00
 -1      2273 0.00000E+00
 -1      2274 0.00000E+00
 -1      2276 0.00000E+00
 -1      2277 0.00000E+00
 -1      2279 0.00000E+00
 -1      2280 0.00000E+00
 -1      2282 0.00000E+00
 -1      2283 0.00000E+00
 -1      2285 0.00000E+00
 -1      2286 0.00000E+00
 -1      2288 0.00000E+00
 -1      2289 0.00000E+00
 -1      2291 0.00000E+00
 -1      2292 0.00000E+00
 -1      2294 0.00000E+00
 -3
    1PSTEP                        77           1           1          
    1PGM                1.000000E+00                                  
    1PGK                1.752299E+07                                  
    1PHID                         -1                                  
    1PSUBC                         0                                  
    1PMODE                        20                                  
  100CL  120 666.2301594         930                     2   20MODAL      1
 -4  DISP        4    1
 -5  D1          1    2    1    0
 -5  D2          1    2    2    0
 -5  D3          1    2    3    0
 -5  ALL         1    2    0    0    1ALL
 -1       404 0.00000E+00 0.00000E+00 5.78436E-04
 -1       406 0.00000E+00-0.00000E+00-5.78436E-04
 -1       407-4.19257E-02 1.61098E-01-1.93957E-02
 -1       409-4.20184E-02 1.66110E-01-1.91710E-02
 -1       410-7.43082E-15 1.63046E-01 2.97868E-13
 -1       412-1.25254E-14 1.59845E-01 2.97663E-13
 -1       413 1.62637E-03 1.61446E-01-1.01939E-03
 -1       415-1.62637E-03 1.61446E-01 1.01939E-03
 -1       424 0.00000E+00 0.00000E+00 1.90020E-15
 -1       426 0.00000E+00 0.00000E+00-1.90020E-15
 -1       427 0.00000E+00 1.21050E-15 0.00000E+00
 -1       429 0.00000E+00-1.21050E-15 0.00000E+00
 -1       438 4.19257E-02 1.61098E-01 1.93957E-02
 -1       440 4.20184E-02 1.66110E-01 1.91710E-02
 -1       441 0.00000E+00 0.00000E+00-5.78436E-04
 -1       443 0.00000E+00-0.00000E+00 5.78436E-04
 -1       444 0.00000E+00-1.95279E-15 0.00000E+00
 -1       446 0.00000E+00 1.95279E-15 0.00000E+00
 -1       447 0.00000E+00 0.00000E+00 3.06542E-15
 -1       449 0.00000E+00 0.00000E+00-3.06542E-15
 -1       458-1.62637E-03-1.61446E-01-1.01939E-03
 -1       460 1.62637E-03-1.61446E-01 1.01939E-03
 -1       461-9.31648E-14-1.63046E-01 1.29785E-13
 -1       463-8.89603E-14-1.59845E-01 1.26482E-13
 -1       472 0.00000E+00 0.00000E+00-5.78436E-04
 -1       474 0.00000E+00 0.00000E+00 5.78436E-04
 -1       475-4.19257E-02-1.61098E-01 1.93957E-02
 -1       477-4.20184E-02-1.66110E-01 1.91710E-02
 -1       478 4.19257E-02-1.61098E-01-1.93957E-02
 -1       480 4.20184E-02-1.66110E-01-1.91710E-02
 -1       481 0.00000E+00 0.00000E+00 5.78436E-04
 -1       483 0.00000E+00 0.00000E+00-5.78436E-04
 -1       484 1.45121E-02-1.91606E-02-1.50323E-02
 -1       486 1.82785E-02-1.65437E-02-1.53064E-02
 -1       487 2.19279E-02-4.65564E-02-3.49204E-02
 -1       489 2.35858E-02-4.12359E-02-3.50586E-02
 -1       490 2.15623E-02-7.77215E-02-4.96012E-02
 -1       492 2.37168E-02-7.01625E-02-4.94882E-02
 -1       493 1.60507E-02-1.03352E-01-6.17382E-02
 -1       495 1.71354E-02-9.41026E-02-6.13509E-02
 -1       496 6.42269E-03-1.18845E-01-6.79565E-02
 -1       498 6.97909E-03-1.08713E-01-6.75617E-02
 -1       499-4.93837E-03-1.20329E-01-6.87334E-02
 -1       501-5.29652E-03-1.10113E-01-6.81927E-02
 -1       502-1.63853E-02-1.07112E-01-6.32550E-02
 -1       504-1.74756E-02-9.76480E-02-6.28538E-02
 -1       505-2.59108E-02-8.02520E-02-5.24448E-02
 -1       507-2.77005E-02-7.22861E-02-5.20690E-02
 -1       508-3.21686E-02-4.32180E-02-3.71015E-02
 -1       510-3.44458E-02-3.73553E-02-3.69560E-02
 -1       511-3.41239E-02-7.10012E-04-1.89427E-02
 -1       513-3.66764E-02 2.63036E-03-1.89269E-02
 -1       514-3.14866E-02 4.15727E-02 3.67208E-04
 -1       516-3.40572E-02 4.22129E-02 1.48278E-04
 -1       517-2.45429E-02 7.80486E-02 1.88487E-02
 -1       519-2.68871E-02 7.60349E-02 1.85055E-02
 -1       520-1.42340E-02 1.03809E-01 3.48478E-02
 -1       522-1.61376E-02 9.94281E-02 3.43607E-02
 -1       523-1.93911E-03 1.15447E-01 4.68951E-02
 -1       525-3.24218E-03 1.09163E-01 4.63823E-02
 -1       526 1.06563E-02 1.11425E-01 5.41076E-02
 -1       528 1.00414E-02 1.03849E-01 5.35982E-02
 -1       529 2.18370E-02 9.23546E-02 5.60732E-02
 -1       531 2.19224E-02 8.41575E-02 5.56672E-02
 -1       532 3.00561E-02 6.08704E-02 5.30176E-02
 -1       534 3.07777E-02 5.27378E-02 5.27495E-02
 -1       535 3.41789E-02 2.13004E-02 4.56388E-02
 -1       537 3.54111E-02 1.38468E-02 4.55577E-02
 -1       538 3.36047E-02-2.09223E-02 3.50639E-02
 -1       540 3.51768E-02-2.71868E-02 3.51788E-02
 -1       541 2.83824E-02-6.00180E-02 2.26589E-02
 -1       543 3.01032E-02-6.47414E-02 2.29483E-02
 -1       544 1.91570E-02-9.05721E-02 9.83933E-03
 -1       546 2.08389E-02-9.35593E-02 1.02840E-02
 -1       547 7.13471E-03-1.08378E-01-2.04863E-03
 -1       549 8.61464E-03-1.09603E-01-1.53748E-03
 -1       550-6.18486E-03-1.10765E-01-1.19957E-02
 -1       552-5.02297E-03-1.10335E-01-1.14377E-02
 -1       553-1.90708E-02-9.72864E-02-1.92521E-02
 -1       555-1.82952E-02-9.54117E-02-1.87782E-02
 -1       556-3.01246E-02-6.91302E-02-2.36548E-02
 -1       558-2.97322E-02-6.60809E-02-2.32395E-02
 -1       559-3.79481E-02-2.97188E-02-2.52434E-02
 -1       561-3.79066E-02-2.57557E-02-2.50233E-02
 -1       562-4.24645E-02 1.70581E-02-2.47223E-02
 -1       564-4.26534E-02 2.16520E-02-2.45932E-02
 -1       565-4.32338E-02 6.64935E-02-2.27314E-02
 -1       567-4.35720E-02 7.15822E-02-2.27638E-02
 -1       568-4.23202E-02 1.14357E-01-2.05149E-02
 -1       570-4.25817E-02 1.19536E-01-2.06396E-02
 -1       571-2.08198E-02 1.60889E-01-2.77806E-03
 -1       573-2.09220E-02 1.65708E-01-3.06325E-03
 -1       574 6.63391E-14-1.61019E-02 1.11911E-13
 -1       576 7.06496E-14-1.47621E-02 1.07628E-13
 -1       577-1.26219E-03-1.54320E-02 4.26746E-04
 -1       579 1.26219E-03-1.54320E-02-4.26746E-04
 -1       588 1.34355E-13-4.57101E-02 3.38513E-13
 -1       590 1.12907E-13-4.20523E-02 3.36614E-13
 -1       591-1.19591E-03-4.38812E-02 1.16508E-03
 -1       593 1.19591E-03-4.38812E-02-1.16508E-03
 -1       602 1.48102E-13-7.70121E-02 6.05142E-13
 -1       604 1.30992E-13-7.13930E-02 6.06625E-13
 -1       605-1.35873E-03-7.42026E-02 1.78980E-03
 -1       607 1.35873E-03-7.42026E-02-1.78980E-03
 -1       616 1.22509E-13-1.03479E-01 8.73485E-13
 -1       618 9.94735E-14-9.61910E-02 8.80464E-13
 -1       619-8.44984E-04-9.98350E-02 2.32135E-03
 -1       621 8.44984E-04-9.98350E-02-2.32135E-03
 -1       630 6.79149E-14-1.19262E-01 1.00511E-12
 -1       632 8.07023E-14-1.10987E-01 1.01007E-12
 -1       633-4.40371E-04-1.15124E-01 2.63589E-03
 -1       635 4.40371E-04-1.15124E-01-2.63589E-03
 -1       644 4.04495E-14-1.20991E-01 9.54268E-13
 -1       646 6.39184E-14-1.12574E-01 9.56259E-13
 -1       647 2.88480E-04-1.16783E-01 2.68097E-03
 -1       649-2.88480E-04-1.16783E-01-2.68097E-03
 -1       658 2.85478E-14-1.07591E-01 8.21585E-13
 -1       660 5.36711E-14-9.98906E-02 8.21191E-13
 -1       661 8.33659E-04-1.03741E-01 2.45268E-03
 -1       663-8.33659E-04-1.03741E-01-2.45268E-03
 -1       672 1.84517E-14-8.04196E-02 7.44942E-13
 -1       674 1.47284E-14-7.42752E-02 7.46927E-13
 -1       675 1.41057E-03-7.73474E-02 1.95711E-03
 -1       677-1.41057E-03-7.73474E-02-1.95711E-03
 -1       686-4.36822E-14-4.28042E-02 6.89160E-13
 -1       688-3.37749E-14-3.88375E-02 6.94220E-13
 -1       689 1.70849E-03-4.08208E-02 1.26345E-03
 -1       691-1.70849E-03-4.08208E-02-1.26345E-03
 -1       700-1.28293E-13 2.88125E-04 4.43635E-13
 -1       702-7.99572E-14 1.66936E-03 4.47805E-13
 -1       703 1.85104E-03 9.78743E-04 4.39949E-04
 -1       705-1.85104E-03 9.78743E-04-4.39949E-04
 -1       714-1.68254E-13 4.31648E-02 1.71729E-14
 -1       716-1.08670E-13 4.18791E-02 1.74938E-14
 -1       717 1.69167E-03 4.25220E-02-4.09496E-04
 -1       719-1.69167E-03 4.25220E-02 4.09496E-04
 -1       728-1.55333E-13 8.00362E-02-3.97228E-13
 -1       730-1.12751E-13 7.62863E-02-3.95957E-13
 -1       731 1.34244E-03 7.81612E-02-1.19442E-03
 -1       733-1.34244E-03 7.81612E-02 1.19442E-03
 -1       742-1.23317E-13 1.05967E-01-6.97151E-13
 -1       744-9.68676E-14 1.00242E-01-6.95423E-13
 -1       745 7.81606E-04 1.03105E-01-1.82354E-03
 -1       747-7.81606E-04 1.03105E-01 1.82354E-03
 -1       756-7.56098E-14 1.17444E-01-8.87412E-13
 -1       758-5.99415E-14 1.10435E-01-8.89219E-13
 -1       759 1.36743E-04 1.13939E-01-2.23254E-03
 -1       761-1.36743E-04 1.13939E-01 2.23254E-03
 -1       770-2.25664E-14 1.12949E-01-1.01573E-12
 -1       772-7.04882E-15 1.05466E-01-1.01506E-12
 -1       773-5.45102E-04 1.09207E-01-2.38343E-03
 -1       775 5.45102E-04 1.09207E-01 2.38343E-03
 -1       784 3.62004E-14 9.31056E-02-1.08700E-12
 -1       786 4.26254E-14 8.59819E-02-1.08555E-12
 -1       787-1.13702E-03 8.95437E-02-2.26902E-03
 -1       789 1.13702E-03 8.95437E-02 2.26902E-03
 -1       798 1.16480E-13 6.06458E-02-1.06613E-12
 -1       800 1.08173E-13 5.46179E-02-1.06684E-12
 -1       801-1.58920E-03 5.76319E-02-1.92000E-03
 -1       803 1.58920E-03 5.76319E-02 1.92000E-03
 -1       812 2.05875E-13 2.00085E-02-9.68704E-13
 -1       814 1.91682E-13 1.56593E-02-9.69885E-13
 -1       815-1.80775E-03 1.78339E-02-1.38530E-03
 -1       817 1.80775E-03 1.78339E-02 1.38530E-03
 -1       826 2.57193E-13-2.32396E-02-8.72571E-13
 -1       828 2.51900E-13-2.55876E-02-8.71494E-13
 -1       829-1.79799E-03-2.44136E-02-7.47872E-04
 -1       831 1.79799E-03-2.44136E-02 7.47872E-04
 -1       840 2.73228E-13-6.31627E-02-8.04688E-13
 -1       842 2.69789E-13-6.34181E-02-8.04431E-13
 -1       843-1.51609E-03-6.32904E-02-8.13742E-05
 -1       845 1.51609E-03-6.32904E-02 8.13742E-05
 -1       854 2.73387E-13-9.42576E-02-6.91636E-13
 -1       856 2.52144E-13-9.26344E-02-6.88990E-13
 -1       857-1.05542E-03-9.34460E-02 5.17026E-04
 -1       859 1.05542E-03-9.34460E-02-5.17026E-04
 -1       868 2.45367E-13-1.12168E-01-5.34800E-13
 -1       870 2.27810E-13-1.09047E-01-5.30875E-13
 -1       871-4.00920E-04-1.10608E-01 9.94076E-04
 -1       873 4.00920E-04-1.10608E-01-9.94076E-04
 -1       882 1.98143E-13-1.14282E-01-4.41617E-13
 -1       884 1.95577E-13-1.10275E-01-4.34328E-13
 -1       885 2.61022E-04-1.12278E-01 1.27638E-03
 -1       887-2.61022E-04-1.12278E-01-1.27638E-03
 -1       896 1.57591E-13-1.00013E-01-3.71467E-13
 -1       898 1.46585E-13-9.57208E-02-3.70793E-13
 -1       899 9.81542E-04-9.78670E-02 1.36723E-03
 -1       901-9.81542E-04-9.78670E-02-1.36723E-03
 -1       910 1.29150E-13-7.08054E-02-2.70395E-13
 -1       912 1.12303E-13-6.69371E-02-2.67006E-13
 -1       913 1.49324E-03-6.88712E-02 1.23213E-03
 -1       915-1.49324E-03-6.88712E-02-1.23213E-03
 -1       924 1.07955E-13-3.00180E-02-1.45112E-13
 -1       926 9.00189E-14-2.70587E-02-1.41554E-13
 -1       927 1.96560E-03-2.85384E-02 9.42583E-04
 -1       929-1.96560E-03-2.85384E-02-9.42583E-04
 -1       938 7.66777E-14 1.83738E-02-1.50148E-14
 -1       940 6.01643E-14 1.98878E-02-1.23453E-14
 -1       941 2.09653E-03 1.91308E-02 4.82232E-04
 -1       943-2.09653E-03 1.91308E-02-4.82232E-04
 -1       952 4.22611E-14 6.86468E-02 1.00531E-13
 -1       954 2.84463E-14 6.86014E-02 1.00572E-13
 -1       955 2.14530E-03 6.86241E-02-1.44747E-05
 -1       957-2.14530E-03 6.86241E-02 1.44747E-05
 -1       966 1.02781E-14 1.19087E-01 2.15650E-13
 -1       968-4.83803E-15 1.17219E-01 2.17532E-13
 -1       969 2.06982E-03 1.18153E-01-5.95069E-04
 -1       971-2.06982E-03 1.18153E-01 5.95069E-04
 -1       980 0.00000E+00 0.00000E+00 1.94921E-04
 -1       982 0.00000E+00-0.00000E+00-1.94921E-04
 -1       983 2.08198E-02 1.60889E-01 2.77806E-03
 -1       985 2.09220E-02 1.65708E-01 3.06325E-03
 -1       986-1.45121E-02-1.91606E-02 1.50323E-02
 -1       988-1.82785E-02-1.65437E-02 1.53064E-02
 -1       989-2.19279E-02-4.65564E-02 3.49204E-02
 -1       991-2.35858E-02-4.12359E-02 3.50586E-02
 -1       992-2.15623E-02-7.77215E-02 4.96012E-02
 -1       994-2.37168E-02-7.01625E-02 4.94882E-02
 -1       995-1.60507E-02-1.03352E-01 6.17382E-02
 -1       997-1.71354E-02-9.41026E-02 6.13509E-02
 -1       998-6.42269E-03-1.18845E-01 6.79565E-02
 -1      1000-6.97909E-03-1.08713E-01 6.75617E-02
 -1      1001 4.93837E-03-1.20329E-01 6.87334E-02
 -1      1003 5.29652E-03-1.10113E-01 6.81927E-02
 -1      1004 1.63853E-02-1.07112E-01 6.32550E-02
 -1      1006 1.74756E-02-9.76480E-02 6.28538E-02
 -1      1007 2.59108E-02-8.02520E-02 5.24448E-02
 -1      1009 2.77005E-02-7.22861E-02 5.20690E-02
 -1      1010 3.21686E-02-4.32180E-02 3.71015E-02
 -1      1012 3.44458E-02-3.73553E-02 3.69560E-02
 -1      1013 3.41239E-02-7.10012E-04 1.89427E-02
 -1      1015 3.66764E-02 2.63036E-03 1.89269E-02
 -1      1016 3.14866E-02 4.15727E-02-3.67208E-04
 -1      1018 3.40572E-02 4.22129E-02-1.48278E-04
 -1      1019 2.45429E-02 7.80486E-02-1.88487E-02
 -1      1021 2.68871E-02 7.60349E-02-1.85055E-02
 -1      1022 1.42340E-02 1.03809E-01-3.48478E-02
 -1      1024 1.61376E-02 9.94281E-02-3.43607E-02
 -1      1025 1.93911E-03 1.15447E-01-4.68951E-02
 -1      1027 3.24218E-03 1.09163E-01-4.63823E-02
 -1      1028-1.06563E-02 1.11425E-01-5.41076E-02
 -1      1030-1.00414E-02 1.03849E-01-5.35982E-02
 -1      1031-2.18370E-02 9.23546E-02-5.60732E-02
 -1      1033-2.19224E-02 8.41575E-02-5.56672E-02
 -1      1034-3.00561E-02 6.08704E-02-5.30176E-02
 -1      1036-3.07777E-02 5.27378E-02-5.27495E-02
 -1      1037-3.41789E-02 2.13004E-02-4.56388E-02
 -1      1039-3.54111E-02 1.38468E-02-4.55577E-02
 -1      1040-3.36047E-02-2.09223E-02-3.50639E-02
 -1      1042-3.51768E-02-2.71868E-02-3.51788E-02
 -1      1043-2.83824E-02-6.00180E-02-2.26589E-02
 -1      1045-3.01032E-02-6.47414E-02-2.29483E-02
 -1      1046-1.91570E-02-9.05721E-02-9.83933E-03
 -1      1048-2.08389E-02-9.35593E-02-1.02840E-02
 -1      1049-7.13471E-03-1.08378E-01 2.04863E-03
 -1      1051-8.61464E-03-1.09603E-01 1.53748E-03
 -1      1052 6.18486E-03-1.10765E-01 1.19957E-02
 -1      1054 5.02297E-03-1.10335E-01 1.14377E-02
 -1      1055 1.90708E-02-9.72864E-02 1.92521E-02
 -1      1057 1.82952E-02-9.54117E-02 1.87782E-02
 -1      1058 3.01246E-02-6.91302E-02 2.36548E-02
 -1      1060 2.97322E-02-6.60809E-02 2.32395E-02
 -1      1061 3.79481E-02-2.97188E-02 2.52434E-02
 -1      1063 3.79066E-02-2.57557E-02 2.50233E-02
 -1      1064 4.24645E-02 1.70581E-02 2.47223E-02
 -1      1066 4.26534E-02 2.16520E-02 2.45932E-02
 -1      1067 4.32338E-02 6.64935E-02 2.27314E-02
 -1      1069 4.35720E-02 7.15822E-02 2.27638E-02
 -1      1070 4.23202E-02 1.14357E-01 2.05149E-02
 -1      1072 4.25817E-02 1.19536E-01 2.06396E-02
 -1      1073 0.00000E+00 0.00000E+00-1.94921E-04
 -1      1075 0.00000E+00-0.00000E+00 1.94921E-04
 -1      1076 0.00000E+00 5.38496E-16 0.00000E+00
 -1      1078 0.00000E+00-5.38496E-16 0.00000E+00
 -1      1079 0.00000E+00 2.74683E-16 0.00000E+00
 -1      1081 0.00000E+00-2.74683E-16 0.00000E+00
 -1      1082 0.00000E+00-6.22244E-16 0.00000E+00
 -1      1084 0.00000E+00 6.22244E-16 0.00000E+00
 -1      1085 1.26219E-03 1.54320E-02 4.26746E-04
 -1      1087-1.26219E-03 1.54320E-02-4.26746E-04
 -1      1088-1.08442E-13 1.61019E-02 2.45175E-13
 -1      1090-3.70060E-14 1.47621E-02 2.43573E-13
 -1      1099 1.19591E-03 4.38812E-02 1.16508E-03
 -1      1101-1.19591E-03 4.38812E-02-1.16508E-03
 -1      1102-8.92153E-14 4.57101E-02 4.20686E-13
 -1      1104-9.30417E-14 4.20523E-02 4.21113E-13
 -1      1113 1.35873E-03 7.42026E-02 1.78980E-03
 -1      1115-1.35873E-03 7.42026E-02-1.78980E-03
 -1      1116-1.04501E-13 7.70121E-02 5.05366E-13
 -1      1118-6.99008E-14 7.13930E-02 5.05597E-13
 -1      1127 8.44984E-04 9.98350E-02 2.32135E-03
 -1      1129-8.44984E-04 9.98350E-02-2.32135E-03
 -1      1130-7.83323E-14 1.03479E-01 5.88520E-13
 -1      1132-7.35462E-14 9.61910E-02 5.88979E-13
 -1      1141 4.40371E-04 1.15124E-01 2.63589E-03
 -1      1143-4.40371E-04 1.15124E-01-2.63589E-03
 -1      1144-5.95254E-14 1.19262E-01 6.15263E-13
 -1      1146-4.81663E-14 1.10987E-01 6.16843E-13
 -1      1155-2.88480E-04 1.16783E-01 2.68097E-03
 -1      1157 2.88480E-04 1.16783E-01-2.68097E-03
 -1      1158-2.09777E-14 1.20991E-01 6.13492E-13
 -1      1160-2.24181E-14 1.12574E-01 6.14144E-13
 -1      1169-8.33659E-04 1.03741E-01 2.45268E-03
 -1      1171 8.33659E-04 1.03741E-01-2.45268E-03
 -1      1172 2.28786E-14 1.07591E-01 6.57835E-13
 -1      1174 4.64132E-14 9.98906E-02 6.58418E-13
 -1      1183-1.41057E-03 7.73474E-02 1.95711E-03
 -1      1185 1.41057E-03 7.73474E-02-1.95711E-03
 -1      1186 1.24450E-13 8.04196E-02 6.83112E-13
 -1      1188 1.19216E-13 7.42752E-02 6.89193E-13
 -1      1197-1.70849E-03 4.08208E-02 1.26345E-03
 -1      1199 1.70849E-03 4.08208E-02-1.26345E-03
 -1      1200 2.23556E-13 4.28042E-02 4.91804E-13
 -1      1202 1.76568E-13 3.88375E-02 4.95156E-13
 -1      1211-1.85104E-03-9.78743E-04 4.39949E-04
 -1      1213 1.85104E-03-9.78743E-04-4.39949E-04
 -1      1214 2.68599E-13-2.88125E-04 1.57780E-13
 -1      1216 2.17943E-13-1.66936E-03 1.59439E-13
 -1      1225-1.69167E-03-4.25220E-02-4.09496E-04
 -1      1227 1.69167E-03-4.25220E-02 4.09496E-04
 -1      1228 2.91404E-13-4.31648E-02-1.32058E-13
 -1      1230 2.56949E-13-4.18791E-02-1.31433E-13
 -1      1239-1.34244E-03-7.81612E-02-1.19442E-03
 -1      1241 1.34244E-03-7.81612E-02 1.19442E-03
 -1      1242 3.11245E-13-8.00362E-02-3.56166E-13
 -1      1244 2.80449E-13-7.62863E-02-3.60705E-13
 -1      1253-7.81606E-04-1.03105E-01-1.82354E-03
 -1      1255 7.81606E-04-1.03105E-01 1.82354E-03
 -1      1256 2.97365E-13-1.05967E-01-5.59050E-13
 -1      1258 2.70556E-13-1.00242E-01-5.62712E-13
 -1      1267-1.36743E-04-1.13939E-01-2.23254E-03
 -1      1269 1.36743E-04-1.13939E-01 2.23254E-03
 -1      1270 2.47751E-13-1.17444E-01-7.67596E-13
 -1      1272 2.17447E-13-1.10435E-01-7.69591E-13
 -1      1281 5.45102E-04-1.09207E-01-2.38343E-03
 -1      1283-5.45102E-04-1.09207E-01 2.38343E-03
 -1      1284 1.64369E-13-1.12949E-01-9.17589E-13
 -1      1286 1.53675E-13-1.05466E-01-9.25909E-13
 -1      1295 1.13702E-03-8.95437E-02-2.26902E-03
 -1      1297-1.13702E-03-8.95437E-02 2.26902E-03
 -1      1298 8.91788E-14-9.31056E-02-9.40565E-13
 -1      1300 9.90559E-14-8.59819E-02-9.46134E-13
 -1      1309 1.58920E-03-5.76319E-02-1.92000E-03
 -1      1311-1.58920E-03-5.76319E-02 1.92000E-03
 -1      1312 5.40267E-14-6.06458E-02-9.49500E-13
 -1      1314 4.93385E-14-5.46179E-02-9.52937E-13
 -1      1323 1.80775E-03-1.78339E-02-1.38530E-03
 -1      1325-1.80775E-03-1.78339E-02 1.38530E-03
 -1      1326 2.86105E-14-2.00085E-02-1.01634E-12
 -1      1328 2.28865E-14-1.56593E-02-1.01983E-12
 -1      1337 1.79799E-03 2.44136E-02-7.47872E-04
 -1      1339-1.79799E-03 2.44136E-02 7.47872E-04
 -1      1340 1.51090E-14 2.32396E-02-1.05211E-12
 -1      1342 2.18753E-14 2.55876E-02-1.05330E-12
 -1      1351 1.51609E-03 6.32904E-02-8.13742E-05
 -1      1353-1.51609E-03 6.32904E-02 8.13742E-05
 -1      1354 6.91099E-15 6.31627E-02-1.03249E-12
 -1      1356 1.53785E-14 6.34181E-02-1.03683E-12
 -1      1365 1.05542E-03 9.34460E-02 5.17026E-04
 -1      1367-1.05542E-03 9.34460E-02-5.17026E-04
 -1      1368-2.04707E-14 9.42576E-02-9.47111E-13
 -1      1370 1.30201E-15 9.26344E-02-9.52096E-13
 -1      1379 4.00920E-04 1.10608E-01 9.94076E-04
 -1      1381-4.00920E-04 1.10608E-01-9.94076E-04
 -1      1382-5.42727E-14 1.12168E-01-7.27581E-13
 -1      1384-1.16303E-14 1.09047E-01-7.31661E-13
 -1      1393-2.61022E-04 1.12278E-01 1.27638E-03
 -1      1395 2.61022E-04 1.12278E-01-1.27638E-03
 -1      1396-7.67058E-14 1.14282E-01-4.36991E-13
 -1      1398-3.61996E-14 1.10275E-01-4.38987E-13
 -1      1407-9.81542E-04 9.78670E-02 1.36723E-03
 -1      1409 9.81542E-04 9.78670E-02-1.36723E-03
 -1      1410-9.04092E-14 1.00013E-01-2.57164E-13
 -1      1412-8.20189E-14 9.57208E-02-2.58702E-13
 -1      1421-1.49324E-03 6.88712E-02 1.23213E-03
 -1      1423 1.49324E-03 6.88712E-02-1.23213E-03
 -1      1424-1.17065E-13 7.08054E-02-2.11510E-13
 -1      1426-1.16567E-13 6.69371E-02-2.13265E-13
 -1      1435-1.96560E-03 2.85384E-02 9.42583E-04
 -1      1437 1.96560E-03 2.85384E-02-9.42583E-04
 -1      1438-1.46673E-13 3.00180E-02-1.31166E-13
 -1      1440-1.25492E-13 2.70587E-02-1.38310E-13
 -1      1449-2.09653E-03-1.91308E-02 4.82232E-04
 -1      1451 2.09653E-03-1.91308E-02-4.82232E-04
 -1      1452-1.50164E-13-1.83738E-02 1.89399E-14
 -1      1454-1.23558E-13-1.98878E-02 2.33631E-14
 -1      1463-2.14530E-03-6.86241E-02-1.44747E-05
 -1      1465 2.14530E-03-6.86241E-02 1.44747E-05
 -1      1466-1.22800E-13-6.86468E-02 1.22957E-13
 -1      1468-1.17889E-13-6.86014E-02 1.20688E-13
 -1      1477-2.06982E-03-1.18153E-01-5.95069E-04
 -1      1479 2.06982E-03-1.18153E-01 5.95069E-04
 -1      1480-9.86472E-14-1.19087E-01 1.25021E-13
 -1      1482-1.02834E-13-1.17219E-01 1.28151E-13
 -1      1491 8.44761E-04 9.68714E-02-4.37441E-03
 -1      1493-8.44761E-04 9.68714E-02 4.37441E-03
 -1      1494-5.29889E-14 8.13433E-12-3.88345E-03
 -1      1496-8.30412E-14 8.13753E-12 3.88345E-03
 -1      1497-8.44761E-04-9.68714E-02-4.37441E-03
 -1      1499 8.44761E-04-9.68714E-02 4.37441E-03
 -1      1500 1.45121E-02 1.91606E-02 1.50323E-02
 -1      1502 1.82785E-02 1.65437E-02 1.53064E-02
 -1      1503 2.19279E-02 4.65564E-02 3.49204E-02
 -1      1505 2.35858E-02 4.12359E-02 3.50586E-02
 -1      1506 2.15623E-02 7.77215E-02 4.96012E-02
 -1      1508 2.37168E-02 7.01625E-02 4.94882E-02
 -1      1509 1.60507E-02 1.03352E-01 6.17382E-02
 -1      1511 1.71354E-02 9.41026E-02 6.13509E-02
 -1      1512 6.42269E-03 1.18845E-01 6.79565E-02
 -1      1514 6.97909E-03 1.08713E-01 6.75617E-02
 -1      1515-4.93837E-03 1.20329E-01 6.87334E-02
 -1      1517-5.29652E-03 1.10113E-01 6.81927E-02
 -1      1518-1.63853E-02 1.07112E-01 6.32550E-02
 -1      1520-1.74756E-02 9.76480E-02 6.28538E-02
 -1      1521-2.59108E-02 8.02520E-02 5.24448E-02
 -1      1523-2.77005E-02 7.22861E-02 5.20690E-02
 -1      1524-3.21686E-02 4.32180E-02 3.71015E-02
 -1      1526-3.44458E-02 3.73553E-02 3.69560E-02
 -1      1527-3.41239E-02 7.10012E-04 1.89427E-02
 -1      1529-3.66764E-02-2.63036E-03 1.89269E-02
 -1      1530-3.14866E-02-4.15727E-02-3.67208E-04
 -1      1532-3.40572E-02-4.22129E-02-1.48278E-04
 -1      1533-2.45429E-02-7.80486E-02-1.88487E-02
 -1      1535-2.68871E-02-7.60349E-02-1.85055E-02
 -1      1536-1.42340E-02-1.03809E-01-3.48478E-02
 -1      1538-1.61376E-02-9.94281E-02-3.43607E-02
 -1      1539-1.93911E-03-1.15447E-01-4.68951E-02
 -1      1541-3.24218E-03-1.09163E-01-4.63823E-02
 -1      1542 1.06563E-02-1.11425E-01-5.41076E-02
 -1      1544 1.00414E-02-1.03849E-01-5.35982E-02
 -1      1545 2.18370E-02-9.23546E-02-5.60732E-02
 -1      1547 2.19224E-02-8.41575E-02-5.56672E-02
 -1      1548 3.00561E-02-6.08704E-02-5.30176E-02
 -1      1550 3.07777E-02-5.27378E-02-5.27495E-02
 -1      1551 3.41789E-02-2.13004E-02-4.56388E-02
 -1      1553 3.54111E-02-1.38468E-02-4.55577E-02
 -1      1554 3.36047E-02 2.09223E-02-3.50639E-02
 -1      1556 3.51768E-02 2.71868E-02-3.51788E-02
 -1      1557 2.83824E-02 6.00180E-02-2.26589E-02
 -1      1559 3.01032E-02 6.47414E-02-2.29483E-02
 -1      1560 1.91570E-02 9.05721E-02-9.83933E-03
 -1      1562 2.08389E-02 9.35593E-02-1.02840E-02
 -1      1563 7.13471E-03 1.08378E-01 2.04863E-03
 -1      1565 8.61464E-03 1.09603E-01 1.53748E-03
 -1      1566-6.18486E-03 1.10765E-01 1.19957E-02
 -1      1568-5.02297E-03 1.10335E-01 1.14377E-02
 -1      1569-1.90708E-02 9.72864E-02 1.92521E-02
 -1      1571-1.82952E-02 9.54117E-02 1.87782E-02
 -1      1572-3.01246E-02 6.91302E-02 2.36548E-02
 -1      1574-2.97322E-02 6.60809E-02 2.32395E-02
 -1      1575-3.79481E-02 2.97188E-02 2.52434E-02
 -1      1577-3.79066E-02 2.57557E-02 2.50233E-02
 -1      1578-4.24645E-02-1.70581E-02 2.47223E-02
 -1      1580-4.26534E-02-2.16520E-02 2.45932E-02
 -1      1581-4.32338E-02-6.64935E-02 2.27314E-02
 -1      1583-4.35720E-02-7.15822E-02 2.27638E-02
 -1      1584-4.23202E-02-1.14357E-01 2.05149E-02
 -1      1586-4.25817E-02-1.19536E-01 2.06396E-02
 -1      1587-2.08198E-02-1.60889E-01 2.77806E-03
 -1      1589-2.09220E-02-1.65708E-01 3.06325E-03
 -1      1590 0.00000E+00 0.00000E+00-1.94921E-04
 -1      1592 0.00000E+00 0.00000E+00 1.94921E-04
 -1      1593 2.08198E-02-1.60889E-01-2.77806E-03
 -1      1595 2.09220E-02-1.65708E-01-3.06325E-03
 -1      1596-1.45121E-02 1.91606E-02-1.50323E-02
 -1      1598-1.82785E-02 1.65437E-02-1.53064E-02
 -1      1599-2.19279E-02 4.65564E-02-3.49204E-02
 -1      1601-2.35858E-02 4.12359E-02-3.50586E-02
 -1      1602-2.15623E-02 7.77215E-02-4.96012E-02
 -1      1604-2.37168E-02 7.01625E-02-4.94882E-02
 -1      1605-1.60507E-02 1.03352E-01-6.17382E-02
 -1      1607-1.71354E-02 9.41026E-02-6.13509E-02
 -1      1608-6.42269E-03 1.18845E-01-6.79565E-02
 -1      1610-6.97909E-03 1.08713E-01-6.75617E-02
 -1      1611 4.93837E-03 1.20329E-01-6.87334E-02
 -1      1613 5.29652E-03 1.10113E-01-6.81927E-02
 -1      1614 1.63853E-02 1.07112E-01-6.32550E-02
 -1      1616 1.74756E-02 9.76480E-02-6.28538E-02
 -1      1617 2.59108E-02 8.02520E-02-5.24448E-02
 -1      1619 2.77005E-02 7.22861E-02-5.20690E-02
 -1      1620 3.21686E-02 4.32180E-02-3.71015E-02
 -1      1622 3.44458E-02 3.73553E-02-3.69560E-02
 -1      1623 3.41239E-02 7.10012E-04-1.89427E-02
 -1      1625 3.66764E-02-2.63036E-03-1.89269E-02
 -1      1626 3.14866E-02-4.15727E-02 3.67208E-04
 -1      1628 3.40572E-02-4.22129E-02 1.48278E-04
 -1      1629 2.45429E-02-7.80486E-02 1.88487E-02
 -1      1631 2.68871E-02-7.60349E-02 1.85055E-02
 -1      1632 1.42340E-02-1.03809E-01 3.48478E-02
 -1      1634 1.61376E-02-9.94281E-02 3.43607E-02
 -1      1635 1.93911E-03-1.15447E-01 4.68951E-02
 -1      1637 3.24218E-03-1.09163E-01 4.63823E-02
 -1      1638-1.06563E-02-1.11425E-01 5.41076E-02
 -1      1640-1.00414E-02-1.03849E-01 5.35982E-02
 -1      1641-2.18370E-02-9.23546E-02 5.60732E-02
 -1      1643-2.19224E-02-8.41575E-02 5.56672E-02
 -1      1644-3.00561E-02-6.08704E-02 5.30176E-02
 -1      1646-3.07777E-02-5.27378E-02 5.27495E-02
 -1      1647-3.41789E-02-2.13004E-02 4.56388E-02
 -1      1649-3.54111E-02-1.38468E-02 4.55577E-02
 -1      1650-3.36047E-02 2.09223E-02 3.50639E-02
 -1      1652-3.51768E-02 2.71868E-02 3.51788E-02
 -1      1653-2.83824E-02 6.00180E-02 2.26589E-02
 -1      1655-3.01032E-02 6.47414E-02 2.29483E-02
 -1      1656-1.91570E-02 9.05721E-02 9.83933E-03
 -1      1658-2.08389E-02 9.35593E-02 1.02840E-02
 -1      1659-7.13471E-03 1.08378E-01-2.04863E-03
 -1      1661-8.61464E-03 1.09603E-01-1.53748E-03
 -1      1662 6.18486E-03 1.10765E-01-1.19957E-02
 -1      1664 5.02297E-03 1.10335E-01-1.14377E-02
 -1      1665 1.90708E-02 9.72864E-02-1.92521E-02
 -1      1667 1.82952E-02 9.54117E-02-1.87782E-02
 -1      1668 3.01246E-02 6.91302E-02-2.36548E-02
 -1      1670 2.97322E-02 6.60809E-02-2.32395E-02
 -1      1671 3.79481E-02 2.97188E-02-2.52434E-02
 -1      1673 3.79066E-02 2.57557E-02-2.50233E-02
 -1      1674 4.24645E-02-1.70581E-02-2.47223E-02
 -1      1676 4.26534E-02-2.16520E-02-2.45932E-02
 -1      1677 4.32338E-02-6.64935E-02-2.27314E-02
 -1      1679 4.35720E-02-7.15822E-02-2.27638E-02
 -1      1680 4.23202E-02-1.14357E-01-2.05149E-02
 -1      1682 4.25817E-02-1.19536E-01-2.06396E-02
 -1      1683 0.00000E+00 0.00000E+00 1.94921E-04
 -1      1685 0.00000E+00 0.00000E+00-1.94921E-04
 -1      1686 5.65446E-03-1.70642E-02-6.34879E-03
 -1      1688 7.45524E-03-1.44672E-02-6.63884E-03
 -1      1689 1.04157E-02-4.70644E-02-1.61731E-02
 -1      1691 1.12545E-02-4.11195E-02-1.62265E-02
 -1      1692 1.00202E-02-7.81399E-02-2.31961E-02
 -1      1694 1.10924E-02-6.98481E-02-2.31237E-02
 -1      1695 7.58988E-03-1.04763E-01-2.93049E-02
 -1      1697 8.16516E-03-9.46298E-02-2.91427E-02
 -1      1698 2.97896E-03-1.20340E-01-3.24936E-02
 -1      1700 3.26500E-03-1.09214E-01-3.22404E-02
 -1      1701-2.47470E-03-1.22064E-01-3.29254E-02
 -1      1703-2.64608E-03-1.10891E-01-3.26788E-02
 -1      1704-7.96322E-03-1.08596E-01-3.02234E-02
 -1      1706-8.52732E-03-9.82686E-02-2.99755E-02
 -1      1707-1.25590E-02-8.14144E-02-2.47450E-02
 -1      1709-1.34804E-02-7.28283E-02-2.45718E-02
 -1      1710-1.55639E-02-4.37969E-02-1.70113E-02
 -1      1712-1.67405E-02-3.76095E-02-1.69134E-02
 -1      1713-1.65079E-02-6.74273E-04-7.84970E-03
 -1      1715-1.78165E-02 2.62510E-03-7.85718E-03
 -1      1716-1.52291E-02 4.22635E-02 1.78455E-03
 -1      1718-1.65354E-02 4.25093E-02 1.67747E-03
 -1      1719-1.18769E-02 7.92848E-02 1.08933E-02
 -1      1721-1.30462E-02 7.65591E-02 1.07016E-02
 -1      1722-6.89754E-03 1.05444E-01 1.85743E-02
 -1      1724-7.81865E-03 1.00125E-01 1.83172E-02
 -1      1725-9.61054E-04 1.17256E-01 2.40982E-02
 -1      1727-1.55046E-03 1.09921E-01 2.38212E-02
 -1      1728 5.12245E-03 1.13173E-01 2.70246E-02
 -1      1730 4.90480E-03 1.04565E-01 2.67513E-02
 -1      1731 1.05224E-02 9.38065E-02 2.71962E-02
 -1      1733 1.06757E-02 8.47265E-02 2.69811E-02
 -1      1734 1.44944E-02 6.18340E-02 2.48035E-02
 -1      1736 1.49745E-02 5.30722E-02 2.46556E-02
 -1      1737 1.64876E-02 2.16531E-02 2.02759E-02
 -1      1739 1.72178E-02 1.39008E-02 2.02400E-02
 -1      1740 1.62149E-02-2.12336E-02 1.43008E-02
 -1      1742 1.70947E-02-2.74420E-02 1.43532E-02
 -1      1743 1.36945E-02-6.09315E-02 7.62712E-03
 -1      1745 1.46142E-02-6.52583E-02 7.79683E-03
 -1      1746 9.24302E-03-9.19917E-02 1.08788E-03
 -1      1748 1.00987E-02-9.43136E-02 1.30942E-03
 -1      1749 3.42988E-03-1.10060E-01-4.65025E-03
 -1      1751 4.13185E-03-1.10451E-01-4.35130E-03
 -1      1752-3.00039E-03-1.12568E-01-8.98599E-03
 -1      1754-2.50800E-03-1.11269E-01-8.71536E-03
 -1      1755-9.26785E-03-9.88323E-02-1.16637E-02
 -1      1757-9.02170E-03-9.62020E-02-1.13696E-02
 -1      1758-1.45836E-02-7.04298E-02-1.25229E-02
 -1      1760-1.45633E-02-6.68652E-02-1.23437E-02
 -1      1761-1.85413E-02-3.03001E-02-1.18184E-02
 -1      1763-1.87366E-02-2.62231E-02-1.16443E-02
 -1      1764-2.05983E-02 1.68099E-02-9.80499E-03
 -1      1766-2.09092E-02 2.11315E-02-9.77755E-03
 -1      1767-2.14691E-02 6.69995E-02-7.11382E-03
 -1      1769-2.18730E-02 7.12843E-02-7.11123E-03
 -1      1770-2.09930E-02 1.14858E-01-4.45261E-03
 -1      1772-2.12964E-02 1.19350E-01-4.39604E-03
 -1      1773-5.65446E-03-1.70642E-02 6.34879E-03
 -1      1775-7.45524E-03-1.44672E-02 6.63884E-03
 -1      1776-1.04157E-02-4.70644E-02 1.61731E-02
 -1      1778-1.12545E-02-4.11195E-02 1.62265E-02
 -1      1779-1.00202E-02-7.81399E-02 2.31961E-02
 -1      1781-1.10924E-02-6.98481E-02 2.31237E-02
 -1      1782-7.58988E-03-1.04763E-01 2.93049E-02
 -1      1784-8.16516E-03-9.46298E-02 2.91427E-02
 -1      1785-2.97896E-03-1.20340E-01 3.24936E-02
 -1      1787-3.26500E-03-1.09214E-01 3.22404E-02
 -1      1788 2.47470E-03-1.22064E-01 3.29254E-02
 -1      1790 2.64608E-03-1.10891E-01 3.26788E-02
 -1      1791 7.96322E-03-1.08596E-01 3.02234E-02
 -1      1793 8.52732E-03-9.82686E-02 2.99755E-02
 -1      1794 1.25590E-02-8.14144E-02 2.47450E-02
 -1      1796 1.34804E-02-7.28283E-02 2.45718E-02
 -1      1797 1.55639E-02-4.37969E-02 1.70113E-02
 -1      1799 1.67405E-02-3.76095E-02 1.69134E-02
 -1      1800 1.65079E-02-6.74273E-04 7.84970E-03
 -1      1802 1.78165E-02 2.62510E-03 7.85718E-03
 -1      1803 1.52291E-02 4.22635E-02-1.78455E-03
 -1      1805 1.65354E-02 4.25093E-02-1.67747E-03
 -1      1806 1.18769E-02 7.92848E-02-1.08933E-02
 -1      1808 1.30462E-02 7.65591E-02-1.07016E-02
 -1      1809 6.89754E-03 1.05444E-01-1.85743E-02
 -1      1811 7.81865E-03 1.00125E-01-1.83172E-02
 -1      1812 9.61054E-04 1.17256E-01-2.40982E-02
 -1      1814 1.55046E-03 1.09921E-01-2.38212E-02
 -1      1815-5.12245E-03 1.13173E-01-2.70246E-02
 -1      1817-4.90480E-03 1.04565E-01-2.67513E-02
 -1      1818-1.05224E-02 9.38065E-02-2.71962E-02
 -1      1820-1.06757E-02 8.47265E-02-2.69811E-02
 -1      1821-1.44944E-02 6.18340E-02-2.48035E-02
 -1      1823-1.49745E-02 5.30722E-02-2.46556E-02
 -1      1824-1.64876E-02 2.16531E-02-2.02759E-02
 -1      1826-1.72178E-02 1.39008E-02-2.02400E-02
 -1      1827-1.62149E-02-2.12336E-02-1.43008E-02
 -1      1829-1.70947E-02-2.74420E-02-1.43532E-02
 -1      1830-1.36945E-02-6.09315E-02-7.62712E-03
 -1      1832-1.46142E-02-6.52583E-02-7.79683E-03
 -1      1833-9.24302E-03-9.19917E-02-1.08788E-03
 -1      1835-1.00987E-02-9.43136E-02-1.30942E-03
 -1      1836-3.42988E-03-1.10060E-01 4.65025E-03
 -1      1838-4.13185E-03-1.10451E-01 4.35130E-03
 -1      1839 3.00039E-03-1.12568E-01 8.98599E-03
 -1      1841 2.50800E-03-1.11269E-01 8.71536E-03
 -1      1842 9.26785E-03-9.88323E-02 1.16637E-02
 -1      1844 9.02170E-03-9.62020E-02 1.13696E-02
 -1      1845 1.45836E-02-7.04298E-02 1.25229E-02
 -1      1847 1.45633E-02-6.68652E-02 1.23437E-02
 -1      1848 1.85413E-02-3.03001E-02 1.18184E-02
 -1      1850 1.87366E-02-2.62231E-02 1.16443E-02
 -1      1851 2.05983E-02 1.68099E-02 9.80499E-03
 -1      1853 2.09092E-02 2.11315E-02 9.77755E-03
 -1      1854 2.14691E-02 6.69995E-02 7.11382E-03
 -1      1856 2.18730E-02 7.12843E-02 7.11123E-03
 -1      1857 2.09930E-02 1.14858E-01 4.45261E-03
 -1      1859 2.12964E-02 1.19350E-01 4.39604E-03
 -1      1860-7.12783E-04-8.41468E-03 1.82075E-04
 -1      1862 7.12783E-04-8.41468E-03-1.82075E-04
 -1      1863-6.36623E-04-2.38863E-02 5.90509E-04
 -1      1865 6.36623E-04-2.38863E-02-5.90509E-04
 -1      1866-7.43520E-04-3.98946E-02 1.18059E-03
 -1      1868 7.43520E-04-3.98946E-02-1.18059E-03
 -1      1869-4.48010E-04-5.35998E-02 1.69284E-03
 -1      1871 4.48010E-04-5.35998E-02-1.69284E-03
 -1      1872-2.30642E-04-6.14615E-02 2.00714E-03
 -1      1874 2.30642E-04-6.14615E-02-2.00714E-03
 -1      1875 1.75977E-04-6.20573E-02 2.05874E-03
 -1      1877-1.75977E-04-6.20573E-02-2.05874E-03
 -1      1878 4.74876E-04-5.45399E-02 1.80553E-03
 -1      1880-4.74876E-04-5.45399E-02-1.80553E-03
 -1      1881 7.92221E-04-3.98770E-02 1.29005E-03
 -1      1883-7.92221E-04-3.98770E-02-1.29005E-03
 -1      1884 9.50818E-04-1.97370E-02 5.68016E-04
 -1      1886-9.50818E-04-1.97370E-02-5.68016E-04
 -1      1887 1.02080E-03 3.05048E-03-2.49125E-04
 -1      1889-1.02080E-03 3.05048E-03 2.49125E-04
 -1      1890 9.20155E-04 2.54649E-02-1.05231E-03
 -1      1892-9.20155E-04 2.54649E-02 1.05231E-03
 -1      1893 7.12470E-04 4.43111E-02-1.71736E-03
 -1      1895-7.12470E-04 4.43111E-02 1.71736E-03
 -1      1896 3.87076E-04 5.69801E-02-2.15196E-03
 -1      1898-3.87076E-04 5.69801E-02 2.15196E-03
 -1      1899 1.68877E-05 6.16020E-02-2.28057E-03
 -1      1901-1.68877E-05 6.16020E-02 2.28057E-03
 -1      1902-3.69853E-04 5.74657E-02-2.08632E-03
 -1      1904 3.69853E-04 5.74657E-02 2.08632E-03
 -1      1905-7.00728E-04 4.50328E-02-1.57767E-03
 -1      1907 7.00728E-04 4.50328E-02 1.57767E-03
 -1      1908-9.46647E-04 2.59355E-02-8.32056E-04
 -1      1910 9.46647E-04 2.59355E-02 8.32056E-04
 -1      1911-1.05485E-03 2.75328E-03 6.94391E-05
 -1      1913 1.05485E-03 2.75328E-03-6.94391E-05
 -1      1914-1.02866E-03-2.13596E-02 9.83566E-04
 -1      1916 1.02866E-03-2.13596E-02-9.83566E-04
 -1      1917-8.45038E-04-4.30297E-02 1.81126E-03
 -1      1919 8.45038E-04-4.30297E-02-1.81126E-03
 -1      1920-5.58346E-04-5.92338E-02 2.40146E-03
 -1      1922 5.58346E-04-5.92338E-02-2.40146E-03
 -1      1923-1.63000E-04-6.75352E-02 2.70942E-03
 -1      1925 1.63000E-04-6.75352E-02-2.70942E-03
 -1      1926 2.33419E-04-6.66493E-02 2.62809E-03
 -1      1928-2.33419E-04-6.66493E-02-2.62809E-03
 -1      1929 6.56499E-04-5.62843E-02 2.22414E-03
 -1      1931-6.56499E-04-5.62843E-02-2.22414E-03
 -1      1932 9.52698E-04-3.75711E-02 1.44096E-03
 -1      1934-9.52698E-04-3.75711E-02-1.44096E-03
 -1      1935 1.21592E-03-1.24152E-02 4.80287E-04
 -1      1937-1.21592E-03-1.24152E-02-4.80287E-04
 -1      1938 1.26952E-03 1.64325E-02-7.41085E-04
 -1      1940-1.26952E-03 1.64325E-02 7.41085E-04
 -1      1941 1.26770E-03 4.58059E-02-1.87650E-03
 -1      1943-1.26770E-03 4.58059E-02 1.87650E-03
 -1      1944 1.15294E-03 7.38565E-02-3.26628E-03
 -1      1946-1.15294E-03 7.38565E-02 3.26628E-03
 -1      1947-2.08375E-14-1.30944E-13 5.45434E-04
 -1      1949 5.66647E-15-1.30510E-13-5.45434E-04
 -1      1950-1.67730E-14-6.28664E-15 1.44682E-03
 -1      1952-5.78756E-14-6.13745E-15-1.44682E-03
 -1      1953-4.93477E-14 2.71855E-13 2.24495E-03
 -1      1955-5.68573E-14 2.72792E-13-2.24495E-03
 -1      1956-6.37910E-14 6.90836E-14 2.89713E-03
 -1      1958-1.89883E-14 7.06935E-14-2.89713E-03
 -1      1959-4.73458E-14-5.74957E-13 3.26727E-03
 -1      1961 2.05044E-14-5.74901E-13-3.26727E-03
 -1      1962-2.26642E-14-1.40296E-12 3.26041E-03
 -1      1964 5.45629E-14-1.40421E-12-3.26041E-03
 -1      1965-1.92155E-14-2.35745E-12 2.87378E-03
 -1      1967 6.82041E-14-2.35693E-12-2.87378E-03
 -1      1968-6.69430E-15-3.11529E-12 2.12773E-03
 -1      1970 3.81509E-14-3.11528E-12-2.12773E-03
 -1      1971 1.91308E-14-3.41976E-12 1.12350E-03
 -1      1973 2.49280E-14-3.42006E-12-1.12350E-03
 -1      1974 5.36578E-14-3.43464E-12-1.57164E-05
 -1      1976 4.83086E-14-3.43522E-12 1.57164E-05
 -1      1977 9.18345E-14-3.32212E-12-1.13632E-03
 -1      1979 7.73419E-14-3.32256E-12 1.13632E-03
 -1      1980 1.17259E-13-3.09491E-12-2.08681E-03
 -1      1982 9.45676E-14-3.09305E-12 2.08681E-03
 -1      1983 1.46057E-13-2.57562E-12-2.74170E-03
 -1      1985 7.94781E-14-2.57322E-12 2.74170E-03
 -1      1986 1.83863E-13-1.44170E-12-3.00478E-03
 -1      1988 5.19723E-14-1.44288E-12 3.00478E-03
 -1      1989 1.92965E-13 8.47239E-14-2.84880E-03
 -1      1991 5.63126E-14 8.73607E-14 2.84880E-03
 -1      1992 1.74832E-13 1.52059E-12-2.28158E-03
 -1      1994 5.99000E-14 1.52259E-12 2.28158E-03
 -1      1995 1.29994E-13 2.61757E-12-1.39689E-03
 -1      1997 5.53533E-14 2.61967E-12 1.39689E-03
 -1      1998 8.43180E-14 3.14862E-12-2.95022E-04
 -1      2000 6.84522E-14 3.14862E-12 2.95022E-04
 -1      2001 8.13724E-14 3.14867E-12 8.45376E-04
 -1      2003 1.00243E-13 3.14929E-12-8.45376E-04
 -1      2004 1.18624E-13 3.06914E-12 1.89805E-03
 -1      2006 1.14412E-13 3.07147E-12-1.89805E-03
 -1      2007 1.24994E-13 3.04322E-12 2.67402E-03
 -1      2009 1.32661E-13 3.04555E-12-2.67402E-03
 -1      2010 1.11470E-13 2.85966E-12 3.10903E-03
 -1      2012 1.34961E-13 2.86146E-12-3.10903E-03
 -1      2013 1.03556E-13 2.79501E-12 3.07563E-03
 -1      2015 9.10487E-14 2.79762E-12-3.07563E-03
 -1      2016 8.23612E-14 3.21582E-12 2.63556E-03
 -1      2018 1.80932E-14 3.21881E-12-2.63556E-03
 -1      2019 3.87537E-14 3.96223E-12 1.75376E-03
 -1      2021-3.28990E-14 3.96167E-12-1.75376E-03
 -1      2022 7.89733E-15 4.74592E-12 6.23258E-04
 -1      2024-6.42262E-14 4.75045E-12-6.23258E-04
 -1      2025-5.50081E-15 5.60553E-12-7.18412E-04
 -1      2027-8.68507E-14 5.60112E-12 7.18412E-04
 -1      2028-1.32637E-14 6.56389E-12-2.00552E-03
 -1      2030-1.07470E-13 6.56752E-12 2.00552E-03
 -1      2031-3.07671E-14 7.53270E-12-3.14940E-03
 -1      2033-1.08229E-13 7.52774E-12 3.14940E-03
 -1      2034 7.12783E-04 8.41468E-03 1.82075E-04
 -1      2036-7.12783E-04 8.41468E-03-1.82075E-04
 -1      2037 6.36623E-04 2.38863E-02 5.90509E-04
 -1      2039-6.36623E-04 2.38863E-02-5.90509E-04
 -1      2040 7.43520E-04 3.98946E-02 1.18059E-03
 -1      2042-7.43520E-04 3.98946E-02-1.18059E-03
 -1      2043 4.48010E-04 5.35998E-02 1.69284E-03
 -1      2045-4.48010E-04 5.35998E-02-1.69284E-03
 -1      2046 2.30642E-04 6.14615E-02 2.00714E-03
 -1      2048-2.30642E-04 6.14615E-02-2.00714E-03
 -1      2049-1.75977E-04 6.20573E-02 2.05874E-03
 -1      2051 1.75977E-04 6.20573E-02-2.05874E-03
 -1      2052-4.74876E-04 5.45399E-02 1.80553E-03
 -1      2054 4.74876E-04 5.45399E-02-1.80553E-03
 -1      2055-7.92221E-04 3.98770E-02 1.29005E-03
 -1      2057 7.92221E-04 3.98770E-02-1.29005E-03
 -1      2058-9.50818E-04 1.97370E-02 5.68016E-04
 -1      2060 9.50818E-04 1.97370E-02-5.68016E-04
 -1      2061-1.02080E-03-3.05048E-03-2.49125E-04
 -1      2063 1.02080E-03-3.05048E-03 2.49125E-04
 -1      2064-9.20155E-04-2.54649E-02-1.05231E-03
 -1      2066 9.20155E-04-2.54649E-02 1.05231E-03
 -1      2067-7.12470E-04-4.43111E-02-1.71736E-03
 -1      2069 7.12470E-04-4.43111E-02 1.71736E-03
 -1      2070-3.87076E-04-5.69801E-02-2.15196E-03
 -1      2072 3.87076E-04-5.69801E-02 2.15196E-03
 -1      2073-1.68877E-05-6.16020E-02-2.28057E-03
 -1      2075 1.68877E-05-6.16020E-02 2.28057E-03
 -1      2076 3.69853E-04-5.74657E-02-2.08632E-03
 -1      2078-3.69853E-04-5.74657E-02 2.08632E-03
 -1      2079 7.00728E-04-4.50328E-02-1.57767E-03
 -1      2081-7.00728E-04-4.50328E-02 1.57767E-03
 -1      2082 9.46647E-04-2.59355E-02-8.32056E-04
 -1      2084-9.46647E-04-2.59355E-02 8.32056E-04
 -1      2085 1.05485E-03-2.75328E-03 6.94391E-05
 -1      2087-1.05485E-03-2.75328E-03-6.94391E-05
 -1      2088 1.02866E-03 2.13596E-02 9.83566E-04
 -1      2090-1.02866E-03 2.13596E-02-9.83566E-04
 -1      2091 8.45038E-04 4.30297E-02 1.81126E-03
 -1      2093-8.45038E-04 4.30297E-02-1.81126E-03
 -1      2094 5.58346E-04 5.92338E-02 2.40146E-03
 -1      2096-5.58346E-04 5.92338E-02-2.40146E-03
 -1      2097 1.63000E-04 6.75352E-02 2.70942E-03
 -1      2099-1.63000E-04 6.75352E-02-2.70942E-03
 -1      2100-2.33419E-04 6.66493E-02 2.62809E-03
 -1      2102 2.33419E-04 6.66493E-02-2.62809E-03
 -1      2103-6.56499E-04 5.62843E-02 2.22414E-03
 -1      2105 6.56499E-04 5.62843E-02-2.22414E-03
 -1      2106-9.52698E-04 3.75711E-02 1.44096E-03
 -1      2108 9.52698E-04 3.75711E-02-1.44096E-03
 -1      2109-1.21592E-03 1.24152E-02 4.80287E-04
 -1      2111 1.21592E-03 1.24152E-02-4.80287E-04
 -1      2112-1.26952E-03-1.64325E-02-7.41085E-04
 -1      2114 1.26952E-03-1.64325E-02 7.41085E-04
 -1      2115-1.26770E-03-4.58059E-02-1.87650E-03
 -1      2117 1.26770E-03-4.58059E-02 1.87650E-03
 -1      2118-1.15294E-03-7.38565E-02-3.26628E-03
 -1      2120 1.15294E-03-7.38565E-02 3.26628E-03
 -1      2121 5.65446E-03 1.70642E-02 6.34879E-03
 -1      2123 7.45524E-03 1.44672E-02 6.63884E-03
 -1      2124 1.04157E-02 4.70644E-02 1.61731E-02
 -1      2126 1.12545E-02 4.11195E-02 1.62265E-02
 -1      2127 1.00202E-02 7.81399E-02 2.31961E-02
 -1      2129 1.10924E-02 6.98481E-02 2.31237E-02
 -1      2130 7.58988E-03 1.04763E-01 2.93049E-02
 -1      2132 8.16516E-03 9.46298E-02 2.91427E-02
 -1      2133 2.97896E-03 1.20340E-01 3.24936E-02
 -1      2135 3.26500E-03 1.09214E-01 3.22404E-02
 -1      2136-2.47470E-03 1.22064E-01 3.29254E-02
 -1      2138-2.64608E-03 1.10891E-01 3.26788E-02
 -1      2139-7.96322E-03 1.08596E-01 3.02234E-02
 -1      2141-8.52732E-03 9.82686E-02 2.99755E-02
 -1      2142-1.25590E-02 8.14144E-02 2.47450E-02
 -1      2144-1.34804E-02 7.28283E-02 2.45718E-02
 -1      2145-1.55639E-02 4.37969E-02 1.70113E-02
 -1      2147-1.67405E-02 3.76095E-02 1.69134E-02
 -1      2148-1.65079E-02 6.74273E-04 7.84970E-03
 -1      2150-1.78165E-02-2.62510E-03 7.85718E-03
 -1      2151-1.52291E-02-4.22635E-02-1.78455E-03
 -1      2153-1.65354E-02-4.25093E-02-1.67747E-03
 -1      2154-1.18769E-02-7.92848E-02-1.08933E-02
 -1      2156-1.30462E-02-7.65591E-02-1.07016E-02
 -1      2157-6.89754E-03-1.05444E-01-1.85743E-02
 -1      2159-7.81865E-03-1.00125E-01-1.83172E-02
 -1      2160-9.61054E-04-1.17256E-01-2.40982E-02
 -1      2162-1.55046E-03-1.09921E-01-2.38212E-02
 -1      2163 5.12245E-03-1.13173E-01-2.70246E-02
 -1      2165 4.90480E-03-1.04565E-01-2.67513E-02
 -1      2166 1.05224E-02-9.38065E-02-2.71962E-02
 -1      2168 1.06757E-02-8.47265E-02-2.69811E-02
 -1      2169 1.44944E-02-6.18340E-02-2.48035E-02
 -1      2171 1.49745E-02-5.30722E-02-2.46556E-02
 -1      2172 1.64876E-02-2.16531E-02-2.02759E-02
 -1      2174 1.72178E-02-1.39008E-02-2.02400E-02
 -1      2175 1.62149E-02 2.12336E-02-1.43008E-02
 -1      2177 1.70947E-02 2.74420E-02-1.43532E-02
 -1      2178 1.36945E-02 6.09315E-02-7.62712E-03
 -1      2180 1.46142E-02 6.52583E-02-7.79683E-03
 -1      2181 9.24302E-03 9.19917E-02-1.08788E-03
 -1      2183 1.00987E-02 9.43136E-02-1.30942E-03
 -1      2184 3.42988E-03 1.10060E-01 4.65025E-03
 -1      2186 4.13185E-03 1.10451E-01 4.35130E-03
 -1      2187-3.00039E-03 1.12568E-01 8.98599E-03
 -1      2189-2.50800E-03 1.11269E-01 8.71536E-03
 -1      2190-9.26785E-03 9.88323E-02 1.16637E-02
 -1      2192-9.02170E-03 9.62020E-02 1.13696E-02
 -1      2193-1.45836E-02 7.04298E-02 1.25229E-02
 -1      2195-1.45633E-02 6.68652E-02 1.23437E-02
 -1      2196-1.85413E-02 3.03001E-02 1.18184E-02
 -1      2198-1.87366E-02 2.62231E-02 1.16443E-02
 -1      2199-2.05983E-02-1.68099E-02 9.80499E-03
 -1      2201-2.09092E-02-2.11315E-02 9.77755E-03
 -1      2202-2.14691E-02-6.69995E-02 7.11382E-03
 -1      2204-2.18730E-02-7.12843E-02 7.11123E-03
 -1      2205-2.09930E-02-1.14858E-01 4.45261E-03
 -1      2207-2.12964E-02-1.19350E-01 4.39604E-03
 -1      2208-5.65446E-03 1.70642E-02-6.34879E-03
 -1      2210-7.45524E-03 1.44672E-02-6.63884E-03
 -1      2211-1.04157E-02 4.70644E-02-1.61731E-02
 -1      2213-1.12545E-02 4.11195E-02-1.62265E-02
 -1      2214-1.00202E-02 7.81399E-02-2.31961E-02
 -1      2216-1.10924E-02 6.98481E-02-2.31237E-02
 -1      2217-7.58988E-03 1.04763E-01-2.93049E-02
 -1      2219-8.16516E-03 9.46298E-02-2.91427E-02
 -1      2220-2.97896E-03 1.20340E-01-3.24936E-02
 -1      2222-3.26500E-03 1.09214E-01-3.22404E-02
 -1      2223 2.47470E-03 1.22064E-01-3.29254E-02
 -1      2225 2.64608E-03 1.10891E-01-3.26788E-02
 -1      2226 7.96322E-03 1.08596E-01-3.02234E-02
 -1      2228 8.52732E-03 9.82686E-02-2.99755E-02
 -1      2229 1.25590E-02 8.14144E-02-2.47450E-02
 -1      2231 1.34804E-02 7.28283E-02-2.45718E-02
 -1      2232 1.55639E-02 4.37969E-02-1.70113E-02
 -1      2234 1.67405E-02 3.76095E-02-1.69134E-02
 -1      2235 1.65079E-02 6.74273E-04-7.84970E-03
 -1      2237 1.78165E-02-2.62510E-03-7.85718E-03
 -1      2238 1.52291E-02-4.22635E-02 1.78455E-03
 -1      2240 1.65354E-02-4.25093E-02 1.67747E-03
 -1      2241 1.18769E-02-7.92848E-02 1.08933E-02
 -1      2243 1.30462E-02-7.65591E-02 1.07016E-02
 -1      2244 6.89754E-03-1.05444E-01 1.85743E-02
 -1      2246 7.81865E-03-1.00125E-01 1.83172E-02
 -1      2247 9.61054E-04-1.17256E-01 2.40982E-02
 -1      2249 1.55046E-03-1.09921E-01 2.38212E-02
 -1      2250-5.12245E-03-1.13173E-01 2.70246E-02
 -1      2252-4.90480E-03-1.04565E-01 2.67513E-02
 -1      2253-1.05224E-02-9.38065E-02 2.71962E-02
 -1      2255-1.06757E-02-8.47265E-02 2.69811E-02
 -1      2256-1.44944E-02-6.18340E-02 2.48035E-02
 -1      2258-1.49745E-02-5.30722E-02 2.46556E-02
 -1      2259-1.64876E-02-2.16531E-02 2.02759E-02
 -1      2261-1.72178E-02-1.39008E-02 2.02400E-02
 -1      2262-1.62149E-02 2.12336E-02 1.43008E-02
 -1      2264-1.70947E-02 2.74420E-02 1.43532E-02
 -1      2265-1.36945E-02 6.09315E-02 7.62712E-03
 -1      2267-1.46142E-02 6.52583E-02 7.79683E-03
 -1      2268-9.24302E-03 9.19917E-02 1.08788E-03
 -1      2270-1.00987E-02 9.43136E-02 1.30942E-03
 -1      2271-3.42988E-03 1.10060E-01-4.65025E-03
 -1      2273-4.13185E-03 1.10451E-01-4.35130E-03
 -1      2274 3.00039E-03 1.12568E-01-8.98599E-03
 -1      2276 2.50800E-03 1.11269E-01-8.71536E-03
 -1      2277 9.26785E-03 9.88323E-02-1.16637E-02
 -1      2279 9.02170E-03 9.62020E-02-1.13696E-02
 -1      2280 1.45836E-02 7.04298E-02-1.25229E-02
 -1      2282 1.45633E-02 6.68652E-02-1.23437E-02
 -1      2283 1.85413E-02 3.03001E-02-1.18184E-02
 -1      2285 1.87366E-02 2.62231E-02-1.16443E-02
 -1      2286 2.05983E-02-1.68099E-02-9.80499E-03
 -1      2288 2.09092E-02-2.11315E-02-9.77755E-03
 -1      2289 2.14691E-02-6.69995E-02-7.11382E-03
 -1      2291 2.18730E-02-7.12843E-02-7.11123E-03
 -1      2292 2.09930E-02-1.14858E-01-4.45261E-03
 -1      2294 2.12964E-02-1.19350E-01-4.39604E-03
 -3
    1PSTEP                        78           1           1          
    1PGM                1.000000E+00                                  
    1PGK                1.752299E+07                                  
    1PHID                         -1                                  
    1PSUBC                         0                                  
    1PMODE                        20                                  
  100CL  120 666.2301594         930                     2   20MODAL      1
 -4  STRESS      6    1
 -5  SXX         1    4    1    1
 -5  SYY         1    4    2    2
 -5  SZZ         1    4    3    3
 -5  SXY         1    4    1    2
 -5  SYZ         1    4    2    3
 -5  SZX         1    4    3    1
 -1       404 2.48946E+10 2.61295E+09 4.33844E+07-4.74525E+09 1.27572E+07-4.21711E+08
 -1       406 2.48946E+10 2.61295E+09 4.33844E+07-4.74525E+09 1.27572E+07-4.21711E+08
 -1       407 9.74956E+08 6.32895E+08-1.77136E+07-5.60129E+08-9.39375E+06-6.70377E+06
 -1       409 9.74956E+08 6.32895E+08-1.77136E+07-5.60129E+08-9.39375E+06-6.70377E+06
 -1       410-3.20010E-02-2.99716E-03 6.38008E-04-1.56731E+09-2.45828E+08-5.52218E-04
 -1       412-3.20010E-02-2.99716E-03 6.38008E-04-1.56731E+09-2.45828E+08-5.52218E-04
 -1       413-3.88476E-02-2.18347E-04-9.92814E-02 4.02215E+07-5.05822E+08 2.48314E-02
 -1       415-3.88476E-02-2.18347E-04-9.92814E-02 4.02215E+07-5.05822E+08 2.48314E-02
 -1       424 1.38566E-01 1.00088E-02-1.94550E-04-6.71650E+09 6.05082E+07-8.92291E-03
 -1       426 1.38566E-01 1.00088E-02-1.94550E-04-6.71650E+09 6.05082E+07-8.92291E-03
 -1       427 1.12272E-01 4.32168E-04 6.88860E-02-3.56162E+08-2.50387E+07 8.20202E-02
 -1       429 1.12272E-01 4.32168E-04 6.88860E-02-3.56162E+08-2.50387E+07 8.20202E-02
 -1       438-9.74956E+08-6.32895E+08 1.77136E+07-5.60129E+08-9.39375E+06 6.70377E+06
 -1       440-9.74956E+08-6.32895E+08 1.77136E+07-5.60129E+08-9.39375E+06 6.70377E+06
 -1       441-2.48946E+10-2.61295E+09-4.33844E+07-4.74525E+09 1.27572E+07 4.21711E+08
 -1       443-2.48946E+10-2.61295E+09-4.33844E+07-4.74525E+09 1.27572E+07 4.21711E+08
 -1       444-1.25582E-01-5.47360E-04-8.22274E-03 3.56162E+08-2.50387E+07 1.74547E-01
 -1       446-1.25582E-01-5.47360E-04-8.22274E-03 3.56162E+08-2.50387E+07 1.74547E-01
 -1       447-1.27716E-01-1.70321E-02 1.64509E-05 6.71650E+09 6.05082E+07 1.69102E-02
 -1       449-1.27716E-01-1.70321E-02 1.64509E-05 6.71650E+09 6.05082E+07 1.69102E-02
 -1       458-6.51417E-03 3.18440E-03-8.04820E-02-4.02215E+07-5.05822E+08-1.53622E-02
 -1       460-6.51417E-03 3.18440E-03-8.04820E-02-4.02215E+07-5.05822E+08-1.53622E-02
 -1       461 2.17583E-02 2.43394E-02 3.47972E-04 1.56731E+09-2.45828E+08 4.94807E-04
 -1       463 2.17583E-02 2.43394E-02 3.47972E-04 1.56731E+09-2.45828E+08 4.94807E-04
 -1       472 2.48946E+10 2.61295E+09 4.33844E+07 4.74525E+09 1.27572E+07 4.21711E+08
 -1       474 2.48946E+10 2.61295E+09 4.33844E+07 4.74525E+09 1.27572E+07 4.21711E+08
 -1       475 9.74956E+08 6.32895E+08-1.77136E+07 5.60129E+08-9.39375E+06 6.70377E+06
 -1       477 9.74956E+08 6.32895E+08-1.77136E+07 5.60129E+08-9.39375E+06 6.70377E+06
 -1       478-9.74956E+08-6.32895E+08 1.77136E+07 5.60129E+08-9.39375E+06-6.70377E+06
 -1       480-9.74956E+08-6.32895E+08 1.77136E+07 5.60129E+08-9.39375E+06-6.70377E+06
 -1       481-2.48946E+10-2.61295E+09-4.33844E+07 4.74525E+09 1.27572E+07-4.21711E+08
 -1       483-2.48946E+10-2.61295E+09-4.33844E+07 4.74525E+09 1.27572E+07-4.21711E+08
 -1       484 1.78478E+10 7.12582E+08-5.80878E+06-3.58615E+09 6.53504E+06-1.42219E+08
 -1       486 1.78478E+10 7.12582E+08-5.80878E+06-3.58615E+09 6.53504E+06-1.42219E+08
 -1       487 5.28038E+09-3.31657E+08 2.96512E+06-2.54691E+09 8.89270E+06 4.51108E+06
 -1       489 5.28038E+09-3.31657E+08 2.96512E+06-2.54691E+09 8.89270E+06 4.51108E+06
 -1       490-4.77480E+09 4.79111E+07-1.51091E+06-2.19518E+09 1.61822E+07-5.71098E+07
 -1       492-4.77480E+09 4.79111E+07-1.51091E+06-2.19518E+09 1.61822E+07-5.71098E+07
 -1       493-1.23392E+10-2.17927E+08-1.00501E+07-1.42953E+09 1.62029E+07-1.11057E+07
 -1       495-1.23392E+10-2.17927E+08-1.00501E+07-1.42953E+09 1.62029E+07-1.11057E+07
 -1       496-1.69254E+10-1.53723E+08-4.53345E+06-7.43657E+08 1.92407E+07-1.41008E+07
 -1       498-1.69254E+10-1.53723E+08-4.53345E+06-7.43657E+08 1.92407E+07-1.41008E+07
 -1       499-1.84418E+10-2.12639E+08-1.25293E+07 6.50957E+06 1.80500E+07 8.56854E+06
 -1       501-1.84418E+10-2.12639E+08-1.25293E+07 6.50957E+06 1.80500E+07 8.56854E+06
 -1       502-1.69282E+10-1.64229E+08-4.96133E+06 6.84362E+08 1.56340E+07 1.87342E+07
 -1       504-1.69282E+10-1.64229E+08-4.96133E+06 6.84362E+08 1.56340E+07 1.87342E+07
 -1       505-1.27930E+10-1.38043E+08-8.75724E+06 1.23750E+09 1.04985E+07 3.26407E+07
 -1       507-1.27930E+10-1.38043E+08-8.75724E+06 1.23750E+09 1.04985E+07 3.26407E+07
 -1       508-6.70632E+09-6.36546E+07-1.03443E+06 1.59866E+09 3.36389E+06 4.08407E+07
 -1       510-6.70632E+09-6.36546E+07-1.03443E+06 1.59866E+09 3.36389E+06 4.08407E+07
 -1       511 4.22532E+08 8.11793E+05-1.65495E+06 1.72776E+09-4.37363E+06 4.62592E+07
 -1       513 4.22532E+08 8.11793E+05-1.65495E+06 1.72776E+09-4.37363E+06 4.62592E+07
 -1       514 7.57751E+09 7.82760E+07 4.93722E+06 1.61178E+09-1.24879E+07 4.68576E+07
 -1       516 7.57751E+09 7.82760E+07 4.93722E+06 1.61178E+09-1.24879E+07 4.68576E+07
 -1       517 1.37504E+10 1.36715E+08 5.22008E+06 1.27050E+09-1.88097E+07 4.33121E+07
 -1       519 1.37504E+10 1.36715E+08 5.22008E+06 1.27050E+09-1.88097E+07 4.33121E+07
 -1       520 1.80808E+10 1.82302E+08 9.34131E+06 7.51531E+08-2.33862E+07 3.59709E+07
 -1       522 1.80808E+10 1.82302E+08 9.34131E+06 7.51531E+08-2.33862E+07 3.59709E+07
 -1       523 1.99632E+10 1.99437E+08 8.58262E+06 1.27614E+08-2.45343E+07 2.57067E+07
 -1       525 1.99632E+10 1.99437E+08 8.58262E+06 1.27614E+08-2.45343E+07 2.57067E+07
 -1       526 1.91310E+10 1.91464E+08 9.47104E+06-5.16369E+08-2.28637E+07 1.37936E+07
 -1       528 1.91310E+10 1.91464E+08 9.47104E+06-5.16369E+08-2.28637E+07 1.37936E+07
 -1       529 1.56882E+10 1.56344E+08 6.95472E+06-1.09175E+09-1.77225E+07 1.40703E+06
 -1       531 1.56882E+10 1.56344E+08 6.95472E+06-1.09175E+09-1.77225E+07 1.40703E+06
 -1       532 1.00950E+10 9.94915E+07 4.95588E+06-1.52093E+09-1.04385E+07-1.00688E+07
 -1       534 1.00950E+10 9.94915E+07 4.95588E+06-1.52093E+09-1.04385E+07-1.00688E+07
 -1       535 3.10398E+09 3.03808E+07 1.43536E+06-1.74518E+09-1.29727E+06-1.96489E+07
 -1       537 3.10398E+09 3.03808E+07 1.43536E+06-1.74518E+09-1.29727E+06-1.96489E+07
 -1       538-4.34614E+09-4.64758E+07-2.09138E+06-1.73591E+09 7.87713E+06-2.64607E+07
 -1       540-4.34614E+09-4.64758E+07-2.09138E+06-1.73591E+09 7.87713E+06-2.64607E+07
 -1       541-1.12577E+10-1.11465E+08-4.85313E+06-1.49496E+09 1.64184E+07-3.01352E+07
 -1       543-1.12577E+10-1.11465E+08-4.85313E+06-1.49496E+09 1.64184E+07-3.01352E+07
 -1       544-1.67182E+10-1.71180E+08-8.23820E+06-1.05925E+09 2.25198E+07-3.06607E+07
 -1       546-1.67182E+10-1.71180E+08-8.23820E+06-1.05925E+09 2.25198E+07-3.06607E+07
 -1       547-2.00246E+10-1.93294E+08-8.39661E+06-4.92547E+08 2.57869E+07-2.83048E+07
 -1       549-2.00246E+10-1.93294E+08-8.39661E+06-4.92547E+08 2.57869E+07-2.83048E+07
 -1       550-2.07950E+10-2.10202E+08-1.05902E+07 1.24273E+08 2.50276E+07-2.39876E+07
 -1       552-2.07950E+10-2.10202E+08-1.05902E+07 1.24273E+08 2.50276E+07-2.39876E+07
 -1       553-1.90297E+10-1.73558E+08-7.16957E+06 6.80169E+08 2.03042E+07-1.80516E+07
 -1       555-1.90297E+10-1.73558E+08-7.16957E+06 6.80169E+08 2.03042E+07-1.80516E+07
 -1       556-1.51310E+10-1.36073E+08-8.37049E+06 1.12347E+09 1.18816E+07-1.24589E+07
 -1       558-1.51310E+10-1.36073E+08-8.37049E+06 1.12347E+09 1.18816E+07-1.24589E+07
 -1       559-9.90135E+09-8.34664E+07-1.90954E+06 1.26694E+09-8.18065E+05-6.26667E+06
 -1       561-9.90135E+09-8.34664E+07-1.90954E+06 1.26694E+09-8.18065E+05-6.26667E+06
 -1       562-4.45231E+09 5.04782E+07-3.06092E+06 1.23384E+09-1.29866E+07-3.31555E+06
 -1       564-4.45231E+09 5.04782E+07-3.06092E+06 1.23384E+09-1.29866E+07-3.31555E+06
 -1       565-1.54984E+08-2.38889E+07 2.47900E+06 6.73538E+08-2.90868E+07 1.35050E+06
 -1       567-1.54984E+08-2.38889E+07 2.47900E+06 6.73538E+08-2.90868E+07 1.35050E+06
 -1       568 1.24638E+09 2.43704E+08 6.64648E+06-2.33506E+08-2.49058E+07 2.20413E+05
 -1       570 1.24638E+09 2.43704E+08 6.64648E+06-2.33506E+08-2.49058E+07 2.20413E+05
 -1       571 9.65478E+08 1.40510E+09 1.65865E+07-1.06372E+09-1.27611E+08-3.00131E+06
 -1       573 9.65478E+08 1.40510E+09 1.65865E+07-1.06372E+09-1.27611E+08-3.00131E+06
 -1       574 1.24725E-01-2.68286E-03-1.89722E-04-7.01935E+09-2.70660E+07-4.12925E-03
 -1       576 1.24725E-01-2.68286E-03-1.89722E-04-7.01935E+09-2.70660E+07-4.12925E-03
 -1       577 9.43821E-02 4.34449E-04 7.29306E-02-1.06925E+08-1.09613E+08 9.77268E-02
 -1       579 9.43821E-02 4.34449E-04 7.29306E-02-1.06925E+08-1.09613E+08 9.77268E-02
 -1       588 7.06295E-02-8.50334E-03-1.34747E-04-6.22290E+09-1.33623E+08-3.86247E-03
 -1       590 7.06295E-02-8.50334E-03-1.34747E-04-6.22290E+09-1.33623E+08-3.86247E-03
 -1       591 4.00266E-02 2.30940E-04 3.69045E-02-4.52224E+07-2.28391E+08 1.07282E-01
 -1       593 4.00266E-02 2.30940E-04 3.69045E-02-4.52224E+07-2.28391E+08 1.07282E-01
 -1       602-9.50599E-03 1.43221E-03 4.36980E-04-4.65593E+09-1.49560E+08-4.60836E-03
 -1       604-9.50599E-03 1.43221E-03 4.36980E-04-4.65593E+09-1.49560E+08-4.60836E-03
 -1       605-3.72263E-02-1.37713E-04-7.46769E-02-8.77166E+07-2.67146E+08 9.50047E-02
 -1       607-3.72263E-02-1.37713E-04-7.46769E-02-8.77166E+07-2.67146E+08 9.50047E-02
 -1       616-5.92079E-02 2.14553E-03 9.42528E-04-3.29087E+09-1.72265E+08-3.08744E-03
 -1       618-5.92079E-02 2.14553E-03 9.42528E-04-3.29087E+09-1.72265E+08-3.08744E-03
 -1       619-8.88433E-02-1.27975E-03-2.02038E-01-3.47070E+07-2.90752E+08 5.71009E-02
 -1       621-8.88433E-02-1.27975E-03-2.02038E-01-3.47070E+07-2.90752E+08 5.71009E-02
 -1       630-5.64191E-02-3.00819E-03 6.56128E-04-1.62288E+09-1.82223E+08-2.57567E-03
 -1       632-5.64191E-02-3.00819E-03 6.56128E-04-1.62288E+09-1.82223E+08-2.57567E-03
 -1       633-8.62787E-02-1.64580E-03-2.45924E-01-3.35123E+07-2.98942E+08-1.56455E-02
 -1       635-8.62787E-02-1.64580E-03-2.45924E-01-3.35123E+07-2.98942E+08-1.56455E-02
 -1       644-3.50661E-02-3.09801E-03 4.91977E-04-7.25649E+06-1.76009E+08-7.48638E-04
 -1       646-3.50661E-02-3.09801E-03 4.91977E-04-7.25649E+06-1.76009E+08-7.48638E-04
 -1       647-6.04125E-02-7.92504E-04-1.74133E-01 1.83718E+07-2.85563E+08-7.44221E-02
 -1       649-6.04125E-02-7.92504E-04-1.74133E-01 1.83718E+07-2.85563E+08-7.44221E-02
 -1       658-3.96490E-02 5.46801E-03 5.41091E-04 1.51909E+09-1.65082E+08-4.88747E-04
 -1       660-3.96490E-02 5.46801E-03 5.41091E-04 1.51909E+09-1.65082E+08-4.88747E-04
 -1       661-5.78212E-02-7.75749E-04-8.38756E-02 3.43188E+07-2.62791E+08-8.01853E-02
 -1       663-5.78212E-02-7.75749E-04-8.38756E-02 3.43188E+07-2.62791E+08-8.01853E-02
 -1       672-7.77147E-02 1.59801E-02 5.12064E-04 2.73948E+09-1.37985E+08 8.13631E-04
 -1       674-7.77147E-02 1.59801E-02 5.12064E-04 2.73948E+09-1.37985E+08 8.13631E-04
 -1       675-9.19660E-02-6.01117E-04-9.12706E-02 7.21377E+07-2.22153E+08-6.33229E-02
 -1       677-9.19660E-02-6.01117E-04-9.12706E-02 7.21377E+07-2.22153E+08-6.33229E-02
 -1       686-1.08883E-01 2.19039E-02 1.55106E-04 3.54669E+09-1.06689E+08 8.95595E-04
 -1       688-1.08883E-01 2.19039E-02 1.55106E-04 3.54669E+09-1.06689E+08 8.95595E-04
 -1       689-1.18115E-01-3.04661E-04-1.60328E-01 8.11459E+07-1.73475E+08-1.02852E-01
 -1       691-1.18115E-01-3.04661E-04-1.60328E-01 8.11459E+07-1.73475E+08-1.02852E-01
 -1       700-9.31946E-02 1.14061E-02 9.60082E-05 3.83016E+09-6.54351E+07 8.85367E-04
 -1       702-9.31946E-02 1.14061E-02 9.60082E-05 3.83016E+09-6.54351E+07 8.85367E-04
 -1       703-8.75436E-02 7.45590E-04-1.52427E-01 9.40020E+07-1.14274E+08-1.85033E-01
 -1       705-8.75436E-02 7.45590E-04-1.52427E-01 9.40020E+07-1.14274E+08-1.85033E-01
 -1       714-3.78530E-02-1.04112E-02-4.79311E-04 3.57623E+09-2.31547E+07 1.46403E-03
 -1       716-3.78530E-02-1.04112E-02-4.79311E-04 3.57623E+09-2.31547E+07 1.46403E-03
 -1       717-2.23086E-02 1.52325E-03-4.89307E-02 8.38295E+07-5.20830E+07-2.09932E-01
 -1       719-2.23086E-02 1.52325E-03-4.89307E-02 8.38295E+07-5.20830E+07-2.09932E-01
 -1       728 2.24109E-02-1.26374E-02-1.08659E-04 2.81695E+09 2.12550E+07 1.73838E-03
 -1       730 2.24109E-02-1.26374E-02-1.08659E-04 2.81695E+09 2.12550E+07 1.73838E-03
 -1       731 2.97827E-02-1.01790E-03 4.56279E-02 7.06025E+07 1.18340E+07-1.65514E-01
 -1       733 2.97827E-02-1.01790E-03 4.56279E-02 7.06025E+07 1.18340E+07-1.65514E-01
 -1       742 6.78573E-02 1.81675E-04 4.58717E-04 1.66769E+09 6.16108E+07 1.21526E-03
 -1       744 6.78573E-02 1.81675E-04 4.58717E-04 1.66769E+09 6.16108E+07 1.21526E-03
 -1       745 7.01223E-02-2.67421E-03 7.06440E-02 4.22977E+07 7.13196E+07-1.02792E-01
 -1       747 7.01223E-02-2.67421E-03 7.06440E-02 4.22977E+07 7.13196E+07-1.02792E-01
 -1       756 9.07857E-02-2.70134E-03 1.63317E-05 2.82010E+08 9.70428E+07 7.11245E-04
 -1       758 9.07857E-02-2.70134E-03 1.63317E-05 2.82010E+08 9.70428E+07 7.11245E-04
 -1       759 9.98557E-02-3.66606E-03 5.65669E-02 1.32066E+07 1.24409E+08-4.66610E-02
 -1       761 9.98557E-02-3.66606E-03 5.65669E-02 1.32066E+07 1.24409E+08-4.66610E-02
 -1       770 9.59575E-02-2.24724E-02-5.66244E-05-1.14529E+09 1.23975E+08-9.37749E-05
 -1       772 9.59575E-02-2.24724E-02-5.66244E-05-1.14529E+09 1.23975E+08-9.37749E-05
 -1       773 1.04524E-01-2.92915E-03 5.55984E-02-2.09832E+07 1.66236E+08-5.55900E-03
 -1       775 1.04524E-01-2.92915E-03 5.55984E-02-2.09832E+07 1.66236E+08-5.55900E-03
 -1       784 1.18242E-01-3.69533E-02 1.60098E-04-2.42308E+09 1.41491E+08-6.01261E-04
 -1       786 1.18242E-01-3.69533E-02 1.60098E-04-2.42308E+09 1.41491E+08-6.01261E-04
 -1       787 1.06882E-01 1.17390E-03 6.48968E-02-4.88134E+07 1.96384E+08 2.30561E-02
 -1       789 1.06882E-01 1.17390E-03 6.48968E-02-4.88134E+07 1.96384E+08 2.30561E-02
 -1       798 1.56034E-01-2.80442E-02 3.77446E-04-3.37392E+09 1.48637E+08-7.85785E-04
 -1       800 1.56034E-01-2.80442E-02 3.77446E-04-3.37392E+09 1.48637E+08-7.85785E-04
 -1       801 1.18030E-01-6.95185E-04 3.81922E-02-7.28906E+07 2.11344E+08 3.92981E-02
 -1       803 1.18030E-01-6.95185E-04 3.81922E-02-7.28906E+07 2.11344E+08 3.92981E-02
 -1       812 1.47807E-01-9.22333E-04 6.57011E-04-3.87320E+09 1.45316E+08-5.88612E-04
 -1       814 1.47807E-01-9.22333E-04 6.57011E-04-3.87320E+09 1.45316E+08-5.88612E-04
 -1       815 1.02899E-01-9.00799E-04-1.99093E-02-8.36148E+07 2.13584E+08 3.30964E-02
 -1       817 1.02899E-01-9.00799E-04-1.99093E-02-8.36148E+07 2.13584E+08 3.30964E-02
 -1       826 8.54012E-02 2.19390E-02 8.48133E-04-3.85076E+09 1.32937E+08-8.18255E-04
 -1       828 8.54012E-02 2.19390E-02 8.48133E-04-3.85076E+09 1.32937E+08-8.18255E-04
 -1       829 5.07220E-02 1.12966E-06-5.73629E-02-8.69002E+07 2.00435E+08 1.32273E-02
 -1       831 5.07220E-02 1.12966E-06-5.73629E-02-8.69002E+07 2.00435E+08 1.32273E-02
 -1       840 1.73216E-02 2.71927E-02 1.43421E-03-3.31915E+09 1.12238E+08-1.15200E-03
 -1       842 1.73216E-02 2.71927E-02 1.43421E-03-3.31915E+09 1.12238E+08-1.15200E-03
 -1       843-1.02643E-02-8.26229E-04-6.81848E-02-7.34976E+07 1.77963E+08 1.81601E-02
 -1       845-1.02643E-02-8.26229E-04-6.81848E-02-7.34976E+07 1.77963E+08 1.81601E-02
 -1       854-3.41656E-02 1.80545E-02 1.36095E-03-2.35043E+09 8.62289E+07-5.17435E-04
 -1       856-3.41656E-02 1.80545E-02 1.36095E-03-2.35043E+09 8.62289E+07-5.17435E-04
 -1       857-5.96648E-02-1.03184E-04-9.33126E-02-5.67655E+07 1.42751E+08 4.94875E-02
 -1       859-5.96648E-02-1.03184E-04-9.33126E-02-5.67655E+07 1.42751E+08 4.94875E-02
 -1       868-6.79185E-02 5.21469E-03 5.32508E-04-1.09517E+09 5.61860E+07-2.43796E-04
 -1       870-6.79185E-02 5.21469E-03 5.32508E-04-1.09517E+09 5.61860E+07-2.43796E-04
 -1       871-9.05915E-02-1.06617E-06-1.10696E-01-2.37934E+07 1.05277E+08 5.66944E-02
 -1       873-9.05915E-02-1.06617E-06-1.10696E-01-2.37934E+07 1.05277E+08 5.66944E-02
 -1       882-8.63242E-02-7.31230E-03 6.90699E-04 2.66190E+08 2.52221E+07-2.86284E-04
 -1       884-8.63242E-02-7.31230E-03 6.90699E-04 2.66190E+08 2.52221E+07-2.86284E-04
 -1       885-1.01779E-01-1.82257E-03-6.74995E-02 6.23827E+05 5.80009E+07 4.02899E-02
 -1       887-1.01779E-01-1.82257E-03-6.74995E-02 6.23827E+05 5.80009E+07 4.02899E-02
 -1       896-8.16860E-02-1.84173E-02 4.29630E-04 1.52021E+09-4.33486E+06 4.26011E-04
 -1       898-8.16860E-02-1.84173E-02 4.29630E-04 1.52021E+09-4.33486E+06 4.26011E-04
 -1       899-8.71290E-02-7.48130E-04-1.47370E-03 4.05368E+07 1.83734E+07 3.65897E-02
 -1       901-8.71290E-02-7.48130E-04-1.47370E-03 4.05368E+07 1.83734E+07 3.65897E-02
 -1       910-5.94683E-02-1.26384E-02 7.14421E-04 2.43760E+09-3.28750E+07 2.17025E-04
 -1       912-5.94683E-02-1.26384E-02 7.14421E-04 2.43760E+09-3.28750E+07 2.17025E-04
 -1       913-6.17312E-02 6.68966E-04 2.49090E-02 5.53693E+07-3.30825E+07 4.31497E-02
 -1       915-6.17312E-02 6.68966E-04 2.49090E-02 5.53693E+07-3.30825E+07 4.31497E-02
 -1       924-5.20649E-02 6.12174E-03 1.17674E-03 2.88261E+09-5.33226E+07-8.72640E-05
 -1       926-5.20649E-02 6.12174E-03 1.17674E-03 2.88261E+09-5.33226E+07-8.72640E-05
 -1       927-5.28392E-02 1.94902E-03 2.23433E-02 8.79623E+07-6.34722E+07 4.69843E-02
 -1       929-5.28392E-02 1.94902E-03 2.23433E-02 8.79623E+07-6.34722E+07 4.69843E-02
 -1       938-6.44982E-02 5.22596E-03-1.44593E-04 2.57439E+09-8.14404E+07-4.12209E-04
 -1       940-6.44982E-02 5.22596E-03-1.44593E-04 2.57439E+09-8.14404E+07-4.12209E-04
 -1       941-5.65353E-02 1.80422E-03 1.33165E-02 8.53822E+07-1.26978E+08 4.17261E-02
 -1       943-5.65353E-02 1.80422E-03 1.33165E-02 8.53822E+07-1.26978E+08 4.17261E-02
 -1       952-7.57855E-02-1.76321E-02-1.34207E-04 1.56119E+09-9.40326E+07-5.57472E-04
 -1       954-7.57855E-02-1.76321E-02-1.34207E-04 1.56119E+09-9.40326E+07-5.57472E-04
 -1       955-6.18425E-02-2.34316E-03-1.76218E-02 9.28647E+07-1.50604E+08 3.66725E-02
 -1       957-6.18425E-02-2.34316E-03-1.76218E-02 9.28647E+07-1.50604E+08 3.66725E-02
 -1       966-5.53696E-02-1.69339E-02 9.23797E-04-3.10252E+08-1.66659E+08-1.68047E-04
 -1       968-5.53696E-02-1.69339E-02 9.23797E-04-3.10252E+08-1.66659E+08-1.68047E-04
 -1       969-5.15949E-02-1.31414E-03-7.02916E-02 1.04792E+08-2.98790E+08 3.11647E-02
 -1       971-5.15949E-02-1.31414E-03-7.02916E-02 1.04792E+08-2.98790E+08 3.11647E-02
 -1       980 1.60925E+10 2.00510E+09 2.82710E+06-5.73087E+09 3.66327E+07-1.75369E+08
 -1       982 1.60925E+10 2.00510E+09 2.82710E+06-5.73087E+09 3.66327E+07-1.75369E+08
 -1       983-9.65478E+08-1.40510E+09-1.65865E+07-1.06372E+09-1.27611E+08 3.00131E+06
 -1       985-9.65478E+08-1.40510E+09-1.65865E+07-1.06372E+09-1.27611E+08 3.00131E+06
 -1       986-1.78478E+10-7.12582E+08 5.80878E+06-3.58615E+09 6.53504E+06 1.42219E+08
 -1       988-1.78478E+10-7.12582E+08 5.80878E+06-3.58615E+09 6.53504E+06 1.42219E+08
 -1       989-5.28038E+09 3.31657E+08-2.96512E+06-2.54691E+09 8.89270E+06-4.51108E+06
 -1       991-5.28038E+09 3.31657E+08-2.96512E+06-2.54691E+09 8.89270E+06-4.51108E+06
 -1       992 4.77480E+09-4.79111E+07 1.51091E+06-2.19518E+09 1.61822E+07 5.71098E+07
 -1       994 4.77480E+09-4.79111E+07 1.51091E+06-2.19518E+09 1.61822E+07 5.71098E+07
 -1       995 1.23392E+10 2.17927E+08 1.00501E+07-1.42953E+09 1.62029E+07 1.11057E+07
 -1       997 1.23392E+10 2.17927E+08 1.00501E+07-1.42953E+09 1.62029E+07 1.11057E+07
 -1       998 1.69254E+10 1.53723E+08 4.53345E+06-7.43657E+08 1.92407E+07 1.41008E+07
 -1      1000 1.69254E+10 1.53723E+08 4.53345E+06-7.43657E+08 1.92407E+07 1.41008E+07
 -1      1001 1.84418E+10 2.12639E+08 1.25293E+07 6.50957E+06 1.80500E+07-8.56854E+06
 -1      1003 1.84418E+10 2.12639E+08 1.25293E+07 6.50957E+06 1.80500E+07-8.56854E+06
 -1      1004 1.69282E+10 1.64229E+08 4.96133E+06 6.84362E+08 1.56340E+07-1.87342E+07
 -1      1006 1.69282E+10 1.64229E+08 4.96133E+06 6.84362E+08 1.56340E+07-1.87342E+07
 -1      1007 1.27930E+10 1.38043E+08 8.75724E+06 1.23750E+09 1.04985E+07-3.26407E+07
 -1      1009 1.27930E+10 1.38043E+08 8.75724E+06 1.23750E+09 1.04985E+07-3.26407E+07
 -1      1010 6.70632E+09 6.36546E+07 1.03443E+06 1.59866E+09 3.36389E+06-4.08407E+07
 -1      1012 6.70632E+09 6.36546E+07 1.03443E+06 1.59866E+09 3.36389E+06-4.08407E+07
 -1      1013-4.22532E+08-8.11793E+05 1.65495E+06 1.72776E+09-4.37363E+06-4.62592E+07
 -1      1015-4.22532E+08-8.11793E+05 1.65495E+06 1.72776E+09-4.37363E+06-4.62592E+07
 -1      1016-7.57751E+09-7.82760E+07-4.93722E+06 1.61178E+09-1.24879E+07-4.68576E+07
 -1      1018-7.57751E+09-7.82760E+07-4.93722E+06 1.61178E+09-1.24879E+07-4.68576E+07
 -1      1019-1.37504E+10-1.36715E+08-5.22008E+06 1.27050E+09-1.88097E+07-4.33121E+07
 -1      1021-1.37504E+10-1.36715E+08-5.22008E+06 1.27050E+09-1.88097E+07-4.33121E+07
 -1      1022-1.80808E+10-1.82302E+08-9.34131E+06 7.51531E+08-2.33862E+07-3.59709E+07
 -1      1024-1.80808E+10-1.82302E+08-9.34131E+06 7.51531E+08-2.33862E+07-3.59709E+07
 -1      1025-1.99632E+10-1.99437E+08-8.58262E+06 1.27614E+08-2.45343E+07-2.57067E+07
 -1      1027-1.99632E+10-1.99437E+08-8.58262E+06 1.27614E+08-2.45343E+07-2.57067E+07
 -1      1028-1.91310E+10-1.91464E+08-9.47104E+06-5.16369E+08-2.28637E+07-1.37936E+07
 -1      1030-1.91310E+10-1.91464E+08-9.47104E+06-5.16369E+08-2.28637E+07-1.37936E+07
 -1      1031-1.56882E+10-1.56344E+08-6.95472E+06-1.09175E+09-1.77225E+07-1.40703E+06
 -1      1033-1.56882E+10-1.56344E+08-6.95472E+06-1.09175E+09-1.77225E+07-1.40703E+06
 -1      1034-1.00950E+10-9.94915E+07-4.95588E+06-1.52093E+09-1.04385E+07 1.00688E+07
 -1      1036-1.00950E+10-9.94915E+07-4.95588E+06-1.52093E+09-1.04385E+07 1.00688E+07
 -1      1037-3.10398E+09-3.03808E+07-1.43536E+06-1.74518E+09-1.29727E+06 1.96489E+07
 -1      1039-3.10398E+09-3.03808E+07-1.43536E+06-1.74518E+09-1.29727E+06 1.96489E+07
 -1      1040 4.34614E+09 4.64758E+07 2.09138E+06-1.73591E+09 7.87713E+06 2.64607E+07
 -1      1042 4.34614E+09 4.64758E+07 2.09138E+06-1.73591E+09 7.87713E+06 2.64607E+07
 -1      1043 1.12577E+10 1.11465E+08 4.85313E+06-1.49496E+09 1.64184E+07 3.01352E+07
 -1      1045 1.12577E+10 1.11465E+08 4.85313E+06-1.49496E+09 1.64184E+07 3.01352E+07
 -1      1046 1.67182E+10 1.71180E+08 8.23820E+06-1.05925E+09 2.25198E+07 3.06607E+07
 -1      1048 1.67182E+10 1.71180E+08 8.23820E+06-1.05925E+09 2.25198E+07 3.06607E+07
 -1      1049 2.00246E+10 1.93294E+08 8.39661E+06-4.92547E+08 2.57869E+07 2.83048E+07
 -1      1051 2.00246E+10 1.93294E+08 8.39661E+06-4.92547E+08 2.57869E+07 2.83048E+07
 -1      1052 2.07950E+10 2.10202E+08 1.05902E+07 1.24273E+08 2.50276E+07 2.39876E+07
 -1      1054 2.07950E+10 2.10202E+08 1.05902E+07 1.24273E+08 2.50276E+07 2.39876E+07
 -1      1055 1.90297E+10 1.73558E+08 7.16957E+06 6.80169E+08 2.03042E+07 1.80516E+07
 -1      1057 1.90297E+10 1.73558E+08 7.16957E+06 6.80169E+08 2.03042E+07 1.80516E+07
 -1      1058 1.51310E+10 1.36073E+08 8.37049E+06 1.12347E+09 1.18816E+07 1.24589E+07
 -1      1060 1.51310E+10 1.36073E+08 8.37049E+06 1.12347E+09 1.18816E+07 1.24589E+07
 -1      1061 9.90135E+09 8.34664E+07 1.90954E+06 1.26694E+09-8.18065E+05 6.26667E+06
 -1      1063 9.90135E+09 8.34664E+07 1.90954E+06 1.26694E+09-8.18065E+05 6.26667E+06
 -1      1064 4.45231E+09-5.04782E+07 3.06092E+06 1.23384E+09-1.29866E+07 3.31555E+06
 -1      1066 4.45231E+09-5.04782E+07 3.06092E+06 1.23384E+09-1.29866E+07 3.31555E+06
 -1      1067 1.54984E+08 2.38889E+07-2.47900E+06 6.73538E+08-2.90868E+07-1.35050E+06
 -1      1069 1.54984E+08 2.38889E+07-2.47900E+06 6.73538E+08-2.90868E+07-1.35050E+06
 -1      1070-1.24638E+09-2.43704E+08-6.64648E+06-2.33506E+08-2.49058E+07-2.20413E+05
 -1      1072-1.24638E+09-2.43704E+08-6.64648E+06-2.33506E+08-2.49058E+07-2.20413E+05
 -1      1073-1.60925E+10-2.00510E+09-2.82710E+06-5.73087E+09 3.66327E+07 1.75369E+08
 -1      1075-1.60925E+10-2.00510E+09-2.82710E+06-5.73087E+09 3.66327E+07 1.75369E+08
 -1      1076 6.92465E-02-6.66354E-05 5.90924E-02-2.03625E+08-2.15506E+07 1.01538E-01
 -1      1078 6.92465E-02-6.66354E-05 5.90924E-02-2.03625E+08-2.15506E+07 1.01538E-01
 -1      1079-1.09765E-02-8.81936E-06 3.50261E-02-1.13309E-02-1.80624E+07 1.33659E-01
 -1      1081-1.09765E-02-8.81936E-06 3.50261E-02-1.13309E-02-1.80624E+07 1.33659E-01
 -1      1082-8.68782E-02 2.20071E-07 6.26531E-03 2.03625E+08-2.15506E+07 1.60405E-01
 -1      1084-8.68782E-02 2.20071E-07 6.26531E-03 2.03625E+08-2.15506E+07 1.60405E-01
 -1      1085-8.55110E-02 4.34775E-05 1.04564E-02 1.06925E+08-1.09613E+08 1.53349E-01
 -1      1087-8.55110E-02 4.34775E-05 1.04564E-02 1.06925E+08-1.09613E+08 1.53349E-01
 -1      1088-8.60963E-02-8.11219E-04 2.75970E-05 7.01935E+09-2.70660E+07 3.71956E-03
 -1      1090-8.60963E-02-8.11219E-04 2.75970E-05 7.01935E+09-2.70660E+07 3.71956E-03
 -1      1099-2.08258E-02-2.54597E-04 8.98034E-03 4.52224E+07-2.28391E+08 1.02271E-01
 -1      1101-2.08258E-02-2.54597E-04 8.98034E-03 4.52224E+07-2.28391E+08 1.02271E-01
 -1      1102-2.34434E-02 9.34511E-03 5.67697E-05 6.22290E+09-1.33623E+08-6.34290E-04
 -1      1104-2.34434E-02 9.34511E-03 5.67697E-05 6.22290E+09-1.33623E+08-6.34290E-04
 -1      1113 8.19388E-03-5.31354E-04-3.40569E-02 8.77166E+07-2.67146E+08 6.56567E-02
 -1      1115 8.19388E-03-5.31354E-04-3.40569E-02 8.77166E+07-2.67146E+08 6.56567E-02
 -1      1116 4.68290E-03-6.73611E-03-1.01421E-04 4.65593E+09-1.49560E+08 2.63649E-03
 -1      1118 4.68290E-03-6.73611E-03-1.01421E-04 4.65593E+09-1.49560E+08 2.63649E-03
 -1      1127 1.46993E-02 8.05641E-04-8.26573E-02 3.47070E+07-2.90752E+08 4.07278E-02
 -1      1129 1.46993E-02 8.05641E-04-8.26573E-02 3.47070E+07-2.90752E+08 4.07278E-02
 -1      1130 2.69496E-02-1.25445E-02-2.77579E-04 3.29087E+09-1.72265E+08 1.12048E-03
 -1      1132 2.69496E-02-1.25445E-02-2.77579E-04 3.29087E+09-1.72265E+08 1.12048E-03
 -1      1141 1.86770E-02 5.95649E-04-1.44145E-01 3.35123E+07-2.98942E+08 6.36915E-03
 -1      1143 1.86770E-02 5.95649E-04-1.44145E-01 3.35123E+07-2.98942E+08 6.36915E-03
 -1      1144 5.70512E-02 2.31850E-03-1.09196E-04 1.62288E+09-1.82223E+08 1.96494E-03
 -1      1146 5.70512E-02 2.31850E-03-1.09196E-04 1.62288E+09-1.82223E+08 1.96494E-03
 -1      1155 3.23294E-02-8.64899E-04-1.78831E-01-1.83718E+07-2.85563E+08 9.70054E-04
 -1      1157 3.23294E-02-8.64899E-04-1.78831E-01-1.83718E+07-2.85563E+08 9.70054E-04
 -1      1158 9.87334E-02 1.06323E-02 2.78831E-04 7.25649E+06-1.76009E+08 2.87729E-04
 -1      1160 9.87334E-02 1.06323E-02 2.78831E-04 7.25649E+06-1.76009E+08 2.87729E-04
 -1      1169 6.83007E-02-1.12881E-03-1.24444E-01-3.43188E+07-2.62791E+08 1.43975E-02
 -1      1171 6.83007E-02-1.12881E-03-1.24444E-01-3.43188E+07-2.62791E+08 1.43975E-02
 -1      1172 1.50400E-01 1.92326E-03 5.42402E-04-1.51909E+09-1.65082E+08 1.24076E-03
 -1      1174 1.50400E-01 1.92326E-03 5.42402E-04-1.51909E+09-1.65082E+08 1.24076E-03
 -1      1183 9.59015E-02-1.37200E-03-4.12167E-02-7.21377E+07-2.22153E+08-3.25986E-02
 -1      1185 9.59015E-02-1.37200E-03-4.12167E-02-7.21377E+07-2.22153E+08-3.25986E-02
 -1      1186 1.63750E-01-3.48026E-03-7.85589E-05-2.73948E+09-1.37985E+08 3.95956E-04
 -1      1188 1.63750E-01-3.48026E-03-7.85589E-05-2.73948E+09-1.37985E+08 3.95956E-04
 -1      1197 7.78292E-02-1.82437E-04-4.33730E-02-8.11459E+07-1.73475E+08-1.18842E-01
 -1      1199 7.78292E-02-1.82437E-04-4.33730E-02-8.11459E+07-1.73475E+08-1.18842E-01
 -1      1200 1.22072E-01 8.61391E-04-3.86611E-04-3.54669E+09-1.06689E+08-7.00280E-04
 -1      1202 1.22072E-01 8.61391E-04-3.86611E-04-3.54669E+09-1.06689E+08-7.00280E-04
 -1      1211 5.08638E-02-4.11175E-04-9.26708E-02-9.40020E+07-1.14274E+08-1.48877E-01
 -1      1213 5.08638E-02-4.11175E-04-9.26708E-02-9.40020E+07-1.14274E+08-1.48877E-01
 -1      1214 8.12355E-02 9.91102E-03 6.76438E-04-3.83016E+09-6.54351E+07-9.81348E-04
 -1      1216 8.12355E-02 9.91102E-03 6.76438E-04-3.83016E+09-6.54351E+07-9.81348E-04
 -1      1225 4.58711E-02-2.24440E-03-7.94649E-02-8.38295E+07-5.20830E+07-1.28792E-01
 -1      1227 4.58711E-02-2.24440E-03-7.94649E-02-8.38295E+07-5.20830E+07-1.28792E-01
 -1      1228 5.77683E-02 1.53419E-02 8.12531E-04-3.57623E+09-2.31547E+07-9.53322E-04
 -1      1230 5.77683E-02 1.53419E-02 8.12531E-04-3.57623E+09-2.31547E+07-9.53322E-04
 -1      1239 2.15730E-02-1.97940E-03-7.57640E-03-7.06025E+07 1.18340E+07-1.11728E-01
 -1      1241 2.15730E-02-1.97940E-03-7.57640E-03-7.06025E+07 1.18340E+07-1.11728E-01
 -1      1242 8.22949E-03 9.97210E-03-4.20213E-05-2.81695E+09 2.12550E+07-1.10913E-03
 -1      1244 8.22949E-03 9.97210E-03-4.20213E-05-2.81695E+09 2.12550E+07-1.10913E-03
 -1      1253-3.31849E-02-1.29104E-03 5.67813E-02-4.22977E+07 7.13196E+07-1.09297E-01
 -1      1255-3.31849E-02-1.29104E-03 5.67813E-02-4.22977E+07 7.13196E+07-1.09297E-01
 -1      1256-6.43117E-02 1.01045E-02-2.96712E-04-1.66769E+09 6.16108E+07-3.88321E-04
 -1      1258-6.43117E-02 1.01045E-02-2.96712E-04-1.66769E+09 6.16108E+07-3.88321E-04
 -1      1267-8.14786E-02-1.03684E-03 6.95514E-02-1.32066E+07 1.24409E+08-9.30202E-02
 -1      1269-8.14786E-02-1.03684E-03 6.95514E-02-1.32066E+07 1.24409E+08-9.30202E-02
 -1      1270-1.13813E-01 2.29954E-02-5.56707E-05-2.82010E+08 9.70428E+07-2.67999E-04
 -1      1272-1.13813E-01 2.29954E-02-5.56707E-05-2.82010E+08 9.70428E+07-2.67999E-04
 -1      1281-9.83397E-02-2.25289E-03 5.33711E-02 2.09832E+07 1.66236E+08-4.06275E-02
 -1      1283-9.83397E-02-2.25289E-03 5.33711E-02 2.09832E+07 1.66236E+08-4.06275E-02
 -1      1284-1.23861E-01 2.05355E-02 4.52399E-04 1.14529E+09 1.23975E+08 4.05586E-04
 -1      1286-1.23861E-01 2.05355E-02 4.52399E-04 1.14529E+09 1.23975E+08 4.05586E-04
 -1      1295-8.52139E-02-3.13688E-03 5.14429E-02 4.88134E+07 1.96384E+08-1.77476E-03
 -1      1297-8.52139E-02-3.13688E-03 5.14429E-02 4.88134E+07 1.96384E+08-1.77476E-03
 -1      1298-1.07981E-01 6.97374E-04 3.47793E-04 2.42308E+09 1.41491E+08 1.29194E-03
 -1      1300-1.07981E-01 6.97374E-04 3.47793E-04 2.42308E+09 1.41491E+08 1.29194E-03
 -1      1309-6.14729E-02-2.28153E-05 2.85037E-02 7.28906E+07 2.11344E+08-1.33399E-02
 -1      1311-6.14729E-02-2.28153E-05 2.85037E-02 7.28906E+07 2.11344E+08-1.33399E-02
 -1      1312-7.72200E-02-5.82412E-03 1.14888E-04 3.37392E+09 1.48637E+08 8.02948E-04
 -1      1314-7.72200E-02-5.82412E-03 1.14888E-04 3.37392E+09 1.48637E+08 8.02948E-04
 -1      1323-3.44828E-02-1.39345E-04-3.84320E-02 8.36148E+07 2.13584E+08-2.48805E-02
 -1      1325-3.44828E-02-1.39345E-04-3.84320E-02 8.36148E+07 2.13584E+08-2.48805E-02
 -1      1326-4.23129E-02-1.04333E-02-3.45375E-04 3.87320E+09 1.45316E+08 1.13036E-03
 -1      1328-4.23129E-02-1.04333E-02-3.45375E-04 3.87320E+09 1.45316E+08 1.13036E-03
 -1      1337-2.22500E-02-2.27855E-03-1.02229E-01 8.69002E+07 2.00435E+08-1.22543E-02
 -1      1339-2.22500E-02-2.27855E-03-1.02229E-01 8.69002E+07 2.00435E+08-1.22543E-02
 -1      1340-2.83587E-02-2.98069E-02 3.69553E-04 3.85076E+09 1.32937E+08 1.69235E-03
 -1      1342-2.83587E-02-2.98069E-02 3.69553E-04 3.85076E+09 1.32937E+08 1.69235E-03
 -1      1351-3.85077E-02 2.77221E-04-1.48873E-01 7.34976E+07 1.77963E+08 1.13343E-02
 -1      1353-3.85077E-02 2.77221E-04-1.48873E-01 7.34976E+07 1.77963E+08 1.13343E-02
 -1      1354-3.92661E-02-3.27698E-02 2.88188E-04 3.31915E+09 1.12238E+08 1.11389E-03
 -1      1356-3.92661E-02-3.27698E-02 2.88188E-04 3.31915E+09 1.12238E+08 1.11389E-03
 -1      1365-5.83086E-02 4.56305E-04-1.69587E-01 5.67655E+07 1.42751E+08 5.53208E-02
 -1      1367-5.83086E-02 4.56305E-04-1.69587E-01 5.67655E+07 1.42751E+08 5.53208E-02
 -1      1368-4.73473E-02-1.35344E-02-1.56641E-04 2.35043E+09 8.62289E+07 3.80334E-04
 -1      1370-4.73473E-02-1.35344E-02-1.56641E-04 2.35043E+09 8.62289E+07 3.80334E-04
 -1      1379-6.84261E-02 3.27846E-04-1.11403E-01 2.37934E+07 1.05277E+08 9.81410E-02
 -1      1381-6.84261E-02 3.27846E-04-1.11403E-01 2.37934E+07 1.05277E+08 9.81410E-02
 -1      1382-5.15575E-02-1.14161E-02 1.56760E-04 1.09517E+09 5.61860E+07-7.50311E-05
 -1      1384-5.15575E-02-1.14161E-02 1.56760E-04 1.09517E+09 5.61860E+07-7.50311E-05
 -1      1393-7.84853E-02 1.14186E-03-6.77056E-03-6.23827E+05 5.80009E+07 8.71353E-02
 -1      1395-7.84853E-02 1.14186E-03-6.77056E-03-6.23827E+05 5.80009E+07 8.71353E-02
 -1      1396-6.27434E-02-1.82388E-02-8.11100E-04-2.66190E+08 2.52221E+07-3.22504E-04
 -1      1398-6.27434E-02-1.82388E-02-8.11100E-04-2.66190E+08 2.52221E+07-3.22504E-04
 -1      1407-8.14668E-02 8.75601E-04 2.58656E-02-4.05368E+07 1.83734E+07 3.16728E-02
 -1      1409-8.14668E-02 8.75601E-04 2.58656E-02-4.05368E+07 1.83734E+07 3.16728E-02
 -1      1410-6.52592E-02-4.78578E-03-6.55293E-04-1.52021E+09-4.33486E+06-6.07579E-04
 -1      1412-6.52592E-02-4.78578E-03-6.55293E-04-1.52021E+09-4.33486E+06-6.07579E-04
 -1      1421-6.69347E-02-6.88013E-04-2.58196E-02-5.53693E+07-3.30825E+07 1.13415E-02
 -1      1423-6.69347E-02-6.88013E-04-2.58196E-02-5.53693E+07-3.30825E+07 1.13415E-02
 -1      1424-4.75321E-02 9.62347E-03 6.70493E-04-2.43760E+09-3.28750E+07 8.57487E-05
 -1      1426-4.75321E-02 9.62347E-03 6.70493E-04-2.43760E+09-3.28750E+07 8.57487E-05
 -1      1435-3.82100E-02-2.78701E-03-5.87627E-02-8.79623E+07-6.34722E+07 4.38674E-02
 -1      1437-3.82100E-02-2.78701E-03-5.87627E-02-8.79623E+07-6.34722E+07 4.38674E-02
 -1      1438-1.64049E-02 1.02107E-02 1.89018E-03-2.88261E+09-5.33226E+07 8.71901E-04
 -1      1440-1.64049E-02 1.02107E-02 1.89018E-03-2.88261E+09-5.33226E+07 8.71901E-04
 -1      1449-4.13531E-03-6.25361E-04-3.55830E-02-8.53822E+07-1.26978E+08 5.00299E-02
 -1      1451-4.13531E-03-6.25361E-04-3.55830E-02-8.53822E+07-1.26978E+08 5.00299E-02
 -1      1452 1.44304E-02 7.31507E-03 1.04745E-03-2.57439E+09-8.14404E+07 7.90759E-04
 -1      1454 1.44304E-02 7.31507E-03 1.04745E-03-2.57439E+09-8.14404E+07 7.90759E-04
 -1      1463 1.24688E-02 2.56606E-03-2.52871E-02-9.28647E+07-1.50604E+08 9.39357E-03
 -1      1465 1.24688E-02 2.56606E-03-2.52871E-02-9.28647E+07-1.50604E+08 9.39357E-03
 -1      1466 3.15128E-02 2.13009E-03 3.20569E-04-1.56119E+09-9.40326E+07 2.84081E-05
 -1      1468 3.15128E-02 2.13009E-03 3.20569E-04-1.56119E+09-9.40326E+07 2.84081E-05
 -1      1477 2.92647E-03 3.19710E-03-5.78615E-02-1.04792E+08-2.98790E+08-1.53558E-02
 -1      1479 2.92647E-03 3.19710E-03-5.78615E-02-1.04792E+08-2.98790E+08-1.53558E-02
 -1      1480 2.84605E-02 1.10458E-02 5.67615E-04 3.10252E+08-1.66659E+08-8.72900E-05
 -1      1482 2.84605E-02 1.10458E-02 5.67615E-04 3.10252E+08-1.66659E+08-8.72900E-05
 -1      1491-2.48053E-02 1.81860E-03-7.93335E-02-2.31320E+07-2.74228E+08 1.68026E-02
 -1      1493-2.48053E-02 1.81860E-03-7.93335E-02-2.31320E+07-2.74228E+08 1.68026E-02
 -1      1494-9.05484E-03 1.57727E-03-5.50323E-02-2.44636E-03-4.26341E+07 1.22088E-02
 -1      1496-9.05484E-03 1.57727E-03-5.50323E-02-2.44636E-03-4.26341E+07 1.22088E-02
 -1      1497-6.93046E-03 1.24171E-03-6.55805E-02 2.31320E+07-2.74228E+08 1.40743E-04
 -1      1499-6.93046E-03 1.24171E-03-6.55805E-02 2.31320E+07-2.74228E+08 1.40743E-04
 -1      1500 1.78478E+10 7.12582E+08-5.80878E+06 3.58615E+09 6.53504E+06 1.42219E+08
 -1      1502 1.78478E+10 7.12582E+08-5.80878E+06 3.58615E+09 6.53504E+06 1.42219E+08
 -1      1503 5.28038E+09-3.31657E+08 2.96512E+06 2.54691E+09 8.89270E+06-4.51108E+06
 -1      1505 5.28038E+09-3.31657E+08 2.96512E+06 2.54691E+09 8.89270E+06-4.51108E+06
 -1      1506-4.77480E+09 4.79111E+07-1.51091E+06 2.19518E+09 1.61822E+07 5.71098E+07
 -1      1508-4.77480E+09 4.79111E+07-1.51091E+06 2.19518E+09 1.61822E+07 5.71098E+07
 -1      1509-1.23392E+10-2.17927E+08-1.00501E+07 1.42953E+09 1.62029E+07 1.11057E+07
 -1      1511-1.23392E+10-2.17927E+08-1.00501E+07 1.42953E+09 1.62029E+07 1.11057E+07
 -1      1512-1.69254E+10-1.53723E+08-4.53345E+06 7.43657E+08 1.92407E+07 1.41008E+07
 -1      1514-1.69254E+10-1.53723E+08-4.53345E+06 7.43657E+08 1.92407E+07 1.41008E+07
 -1      1515-1.84418E+10-2.12639E+08-1.25293E+07-6.50957E+06 1.80500E+07-8.56854E+06
 -1      1517-1.84418E+10-2.12639E+08-1.25293E+07-6.50957E+06 1.80500E+07-8.56854E+06
 -1      1518-1.69282E+10-1.64229E+08-4.96133E+06-6.84362E+08 1.56340E+07-1.87342E+07
 -1      1520-1.69282E+10-1.64229E+08-4.96133E+06-6.84362E+08 1.56340E+07-1.87342E+07
 -1      1521-1.27930E+10-1.38043E+08-8.75724E+06-1.23750E+09 1.04985E+07-3.26407E+07
 -1      1523-1.27930E+10-1.38043E+08-8.75724E+06-1.23750E+09 1.04985E+07-3.26407E+07
 -1      1524-6.70632E+09-6.36546E+07-1.03443E+06-1.59866E+09 3.36389E+06-4.08407E+07
 -1      1526-6.70632E+09-6.36546E+07-1.03443E+06-1.59866E+09 3.36389E+06-4.08407E+07
 -1      1527 4.22532E+08 8.11793E+05-1.65495E+06-1.72776E+09-4.37363E+06-4.62592E+07
 -1      1529 4.22532E+08 8.11793E+05-1.65495E+06-1.72776E+09-4.37363E+06-4.62592E+07
 -1      1530 7.57751E+09 7.82760E+07 4.93722E+06-1.61178E+09-1.24879E+07-4.68576E+07
 -1      1532 7.57751E+09 7.82760E+07 4.93722E+06-1.61178E+09-1.24879E+07-4.68576E+07
 -1      1533 1.37504E+10 1.36715E+08 5.22008E+06-1.27050E+09-1.88097E+07-4.33121E+07
 -1      1535 1.37504E+10 1.36715E+08 5.22008E+06-1.27050E+09-1.88097E+07-4.33121E+07
 -1      1536 1.80808E+10 1.82302E+08 9.34131E+06-7.51531E+08-2.33862E+07-3.59709E+07
 -1      1538 1.80808E+10 1.82302E+08 9.34131E+06-7.51531E+08-2.33862E+07-3.59709E+07
 -1      1539 1.99632E+10 1.99437E+08 8.58262E+06-1.27614E+08-2.45343E+07-2.57067E+07
 -1      1541 1.99632E+10 1.99437E+08 8.58262E+06-1.27614E+08-2.45343E+07-2.57067E+07
 -1      1542 1.91310E+10 1.91464E+08 9.47104E+06 5.16369E+08-2.28637E+07-1.37936E+07
 -1      1544 1.91310E+10 1.91464E+08 9.47104E+06 5.16369E+08-2.28637E+07-1.37936E+07
 -1      1545 1.56882E+10 1.56344E+08 6.95472E+06 1.09175E+09-1.77225E+07-1.40703E+06
 -1      1547 1.56882E+10 1.56344E+08 6.95472E+06 1.09175E+09-1.77225E+07-1.40703E+06
 -1      1548 1.00950E+10 9.94915E+07 4.95588E+06 1.52093E+09-1.04385E+07 1.00688E+07
 -1      1550 1.00950E+10 9.94915E+07 4.95588E+06 1.52093E+09-1.04385E+07 1.00688E+07
 -1      1551 3.10398E+09 3.03808E+07 1.43536E+06 1.74518E+09-1.29727E+06 1.96489E+07
 -1      1553 3.10398E+09 3.03808E+07 1.43536E+06 1.74518E+09-1.29727E+06 1.96489E+07
 -1      1554-4.34614E+09-4.64758E+07-2.09138E+06 1.73591E+09 7.87713E+06 2.64607E+07
 -1      1556-4.34614E+09-4.64758E+07-2.09138E+06 1.73591E+09 7.87713E+06 2.64607E+07
 -1      1557-1.12577E+10-1.11465E+08-4.85313E+06 1.49496E+09 1.64184E+07 3.01352E+07
 -1      1559-1.12577E+10-1.11465E+08-4.85313E+06 1.49496E+09 1.64184E+07 3.01352E+07
 -1      1560-1.67182E+10-1.71180E+08-8.23820E+06 1.05925E+09 2.25198E+07 3.06607E+07
 -1      1562-1.67182E+10-1.71180E+08-8.23820E+06 1.05925E+09 2.25198E+07 3.06607E+07
 -1      1563-2.00246E+10-1.93294E+08-8.39661E+06 4.92547E+08 2.57869E+07 2.83048E+07
 -1      1565-2.00246E+10-1.93294E+08-8.39661E+06 4.92547E+08 2.57869E+07 2.83048E+07
 -1      1566-2.07950E+10-2.10202E+08-1.05902E+07-1.24273E+08 2.50276E+07 2.39876E+07
 -1      1568-2.07950E+10-2.10202E+08-1.05902E+07-1.24273E+08 2.50276E+07 2.39876E+07
 -1      1569-1.90297E+10-1.73558E+08-7.16957E+06-6.80169E+08 2.03042E+07 1.80516E+07
 -1      1571-1.90297E+10-1.73558E+08-7.16957E+06-6.80169E+08 2.03042E+07 1.80516E+07
 -1      1572-1.51310E+10-1.36073E+08-8.37049E+06-1.12347E+09 1.18816E+07 1.24589E+07
 -1      1574-1.51310E+10-1.36073E+08-8.37049E+06-1.12347E+09 1.18816E+07 1.24589E+07
 -1      1575-9.90135E+09-8.34664E+07-1.90954E+06-1.26694E+09-8.18065E+05 6.26667E+06
 -1      1577-9.90135E+09-8.34664E+07-1.90954E+06-1.26694E+09-8.18065E+05 6.26667E+06
 -1      1578-4.45231E+09 5.04782E+07-3.06092E+06-1.23384E+09-1.29866E+07 3.31555E+06
 -1      1580-4.45231E+09 5.04782E+07-3.06092E+06-1.23384E+09-1.29866E+07 3.31555E+06
 -1      1581-1.54984E+08-2.38889E+07 2.47900E+06-6.73538E+08-2.90868E+07-1.35050E+06
 -1      1583-1.54984E+08-2.38889E+07 2.47900E+06-6.73538E+08-2.90868E+07-1.35050E+06
 -1      1584 1.24638E+09 2.43704E+08 6.64648E+06 2.33506E+08-2.49058E+07-2.20413E+05
 -1      1586 1.24638E+09 2.43704E+08 6.64648E+06 2.33506E+08-2.49058E+07-2.20413E+05
 -1      1587 9.65478E+08 1.40510E+09 1.65865E+07 1.06372E+09-1.27611E+08 3.00131E+06
 -1      1589 9.65478E+08 1.40510E+09 1.65865E+07 1.06372E+09-1.27611E+08 3.00131E+06
 -1      1590 1.60925E+10 2.00510E+09 2.82710E+06 5.73087E+09 3.66327E+07 1.75369E+08
 -1      1592 1.60925E+10 2.00510E+09 2.82710E+06 5.73087E+09 3.66327E+07 1.75369E+08
 -1      1593-9.65478E+08-1.40510E+09-1.65865E+07 1.06372E+09-1.27611E+08-3.00131E+06
 -1      1595-9.65478E+08-1.40510E+09-1.65865E+07 1.06372E+09-1.27611E+08-3.00131E+06
 -1      1596-1.78478E+10-7.12582E+08 5.80878E+06 3.58615E+09 6.53504E+06-1.42219E+08
 -1      1598-1.78478E+10-7.12582E+08 5.80878E+06 3.58615E+09 6.53504E+06-1.42219E+08
 -1      1599-5.28038E+09 3.31657E+08-2.96512E+06 2.54691E+09 8.89270E+06 4.51108E+06
 -1      1601-5.28038E+09 3.31657E+08-2.96512E+06 2.54691E+09 8.89270E+06 4.51108E+06
 -1      1602 4.77480E+09-4.79111E+07 1.51091E+06 2.19518E+09 1.61822E+07-5.71098E+07
 -1      1604 4.77480E+09-4.79111E+07 1.51091E+06 2.19518E+09 1.61822E+07-5.71098E+07
 -1      1605 1.23392E+10 2.17927E+08 1.00501E+07 1.42953E+09 1.62029E+07-1.11057E+07
 -1      1607 1.23392E+10 2.17927E+08 1.00501E+07 1.42953E+09 1.62029E+07-1.11057E+07
 -1      1608 1.69254E+10 1.53723E+08 4.53345E+06 7.43657E+08 1.92407E+07-1.41008E+07
 -1      1610 1.69254E+10 1.53723E+08 4.53345E+06 7.43657E+08 1.92407E+07-1.41008E+07
 -1      1611 1.84418E+10 2.12639E+08 1.25293E+07-6.50957E+06 1.80500E+07 8.56854E+06
 -1      1613 1.84418E+10 2.12639E+08 1.25293E+07-6.50957E+06 1.80500E+07 8.56854E+06
 -1      1614 1.69282E+10 1.64229E+08 4.96133E+06-6.84362E+08 1.56340E+07 1.87342E+07
 -1      1616 1.69282E+10 1.64229E+08 4.96133E+06-6.84362E+08 1.56340E+07 1.87342E+07
 -1      1617 1.27930E+10 1.38043E+08 8.75724E+06-1.23750E+09 1.04985E+07 3.26407E+07
 -1      1619 1.27930E+10 1.38043E+08 8.75724E+06-1.23750E+09 1.04985E+07 3.26407E+07
 -1      1620 6.70632E+09 6.36546E+07 1.03443E+06-1.59866E+09 3.36389E+06 4.08407E+07
 -1      1622 6.70632E+09 6.36546E+07 1.03443E+06-1.59866E+09 3.36389E+06 4.08407E+07
 -1      1623-4.22532E+08-8.11793E+05 1.65495E+06-1.72776E+09-4.37363E+06 4.62592E+07
 -1      1625-4.22532E+08-8.11793E+05 1.65495E+06-1.72776E+09-4.37363E+06 4.62592E+07
 -1      1626-7.57751E+09-7.82760E+07-4.93722E+06-1.61178E+09-1.24879E+07 4.68576E+07
 -1      1628-7.57751E+09-7.82760E+07-4.93722E+06-1.61178E+09-1.24879E+07 4.68576E+07
 -1      1629-1.37504E+10-1.36715E+08-5.22008E+06-1.27050E+09-1.88097E+07 4.33121E+07
 -1      1631-1.37504E+10-1.36715E+08-5.22008E+06-1.27050E+09-1.88097E+07 4.33121E+07
 -1      1632-1.80808E+10-1.82302E+08-9.34131E+06-7.51531E+08-2.33862E+07 3.59709E+07
 -1      1634-1.80808E+10-1.82302E+08-9.34131E+06-7.51531E+08-2.33862E+07 3.59709E+07
 -1      1635-1.99632E+10-1.99437E+08-8.58262E+06-1.27614E+08-2.45343E+07 2.57067E+07
 -1      1637-1.99632E+10-1.99437E+08-8.58262E+06-1.27614E+08-2.45343E+07 2.57067E+07
 -1      1638-1.91310E+10-1.91464E+08-9.47104E+06 5.16369E+08-2.28637E+07 1.37936E+07
 -1      1640-1.91310E+10-1.91464E+08-9.47104E+06 5.16369E+08-2.28637E+07 1.37936E+07
 -1      1641-1.56882E+10-1.56344E+08-6.95472E+06 1.09175E+09-1.77225E+07 1.40703E+06
 -1      1643-1.56882E+10-1.56344E+08-6.95472E+06 1.09175E+09-1.77225E+07 1.40703E+06
 -1      1644-1.00950E+10-9.94915E+07-4.95588E+06 1.52093E+09-1.04385E+07-1.00688E+07
 -1      1646-1.00950E+10-9.94915E+07-4.95588E+06 1.52093E+09-1.04385E+07-1.00688E+07
 -1      1647-3.10398E+09-3.03808E+07-1.43536E+06 1.74518E+09-1.29727E+06-1.96489E+07
 -1      1649-3.10398E+09-3.03808E+07-1.43536E+06 1.74518E+09-1.29727E+06-1.96489E+07
 -1      1650 4.34614E+09 4.64758E+07 2.09138E+06 1.73591E+09 7.87713E+06-2.64607E+07
 -1      1652 4.34614E+09 4.64758E+07 2.09138E+06 1.73591E+09 7.87713E+06-2.64607E+07
 -1      1653 1.12577E+10 1.11465E+08 4.85313E+06 1.49496E+09 1.64184E+07-3.01352E+07
 -1      1655 1.12577E+10 1.11465E+08 4.85313E+06 1.49496E+09 1.64184E+07-3.01352E+07
 -1      1656 1.67182E+10 1.71180E+08 8.23820E+06 1.05925E+09 2.25198E+07-3.06607E+07
 -1      1658 1.67182E+10 1.71180E+08 8.23820E+06 1.05925E+09 2.25198E+07-3.06607E+07
 -1      1659 2.00246E+10 1.93294E+08 8.39661E+06 4.92547E+08 2.57869E+07-2.83048E+07
 -1      1661 2.00246E+10 1.93294E+08 8.39661E+06 4.92547E+08 2.57869E+07-2.83048E+07
 -1      1662 2.07950E+10 2.10202E+08 1.05902E+07-1.24273E+08 2.50276E+07-2.39876E+07
 -1      1664 2.07950E+10 2.10202E+08 1.05902E+07-1.24273E+08 2.50276E+07-2.39876E+07
 -1      1665 1.90297E+10 1.73558E+08 7.16957E+06-6.80169E+08 2.03042E+07-1.80516E+07
 -1      1667 1.90297E+10 1.73558E+08 7.16957E+06-6.80169E+08 2.03042E+07-1.80516E+07
 -1      1668 1.51310E+10 1.36073E+08 8.37049E+06-1.12347E+09 1.18816E+07-1.24589E+07
 -1      1670 1.51310E+10 1.36073E+08 8.37049E+06-1.12347E+09 1.18816E+07-1.24589E+07
 -1      1671 9.90135E+09 8.34664E+07 1.90954E+06-1.26694E+09-8.18065E+05-6.26667E+06
 -1      1673 9.90135E+09 8.34664E+07 1.90954E+06-1.26694E+09-8.18065E+05-6.26667E+06
 -1      1674 4.45231E+09-5.04782E+07 3.06092E+06-1.23384E+09-1.29866E+07-3.31555E+06
 -1      1676 4.45231E+09-5.04782E+07 3.06092E+06-1.23384E+09-1.29866E+07-3.31555E+06
 -1      1677 1.54984E+08 2.38889E+07-2.47900E+06-6.73538E+08-2.90868E+07 1.35050E+06
 -1      1679 1.54984E+08 2.38889E+07-2.47900E+06-6.73538E+08-2.90868E+07 1.35050E+06
 -1      1680-1.24638E+09-2.43704E+08-6.64648E+06 2.33506E+08-2.49058E+07 2.20413E+05
 -1      1682-1.24638E+09-2.43704E+08-6.64648E+06 2.33506E+08-2.49058E+07 2.20413E+05
 -1      1683-1.60925E+10-2.00510E+09-2.82710E+06 5.73087E+09 3.66327E+07-1.75369E+08
 -1      1685-1.60925E+10-2.00510E+09-2.82710E+06 5.73087E+09 3.66327E+07-1.75369E+08
 -1      1686 1.18832E+10 7.33723E+08 3.23648E+06-5.30275E+09-1.02655E+07-4.62922E+07
 -1      1688 1.18832E+10 7.33723E+08 3.23648E+06-5.30275E+09-1.02655E+07-4.62922E+07
 -1      1689 3.68828E+09-1.70959E+08-1.00313E+06-4.38490E+09-6.23654E+07 2.11937E+07
 -1      1691 3.68828E+09-1.70959E+08-1.00313E+06-4.38490E+09-6.23654E+07 2.11937E+07
 -1      1692-3.17422E+09-1.08857E+07-7.58056E+05-3.42555E+09-6.66891E+07-1.28719E+07
 -1      1694-3.17422E+09-1.08857E+07-7.58056E+05-3.42555E+09-6.66891E+07-1.28719E+07
 -1      1695-8.15179E+09-2.16225E+08-5.28792E+04-2.36020E+09-7.80309E+07 2.98811E+06
 -1      1697-8.15179E+09-2.16225E+08-5.28792E+04-2.36020E+09-7.80309E+07 2.98811E+06
 -1      1698-1.12546E+10-2.50285E+08-2.16888E+06-1.18327E+09-8.14913E+07-3.38417E+06
 -1      1700-1.12546E+10-2.50285E+08-2.16888E+06-1.18327E+09-8.14913E+07-3.38417E+06
 -1      1701-1.22539E+10-2.75734E+08-3.43012E+05-3.73458E+05-7.89793E+07 1.07822E+06
 -1      1703-1.22539E+10-2.75734E+08-3.43012E+05-3.73458E+05-7.89793E+07 1.07822E+06
 -1      1704-1.12601E+10-2.50887E+08-1.79172E+06 1.10173E+09-7.47242E+07 1.09971E+06
 -1      1706-1.12601E+10-2.50887E+08-1.79172E+06 1.10173E+09-7.47242E+07 1.09971E+06
 -1      1707-8.50671E+09-1.88582E+08-3.83021E+05 1.98849E+09-6.37435E+07 2.70563E+06
 -1      1709-8.50671E+09-1.88582E+08-3.83021E+05 1.98849E+09-6.37435E+07 2.70563E+06
 -1      1710-4.46010E+09-9.67800E+07-6.90041E+05 2.57267E+09-5.16626E+07 3.29008E+06
 -1      1712-4.46010E+09-9.67800E+07-6.90041E+05 2.57267E+09-5.16626E+07 3.29008E+06
 -1      1713 2.84827E+08 8.43268E+06 1.26399E+05 2.77896E+09-3.49044E+07 3.37774E+06
 -1      1715 2.84827E+08 8.43268E+06 1.26399E+05 2.77896E+09-3.49044E+07 3.37774E+06
 -1      1716 5.04508E+09 1.15792E+08 5.22768E+05 2.59401E+09-1.78213E+07 2.94144E+06
 -1      1718 5.04508E+09 1.15792E+08 5.22768E+05 2.59401E+09-1.78213E+07 2.94144E+06
 -1      1719 9.15364E+09 2.06314E+08 7.73645E+05 2.04372E+09 1.22264E+06 1.78722E+06
 -1      1721 9.15364E+09 2.06314E+08 7.73645E+05 2.04372E+09 1.22264E+06 1.78722E+06
 -1      1722 1.20348E+10 2.70762E+08 1.36768E+06 1.20961E+09 1.91123E+07 3.50857E+05
 -1      1724 1.20348E+10 2.70762E+08 1.36768E+06 1.20961E+09 1.91123E+07 3.50857E+05
 -1      1725 1.32875E+10 2.97268E+08 1.03900E+06 2.04812E+08 3.62543E+07-1.41901E+06
 -1      1727 1.32875E+10 2.97268E+08 1.03900E+06 2.04812E+08 3.62543E+07-1.41901E+06
 -1      1728 1.27329E+10 2.84099E+08 1.54480E+06-8.30830E+08 5.05558E+07-3.05121E+06
 -1      1730 1.27329E+10 2.84099E+08 1.54480E+06-8.30830E+08 5.05558E+07-3.05121E+06
 -1      1731 1.04409E+10 2.31362E+08 6.42761E+05-1.75741E+09 6.18842E+07-4.46905E+06
 -1      1733 1.04409E+10 2.31362E+08 6.42761E+05-1.75741E+09 6.18842E+07-4.46905E+06
 -1      1734 6.71784E+09 1.46938E+08 1.07701E+06-2.44742E+09 6.90990E+07-5.31417E+06
 -1      1736 6.71784E+09 1.46938E+08 1.07701E+06-2.44742E+09 6.90990E+07-5.31417E+06
 -1      1737 2.06378E+09 4.19373E+07-3.28970E+05-2.80919E+09 7.20094E+07-5.53508E+06
 -1      1739 2.06378E+09 4.19373E+07-3.28970E+05-2.80919E+09 7.20094E+07-5.53508E+06
 -1      1740-2.89505E+09-7.01162E+07 3.30873E+05-2.79334E+09 7.04073E+07-5.00104E+06
 -1      1742-2.89505E+09-7.01162E+07 3.30873E+05-2.79334E+09 7.04073E+07-5.00104E+06
 -1      1743-7.49685E+09-1.72433E+08-1.51001E+06-2.40706E+09 6.43283E+07-3.74902E+06
 -1      1745-7.49685E+09-1.72433E+08-1.51001E+06-2.40706E+09 6.43283E+07-3.74902E+06
 -1      1746-1.11316E+10-2.54527E+08-1.35278E+05-1.70484E+09 5.43744E+07-1.98684E+06
 -1      1748-1.11316E+10-2.54527E+08-1.35278E+05-1.70484E+09 5.43744E+07-1.98684E+06
 -1      1749-1.33348E+10-3.01166E+08-2.49161E+06-7.93860E+08 4.09865E+07 3.28638E+05
 -1      1751-1.33348E+10-3.01166E+08-2.49161E+06-7.93860E+08 4.09865E+07 3.28638E+05
 -1      1752-1.38504E+10-3.10165E+08 1.71146E+05 1.95231E+08 2.51249E+07 2.44308E+06
 -1      1754-1.38504E+10-3.10165E+08 1.71146E+05 1.95231E+08 2.51249E+07 2.44308E+06
 -1      1755-1.26772E+10-2.86806E+08-3.05670E+06 1.10019E+09 7.98465E+06 5.07232E+06
 -1      1757-1.26772E+10-2.86806E+08-3.05670E+06 1.10019E+09 7.98465E+06 5.07232E+06
 -1      1758-1.00953E+10-1.98720E+08 1.34135E+06 1.78054E+09-1.04967E+07 6.29060E+06
 -1      1760-1.00953E+10-1.98720E+08 1.34135E+06 1.78054E+09-1.04967E+07 6.29060E+06
 -1      1761-6.61564E+09-1.81791E+08-2.98212E+06 2.07477E+09-2.70703E+07 8.83161E+06
 -1      1763-6.61564E+09-1.81791E+08-2.98212E+06 2.07477E+09-2.70703E+07 8.83161E+06
 -1      1764-3.00807E+09 6.84386E+07 2.02644E+06 1.90412E+09-4.72135E+07 8.01172E+06
 -1      1766-3.00807E+09 6.84386E+07 2.02644E+06 1.90412E+09-4.72135E+07 8.01172E+06
 -1      1767-2.24034E+08-1.57398E+08 3.30539E+05 1.11736E+09-6.15597E+07 1.07364E+07
 -1      1769-2.24034E+08-1.57398E+08 3.30539E+05 1.11736E+09-6.15597E+07 1.07364E+07
 -1      1770 9.02583E+08 3.61929E+08-5.60687E+06-2.71879E+08-9.57822E+07 7.21639E+06
 -1      1772 9.02583E+08 3.61929E+08-5.60687E+06-2.71879E+08-9.57822E+07 7.21639E+06
 -1      1773-1.18832E+10-7.33723E+08-3.23648E+06-5.30275E+09-1.02655E+07 4.62922E+07
 -1      1775-1.18832E+10-7.33723E+08-3.23648E+06-5.30275E+09-1.02655E+07 4.62922E+07
 -1      1776-3.68828E+09 1.70959E+08 1.00313E+06-4.38490E+09-6.23654E+07-2.11937E+07
 -1      1778-3.68828E+09 1.70959E+08 1.00313E+06-4.38490E+09-6.23654E+07-2.11937E+07
 -1      1779 3.17422E+09 1.08857E+07 7.58056E+05-3.42555E+09-6.66891E+07 1.28719E+07
 -1      1781 3.17422E+09 1.08857E+07 7.58056E+05-3.42555E+09-6.66891E+07 1.28719E+07
 -1      1782 8.15179E+09 2.16225E+08 5.28792E+04-2.36020E+09-7.80309E+07-2.98811E+06
 -1      1784 8.15179E+09 2.16225E+08 5.28792E+04-2.36020E+09-7.80309E+07-2.98811E+06
 -1      1785 1.12546E+10 2.50285E+08 2.16888E+06-1.18327E+09-8.14913E+07 3.38417E+06
 -1      1787 1.12546E+10 2.50285E+08 2.16888E+06-1.18327E+09-8.14913E+07 3.38417E+06
 -1      1788 1.22539E+10 2.75734E+08 3.43012E+05-3.73458E+05-7.89793E+07-1.07822E+06
 -1      1790 1.22539E+10 2.75734E+08 3.43012E+05-3.73458E+05-7.89793E+07-1.07822E+06
 -1      1791 1.12601E+10 2.50887E+08 1.79172E+06 1.10173E+09-7.47242E+07-1.09971E+06
 -1      1793 1.12601E+10 2.50887E+08 1.79172E+06 1.10173E+09-7.47242E+07-1.09971E+06
 -1      1794 8.50671E+09 1.88582E+08 3.83021E+05 1.98849E+09-6.37435E+07-2.70563E+06
 -1      1796 8.50671E+09 1.88582E+08 3.83021E+05 1.98849E+09-6.37435E+07-2.70563E+06
 -1      1797 4.46010E+09 9.67800E+07 6.90041E+05 2.57267E+09-5.16626E+07-3.29008E+06
 -1      1799 4.46010E+09 9.67800E+07 6.90041E+05 2.57267E+09-5.16626E+07-3.29008E+06
 -1      1800-2.84827E+08-8.43268E+06-1.26399E+05 2.77896E+09-3.49044E+07-3.37774E+06
 -1      1802-2.84827E+08-8.43268E+06-1.26399E+05 2.77896E+09-3.49044E+07-3.37774E+06
 -1      1803-5.04508E+09-1.15792E+08-5.22768E+05 2.59401E+09-1.78213E+07-2.94144E+06
 -1      1805-5.04508E+09-1.15792E+08-5.22768E+05 2.59401E+09-1.78213E+07-2.94144E+06
 -1      1806-9.15364E+09-2.06314E+08-7.73645E+05 2.04372E+09 1.22264E+06-1.78722E+06
 -1      1808-9.15364E+09-2.06314E+08-7.73645E+05 2.04372E+09 1.22264E+06-1.78722E+06
 -1      1809-1.20348E+10-2.70762E+08-1.36768E+06 1.20961E+09 1.91123E+07-3.50857E+05
 -1      1811-1.20348E+10-2.70762E+08-1.36768E+06 1.20961E+09 1.91123E+07-3.50857E+05
 -1      1812-1.32875E+10-2.97268E+08-1.03900E+06 2.04812E+08 3.62543E+07 1.41901E+06
 -1      1814-1.32875E+10-2.97268E+08-1.03900E+06 2.04812E+08 3.62543E+07 1.41901E+06
 -1      1815-1.27329E+10-2.84099E+08-1.54480E+06-8.30830E+08 5.05558E+07 3.05121E+06
 -1      1817-1.27329E+10-2.84099E+08-1.54480E+06-8.30830E+08 5.05558E+07 3.05121E+06
 -1      1818-1.04409E+10-2.31362E+08-6.42761E+05-1.75741E+09 6.18842E+07 4.46905E+06
 -1      1820-1.04409E+10-2.31362E+08-6.42761E+05-1.75741E+09 6.18842E+07 4.46905E+06
 -1      1821-6.71784E+09-1.46938E+08-1.07701E+06-2.44742E+09 6.90990E+07 5.31417E+06
 -1      1823-6.71784E+09-1.46938E+08-1.07701E+06-2.44742E+09 6.90990E+07 5.31417E+06
 -1      1824-2.06378E+09-4.19373E+07 3.28970E+05-2.80919E+09 7.20094E+07 5.53508E+06
 -1      1826-2.06378E+09-4.19373E+07 3.28970E+05-2.80919E+09 7.20094E+07 5.53508E+06
 -1      1827 2.89505E+09 7.01162E+07-3.30873E+05-2.79334E+09 7.04073E+07 5.00104E+06
 -1      1829 2.89505E+09 7.01162E+07-3.30873E+05-2.79334E+09 7.04073E+07 5.00104E+06
 -1      1830 7.49685E+09 1.72433E+08 1.51001E+06-2.40706E+09 6.43283E+07 3.74902E+06
 -1      1832 7.49685E+09 1.72433E+08 1.51001E+06-2.40706E+09 6.43283E+07 3.74902E+06
 -1      1833 1.11316E+10 2.54527E+08 1.35278E+05-1.70484E+09 5.43744E+07 1.98684E+06
 -1      1835 1.11316E+10 2.54527E+08 1.35278E+05-1.70484E+09 5.43744E+07 1.98684E+06
 -1      1836 1.33348E+10 3.01166E+08 2.49161E+06-7.93860E+08 4.09865E+07-3.28638E+05
 -1      1838 1.33348E+10 3.01166E+08 2.49161E+06-7.93860E+08 4.09865E+07-3.28638E+05
 -1      1839 1.38504E+10 3.10165E+08-1.71146E+05 1.95231E+08 2.51249E+07-2.44308E+06
 -1      1841 1.38504E+10 3.10165E+08-1.71146E+05 1.95231E+08 2.51249E+07-2.44308E+06
 -1      1842 1.26772E+10 2.86806E+08 3.05670E+06 1.10019E+09 7.98465E+06-5.07232E+06
 -1      1844 1.26772E+10 2.86806E+08 3.05670E+06 1.10019E+09 7.98465E+06-5.07232E+06
 -1      1845 1.00953E+10 1.98720E+08-1.34135E+06 1.78054E+09-1.04967E+07-6.29060E+06
 -1      1847 1.00953E+10 1.98720E+08-1.34135E+06 1.78054E+09-1.04967E+07-6.29060E+06
 -1      1848 6.61564E+09 1.81791E+08 2.98212E+06 2.07477E+09-2.70703E+07-8.83161E+06
 -1      1850 6.61564E+09 1.81791E+08 2.98212E+06 2.07477E+09-2.70703E+07-8.83161E+06
 -1      1851 3.00807E+09-6.84386E+07-2.02644E+06 1.90412E+09-4.72135E+07-8.01172E+06
 -1      1853 3.00807E+09-6.84386E+07-2.02644E+06 1.90412E+09-4.72135E+07-8.01172E+06
 -1      1854 2.24034E+08 1.57398E+08-3.30539E+05 1.11736E+09-6.15597E+07-1.07364E+07
 -1      1856 2.24034E+08 1.57398E+08-3.30539E+05 1.11736E+09-6.15597E+07-1.07364E+07
 -1      1857-9.02583E+08-3.61929E+08 5.60687E+06-2.71879E+08-9.57822E+07-7.21639E+06
 -1      1859-9.02583E+08-3.61929E+08 5.60687E+06-2.71879E+08-9.57822E+07-7.21639E+06
 -1      1860 5.02249E-02-1.69727E-05 6.70206E-02-4.41065E+07-4.40136E+07 1.13577E-01
 -1      1862 5.02249E-02-1.69727E-05 6.70206E-02-4.41065E+07-4.40136E+07 1.13577E-01
 -1      1863 9.27251E-03-1.02897E-04 3.67224E-02 3.54187E+06-7.27281E+07 1.17392E-01
 -1      1865 9.27251E-03-1.02897E-04 3.67224E-02 3.54187E+06-7.27281E+07 1.17392E-01
 -1      1866-3.32816E-02 4.08121E-04-6.95747E-02-2.47131E+07-7.80509E+07 1.00660E-01
 -1      1868-3.32816E-02 4.08121E-04-6.95747E-02-2.47131E+07-7.80509E+07 1.00660E-01
 -1      1869-5.58371E-02 3.10250E-04-1.85407E-01 7.59182E+05-7.97447E+07 6.49719E-02
 -1      1871-5.58371E-02 3.10250E-04-1.85407E-01 7.59182E+05-7.97447E+07 6.49719E-02
 -1      1872-4.83713E-02-9.18320E-04-2.21915E-01-9.74336E+06-7.90935E+07 1.14613E-03
 -1      1874-4.83713E-02-9.18320E-04-2.21915E-01-9.74336E+06-7.90935E+07 1.14613E-03
 -1      1875-3.77032E-02-1.33660E-03-1.60109E-01 8.09068E+06-7.47458E+07-5.22165E-02
 -1      1877-3.77032E-02-1.33660E-03-1.60109E-01 8.09068E+06-7.47458E+07-5.22165E-02
 -1      1878-4.78517E-02-6.91340E-04-8.16732E-02 4.90325E+06-7.07508E+07-6.67966E-02
 -1      1880-4.78517E-02-6.91340E-04-8.16732E-02 4.90325E+06-7.07508E+07-6.67966E-02
 -1      1881-6.91539E-02 3.61015E-04-8.38888E-02 1.60073E+07-6.38032E+07-7.03869E-02
 -1      1883-6.91539E-02 3.61015E-04-8.38888E-02 1.60073E+07-6.38032E+07-7.03869E-02
 -1      1884-7.15224E-02 1.14105E-03-1.42937E-01 1.36931E+07-5.63572E+07-1.17228E-01
 -1      1886-7.15224E-02 1.14105E-03-1.42937E-01 1.36931E+07-5.63572E+07-1.17228E-01
 -1      1887-4.13912E-02 1.54106E-03-1.41387E-01 1.74130E+07-4.59730E+07-1.92095E-01
 -1      1889-4.13912E-02 1.54106E-03-1.41387E-01 1.74130E+07-4.59730E+07-1.92095E-01
 -1      1890-1.42280E-03 1.10160E-03-5.31336E-02 1.23713E+07-3.40238E+07-2.13960E-01
 -1      1892-1.42280E-03 1.10160E-03-5.31336E-02 1.23713E+07-3.40238E+07-2.13960E-01
 -1      1893 2.72875E-02-3.01401E-04 3.67558E-02 9.62716E+06-1.89109E+07-1.73942E-01
 -1      1895 2.72875E-02-3.01401E-04 3.67558E-02 9.62716E+06-1.89109E+07-1.73942E-01
 -1      1896 5.51097E-02-2.49016E-03 6.78903E-02 1.78163E+06-2.21288E+06-1.17221E-01
 -1      1898 5.51097E-02-2.49016E-03 6.78903E-02 1.78163E+06-2.21288E+06-1.17221E-01
 -1      1899 7.93052E-02-3.34891E-03 6.07275E-02-4.23467E+06 1.71206E+07-6.23650E-02
 -1      1901 7.93052E-02-3.34891E-03 6.07275E-02-4.23467E+06 1.71206E+07-6.23650E-02
 -1      1902 7.86927E-02-5.14643E-04 6.13451E-02-1.21430E+07 3.63395E+07-1.86142E-02
 -1      1904 7.86927E-02-5.14643E-04 6.13451E-02-1.21430E+07 3.63395E+07-1.86142E-02
 -1      1905 6.68592E-02 1.58830E-03 7.02797E-02-1.69418E+07 5.64367E+07 8.04375E-03
 -1      1907 6.68592E-02 1.58830E-03 7.02797E-02-1.69418E+07 5.64367E+07 8.04375E-03
 -1      1908 6.92063E-02-7.90513E-04 5.08400E-02-2.13782E+07 7.30570E+07 1.91402E-02
 -1      1910 6.92063E-02-7.90513E-04 5.08400E-02-2.13782E+07 7.30570E+07 1.91402E-02
 -1      1911 7.03688E-02 2.25503E-04-3.39610E-03-2.11231E+07 8.80956E+07 1.32700E-02
 -1      1913 7.03688E-02 2.25503E-04-3.39610E-03-2.11231E+07 8.80956E+07 1.32700E-02
 -1      1914 4.17924E-02 7.56694E-04-5.93595E-02-2.01251E+07 9.55265E+07 7.26670E-04
 -1      1916 4.17924E-02 7.56694E-04-5.93595E-02-2.01251E+07 9.55265E+07 7.26670E-04
 -1      1917-9.55626E-03-2.88091E-04-9.24343E-02-1.33918E+07 9.96540E+07 1.30788E-02
 -1      1919-9.55626E-03-2.88091E-04-9.24343E-02-1.33918E+07 9.96540E+07 1.30788E-02
 -1      1920-5.34254E-02 9.80188E-04-1.10007E-01-8.13055E+06 9.26050E+07 4.86729E-02
 -1      1922-5.34254E-02 9.80188E-04-1.10007E-01-8.13055E+06 9.26050E+07 4.86729E-02
 -1      1923-7.97542E-02 5.68832E-04-1.05217E-01 3.59421E+06 8.30699E+07 6.41688E-02
 -1      1925-7.97542E-02 5.68832E-04-1.05217E-01 3.59421E+06 8.30699E+07 6.41688E-02
 -1      1926-9.51697E-02-1.90637E-04-5.71667E-02 8.81371E+06 6.02159E+07 5.32089E-02
 -1      1928-9.51697E-02-1.90637E-04-5.71667E-02 8.81371E+06 6.02159E+07 5.32089E-02
 -1      1929-8.96704E-02 8.43782E-04 4.43127E-03 2.21582E+07 3.97479E+07 4.26251E-02
 -1      1931-8.96704E-02 8.43782E-04 4.43127E-03 2.21582E+07 3.97479E+07 4.26251E-02
 -1      1932-6.54817E-02 1.16783E-03 3.40430E-02 2.17309E+07 4.24139E+06 4.39152E-02
 -1      1934-6.54817E-02 1.16783E-03 3.40430E-02 2.17309E+07 4.24139E+06 4.39152E-02
 -1      1935-4.83903E-02 7.16987E-04 3.56063E-02 3.25322E+07-1.88042E+07 5.15323E-02
 -1      1937-4.83903E-02 7.16987E-04 3.56063E-02 3.25322E+07-1.88042E+07 5.15323E-02
 -1      1938-4.44100E-02 4.11631E-04 2.76258E-02 2.43210E+07-6.41065E+07 4.86330E-02
 -1      1940-4.44100E-02 4.11631E-04 2.76258E-02 2.43210E+07-6.41065E+07 4.86330E-02
 -1      1941-4.51254E-02-3.16710E-04-1.00533E-03 2.36716E+07-8.03189E+07 3.73524E-02
 -1      1943-4.51254E-02-3.16710E-04-1.00533E-03 2.36716E+07-8.03189E+07 3.73524E-02
 -1      1944-3.53575E-02 9.82575E-04-5.14396E-02 2.10506E+07-1.52170E+08 2.47406E-02
 -1      1946-3.53575E-02 9.82575E-04-5.14396E-02 2.10506E+07-1.52170E+08 2.47406E-02
 -1      1947-2.27231E-02-2.09867E-04 4.53709E-02-2.69478E-03 2.15861E+07 1.33771E-01
 -1      1949-2.27231E-02-2.09867E-04 4.53709E-02-2.69478E-03 2.15861E+07 1.33771E-01
 -1      1950-2.89497E-02-2.99532E-04 2.38881E-02 2.36846E-03 8.29350E+07 1.19246E-01
 -1      1952-2.89497E-02-2.99532E-04 2.38881E-02 2.36846E-03 8.29350E+07 1.19246E-01
 -1      1953-1.94244E-02 5.42412E-04-6.22598E-02 1.36189E-04 1.11044E+08 9.53314E-02
 -1      1955-1.94244E-02 5.42412E-04-6.22598E-02 1.36189E-04 1.11044E+08 9.53314E-02
 -1      1956-1.06105E-02 5.94060E-04-1.52315E-01-1.63791E-03 1.31262E+08 6.77648E-02
 -1      1958-1.06105E-02 5.94060E-04-1.52315E-01-1.63791E-03 1.31262E+08 6.77648E-02
 -1      1959 3.92113E-04 5.34437E-05-1.85975E-01-1.57184E-03 1.40755E+08 2.29977E-02
 -1      1961 3.92113E-04 5.34437E-05-1.85975E-01-1.57184E-03 1.40755E+08 2.29977E-02
 -1      1962-1.74190E-03-6.81927E-04-1.53600E-01-1.35859E-03 1.36072E+08-1.20355E-02
 -1      1964-1.74190E-03-6.81927E-04-1.53600E-01-1.35859E-03 1.36072E+08-1.20355E-02
 -1      1965-1.92867E-02-5.07397E-04-9.15273E-02-2.66634E-03 1.21290E+08-2.98748E-02
 -1      1967-1.92867E-02-5.07397E-04-9.15273E-02-2.66634E-03 1.21290E+08-2.98748E-02
 -1      1968-2.13750E-02 2.31758E-04-6.60766E-02-8.47397E-04 9.45464E+07-6.66368E-02
 -1      1970-2.13750E-02 2.31758E-04-6.60766E-02-8.47397E-04 9.45464E+07-6.66368E-02
 -1      1971-5.55887E-04 1.29453E-03-9.91626E-02 3.23659E-04 6.07609E+07-1.32391E-01
 -1      1973-5.55887E-04 1.29453E-03-9.91626E-02 3.23659E-04 6.07609E+07-1.32391E-01
 -1      1974 2.35219E-02 2.31199E-03-1.17049E-01 1.47399E-04 2.23281E+07-1.91791E-01
 -1      1976 2.35219E-02 2.31199E-03-1.17049E-01 1.47399E-04 2.23281E+07-1.91791E-01
 -1      1977 3.40769E-02-5.93037E-04-6.59473E-02 4.28466E-04-1.59647E+07-2.00743E-01
 -1      1979 3.40769E-02-5.93037E-04-6.59473E-02 4.28466E-04-1.59647E+07-2.00743E-01
 -1      1980 2.85797E-02-1.51910E-03 1.27897E-02-1.47676E-04-4.96558E+07-1.70217E-01
 -1      1982 2.85797E-02-1.51910E-03 1.27897E-02-1.47676E-04-4.96558E+07-1.70217E-01
 -1      1983 2.32377E-02-1.13482E-03 6.03945E-02 7.85539E-04-7.57454E+07-1.34070E-01
 -1      1985 2.32377E-02-1.13482E-03 6.03945E-02 7.85539E-04-7.57454E+07-1.34070E-01
 -1      1986 2.50564E-02-2.00700E-03 6.88858E-02 3.52081E-03-9.01675E+07-9.16996E-02
 -1      1988 2.50564E-02-2.00700E-03 6.88858E-02 3.52081E-03-9.01675E+07-9.16996E-02
 -1      1989 1.58910E-02-3.07492E-04 6.84482E-02 3.04254E-03-9.35572E+07-4.65775E-02
 -1      1991 1.58910E-02-3.07492E-04 6.84482E-02 3.04254E-03-9.35572E+07-4.65775E-02
 -1      1992-6.43163E-03 1.28077E-04 7.27681E-02 2.75895E-03-8.35104E+07-2.10103E-02
 -1      1994-6.43163E-03 1.28077E-04 7.27681E-02 2.75895E-03-8.35104E+07-2.10103E-02
 -1      1995-9.73897E-03 2.09075E-04 5.73930E-02 2.33567E-03-6.52301E+07-1.69750E-02
 -1      1997-9.73897E-03 2.09075E-04 5.73930E-02 2.33567E-03-6.52301E+07-1.69750E-02
 -1      1998 1.42966E-02 1.40191E-03 1.20179E-03 6.45921E-04-3.73929E+07-1.92879E-02
 -1      2000 1.42966E-02 1.40191E-03 1.20179E-03 6.45921E-04-3.73929E+07-1.92879E-02
 -1      2001 2.14114E-02 1.17314E-03-7.75617E-02-3.74941E-04-9.38181E+06-1.53932E-02
 -1      2003 2.14114E-02 1.17314E-03-7.75617E-02-3.74941E-04-9.38181E+06-1.53932E-02
 -1      2004-7.42182E-03 9.40743E-04-1.37107E-01 2.15465E-03 2.13447E+07 1.19443E-02
 -1      2006-7.42182E-03 9.40743E-04-1.37107E-01 2.15465E-03 2.13447E+07 1.19443E-02
 -1      2007-3.82558E-02 2.17182E-03-1.45202E-01 1.39930E-03 4.24593E+07 5.90208E-02
 -1      2009-3.82558E-02 2.17182E-03-1.45202E-01 1.39930E-03 4.24593E+07 5.90208E-02
 -1      2010-6.34689E-02 1.72740E-03-1.02655E-01-1.76820E-04 6.08629E+07 9.02507E-02
 -1      2012-6.34689E-02 1.72740E-03-1.02655E-01-1.76820E-04 6.08629E+07 9.02507E-02
 -1      2013-9.27721E-02 5.39002E-04-3.96273E-02 8.88872E-04 6.24310E+07 8.30473E-02
 -1      2015-9.27721E-02 5.39002E-04-3.96273E-02 8.88872E-04 6.24310E+07 8.30473E-02
 -1      2016-9.95424E-02 2.22025E-04 6.94413E-03 2.65050E-03 6.11224E+07 5.38135E-02
 -1      2018-9.95424E-02 2.22025E-04 6.94413E-03 2.65050E-03 6.11224E+07 5.38135E-02
 -1      2019-7.13708E-02 1.45092E-03 2.17122E-02 1.60597E-03 4.15653E+07 4.29988E-02
 -1      2021-7.13708E-02 1.45092E-03 2.17122E-02 1.60597E-03 4.15653E+07 4.29988E-02
 -1      2022-3.98318E-02 1.58206E-03 2.13895E-02 9.77423E-04 2.58638E+07 5.90982E-02
 -1      2024-3.98318E-02 1.58206E-03 2.13895E-02 9.77423E-04 2.58638E+07 5.90982E-02
 -1      2025-2.47431E-02 1.25299E-03 2.12888E-02 1.04412E-03-1.23484E+06 6.20359E-02
 -1      2027-2.47431E-02 1.25299E-03 2.12888E-02 1.04412E-03-1.23484E+06 6.20359E-02
 -1      2028-2.10752E-02 9.10056E-04 4.71747E-03 1.58327E-03-1.00342E+07 4.03320E-02
 -1      2030-2.10752E-02 9.10056E-04 4.71747E-03 1.58327E-03-1.00342E+07 4.03320E-02
 -1      2031-1.51482E-02 3.92037E-04-3.35656E-02 1.06794E-03-5.54947E+06 1.95267E-02
 -1      2033-1.51482E-02 3.92037E-04-3.35656E-02 1.06794E-03-5.54947E+06 1.95267E-02
 -1      2034-6.85124E-02 4.60693E-05 2.00438E-02 4.41065E+07-4.40136E+07 1.45732E-01
 -1      2036-6.85124E-02 4.60693E-05 2.00438E-02 4.41065E+07-4.40136E+07 1.45732E-01
 -1      2037-2.86218E-02-2.08463E-04 1.01080E-02-3.54187E+06-7.27281E+07 1.06631E-01
 -1      2039-2.86218E-02-2.08463E-04 1.01080E-02-3.54187E+06-7.27281E+07 1.06631E-01
 -1      2040-6.59023E-04-2.00243E-04-4.70520E-02 2.47131E+07-7.80509E+07 7.50025E-02
 -1      2042-6.59023E-04-2.00243E-04-4.70520E-02 2.47131E+07-7.80509E+07 7.50025E-02
 -1      2043 8.15449E-03 4.67554E-05-1.09255E-01-7.59182E+05-7.97447E+07 5.17072E-02
 -1      2045 8.15449E-03 4.67554E-05-1.09255E-01-7.59182E+05-7.97447E+07 5.17072E-02
 -1      2046 1.49626E-02 4.46686E-04-1.59094E-01 9.74336E+06-7.90935E+07 1.72134E-02
 -1      2048 1.49626E-02 4.46686E-04-1.59094E-01 9.74336E+06-7.90935E+07 1.72134E-02
 -1      2049 2.19198E-02-1.74029E-04-1.69973E-01-8.09068E+06-7.47458E+07 3.45497E-03
 -1      2051 2.19198E-02-1.74029E-04-1.69973E-01-8.09068E+06-7.47458E+07 3.45497E-03
 -1      2052 3.38048E-02-7.68334E-04-1.14014E-01-4.90325E+06-7.07508E+07 4.02790E-03
 -1      2054 3.38048E-02-7.68334E-04-1.14014E-01-4.90325E+06-7.07508E+07 4.02790E-03
 -1      2055 4.97466E-02-1.11582E-03-4.84314E-02-1.60073E+07-6.38032E+07-4.42106E-02
 -1      2057 4.97466E-02-1.11582E-03-4.84314E-02-1.60073E+07-6.38032E+07-4.42106E-02
 -1      2058 5.08237E-02-9.00784E-05-5.80762E-02-1.36931E+07-5.63572E+07-1.26010E-01
 -1      2060 5.08237E-02-9.00784E-05-5.80762E-02-1.36931E+07-5.63572E+07-1.26010E-01
 -1      2061 4.65732E-02 9.38137E-04-9.82106E-02-1.74130E+07-4.59730E+07-1.66651E-01
 -1      2063 4.65732E-02 9.38137E-04-9.82106E-02-1.74130E+07-4.59730E+07-1.66651E-01
 -1      2064 4.72809E-02-2.05521E-03-7.70114E-02-1.23713E+07-3.40238E+07-1.56144E-01
 -1      2066 4.72809E-02-2.05521E-03-7.70114E-02-1.23713E+07-3.40238E+07-1.56144E-01
 -1      2067 2.69700E-02-2.71635E-03-4.94029E-03-9.62716E+06-1.89109E+07-1.34896E-01
 -1      2069 2.69700E-02-2.71635E-03-4.94029E-03-9.62716E+06-1.89109E+07-1.34896E-01
 -1      2070-1.34033E-02-6.27279E-04 5.62169E-02-1.78163E+06-2.21288E+06-1.22894E-01
 -1      2072-1.34033E-02-6.27279E-04 5.62169E-02-1.78163E+06-2.21288E+06-1.22894E-01
 -1      2073-4.50603E-02-1.00954E-03 7.12175E-02 4.23467E+06 1.71206E+07-9.91752E-02
 -1      2075-4.50603E-02-1.00954E-03 7.12175E-02 4.23467E+06 1.71206E+07-9.91752E-02
 -1      2076-5.97095E-02-2.38387E-03 6.15879E-02 1.21430E+07 3.63395E+07-5.10566E-02
 -1      2078-5.97095E-02-2.38387E-03 6.15879E-02 1.21430E+07 3.63395E+07-5.10566E-02
 -1      2079-6.24568E-02-2.44171E-03 6.06583E-02 1.69418E+07 5.64367E+07-1.84133E-02
 -1      2081-6.24568E-02-2.44171E-03 6.06583E-02 1.69418E+07 5.64367E+07-1.84133E-02
 -1      2082-5.06665E-02 6.40588E-04 3.99009E-02 2.13782E+07 7.30570E+07-2.31362E-02
 -1      2084-5.06665E-02 6.40588E-04 3.99009E-02 2.13782E+07 7.30570E+07-2.31362E-02
 -1      2085-2.18641E-02 6.56337E-04-2.45728E-02 2.11231E+07 8.80956E+07-2.84499E-02
 -1      2087-2.18641E-02 6.56337E-04-2.45728E-02 2.11231E+07 8.80956E+07-2.84499E-02
 -1      2088-6.14499E-03-7.22265E-04-9.79983E-02 2.01251E+07 9.55265E+07-1.56334E-02
 -1      2090-6.14499E-03-7.22265E-04-9.79983E-02 2.01251E+07 9.55265E+07-1.56334E-02
 -1      2091-2.22516E-02 9.54329E-04-1.53201E-01 1.33918E+07 9.96540E+07 1.36127E-02
 -1      2093-2.22516E-02 9.54329E-04-1.53201E-01 1.33918E+07 9.96540E+07 1.36127E-02
 -1      2094-4.38171E-02 1.36820E-03-1.66645E-01 8.13055E+06 9.26050E+07 6.27521E-02
 -1      2096-4.38171E-02 1.36820E-03-1.66645E-01 8.13055E+06 9.26050E+07 6.27521E-02
 -1      2097-6.32234E-02 1.32196E-03-1.08488E-01-3.59421E+06 8.30699E+07 1.03500E-01
 -1      2099-6.32234E-02 1.32196E-03-1.08488E-01-3.59421E+06 8.30699E+07 1.03500E-01
 -1      2100-8.77344E-02 3.89285E-04-1.95957E-02-8.81371E+06 6.02159E+07 9.35510E-02
 -1      2102-8.77344E-02 3.89285E-04-1.95957E-02-8.81371E+06 6.02159E+07 9.35510E-02
 -1      2103-9.41698E-02-5.58022E-04 1.47088E-02-2.21582E+07 3.97479E+07 4.53196E-02
 -1      2105-9.41698E-02-5.58022E-04 1.47088E-02-2.21582E+07 3.97479E+07 4.53196E-02
 -1      2106-7.02220E-02 2.73568E-04-1.27861E-02-2.17309E+07 4.24139E+06 2.63293E-02
 -1      2108-7.02220E-02 2.73568E-04-1.27861E-02-2.17309E+07 4.24139E+06 2.63293E-02
 -1      2109-3.69661E-02 4.46077E-04-3.24264E-02-3.25322E+07-1.88042E+07 5.29918E-02
 -1      2111-3.69661E-02 4.46077E-04-3.24264E-02-3.25322E+07-1.88042E+07 5.29918E-02
 -1      2112-1.06684E-02 1.43079E-03-1.74702E-02-2.43210E+07-6.41065E+07 5.92809E-02
 -1      2114-1.06684E-02 1.43079E-03-1.74702E-02-2.43210E+07-6.41065E+07 5.92809E-02
 -1      2115-6.36648E-04 1.33822E-03-1.57316E-02-2.36716E+07-8.03189E+07 2.60127E-02
 -1      2117-6.36648E-04 1.33822E-03-1.57316E-02-2.36716E+07-8.03189E+07 2.60127E-02
 -1      2118-4.12490E-03 3.50941E-04-4.62025E-02-2.10506E+07-1.52170E+08 2.69048E-03
 -1      2120-4.12490E-03 3.50941E-04-4.62025E-02-2.10506E+07-1.52170E+08 2.69048E-03
 -1      2121 1.18832E+10 7.33723E+08 3.23648E+06 5.30275E+09-1.02655E+07 4.62922E+07
 -1      2123 1.18832E+10 7.33723E+08 3.23648E+06 5.30275E+09-1.02655E+07 4.62922E+07
 -1      2124 3.68828E+09-1.70959E+08-1.00313E+06 4.38490E+09-6.23654E+07-2.11937E+07
 -1      2126 3.68828E+09-1.70959E+08-1.00313E+06 4.38490E+09-6.23654E+07-2.11937E+07
 -1      2127-3.17422E+09-1.08857E+07-7.58056E+05 3.42555E+09-6.66891E+07 1.28719E+07
 -1      2129-3.17422E+09-1.08857E+07-7.58056E+05 3.42555E+09-6.66891E+07 1.28719E+07
 -1      2130-8.15179E+09-2.16225E+08-5.28792E+04 2.36020E+09-7.80309E+07-2.98811E+06
 -1      2132-8.15179E+09-2.16225E+08-5.28792E+04 2.36020E+09-7.80309E+07-2.98811E+06
 -1      2133-1.12546E+10-2.50285E+08-2.16888E+06 1.18327E+09-8.14913E+07 3.38417E+06
 -1      2135-1.12546E+10-2.50285E+08-2.16888E+06 1.18327E+09-8.14913E+07 3.38417E+06
 -1      2136-1.22539E+10-2.75734E+08-3.43012E+05 3.73458E+05-7.89793E+07-1.07822E+06
 -1      2138-1.22539E+10-2.75734E+08-3.43012E+05 3.73458E+05-7.89793E+07-1.07822E+06
 -1      2139-1.12601E+10-2.50887E+08-1.79172E+06-1.10173E+09-7.47242E+07-1.09971E+06
 -1      2141-1.12601E+10-2.50887E+08-1.79172E+06-1.10173E+09-7.47242E+07-1.09971E+06
 -1      2142-8.50671E+09-1.88582E+08-3.83021E+05-1.98849E+09-6.37435E+07-2.70563E+06
 -1      2144-8.50671E+09-1.88582E+08-3.83021E+05-1.98849E+09-6.37435E+07-2.70563E+06
 -1      2145-4.46010E+09-9.67800E+07-6.90041E+05-2.57267E+09-5.16626E+07-3.29008E+06
 -1      2147-4.46010E+09-9.67800E+07-6.90041E+05-2.57267E+09-5.16626E+07-3.29008E+06
 -1      2148 2.84827E+08 8.43268E+06 1.26399E+05-2.77896E+09-3.49044E+07-3.37774E+06
 -1      2150 2.84827E+08 8.43268E+06 1.26399E+05-2.77896E+09-3.49044E+07-3.37774E+06
 -1      2151 5.04508E+09 1.15792E+08 5.22768E+05-2.59401E+09-1.78213E+07-2.94144E+06
 -1      2153 5.04508E+09 1.15792E+08 5.22768E+05-2.59401E+09-1.78213E+07-2.94144E+06
 -1      2154 9.15364E+09 2.06314E+08 7.73645E+05-2.04372E+09 1.22264E+06-1.78722E+06
 -1      2156 9.15364E+09 2.06314E+08 7.73645E+05-2.04372E+09 1.22264E+06-1.78722E+06
 -1      2157 1.20348E+10 2.70762E+08 1.36768E+06-1.20961E+09 1.91123E+07-3.50857E+05
 -1      2159 1.20348E+10 2.70762E+08 1.36768E+06-1.20961E+09 1.91123E+07-3.50857E+05
 -1      2160 1.32875E+10 2.97268E+08 1.03900E+06-2.04812E+08 3.62543E+07 1.41901E+06
 -1      2162 1.32875E+10 2.97268E+08 1.03900E+06-2.04812E+08 3.62543E+07 1.41901E+06
 -1      2163 1.27329E+10 2.84099E+08 1.54480E+06 8.30830E+08 5.05558E+07 3.05121E+06
 -1      2165 1.27329E+10 2.84099E+08 1.54480E+06 8.30830E+08 5.05558E+07 3.05121E+06
 -1      2166 1.04409E+10 2.31362E+08 6.42761E+05 1.75741E+09 6.18842E+07 4.46905E+06
 -1      2168 1.04409E+10 2.31362E+08 6.42761E+05 1.75741E+09 6.18842E+07 4.46905E+06
 -1      2169 6.71784E+09 1.46938E+08 1.07701E+06 2.44742E+09 6.90990E+07 5.31417E+06
 -1      2171 6.71784E+09 1.46938E+08 1.07701E+06 2.44742E+09 6.90990E+07 5.31417E+06
 -1      2172 2.06378E+09 4.19373E+07-3.28970E+05 2.80919E+09 7.20094E+07 5.53508E+06
 -1      2174 2.06378E+09 4.19373E+07-3.28970E+05 2.80919E+09 7.20094E+07 5.53508E+06
 -1      2175-2.89505E+09-7.01162E+07 3.30873E+05 2.79334E+09 7.04073E+07 5.00104E+06
 -1      2177-2.89505E+09-7.01162E+07 3.30873E+05 2.79334E+09 7.04073E+07 5.00104E+06
 -1      2178-7.49685E+09-1.72433E+08-1.51001E+06 2.40706E+09 6.43283E+07 3.74902E+06
 -1      2180-7.49685E+09-1.72433E+08-1.51001E+06 2.40706E+09 6.43283E+07 3.74902E+06
 -1      2181-1.11316E+10-2.54527E+08-1.35278E+05 1.70484E+09 5.43744E+07 1.98684E+06
 -1      2183-1.11316E+10-2.54527E+08-1.35278E+05 1.70484E+09 5.43744E+07 1.98684E+06
 -1      2184-1.33348E+10-3.01166E+08-2.49161E+06 7.93860E+08 4.09865E+07-3.28638E+05
 -1      2186-1.33348E+10-3.01166E+08-2.49161E+06 7.93860E+08 4.09865E+07-3.28638E+05
 -1      2187-1.38504E+10-3.10165E+08 1.71146E+05-1.95231E+08 2.51249E+07-2.44308E+06
 -1      2189-1.38504E+10-3.10165E+08 1.71146E+05-1.95231E+08 2.51249E+07-2.44308E+06
 -1      2190-1.26772E+10-2.86806E+08-3.05670E+06-1.10019E+09 7.98465E+06-5.07232E+06
 -1      2192-1.26772E+10-2.86806E+08-3.05670E+06-1.10019E+09 7.98465E+06-5.07232E+06
 -1      2193-1.00953E+10-1.98720E+08 1.34135E+06-1.78054E+09-1.04967E+07-6.29060E+06
 -1      2195-1.00953E+10-1.98720E+08 1.34135E+06-1.78054E+09-1.04967E+07-6.29060E+06
 -1      2196-6.61564E+09-1.81791E+08-2.98212E+06-2.07477E+09-2.70703E+07-8.83161E+06
 -1      2198-6.61564E+09-1.81791E+08-2.98212E+06-2.07477E+09-2.70703E+07-8.83161E+06
 -1      2199-3.00807E+09 6.84386E+07 2.02644E+06-1.90412E+09-4.72135E+07-8.01172E+06
 -1      2201-3.00807E+09 6.84386E+07 2.02644E+06-1.90412E+09-4.72135E+07-8.01172E+06
 -1      2202-2.24034E+08-1.57398E+08 3.30539E+05-1.11736E+09-6.15597E+07-1.07364E+07
 -1      2204-2.24034E+08-1.57398E+08 3.30539E+05-1.11736E+09-6.15597E+07-1.07364E+07
 -1      2205 9.02583E+08 3.61929E+08-5.60687E+06 2.71879E+08-9.57822E+07-7.21639E+06
 -1      2207 9.02583E+08 3.61929E+08-5.60687E+06 2.71879E+08-9.57822E+07-7.21639E+06
 -1      2208-1.18832E+10-7.33723E+08-3.23648E+06 5.30275E+09-1.02655E+07-4.62922E+07
 -1      2210-1.18832E+10-7.33723E+08-3.23648E+06 5.30275E+09-1.02655E+07-4.62922E+07
 -1      2211-3.68828E+09 1.70959E+08 1.00313E+06 4.38490E+09-6.23654E+07 2.11937E+07
 -1      2213-3.68828E+09 1.70959E+08 1.00313E+06 4.38490E+09-6.23654E+07 2.11937E+07
 -1      2214 3.17422E+09 1.08857E+07 7.58056E+05 3.42555E+09-6.66891E+07-1.28719E+07
 -1      2216 3.17422E+09 1.08857E+07 7.58056E+05 3.42555E+09-6.66891E+07-1.28719E+07
 -1      2217 8.15179E+09 2.16225E+08 5.28792E+04 2.36020E+09-7.80309E+07 2.98811E+06
 -1      2219 8.15179E+09 2.16225E+08 5.28792E+04 2.36020E+09-7.80309E+07 2.98811E+06
 -1      2220 1.12546E+10 2.50285E+08 2.16888E+06 1.18327E+09-8.14913E+07-3.38417E+06
 -1      2222 1.12546E+10 2.50285E+08 2.16888E+06 1.18327E+09-8.14913E+07-3.38417E+06
 -1      2223 1.22539E+10 2.75734E+08 3.43012E+05 3.73458E+05-7.89793E+07 1.07822E+06
 -1      2225 1.22539E+10 2.75734E+08 3.43012E+05 3.73458E+05-7.89793E+07 1.07822E+06
 -1      2226 1.12601E+10 2.50887E+08 1.79172E+06-1.10173E+09-7.47242E+07 1.09971E+06
 -1      2228 1.12601E+10 2.50887E+08 1.79172E+06-1.10173E+09-7.47242E+07 1.09971E+06
 -1      2229 8.50671E+09 1.88582E+08 3.83021E+05-1.98849E+09-6.37435E+07 2.70563E+06
 -1      2231 8.50671E+09 1.88582E+08 3.83021E+05-1.98849E+09-6.37435E+07 2.70563E+06
 -1      2232 4.46010E+09 9.67800E+07 6.90041E+05-2.57267E+09-5.16626E+07 3.29008E+06
 -1      2234 4.46010E+09 9.67800E+07 6.90041E+05-2.57267E+09-5.16626E+07 3.29008E+06
 -1      2235-2.84827E+08-8.43268E+06-1.26399E+05-2.77896E+09-3.49044E+07 3.37774E+06
 -1      2237-2.84827E+08-8.43268E+06-1.26399E+05-2.77896E+09-3.49044E+07 3.37774E+06
 -1      2238-5.04508E+09-1.15792E+08-5.22768E+05-2.59401E+09-1.78213E+07 2.94144E+06
 -1      2240-5.04508E+09-1.15792E+08-5.22768E+05-2.59401E+09-1.78213E+07 2.94144E+06
 -1      2241-9.15364E+09-2.06314E+08-7.73645E+05-2.04372E+09 1.22264E+06 1.78722E+06
 -1      2243-9.15364E+09-2.06314E+08-7.73645E+05-2.04372E+09 1.22264E+06 1.78722E+06
 -1      2244-1.20348E+10-2.70762E+08-1.36768E+06-1.20961E+09 1.91123E+07 3.50857E+05
 -1      2246-1.20348E+10-2.70762E+08-1.36768E+06-1.20961E+09 1.91123E+07 3.50857E+05
 -1      2247-1.32875E+10-2.97268E+08-1.03900E+06-2.04812E+08 3.62543E+07-1.41901E+06
 -1      2249-1.32875E+10-2.97268E+08-1.03900E+06-2.04812E+08 3.62543E+07-1.41901E+06
 -1      2250-1.27329E+10-2.84099E+08-1.54480E+06 8.30830E+08 5.05558E+07-3.05121E+06
 -1      2252-1.27329E+10-2.84099E+08-1.54480E+06 8.30830E+08 5.05558E+07-3.05121E+06
 -1      2253-1.04409E+10-2.31362E+08-6.42761E+05 1.75741E+09 6.18842E+07-4.46905E+06
 -1      2255-1.04409E+10-2.31362E+08-6.42761E+05 1.75741E+09 6.18842E+07-4.46905E+06
 -1      2256-6.71784E+09-1.46938E+08-1.07701E+06 2.44742E+09 6.90990E+07-5.31417E+06
 -1      2258-6.71784E+09-1.46938E+08-1.07701E+06 2.44742E+09 6.90990E+07-5.31417E+06
 -1      2259-2.06378E+09-4.19373E+07 3.28970E+05 2.80919E+09 7.20094E+07-5.53508E+06
 -1      2261-2.06378E+09-4.19373E+07 3.28970E+05 2.80919E+09 7.20094E+07-5.53508E+06
 -1      2262 2.89505E+09 7.01162E+07-3.30873E+05 2.79334E+09 7.04073E+07-5.00104E+06
 -1      2264 2.89505E+09 7.01162E+07-3.30873E+05 2.79334E+09 7.04073E+07-5.00104E+06
 -1      2265 7.49685E+09 1.72433E+08 1.51001E+06 2.40706E+09 6.43283E+07-3.74902E+06
 -1      2267 7.49685E+09 1.72433E+08 1.51001E+06 2.40706E+09 6.43283E+07-3.74902E+06
 -1      2268 1.11316E+10 2.54527E+08 1.35278E+05 1.70484E+09 5.43744E+07-1.98684E+06
 -1      2270 1.11316E+10 2.54527E+08 1.35278E+05 1.70484E+09 5.43744E+07-1.98684E+06
 -1      2271 1.33348E+10 3.01166E+08 2.49161E+06 7.93860E+08 4.09865E+07 3.28638E+05
 -1      2273 1.33348E+10 3.01166E+08 2.49161E+06 7.93860E+08 4.09865E+07 3.28638E+05
 -1      2274 1.38504E+10 3.10165E+08-1.71146E+05-1.95231E+08 2.51249E+07 2.44308E+06
 -1      2276 1.38504E+10 3.10165E+08-1.71146E+05-1.95231E+08 2.51249E+07 2.44308E+06
 -1      2277 1.26772E+10 2.86806E+08 3.05670E+06-1.10019E+09 7.98465E+06 5.07232E+06
 -1      2279 1.26772E+10 2.86806E+08 3.05670E+06-1.10019E+09 7.98465E+06 5.07232E+06
 -1      2280 1.00953E+10 1.98720E+08-1.34135E+06-1.78054E+09-1.04967E+07 6.29060E+06
 -1      2282 1.00953E+10 1.98720E+08-1.34135E+06-1.78054E+09-1.04967E+07 6.29060E+06
 -1      2283 6.61564E+09 1.81791E+08 2.98212E+06-2.07477E+09-2.70703E+07 8.83161E+06
 -1      2285 6.61564E+09 1.81791E+08 2.98212E+06-2.07477E+09-2.70703E+07 8.83161E+06
 -1      2286 3.00807E+09-6.84386E+07-2.02644E+06-1.90412E+09-4.72135E+07 8.01172E+06
 -1      2288 3.00807E+09-6.84386E+07-2.02644E+06-1.90412E+09-4.72135E+07 8.01172E+06
 -1      2289 2.24034E+08 1.57398E+08-3.30539E+05-1.11736E+09-6.15597E+07 1.07364E+07
 -1      2291 2.24034E+08 1.57398E+08-3.30539E+05-1.11736E+09-6.15597E+07 1.07364E+07
 -1      2292-9.02583E+08-3.61929E+08 5.60687E+06 2.71879E+08-9.57822E+07 7.21639E+06
 -1      2294-9.02583E+08-3.61929E+08 5.60687E+06 2.71879E+08-9.57822E+07 7.21639E+06
 -3
    1PSTEP                        79           1           1          
    1PGM                1.000000E+00                                  
    1PGK                1.752299E+07                                  
    1PHID                         -1                                  
    1PSUBC                         0                                  
    1PMODE                        20                                  
  100CL  120 666.2301594         930                     2   20MODAL      1
 -4  FORC        4    1
 -5  F1          1    2    1    0
 -5  F2          1    2    2    0
 -5  F3          1    2    3    0
 -5  ALL         1    2    0    0    1ALL
 -1       404-5.18168E+06 1.77025E+06 4.04857E+05
 -1       406-6.34647E+06 1.59672E+06 4.04857E+05
 -1       407-3.30183E+04 1.46487E+05-1.23273E+04
 -1       409-3.30183E+04 1.46487E+05-1.23273E+04
 -1       410-3.82472E-06-9.56619E+05-2.63970E-05
 -1       412-3.44954E-06-3.38507E+06-2.38151E-05
 -1       413-1.58520E-05 2.62980E+06 1.90605E+06
 -1       415-1.57003E-05 2.62980E+06-1.90605E+06
 -1       424-2.01296E-05 1.08767E+06 3.63189E-05
 -1       426-4.84672E-05 1.05456E+06 3.51576E-05
 -1       427 1.13510E+06 9.51397E+05-1.28356E+04
 -1       429-1.13510E+06 9.51397E+05 1.28356E+04
 -1       438 3.30183E+04 1.46487E+05 1.23273E+04
 -1       440 3.30183E+04 1.46487E+05 1.23273E+04
 -1       441 5.18168E+06 1.77025E+06-4.04857E+05
 -1       443 6.34647E+06 1.59672E+06-4.04857E+05
 -1       444-1.13510E+06-9.51397E+05-1.28356E+04
 -1       446 1.13510E+06-9.51397E+05 1.28356E+04
 -1       447 6.24602E-05-1.08767E+06-1.51288E-05
 -1       449-2.02548E-05-1.05456E+06-1.62386E-05
 -1       458-4.15292E-06-2.62980E+06 1.90605E+06
 -1       460-4.38927E-06-2.62980E+06-1.90605E+06
 -1       461 1.99321E-05 9.56619E+05 2.10894E-05
 -1       463 1.99823E-05 3.38507E+06 1.82260E-05
 -1       472-5.18168E+06-1.77025E+06-4.04857E+05
 -1       474-6.34647E+06-1.59672E+06-4.04857E+05
 -1       475-3.30183E+04-1.46487E+05 1.23273E+04
 -1       477-3.30183E+04-1.46487E+05 1.23273E+04
 -1       478 3.30183E+04-1.46487E+05-1.23273E+04
 -1       480 3.30183E+04-1.46487E+05-1.23273E+04
 -1       481 5.18168E+06-1.77025E+06 4.04857E+05
 -1       483 6.34647E+06-1.59672E+06 4.04857E+05
 -1       484 2.07587E+04-4.05352E+04-2.46818E+04
 -1       486 2.07587E+04-4.05352E+04-2.46818E+04
 -1       487 3.22064E+04-9.33656E+04-5.13784E+04
 -1       489 3.22064E+04-9.33656E+04-5.13784E+04
 -1       490 3.25000E+04-1.52058E+05-7.50431E+04
 -1       492 3.25000E+04-1.52058E+05-7.50431E+04
 -1       493 2.40145E+04-2.01950E+05-9.25397E+04
 -1       495 2.40145E+04-2.01950E+05-9.25397E+04
 -1       496 9.51557E+03-2.31693E+05-1.02442E+05
 -1       498 9.51557E+03-2.31693E+05-1.02442E+05
 -1       499-8.01924E+03-2.34443E+05-1.03362E+05
 -1       501-8.01924E+03-2.34443E+05-1.03362E+05
 -1       502-2.55538E+04-2.08054E+05-9.51826E+04
 -1       504-2.55538E+04-2.08054E+05-9.51826E+04
 -1       505-4.02903E+04-1.55008E+05-7.85969E+04
 -1       507-4.02903E+04-1.55008E+05-7.85969E+04
 -1       508-4.99579E+04-8.18504E+04-5.52797E+04
 -1       510-4.99579E+04-8.18504E+04-5.52797E+04
 -1       511-5.30737E+04 1.86991E+03-2.75709E+04
 -1       513-5.30737E+04 1.86991E+03-2.75709E+04
 -1       514-4.91067E+04 8.49902E+04 1.74019E+03
 -1       516-4.91067E+04 8.49902E+04 1.74019E+03
 -1       517-3.85316E+04 1.56321E+05 2.97668E+04
 -1       519-3.85316E+04 1.56321E+05 2.97668E+04
 -1       520-2.27481E+04 2.06213E+05 5.38401E+04
 -1       522-2.27481E+04 2.06213E+05 5.38401E+04
 -1       523-3.88426E+03 2.27896E+05 7.18104E+04
 -1       525-3.88426E+03 2.27896E+05 7.18104E+04
 -1       526 1.55006E+04 2.18426E+05 8.22695E+04
 -1       528 1.55006E+04 2.18426E+05 8.22695E+04
 -1       529 3.27657E+04 1.79092E+05 8.46805E+04
 -1       531 3.27657E+04 1.79092E+05 8.46805E+04
 -1       532 4.55506E+04 1.15264E+05 7.93975E+04
 -1       534 4.55506E+04 1.15264E+05 7.93975E+04
 -1       535 5.20956E+04 3.56629E+04 6.75763E+04
 -1       537 5.20956E+04 3.56629E+04 6.75763E+04
 -1       538 5.14802E+04-4.88094E+04 5.09925E+04
 -1       540 5.14802E+04-4.88094E+04 5.09925E+04
 -1       541 4.37433E+04-1.26538E+05 3.17912E+04
 -1       543 4.37433E+04-1.26538E+05 3.17912E+04
 -1       544 2.98719E+04-1.86757E+05 1.22063E+04
 -1       546 2.98719E+04-1.86757E+05 1.22063E+04
 -1       547 1.16526E+04-2.20972E+05-5.71759E+03
 -1       549 1.16526E+04-2.20972E+05-5.71759E+03
 -1       550-8.58852E+03-2.24071E+05-2.03586E+04
 -1       552-8.58852E+03-2.24071E+05-2.03586E+04
 -1       553-2.83378E+04-1.94929E+05-3.06870E+04
 -1       555-2.83378E+04-1.94929E+05-3.06870E+04
 -1       556-4.52812E+04-1.36412E+05-3.63396E+04
 -1       558-4.52812E+04-1.36412E+05-3.63396E+04
 -1       559-5.76982E+04-5.48199E+04-3.76196E+04
 -1       561-5.76982E+04-5.48199E+04-3.76196E+04
 -1       562-6.48322E+04 4.14776E+04-3.54166E+04
 -1       564-6.48322E+04 4.14776E+04-3.54166E+04
 -1       565-6.71278E+04 1.43297E+05-3.11203E+04
 -1       567-6.71278E+04 1.43297E+05-3.11203E+04
 -1       568-6.66191E+04 2.43692E+05-2.66539E+04
 -1       570-6.66191E+04 2.43692E+05-2.66539E+04
 -1       571-4.39902E+04 2.92726E+05-1.42454E+04
 -1       573-4.39902E+04 2.92726E+05-1.42454E+04
 -1       574 2.52990E-05-4.15734E+05 3.14399E-05
 -1       576 2.52713E-05-1.18358E+06 2.85462E-05
 -1       577-3.55385E-05 6.78441E+05 6.02674E+05
 -1       579-3.55226E-05 6.78441E+05-6.02674E+05
 -1       588 4.06480E-05 2.72508E+05-7.89166E-07
 -1       590 4.06617E-05-1.53449E+06-2.42861E-06
 -1       591-2.66027E-05 3.44301E+05 1.41828E+06
 -1       593-2.63696E-05 3.44301E+05-1.41828E+06
 -1       602 4.02565E-05 8.28749E+05-2.88196E-05
 -1       604 4.02912E-05-1.28474E+06-2.40768E-05
 -1       605-1.69340E-05-2.43097E+05 1.65884E+06
 -1       607-1.67571E-05-2.43097E+05-1.65884E+06
 -1       616 1.11879E-05 9.23357E+05-8.56681E-05
 -1       618 1.11895E-05-1.39120E+06-7.35714E-05
 -1       619-1.65389E-05-3.92878E+05 1.81666E+06
 -1       621-1.62914E-05-3.92878E+05-1.81666E+06
 -1       630-1.74880E-05 1.17333E+06-1.10061E-04
 -1       632-1.74153E-05-1.21206E+06-1.01808E-04
 -1       633-5.44656E-07-7.00217E+05 1.87226E+06
 -1       635-1.94421E-07-7.00217E+05-1.87226E+06
 -1       644-2.46156E-05 1.09923E+06-8.31608E-05
 -1       646-2.45746E-05-1.20407E+06-7.79651E-05
 -1       647 2.24932E-05-6.75534E+05 1.80782E+06
 -1       649 2.26897E-05-6.75534E+05-1.80782E+06
 -1       658-8.87935E-06 1.11829E+06-4.22460E-05
 -1       660-8.89016E-06-1.04801E+06-3.80452E-05
 -1       661 3.73372E-05-6.80525E+05 1.70029E+06
 -1       663 3.78420E-05-6.80525E+05-1.70029E+06
 -1       672 1.96161E-06 9.43451E+05-4.18295E-05
 -1       674 2.06679E-06-9.56824E+05-3.67504E-05
 -1       675 4.25351E-05-4.73018E+05 1.49149E+06
 -1       677 4.19011E-05-4.73018E+05-1.49149E+06
 -1       686-2.17161E-05 8.01366E+05-6.89677E-05
 -1       688-2.18156E-05-7.78362E+05-6.54736E-05
 -1       689 4.95413E-05-2.62935E+05 1.23990E+06
 -1       691 4.90757E-05-2.62935E+05-1.23990E+06
 -1       700-5.79812E-05 5.50619E+05-6.97972E-05
 -1       702-5.78803E-05-6.14341E+05-6.73183E-05
 -1       703 6.28762E-05 4.13950E+04 9.14358E+05
 -1       705 6.25618E-05 4.13950E+04-9.14358E+05
 -1       714-6.97735E-05 3.11667E+05-3.29923E-05
 -1       716-6.96347E-05-3.94019E+05-3.76541E-05
 -1       717 6.95600E-05 3.09440E+05 5.53881E+05
 -1       719 6.99966E-05 3.09440E+05-5.53881E+05
 -1       728-6.13595E-05 2.38919E+04-6.23032E-07
 -1       730-6.17777E-05-1.69951E+05-6.80471E-07
 -1       731 6.05781E-05 5.62811E+05 1.52144E+05
 -1       733 6.06222E-05 5.62811E+05-1.52144E+05
 -1       742-5.10850E-05-2.45548E+05 4.63467E-06
 -1       744-5.11649E-05 8.44634E+04 1.06220E-05
 -1       745 3.60934E-05 7.24489E+05-2.59021E+05
 -1       747 3.57072E-05 7.24489E+05 2.59021E+05
 -1       756-2.91813E-05-5.15707E+05 7.51167E-08
 -1       758-2.90831E-05 3.38205E+05 1.44108E-07
 -1       759 1.65633E-05 7.98431E+05-6.70221E+05
 -1       761 1.63813E-05 7.98431E+05 6.70221E+05
 -1       770-4.25907E-06-7.48088E+05-2.51648E-07
 -1       772-3.93680E-06 5.90011E+05 5.30219E-07
 -1       773 1.86270E-06 7.56932E+05-1.05025E+06
 -1       775 2.42412E-06 7.56932E+05 1.05025E+06
 -1       784-1.54125E-06-9.41246E+05 3.64220E-06
 -1       786-1.39842E-06 8.20769E+05 6.94347E-06
 -1       787-1.62793E-05 6.13031E+05-1.38298E+06
 -1       789-1.57539E-05 6.13031E+05 1.38298E+06
 -1       798 5.82676E-06-1.07705E+06-1.21678E-05
 -1       800 5.73260E-06 1.01016E+06-7.69735E-06
 -1       801-1.90276E-05 3.84795E+05-1.63822E+06
 -1       803-1.88183E-05 3.84795E+05 1.63822E+06
 -1       812 3.22558E-05-1.14390E+06-3.55444E-05
 -1       814 3.25890E-05 1.15348E+06-2.86273E-05
 -1       815-6.28280E-07 9.62481E+04-1.80317E+06
 -1       817-1.16037E-06 9.62481E+04 1.80317E+06
 -1       826 4.03865E-05-1.14476E+06-3.50346E-05
 -1       828 4.05723E-05 1.21630E+06-2.54761E-05
 -1       829 1.01342E-05-1.99640E+05-1.85316E+06
 -1       831 1.16738E-05-1.99640E+05 1.85316E+06
 -1       840 3.53195E-05-1.06003E+06-2.73722E-05
 -1       842 3.54966E-05 1.22048E+06-1.38475E-05
 -1       843 3.77344E-06-4.87138E+05-1.78994E+06
 -1       845 4.70565E-06-4.87138E+05 1.78994E+06
 -1       854 3.59869E-05-9.20008E+05-4.17882E-05
 -1       856 3.61553E-05 1.11554E+06-2.81470E-05
 -1       857-1.15512E-05-6.92085E+05-1.59767E+06
 -1       859-1.11019E-05-6.92085E+05 1.59767E+06
 -1       868 3.58237E-05-6.89778E+05-5.94456E-05
 -1       870 3.64132E-05 9.71792E+05-5.29748E-05
 -1       871-1.98017E-05-8.40564E+05-1.30414E+06
 -1       873-1.90581E-05-8.40564E+05 1.30414E+06
 -1       882 2.83387E-05-4.38408E+05-5.09358E-05
 -1       884 2.83993E-05 7.03434E+05-4.13518E-05
 -1       885-1.85555E-05-8.39233E+05-8.96213E+05
 -1       887-1.82955E-05-8.39233E+05 8.96213E+05
 -1       896 8.93920E-06-9.22547E+04-2.32223E-05
 -1       898 9.45460E-06 4.70337E+05-2.01562E-05
 -1       899-2.42261E-05-8.01518E+05-4.41569E+05
 -1       901-2.43730E-05-8.01518E+05 4.41569E+05
 -1       910 1.64563E-06 2.17080E+05-2.09875E-05
 -1       912 1.59377E-06 8.57968E+04-1.33406E-05
 -1       913-2.30296E-05-5.77622E+05 1.03042E+05
 -1       915-2.21512E-05-5.77622E+05-1.03042E+05
 -1       924 1.05339E-05 6.67291E+05-2.65633E-05
 -1       926 1.02551E-05-9.70715E+04-1.43624E-05
 -1       927-1.81448E-05-4.52847E+05 5.99936E+05
 -1       929-1.78526E-05-4.52847E+05-5.99936E+05
 -1       938 1.47444E-05 9.98877E+05-2.07804E-05
 -1       940 1.41904E-05-5.74625E+05-2.11341E-05
 -1       941-1.61252E-05-7.65829E+04 1.23502E+06
 -1       943-1.58211E-05-7.65829E+04-1.23502E+06
 -1       952 1.35441E-05 1.68609E+06-3.34069E-05
 -1       954 1.39186E-05-5.02438E+05-3.56963E-05
 -1       955-1.35420E-05-1.36416E+05 1.71774E+06
 -1       957-1.38746E-05-1.36416E+05-1.71774E+06
 -1       966-2.36921E-06 2.22257E+06-4.75254E-05
 -1       968-1.95663E-06-1.29837E+06-3.89418E-05
 -1       969-1.83073E-05 3.04961E+05 2.76353E+06
 -1       971-1.93740E-05 3.04961E+05-2.76353E+06
 -1       980-4.88848E+06 1.35751E+06-1.52388E+04
 -1       982-5.96343E+06 1.16742E+06-1.52388E+04
 -1       983 4.39902E+04 2.92726E+05 1.42454E+04
 -1       985 4.39902E+04 2.92726E+05 1.42454E+04
 -1       986-2.07587E+04-4.05352E+04 2.46818E+04
 -1       988-2.07587E+04-4.05352E+04 2.46818E+04
 -1       989-3.22064E+04-9.33656E+04 5.13784E+04
 -1       991-3.22064E+04-9.33656E+04 5.13784E+04
 -1       992-3.25000E+04-1.52058E+05 7.50431E+04
 -1       994-3.25000E+04-1.52058E+05 7.50431E+04
 -1       995-2.40145E+04-2.01950E+05 9.25397E+04
 -1       997-2.40145E+04-2.01950E+05 9.25397E+04
 -1       998-9.51557E+03-2.31693E+05 1.02442E+05
 -1      1000-9.51557E+03-2.31693E+05 1.02442E+05
 -1      1001 8.01924E+03-2.34443E+05 1.03362E+05
 -1      1003 8.01924E+03-2.34443E+05 1.03362E+05
 -1      1004 2.55538E+04-2.08054E+05 9.51826E+04
 -1      1006 2.55538E+04-2.08054E+05 9.51826E+04
 -1      1007 4.02903E+04-1.55008E+05 7.85969E+04
 -1      1009 4.02903E+04-1.55008E+05 7.85969E+04
 -1      1010 4.99579E+04-8.18504E+04 5.52797E+04
 -1      1012 4.99579E+04-8.18504E+04 5.52797E+04
 -1      1013 5.30737E+04 1.86991E+03 2.75709E+04
 -1      1015 5.30737E+04 1.86991E+03 2.75709E+04
 -1      1016 4.91067E+04 8.49902E+04-1.74019E+03
 -1      1018 4.91067E+04 8.49902E+04-1.74019E+03
 -1      1019 3.85316E+04 1.56321E+05-2.97668E+04
 -1      1021 3.85316E+04 1.56321E+05-2.97668E+04
 -1      1022 2.27481E+04 2.06213E+05-5.38401E+04
 -1      1024 2.27481E+04 2.06213E+05-5.38401E+04
 -1      1025 3.88426E+03 2.27896E+05-7.18104E+04
 -1      1027 3.88426E+03 2.27896E+05-7.18104E+04
 -1      1028-1.55006E+04 2.18426E+05-8.22695E+04
 -1      1030-1.55006E+04 2.18426E+05-8.22695E+04
 -1      1031-3.27657E+04 1.79092E+05-8.46805E+04
 -1      1033-3.27657E+04 1.79092E+05-8.46805E+04
 -1      1034-4.55506E+04 1.15264E+05-7.93975E+04
 -1      1036-4.55506E+04 1.15264E+05-7.93975E+04
 -1      1037-5.20956E+04 3.56629E+04-6.75763E+04
 -1      1039-5.20956E+04 3.56629E+04-6.75763E+04
 -1      1040-5.14802E+04-4.88094E+04-5.09925E+04
 -1      1042-5.14802E+04-4.88094E+04-5.09925E+04
 -1      1043-4.37433E+04-1.26538E+05-3.17912E+04
 -1      1045-4.37433E+04-1.26538E+05-3.17912E+04
 -1      1046-2.98719E+04-1.86757E+05-1.22063E+04
 -1      1048-2.98719E+04-1.86757E+05-1.22063E+04
 -1      1049-1.16526E+04-2.20972E+05 5.71759E+03
 -1      1051-1.16526E+04-2.20972E+05 5.71759E+03
 -1      1052 8.58852E+03-2.24071E+05 2.03586E+04
 -1      1054 8.58852E+03-2.24071E+05 2.03586E+04
 -1      1055 2.83378E+04-1.94929E+05 3.06870E+04
 -1      1057 2.83378E+04-1.94929E+05 3.06870E+04
 -1      1058 4.52812E+04-1.36412E+05 3.63396E+04
 -1      1060 4.52812E+04-1.36412E+05 3.63396E+04
 -1      1061 5.76982E+04-5.48199E+04 3.76196E+04
 -1      1063 5.76982E+04-5.48199E+04 3.76196E+04
 -1      1064 6.48322E+04 4.14776E+04 3.54166E+04
 -1      1066 6.48322E+04 4.14776E+04 3.54166E+04
 -1      1067 6.71278E+04 1.43297E+05 3.11203E+04
 -1      1069 6.71278E+04 1.43297E+05 3.11203E+04
 -1      1070 6.66191E+04 2.43692E+05 2.66539E+04
 -1      1072 6.66191E+04 2.43692E+05 2.66539E+04
 -1      1073 4.88848E+06 1.35751E+06 1.52388E+04
 -1      1075 5.96343E+06 1.16742E+06 1.52388E+04
 -1      1076 1.35113E+06 2.59191E+05-5.78171E+04
 -1      1078-1.35113E+06 2.59191E+05 5.78171E+04
 -1      1079 5.89228E-05 1.37623E-05-8.99631E+04
 -1      1081-6.29427E-05 1.34216E-05 8.99630E+04
 -1      1082-1.35113E+06-2.59191E+05-5.78171E+04
 -1      1084 1.35113E+06-2.59191E+05 5.78171E+04
 -1      1085 4.32527E-05-6.78441E+05 6.02674E+05
 -1      1087 4.34349E-05-6.78441E+05-6.02674E+05
 -1      1088-7.53109E-05 4.15734E+05 3.42937E-06
 -1      1090-7.54142E-05 1.18358E+06 3.22994E-06
 -1      1099 3.50165E-05-3.44301E+05 1.41828E+06
 -1      1101 3.52978E-05-3.44301E+05-1.41828E+06
 -1      1102-5.47692E-05-2.72508E+05-7.18822E-06
 -1      1104-5.48282E-05 1.53449E+06-7.25985E-06
 -1      1113 2.71187E-05 2.43097E+05 1.65884E+06
 -1      1115 2.71579E-05 2.43097E+05-1.65884E+06
 -1      1116-2.27158E-05-8.28749E+05 4.49414E-06
 -1      1118-2.25744E-05 1.28474E+06 5.57125E-06
 -1      1127 1.61997E-05 3.92878E+05 1.81666E+06
 -1      1129 1.61818E-05 3.92878E+05-1.81666E+06
 -1      1130-1.45267E-05-9.23357E+05 4.05602E-06
 -1      1132-1.45971E-05 1.39120E+06 6.65949E-06
 -1      1141 2.50044E-06 7.00217E+05 1.87226E+06
 -1      1143 2.46317E-06 7.00217E+05-1.87226E+06
 -1      1144-1.06127E-05-1.17333E+06 3.51591E-05
 -1      1146-1.06135E-05 1.21206E+06 3.64088E-05
 -1      1155-8.13107E-06 6.75534E+05 1.80782E+06
 -1      1157-7.67361E-06 6.75534E+05-1.80782E+06
 -1      1158-1.61859E-05-1.09923E+06 5.61945E-05
 -1      1160-1.56395E-05 1.20407E+06 5.27959E-05
 -1      1169-9.60170E-06 6.80525E+05 1.70029E+06
 -1      1171-1.02751E-05 6.80525E+05-1.70029E+06
 -1      1172-1.69641E-05-1.11829E+06 4.33810E-05
 -1      1174-1.66462E-05 1.04801E+06 3.70665E-05
 -1      1183-1.40524E-05 4.73018E+05 1.49149E+06
 -1      1185-1.50307E-05 4.73018E+05-1.49149E+06
 -1      1186 1.33031E-05-9.43451E+05 1.53189E-05
 -1      1188 1.28155E-05 9.56824E+05 1.78758E-05
 -1      1197-3.56515E-05 2.62935E+05 1.23990E+06
 -1      1199-3.65590E-05 2.62935E+05-1.23990E+06
 -1      1200 4.07035E-05-8.01366E+05 2.37748E-05
 -1      1202 4.01267E-05 7.78362E+05 2.78540E-05
 -1      1211-5.82777E-05-4.13950E+04 9.14358E+05
 -1      1213-5.88223E-05-4.13950E+04-9.14358E+05
 -1      1214 3.48823E-05-5.50619E+05 4.41107E-05
 -1      1216 3.48118E-05 6.14341E+05 3.79981E-05
 -1      1225-5.60027E-05-3.09440E+05 5.53881E+05
 -1      1227-5.46928E-05-3.09440E+05-5.53881E+05
 -1      1228 3.90003E-05-3.11667E+05 3.28260E-05
 -1      1230 3.92069E-05 3.94019E+05 2.50704E-05
 -1      1239-3.85584E-05-5.62811E+05 1.52144E+05
 -1      1241-3.71757E-05-5.62811E+05-1.52144E+05
 -1      1242 6.18867E-05-2.38919E+04 8.49194E-07
 -1      1244 6.19911E-05 1.69951E+05-1.79728E-06
 -1      1253-3.25805E-05-7.24489E+05-2.59021E+05
 -1      1255-3.35405E-05-7.24489E+05 2.59021E+05
 -1      1256 6.61802E-05 2.45548E+05-1.77286E-05
 -1      1258 6.62839E-05-8.44634E+04-1.67020E-05
 -1      1267-2.98210E-05-7.98431E+05-6.70221E+05
 -1      1269-3.05837E-05-7.98431E+05 6.70221E+05
 -1      1270 4.31662E-05 5.15707E+05-1.22927E-05
 -1      1272 4.30605E-05-3.38205E+05-1.19522E-05
 -1      1281-1.97240E-05-7.56932E+05-1.05025E+06
 -1      1283-1.90899E-05-7.56932E+05 1.05025E+06
 -1      1284 6.45099E-06 7.48088E+05 2.89351E-06
 -1      1286 6.80226E-06-5.90011E+05-5.09003E-06
 -1      1295-8.93280E-06-6.13031E+05-1.38298E+06
 -1      1297-8.84857E-06-6.13031E+05 1.38298E+06
 -1      1298-2.17263E-05 9.41246E+05 1.09273E-06
 -1      1300-2.16464E-05-8.20769E+05-4.20220E-06
 -1      1309-1.10302E-05-3.84795E+05-1.63822E+06
 -1      1311-9.90398E-06-3.84795E+05 1.63822E+06
 -1      1312-2.76964E-05 1.07705E+06 7.41036E-07
 -1      1314-2.77494E-05-1.01016E+06-1.43231E-06
 -1      1323-1.52869E-05-9.62481E+04-1.80317E+06
 -1      1325-1.50552E-05-9.62481E+04 1.80317E+06
 -1      1326-1.49743E-05 1.14390E+06 1.12132E-05
 -1      1328-1.49152E-05-1.15348E+06 1.27788E-05
 -1      1337-2.80863E-06 1.99640E+05-1.85316E+06
 -1      1339-3.40474E-06 1.99640E+05 1.85316E+06
 -1      1340 6.00873E-06 1.14476E+06 2.75759E-05
 -1      1342 6.13011E-06-1.21630E+06 2.42314E-05
 -1      1351 1.23269E-05 4.87138E+05-1.78994E+06
 -1      1353 1.23200E-05 4.87138E+05 1.78994E+06
 -1      1354 9.97351E-06 1.06003E+06 4.59357E-05
 -1      1356 9.88086E-06-1.22048E+06 4.15058E-05
 -1      1365 2.52943E-05 6.92085E+05-1.59767E+06
 -1      1367 2.59164E-05 6.92085E+05 1.59767E+06
 -1      1368 7.88429E-07 9.20008E+05 6.35182E-05
 -1      1370 7.63271E-07-1.11554E+06 6.25537E-05
 -1      1379 3.89095E-05 8.40564E+05-1.30414E+06
 -1      1381 3.89395E-05 8.40564E+05 1.30414E+06
 -1      1382 3.21029E-06 6.89778E+05 5.46176E-05
 -1      1384 2.76531E-06-9.71792E+05 5.14478E-05
 -1      1393 3.63661E-05 8.39233E+05-8.96213E+05
 -1      1395 3.72603E-05 8.39233E+05 8.96213E+05
 -1      1396 2.10132E-06 4.38408E+05 3.57195E-06
 -1      1398 2.29499E-06-7.03434E+05 1.05630E-05
 -1      1407 1.39793E-05 8.01518E+05-4.41569E+05
 -1      1409 1.46566E-05 8.01518E+05 4.41569E+05
 -1      1410-4.18121E-06 9.22547E+04-1.84952E-05
 -1      1412-3.88018E-06-4.70337E+05-1.27431E-05
 -1      1421 2.61279E-06 5.77622E+05 1.03042E+05
 -1      1423 2.44415E-06 5.77622E+05-1.03042E+05
 -1      1424-8.57174E-06-2.17080E+05 1.34857E-05
 -1      1426-9.07528E-06-8.57968E+04 6.84745E-06
 -1      1435 1.10460E-05 4.52847E+05 5.99936E+05
 -1      1437 1.04084E-05 4.52847E+05-5.99936E+05
 -1      1438-1.29892E-05-6.67291E+05 4.36621E-05
 -1      1440-1.34704E-05 9.70715E+04 2.23649E-05
 -1      1449 1.22990E-05 7.65829E+04 1.23502E+06
 -1      1451 1.24531E-05 7.65829E+04-1.23502E+06
 -1      1452-7.68892E-06-9.98877E+05 2.90966E-05
 -1      1454-7.74810E-06 5.74625E+05 2.21898E-05
 -1      1463 4.15847E-06 1.36416E+05 1.71774E+06
 -1      1465 3.75567E-06 1.36416E+05-1.71774E+06
 -1      1466 1.26694E-05-1.68609E+06 1.88577E-05
 -1      1468 1.29284E-05 5.02438E+05 1.41807E-05
 -1      1477-2.82678E-07-3.04961E+05 2.76353E+06
 -1      1479-1.14843E-06-3.04961E+05-2.76353E+06
 -1      1480 2.86134E-05-2.22257E+06 3.02929E-05
 -1      1482 2.90934E-05 1.29837E+06 2.66806E-05
 -1      1491-5.22033E-06 2.29592E+05-5.52929E-07
 -1      1493-4.38359E-06 2.29592E+05-3.36799E-06
 -1      1494-5.67132E-06-7.39723E-06 2.88654E-06
 -1      1496-6.88860E-06 1.07826E-05 1.70699E-06
 -1      1497 4.59312E-06-2.29592E+05 5.61186E-06
 -1      1499 3.07968E-06-2.29592E+05 6.26525E-06
 -1      1500 2.07587E+04 4.05352E+04 2.46818E+04
 -1      1502 2.07587E+04 4.05352E+04 2.46818E+04
 -1      1503 3.22064E+04 9.33656E+04 5.13784E+04
 -1      1505 3.22064E+04 9.33656E+04 5.13784E+04
 -1      1506 3.25000E+04 1.52058E+05 7.50431E+04
 -1      1508 3.25000E+04 1.52058E+05 7.50431E+04
 -1      1509 2.40145E+04 2.01950E+05 9.25397E+04
 -1      1511 2.40145E+04 2.01950E+05 9.25397E+04
 -1      1512 9.51557E+03 2.31693E+05 1.02442E+05
 -1      1514 9.51557E+03 2.31693E+05 1.02442E+05
 -1      1515-8.01924E+03 2.34443E+05 1.03362E+05
 -1      1517-8.01924E+03 2.34443E+05 1.03362E+05
 -1      1518-2.55538E+04 2.08054E+05 9.51826E+04
 -1      1520-2.55538E+04 2.08054E+05 9.51826E+04
 -1      1521-4.02903E+04 1.55008E+05 7.85969E+04
 -1      1523-4.02903E+04 1.55008E+05 7.85969E+04
 -1      1524-4.99579E+04 8.18504E+04 5.52797E+04
 -1      1526-4.99579E+04 8.18504E+04 5.52797E+04
 -1      1527-5.30737E+04-1.86991E+03 2.75709E+04
 -1      1529-5.30737E+04-1.86991E+03 2.75709E+04
 -1      1530-4.91067E+04-8.49902E+04-1.74019E+03
 -1      1532-4.91067E+04-8.49902E+04-1.74019E+03
 -1      1533-3.85316E+04-1.56321E+05-2.97668E+04
 -1      1535-3.85316E+04-1.56321E+05-2.97668E+04
 -1      1536-2.27481E+04-2.06213E+05-5.38401E+04
 -1      1538-2.27481E+04-2.06213E+05-5.38401E+04
 -1      1539-3.88426E+03-2.27896E+05-7.18104E+04
 -1      1541-3.88426E+03-2.27896E+05-7.18104E+04
 -1      1542 1.55006E+04-2.18426E+05-8.22695E+04
 -1      1544 1.55006E+04-2.18426E+05-8.22695E+04
 -1      1545 3.27657E+04-1.79092E+05-8.46805E+04
 -1      1547 3.27657E+04-1.79092E+05-8.46805E+04
 -1      1548 4.55506E+04-1.15264E+05-7.93975E+04
 -1      1550 4.55506E+04-1.15264E+05-7.93975E+04
 -1      1551 5.20956E+04-3.56629E+04-6.75763E+04
 -1      1553 5.20956E+04-3.56629E+04-6.75763E+04
 -1      1554 5.14802E+04 4.88094E+04-5.09925E+04
 -1      1556 5.14802E+04 4.88094E+04-5.09925E+04
 -1      1557 4.37433E+04 1.26538E+05-3.17912E+04
 -1      1559 4.37433E+04 1.26538E+05-3.17912E+04
 -1      1560 2.98719E+04 1.86757E+05-1.22063E+04
 -1      1562 2.98719E+04 1.86757E+05-1.22063E+04
 -1      1563 1.16526E+04 2.20972E+05 5.71759E+03
 -1      1565 1.16526E+04 2.20972E+05 5.71759E+03
 -1      1566-8.58852E+03 2.24071E+05 2.03586E+04
 -1      1568-8.58852E+03 2.24071E+05 2.03586E+04
 -1      1569-2.83378E+04 1.94929E+05 3.06870E+04
 -1      1571-2.83378E+04 1.94929E+05 3.06870E+04
 -1      1572-4.52812E+04 1.36412E+05 3.63396E+04
 -1      1574-4.52812E+04 1.36412E+05 3.63396E+04
 -1      1575-5.76982E+04 5.48199E+04 3.76196E+04
 -1      1577-5.76982E+04 5.48199E+04 3.76196E+04
 -1      1578-6.48322E+04-4.14776E+04 3.54166E+04
 -1      1580-6.48322E+04-4.14776E+04 3.54166E+04
 -1      1581-6.71278E+04-1.43297E+05 3.11203E+04
 -1      1583-6.71278E+04-1.43297E+05 3.11203E+04
 -1      1584-6.66191E+04-2.43692E+05 2.66539E+04
 -1      1586-6.66191E+04-2.43692E+05 2.66539E+04
 -1      1587-4.39902E+04-2.92726E+05 1.42454E+04
 -1      1589-4.39902E+04-2.92726E+05 1.42454E+04
 -1      1590-4.88848E+06-1.35751E+06 1.52388E+04
 -1      1592-5.96343E+06-1.16742E+06 1.52388E+04
 -1      1593 4.39902E+04-2.92726E+05-1.42454E+04
 -1      1595 4.39902E+04-2.92726E+05-1.42454E+04
 -1      1596-2.07587E+04 4.05352E+04-2.46818E+04
 -1      1598-2.07587E+04 4.05352E+04-2.46818E+04
 -1      1599-3.22064E+04 9.33656E+04-5.13784E+04
 -1      1601-3.22064E+04 9.33656E+04-5.13784E+04
 -1      1602-3.25000E+04 1.52058E+05-7.50431E+04
 -1      1604-3.25000E+04 1.52058E+05-7.50431E+04
 -1      1605-2.40145E+04 2.01950E+05-9.25397E+04
 -1      1607-2.40145E+04 2.01950E+05-9.25397E+04
 -1      1608-9.51557E+03 2.31693E+05-1.02442E+05
 -1      1610-9.51557E+03 2.31693E+05-1.02442E+05
 -1      1611 8.01924E+03 2.34443E+05-1.03362E+05
 -1      1613 8.01924E+03 2.34443E+05-1.03362E+05
 -1      1614 2.55538E+04 2.08054E+05-9.51826E+04
 -1      1616 2.55538E+04 2.08054E+05-9.51826E+04
 -1      1617 4.02903E+04 1.55008E+05-7.85969E+04
 -1      1619 4.02903E+04 1.55008E+05-7.85969E+04
 -1      1620 4.99579E+04 8.18504E+04-5.52797E+04
 -1      1622 4.99579E+04 8.18504E+04-5.52797E+04
 -1      1623 5.30737E+04-1.86991E+03-2.75709E+04
 -1      1625 5.30737E+04-1.86991E+03-2.75709E+04
 -1      1626 4.91067E+04-8.49902E+04 1.74019E+03
 -1      1628 4.91067E+04-8.49902E+04 1.74019E+03
 -1      1629 3.85316E+04-1.56321E+05 2.97668E+04
 -1      1631 3.85316E+04-1.56321E+05 2.97668E+04
 -1      1632 2.27481E+04-2.06213E+05 5.38401E+04
 -1      1634 2.27481E+04-2.06213E+05 5.38401E+04
 -1      1635 3.88426E+03-2.27896E+05 7.18104E+04
 -1      1637 3.88426E+03-2.27896E+05 7.18104E+04
 -1      1638-1.55006E+04-2.18426E+05 8.22695E+04
 -1      1640-1.55006E+04-2.18426E+05 8.22695E+04
 -1      1641-3.27657E+04-1.79092E+05 8.46805E+04
 -1      1643-3.27657E+04-1.79092E+05 8.46805E+04
 -1      1644-4.55506E+04-1.15264E+05 7.93975E+04
 -1      1646-4.55506E+04-1.15264E+05 7.93975E+04
 -1      1647-5.20956E+04-3.56629E+04 6.75763E+04
 -1      1649-5.20956E+04-3.56629E+04 6.75763E+04
 -1      1650-5.14802E+04 4.88094E+04 5.09925E+04
 -1      1652-5.14802E+04 4.88094E+04 5.09925E+04
 -1      1653-4.37433E+04 1.26538E+05 3.17912E+04
 -1      1655-4.37433E+04 1.26538E+05 3.17912E+04
 -1      1656-2.98719E+04 1.86757E+05 1.22063E+04
 -1      1658-2.98719E+04 1.86757E+05 1.22063E+04
 -1      1659-1.16526E+04 2.20972E+05-5.71759E+03
 -1      1661-1.16526E+04 2.20972E+05-5.71759E+03
 -1      1662 8.58852E+03 2.24071E+05-2.03586E+04
 -1      1664 8.58852E+03 2.24071E+05-2.03586E+04
 -1      1665 2.83378E+04 1.94929E+05-3.06870E+04
 -1      1667 2.83378E+04 1.94929E+05-3.06870E+04
 -1      1668 4.52812E+04 1.36412E+05-3.63396E+04
 -1      1670 4.52812E+04 1.36412E+05-3.63396E+04
 -1      1671 5.76982E+04 5.48199E+04-3.76196E+04
 -1      1673 5.76982E+04 5.48199E+04-3.76196E+04
 -1      1674 6.48322E+04-4.14776E+04-3.54166E+04
 -1      1676 6.48322E+04-4.14776E+04-3.54166E+04
 -1      1677 6.71278E+04-1.43297E+05-3.11203E+04
 -1      1679 6.71278E+04-1.43297E+05-3.11203E+04
 -1      1680 6.66191E+04-2.43692E+05-2.66539E+04
 -1      1682 6.66191E+04-2.43692E+05-2.66539E+04
 -1      1683 4.88848E+06-1.35751E+06-1.52388E+04
 -1      1685 5.96343E+06-1.16742E+06-1.52388E+04
 -1      1686 2.70116E+04-7.98025E+04-3.23039E+04
 -1      1688 2.70116E+04-7.98025E+04-3.23039E+04
 -1      1689 4.23338E+04-1.86159E+05-6.75831E+04
 -1      1691 4.23338E+04-1.86159E+05-6.75831E+04
 -1      1692 4.29000E+04-3.04537E+05-9.90010E+04
 -1      1694 4.29000E+04-3.04537E+05-9.90010E+04
 -1      1695 3.17007E+04-4.04899E+05-1.22303E+05
 -1      1697 3.17007E+04-4.04899E+05-1.22303E+05
 -1      1698 1.25346E+04-4.64785E+05-1.35544E+05
 -1      1700 1.25346E+04-4.64785E+05-1.35544E+05
 -1      1701-1.06944E+04-4.70408E+05-1.36807E+05
 -1      1703-1.06944E+04-4.70408E+05-1.36807E+05
 -1      1704-3.39288E+04-4.17508E+05-1.25908E+05
 -1      1706-3.39288E+04-4.17508E+05-1.25908E+05
 -1      1707-5.34614E+04-3.11075E+05-1.03765E+05
 -1      1709-5.34614E+04-3.11075E+05-1.03765E+05
 -1      1710-6.62756E+04-1.64257E+05-7.26290E+04
 -1      1712-6.62756E+04-1.64257E+05-7.26290E+04
 -1      1713-7.04027E+04 3.77431E+03-3.56501E+04
 -1      1715-7.04027E+04 3.77431E+03-3.56501E+04
 -1      1716-6.51377E+04 1.70606E+05 3.41307E+03
 -1      1718-6.51377E+04 1.70606E+05 3.41307E+03
 -1      1719-5.11090E+04 3.13779E+05 4.06751E+04
 -1      1721-5.11090E+04 3.13779E+05 4.06751E+04
 -1      1722-3.01733E+04 4.13921E+05 7.25505E+04
 -1      1724-3.01733E+04 4.13921E+05 7.25505E+04
 -1      1725-5.15235E+03 4.57444E+05 9.61626E+04
 -1      1727-5.15235E+03 4.57444E+05 9.61626E+04
 -1      1728 2.05590E+04 4.38434E+05 1.09643E+05
 -1      1730 2.05590E+04 4.38434E+05 1.09643E+05
 -1      1731 4.34584E+04 3.59484E+05 1.12308E+05
 -1      1733 4.34584E+04 3.59484E+05 1.12308E+05
 -1      1734 6.04149E+04 2.31365E+05 1.04677E+05
 -1      1736 6.04149E+04 2.31365E+05 1.04677E+05
 -1      1737 6.90944E+04 7.15842E+04 8.83559E+04
 -1      1739 6.90944E+04 7.15842E+04 8.83559E+04
 -1      1740 6.82759E+04-9.79763E+04 6.57792E+04
 -1      1742 6.82759E+04-9.79763E+04 6.57792E+04
 -1      1743 5.80105E+04-2.54006E+05 3.98734E+04
 -1      1745 5.80105E+04-2.54006E+05 3.98734E+04
 -1      1746 3.96065E+04-3.74894E+05 1.36709E+04
 -1      1748 3.96065E+04-3.74894E+05 1.36709E+04
 -1      1749 1.54335E+04-4.43599E+05-1.00665E+04
 -1      1751 1.54335E+04-4.43599E+05-1.00665E+04
 -1      1752-1.14277E+04-4.49864E+05-2.91639E+04
 -1      1754-1.14277E+04-4.49864E+05-2.91639E+04
 -1      1755-3.76389E+04-3.91433E+05-4.22600E+04
 -1      1757-3.76389E+04-3.91433E+05-4.22600E+04
 -1      1758-6.01480E+04-2.74091E+05-4.89043E+04
 -1      1760-6.01480E+04-2.74091E+05-4.89043E+04
 -1      1761-7.66583E+04-1.10447E+05-4.95504E+04
 -1      1763-7.66583E+04-1.10447E+05-4.95504E+04
 -1      1764-8.61981E+04 8.25208E+04-4.54513E+04
 -1      1766-8.61981E+04 8.25208E+04-4.54513E+04
 -1      1767-8.93876E+04 2.86635E+05-3.85473E+04
 -1      1769-8.93876E+04 2.86635E+05-3.85473E+04
 -1      1770-8.87720E+04 4.87342E+05-3.15847E+04
 -1      1772-8.87720E+04 4.87342E+05-3.15847E+04
 -1      1773-2.70116E+04-7.98025E+04 3.23039E+04
 -1      1775-2.70116E+04-7.98025E+04 3.23039E+04
 -1      1776-4.23338E+04-1.86159E+05 6.75831E+04
 -1      1778-4.23338E+04-1.86159E+05 6.75831E+04
 -1      1779-4.29000E+04-3.04537E+05 9.90010E+04
 -1      1781-4.29000E+04-3.04537E+05 9.90010E+04
 -1      1782-3.17007E+04-4.04899E+05 1.22303E+05
 -1      1784-3.17007E+04-4.04899E+05 1.22303E+05
 -1      1785-1.25346E+04-4.64785E+05 1.35544E+05
 -1      1787-1.25346E+04-4.64785E+05 1.35544E+05
 -1      1788 1.06944E+04-4.70408E+05 1.36807E+05
 -1      1790 1.06944E+04-4.70408E+05 1.36807E+05
 -1      1791 3.39288E+04-4.17508E+05 1.25908E+05
 -1      1793 3.39288E+04-4.17508E+05 1.25908E+05
 -1      1794 5.34614E+04-3.11075E+05 1.03765E+05
 -1      1796 5.34614E+04-3.11075E+05 1.03765E+05
 -1      1797 6.62756E+04-1.64257E+05 7.26290E+04
 -1      1799 6.62756E+04-1.64257E+05 7.26290E+04
 -1      1800 7.04027E+04 3.77431E+03 3.56501E+04
 -1      1802 7.04027E+04 3.77431E+03 3.56501E+04
 -1      1803 6.51377E+04 1.70606E+05-3.41307E+03
 -1      1805 6.51377E+04 1.70606E+05-3.41307E+03
 -1      1806 5.11090E+04 3.13779E+05-4.06751E+04
 -1      1808 5.11090E+04 3.13779E+05-4.06751E+04
 -1      1809 3.01733E+04 4.13921E+05-7.25505E+04
 -1      1811 3.01733E+04 4.13921E+05-7.25505E+04
 -1      1812 5.15235E+03 4.57444E+05-9.61626E+04
 -1      1814 5.15235E+03 4.57444E+05-9.61626E+04
 -1      1815-2.05590E+04 4.38434E+05-1.09643E+05
 -1      1817-2.05590E+04 4.38434E+05-1.09643E+05
 -1      1818-4.34584E+04 3.59484E+05-1.12308E+05
 -1      1820-4.34584E+04 3.59484E+05-1.12308E+05
 -1      1821-6.04149E+04 2.31365E+05-1.04677E+05
 -1      1823-6.04149E+04 2.31365E+05-1.04677E+05
 -1      1824-6.90944E+04 7.15842E+04-8.83559E+04
 -1      1826-6.90944E+04 7.15842E+04-8.83559E+04
 -1      1827-6.82759E+04-9.79763E+04-6.57792E+04
 -1      1829-6.82759E+04-9.79763E+04-6.57792E+04
 -1      1830-5.80105E+04-2.54006E+05-3.98734E+04
 -1      1832-5.80105E+04-2.54006E+05-3.98734E+04
 -1      1833-3.96065E+04-3.74894E+05-1.36709E+04
 -1      1835-3.96065E+04-3.74894E+05-1.36709E+04
 -1      1836-1.54335E+04-4.43599E+05 1.00665E+04
 -1      1838-1.54335E+04-4.43599E+05 1.00665E+04
 -1      1839 1.14277E+04-4.49864E+05 2.91639E+04
 -1      1841 1.14277E+04-4.49864E+05 2.91639E+04
 -1      1842 3.76389E+04-3.91433E+05 4.22600E+04
 -1      1844 3.76389E+04-3.91433E+05 4.22600E+04
 -1      1845 6.01480E+04-2.74091E+05 4.89043E+04
 -1      1847 6.01480E+04-2.74091E+05 4.89043E+04
 -1      1848 7.66583E+04-1.10447E+05 4.95504E+04
 -1      1850 7.66583E+04-1.10447E+05 4.95504E+04
 -1      1851 8.61981E+04 8.25208E+04 4.54513E+04
 -1      1853 8.61981E+04 8.25208E+04 4.54513E+04
 -1      1854 8.93876E+04 2.86635E+05 3.85473E+04
 -1      1856 8.93876E+04 2.86635E+05 3.85473E+04
 -1      1857 8.87720E+04 4.87342E+05 3.15847E+04
 -1      1859 8.87720E+04 4.87342E+05 3.15847E+04
 -1      1860 4.00774E-06-5.77354E+04-3.81323E-06
 -1      1862 4.06817E-06-5.77354E+04-5.83872E-06
 -1      1863 8.62000E-06-1.36619E+05 4.72194E-06
 -1      1865 9.03016E-06-1.36619E+05 2.48138E-06
 -1      1866 8.69636E-06-2.24275E+05 7.00572E-06
 -1      1868 9.00921E-06-2.24275E+05 5.81014E-06
 -1      1869-9.52806E-06-2.98002E+05 9.89642E-06
 -1      1871-8.57099E-06-2.98002E+05 9.02801E-06
 -1      1872-2.18111E-05-3.41595E+05 8.72099E-06
 -1      1874-2.11459E-05-3.41595E+05 7.95553E-06
 -1      1875-1.64481E-05-3.44787E+05 2.30240E-06
 -1      1877-1.56397E-05-3.44787E+05 1.08605E-06
 -1      1878-1.62137E-07-3.04483E+05-2.67371E-06
 -1      1880 3.71016E-07-3.04483E+05-2.05077E-07
 -1      1881 1.13750E-05-2.24514E+05-3.11622E-06
 -1      1883 1.09181E-05-2.24514E+05 1.07697E-06
 -1      1884 1.72816E-06-1.14827E+05 1.78269E-05
 -1      1886 1.09725E-06-1.14827E+05 1.83438E-05
 -1      1887-1.04864E-05 1.00983E+04 1.99721E-05
 -1      1889-1.12543E-05 1.00983E+04 1.92985E-05
 -1      1890-5.00346E-06 1.33368E+05-4.48542E-06
 -1      1892-4.96989E-06 1.33368E+05-5.70328E-06
 -1      1893-2.08619E-06 2.38105E+05-1.64041E-05
 -1      1895-2.31274E-06 2.38105E+05-1.42094E-05
 -1      1896-5.54952E-06 3.09813E+05-2.24776E-05
 -1      1898-5.89019E-06 3.09813E+05-2.24300E-05
 -1      1899 5.80399E-06 3.38439E+05-2.78016E-05
 -1      1901 5.05120E-06 3.38439E+05-2.75158E-05
 -1      1902 2.03822E-05 3.19785E+05-1.98681E-05
 -1      1904 2.05794E-05 3.19785E+05-1.93141E-05
 -1      1905 1.76715E-05 2.56137E+05-1.14191E-05
 -1      1907 1.86116E-05 2.56137E+05-1.03494E-05
 -1      1908 1.18244E-05 1.55989E+05-1.39994E-05
 -1      1910 1.14601E-05 1.55989E+05-1.31257E-05
 -1      1911 1.90628E-05 3.29205E+04-1.29272E-05
 -1      1913 1.91434E-05 3.29205E+04-1.20109E-05
 -1      1914 3.14595E-05-9.62185E+04 4.56797E-06
 -1      1916 3.27431E-05-9.62185E+04 6.24684E-06
 -1      1917 2.95791E-05-2.13581E+05 1.27512E-05
 -1      1919 3.05766E-05-2.13581E+05 1.14305E-05
 -1      1920 1.19111E-05-3.02715E+05 1.84528E-06
 -1      1922 1.34196E-05-3.02715E+05 1.15535E-06
 -1      1923-4.98811E-07-3.50770E+05-6.11851E-06
 -1      1925 7.91522E-07-3.50770E+05-7.85351E-06
 -1      1926-5.70963E-06-3.50186E+05-4.43291E-06
 -1      1928-4.96153E-06-3.50186E+05-6.23468E-07
 -1      1929-1.24918E-05-2.99612E+05-8.00956E-07
 -1      1931-1.28015E-05-2.99612E+05-2.44479E-07
 -1      1932-1.08168E-05-2.04001E+05-1.36501E-05
 -1      1934-1.22150E-05-2.04001E+05-1.17367E-05
 -1      1935-8.16845E-06-7.34759E+04-1.67804E-05
 -1      1937-8.24379E-06-7.34759E+04-1.27446E-05
 -1      1938-7.44197E-06 7.79503E+04-4.99655E-06
 -1      1940-6.03543E-06 7.79503E+04-7.83905E-06
 -1      1941-1.12365E-06 2.35979E+05-9.24872E-06
 -1      1943-1.49253E-06 2.35979E+05-1.07285E-05
 -1      1944-5.44163E-06 3.87113E+05-7.42796E-06
 -1      1946-4.13366E-06 3.87113E+05-1.06321E-05
 -1      1947 1.02622E-05-1.54606E-05 1.45893E-05
 -1      1949 1.04662E-05-1.82307E-05 1.17072E-05
 -1      1950 2.48934E-06-3.88465E-06 2.72675E-05
 -1      1952 2.57148E-06-9.68029E-06 2.45209E-05
 -1      1953 1.79761E-06 1.04365E-05 8.10569E-06
 -1      1955 1.91262E-06 2.11113E-05 7.28000E-06
 -1      1956-4.44743E-07 1.31489E-05-2.58359E-06
 -1      1958-3.52476E-07 2.42158E-05-1.80310E-06
 -1      1959-8.03512E-06 4.10465E-06 9.96507E-06
 -1      1961-7.49010E-06 7.61263E-07 9.50129E-06
 -1      1962-6.41189E-06 1.69723E-05 1.54033E-05
 -1      1964-5.73455E-06-2.86463E-06 1.58968E-05
 -1      1965-1.25159E-05-1.24554E-05 2.23788E-05
 -1      1967-1.29457E-05-2.42277E-05 2.63805E-05
 -1      1968-1.79537E-05-2.64814E-05 1.06685E-05
 -1      1970-1.92358E-05-2.39460E-05 1.61356E-05
 -1      1971-1.16250E-05-3.52236E-05 5.08254E-06
 -1      1973-1.29065E-05-1.24503E-05 3.88151E-06
 -1      1974-1.38947E-05-4.42754E-05 7.38282E-06
 -1      1976-1.38595E-05-1.68538E-06 5.16824E-06
 -1      1977-1.47443E-05-1.06998E-05 1.19783E-06
 -1      1979-1.41103E-05-2.42029E-05-2.05170E-06
 -1      1980-7.29678E-06 7.67883E-07 7.73027E-07
 -1      1982-5.67008E-06-2.48398E-05 2.76559E-07
 -1      1983 8.16624E-07-2.82426E-05-1.05535E-05
 -1      1985 1.99402E-06-4.40492E-05-1.28723E-05
 -1      1986 1.09050E-05-1.47503E-05-2.79021E-05
 -1      1988 1.04555E-05-5.47576E-05-2.76275E-05
 -1      1989 2.38161E-05-6.36750E-06-1.88890E-05
 -1      1991 2.29801E-05-5.20721E-06-1.87551E-05
 -1      1992 2.53103E-05 4.46938E-06 2.99697E-08
 -1      1994 2.47995E-05 1.26423E-05-1.86585E-06
 -1      1995 8.62482E-06 3.23812E-05 2.72575E-06
 -1      1997 8.69806E-06 4.19007E-05 6.18363E-06
 -1      1998-4.50474E-06 1.05339E-05 1.08610E-05
 -1      2000-5.31780E-06 3.87876E-05 1.43248E-05
 -1      2001 6.83715E-06-1.96635E-05 7.85921E-06
 -1      2003 6.32887E-06 3.51199E-06 9.18334E-06
 -1      2004 1.37768E-05-1.82679E-05-2.17085E-06
 -1      2006 1.38870E-05 1.62655E-06-6.95582E-09
 -1      2007 1.16892E-06-1.63166E-06 2.94330E-06
 -1      2009 2.09940E-06 4.18068E-05-5.89894E-06
 -1      2010-4.88903E-06-5.32317E-06-1.71648E-06
 -1      2012-4.05245E-06 2.85809E-05-5.38991E-06
 -1      2013-3.35499E-06-1.30452E-05 2.38979E-06
 -1      2015-2.48801E-06-4.11241E-07 6.72235E-08
 -1      2016-9.64511E-06 3.87297E-06 1.41018E-05
 -1      2018-9.12331E-06 1.20107E-05 1.53599E-05
 -1      2019-1.40597E-05 8.16391E-06 1.40912E-05
 -1      2021-1.53741E-05 3.47300E-05 1.92586E-05
 -1      2022-1.20951E-05-4.09795E-06 1.57518E-05
 -1      2024-1.42217E-05 3.59678E-05 1.69302E-05
 -1      2025-9.17531E-06 1.85444E-05 2.26354E-05
 -1      2027-9.21324E-06 3.47756E-05 2.64111E-05
 -1      2028-1.17856E-06 5.15259E-06 2.08433E-05
 -1      2030-2.41498E-06 2.99960E-05 2.23689E-05
 -1      2031-4.98117E-06 5.14292E-05 9.12920E-06
 -1      2033-6.61561E-06 4.81883E-05 3.96243E-06
 -1      2034-2.12535E-05 5.77354E+04 2.20459E-05
 -1      2036-2.09212E-05 5.77354E+04 2.05653E-05
 -1      2037-1.94909E-05 1.36619E+05 2.41321E-05
 -1      2039-1.91659E-05 1.36619E+05 2.32731E-05
 -1      2040 3.25828E-06 2.24275E+05-2.50402E-06
 -1      2042 3.53853E-06 2.24275E+05-3.10315E-06
 -1      2043 9.11703E-06 2.98002E+05-1.44982E-05
 -1      2045 8.70243E-06 2.98002E+05-1.56645E-05
 -1      2046 3.38489E-06 3.41595E+05 8.55994E-07
 -1      2048 3.29661E-06 3.41595E+05 1.70957E-06
 -1      2049 4.66458E-07 3.44787E+05 5.29819E-06
 -1      2051 1.33525E-06 3.44787E+05 6.68245E-06
 -1      2052-1.08764E-05 3.04483E+05 1.59887E-05
 -1      2054-1.20919E-05 3.04483E+05 1.85886E-05
 -1      2055-1.28748E-05 2.24514E+05 2.98687E-05
 -1      2057-1.62234E-05 2.24514E+05 3.14153E-05
 -1      2058-5.32342E-06 1.14827E+05 1.63605E-05
 -1      2060-6.29186E-06 1.14827E+05 1.71124E-05
 -1      2061-2.07252E-05-1.00983E+04-4.36584E-07
 -1      2063-2.02317E-05-1.00983E+04-4.01618E-06
 -1      2064-2.47250E-05-1.33368E+05-6.20814E-06
 -1      2066-2.31199E-05-1.33368E+05-1.10455E-05
 -1      2067-7.53214E-07-2.38105E+05-1.50417E-06
 -1      2069 1.57050E-06-2.38105E+05-3.75832E-06
 -1      2070 8.75190E-06-3.09813E+05-5.25854E-06
 -1      2072 8.45613E-06-3.09813E+05-5.04381E-06
 -1      2073 3.91955E-06-3.38439E+05-1.87988E-05
 -1      2075 2.73386E-06-3.38439E+05-1.63857E-05
 -1      2076-6.26361E-06-3.19785E+05-1.62205E-05
 -1      2078-5.87583E-06-3.19785E+05-1.57983E-05
 -1      2079-1.35554E-05-2.56137E+05 5.26171E-06
 -1      2081-1.39561E-05-2.56137E+05 2.44135E-06
 -1      2082-1.97717E-05-1.55989E+05 1.78090E-05
 -1      2084-1.97552E-05-1.55989E+05 1.59750E-05
 -1      2085-2.03309E-05-3.29205E+04 9.57498E-06
 -1      2087-2.13021E-05-3.29205E+04 1.49795E-05
 -1      2088-9.72836E-07 9.62185E+04-4.45345E-06
 -1      2090-2.38113E-06 9.62185E+04-4.73388E-06
 -1      2091 1.06322E-05 2.13581E+05-2.44685E-05
 -1      2093 1.08594E-05 2.13581E+05-2.55156E-05
 -1      2094 1.27364E-05 3.02715E+05-1.93723E-05
 -1      2096 1.27651E-05 3.02715E+05-2.40085E-05
 -1      2097 2.21652E-05 3.50770E+05-3.01021E-06
 -1      2099 2.21650E-05 3.50770E+05-2.45337E-06
 -1      2100 2.07177E-05 3.50186E+05 4.15099E-06
 -1      2102 2.16975E-05 3.50186E+05 3.06379E-06
 -1      2103 1.57129E-06 2.99612E+05 1.14026E-05
 -1      2105 2.99818E-06 2.99612E+05 8.39608E-06
 -1      2106-6.56742E-06 2.04001E+05 7.17198E-06
 -1      2108-6.97689E-06 2.04001E+05 6.87224E-06
 -1      2109-4.08555E-06 7.34759E+04 6.57846E-06
 -1      2111-5.70318E-06 7.34759E+04 1.21399E-05
 -1      2112 6.86000E-07-7.79503E+04 2.33905E-05
 -1      2114 1.27873E-06-7.79503E+04 2.84834E-05
 -1      2115 1.57421E-05-2.35979E+05 2.20423E-05
 -1      2117 1.50169E-05-2.35979E+05 2.59907E-05
 -1      2118 1.81013E-05-3.87113E+05 1.22941E-05
 -1      2120 1.55345E-05-3.87113E+05 1.51738E-05
 -1      2121 2.70116E+04 7.98025E+04 3.23039E+04
 -1      2123 2.70116E+04 7.98025E+04 3.23039E+04
 -1      2124 4.23338E+04 1.86159E+05 6.75831E+04
 -1      2126 4.23338E+04 1.86159E+05 6.75831E+04
 -1      2127 4.29000E+04 3.04537E+05 9.90010E+04
 -1      2129 4.29000E+04 3.04537E+05 9.90010E+04
 -1      2130 3.17007E+04 4.04899E+05 1.22303E+05
 -1      2132 3.17007E+04 4.04899E+05 1.22303E+05
 -1      2133 1.25346E+04 4.64785E+05 1.35544E+05
 -1      2135 1.25346E+04 4.64785E+05 1.35544E+05
 -1      2136-1.06944E+04 4.70408E+05 1.36807E+05
 -1      2138-1.06944E+04 4.70408E+05 1.36807E+05
 -1      2139-3.39288E+04 4.17508E+05 1.25908E+05
 -1      2141-3.39288E+04 4.17508E+05 1.25908E+05
 -1      2142-5.34614E+04 3.11075E+05 1.03765E+05
 -1      2144-5.34614E+04 3.11075E+05 1.03765E+05
 -1      2145-6.62756E+04 1.64257E+05 7.26290E+04
 -1      2147-6.62756E+04 1.64257E+05 7.26290E+04
 -1      2148-7.04027E+04-3.77431E+03 3.56501E+04
 -1      2150-7.04027E+04-3.77431E+03 3.56501E+04
 -1      2151-6.51377E+04-1.70606E+05-3.41307E+03
 -1      2153-6.51377E+04-1.70606E+05-3.41307E+03
 -1      2154-5.11090E+04-3.13779E+05-4.06751E+04
 -1      2156-5.11090E+04-3.13779E+05-4.06751E+04
 -1      2157-3.01733E+04-4.13921E+05-7.25505E+04
 -1      2159-3.01733E+04-4.13921E+05-7.25505E+04
 -1      2160-5.15235E+03-4.57444E+05-9.61626E+04
 -1      2162-5.15235E+03-4.57444E+05-9.61626E+04
 -1      2163 2.05590E+04-4.38434E+05-1.09643E+05
 -1      2165 2.05590E+04-4.38434E+05-1.09643E+05
 -1      2166 4.34584E+04-3.59484E+05-1.12308E+05
 -1      2168 4.34584E+04-3.59484E+05-1.12308E+05
 -1      2169 6.04149E+04-2.31365E+05-1.04677E+05
 -1      2171 6.04149E+04-2.31365E+05-1.04677E+05
 -1      2172 6.90944E+04-7.15842E+04-8.83559E+04
 -1      2174 6.90944E+04-7.15842E+04-8.83559E+04
 -1      2175 6.82759E+04 9.79763E+04-6.57792E+04
 -1      2177 6.82759E+04 9.79763E+04-6.57792E+04
 -1      2178 5.80105E+04 2.54006E+05-3.98734E+04
 -1      2180 5.80105E+04 2.54006E+05-3.98734E+04
 -1      2181 3.96065E+04 3.74894E+05-1.36709E+04
 -1      2183 3.96065E+04 3.74894E+05-1.36709E+04
 -1      2184 1.54335E+04 4.43599E+05 1.00665E+04
 -1      2186 1.54335E+04 4.43599E+05 1.00665E+04
 -1      2187-1.14277E+04 4.49864E+05 2.91639E+04
 -1      2189-1.14277E+04 4.49864E+05 2.91639E+04
 -1      2190-3.76389E+04 3.91433E+05 4.22600E+04
 -1      2192-3.76389E+04 3.91433E+05 4.22600E+04
 -1      2193-6.01480E+04 2.74091E+05 4.89043E+04
 -1      2195-6.01480E+04 2.74091E+05 4.89043E+04
 -1      2196-7.66583E+04 1.10447E+05 4.95504E+04
 -1      2198-7.66583E+04 1.10447E+05 4.95504E+04
 -1      2199-8.61981E+04-8.25208E+04 4.54513E+04
 -1      2201-8.61981E+04-8.25208E+04 4.54513E+04
 -1      2202-8.93876E+04-2.86635E+05 3.85473E+04
 -1      2204-8.93876E+04-2.86635E+05 3.85473E+04
 -1      2205-8.87720E+04-4.87342E+05 3.15847E+04
 -1      2207-8.87720E+04-4.87342E+05 3.15847E+04
 -1      2208-2.70116E+04 7.98025E+04-3.23039E+04
 -1      2210-2.70116E+04 7.98025E+04-3.23039E+04
 -1      2211-4.23338E+04 1.86159E+05-6.75831E+04
 -1      2213-4.23338E+04 1.86159E+05-6.75831E+04
 -1      2214-4.29000E+04 3.04537E+05-9.90010E+04
 -1      2216-4.29000E+04 3.04537E+05-9.90010E+04
 -1      2217-3.17007E+04 4.04899E+05-1.22303E+05
 -1      2219-3.17007E+04 4.04899E+05-1.22303E+05
 -1      2220-1.25346E+04 4.64785E+05-1.35544E+05
 -1      2222-1.25346E+04 4.64785E+05-1.35544E+05
 -1      2223 1.06944E+04 4.70408E+05-1.36807E+05
 -1      2225 1.06944E+04 4.70408E+05-1.36807E+05
 -1      2226 3.39288E+04 4.17508E+05-1.25908E+05
 -1      2228 3.39288E+04 4.17508E+05-1.25908E+05
 -1      2229 5.34614E+04 3.11075E+05-1.03765E+05
 -1      2231 5.34614E+04 3.11075E+05-1.03765E+05
 -1      2232 6.62756E+04 1.64257E+05-7.26290E+04
 -1      2234 6.62756E+04 1.64257E+05-7.26290E+04
 -1      2235 7.04027E+04-3.77431E+03-3.56501E+04
 -1      2237 7.04027E+04-3.77431E+03-3.56501E+04
 -1      2238 6.51377E+04-1.70606E+05 3.41307E+03
 -1      2240 6.51377E+04-1.70606E+05 3.41307E+03
 -1      2241 5.11090E+04-3.13779E+05 4.06751E+04
 -1      2243 5.11090E+04-3.13779E+05 4.06751E+04
 -1      2244 3.01733E+04-4.13921E+05 7.25505E+04
 -1      2246 3.01733E+04-4.13921E+05 7.25505E+04
 -1      2247 5.15235E+03-4.57444E+05 9.61626E+04
 -1      2249 5.15235E+03-4.57444E+05 9.61626E+04
 -1      2250-2.05590E+04-4.38434E+05 1.09643E+05
 -1      2252-2.05590E+04-4.38434E+05 1.09643E+05
 -1      2253-4.34584E+04-3.59484E+05 1.12308E+05
 -1      2255-4.34584E+04-3.59484E+05 1.12308E+05
 -1      2256-6.04149E+04-2.31365E+05 1.04677E+05
 -1      2258-6.04149E+04-2.31365E+05 1.04677E+05
 -1      2259-6.90944E+04-7.15842E+04 8.83559E+04
 -1      2261-6.90944E+04-7.15842E+04 8.83559E+04
 -1      2262-6.82759E+04 9.79763E+04 6.57792E+04
 -1      2264-6.82759E+04 9.79763E+04 6.57792E+04
 -1      2265-5.80105E+04 2.54006E+05 3.98734E+04
 -1      2267-5.80105E+04 2.54006E+05 3.98734E+04
 -1      2268-3.96065E+04 3.74894E+05 1.36709E+04
 -1      2270-3.96065E+04 3.74894E+05 1.36709E+04
 -1      2271-1.54335E+04 4.43599E+05-1.00665E+04
 -1      2273-1.54335E+04 4.43599E+05-1.00665E+04
 -1      2274 1.14277E+04 4.49864E+05-2.91639E+04
 -1      2276 1.14277E+04 4.49864E+05-2.91639E+04
 -1      2277 3.76389E+04 3.91433E+05-4.22600E+04
 -1      2279 3.76389E+04 3.91433E+05-4.22600E+04
 -1      2280 6.01480E+04 2.74091E+05-4.89043E+04
 -1      2282 6.01480E+04 2.74091E+05-4.89043E+04
 -1      2283 7.66583E+04 1.10447E+05-4.95504E+04
 -1      2285 7.66583E+04 1.10447E+05-4.95504E+04
 -1      2286 8.61981E+04-8.25208E+04-4.54513E+04
 -1      2288 8.61981E+04-8.25208E+04-4.54513E+04
 -1      2289 8.93876E+04-2.86635E+05-3.85473E+04
 -1      2291 8.93876E+04-2.86635E+05-3.85473E+04
 -1      2292 8.87720E+04-4.87342E+05-3.15847E+04
 -1      2294 8.87720E+04-4.87342E+05-3.15847E+04
 -3
    1PSTEP                        80           1           1          
    1PGM                1.000000E+00                                  
    1PGK                1.752299E+07                                  
    1PHID                         -1                                  
    1PSUBC                         0                                  
    1PMODE                        20                                  
  100CL  120 666.2301594         930                     2   20MODAL      1
 -4  ERROR       1    1
 -5  STR(%)      1    1    0    0
 -1       404 0.00000E+00
 -1       406 0.00000E+00
 -1       407 0.00000E+00
 -1       409 0.00000E+00
 -1       410 0.00000E+00
 -1       412 0.00000E+00
 -1       413 0.00000E+00
 -1       415 0.00000E+00
 -1       424 0.00000E+00
 -1       426 0.00000E+00
 -1       427 0.00000E+00
 -1       429 0.00000E+00
 -1       438 0.00000E+00
 -1       440 0.00000E+00
 -1       441 0.00000E+00
 -1       443 0.00000E+00
 -1       444 0.00000E+00
 -1       446 0.00000E+00
 -1       447 0.00000E+00
 -1       449 0.00000E+00
 -1       458 0.00000E+00
 -1       460 0.00000E+00
 -1       461 0.00000E+00
 -1       463 0.00000E+00
 -1       472 0.00000E+00
 -1       474 0.00000E+00
 -1       475 0.00000E+00
 -1       477 0.00000E+00
 -1       478 0.00000E+00
 -1       480 0.00000E+00
 -1       481 0.00000E+00
 -1       483 0.00000E+00
 -1       484 0.00000E+00
 -1       486 0.00000E+00
 -1       487 0.00000E+00
 -1       489 0.00000E+00
 -1       490 0.00000E+00
 -1       492 0.00000E+00
 -1       493 0.00000E+00
 -1       495 0.00000E+00
 -1       496 0.00000E+00
 -1       498 0.00000E+00
 -1       499 0.00000E+00
 -1       501 0.00000E+00
 -1       502 0.00000E+00
 -1       504 0.00000E+00
 -1       505 0.00000E+00
 -1       507 0.00000E+00
 -1       508 0.00000E+00
 -1       510 0.00000E+00
 -1       511 0.00000E+00
 -1       513 0.00000E+00
 -1       514 0.00000E+00
 -1       516 0.00000E+00
 -1       517 0.00000E+00
 -1       519 0.00000E+00
 -1       520 0.00000E+00
 -1       522 0.00000E+00
 -1       523 0.00000E+00
 -1       525 0.00000E+00
 -1       526 0.00000E+00
 -1       528 0.00000E+00
 -1       529 0.00000E+00
 -1       531 0.00000E+00
 -1       532 0.00000E+00
 -1       534 0.00000E+00
 -1       535 0.00000E+00
 -1       537 0.00000E+00
 -1       538 0.00000E+00
 -1       540 0.00000E+00
 -1       541 0.00000E+00
 -1       543 0.00000E+00
 -1       544 0.00000E+00
 -1       546 0.00000E+00
 -1       547 0.00000E+00
 -1       549 0.00000E+00
 -1       550 0.00000E+00
 -1       552 0.00000E+00
 -1       553 0.00000E+00
 -1       555 0.00000E+00
 -1       556 0.00000E+00
 -1       558 0.00000E+00
 -1       559 0.00000E+00
 -1       561 0.00000E+00
 -1       562 0.00000E+00
 -1       564 0.00000E+00
 -1       565 0.00000E+00
 -1       567 0.00000E+00
 -1       568 0.00000E+00
 -1       570 0.00000E+00
 -1       571 0.00000E+00
 -1       573 0.00000E+00
 -1       574 0.00000E+00
 -1       576 0.00000E+00
 -1       577 0.00000E+00
 -1       579 0.00000E+00
 -1       588 0.00000E+00
 -1       590 0.00000E+00
 -1       591 0.00000E+00
 -1       593 0.00000E+00
 -1       602 0.00000E+00
 -1       604 0.00000E+00
 -1       605 0.00000E+00
 -1       607 0.00000E+00
 -1       616 0.00000E+00
 -1       618 0.00000E+00
 -1       619 0.00000E+00
 -1       621 0.00000E+00
 -1       630 0.00000E+00
 -1       632 0.00000E+00
 -1       633 0.00000E+00
 -1       635 0.00000E+00
 -1       644 0.00000E+00
 -1       646 0.00000E+00
 -1       647 0.00000E+00
 -1       649 0.00000E+00
 -1       658 0.00000E+00
 -1       660 0.00000E+00
 -1       661 0.00000E+00
 -1       663 0.00000E+00
 -1       672 0.00000E+00
 -1       674 0.00000E+00
 -1       675 0.00000E+00
 -1       677 0.00000E+00
 -1       686 0.00000E+00
 -1       688 0.00000E+00
 -1       689 0.00000E+00
 -1       691 0.00000E+00
 -1       700 0.00000E+00
 -1       702 0.00000E+00
 -1       703 0.00000E+00
 -1       705 0.00000E+00
 -1       714 0.00000E+00
 -1       716 0.00000E+00
 -1       717 0.00000E+00
 -1       719 0.00000E+00
 -1       728 0.00000E+00
 -1       730 0.00000E+00
 -1       731 0.00000E+00
 -1       733 0.00000E+00
 -1       742 0.00000E+00
 -1       744 0.00000E+00
 -1       745 0.00000E+00
 -1       747 0.00000E+00
 -1       756 0.00000E+00
 -1       758 0.00000E+00
 -1       759 0.00000E+00
 -1       761 0.00000E+00
 -1       770 0.00000E+00
 -1       772 0.00000E+00
 -1       773 0.00000E+00
 -1       775 0.00000E+00
 -1       784 0.00000E+00
 -1       786 0.00000E+00
 -1       787 0.00000E+00
 -1       789 0.00000E+00
 -1       798 0.00000E+00
 -1       800 0.00000E+00
 -1       801 0.00000E+00
 -1       803 0.00000E+00
 -1       812 0.00000E+00
 -1       814 0.00000E+00
 -1       815 0.00000E+00
 -1       817 0.00000E+00
 -1       826 0.00000E+00
 -1       828 0.00000E+00
 -1       829 0.00000E+00
 -1       831 0.00000E+00
 -1       840 0.00000E+00
 -1       842 0.00000E+00
 -1       843 0.00000E+00
 -1       845 0.00000E+00
 -1       854 0.00000E+00
 -1       856 0.00000E+00
 -1       857 0.00000E+00
 -1       859 0.00000E+00
 -1       868 0.00000E+00
 -1       870 0.00000E+00
 -1       871 0.00000E+00
 -1       873 0.00000E+00
 -1       882 0.00000E+00
 -1       884 0.00000E+00
 -1       885 0.00000E+00
 -1       887 0.00000E+00
 -1       896 0.00000E+00
 -1       898 0.00000E+00
 -1       899 0.00000E+00
 -1       901 0.00000E+00
 -1       910 0.00000E+00
 -1       912 0.00000E+00
 -1       913 0.00000E+00
 -1       915 0.00000E+00
 -1       924 0.00000E+00
 -1       926 0.00000E+00
 -1       927 0.00000E+00
 -1       929 0.00000E+00
 -1       938 0.00000E+00
 -1       940 0.00000E+00
 -1       941 0.00000E+00
 -1       943 0.00000E+00
 -1       952 0.00000E+00
 -1       954 0.00000E+00
 -1       955 0.00000E+00
 -1       957 0.00000E+00
 -1       966 0.00000E+00
 -1       968 0.00000E+00
 -1       969 0.00000E+00
 -1       971 0.00000E+00
 -1       980 0.00000E+00
 -1       982 0.00000E+00
 -1       983 0.00000E+00
 -1       985 0.00000E+00
 -1       986 0.00000E+00
 -1       988 0.00000E+00
 -1       989 0.00000E+00
 -1       991 0.00000E+00
 -1       992 0.00000E+00
 -1       994 0.00000E+00
 -1       995 0.00000E+00
 -1       997 0.00000E+00
 -1       998 0.00000E+00
 -1      1000 0.00000E+00
 -1      1001 0.00000E+00
 -1      1003 0.00000E+00
 -1      1004 0.00000E+00
 -1      1006 0.00000E+00
 -1      1007 0.00000E+00
 -1      1009 0.00000E+00
 -1      1010 0.00000E+00
 -1      1012 0.00000E+00
 -1      1013 0.00000E+00
 -1      1015 0.00000E+00
 -1      1016 0.00000E+00
 -1      1018 0.00000E+00
 -1      1019 0.00000E+00
 -1      1021 0.00000E+00
 -1      1022 0.00000E+00
 -1      1024 0.00000E+00
 -1      1025 0.00000E+00
 -1      1027 0.00000E+00
 -1      1028 0.00000E+00
 -1      1030 0.00000E+00
 -1      1031 0.00000E+00
 -1      1033 0.00000E+00
 -1      1034 0.00000E+00
 -1      1036 0.00000E+00
 -1      1037 0.00000E+00
 -1      1039 0.00000E+00
 -1      1040 0.00000E+00
 -1      1042 0.00000E+00
 -1      1043 0.00000E+00
 -1      1045 0.00000E+00
 -1      1046 0.00000E+00
 -1      1048 0.00000E+00
 -1      1049 0.00000E+00
 -1      1051 0.00000E+00
 -1      1052 0.00000E+00
 -1      1054 0.00000E+00
 -1      1055 0.00000E+00
 -1      1057 0.00000E+00
 -1      1058 0.00000E+00
 -1      1060 0.00000E+00
 -1      1061 0.00000E+00
 -1      1063 0.00000E+00
 -1      1064 0.00000E+00
 -1      1066 0.00000E+00
 -1      1067 0.00000E+00
 -1      1069 0.00000E+00
 -1      1070 0.00000E+00
 -1      1072 0.00000E+00
 -1      1073 0.00000E+00
 -1      1075 0.00000E+00
 -1      1076 0.00000E+00
 -1      1078 0.00000E+00
 -1      1079 0.00000E+00
 -1      1081 0.00000E+00
 -1      1082 0.00000E+00
 -1      1084 0.00000E+00
 -1      1085 0.00000E+00
 -1      1087 0.00000E+00
 -1      1088 0.00000E+00
 -1      1090 0.00000E+00
 -1      1099 0.00000E+00
 -1      1101 0.00000E+00
 -1      1102 0.00000E+00
 -1      1104 0.00000E+00
 -1      1113 0.00000E+00
 -1      1115 0.00000E+00
 -1      1116 0.00000E+00
 -1      1118 0.00000E+00
 -1      1127 0.00000E+00
 -1      1129 0.00000E+00
 -1      1130 0.00000E+00
 -1      1132 0.00000E+00
 -1      1141 0.00000E+00
 -1      1143 0.00000E+00
 -1      1144 0.00000E+00
 -1      1146 0.00000E+00
 -1      1155 0.00000E+00
 -1      1157 0.00000E+00
 -1      1158 0.00000E+00
 -1      1160 0.00000E+00
 -1      1169 0.00000E+00
 -1      1171 0.00000E+00
 -1      1172 0.00000E+00
 -1      1174 0.00000E+00
 -1      1183 0.00000E+00
 -1      1185 0.00000E+00
 -1      1186 0.00000E+00
 -1      1188 0.00000E+00
 -1      1197 0.00000E+00
 -1      1199 0.00000E+00
 -1      1200 0.00000E+00
 -1      1202 0.00000E+00
 -1      1211 0.00000E+00
 -1      1213 0.00000E+00
 -1      1214 0.00000E+00
 -1      1216 0.00000E+00
 -1      1225 0.00000E+00
 -1      1227 0.00000E+00
 -1      1228 0.00000E+00
 -1      1230 0.00000E+00
 -1      1239 0.00000E+00
 -1      1241 0.00000E+00
 -1      1242 0.00000E+00
 -1      1244 0.00000E+00
 -1      1253 0.00000E+00
 -1      1255 0.00000E+00
 -1      1256 0.00000E+00
 -1      1258 0.00000E+00
 -1      1267 0.00000E+00
 -1      1269 0.00000E+00
 -1      1270 0.00000E+00
 -1      1272 0.00000E+00
 -1      1281 0.00000E+00
 -1      1283 0.00000E+00
 -1      1284 0.00000E+00
 -1      1286 0.00000E+00
 -1      1295 0.00000E+00
 -1      1297 0.00000E+00
 -1      1298 0.00000E+00
 -1      1300 0.00000E+00
 -1      1309 0.00000E+00
 -1      1311 0.00000E+00
 -1      1312 0.00000E+00
 -1      1314 0.00000E+00
 -1      1323 0.00000E+00
 -1      1325 0.00000E+00
 -1      1326 0.00000E+00
 -1      1328 0.00000E+00
 -1      1337 0.00000E+00
 -1      1339 0.00000E+00
 -1      1340 0.00000E+00
 -1      1342 0.00000E+00
 -1      1351 0.00000E+00
 -1      1353 0.00000E+00
 -1      1354 0.00000E+00
 -1      1356 0.00000E+00
 -1      1365 0.00000E+00
 -1      1367 0.00000E+00
 -1      1368 0.00000E+00
 -1      1370 0.00000E+00
 -1      1379 0.00000E+00
 -1      1381 0.00000E+00
 -1      1382 0.00000E+00
 -1      1384 0.00000E+00
 -1      1393 0.00000E+00
 -1      1395 0.00000E+00
 -1      1396 0.00000E+00
 -1      1398 0.00000E+00
 -1      1407 0.00000E+00
 -1      1409 0.00000E+00
 -1      1410 0.00000E+00
 -1      1412 0.00000E+00
 -1      1421 0.00000E+00
 -1      1423 0.00000E+00
 -1      1424 0.00000E+00
 -1      1426 0.00000E+00
 -1      1435 0.00000E+00
 -1      1437 0.00000E+00
 -1      1438 0.00000E+00
 -1      1440 0.00000E+00
 -1      1449 0.00000E+00
 -1      1451 0.00000E+00
 -1      1452 0.00000E+00
 -1      1454 0.00000E+00
 -1      1463 0.00000E+00
 -1      1465 0.00000E+00
 -1      1466 0.00000E+00
 -1      1468 0.00000E+00
 -1      1477 0.00000E+00
 -1      1479 0.00000E+00
 -1      1480 0.00000E+00
 -1      1482 0.00000E+00
 -1      1491 0.00000E+00
 -1      1493 0.00000E+00
 -1      1494 0.00000E+00
 -1      1496 0.00000E+00
 -1      1497 0.00000E+00
 -1      1499 0.00000E+00
 -1      1500 0.00000E+00
 -1      1502 0.00000E+00
 -1      1503 0.00000E+00
 -1      1505 0.00000E+00
 -1      1506 0.00000E+00
 -1      1508 0.00000E+00
 -1      1509 0.00000E+00
 -1      1511 0.00000E+00
 -1      1512 0.00000E+00
 -1      1514 0.00000E+00
 -1      1515 0.00000E+00
 -1      1517 0.00000E+00
 -1      1518 0.00000E+00
 -1      1520 0.00000E+00
 -1      1521 0.00000E+00
 -1      1523 0.00000E+00
 -1      1524 0.00000E+00
 -1      1526 0.00000E+00
 -1      1527 0.00000E+00
 -1      1529 0.00000E+00
 -1      1530 0.00000E+00
 -1      1532 0.00000E+00
 -1      1533 0.00000E+00
 -1      1535 0.00000E+00
 -1      1536 0.00000E+00
 -1      1538 0.00000E+00
 -1      1539 0.00000E+00
 -1      1541 0.00000E+00
 -1      1542 0.00000E+00
 -1      1544 0.00000E+00
 -1      1545 0.00000E+00
 -1      1547 0.00000E+00
 -1      1548 0.00000E+00
 -1      1550 0.00000E+00
 -1      1551 0.00000E+00
 -1      1553 0.00000E+00
 -1      1554 0.00000E+00
 -1      1556 0.00000E+00
 -1      1557 0.00000E+00
 -1      1559 0.00000E+00
 -1      1560 0.00000E+00
 -1      1562 0.00000E+00
 -1      1563 0.00000E+00
 -1      1565 0.00000E+00
 -1      1566 0.00000E+00
 -1      1568 0.00000E+00
 -1      1569 0.00000E+00
 -1      1571 0.00000E+00
 -1      1572 0.00000E+00
 -1      1574 0.00000E+00
 -1      1575 0.00000E+00
 -1      1577 0.00000E+00
 -1      1578 0.00000E+00
 -1      1580 0.00000E+00
 -1      1581 0.00000E+00
 -1      1583 0.00000E+00
 -1      1584 0.00000E+00
 -1      1586 0.00000E+00
 -1      1587 0.00000E+00
 -1      1589 0.00000E+00
 -1      1590 0.00000E+00
 -1      1592 0.00000E+00
 -1      1593 0.00000E+00
 -1      1595 0.00000E+00
 -1      1596 0.00000E+00
 -1      1598 0.00000E+00
 -1      1599 0.00000E+00
 -1      1601 0.00000E+00
 -1      1602 0.00000E+00
 -1      1604 0.00000E+00
 -1      1605 0.00000E+00
 -1      1607 0.00000E+00
 -1      1608 0.00000E+00
 -1      1610 0.00000E+00
 -1      1611 0.00000E+00
 -1      1613 0.00000E+00
 -1      1614 0.00000E+00
 -1      1616 0.00000E+00
 -1      1617 0.00000E+00
 -1      1619 0.00000E+00
 -1      1620 0.00000E+00
 -1      1622 0.00000E+00
 -1      1623 0.00000E+00
 -1      1625 0.00000E+00
 -1      1626 0.00000E+00
 -1      1628 0.00000E+00
 -1      1629 0.00000E+00
 -1      1631 0.00000E+00
 -1      1632 0.00000E+00
 -1      1634 0.00000E+00
 -1      1635 0.00000E+00
 -1      1637 0.00000E+00
 -1      1638 0.00000E+00
 -1      1640 0.00000E+00
 -1      1641 0.00000E+00
 -1      1643 0.00000E+00
 -1      1644 0.00000E+00
 -1      1646 0.00000E+00
 -1      1647 0.00000E+00
 -1      1649 0.00000E+00
 -1      1650 0.00000E+00
 -1      1652 0.00000E+00
 -1      1653 0.00000E+00
 -1      1655 0.00000E+00
 -1      1656 0.00000E+00
 -1      1658 0.00000E+00
 -1      1659 0.00000E+00
 -1      1661 0.00000E+00
 -1      1662 0.00000E+00
 -1      1664 0.00000E+00
 -1      1665 0.00000E+00
 -1      1667 0.00000E+00
 -1      1668 0.00000E+00
 -1      1670 0.00000E+00
 -1      1671 0.00000E+00
 -1      1673 0.00000E+00
 -1      1674 0.00000E+00
 -1      1676 0.00000E+00
 -1      1677 0.00000E+00
 -1      1679 0.00000E+00
 -1      1680 0.00000E+00
 -1      1682 0.00000E+00
 -1      1683 0.00000E+00
 -1      1685 0.00000E+00
 -1      1686 0.00000E+00
 -1      1688 0.00000E+00
 -1      1689 0.00000E+00
 -1      1691 0.00000E+00
 -1      1692 0.00000E+00
 -1      1694 0.00000E+00
 -1      1695 0.00000E+00
 -1      1697 0.00000E+00
 -1      1698 0.00000E+00
 -1      1700 0.00000E+00
 -1      1701 0.00000E+00
 -1      1703 0.00000E+00
 -1      1704 0.00000E+00
 -1      1706 0.00000E+00
 -1      1707 0.00000E+00
 -1      1709 0.00000E+00
 -1      1710 0.00000E+00
 -1      1712 0.00000E+00
 -1      1713 0.00000E+00
 -1      1715 0.00000E+00
 -1      1716 0.00000E+00
 -1      1718 0.00000E+00
 -1      1719 0.00000E+00
 -1      1721 0.00000E+00
 -1      1722 0.00000E+00
 -1      1724 0.00000E+00
 -1      1725 0.00000E+00
 -1      1727 0.00000E+00
 -1      1728 0.00000E+00
 -1      1730 0.00000E+00
 -1      1731 0.00000E+00
 -1      1733 0.00000E+00
 -1      1734 0.00000E+00
 -1      1736 0.00000E+00
 -1      1737 0.00000E+00
 -1      1739 0.00000E+00
 -1      1740 0.00000E+00
 -1      1742 0.00000E+00
 -1      1743 0.00000E+00
 -1      1745 0.00000E+00
 -1      1746 0.00000E+00
 -1      1748 0.00000E+00
 -1      1749 0.00000E+00
 -1      1751 0.00000E+00
 -1      1752 0.00000E+00
 -1      1754 0.00000E+00
 -1      1755 0.00000E+00
 -1      1757 0.00000E+00
 -1      1758 0.00000E+00
 -1      1760 0.00000E+00
 -1      1761 0.00000E+00
 -1      1763 0.00000E+00
 -1      1764 0.00000E+00
 -1      1766 0.00000E+00
 -1      1767 0.00000E+00
 -1      1769 0.00000E+00
 -1      1770 0.00000E+00
 -1      1772 0.00000E+00
 -1      1773 0.00000E+00
 -1      1775 0.00000E+00
 -1      1776 0.00000E+00
 -1      1778 0.00000E+00
 -1      1779 0.00000E+00
 -1      1781 0.00000E+00
 -1      1782 0.00000E+00
 -1      1784 0.00000E+00
 -1      1785 0.00000E+00
 -1      1787 0.00000E+00
 -1      1788 0.00000E+00
 -1      1790 0.00000E+00
 -1      1791 0.00000E+00
 -1      1793 0.00000E+00
 -1      1794 0.00000E+00
 -1      1796 0.00000E+00
 -1      1797 0.00000E+00
 -1      1799 0.00000E+00
 -1      1800 0.00000E+00
 -1      1802 0.00000E+00
 -1      1803 0.00000E+00
 -1      1805 0.00000E+00
 -1      1806 0.00000E+00
 -1      1808 0.00000E+00
 -1      1809 0.00000E+00
 -1      1811 0.00000E+00
 -1      1812 0.00000E+00
 -1      1814 0.00000E+00
 -1      1815 0.00000E+00
 -1      1817 0.00000E+00
 -1      1818 0.00000E+00
 -1      1820 0.00000E+00
 -1      1821 0.00000E+00
 -1      1823 0.00000E+00
 -1      1824 0.00000E+00
 -1      1826 0.00000E+00
 -1      1827 0.00000E+00
 -1      1829 0.00000E+00
 -1      1830 0.00000E+00
 -1      1832 0.00000E+00
 -1      1833 0.00000E+00
 -1      1835 0.00000E+00
 -1      1836 0.00000E+00
 -1      1838 0.00000E+00
 -1      1839 0.00000E+00
 -1      1841 0.00000E+00
 -1      1842 0.00000E+00
 -1      1844 0.00000E+00
 -1      1845 0.00000E+00
 -1      1847 0.00000E+00
 -1      1848 0.00000E+00
 -1      1850 0.00000E+00
 -1      1851 0.00000E+00
 -1      1853 0.00000E+00
 -1      1854 0.00000E+00
 -1      1856 0.00000E+00
 -1      1857 0.00000E+00
 -1      1859 0.00000E+00
 -1      1860 0.00000E+00
 -1      1862 0.00000E+00
 -1      1863 0.00000E+00
 -1      1865 0.00000E+00
 -1      1866 0.00000E+00
 -1      1868 0.00000E+00
 -1      1869 0.00000E+00
 -1      1871 0.00000E+00
 -1      1872 0.00000E+00
 -1      1874 0.00000E+00
 -1      1875 0.00000E+00
 -1      1877 0.00000E+00
 -1      1878 0.00000E+00
 -1      1880 0.00000E+00
 -1      1881 0.00000E+00
 -1      1883 0.00000E+00
 -1      1884 0.00000E+00
 -1      1886 0.00000E+00
 -1      1887 0.00000E+00
 -1      1889 0.00000E+00
 -1      1890 0.00000E+00
 -1      1892 0.00000E+00
 -1      1893 0.00000E+00
 -1      1895 0.00000E+00
 -1      1896 0.00000E+00
 -1      1898 0.00000E+00
 -1      1899 0.00000E+00
 -1      1901 0.00000E+00
 -1      1902 0.00000E+00
 -1      1904 0.00000E+00
 -1      1905 0.00000E+00
 -1      1907 0.00000E+00
 -1      1908 0.00000E+00
 -1      1910 0.00000E+00
 -1      1911 0.00000E+00
 -1      1913 0.00000E+00
 -1      1914 0.00000E+00
 -1      1916 0.00000E+00
 -1      1917 0.00000E+00
 -1      1919 0.00000E+00
 -1      1920 0.00000E+00
 -1      1922 0.00000E+00
 -1      1923 0.00000E+00
 -1      1925 0.00000E+00
 -1      1926 0.00000E+00
 -1      1928 0.00000E+00
 -1      1929 0.00000E+00
 -1      1931 0.00000E+00
 -1      1932 0.00000E+00
 -1      1934 0.00000E+00
 -1      1935 0.00000E+00
 -1      1937 0.00000E+00
 -1      1938 0.00000E+00
 -1      1940 0.00000E+00
 -1      1941 0.00000E+00
 -1      1943 0.00000E+00
 -1      1944 0.00000E+00
 -1      1946 0.00000E+00
 -1      1947 0.00000E+00
 -1      1949 0.00000E+00
 -1      1950 0.00000E+00
 -1      1952 0.00000E+00
 -1      1953 0.00000E+00
 -1      1955 0.00000E+00
 -1      1956 0.00000E+00
 -1      1958 0.00000E+00
 -1      1959 0.00000E+00
 -1      1961 0.00000E+00
 -1      1962 0.00000E+00
 -1      1964 0.00000E+00
 -1      1965 0.00000E+00
 -1      1967 0.00000E+00
 -1      1968 0.00000E+00
 -1      1970 0.00000E+00
 -1      1971 0.00000E+00
 -1      1973 0.00000E+00
 -1      1974 0.00000E+00
 -1      1976 0.00000E+00
 -1      1977 0.00000E+00
 -1      1979 0.00000E+00
 -1      1980 0.00000E+00
 -1      1982 0.00000E+00
 -1      1983 0.00000E+00
 -1      1985 0.00000E+00
 -1      1986 0.00000E+00
 -1      1988 0.00000E+00
 -1      1989 0.00000E+00
 -1      1991 0.00000E+00
 -1      1992 0.00000E+00
 -1      1994 0.00000E+00
 -1      1995 0.00000E+00
 -1      1997 0.00000E+00
 -1      1998 0.00000E+00
 -1      2000 0.00000E+00
 -1      2001 0.00000E+00
 -1      2003 0.00000E+00
 -1      2004 0.00000E+00
 -1      2006 0.00000E+00
 -1      2007 0.00000E+00
 -1      2009 0.00000E+00
 -1      2010 0.00000E+00
 -1      2012 0.00000E+00
 -1      2013 0.00000E+00
 -1      2015 0.00000E+00
 -1      2016 0.00000E+00
 -1      2018 0.00000E+00
 -1      2019 0.00000E+00
 -1      2021 0.00000E+00
 -1      2022 0.00000E+00
 -1      2024 0.00000E+00
 -1      2025 0.00000E+00
 -1      2027 0.00000E+00
 -1      2028 0.00000E+00
 -1      2030 0.00000E+00
 -1      2031 0.00000E+00
 -1      2033 0.00000E+00
 -1      2034 0.00000E+00
 -1      2036 0.00000E+00
 -1      2037 0.00000E+00
 -1      2039 0.00000E+00
 -1      2040 0.00000E+00
 -1      2042 0.00000E+00
 -1      2043 0.00000E+00
 -1      2045 0.00000E+00
 -1      2046 0.00000E+00
 -1      2048 0.00000E+00
 -1      2049 0.00000E+00
 -1      2051 0.00000E+00
 -1      2052 0.00000E+00
 -1      2054 0.00000E+00
 -1      2055 0.00000E+00
 -1      2057 0.00000E+00
 -1      2058 0.00000E+00
 -1      2060 0.00000E+00
 -1      2061 0.00000E+00
 -1      2063 0.00000E+00
 -1      2064 0.00000E+00
 -1      2066 0.00000E+00
 -1      2067 0.00000E+00
 -1      2069 0.00000E+00
 -1      2070 0.00000E+00
 -1      2072 0.00000E+00
 -1      2073 0.00000E+00
 -1      2075 0.00000E+00
 -1      2076 0.00000E+00
 -1      2078 0.00000E+00
 -1      2079 0.00000E+00
 -1      2081 0.00000E+00
 -1      2082 0.00000E+00
 -1      2084 0.00000E+00
 -1      2085 0.00000E+00
 -1      2087 0.00000E+00
 -1      2088 0.00000E+00
 -1      2090 0.00000E+00
 -1      2091 0.00000E+00
 -1      2093 0.00000E+00
 -1      2094 0.00000E+00
 -1      2096 0.00000E+00
 -1      2097 0.00000E+00
 -1      2099 0.00000E+00
 -1      2100 0.00000E+00
 -1      2102 0.00000E+00
 -1      2103 0.00000E+00
 -1      2105 0.00000E+00
 -1      2106 0.00000E+00
 -1      2108 0.00000E+00
 -1      2109 0.00000E+00
 -1      2111 0.00000E+00
 -1      2112 0.00000E+00
 -1      2114 0.00000E+00
 -1      2115 0.00000E+00
 -1      2117 0.00000E+00
 -1      2118 0.00000E+00
 -1      2120 0.00000E+00
 -1      2121 0.00000E+00
 -1      2123 0.00000E+00
 -1      2124 0.00000E+00
 -1      2126 0.00000E+00
 -1      2127 0.00000E+00
 -1      2129 0.00000E+00
 -1      2130 0.00000E+00
 -1      2132 0.00000E+00
 -1      2133 0.00000E+00
 -1      2135 0.00000E+00
 -1      2136 0.00000E+00
 -1      2138 0.00000E+00
 -1      2139 0.00000E+00
 -1      2141 0.00000E+00
 -1      2142 0.00000E+00
 -1      2144 0.00000E+00
 -1      2145 0.00000E+00
 -1      2147 0.00000E+00
 -1      2148 0.00000E+00
 -1      2150 0.00000E+00
 -1      2151 0.00000E+00
 -1      2153 0.00000E+00
 -1      2154 0.00000E+00
 -1      2156 0.00000E+00
 -1      2157 0.00000E+00
 -1      2159 0.00000E+00
 -1      2160 0.00000E+00
 -1      2162 0.00000E+00
 -1      2163 0.00000E+00
 -1      2165 0.00000E+00
 -1      2166 0.00000E+00
 -1      2168 0.00000E+00
 -1      2169 0.00000E+00
 -1      2171 0.00000E+00
 -1      2172 0.00000E+00
 -1      2174 0.00000E+00
 -1      2175 0.00000E+00
 -1      2177 0.00000E+00
 -1      2178 0.00000E+00
 -1      2180 0.00000E+00
 -1      2181 0.00000E+00
 -1      2183 0.00000E+00
 -1      2184 0.00000E+00
 -1      2186 0.00000E+00
 -1      2187 0.00000E+00
 -1      2189 0.00000E+00
 -1      2190 0.00000E+00
 -1      2192 0.00000E+00
 -1      2193 0.00000E+00
 -1      2195 0.00000E+00
 -1      2196 0.00000E+00
 -1      2198 0.00000E+00
 -1      2199 0.00000E+00
 -1      2201 0.00000E+00
 -1      2202 0.00000E+00
 -1      2204 0.00000E+00
 -1      2205 0.00000E+00
 -1      2207 0.00000E+00
 -1      2208 0.00000E+00
 -1      2210 0.00000E+00
 -1      2211 0.00000E+00
 -1      2213 0.00000E+00
 -1      2214 0.00000E+00
 -1      2216 0.00000E+00
 -1      2217 0.00000E+00
 -1      2219 0.00000E+00
 -1      2220 0.00000E+00
 -1      2222 0.00000E+00
 -1      2223 0.00000E+00
 -1      2225 0.00000E+00
 -1      2226 0.00000E+00
 -1      2228 0.00000E+00
 -1      2229 0.00000E+00
 -1      2231 0.00000E+00
 -1      2232 0.00000E+00
 -1      2234 0.00000E+00
 -1      2235 0.00000E+00
 -1      2237 0.00000E+00
 -1      2238 0.00000E+00
 -1      2240 0.00000E+00
 -1      2241 0.00000E+00
 -1      2243 0.00000E+00
 -1      2244 0.00000E+00
 -1      2246 0.00000E+00
 -1      2247 0.00000E+00
 -1      2249 0.00000E+00
 -1      2250 0.00000E+00
 -1      2252 0.00000E+00
 -1      2253 0.00000E+00
 -1      2255 0.00000E+00
 -1      2256 0.00000E+00
 -1      2258 0.00000E+00
 -1      2259 0.00000E+00
 -1      2261 0.00000E+00
 -1      2262 0.00000E+00
 -1      2264 0.00000E+00
 -1      2265 0.00000E+00
 -1      2267 0.00000E+00
 -1      2268 0.00000E+00
 -1      2270 0.00000E+00
 -1      2271 0.00000E+00
 -1      2273 0.00000E+00
 -1      2274 0.00000E+00
 -1      2276 0.00000E+00
 -1      2277 0.00000E+00
 -1      2279 0.00000E+00
 -1      2280 0.00000E+00
 -1      2282 0.00000E+00
 -1      2283 0.00000E+00
 -1      2285 0.00000E+00
 -1      2286 0.00000E+00
 -1      2288 0.00000E+00
 -1      2289 0.00000E+00
 -1      2291 0.00000E+00
 -1      2292 0.00000E+00
 -1      2294 0.00000E+00
 -3
 9999
