    1C
    1UUSER                                                              
    1UDATE              17.october.2022                                 
    1UTIME              08:48:40                                        
    1UHOST                                                              
    1UPGM               CalculiX                                        
    1UVERSION           Version 2.20                             
    1UCOMPILETIME       Fri Jul 29 19:13:05 CEST 2022                    
    1UDIR                                                               
    1UDBN                                                               
    1UMAT    1S420                                                      
    2C                           930                                     1
 -1         1 0.00000E+00 4.95700E-01 3.13500E-01
 -1         2 0.00000E+00 5.04300E-01 3.13500E-01
 -1         3 3.00000E+00 4.95700E-01 3.13500E-01
 -1         4 3.00000E+00 5.04300E-01 3.13500E-01
 -1         5 0.00000E+00 4.95700E-01 6.86500E-01
 -1         6 0.00000E+00 5.04300E-01 6.86500E-01
 -1         7 3.00000E+00 4.95700E-01 6.86500E-01
 -1         8 3.00000E+00 5.04300E-01 6.86500E-01
 -1         9 0.00000E+00 4.95700E-01 3.00000E-01
 -1        10 3.00000E+00 4.95700E-01 3.00000E-01
 -1        11 0.00000E+00 4.10000E-01 3.00000E-01
 -1        12 0.00000E+00 4.10000E-01 3.13500E-01
 -1        13 3.00000E+00 4.10000E-01 3.00000E-01
 -1        14 3.00000E+00 4.10000E-01 3.13500E-01
 -1        15 0.00000E+00 4.95700E-01 7.00000E-01
 -1        16 3.00000E+00 4.95700E-01 7.00000E-01
 -1        17 0.00000E+00 4.10000E-01 6.86500E-01
 -1        18 0.00000E+00 4.10000E-01 7.00000E-01
 -1        19 3.00000E+00 4.10000E-01 6.86500E-01
 -1        20 3.00000E+00 4.10000E-01 7.00000E-01
 -1        21 0.00000E+00 5.90000E-01 3.13500E-01
 -1        22 0.00000E+00 5.90000E-01 3.00000E-01
 -1        23 3.00000E+00 5.90000E-01 3.00000E-01
 -1        24 3.00000E+00 5.90000E-01 3.13500E-01
 -1        25 0.00000E+00 5.04300E-01 3.00000E-01
 -1        26 3.00000E+00 5.04300E-01 3.00000E-01
 -1        27 0.00000E+00 5.04300E-01 7.00000E-01
 -1        28 0.00000E+00 5.90000E-01 7.00000E-01
 -1        29 0.00000E+00 5.90000E-01 6.86500E-01
 -1        30 3.00000E+00 5.04300E-01 7.00000E-01
 -1        31 3.00000E+00 5.90000E-01 7.00000E-01
 -1        32 3.00000E+00 5.90000E-01 6.86500E-01
 -1        33 1.00000E-01 5.04300E-01 3.13500E-01
 -1        34 2.00000E-01 5.04300E-01 3.13500E-01
 -1        35 3.00000E-01 5.04300E-01 3.13500E-01
 -1        36 4.00000E-01 5.04300E-01 3.13500E-01
 -1        37 5.00000E-01 5.04300E-01 3.13500E-01
 -1        38 6.00000E-01 5.04300E-01 3.13500E-01
 -1        39 7.00000E-01 5.04300E-01 3.13500E-01
 -1        40 8.00000E-01 5.04300E-01 3.13500E-01
 -1        41 9.00000E-01 5.04300E-01 3.13500E-01
 -1        42 1.00000E+00 5.04300E-01 3.13500E-01
 -1        43 1.10000E+00 5.04300E-01 3.13500E-01
 -1        44 1.20000E+00 5.04300E-01 3.13500E-01
 -1        45 1.30000E+00 5.04300E-01 3.13500E-01
 -1        46 1.40000E+00 5.04300E-01 3.13500E-01
 -1        47 1.50000E+00 5.04300E-01 3.13500E-01
 -1        48 1.60000E+00 5.04300E-01 3.13500E-01
 -1        49 1.70000E+00 5.04300E-01 3.13500E-01
 -1        50 1.80000E+00 5.04300E-01 3.13500E-01
 -1        51 1.90000E+00 5.04300E-01 3.13500E-01
 -1        52 2.00000E+00 5.04300E-01 3.13500E-01
 -1        53 2.10000E+00 5.04300E-01 3.13500E-01
 -1        54 2.20000E+00 5.04300E-01 3.13500E-01
 -1        55 2.30000E+00 5.04300E-01 3.13500E-01
 -1        56 2.40000E+00 5.04300E-01 3.13500E-01
 -1        57 2.50000E+00 5.04300E-01 3.13500E-01
 -1        58 2.60000E+00 5.04300E-01 3.13500E-01
 -1        59 2.70000E+00 5.04300E-01 3.13500E-01
 -1        60 2.80000E+00 5.04300E-01 3.13500E-01
 -1        61 2.90000E+00 5.04300E-01 3.13500E-01
 -1        62 1.00000E-01 4.95700E-01 3.13500E-01
 -1        63 2.00000E-01 4.95700E-01 3.13500E-01
 -1        64 3.00000E-01 4.95700E-01 3.13500E-01
 -1        65 4.00000E-01 4.95700E-01 3.13500E-01
 -1        66 5.00000E-01 4.95700E-01 3.13500E-01
 -1        67 6.00000E-01 4.95700E-01 3.13500E-01
 -1        68 7.00000E-01 4.95700E-01 3.13500E-01
 -1        69 8.00000E-01 4.95700E-01 3.13500E-01
 -1        70 9.00000E-01 4.95700E-01 3.13500E-01
 -1        71 1.00000E+00 4.95700E-01 3.13500E-01
 -1        72 1.10000E+00 4.95700E-01 3.13500E-01
 -1        73 1.20000E+00 4.95700E-01 3.13500E-01
 -1        74 1.30000E+00 4.95700E-01 3.13500E-01
 -1        75 1.40000E+00 4.95700E-01 3.13500E-01
 -1        76 1.50000E+00 4.95700E-01 3.13500E-01
 -1        77 1.60000E+00 4.95700E-01 3.13500E-01
 -1        78 1.70000E+00 4.95700E-01 3.13500E-01
 -1        79 1.80000E+00 4.95700E-01 3.13500E-01
 -1        80 1.90000E+00 4.95700E-01 3.13500E-01
 -1        81 2.00000E+00 4.95700E-01 3.13500E-01
 -1        82 2.10000E+00 4.95700E-01 3.13500E-01
 -1        83 2.20000E+00 4.95700E-01 3.13500E-01
 -1        84 2.30000E+00 4.95700E-01 3.13500E-01
 -1        85 2.40000E+00 4.95700E-01 3.13500E-01
 -1        86 2.50000E+00 4.95700E-01 3.13500E-01
 -1        87 2.60000E+00 4.95700E-01 3.13500E-01
 -1        88 2.70000E+00 4.95700E-01 3.13500E-01
 -1        89 2.80000E+00 4.95700E-01 3.13500E-01
 -1        90 2.90000E+00 4.95700E-01 3.13500E-01
 -1        91 0.00000E+00 4.95700E-01 4.06750E-01
 -1        92 0.00000E+00 4.95700E-01 5.00000E-01
 -1        93 0.00000E+00 4.95700E-01 5.93250E-01
 -1        94 0.00000E+00 5.04300E-01 5.93250E-01
 -1        95 0.00000E+00 5.04300E-01 5.00000E-01
 -1        96 0.00000E+00 5.04300E-01 4.06750E-01
 -1        97 1.00000E-01 4.95700E-01 6.86500E-01
 -1        98 2.00000E-01 4.95700E-01 6.86500E-01
 -1        99 3.00000E-01 4.95700E-01 6.86500E-01
 -1       100 4.00000E-01 4.95700E-01 6.86500E-01
 -1       101 5.00000E-01 4.95700E-01 6.86500E-01
 -1       102 6.00000E-01 4.95700E-01 6.86500E-01
 -1       103 7.00000E-01 4.95700E-01 6.86500E-01
 -1       104 8.00000E-01 4.95700E-01 6.86500E-01
 -1       105 9.00000E-01 4.95700E-01 6.86500E-01
 -1       106 1.00000E+00 4.95700E-01 6.86500E-01
 -1       107 1.10000E+00 4.95700E-01 6.86500E-01
 -1       108 1.20000E+00 4.95700E-01 6.86500E-01
 -1       109 1.30000E+00 4.95700E-01 6.86500E-01
 -1       110 1.40000E+00 4.95700E-01 6.86500E-01
 -1       111 1.50000E+00 4.95700E-01 6.86500E-01
 -1       112 1.60000E+00 4.95700E-01 6.86500E-01
 -1       113 1.70000E+00 4.95700E-01 6.86500E-01
 -1       114 1.80000E+00 4.95700E-01 6.86500E-01
 -1       115 1.90000E+00 4.95700E-01 6.86500E-01
 -1       116 2.00000E+00 4.95700E-01 6.86500E-01
 -1       117 2.10000E+00 4.95700E-01 6.86500E-01
 -1       118 2.20000E+00 4.95700E-01 6.86500E-01
 -1       119 2.30000E+00 4.95700E-01 6.86500E-01
 -1       120 2.40000E+00 4.95700E-01 6.86500E-01
 -1       121 2.50000E+00 4.95700E-01 6.86500E-01
 -1       122 2.60000E+00 4.95700E-01 6.86500E-01
 -1       123 2.70000E+00 4.95700E-01 6.86500E-01
 -1       124 2.80000E+00 4.95700E-01 6.86500E-01
 -1       125 2.90000E+00 4.95700E-01 6.86500E-01
 -1       126 3.00000E+00 4.95700E-01 4.06750E-01
 -1       127 3.00000E+00 4.95700E-01 5.00000E-01
 -1       128 3.00000E+00 4.95700E-01 5.93250E-01
 -1       129 1.00000E-01 5.04300E-01 6.86500E-01
 -1       130 2.00000E-01 5.04300E-01 6.86500E-01
 -1       131 3.00000E-01 5.04300E-01 6.86500E-01
 -1       132 4.00000E-01 5.04300E-01 6.86500E-01
 -1       133 5.00000E-01 5.04300E-01 6.86500E-01
 -1       134 6.00000E-01 5.04300E-01 6.86500E-01
 -1       135 7.00000E-01 5.04300E-01 6.86500E-01
 -1       136 8.00000E-01 5.04300E-01 6.86500E-01
 -1       137 9.00000E-01 5.04300E-01 6.86500E-01
 -1       138 1.00000E+00 5.04300E-01 6.86500E-01
 -1       139 1.10000E+00 5.04300E-01 6.86500E-01
 -1       140 1.20000E+00 5.04300E-01 6.86500E-01
 -1       141 1.30000E+00 5.04300E-01 6.86500E-01
 -1       142 1.40000E+00 5.04300E-01 6.86500E-01
 -1       143 1.50000E+00 5.04300E-01 6.86500E-01
 -1       144 1.60000E+00 5.04300E-01 6.86500E-01
 -1       145 1.70000E+00 5.04300E-01 6.86500E-01
 -1       146 1.80000E+00 5.04300E-01 6.86500E-01
 -1       147 1.90000E+00 5.04300E-01 6.86500E-01
 -1       148 2.00000E+00 5.04300E-01 6.86500E-01
 -1       149 2.10000E+00 5.04300E-01 6.86500E-01
 -1       150 2.20000E+00 5.04300E-01 6.86500E-01
 -1       151 2.30000E+00 5.04300E-01 6.86500E-01
 -1       152 2.40000E+00 5.04300E-01 6.86500E-01
 -1       153 2.50000E+00 5.04300E-01 6.86500E-01
 -1       154 2.60000E+00 5.04300E-01 6.86500E-01
 -1       155 2.70000E+00 5.04300E-01 6.86500E-01
 -1       156 2.80000E+00 5.04300E-01 6.86500E-01
 -1       157 2.90000E+00 5.04300E-01 6.86500E-01
 -1       158 3.00000E+00 5.04300E-01 5.93250E-01
 -1       159 3.00000E+00 5.04300E-01 5.00000E-01
 -1       160 3.00000E+00 5.04300E-01 4.06750E-01
 -1       161 1.00000E-01 4.95700E-01 3.00000E-01
 -1       162 2.00000E-01 4.95700E-01 3.00000E-01
 -1       163 3.00000E-01 4.95700E-01 3.00000E-01
 -1       164 4.00000E-01 4.95700E-01 3.00000E-01
 -1       165 5.00000E-01 4.95700E-01 3.00000E-01
 -1       166 6.00000E-01 4.95700E-01 3.00000E-01
 -1       167 7.00000E-01 4.95700E-01 3.00000E-01
 -1       168 8.00000E-01 4.95700E-01 3.00000E-01
 -1       169 9.00000E-01 4.95700E-01 3.00000E-01
 -1       170 1.00000E+00 4.95700E-01 3.00000E-01
 -1       171 1.10000E+00 4.95700E-01 3.00000E-01
 -1       172 1.20000E+00 4.95700E-01 3.00000E-01
 -1       173 1.30000E+00 4.95700E-01 3.00000E-01
 -1       174 1.40000E+00 4.95700E-01 3.00000E-01
 -1       175 1.50000E+00 4.95700E-01 3.00000E-01
 -1       176 1.60000E+00 4.95700E-01 3.00000E-01
 -1       177 1.70000E+00 4.95700E-01 3.00000E-01
 -1       178 1.80000E+00 4.95700E-01 3.00000E-01
 -1       179 1.90000E+00 4.95700E-01 3.00000E-01
 -1       180 2.00000E+00 4.95700E-01 3.00000E-01
 -1       181 2.10000E+00 4.95700E-01 3.00000E-01
 -1       182 2.20000E+00 4.95700E-01 3.00000E-01
 -1       183 2.30000E+00 4.95700E-01 3.00000E-01
 -1       184 2.40000E+00 4.95700E-01 3.00000E-01
 -1       185 2.50000E+00 4.95700E-01 3.00000E-01
 -1       186 2.60000E+00 4.95700E-01 3.00000E-01
 -1       187 2.70000E+00 4.95700E-01 3.00000E-01
 -1       188 2.80000E+00 4.95700E-01 3.00000E-01
 -1       189 2.90000E+00 4.95700E-01 3.00000E-01
 -1       190 0.00000E+00 4.52850E-01 3.00000E-01
 -1       191 0.00000E+00 4.52850E-01 3.13500E-01
 -1       192 3.00000E+00 4.52850E-01 3.00000E-01
 -1       193 1.00000E-01 4.10000E-01 3.00000E-01
 -1       194 2.00000E-01 4.10000E-01 3.00000E-01
 -1       195 3.00000E-01 4.10000E-01 3.00000E-01
 -1       196 4.00000E-01 4.10000E-01 3.00000E-01
 -1       197 5.00000E-01 4.10000E-01 3.00000E-01
 -1       198 6.00000E-01 4.10000E-01 3.00000E-01
 -1       199 7.00000E-01 4.10000E-01 3.00000E-01
 -1       200 8.00000E-01 4.10000E-01 3.00000E-01
 -1       201 9.00000E-01 4.10000E-01 3.00000E-01
 -1       202 1.00000E+00 4.10000E-01 3.00000E-01
 -1       203 1.10000E+00 4.10000E-01 3.00000E-01
 -1       204 1.20000E+00 4.10000E-01 3.00000E-01
 -1       205 1.30000E+00 4.10000E-01 3.00000E-01
 -1       206 1.40000E+00 4.10000E-01 3.00000E-01
 -1       207 1.50000E+00 4.10000E-01 3.00000E-01
 -1       208 1.60000E+00 4.10000E-01 3.00000E-01
 -1       209 1.70000E+00 4.10000E-01 3.00000E-01
 -1       210 1.80000E+00 4.10000E-01 3.00000E-01
 -1       211 1.90000E+00 4.10000E-01 3.00000E-01
 -1       212 2.00000E+00 4.10000E-01 3.00000E-01
 -1       213 2.10000E+00 4.10000E-01 3.00000E-01
 -1       214 2.20000E+00 4.10000E-01 3.00000E-01
 -1       215 2.30000E+00 4.10000E-01 3.00000E-01
 -1       216 2.40000E+00 4.10000E-01 3.00000E-01
 -1       217 2.50000E+00 4.10000E-01 3.00000E-01
 -1       218 2.60000E+00 4.10000E-01 3.00000E-01
 -1       219 2.70000E+00 4.10000E-01 3.00000E-01
 -1       220 2.80000E+00 4.10000E-01 3.00000E-01
 -1       221 2.90000E+00 4.10000E-01 3.00000E-01
 -1       222 1.00000E-01 4.10000E-01 3.13500E-01
 -1       223 2.00000E-01 4.10000E-01 3.13500E-01
 -1       224 3.00000E-01 4.10000E-01 3.13500E-01
 -1       225 4.00000E-01 4.10000E-01 3.13500E-01
 -1       226 5.00000E-01 4.10000E-01 3.13500E-01
 -1       227 6.00000E-01 4.10000E-01 3.13500E-01
 -1       228 7.00000E-01 4.10000E-01 3.13500E-01
 -1       229 8.00000E-01 4.10000E-01 3.13500E-01
 -1       230 9.00000E-01 4.10000E-01 3.13500E-01
 -1       231 1.00000E+00 4.10000E-01 3.13500E-01
 -1       232 1.10000E+00 4.10000E-01 3.13500E-01
 -1       233 1.20000E+00 4.10000E-01 3.13500E-01
 -1       234 1.30000E+00 4.10000E-01 3.13500E-01
 -1       235 1.40000E+00 4.10000E-01 3.13500E-01
 -1       236 1.50000E+00 4.10000E-01 3.13500E-01
 -1       237 1.60000E+00 4.10000E-01 3.13500E-01
 -1       238 1.70000E+00 4.10000E-01 3.13500E-01
 -1       239 1.80000E+00 4.10000E-01 3.13500E-01
 -1       240 1.90000E+00 4.10000E-01 3.13500E-01
 -1       241 2.00000E+00 4.10000E-01 3.13500E-01
 -1       242 2.10000E+00 4.10000E-01 3.13500E-01
 -1       243 2.20000E+00 4.10000E-01 3.13500E-01
 -1       244 2.30000E+00 4.10000E-01 3.13500E-01
 -1       245 2.40000E+00 4.10000E-01 3.13500E-01
 -1       246 2.50000E+00 4.10000E-01 3.13500E-01
 -1       247 2.60000E+00 4.10000E-01 3.13500E-01
 -1       248 2.70000E+00 4.10000E-01 3.13500E-01
 -1       249 2.80000E+00 4.10000E-01 3.13500E-01
 -1       250 2.90000E+00 4.10000E-01 3.13500E-01
 -1       251 3.00000E+00 4.52850E-01 3.13500E-01
 -1       252 2.90000E+00 4.95700E-01 7.00000E-01
 -1       253 2.80000E+00 4.95700E-01 7.00000E-01
 -1       254 2.70000E+00 4.95700E-01 7.00000E-01
 -1       255 2.60000E+00 4.95700E-01 7.00000E-01
 -1       256 2.50000E+00 4.95700E-01 7.00000E-01
 -1       257 2.40000E+00 4.95700E-01 7.00000E-01
 -1       258 2.30000E+00 4.95700E-01 7.00000E-01
 -1       259 2.20000E+00 4.95700E-01 7.00000E-01
 -1       260 2.10000E+00 4.95700E-01 7.00000E-01
 -1       261 2.00000E+00 4.95700E-01 7.00000E-01
 -1       262 1.90000E+00 4.95700E-01 7.00000E-01
 -1       263 1.80000E+00 4.95700E-01 7.00000E-01
 -1       264 1.70000E+00 4.95700E-01 7.00000E-01
 -1       265 1.60000E+00 4.95700E-01 7.00000E-01
 -1       266 1.50000E+00 4.95700E-01 7.00000E-01
 -1       267 1.40000E+00 4.95700E-01 7.00000E-01
 -1       268 1.30000E+00 4.95700E-01 7.00000E-01
 -1       269 1.20000E+00 4.95700E-01 7.00000E-01
 -1       270 1.10000E+00 4.95700E-01 7.00000E-01
 -1       271 1.00000E+00 4.95700E-01 7.00000E-01
 -1       272 9.00000E-01 4.95700E-01 7.00000E-01
 -1       273 8.00000E-01 4.95700E-01 7.00000E-01
 -1       274 7.00000E-01 4.95700E-01 7.00000E-01
 -1       275 6.00000E-01 4.95700E-01 7.00000E-01
 -1       276 5.00000E-01 4.95700E-01 7.00000E-01
 -1       277 4.00000E-01 4.95700E-01 7.00000E-01
 -1       278 3.00000E-01 4.95700E-01 7.00000E-01
 -1       279 2.00000E-01 4.95700E-01 7.00000E-01
 -1       280 1.00000E-01 4.95700E-01 7.00000E-01
 -1       281 0.00000E+00 4.52850E-01 6.86500E-01
 -1       282 0.00000E+00 4.52850E-01 7.00000E-01
 -1       283 1.00000E-01 4.10000E-01 6.86500E-01
 -1       284 2.00000E-01 4.10000E-01 6.86500E-01
 -1       285 3.00000E-01 4.10000E-01 6.86500E-01
 -1       286 4.00000E-01 4.10000E-01 6.86500E-01
 -1       287 5.00000E-01 4.10000E-01 6.86500E-01
 -1       288 6.00000E-01 4.10000E-01 6.86500E-01
 -1       289 7.00000E-01 4.10000E-01 6.86500E-01
 -1       290 8.00000E-01 4.10000E-01 6.86500E-01
 -1       291 9.00000E-01 4.10000E-01 6.86500E-01
 -1       292 1.00000E+00 4.10000E-01 6.86500E-01
 -1       293 1.10000E+00 4.10000E-01 6.86500E-01
 -1       294 1.20000E+00 4.10000E-01 6.86500E-01
 -1       295 1.30000E+00 4.10000E-01 6.86500E-01
 -1       296 1.40000E+00 4.10000E-01 6.86500E-01
 -1       297 1.50000E+00 4.10000E-01 6.86500E-01
 -1       298 1.60000E+00 4.10000E-01 6.86500E-01
 -1       299 1.70000E+00 4.10000E-01 6.86500E-01
 -1       300 1.80000E+00 4.10000E-01 6.86500E-01
 -1       301 1.90000E+00 4.10000E-01 6.86500E-01
 -1       302 2.00000E+00 4.10000E-01 6.86500E-01
 -1       303 2.10000E+00 4.10000E-01 6.86500E-01
 -1       304 2.20000E+00 4.10000E-01 6.86500E-01
 -1       305 2.30000E+00 4.10000E-01 6.86500E-01
 -1       306 2.40000E+00 4.10000E-01 6.86500E-01
 -1       307 2.50000E+00 4.10000E-01 6.86500E-01
 -1       308 2.60000E+00 4.10000E-01 6.86500E-01
 -1       309 2.70000E+00 4.10000E-01 6.86500E-01
 -1       310 2.80000E+00 4.10000E-01 6.86500E-01
 -1       311 2.90000E+00 4.10000E-01 6.86500E-01
 -1       312 3.00000E+00 4.52850E-01 6.86500E-01
 -1       313 1.00000E-01 4.10000E-01 7.00000E-01
 -1       314 2.00000E-01 4.10000E-01 7.00000E-01
 -1       315 3.00000E-01 4.10000E-01 7.00000E-01
 -1       316 4.00000E-01 4.10000E-01 7.00000E-01
 -1       317 5.00000E-01 4.10000E-01 7.00000E-01
 -1       318 6.00000E-01 4.10000E-01 7.00000E-01
 -1       319 7.00000E-01 4.10000E-01 7.00000E-01
 -1       320 8.00000E-01 4.10000E-01 7.00000E-01
 -1       321 9.00000E-01 4.10000E-01 7.00000E-01
 -1       322 1.00000E+00 4.10000E-01 7.00000E-01
 -1       323 1.10000E+00 4.10000E-01 7.00000E-01
 -1       324 1.20000E+00 4.10000E-01 7.00000E-01
 -1       325 1.30000E+00 4.10000E-01 7.00000E-01
 -1       326 1.40000E+00 4.10000E-01 7.00000E-01
 -1       327 1.50000E+00 4.10000E-01 7.00000E-01
 -1       328 1.60000E+00 4.10000E-01 7.00000E-01
 -1       329 1.70000E+00 4.10000E-01 7.00000E-01
 -1       330 1.80000E+00 4.10000E-01 7.00000E-01
 -1       331 1.90000E+00 4.10000E-01 7.00000E-01
 -1       332 2.00000E+00 4.10000E-01 7.00000E-01
 -1       333 2.10000E+00 4.10000E-01 7.00000E-01
 -1       334 2.20000E+00 4.10000E-01 7.00000E-01
 -1       335 2.30000E+00 4.10000E-01 7.00000E-01
 -1       336 2.40000E+00 4.10000E-01 7.00000E-01
 -1       337 2.50000E+00 4.10000E-01 7.00000E-01
 -1       338 2.60000E+00 4.10000E-01 7.00000E-01
 -1       339 2.70000E+00 4.10000E-01 7.00000E-01
 -1       340 2.80000E+00 4.10000E-01 7.00000E-01
 -1       341 2.90000E+00 4.10000E-01 7.00000E-01
 -1       342 3.00000E+00 4.52850E-01 7.00000E-01
 -1       343 1.00000E-01 5.90000E-01 3.00000E-01
 -1       344 2.00000E-01 5.90000E-01 3.00000E-01
 -1       345 3.00000E-01 5.90000E-01 3.00000E-01
 -1       346 4.00000E-01 5.90000E-01 3.00000E-01
 -1       347 5.00000E-01 5.90000E-01 3.00000E-01
 -1       348 6.00000E-01 5.90000E-01 3.00000E-01
 -1       349 7.00000E-01 5.90000E-01 3.00000E-01
 -1       350 8.00000E-01 5.90000E-01 3.00000E-01
 -1       351 9.00000E-01 5.90000E-01 3.00000E-01
 -1       352 1.00000E+00 5.90000E-01 3.00000E-01
 -1       353 1.10000E+00 5.90000E-01 3.00000E-01
 -1       354 1.20000E+00 5.90000E-01 3.00000E-01
 -1       355 1.30000E+00 5.90000E-01 3.00000E-01
 -1       356 1.40000E+00 5.90000E-01 3.00000E-01
 -1       357 1.50000E+00 5.90000E-01 3.00000E-01
 -1       358 1.60000E+00 5.90000E-01 3.00000E-01
 -1       359 1.70000E+00 5.90000E-01 3.00000E-01
 -1       360 1.80000E+00 5.90000E-01 3.00000E-01
 -1       361 1.90000E+00 5.90000E-01 3.00000E-01
 -1       362 2.00000E+00 5.90000E-01 3.00000E-01
 -1       363 2.10000E+00 5.90000E-01 3.00000E-01
 -1       364 2.20000E+00 5.90000E-01 3.00000E-01
 -1       365 2.30000E+00 5.90000E-01 3.00000E-01
 -1       366 2.40000E+00 5.90000E-01 3.00000E-01
 -1       367 2.50000E+00 5.90000E-01 3.00000E-01
 -1       368 2.60000E+00 5.90000E-01 3.00000E-01
 -1       369 2.70000E+00 5.90000E-01 3.00000E-01
 -1       370 2.80000E+00 5.90000E-01 3.00000E-01
 -1       371 2.90000E+00 5.90000E-01 3.00000E-01
 -1       372 1.00000E-01 5.90000E-01 3.13500E-01
 -1       373 2.00000E-01 5.90000E-01 3.13500E-01
 -1       374 3.00000E-01 5.90000E-01 3.13500E-01
 -1       375 4.00000E-01 5.90000E-01 3.13500E-01
 -1       376 5.00000E-01 5.90000E-01 3.13500E-01
 -1       377 6.00000E-01 5.90000E-01 3.13500E-01
 -1       378 7.00000E-01 5.90000E-01 3.13500E-01
 -1       379 8.00000E-01 5.90000E-01 3.13500E-01
 -1       380 9.00000E-01 5.90000E-01 3.13500E-01
 -1       381 1.00000E+00 5.90000E-01 3.13500E-01
 -1       382 1.10000E+00 5.90000E-01 3.13500E-01
 -1       383 1.20000E+00 5.90000E-01 3.13500E-01
 -1       384 1.30000E+00 5.90000E-01 3.13500E-01
 -1       385 1.40000E+00 5.90000E-01 3.13500E-01
 -1       386 1.50000E+00 5.90000E-01 3.13500E-01
 -1       387 1.60000E+00 5.90000E-01 3.13500E-01
 -1       388 1.70000E+00 5.90000E-01 3.13500E-01
 -1       389 1.80000E+00 5.90000E-01 3.13500E-01
 -1       390 1.90000E+00 5.90000E-01 3.13500E-01
 -1       391 2.00000E+00 5.90000E-01 3.13500E-01
 -1       392 2.10000E+00 5.90000E-01 3.13500E-01
 -1       393 2.20000E+00 5.90000E-01 3.13500E-01
 -1       394 2.30000E+00 5.90000E-01 3.13500E-01
 -1       395 2.40000E+00 5.90000E-01 3.13500E-01
 -1       396 2.50000E+00 5.90000E-01 3.13500E-01
 -1       397 2.60000E+00 5.90000E-01 3.13500E-01
 -1       398 2.70000E+00 5.90000E-01 3.13500E-01
 -1       399 2.80000E+00 5.90000E-01 3.13500E-01
 -1       400 2.90000E+00 5.90000E-01 3.13500E-01
 -1       401 0.00000E+00 5.47150E-01 3.00000E-01
 -1       402 0.00000E+00 5.47150E-01 3.13500E-01
 -1       403 3.00000E+00 5.47150E-01 3.00000E-01
 -1       404 1.00000E-01 5.04300E-01 3.00000E-01
 -1       405 2.00000E-01 5.04300E-01 3.00000E-01
 -1       406 3.00000E-01 5.04300E-01 3.00000E-01
 -1       407 4.00000E-01 5.04300E-01 3.00000E-01
 -1       408 5.00000E-01 5.04300E-01 3.00000E-01
 -1       409 6.00000E-01 5.04300E-01 3.00000E-01
 -1       410 7.00000E-01 5.04300E-01 3.00000E-01
 -1       411 8.00000E-01 5.04300E-01 3.00000E-01
 -1       412 9.00000E-01 5.04300E-01 3.00000E-01
 -1       413 1.00000E+00 5.04300E-01 3.00000E-01
 -1       414 1.10000E+00 5.04300E-01 3.00000E-01
 -1       415 1.20000E+00 5.04300E-01 3.00000E-01
 -1       416 1.30000E+00 5.04300E-01 3.00000E-01
 -1       417 1.40000E+00 5.04300E-01 3.00000E-01
 -1       418 1.50000E+00 5.04300E-01 3.00000E-01
 -1       419 1.60000E+00 5.04300E-01 3.00000E-01
 -1       420 1.70000E+00 5.04300E-01 3.00000E-01
 -1       421 1.80000E+00 5.04300E-01 3.00000E-01
 -1       422 1.90000E+00 5.04300E-01 3.00000E-01
 -1       423 2.00000E+00 5.04300E-01 3.00000E-01
 -1       424 2.10000E+00 5.04300E-01 3.00000E-01
 -1       425 2.20000E+00 5.04300E-01 3.00000E-01
 -1       426 2.30000E+00 5.04300E-01 3.00000E-01
 -1       427 2.40000E+00 5.04300E-01 3.00000E-01
 -1       428 2.50000E+00 5.04300E-01 3.00000E-01
 -1       429 2.60000E+00 5.04300E-01 3.00000E-01
 -1       430 2.70000E+00 5.04300E-01 3.00000E-01
 -1       431 2.80000E+00 5.04300E-01 3.00000E-01
 -1       432 2.90000E+00 5.04300E-01 3.00000E-01
 -1       433 3.00000E+00 5.47150E-01 3.13500E-01
 -1       434 0.00000E+00 5.47150E-01 7.00000E-01
 -1       435 0.00000E+00 5.47150E-01 6.86500E-01
 -1       436 2.90000E+00 5.04300E-01 7.00000E-01
 -1       437 2.80000E+00 5.04300E-01 7.00000E-01
 -1       438 2.70000E+00 5.04300E-01 7.00000E-01
 -1       439 2.60000E+00 5.04300E-01 7.00000E-01
 -1       440 2.50000E+00 5.04300E-01 7.00000E-01
 -1       441 2.40000E+00 5.04300E-01 7.00000E-01
 -1       442 2.30000E+00 5.04300E-01 7.00000E-01
 -1       443 2.20000E+00 5.04300E-01 7.00000E-01
 -1       444 2.10000E+00 5.04300E-01 7.00000E-01
 -1       445 2.00000E+00 5.04300E-01 7.00000E-01
 -1       446 1.90000E+00 5.04300E-01 7.00000E-01
 -1       447 1.80000E+00 5.04300E-01 7.00000E-01
 -1       448 1.70000E+00 5.04300E-01 7.00000E-01
 -1       449 1.60000E+00 5.04300E-01 7.00000E-01
 -1       450 1.50000E+00 5.04300E-01 7.00000E-01
 -1       451 1.40000E+00 5.04300E-01 7.00000E-01
 -1       452 1.30000E+00 5.04300E-01 7.00000E-01
 -1       453 1.20000E+00 5.04300E-01 7.00000E-01
 -1       454 1.10000E+00 5.04300E-01 7.00000E-01
 -1       455 1.00000E+00 5.04300E-01 7.00000E-01
 -1       456 9.00000E-01 5.04300E-01 7.00000E-01
 -1       457 8.00000E-01 5.04300E-01 7.00000E-01
 -1       458 7.00000E-01 5.04300E-01 7.00000E-01
 -1       459 6.00000E-01 5.04300E-01 7.00000E-01
 -1       460 5.00000E-01 5.04300E-01 7.00000E-01
 -1       461 4.00000E-01 5.04300E-01 7.00000E-01
 -1       462 3.00000E-01 5.04300E-01 7.00000E-01
 -1       463 2.00000E-01 5.04300E-01 7.00000E-01
 -1       464 1.00000E-01 5.04300E-01 7.00000E-01
 -1       465 3.00000E+00 5.47150E-01 7.00000E-01
 -1       466 1.00000E-01 5.90000E-01 7.00000E-01
 -1       467 2.00000E-01 5.90000E-01 7.00000E-01
 -1       468 3.00000E-01 5.90000E-01 7.00000E-01
 -1       469 4.00000E-01 5.90000E-01 7.00000E-01
 -1       470 5.00000E-01 5.90000E-01 7.00000E-01
 -1       471 6.00000E-01 5.90000E-01 7.00000E-01
 -1       472 7.00000E-01 5.90000E-01 7.00000E-01
 -1       473 8.00000E-01 5.90000E-01 7.00000E-01
 -1       474 9.00000E-01 5.90000E-01 7.00000E-01
 -1       475 1.00000E+00 5.90000E-01 7.00000E-01
 -1       476 1.10000E+00 5.90000E-01 7.00000E-01
 -1       477 1.20000E+00 5.90000E-01 7.00000E-01
 -1       478 1.30000E+00 5.90000E-01 7.00000E-01
 -1       479 1.40000E+00 5.90000E-01 7.00000E-01
 -1       480 1.50000E+00 5.90000E-01 7.00000E-01
 -1       481 1.60000E+00 5.90000E-01 7.00000E-01
 -1       482 1.70000E+00 5.90000E-01 7.00000E-01
 -1       483 1.80000E+00 5.90000E-01 7.00000E-01
 -1       484 1.90000E+00 5.90000E-01 7.00000E-01
 -1       485 2.00000E+00 5.90000E-01 7.00000E-01
 -1       486 2.10000E+00 5.90000E-01 7.00000E-01
 -1       487 2.20000E+00 5.90000E-01 7.00000E-01
 -1       488 2.30000E+00 5.90000E-01 7.00000E-01
 -1       489 2.40000E+00 5.90000E-01 7.00000E-01
 -1       490 2.50000E+00 5.90000E-01 7.00000E-01
 -1       491 2.60000E+00 5.90000E-01 7.00000E-01
 -1       492 2.70000E+00 5.90000E-01 7.00000E-01
 -1       493 2.80000E+00 5.90000E-01 7.00000E-01
 -1       494 2.90000E+00 5.90000E-01 7.00000E-01
 -1       495 1.00000E-01 5.90000E-01 6.86500E-01
 -1       496 2.00000E-01 5.90000E-01 6.86500E-01
 -1       497 3.00000E-01 5.90000E-01 6.86500E-01
 -1       498 4.00000E-01 5.90000E-01 6.86500E-01
 -1       499 5.00000E-01 5.90000E-01 6.86500E-01
 -1       500 6.00000E-01 5.90000E-01 6.86500E-01
 -1       501 7.00000E-01 5.90000E-01 6.86500E-01
 -1       502 8.00000E-01 5.90000E-01 6.86500E-01
 -1       503 9.00000E-01 5.90000E-01 6.86500E-01
 -1       504 1.00000E+00 5.90000E-01 6.86500E-01
 -1       505 1.10000E+00 5.90000E-01 6.86500E-01
 -1       506 1.20000E+00 5.90000E-01 6.86500E-01
 -1       507 1.30000E+00 5.90000E-01 6.86500E-01
 -1       508 1.40000E+00 5.90000E-01 6.86500E-01
 -1       509 1.50000E+00 5.90000E-01 6.86500E-01
 -1       510 1.60000E+00 5.90000E-01 6.86500E-01
 -1       511 1.70000E+00 5.90000E-01 6.86500E-01
 -1       512 1.80000E+00 5.90000E-01 6.86500E-01
 -1       513 1.90000E+00 5.90000E-01 6.86500E-01
 -1       514 2.00000E+00 5.90000E-01 6.86500E-01
 -1       515 2.10000E+00 5.90000E-01 6.86500E-01
 -1       516 2.20000E+00 5.90000E-01 6.86500E-01
 -1       517 2.30000E+00 5.90000E-01 6.86500E-01
 -1       518 2.40000E+00 5.90000E-01 6.86500E-01
 -1       519 2.50000E+00 5.90000E-01 6.86500E-01
 -1       520 2.60000E+00 5.90000E-01 6.86500E-01
 -1       521 2.70000E+00 5.90000E-01 6.86500E-01
 -1       522 2.80000E+00 5.90000E-01 6.86500E-01
 -1       523 2.90000E+00 5.90000E-01 6.86500E-01
 -1       524 3.00000E+00 5.47150E-01 6.86500E-01
 -1       525 1.00000E-01 4.95700E-01 4.06750E-01
 -1       526 2.00000E-01 4.95700E-01 4.06750E-01
 -1       527 3.00000E-01 4.95700E-01 4.06750E-01
 -1       528 4.00000E-01 4.95700E-01 4.06750E-01
 -1       529 5.00000E-01 4.95700E-01 4.06750E-01
 -1       530 6.00000E-01 4.95700E-01 4.06750E-01
 -1       531 7.00000E-01 4.95700E-01 4.06750E-01
 -1       532 8.00000E-01 4.95700E-01 4.06750E-01
 -1       533 9.00000E-01 4.95700E-01 4.06750E-01
 -1       534 1.00000E+00 4.95700E-01 4.06750E-01
 -1       535 1.10000E+00 4.95700E-01 4.06750E-01
 -1       536 1.20000E+00 4.95700E-01 4.06750E-01
 -1       537 1.30000E+00 4.95700E-01 4.06750E-01
 -1       538 1.40000E+00 4.95700E-01 4.06750E-01
 -1       539 1.50000E+00 4.95700E-01 4.06750E-01
 -1       540 1.60000E+00 4.95700E-01 4.06750E-01
 -1       541 1.70000E+00 4.95700E-01 4.06750E-01
 -1       542 1.80000E+00 4.95700E-01 4.06750E-01
 -1       543 1.90000E+00 4.95700E-01 4.06750E-01
 -1       544 2.00000E+00 4.95700E-01 4.06750E-01
 -1       545 2.10000E+00 4.95700E-01 4.06750E-01
 -1       546 2.20000E+00 4.95700E-01 4.06750E-01
 -1       547 2.30000E+00 4.95700E-01 4.06750E-01
 -1       548 2.40000E+00 4.95700E-01 4.06750E-01
 -1       549 2.50000E+00 4.95700E-01 4.06750E-01
 -1       550 2.60000E+00 4.95700E-01 4.06750E-01
 -1       551 2.70000E+00 4.95700E-01 4.06750E-01
 -1       552 2.80000E+00 4.95700E-01 4.06750E-01
 -1       553 2.90000E+00 4.95700E-01 4.06750E-01
 -1       554 1.00000E-01 4.95700E-01 5.00000E-01
 -1       555 2.00000E-01 4.95700E-01 5.00000E-01
 -1       556 3.00000E-01 4.95700E-01 5.00000E-01
 -1       557 4.00000E-01 4.95700E-01 5.00000E-01
 -1       558 5.00000E-01 4.95700E-01 5.00000E-01
 -1       559 6.00000E-01 4.95700E-01 5.00000E-01
 -1       560 7.00000E-01 4.95700E-01 5.00000E-01
 -1       561 8.00000E-01 4.95700E-01 5.00000E-01
 -1       562 9.00000E-01 4.95700E-01 5.00000E-01
 -1       563 1.00000E+00 4.95700E-01 5.00000E-01
 -1       564 1.10000E+00 4.95700E-01 5.00000E-01
 -1       565 1.20000E+00 4.95700E-01 5.00000E-01
 -1       566 1.30000E+00 4.95700E-01 5.00000E-01
 -1       567 1.40000E+00 4.95700E-01 5.00000E-01
 -1       568 1.50000E+00 4.95700E-01 5.00000E-01
 -1       569 1.60000E+00 4.95700E-01 5.00000E-01
 -1       570 1.70000E+00 4.95700E-01 5.00000E-01
 -1       571 1.80000E+00 4.95700E-01 5.00000E-01
 -1       572 1.90000E+00 4.95700E-01 5.00000E-01
 -1       573 2.00000E+00 4.95700E-01 5.00000E-01
 -1       574 2.10000E+00 4.95700E-01 5.00000E-01
 -1       575 2.20000E+00 4.95700E-01 5.00000E-01
 -1       576 2.30000E+00 4.95700E-01 5.00000E-01
 -1       577 2.40000E+00 4.95700E-01 5.00000E-01
 -1       578 2.50000E+00 4.95700E-01 5.00000E-01
 -1       579 2.60000E+00 4.95700E-01 5.00000E-01
 -1       580 2.70000E+00 4.95700E-01 5.00000E-01
 -1       581 2.80000E+00 4.95700E-01 5.00000E-01
 -1       582 2.90000E+00 4.95700E-01 5.00000E-01
 -1       583 1.00000E-01 4.95700E-01 5.93250E-01
 -1       584 2.00000E-01 4.95700E-01 5.93250E-01
 -1       585 3.00000E-01 4.95700E-01 5.93250E-01
 -1       586 4.00000E-01 4.95700E-01 5.93250E-01
 -1       587 5.00000E-01 4.95700E-01 5.93250E-01
 -1       588 6.00000E-01 4.95700E-01 5.93250E-01
 -1       589 7.00000E-01 4.95700E-01 5.93250E-01
 -1       590 8.00000E-01 4.95700E-01 5.93250E-01
 -1       591 9.00000E-01 4.95700E-01 5.93250E-01
 -1       592 1.00000E+00 4.95700E-01 5.93250E-01
 -1       593 1.10000E+00 4.95700E-01 5.93250E-01
 -1       594 1.20000E+00 4.95700E-01 5.93250E-01
 -1       595 1.30000E+00 4.95700E-01 5.93250E-01
 -1       596 1.40000E+00 4.95700E-01 5.93250E-01
 -1       597 1.50000E+00 4.95700E-01 5.93250E-01
 -1       598 1.60000E+00 4.95700E-01 5.93250E-01
 -1       599 1.70000E+00 4.95700E-01 5.93250E-01
 -1       600 1.80000E+00 4.95700E-01 5.93250E-01
 -1       601 1.90000E+00 4.95700E-01 5.93250E-01
 -1       602 2.00000E+00 4.95700E-01 5.93250E-01
 -1       603 2.10000E+00 4.95700E-01 5.93250E-01
 -1       604 2.20000E+00 4.95700E-01 5.93250E-01
 -1       605 2.30000E+00 4.95700E-01 5.93250E-01
 -1       606 2.40000E+00 4.95700E-01 5.93250E-01
 -1       607 2.50000E+00 4.95700E-01 5.93250E-01
 -1       608 2.60000E+00 4.95700E-01 5.93250E-01
 -1       609 2.70000E+00 4.95700E-01 5.93250E-01
 -1       610 2.80000E+00 4.95700E-01 5.93250E-01
 -1       611 2.90000E+00 4.95700E-01 5.93250E-01
 -1       612 1.00000E-01 5.04300E-01 5.93250E-01
 -1       613 2.00000E-01 5.04300E-01 5.93250E-01
 -1       614 3.00000E-01 5.04300E-01 5.93250E-01
 -1       615 4.00000E-01 5.04300E-01 5.93250E-01
 -1       616 5.00000E-01 5.04300E-01 5.93250E-01
 -1       617 6.00000E-01 5.04300E-01 5.93250E-01
 -1       618 7.00000E-01 5.04300E-01 5.93250E-01
 -1       619 8.00000E-01 5.04300E-01 5.93250E-01
 -1       620 9.00000E-01 5.04300E-01 5.93250E-01
 -1       621 1.00000E+00 5.04300E-01 5.93250E-01
 -1       622 1.10000E+00 5.04300E-01 5.93250E-01
 -1       623 1.20000E+00 5.04300E-01 5.93250E-01
 -1       624 1.30000E+00 5.04300E-01 5.93250E-01
 -1       625 1.40000E+00 5.04300E-01 5.93250E-01
 -1       626 1.50000E+00 5.04300E-01 5.93250E-01
 -1       627 1.60000E+00 5.04300E-01 5.93250E-01
 -1       628 1.70000E+00 5.04300E-01 5.93250E-01
 -1       629 1.80000E+00 5.04300E-01 5.93250E-01
 -1       630 1.90000E+00 5.04300E-01 5.93250E-01
 -1       631 2.00000E+00 5.04300E-01 5.93250E-01
 -1       632 2.10000E+00 5.04300E-01 5.93250E-01
 -1       633 2.20000E+00 5.04300E-01 5.93250E-01
 -1       634 2.30000E+00 5.04300E-01 5.93250E-01
 -1       635 2.40000E+00 5.04300E-01 5.93250E-01
 -1       636 2.50000E+00 5.04300E-01 5.93250E-01
 -1       637 2.60000E+00 5.04300E-01 5.93250E-01
 -1       638 2.70000E+00 5.04300E-01 5.93250E-01
 -1       639 2.80000E+00 5.04300E-01 5.93250E-01
 -1       640 2.90000E+00 5.04300E-01 5.93250E-01
 -1       641 1.00000E-01 5.04300E-01 5.00000E-01
 -1       642 2.00000E-01 5.04300E-01 5.00000E-01
 -1       643 3.00000E-01 5.04300E-01 5.00000E-01
 -1       644 4.00000E-01 5.04300E-01 5.00000E-01
 -1       645 5.00000E-01 5.04300E-01 5.00000E-01
 -1       646 6.00000E-01 5.04300E-01 5.00000E-01
 -1       647 7.00000E-01 5.04300E-01 5.00000E-01
 -1       648 8.00000E-01 5.04300E-01 5.00000E-01
 -1       649 9.00000E-01 5.04300E-01 5.00000E-01
 -1       650 1.00000E+00 5.04300E-01 5.00000E-01
 -1       651 1.10000E+00 5.04300E-01 5.00000E-01
 -1       652 1.20000E+00 5.04300E-01 5.00000E-01
 -1       653 1.30000E+00 5.04300E-01 5.00000E-01
 -1       654 1.40000E+00 5.04300E-01 5.00000E-01
 -1       655 1.50000E+00 5.04300E-01 5.00000E-01
 -1       656 1.60000E+00 5.04300E-01 5.00000E-01
 -1       657 1.70000E+00 5.04300E-01 5.00000E-01
 -1       658 1.80000E+00 5.04300E-01 5.00000E-01
 -1       659 1.90000E+00 5.04300E-01 5.00000E-01
 -1       660 2.00000E+00 5.04300E-01 5.00000E-01
 -1       661 2.10000E+00 5.04300E-01 5.00000E-01
 -1       662 2.20000E+00 5.04300E-01 5.00000E-01
 -1       663 2.30000E+00 5.04300E-01 5.00000E-01
 -1       664 2.40000E+00 5.04300E-01 5.00000E-01
 -1       665 2.50000E+00 5.04300E-01 5.00000E-01
 -1       666 2.60000E+00 5.04300E-01 5.00000E-01
 -1       667 2.70000E+00 5.04300E-01 5.00000E-01
 -1       668 2.80000E+00 5.04300E-01 5.00000E-01
 -1       669 2.90000E+00 5.04300E-01 5.00000E-01
 -1       670 1.00000E-01 5.04300E-01 4.06750E-01
 -1       671 2.00000E-01 5.04300E-01 4.06750E-01
 -1       672 3.00000E-01 5.04300E-01 4.06750E-01
 -1       673 4.00000E-01 5.04300E-01 4.06750E-01
 -1       674 5.00000E-01 5.04300E-01 4.06750E-01
 -1       675 6.00000E-01 5.04300E-01 4.06750E-01
 -1       676 7.00000E-01 5.04300E-01 4.06750E-01
 -1       677 8.00000E-01 5.04300E-01 4.06750E-01
 -1       678 9.00000E-01 5.04300E-01 4.06750E-01
 -1       679 1.00000E+00 5.04300E-01 4.06750E-01
 -1       680 1.10000E+00 5.04300E-01 4.06750E-01
 -1       681 1.20000E+00 5.04300E-01 4.06750E-01
 -1       682 1.30000E+00 5.04300E-01 4.06750E-01
 -1       683 1.40000E+00 5.04300E-01 4.06750E-01
 -1       684 1.50000E+00 5.04300E-01 4.06750E-01
 -1       685 1.60000E+00 5.04300E-01 4.06750E-01
 -1       686 1.70000E+00 5.04300E-01 4.06750E-01
 -1       687 1.80000E+00 5.04300E-01 4.06750E-01
 -1       688 1.90000E+00 5.04300E-01 4.06750E-01
 -1       689 2.00000E+00 5.04300E-01 4.06750E-01
 -1       690 2.10000E+00 5.04300E-01 4.06750E-01
 -1       691 2.20000E+00 5.04300E-01 4.06750E-01
 -1       692 2.30000E+00 5.04300E-01 4.06750E-01
 -1       693 2.40000E+00 5.04300E-01 4.06750E-01
 -1       694 2.50000E+00 5.04300E-01 4.06750E-01
 -1       695 2.60000E+00 5.04300E-01 4.06750E-01
 -1       696 2.70000E+00 5.04300E-01 4.06750E-01
 -1       697 2.80000E+00 5.04300E-01 4.06750E-01
 -1       698 2.90000E+00 5.04300E-01 4.06750E-01
 -1       699 1.00000E-01 4.52850E-01 3.00000E-01
 -1       700 2.00000E-01 4.52850E-01 3.00000E-01
 -1       701 3.00000E-01 4.52850E-01 3.00000E-01
 -1       702 4.00000E-01 4.52850E-01 3.00000E-01
 -1       703 5.00000E-01 4.52850E-01 3.00000E-01
 -1       704 6.00000E-01 4.52850E-01 3.00000E-01
 -1       705 7.00000E-01 4.52850E-01 3.00000E-01
 -1       706 8.00000E-01 4.52850E-01 3.00000E-01
 -1       707 9.00000E-01 4.52850E-01 3.00000E-01
 -1       708 1.00000E+00 4.52850E-01 3.00000E-01
 -1       709 1.10000E+00 4.52850E-01 3.00000E-01
 -1       710 1.20000E+00 4.52850E-01 3.00000E-01
 -1       711 1.30000E+00 4.52850E-01 3.00000E-01
 -1       712 1.40000E+00 4.52850E-01 3.00000E-01
 -1       713 1.50000E+00 4.52850E-01 3.00000E-01
 -1       714 1.60000E+00 4.52850E-01 3.00000E-01
 -1       715 1.70000E+00 4.52850E-01 3.00000E-01
 -1       716 1.80000E+00 4.52850E-01 3.00000E-01
 -1       717 1.90000E+00 4.52850E-01 3.00000E-01
 -1       718 2.00000E+00 4.52850E-01 3.00000E-01
 -1       719 2.10000E+00 4.52850E-01 3.00000E-01
 -1       720 2.20000E+00 4.52850E-01 3.00000E-01
 -1       721 2.30000E+00 4.52850E-01 3.00000E-01
 -1       722 2.40000E+00 4.52850E-01 3.00000E-01
 -1       723 2.50000E+00 4.52850E-01 3.00000E-01
 -1       724 2.60000E+00 4.52850E-01 3.00000E-01
 -1       725 2.70000E+00 4.52850E-01 3.00000E-01
 -1       726 2.80000E+00 4.52850E-01 3.00000E-01
 -1       727 2.90000E+00 4.52850E-01 3.00000E-01
 -1       728 1.00000E-01 4.52850E-01 3.13500E-01
 -1       729 2.00000E-01 4.52850E-01 3.13500E-01
 -1       730 3.00000E-01 4.52850E-01 3.13500E-01
 -1       731 4.00000E-01 4.52850E-01 3.13500E-01
 -1       732 5.00000E-01 4.52850E-01 3.13500E-01
 -1       733 6.00000E-01 4.52850E-01 3.13500E-01
 -1       734 7.00000E-01 4.52850E-01 3.13500E-01
 -1       735 8.00000E-01 4.52850E-01 3.13500E-01
 -1       736 9.00000E-01 4.52850E-01 3.13500E-01
 -1       737 1.00000E+00 4.52850E-01 3.13500E-01
 -1       738 1.10000E+00 4.52850E-01 3.13500E-01
 -1       739 1.20000E+00 4.52850E-01 3.13500E-01
 -1       740 1.30000E+00 4.52850E-01 3.13500E-01
 -1       741 1.40000E+00 4.52850E-01 3.13500E-01
 -1       742 1.50000E+00 4.52850E-01 3.13500E-01
 -1       743 1.60000E+00 4.52850E-01 3.13500E-01
 -1       744 1.70000E+00 4.52850E-01 3.13500E-01
 -1       745 1.80000E+00 4.52850E-01 3.13500E-01
 -1       746 1.90000E+00 4.52850E-01 3.13500E-01
 -1       747 2.00000E+00 4.52850E-01 3.13500E-01
 -1       748 2.10000E+00 4.52850E-01 3.13500E-01
 -1       749 2.20000E+00 4.52850E-01 3.13500E-01
 -1       750 2.30000E+00 4.52850E-01 3.13500E-01
 -1       751 2.40000E+00 4.52850E-01 3.13500E-01
 -1       752 2.50000E+00 4.52850E-01 3.13500E-01
 -1       753 2.60000E+00 4.52850E-01 3.13500E-01
 -1       754 2.70000E+00 4.52850E-01 3.13500E-01
 -1       755 2.80000E+00 4.52850E-01 3.13500E-01
 -1       756 2.90000E+00 4.52850E-01 3.13500E-01
 -1       757 1.00000E-01 4.52850E-01 6.86500E-01
 -1       758 2.00000E-01 4.52850E-01 6.86500E-01
 -1       759 3.00000E-01 4.52850E-01 6.86500E-01
 -1       760 4.00000E-01 4.52850E-01 6.86500E-01
 -1       761 5.00000E-01 4.52850E-01 6.86500E-01
 -1       762 6.00000E-01 4.52850E-01 6.86500E-01
 -1       763 7.00000E-01 4.52850E-01 6.86500E-01
 -1       764 8.00000E-01 4.52850E-01 6.86500E-01
 -1       765 9.00000E-01 4.52850E-01 6.86500E-01
 -1       766 1.00000E+00 4.52850E-01 6.86500E-01
 -1       767 1.10000E+00 4.52850E-01 6.86500E-01
 -1       768 1.20000E+00 4.52850E-01 6.86500E-01
 -1       769 1.30000E+00 4.52850E-01 6.86500E-01
 -1       770 1.40000E+00 4.52850E-01 6.86500E-01
 -1       771 1.50000E+00 4.52850E-01 6.86500E-01
 -1       772 1.60000E+00 4.52850E-01 6.86500E-01
 -1       773 1.70000E+00 4.52850E-01 6.86500E-01
 -1       774 1.80000E+00 4.52850E-01 6.86500E-01
 -1       775 1.90000E+00 4.52850E-01 6.86500E-01
 -1       776 2.00000E+00 4.52850E-01 6.86500E-01
 -1       777 2.10000E+00 4.52850E-01 6.86500E-01
 -1       778 2.20000E+00 4.52850E-01 6.86500E-01
 -1       779 2.30000E+00 4.52850E-01 6.86500E-01
 -1       780 2.40000E+00 4.52850E-01 6.86500E-01
 -1       781 2.50000E+00 4.52850E-01 6.86500E-01
 -1       782 2.60000E+00 4.52850E-01 6.86500E-01
 -1       783 2.70000E+00 4.52850E-01 6.86500E-01
 -1       784 2.80000E+00 4.52850E-01 6.86500E-01
 -1       785 2.90000E+00 4.52850E-01 6.86500E-01
 -1       786 1.00000E-01 4.52850E-01 7.00000E-01
 -1       787 2.00000E-01 4.52850E-01 7.00000E-01
 -1       788 3.00000E-01 4.52850E-01 7.00000E-01
 -1       789 4.00000E-01 4.52850E-01 7.00000E-01
 -1       790 5.00000E-01 4.52850E-01 7.00000E-01
 -1       791 6.00000E-01 4.52850E-01 7.00000E-01
 -1       792 7.00000E-01 4.52850E-01 7.00000E-01
 -1       793 8.00000E-01 4.52850E-01 7.00000E-01
 -1       794 9.00000E-01 4.52850E-01 7.00000E-01
 -1       795 1.00000E+00 4.52850E-01 7.00000E-01
 -1       796 1.10000E+00 4.52850E-01 7.00000E-01
 -1       797 1.20000E+00 4.52850E-01 7.00000E-01
 -1       798 1.30000E+00 4.52850E-01 7.00000E-01
 -1       799 1.40000E+00 4.52850E-01 7.00000E-01
 -1       800 1.50000E+00 4.52850E-01 7.00000E-01
 -1       801 1.60000E+00 4.52850E-01 7.00000E-01
 -1       802 1.70000E+00 4.52850E-01 7.00000E-01
 -1       803 1.80000E+00 4.52850E-01 7.00000E-01
 -1       804 1.90000E+00 4.52850E-01 7.00000E-01
 -1       805 2.00000E+00 4.52850E-01 7.00000E-01
 -1       806 2.10000E+00 4.52850E-01 7.00000E-01
 -1       807 2.20000E+00 4.52850E-01 7.00000E-01
 -1       808 2.30000E+00 4.52850E-01 7.00000E-01
 -1       809 2.40000E+00 4.52850E-01 7.00000E-01
 -1       810 2.50000E+00 4.52850E-01 7.00000E-01
 -1       811 2.60000E+00 4.52850E-01 7.00000E-01
 -1       812 2.70000E+00 4.52850E-01 7.00000E-01
 -1       813 2.80000E+00 4.52850E-01 7.00000E-01
 -1       814 2.90000E+00 4.52850E-01 7.00000E-01
 -1       815 1.00000E-01 5.47150E-01 3.00000E-01
 -1       816 2.00000E-01 5.47150E-01 3.00000E-01
 -1       817 3.00000E-01 5.47150E-01 3.00000E-01
 -1       818 4.00000E-01 5.47150E-01 3.00000E-01
 -1       819 5.00000E-01 5.47150E-01 3.00000E-01
 -1       820 6.00000E-01 5.47150E-01 3.00000E-01
 -1       821 7.00000E-01 5.47150E-01 3.00000E-01
 -1       822 8.00000E-01 5.47150E-01 3.00000E-01
 -1       823 9.00000E-01 5.47150E-01 3.00000E-01
 -1       824 1.00000E+00 5.47150E-01 3.00000E-01
 -1       825 1.10000E+00 5.47150E-01 3.00000E-01
 -1       826 1.20000E+00 5.47150E-01 3.00000E-01
 -1       827 1.30000E+00 5.47150E-01 3.00000E-01
 -1       828 1.40000E+00 5.47150E-01 3.00000E-01
 -1       829 1.50000E+00 5.47150E-01 3.00000E-01
 -1       830 1.60000E+00 5.47150E-01 3.00000E-01
 -1       831 1.70000E+00 5.47150E-01 3.00000E-01
 -1       832 1.80000E+00 5.47150E-01 3.00000E-01
 -1       833 1.90000E+00 5.47150E-01 3.00000E-01
 -1       834 2.00000E+00 5.47150E-01 3.00000E-01
 -1       835 2.10000E+00 5.47150E-01 3.00000E-01
 -1       836 2.20000E+00 5.47150E-01 3.00000E-01
 -1       837 2.30000E+00 5.47150E-01 3.00000E-01
 -1       838 2.40000E+00 5.47150E-01 3.00000E-01
 -1       839 2.50000E+00 5.47150E-01 3.00000E-01
 -1       840 2.60000E+00 5.47150E-01 3.00000E-01
 -1       841 2.70000E+00 5.47150E-01 3.00000E-01
 -1       842 2.80000E+00 5.47150E-01 3.00000E-01
 -1       843 2.90000E+00 5.47150E-01 3.00000E-01
 -1       844 1.00000E-01 5.47150E-01 3.13500E-01
 -1       845 2.00000E-01 5.47150E-01 3.13500E-01
 -1       846 3.00000E-01 5.47150E-01 3.13500E-01
 -1       847 4.00000E-01 5.47150E-01 3.13500E-01
 -1       848 5.00000E-01 5.47150E-01 3.13500E-01
 -1       849 6.00000E-01 5.47150E-01 3.13500E-01
 -1       850 7.00000E-01 5.47150E-01 3.13500E-01
 -1       851 8.00000E-01 5.47150E-01 3.13500E-01
 -1       852 9.00000E-01 5.47150E-01 3.13500E-01
 -1       853 1.00000E+00 5.47150E-01 3.13500E-01
 -1       854 1.10000E+00 5.47150E-01 3.13500E-01
 -1       855 1.20000E+00 5.47150E-01 3.13500E-01
 -1       856 1.30000E+00 5.47150E-01 3.13500E-01
 -1       857 1.40000E+00 5.47150E-01 3.13500E-01
 -1       858 1.50000E+00 5.47150E-01 3.13500E-01
 -1       859 1.60000E+00 5.47150E-01 3.13500E-01
 -1       860 1.70000E+00 5.47150E-01 3.13500E-01
 -1       861 1.80000E+00 5.47150E-01 3.13500E-01
 -1       862 1.90000E+00 5.47150E-01 3.13500E-01
 -1       863 2.00000E+00 5.47150E-01 3.13500E-01
 -1       864 2.10000E+00 5.47150E-01 3.13500E-01
 -1       865 2.20000E+00 5.47150E-01 3.13500E-01
 -1       866 2.30000E+00 5.47150E-01 3.13500E-01
 -1       867 2.40000E+00 5.47150E-01 3.13500E-01
 -1       868 2.50000E+00 5.47150E-01 3.13500E-01
 -1       869 2.60000E+00 5.47150E-01 3.13500E-01
 -1       870 2.70000E+00 5.47150E-01 3.13500E-01
 -1       871 2.80000E+00 5.47150E-01 3.13500E-01
 -1       872 2.90000E+00 5.47150E-01 3.13500E-01
 -1       873 2.90000E+00 5.47150E-01 7.00000E-01
 -1       874 2.80000E+00 5.47150E-01 7.00000E-01
 -1       875 2.70000E+00 5.47150E-01 7.00000E-01
 -1       876 2.60000E+00 5.47150E-01 7.00000E-01
 -1       877 2.50000E+00 5.47150E-01 7.00000E-01
 -1       878 2.40000E+00 5.47150E-01 7.00000E-01
 -1       879 2.30000E+00 5.47150E-01 7.00000E-01
 -1       880 2.20000E+00 5.47150E-01 7.00000E-01
 -1       881 2.10000E+00 5.47150E-01 7.00000E-01
 -1       882 2.00000E+00 5.47150E-01 7.00000E-01
 -1       883 1.90000E+00 5.47150E-01 7.00000E-01
 -1       884 1.80000E+00 5.47150E-01 7.00000E-01
 -1       885 1.70000E+00 5.47150E-01 7.00000E-01
 -1       886 1.60000E+00 5.47150E-01 7.00000E-01
 -1       887 1.50000E+00 5.47150E-01 7.00000E-01
 -1       888 1.40000E+00 5.47150E-01 7.00000E-01
 -1       889 1.30000E+00 5.47150E-01 7.00000E-01
 -1       890 1.20000E+00 5.47150E-01 7.00000E-01
 -1       891 1.10000E+00 5.47150E-01 7.00000E-01
 -1       892 1.00000E+00 5.47150E-01 7.00000E-01
 -1       893 9.00000E-01 5.47150E-01 7.00000E-01
 -1       894 8.00000E-01 5.47150E-01 7.00000E-01
 -1       895 7.00000E-01 5.47150E-01 7.00000E-01
 -1       896 6.00000E-01 5.47150E-01 7.00000E-01
 -1       897 5.00000E-01 5.47150E-01 7.00000E-01
 -1       898 4.00000E-01 5.47150E-01 7.00000E-01
 -1       899 3.00000E-01 5.47150E-01 7.00000E-01
 -1       900 2.00000E-01 5.47150E-01 7.00000E-01
 -1       901 1.00000E-01 5.47150E-01 7.00000E-01
 -1       902 1.00000E-01 5.47150E-01 6.86500E-01
 -1       903 2.00000E-01 5.47150E-01 6.86500E-01
 -1       904 3.00000E-01 5.47150E-01 6.86500E-01
 -1       905 4.00000E-01 5.47150E-01 6.86500E-01
 -1       906 5.00000E-01 5.47150E-01 6.86500E-01
 -1       907 6.00000E-01 5.47150E-01 6.86500E-01
 -1       908 7.00000E-01 5.47150E-01 6.86500E-01
 -1       909 8.00000E-01 5.47150E-01 6.86500E-01
 -1       910 9.00000E-01 5.47150E-01 6.86500E-01
 -1       911 1.00000E+00 5.47150E-01 6.86500E-01
 -1       912 1.10000E+00 5.47150E-01 6.86500E-01
 -1       913 1.20000E+00 5.47150E-01 6.86500E-01
 -1       914 1.30000E+00 5.47150E-01 6.86500E-01
 -1       915 1.40000E+00 5.47150E-01 6.86500E-01
 -1       916 1.50000E+00 5.47150E-01 6.86500E-01
 -1       917 1.60000E+00 5.47150E-01 6.86500E-01
 -1       918 1.70000E+00 5.47150E-01 6.86500E-01
 -1       919 1.80000E+00 5.47150E-01 6.86500E-01
 -1       920 1.90000E+00 5.47150E-01 6.86500E-01
 -1       921 2.00000E+00 5.47150E-01 6.86500E-01
 -1       922 2.10000E+00 5.47150E-01 6.86500E-01
 -1       923 2.20000E+00 5.47150E-01 6.86500E-01
 -1       924 2.30000E+00 5.47150E-01 6.86500E-01
 -1       925 2.40000E+00 5.47150E-01 6.86500E-01
 -1       926 2.50000E+00 5.47150E-01 6.86500E-01
 -1       927 2.60000E+00 5.47150E-01 6.86500E-01
 -1       928 2.70000E+00 5.47150E-01 6.86500E-01
 -1       929 2.80000E+00 5.47150E-01 6.86500E-01
 -1       930 2.90000E+00 5.47150E-01 6.86500E-01
 -3
    3C                           420                                     1
 -1         1    1    0    1
 -2        91         1         2        96       525        62        33       670
 -1         2    1    0    1
 -2       525        62        33       670       526        63        34       671
 -1         3    1    0    1
 -2       526        63        34       671       527        64        35       672
 -1         4    1    0    1
 -2       527        64        35       672       528        65        36       673
 -1         5    1    0    1
 -2       528        65        36       673       529        66        37       674
 -1         6    1    0    1
 -2       529        66        37       674       530        67        38       675
 -1         7    1    0    1
 -2       530        67        38       675       531        68        39       676
 -1         8    1    0    1
 -2       531        68        39       676       532        69        40       677
 -1         9    1    0    1
 -2       532        69        40       677       533        70        41       678
 -1        10    1    0    1
 -2       533        70        41       678       534        71        42       679
 -1        11    1    0    1
 -2       534        71        42       679       535        72        43       680
 -1        12    1    0    1
 -2       535        72        43       680       536        73        44       681
 -1        13    1    0    1
 -2       536        73        44       681       537        74        45       682
 -1        14    1    0    1
 -2       537        74        45       682       538        75        46       683
 -1        15    1    0    1
 -2       538        75        46       683       539        76        47       684
 -1        16    1    0    1
 -2       539        76        47       684       540        77        48       685
 -1        17    1    0    1
 -2       540        77        48       685       541        78        49       686
 -1        18    1    0    1
 -2       541        78        49       686       542        79        50       687
 -1        19    1    0    1
 -2       542        79        50       687       543        80        51       688
 -1        20    1    0    1
 -2       543        80        51       688       544        81        52       689
 -1        21    1    0    1
 -2       544        81        52       689       545        82        53       690
 -1        22    1    0    1
 -2       545        82        53       690       546        83        54       691
 -1        23    1    0    1
 -2       546        83        54       691       547        84        55       692
 -1        24    1    0    1
 -2       547        84        55       692       548        85        56       693
 -1        25    1    0    1
 -2       548        85        56       693       549        86        57       694
 -1        26    1    0    1
 -2       549        86        57       694       550        87        58       695
 -1        27    1    0    1
 -2       550        87        58       695       551        88        59       696
 -1        28    1    0    1
 -2       551        88        59       696       552        89        60       697
 -1        29    1    0    1
 -2       552        89        60       697       553        90        61       698
 -1        30    1    0    1
 -2       553        90        61       698       126         3         4       160
 -1        31    1    0    1
 -2        92        91        96        95       554       525       670       641
 -1        32    1    0    1
 -2       554       525       670       641       555       526       671       642
 -1        33    1    0    1
 -2       555       526       671       642       556       527       672       643
 -1        34    1    0    1
 -2       556       527       672       643       557       528       673       644
 -1        35    1    0    1
 -2       557       528       673       644       558       529       674       645
 -1        36    1    0    1
 -2       558       529       674       645       559       530       675       646
 -1        37    1    0    1
 -2       559       530       675       646       560       531       676       647
 -1        38    1    0    1
 -2       560       531       676       647       561       532       677       648
 -1        39    1    0    1
 -2       561       532       677       648       562       533       678       649
 -1        40    1    0    1
 -2       562       533       678       649       563       534       679       650
 -1        41    1    0    1
 -2       563       534       679       650       564       535       680       651
 -1        42    1    0    1
 -2       564       535       680       651       565       536       681       652
 -1        43    1    0    1
 -2       565       536       681       652       566       537       682       653
 -1        44    1    0    1
 -2       566       537       682       653       567       538       683       654
 -1        45    1    0    1
 -2       567       538       683       654       568       539       684       655
 -1        46    1    0    1
 -2       568       539       684       655       569       540       685       656
 -1        47    1    0    1
 -2       569       540       685       656       570       541       686       657
 -1        48    1    0    1
 -2       570       541       686       657       571       542       687       658
 -1        49    1    0    1
 -2       571       542       687       658       572       543       688       659
 -1        50    1    0    1
 -2       572       543       688       659       573       544       689       660
 -1        51    1    0    1
 -2       573       544       689       660       574       545       690       661
 -1        52    1    0    1
 -2       574       545       690       661       575       546       691       662
 -1        53    1    0    1
 -2       575       546       691       662       576       547       692       663
 -1        54    1    0    1
 -2       576       547       692       663       577       548       693       664
 -1        55    1    0    1
 -2       577       548       693       664       578       549       694       665
 -1        56    1    0    1
 -2       578       549       694       665       579       550       695       666
 -1        57    1    0    1
 -2       579       550       695       666       580       551       696       667
 -1        58    1    0    1
 -2       580       551       696       667       581       552       697       668
 -1        59    1    0    1
 -2       581       552       697       668       582       553       698       669
 -1        60    1    0    1
 -2       582       553       698       669       127       126       160       159
 -1        61    1    0    1
 -2        93        92        95        94       583       554       641       612
 -1        62    1    0    1
 -2       583       554       641       612       584       555       642       613
 -1        63    1    0    1
 -2       584       555       642       613       585       556       643       614
 -1        64    1    0    1
 -2       585       556       643       614       586       557       644       615
 -1        65    1    0    1
 -2       586       557       644       615       587       558       645       616
 -1        66    1    0    1
 -2       587       558       645       616       588       559       646       617
 -1        67    1    0    1
 -2       588       559       646       617       589       560       647       618
 -1        68    1    0    1
 -2       589       560       647       618       590       561       648       619
 -1        69    1    0    1
 -2       590       561       648       619       591       562       649       620
 -1        70    1    0    1
 -2       591       562       649       620       592       563       650       621
 -1        71    1    0    1
 -2       592       563       650       621       593       564       651       622
 -1        72    1    0    1
 -2       593       564       651       622       594       565       652       623
 -1        73    1    0    1
 -2       594       565       652       623       595       566       653       624
 -1        74    1    0    1
 -2       595       566       653       624       596       567       654       625
 -1        75    1    0    1
 -2       596       567       654       625       597       568       655       626
 -1        76    1    0    1
 -2       597       568       655       626       598       569       656       627
 -1        77    1    0    1
 -2       598       569       656       627       599       570       657       628
 -1        78    1    0    1
 -2       599       570       657       628       600       571       658       629
 -1        79    1    0    1
 -2       600       571       658       629       601       572       659       630
 -1        80    1    0    1
 -2       601       572       659       630       602       573       660       631
 -1        81    1    0    1
 -2       602       573       660       631       603       574       661       632
 -1        82    1    0    1
 -2       603       574       661       632       604       575       662       633
 -1        83    1    0    1
 -2       604       575       662       633       605       576       663       634
 -1        84    1    0    1
 -2       605       576       663       634       606       577       664       635
 -1        85    1    0    1
 -2       606       577       664       635       607       578       665       636
 -1        86    1    0    1
 -2       607       578       665       636       608       579       666       637
 -1        87    1    0    1
 -2       608       579       666       637       609       580       667       638
 -1        88    1    0    1
 -2       609       580       667       638       610       581       668       639
 -1        89    1    0    1
 -2       610       581       668       639       611       582       669       640
 -1        90    1    0    1
 -2       611       582       669       640       128       127       159       158
 -1        91    1    0    1
 -2         5        93        94         6        97       583       612       129
 -1        92    1    0    1
 -2        97       583       612       129        98       584       613       130
 -1        93    1    0    1
 -2        98       584       613       130        99       585       614       131
 -1        94    1    0    1
 -2        99       585       614       131       100       586       615       132
 -1        95    1    0    1
 -2       100       586       615       132       101       587       616       133
 -1        96    1    0    1
 -2       101       587       616       133       102       588       617       134
 -1        97    1    0    1
 -2       102       588       617       134       103       589       618       135
 -1        98    1    0    1
 -2       103       589       618       135       104       590       619       136
 -1        99    1    0    1
 -2       104       590       619       136       105       591       620       137
 -1       100    1    0    1
 -2       105       591       620       137       106       592       621       138
 -1       101    1    0    1
 -2       106       592       621       138       107       593       622       139
 -1       102    1    0    1
 -2       107       593       622       139       108       594       623       140
 -1       103    1    0    1
 -2       108       594       623       140       109       595       624       141
 -1       104    1    0    1
 -2       109       595       624       141       110       596       625       142
 -1       105    1    0    1
 -2       110       596       625       142       111       597       626       143
 -1       106    1    0    1
 -2       111       597       626       143       112       598       627       144
 -1       107    1    0    1
 -2       112       598       627       144       113       599       628       145
 -1       108    1    0    1
 -2       113       599       628       145       114       600       629       146
 -1       109    1    0    1
 -2       114       600       629       146       115       601       630       147
 -1       110    1    0    1
 -2       115       601       630       147       116       602       631       148
 -1       111    1    0    1
 -2       116       602       631       148       117       603       632       149
 -1       112    1    0    1
 -2       117       603       632       149       118       604       633       150
 -1       113    1    0    1
 -2       118       604       633       150       119       605       634       151
 -1       114    1    0    1
 -2       119       605       634       151       120       606       635       152
 -1       115    1    0    1
 -2       120       606       635       152       121       607       636       153
 -1       116    1    0    1
 -2       121       607       636       153       122       608       637       154
 -1       117    1    0    1
 -2       122       608       637       154       123       609       638       155
 -1       118    1    0    1
 -2       123       609       638       155       124       610       639       156
 -1       119    1    0    1
 -2       124       610       639       156       125       611       640       157
 -1       120    1    0    1
 -2       125       611       640       157         7       128       158         8
 -1       121    1    0    1
 -2       191       190         9         1       728       699       161        62
 -1       122    1    0    1
 -2       728       699       161        62       729       700       162        63
 -1       123    1    0    1
 -2       729       700       162        63       730       701       163        64
 -1       124    1    0    1
 -2       730       701       163        64       731       702       164        65
 -1       125    1    0    1
 -2       731       702       164        65       732       703       165        66
 -1       126    1    0    1
 -2       732       703       165        66       733       704       166        67
 -1       127    1    0    1
 -2       733       704       166        67       734       705       167        68
 -1       128    1    0    1
 -2       734       705       167        68       735       706       168        69
 -1       129    1    0    1
 -2       735       706       168        69       736       707       169        70
 -1       130    1    0    1
 -2       736       707       169        70       737       708       170        71
 -1       131    1    0    1
 -2       737       708       170        71       738       709       171        72
 -1       132    1    0    1
 -2       738       709       171        72       739       710       172        73
 -1       133    1    0    1
 -2       739       710       172        73       740       711       173        74
 -1       134    1    0    1
 -2       740       711       173        74       741       712       174        75
 -1       135    1    0    1
 -2       741       712       174        75       742       713       175        76
 -1       136    1    0    1
 -2       742       713       175        76       743       714       176        77
 -1       137    1    0    1
 -2       743       714       176        77       744       715       177        78
 -1       138    1    0    1
 -2       744       715       177        78       745       716       178        79
 -1       139    1    0    1
 -2       745       716       178        79       746       717       179        80
 -1       140    1    0    1
 -2       746       717       179        80       747       718       180        81
 -1       141    1    0    1
 -2       747       718       180        81       748       719       181        82
 -1       142    1    0    1
 -2       748       719       181        82       749       720       182        83
 -1       143    1    0    1
 -2       749       720       182        83       750       721       183        84
 -1       144    1    0    1
 -2       750       721       183        84       751       722       184        85
 -1       145    1    0    1
 -2       751       722       184        85       752       723       185        86
 -1       146    1    0    1
 -2       752       723       185        86       753       724       186        87
 -1       147    1    0    1
 -2       753       724       186        87       754       725       187        88
 -1       148    1    0    1
 -2       754       725       187        88       755       726       188        89
 -1       149    1    0    1
 -2       755       726       188        89       756       727       189        90
 -1       150    1    0    1
 -2       756       727       189        90       251       192        10         3
 -1       151    1    0    1
 -2        12        11       190       191       222       193       699       728
 -1       152    1    0    1
 -2       222       193       699       728       223       194       700       729
 -1       153    1    0    1
 -2       223       194       700       729       224       195       701       730
 -1       154    1    0    1
 -2       224       195       701       730       225       196       702       731
 -1       155    1    0    1
 -2       225       196       702       731       226       197       703       732
 -1       156    1    0    1
 -2       226       197       703       732       227       198       704       733
 -1       157    1    0    1
 -2       227       198       704       733       228       199       705       734
 -1       158    1    0    1
 -2       228       199       705       734       229       200       706       735
 -1       159    1    0    1
 -2       229       200       706       735       230       201       707       736
 -1       160    1    0    1
 -2       230       201       707       736       231       202       708       737
 -1       161    1    0    1
 -2       231       202       708       737       232       203       709       738
 -1       162    1    0    1
 -2       232       203       709       738       233       204       710       739
 -1       163    1    0    1
 -2       233       204       710       739       234       205       711       740
 -1       164    1    0    1
 -2       234       205       711       740       235       206       712       741
 -1       165    1    0    1
 -2       235       206       712       741       236       207       713       742
 -1       166    1    0    1
 -2       236       207       713       742       237       208       714       743
 -1       167    1    0    1
 -2       237       208       714       743       238       209       715       744
 -1       168    1    0    1
 -2       238       209       715       744       239       210       716       745
 -1       169    1    0    1
 -2       239       210       716       745       240       211       717       746
 -1       170    1    0    1
 -2       240       211       717       746       241       212       718       747
 -1       171    1    0    1
 -2       241       212       718       747       242       213       719       748
 -1       172    1    0    1
 -2       242       213       719       748       243       214       720       749
 -1       173    1    0    1
 -2       243       214       720       749       244       215       721       750
 -1       174    1    0    1
 -2       244       215       721       750       245       216       722       751
 -1       175    1    0    1
 -2       245       216       722       751       246       217       723       752
 -1       176    1    0    1
 -2       246       217       723       752       247       218       724       753
 -1       177    1    0    1
 -2       247       218       724       753       248       219       725       754
 -1       178    1    0    1
 -2       248       219       725       754       249       220       726       755
 -1       179    1    0    1
 -2       249       220       726       755       250       221       727       756
 -1       180    1    0    1
 -2       250       221       727       756        14        13       192       251
 -1       181    1    0    1
 -2       282       281         5        15       786       757        97       280
 -1       182    1    0    1
 -2       786       757        97       280       787       758        98       279
 -1       183    1    0    1
 -2       787       758        98       279       788       759        99       278
 -1       184    1    0    1
 -2       788       759        99       278       789       760       100       277
 -1       185    1    0    1
 -2       789       760       100       277       790       761       101       276
 -1       186    1    0    1
 -2       790       761       101       276       791       762       102       275
 -1       187    1    0    1
 -2       791       762       102       275       792       763       103       274
 -1       188    1    0    1
 -2       792       763       103       274       793       764       104       273
 -1       189    1    0    1
 -2       793       764       104       273       794       765       105       272
 -1       190    1    0    1
 -2       794       765       105       272       795       766       106       271
 -1       191    1    0    1
 -2       795       766       106       271       796       767       107       270
 -1       192    1    0    1
 -2       796       767       107       270       797       768       108       269
 -1       193    1    0    1
 -2       797       768       108       269       798       769       109       268
 -1       194    1    0    1
 -2       798       769       109       268       799       770       110       267
 -1       195    1    0    1
 -2       799       770       110       267       800       771       111       266
 -1       196    1    0    1
 -2       800       771       111       266       801       772       112       265
 -1       197    1    0    1
 -2       801       772       112       265       802       773       113       264
 -1       198    1    0    1
 -2       802       773       113       264       803       774       114       263
 -1       199    1    0    1
 -2       803       774       114       263       804       775       115       262
 -1       200    1    0    1
 -2       804       775       115       262       805       776       116       261
 -1       201    1    0    1
 -2       805       776       116       261       806       777       117       260
 -1       202    1    0    1
 -2       806       777       117       260       807       778       118       259
 -1       203    1    0    1
 -2       807       778       118       259       808       779       119       258
 -1       204    1    0    1
 -2       808       779       119       258       809       780       120       257
 -1       205    1    0    1
 -2       809       780       120       257       810       781       121       256
 -1       206    1    0    1
 -2       810       781       121       256       811       782       122       255
 -1       207    1    0    1
 -2       811       782       122       255       812       783       123       254
 -1       208    1    0    1
 -2       812       783       123       254       813       784       124       253
 -1       209    1    0    1
 -2       813       784       124       253       814       785       125       252
 -1       210    1    0    1
 -2       814       785       125       252       342       312         7        16
 -1       211    1    0    1
 -2        18        17       281       282       313       283       757       786
 -1       212    1    0    1
 -2       313       283       757       786       314       284       758       787
 -1       213    1    0    1
 -2       314       284       758       787       315       285       759       788
 -1       214    1    0    1
 -2       315       285       759       788       316       286       760       789
 -1       215    1    0    1
 -2       316       286       760       789       317       287       761       790
 -1       216    1    0    1
 -2       317       287       761       790       318       288       762       791
 -1       217    1    0    1
 -2       318       288       762       791       319       289       763       792
 -1       218    1    0    1
 -2       319       289       763       792       320       290       764       793
 -1       219    1    0    1
 -2       320       290       764       793       321       291       765       794
 -1       220    1    0    1
 -2       321       291       765       794       322       292       766       795
 -1       221    1    0    1
 -2       322       292       766       795       323       293       767       796
 -1       222    1    0    1
 -2       323       293       767       796       324       294       768       797
 -1       223    1    0    1
 -2       324       294       768       797       325       295       769       798
 -1       224    1    0    1
 -2       325       295       769       798       326       296       770       799
 -1       225    1    0    1
 -2       326       296       770       799       327       297       771       800
 -1       226    1    0    1
 -2       327       297       771       800       328       298       772       801
 -1       227    1    0    1
 -2       328       298       772       801       329       299       773       802
 -1       228    1    0    1
 -2       329       299       773       802       330       300       774       803
 -1       229    1    0    1
 -2       330       300       774       803       331       301       775       804
 -1       230    1    0    1
 -2       331       301       775       804       332       302       776       805
 -1       231    1    0    1
 -2       332       302       776       805       333       303       777       806
 -1       232    1    0    1
 -2       333       303       777       806       334       304       778       807
 -1       233    1    0    1
 -2       334       304       778       807       335       305       779       808
 -1       234    1    0    1
 -2       335       305       779       808       336       306       780       809
 -1       235    1    0    1
 -2       336       306       780       809       337       307       781       810
 -1       236    1    0    1
 -2       337       307       781       810       338       308       782       811
 -1       237    1    0    1
 -2       338       308       782       811       339       309       783       812
 -1       238    1    0    1
 -2       339       309       783       812       340       310       784       813
 -1       239    1    0    1
 -2       340       310       784       813       341       311       785       814
 -1       240    1    0    1
 -2       341       311       785       814        20        19       312       342
 -1       241    1    0    1
 -2        21        22       343       372       402       401       815       844
 -1       242    1    0    1
 -2       402       401       815       844         2        25       404        33
 -1       243    1    0    1
 -2       372       343       344       373       844       815       816       845
 -1       244    1    0    1
 -2       844       815       816       845        33       404       405        34
 -1       245    1    0    1
 -2       373       344       345       374       845       816       817       846
 -1       246    1    0    1
 -2       845       816       817       846        34       405       406        35
 -1       247    1    0    1
 -2       374       345       346       375       846       817       818       847
 -1       248    1    0    1
 -2       846       817       818       847        35       406       407        36
 -1       249    1    0    1
 -2       375       346       347       376       847       818       819       848
 -1       250    1    0    1
 -2       847       818       819       848        36       407       408        37
 -1       251    1    0    1
 -2       376       347       348       377       848       819       820       849
 -1       252    1    0    1
 -2       848       819       820       849        37       408       409        38
 -1       253    1    0    1
 -2       377       348       349       378       849       820       821       850
 -1       254    1    0    1
 -2       849       820       821       850        38       409       410        39
 -1       255    1    0    1
 -2       378       349       350       379       850       821       822       851
 -1       256    1    0    1
 -2       850       821       822       851        39       410       411        40
 -1       257    1    0    1
 -2       379       350       351       380       851       822       823       852
 -1       258    1    0    1
 -2       851       822       823       852        40       411       412        41
 -1       259    1    0    1
 -2       380       351       352       381       852       823       824       853
 -1       260    1    0    1
 -2       852       823       824       853        41       412       413        42
 -1       261    1    0    1
 -2       381       352       353       382       853       824       825       854
 -1       262    1    0    1
 -2       853       824       825       854        42       413       414        43
 -1       263    1    0    1
 -2       382       353       354       383       854       825       826       855
 -1       264    1    0    1
 -2       854       825       826       855        43       414       415        44
 -1       265    1    0    1
 -2       383       354       355       384       855       826       827       856
 -1       266    1    0    1
 -2       855       826       827       856        44       415       416        45
 -1       267    1    0    1
 -2       384       355       356       385       856       827       828       857
 -1       268    1    0    1
 -2       856       827       828       857        45       416       417        46
 -1       269    1    0    1
 -2       385       356       357       386       857       828       829       858
 -1       270    1    0    1
 -2       857       828       829       858        46       417       418        47
 -1       271    1    0    1
 -2       386       357       358       387       858       829       830       859
 -1       272    1    0    1
 -2       858       829       830       859        47       418       419        48
 -1       273    1    0    1
 -2       387       358       359       388       859       830       831       860
 -1       274    1    0    1
 -2       859       830       831       860        48       419       420        49
 -1       275    1    0    1
 -2       388       359       360       389       860       831       832       861
 -1       276    1    0    1
 -2       860       831       832       861        49       420       421        50
 -1       277    1    0    1
 -2       389       360       361       390       861       832       833       862
 -1       278    1    0    1
 -2       861       832       833       862        50       421       422        51
 -1       279    1    0    1
 -2       390       361       362       391       862       833       834       863
 -1       280    1    0    1
 -2       862       833       834       863        51       422       423        52
 -1       281    1    0    1
 -2       391       362       363       392       863       834       835       864
 -1       282    1    0    1
 -2       863       834       835       864        52       423       424        53
 -1       283    1    0    1
 -2       392       363       364       393       864       835       836       865
 -1       284    1    0    1
 -2       864       835       836       865        53       424       425        54
 -1       285    1    0    1
 -2       393       364       365       394       865       836       837       866
 -1       286    1    0    1
 -2       865       836       837       866        54       425       426        55
 -1       287    1    0    1
 -2       394       365       366       395       866       837       838       867
 -1       288    1    0    1
 -2       866       837       838       867        55       426       427        56
 -1       289    1    0    1
 -2       395       366       367       396       867       838       839       868
 -1       290    1    0    1
 -2       867       838       839       868        56       427       428        57
 -1       291    1    0    1
 -2       396       367       368       397       868       839       840       869
 -1       292    1    0    1
 -2       868       839       840       869        57       428       429        58
 -1       293    1    0    1
 -2       397       368       369       398       869       840       841       870
 -1       294    1    0    1
 -2       869       840       841       870        58       429       430        59
 -1       295    1    0    1
 -2       398       369       370       399       870       841       842       871
 -1       296    1    0    1
 -2       870       841       842       871        59       430       431        60
 -1       297    1    0    1
 -2       399       370       371       400       871       842       843       872
 -1       298    1    0    1
 -2       871       842       843       872        60       431       432        61
 -1       299    1    0    1
 -2       400       371        23        24       872       843       403       433
 -1       300    1    0    1
 -2       872       843       403       433        61       432        26         4
 -1       301    1    0    1
 -2         9        25         2         1       161       404        33        62
 -1       302    1    0    1
 -2       161       404        33        62       162       405        34        63
 -1       303    1    0    1
 -2       162       405        34        63       163       406        35        64
 -1       304    1    0    1
 -2       163       406        35        64       164       407        36        65
 -1       305    1    0    1
 -2       164       407        36        65       165       408        37        66
 -1       306    1    0    1
 -2       165       408        37        66       166       409        38        67
 -1       307    1    0    1
 -2       166       409        38        67       167       410        39        68
 -1       308    1    0    1
 -2       167       410        39        68       168       411        40        69
 -1       309    1    0    1
 -2       168       411        40        69       169       412        41        70
 -1       310    1    0    1
 -2       169       412        41        70       170       413        42        71
 -1       311    1    0    1
 -2       170       413        42        71       171       414        43        72
 -1       312    1    0    1
 -2       171       414        43        72       172       415        44        73
 -1       313    1    0    1
 -2       172       415        44        73       173       416        45        74
 -1       314    1    0    1
 -2       173       416        45        74       174       417        46        75
 -1       315    1    0    1
 -2       174       417        46        75       175       418        47        76
 -1       316    1    0    1
 -2       175       418        47        76       176       419        48        77
 -1       317    1    0    1
 -2       176       419        48        77       177       420        49        78
 -1       318    1    0    1
 -2       177       420        49        78       178       421        50        79
 -1       319    1    0    1
 -2       178       421        50        79       179       422        51        80
 -1       320    1    0    1
 -2       179       422        51        80       180       423        52        81
 -1       321    1    0    1
 -2       180       423        52        81       181       424        53        82
 -1       322    1    0    1
 -2       181       424        53        82       182       425        54        83
 -1       323    1    0    1
 -2       182       425        54        83       183       426        55        84
 -1       324    1    0    1
 -2       183       426        55        84       184       427        56        85
 -1       325    1    0    1
 -2       184       427        56        85       185       428        57        86
 -1       326    1    0    1
 -2       185       428        57        86       186       429        58        87
 -1       327    1    0    1
 -2       186       429        58        87       187       430        59        88
 -1       328    1    0    1
 -2       187       430        59        88       188       431        60        89
 -1       329    1    0    1
 -2       188       431        60        89       189       432        61        90
 -1       330    1    0    1
 -2       189       432        61        90        10        26         4         3
 -1       331    1    0    1
 -2        27         6       435       434       464       129       902       901
 -1       332    1    0    1
 -2       464       129       902       901       463       130       903       900
 -1       333    1    0    1
 -2       463       130       903       900       462       131       904       899
 -1       334    1    0    1
 -2       462       131       904       899       461       132       905       898
 -1       335    1    0    1
 -2       461       132       905       898       460       133       906       897
 -1       336    1    0    1
 -2       460       133       906       897       459       134       907       896
 -1       337    1    0    1
 -2       459       134       907       896       458       135       908       895
 -1       338    1    0    1
 -2       458       135       908       895       457       136       909       894
 -1       339    1    0    1
 -2       457       136       909       894       456       137       910       893
 -1       340    1    0    1
 -2       456       137       910       893       455       138       911       892
 -1       341    1    0    1
 -2       455       138       911       892       454       139       912       891
 -1       342    1    0    1
 -2       454       139       912       891       453       140       913       890
 -1       343    1    0    1
 -2       453       140       913       890       452       141       914       889
 -1       344    1    0    1
 -2       452       141       914       889       451       142       915       888
 -1       345    1    0    1
 -2       451       142       915       888       450       143       916       887
 -1       346    1    0    1
 -2       450       143       916       887       449       144       917       886
 -1       347    1    0    1
 -2       449       144       917       886       448       145       918       885
 -1       348    1    0    1
 -2       448       145       918       885       447       146       919       884
 -1       349    1    0    1
 -2       447       146       919       884       446       147       920       883
 -1       350    1    0    1
 -2       446       147       920       883       445       148       921       882
 -1       351    1    0    1
 -2       445       148       921       882       444       149       922       881
 -1       352    1    0    1
 -2       444       149       922       881       443       150       923       880
 -1       353    1    0    1
 -2       443       150       923       880       442       151       924       879
 -1       354    1    0    1
 -2       442       151       924       879       441       152       925       878
 -1       355    1    0    1
 -2       441       152       925       878       440       153       926       877
 -1       356    1    0    1
 -2       440       153       926       877       439       154       927       876
 -1       357    1    0    1
 -2       439       154       927       876       438       155       928       875
 -1       358    1    0    1
 -2       438       155       928       875       437       156       929       874
 -1       359    1    0    1
 -2       437       156       929       874       436       157       930       873
 -1       360    1    0    1
 -2       436       157       930       873        30         8       524       465
 -1       361    1    0    1
 -2       434       435        29        28       901       902       495       466
 -1       362    1    0    1
 -2       901       902       495       466       900       903       496       467
 -1       363    1    0    1
 -2       900       903       496       467       899       904       497       468
 -1       364    1    0    1
 -2       899       904       497       468       898       905       498       469
 -1       365    1    0    1
 -2       898       905       498       469       897       906       499       470
 -1       366    1    0    1
 -2       897       906       499       470       896       907       500       471
 -1       367    1    0    1
 -2       896       907       500       471       895       908       501       472
 -1       368    1    0    1
 -2       895       908       501       472       894       909       502       473
 -1       369    1    0    1
 -2       894       909       502       473       893       910       503       474
 -1       370    1    0    1
 -2       893       910       503       474       892       911       504       475
 -1       371    1    0    1
 -2       892       911       504       475       891       912       505       476
 -1       372    1    0    1
 -2       891       912       505       476       890       913       506       477
 -1       373    1    0    1
 -2       890       913       506       477       889       914       507       478
 -1       374    1    0    1
 -2       889       914       507       478       888       915       508       479
 -1       375    1    0    1
 -2       888       915       508       479       887       916       509       480
 -1       376    1    0    1
 -2       887       916       509       480       886       917       510       481
 -1       377    1    0    1
 -2       886       917       510       481       885       918       511       482
 -1       378    1    0    1
 -2       885       918       511       482       884       919       512       483
 -1       379    1    0    1
 -2       884       919       512       483       883       920       513       484
 -1       380    1    0    1
 -2       883       920       513       484       882       921       514       485
 -1       381    1    0    1
 -2       882       921       514       485       881       922       515       486
 -1       382    1    0    1
 -2       881       922       515       486       880       923       516       487
 -1       383    1    0    1
 -2       880       923       516       487       879       924       517       488
 -1       384    1    0    1
 -2       879       924       517       488       878       925       518       489
 -1       385    1    0    1
 -2       878       925       518       489       877       926       519       490
 -1       386    1    0    1
 -2       877       926       519       490       876       927       520       491
 -1       387    1    0    1
 -2       876       927       520       491       875       928       521       492
 -1       388    1    0    1
 -2       875       928       521       492       874       929       522       493
 -1       389    1    0    1
 -2       874       929       522       493       873       930       523       494
 -1       390    1    0    1
 -2       873       930       523       494       465       524        32        31
 -1       391    1    0    1
 -2        15         5         6        27       280        97       129       464
 -1       392    1    0    1
 -2       280        97       129       464       279        98       130       463
 -1       393    1    0    1
 -2       279        98       130       463       278        99       131       462
 -1       394    1    0    1
 -2       278        99       131       462       277       100       132       461
 -1       395    1    0    1
 -2       277       100       132       461       276       101       133       460
 -1       396    1    0    1
 -2       276       101       133       460       275       102       134       459
 -1       397    1    0    1
 -2       275       102       134       459       274       103       135       458
 -1       398    1    0    1
 -2       274       103       135       458       273       104       136       457
 -1       399    1    0    1
 -2       273       104       136       457       272       105       137       456
 -1       400    1    0    1
 -2       272       105       137       456       271       106       138       455
 -1       401    1    0    1
 -2       271       106       138       455       270       107       139       454
 -1       402    1    0    1
 -2       270       107       139       454       269       108       140       453
 -1       403    1    0    1
 -2       269       108       140       453       268       109       141       452
 -1       404    1    0    1
 -2       268       109       141       452       267       110       142       451
 -1       405    1    0    1
 -2       267       110       142       451       266       111       143       450
 -1       406    1    0    1
 -2       266       111       143       450       265       112       144       449
 -1       407    1    0    1
 -2       265       112       144       449       264       113       145       448
 -1       408    1    0    1
 -2       264       113       145       448       263       114       146       447
 -1       409    1    0    1
 -2       263       114       146       447       262       115       147       446
 -1       410    1    0    1
 -2       262       115       147       446       261       116       148       445
 -1       411    1    0    1
 -2       261       116       148       445       260       117       149       444
 -1       412    1    0    1
 -2       260       117       149       444       259       118       150       443
 -1       413    1    0    1
 -2       259       118       150       443       258       119       151       442
 -1       414    1    0    1
 -2       258       119       151       442       257       120       152       441
 -1       415    1    0    1
 -2       257       120       152       441       256       121       153       440
 -1       416    1    0    1
 -2       256       121       153       440       255       122       154       439
 -1       417    1    0    1
 -2       255       122       154       439       254       123       155       438
 -1       418    1    0    1
 -2       254       123       155       438       253       124       156       437
 -1       419    1    0    1
 -2       253       124       156       437       252       125       157       436
 -1       420    1    0    1
 -2       252       125       157       436        16         7         8        30
 -3
    1PSTEP                         1           1           1          
    1PGM                1.000000E+00                                  
    1PGK                8.045247E+03                                  
    1PHID                         -1                                  
    1PSUBC                         0                                  
    1PMODE                         1                                  
  100CL  101 14.27545043         930                     2    1MODAL      1
 -4  DISP        4    1
 -5  D1          1    2    1    0
 -5  D2          1    2    2    0
 -5  D3          1    2    3    0
 -5  ALL         1    2    0    0    1ALL
 -1         1 0.00000E+00 0.00000E+00 0.00000E+00
 -1         2 0.00000E+00 0.00000E+00 0.00000E+00
 -1         3-2.86192E-04-1.45068E-01-1.26302E-06
 -1         4 2.86192E-04-1.45068E-01 1.26302E-06
 -1         5 0.00000E+00 0.00000E+00 0.00000E+00
 -1         6 0.00000E+00 0.00000E+00 0.00000E+00
 -1         7-2.86192E-04-1.45068E-01 1.26302E-06
 -1         8 2.86192E-04-1.45068E-01-1.26302E-06
 -1         9 0.00000E+00 0.00000E+00 0.00000E+00
 -1        10-2.86178E-04-1.45064E-01-1.26845E-06
 -1        11 0.00000E+00 0.00000E+00 0.00000E+00
 -1        12 0.00000E+00 0.00000E+00 0.00000E+00
 -1        13-5.98982E-03-1.45064E-01-2.63581E-05
 -1        14-5.98964E-03-1.45068E-01-2.63538E-05
 -1        15 0.00000E+00 0.00000E+00 0.00000E+00
 -1        16-2.86178E-04-1.45064E-01 1.26845E-06
 -1        17 0.00000E+00 0.00000E+00 0.00000E+00
 -1        18 0.00000E+00 0.00000E+00 0.00000E+00
 -1        19-5.98964E-03-1.45068E-01 2.63538E-05
 -1        20-5.98982E-03-1.45064E-01 2.63581E-05
 -1        21 0.00000E+00 0.00000E+00 0.00000E+00
 -1        22 0.00000E+00 0.00000E+00 0.00000E+00
 -1        23 5.98982E-03-1.45064E-01 2.63581E-05
 -1        24 5.98964E-03-1.45068E-01 2.63538E-05
 -1        25 0.00000E+00 0.00000E+00 0.00000E+00
 -1        26 2.86178E-04-1.45064E-01 1.26845E-06
 -1        27 0.00000E+00 0.00000E+00 0.00000E+00
 -1        28 0.00000E+00 0.00000E+00 0.00000E+00
 -1        29 0.00000E+00 0.00000E+00 0.00000E+00
 -1        30 2.86178E-04-1.45064E-01-1.26845E-06
 -1        31 5.98982E-03-1.45064E-01-2.63581E-05
 -1        32 5.98964E-03-1.45068E-01-2.63538E-05
 -1        33 2.20677E-05-2.51273E-04 8.23730E-07
 -1        34 4.56797E-05-1.05407E-03 7.53921E-07
 -1        35 6.71800E-05-2.37431E-03 6.61981E-07
 -1        36 8.77512E-05-4.18452E-03 6.07602E-07
 -1        37 1.07209E-04-6.46035E-03 5.40404E-07
 -1        38 1.25536E-04-9.17536E-03 5.10100E-07
 -1        39 1.42759E-04-1.23038E-02 4.93998E-07
 -1        40 1.58874E-04-1.58197E-02 4.90839E-07
 -1        41 1.73895E-04-1.96977E-02 4.96200E-07
 -1        42 1.87832E-04-2.39123E-02 5.07030E-07
 -1        43 2.00700E-04-2.84385E-02 5.21497E-07
 -1        44 2.12515E-04-3.32515E-02 5.38623E-07
 -1        45 2.23298E-04-3.83271E-02 5.58020E-07
 -1        46 2.33073E-04-4.36415E-02 5.79606E-07
 -1        47 2.41866E-04-4.91717E-02 6.03403E-07
 -1        48 2.49708E-04-5.48950E-02 6.29443E-07
 -1        49 2.56633E-04-6.07898E-02 6.57730E-07
 -1        50 2.62680E-04-6.68350E-02 6.88238E-07
 -1        51 2.67890E-04-7.30109E-02 7.20915E-07
 -1        52 2.72310E-04-7.92983E-02 7.55668E-07
 -1        53 2.75990E-04-8.56795E-02 7.92345E-07
 -1        54 2.78983E-04-9.21378E-02 8.30686E-07
 -1        55 2.81349E-04-9.86580E-02 8.70293E-07
 -1        56 2.83151E-04-1.05226E-01 9.10609E-07
 -1        57 2.84456E-04-1.11830E-01 9.51051E-07
 -1        58 2.85336E-04-1.18458E-01 9.91343E-07
 -1        59 2.85865E-04-1.25103E-01 1.03325E-06
 -1        60 2.86127E-04-1.31756E-01 1.08214E-06
 -1        61 2.86197E-04-1.38412E-01 1.15018E-06
 -1        62-2.20677E-05-2.51273E-04-8.23730E-07
 -1        63-4.56797E-05-1.05407E-03-7.53921E-07
 -1        64-6.71800E-05-2.37431E-03-6.61981E-07
 -1        65-8.77512E-05-4.18452E-03-6.07602E-07
 -1        66-1.07209E-04-6.46035E-03-5.40404E-07
 -1        67-1.25536E-04-9.17536E-03-5.10100E-07
 -1        68-1.42759E-04-1.23038E-02-4.93998E-07
 -1        69-1.58874E-04-1.58197E-02-4.90839E-07
 -1        70-1.73895E-04-1.96977E-02-4.96200E-07
 -1        71-1.87832E-04-2.39123E-02-5.07030E-07
 -1        72-2.00700E-04-2.84385E-02-5.21496E-07
 -1        73-2.12515E-04-3.32515E-02-5.38622E-07
 -1        74-2.23298E-04-3.83271E-02-5.58019E-07
 -1        75-2.33073E-04-4.36415E-02-5.79605E-07
 -1        76-2.41866E-04-4.91717E-02-6.03402E-07
 -1        77-2.49708E-04-5.48950E-02-6.29442E-07
 -1        78-2.56633E-04-6.07898E-02-6.57729E-07
 -1        79-2.62680E-04-6.68350E-02-6.88237E-07
 -1        80-2.67890E-04-7.30109E-02-7.20914E-07
 -1        81-2.72310E-04-7.92983E-02-7.55667E-07
 -1        82-2.75990E-04-8.56795E-02-7.92344E-07
 -1        83-2.78983E-04-9.21378E-02-8.30685E-07
 -1        84-2.81349E-04-9.86580E-02-8.70292E-07
 -1        85-2.83151E-04-1.05226E-01-9.10608E-07
 -1        86-2.84456E-04-1.11830E-01-9.51050E-07
 -1        87-2.85336E-04-1.18458E-01-9.91342E-07
 -1        88-2.85865E-04-1.25103E-01-1.03325E-06
 -1        89-2.86127E-04-1.31756E-01-1.08213E-06
 -1        90-2.86197E-04-1.38412E-01-1.15018E-06
 -1        91 0.00000E+00 0.00000E+00 0.00000E+00
 -1        92 0.00000E+00 0.00000E+00 0.00000E+00
 -1        93 0.00000E+00 0.00000E+00 0.00000E+00
 -1        94 0.00000E+00 0.00000E+00 0.00000E+00
 -1        95 0.00000E+00 0.00000E+00 0.00000E+00
 -1        96 0.00000E+00 0.00000E+00 0.00000E+00
 -1        97-2.20677E-05-2.51273E-04 8.23730E-07
 -1        98-4.56797E-05-1.05407E-03 7.53921E-07
 -1        99-6.71800E-05-2.37431E-03 6.61981E-07
 -1       100-8.77512E-05-4.18452E-03 6.07602E-07
 -1       101-1.07209E-04-6.46035E-03 5.40404E-07
 -1       102-1.25536E-04-9.17536E-03 5.10100E-07
 -1       103-1.42759E-04-1.23038E-02 4.93998E-07
 -1       104-1.58874E-04-1.58197E-02 4.90840E-07
 -1       105-1.73895E-04-1.96977E-02 4.96200E-07
 -1       106-1.87832E-04-2.39123E-02 5.07031E-07
 -1       107-2.00700E-04-2.84385E-02 5.21497E-07
 -1       108-2.12515E-04-3.32515E-02 5.38623E-07
 -1       109-2.23298E-04-3.83271E-02 5.58020E-07
 -1       110-2.33073E-04-4.36415E-02 5.79606E-07
 -1       111-2.41866E-04-4.91717E-02 6.03404E-07
 -1       112-2.49708E-04-5.48950E-02 6.29443E-07
 -1       113-2.56633E-04-6.07898E-02 6.57730E-07
 -1       114-2.62680E-04-6.68350E-02 6.88239E-07
 -1       115-2.67890E-04-7.30109E-02 7.20915E-07
 -1       116-2.72310E-04-7.92983E-02 7.55669E-07
 -1       117-2.75990E-04-8.56795E-02 7.92345E-07
 -1       118-2.78983E-04-9.21378E-02 8.30687E-07
 -1       119-2.81349E-04-9.86580E-02 8.70293E-07
 -1       120-2.83151E-04-1.05226E-01 9.10610E-07
 -1       121-2.84456E-04-1.11830E-01 9.51051E-07
 -1       122-2.85336E-04-1.18458E-01 9.91343E-07
 -1       123-2.85865E-04-1.25103E-01 1.03325E-06
 -1       124-2.86127E-04-1.31756E-01 1.08214E-06
 -1       125-2.86197E-04-1.38412E-01 1.15018E-06
 -1       126-2.86328E-04-1.45092E-01-8.78156E-07
 -1       127-2.86371E-04-1.45102E-01 9.24439E-13
 -1       128-2.86328E-04-1.45092E-01 8.78157E-07
 -1       129 2.20677E-05-2.51273E-04-8.23730E-07
 -1       130 4.56797E-05-1.05407E-03-7.53921E-07
 -1       131 6.71800E-05-2.37431E-03-6.61981E-07
 -1       132 8.77512E-05-4.18452E-03-6.07602E-07
 -1       133 1.07209E-04-6.46035E-03-5.40404E-07
 -1       134 1.25536E-04-9.17536E-03-5.10100E-07
 -1       135 1.42759E-04-1.23038E-02-4.93998E-07
 -1       136 1.58874E-04-1.58197E-02-4.90839E-07
 -1       137 1.73895E-04-1.96977E-02-4.96200E-07
 -1       138 1.87832E-04-2.39123E-02-5.07030E-07
 -1       139 2.00700E-04-2.84385E-02-5.21496E-07
 -1       140 2.12515E-04-3.32515E-02-5.38622E-07
 -1       141 2.23298E-04-3.83271E-02-5.58019E-07
 -1       142 2.33073E-04-4.36415E-02-5.79605E-07
 -1       143 2.41866E-04-4.91717E-02-6.03403E-07
 -1       144 2.49708E-04-5.48950E-02-6.29443E-07
 -1       145 2.56633E-04-6.07898E-02-6.57729E-07
 -1       146 2.62680E-04-6.68350E-02-6.88238E-07
 -1       147 2.67890E-04-7.30109E-02-7.20914E-07
 -1       148 2.72310E-04-7.92983E-02-7.55668E-07
 -1       149 2.75990E-04-8.56795E-02-7.92344E-07
 -1       150 2.78983E-04-9.21378E-02-8.30686E-07
 -1       151 2.81349E-04-9.86580E-02-8.70292E-07
 -1       152 2.83151E-04-1.05226E-01-9.10609E-07
 -1       153 2.84456E-04-1.11830E-01-9.51050E-07
 -1       154 2.85336E-04-1.18458E-01-9.91342E-07
 -1       155 2.85865E-04-1.25103E-01-1.03325E-06
 -1       156 2.86127E-04-1.31756E-01-1.08213E-06
 -1       157 2.86197E-04-1.38412E-01-1.15018E-06
 -1       158 2.86328E-04-1.45092E-01-8.78156E-07
 -1       159 2.86371E-04-1.45102E-01 3.02772E-13
 -1       160 2.86328E-04-1.45092E-01 8.78157E-07
 -1       161-2.11064E-05-2.49676E-04-9.41050E-07
 -1       162-4.49689E-05-1.05225E-03-5.84534E-07
 -1       163-6.65461E-05-2.37214E-03-7.33654E-07
 -1       164-8.70695E-05-4.18250E-03-6.32147E-07
 -1       165-1.06547E-04-6.45852E-03-5.75437E-07
 -1       166-1.24874E-04-9.17368E-03-5.35592E-07
 -1       167-1.42102E-04-1.23022E-02-5.15708E-07
 -1       168-1.58224E-04-1.58182E-02-5.10406E-07
 -1       169-1.73252E-04-1.96961E-02-5.14853E-07
 -1       170-1.87198E-04-2.39107E-02-5.25070E-07
 -1       171-2.00076E-04-2.84368E-02-5.38985E-07
 -1       172-2.11903E-04-3.32497E-02-5.55557E-07
 -1       173-2.22700E-04-3.83253E-02-5.74415E-07
 -1       174-2.32491E-04-4.36397E-02-5.95494E-07
 -1       175-2.41303E-04-4.91697E-02-6.18829E-07
 -1       176-2.49165E-04-5.48930E-02-6.44458E-07
 -1       177-2.56114E-04-6.07876E-02-6.72394E-07
 -1       178-2.62186E-04-6.68328E-02-7.02618E-07
 -1       179-2.67423E-04-7.30085E-02-7.35081E-07
 -1       180-2.71873E-04-7.92958E-02-7.69691E-07
 -1       181-2.75585E-04-8.56769E-02-8.06283E-07
 -1       182-2.78614E-04-9.21351E-02-8.44569E-07
 -1       183-2.81017E-04-9.86552E-02-8.84106E-07
 -1       184-2.82859E-04-1.05223E-01-9.24321E-07
 -1       185-2.84207E-04-1.11827E-01-9.64769E-07
 -1       186-2.85131E-04-1.18455E-01-1.00558E-06
 -1       187-2.85709E-04-1.25099E-01-1.04908E-06
 -1       188-2.86020E-04-1.31752E-01-1.09964E-06
 -1       189-2.86149E-04-1.38408E-01-1.16841E-06
 -1       190 0.00000E+00 0.00000E+00 0.00000E+00
 -1       191 0.00000E+00 0.00000E+00 0.00000E+00
 -1       192-3.13792E-03-1.45064E-01-1.38709E-05
 -1       193-4.60586E-04-3.25930E-04-1.79018E-05
 -1       194-9.42004E-04-1.11475E-03-2.12243E-05
 -1       195-1.39509E-03-2.43136E-03-2.39022E-05
 -1       196-1.82573E-03-4.23889E-03-2.26698E-05
 -1       197-2.23268E-03-6.51168E-03-2.08572E-05
 -1       198-2.61647E-03-9.22373E-03-1.92159E-05
 -1       199-2.97699E-03-1.23491E-02-1.81441E-05
 -1       200-3.31441E-03-1.58620E-02-1.75062E-05
 -1       201-3.62892E-03-1.97369E-02-1.71316E-05
 -1       202-3.92076E-03-2.39484E-02-1.69005E-05
 -1       203-4.19026E-03-2.84715E-02-1.67535E-05
 -1       204-4.43775E-03-3.32816E-02-1.66681E-05
 -1       205-4.66368E-03-3.83542E-02-1.66386E-05
 -1       206-4.86854E-03-4.36658E-02-1.66663E-05
 -1       207-5.05289E-03-4.91932E-02-1.67538E-05
 -1       208-5.21737E-03-5.49138E-02-1.69037E-05
 -1       209-5.36270E-03-6.08059E-02-1.71182E-05
 -1       210-5.48968E-03-6.68487E-02-1.73987E-05
 -1       211-5.59919E-03-7.30221E-02-1.77459E-05
 -1       212-5.69220E-03-7.93073E-02-1.81596E-05
 -1       213-5.76975E-03-8.56863E-02-1.86373E-05
 -1       214-5.83299E-03-9.21427E-02-1.91729E-05
 -1       215-5.88315E-03-9.86611E-02-1.97564E-05
 -1       216-5.92153E-03-1.05228E-01-2.03769E-05
 -1       217-5.94955E-03-1.11830E-01-2.10343E-05
 -1       218-5.96872E-03-1.18457E-01-2.17581E-05
 -1       219-5.98061E-03-1.25101E-01-2.26191E-05
 -1       220-5.98689E-03-1.31753E-01-2.36976E-05
 -1       221-5.98932E-03-1.38408E-01-2.49925E-05
 -1       222-4.59704E-04-3.26291E-04 7.85245E-06
 -1       223-9.41450E-04-1.11645E-03-2.61343E-06
 -1       224-1.39511E-03-2.43351E-03-4.64555E-06
 -1       225-1.82597E-03-4.24097E-03-4.85459E-06
 -1       226-2.23293E-03-6.51356E-03-3.93401E-06
 -1       227-2.61666E-03-9.22542E-03-3.31294E-06
 -1       228-2.97711E-03-1.23507E-02-3.22713E-06
 -1       229-3.31448E-03-1.58636E-02-3.57391E-06
 -1       230-3.62897E-03-1.97385E-02-4.17321E-06
 -1       231-3.92080E-03-2.39501E-02-4.90470E-06
 -1       232-4.19029E-03-2.84732E-02-5.70614E-06
 -1       233-4.43778E-03-3.32833E-02-6.55232E-06
 -1       234-4.66370E-03-3.83561E-02-7.43493E-06
 -1       235-4.86855E-03-4.36677E-02-8.35200E-06
 -1       236-5.05288E-03-4.91951E-02-9.30312E-06
 -1       237-5.21736E-03-5.49158E-02-1.02877E-05
 -1       238-5.36268E-03-6.08081E-02-1.13044E-05
 -1       239-5.48965E-03-6.68509E-02-1.23512E-05
 -1       240-5.59915E-03-7.30245E-02-1.34253E-05
 -1       241-5.69215E-03-7.93097E-02-1.45227E-05
 -1       242-5.76970E-03-8.56889E-02-1.56373E-05
 -1       243-5.83293E-03-9.21454E-02-1.67593E-05
 -1       244-5.88307E-03-9.86639E-02-1.78749E-05
 -1       245-5.92145E-03-1.05231E-01-1.89692E-05
 -1       246-5.94947E-03-1.11833E-01-2.00383E-05
 -1       247-5.96862E-03-1.18460E-01-2.11078E-05
 -1       248-5.98048E-03-1.25104E-01-2.22445E-05
 -1       249-5.98674E-03-1.31756E-01-2.35268E-05
 -1       250-5.98915E-03-1.38412E-01-2.49441E-05
 -1       251-3.13780E-03-1.45068E-01-1.38614E-05
 -1       252-2.86149E-04-1.38408E-01 1.16842E-06
 -1       253-2.86020E-04-1.31752E-01 1.09964E-06
 -1       254-2.85709E-04-1.25099E-01 1.04908E-06
 -1       255-2.85131E-04-1.18455E-01 1.00558E-06
 -1       256-2.84207E-04-1.11827E-01 9.64771E-07
 -1       257-2.82859E-04-1.05223E-01 9.24323E-07
 -1       258-2.81017E-04-9.86552E-02 8.84107E-07
 -1       259-2.78614E-04-9.21351E-02 8.44571E-07
 -1       260-2.75585E-04-8.56769E-02 8.06284E-07
 -1       261-2.71873E-04-7.92958E-02 7.69692E-07
 -1       262-2.67423E-04-7.30085E-02 7.35082E-07
 -1       263-2.62186E-04-6.68328E-02 7.02619E-07
 -1       264-2.56114E-04-6.07876E-02 6.72396E-07
 -1       265-2.49165E-04-5.48930E-02 6.44459E-07
 -1       266-2.41303E-04-4.91697E-02 6.18830E-07
 -1       267-2.32491E-04-4.36397E-02 5.95495E-07
 -1       268-2.22700E-04-3.83253E-02 5.74416E-07
 -1       269-2.11903E-04-3.32497E-02 5.55558E-07
 -1       270-2.00076E-04-2.84368E-02 5.38986E-07
 -1       271-1.87198E-04-2.39107E-02 5.25070E-07
 -1       272-1.73252E-04-1.96961E-02 5.14854E-07
 -1       273-1.58224E-04-1.58182E-02 5.10407E-07
 -1       274-1.42102E-04-1.23022E-02 5.15709E-07
 -1       275-1.24874E-04-9.17368E-03 5.35593E-07
 -1       276-1.06547E-04-6.45852E-03 5.75437E-07
 -1       277-8.70695E-05-4.18250E-03 6.32147E-07
 -1       278-6.65461E-05-2.37214E-03 7.33654E-07
 -1       279-4.49689E-05-1.05225E-03 5.84534E-07
 -1       280-2.11064E-05-2.49676E-04 9.41050E-07
 -1       281 0.00000E+00 0.00000E+00 0.00000E+00
 -1       282 0.00000E+00 0.00000E+00 0.00000E+00
 -1       283-4.59704E-04-3.26291E-04-7.85244E-06
 -1       284-9.41450E-04-1.11645E-03 2.61343E-06
 -1       285-1.39511E-03-2.43351E-03 4.64555E-06
 -1       286-1.82597E-03-4.24097E-03 4.85459E-06
 -1       287-2.23293E-03-6.51356E-03 3.93401E-06
 -1       288-2.61666E-03-9.22542E-03 3.31294E-06
 -1       289-2.97711E-03-1.23507E-02 3.22714E-06
 -1       290-3.31448E-03-1.58636E-02 3.57391E-06
 -1       291-3.62897E-03-1.97385E-02 4.17321E-06
 -1       292-3.92080E-03-2.39501E-02 4.90470E-06
 -1       293-4.19029E-03-2.84732E-02 5.70615E-06
 -1       294-4.43778E-03-3.32833E-02 6.55232E-06
 -1       295-4.66370E-03-3.83561E-02 7.43494E-06
 -1       296-4.86855E-03-4.36677E-02 8.35201E-06
 -1       297-5.05288E-03-4.91951E-02 9.30312E-06
 -1       298-5.21736E-03-5.49158E-02 1.02877E-05
 -1       299-5.36268E-03-6.08081E-02 1.13044E-05
 -1       300-5.48965E-03-6.68509E-02 1.23512E-05
 -1       301-5.59915E-03-7.30245E-02 1.34253E-05
 -1       302-5.69215E-03-7.93097E-02 1.45227E-05
 -1       303-5.76970E-03-8.56889E-02 1.56373E-05
 -1       304-5.83293E-03-9.21454E-02 1.67594E-05
 -1       305-5.88307E-03-9.86639E-02 1.78749E-05
 -1       306-5.92145E-03-1.05231E-01 1.89692E-05
 -1       307-5.94947E-03-1.11833E-01 2.00383E-05
 -1       308-5.96862E-03-1.18460E-01 2.11078E-05
 -1       309-5.98048E-03-1.25104E-01 2.22445E-05
 -1       310-5.98674E-03-1.31756E-01 2.35268E-05
 -1       311-5.98915E-03-1.38412E-01 2.49442E-05
 -1       312-3.13780E-03-1.45068E-01 1.38614E-05
 -1       313-4.60586E-04-3.25930E-04 1.79018E-05
 -1       314-9.42004E-04-1.11475E-03 2.12243E-05
 -1       315-1.39509E-03-2.43136E-03 2.39022E-05
 -1       316-1.82573E-03-4.23889E-03 2.26698E-05
 -1       317-2.23268E-03-6.51168E-03 2.08572E-05
 -1       318-2.61647E-03-9.22373E-03 1.92159E-05
 -1       319-2.97699E-03-1.23491E-02 1.81441E-05
 -1       320-3.31441E-03-1.58620E-02 1.75062E-05
 -1       321-3.62892E-03-1.97369E-02 1.71316E-05
 -1       322-3.92076E-03-2.39484E-02 1.69005E-05
 -1       323-4.19026E-03-2.84715E-02 1.67535E-05
 -1       324-4.43775E-03-3.32816E-02 1.66681E-05
 -1       325-4.66368E-03-3.83542E-02 1.66386E-05
 -1       326-4.86854E-03-4.36658E-02 1.66663E-05
 -1       327-5.05289E-03-4.91932E-02 1.67538E-05
 -1       328-5.21737E-03-5.49138E-02 1.69037E-05
 -1       329-5.36270E-03-6.08059E-02 1.71182E-05
 -1       330-5.48968E-03-6.68487E-02 1.73987E-05
 -1       331-5.59919E-03-7.30221E-02 1.77460E-05
 -1       332-5.69220E-03-7.93073E-02 1.81596E-05
 -1       333-5.76975E-03-8.56863E-02 1.86373E-05
 -1       334-5.83299E-03-9.21427E-02 1.91729E-05
 -1       335-5.88315E-03-9.86611E-02 1.97564E-05
 -1       336-5.92153E-03-1.05228E-01 2.03770E-05
 -1       337-5.94955E-03-1.11830E-01 2.10343E-05
 -1       338-5.96872E-03-1.18457E-01 2.17582E-05
 -1       339-5.98061E-03-1.25101E-01 2.26191E-05
 -1       340-5.98689E-03-1.31753E-01 2.36977E-05
 -1       341-5.98932E-03-1.38408E-01 2.49925E-05
 -1       342-3.13792E-03-1.45064E-01 1.38709E-05
 -1       343 4.60586E-04-3.25930E-04 1.79018E-05
 -1       344 9.42004E-04-1.11475E-03 2.12243E-05
 -1       345 1.39509E-03-2.43136E-03 2.39022E-05
 -1       346 1.82573E-03-4.23889E-03 2.26698E-05
 -1       347 2.23268E-03-6.51168E-03 2.08572E-05
 -1       348 2.61647E-03-9.22373E-03 1.92159E-05
 -1       349 2.97699E-03-1.23491E-02 1.81441E-05
 -1       350 3.31441E-03-1.58620E-02 1.75062E-05
 -1       351 3.62892E-03-1.97369E-02 1.71316E-05
 -1       352 3.92076E-03-2.39484E-02 1.69005E-05
 -1       353 4.19026E-03-2.84715E-02 1.67535E-05
 -1       354 4.43775E-03-3.32816E-02 1.66681E-05
 -1       355 4.66368E-03-3.83542E-02 1.66386E-05
 -1       356 4.86854E-03-4.36658E-02 1.66663E-05
 -1       357 5.05289E-03-4.91932E-02 1.67538E-05
 -1       358 5.21737E-03-5.49138E-02 1.69037E-05
 -1       359 5.36270E-03-6.08059E-02 1.71182E-05
 -1       360 5.48968E-03-6.68487E-02 1.73987E-05
 -1       361 5.59919E-03-7.30221E-02 1.77459E-05
 -1       362 5.69220E-03-7.93073E-02 1.81596E-05
 -1       363 5.76975E-03-8.56863E-02 1.86373E-05
 -1       364 5.83299E-03-9.21427E-02 1.91729E-05
 -1       365 5.88315E-03-9.86611E-02 1.97564E-05
 -1       366 5.92153E-03-1.05228E-01 2.03769E-05
 -1       367 5.94955E-03-1.11830E-01 2.10343E-05
 -1       368 5.96872E-03-1.18457E-01 2.17581E-05
 -1       369 5.98061E-03-1.25101E-01 2.26191E-05
 -1       370 5.98689E-03-1.31753E-01 2.36976E-05
 -1       371 5.98932E-03-1.38408E-01 2.49925E-05
 -1       372 4.59704E-04-3.26291E-04-7.85245E-06
 -1       373 9.41450E-04-1.11645E-03 2.61343E-06
 -1       374 1.39511E-03-2.43351E-03 4.64555E-06
 -1       375 1.82597E-03-4.24097E-03 4.85459E-06
 -1       376 2.23293E-03-6.51356E-03 3.93401E-06
 -1       377 2.61666E-03-9.22542E-03 3.31294E-06
 -1       378 2.97711E-03-1.23507E-02 3.22713E-06
 -1       379 3.31448E-03-1.58636E-02 3.57391E-06
 -1       380 3.62897E-03-1.97385E-02 4.17321E-06
 -1       381 3.92080E-03-2.39501E-02 4.90470E-06
 -1       382 4.19029E-03-2.84732E-02 5.70615E-06
 -1       383 4.43778E-03-3.32833E-02 6.55232E-06
 -1       384 4.66370E-03-3.83561E-02 7.43493E-06
 -1       385 4.86855E-03-4.36677E-02 8.35200E-06
 -1       386 5.05288E-03-4.91951E-02 9.30312E-06
 -1       387 5.21736E-03-5.49158E-02 1.02877E-05
 -1       388 5.36268E-03-6.08081E-02 1.13044E-05
 -1       389 5.48965E-03-6.68509E-02 1.23512E-05
 -1       390 5.59915E-03-7.30245E-02 1.34253E-05
 -1       391 5.69215E-03-7.93097E-02 1.45227E-05
 -1       392 5.76970E-03-8.56889E-02 1.56373E-05
 -1       393 5.83293E-03-9.21454E-02 1.67594E-05
 -1       394 5.88307E-03-9.86639E-02 1.78749E-05
 -1       395 5.92145E-03-1.05231E-01 1.89692E-05
 -1       396 5.94947E-03-1.11833E-01 2.00383E-05
 -1       397 5.96862E-03-1.18460E-01 2.11078E-05
 -1       398 5.98048E-03-1.25104E-01 2.22445E-05
 -1       399 5.98674E-03-1.31756E-01 2.35268E-05
 -1       400 5.98915E-03-1.38412E-01 2.49441E-05
 -1       401 0.00000E+00 0.00000E+00 0.00000E+00
 -1       402 0.00000E+00 0.00000E+00 0.00000E+00
 -1       403 3.13792E-03-1.45064E-01 1.38709E-05
 -1       404 2.11064E-05-2.49676E-04 9.41050E-07
 -1       405 4.49689E-05-1.05225E-03 5.84534E-07
 -1       406 6.65461E-05-2.37214E-03 7.33654E-07
 -1       407 8.70695E-05-4.18250E-03 6.32147E-07
 -1       408 1.06547E-04-6.45852E-03 5.75437E-07
 -1       409 1.24874E-04-9.17368E-03 5.35593E-07
 -1       410 1.42102E-04-1.23022E-02 5.15709E-07
 -1       411 1.58224E-04-1.58182E-02 5.10407E-07
 -1       412 1.73252E-04-1.96961E-02 5.14854E-07
 -1       413 1.87198E-04-2.39107E-02 5.25070E-07
 -1       414 2.00076E-04-2.84368E-02 5.38986E-07
 -1       415 2.11903E-04-3.32497E-02 5.55557E-07
 -1       416 2.22700E-04-3.83253E-02 5.74416E-07
 -1       417 2.32491E-04-4.36397E-02 5.95495E-07
 -1       418 2.41303E-04-4.91697E-02 6.18829E-07
 -1       419 2.49165E-04-5.48930E-02 6.44459E-07
 -1       420 2.56114E-04-6.07876E-02 6.72395E-07
 -1       421 2.62186E-04-6.68328E-02 7.02619E-07
 -1       422 2.67423E-04-7.30085E-02 7.35082E-07
 -1       423 2.71873E-04-7.92958E-02 7.69692E-07
 -1       424 2.75585E-04-8.56769E-02 8.06284E-07
 -1       425 2.78614E-04-9.21351E-02 8.44570E-07
 -1       426 2.81017E-04-9.86552E-02 8.84107E-07
 -1       427 2.82859E-04-1.05223E-01 9.24322E-07
 -1       428 2.84207E-04-1.11827E-01 9.64770E-07
 -1       429 2.85131E-04-1.18455E-01 1.00558E-06
 -1       430 2.85709E-04-1.25099E-01 1.04908E-06
 -1       431 2.86020E-04-1.31752E-01 1.09964E-06
 -1       432 2.86149E-04-1.38408E-01 1.16842E-06
 -1       433 3.13780E-03-1.45068E-01 1.38614E-05
 -1       434 0.00000E+00 0.00000E+00 0.00000E+00
 -1       435 0.00000E+00 0.00000E+00 0.00000E+00
 -1       436 2.86149E-04-1.38408E-01-1.16841E-06
 -1       437 2.86020E-04-1.31752E-01-1.09964E-06
 -1       438 2.85709E-04-1.25099E-01-1.04908E-06
 -1       439 2.85131E-04-1.18455E-01-1.00558E-06
 -1       440 2.84207E-04-1.11827E-01-9.64770E-07
 -1       441 2.82859E-04-1.05223E-01-9.24322E-07
 -1       442 2.81017E-04-9.86552E-02-8.84106E-07
 -1       443 2.78614E-04-9.21351E-02-8.44569E-07
 -1       444 2.75585E-04-8.56769E-02-8.06283E-07
 -1       445 2.71873E-04-7.92958E-02-7.69691E-07
 -1       446 2.67423E-04-7.30085E-02-7.35081E-07
 -1       447 2.62186E-04-6.68328E-02-7.02618E-07
 -1       448 2.56114E-04-6.07876E-02-6.72395E-07
 -1       449 2.49165E-04-5.48930E-02-6.44459E-07
 -1       450 2.41303E-04-4.91697E-02-6.18829E-07
 -1       451 2.32491E-04-4.36397E-02-5.95494E-07
 -1       452 2.22700E-04-3.83253E-02-5.74415E-07
 -1       453 2.11903E-04-3.32497E-02-5.55557E-07
 -1       454 2.00076E-04-2.84368E-02-5.38986E-07
 -1       455 1.87198E-04-2.39107E-02-5.25070E-07
 -1       456 1.73252E-04-1.96961E-02-5.14853E-07
 -1       457 1.58224E-04-1.58182E-02-5.10406E-07
 -1       458 1.42102E-04-1.23022E-02-5.15708E-07
 -1       459 1.24874E-04-9.17368E-03-5.35593E-07
 -1       460 1.06547E-04-6.45852E-03-5.75437E-07
 -1       461 8.70695E-05-4.18250E-03-6.32147E-07
 -1       462 6.65461E-05-2.37214E-03-7.33654E-07
 -1       463 4.49689E-05-1.05225E-03-5.84534E-07
 -1       464 2.11064E-05-2.49676E-04-9.41050E-07
 -1       465 3.13792E-03-1.45064E-01-1.38709E-05
 -1       466 4.60586E-04-3.25930E-04-1.79018E-05
 -1       467 9.42004E-04-1.11475E-03-2.12243E-05
 -1       468 1.39509E-03-2.43136E-03-2.39022E-05
 -1       469 1.82573E-03-4.23889E-03-2.26698E-05
 -1       470 2.23268E-03-6.51168E-03-2.08572E-05
 -1       471 2.61647E-03-9.22373E-03-1.92159E-05
 -1       472 2.97699E-03-1.23491E-02-1.81441E-05
 -1       473 3.31441E-03-1.58620E-02-1.75062E-05
 -1       474 3.62892E-03-1.97369E-02-1.71316E-05
 -1       475 3.92076E-03-2.39484E-02-1.69005E-05
 -1       476 4.19026E-03-2.84715E-02-1.67535E-05
 -1       477 4.43775E-03-3.32816E-02-1.66681E-05
 -1       478 4.66368E-03-3.83542E-02-1.66386E-05
 -1       479 4.86854E-03-4.36658E-02-1.66663E-05
 -1       480 5.05289E-03-4.91932E-02-1.67538E-05
 -1       481 5.21737E-03-5.49138E-02-1.69037E-05
 -1       482 5.36270E-03-6.08059E-02-1.71182E-05
 -1       483 5.48968E-03-6.68487E-02-1.73987E-05
 -1       484 5.59919E-03-7.30221E-02-1.77460E-05
 -1       485 5.69220E-03-7.93073E-02-1.81596E-05
 -1       486 5.76975E-03-8.56863E-02-1.86373E-05
 -1       487 5.83299E-03-9.21427E-02-1.91729E-05
 -1       488 5.88315E-03-9.86611E-02-1.97564E-05
 -1       489 5.92153E-03-1.05228E-01-2.03770E-05
 -1       490 5.94955E-03-1.11830E-01-2.10343E-05
 -1       491 5.96872E-03-1.18457E-01-2.17582E-05
 -1       492 5.98061E-03-1.25101E-01-2.26191E-05
 -1       493 5.98689E-03-1.31753E-01-2.36977E-05
 -1       494 5.98932E-03-1.38408E-01-2.49925E-05
 -1       495 4.59704E-04-3.26291E-04 7.85244E-06
 -1       496 9.41450E-04-1.11645E-03-2.61343E-06
 -1       497 1.39511E-03-2.43351E-03-4.64555E-06
 -1       498 1.82597E-03-4.24097E-03-4.85459E-06
 -1       499 2.23293E-03-6.51356E-03-3.93401E-06
 -1       500 2.61666E-03-9.22542E-03-3.31294E-06
 -1       501 2.97711E-03-1.23507E-02-3.22714E-06
 -1       502 3.31448E-03-1.58636E-02-3.57391E-06
 -1       503 3.62897E-03-1.97385E-02-4.17321E-06
 -1       504 3.92080E-03-2.39501E-02-4.90470E-06
 -1       505 4.19029E-03-2.84732E-02-5.70615E-06
 -1       506 4.43778E-03-3.32833E-02-6.55232E-06
 -1       507 4.66370E-03-3.83561E-02-7.43494E-06
 -1       508 4.86855E-03-4.36677E-02-8.35201E-06
 -1       509 5.05288E-03-4.91951E-02-9.30312E-06
 -1       510 5.21736E-03-5.49158E-02-1.02877E-05
 -1       511 5.36268E-03-6.08081E-02-1.13044E-05
 -1       512 5.48965E-03-6.68509E-02-1.23512E-05
 -1       513 5.59915E-03-7.30245E-02-1.34253E-05
 -1       514 5.69215E-03-7.93097E-02-1.45227E-05
 -1       515 5.76970E-03-8.56889E-02-1.56373E-05
 -1       516 5.83293E-03-9.21454E-02-1.67594E-05
 -1       517 5.88307E-03-9.86639E-02-1.78749E-05
 -1       518 5.92145E-03-1.05231E-01-1.89692E-05
 -1       519 5.94947E-03-1.11833E-01-2.00383E-05
 -1       520 5.96862E-03-1.18460E-01-2.11078E-05
 -1       521 5.98048E-03-1.25104E-01-2.22445E-05
 -1       522 5.98674E-03-1.31756E-01-2.35268E-05
 -1       523 5.98915E-03-1.38412E-01-2.49442E-05
 -1       524 3.13780E-03-1.45068E-01-1.38614E-05
 -1       525-2.31705E-05-2.68762E-04-5.71459E-07
 -1       526-4.57430E-05-1.06865E-03-5.53092E-07
 -1       527-6.74730E-05-2.38576E-03-3.73677E-07
 -1       528-8.80555E-05-4.19449E-03-3.04815E-07
 -1       529-1.07537E-04-6.46922E-03-2.76921E-07
 -1       530-1.25885E-04-9.18384E-03-2.66160E-07
 -1       531-1.43113E-04-1.23121E-02-2.65390E-07
 -1       532-1.59234E-04-1.58281E-02-2.69629E-07
 -1       533-1.74256E-04-1.97063E-02-2.77995E-07
 -1       534-1.88192E-04-2.39212E-02-2.89704E-07
 -1       535-2.01057E-04-2.84477E-02-3.03858E-07
 -1       536-2.12867E-04-3.32611E-02-3.19834E-07
 -1       537-2.23645E-04-3.83371E-02-3.37323E-07
 -1       538-2.33412E-04-4.36521E-02-3.56228E-07
 -1       539-2.42197E-04-4.91827E-02-3.76536E-07
 -1       540-2.50030E-04-5.49066E-02-3.98246E-07
 -1       541-2.56945E-04-6.08020E-02-4.21338E-07
 -1       542-2.62980E-04-6.68479E-02-4.45775E-07
 -1       543-2.68177E-04-7.30244E-02-4.71500E-07
 -1       544-2.72582E-04-7.93126E-02-4.98438E-07
 -1       545-2.76245E-04-8.56945E-02-5.26483E-07
 -1       546-2.79221E-04-9.21536E-02-5.55490E-07
 -1       547-2.81568E-04-9.86746E-02-5.85237E-07
 -1       548-2.83348E-04-1.05244E-01-6.15336E-07
 -1       549-2.84629E-04-1.11848E-01-6.45127E-07
 -1       550-2.85483E-04-1.18478E-01-6.73823E-07
 -1       551-2.85989E-04-1.25123E-01-7.01494E-07
 -1       552-2.86233E-04-1.31776E-01-7.33003E-07
 -1       553-2.86312E-04-1.38434E-01-7.85777E-07
 -1       554-2.32226E-05-2.73802E-04 8.91024E-15
 -1       555-4.55561E-05-1.07559E-03 2.55495E-14
 -1       556-6.72573E-05-2.38989E-03 5.00617E-14
 -1       557-8.79264E-05-4.19773E-03 8.12084E-14
 -1       558-1.07410E-04-6.47226E-03 1.17362E-13
 -1       559-1.25764E-04-9.18674E-03 1.57283E-13
 -1       560-1.42997E-04-1.23150E-02 1.99626E-13
 -1       561-1.59120E-04-1.58311E-02 2.43735E-13
 -1       562-1.74145E-04-1.97094E-02 2.90146E-13
 -1       563-1.88084E-04-2.39244E-02 3.37267E-13
 -1       564-2.00952E-04-2.84510E-02 3.83658E-13
 -1       565-2.12765E-04-3.32646E-02 4.29908E-13
 -1       566-2.23546E-04-3.83409E-02 4.75495E-13
 -1       567-2.33317E-04-4.36561E-02 5.19913E-13
 -1       568-2.42106E-04-4.91870E-02 5.62404E-13
 -1       569-2.49943E-04-5.49111E-02 6.02513E-13
 -1       570-2.56863E-04-6.08067E-02 6.38855E-13
 -1       571-2.62903E-04-6.68529E-02 6.71489E-13
 -1       572-2.68105E-04-7.30297E-02 7.01489E-13
 -1       573-2.72516E-04-7.93182E-02 7.29066E-13
 -1       574-2.76186E-04-8.57005E-02 7.53470E-13
 -1       575-2.79168E-04-9.21599E-02 7.74519E-13
 -1       576-2.81522E-04-9.86813E-02 7.93678E-13
 -1       577-2.83310E-04-1.05251E-01 8.11066E-13
 -1       578-2.84598E-04-1.11855E-01 8.26715E-13
 -1       579-2.85459E-04-1.18485E-01 8.43789E-13
 -1       580-2.85973E-04-1.25131E-01 8.62515E-13
 -1       581-2.86232E-04-1.31785E-01 8.83241E-13
 -1       582-2.86338E-04-1.38443E-01 9.04329E-13
 -1       583-2.31705E-05-2.68762E-04 5.71459E-07
 -1       584-4.57430E-05-1.06865E-03 5.53092E-07
 -1       585-6.74730E-05-2.38576E-03 3.73677E-07
 -1       586-8.80555E-05-4.19449E-03 3.04815E-07
 -1       587-1.07537E-04-6.46922E-03 2.76921E-07
 -1       588-1.25885E-04-9.18384E-03 2.66160E-07
 -1       589-1.43113E-04-1.23121E-02 2.65390E-07
 -1       590-1.59234E-04-1.58281E-02 2.69629E-07
 -1       591-1.74256E-04-1.97063E-02 2.77996E-07
 -1       592-1.88192E-04-2.39212E-02 2.89705E-07
 -1       593-2.01057E-04-2.84477E-02 3.03859E-07
 -1       594-2.12867E-04-3.32611E-02 3.19835E-07
 -1       595-2.23645E-04-3.83371E-02 3.37324E-07
 -1       596-2.33412E-04-4.36521E-02 3.56229E-07
 -1       597-2.42197E-04-4.91827E-02 3.76537E-07
 -1       598-2.50030E-04-5.49066E-02 3.98247E-07
 -1       599-2.56945E-04-6.08020E-02 4.21340E-07
 -1       600-2.62980E-04-6.68479E-02 4.45777E-07
 -1       601-2.68177E-04-7.30244E-02 4.71502E-07
 -1       602-2.72582E-04-7.93126E-02 4.98439E-07
 -1       603-2.76245E-04-8.56945E-02 5.26484E-07
 -1       604-2.79221E-04-9.21536E-02 5.55492E-07
 -1       605-2.81568E-04-9.86746E-02 5.85238E-07
 -1       606-2.83348E-04-1.05244E-01 6.15338E-07
 -1       607-2.84629E-04-1.11848E-01 6.45129E-07
 -1       608-2.85483E-04-1.18478E-01 6.73825E-07
 -1       609-2.85989E-04-1.25123E-01 7.01496E-07
 -1       610-2.86233E-04-1.31776E-01 7.33005E-07
 -1       611-2.86312E-04-1.38434E-01 7.85779E-07
 -1       612 2.31705E-05-2.68762E-04-5.71459E-07
 -1       613 4.57430E-05-1.06865E-03-5.53092E-07
 -1       614 6.74730E-05-2.38576E-03-3.73677E-07
 -1       615 8.80555E-05-4.19449E-03-3.04815E-07
 -1       616 1.07537E-04-6.46922E-03-2.76921E-07
 -1       617 1.25885E-04-9.18384E-03-2.66160E-07
 -1       618 1.43113E-04-1.23121E-02-2.65390E-07
 -1       619 1.59234E-04-1.58281E-02-2.69629E-07
 -1       620 1.74256E-04-1.97063E-02-2.77996E-07
 -1       621 1.88192E-04-2.39212E-02-2.89704E-07
 -1       622 2.01057E-04-2.84477E-02-3.03858E-07
 -1       623 2.12867E-04-3.32611E-02-3.19834E-07
 -1       624 2.23645E-04-3.83371E-02-3.37324E-07
 -1       625 2.33412E-04-4.36521E-02-3.56228E-07
 -1       626 2.42197E-04-4.91827E-02-3.76536E-07
 -1       627 2.50030E-04-5.49066E-02-3.98246E-07
 -1       628 2.56945E-04-6.08020E-02-4.21339E-07
 -1       629 2.62980E-04-6.68479E-02-4.45776E-07
 -1       630 2.68177E-04-7.30244E-02-4.71501E-07
 -1       631 2.72582E-04-7.93126E-02-4.98438E-07
 -1       632 2.76245E-04-8.56945E-02-5.26483E-07
 -1       633 2.79221E-04-9.21536E-02-5.55491E-07
 -1       634 2.81568E-04-9.86746E-02-5.85237E-07
 -1       635 2.83348E-04-1.05244E-01-6.15336E-07
 -1       636 2.84629E-04-1.11848E-01-6.45127E-07
 -1       637 2.85483E-04-1.18478E-01-6.73824E-07
 -1       638 2.85989E-04-1.25123E-01-7.01495E-07
 -1       639 2.86233E-04-1.31776E-01-7.33004E-07
 -1       640 2.86312E-04-1.38434E-01-7.85778E-07
 -1       641 2.32226E-05-2.73802E-04 6.73749E-15
 -1       642 4.55561E-05-1.07559E-03 1.74700E-14
 -1       643 6.72573E-05-2.38989E-03 3.27027E-14
 -1       644 8.79264E-05-4.19773E-03 5.16452E-14
 -1       645 1.07410E-04-6.47226E-03 7.30624E-14
 -1       646 1.25764E-04-9.18674E-03 9.58253E-14
 -1       647 1.42997E-04-1.23150E-02 1.19086E-13
 -1       648 1.59120E-04-1.58311E-02 1.43185E-13
 -1       649 1.74145E-04-1.97094E-02 1.68256E-13
 -1       650 1.88084E-04-2.39244E-02 1.93057E-13
 -1       651 2.00952E-04-2.84510E-02 2.16211E-13
 -1       652 2.12765E-04-3.32646E-02 2.38482E-13
 -1       653 2.23546E-04-3.83409E-02 2.59790E-13
 -1       654 2.33317E-04-4.36561E-02 2.79758E-13
 -1       655 2.42106E-04-4.91870E-02 2.97674E-13
 -1       656 2.49943E-04-5.49111E-02 3.12604E-13
 -1       657 2.56863E-04-6.08067E-02 3.23997E-13
 -1       658 2.62903E-04-6.68529E-02 3.32614E-13
 -1       659 2.68105E-04-7.30297E-02 3.38598E-13
 -1       660 2.72516E-04-7.93182E-02 3.41227E-13
 -1       661 2.76186E-04-8.57005E-02 3.41005E-13
 -1       662 2.79168E-04-9.21599E-02 3.38641E-13
 -1       663 2.81522E-04-9.86813E-02 3.33601E-13
 -1       664 2.83310E-04-1.05251E-01 3.26794E-13
 -1       665 2.84598E-04-1.11855E-01 3.20268E-13
 -1       666 2.85459E-04-1.18485E-01 3.14488E-13
 -1       667 2.85973E-04-1.25131E-01 3.09855E-13
 -1       668 2.86232E-04-1.31785E-01 3.05880E-13
 -1       669 2.86338E-04-1.38443E-01 3.04088E-13
 -1       670 2.31705E-05-2.68762E-04 5.71459E-07
 -1       671 4.57430E-05-1.06865E-03 5.53092E-07
 -1       672 6.74730E-05-2.38576E-03 3.73677E-07
 -1       673 8.80555E-05-4.19449E-03 3.04815E-07
 -1       674 1.07537E-04-6.46922E-03 2.76921E-07
 -1       675 1.25885E-04-9.18384E-03 2.66160E-07
 -1       676 1.43113E-04-1.23121E-02 2.65390E-07
 -1       677 1.59234E-04-1.58281E-02 2.69629E-07
 -1       678 1.74256E-04-1.97063E-02 2.77996E-07
 -1       679 1.88192E-04-2.39212E-02 2.89705E-07
 -1       680 2.01057E-04-2.84477E-02 3.03859E-07
 -1       681 2.12867E-04-3.32611E-02 3.19834E-07
 -1       682 2.23645E-04-3.83371E-02 3.37324E-07
 -1       683 2.33412E-04-4.36521E-02 3.56229E-07
 -1       684 2.42197E-04-4.91827E-02 3.76537E-07
 -1       685 2.50030E-04-5.49066E-02 3.98246E-07
 -1       686 2.56945E-04-6.08020E-02 4.21339E-07
 -1       687 2.62980E-04-6.68479E-02 4.45776E-07
 -1       688 2.68177E-04-7.30244E-02 4.71501E-07
 -1       689 2.72582E-04-7.93126E-02 4.98439E-07
 -1       690 2.76245E-04-8.56945E-02 5.26484E-07
 -1       691 2.79221E-04-9.21536E-02 5.55491E-07
 -1       692 2.81568E-04-9.86746E-02 5.85238E-07
 -1       693 2.83348E-04-1.05244E-01 6.15337E-07
 -1       694 2.84629E-04-1.11848E-01 6.45128E-07
 -1       695 2.85483E-04-1.18478E-01 6.73824E-07
 -1       696 2.85989E-04-1.25123E-01 7.01495E-07
 -1       697 2.86233E-04-1.31776E-01 7.33005E-07
 -1       698 2.86312E-04-1.38434E-01 7.85778E-07
 -1       699-2.32705E-04-2.70654E-04-1.01313E-05
 -1       700-4.92359E-04-1.07068E-03-1.11738E-05
 -1       701-7.28411E-04-2.38866E-03-1.21789E-05
 -1       702-9.54045E-04-4.19849E-03-1.15878E-05
 -1       703-1.16731E-03-6.47354E-03-1.06154E-05
 -1       704-1.36837E-03-9.18783E-03-9.81222E-06
 -1       705-1.55726E-03-1.23154E-02-9.28142E-06
 -1       706-1.73405E-03-1.58306E-02-8.96702E-06
 -1       707-1.89884E-03-1.97077E-02-8.78530E-06
 -1       708-2.05177E-03-2.39214E-02-8.67714E-06
 -1       709-2.19299E-03-2.84466E-02-8.61295E-06
 -1       710-2.32270E-03-3.32587E-02-8.58107E-06
 -1       711-2.44111E-03-3.83335E-02-8.57847E-06
 -1       712-2.54849E-03-4.36471E-02-8.60553E-06
 -1       713-2.64513E-03-4.91764E-02-8.66360E-06
 -1       714-2.73137E-03-5.48988E-02-8.75399E-06
 -1       715-2.80759E-03-6.07928E-02-8.87772E-06
 -1       716-2.87421E-03-6.68373E-02-9.03546E-06
 -1       717-2.93168E-03-7.30124E-02-9.22757E-06
 -1       718-2.98051E-03-7.92991E-02-9.45382E-06
 -1       719-3.02126E-03-8.56796E-02-9.71294E-06
 -1       720-3.05451E-03-9.21373E-02-1.00019E-05
 -1       721-3.08092E-03-9.86569E-02-1.03156E-05
 -1       722-3.10117E-03-1.05224E-01-1.06485E-05
 -1       723-3.11601E-03-1.11828E-01-1.09994E-05
 -1       724-3.12621E-03-1.18456E-01-1.13817E-05
 -1       725-3.13261E-03-1.25100E-01-1.18300E-05
 -1       726-3.13608E-03-1.31752E-01-1.23893E-05
 -1       727-3.13755E-03-1.38408E-01-1.30764E-05
 -1       728-2.31842E-04-2.71192E-04 2.69944E-06
 -1       729-4.91945E-04-1.07245E-03-1.74726E-06
 -1       730-7.28207E-04-2.39078E-03-2.76052E-06
 -1       731-9.53962E-04-4.20057E-03-2.74749E-06
 -1       732-1.16724E-03-6.47541E-03-2.25614E-06
 -1       733-1.36825E-03-9.18953E-03-1.94647E-06
 -1       734-1.55711E-03-1.23170E-02-1.90392E-06
 -1       735-1.73388E-03-1.58322E-02-2.07554E-06
 -1       736-1.89866E-03-1.97093E-02-2.37526E-06
 -1       737-2.05158E-03-2.39230E-02-2.74284E-06
 -1       738-2.19280E-03-2.84483E-02-3.14740E-06
 -1       739-2.32251E-03-3.32605E-02-3.57593E-06
 -1       740-2.44092E-03-3.83353E-02-4.02401E-06
 -1       741-2.54830E-03-4.36489E-02-4.49054E-06
 -1       742-2.64495E-03-4.91783E-02-4.97531E-06
 -1       743-2.73119E-03-5.49009E-02-5.47803E-06
 -1       744-2.80741E-03-6.07949E-02-5.99805E-06
 -1       745-2.87403E-03-6.68395E-02-6.53433E-06
 -1       746-2.93150E-03-7.30147E-02-7.08545E-06
 -1       747-2.98034E-03-7.93015E-02-7.64939E-06
 -1       748-3.02109E-03-8.56821E-02-8.22305E-06
 -1       749-3.05435E-03-9.21400E-02-8.80153E-06
 -1       750-3.08077E-03-9.86597E-02-9.37784E-06
 -1       751-3.10103E-03-1.05227E-01-9.94442E-06
 -1       752-3.11588E-03-1.11831E-01-1.04984E-05
 -1       753-3.12609E-03-1.18459E-01-1.10513E-05
 -1       754-3.13249E-03-1.25103E-01-1.16361E-05
 -1       755-3.13596E-03-1.31756E-01-1.22950E-05
 -1       756-3.13743E-03-1.38412E-01-1.30448E-05
 -1       757-2.31842E-04-2.71192E-04-2.69944E-06
 -1       758-4.91945E-04-1.07245E-03 1.74726E-06
 -1       759-7.28207E-04-2.39078E-03 2.76052E-06
 -1       760-9.53962E-04-4.20057E-03 2.74749E-06
 -1       761-1.16724E-03-6.47541E-03 2.25614E-06
 -1       762-1.36825E-03-9.18953E-03 1.94647E-06
 -1       763-1.55711E-03-1.23170E-02 1.90392E-06
 -1       764-1.73388E-03-1.58322E-02 2.07554E-06
 -1       765-1.89866E-03-1.97093E-02 2.37526E-06
 -1       766-2.05158E-03-2.39230E-02 2.74284E-06
 -1       767-2.19280E-03-2.84483E-02 3.14741E-06
 -1       768-2.32251E-03-3.32605E-02 3.57593E-06
 -1       769-2.44092E-03-3.83353E-02 4.02401E-06
 -1       770-2.54830E-03-4.36489E-02 4.49054E-06
 -1       771-2.64495E-03-4.91783E-02 4.97531E-06
 -1       772-2.73119E-03-5.49009E-02 5.47804E-06
 -1       773-2.80741E-03-6.07949E-02 5.99805E-06
 -1       774-2.87403E-03-6.68395E-02 6.53433E-06
 -1       775-2.93150E-03-7.30147E-02 7.08545E-06
 -1       776-2.98034E-03-7.93015E-02 7.64939E-06
 -1       777-3.02109E-03-8.56821E-02 8.22305E-06
 -1       778-3.05435E-03-9.21400E-02 8.80154E-06
 -1       779-3.08077E-03-9.86597E-02 9.37785E-06
 -1       780-3.10103E-03-1.05227E-01 9.94442E-06
 -1       781-3.11588E-03-1.11831E-01 1.04984E-05
 -1       782-3.12609E-03-1.18459E-01 1.10513E-05
 -1       783-3.13249E-03-1.25103E-01 1.16361E-05
 -1       784-3.13596E-03-1.31756E-01 1.22950E-05
 -1       785-3.13743E-03-1.38412E-01 1.30448E-05
 -1       786-2.32705E-04-2.70654E-04 1.01313E-05
 -1       787-4.92359E-04-1.07068E-03 1.11738E-05
 -1       788-7.28411E-04-2.38866E-03 1.21789E-05
 -1       789-9.54045E-04-4.19849E-03 1.15878E-05
 -1       790-1.16731E-03-6.47354E-03 1.06154E-05
 -1       791-1.36837E-03-9.18783E-03 9.81222E-06
 -1       792-1.55726E-03-1.23154E-02 9.28143E-06
 -1       793-1.73405E-03-1.58306E-02 8.96702E-06
 -1       794-1.89884E-03-1.97077E-02 8.78531E-06
 -1       795-2.05177E-03-2.39214E-02 8.67714E-06
 -1       796-2.19299E-03-2.84466E-02 8.61296E-06
 -1       797-2.32270E-03-3.32587E-02 8.58107E-06
 -1       798-2.44111E-03-3.83335E-02 8.57847E-06
 -1       799-2.54849E-03-4.36471E-02 8.60554E-06
 -1       800-2.64513E-03-4.91764E-02 8.66361E-06
 -1       801-2.73137E-03-5.48988E-02 8.75400E-06
 -1       802-2.80759E-03-6.07928E-02 8.87772E-06
 -1       803-2.87421E-03-6.68373E-02 9.03547E-06
 -1       804-2.93168E-03-7.30124E-02 9.22757E-06
 -1       805-2.98051E-03-7.92991E-02 9.45382E-06
 -1       806-3.02126E-03-8.56796E-02 9.71295E-06
 -1       807-3.05451E-03-9.21373E-02 1.00019E-05
 -1       808-3.08092E-03-9.86569E-02 1.03157E-05
 -1       809-3.10117E-03-1.05224E-01 1.06485E-05
 -1       810-3.11601E-03-1.11828E-01 1.09994E-05
 -1       811-3.12621E-03-1.18456E-01 1.13817E-05
 -1       812-3.13261E-03-1.25100E-01 1.18300E-05
 -1       813-3.13608E-03-1.31752E-01 1.23893E-05
 -1       814-3.13755E-03-1.38408E-01 1.30764E-05
 -1       815 2.32705E-04-2.70654E-04 1.01313E-05
 -1       816 4.92359E-04-1.07068E-03 1.11738E-05
 -1       817 7.28411E-04-2.38866E-03 1.21789E-05
 -1       818 9.54045E-04-4.19849E-03 1.15878E-05
 -1       819 1.16731E-03-6.47354E-03 1.06154E-05
 -1       820 1.36837E-03-9.18783E-03 9.81222E-06
 -1       821 1.55726E-03-1.23154E-02 9.28143E-06
 -1       822 1.73405E-03-1.58306E-02 8.96702E-06
 -1       823 1.89884E-03-1.97077E-02 8.78530E-06
 -1       824 2.05177E-03-2.39214E-02 8.67714E-06
 -1       825 2.19299E-03-2.84466E-02 8.61296E-06
 -1       826 2.32270E-03-3.32587E-02 8.58107E-06
 -1       827 2.44111E-03-3.83335E-02 8.57847E-06
 -1       828 2.54849E-03-4.36471E-02 8.60553E-06
 -1       829 2.64513E-03-4.91764E-02 8.66360E-06
 -1       830 2.73137E-03-5.48988E-02 8.75399E-06
 -1       831 2.80759E-03-6.07928E-02 8.87772E-06
 -1       832 2.87421E-03-6.68373E-02 9.03546E-06
 -1       833 2.93168E-03-7.30124E-02 9.22757E-06
 -1       834 2.98051E-03-7.92991E-02 9.45382E-06
 -1       835 3.02126E-03-8.56796E-02 9.71294E-06
 -1       836 3.05451E-03-9.21373E-02 1.00019E-05
 -1       837 3.08092E-03-9.86569E-02 1.03156E-05
 -1       838 3.10117E-03-1.05224E-01 1.06485E-05
 -1       839 3.11601E-03-1.11828E-01 1.09994E-05
 -1       840 3.12621E-03-1.18456E-01 1.13817E-05
 -1       841 3.13261E-03-1.25100E-01 1.18300E-05
 -1       842 3.13608E-03-1.31752E-01 1.23893E-05
 -1       843 3.13755E-03-1.38408E-01 1.30764E-05
 -1       844 2.31842E-04-2.71192E-04-2.69944E-06
 -1       845 4.91945E-04-1.07245E-03 1.74726E-06
 -1       846 7.28207E-04-2.39078E-03 2.76052E-06
 -1       847 9.53962E-04-4.20057E-03 2.74749E-06
 -1       848 1.16724E-03-6.47541E-03 2.25614E-06
 -1       849 1.36825E-03-9.18953E-03 1.94647E-06
 -1       850 1.55711E-03-1.23170E-02 1.90392E-06
 -1       851 1.73388E-03-1.58322E-02 2.07554E-06
 -1       852 1.89866E-03-1.97093E-02 2.37526E-06
 -1       853 2.05158E-03-2.39230E-02 2.74284E-06
 -1       854 2.19280E-03-2.84483E-02 3.14741E-06
 -1       855 2.32251E-03-3.32605E-02 3.57593E-06
 -1       856 2.44092E-03-3.83353E-02 4.02401E-06
 -1       857 2.54830E-03-4.36489E-02 4.49054E-06
 -1       858 2.64495E-03-4.91783E-02 4.97531E-06
 -1       859 2.73119E-03-5.49009E-02 5.47803E-06
 -1       860 2.80741E-03-6.07949E-02 5.99805E-06
 -1       861 2.87403E-03-6.68395E-02 6.53433E-06
 -1       862 2.93150E-03-7.30147E-02 7.08545E-06
 -1       863 2.98034E-03-7.93015E-02 7.64939E-06
 -1       864 3.02109E-03-8.56821E-02 8.22305E-06
 -1       865 3.05435E-03-9.21400E-02 8.80153E-06
 -1       866 3.08077E-03-9.86597E-02 9.37784E-06
 -1       867 3.10103E-03-1.05227E-01 9.94442E-06
 -1       868 3.11588E-03-1.11831E-01 1.04984E-05
 -1       869 3.12609E-03-1.18459E-01 1.10513E-05
 -1       870 3.13249E-03-1.25103E-01 1.16361E-05
 -1       871 3.13596E-03-1.31756E-01 1.22950E-05
 -1       872 3.13743E-03-1.38412E-01 1.30448E-05
 -1       873 3.13755E-03-1.38408E-01-1.30764E-05
 -1       874 3.13608E-03-1.31752E-01-1.23893E-05
 -1       875 3.13261E-03-1.25100E-01-1.18300E-05
 -1       876 3.12621E-03-1.18456E-01-1.13817E-05
 -1       877 3.11601E-03-1.11828E-01-1.09994E-05
 -1       878 3.10117E-03-1.05224E-01-1.06485E-05
 -1       879 3.08092E-03-9.86569E-02-1.03156E-05
 -1       880 3.05451E-03-9.21373E-02-1.00019E-05
 -1       881 3.02126E-03-8.56796E-02-9.71295E-06
 -1       882 2.98051E-03-7.92991E-02-9.45382E-06
 -1       883 2.93168E-03-7.30124E-02-9.22757E-06
 -1       884 2.87421E-03-6.68373E-02-9.03547E-06
 -1       885 2.80759E-03-6.07928E-02-8.87772E-06
 -1       886 2.73137E-03-5.48988E-02-8.75399E-06
 -1       887 2.64513E-03-4.91764E-02-8.66360E-06
 -1       888 2.54849E-03-4.36471E-02-8.60554E-06
 -1       889 2.44111E-03-3.83335E-02-8.57847E-06
 -1       890 2.32270E-03-3.32587E-02-8.58107E-06
 -1       891 2.19299E-03-2.84466E-02-8.61296E-06
 -1       892 2.05177E-03-2.39214E-02-8.67714E-06
 -1       893 1.89884E-03-1.97077E-02-8.78531E-06
 -1       894 1.73405E-03-1.58306E-02-8.96702E-06
 -1       895 1.55726E-03-1.23154E-02-9.28143E-06
 -1       896 1.36837E-03-9.18783E-03-9.81222E-06
 -1       897 1.16731E-03-6.47354E-03-1.06154E-05
 -1       898 9.54045E-04-4.19849E-03-1.15878E-05
 -1       899 7.28411E-04-2.38866E-03-1.21789E-05
 -1       900 4.92359E-04-1.07068E-03-1.11738E-05
 -1       901 2.32705E-04-2.70654E-04-1.01313E-05
 -1       902 2.31842E-04-2.71192E-04 2.69944E-06
 -1       903 4.91945E-04-1.07245E-03-1.74726E-06
 -1       904 7.28207E-04-2.39078E-03-2.76052E-06
 -1       905 9.53962E-04-4.20057E-03-2.74749E-06
 -1       906 1.16724E-03-6.47541E-03-2.25614E-06
 -1       907 1.36825E-03-9.18953E-03-1.94647E-06
 -1       908 1.55711E-03-1.23170E-02-1.90392E-06
 -1       909 1.73388E-03-1.58322E-02-2.07554E-06
 -1       910 1.89866E-03-1.97093E-02-2.37526E-06
 -1       911 2.05158E-03-2.39230E-02-2.74284E-06
 -1       912 2.19280E-03-2.84483E-02-3.14741E-06
 -1       913 2.32251E-03-3.32605E-02-3.57593E-06
 -1       914 2.44092E-03-3.83353E-02-4.02401E-06
 -1       915 2.54830E-03-4.36489E-02-4.49054E-06
 -1       916 2.64495E-03-4.91783E-02-4.97531E-06
 -1       917 2.73119E-03-5.49009E-02-5.47804E-06
 -1       918 2.80741E-03-6.07949E-02-5.99805E-06
 -1       919 2.87403E-03-6.68395E-02-6.53433E-06
 -1       920 2.93150E-03-7.30147E-02-7.08545E-06
 -1       921 2.98034E-03-7.93015E-02-7.64939E-06
 -1       922 3.02109E-03-8.56821E-02-8.22305E-06
 -1       923 3.05435E-03-9.21400E-02-8.80153E-06
 -1       924 3.08077E-03-9.86597E-02-9.37785E-06
 -1       925 3.10103E-03-1.05227E-01-9.94442E-06
 -1       926 3.11588E-03-1.11831E-01-1.04984E-05
 -1       927 3.12609E-03-1.18459E-01-1.10513E-05
 -1       928 3.13249E-03-1.25103E-01-1.16361E-05
 -1       929 3.13596E-03-1.31756E-01-1.22950E-05
 -1       930 3.13743E-03-1.38412E-01-1.30448E-05
 -3
    1PSTEP                         2           1           1          
    1PGM                1.000000E+00                                  
    1PGK                8.045247E+03                                  
    1PHID                         -1                                  
    1PSUBC                         0                                  
    1PMODE                         1                                  
  100CL  101 14.27545043         930                     2    1MODAL      1
 -4  STRESS      6    1
 -5  SXX         1    4    1    1
 -5  SYY         1    4    2    2
 -5  SZZ         1    4    3    3
 -5  SXY         1    4    1    2
 -5  SYZ         1    4    2    3
 -5  SZX         1    4    3    1
 -1         1-6.23800E+07-2.67351E+07-2.67352E+07-2.02950E+08-3.85314E+01-6.65302E+05
 -1         2 6.23800E+07 2.67351E+07 2.67352E+07-2.02950E+08-3.85314E+01 6.65302E+05
 -1         3 1.59591E+05 8.36079E+04 4.18226E+05-5.20727E+05 6.45506E+05-1.86559E+05
 -1         4-1.59591E+05-8.36079E+04-4.18226E+05-5.20727E+05 6.45506E+05 1.86559E+05
 -1         5-6.23800E+07-2.67351E+07-2.67352E+07-2.02950E+08 3.85314E+01 6.65302E+05
 -1         6 6.23800E+07 2.67351E+07 2.67352E+07-2.02950E+08 3.85314E+01-6.65302E+05
 -1         7 1.59591E+05 8.36079E+04 4.18226E+05-5.20727E+05-6.45506E+05 1.86559E+05
 -1         8-1.59591E+05-8.36079E+04-4.18226E+05-5.20727E+05-6.45506E+05-1.86559E+05
 -1         9-5.96609E+07-2.55702E+07-2.55703E+07-2.01660E+08-3.28536E+01-7.60069E+05
 -1        10-2.73623E+04 3.08144E+04 8.55813E+04-4.23819E+05-1.65510E+05-1.65220E+05
 -1        11-1.30200E+09-5.58009E+08-5.58009E+08-2.63249E+08 4.88317E+01-1.44590E+07
 -1        12-1.29951E+09-5.56940E+08-5.56940E+08-2.63540E+08-3.75677E+01 6.34233E+06
 -1        13-1.26051E+06-3.11041E+05-4.03998E+05-1.17336E+05 2.87370E+04-2.77562E+04
 -1        14-1.29031E+06-4.01117E+05-4.39961E+05-3.73671E+05 3.84548E+04-6.32796E+04
 -1        15-5.96609E+07-2.55702E+07-2.55703E+07-2.01660E+08 3.28536E+01 7.60069E+05
 -1        16-2.73624E+04 3.08144E+04 8.55813E+04-4.23819E+05 1.65510E+05 1.65220E+05
 -1        17-1.29951E+09-5.56940E+08-5.56940E+08-2.63540E+08 3.75677E+01-6.34233E+06
 -1        18-1.30200E+09-5.58009E+08-5.58009E+08-2.63249E+08-4.88317E+01 1.44590E+07
 -1        19-1.29031E+06-4.01117E+05-4.39961E+05-3.73671E+05-3.84548E+04 6.32796E+04
 -1        20-1.26051E+06-3.11041E+05-4.03998E+05-1.17336E+05-2.87370E+04 2.77562E+04
 -1        21 1.29951E+09 5.56940E+08 5.56940E+08-2.63540E+08-3.75677E+01-6.34233E+06
 -1        22 1.30200E+09 5.58009E+08 5.58009E+08-2.63249E+08 4.88317E+01 1.44590E+07
 -1        23 1.26051E+06 3.11041E+05 4.03998E+05-1.17336E+05 2.87370E+04 2.77562E+04
 -1        24 1.29031E+06 4.01117E+05 4.39961E+05-3.73671E+05 3.84548E+04 6.32796E+04
 -1        25 5.96609E+07 2.55702E+07 2.55703E+07-2.01660E+08-3.28536E+01 7.60069E+05
 -1        26 2.73623E+04-3.08144E+04-8.55813E+04-4.23819E+05-1.65510E+05 1.65220E+05
 -1        27 5.96609E+07 2.55702E+07 2.55703E+07-2.01660E+08 3.28536E+01-7.60069E+05
 -1        28 1.30200E+09 5.58009E+08 5.58009E+08-2.63249E+08-4.88317E+01-1.44590E+07
 -1        29 1.29951E+09 5.56940E+08 5.56940E+08-2.63540E+08 3.75677E+01 6.34233E+06
 -1        30 2.73623E+04-3.08144E+04-8.55813E+04-4.23819E+05 1.65510E+05-1.65220E+05
 -1        31 1.26051E+06 3.11041E+05 4.03998E+05-1.17336E+05-2.87370E+04-2.77562E+04
 -1        32 1.29031E+06 4.01117E+05 4.39961E+05-3.73671E+05-3.84548E+04-6.32796E+04
 -1        33 4.49786E+07-1.69438E+07 7.00514E+06-1.75392E+07-3.31714E+06 4.45702E+06
 -1        34 4.73670E+07-1.21603E+07 1.21687E+07-4.97089E+06-1.40140E+06 2.78785E+06
 -1        35 4.33873E+07-1.12865E+07 8.67137E+06-7.63880E+06-2.37441E+06 2.55376E+06
 -1        36 4.11789E+07-1.13082E+07 8.48015E+06-7.02783E+06-2.01768E+06 2.75807E+06
 -1        37 3.88893E+07-1.05477E+07 7.94212E+06-6.99116E+06-2.00063E+06 2.69661E+06
 -1        38 3.66305E+07-9.88838E+06 7.57584E+06-7.01967E+06-1.85107E+06 2.72052E+06
 -1        39 3.43714E+07-9.24616E+06 7.14147E+06-6.98665E+06-1.72035E+06 2.71270E+06
 -1        40 3.21039E+07-8.63064E+06 6.67363E+06-6.95106E+06-1.58961E+06 2.69861E+06
 -1        41 2.98495E+07-8.03429E+06 6.18788E+06-6.88593E+06-1.45855E+06 2.67562E+06
 -1        42 2.76186E+07-7.44793E+06 5.70151E+06-6.80038E+06-1.32774E+06 2.64397E+06
 -1        43 2.54197E+07-6.87091E+06 5.22038E+06-6.69392E+06-1.19698E+06 2.60409E+06
 -1        44 2.32595E+07-6.30400E+06 4.74722E+06-6.56704E+06-1.06703E+06 2.55602E+06
 -1        45 2.11443E+07-5.74921E+06 4.28323E+06-6.41917E+06-9.38469E+05 2.49967E+06
 -1        46 1.90811E+07-5.20852E+06 3.82967E+06-6.24952E+06-8.11767E+05 2.43484E+06
 -1        47 1.70769E+07-4.68395E+06 3.38794E+06-6.05722E+06-6.87347E+05 2.36120E+06
 -1        48 1.51394E+07-4.17755E+06 2.95957E+06-5.84139E+06-5.65636E+05 2.27843E+06
 -1        49 1.32763E+07-3.69143E+06 2.54617E+06-5.60124E+06-4.47087E+05 2.18621E+06
 -1        50 1.14955E+07-3.22775E+06 2.14942E+06-5.33605E+06-3.32178E+05 2.08425E+06
 -1        51 9.80548E+06-2.78870E+06 1.77108E+06-5.04518E+06-2.21405E+05 1.97229E+06
 -1        52 8.21456E+06-2.37649E+06 1.41306E+06-4.72802E+06-1.15281E+05 1.85010E+06
 -1        53 6.73148E+06-1.99323E+06 1.07748E+06-4.38398E+06-1.43198E+04 1.71743E+06
 -1        54 5.36526E+06-1.64087E+06 7.66866E+05-4.01247E+06 8.09537E+04 1.57404E+06
 -1        55 4.12518E+06-1.32123E+06 4.84031E+05-3.61305E+06 1.69995E+05 1.41969E+06
 -1        56 3.02038E+06-1.03640E+06 2.31402E+05-3.18572E+06 2.51954E+05 1.25422E+06
 -1        57 2.05888E+06-7.90354E+05 8.68583E+03-2.73184E+06 3.25866E+05 1.07760E+06
 -1        58 1.24595E+06-5.89262E+05-1.88917E+05-2.25242E+06 3.88510E+05 8.91341E+05
 -1        59 5.87354E+05-4.41654E+05-3.69514E+05-1.75634E+06 4.42594E+05 6.96785E+05
 -1        60 8.79646E+04-3.45564E+05-5.20905E+05-1.21735E+06 4.83727E+05 5.04500E+05
 -1        61-1.83819E+05-2.49127E+05-5.92542E+05-7.33041E+05 5.41886E+05 2.98075E+05
 -1        62-4.49786E+07 1.69438E+07-7.00514E+06-1.75392E+07-3.31714E+06-4.45702E+06
 -1        63-4.73670E+07 1.21603E+07-1.21687E+07-4.97089E+06-1.40140E+06-2.78785E+06
 -1        64-4.33873E+07 1.12865E+07-8.67137E+06-7.63880E+06-2.37441E+06-2.55376E+06
 -1        65-4.11789E+07 1.13082E+07-8.48015E+06-7.02783E+06-2.01768E+06-2.75807E+06
 -1        66-3.88893E+07 1.05477E+07-7.94212E+06-6.99116E+06-2.00063E+06-2.69661E+06
 -1        67-3.66305E+07 9.88838E+06-7.57584E+06-7.01967E+06-1.85107E+06-2.72052E+06
 -1        68-3.43714E+07 9.24616E+06-7.14147E+06-6.98665E+06-1.72035E+06-2.71270E+06
 -1        69-3.21039E+07 8.63064E+06-6.67363E+06-6.95106E+06-1.58961E+06-2.69861E+06
 -1        70-2.98495E+07 8.03429E+06-6.18788E+06-6.88593E+06-1.45855E+06-2.67562E+06
 -1        71-2.76186E+07 7.44793E+06-5.70151E+06-6.80038E+06-1.32774E+06-2.64397E+06
 -1        72-2.54197E+07 6.87091E+06-5.22038E+06-6.69392E+06-1.19698E+06-2.60409E+06
 -1        73-2.32595E+07 6.30400E+06-4.74722E+06-6.56704E+06-1.06703E+06-2.55602E+06
 -1        74-2.11443E+07 5.74921E+06-4.28323E+06-6.41917E+06-9.38469E+05-2.49967E+06
 -1        75-1.90811E+07 5.20852E+06-3.82967E+06-6.24952E+06-8.11767E+05-2.43484E+06
 -1        76-1.70769E+07 4.68395E+06-3.38794E+06-6.05722E+06-6.87347E+05-2.36120E+06
 -1        77-1.51394E+07 4.17755E+06-2.95957E+06-5.84139E+06-5.65636E+05-2.27843E+06
 -1        78-1.32763E+07 3.69143E+06-2.54617E+06-5.60124E+06-4.47087E+05-2.18621E+06
 -1        79-1.14955E+07 3.22775E+06-2.14942E+06-5.33605E+06-3.32178E+05-2.08425E+06
 -1        80-9.80548E+06 2.78870E+06-1.77108E+06-5.04518E+06-2.21405E+05-1.97229E+06
 -1        81-8.21456E+06 2.37649E+06-1.41306E+06-4.72802E+06-1.15281E+05-1.85010E+06
 -1        82-6.73148E+06 1.99323E+06-1.07748E+06-4.38398E+06-1.43198E+04-1.71743E+06
 -1        83-5.36526E+06 1.64087E+06-7.66866E+05-4.01247E+06 8.09537E+04-1.57404E+06
 -1        84-4.12518E+06 1.32123E+06-4.84031E+05-3.61305E+06 1.69995E+05-1.41969E+06
 -1        85-3.02038E+06 1.03640E+06-2.31402E+05-3.18572E+06 2.51954E+05-1.25422E+06
 -1        86-2.05888E+06 7.90354E+05-8.68583E+03-2.73184E+06 3.25866E+05-1.07760E+06
 -1        87-1.24595E+06 5.89262E+05 1.88917E+05-2.25242E+06 3.88510E+05-8.91341E+05
 -1        88-5.87354E+05 4.41654E+05 3.69514E+05-1.75634E+06 4.42594E+05-6.96785E+05
 -1        89-8.79646E+04 3.45564E+05 5.20905E+05-1.21735E+06 4.83727E+05-5.04500E+05
 -1        90 1.83819E+05 2.49127E+05 5.92542E+05-7.33041E+05 5.41886E+05-2.98075E+05
 -1        91-6.55007E+07-2.80717E+07-2.80717E+07-2.17076E+08 1.41214E+01-4.61561E+05
 -1        92-6.56482E+07-2.81349E+07-2.81349E+07-2.21146E+08-4.94765E-10 7.19653E-03
 -1        93-6.55007E+07-2.80717E+07-2.80717E+07-2.17076E+08-1.41214E+01 4.61561E+05
 -1        94 6.55007E+07 2.80717E+07 2.80717E+07-2.17076E+08-1.41214E+01-4.61561E+05
 -1        95 6.56482E+07 2.81349E+07 2.81349E+07-2.21146E+08 2.96859E-09 5.44162E-03
 -1        96 6.55007E+07 2.80717E+07 2.80717E+07-2.17076E+08 1.41214E+01 4.61561E+05
 -1        97-4.49786E+07 1.69438E+07-7.00514E+06-1.75392E+07 3.31714E+06 4.45702E+06
 -1        98-4.73670E+07 1.21603E+07-1.21687E+07-4.97089E+06 1.40140E+06 2.78785E+06
 -1        99-4.33873E+07 1.12865E+07-8.67137E+06-7.63880E+06 2.37441E+06 2.55376E+06
 -1       100-4.11789E+07 1.13082E+07-8.48015E+06-7.02783E+06 2.01768E+06 2.75807E+06
 -1       101-3.88893E+07 1.05477E+07-7.94212E+06-6.99116E+06 2.00063E+06 2.69661E+06
 -1       102-3.66305E+07 9.88838E+06-7.57584E+06-7.01967E+06 1.85107E+06 2.72052E+06
 -1       103-3.43714E+07 9.24616E+06-7.14147E+06-6.98665E+06 1.72035E+06 2.71270E+06
 -1       104-3.21039E+07 8.63064E+06-6.67363E+06-6.95106E+06 1.58961E+06 2.69861E+06
 -1       105-2.98495E+07 8.03429E+06-6.18788E+06-6.88593E+06 1.45855E+06 2.67562E+06
 -1       106-2.76186E+07 7.44793E+06-5.70151E+06-6.80038E+06 1.32774E+06 2.64397E+06
 -1       107-2.54197E+07 6.87091E+06-5.22038E+06-6.69392E+06 1.19698E+06 2.60409E+06
 -1       108-2.32595E+07 6.30400E+06-4.74722E+06-6.56704E+06 1.06703E+06 2.55602E+06
 -1       109-2.11443E+07 5.74921E+06-4.28323E+06-6.41917E+06 9.38469E+05 2.49967E+06
 -1       110-1.90811E+07 5.20852E+06-3.82967E+06-6.24952E+06 8.11767E+05 2.43484E+06
 -1       111-1.70769E+07 4.68395E+06-3.38794E+06-6.05722E+06 6.87347E+05 2.36120E+06
 -1       112-1.51394E+07 4.17755E+06-2.95957E+06-5.84139E+06 5.65636E+05 2.27843E+06
 -1       113-1.32763E+07 3.69143E+06-2.54617E+06-5.60124E+06 4.47087E+05 2.18621E+06
 -1       114-1.14955E+07 3.22775E+06-2.14942E+06-5.33605E+06 3.32178E+05 2.08425E+06
 -1       115-9.80548E+06 2.78870E+06-1.77108E+06-5.04518E+06 2.21405E+05 1.97229E+06
 -1       116-8.21456E+06 2.37649E+06-1.41306E+06-4.72802E+06 1.15281E+05 1.85010E+06
 -1       117-6.73148E+06 1.99323E+06-1.07748E+06-4.38398E+06 1.43198E+04 1.71743E+06
 -1       118-5.36526E+06 1.64087E+06-7.66866E+05-4.01247E+06-8.09537E+04 1.57404E+06
 -1       119-4.12518E+06 1.32123E+06-4.84031E+05-3.61305E+06-1.69995E+05 1.41969E+06
 -1       120-3.02038E+06 1.03640E+06-2.31402E+05-3.18572E+06-2.51954E+05 1.25422E+06
 -1       121-2.05888E+06 7.90354E+05-8.68583E+03-2.73184E+06-3.25866E+05 1.07760E+06
 -1       122-1.24595E+06 5.89262E+05 1.88917E+05-2.25242E+06-3.88510E+05 8.91342E+05
 -1       123-5.87354E+05 4.41654E+05 3.69514E+05-1.75634E+06-4.42594E+05 6.96785E+05
 -1       124-8.79646E+04 3.45564E+05 5.20905E+05-1.21735E+06-4.83727E+05 5.04500E+05
 -1       125 1.83819E+05 2.49127E+05 5.92542E+05-7.33041E+05-5.41886E+05 2.98075E+05
 -1       126 7.75242E+05 8.01089E+05 1.89506E+06 2.03336E+05 1.51450E+06-1.51776E+05
 -1       127 1.04830E+06 1.10123E+06 2.62246E+06 1.93583E+05 2.36420E-03 1.79224E-02
 -1       128 7.75242E+05 8.01089E+05 1.89506E+06 2.03336E+05-1.51450E+06 1.51776E+05
 -1       129 4.49786E+07-1.69438E+07 7.00514E+06-1.75392E+07 3.31714E+06-4.45702E+06
 -1       130 4.73670E+07-1.21603E+07 1.21687E+07-4.97089E+06 1.40140E+06-2.78785E+06
 -1       131 4.33873E+07-1.12865E+07 8.67137E+06-7.63880E+06 2.37441E+06-2.55376E+06
 -1       132 4.11789E+07-1.13082E+07 8.48015E+06-7.02783E+06 2.01768E+06-2.75807E+06
 -1       133 3.88893E+07-1.05477E+07 7.94212E+06-6.99116E+06 2.00063E+06-2.69661E+06
 -1       134 3.66305E+07-9.88838E+06 7.57584E+06-7.01967E+06 1.85107E+06-2.72052E+06
 -1       135 3.43714E+07-9.24616E+06 7.14147E+06-6.98665E+06 1.72035E+06-2.71270E+06
 -1       136 3.21039E+07-8.63064E+06 6.67363E+06-6.95106E+06 1.58961E+06-2.69861E+06
 -1       137 2.98495E+07-8.03429E+06 6.18788E+06-6.88593E+06 1.45855E+06-2.67562E+06
 -1       138 2.76186E+07-7.44793E+06 5.70151E+06-6.80038E+06 1.32774E+06-2.64397E+06
 -1       139 2.54197E+07-6.87091E+06 5.22038E+06-6.69392E+06 1.19698E+06-2.60409E+06
 -1       140 2.32595E+07-6.30400E+06 4.74722E+06-6.56704E+06 1.06703E+06-2.55602E+06
 -1       141 2.11443E+07-5.74921E+06 4.28323E+06-6.41917E+06 9.38469E+05-2.49967E+06
 -1       142 1.90811E+07-5.20852E+06 3.82967E+06-6.24952E+06 8.11767E+05-2.43484E+06
 -1       143 1.70769E+07-4.68395E+06 3.38794E+06-6.05722E+06 6.87347E+05-2.36120E+06
 -1       144 1.51394E+07-4.17755E+06 2.95957E+06-5.84139E+06 5.65636E+05-2.27843E+06
 -1       145 1.32763E+07-3.69143E+06 2.54617E+06-5.60124E+06 4.47087E+05-2.18621E+06
 -1       146 1.14955E+07-3.22775E+06 2.14942E+06-5.33605E+06 3.32178E+05-2.08425E+06
 -1       147 9.80548E+06-2.78870E+06 1.77108E+06-5.04518E+06 2.21405E+05-1.97229E+06
 -1       148 8.21456E+06-2.37649E+06 1.41306E+06-4.72802E+06 1.15281E+05-1.85010E+06
 -1       149 6.73148E+06-1.99323E+06 1.07748E+06-4.38398E+06 1.43198E+04-1.71743E+06
 -1       150 5.36526E+06-1.64087E+06 7.66866E+05-4.01247E+06-8.09537E+04-1.57404E+06
 -1       151 4.12518E+06-1.32123E+06 4.84031E+05-3.61305E+06-1.69995E+05-1.41969E+06
 -1       152 3.02038E+06-1.03640E+06 2.31402E+05-3.18572E+06-2.51954E+05-1.25422E+06
 -1       153 2.05888E+06-7.90354E+05 8.68583E+03-2.73184E+06-3.25866E+05-1.07760E+06
 -1       154 1.24595E+06-5.89262E+05-1.88917E+05-2.25242E+06-3.88510E+05-8.91342E+05
 -1       155 5.87354E+05-4.41654E+05-3.69514E+05-1.75634E+06-4.42594E+05-6.96785E+05
 -1       156 8.79646E+04-3.45564E+05-5.20905E+05-1.21735E+06-4.83727E+05-5.04500E+05
 -1       157-1.83819E+05-2.49127E+05-5.92542E+05-7.33041E+05-5.41886E+05-2.98075E+05
 -1       158-7.75242E+05-8.01089E+05-1.89506E+06 2.03336E+05-1.51450E+06-1.51776E+05
 -1       159-1.04830E+06-1.10123E+06-2.62246E+06 1.93583E+05 2.36173E-03-1.69584E-02
 -1       160-7.75242E+05-8.01089E+05-1.89506E+06 2.03336E+05 1.51450E+06 1.51776E+05
 -1       161-3.28470E+07 4.30111E+07 4.87313E+06-2.72966E+07 7.94584E+06-5.98732E+06
 -1       162-3.96856E+07 3.17529E+07-5.01606E+06-1.31604E+07 4.58319E+06-4.16859E+06
 -1       163-3.55069E+07 2.96294E+07-6.49558E+05-1.53656E+07 4.66084E+06-3.81162E+06
 -1       164-3.37009E+07 2.87543E+07-1.10333E+06-1.54397E+07 4.12166E+06-4.01508E+06
 -1       165-3.18916E+07 2.69394E+07-9.41803E+05-1.52718E+07 3.94159E+06-3.92305E+06
 -1       166-3.00125E+07 2.53823E+07-9.93550E+05-1.51880E+07 3.73541E+06-3.93352E+06
 -1       167-2.81656E+07 2.37990E+07-9.73236E+05-1.50251E+07 3.52707E+06-3.91697E+06
 -1       168-2.63121E+07 2.22280E+07-9.21756E+05-1.48611E+07 3.29522E+06-3.89045E+06
 -1       169-2.44715E+07 2.06754E+07-8.49484E+05-1.46772E+07 3.05860E+06-3.85317E+06
 -1       170-2.26516E+07 1.91405E+07-7.73498E+05-1.44677E+07 2.82059E+06-3.80441E+06
 -1       171-2.08586E+07 1.76284E+07-6.97716E+05-1.42239E+07 2.58560E+06-3.74464E+06
 -1       172-1.90976E+07 1.61429E+07-6.23645E+05-1.39402E+07 2.35443E+06-3.67350E+06
 -1       173-1.73740E+07 1.46888E+07-5.51118E+05-1.36125E+07 2.12785E+06-3.59061E+06
 -1       174-1.56931E+07 1.32707E+07-4.80117E+05-1.32382E+07 1.90647E+06-3.49550E+06
 -1       175-1.40610E+07 1.18938E+07-4.10700E+05-1.28152E+07 1.69098E+06-3.38769E+06
 -1       176-1.24837E+07 1.05632E+07-3.43013E+05-1.23417E+07 1.48216E+06-3.26670E+06
 -1       177-1.09676E+07 9.28434E+06-2.77234E+05-1.18162E+07 1.28079E+06-3.13208E+06
 -1       178-9.51920E+06 8.06276E+06-2.13565E+05-1.12373E+07 1.08770E+06-2.98345E+06
 -1       179-8.14525E+06 6.90414E+06-1.52246E+05-1.06040E+07 9.03751E+05-2.82044E+06
 -1       180-6.85264E+06 5.81430E+06-9.36052E+04-9.91515E+06 7.29880E+05-2.64275E+06
 -1       181-5.64845E+06 4.79915E+06-3.81638E+04-9.17029E+06 5.67122E+05-2.45008E+06
 -1       182-4.53997E+06 3.86465E+06 1.32142E+04-8.36908E+06 4.16676E+05-2.24213E+06
 -1       183-3.53466E+06 3.01687E+06 5.94202E+04-7.51126E+06 2.79910E+05-2.01868E+06
 -1       184-2.63998E+06 2.26185E+06 9.97800E+04-6.59625E+06 1.57772E+05-1.77968E+06
 -1       185-1.86251E+06 1.60603E+06 1.36396E+05-5.62236E+06 5.05594E+04-1.52528E+06
 -1       186-1.20769E+06 1.05520E+06 1.75614E+05-4.58636E+06-4.56652E+04-1.25729E+06
 -1       187-6.79632E+05 6.17099E+05 2.27525E+05-3.48491E+06-1.29354E+05-9.74430E+05
 -1       188-2.90086E+05 2.97651E+05 2.74586E+05-2.31073E+06-2.09190E+05-6.88272E+05
 -1       189-5.25060E+04 8.54145E+04 2.93546E+05-1.07296E+06-2.21123E+05-3.55796E+05
 -1       190-6.57816E+08-2.81926E+08-2.81926E+08-2.18603E+08 5.82264E+01-8.18287E+06
 -1       191-6.55378E+08-2.80881E+08-2.80881E+08-2.19038E+08-2.74708E+01 2.18036E+06
 -1       192-8.89397E+05-2.14352E+05-1.83458E+05-3.28240E+05 5.14673E+04 7.43290E+04
 -1       193-9.44040E+08 2.51618E+07 1.24949E+08-2.06466E+07 1.24854E+07-3.29463E+06
 -1       194-1.02926E+09-1.08382E+08-5.17991E+07-2.71924E+06 8.72868E+06 8.91013E+05
 -1       195-9.55536E+08-8.08117E+07-1.13652E+07-5.02201E+06 9.22498E+06-6.67950E+05
 -1       196-9.09770E+08-8.10039E+07-2.01148E+07-4.75604E+06 8.44789E+06-1.81720E+05
 -1       197-8.57937E+08-7.55074E+07-1.67915E+07-4.97052E+06 8.05488E+06-1.45850E+05
 -1       198-8.07820E+08-7.13557E+07-1.63804E+07-4.83888E+06 7.57279E+06-5.31242E+04
 -1       199-7.57441E+08-6.68463E+07-1.52519E+07-4.76012E+06 7.10800E+06-4.21535E+04
 -1       200-7.07523E+08-6.24524E+07-1.42742E+07-4.67587E+06 6.63796E+06-5.34332E+04
 -1       201-6.58065E+08-5.80871E+07-1.32772E+07-4.60258E+06 6.17297E+06-6.58188E+04
 -1       202-6.09216E+08-5.37827E+07-1.23039E+07-4.52853E+06 5.71330E+06-7.36238E+04
 -1       203-5.61090E+08-4.95441E+07-1.13471E+07-4.44709E+06 5.26073E+06-7.72441E+04
 -1       204-5.13821E+08-4.53826E+07-1.04101E+07-4.35413E+06 4.81635E+06-7.83585E+04
 -1       205-4.67552E+08-4.13099E+07-9.49425E+06-4.24754E+06 4.38140E+06-7.82779E+04
 -1       206-4.22433E+08-3.73392E+07-8.60229E+06-4.12621E+06 3.95725E+06-7.76117E+04
 -1       207-3.78624E+08-3.34843E+07-7.73720E+06-3.98945E+06 3.54537E+06-7.66111E+04
 -1       208-3.36290E+08-2.97599E+07-6.90220E+06-3.83676E+06 3.14731E+06-7.53569E+04
 -1       209-2.95603E+08-2.61809E+07-6.10067E+06-3.66771E+06 2.76466E+06-7.38511E+04
 -1       210-2.56739E+08-2.27630E+07-5.33610E+06-3.48191E+06 2.39909E+06-7.20443E+04
 -1       211-2.19878E+08-1.95220E+07-4.61202E+06-3.27908E+06 2.05229E+06-6.98417E+04
 -1       212-1.85206E+08-1.64740E+07-3.93203E+06-3.05906E+06 1.72598E+06-6.71189E+04
 -1       213-1.52910E+08-1.36357E+07-3.29978E+06-2.82191E+06 1.42195E+06-6.37986E+04
 -1       214-1.23182E+08-1.10237E+07-2.71907E+06-2.56786E+06 1.14202E+06-6.00470E+04
 -1       215-9.62155E+07-8.65534E+06-2.19406E+06-2.29707E+06 8.88089E+05-5.65685E+04
 -1       216-7.22079E+07-6.54846E+06-1.72952E+06-2.00881E+06 6.62103E+05-5.47140E+04
 -1       217-5.13581E+07-4.72150E+06-1.33008E+06-1.70047E+06 4.65888E+05-5.53282E+04
 -1       218-3.38626E+07-3.19316E+06-1.00108E+06-1.36807E+06 3.00734E+05-5.65765E+04
 -1       219-1.99004E+07-1.97590E+06-7.35829E+05-1.00815E+06 1.68409E+05-5.09027E+04
 -1       220-9.64294E+06-1.07743E+06-5.58638E+05-6.24802E+05 6.76194E+04-3.11035E+04
 -1       221-3.38151E+06-5.89022E+05-4.39554E+05-2.83177E+05 1.24894E+04-2.19761E+04
 -1       222-9.43756E+08 2.43324E+07 1.24785E+08-2.13727E+07-1.18743E+07 4.22123E+06
 -1       223-1.03069E+09-1.09309E+08-5.25067E+07-3.70702E+06-8.58310E+06-1.73299E+06
 -1       224-9.56581E+08-8.11251E+07-1.17729E+07-4.76049E+06-9.31942E+06-9.89247E+05
 -1       225-9.10103E+08-8.11256E+07-2.02512E+07-4.04466E+06-8.46910E+06-1.12407E+06
 -1       226-8.57844E+08-7.54081E+07-1.67338E+07-4.18809E+06-8.08755E+06-9.18098E+05
 -1       227-8.07622E+08-7.12584E+07-1.62919E+07-4.15148E+06-7.57678E+06-8.63341E+05
 -1       228-7.57280E+08-6.67802E+07-1.51838E+07-4.20470E+06-7.10326E+06-8.37996E+05
 -1       229-7.07425E+08-6.24151E+07-1.42338E+07-4.20756E+06-6.63346E+06-8.44389E+05
 -1       230-6.58011E+08-5.80673E+07-1.32550E+07-4.18552E+06-6.17011E+06-8.47868E+05
 -1       231-6.09183E+08-5.37702E+07-1.22905E+07-4.14182E+06-5.71216E+06-8.45364E+05
 -1       232-5.61066E+08-4.95339E+07-1.13369E+07-4.08216E+06-5.26059E+06-8.36498E+05
 -1       233-5.13799E+08-4.53724E+07-1.04004E+07-4.00903E+06-4.81671E+06-8.22922E+05
 -1       234-4.67529E+08-4.12992E+07-9.48423E+06-3.92302E+06-4.38204E+06-8.05778E+05
 -1       235-4.22409E+08-3.73277E+07-8.59168E+06-3.82390E+06-3.95808E+06-7.85569E+05
 -1       236-3.78599E+08-3.34721E+07-7.72602E+06-3.71117E+06-3.54637E+06-7.62439E+05
 -1       237-3.36264E+08-2.97471E+07-6.89053E+06-3.58427E+06-3.14847E+06-7.36373E+05
 -1       238-2.95576E+08-2.61676E+07-6.08862E+06-3.44266E+06-2.76600E+06-7.07287E+05
 -1       239-2.56711E+08-2.27492E+07-5.32375E+06-3.28584E+06-2.40063E+06-6.75055E+05
 -1       240-2.19851E+08-1.95079E+07-4.59953E+06-3.11334E+06-2.05406E+06-6.39516E+05
 -1       241-1.85179E+08-1.64599E+07-3.91973E+06-2.92467E+06-1.72805E+06-6.00486E+05
 -1       242-1.52885E+08-1.36221E+07-3.28820E+06-2.71920E+06-1.42433E+06-5.57841E+05
 -1       243-1.23160E+08-1.10114E+07-2.70890E+06-2.49622E+06-1.14466E+06-5.11706E+05
 -1       244-9.61975E+07-8.64480E+06-2.18553E+06-2.25521E+06-8.90743E+05-4.62753E+05
 -1       245-7.21897E+07-6.53870E+06-1.72113E+06-1.99668E+06-6.64291E+05-4.12300E+05
 -1       246-5.13289E+07-4.70813E+06-1.31729E+06-1.72335E+06-4.67307E+05-3.61208E+05
 -1       247-3.38073E+07-3.16767E+06-9.76857E+05-1.44016E+06-3.02219E+05-3.07546E+05
 -1       248-1.98160E+07-1.93379E+06-6.97883E+05-1.14996E+06-1.72211E+05-2.44533E+05
 -1       249-9.55824E+06-1.02384E+06-5.17151E+05-8.43713E+05-7.66448E+04-1.62873E+05
 -1       250-3.34492E+06-5.70204E+05-4.22932E+05-5.41000E+05-1.89170E+04-8.92181E+04
 -1       251-9.96214E+05-4.61370E+05-2.89608E+05-6.66138E+05 5.25015E+04 5.64272E+04
 -1       252-5.25060E+04 8.54145E+04 2.93546E+05-1.07296E+06 2.21123E+05 3.55796E+05
 -1       253-2.90086E+05 2.97651E+05 2.74586E+05-2.31073E+06 2.09190E+05 6.88272E+05
 -1       254-6.79632E+05 6.17099E+05 2.27525E+05-3.48491E+06 1.29354E+05 9.74430E+05
 -1       255-1.20769E+06 1.05520E+06 1.75614E+05-4.58636E+06 4.56652E+04 1.25729E+06
 -1       256-1.86251E+06 1.60603E+06 1.36396E+05-5.62236E+06-5.05594E+04 1.52528E+06
 -1       257-2.63998E+06 2.26185E+06 9.97800E+04-6.59625E+06-1.57772E+05 1.77968E+06
 -1       258-3.53466E+06 3.01687E+06 5.94202E+04-7.51126E+06-2.79910E+05 2.01868E+06
 -1       259-4.53997E+06 3.86465E+06 1.32142E+04-8.36908E+06-4.16676E+05 2.24213E+06
 -1       260-5.64845E+06 4.79915E+06-3.81638E+04-9.17029E+06-5.67122E+05 2.45008E+06
 -1       261-6.85264E+06 5.81430E+06-9.36052E+04-9.91515E+06-7.29880E+05 2.64275E+06
 -1       262-8.14525E+06 6.90414E+06-1.52246E+05-1.06040E+07-9.03751E+05 2.82044E+06
 -1       263-9.51920E+06 8.06276E+06-2.13565E+05-1.12373E+07-1.08770E+06 2.98345E+06
 -1       264-1.09676E+07 9.28434E+06-2.77234E+05-1.18162E+07-1.28079E+06 3.13208E+06
 -1       265-1.24837E+07 1.05632E+07-3.43013E+05-1.23417E+07-1.48216E+06 3.26670E+06
 -1       266-1.40610E+07 1.18938E+07-4.10700E+05-1.28152E+07-1.69098E+06 3.38769E+06
 -1       267-1.56931E+07 1.32707E+07-4.80117E+05-1.32382E+07-1.90647E+06 3.49550E+06
 -1       268-1.73740E+07 1.46888E+07-5.51118E+05-1.36125E+07-2.12785E+06 3.59061E+06
 -1       269-1.90976E+07 1.61429E+07-6.23645E+05-1.39402E+07-2.35443E+06 3.67350E+06
 -1       270-2.08586E+07 1.76284E+07-6.97716E+05-1.42239E+07-2.58560E+06 3.74464E+06
 -1       271-2.26516E+07 1.91405E+07-7.73498E+05-1.44677E+07-2.82059E+06 3.80441E+06
 -1       272-2.44715E+07 2.06754E+07-8.49484E+05-1.46772E+07-3.05860E+06 3.85317E+06
 -1       273-2.63121E+07 2.22280E+07-9.21756E+05-1.48611E+07-3.29522E+06 3.89045E+06
 -1       274-2.81656E+07 2.37990E+07-9.73236E+05-1.50251E+07-3.52707E+06 3.91697E+06
 -1       275-3.00125E+07 2.53823E+07-9.93550E+05-1.51880E+07-3.73541E+06 3.93352E+06
 -1       276-3.18916E+07 2.69394E+07-9.41803E+05-1.52718E+07-3.94159E+06 3.92305E+06
 -1       277-3.37009E+07 2.87543E+07-1.10333E+06-1.54397E+07-4.12166E+06 4.01508E+06
 -1       278-3.55069E+07 2.96294E+07-6.49558E+05-1.53656E+07-4.66084E+06 3.81162E+06
 -1       279-3.96856E+07 3.17529E+07-5.01606E+06-1.31604E+07-4.58319E+06 4.16859E+06
 -1       280-3.28470E+07 4.30111E+07 4.87313E+06-2.72966E+07-7.94584E+06 5.98732E+06
 -1       281-6.55378E+08-2.80881E+08-2.80881E+08-2.19038E+08 2.74708E+01-2.18036E+06
 -1       282-6.57816E+08-2.81926E+08-2.81926E+08-2.18603E+08-5.82264E+01 8.18287E+06
 -1       283-9.43756E+08 2.43324E+07 1.24785E+08-2.13727E+07 1.18743E+07-4.22123E+06
 -1       284-1.03069E+09-1.09309E+08-5.25067E+07-3.70702E+06 8.58310E+06 1.73299E+06
 -1       285-9.56581E+08-8.11251E+07-1.17729E+07-4.76049E+06 9.31942E+06 9.89247E+05
 -1       286-9.10103E+08-8.11256E+07-2.02512E+07-4.04466E+06 8.46910E+06 1.12407E+06
 -1       287-8.57844E+08-7.54081E+07-1.67338E+07-4.18809E+06 8.08755E+06 9.18098E+05
 -1       288-8.07622E+08-7.12584E+07-1.62919E+07-4.15148E+06 7.57678E+06 8.63341E+05
 -1       289-7.57280E+08-6.67802E+07-1.51838E+07-4.20470E+06 7.10326E+06 8.37996E+05
 -1       290-7.07425E+08-6.24151E+07-1.42338E+07-4.20756E+06 6.63346E+06 8.44389E+05
 -1       291-6.58011E+08-5.80673E+07-1.32550E+07-4.18552E+06 6.17011E+06 8.47868E+05
 -1       292-6.09183E+08-5.37702E+07-1.22905E+07-4.14182E+06 5.71216E+06 8.45364E+05
 -1       293-5.61066E+08-4.95339E+07-1.13369E+07-4.08216E+06 5.26059E+06 8.36498E+05
 -1       294-5.13799E+08-4.53724E+07-1.04004E+07-4.00903E+06 4.81671E+06 8.22922E+05
 -1       295-4.67529E+08-4.12992E+07-9.48423E+06-3.92302E+06 4.38204E+06 8.05778E+05
 -1       296-4.22409E+08-3.73277E+07-8.59168E+06-3.82390E+06 3.95808E+06 7.85569E+05
 -1       297-3.78599E+08-3.34721E+07-7.72602E+06-3.71117E+06 3.54637E+06 7.62439E+05
 -1       298-3.36264E+08-2.97471E+07-6.89053E+06-3.58427E+06 3.14847E+06 7.36373E+05
 -1       299-2.95576E+08-2.61676E+07-6.08862E+06-3.44266E+06 2.76600E+06 7.07287E+05
 -1       300-2.56711E+08-2.27492E+07-5.32375E+06-3.28584E+06 2.40063E+06 6.75055E+05
 -1       301-2.19851E+08-1.95079E+07-4.59953E+06-3.11334E+06 2.05406E+06 6.39516E+05
 -1       302-1.85179E+08-1.64599E+07-3.91973E+06-2.92467E+06 1.72805E+06 6.00486E+05
 -1       303-1.52885E+08-1.36221E+07-3.28820E+06-2.71920E+06 1.42433E+06 5.57841E+05
 -1       304-1.23160E+08-1.10114E+07-2.70890E+06-2.49622E+06 1.14466E+06 5.11706E+05
 -1       305-9.61975E+07-8.64480E+06-2.18553E+06-2.25521E+06 8.90743E+05 4.62753E+05
 -1       306-7.21897E+07-6.53870E+06-1.72113E+06-1.99668E+06 6.64291E+05 4.12300E+05
 -1       307-5.13289E+07-4.70813E+06-1.31729E+06-1.72335E+06 4.67307E+05 3.61208E+05
 -1       308-3.38073E+07-3.16767E+06-9.76857E+05-1.44016E+06 3.02219E+05 3.07546E+05
 -1       309-1.98160E+07-1.93379E+06-6.97883E+05-1.14996E+06 1.72211E+05 2.44533E+05
 -1       310-9.55824E+06-1.02384E+06-5.17151E+05-8.43713E+05 7.66448E+04 1.62873E+05
 -1       311-3.34493E+06-5.70204E+05-4.22932E+05-5.41000E+05 1.89170E+04 8.92182E+04
 -1       312-9.96214E+05-4.61370E+05-2.89608E+05-6.66139E+05-5.25015E+04-5.64272E+04
 -1       313-9.44040E+08 2.51618E+07 1.24949E+08-2.06466E+07-1.24854E+07 3.29463E+06
 -1       314-1.02926E+09-1.08382E+08-5.17991E+07-2.71924E+06-8.72868E+06-8.91013E+05
 -1       315-9.55536E+08-8.08117E+07-1.13652E+07-5.02201E+06-9.22498E+06 6.67950E+05
 -1       316-9.09770E+08-8.10039E+07-2.01148E+07-4.75604E+06-8.44789E+06 1.81720E+05
 -1       317-8.57937E+08-7.55074E+07-1.67915E+07-4.97052E+06-8.05488E+06 1.45850E+05
 -1       318-8.07820E+08-7.13557E+07-1.63804E+07-4.83888E+06-7.57279E+06 5.31242E+04
 -1       319-7.57441E+08-6.68463E+07-1.52519E+07-4.76012E+06-7.10800E+06 4.21535E+04
 -1       320-7.07523E+08-6.24524E+07-1.42742E+07-4.67587E+06-6.63796E+06 5.34332E+04
 -1       321-6.58065E+08-5.80871E+07-1.32772E+07-4.60258E+06-6.17297E+06 6.58188E+04
 -1       322-6.09216E+08-5.37827E+07-1.23039E+07-4.52853E+06-5.71330E+06 7.36238E+04
 -1       323-5.61090E+08-4.95441E+07-1.13471E+07-4.44709E+06-5.26073E+06 7.72441E+04
 -1       324-5.13821E+08-4.53826E+07-1.04101E+07-4.35413E+06-4.81635E+06 7.83586E+04
 -1       325-4.67552E+08-4.13099E+07-9.49425E+06-4.24754E+06-4.38140E+06 7.82779E+04
 -1       326-4.22433E+08-3.73392E+07-8.60229E+06-4.12621E+06-3.95725E+06 7.76117E+04
 -1       327-3.78624E+08-3.34843E+07-7.73720E+06-3.98945E+06-3.54537E+06 7.66111E+04
 -1       328-3.36290E+08-2.97599E+07-6.90220E+06-3.83676E+06-3.14731E+06 7.53569E+04
 -1       329-2.95603E+08-2.61809E+07-6.10067E+06-3.66771E+06-2.76466E+06 7.38511E+04
 -1       330-2.56739E+08-2.27630E+07-5.33610E+06-3.48191E+06-2.39909E+06 7.20443E+04
 -1       331-2.19878E+08-1.95220E+07-4.61202E+06-3.27908E+06-2.05229E+06 6.98417E+04
 -1       332-1.85206E+08-1.64740E+07-3.93203E+06-3.05906E+06-1.72598E+06 6.71189E+04
 -1       333-1.52910E+08-1.36357E+07-3.29978E+06-2.82191E+06-1.42195E+06 6.37986E+04
 -1       334-1.23182E+08-1.10237E+07-2.71907E+06-2.56786E+06-1.14202E+06 6.00471E+04
 -1       335-9.62155E+07-8.65534E+06-2.19406E+06-2.29707E+06-8.88089E+05 5.65685E+04
 -1       336-7.22079E+07-6.54846E+06-1.72952E+06-2.00881E+06-6.62103E+05 5.47140E+04
 -1       337-5.13581E+07-4.72150E+06-1.33008E+06-1.70047E+06-4.65888E+05 5.53282E+04
 -1       338-3.38626E+07-3.19316E+06-1.00108E+06-1.36807E+06-3.00734E+05 5.65765E+04
 -1       339-1.99004E+07-1.97590E+06-7.35829E+05-1.00815E+06-1.68409E+05 5.09027E+04
 -1       340-9.64294E+06-1.07743E+06-5.58638E+05-6.24802E+05-6.76194E+04 3.11036E+04
 -1       341-3.38151E+06-5.89022E+05-4.39554E+05-2.83176E+05-1.24894E+04 2.19761E+04
 -1       342-8.89397E+05-2.14352E+05-1.83458E+05-3.28240E+05-5.14674E+04-7.43290E+04
 -1       343 9.44040E+08-2.51618E+07-1.24949E+08-2.06466E+07 1.24854E+07 3.29463E+06
 -1       344 1.02926E+09 1.08382E+08 5.17991E+07-2.71924E+06 8.72868E+06-8.91013E+05
 -1       345 9.55536E+08 8.08117E+07 1.13652E+07-5.02201E+06 9.22498E+06 6.67950E+05
 -1       346 9.09770E+08 8.10039E+07 2.01148E+07-4.75604E+06 8.44789E+06 1.81720E+05
 -1       347 8.57937E+08 7.55074E+07 1.67915E+07-4.97052E+06 8.05488E+06 1.45850E+05
 -1       348 8.07820E+08 7.13557E+07 1.63804E+07-4.83888E+06 7.57279E+06 5.31242E+04
 -1       349 7.57441E+08 6.68463E+07 1.52519E+07-4.76012E+06 7.10800E+06 4.21535E+04
 -1       350 7.07523E+08 6.24524E+07 1.42742E+07-4.67587E+06 6.63796E+06 5.34332E+04
 -1       351 6.58065E+08 5.80871E+07 1.32772E+07-4.60258E+06 6.17297E+06 6.58188E+04
 -1       352 6.09216E+08 5.37827E+07 1.23039E+07-4.52853E+06 5.71330E+06 7.36238E+04
 -1       353 5.61090E+08 4.95441E+07 1.13471E+07-4.44709E+06 5.26073E+06 7.72441E+04
 -1       354 5.13821E+08 4.53826E+07 1.04101E+07-4.35413E+06 4.81635E+06 7.83585E+04
 -1       355 4.67552E+08 4.13099E+07 9.49425E+06-4.24754E+06 4.38140E+06 7.82779E+04
 -1       356 4.22433E+08 3.73392E+07 8.60229E+06-4.12621E+06 3.95725E+06 7.76117E+04
 -1       357 3.78624E+08 3.34843E+07 7.73720E+06-3.98945E+06 3.54537E+06 7.66111E+04
 -1       358 3.36290E+08 2.97599E+07 6.90220E+06-3.83676E+06 3.14731E+06 7.53569E+04
 -1       359 2.95603E+08 2.61809E+07 6.10067E+06-3.66771E+06 2.76466E+06 7.38511E+04
 -1       360 2.56739E+08 2.27630E+07 5.33610E+06-3.48191E+06 2.39909E+06 7.20443E+04
 -1       361 2.19878E+08 1.95220E+07 4.61202E+06-3.27908E+06 2.05229E+06 6.98417E+04
 -1       362 1.85206E+08 1.64740E+07 3.93203E+06-3.05906E+06 1.72598E+06 6.71189E+04
 -1       363 1.52910E+08 1.36357E+07 3.29978E+06-2.82191E+06 1.42195E+06 6.37986E+04
 -1       364 1.23182E+08 1.10237E+07 2.71907E+06-2.56786E+06 1.14202E+06 6.00470E+04
 -1       365 9.62155E+07 8.65534E+06 2.19406E+06-2.29707E+06 8.88089E+05 5.65685E+04
 -1       366 7.22079E+07 6.54846E+06 1.72952E+06-2.00881E+06 6.62103E+05 5.47140E+04
 -1       367 5.13581E+07 4.72150E+06 1.33008E+06-1.70047E+06 4.65888E+05 5.53282E+04
 -1       368 3.38626E+07 3.19316E+06 1.00108E+06-1.36807E+06 3.00734E+05 5.65765E+04
 -1       369 1.99004E+07 1.97590E+06 7.35829E+05-1.00815E+06 1.68409E+05 5.09027E+04
 -1       370 9.64294E+06 1.07743E+06 5.58638E+05-6.24802E+05 6.76194E+04 3.11035E+04
 -1       371 3.38151E+06 5.89022E+05 4.39554E+05-2.83177E+05 1.24894E+04 2.19761E+04
 -1       372 9.43756E+08-2.43324E+07-1.24785E+08-2.13727E+07-1.18743E+07-4.22123E+06
 -1       373 1.03069E+09 1.09309E+08 5.25067E+07-3.70702E+06-8.58310E+06 1.73299E+06
 -1       374 9.56581E+08 8.11251E+07 1.17729E+07-4.76049E+06-9.31942E+06 9.89247E+05
 -1       375 9.10103E+08 8.11256E+07 2.02512E+07-4.04466E+06-8.46910E+06 1.12407E+06
 -1       376 8.57844E+08 7.54081E+07 1.67338E+07-4.18809E+06-8.08755E+06 9.18098E+05
 -1       377 8.07622E+08 7.12584E+07 1.62919E+07-4.15148E+06-7.57678E+06 8.63341E+05
 -1       378 7.57280E+08 6.67802E+07 1.51838E+07-4.20470E+06-7.10326E+06 8.37996E+05
 -1       379 7.07425E+08 6.24151E+07 1.42338E+07-4.20756E+06-6.63346E+06 8.44389E+05
 -1       380 6.58011E+08 5.80673E+07 1.32550E+07-4.18552E+06-6.17011E+06 8.47868E+05
 -1       381 6.09183E+08 5.37702E+07 1.22905E+07-4.14182E+06-5.71216E+06 8.45364E+05
 -1       382 5.61066E+08 4.95339E+07 1.13369E+07-4.08216E+06-5.26059E+06 8.36498E+05
 -1       383 5.13799E+08 4.53724E+07 1.04004E+07-4.00903E+06-4.81671E+06 8.22922E+05
 -1       384 4.67529E+08 4.12992E+07 9.48423E+06-3.92302E+06-4.38204E+06 8.05778E+05
 -1       385 4.22409E+08 3.73277E+07 8.59168E+06-3.82390E+06-3.95808E+06 7.85569E+05
 -1       386 3.78599E+08 3.34721E+07 7.72602E+06-3.71117E+06-3.54637E+06 7.62439E+05
 -1       387 3.36264E+08 2.97471E+07 6.89053E+06-3.58427E+06-3.14847E+06 7.36373E+05
 -1       388 2.95576E+08 2.61676E+07 6.08862E+06-3.44266E+06-2.76600E+06 7.07287E+05
 -1       389 2.56711E+08 2.27492E+07 5.32375E+06-3.28584E+06-2.40063E+06 6.75055E+05
 -1       390 2.19851E+08 1.95079E+07 4.59953E+06-3.11334E+06-2.05406E+06 6.39516E+05
 -1       391 1.85179E+08 1.64599E+07 3.91973E+06-2.92467E+06-1.72805E+06 6.00486E+05
 -1       392 1.52885E+08 1.36221E+07 3.28820E+06-2.71920E+06-1.42433E+06 5.57841E+05
 -1       393 1.23160E+08 1.10114E+07 2.70890E+06-2.49622E+06-1.14466E+06 5.11706E+05
 -1       394 9.61975E+07 8.64480E+06 2.18553E+06-2.25521E+06-8.90743E+05 4.62753E+05
 -1       395 7.21897E+07 6.53870E+06 1.72113E+06-1.99668E+06-6.64291E+05 4.12300E+05
 -1       396 5.13289E+07 4.70813E+06 1.31729E+06-1.72335E+06-4.67307E+05 3.61208E+05
 -1       397 3.38073E+07 3.16767E+06 9.76857E+05-1.44016E+06-3.02219E+05 3.07546E+05
 -1       398 1.98160E+07 1.93379E+06 6.97883E+05-1.14996E+06-1.72211E+05 2.44533E+05
 -1       399 9.55824E+06 1.02384E+06 5.17151E+05-8.43713E+05-7.66448E+04 1.62873E+05
 -1       400 3.34492E+06 5.70204E+05 4.22932E+05-5.41000E+05-1.89170E+04 8.92181E+04
 -1       401 6.57816E+08 2.81926E+08 2.81926E+08-2.18603E+08 5.82264E+01 8.18287E+06
 -1       402 6.55378E+08 2.80881E+08 2.80881E+08-2.19038E+08-2.74708E+01-2.18036E+06
 -1       403 8.89397E+05 2.14352E+05 1.83458E+05-3.28240E+05 5.14673E+04-7.43290E+04
 -1       404 3.28470E+07-4.30111E+07-4.87313E+06-2.72966E+07 7.94584E+06 5.98732E+06
 -1       405 3.96856E+07-3.17529E+07 5.01606E+06-1.31604E+07 4.58319E+06 4.16859E+06
 -1       406 3.55069E+07-2.96294E+07 6.49558E+05-1.53656E+07 4.66084E+06 3.81162E+06
 -1       407 3.37009E+07-2.87543E+07 1.10333E+06-1.54397E+07 4.12166E+06 4.01508E+06
 -1       408 3.18916E+07-2.69394E+07 9.41803E+05-1.52718E+07 3.94159E+06 3.92305E+06
 -1       409 3.00125E+07-2.53823E+07 9.93550E+05-1.51880E+07 3.73541E+06 3.93352E+06
 -1       410 2.81656E+07-2.37990E+07 9.73236E+05-1.50251E+07 3.52707E+06 3.91697E+06
 -1       411 2.63121E+07-2.22280E+07 9.21756E+05-1.48611E+07 3.29522E+06 3.89045E+06
 -1       412 2.44715E+07-2.06754E+07 8.49484E+05-1.46772E+07 3.05860E+06 3.85317E+06
 -1       413 2.26516E+07-1.91405E+07 7.73498E+05-1.44677E+07 2.82059E+06 3.80441E+06
 -1       414 2.08586E+07-1.76284E+07 6.97716E+05-1.42239E+07 2.58560E+06 3.74464E+06
 -1       415 1.90976E+07-1.61429E+07 6.23645E+05-1.39402E+07 2.35443E+06 3.67350E+06
 -1       416 1.73740E+07-1.46888E+07 5.51118E+05-1.36125E+07 2.12785E+06 3.59061E+06
 -1       417 1.56931E+07-1.32707E+07 4.80117E+05-1.32382E+07 1.90647E+06 3.49550E+06
 -1       418 1.40610E+07-1.18938E+07 4.10700E+05-1.28152E+07 1.69098E+06 3.38769E+06
 -1       419 1.24837E+07-1.05632E+07 3.43013E+05-1.23417E+07 1.48216E+06 3.26670E+06
 -1       420 1.09676E+07-9.28434E+06 2.77234E+05-1.18162E+07 1.28079E+06 3.13208E+06
 -1       421 9.51920E+06-8.06276E+06 2.13565E+05-1.12373E+07 1.08770E+06 2.98345E+06
 -1       422 8.14525E+06-6.90414E+06 1.52246E+05-1.06040E+07 9.03751E+05 2.82044E+06
 -1       423 6.85264E+06-5.81430E+06 9.36052E+04-9.91515E+06 7.29880E+05 2.64275E+06
 -1       424 5.64845E+06-4.79915E+06 3.81638E+04-9.17029E+06 5.67122E+05 2.45008E+06
 -1       425 4.53997E+06-3.86465E+06-1.32142E+04-8.36908E+06 4.16676E+05 2.24213E+06
 -1       426 3.53466E+06-3.01687E+06-5.94202E+04-7.51126E+06 2.79910E+05 2.01868E+06
 -1       427 2.63998E+06-2.26185E+06-9.97800E+04-6.59625E+06 1.57772E+05 1.77968E+06
 -1       428 1.86251E+06-1.60603E+06-1.36396E+05-5.62236E+06 5.05594E+04 1.52528E+06
 -1       429 1.20769E+06-1.05520E+06-1.75614E+05-4.58636E+06-4.56652E+04 1.25729E+06
 -1       430 6.79632E+05-6.17099E+05-2.27525E+05-3.48491E+06-1.29354E+05 9.74430E+05
 -1       431 2.90086E+05-2.97651E+05-2.74586E+05-2.31073E+06-2.09190E+05 6.88272E+05
 -1       432 5.25060E+04-8.54145E+04-2.93546E+05-1.07296E+06-2.21123E+05 3.55796E+05
 -1       433 9.96214E+05 4.61370E+05 2.89608E+05-6.66138E+05 5.25015E+04-5.64272E+04
 -1       434 6.57816E+08 2.81926E+08 2.81926E+08-2.18603E+08-5.82264E+01-8.18287E+06
 -1       435 6.55378E+08 2.80881E+08 2.80881E+08-2.19038E+08 2.74708E+01 2.18036E+06
 -1       436 5.25060E+04-8.54145E+04-2.93546E+05-1.07296E+06 2.21123E+05-3.55796E+05
 -1       437 2.90086E+05-2.97651E+05-2.74586E+05-2.31073E+06 2.09190E+05-6.88272E+05
 -1       438 6.79632E+05-6.17099E+05-2.27525E+05-3.48491E+06 1.29354E+05-9.74430E+05
 -1       439 1.20769E+06-1.05520E+06-1.75614E+05-4.58636E+06 4.56652E+04-1.25729E+06
 -1       440 1.86251E+06-1.60603E+06-1.36396E+05-5.62236E+06-5.05594E+04-1.52528E+06
 -1       441 2.63998E+06-2.26185E+06-9.97800E+04-6.59625E+06-1.57772E+05-1.77968E+06
 -1       442 3.53466E+06-3.01687E+06-5.94202E+04-7.51126E+06-2.79910E+05-2.01868E+06
 -1       443 4.53997E+06-3.86465E+06-1.32142E+04-8.36908E+06-4.16676E+05-2.24213E+06
 -1       444 5.64845E+06-4.79915E+06 3.81638E+04-9.17029E+06-5.67122E+05-2.45008E+06
 -1       445 6.85264E+06-5.81430E+06 9.36052E+04-9.91515E+06-7.29880E+05-2.64275E+06
 -1       446 8.14525E+06-6.90414E+06 1.52246E+05-1.06040E+07-9.03751E+05-2.82044E+06
 -1       447 9.51920E+06-8.06276E+06 2.13565E+05-1.12373E+07-1.08770E+06-2.98345E+06
 -1       448 1.09676E+07-9.28434E+06 2.77234E+05-1.18162E+07-1.28079E+06-3.13208E+06
 -1       449 1.24837E+07-1.05632E+07 3.43013E+05-1.23417E+07-1.48216E+06-3.26670E+06
 -1       450 1.40610E+07-1.18938E+07 4.10700E+05-1.28152E+07-1.69098E+06-3.38769E+06
 -1       451 1.56931E+07-1.32707E+07 4.80117E+05-1.32382E+07-1.90647E+06-3.49550E+06
 -1       452 1.73740E+07-1.46888E+07 5.51118E+05-1.36125E+07-2.12785E+06-3.59061E+06
 -1       453 1.90976E+07-1.61429E+07 6.23645E+05-1.39402E+07-2.35443E+06-3.67350E+06
 -1       454 2.08586E+07-1.76284E+07 6.97716E+05-1.42239E+07-2.58560E+06-3.74464E+06
 -1       455 2.26516E+07-1.91405E+07 7.73498E+05-1.44677E+07-2.82059E+06-3.80441E+06
 -1       456 2.44715E+07-2.06754E+07 8.49484E+05-1.46772E+07-3.05860E+06-3.85317E+06
 -1       457 2.63121E+07-2.22280E+07 9.21756E+05-1.48611E+07-3.29522E+06-3.89045E+06
 -1       458 2.81656E+07-2.37990E+07 9.73236E+05-1.50251E+07-3.52707E+06-3.91697E+06
 -1       459 3.00125E+07-2.53823E+07 9.93550E+05-1.51880E+07-3.73541E+06-3.93352E+06
 -1       460 3.18916E+07-2.69394E+07 9.41803E+05-1.52718E+07-3.94159E+06-3.92305E+06
 -1       461 3.37009E+07-2.87543E+07 1.10333E+06-1.54397E+07-4.12166E+06-4.01508E+06
 -1       462 3.55069E+07-2.96294E+07 6.49558E+05-1.53656E+07-4.66084E+06-3.81162E+06
 -1       463 3.96856E+07-3.17529E+07 5.01606E+06-1.31604E+07-4.58319E+06-4.16859E+06
 -1       464 3.28470E+07-4.30111E+07-4.87313E+06-2.72966E+07-7.94584E+06-5.98732E+06
 -1       465 8.89397E+05 2.14352E+05 1.83458E+05-3.28240E+05-5.14674E+04 7.43290E+04
 -1       466 9.44040E+08-2.51618E+07-1.24949E+08-2.06466E+07-1.24854E+07-3.29463E+06
 -1       467 1.02926E+09 1.08382E+08 5.17991E+07-2.71924E+06-8.72868E+06 8.91013E+05
 -1       468 9.55536E+08 8.08117E+07 1.13652E+07-5.02201E+06-9.22498E+06-6.67950E+05
 -1       469 9.09770E+08 8.10039E+07 2.01148E+07-4.75604E+06-8.44789E+06-1.81720E+05
 -1       470 8.57937E+08 7.55074E+07 1.67915E+07-4.97052E+06-8.05488E+06-1.45850E+05
 -1       471 8.07820E+08 7.13557E+07 1.63804E+07-4.83888E+06-7.57279E+06-5.31242E+04
 -1       472 7.57441E+08 6.68463E+07 1.52519E+07-4.76012E+06-7.10800E+06-4.21535E+04
 -1       473 7.07523E+08 6.24524E+07 1.42742E+07-4.67587E+06-6.63796E+06-5.34332E+04
 -1       474 6.58065E+08 5.80871E+07 1.32772E+07-4.60258E+06-6.17297E+06-6.58188E+04
 -1       475 6.09216E+08 5.37827E+07 1.23039E+07-4.52853E+06-5.71330E+06-7.36238E+04
 -1       476 5.61090E+08 4.95441E+07 1.13471E+07-4.44709E+06-5.26073E+06-7.72441E+04
 -1       477 5.13821E+08 4.53826E+07 1.04101E+07-4.35413E+06-4.81635E+06-7.83586E+04
 -1       478 4.67552E+08 4.13099E+07 9.49425E+06-4.24754E+06-4.38140E+06-7.82779E+04
 -1       479 4.22433E+08 3.73392E+07 8.60229E+06-4.12621E+06-3.95725E+06-7.76117E+04
 -1       480 3.78624E+08 3.34843E+07 7.73720E+06-3.98945E+06-3.54537E+06-7.66111E+04
 -1       481 3.36290E+08 2.97599E+07 6.90220E+06-3.83676E+06-3.14731E+06-7.53569E+04
 -1       482 2.95603E+08 2.61809E+07 6.10067E+06-3.66771E+06-2.76466E+06-7.38511E+04
 -1       483 2.56739E+08 2.27630E+07 5.33610E+06-3.48191E+06-2.39909E+06-7.20443E+04
 -1       484 2.19878E+08 1.95220E+07 4.61202E+06-3.27908E+06-2.05229E+06-6.98417E+04
 -1       485 1.85206E+08 1.64740E+07 3.93203E+06-3.05906E+06-1.72598E+06-6.71189E+04
 -1       486 1.52910E+08 1.36357E+07 3.29978E+06-2.82191E+06-1.42195E+06-6.37986E+04
 -1       487 1.23182E+08 1.10237E+07 2.71907E+06-2.56786E+06-1.14202E+06-6.00471E+04
 -1       488 9.62155E+07 8.65534E+06 2.19406E+06-2.29707E+06-8.88089E+05-5.65685E+04
 -1       489 7.22079E+07 6.54846E+06 1.72952E+06-2.00881E+06-6.62103E+05-5.47140E+04
 -1       490 5.13581E+07 4.72150E+06 1.33008E+06-1.70047E+06-4.65888E+05-5.53282E+04
 -1       491 3.38626E+07 3.19316E+06 1.00108E+06-1.36807E+06-3.00734E+05-5.65765E+04
 -1       492 1.99004E+07 1.97590E+06 7.35829E+05-1.00815E+06-1.68409E+05-5.09027E+04
 -1       493 9.64294E+06 1.07743E+06 5.58638E+05-6.24802E+05-6.76194E+04-3.11036E+04
 -1       494 3.38151E+06 5.89022E+05 4.39554E+05-2.83176E+05-1.24894E+04-2.19761E+04
 -1       495 9.43756E+08-2.43324E+07-1.24785E+08-2.13727E+07 1.18743E+07 4.22123E+06
 -1       496 1.03069E+09 1.09309E+08 5.25067E+07-3.70702E+06 8.58310E+06-1.73299E+06
 -1       497 9.56581E+08 8.11251E+07 1.17729E+07-4.76049E+06 9.31942E+06-9.89247E+05
 -1       498 9.10103E+08 8.11256E+07 2.02512E+07-4.04466E+06 8.46910E+06-1.12407E+06
 -1       499 8.57844E+08 7.54081E+07 1.67338E+07-4.18809E+06 8.08755E+06-9.18098E+05
 -1       500 8.07622E+08 7.12584E+07 1.62919E+07-4.15148E+06 7.57678E+06-8.63341E+05
 -1       501 7.57280E+08 6.67802E+07 1.51838E+07-4.20470E+06 7.10326E+06-8.37996E+05
 -1       502 7.07425E+08 6.24151E+07 1.42338E+07-4.20756E+06 6.63346E+06-8.44389E+05
 -1       503 6.58011E+08 5.80673E+07 1.32550E+07-4.18552E+06 6.17011E+06-8.47868E+05
 -1       504 6.09183E+08 5.37702E+07 1.22905E+07-4.14182E+06 5.71216E+06-8.45364E+05
 -1       505 5.61066E+08 4.95339E+07 1.13369E+07-4.08216E+06 5.26059E+06-8.36498E+05
 -1       506 5.13799E+08 4.53724E+07 1.04004E+07-4.00903E+06 4.81671E+06-8.22922E+05
 -1       507 4.67529E+08 4.12992E+07 9.48423E+06-3.92302E+06 4.38204E+06-8.05778E+05
 -1       508 4.22409E+08 3.73277E+07 8.59168E+06-3.82390E+06 3.95808E+06-7.85569E+05
 -1       509 3.78599E+08 3.34721E+07 7.72602E+06-3.71117E+06 3.54637E+06-7.62439E+05
 -1       510 3.36264E+08 2.97471E+07 6.89053E+06-3.58427E+06 3.14847E+06-7.36373E+05
 -1       511 2.95576E+08 2.61676E+07 6.08862E+06-3.44266E+06 2.76600E+06-7.07287E+05
 -1       512 2.56711E+08 2.27492E+07 5.32375E+06-3.28584E+06 2.40063E+06-6.75055E+05
 -1       513 2.19851E+08 1.95079E+07 4.59953E+06-3.11334E+06 2.05406E+06-6.39516E+05
 -1       514 1.85179E+08 1.64599E+07 3.91973E+06-2.92467E+06 1.72805E+06-6.00486E+05
 -1       515 1.52885E+08 1.36221E+07 3.28820E+06-2.71920E+06 1.42433E+06-5.57841E+05
 -1       516 1.23160E+08 1.10114E+07 2.70890E+06-2.49622E+06 1.14466E+06-5.11706E+05
 -1       517 9.61975E+07 8.64480E+06 2.18553E+06-2.25521E+06 8.90743E+05-4.62753E+05
 -1       518 7.21897E+07 6.53870E+06 1.72113E+06-1.99668E+06 6.64291E+05-4.12300E+05
 -1       519 5.13289E+07 4.70813E+06 1.31729E+06-1.72335E+06 4.67307E+05-3.61208E+05
 -1       520 3.38073E+07 3.16767E+06 9.76857E+05-1.44016E+06 3.02219E+05-3.07546E+05
 -1       521 1.98160E+07 1.93379E+06 6.97883E+05-1.14996E+06 1.72211E+05-2.44533E+05
 -1       522 9.55824E+06 1.02384E+06 5.17151E+05-8.43713E+05 7.66448E+04-1.62873E+05
 -1       523 3.34493E+06 5.70204E+05 4.22932E+05-5.41000E+05 1.89170E+04-8.92182E+04
 -1       524 9.96214E+05 4.61370E+05 2.89608E+05-6.66139E+05-5.25015E+04 5.64272E+04
 -1       525-6.41204E+07-2.71744E+07-2.64609E+07 3.65336E+06 9.77239E+05-7.23530E+05
 -1       526-6.21298E+07-2.63472E+07-2.56942E+07 4.27315E+06 1.07152E+06 1.33391E+05
 -1       527-5.93767E+07-2.52014E+07-2.46281E+07 5.02322E+06 2.72016E+05 6.67857E+04
 -1       528-5.62335E+07-2.38745E+07-2.33483E+07 4.90381E+06 5.70601E+03-3.67802E+04
 -1       529-5.31193E+07-2.25648E+07-2.20967E+07 4.99210E+06 4.24271E+04-7.14912E+04
 -1       530-4.99542E+07-2.12196E+07-2.07777E+07 4.94791E+06 6.88232E+04-9.41840E+04
 -1       531-4.68162E+07-1.98807E+07-1.94528E+07 4.90127E+06 1.13627E+05-1.04719E+05
 -1       532-4.37004E+07-1.85466E+07-1.81214E+07 4.86457E+06 1.49466E+05-1.11568E+05
 -1       533-4.06087E+07-1.72195E+07-1.67897E+07 4.81130E+06 1.84483E+05-1.16497E+05
 -1       534-3.75518E+07-1.59054E+07-1.54663E+07 4.74708E+06 2.23256E+05-1.19675E+05
 -1       535-3.45384E+07-1.46086E+07-1.41569E+07 4.66974E+06 2.65910E+05-1.21332E+05
 -1       536-3.15772E+07-1.33331E+07-1.28666E+07 4.57910E+06 3.11610E+05-1.21988E+05
 -1       537-2.86770E+07-1.20830E+07-1.15997E+07 4.47452E+06 3.59653E+05-1.22047E+05
 -1       538-2.58469E+07-1.08621E+07-1.03601E+07 4.35510E+06 4.09675E+05-1.21717E+05
 -1       539-2.30966E+07-9.67456E+06-9.15192E+06 4.21997E+06 4.61531E+05-1.21052E+05
 -1       540-2.04363E+07-8.52477E+06-7.97958E+06 4.06840E+06 5.15117E+05-1.20030E+05
 -1       541-1.78767E+07-7.41728E+06-6.84759E+06 3.89980E+06 5.70302E+05-1.18607E+05
 -1       542-1.54287E+07-6.35683E+06-5.76072E+06 3.71373E+06 6.26928E+05-1.16745E+05
 -1       543-1.31038E+07-5.34830E+06-4.72387E+06 3.50978E+06 6.84810E+05-1.14405E+05
 -1       544-1.09134E+07-4.39665E+06-3.74212E+06 3.28763E+06 7.43761E+05-1.11543E+05
 -1       545-8.86925E+06-3.50698E+06-2.82069E+06 3.04700E+06 8.03616E+05-1.08091E+05
 -1       546-6.98342E+06-2.68453E+06-1.96503E+06 2.78765E+06 8.64265E+05-1.03951E+05
 -1       547-5.26805E+06-1.93468E+06-1.18087E+06 2.50935E+06 9.25568E+05-9.89377E+04
 -1       548-3.73572E+06-1.26300E+06-4.74272E+05 2.21164E+06 9.86846E+05-9.27304E+04
 -1       549-2.40006E+06-6.75560E+05 1.48195E+05 1.89282E+06 1.04584E+06-8.50390E+04
 -1       550-1.27818E+06-1.79796E+05 6.78858E+05 1.54696E+06 1.09853E+06-7.63361E+04
 -1       551-3.87928E+05 2.17294E+05 1.11224E+06 1.17604E+06 1.14025E+06-7.05726E+04
 -1       552 2.47061E+05 5.07581E+05 1.44488E+06 7.60492E+05 1.18379E+06-7.95527E+04
 -1       553 6.12685E+05 6.89535E+05 1.68576E+06 3.32689E+05 1.30271E+06-1.19729E+05
 -1       554-6.36490E+07-2.68539E+07-2.58639E+07 1.83167E+06-6.08714E-04 8.74055E-03
 -1       555-6.15224E+07-2.59561E+07-2.49980E+07 1.12959E+06-5.51580E-04 1.27333E-02
 -1       556-5.94029E+07-2.51810E+07-2.45336E+07 2.46450E+06-6.33013E-04 1.65475E-02
 -1       557-5.63581E+07-2.39272E+07-2.33991E+07 2.92022E+06-4.74314E-04 1.94054E-02
 -1       558-5.31220E+07-2.25610E+07-2.20813E+07 2.75166E+06-9.82571E-05 2.14462E-02
 -1       559-4.99547E+07-2.12116E+07-2.07505E+07 2.72577E+06-4.29005E-04 2.30738E-02
 -1       560-4.68025E+07-1.98612E+07-1.94014E+07 2.69439E+06-1.38351E-03 2.37168E-02
 -1       561-4.36764E+07-1.85183E+07-1.80512E+07 2.66198E+06-6.57294E-04 2.43743E-02
 -1       562-4.05782E+07-1.71843E+07-1.67027E+07 2.63363E+06-3.52471E-04 2.50397E-02
 -1       563-3.75129E+07-1.58619E+07-1.53600E+07 2.59689E+06 1.82737E-04 2.48245E-02
 -1       564-3.44905E+07-1.45561E+07-1.40297E+07 2.55307E+06 3.23957E-04 2.43158E-02
 -1       565-3.15202E+07-1.32712E+07-1.27172E+07 2.50244E+06-3.59613E-05 2.43572E-02
 -1       566-2.86107E+07-1.20113E+07-1.14270E+07 2.44463E+06 6.30594E-05 2.44523E-02
 -1       567-2.57712E+07-1.07803E+07-1.01632E+07 2.37905E+06 5.72272E-04 2.42283E-02
 -1       568-2.30111E+07-9.58234E+06-8.93006E+06 2.30502E+06 1.58375E-03 2.35365E-02
 -1       569-2.03406E+07-8.42173E+06-7.73184E+06 2.22203E+06 6.28687E-04 2.17533E-02
 -1       570-1.77704E+07-7.30309E+06-6.57320E+06 2.12972E+06 2.59819E-04 1.95705E-02
 -1       571-1.53117E+07-6.23120E+06-5.45898E+06 2.02784E+06 2.60977E-03 1.82408E-02
 -1       572-1.29757E+07-5.21094E+06-4.39416E+06 1.91622E+06 4.15122E-03 1.78291E-02
 -1       573-1.07739E+07-4.24735E+06-3.38391E+06 1.79472E+06 1.98783E-03 1.72883E-02
 -1       574-8.71830E+06-3.34554E+06-2.43351E+06 1.66322E+06 2.77386E-04 1.58116E-02
 -1       575-6.82068E+06-2.51074E+06-1.54846E+06 1.52172E+06 1.58762E-03 1.48792E-02
 -1       576-5.09315E+06-1.74829E+06-7.34478E+05 1.37026E+06-1.58251E-04 1.45810E-02
 -1       577-3.54827E+06-1.06385E+06 2.10193E+03 1.20823E+06-2.22769E-03 1.35795E-02
 -1       578-2.20043E+06-4.64089E+05 6.53469E+05 1.03299E+06 1.27848E-03 1.41366E-02
 -1       579-1.06807E+06 4.25141E+04 1.20978E+06 8.38539E+05 2.11624E-03 1.61144E-02
 -1       580-1.80642E+05 4.43383E+05 1.65859E+06 6.03789E+05 1.37900E-03 1.79907E-02
 -1       581 4.36843E+05 7.31413E+05 2.00120E+06 3.45089E+05-4.15818E-03 1.91265E-02
 -1       582 8.25143E+05 9.37007E+05 2.29822E+06 1.52402E+05-3.58846E-03 1.84581E-02
 -1       583-6.41204E+07-2.71744E+07-2.64609E+07 3.65336E+06-9.77239E+05 7.23530E+05
 -1       584-6.21298E+07-2.63472E+07-2.56942E+07 4.27315E+06-1.07152E+06-1.33391E+05
 -1       585-5.93767E+07-2.52014E+07-2.46281E+07 5.02322E+06-2.72016E+05-6.67856E+04
 -1       586-5.62335E+07-2.38745E+07-2.33483E+07 4.90381E+06-5.70601E+03 3.67803E+04
 -1       587-5.31193E+07-2.25648E+07-2.20967E+07 4.99210E+06-4.24271E+04 7.14913E+04
 -1       588-4.99542E+07-2.12196E+07-2.07777E+07 4.94791E+06-6.88232E+04 9.41840E+04
 -1       589-4.68162E+07-1.98807E+07-1.94528E+07 4.90127E+06-1.13627E+05 1.04719E+05
 -1       590-4.37004E+07-1.85466E+07-1.81214E+07 4.86457E+06-1.49466E+05 1.11568E+05
 -1       591-4.06087E+07-1.72195E+07-1.67897E+07 4.81130E+06-1.84483E+05 1.16497E+05
 -1       592-3.75518E+07-1.59054E+07-1.54663E+07 4.74708E+06-2.23256E+05 1.19675E+05
 -1       593-3.45384E+07-1.46086E+07-1.41569E+07 4.66974E+06-2.65910E+05 1.21332E+05
 -1       594-3.15772E+07-1.33331E+07-1.28666E+07 4.57910E+06-3.11610E+05 1.21988E+05
 -1       595-2.86770E+07-1.20830E+07-1.15997E+07 4.47452E+06-3.59653E+05 1.22047E+05
 -1       596-2.58469E+07-1.08621E+07-1.03601E+07 4.35510E+06-4.09675E+05 1.21717E+05
 -1       597-2.30966E+07-9.67456E+06-9.15192E+06 4.21997E+06-4.61531E+05 1.21052E+05
 -1       598-2.04363E+07-8.52477E+06-7.97958E+06 4.06840E+06-5.15117E+05 1.20030E+05
 -1       599-1.78767E+07-7.41728E+06-6.84759E+06 3.89980E+06-5.70302E+05 1.18607E+05
 -1       600-1.54287E+07-6.35683E+06-5.76072E+06 3.71373E+06-6.26928E+05 1.16745E+05
 -1       601-1.31038E+07-5.34830E+06-4.72387E+06 3.50978E+06-6.84810E+05 1.14405E+05
 -1       602-1.09134E+07-4.39665E+06-3.74212E+06 3.28763E+06-7.43761E+05 1.11543E+05
 -1       603-8.86925E+06-3.50698E+06-2.82069E+06 3.04700E+06-8.03616E+05 1.08091E+05
 -1       604-6.98342E+06-2.68453E+06-1.96503E+06 2.78765E+06-8.64265E+05 1.03951E+05
 -1       605-5.26805E+06-1.93468E+06-1.18087E+06 2.50935E+06-9.25568E+05 9.89377E+04
 -1       606-3.73572E+06-1.26300E+06-4.74272E+05 2.21164E+06-9.86846E+05 9.27305E+04
 -1       607-2.40006E+06-6.75560E+05 1.48195E+05 1.89282E+06-1.04584E+06 8.50391E+04
 -1       608-1.27818E+06-1.79796E+05 6.78858E+05 1.54696E+06-1.09853E+06 7.63362E+04
 -1       609-3.87928E+05 2.17294E+05 1.11224E+06 1.17604E+06-1.14025E+06 7.05726E+04
 -1       610 2.47061E+05 5.07581E+05 1.44488E+06 7.60492E+05-1.18379E+06 7.95527E+04
 -1       611 6.12685E+05 6.89535E+05 1.68576E+06 3.32689E+05-1.30271E+06 1.19729E+05
 -1       612 6.41204E+07 2.71744E+07 2.64609E+07 3.65336E+06-9.77239E+05-7.23530E+05
 -1       613 6.21298E+07 2.63472E+07 2.56942E+07 4.27315E+06-1.07152E+06 1.33391E+05
 -1       614 5.93767E+07 2.52014E+07 2.46281E+07 5.02322E+06-2.72016E+05 6.67856E+04
 -1       615 5.62335E+07 2.38745E+07 2.33483E+07 4.90381E+06-5.70601E+03-3.67803E+04
 -1       616 5.31193E+07 2.25648E+07 2.20967E+07 4.99210E+06-4.24271E+04-7.14913E+04
 -1       617 4.99542E+07 2.12196E+07 2.07777E+07 4.94791E+06-6.88232E+04-9.41840E+04
 -1       618 4.68162E+07 1.98807E+07 1.94528E+07 4.90127E+06-1.13627E+05-1.04719E+05
 -1       619 4.37004E+07 1.85466E+07 1.81214E+07 4.86457E+06-1.49466E+05-1.11568E+05
 -1       620 4.06087E+07 1.72195E+07 1.67897E+07 4.81130E+06-1.84483E+05-1.16497E+05
 -1       621 3.75518E+07 1.59054E+07 1.54663E+07 4.74708E+06-2.23256E+05-1.19675E+05
 -1       622 3.45384E+07 1.46086E+07 1.41569E+07 4.66974E+06-2.65910E+05-1.21332E+05
 -1       623 3.15772E+07 1.33331E+07 1.28666E+07 4.57910E+06-3.11610E+05-1.21988E+05
 -1       624 2.86770E+07 1.20830E+07 1.15997E+07 4.47452E+06-3.59653E+05-1.22047E+05
 -1       625 2.58469E+07 1.08621E+07 1.03601E+07 4.35510E+06-4.09675E+05-1.21717E+05
 -1       626 2.30966E+07 9.67456E+06 9.15192E+06 4.21997E+06-4.61531E+05-1.21052E+05
 -1       627 2.04363E+07 8.52477E+06 7.97958E+06 4.06840E+06-5.15117E+05-1.20030E+05
 -1       628 1.78767E+07 7.41728E+06 6.84759E+06 3.89980E+06-5.70302E+05-1.18607E+05
 -1       629 1.54287E+07 6.35683E+06 5.76072E+06 3.71373E+06-6.26928E+05-1.16745E+05
 -1       630 1.31038E+07 5.34830E+06 4.72387E+06 3.50978E+06-6.84810E+05-1.14405E+05
 -1       631 1.09134E+07 4.39665E+06 3.74212E+06 3.28763E+06-7.43761E+05-1.11543E+05
 -1       632 8.86925E+06 3.50698E+06 2.82069E+06 3.04700E+06-8.03616E+05-1.08091E+05
 -1       633 6.98342E+06 2.68453E+06 1.96503E+06 2.78765E+06-8.64265E+05-1.03951E+05
 -1       634 5.26805E+06 1.93468E+06 1.18087E+06 2.50935E+06-9.25568E+05-9.89377E+04
 -1       635 3.73572E+06 1.26300E+06 4.74272E+05 2.21164E+06-9.86846E+05-9.27305E+04
 -1       636 2.40006E+06 6.75560E+05-1.48195E+05 1.89282E+06-1.04584E+06-8.50391E+04
 -1       637 1.27818E+06 1.79796E+05-6.78858E+05 1.54696E+06-1.09853E+06-7.63362E+04
 -1       638 3.87928E+05-2.17294E+05-1.11224E+06 1.17604E+06-1.14025E+06-7.05726E+04
 -1       639-2.47061E+05-5.07581E+05-1.44488E+06 7.60492E+05-1.18379E+06-7.95527E+04
 -1       640-6.12685E+05-6.89535E+05-1.68576E+06 3.32689E+05-1.30271E+06-1.19729E+05
 -1       641 6.36490E+07 2.68539E+07 2.58639E+07 1.83167E+06-4.52444E-04 2.12909E-03
 -1       642 6.15224E+07 2.59561E+07 2.49980E+07 1.12959E+06-4.58348E-04 4.23208E-04
 -1       643 5.94029E+07 2.51810E+07 2.45336E+07 2.46450E+06-5.48472E-04-8.41298E-04
 -1       644 5.63581E+07 2.39272E+07 2.33991E+07 2.92022E+06-4.06333E-04-2.37635E-03
 -1       645 5.31220E+07 2.25610E+07 2.20813E+07 2.75166E+06-3.69981E-05-4.29842E-03
 -1       646 4.99547E+07 2.12116E+07 2.07505E+07 2.72577E+06-3.78989E-04-6.18272E-03
 -1       647 4.68025E+07 1.98612E+07 1.94014E+07 2.69439E+06-1.33732E-03-7.79144E-03
 -1       648 4.36764E+07 1.85183E+07 1.80512E+07 2.66198E+06-6.23983E-04-8.95169E-03
 -1       649 4.05782E+07 1.71843E+07 1.67027E+07 2.63363E+06-3.32747E-04-1.01897E-02
 -1       650 3.75129E+07 1.58619E+07 1.53600E+07 2.59689E+06 2.02156E-04-1.18959E-02
 -1       651 3.44905E+07 1.45561E+07 1.40297E+07 2.55307E+06 3.30031E-04-1.37246E-02
 -1       652 3.15202E+07 1.32712E+07 1.27172E+07 2.50244E+06-4.85006E-05-1.45105E-02
 -1       653 2.86107E+07 1.20113E+07 1.14270E+07 2.44463E+06 4.58917E-05-1.48092E-02
 -1       654 2.57712E+07 1.07803E+07 1.01632E+07 2.37905E+06 5.35614E-04-1.52719E-02
 -1       655 2.30111E+07 9.58234E+06 8.93006E+06 2.30502E+06 1.53876E-03-1.65304E-02
 -1       656 2.03406E+07 8.42173E+06 7.73184E+06 2.22203E+06 5.99236E-04-1.86381E-02
 -1       657 1.77704E+07 7.30309E+06 6.57320E+06 2.12972E+06 2.15498E-04-1.99165E-02
 -1       658 1.53117E+07 6.23120E+06 5.45898E+06 2.02784E+06 2.52919E-03-2.04635E-02
 -1       659 1.29757E+07 5.21094E+06 4.39416E+06 1.91622E+06 4.13228E-03-2.15547E-02
 -1       660 1.07739E+07 4.24735E+06 3.38391E+06 1.79472E+06 1.92766E-03-2.26020E-02
 -1       661 8.71830E+06 3.34554E+06 2.43351E+06 1.66322E+06 2.48831E-04-2.27569E-02
 -1       662 6.82068E+06 2.51074E+06 1.54846E+06 1.52172E+06 1.55849E-03-2.32859E-02
 -1       663 5.09315E+06 1.74829E+06 7.34478E+05 1.37026E+06-1.82135E-04-2.44361E-02
 -1       664 3.54827E+06 1.06385E+06-2.10193E+03 1.20823E+06-2.22298E-03-2.37391E-02
 -1       665 2.20043E+06 4.64089E+05-6.53469E+05 1.03299E+06 1.26951E-03-2.21203E-02
 -1       666 1.06807E+06-4.25141E+04-1.20978E+06 8.38539E+05 2.11182E-03-2.10435E-02
 -1       667 1.80642E+05-4.43383E+05-1.65859E+06 6.03789E+05 1.41238E-03-2.05367E-02
 -1       668-4.36843E+05-7.31413E+05-2.00120E+06 3.45089E+05-4.14785E-03-1.91269E-02
 -1       669-8.25143E+05-9.37007E+05-2.29822E+06 1.52402E+05-3.59293E-03-1.73657E-02
 -1       670 6.41204E+07 2.71744E+07 2.64609E+07 3.65336E+06 9.77239E+05 7.23530E+05
 -1       671 6.21298E+07 2.63472E+07 2.56942E+07 4.27315E+06 1.07152E+06-1.33391E+05
 -1       672 5.93767E+07 2.52014E+07 2.46281E+07 5.02322E+06 2.72016E+05-6.67856E+04
 -1       673 5.62335E+07 2.38745E+07 2.33483E+07 4.90381E+06 5.70601E+03 3.67803E+04
 -1       674 5.31193E+07 2.25648E+07 2.20967E+07 4.99210E+06 4.24271E+04 7.14912E+04
 -1       675 4.99542E+07 2.12196E+07 2.07777E+07 4.94791E+06 6.88232E+04 9.41840E+04
 -1       676 4.68162E+07 1.98807E+07 1.94528E+07 4.90127E+06 1.13627E+05 1.04719E+05
 -1       677 4.37004E+07 1.85466E+07 1.81214E+07 4.86457E+06 1.49466E+05 1.11568E+05
 -1       678 4.06087E+07 1.72195E+07 1.67897E+07 4.81130E+06 1.84483E+05 1.16497E+05
 -1       679 3.75518E+07 1.59054E+07 1.54663E+07 4.74708E+06 2.23256E+05 1.19675E+05
 -1       680 3.45384E+07 1.46086E+07 1.41569E+07 4.66974E+06 2.65910E+05 1.21332E+05
 -1       681 3.15772E+07 1.33331E+07 1.28666E+07 4.57910E+06 3.11610E+05 1.21988E+05
 -1       682 2.86770E+07 1.20830E+07 1.15997E+07 4.47452E+06 3.59653E+05 1.22047E+05
 -1       683 2.58469E+07 1.08621E+07 1.03601E+07 4.35510E+06 4.09675E+05 1.21717E+05
 -1       684 2.30966E+07 9.67456E+06 9.15192E+06 4.21997E+06 4.61531E+05 1.21052E+05
 -1       685 2.04363E+07 8.52477E+06 7.97958E+06 4.06840E+06 5.15117E+05 1.20030E+05
 -1       686 1.78767E+07 7.41728E+06 6.84759E+06 3.89980E+06 5.70302E+05 1.18607E+05
 -1       687 1.54287E+07 6.35683E+06 5.76072E+06 3.71373E+06 6.26928E+05 1.16745E+05
 -1       688 1.31038E+07 5.34830E+06 4.72387E+06 3.50978E+06 6.84810E+05 1.14405E+05
 -1       689 1.09134E+07 4.39665E+06 3.74212E+06 3.28763E+06 7.43761E+05 1.11543E+05
 -1       690 8.86925E+06 3.50698E+06 2.82069E+06 3.04700E+06 8.03616E+05 1.08091E+05
 -1       691 6.98342E+06 2.68453E+06 1.96503E+06 2.78765E+06 8.64265E+05 1.03951E+05
 -1       692 5.26805E+06 1.93468E+06 1.18087E+06 2.50935E+06 9.25568E+05 9.89377E+04
 -1       693 3.73572E+06 1.26300E+06 4.74272E+05 2.21164E+06 9.86846E+05 9.27304E+04
 -1       694 2.40006E+06 6.75560E+05-1.48195E+05 1.89282E+06 1.04584E+06 8.50390E+04
 -1       695 1.27818E+06 1.79796E+05-6.78858E+05 1.54696E+06 1.09853E+06 7.63361E+04
 -1       696 3.87928E+05-2.17294E+05-1.11224E+06 1.17604E+06 1.14025E+06 7.05726E+04
 -1       697-2.47061E+05-5.07581E+05-1.44488E+06 7.60492E+05 1.18379E+06 7.95527E+04
 -1       698-6.12685E+05-6.89535E+05-1.68576E+06 3.32689E+05 1.30271E+06 1.19729E+05
 -1       699-4.72961E+08 6.84263E+07 7.82230E+07-1.81972E+07 1.27670E+07 6.48229E+05
 -1       700-5.27696E+08-9.54083E+06-1.45430E+07-9.92290E+06 8.88748E+06 1.64697E+06
 -1       701-4.84314E+08 1.90900E+05 1.26519E+06-1.10434E+07 9.11264E+06 1.05543E+06
 -1       702-4.61295E+08-5.22427E+05-1.03443E+06-1.10360E+07 8.35220E+06 1.13043E+06
 -1       703-4.35449E+08-6.28279E+05-7.95868E+05-1.11228E+07 7.93052E+06 1.16960E+06
 -1       704-4.09812E+08-5.33184E+05-7.52534E+05-1.09890E+07 7.46704E+06 1.21767E+06
 -1       705-3.84291E+08-4.67227E+05-6.71071E+05-1.08666E+07 7.01356E+06 1.22284E+06
 -1       706-3.58968E+08-4.36241E+05-6.24713E+05-1.07307E+07 6.55512E+06 1.21629E+06
 -1       707-3.33893E+08-4.13617E+05-5.84163E+05-1.05917E+07 6.09780E+06 1.20102E+06
 -1       708-3.09129E+08-3.99218E+05-5.50825E+05-1.04373E+07 5.64466E+06 1.18313E+06
 -1       709-2.84733E+08-3.87105E+05-5.19794E+05-1.02598E+07 5.19793E+06 1.16311E+06
 -1       710-2.60773E+08-3.76325E+05-4.90228E+05-1.00538E+07 4.75913E+06 1.14047E+06
 -1       711-2.37321E+08-3.66639E+05-4.61928E+05-9.81612E+06 4.32964E+06 1.11467E+06
 -1       712-2.14453E+08-3.58051E+05-4.34904E+05-9.54469E+06 3.91084E+06 1.08530E+06
 -1       713-1.92251E+08-3.50632E+05-4.09257E+05-9.23804E+06 3.50420E+06 1.05207E+06
 -1       714-1.70797E+08-3.44463E+05-3.85110E+05-8.89492E+06 3.11124E+06 1.01478E+06
 -1       715-1.50179E+08-3.39636E+05-3.62606E+05-8.51425E+06 2.73353E+06 9.73257E+05
 -1       716-1.30487E+08-3.36231E+05-3.41883E+05-8.09505E+06 2.37271E+06 9.27401E+05
 -1       717-1.11811E+08-3.34298E+05-3.23057E+05-7.63653E+06 2.03044E+06 8.77132E+05
 -1       718-9.42461E+07-3.33816E+05-3.06182E+05-7.13808E+06 1.70847E+06 8.22382E+05
 -1       719-7.78868E+07-3.34634E+05-2.91214E+05-6.59940E+06 1.40858E+06 7.63046E+05
 -1       720-6.28300E+07-3.36420E+05-2.77973E+05-6.02041E+06 1.13265E+06 6.98886E+05
 -1       721-4.91738E+07-3.38825E+05-2.66329E+05-5.40100E+06 8.82587E+05 6.29439E+05
 -1       722-3.70179E+07-3.42064E+05-2.56613E+05-4.74033E+06 6.60182E+05 5.54152E+05
 -1       723-2.64643E+07-3.48270E+05-2.51102E+05-4.03590E+06 4.66556E+05 4.72838E+05
 -1       724-1.76136E+07-3.62146E+05-2.52909E+05-3.28396E+06 3.02464E+05 3.87503E+05
 -1       725-1.05670E+07-3.91303E+05-2.71391E+05-2.48181E+06 1.67269E+05 3.01630E+05
 -1       726-5.39885E+06-4.08404E+05-2.75235E+05-1.63280E+06 6.91460E+04 2.17676E+05
 -1       727-2.14507E+06-4.36371E+05-2.82002E+05-7.74962E+05 8.41702E+03 1.20134E+05
 -1       728-4.74124E+08 6.46011E+07 7.67268E+07-2.06475E+07-1.13947E+07 4.45506E+06
 -1       729-5.28785E+08-1.03093E+07-1.51002E+07-1.17564E+07-8.81213E+06 2.68899E+05
 -1       730-4.84815E+08-8.82003E+04 1.03131E+06-1.17527E+07-8.96844E+06 8.18718E+05
 -1       731-4.61406E+08-4.34857E+05-1.04146E+06-1.13523E+07-8.41481E+06 7.02702E+05
 -1       732-4.35329E+08-4.30751E+05-7.00801E+05-1.13504E+07-7.98591E+06 7.76023E+05
 -1       733-4.09684E+08-4.26405E+05-6.81953E+05-1.13246E+07-7.49686E+06 8.21206E+05
 -1       734-3.84207E+08-4.22220E+05-6.32286E+05-1.13242E+07-7.02460E+06 8.29388E+05
 -1       735-3.58922E+08-4.21607E+05-6.06729E+05-1.12682E+07-6.55709E+06 8.25587E+05
 -1       736-3.33873E+08-4.10471E+05-5.77168E+05-1.11709E+07-6.09737E+06 8.14465E+05
 -1       737-3.09121E+08-3.98782E+05-5.48303E+05-1.10346E+07-5.64389E+06 8.01702E+05
 -1       738-2.84730E+08-3.86990E+05-5.18992E+05-1.08639E+07-5.19731E+06 7.87871E+05
 -1       739-2.60773E+08-3.76281E+05-4.90195E+05-1.06596E+07-4.75857E+06 7.72527E+05
 -1       740-2.37322E+08-3.66797E+05-4.62392E+05-1.04214E+07-4.32902E+06 7.55193E+05
 -1       741-2.14456E+08-3.58634E+05-4.35879E+05-1.01478E+07-3.91006E+06 7.35506E+05
 -1       742-1.92255E+08-3.51852E+05-4.10847E+05-9.83758E+06-3.50319E+06 7.13236E+05
 -1       743-1.70803E+08-3.46488E+05-3.87430E+05-9.48922E+06-3.10996E+06 6.88221E+05
 -1       744-1.50187E+08-3.42566E+05-3.65745E+05-9.10143E+06-2.73195E+06 6.60349E+05
 -1       745-1.30496E+08-3.40109E+05-3.45908E+05-8.67303E+06-2.37082E+06 6.29548E+05
 -1       746-1.11823E+08-3.39163E+05-3.28051E+05-8.20294E+06-2.02824E+06 5.95772E+05
 -1       747-9.42605E+07-3.39813E+05-3.12321E+05-7.69014E+06-1.70593E+06 5.58984E+05
 -1       748-7.79047E+07-3.42218E+05-2.98868E+05-7.13357E+06-1.40559E+06 5.19107E+05
 -1       749-6.28525E+07-3.46593E+05-2.87762E+05-6.53214E+06-1.12892E+06 4.75927E+05
 -1       750-4.92015E+07-3.53058E+05-2.78908E+05-5.88503E+06-8.77650E+05 4.28994E+05
 -1       751-3.70496E+07-3.61280E+05-2.71883E+05-5.19247E+06-6.53626E+05 3.77743E+05
 -1       752-2.64940E+07-3.69311E+05-2.66332E+05-4.45700E+06-4.59262E+05 3.21955E+05
 -1       753-1.76304E+07-3.74245E+05-2.61590E+05-3.68421E+06-2.97014E+05 2.63491E+05
 -1       754-1.05614E+07-3.77381E+05-2.65531E+05-2.87784E+06-1.70862E+05 2.06273E+05
 -1       755-5.37971E+06-3.68236E+05-2.57443E+05-2.03383E+06-7.53673E+04 1.52156E+05
 -1       756-2.13896E+06-4.19848E+05-2.75212E+05-1.14576E+06-1.99351E+04 8.58822E+04
 -1       757-4.74124E+08 6.46011E+07 7.67268E+07-2.06475E+07 1.13947E+07-4.45506E+06
 -1       758-5.28785E+08-1.03093E+07-1.51002E+07-1.17564E+07 8.81213E+06-2.68899E+05
 -1       759-4.84815E+08-8.82002E+04 1.03131E+06-1.17527E+07 8.96844E+06-8.18718E+05
 -1       760-4.61406E+08-4.34857E+05-1.04146E+06-1.13523E+07 8.41481E+06-7.02702E+05
 -1       761-4.35329E+08-4.30751E+05-7.00801E+05-1.13504E+07 7.98591E+06-7.76023E+05
 -1       762-4.09684E+08-4.26405E+05-6.81953E+05-1.13246E+07 7.49686E+06-8.21206E+05
 -1       763-3.84207E+08-4.22220E+05-6.32286E+05-1.13242E+07 7.02460E+06-8.29388E+05
 -1       764-3.58922E+08-4.21607E+05-6.06729E+05-1.12682E+07 6.55709E+06-8.25587E+05
 -1       765-3.33873E+08-4.10471E+05-5.77168E+05-1.11709E+07 6.09737E+06-8.14465E+05
 -1       766-3.09121E+08-3.98782E+05-5.48303E+05-1.10346E+07 5.64389E+06-8.01702E+05
 -1       767-2.84730E+08-3.86990E+05-5.18992E+05-1.08639E+07 5.19731E+06-7.87871E+05
 -1       768-2.60773E+08-3.76281E+05-4.90195E+05-1.06596E+07 4.75857E+06-7.72527E+05
 -1       769-2.37322E+08-3.66797E+05-4.62392E+05-1.04214E+07 4.32902E+06-7.55193E+05
 -1       770-2.14456E+08-3.58634E+05-4.35879E+05-1.01478E+07 3.91006E+06-7.35506E+05
 -1       771-1.92255E+08-3.51852E+05-4.10847E+05-9.83758E+06 3.50319E+06-7.13236E+05
 -1       772-1.70803E+08-3.46488E+05-3.87430E+05-9.48922E+06 3.10996E+06-6.88221E+05
 -1       773-1.50187E+08-3.42566E+05-3.65745E+05-9.10143E+06 2.73195E+06-6.60349E+05
 -1       774-1.30496E+08-3.40109E+05-3.45908E+05-8.67303E+06 2.37082E+06-6.29548E+05
 -1       775-1.11823E+08-3.39163E+05-3.28051E+05-8.20294E+06 2.02824E+06-5.95772E+05
 -1       776-9.42605E+07-3.39813E+05-3.12321E+05-7.69014E+06 1.70593E+06-5.58984E+05
 -1       777-7.79047E+07-3.42218E+05-2.98868E+05-7.13357E+06 1.40559E+06-5.19107E+05
 -1       778-6.28525E+07-3.46593E+05-2.87762E+05-6.53214E+06 1.12892E+06-4.75927E+05
 -1       779-4.92015E+07-3.53058E+05-2.78908E+05-5.88503E+06 8.77650E+05-4.28994E+05
 -1       780-3.70496E+07-3.61280E+05-2.71883E+05-5.19247E+06 6.53626E+05-3.77743E+05
 -1       781-2.64940E+07-3.69311E+05-2.66332E+05-4.45700E+06 4.59262E+05-3.21955E+05
 -1       782-1.76304E+07-3.74245E+05-2.61590E+05-3.68421E+06 2.97014E+05-2.63491E+05
 -1       783-1.05614E+07-3.77381E+05-2.65531E+05-2.87784E+06 1.70862E+05-2.06273E+05
 -1       784-5.37971E+06-3.68236E+05-2.57443E+05-2.03383E+06 7.53673E+04-1.52156E+05
 -1       785-2.13896E+06-4.19848E+05-2.75212E+05-1.14576E+06 1.99351E+04-8.58823E+04
 -1       786-4.72961E+08 6.84263E+07 7.82230E+07-1.81972E+07-1.27670E+07-6.48229E+05
 -1       787-5.27696E+08-9.54083E+06-1.45430E+07-9.92290E+06-8.88748E+06-1.64697E+06
 -1       788-4.84314E+08 1.90900E+05 1.26519E+06-1.10434E+07-9.11264E+06-1.05543E+06
 -1       789-4.61295E+08-5.22427E+05-1.03443E+06-1.10360E+07-8.35220E+06-1.13043E+06
 -1       790-4.35449E+08-6.28279E+05-7.95868E+05-1.11228E+07-7.93052E+06-1.16960E+06
 -1       791-4.09812E+08-5.33184E+05-7.52534E+05-1.09890E+07-7.46704E+06-1.21767E+06
 -1       792-3.84291E+08-4.67227E+05-6.71071E+05-1.08666E+07-7.01356E+06-1.22284E+06
 -1       793-3.58968E+08-4.36241E+05-6.24713E+05-1.07307E+07-6.55512E+06-1.21629E+06
 -1       794-3.33893E+08-4.13617E+05-5.84163E+05-1.05917E+07-6.09780E+06-1.20102E+06
 -1       795-3.09129E+08-3.99218E+05-5.50825E+05-1.04373E+07-5.64466E+06-1.18313E+06
 -1       796-2.84733E+08-3.87105E+05-5.19794E+05-1.02598E+07-5.19793E+06-1.16311E+06
 -1       797-2.60773E+08-3.76325E+05-4.90228E+05-1.00538E+07-4.75913E+06-1.14047E+06
 -1       798-2.37321E+08-3.66639E+05-4.61928E+05-9.81612E+06-4.32964E+06-1.11467E+06
 -1       799-2.14453E+08-3.58051E+05-4.34904E+05-9.54469E+06-3.91084E+06-1.08530E+06
 -1       800-1.92251E+08-3.50632E+05-4.09257E+05-9.23804E+06-3.50420E+06-1.05207E+06
 -1       801-1.70797E+08-3.44463E+05-3.85110E+05-8.89492E+06-3.11124E+06-1.01478E+06
 -1       802-1.50179E+08-3.39636E+05-3.62606E+05-8.51425E+06-2.73353E+06-9.73257E+05
 -1       803-1.30487E+08-3.36231E+05-3.41883E+05-8.09505E+06-2.37271E+06-9.27401E+05
 -1       804-1.11811E+08-3.34298E+05-3.23057E+05-7.63653E+06-2.03044E+06-8.77132E+05
 -1       805-9.42461E+07-3.33816E+05-3.06182E+05-7.13808E+06-1.70847E+06-8.22382E+05
 -1       806-7.78868E+07-3.34634E+05-2.91214E+05-6.59940E+06-1.40858E+06-7.63046E+05
 -1       807-6.28300E+07-3.36420E+05-2.77973E+05-6.02041E+06-1.13265E+06-6.98886E+05
 -1       808-4.91738E+07-3.38825E+05-2.66329E+05-5.40100E+06-8.82587E+05-6.29439E+05
 -1       809-3.70179E+07-3.42064E+05-2.56613E+05-4.74033E+06-6.60182E+05-5.54152E+05
 -1       810-2.64643E+07-3.48270E+05-2.51102E+05-4.03590E+06-4.66556E+05-4.72838E+05
 -1       811-1.76136E+07-3.62146E+05-2.52909E+05-3.28396E+06-3.02464E+05-3.87503E+05
 -1       812-1.05670E+07-3.91303E+05-2.71391E+05-2.48181E+06-1.67269E+05-3.01630E+05
 -1       813-5.39885E+06-4.08404E+05-2.75235E+05-1.63279E+06-6.91460E+04-2.17676E+05
 -1       814-2.14507E+06-4.36371E+05-2.82002E+05-7.74962E+05-8.41702E+03-1.20134E+05
 -1       815 4.72961E+08-6.84263E+07-7.82230E+07-1.81972E+07 1.27670E+07-6.48229E+05
 -1       816 5.27696E+08 9.54083E+06 1.45430E+07-9.92290E+06 8.88748E+06-1.64697E+06
 -1       817 4.84314E+08-1.90900E+05-1.26519E+06-1.10434E+07 9.11264E+06-1.05543E+06
 -1       818 4.61295E+08 5.22427E+05 1.03443E+06-1.10360E+07 8.35220E+06-1.13043E+06
 -1       819 4.35449E+08 6.28279E+05 7.95868E+05-1.11228E+07 7.93052E+06-1.16960E+06
 -1       820 4.09812E+08 5.33184E+05 7.52534E+05-1.09890E+07 7.46704E+06-1.21767E+06
 -1       821 3.84291E+08 4.67227E+05 6.71071E+05-1.08666E+07 7.01356E+06-1.22284E+06
 -1       822 3.58968E+08 4.36241E+05 6.24713E+05-1.07307E+07 6.55512E+06-1.21629E+06
 -1       823 3.33893E+08 4.13617E+05 5.84163E+05-1.05917E+07 6.09780E+06-1.20102E+06
 -1       824 3.09129E+08 3.99218E+05 5.50825E+05-1.04373E+07 5.64466E+06-1.18313E+06
 -1       825 2.84733E+08 3.87105E+05 5.19794E+05-1.02598E+07 5.19793E+06-1.16311E+06
 -1       826 2.60773E+08 3.76325E+05 4.90228E+05-1.00538E+07 4.75913E+06-1.14047E+06
 -1       827 2.37321E+08 3.66639E+05 4.61928E+05-9.81612E+06 4.32964E+06-1.11467E+06
 -1       828 2.14453E+08 3.58051E+05 4.34904E+05-9.54469E+06 3.91084E+06-1.08530E+06
 -1       829 1.92251E+08 3.50632E+05 4.09257E+05-9.23804E+06 3.50420E+06-1.05207E+06
 -1       830 1.70797E+08 3.44463E+05 3.85110E+05-8.89492E+06 3.11124E+06-1.01478E+06
 -1       831 1.50179E+08 3.39636E+05 3.62606E+05-8.51425E+06 2.73353E+06-9.73257E+05
 -1       832 1.30487E+08 3.36231E+05 3.41883E+05-8.09505E+06 2.37271E+06-9.27401E+05
 -1       833 1.11811E+08 3.34298E+05 3.23057E+05-7.63653E+06 2.03044E+06-8.77132E+05
 -1       834 9.42461E+07 3.33816E+05 3.06182E+05-7.13808E+06 1.70847E+06-8.22382E+05
 -1       835 7.78868E+07 3.34634E+05 2.91214E+05-6.59940E+06 1.40858E+06-7.63046E+05
 -1       836 6.28300E+07 3.36420E+05 2.77973E+05-6.02041E+06 1.13265E+06-6.98886E+05
 -1       837 4.91738E+07 3.38825E+05 2.66329E+05-5.40100E+06 8.82587E+05-6.29439E+05
 -1       838 3.70179E+07 3.42064E+05 2.56613E+05-4.74033E+06 6.60182E+05-5.54152E+05
 -1       839 2.64643E+07 3.48270E+05 2.51102E+05-4.03590E+06 4.66556E+05-4.72838E+05
 -1       840 1.76136E+07 3.62146E+05 2.52909E+05-3.28396E+06 3.02464E+05-3.87503E+05
 -1       841 1.05670E+07 3.91303E+05 2.71391E+05-2.48181E+06 1.67269E+05-3.01630E+05
 -1       842 5.39885E+06 4.08404E+05 2.75235E+05-1.63280E+06 6.91460E+04-2.17676E+05
 -1       843 2.14507E+06 4.36371E+05 2.82002E+05-7.74962E+05 8.41702E+03-1.20134E+05
 -1       844 4.74124E+08-6.46011E+07-7.67268E+07-2.06475E+07-1.13947E+07-4.45506E+06
 -1       845 5.28785E+08 1.03093E+07 1.51002E+07-1.17564E+07-8.81213E+06-2.68899E+05
 -1       846 4.84815E+08 8.82003E+04-1.03131E+06-1.17527E+07-8.96844E+06-8.18718E+05
 -1       847 4.61406E+08 4.34857E+05 1.04146E+06-1.13523E+07-8.41481E+06-7.02702E+05
 -1       848 4.35329E+08 4.30751E+05 7.00801E+05-1.13504E+07-7.98591E+06-7.76023E+05
 -1       849 4.09684E+08 4.26405E+05 6.81953E+05-1.13246E+07-7.49686E+06-8.21206E+05
 -1       850 3.84207E+08 4.22220E+05 6.32286E+05-1.13242E+07-7.02460E+06-8.29388E+05
 -1       851 3.58922E+08 4.21607E+05 6.06729E+05-1.12682E+07-6.55709E+06-8.25587E+05
 -1       852 3.33873E+08 4.10471E+05 5.77168E+05-1.11709E+07-6.09737E+06-8.14465E+05
 -1       853 3.09121E+08 3.98782E+05 5.48303E+05-1.10346E+07-5.64389E+06-8.01702E+05
 -1       854 2.84730E+08 3.86990E+05 5.18992E+05-1.08639E+07-5.19731E+06-7.87871E+05
 -1       855 2.60773E+08 3.76281E+05 4.90195E+05-1.06596E+07-4.75857E+06-7.72527E+05
 -1       856 2.37322E+08 3.66797E+05 4.62392E+05-1.04214E+07-4.32902E+06-7.55193E+05
 -1       857 2.14456E+08 3.58634E+05 4.35879E+05-1.01478E+07-3.91006E+06-7.35506E+05
 -1       858 1.92255E+08 3.51852E+05 4.10847E+05-9.83758E+06-3.50319E+06-7.13236E+05
 -1       859 1.70803E+08 3.46488E+05 3.87430E+05-9.48922E+06-3.10996E+06-6.88221E+05
 -1       860 1.50187E+08 3.42566E+05 3.65745E+05-9.10143E+06-2.73195E+06-6.60349E+05
 -1       861 1.30496E+08 3.40109E+05 3.45908E+05-8.67303E+06-2.37082E+06-6.29548E+05
 -1       862 1.11823E+08 3.39163E+05 3.28051E+05-8.20294E+06-2.02824E+06-5.95772E+05
 -1       863 9.42605E+07 3.39813E+05 3.12321E+05-7.69014E+06-1.70593E+06-5.58984E+05
 -1       864 7.79047E+07 3.42218E+05 2.98868E+05-7.13357E+06-1.40559E+06-5.19107E+05
 -1       865 6.28525E+07 3.46593E+05 2.87762E+05-6.53214E+06-1.12892E+06-4.75927E+05
 -1       866 4.92015E+07 3.53058E+05 2.78908E+05-5.88503E+06-8.77650E+05-4.28994E+05
 -1       867 3.70496E+07 3.61280E+05 2.71883E+05-5.19247E+06-6.53626E+05-3.77743E+05
 -1       868 2.64940E+07 3.69311E+05 2.66332E+05-4.45700E+06-4.59262E+05-3.21955E+05
 -1       869 1.76304E+07 3.74245E+05 2.61590E+05-3.68421E+06-2.97014E+05-2.63491E+05
 -1       870 1.05614E+07 3.77381E+05 2.65531E+05-2.87784E+06-1.70862E+05-2.06273E+05
 -1       871 5.37971E+06 3.68236E+05 2.57443E+05-2.03383E+06-7.53673E+04-1.52156E+05
 -1       872 2.13896E+06 4.19848E+05 2.75212E+05-1.14576E+06-1.99351E+04-8.58822E+04
 -1       873 2.14507E+06 4.36371E+05 2.82002E+05-7.74962E+05-8.41702E+03 1.20134E+05
 -1       874 5.39885E+06 4.08404E+05 2.75235E+05-1.63279E+06-6.91460E+04 2.17676E+05
 -1       875 1.05670E+07 3.91303E+05 2.71391E+05-2.48181E+06-1.67269E+05 3.01630E+05
 -1       876 1.76136E+07 3.62146E+05 2.52909E+05-3.28396E+06-3.02464E+05 3.87503E+05
 -1       877 2.64643E+07 3.48270E+05 2.51102E+05-4.03590E+06-4.66556E+05 4.72838E+05
 -1       878 3.70179E+07 3.42064E+05 2.56613E+05-4.74033E+06-6.60182E+05 5.54152E+05
 -1       879 4.91738E+07 3.38825E+05 2.66329E+05-5.40100E+06-8.82587E+05 6.29439E+05
 -1       880 6.28300E+07 3.36420E+05 2.77973E+05-6.02041E+06-1.13265E+06 6.98886E+05
 -1       881 7.78868E+07 3.34634E+05 2.91214E+05-6.59940E+06-1.40858E+06 7.63046E+05
 -1       882 9.42461E+07 3.33816E+05 3.06182E+05-7.13808E+06-1.70847E+06 8.22382E+05
 -1       883 1.11811E+08 3.34298E+05 3.23057E+05-7.63653E+06-2.03044E+06 8.77132E+05
 -1       884 1.30487E+08 3.36231E+05 3.41883E+05-8.09505E+06-2.37271E+06 9.27401E+05
 -1       885 1.50179E+08 3.39636E+05 3.62606E+05-8.51425E+06-2.73353E+06 9.73257E+05
 -1       886 1.70797E+08 3.44463E+05 3.85110E+05-8.89492E+06-3.11124E+06 1.01478E+06
 -1       887 1.92251E+08 3.50632E+05 4.09257E+05-9.23804E+06-3.50420E+06 1.05207E+06
 -1       888 2.14453E+08 3.58051E+05 4.34904E+05-9.54469E+06-3.91084E+06 1.08530E+06
 -1       889 2.37321E+08 3.66639E+05 4.61928E+05-9.81612E+06-4.32964E+06 1.11467E+06
 -1       890 2.60773E+08 3.76325E+05 4.90228E+05-1.00538E+07-4.75913E+06 1.14047E+06
 -1       891 2.84733E+08 3.87105E+05 5.19794E+05-1.02598E+07-5.19793E+06 1.16311E+06
 -1       892 3.09129E+08 3.99218E+05 5.50825E+05-1.04373E+07-5.64466E+06 1.18313E+06
 -1       893 3.33893E+08 4.13617E+05 5.84163E+05-1.05917E+07-6.09780E+06 1.20102E+06
 -1       894 3.58968E+08 4.36241E+05 6.24713E+05-1.07307E+07-6.55512E+06 1.21629E+06
 -1       895 3.84291E+08 4.67227E+05 6.71071E+05-1.08666E+07-7.01356E+06 1.22284E+06
 -1       896 4.09812E+08 5.33184E+05 7.52534E+05-1.09890E+07-7.46704E+06 1.21767E+06
 -1       897 4.35449E+08 6.28279E+05 7.95868E+05-1.11228E+07-7.93052E+06 1.16960E+06
 -1       898 4.61295E+08 5.22427E+05 1.03443E+06-1.10360E+07-8.35220E+06 1.13043E+06
 -1       899 4.84314E+08-1.90900E+05-1.26519E+06-1.10434E+07-9.11264E+06 1.05543E+06
 -1       900 5.27696E+08 9.54083E+06 1.45430E+07-9.92290E+06-8.88748E+06 1.64697E+06
 -1       901 4.72961E+08-6.84263E+07-7.82230E+07-1.81972E+07-1.27670E+07 6.48229E+05
 -1       902 4.74124E+08-6.46011E+07-7.67268E+07-2.06475E+07 1.13947E+07 4.45506E+06
 -1       903 5.28785E+08 1.03093E+07 1.51002E+07-1.17564E+07 8.81213E+06 2.68899E+05
 -1       904 4.84815E+08 8.82002E+04-1.03131E+06-1.17527E+07 8.96844E+06 8.18718E+05
 -1       905 4.61406E+08 4.34857E+05 1.04146E+06-1.13523E+07 8.41481E+06 7.02702E+05
 -1       906 4.35329E+08 4.30751E+05 7.00801E+05-1.13504E+07 7.98591E+06 7.76023E+05
 -1       907 4.09684E+08 4.26405E+05 6.81953E+05-1.13246E+07 7.49686E+06 8.21206E+05
 -1       908 3.84207E+08 4.22220E+05 6.32286E+05-1.13242E+07 7.02460E+06 8.29388E+05
 -1       909 3.58922E+08 4.21607E+05 6.06729E+05-1.12682E+07 6.55709E+06 8.25587E+05
 -1       910 3.33873E+08 4.10471E+05 5.77168E+05-1.11709E+07 6.09737E+06 8.14465E+05
 -1       911 3.09121E+08 3.98782E+05 5.48303E+05-1.10346E+07 5.64389E+06 8.01702E+05
 -1       912 2.84730E+08 3.86990E+05 5.18992E+05-1.08639E+07 5.19731E+06 7.87871E+05
 -1       913 2.60773E+08 3.76281E+05 4.90195E+05-1.06596E+07 4.75857E+06 7.72527E+05
 -1       914 2.37322E+08 3.66797E+05 4.62392E+05-1.04214E+07 4.32902E+06 7.55193E+05
 -1       915 2.14456E+08 3.58634E+05 4.35879E+05-1.01478E+07 3.91006E+06 7.35506E+05
 -1       916 1.92255E+08 3.51852E+05 4.10847E+05-9.83758E+06 3.50319E+06 7.13236E+05
 -1       917 1.70803E+08 3.46488E+05 3.87430E+05-9.48922E+06 3.10996E+06 6.88221E+05
 -1       918 1.50187E+08 3.42566E+05 3.65745E+05-9.10143E+06 2.73195E+06 6.60349E+05
 -1       919 1.30496E+08 3.40109E+05 3.45908E+05-8.67303E+06 2.37082E+06 6.29548E+05
 -1       920 1.11823E+08 3.39163E+05 3.28051E+05-8.20294E+06 2.02824E+06 5.95772E+05
 -1       921 9.42605E+07 3.39813E+05 3.12321E+05-7.69014E+06 1.70593E+06 5.58984E+05
 -1       922 7.79047E+07 3.42218E+05 2.98868E+05-7.13357E+06 1.40559E+06 5.19107E+05
 -1       923 6.28525E+07 3.46593E+05 2.87762E+05-6.53214E+06 1.12892E+06 4.75927E+05
 -1       924 4.92015E+07 3.53058E+05 2.78908E+05-5.88503E+06 8.77650E+05 4.28994E+05
 -1       925 3.70496E+07 3.61280E+05 2.71883E+05-5.19247E+06 6.53626E+05 3.77743E+05
 -1       926 2.64940E+07 3.69311E+05 2.66332E+05-4.45700E+06 4.59262E+05 3.21955E+05
 -1       927 1.76304E+07 3.74245E+05 2.61590E+05-3.68421E+06 2.97014E+05 2.63491E+05
 -1       928 1.05614E+07 3.77381E+05 2.65531E+05-2.87784E+06 1.70862E+05 2.06273E+05
 -1       929 5.37971E+06 3.68236E+05 2.57443E+05-2.03383E+06 7.53673E+04 1.52156E+05
 -1       930 2.13896E+06 4.19848E+05 2.75212E+05-1.14576E+06 1.99351E+04 8.58823E+04
 -3
    1PSTEP                         3           1           1          
    1PGM                1.000000E+00                                  
    1PGK                8.045247E+03                                  
    1PHID                         -1                                  
    1PSUBC                         0                                  
    1PMODE                         1                                  
  100CL  101 14.27545043         930                     2    1MODAL      1
 -4  FORC        4    1
 -5  F1          1    2    1    0
 -5  F2          1    2    2    0
 -5  F3          1    2    3    0
 -5  ALL         1    2    0    0    1ALL
 -1         1 1.85474E+05-2.96809E+04-6.57761E+04
 -1         2-1.85474E+05-2.96809E+04 6.57761E+04
 -1         3-6.33912E-01-1.68769E+02-2.71363E-03
 -1         4 6.33911E-01-1.68769E+02 2.71312E-03
 -1         5 1.85474E+05-2.96809E+04 6.57761E+04
 -1         6-1.85474E+05-2.96809E+04-6.57761E+04
 -1         7-6.33911E-01-1.68769E+02 2.71359E-03
 -1         8 6.33911E-01-1.68769E+02-2.71273E-03
 -1         9 3.02270E+04-2.85103E+04 6.77563E+04
 -1        10-5.73510E-01-7.83263E+01-2.48304E-03
 -1        11 1.67051E+05 8.60558E+04 2.82684E+05
 -1        12 1.62787E+05 8.59646E+04-2.82319E+05
 -1        13-2.30116E+00-6.52339E+01-9.95451E-03
 -1        14-2.30113E+00-6.52345E+01-9.95184E-03
 -1        15 3.02270E+04-2.85103E+04-6.77563E+04
 -1        16-5.73510E-01-7.83263E+01 2.48294E-03
 -1        17 1.62787E+05 8.59646E+04 2.82319E+05
 -1        18 1.67051E+05 8.60558E+04-2.82684E+05
 -1        19-2.30113E+00-6.52345E+01 9.95137E-03
 -1        20-2.30116E+00-6.52339E+01 9.95499E-03
 -1        21-1.62787E+05 8.59646E+04 2.82319E+05
 -1        22-1.67051E+05 8.60558E+04-2.82684E+05
 -1        23 2.30116E+00-6.52339E+01 9.95434E-03
 -1        24 2.30113E+00-6.52345E+01 9.95171E-03
 -1        25-3.02270E+04-2.85103E+04-6.77563E+04
 -1        26 5.73510E-01-7.83263E+01 2.48316E-03
 -1        27-3.02270E+04-2.85103E+04 6.77563E+04
 -1        28-1.67051E+05 8.60558E+04 2.82684E+05
 -1        29-1.62787E+05 8.59646E+04-2.82319E+05
 -1        30 5.73510E-01-7.83263E+01-2.48308E-03
 -1        31 2.30116E+00-6.52339E+01-9.95413E-03
 -1        32 2.30113E+00-6.52345E+01-9.95179E-03
 -1        33 9.63986E-02-8.21405E-01 1.28824E-03
 -1        34 1.97982E-01-2.70543E+00 2.14173E-03
 -1        35 2.94276E-01-5.81234E+00 2.43132E-03
 -1        36 3.85328E-01-1.00790E+01 2.33898E-03
 -1        37 4.71518E-01-1.54454E+01 2.11044E-03
 -1        38 5.52748E-01-2.18499E+01 1.93563E-03
 -1        39 6.29062E-01-2.92313E+01 1.85394E-03
 -1        40 7.00490E-01-3.75287E+01 1.84856E-03
 -1        41 7.67072E-01-4.66815E+01 1.89366E-03
 -1        42 8.28862E-01-5.66299E+01 1.96767E-03
 -1        43 8.85924E-01-6.73146E+01 2.05798E-03
 -1        44 9.38331E-01-7.86773E+01 2.15980E-03
 -1        45 9.86178E-01-9.06606E+01 2.27102E-03
 -1        46 1.02957E+00-1.03209E+02 2.39192E-03
 -1        47 1.06862E+00-1.16267E+02 2.52130E-03
 -1        48 1.10347E+00-1.29781E+02 2.65985E-03
 -1        49 1.13427E+00-1.43701E+02 2.80817E-03
 -1        50 1.16119E+00-1.57977E+02 2.96573E-03
 -1        51 1.18441E+00-1.72562E+02 3.13150E-03
 -1        52 1.20415E+00-1.87412E+02 3.30551E-03
 -1        53 1.22062E+00-2.02483E+02 3.48727E-03
 -1        54 1.23406E+00-2.17737E+02 3.67405E-03
 -1        55 1.24474E+00-2.33138E+02 3.86326E-03
 -1        56 1.25293E+00-2.48653E+02 4.05468E-03
 -1        57 1.25893E+00-2.64252E+02 4.24611E-03
 -1        58 1.26306E+00-2.79911E+02 4.44175E-03
 -1        59 1.26566E+00-2.95608E+02 4.65297E-03
 -1        60 1.26707E+00-3.11325E+02 4.89782E-03
 -1        61 1.26767E+00-3.27052E+02 5.19517E-03
 -1        62-9.63987E-02-8.21405E-01-1.28778E-03
 -1        63-1.97981E-01-2.70543E+00-2.14154E-03
 -1        64-2.94274E-01-5.81234E+00-2.43068E-03
 -1        65-3.85328E-01-1.00790E+01-2.33788E-03
 -1        66-4.71519E-01-1.54454E+01-2.11042E-03
 -1        67-5.52749E-01-2.18499E+01-1.93565E-03
 -1        68-6.29063E-01-2.92313E+01-1.85350E-03
 -1        69-7.00490E-01-3.75287E+01-1.84881E-03
 -1        70-7.67074E-01-4.66815E+01-1.89413E-03
 -1        71-8.28863E-01-5.66299E+01-1.96696E-03
 -1        72-8.85923E-01-6.73146E+01-2.05701E-03
 -1        73-9.38332E-01-7.86773E+01-2.15916E-03
 -1        74-9.86178E-01-9.06606E+01-2.27101E-03
 -1        75-1.02957E+00-1.03209E+02-2.39162E-03
 -1        76-1.06862E+00-1.16267E+02-2.52049E-03
 -1        77-1.10347E+00-1.29781E+02-2.65976E-03
 -1        78-1.13427E+00-1.43701E+02-2.80794E-03
 -1        79-1.16119E+00-1.57977E+02-2.96520E-03
 -1        80-1.18441E+00-1.72562E+02-3.13075E-03
 -1        81-1.20415E+00-1.87412E+02-3.30464E-03
 -1        82-1.22062E+00-2.02483E+02-3.48629E-03
 -1        83-1.23406E+00-2.17737E+02-3.67378E-03
 -1        84-1.24474E+00-2.33138E+02-3.86421E-03
 -1        85-1.25293E+00-2.48653E+02-4.05512E-03
 -1        86-1.25893E+00-2.64252E+02-4.24694E-03
 -1        87-1.26306E+00-2.79911E+02-4.44195E-03
 -1        88-1.26566E+00-2.95608E+02-4.65317E-03
 -1        89-1.26707E+00-3.11325E+02-4.89823E-03
 -1        90-1.26767E+00-3.27052E+02-5.19602E-03
 -1        91 3.41617E+05-4.45343E+02 1.50605E+02
 -1        92 3.56032E+05 8.86349E+02-1.40150E-06
 -1        93 3.41617E+05-4.45343E+02-1.50605E+02
 -1        94-3.41617E+05-4.45343E+02 1.50605E+02
 -1        95-3.56032E+05 8.86349E+02-9.22358E-07
 -1        96-3.41617E+05-4.45343E+02-1.50605E+02
 -1        97-9.63980E-02-8.21404E-01 1.28778E-03
 -1        98-1.97982E-01-2.70543E+00 2.14043E-03
 -1        99-2.94275E-01-5.81234E+00 2.42979E-03
 -1       100-3.85328E-01-1.00790E+01 2.33803E-03
 -1       101-4.71519E-01-1.54454E+01 2.11064E-03
 -1       102-5.52748E-01-2.18499E+01 1.93538E-03
 -1       103-6.29062E-01-2.92313E+01 1.85343E-03
 -1       104-7.00490E-01-3.75287E+01 1.84897E-03
 -1       105-7.67073E-01-4.66815E+01 1.89437E-03
 -1       106-8.28863E-01-5.66299E+01 1.96781E-03
 -1       107-8.85924E-01-6.73146E+01 2.05760E-03
 -1       108-9.38332E-01-7.86773E+01 2.15942E-03
 -1       109-9.86178E-01-9.06606E+01 2.27128E-03
 -1       110-1.02957E+00-1.03209E+02 2.39168E-03
 -1       111-1.06862E+00-1.16267E+02 2.52139E-03
 -1       112-1.10347E+00-1.29781E+02 2.66045E-03
 -1       113-1.13427E+00-1.43701E+02 2.80851E-03
 -1       114-1.16119E+00-1.57977E+02 2.96567E-03
 -1       115-1.18441E+00-1.72562E+02 3.13067E-03
 -1       116-1.20415E+00-1.87412E+02 3.30523E-03
 -1       117-1.22062E+00-2.02483E+02 3.48683E-03
 -1       118-1.23406E+00-2.17737E+02 3.67349E-03
 -1       119-1.24474E+00-2.33138E+02 3.86400E-03
 -1       120-1.25293E+00-2.48653E+02 4.05461E-03
 -1       121-1.25893E+00-2.64252E+02 4.24498E-03
 -1       122-1.26306E+00-2.79911E+02 4.44065E-03
 -1       123-1.26566E+00-2.95608E+02 4.65224E-03
 -1       124-1.26707E+00-3.11325E+02 4.89768E-03
 -1       125-1.26768E+00-3.27052E+02 5.19445E-03
 -1       126-1.20839E-01-1.80900E+02-3.24568E-04
 -1       127-1.20856E-01-1.80911E+02 1.52563E-07
 -1       128-1.20839E-01-1.80900E+02 3.25165E-04
 -1       129 9.63994E-02-8.21404E-01-1.28829E-03
 -1       130 1.97982E-01-2.70543E+00-2.14145E-03
 -1       131 2.94276E-01-5.81234E+00-2.43060E-03
 -1       132 3.85329E-01-1.00790E+01-2.33859E-03
 -1       133 4.71519E-01-1.54454E+01-2.11084E-03
 -1       134 5.52749E-01-2.18499E+01-1.93594E-03
 -1       135 6.29062E-01-2.92313E+01-1.85362E-03
 -1       136 7.00490E-01-3.75287E+01-1.84832E-03
 -1       137 7.67073E-01-4.66815E+01-1.89297E-03
 -1       138 8.28863E-01-5.66299E+01-1.96681E-03
 -1       139 8.85923E-01-6.73146E+01-2.05700E-03
 -1       140 9.38331E-01-7.86773E+01-2.15914E-03
 -1       141 9.86177E-01-9.06606E+01-2.27067E-03
 -1       142 1.02957E+00-1.03209E+02-2.39079E-03
 -1       143 1.06862E+00-1.16267E+02-2.52061E-03
 -1       144 1.10347E+00-1.29781E+02-2.65973E-03
 -1       145 1.13427E+00-1.43701E+02-2.80815E-03
 -1       146 1.16119E+00-1.57977E+02-2.96594E-03
 -1       147 1.18441E+00-1.72562E+02-3.13213E-03
 -1       148 1.20415E+00-1.87412E+02-3.30521E-03
 -1       149 1.22062E+00-2.02483E+02-3.48580E-03
 -1       150 1.23406E+00-2.17737E+02-3.67272E-03
 -1       151 1.24474E+00-2.33138E+02-3.86316E-03
 -1       152 1.25293E+00-2.48653E+02-4.05434E-03
 -1       153 1.25893E+00-2.64252E+02-4.24576E-03
 -1       154 1.26306E+00-2.79911E+02-4.44136E-03
 -1       155 1.26566E+00-2.95608E+02-4.65278E-03
 -1       156 1.26707E+00-3.11325E+02-4.89781E-03
 -1       157 1.26767E+00-3.27052E+02-5.19556E-03
 -1       158 1.20839E-01-1.80900E+02-3.23715E-04
 -1       159 1.20856E-01-1.80911E+02 2.50800E-08
 -1       160 1.20839E-01-1.80900E+02 3.24610E-04
 -1       161-8.67671E-02-3.80484E-01-2.07004E-03
 -1       162-1.78693E-01-1.25480E+00-2.85194E-03
 -1       163-2.65826E-01-2.69691E+00-3.13899E-03
 -1       164-3.48188E-01-4.67744E+00-3.03075E-03
 -1       165-4.26163E-01-7.16826E+00-2.77287E-03
 -1       166-4.99658E-01-1.01408E+01-2.55825E-03
 -1       167-5.68705E-01-1.35666E+01-2.43053E-03
 -1       168-6.33334E-01-1.74175E+01-2.37612E-03
 -1       169-6.93579E-01-2.16654E+01-2.36914E-03
 -1       170-7.49488E-01-2.62824E+01-2.38948E-03
 -1       171-8.01119E-01-3.12412E+01-2.42643E-03
 -1       172-8.48543E-01-3.65147E+01-2.47477E-03
 -1       173-8.91841E-01-4.20762E+01-2.53236E-03
 -1       174-9.31106E-01-4.78998E+01-2.59926E-03
 -1       175-9.66449E-01-5.39600E+01-2.67599E-03
 -1       176-9.97992E-01-6.02323E+01-2.76288E-03
 -1       177-1.02587E+00-6.66926E+01-2.85917E-03
 -1       178-1.05024E+00-7.33183E+01-2.96578E-03
 -1       179-1.07127E+00-8.00872E+01-3.08253E-03
 -1       180-1.08915E+00-8.69788E+01-3.20944E-03
 -1       181-1.10407E+00-9.39735E+01-3.34468E-03
 -1       182-1.11626E+00-1.01053E+02-3.48718E-03
 -1       183-1.12594E+00-1.08201E+02-3.63499E-03
 -1       184-1.13338E+00-1.15401E+02-3.78681E-03
 -1       185-1.13884E+00-1.22641E+02-3.94203E-03
 -1       186-1.14260E+00-1.29908E+02-4.10517E-03
 -1       187-1.14498E+00-1.37193E+02-4.28706E-03
 -1       188-1.14629E+00-1.44488E+02-4.50345E-03
 -1       189-1.14687E+00-1.51787E+02-4.76573E-03
 -1       190 1.56967E+05-4.61696E+04 3.42508E+05
 -1       191 1.49902E+05-4.59653E+04-3.41677E+05
 -1       192-2.86589E+00-1.30468E+02-1.24108E-02
 -1       193-3.54573E-01-3.54866E-01-6.90192E-03
 -1       194-7.19256E-01-1.08505E+00-1.12030E-02
 -1       195-1.06839E+00-2.28307E+00-1.30003E-02
 -1       196-1.39913E+00-3.93070E+00-1.27201E-02
 -1       197-1.71192E+00-6.00322E+00-1.16788E-02
 -1       198-2.00680E+00-8.47693E+00-1.07320E-02
 -1       199-2.28383E+00-1.13282E+01-1.01522E-02
 -1       200-2.54312E+00-1.45335E+01-9.89534E-03
 -1       201-2.78482E+00-1.80694E+01-9.84315E-03
 -1       202-3.00912E+00-2.19128E+01-9.90574E-03
 -1       203-3.21625E+00-2.60409E+01-1.00340E-02
 -1       204-3.40649E+00-3.04310E+01-1.02069E-02
 -1       205-3.58017E+00-3.50612E+01-1.04190E-02
 -1       206-3.73767E+00-3.99096E+01-1.06696E-02
 -1       207-3.87942E+00-4.49551E+01-1.09594E-02
 -1       208-4.00592E+00-5.01773E+01-1.12893E-02
 -1       209-4.11771E+00-5.55562E+01-1.16601E-02
 -1       210-4.21542E+00-6.10728E+01-1.20731E-02
 -1       211-4.29972E+00-6.67089E+01-1.25274E-02
 -1       212-4.37135E+00-7.24472E+01-1.30206E-02
 -1       213-4.43113E+00-7.82715E+01-1.35506E-02
 -1       214-4.47991E+00-8.41665E+01-1.41118E-02
 -1       215-4.51866E+00-9.01183E+01-1.46959E-02
 -1       216-4.54838E+00-9.61142E+01-1.52943E-02
 -1       217-4.57015E+00-1.02143E+02-1.59092E-02
 -1       218-4.58512E+00-1.08195E+02-1.65622E-02
 -1       219-4.59452E+00-1.14262E+02-1.73033E-02
 -1       220-4.59963E+00-1.20337E+02-1.81820E-02
 -1       221-4.60179E+00-1.26415E+02-1.91948E-02
 -1       222-3.54370E-01-3.55039E-01-1.76022E-03
 -1       223-7.19106E-01-1.08553E+00-6.14807E-03
 -1       224-1.06836E+00-2.28370E+00-8.21609E-03
 -1       225-1.39916E+00-3.93133E+00-8.18678E-03
 -1       226-1.71196E+00-6.00379E+00-7.40014E-03
 -1       227-2.00683E+00-8.47745E+00-6.70470E-03
 -1       228-2.28384E+00-1.13287E+01-6.37576E-03
 -1       229-2.54312E+00-1.45339E+01-6.36762E-03
 -1       230-2.78481E+00-1.80699E+01-6.56200E-03
 -1       231-3.00911E+00-2.19133E+01-6.86807E-03
 -1       232-3.21623E+00-2.60414E+01-7.23614E-03
 -1       233-3.40647E+00-3.04316E+01-7.64491E-03
 -1       234-3.58015E+00-3.50617E+01-8.08785E-03
 -1       235-3.73765E+00-3.99101E+01-8.56322E-03
 -1       236-3.87940E+00-4.49557E+01-9.07138E-03
 -1       237-4.00589E+00-5.01779E+01-9.61262E-03
 -1       238-4.11769E+00-5.55569E+01-1.01866E-02
 -1       239-4.21540E+00-6.10735E+01-1.07931E-02
 -1       240-4.29970E+00-6.67097E+01-1.14308E-02
 -1       241-4.37133E+00-7.24480E+01-1.20970E-02
 -1       242-4.43110E+00-7.82722E+01-1.27878E-02
 -1       243-4.47989E+00-8.41673E+01-1.34973E-02
 -1       244-4.51863E+00-9.01191E+01-1.42157E-02
 -1       245-4.54835E+00-9.61151E+01-1.49346E-02
 -1       246-4.57012E+00-1.02144E+02-1.56534E-02
 -1       247-4.58509E+00-1.08196E+02-1.63940E-02
 -1       248-4.59448E+00-1.14263E+02-1.72041E-02
 -1       249-4.59958E+00-1.20338E+02-1.81344E-02
 -1       250-4.60174E+00-1.26416E+02-1.91790E-02
 -1       251-2.86585E+00-1.30469E+02-1.24062E-02
 -1       252-1.14687E+00-1.51787E+02 4.76476E-03
 -1       253-1.14629E+00-1.44488E+02 4.50282E-03
 -1       254-1.14498E+00-1.37193E+02 4.28706E-03
 -1       255-1.14260E+00-1.29908E+02 4.10523E-03
 -1       256-1.13884E+00-1.22641E+02 3.94217E-03
 -1       257-1.13338E+00-1.15401E+02 3.78747E-03
 -1       258-1.12594E+00-1.08201E+02 3.63589E-03
 -1       259-1.11626E+00-1.01053E+02 3.48719E-03
 -1       260-1.10407E+00-9.39735E+01 3.34414E-03
 -1       261-1.08915E+00-8.69788E+01 3.20919E-03
 -1       262-1.07127E+00-8.00872E+01 3.08283E-03
 -1       263-1.05024E+00-7.33183E+01 2.96628E-03
 -1       264-1.02587E+00-6.66926E+01 2.85976E-03
 -1       265-9.97992E-01-6.02323E+01 2.76333E-03
 -1       266-9.66449E-01-5.39600E+01 2.67686E-03
 -1       267-9.31106E-01-4.78998E+01 2.59992E-03
 -1       268-8.91840E-01-4.20762E+01 2.53247E-03
 -1       269-8.48543E-01-3.65147E+01 2.47455E-03
 -1       270-8.01120E-01-3.12412E+01 2.42686E-03
 -1       271-7.49488E-01-2.62824E+01 2.38999E-03
 -1       272-6.93579E-01-2.16654E+01 2.36939E-03
 -1       273-6.33334E-01-1.74175E+01 2.37590E-03
 -1       274-5.68705E-01-1.35666E+01 2.43023E-03
 -1       275-4.99657E-01-1.01408E+01 2.55795E-03
 -1       276-4.26163E-01-7.16826E+00 2.77265E-03
 -1       277-3.48188E-01-4.67744E+00 3.03062E-03
 -1       278-2.65827E-01-2.69691E+00 3.13845E-03
 -1       279-1.78693E-01-1.25480E+00 2.85157E-03
 -1       280-8.67667E-02-3.80484E-01 2.07005E-03
 -1       281 1.49902E+05-4.59653E+04 3.41677E+05
 -1       282 1.56967E+05-4.61696E+04-3.42508E+05
 -1       283-3.54370E-01-3.55039E-01 1.76004E-03
 -1       284-7.19106E-01-1.08554E+00 6.14773E-03
 -1       285-1.06836E+00-2.28370E+00 8.21607E-03
 -1       286-1.39916E+00-3.93133E+00 8.18700E-03
 -1       287-1.71196E+00-6.00379E+00 7.40046E-03
 -1       288-2.00683E+00-8.47745E+00 6.70470E-03
 -1       289-2.28384E+00-1.13287E+01 6.37574E-03
 -1       290-2.54312E+00-1.45339E+01 6.36738E-03
 -1       291-2.78481E+00-1.80699E+01 6.56206E-03
 -1       292-3.00910E+00-2.19133E+01 6.86798E-03
 -1       293-3.21623E+00-2.60414E+01 7.23587E-03
 -1       294-3.40647E+00-3.04316E+01 7.64497E-03
 -1       295-3.58015E+00-3.50617E+01 8.08793E-03
 -1       296-3.73765E+00-3.99101E+01 8.56308E-03
 -1       297-3.87940E+00-4.49557E+01 9.07162E-03
 -1       298-4.00589E+00-5.01779E+01 9.61303E-03
 -1       299-4.11769E+00-5.55569E+01 1.01869E-02
 -1       300-4.21540E+00-6.10735E+01 1.07936E-02
 -1       301-4.29970E+00-6.67097E+01 1.14314E-02
 -1       302-4.37133E+00-7.24480E+01 1.20972E-02
 -1       303-4.43110E+00-7.82722E+01 1.27882E-02
 -1       304-4.47988E+00-8.41673E+01 1.34977E-02
 -1       305-4.51863E+00-9.01191E+01 1.42154E-02
 -1       306-4.54835E+00-9.61151E+01 1.49339E-02
 -1       307-4.57012E+00-1.02144E+02 1.56530E-02
 -1       308-4.58509E+00-1.08196E+02 1.63934E-02
 -1       309-4.59448E+00-1.14263E+02 1.72044E-02
 -1       310-4.59958E+00-1.20338E+02 1.81343E-02
 -1       311-4.60174E+00-1.26416E+02 1.91781E-02
 -1       312-2.86585E+00-1.30469E+02 1.24055E-02
 -1       313-3.54573E-01-3.54866E-01 6.90197E-03
 -1       314-7.19257E-01-1.08505E+00 1.12027E-02
 -1       315-1.06839E+00-2.28307E+00 1.30000E-02
 -1       316-1.39913E+00-3.93070E+00 1.27201E-02
 -1       317-1.71192E+00-6.00322E+00 1.16791E-02
 -1       318-2.00680E+00-8.47693E+00 1.07320E-02
 -1       319-2.28383E+00-1.13282E+01 1.01522E-02
 -1       320-2.54312E+00-1.45335E+01 9.89510E-03
 -1       321-2.78482E+00-1.80694E+01 9.84318E-03
 -1       322-3.00912E+00-2.19128E+01 9.90548E-03
 -1       323-3.21625E+00-2.60409E+01 1.00334E-02
 -1       324-3.40649E+00-3.04310E+01 1.02064E-02
 -1       325-3.58017E+00-3.50612E+01 1.04189E-02
 -1       326-3.73767E+00-3.99096E+01 1.06695E-02
 -1       327-3.87942E+00-4.49551E+01 1.09593E-02
 -1       328-4.00592E+00-5.01773E+01 1.12896E-02
 -1       329-4.11771E+00-5.55562E+01 1.16611E-02
 -1       330-4.21542E+00-6.10728E+01 1.20735E-02
 -1       331-4.29972E+00-6.67089E+01 1.25273E-02
 -1       332-4.37135E+00-7.24472E+01 1.30204E-02
 -1       333-4.43113E+00-7.82715E+01 1.35507E-02
 -1       334-4.47991E+00-8.41665E+01 1.41118E-02
 -1       335-4.51866E+00-9.01183E+01 1.46956E-02
 -1       336-4.54838E+00-9.61142E+01 1.52943E-02
 -1       337-4.57015E+00-1.02143E+02 1.59088E-02
 -1       338-4.58512E+00-1.08195E+02 1.65622E-02
 -1       339-4.59452E+00-1.14262E+02 1.73035E-02
 -1       340-4.59963E+00-1.20337E+02 1.81824E-02
 -1       341-4.60179E+00-1.26415E+02 1.91956E-02
 -1       342-2.86589E+00-1.30468E+02 1.24114E-02
 -1       343 3.54573E-01-3.54866E-01 6.90236E-03
 -1       344 7.19256E-01-1.08505E+00 1.12033E-02
 -1       345 1.06839E+00-2.28307E+00 1.30000E-02
 -1       346 1.39913E+00-3.93070E+00 1.27199E-02
 -1       347 1.71192E+00-6.00322E+00 1.16789E-02
 -1       348 2.00680E+00-8.47693E+00 1.07322E-02
 -1       349 2.28383E+00-1.13282E+01 1.01522E-02
 -1       350 2.54312E+00-1.45335E+01 9.89537E-03
 -1       351 2.78482E+00-1.80694E+01 9.84335E-03
 -1       352 3.00912E+00-2.19128E+01 9.90543E-03
 -1       353 3.21625E+00-2.60409E+01 1.00336E-02
 -1       354 3.40649E+00-3.04310E+01 1.02069E-02
 -1       355 3.58017E+00-3.50612E+01 1.04192E-02
 -1       356 3.73767E+00-3.99096E+01 1.06697E-02
 -1       357 3.87942E+00-4.49551E+01 1.09592E-02
 -1       358 4.00592E+00-5.01773E+01 1.12893E-02
 -1       359 4.11771E+00-5.55562E+01 1.16606E-02
 -1       360 4.21542E+00-6.10728E+01 1.20733E-02
 -1       361 4.29972E+00-6.67089E+01 1.25267E-02
 -1       362 4.37135E+00-7.24472E+01 1.30203E-02
 -1       363 4.43113E+00-7.82715E+01 1.35505E-02
 -1       364 4.47991E+00-8.41665E+01 1.41113E-02
 -1       365 4.51866E+00-9.01183E+01 1.46955E-02
 -1       366 4.54838E+00-9.61142E+01 1.52941E-02
 -1       367 4.57015E+00-1.02143E+02 1.59089E-02
 -1       368 4.58512E+00-1.08195E+02 1.65626E-02
 -1       369 4.59452E+00-1.14262E+02 1.73035E-02
 -1       370 4.59963E+00-1.20337E+02 1.81823E-02
 -1       371 4.60179E+00-1.26415E+02 1.91952E-02
 -1       372 3.54370E-01-3.55039E-01 1.76040E-03
 -1       373 7.19106E-01-1.08554E+00 6.14834E-03
 -1       374 1.06836E+00-2.28370E+00 8.21590E-03
 -1       375 1.39916E+00-3.93133E+00 8.18670E-03
 -1       376 1.71196E+00-6.00379E+00 7.40045E-03
 -1       377 2.00683E+00-8.47745E+00 6.70494E-03
 -1       378 2.28384E+00-1.13287E+01 6.37567E-03
 -1       379 2.54312E+00-1.45339E+01 6.36762E-03
 -1       380 2.78481E+00-1.80699E+01 6.56226E-03
 -1       381 3.00910E+00-2.19133E+01 6.86782E-03
 -1       382 3.21623E+00-2.60414E+01 7.23603E-03
 -1       383 3.40647E+00-3.04316E+01 7.64508E-03
 -1       384 3.58015E+00-3.50617E+01 8.08817E-03
 -1       385 3.73765E+00-3.99101E+01 8.56346E-03
 -1       386 3.87940E+00-4.49557E+01 9.07120E-03
 -1       387 4.00590E+00-5.01779E+01 9.61269E-03
 -1       388 4.11769E+00-5.55569E+01 1.01869E-02
 -1       389 4.21540E+00-6.10735E+01 1.07933E-02
 -1       390 4.29970E+00-6.67097E+01 1.14306E-02
 -1       391 4.37133E+00-7.24480E+01 1.20968E-02
 -1       392 4.43110E+00-7.82722E+01 1.27880E-02
 -1       393 4.47989E+00-8.41673E+01 1.34972E-02
 -1       394 4.51863E+00-9.01191E+01 1.42156E-02
 -1       395 4.54835E+00-9.61151E+01 1.49340E-02
 -1       396 4.57012E+00-1.02144E+02 1.56530E-02
 -1       397 4.58509E+00-1.08196E+02 1.63941E-02
 -1       398 4.59448E+00-1.14263E+02 1.72046E-02
 -1       399 4.59958E+00-1.20338E+02 1.81345E-02
 -1       400 4.60174E+00-1.26416E+02 1.91788E-02
 -1       401-1.56967E+05-4.61696E+04-3.42508E+05
 -1       402-1.49902E+05-4.59653E+04 3.41677E+05
 -1       403 2.86589E+00-1.30468E+02 1.24111E-02
 -1       404 8.67671E-02-3.80484E-01 2.07021E-03
 -1       405 1.78693E-01-1.25480E+00 2.85234E-03
 -1       406 2.65826E-01-2.69691E+00 3.13921E-03
 -1       407 3.48188E-01-4.67744E+00 3.03082E-03
 -1       408 4.26163E-01-7.16826E+00 2.77235E-03
 -1       409 4.99657E-01-1.01408E+01 2.55805E-03
 -1       410 5.68706E-01-1.35666E+01 2.43032E-03
 -1       411 6.33334E-01-1.74175E+01 2.37601E-03
 -1       412 6.93579E-01-2.16654E+01 2.36932E-03
 -1       413 7.49488E-01-2.62824E+01 2.38981E-03
 -1       414 8.01119E-01-3.12412E+01 2.42642E-03
 -1       415 8.48543E-01-3.65147E+01 2.47446E-03
 -1       416 8.91840E-01-4.20762E+01 2.53206E-03
 -1       417 9.31106E-01-4.78998E+01 2.59954E-03
 -1       418 9.66449E-01-5.39600E+01 2.67597E-03
 -1       419 9.97992E-01-6.02323E+01 2.76244E-03
 -1       420 1.02587E+00-6.66926E+01 2.85982E-03
 -1       421 1.05024E+00-7.33183E+01 2.96652E-03
 -1       422 1.07127E+00-8.00872E+01 3.08236E-03
 -1       423 1.08915E+00-8.69788E+01 3.20861E-03
 -1       424 1.10407E+00-9.39735E+01 3.34443E-03
 -1       425 1.11626E+00-1.01053E+02 3.48667E-03
 -1       426 1.12594E+00-1.08201E+02 3.63457E-03
 -1       427 1.13338E+00-1.15401E+02 3.78698E-03
 -1       428 1.13884E+00-1.22641E+02 3.94248E-03
 -1       429 1.14260E+00-1.29908E+02 4.10509E-03
 -1       430 1.14498E+00-1.37193E+02 4.28713E-03
 -1       431 1.14629E+00-1.44488E+02 4.50302E-03
 -1       432 1.14687E+00-1.51787E+02 4.76546E-03
 -1       433 2.86585E+00-1.30469E+02 1.24062E-02
 -1       434-1.56967E+05-4.61696E+04 3.42508E+05
 -1       435-1.49902E+05-4.59653E+04-3.41677E+05
 -1       436 1.14687E+00-1.51787E+02-4.76578E-03
 -1       437 1.14629E+00-1.44488E+02-4.50320E-03
 -1       438 1.14498E+00-1.37193E+02-4.28719E-03
 -1       439 1.14260E+00-1.29908E+02-4.10487E-03
 -1       440 1.13884E+00-1.22641E+02-3.94230E-03
 -1       441 1.13338E+00-1.15401E+02-3.78668E-03
 -1       442 1.12594E+00-1.08201E+02-3.63517E-03
 -1       443 1.11626E+00-1.01053E+02-3.48634E-03
 -1       444 1.10407E+00-9.39735E+01-3.34425E-03
 -1       445 1.08915E+00-8.69788E+01-3.20891E-03
 -1       446 1.07127E+00-8.00872E+01-3.08275E-03
 -1       447 1.05024E+00-7.33183E+01-2.96631E-03
 -1       448 1.02587E+00-6.66926E+01-2.85987E-03
 -1       449 9.97992E-01-6.02323E+01-2.76314E-03
 -1       450 9.66449E-01-5.39600E+01-2.67604E-03
 -1       451 9.31106E-01-4.78998E+01-2.59910E-03
 -1       452 8.91840E-01-4.20762E+01-2.53212E-03
 -1       453 8.48543E-01-3.65147E+01-2.47475E-03
 -1       454 8.01119E-01-3.12412E+01-2.42658E-03
 -1       455 7.49488E-01-2.62824E+01-2.38965E-03
 -1       456 6.93579E-01-2.16654E+01-2.36899E-03
 -1       457 6.33334E-01-1.74175E+01-2.37559E-03
 -1       458 5.68705E-01-1.35666E+01-2.42995E-03
 -1       459 4.99658E-01-1.01408E+01-2.55791E-03
 -1       460 4.26164E-01-7.16826E+00-2.77284E-03
 -1       461 3.48188E-01-4.67744E+00-3.03061E-03
 -1       462 2.65827E-01-2.69691E+00-3.13890E-03
 -1       463 1.78693E-01-1.25480E+00-2.85202E-03
 -1       464 8.67672E-02-3.80484E-01-2.07014E-03
 -1       465 2.86589E+00-1.30468E+02-1.24108E-02
 -1       466 3.54573E-01-3.54866E-01-6.90224E-03
 -1       467 7.19256E-01-1.08505E+00-1.12029E-02
 -1       468 1.06839E+00-2.28307E+00-1.30000E-02
 -1       469 1.39913E+00-3.93070E+00-1.27201E-02
 -1       470 1.71192E+00-6.00322E+00-1.16790E-02
 -1       471 2.00680E+00-8.47693E+00-1.07324E-02
 -1       472 2.28383E+00-1.13282E+01-1.01522E-02
 -1       473 2.54312E+00-1.45335E+01-9.89514E-03
 -1       474 2.78482E+00-1.80694E+01-9.84325E-03
 -1       475 3.00912E+00-2.19128E+01-9.90547E-03
 -1       476 3.21625E+00-2.60409E+01-1.00335E-02
 -1       477 3.40649E+00-3.04310E+01-1.02069E-02
 -1       478 3.58017E+00-3.50612E+01-1.04190E-02
 -1       479 3.73767E+00-3.99096E+01-1.06695E-02
 -1       480 3.87942E+00-4.49551E+01-1.09591E-02
 -1       481 4.00592E+00-5.01773E+01-1.12892E-02
 -1       482 4.11771E+00-5.55562E+01-1.16604E-02
 -1       483 4.21542E+00-6.10728E+01-1.20730E-02
 -1       484 4.29972E+00-6.67089E+01-1.25266E-02
 -1       485 4.37135E+00-7.24472E+01-1.30201E-02
 -1       486 4.43113E+00-7.82715E+01-1.35503E-02
 -1       487 4.47991E+00-8.41665E+01-1.41114E-02
 -1       488 4.51866E+00-9.01183E+01-1.46954E-02
 -1       489 4.54838E+00-9.61142E+01-1.52940E-02
 -1       490 4.57015E+00-1.02143E+02-1.59090E-02
 -1       491 4.58512E+00-1.08195E+02-1.65625E-02
 -1       492 4.59452E+00-1.14262E+02-1.73029E-02
 -1       493 4.59963E+00-1.20337E+02-1.81816E-02
 -1       494 4.60179E+00-1.26415E+02-1.91947E-02
 -1       495 3.54369E-01-3.55039E-01-1.76031E-03
 -1       496 7.19106E-01-1.08554E+00-6.14795E-03
 -1       497 1.06836E+00-2.28370E+00-8.21593E-03
 -1       498 1.39916E+00-3.93133E+00-8.18683E-03
 -1       499 1.71196E+00-6.00379E+00-7.40050E-03
 -1       500 2.00683E+00-8.47745E+00-6.70519E-03
 -1       501 2.28384E+00-1.13287E+01-6.37577E-03
 -1       502 2.54312E+00-1.45339E+01-6.36775E-03
 -1       503 2.78481E+00-1.80699E+01-6.56222E-03
 -1       504 3.00910E+00-2.19133E+01-6.86782E-03
 -1       505 3.21623E+00-2.60414E+01-7.23614E-03
 -1       506 3.40647E+00-3.04316E+01-7.64520E-03
 -1       507 3.58015E+00-3.50617E+01-8.08812E-03
 -1       508 3.73765E+00-3.99101E+01-8.56355E-03
 -1       509 3.87940E+00-4.49557E+01-9.07157E-03
 -1       510 4.00589E+00-5.01779E+01-9.61254E-03
 -1       511 4.11769E+00-5.55569E+01-1.01868E-02
 -1       512 4.21540E+00-6.10735E+01-1.07934E-02
 -1       513 4.29970E+00-6.67097E+01-1.14308E-02
 -1       514 4.37133E+00-7.24480E+01-1.20970E-02
 -1       515 4.43110E+00-7.82722E+01-1.27883E-02
 -1       516 4.47989E+00-8.41673E+01-1.34975E-02
 -1       517 4.51863E+00-9.01191E+01-1.42162E-02
 -1       518 4.54835E+00-9.61151E+01-1.49346E-02
 -1       519 4.57012E+00-1.02144E+02-1.56534E-02
 -1       520 4.58509E+00-1.08196E+02-1.63941E-02
 -1       521 4.59448E+00-1.14263E+02-1.72046E-02
 -1       522 4.59958E+00-1.20338E+02-1.81346E-02
 -1       523 4.60174E+00-1.26416E+02-1.91789E-02
 -1       524 2.86585E+00-1.30469E+02-1.24059E-02
 -1       525-1.93700E-02-9.00731E-01-3.61054E-04
 -1       526-3.84334E-02-2.92097E+00-4.01795E-04
 -1       527-5.67296E-02-6.24604E+00-3.14299E-04
 -1       528-7.41111E-02-1.08158E+01-2.59964E-04
 -1       529-9.05511E-02-1.65656E+01-2.34015E-04
 -1       530-1.06040E-01-2.34291E+01-2.22445E-04
 -1       531-1.20584E-01-3.13401E+01-2.19163E-04
 -1       532-1.34192E-01-4.02331E+01-2.21193E-04
 -1       533-1.46874E-01-5.00433E+01-2.27214E-04
 -1       534-1.58641E-01-6.07062E+01-2.34512E-04
 -1       535-1.69503E-01-7.21585E+01-2.44858E-04
 -1       536-1.79477E-01-8.43375E+01-2.55944E-04
 -1       537-1.88578E-01-9.71818E+01-2.68495E-04
 -1       538-1.96829E-01-1.10631E+02-2.82390E-04
 -1       539-2.04251E-01-1.24627E+02-2.96280E-04
 -1       540-2.10869E-01-1.39113E+02-3.12065E-04
 -1       541-2.16713E-01-1.54033E+02-3.29714E-04
 -1       542-2.21816E-01-1.69335E+02-3.47877E-04
 -1       543-2.26212E-01-1.84968E+02-3.66709E-04
 -1       544-2.29941E-01-2.00884E+02-3.86524E-04
 -1       545-2.33044E-01-2.17039E+02-4.07416E-04
 -1       546-2.35567E-01-2.33389E+02-4.29528E-04
 -1       547-2.37561E-01-2.49896E+02-4.51176E-04
 -1       548-2.39078E-01-2.66526E+02-4.74327E-04
 -1       549-2.40174E-01-2.83246E+02-4.97132E-04
 -1       550-2.40910E-01-3.00030E+02-5.18761E-04
 -1       551-2.41353E-01-3.16855E+02-5.41329E-04
 -1       552-2.41577E-01-3.33702E+02-5.66926E-04
 -1       553-2.41661E-01-3.50560E+02-6.08691E-04
 -1       554-1.94767E-02-9.12395E-01 2.57637E-07
 -1       555-3.84080E-02-2.93490E+00-3.90603E-07
 -1       556-5.66829E-02-6.25663E+00-3.94089E-07
 -1       557-7.40944E-02-1.08243E+01-2.04184E-07
 -1       558-9.05441E-02-1.65732E+01 1.38826E-07
 -1       559-1.06037E-01-2.34364E+01 4.63298E-07
 -1       560-1.20584E-01-3.13473E+01 5.73281E-07
 -1       561-1.34194E-01-4.02405E+01 1.06115E-07
 -1       562-1.46878E-01-5.00508E+01 1.96625E-07
 -1       563-1.58647E-01-6.07141E+01 4.59223E-07
 -1       564-1.69510E-01-7.21666E+01 3.94856E-07
 -1       565-1.79484E-01-8.43460E+01 3.13740E-07
 -1       566-1.88586E-01-9.71908E+01-1.56323E-07
 -1       567-1.96836E-01-1.10641E+02 5.22306E-08
 -1       568-2.04259E-01-1.24637E+02 2.34243E-07
 -1       569-2.10878E-01-1.39124E+02 3.83671E-07
 -1       570-2.16723E-01-1.54044E+02 7.65202E-08
 -1       571-2.21826E-01-1.69347E+02-1.32304E-07
 -1       572-2.26222E-01-1.84981E+02 4.40154E-07
 -1       573-2.29951E-01-2.00897E+02 5.52036E-07
 -1       574-2.33055E-01-2.17052E+02 1.32805E-07
 -1       575-2.35579E-01-2.33403E+02 3.75784E-07
 -1       576-2.37573E-01-2.49912E+02 6.98524E-08
 -1       577-2.39089E-01-2.66542E+02-5.42495E-07
 -1       578-2.40184E-01-2.83263E+02-3.99686E-07
 -1       579-2.40921E-01-3.00048E+02-2.62091E-07
 -1       580-2.41364E-01-3.16873E+02-3.80622E-07
 -1       581-2.41592E-01-3.33722E+02-2.88992E-07
 -1       582-2.41687E-01-3.50581E+02-2.23063E-08
 -1       583-1.93700E-02-9.00730E-01 3.61354E-04
 -1       584-3.84342E-02-2.92097E+00 4.01102E-04
 -1       585-5.67300E-02-6.24604E+00 3.13839E-04
 -1       586-7.41113E-02-1.08158E+01 2.60193E-04
 -1       587-9.05516E-02-1.65656E+01 2.34556E-04
 -1       588-1.06039E-01-2.34291E+01 2.22630E-04
 -1       589-1.20583E-01-3.13401E+01 2.19554E-04
 -1       590-1.34192E-01-4.02331E+01 2.21089E-04
 -1       591-1.46874E-01-5.00433E+01 2.27352E-04
 -1       592-1.58641E-01-6.07062E+01 2.35413E-04
 -1       593-1.69504E-01-7.21585E+01 2.45327E-04
 -1       594-1.79477E-01-8.43375E+01 2.56441E-04
 -1       595-1.88578E-01-9.71818E+01 2.68699E-04
 -1       596-1.96828E-01-1.10631E+02 2.82348E-04
 -1       597-2.04250E-01-1.24627E+02 2.96823E-04
 -1       598-2.10869E-01-1.39113E+02 3.12478E-04
 -1       599-2.16714E-01-1.54033E+02 3.29800E-04
 -1       600-2.21816E-01-1.69335E+02 3.47630E-04
 -1       601-2.26212E-01-1.84968E+02 3.66399E-04
 -1       602-2.29940E-01-2.00884E+02 3.87370E-04
 -1       603-2.33043E-01-2.17039E+02 4.08783E-04
 -1       604-2.35567E-01-2.33389E+02 4.30468E-04
 -1       605-2.37562E-01-2.49896E+02 4.51866E-04
 -1       606-2.39078E-01-2.66526E+02 4.74262E-04
 -1       607-2.40173E-01-2.83246E+02 4.96004E-04
 -1       608-2.40910E-01-3.00030E+02 5.17702E-04
 -1       609-2.41354E-01-3.16855E+02 5.40052E-04
 -1       610-2.41576E-01-3.33702E+02 5.66740E-04
 -1       611-2.41660E-01-3.50560E+02 6.09258E-04
 -1       612 1.93701E-02-9.00730E-01-3.60866E-04
 -1       613 3.84338E-02-2.92097E+00-4.01752E-04
 -1       614 5.67308E-02-6.24604E+00-3.15445E-04
 -1       615 7.41114E-02-1.08158E+01-2.60923E-04
 -1       616 9.05501E-02-1.65656E+01-2.34011E-04
 -1       617 1.06038E-01-2.34291E+01-2.22335E-04
 -1       618 1.20583E-01-3.13401E+01-2.19445E-04
 -1       619 1.34192E-01-4.02331E+01-2.21694E-04
 -1       620 1.46875E-01-5.00433E+01-2.25936E-04
 -1       621 1.58641E-01-6.07062E+01-2.33793E-04
 -1       622 1.69503E-01-7.21585E+01-2.43787E-04
 -1       623 1.79476E-01-8.43375E+01-2.55826E-04
 -1       624 1.88579E-01-9.71818E+01-2.68766E-04
 -1       625 1.96830E-01-1.10631E+02-2.82124E-04
 -1       626 2.04251E-01-1.24627E+02-2.97156E-04
 -1       627 2.10869E-01-1.39113E+02-3.12499E-04
 -1       628 2.16714E-01-1.54033E+02-3.29502E-04
 -1       629 2.21817E-01-1.69335E+02-3.47835E-04
 -1       630 2.26213E-01-1.84968E+02-3.67014E-04
 -1       631 2.29941E-01-2.00884E+02-3.86852E-04
 -1       632 2.33044E-01-2.17039E+02-4.07923E-04
 -1       633 2.35568E-01-2.33389E+02-4.30019E-04
 -1       634 2.37560E-01-2.49896E+02-4.52640E-04
 -1       635 2.39076E-01-2.66526E+02-4.74370E-04
 -1       636 2.40173E-01-2.83246E+02-4.97207E-04
 -1       637 2.40910E-01-3.00030E+02-5.18946E-04
 -1       638 2.41353E-01-3.16855E+02-5.40783E-04
 -1       639 2.41577E-01-3.33702E+02-5.66735E-04
 -1       640 2.41660E-01-3.50560E+02-6.07750E-04
 -1       641 1.94761E-02-9.12395E-01 3.66609E-07
 -1       642 3.84089E-02-2.93490E+00-6.55928E-08
 -1       643 5.66839E-02-6.25663E+00-5.60484E-07
 -1       644 7.40935E-02-1.08243E+01-1.94114E-07
 -1       645 9.05429E-02-1.65732E+01 2.56787E-07
 -1       646 1.06036E-01-2.34364E+01 7.84110E-07
 -1       647 1.20584E-01-3.13473E+01 4.75033E-07
 -1       648 1.34195E-01-4.02405E+01 1.93740E-07
 -1       649 1.46878E-01-5.00508E+01 4.83627E-07
 -1       650 1.58645E-01-6.07141E+01 6.87703E-07
 -1       651 1.69508E-01-7.21666E+01-2.46474E-08
 -1       652 1.79482E-01-8.43460E+01-1.66555E-07
 -1       653 1.88586E-01-9.71908E+01 9.26410E-08
 -1       654 1.96836E-01-1.10641E+02-1.63285E-07
 -1       655 2.04258E-01-1.24637E+02-3.98816E-08
 -1       656 2.10877E-01-1.39124E+02 5.60708E-07
 -1       657 2.16722E-01-1.54044E+02 2.28870E-08
 -1       658 2.21825E-01-1.69347E+02 1.79124E-07
 -1       659 2.26222E-01-1.84981E+02 6.92752E-07
 -1       660 2.29952E-01-2.00897E+02 7.16864E-07
 -1       661 2.33054E-01-2.17052E+02 8.51853E-08
 -1       662 2.35578E-01-2.33403E+02-1.12968E-07
 -1       663 2.37572E-01-2.49912E+02 9.58518E-09
 -1       664 2.39088E-01-2.66542E+02-2.32934E-07
 -1       665 2.40183E-01-2.83263E+02-7.43445E-07
 -1       666 2.40920E-01-3.00048E+02-4.05187E-07
 -1       667 2.41365E-01-3.16873E+02-7.23114E-08
 -1       668 2.41594E-01-3.33722E+02-4.79375E-07
 -1       669 2.41687E-01-3.50581E+02 6.83456E-08
 -1       670 1.93699E-02-9.00731E-01 3.61145E-04
 -1       671 3.84342E-02-2.92097E+00 4.01420E-04
 -1       672 5.67306E-02-6.24604E+00 3.15101E-04
 -1       673 7.41112E-02-1.08158E+01 2.61096E-04
 -1       674 9.05503E-02-1.65656E+01 2.34467E-04
 -1       675 1.06038E-01-2.34291E+01 2.23352E-04
 -1       676 1.20582E-01-3.13401E+01 2.20025E-04
 -1       677 1.34192E-01-4.02331E+01 2.21247E-04
 -1       678 1.46874E-01-5.00433E+01 2.26401E-04
 -1       679 1.58640E-01-6.07062E+01 2.35167E-04
 -1       680 1.69503E-01-7.21585E+01 2.44279E-04
 -1       681 1.79477E-01-8.43375E+01 2.55977E-04
 -1       682 1.88579E-01-9.71818E+01 2.68822E-04
 -1       683 1.96829E-01-1.10631E+02 2.81983E-04
 -1       684 2.04250E-01-1.24627E+02 2.97539E-04
 -1       685 2.10869E-01-1.39113E+02 3.13266E-04
 -1       686 2.16714E-01-1.54033E+02 3.29846E-04
 -1       687 2.21816E-01-1.69335E+02 3.47927E-04
 -1       688 2.26213E-01-1.84968E+02 3.66968E-04
 -1       689 2.29941E-01-2.00884E+02 3.87239E-04
 -1       690 2.33044E-01-2.17039E+02 4.08666E-04
 -1       691 2.35567E-01-2.33389E+02 4.30187E-04
 -1       692 2.37561E-01-2.49896E+02 4.52447E-04
 -1       693 2.39077E-01-2.66526E+02 4.74470E-04
 -1       694 2.40172E-01-2.83246E+02 4.96096E-04
 -1       695 2.40909E-01-3.00030E+02 5.18650E-04
 -1       696 2.41353E-01-3.16855E+02 5.39938E-04
 -1       697 2.41576E-01-3.33702E+02 5.66730E-04
 -1       698 2.41660E-01-3.50560E+02 6.09009E-04
 -1       699-4.36449E-01-6.64286E-01-9.25137E-03
 -1       700-8.93566E-01-2.12276E+00-1.41636E-02
 -1       701-1.32871E+00-4.52218E+00-1.60909E-02
 -1       702-1.74045E+00-7.81965E+00-1.56858E-02
 -1       703-2.13006E+00-1.19670E+01-1.43855E-02
 -1       704-2.49731E+00-1.69168E+01-1.32371E-02
 -1       705-2.84235E+00-2.26216E+01-1.25398E-02
 -1       706-3.16529E+00-2.90344E+01-1.22324E-02
 -1       707-3.46634E+00-3.61085E+01-1.21741E-02
 -1       708-3.74571E+00-4.37976E+01-1.22565E-02
 -1       709-4.00371E+00-5.20560E+01-1.24209E-02
 -1       710-4.24068E+00-6.08385E+01-1.26415E-02
 -1       711-4.45703E+00-7.01008E+01-1.29109E-02
 -1       712-4.65323E+00-7.97997E+01-1.32274E-02
 -1       713-4.82983E+00-8.98928E+01-1.35930E-02
 -1       714-4.98744E+00-1.00339E+02-1.40085E-02
 -1       715-5.12674E+00-1.11099E+02-1.44746E-02
 -1       716-5.24851E+00-1.22134E+02-1.49927E-02
 -1       717-5.35358E+00-1.33408E+02-1.55620E-02
 -1       718-5.44289E+00-1.44886E+02-1.61807E-02
 -1       719-5.51743E+00-1.56536E+02-1.68442E-02
 -1       720-5.57830E+00-1.68327E+02-1.75461E-02
 -1       721-5.62667E+00-1.80232E+02-1.82760E-02
 -1       722-5.66380E+00-1.92225E+02-1.90243E-02
 -1       723-5.69105E+00-2.04284E+02-1.97927E-02
 -1       724-5.70983E+00-2.16388E+02-2.06062E-02
 -1       725-5.72168E+00-2.28523E+02-2.15247E-02
 -1       726-5.72820E+00-2.40673E+02-2.26137E-02
 -1       727-5.73104E+00-2.52830E+02-2.38921E-02
 -1       728-4.36196E-01-6.64743E-01-3.07931E-03
 -1       729-8.93405E-01-2.12377E+00-8.09546E-03
 -1       730-1.32868E+00-4.52344E+00-1.03846E-02
 -1       731-1.74050E+00-7.82090E+00-1.02696E-02
 -1       732-2.13012E+00-1.19682E+01-9.27422E-03
 -1       733-2.49735E+00-1.69178E+01-8.42653E-03
 -1       734-2.84237E+00-2.26226E+01-8.02875E-03
 -1       735-3.16530E+00-2.90354E+01-8.01835E-03
 -1       736-3.46633E+00-3.61095E+01-8.25474E-03
 -1       737-3.74570E+00-4.37986E+01-8.62792E-03
 -1       738-4.00370E+00-5.20570E+01-9.07809E-03
 -1       739-4.24067E+00-6.08395E+01-9.58021E-03
 -1       740-4.45702E+00-7.01019E+01-1.01251E-02
 -1       741-4.65322E+00-7.98009E+01-1.07101E-02
 -1       742-4.82981E+00-8.98940E+01-1.13361E-02
 -1       743-4.98742E+00-1.00340E+02-1.20040E-02
 -1       744-5.12672E+00-1.11100E+02-1.27127E-02
 -1       745-5.24849E+00-1.22135E+02-1.34621E-02
 -1       746-5.35356E+00-1.33409E+02-1.42509E-02
 -1       747-5.44286E+00-1.44887E+02-1.50751E-02
 -1       748-5.51740E+00-1.56537E+02-1.59302E-02
 -1       749-5.57827E+00-1.68329E+02-1.68091E-02
 -1       750-5.62664E+00-1.80234E+02-1.76999E-02
 -1       751-5.66377E+00-1.92227E+02-1.85915E-02
 -1       752-5.69101E+00-2.04286E+02-1.94844E-02
 -1       753-5.70980E+00-2.16390E+02-2.04017E-02
 -1       754-5.72164E+00-2.28525E+02-2.14017E-02
 -1       755-5.72814E+00-2.40675E+02-2.25530E-02
 -1       756-5.73098E+00-2.52832E+02-2.38697E-02
 -1       757-4.36195E-01-6.64743E-01 3.07894E-03
 -1       758-8.93405E-01-2.12377E+00 8.09456E-03
 -1       759-1.32868E+00-4.52344E+00 1.03840E-02
 -1       760-1.74050E+00-7.82090E+00 1.02696E-02
 -1       761-2.13012E+00-1.19682E+01 9.27439E-03
 -1       762-2.49735E+00-1.69178E+01 8.42662E-03
 -1       763-2.84237E+00-2.26226E+01 8.02846E-03
 -1       764-3.16530E+00-2.90354E+01 8.01765E-03
 -1       765-3.46633E+00-3.61095E+01 8.25452E-03
 -1       766-3.74571E+00-4.37986E+01 8.62799E-03
 -1       767-4.00370E+00-5.20570E+01 9.07868E-03
 -1       768-4.24067E+00-6.08395E+01 9.58031E-03
 -1       769-4.45702E+00-7.01019E+01 1.01248E-02
 -1       770-4.65322E+00-7.98009E+01 1.07104E-02
 -1       771-4.82981E+00-8.98940E+01 1.13371E-02
 -1       772-4.98742E+00-1.00340E+02 1.20051E-02
 -1       773-5.12672E+00-1.11100E+02 1.27132E-02
 -1       774-5.24849E+00-1.22135E+02 1.34627E-02
 -1       775-5.35356E+00-1.33409E+02 1.42512E-02
 -1       776-5.44286E+00-1.44887E+02 1.50754E-02
 -1       777-5.51740E+00-1.56537E+02 1.59308E-02
 -1       778-5.57827E+00-1.68329E+02 1.68092E-02
 -1       779-5.62664E+00-1.80234E+02 1.76999E-02
 -1       780-5.66377E+00-1.92227E+02 1.85916E-02
 -1       781-5.69101E+00-2.04286E+02 1.94836E-02
 -1       782-5.70980E+00-2.16390E+02 2.04005E-02
 -1       783-5.72164E+00-2.28525E+02 2.14022E-02
 -1       784-5.72814E+00-2.40675E+02 2.25523E-02
 -1       785-5.73098E+00-2.52832E+02 2.38684E-02
 -1       786-4.36449E-01-6.64285E-01 9.25126E-03
 -1       787-8.93567E-01-2.12276E+00 1.41629E-02
 -1       788-1.32871E+00-4.52218E+00 1.60899E-02
 -1       789-1.74046E+00-7.81965E+00 1.56853E-02
 -1       790-2.13006E+00-1.19670E+01 1.43855E-02
 -1       791-2.49731E+00-1.69168E+01 1.32372E-02
 -1       792-2.84235E+00-2.26216E+01 1.25395E-02
 -1       793-3.16529E+00-2.90344E+01 1.22316E-02
 -1       794-3.46634E+00-3.61085E+01 1.21738E-02
 -1       795-3.74571E+00-4.37976E+01 1.22567E-02
 -1       796-4.00371E+00-5.20560E+01 1.24213E-02
 -1       797-4.24068E+00-6.08385E+01 1.26410E-02
 -1       798-4.45703E+00-7.01008E+01 1.29104E-02
 -1       799-4.65323E+00-7.97997E+01 1.32279E-02
 -1       800-4.82983E+00-8.98928E+01 1.35936E-02
 -1       801-4.98744E+00-1.00339E+02 1.40096E-02
 -1       802-5.12674E+00-1.11099E+02 1.44759E-02
 -1       803-5.24851E+00-1.22134E+02 1.49939E-02
 -1       804-5.35359E+00-1.33408E+02 1.55626E-02
 -1       805-5.44289E+00-1.44886E+02 1.61804E-02
 -1       806-5.51743E+00-1.56536E+02 1.68437E-02
 -1       807-5.57830E+00-1.68327E+02 1.75462E-02
 -1       808-5.62667E+00-1.80232E+02 1.82767E-02
 -1       809-5.66380E+00-1.92225E+02 1.90257E-02
 -1       810-5.69105E+00-2.04284E+02 1.97932E-02
 -1       811-5.70983E+00-2.16388E+02 2.06060E-02
 -1       812-5.72168E+00-2.28523E+02 2.15238E-02
 -1       813-5.72820E+00-2.40673E+02 2.26144E-02
 -1       814-5.73104E+00-2.52830E+02 2.38931E-02
 -1       815 4.36449E-01-6.64285E-01 9.25227E-03
 -1       816 8.93566E-01-2.12276E+00 1.41642E-02
 -1       817 1.32871E+00-4.52218E+00 1.60905E-02
 -1       818 1.74046E+00-7.81965E+00 1.56851E-02
 -1       819 2.13006E+00-1.19670E+01 1.43849E-02
 -1       820 2.49731E+00-1.69168E+01 1.32375E-02
 -1       821 2.84235E+00-2.26216E+01 1.25398E-02
 -1       822 3.16529E+00-2.90344E+01 1.22321E-02
 -1       823 3.46634E+00-3.61085E+01 1.21741E-02
 -1       824 3.74571E+00-4.37976E+01 1.22563E-02
 -1       825 4.00371E+00-5.20560E+01 1.24207E-02
 -1       826 4.24068E+00-6.08385E+01 1.26416E-02
 -1       827 4.45703E+00-7.01008E+01 1.29107E-02
 -1       828 4.65323E+00-7.97997E+01 1.32277E-02
 -1       829 4.82983E+00-8.98928E+01 1.35927E-02
 -1       830 4.98744E+00-1.00339E+02 1.40083E-02
 -1       831 5.12674E+00-1.11099E+02 1.44759E-02
 -1       832 5.24851E+00-1.22134E+02 1.49939E-02
 -1       833 5.35359E+00-1.33408E+02 1.55618E-02
 -1       834 5.44289E+00-1.44886E+02 1.61798E-02
 -1       835 5.51743E+00-1.56536E+02 1.68435E-02
 -1       836 5.57830E+00-1.68327E+02 1.75453E-02
 -1       837 5.62667E+00-1.80232E+02 1.82759E-02
 -1       838 5.66380E+00-1.92225E+02 1.90252E-02
 -1       839 5.69105E+00-2.04284E+02 1.97933E-02
 -1       840 5.70983E+00-2.16388E+02 2.06061E-02
 -1       841 5.72168E+00-2.28523E+02 2.15235E-02
 -1       842 5.72820E+00-2.40673E+02 2.26135E-02
 -1       843 5.73104E+00-2.52830E+02 2.38929E-02
 -1       844 4.36195E-01-6.64743E-01 3.07985E-03
 -1       845 8.93405E-01-2.12377E+00 8.09584E-03
 -1       846 1.32868E+00-4.52344E+00 1.03844E-02
 -1       847 1.74050E+00-7.82090E+00 1.02693E-02
 -1       848 2.13012E+00-1.19682E+01 9.27433E-03
 -1       849 2.49735E+00-1.69178E+01 8.42684E-03
 -1       850 2.84237E+00-2.26226E+01 8.02865E-03
 -1       851 3.16530E+00-2.90354E+01 8.01818E-03
 -1       852 3.46633E+00-3.61095E+01 8.25462E-03
 -1       853 3.74570E+00-4.37986E+01 8.62750E-03
 -1       854 4.00370E+00-5.20570E+01 9.07843E-03
 -1       855 4.24067E+00-6.08395E+01 9.58085E-03
 -1       856 4.45702E+00-7.01019E+01 1.01256E-02
 -1       857 4.65322E+00-7.98009E+01 1.07109E-02
 -1       858 4.82981E+00-8.98940E+01 1.13364E-02
 -1       859 4.98742E+00-1.00340E+02 1.20041E-02
 -1       860 5.12672E+00-1.11100E+02 1.27136E-02
 -1       861 5.24849E+00-1.22135E+02 1.34628E-02
 -1       862 5.35356E+00-1.33409E+02 1.42502E-02
 -1       863 5.44286E+00-1.44887E+02 1.50743E-02
 -1       864 5.51740E+00-1.56537E+02 1.59305E-02
 -1       865 5.57827E+00-1.68329E+02 1.68088E-02
 -1       866 5.62664E+00-1.80234E+02 1.77000E-02
 -1       867 5.66377E+00-1.92227E+02 1.85916E-02
 -1       868 5.69101E+00-2.04286E+02 1.94836E-02
 -1       869 5.70980E+00-2.16390E+02 2.04010E-02
 -1       870 5.72164E+00-2.28525E+02 2.14018E-02
 -1       871 5.72814E+00-2.40675E+02 2.25525E-02
 -1       872 5.73098E+00-2.52832E+02 2.38692E-02
 -1       873 5.73104E+00-2.52830E+02-2.38930E-02
 -1       874 5.72820E+00-2.40673E+02-2.26140E-02
 -1       875 5.72168E+00-2.28523E+02-2.15244E-02
 -1       876 5.70984E+00-2.16388E+02-2.06068E-02
 -1       877 5.69105E+00-2.04284E+02-1.97931E-02
 -1       878 5.66380E+00-1.92225E+02-1.90247E-02
 -1       879 5.62667E+00-1.80232E+02-1.82763E-02
 -1       880 5.57830E+00-1.68327E+02-1.75453E-02
 -1       881 5.51743E+00-1.56536E+02-1.68438E-02
 -1       882 5.44289E+00-1.44886E+02-1.61802E-02
 -1       883 5.35358E+00-1.33408E+02-1.55621E-02
 -1       884 5.24851E+00-1.22134E+02-1.49933E-02
 -1       885 5.12674E+00-1.11099E+02-1.44758E-02
 -1       886 4.98744E+00-1.00339E+02-1.40092E-02
 -1       887 4.82983E+00-8.98928E+01-1.35927E-02
 -1       888 4.65323E+00-7.97997E+01-1.32273E-02
 -1       889 4.45703E+00-7.01008E+01-1.29106E-02
 -1       890 4.24068E+00-6.08385E+01-1.26420E-02
 -1       891 4.00371E+00-5.20560E+01-1.24211E-02
 -1       892 3.74571E+00-4.37976E+01-1.22569E-02
 -1       893 3.46634E+00-3.61085E+01-1.21743E-02
 -1       894 3.16529E+00-2.90344E+01-1.22317E-02
 -1       895 2.84235E+00-2.26216E+01-1.25394E-02
 -1       896 2.49731E+00-1.69168E+01-1.32375E-02
 -1       897 2.13006E+00-1.19670E+01-1.43854E-02
 -1       898 1.74046E+00-7.81965E+00-1.56850E-02
 -1       899 1.32871E+00-4.52218E+00-1.60906E-02
 -1       900 8.93567E-01-2.12276E+00-1.41640E-02
 -1       901 4.36449E-01-6.64286E-01-9.25164E-03
 -1       902 4.36196E-01-6.64743E-01-3.07952E-03
 -1       903 8.93405E-01-2.12377E+00-8.09547E-03
 -1       904 1.32868E+00-4.52344E+00-1.03846E-02
 -1       905 1.74050E+00-7.82090E+00-1.02692E-02
 -1       906 2.13012E+00-1.19682E+01-9.27457E-03
 -1       907 2.49735E+00-1.69178E+01-8.42721E-03
 -1       908 2.84237E+00-2.26226E+01-8.02837E-03
 -1       909 3.16530E+00-2.90354E+01-8.01809E-03
 -1       910 3.46633E+00-3.61095E+01-8.25479E-03
 -1       911 3.74570E+00-4.37986E+01-8.62811E-03
 -1       912 4.00370E+00-5.20570E+01-9.07887E-03
 -1       913 4.24067E+00-6.08395E+01-9.58109E-03
 -1       914 4.45702E+00-7.01019E+01-1.01255E-02
 -1       915 4.65322E+00-7.98009E+01-1.07106E-02
 -1       916 4.82981E+00-8.98940E+01-1.13365E-02
 -1       917 4.98742E+00-1.00340E+02-1.20046E-02
 -1       918 5.12672E+00-1.11100E+02-1.27133E-02
 -1       919 5.24849E+00-1.22135E+02-1.34628E-02
 -1       920 5.35356E+00-1.33409E+02-1.42510E-02
 -1       921 5.44286E+00-1.44887E+02-1.50748E-02
 -1       922 5.51740E+00-1.56537E+02-1.59305E-02
 -1       923 5.57827E+00-1.68329E+02-1.68087E-02
 -1       924 5.62664E+00-1.80234E+02-1.77005E-02
 -1       925 5.66377E+00-1.92227E+02-1.85916E-02
 -1       926 5.69101E+00-2.04286E+02-1.94834E-02
 -1       927 5.70980E+00-2.16390E+02-2.04015E-02
 -1       928 5.72164E+00-2.28525E+02-2.14020E-02
 -1       929 5.72814E+00-2.40675E+02-2.25528E-02
 -1       930 5.73098E+00-2.52832E+02-2.38694E-02
 -3
    1PSTEP                         4           1           1          
    1PGM                1.000000E+00                                  
    1PGK                8.045247E+03                                  
    1PHID                         -1                                  
    1PSUBC                         0                                  
    1PMODE                         1                                  
  100CL  101 14.27545043         930                     2    1MODAL      1
 -4  ERROR       1    1
 -5  STR(%)      1    1    0    0
 -1         1 4.98178E+01
 -1         2 4.98178E+01
 -1         3 6.69824E+01
 -1         4 6.69824E+01
 -1         5 4.98178E+01
 -1         6 4.98178E+01
 -1         7 6.69824E+01
 -1         8 6.69824E+01
 -1         9 4.98178E+01
 -1        10 3.40952E+01
 -1        11 3.30572E+01
 -1        12 3.30572E+01
 -1        13 2.57634E+01
 -1        14 2.57634E+01
 -1        15 4.98178E+01
 -1        16 3.40952E+01
 -1        17 3.30572E+01
 -1        18 3.30572E+01
 -1        19 2.57634E+01
 -1        20 2.57634E+01
 -1        21 3.30572E+01
 -1        22 3.30572E+01
 -1        23 2.57634E+01
 -1        24 2.57634E+01
 -1        25 4.98178E+01
 -1        26 3.40952E+01
 -1        27 4.98178E+01
 -1        28 3.30572E+01
 -1        29 3.30572E+01
 -1        30 3.40952E+01
 -1        31 2.57634E+01
 -1        32 2.57634E+01
 -1        33 4.98178E+01
 -1        34 4.67272E+01
 -1        35 4.70092E+01
 -1        36 4.71750E+01
 -1        37 4.73914E+01
 -1        38 4.76298E+01
 -1        39 4.78900E+01
 -1        40 4.81717E+01
 -1        41 4.84765E+01
 -1        42 4.88071E+01
 -1        43 4.91668E+01
 -1        44 4.95593E+01
 -1        45 4.99887E+01
 -1        46 5.04595E+01
 -1        47 5.13377E+01
 -1        48 5.33115E+01
 -1        49 5.54933E+01
 -1        50 5.79153E+01
 -1        51 6.06146E+01
 -1        52 6.36291E+01
 -1        53 6.69850E+01
 -1        54 7.06443E+01
 -1        55 7.42957E+01
 -1        56 7.68603E+01
 -1        57 7.72845E+01
 -1        58 7.72845E+01
 -1        59 7.00517E+01
 -1        60 6.53746E+01
 -1        61 6.69824E+01
 -1        62 4.98178E+01
 -1        63 4.67272E+01
 -1        64 4.70092E+01
 -1        65 4.71750E+01
 -1        66 4.73914E+01
 -1        67 4.76298E+01
 -1        68 4.78900E+01
 -1        69 4.81717E+01
 -1        70 4.84765E+01
 -1        71 4.88071E+01
 -1        72 4.91668E+01
 -1        73 4.95593E+01
 -1        74 4.99887E+01
 -1        75 5.04595E+01
 -1        76 5.13377E+01
 -1        77 5.33115E+01
 -1        78 5.54933E+01
 -1        79 5.79153E+01
 -1        80 6.06146E+01
 -1        81 6.36291E+01
 -1        82 6.69850E+01
 -1        83 7.06443E+01
 -1        84 7.42957E+01
 -1        85 7.68603E+01
 -1        86 7.72845E+01
 -1        87 7.72845E+01
 -1        88 7.00517E+01
 -1        89 6.53746E+01
 -1        90 6.69824E+01
 -1        91 2.55890E+01
 -1        92 2.35448E+01
 -1        93 2.55890E+01
 -1        94 2.55890E+01
 -1        95 2.35448E+01
 -1        96 2.55890E+01
 -1        97 4.98178E+01
 -1        98 4.67272E+01
 -1        99 4.70092E+01
 -1       100 4.71750E+01
 -1       101 4.73914E+01
 -1       102 4.76298E+01
 -1       103 4.78900E+01
 -1       104 4.81717E+01
 -1       105 4.84765E+01
 -1       106 4.88071E+01
 -1       107 4.91668E+01
 -1       108 4.95593E+01
 -1       109 4.99887E+01
 -1       110 5.04595E+01
 -1       111 5.13377E+01
 -1       112 5.33115E+01
 -1       113 5.54933E+01
 -1       114 5.79153E+01
 -1       115 6.06146E+01
 -1       116 6.36291E+01
 -1       117 6.69850E+01
 -1       118 7.06443E+01
 -1       119 7.42957E+01
 -1       120 7.68603E+01
 -1       121 7.72845E+01
 -1       122 7.72845E+01
 -1       123 7.00517E+01
 -1       124 6.53746E+01
 -1       125 6.69824E+01
 -1       126 6.69824E+01
 -1       127 3.45319E+01
 -1       128 6.69824E+01
 -1       129 4.98178E+01
 -1       130 4.67272E+01
 -1       131 4.70092E+01
 -1       132 4.71750E+01
 -1       133 4.73914E+01
 -1       134 4.76298E+01
 -1       135 4.78900E+01
 -1       136 4.81717E+01
 -1       137 4.84765E+01
 -1       138 4.88071E+01
 -1       139 4.91668E+01
 -1       140 4.95593E+01
 -1       141 4.99887E+01
 -1       142 5.04595E+01
 -1       143 5.13377E+01
 -1       144 5.33115E+01
 -1       145 5.54933E+01
 -1       146 5.79153E+01
 -1       147 6.06146E+01
 -1       148 6.36291E+01
 -1       149 6.69850E+01
 -1       150 7.06443E+01
 -1       151 7.42957E+01
 -1       152 7.68603E+01
 -1       153 7.72845E+01
 -1       154 7.72845E+01
 -1       155 7.00517E+01
 -1       156 6.53746E+01
 -1       157 6.69824E+01
 -1       158 6.69824E+01
 -1       159 3.45319E+01
 -1       160 6.69824E+01
 -1       161 4.98178E+01
 -1       162 4.67272E+01
 -1       163 4.70092E+01
 -1       164 4.71750E+01
 -1       165 4.73914E+01
 -1       166 4.76298E+01
 -1       167 4.78900E+01
 -1       168 4.81717E+01
 -1       169 4.84765E+01
 -1       170 4.88071E+01
 -1       171 4.91668E+01
 -1       172 4.95593E+01
 -1       173 4.99887E+01
 -1       174 5.04595E+01
 -1       175 5.13377E+01
 -1       176 5.33115E+01
 -1       177 5.54933E+01
 -1       178 5.79153E+01
 -1       179 6.06146E+01
 -1       180 6.36291E+01
 -1       181 6.69850E+01
 -1       182 7.06443E+01
 -1       183 7.42957E+01
 -1       184 7.68603E+01
 -1       185 7.72845E+01
 -1       186 7.72845E+01
 -1       187 7.00517E+01
 -1       188 6.53746E+01
 -1       189 4.58486E+01
 -1       190 4.98178E+01
 -1       191 4.98178E+01
 -1       192 3.40952E+01
 -1       193 3.30572E+01
 -1       194 2.24634E+01
 -1       195 2.08456E+01
 -1       196 2.01891E+01
 -1       197 2.01835E+01
 -1       198 2.01867E+01
 -1       199 2.01956E+01
 -1       200 2.02056E+01
 -1       201 2.02155E+01
 -1       202 2.02255E+01
 -1       203 2.02356E+01
 -1       204 2.02461E+01
 -1       205 2.02570E+01
 -1       206 2.02685E+01
 -1       207 2.02804E+01
 -1       208 2.02925E+01
 -1       209 2.03046E+01
 -1       210 2.03162E+01
 -1       211 2.03263E+01
 -1       212 2.03335E+01
 -1       213 2.03349E+01
 -1       214 2.03349E+01
 -1       215 2.03254E+01
 -1       216 2.02925E+01
 -1       217 2.02094E+01
 -1       218 2.00113E+01
 -1       219 1.95452E+01
 -1       220 1.89681E+01
 -1       221 2.57634E+01
 -1       222 3.30572E+01
 -1       223 2.24634E+01
 -1       224 2.08456E+01
 -1       225 2.01891E+01
 -1       226 2.01835E+01
 -1       227 2.01867E+01
 -1       228 2.01956E+01
 -1       229 2.02056E+01
 -1       230 2.02155E+01
 -1       231 2.02255E+01
 -1       232 2.02356E+01
 -1       233 2.02461E+01
 -1       234 2.02570E+01
 -1       235 2.02685E+01
 -1       236 2.02804E+01
 -1       237 2.02925E+01
 -1       238 2.03046E+01
 -1       239 2.03162E+01
 -1       240 2.03263E+01
 -1       241 2.03335E+01
 -1       242 2.03349E+01
 -1       243 2.03349E+01
 -1       244 2.03254E+01
 -1       245 2.02925E+01
 -1       246 2.02094E+01
 -1       247 2.00113E+01
 -1       248 1.95452E+01
 -1       249 1.89681E+01
 -1       250 2.57634E+01
 -1       251 3.40952E+01
 -1       252 4.58486E+01
 -1       253 6.53746E+01
 -1       254 7.00517E+01
 -1       255 7.72845E+01
 -1       256 7.72845E+01
 -1       257 7.68603E+01
 -1       258 7.42957E+01
 -1       259 7.06443E+01
 -1       260 6.69850E+01
 -1       261 6.36291E+01
 -1       262 6.06146E+01
 -1       263 5.79153E+01
 -1       264 5.54933E+01
 -1       265 5.33115E+01
 -1       266 5.13377E+01
 -1       267 5.04595E+01
 -1       268 4.99887E+01
 -1       269 4.95593E+01
 -1       270 4.91668E+01
 -1       271 4.88071E+01
 -1       272 4.84765E+01
 -1       273 4.81717E+01
 -1       274 4.78900E+01
 -1       275 4.76298E+01
 -1       276 4.73914E+01
 -1       277 4.71750E+01
 -1       278 4.70092E+01
 -1       279 4.67272E+01
 -1       280 4.98178E+01
 -1       281 4.98178E+01
 -1       282 4.98178E+01
 -1       283 3.30572E+01
 -1       284 2.24634E+01
 -1       285 2.08456E+01
 -1       286 2.01891E+01
 -1       287 2.01835E+01
 -1       288 2.01867E+01
 -1       289 2.01956E+01
 -1       290 2.02056E+01
 -1       291 2.02155E+01
 -1       292 2.02255E+01
 -1       293 2.02356E+01
 -1       294 2.02461E+01
 -1       295 2.02570E+01
 -1       296 2.02685E+01
 -1       297 2.02804E+01
 -1       298 2.02925E+01
 -1       299 2.03046E+01
 -1       300 2.03162E+01
 -1       301 2.03263E+01
 -1       302 2.03335E+01
 -1       303 2.03349E+01
 -1       304 2.03349E+01
 -1       305 2.03254E+01
 -1       306 2.02925E+01
 -1       307 2.02094E+01
 -1       308 2.00113E+01
 -1       309 1.95452E+01
 -1       310 1.89681E+01
 -1       311 2.57634E+01
 -1       312 3.40952E+01
 -1       313 3.30572E+01
 -1       314 2.24634E+01
 -1       315 2.08456E+01
 -1       316 2.01891E+01
 -1       317 2.01835E+01
 -1       318 2.01867E+01
 -1       319 2.01956E+01
 -1       320 2.02056E+01
 -1       321 2.02155E+01
 -1       322 2.02255E+01
 -1       323 2.02356E+01
 -1       324 2.02461E+01
 -1       325 2.02570E+01
 -1       326 2.02685E+01
 -1       327 2.02804E+01
 -1       328 2.02925E+01
 -1       329 2.03046E+01
 -1       330 2.03162E+01
 -1       331 2.03263E+01
 -1       332 2.03335E+01
 -1       333 2.03349E+01
 -1       334 2.03349E+01
 -1       335 2.03254E+01
 -1       336 2.02925E+01
 -1       337 2.02094E+01
 -1       338 2.00113E+01
 -1       339 1.95452E+01
 -1       340 1.89681E+01
 -1       341 2.57634E+01
 -1       342 3.40952E+01
 -1       343 3.30572E+01
 -1       344 2.24634E+01
 -1       345 2.08456E+01
 -1       346 2.01891E+01
 -1       347 2.01835E+01
 -1       348 2.01867E+01
 -1       349 2.01956E+01
 -1       350 2.02056E+01
 -1       351 2.02155E+01
 -1       352 2.02255E+01
 -1       353 2.02356E+01
 -1       354 2.02461E+01
 -1       355 2.02570E+01
 -1       356 2.02685E+01
 -1       357 2.02804E+01
 -1       358 2.02925E+01
 -1       359 2.03046E+01
 -1       360 2.03162E+01
 -1       361 2.03263E+01
 -1       362 2.03335E+01
 -1       363 2.03349E+01
 -1       364 2.03349E+01
 -1       365 2.03254E+01
 -1       366 2.02925E+01
 -1       367 2.02094E+01
 -1       368 2.00113E+01
 -1       369 1.95452E+01
 -1       370 1.89681E+01
 -1       371 2.57634E+01
 -1       372 3.30572E+01
 -1       373 2.24634E+01
 -1       374 2.08456E+01
 -1       375 2.01891E+01
 -1       376 2.01835E+01
 -1       377 2.01867E+01
 -1       378 2.01956E+01
 -1       379 2.02056E+01
 -1       380 2.02155E+01
 -1       381 2.02255E+01
 -1       382 2.02356E+01
 -1       383 2.02461E+01
 -1       384 2.02570E+01
 -1       385 2.02685E+01
 -1       386 2.02804E+01
 -1       387 2.02925E+01
 -1       388 2.03046E+01
 -1       389 2.03162E+01
 -1       390 2.03263E+01
 -1       391 2.03335E+01
 -1       392 2.03349E+01
 -1       393 2.03349E+01
 -1       394 2.03254E+01
 -1       395 2.02925E+01
 -1       396 2.02094E+01
 -1       397 2.00113E+01
 -1       398 1.95452E+01
 -1       399 1.89681E+01
 -1       400 2.57634E+01
 -1       401 4.98178E+01
 -1       402 4.98178E+01
 -1       403 3.40952E+01
 -1       404 4.98178E+01
 -1       405 4.67272E+01
 -1       406 4.70092E+01
 -1       407 4.71750E+01
 -1       408 4.73914E+01
 -1       409 4.76298E+01
 -1       410 4.78900E+01
 -1       411 4.81717E+01
 -1       412 4.84765E+01
 -1       413 4.88071E+01
 -1       414 4.91668E+01
 -1       415 4.95593E+01
 -1       416 4.99887E+01
 -1       417 5.04595E+01
 -1       418 5.13377E+01
 -1       419 5.33115E+01
 -1       420 5.54933E+01
 -1       421 5.79153E+01
 -1       422 6.06146E+01
 -1       423 6.36291E+01
 -1       424 6.69850E+01
 -1       425 7.06443E+01
 -1       426 7.42957E+01
 -1       427 7.68603E+01
 -1       428 7.72845E+01
 -1       429 7.72845E+01
 -1       430 7.00517E+01
 -1       431 6.53746E+01
 -1       432 4.58486E+01
 -1       433 3.40952E+01
 -1       434 4.98178E+01
 -1       435 4.98178E+01
 -1       436 4.58486E+01
 -1       437 6.53746E+01
 -1       438 7.00517E+01
 -1       439 7.72845E+01
 -1       440 7.72845E+01
 -1       441 7.68603E+01
 -1       442 7.42957E+01
 -1       443 7.06443E+01
 -1       444 6.69850E+01
 -1       445 6.36291E+01
 -1       446 6.06146E+01
 -1       447 5.79153E+01
 -1       448 5.54933E+01
 -1       449 5.33115E+01
 -1       450 5.13377E+01
 -1       451 5.04595E+01
 -1       452 4.99887E+01
 -1       453 4.95593E+01
 -1       454 4.91668E+01
 -1       455 4.88071E+01
 -1       456 4.84765E+01
 -1       457 4.81717E+01
 -1       458 4.78900E+01
 -1       459 4.76298E+01
 -1       460 4.73914E+01
 -1       461 4.71750E+01
 -1       462 4.70092E+01
 -1       463 4.67272E+01
 -1       464 4.98178E+01
 -1       465 3.40952E+01
 -1       466 3.30572E+01
 -1       467 2.24634E+01
 -1       468 2.08456E+01
 -1       469 2.01891E+01
 -1       470 2.01835E+01
 -1       471 2.01867E+01
 -1       472 2.01956E+01
 -1       473 2.02056E+01
 -1       474 2.02155E+01
 -1       475 2.02255E+01
 -1       476 2.02356E+01
 -1       477 2.02461E+01
 -1       478 2.02570E+01
 -1       479 2.02685E+01
 -1       480 2.02804E+01
 -1       481 2.02925E+01
 -1       482 2.03046E+01
 -1       483 2.03162E+01
 -1       484 2.03263E+01
 -1       485 2.03335E+01
 -1       486 2.03349E+01
 -1       487 2.03349E+01
 -1       488 2.03254E+01
 -1       489 2.02925E+01
 -1       490 2.02094E+01
 -1       491 2.00113E+01
 -1       492 1.95452E+01
 -1       493 1.89681E+01
 -1       494 2.57634E+01
 -1       495 3.30572E+01
 -1       496 2.24634E+01
 -1       497 2.08456E+01
 -1       498 2.01891E+01
 -1       499 2.01835E+01
 -1       500 2.01867E+01
 -1       501 2.01956E+01
 -1       502 2.02056E+01
 -1       503 2.02155E+01
 -1       504 2.02255E+01
 -1       505 2.02356E+01
 -1       506 2.02461E+01
 -1       507 2.02570E+01
 -1       508 2.02685E+01
 -1       509 2.02804E+01
 -1       510 2.02925E+01
 -1       511 2.03046E+01
 -1       512 2.03162E+01
 -1       513 2.03263E+01
 -1       514 2.03335E+01
 -1       515 2.03349E+01
 -1       516 2.03349E+01
 -1       517 2.03254E+01
 -1       518 2.02925E+01
 -1       519 2.02094E+01
 -1       520 2.00113E+01
 -1       521 1.95452E+01
 -1       522 1.89681E+01
 -1       523 2.57634E+01
 -1       524 3.40952E+01
 -1       525 2.95506E+01
 -1       526 2.95506E+01
 -1       527 2.70092E+01
 -1       528 2.74407E+01
 -1       529 2.76848E+01
 -1       530 2.80801E+01
 -1       531 2.84556E+01
 -1       532 2.88677E+01
 -1       533 2.93091E+01
 -1       534 2.97895E+01
 -1       535 3.03149E+01
 -1       536 3.08925E+01
 -1       537 3.15306E+01
 -1       538 3.22392E+01
 -1       539 3.30305E+01
 -1       540 3.39201E+01
 -1       541 3.49277E+01
 -1       542 3.60788E+01
 -1       543 3.74067E+01
 -1       544 3.89559E+01
 -1       545 4.07855E+01
 -1       546 4.29754E+01
 -1       547 4.56264E+01
 -1       548 4.88285E+01
 -1       549 5.23645E+01
 -1       550 5.35317E+01
 -1       551 5.66630E+01
 -1       552 6.01321E+01
 -1       553 6.69824E+01
 -1       554 2.35448E+01
 -1       555 2.30390E+01
 -1       556 2.36715E+01
 -1       557 2.37135E+01
 -1       558 2.38333E+01
 -1       559 2.39537E+01
 -1       560 2.40752E+01
 -1       561 2.42122E+01
 -1       562 2.43550E+01
 -1       563 2.45053E+01
 -1       564 2.46654E+01
 -1       565 2.48364E+01
 -1       566 2.50191E+01
 -1       567 2.52130E+01
 -1       568 2.54167E+01
 -1       569 2.56269E+01
 -1       570 2.58368E+01
 -1       571 2.60327E+01
 -1       572 2.61867E+01
 -1       573 2.62412E+01
 -1       574 2.62412E+01
 -1       575 2.60742E+01
 -1       576 2.54145E+01
 -1       577 2.36382E+01
 -1       578 1.93021E+01
 -1       579 1.40655E+01
 -1       580 2.44744E+01
 -1       581 3.16735E+01
 -1       582 3.45319E+01
 -1       583 2.95506E+01
 -1       584 2.95506E+01
 -1       585 2.70092E+01
 -1       586 2.74407E+01
 -1       587 2.76848E+01
 -1       588 2.80801E+01
 -1       589 2.84556E+01
 -1       590 2.88677E+01
 -1       591 2.93091E+01
 -1       592 2.97895E+01
 -1       593 3.03149E+01
 -1       594 3.08925E+01
 -1       595 3.15306E+01
 -1       596 3.22392E+01
 -1       597 3.30305E+01
 -1       598 3.39201E+01
 -1       599 3.49277E+01
 -1       600 3.60788E+01
 -1       601 3.74067E+01
 -1       602 3.89559E+01
 -1       603 4.07855E+01
 -1       604 4.29754E+01
 -1       605 4.56264E+01
 -1       606 4.88285E+01
 -1       607 5.23645E+01
 -1       608 5.35317E+01
 -1       609 5.66630E+01
 -1       610 6.01321E+01
 -1       611 6.69824E+01
 -1       612 2.95506E+01
 -1       613 2.95506E+01
 -1       614 2.70092E+01
 -1       615 2.74407E+01
 -1       616 2.76848E+01
 -1       617 2.80801E+01
 -1       618 2.84556E+01
 -1       619 2.88677E+01
 -1       620 2.93091E+01
 -1       621 2.97895E+01
 -1       622 3.03149E+01
 -1       623 3.08925E+01
 -1       624 3.15306E+01
 -1       625 3.22392E+01
 -1       626 3.30305E+01
 -1       627 3.39201E+01
 -1       628 3.49277E+01
 -1       629 3.60788E+01
 -1       630 3.74067E+01
 -1       631 3.89559E+01
 -1       632 4.07855E+01
 -1       633 4.29754E+01
 -1       634 4.56264E+01
 -1       635 4.88285E+01
 -1       636 5.23645E+01
 -1       637 5.35317E+01
 -1       638 5.66630E+01
 -1       639 6.01321E+01
 -1       640 6.69824E+01
 -1       641 2.35448E+01
 -1       642 2.30390E+01
 -1       643 2.36715E+01
 -1       644 2.37135E+01
 -1       645 2.38333E+01
 -1       646 2.39537E+01
 -1       647 2.40752E+01
 -1       648 2.42122E+01
 -1       649 2.43550E+01
 -1       650 2.45053E+01
 -1       651 2.46654E+01
 -1       652 2.48364E+01
 -1       653 2.50191E+01
 -1       654 2.52130E+01
 -1       655 2.54167E+01
 -1       656 2.56269E+01
 -1       657 2.58368E+01
 -1       658 2.60327E+01
 -1       659 2.61867E+01
 -1       660 2.62412E+01
 -1       661 2.62412E+01
 -1       662 2.60742E+01
 -1       663 2.54145E+01
 -1       664 2.36382E+01
 -1       665 1.93021E+01
 -1       666 1.40655E+01
 -1       667 2.44744E+01
 -1       668 3.16735E+01
 -1       669 3.45319E+01
 -1       670 2.95506E+01
 -1       671 2.95506E+01
 -1       672 2.70092E+01
 -1       673 2.74407E+01
 -1       674 2.76848E+01
 -1       675 2.80801E+01
 -1       676 2.84556E+01
 -1       677 2.88677E+01
 -1       678 2.93091E+01
 -1       679 2.97895E+01
 -1       680 3.03149E+01
 -1       681 3.08925E+01
 -1       682 3.15306E+01
 -1       683 3.22392E+01
 -1       684 3.30305E+01
 -1       685 3.39201E+01
 -1       686 3.49277E+01
 -1       687 3.60788E+01
 -1       688 3.74067E+01
 -1       689 3.89559E+01
 -1       690 4.07855E+01
 -1       691 4.29754E+01
 -1       692 4.56264E+01
 -1       693 4.88285E+01
 -1       694 5.23645E+01
 -1       695 5.35317E+01
 -1       696 5.66630E+01
 -1       697 6.01321E+01
 -1       698 6.69824E+01
 -1       699 4.98178E+01
 -1       700 4.67272E+01
 -1       701 4.70092E+01
 -1       702 4.71750E+01
 -1       703 4.73914E+01
 -1       704 4.76298E+01
 -1       705 4.78900E+01
 -1       706 4.81717E+01
 -1       707 4.84765E+01
 -1       708 4.88071E+01
 -1       709 4.91668E+01
 -1       710 4.95593E+01
 -1       711 4.99887E+01
 -1       712 5.04595E+01
 -1       713 5.09767E+01
 -1       714 5.15451E+01
 -1       715 5.21692E+01
 -1       716 5.28511E+01
 -1       717 5.35876E+01
 -1       718 5.43632E+01
 -1       719 5.51348E+01
 -1       720 5.58018E+01
 -1       721 5.61507E+01
 -1       722 5.61507E+01
 -1       723 5.60957E+01
 -1       724 5.48567E+01
 -1       725 5.16258E+01
 -1       726 4.57032E+01
 -1       727 3.71822E+01
 -1       728 4.98178E+01
 -1       729 4.67272E+01
 -1       730 4.70092E+01
 -1       731 4.71750E+01
 -1       732 4.73914E+01
 -1       733 4.76298E+01
 -1       734 4.78900E+01
 -1       735 4.81717E+01
 -1       736 4.84765E+01
 -1       737 4.88071E+01
 -1       738 4.91668E+01
 -1       739 4.95593E+01
 -1       740 4.99887E+01
 -1       741 5.04595E+01
 -1       742 5.09767E+01
 -1       743 5.15451E+01
 -1       744 5.21692E+01
 -1       745 5.28511E+01
 -1       746 5.35876E+01
 -1       747 5.43632E+01
 -1       748 5.51348E+01
 -1       749 5.58018E+01
 -1       750 5.61507E+01
 -1       751 5.61507E+01
 -1       752 5.60957E+01
 -1       753 5.48567E+01
 -1       754 5.16258E+01
 -1       755 4.57032E+01
 -1       756 3.71822E+01
 -1       757 4.98178E+01
 -1       758 4.67272E+01
 -1       759 4.70092E+01
 -1       760 4.71750E+01
 -1       761 4.73914E+01
 -1       762 4.76298E+01
 -1       763 4.78900E+01
 -1       764 4.81717E+01
 -1       765 4.84765E+01
 -1       766 4.88071E+01
 -1       767 4.91668E+01
 -1       768 4.95593E+01
 -1       769 4.99887E+01
 -1       770 5.04595E+01
 -1       771 5.09767E+01
 -1       772 5.15451E+01
 -1       773 5.21692E+01
 -1       774 5.28511E+01
 -1       775 5.35876E+01
 -1       776 5.43632E+01
 -1       777 5.51348E+01
 -1       778 5.58018E+01
 -1       779 5.61507E+01
 -1       780 5.61507E+01
 -1       781 5.60957E+01
 -1       782 5.48567E+01
 -1       783 5.16258E+01
 -1       784 4.57032E+01
 -1       785 3.71822E+01
 -1       786 4.98178E+01
 -1       787 4.67272E+01
 -1       788 4.70092E+01
 -1       789 4.71750E+01
 -1       790 4.73914E+01
 -1       791 4.76298E+01
 -1       792 4.78900E+01
 -1       793 4.81717E+01
 -1       794 4.84765E+01
 -1       795 4.88071E+01
 -1       796 4.91668E+01
 -1       797 4.95593E+01
 -1       798 4.99887E+01
 -1       799 5.04595E+01
 -1       800 5.09767E+01
 -1       801 5.15451E+01
 -1       802 5.21692E+01
 -1       803 5.28511E+01
 -1       804 5.35876E+01
 -1       805 5.43632E+01
 -1       806 5.51348E+01
 -1       807 5.58018E+01
 -1       808 5.61507E+01
 -1       809 5.61507E+01
 -1       810 5.60957E+01
 -1       811 5.48567E+01
 -1       812 5.16258E+01
 -1       813 4.57032E+01
 -1       814 3.71822E+01
 -1       815 4.98178E+01
 -1       816 4.67272E+01
 -1       817 4.70092E+01
 -1       818 4.71750E+01
 -1       819 4.73914E+01
 -1       820 4.76298E+01
 -1       821 4.78900E+01
 -1       822 4.81717E+01
 -1       823 4.84765E+01
 -1       824 4.88071E+01
 -1       825 4.91668E+01
 -1       826 4.95593E+01
 -1       827 4.99887E+01
 -1       828 5.04595E+01
 -1       829 5.09767E+01
 -1       830 5.15451E+01
 -1       831 5.21692E+01
 -1       832 5.28511E+01
 -1       833 5.35876E+01
 -1       834 5.43632E+01
 -1       835 5.51348E+01
 -1       836 5.58018E+01
 -1       837 5.61507E+01
 -1       838 5.61507E+01
 -1       839 5.60957E+01
 -1       840 5.48567E+01
 -1       841 5.16258E+01
 -1       842 4.57032E+01
 -1       843 3.71822E+01
 -1       844 4.98178E+01
 -1       845 4.67272E+01
 -1       846 4.70092E+01
 -1       847 4.71750E+01
 -1       848 4.73914E+01
 -1       849 4.76298E+01
 -1       850 4.78900E+01
 -1       851 4.81717E+01
 -1       852 4.84765E+01
 -1       853 4.88071E+01
 -1       854 4.91668E+01
 -1       855 4.95593E+01
 -1       856 4.99887E+01
 -1       857 5.04595E+01
 -1       858 5.09767E+01
 -1       859 5.15451E+01
 -1       860 5.21692E+01
 -1       861 5.28511E+01
 -1       862 5.35876E+01
 -1       863 5.43632E+01
 -1       864 5.51348E+01
 -1       865 5.58018E+01
 -1       866 5.61507E+01
 -1       867 5.61507E+01
 -1       868 5.60957E+01
 -1       869 5.48567E+01
 -1       870 5.16258E+01
 -1       871 4.57032E+01
 -1       872 3.71822E+01
 -1       873 3.71822E+01
 -1       874 4.57032E+01
 -1       875 5.16258E+01
 -1       876 5.48567E+01
 -1       877 5.60957E+01
 -1       878 5.61507E+01
 -1       879 5.61507E+01
 -1       880 5.58018E+01
 -1       881 5.51348E+01
 -1       882 5.43632E+01
 -1       883 5.35876E+01
 -1       884 5.28511E+01
 -1       885 5.21692E+01
 -1       886 5.15451E+01
 -1       887 5.09767E+01
 -1       888 5.04595E+01
 -1       889 4.99887E+01
 -1       890 4.95593E+01
 -1       891 4.91668E+01
 -1       892 4.88071E+01
 -1       893 4.84765E+01
 -1       894 4.81717E+01
 -1       895 4.78900E+01
 -1       896 4.76298E+01
 -1       897 4.73914E+01
 -1       898 4.71750E+01
 -1       899 4.70092E+01
 -1       900 4.67272E+01
 -1       901 4.98178E+01
 -1       902 4.98178E+01
 -1       903 4.67272E+01
 -1       904 4.70092E+01
 -1       905 4.71750E+01
 -1       906 4.73914E+01
 -1       907 4.76298E+01
 -1       908 4.78900E+01
 -1       909 4.81717E+01
 -1       910 4.84765E+01
 -1       911 4.88071E+01
 -1       912 4.91668E+01
 -1       913 4.95593E+01
 -1       914 4.99887E+01
 -1       915 5.04595E+01
 -1       916 5.09767E+01
 -1       917 5.15451E+01
 -1       918 5.21692E+01
 -1       919 5.28511E+01
 -1       920 5.35876E+01
 -1       921 5.43632E+01
 -1       922 5.51348E+01
 -1       923 5.58018E+01
 -1       924 5.61507E+01
 -1       925 5.61507E+01
 -1       926 5.60957E+01
 -1       927 5.48567E+01
 -1       928 5.16258E+01
 -1       929 4.57032E+01
 -1       930 3.71822E+01
 -3
    1PSTEP                         5           1           1          
    1PGM                1.000000E+00                                  
    1PGK                1.836514E+04                                  
    1PHID                         -1                                  
    1PSUBC                         0                                  
    1PMODE                         2                                  
  100CL  102 21.56836390         930                     2    2MODAL      1
 -4  DISP        4    1
 -5  D1          1    2    1    0
 -5  D2          1    2    2    0
 -5  D3          1    2    3    0
 -5  ALL         1    2    0    0    1ALL
 -1         1 0.00000E+00 0.00000E+00 0.00000E+00
 -1         2 0.00000E+00 0.00000E+00 0.00000E+00
 -1         3-2.78648E-04-1.54023E-01 3.52907E-03
 -1         4 2.78648E-04-1.54023E-01-3.52907E-03
 -1         5 0.00000E+00 0.00000E+00 0.00000E+00
 -1         6 0.00000E+00 0.00000E+00 0.00000E+00
 -1         7 2.78648E-04 1.54023E-01 3.52907E-03
 -1         8-2.78648E-04 1.54023E-01-3.52907E-03
 -1         9 0.00000E+00 0.00000E+00 0.00000E+00
 -1        10-2.72094E-04-1.65030E-01 3.52057E-03
 -1        11 0.00000E+00 0.00000E+00 0.00000E+00
 -1        12 0.00000E+00 0.00000E+00 0.00000E+00
 -1        13-5.76018E-03-1.64999E-01 7.31806E-02
 -1        14-6.07223E-03-1.54050E-01 7.31814E-02
 -1        15 0.00000E+00 0.00000E+00 0.00000E+00
 -1        16 2.72094E-04 1.65030E-01 3.52057E-03
 -1        17 0.00000E+00 0.00000E+00 0.00000E+00
 -1        18 0.00000E+00 0.00000E+00 0.00000E+00
 -1        19 6.07223E-03 1.54050E-01 7.31814E-02
 -1        20 5.76018E-03 1.64999E-01 7.31806E-02
 -1        21 0.00000E+00 0.00000E+00 0.00000E+00
 -1        22 0.00000E+00 0.00000E+00 0.00000E+00
 -1        23 5.76018E-03-1.64999E-01-7.31806E-02
 -1        24 6.07223E-03-1.54050E-01-7.31814E-02
 -1        25 0.00000E+00 0.00000E+00 0.00000E+00
 -1        26 2.72094E-04-1.65030E-01-3.52057E-03
 -1        27 0.00000E+00 0.00000E+00 0.00000E+00
 -1        28 0.00000E+00 0.00000E+00 0.00000E+00
 -1        29 0.00000E+00 0.00000E+00 0.00000E+00
 -1        30-2.72094E-04 1.65030E-01-3.52057E-03
 -1        31-5.76018E-03 1.64999E-01-7.31806E-02
 -1        32-6.07223E-03 1.54050E-01-7.31814E-02
 -1        33 2.94402E-05-3.36646E-04-8.07375E-06
 -1        34 5.97627E-05-1.38200E-03-3.31689E-05
 -1        35 8.67396E-05-3.07554E-03-7.26458E-05
 -1        36 1.11823E-04-5.36645E-03-1.25463E-04
 -1        37 1.34867E-04-8.20875E-03-1.90887E-04
 -1        38 1.55916E-04-1.15555E-02-2.67891E-04
 -1        39 1.75077E-04-1.53625E-02-3.55512E-04
 -1        40 1.92407E-04-1.95870E-02-4.52777E-04
 -1        41 2.07976E-04-2.41879E-02-5.58737E-04
 -1        42 2.21853E-04-2.91257E-02-6.72472E-04
 -1        43 2.34105E-04-3.43622E-02-7.93104E-04
 -1        44 2.44806E-04-3.98612E-02-9.19791E-04
 -1        45 2.54027E-04-4.55878E-02-1.05173E-03
 -1        46 2.61847E-04-5.15091E-02-1.18817E-03
 -1        47 2.68345E-04-5.75937E-02-1.32837E-03
 -1        48 2.73605E-04-6.38124E-02-1.47168E-03
 -1        49 2.77717E-04-7.01377E-02-1.61745E-03
 -1        50 2.80772E-04-7.65445E-02-1.76510E-03
 -1        51 2.82869E-04-8.30094E-02-1.91409E-03
 -1        52 2.84112E-04-8.95118E-02-2.06395E-03
 -1        53 2.84608E-04-9.60333E-02-2.21426E-03
 -1        54 2.84470E-04-1.02558E-01-2.36467E-03
 -1        55 2.83816E-04-1.09072E-01-2.51493E-03
 -1        56 2.82775E-04-1.15566E-01-2.66489E-03
 -1        57 2.81493E-04-1.22032E-01-2.81439E-03
 -1        58 2.80151E-04-1.28466E-01-2.96313E-03
 -1        59 2.78977E-04-1.34872E-01-3.11033E-03
 -1        60 2.78231E-04-1.41257E-01-3.25426E-03
 -1        61 2.77913E-04-1.47636E-01-3.39384E-03
 -1        62-2.94402E-05-3.36646E-04 8.07375E-06
 -1        63-5.97627E-05-1.38200E-03 3.31689E-05
 -1        64-8.67396E-05-3.07554E-03 7.26458E-05
 -1        65-1.11823E-04-5.36645E-03 1.25463E-04
 -1        66-1.34867E-04-8.20875E-03 1.90887E-04
 -1        67-1.55916E-04-1.15555E-02 2.67891E-04
 -1        68-1.75077E-04-1.53625E-02 3.55512E-04
 -1        69-1.92407E-04-1.95870E-02 4.52777E-04
 -1        70-2.07976E-04-2.41879E-02 5.58737E-04
 -1        71-2.21853E-04-2.91257E-02 6.72472E-04
 -1        72-2.34105E-04-3.43622E-02 7.93104E-04
 -1        73-2.44806E-04-3.98612E-02 9.19791E-04
 -1        74-2.54027E-04-4.55878E-02 1.05173E-03
 -1        75-2.61847E-04-5.15091E-02 1.18817E-03
 -1        76-2.68345E-04-5.75937E-02 1.32837E-03
 -1        77-2.73605E-04-6.38124E-02 1.47168E-03
 -1        78-2.77716E-04-7.01377E-02 1.61745E-03
 -1        79-2.80772E-04-7.65445E-02 1.76510E-03
 -1        80-2.82869E-04-8.30094E-02 1.91409E-03
 -1        81-2.84112E-04-8.95118E-02 2.06395E-03
 -1        82-2.84608E-04-9.60333E-02 2.21426E-03
 -1        83-2.84470E-04-1.02558E-01 2.36467E-03
 -1        84-2.83816E-04-1.09072E-01 2.51493E-03
 -1        85-2.82775E-04-1.15566E-01 2.66489E-03
 -1        86-2.81493E-04-1.22032E-01 2.81439E-03
 -1        87-2.80151E-04-1.28466E-01 2.96313E-03
 -1        88-2.78977E-04-1.34872E-01 3.11033E-03
 -1        89-2.78231E-04-1.41257E-01 3.25426E-03
 -1        90-2.77913E-04-1.47636E-01 3.39384E-03
 -1        91 0.00000E+00 0.00000E+00 0.00000E+00
 -1        92 0.00000E+00 0.00000E+00 0.00000E+00
 -1        93 0.00000E+00 0.00000E+00 0.00000E+00
 -1        94 0.00000E+00 0.00000E+00 0.00000E+00
 -1        95 0.00000E+00 0.00000E+00 0.00000E+00
 -1        96 0.00000E+00 0.00000E+00 0.00000E+00
 -1        97 2.94402E-05 3.36646E-04 8.07375E-06
 -1        98 5.97627E-05 1.38200E-03 3.31689E-05
 -1        99 8.67396E-05 3.07554E-03 7.26458E-05
 -1       100 1.11823E-04 5.36645E-03 1.25463E-04
 -1       101 1.34867E-04 8.20875E-03 1.90887E-04
 -1       102 1.55916E-04 1.15555E-02 2.67891E-04
 -1       103 1.75077E-04 1.53625E-02 3.55512E-04
 -1       104 1.92407E-04 1.95870E-02 4.52777E-04
 -1       105 2.07976E-04 2.41879E-02 5.58737E-04
 -1       106 2.21853E-04 2.91257E-02 6.72472E-04
 -1       107 2.34105E-04 3.43622E-02 7.93104E-04
 -1       108 2.44806E-04 3.98612E-02 9.19791E-04
 -1       109 2.54027E-04 4.55878E-02 1.05173E-03
 -1       110 2.61847E-04 5.15091E-02 1.18817E-03
 -1       111 2.68345E-04 5.75937E-02 1.32837E-03
 -1       112 2.73605E-04 6.38124E-02 1.47168E-03
 -1       113 2.77716E-04 7.01377E-02 1.61745E-03
 -1       114 2.80772E-04 7.65445E-02 1.76510E-03
 -1       115 2.82869E-04 8.30094E-02 1.91409E-03
 -1       116 2.84112E-04 8.95118E-02 2.06395E-03
 -1       117 2.84608E-04 9.60333E-02 2.21426E-03
 -1       118 2.84470E-04 1.02558E-01 2.36467E-03
 -1       119 2.83816E-04 1.09072E-01 2.51493E-03
 -1       120 2.82775E-04 1.15566E-01 2.66489E-03
 -1       121 2.81493E-04 1.22032E-01 2.81439E-03
 -1       122 2.80151E-04 1.28466E-01 2.96313E-03
 -1       123 2.78977E-04 1.34872E-01 3.11033E-03
 -1       124 2.78231E-04 1.41257E-01 3.25426E-03
 -1       125 2.77913E-04 1.47636E-01 3.39384E-03
 -1       126-1.40228E-04-7.71819E-02 3.55329E-03
 -1       127-2.97192E-13 6.64729E-12 3.56092E-03
 -1       128 1.40228E-04 7.71819E-02 3.55329E-03
 -1       129-2.94402E-05 3.36646E-04-8.07375E-06
 -1       130-5.97627E-05 1.38200E-03-3.31689E-05
 -1       131-8.67396E-05 3.07554E-03-7.26458E-05
 -1       132-1.11823E-04 5.36645E-03-1.25463E-04
 -1       133-1.34867E-04 8.20875E-03-1.90887E-04
 -1       134-1.55916E-04 1.15555E-02-2.67891E-04
 -1       135-1.75077E-04 1.53625E-02-3.55512E-04
 -1       136-1.92407E-04 1.95870E-02-4.52777E-04
 -1       137-2.07976E-04 2.41879E-02-5.58737E-04
 -1       138-2.21853E-04 2.91257E-02-6.72472E-04
 -1       139-2.34105E-04 3.43622E-02-7.93104E-04
 -1       140-2.44806E-04 3.98612E-02-9.19791E-04
 -1       141-2.54027E-04 4.55878E-02-1.05173E-03
 -1       142-2.61847E-04 5.15091E-02-1.18817E-03
 -1       143-2.68345E-04 5.75937E-02-1.32837E-03
 -1       144-2.73605E-04 6.38124E-02-1.47168E-03
 -1       145-2.77717E-04 7.01377E-02-1.61745E-03
 -1       146-2.80772E-04 7.65445E-02-1.76510E-03
 -1       147-2.82869E-04 8.30094E-02-1.91409E-03
 -1       148-2.84112E-04 8.95118E-02-2.06395E-03
 -1       149-2.84608E-04 9.60333E-02-2.21426E-03
 -1       150-2.84470E-04 1.02558E-01-2.36467E-03
 -1       151-2.83816E-04 1.09072E-01-2.51493E-03
 -1       152-2.82775E-04 1.15566E-01-2.66489E-03
 -1       153-2.81493E-04 1.22032E-01-2.81439E-03
 -1       154-2.80151E-04 1.28466E-01-2.96313E-03
 -1       155-2.78977E-04 1.34872E-01-3.11033E-03
 -1       156-2.78231E-04 1.41257E-01-3.25426E-03
 -1       157-2.77913E-04 1.47636E-01-3.39384E-03
 -1       158-1.40228E-04 7.71819E-02-3.55329E-03
 -1       159-2.60598E-13 6.64703E-12-3.56092E-03
 -1       160 1.40228E-04-7.71819E-02-3.55329E-03
 -1       161-2.67380E-05-3.65297E-04 8.14667E-06
 -1       162-5.67639E-05-1.49131E-03 3.39577E-05
 -1       163-8.31471E-05-3.30948E-03 7.32886E-05
 -1       164-1.07542E-04-5.76650E-03 1.26210E-04
 -1       165-1.30032E-04-8.81377E-03 1.91568E-04
 -1       166-1.50553E-04-1.24018E-02 2.68510E-04
 -1       167-1.69239E-04-1.64833E-02 3.56068E-04
 -1       168-1.86142E-04-2.10127E-02 4.53278E-04
 -1       169-2.01333E-04-2.59459E-02 5.59188E-04
 -1       170-2.14878E-04-3.12403E-02 6.72879E-04
 -1       171-2.26844E-04-3.68552E-02 7.93468E-04
 -1       172-2.37301E-04-4.27516E-02 9.20116E-04
 -1       173-2.46321E-04-4.88922E-02 1.05202E-03
 -1       174-2.53979E-04-5.52415E-02 1.18842E-03
 -1       175-2.60354E-04-6.17660E-02 1.32859E-03
 -1       176-2.65526E-04-6.84344E-02 1.47187E-03
 -1       177-2.69584E-04-7.52171E-02 1.61761E-03
 -1       178-2.72617E-04-8.20872E-02 1.76524E-03
 -1       179-2.74722E-04-8.90197E-02 1.91421E-03
 -1       180-2.75998E-04-9.59924E-02 2.06404E-03
 -1       181-2.76551E-04-1.02986E-01 2.21433E-03
 -1       182-2.76488E-04-1.09982E-01 2.36473E-03
 -1       183-2.75926E-04-1.16969E-01 2.51502E-03
 -1       184-2.74990E-04-1.23934E-01 2.66506E-03
 -1       185-2.73830E-04-1.30870E-01 2.81472E-03
 -1       186-2.72643E-04-1.37773E-01 2.96359E-03
 -1       187-2.71672E-04-1.44639E-01 3.11063E-03
 -1       188-2.71238E-04-1.51467E-01 3.25342E-03
 -1       189-2.70980E-04-1.58260E-01 3.39003E-03
 -1       190 0.00000E+00 0.00000E+00 0.00000E+00
 -1       191 0.00000E+00 0.00000E+00 0.00000E+00
 -1       192-3.00556E-03-1.65006E-01 3.84038E-02
 -1       193-5.93786E-04-4.66197E-04 1.80612E-04
 -1       194-1.20506E-03-1.57299E-03 7.24601E-04
 -1       195-1.76590E-03-3.38542E-03 1.55914E-03
 -1       196-2.28423E-03-5.83710E-03 2.66830E-03
 -1       197-2.75960E-03-8.87840E-03 4.03482E-03
 -1       198-3.19437E-03-1.24607E-02 5.64269E-03
 -1       199-3.58991E-03-1.65368E-02 7.47291E-03
 -1       200-3.94777E-03-2.10610E-02 9.50551E-03
 -1       201-4.26934E-03-2.59891E-02 1.17205E-02
 -1       202-4.55605E-03-3.12787E-02 1.40985E-02
 -1       203-4.80932E-03-3.68890E-02 1.66211E-02
 -1       204-5.03061E-03-4.27809E-02 1.92705E-02
 -1       205-5.22146E-03-4.89173E-02 2.20300E-02
 -1       206-5.38345E-03-5.52626E-02 2.48837E-02
 -1       207-5.51823E-03-6.17834E-02 2.78165E-02
 -1       208-5.62755E-03-6.84483E-02 3.08143E-02
 -1       209-5.71324E-03-7.52279E-02 3.38638E-02
 -1       210-5.77722E-03-8.20950E-02 3.69528E-02
 -1       211-5.82151E-03-8.90249E-02 4.00700E-02
 -1       212-5.84824E-03-9.59953E-02 4.32053E-02
 -1       213-5.85962E-03-1.02986E-01 4.63501E-02
 -1       214-5.85794E-03-1.09982E-01 4.94979E-02
 -1       215-5.84559E-03-1.16967E-01 5.26451E-02
 -1       216-5.82524E-03-1.23931E-01 5.57903E-02
 -1       217-5.80016E-03-1.30868E-01 5.89311E-02
 -1       218-5.77471E-03-1.37771E-01 6.20550E-02
 -1       219-5.75474E-03-1.44637E-01 6.51226E-02
 -1       220-5.74626E-03-1.51463E-01 6.80545E-02
 -1       221-5.75279E-03-1.58249E-01 7.07491E-02
 -1       222-6.43662E-04-4.36627E-04 2.15000E-04
 -1       223-1.29583E-03-1.46209E-03 7.48550E-04
 -1       224-1.89368E-03-3.14909E-03 1.58340E-03
 -1       225-2.44676E-03-5.43446E-03 2.69006E-03
 -1       226-2.95488E-03-8.27097E-03 4.05491E-03
 -1       227-3.42006E-03-1.16123E-02 5.66098E-03
 -1       228-3.84344E-03-1.54141E-02 7.48952E-03
 -1       229-4.22649E-03-1.96335E-02 9.52049E-03
 -1       230-4.57068E-03-2.42296E-02 1.17339E-02
 -1       231-4.87752E-03-2.91626E-02 1.41104E-02
 -1       232-5.14854E-03-3.43947E-02 1.66315E-02
 -1       233-5.38535E-03-3.98893E-02 1.92796E-02
 -1       234-5.58956E-03-4.56119E-02 2.20378E-02
 -1       235-5.76288E-03-5.15293E-02 2.48902E-02
 -1       236-5.90708E-03-5.76103E-02 2.78219E-02
 -1       237-6.02403E-03-6.38256E-02 3.08186E-02
 -1       238-6.11567E-03-7.01479E-02 3.38671E-02
 -1       239-6.18405E-03-7.65517E-02 3.69552E-02
 -1       240-6.23135E-03-8.30141E-02 4.00715E-02
 -1       241-6.25985E-03-8.95143E-02 4.32061E-02
 -1       242-6.27200E-03-9.60338E-02 4.63502E-02
 -1       243-6.27041E-03-1.02557E-01 4.94976E-02
 -1       244-6.25785E-03-1.09070E-01 5.26444E-02
 -1       245-6.23718E-03-1.15563E-01 5.57893E-02
 -1       246-6.21106E-03-1.22028E-01 5.89299E-02
 -1       247-6.18160E-03-1.28462E-01 6.20538E-02
 -1       248-6.14985E-03-1.34868E-01 6.51216E-02
 -1       249-6.11699E-03-1.41256E-01 6.80539E-02
 -1       250-6.08625E-03-1.47641E-01 7.07491E-02
 -1       251-3.18645E-03-1.54041E-01 3.84016E-02
 -1       252 2.70980E-04 1.58260E-01 3.39003E-03
 -1       253 2.71238E-04 1.51467E-01 3.25342E-03
 -1       254 2.71672E-04 1.44639E-01 3.11063E-03
 -1       255 2.72643E-04 1.37773E-01 2.96359E-03
 -1       256 2.73830E-04 1.30870E-01 2.81472E-03
 -1       257 2.74990E-04 1.23934E-01 2.66506E-03
 -1       258 2.75926E-04 1.16969E-01 2.51502E-03
 -1       259 2.76488E-04 1.09982E-01 2.36473E-03
 -1       260 2.76551E-04 1.02986E-01 2.21433E-03
 -1       261 2.75998E-04 9.59924E-02 2.06404E-03
 -1       262 2.74722E-04 8.90197E-02 1.91421E-03
 -1       263 2.72617E-04 8.20872E-02 1.76524E-03
 -1       264 2.69584E-04 7.52171E-02 1.61761E-03
 -1       265 2.65526E-04 6.84344E-02 1.47187E-03
 -1       266 2.60354E-04 6.17660E-02 1.32859E-03
 -1       267 2.53979E-04 5.52415E-02 1.18842E-03
 -1       268 2.46321E-04 4.88922E-02 1.05202E-03
 -1       269 2.37301E-04 4.27516E-02 9.20116E-04
 -1       270 2.26844E-04 3.68552E-02 7.93468E-04
 -1       271 2.14878E-04 3.12403E-02 6.72879E-04
 -1       272 2.01333E-04 2.59459E-02 5.59188E-04
 -1       273 1.86142E-04 2.10127E-02 4.53278E-04
 -1       274 1.69239E-04 1.64833E-02 3.56068E-04
 -1       275 1.50553E-04 1.24018E-02 2.68510E-04
 -1       276 1.30032E-04 8.81377E-03 1.91568E-04
 -1       277 1.07542E-04 5.76650E-03 1.26210E-04
 -1       278 8.31471E-05 3.30948E-03 7.32886E-05
 -1       279 5.67639E-05 1.49131E-03 3.39577E-05
 -1       280 2.67380E-05 3.65297E-04 8.14667E-06
 -1       281 0.00000E+00 0.00000E+00 0.00000E+00
 -1       282 0.00000E+00 0.00000E+00 0.00000E+00
 -1       283 6.43662E-04 4.36627E-04 2.15000E-04
 -1       284 1.29583E-03 1.46209E-03 7.48550E-04
 -1       285 1.89368E-03 3.14909E-03 1.58340E-03
 -1       286 2.44676E-03 5.43446E-03 2.69006E-03
 -1       287 2.95488E-03 8.27097E-03 4.05491E-03
 -1       288 3.42006E-03 1.16123E-02 5.66098E-03
 -1       289 3.84344E-03 1.54141E-02 7.48952E-03
 -1       290 4.22649E-03 1.96335E-02 9.52049E-03
 -1       291 4.57068E-03 2.42296E-02 1.17339E-02
 -1       292 4.87752E-03 2.91626E-02 1.41104E-02
 -1       293 5.14854E-03 3.43947E-02 1.66315E-02
 -1       294 5.38535E-03 3.98893E-02 1.92796E-02
 -1       295 5.58956E-03 4.56119E-02 2.20378E-02
 -1       296 5.76288E-03 5.15293E-02 2.48902E-02
 -1       297 5.90708E-03 5.76103E-02 2.78219E-02
 -1       298 6.02403E-03 6.38256E-02 3.08186E-02
 -1       299 6.11567E-03 7.01479E-02 3.38671E-02
 -1       300 6.18405E-03 7.65517E-02 3.69552E-02
 -1       301 6.23135E-03 8.30141E-02 4.00715E-02
 -1       302 6.25985E-03 8.95143E-02 4.32061E-02
 -1       303 6.27200E-03 9.60338E-02 4.63502E-02
 -1       304 6.27041E-03 1.02557E-01 4.94976E-02
 -1       305 6.25785E-03 1.09070E-01 5.26444E-02
 -1       306 6.23718E-03 1.15563E-01 5.57893E-02
 -1       307 6.21106E-03 1.22028E-01 5.89299E-02
 -1       308 6.18160E-03 1.28462E-01 6.20538E-02
 -1       309 6.14985E-03 1.34868E-01 6.51216E-02
 -1       310 6.11699E-03 1.41256E-01 6.80539E-02
 -1       311 6.08625E-03 1.47641E-01 7.07491E-02
 -1       312 3.18645E-03 1.54041E-01 3.84016E-02
 -1       313 5.93786E-04 4.66197E-04 1.80612E-04
 -1       314 1.20506E-03 1.57299E-03 7.24601E-04
 -1       315 1.76590E-03 3.38542E-03 1.55914E-03
 -1       316 2.28423E-03 5.83710E-03 2.66830E-03
 -1       317 2.75960E-03 8.87840E-03 4.03482E-03
 -1       318 3.19437E-03 1.24607E-02 5.64269E-03
 -1       319 3.58991E-03 1.65368E-02 7.47291E-03
 -1       320 3.94777E-03 2.10610E-02 9.50551E-03
 -1       321 4.26934E-03 2.59891E-02 1.17205E-02
 -1       322 4.55605E-03 3.12787E-02 1.40985E-02
 -1       323 4.80932E-03 3.68890E-02 1.66211E-02
 -1       324 5.03061E-03 4.27809E-02 1.92705E-02
 -1       325 5.22146E-03 4.89173E-02 2.20300E-02
 -1       326 5.38345E-03 5.52626E-02 2.48837E-02
 -1       327 5.51823E-03 6.17834E-02 2.78165E-02
 -1       328 5.62755E-03 6.84483E-02 3.08143E-02
 -1       329 5.71324E-03 7.52279E-02 3.38638E-02
 -1       330 5.77722E-03 8.20950E-02 3.69528E-02
 -1       331 5.82151E-03 8.90249E-02 4.00700E-02
 -1       332 5.84824E-03 9.59953E-02 4.32053E-02
 -1       333 5.85962E-03 1.02986E-01 4.63501E-02
 -1       334 5.85794E-03 1.09982E-01 4.94979E-02
 -1       335 5.84559E-03 1.16967E-01 5.26451E-02
 -1       336 5.82524E-03 1.23931E-01 5.57903E-02
 -1       337 5.80016E-03 1.30868E-01 5.89311E-02
 -1       338 5.77471E-03 1.37771E-01 6.20550E-02
 -1       339 5.75474E-03 1.44637E-01 6.51226E-02
 -1       340 5.74626E-03 1.51463E-01 6.80545E-02
 -1       341 5.75279E-03 1.58249E-01 7.07491E-02
 -1       342 3.00556E-03 1.65006E-01 3.84038E-02
 -1       343 5.93786E-04-4.66197E-04-1.80612E-04
 -1       344 1.20506E-03-1.57299E-03-7.24601E-04
 -1       345 1.76590E-03-3.38542E-03-1.55914E-03
 -1       346 2.28423E-03-5.83710E-03-2.66830E-03
 -1       347 2.75960E-03-8.87840E-03-4.03482E-03
 -1       348 3.19437E-03-1.24607E-02-5.64269E-03
 -1       349 3.58991E-03-1.65368E-02-7.47291E-03
 -1       350 3.94777E-03-2.10610E-02-9.50551E-03
 -1       351 4.26934E-03-2.59891E-02-1.17205E-02
 -1       352 4.55605E-03-3.12787E-02-1.40985E-02
 -1       353 4.80932E-03-3.68890E-02-1.66211E-02
 -1       354 5.03061E-03-4.27809E-02-1.92705E-02
 -1       355 5.22146E-03-4.89173E-02-2.20300E-02
 -1       356 5.38345E-03-5.52626E-02-2.48837E-02
 -1       357 5.51823E-03-6.17834E-02-2.78165E-02
 -1       358 5.62755E-03-6.84483E-02-3.08143E-02
 -1       359 5.71324E-03-7.52279E-02-3.38638E-02
 -1       360 5.77722E-03-8.20950E-02-3.69528E-02
 -1       361 5.82151E-03-8.90249E-02-4.00700E-02
 -1       362 5.84824E-03-9.59953E-02-4.32053E-02
 -1       363 5.85962E-03-1.02986E-01-4.63501E-02
 -1       364 5.85794E-03-1.09982E-01-4.94979E-02
 -1       365 5.84559E-03-1.16967E-01-5.26451E-02
 -1       366 5.82524E-03-1.23931E-01-5.57903E-02
 -1       367 5.80016E-03-1.30868E-01-5.89311E-02
 -1       368 5.77471E-03-1.37771E-01-6.20550E-02
 -1       369 5.75474E-03-1.44637E-01-6.51226E-02
 -1       370 5.74626E-03-1.51463E-01-6.80545E-02
 -1       371 5.75279E-03-1.58249E-01-7.07491E-02
 -1       372 6.43662E-04-4.36627E-04-2.15000E-04
 -1       373 1.29583E-03-1.46209E-03-7.48550E-04
 -1       374 1.89368E-03-3.14909E-03-1.58340E-03
 -1       375 2.44676E-03-5.43446E-03-2.69006E-03
 -1       376 2.95488E-03-8.27097E-03-4.05491E-03
 -1       377 3.42006E-03-1.16123E-02-5.66098E-03
 -1       378 3.84344E-03-1.54141E-02-7.48952E-03
 -1       379 4.22649E-03-1.96335E-02-9.52049E-03
 -1       380 4.57068E-03-2.42296E-02-1.17339E-02
 -1       381 4.87752E-03-2.91626E-02-1.41104E-02
 -1       382 5.14854E-03-3.43947E-02-1.66315E-02
 -1       383 5.38535E-03-3.98893E-02-1.92796E-02
 -1       384 5.58956E-03-4.56119E-02-2.20378E-02
 -1       385 5.76288E-03-5.15293E-02-2.48902E-02
 -1       386 5.90708E-03-5.76103E-02-2.78219E-02
 -1       387 6.02403E-03-6.38256E-02-3.08186E-02
 -1       388 6.11567E-03-7.01479E-02-3.38671E-02
 -1       389 6.18405E-03-7.65517E-02-3.69552E-02
 -1       390 6.23135E-03-8.30141E-02-4.00715E-02
 -1       391 6.25985E-03-8.95143E-02-4.32061E-02
 -1       392 6.27200E-03-9.60338E-02-4.63502E-02
 -1       393 6.27041E-03-1.02557E-01-4.94976E-02
 -1       394 6.25785E-03-1.09070E-01-5.26444E-02
 -1       395 6.23718E-03-1.15563E-01-5.57893E-02
 -1       396 6.21106E-03-1.22028E-01-5.89299E-02
 -1       397 6.18160E-03-1.28462E-01-6.20538E-02
 -1       398 6.14985E-03-1.34868E-01-6.51216E-02
 -1       399 6.11699E-03-1.41256E-01-6.80539E-02
 -1       400 6.08625E-03-1.47641E-01-7.07491E-02
 -1       401 0.00000E+00 0.00000E+00 0.00000E+00
 -1       402 0.00000E+00 0.00000E+00 0.00000E+00
 -1       403 3.00556E-03-1.65006E-01-3.84038E-02
 -1       404 2.67380E-05-3.65297E-04-8.14667E-06
 -1       405 5.67639E-05-1.49131E-03-3.39577E-05
 -1       406 8.31471E-05-3.30948E-03-7.32886E-05
 -1       407 1.07542E-04-5.76650E-03-1.26210E-04
 -1       408 1.30032E-04-8.81377E-03-1.91568E-04
 -1       409 1.50553E-04-1.24018E-02-2.68510E-04
 -1       410 1.69239E-04-1.64833E-02-3.56068E-04
 -1       411 1.86142E-04-2.10127E-02-4.53278E-04
 -1       412 2.01333E-04-2.59459E-02-5.59188E-04
 -1       413 2.14878E-04-3.12403E-02-6.72879E-04
 -1       414 2.26844E-04-3.68552E-02-7.93468E-04
 -1       415 2.37301E-04-4.27516E-02-9.20116E-04
 -1       416 2.46321E-04-4.88922E-02-1.05202E-03
 -1       417 2.53979E-04-5.52415E-02-1.18842E-03
 -1       418 2.60354E-04-6.17660E-02-1.32859E-03
 -1       419 2.65526E-04-6.84344E-02-1.47187E-03
 -1       420 2.69584E-04-7.52171E-02-1.61761E-03
 -1       421 2.72617E-04-8.20872E-02-1.76524E-03
 -1       422 2.74722E-04-8.90197E-02-1.91421E-03
 -1       423 2.75998E-04-9.59924E-02-2.06404E-03
 -1       424 2.76551E-04-1.02986E-01-2.21433E-03
 -1       425 2.76488E-04-1.09982E-01-2.36473E-03
 -1       426 2.75926E-04-1.16969E-01-2.51502E-03
 -1       427 2.74990E-04-1.23934E-01-2.66506E-03
 -1       428 2.73830E-04-1.30870E-01-2.81472E-03
 -1       429 2.72643E-04-1.37773E-01-2.96359E-03
 -1       430 2.71672E-04-1.44639E-01-3.11063E-03
 -1       431 2.71238E-04-1.51467E-01-3.25342E-03
 -1       432 2.70980E-04-1.58260E-01-3.39003E-03
 -1       433 3.18645E-03-1.54041E-01-3.84016E-02
 -1       434 0.00000E+00 0.00000E+00 0.00000E+00
 -1       435 0.00000E+00 0.00000E+00 0.00000E+00
 -1       436-2.70980E-04 1.58260E-01-3.39003E-03
 -1       437-2.71238E-04 1.51467E-01-3.25342E-03
 -1       438-2.71672E-04 1.44639E-01-3.11063E-03
 -1       439-2.72643E-04 1.37773E-01-2.96359E-03
 -1       440-2.73830E-04 1.30870E-01-2.81472E-03
 -1       441-2.74990E-04 1.23934E-01-2.66506E-03
 -1       442-2.75926E-04 1.16969E-01-2.51502E-03
 -1       443-2.76488E-04 1.09982E-01-2.36473E-03
 -1       444-2.76551E-04 1.02986E-01-2.21433E-03
 -1       445-2.75998E-04 9.59924E-02-2.06404E-03
 -1       446-2.74722E-04 8.90197E-02-1.91421E-03
 -1       447-2.72617E-04 8.20872E-02-1.76524E-03
 -1       448-2.69584E-04 7.52171E-02-1.61761E-03
 -1       449-2.65526E-04 6.84344E-02-1.47187E-03
 -1       450-2.60354E-04 6.17660E-02-1.32859E-03
 -1       451-2.53979E-04 5.52415E-02-1.18842E-03
 -1       452-2.46321E-04 4.88922E-02-1.05202E-03
 -1       453-2.37301E-04 4.27516E-02-9.20116E-04
 -1       454-2.26844E-04 3.68552E-02-7.93468E-04
 -1       455-2.14878E-04 3.12403E-02-6.72879E-04
 -1       456-2.01333E-04 2.59459E-02-5.59188E-04
 -1       457-1.86142E-04 2.10127E-02-4.53278E-04
 -1       458-1.69239E-04 1.64833E-02-3.56068E-04
 -1       459-1.50553E-04 1.24018E-02-2.68510E-04
 -1       460-1.30032E-04 8.81377E-03-1.91568E-04
 -1       461-1.07542E-04 5.76650E-03-1.26210E-04
 -1       462-8.31471E-05 3.30948E-03-7.32886E-05
 -1       463-5.67639E-05 1.49131E-03-3.39577E-05
 -1       464-2.67380E-05 3.65297E-04-8.14667E-06
 -1       465-3.00556E-03 1.65006E-01-3.84038E-02
 -1       466-5.93786E-04 4.66197E-04-1.80612E-04
 -1       467-1.20506E-03 1.57299E-03-7.24601E-04
 -1       468-1.76590E-03 3.38542E-03-1.55914E-03
 -1       469-2.28423E-03 5.83710E-03-2.66830E-03
 -1       470-2.75960E-03 8.87840E-03-4.03482E-03
 -1       471-3.19437E-03 1.24607E-02-5.64269E-03
 -1       472-3.58991E-03 1.65368E-02-7.47291E-03
 -1       473-3.94777E-03 2.10610E-02-9.50551E-03
 -1       474-4.26934E-03 2.59891E-02-1.17205E-02
 -1       475-4.55605E-03 3.12787E-02-1.40985E-02
 -1       476-4.80932E-03 3.68890E-02-1.66211E-02
 -1       477-5.03061E-03 4.27809E-02-1.92705E-02
 -1       478-5.22146E-03 4.89173E-02-2.20300E-02
 -1       479-5.38345E-03 5.52626E-02-2.48837E-02
 -1       480-5.51823E-03 6.17834E-02-2.78165E-02
 -1       481-5.62755E-03 6.84483E-02-3.08143E-02
 -1       482-5.71324E-03 7.52279E-02-3.38638E-02
 -1       483-5.77722E-03 8.20950E-02-3.69528E-02
 -1       484-5.82151E-03 8.90249E-02-4.00700E-02
 -1       485-5.84824E-03 9.59953E-02-4.32053E-02
 -1       486-5.85962E-03 1.02986E-01-4.63501E-02
 -1       487-5.85794E-03 1.09982E-01-4.94979E-02
 -1       488-5.84559E-03 1.16967E-01-5.26451E-02
 -1       489-5.82524E-03 1.23931E-01-5.57903E-02
 -1       490-5.80016E-03 1.30868E-01-5.89311E-02
 -1       491-5.77471E-03 1.37771E-01-6.20550E-02
 -1       492-5.75474E-03 1.44637E-01-6.51226E-02
 -1       493-5.74626E-03 1.51463E-01-6.80545E-02
 -1       494-5.75279E-03 1.58249E-01-7.07491E-02
 -1       495-6.43662E-04 4.36627E-04-2.15000E-04
 -1       496-1.29583E-03 1.46209E-03-7.48550E-04
 -1       497-1.89368E-03 3.14909E-03-1.58340E-03
 -1       498-2.44676E-03 5.43446E-03-2.69006E-03
 -1       499-2.95488E-03 8.27097E-03-4.05491E-03
 -1       500-3.42006E-03 1.16123E-02-5.66098E-03
 -1       501-3.84344E-03 1.54141E-02-7.48952E-03
 -1       502-4.22649E-03 1.96335E-02-9.52049E-03
 -1       503-4.57068E-03 2.42296E-02-1.17339E-02
 -1       504-4.87752E-03 2.91626E-02-1.41104E-02
 -1       505-5.14854E-03 3.43947E-02-1.66315E-02
 -1       506-5.38535E-03 3.98893E-02-1.92796E-02
 -1       507-5.58956E-03 4.56119E-02-2.20378E-02
 -1       508-5.76288E-03 5.15293E-02-2.48902E-02
 -1       509-5.90708E-03 5.76103E-02-2.78219E-02
 -1       510-6.02403E-03 6.38256E-02-3.08186E-02
 -1       511-6.11567E-03 7.01479E-02-3.38671E-02
 -1       512-6.18405E-03 7.65517E-02-3.69552E-02
 -1       513-6.23135E-03 8.30141E-02-4.00715E-02
 -1       514-6.25985E-03 8.95143E-02-4.32061E-02
 -1       515-6.27200E-03 9.60338E-02-4.63502E-02
 -1       516-6.27041E-03 1.02557E-01-4.94976E-02
 -1       517-6.25785E-03 1.09070E-01-5.26444E-02
 -1       518-6.23718E-03 1.15563E-01-5.57893E-02
 -1       519-6.21106E-03 1.22028E-01-5.89299E-02
 -1       520-6.18160E-03 1.28462E-01-6.20538E-02
 -1       521-6.14985E-03 1.34868E-01-6.51216E-02
 -1       522-6.11699E-03 1.41256E-01-6.80539E-02
 -1       523-6.08625E-03 1.47641E-01-7.07491E-02
 -1       524-3.18645E-03 1.54041E-01-3.84016E-02
 -1       525-1.47128E-05-1.69993E-04 7.70074E-06
 -1       526-2.91557E-05-6.80697E-04 3.17370E-05
 -1       527-4.27825E-05-1.52349E-03 7.07398E-05
 -1       528-5.51035E-05-2.66937E-03 1.23549E-04
 -1       529-6.63730E-05-4.09139E-03 1.89093E-04
 -1       530-7.66657E-05-5.76606E-03 2.66274E-04
 -1       531-8.60160E-05-7.67084E-03 3.54065E-04
 -1       532-9.44711E-05-9.78422E-03 4.51480E-04
 -1       533-1.02067E-04-1.20857E-02 5.57572E-04
 -1       534-1.08837E-04-1.45554E-02 6.71429E-04
 -1       535-1.14813E-04-1.71746E-02 7.92174E-04
 -1       536-1.20030E-04-1.99249E-02 9.18970E-04
 -1       537-1.24524E-04-2.27890E-02 1.05101E-03
 -1       538-1.28330E-04-2.57503E-02 1.18754E-03
 -1       539-1.31490E-04-2.87934E-02 1.32784E-03
 -1       540-1.34043E-04-3.19033E-02 1.47123E-03
 -1       541-1.36035E-04-3.50666E-02 1.61707E-03
 -1       542-1.37509E-04-3.82705E-02 1.76479E-03
 -1       543-1.38515E-04-4.15036E-02 1.91386E-03
 -1       544-1.39102E-04-4.47553E-02 2.06379E-03
 -1       545-1.39317E-04-4.80165E-02 2.21415E-03
 -1       546-1.39205E-04-5.12790E-02 2.36459E-03
 -1       547-1.38811E-04-5.45358E-02 2.51478E-03
 -1       548-1.38195E-04-5.77808E-02 2.66447E-03
 -1       549-1.37471E-04-6.10100E-02 2.81350E-03
 -1       550-1.36915E-04-6.42237E-02 2.96181E-03
 -1       551-1.37029E-04-6.74309E-02 3.10955E-03
 -1       552-1.38139E-04-7.06518E-02 3.25707E-03
 -1       553-1.39621E-04-7.39043E-02 3.40529E-03
 -1       554-4.93883E-15 9.50964E-14 7.97034E-06
 -1       555-7.71310E-15 3.91250E-13 3.12639E-05
 -1       556-1.40369E-14 8.93516E-13 7.00592E-05
 -1       557-2.74600E-14 1.56818E-12 1.22908E-04
 -1       558-4.22395E-14 2.35903E-12 1.88492E-04
 -1       559-5.65498E-14 3.22157E-12 2.65734E-04
 -1       560-6.87571E-14 4.11578E-12 3.53585E-04
 -1       561-8.08679E-14 5.04148E-12 4.51055E-04
 -1       562-1.00286E-13 5.97815E-12 5.57194E-04
 -1       563-1.22951E-13 6.85953E-12 6.71095E-04
 -1       564-1.42832E-13 7.63914E-12 7.91882E-04
 -1       565-1.58122E-13 8.29804E-12 9.18716E-04
 -1       566-1.70425E-13 8.81345E-12 1.05080E-03
 -1       567-1.83028E-13 9.19934E-12 1.18736E-03
 -1       568-1.95251E-13 9.50432E-12 1.32770E-03
 -1       569-2.04649E-13 9.75470E-12 1.47111E-03
 -1       570-2.14461E-13 9.92540E-12 1.61699E-03
 -1       571-2.24088E-13 9.98602E-12 1.76474E-03
 -1       572-2.32000E-13 9.94633E-12 1.91383E-03
 -1       573-2.40196E-13 9.83464E-12 2.06378E-03
 -1       574-2.53109E-13 9.67411E-12 2.21417E-03
 -1       575-2.66475E-13 9.48015E-12 2.36462E-03
 -1       576-2.78859E-13 9.24884E-12 2.51479E-03
 -1       577-2.88710E-13 8.97204E-12 2.66439E-03
 -1       578-2.94579E-13 8.66248E-12 2.81325E-03
 -1       579-2.96049E-13 8.32023E-12 2.96137E-03
 -1       580-2.93535E-13 7.93575E-12 3.10937E-03
 -1       581-2.92162E-13 7.51496E-12 3.25830E-03
 -1       582-2.94126E-13 7.07604E-12 3.40946E-03
 -1       583 1.47128E-05 1.69993E-04 7.70074E-06
 -1       584 2.91557E-05 6.80697E-04 3.17370E-05
 -1       585 4.27825E-05 1.52349E-03 7.07398E-05
 -1       586 5.51035E-05 2.66937E-03 1.23549E-04
 -1       587 6.63730E-05 4.09139E-03 1.89093E-04
 -1       588 7.66657E-05 5.76606E-03 2.66274E-04
 -1       589 8.60160E-05 7.67084E-03 3.54065E-04
 -1       590 9.44711E-05 9.78422E-03 4.51480E-04
 -1       591 1.02067E-04 1.20857E-02 5.57572E-04
 -1       592 1.08837E-04 1.45554E-02 6.71429E-04
 -1       593 1.14813E-04 1.71746E-02 7.92174E-04
 -1       594 1.20030E-04 1.99249E-02 9.18970E-04
 -1       595 1.24524E-04 2.27890E-02 1.05101E-03
 -1       596 1.28330E-04 2.57503E-02 1.18754E-03
 -1       597 1.31490E-04 2.87934E-02 1.32784E-03
 -1       598 1.34043E-04 3.19033E-02 1.47123E-03
 -1       599 1.36035E-04 3.50666E-02 1.61707E-03
 -1       600 1.37509E-04 3.82705E-02 1.76479E-03
 -1       601 1.38515E-04 4.15036E-02 1.91386E-03
 -1       602 1.39102E-04 4.47553E-02 2.06379E-03
 -1       603 1.39317E-04 4.80165E-02 2.21415E-03
 -1       604 1.39205E-04 5.12790E-02 2.36459E-03
 -1       605 1.38811E-04 5.45358E-02 2.51478E-03
 -1       606 1.38195E-04 5.77808E-02 2.66447E-03
 -1       607 1.37471E-04 6.10100E-02 2.81350E-03
 -1       608 1.36915E-04 6.42237E-02 2.96181E-03
 -1       609 1.37029E-04 6.74309E-02 3.10955E-03
 -1       610 1.38139E-04 7.06518E-02 3.25707E-03
 -1       611 1.39621E-04 7.39043E-02 3.40529E-03
 -1       612-1.47128E-05 1.69993E-04-7.70074E-06
 -1       613-2.91557E-05 6.80697E-04-3.17370E-05
 -1       614-4.27825E-05 1.52349E-03-7.07398E-05
 -1       615-5.51035E-05 2.66937E-03-1.23549E-04
 -1       616-6.63730E-05 4.09139E-03-1.89093E-04
 -1       617-7.66657E-05 5.76606E-03-2.66274E-04
 -1       618-8.60161E-05 7.67084E-03-3.54065E-04
 -1       619-9.44711E-05 9.78422E-03-4.51480E-04
 -1       620-1.02067E-04 1.20857E-02-5.57572E-04
 -1       621-1.08837E-04 1.45554E-02-6.71429E-04
 -1       622-1.14813E-04 1.71746E-02-7.92174E-04
 -1       623-1.20030E-04 1.99249E-02-9.18970E-04
 -1       624-1.24524E-04 2.27890E-02-1.05101E-03
 -1       625-1.28330E-04 2.57503E-02-1.18754E-03
 -1       626-1.31490E-04 2.87934E-02-1.32784E-03
 -1       627-1.34043E-04 3.19033E-02-1.47123E-03
 -1       628-1.36035E-04 3.50666E-02-1.61707E-03
 -1       629-1.37509E-04 3.82705E-02-1.76479E-03
 -1       630-1.38515E-04 4.15036E-02-1.91386E-03
 -1       631-1.39102E-04 4.47553E-02-2.06379E-03
 -1       632-1.39317E-04 4.80165E-02-2.21415E-03
 -1       633-1.39205E-04 5.12790E-02-2.36459E-03
 -1       634-1.38811E-04 5.45358E-02-2.51478E-03
 -1       635-1.38195E-04 5.77808E-02-2.66447E-03
 -1       636-1.37471E-04 6.10100E-02-2.81350E-03
 -1       637-1.36915E-04 6.42237E-02-2.96181E-03
 -1       638-1.37029E-04 6.74309E-02-3.10955E-03
 -1       639-1.38139E-04 7.06518E-02-3.25707E-03
 -1       640-1.39621E-04 7.39043E-02-3.40529E-03
 -1       641-2.14744E-14 9.56723E-14-7.97034E-06
 -1       642-4.21438E-14 3.91698E-13-3.12639E-05
 -1       643-6.52831E-14 8.94235E-13-7.00592E-05
 -1       644-9.10838E-14 1.56886E-12-1.22908E-04
 -1       645-1.13905E-13 2.35952E-12-1.88492E-04
 -1       646-1.32238E-13 3.22203E-12-2.65734E-04
 -1       647-1.46877E-13 4.11615E-12-3.53585E-04
 -1       648-1.61545E-13 5.04191E-12-4.51055E-04
 -1       649-1.79296E-13 5.97848E-12-5.57194E-04
 -1       650-1.94669E-13 6.85989E-12-6.71095E-04
 -1       651-2.04926E-13 7.63937E-12-7.91882E-04
 -1       652-2.08749E-13 8.29824E-12-9.18716E-04
 -1       653-2.08651E-13 8.81368E-12-1.05080E-03
 -1       654-2.12127E-13 9.19952E-12-1.18736E-03
 -1       655-2.19158E-13 9.50456E-12-1.32770E-03
 -1       656-2.23322E-13 9.75490E-12-1.47111E-03
 -1       657-2.24603E-13 9.92556E-12-1.61699E-03
 -1       658-2.24697E-13 9.98620E-12-1.76474E-03
 -1       659-2.25143E-13 9.94650E-12-1.91383E-03
 -1       660-2.28213E-13 9.83477E-12-2.06378E-03
 -1       661-2.37820E-13 9.67428E-12-2.21417E-03
 -1       662-2.48397E-13 9.48030E-12-2.36462E-03
 -1       663-2.56970E-13 9.24900E-12-2.51479E-03
 -1       664-2.63379E-13 8.97216E-12-2.66439E-03
 -1       665-2.66674E-13 8.66256E-12-2.81325E-03
 -1       666-2.64846E-13 8.32024E-12-2.96137E-03
 -1       667-2.58764E-13 7.93565E-12-3.10937E-03
 -1       668-2.54818E-13 7.51495E-12-3.25830E-03
 -1       669-2.56652E-13 7.07587E-12-3.40946E-03
 -1       670 1.47128E-05-1.69993E-04-7.70074E-06
 -1       671 2.91557E-05-6.80697E-04-3.17370E-05
 -1       672 4.27825E-05-1.52349E-03-7.07398E-05
 -1       673 5.51035E-05-2.66937E-03-1.23549E-04
 -1       674 6.63730E-05-4.09139E-03-1.89093E-04
 -1       675 7.66657E-05-5.76606E-03-2.66274E-04
 -1       676 8.60160E-05-7.67084E-03-3.54065E-04
 -1       677 9.44711E-05-9.78422E-03-4.51480E-04
 -1       678 1.02067E-04-1.20857E-02-5.57572E-04
 -1       679 1.08837E-04-1.45554E-02-6.71429E-04
 -1       680 1.14813E-04-1.71746E-02-7.92174E-04
 -1       681 1.20030E-04-1.99249E-02-9.18970E-04
 -1       682 1.24524E-04-2.27890E-02-1.05101E-03
 -1       683 1.28330E-04-2.57503E-02-1.18754E-03
 -1       684 1.31490E-04-2.87934E-02-1.32784E-03
 -1       685 1.34043E-04-3.19033E-02-1.47123E-03
 -1       686 1.36035E-04-3.50666E-02-1.61707E-03
 -1       687 1.37509E-04-3.82705E-02-1.76479E-03
 -1       688 1.38515E-04-4.15036E-02-1.91386E-03
 -1       689 1.39102E-04-4.47553E-02-2.06379E-03
 -1       690 1.39317E-04-4.80165E-02-2.21415E-03
 -1       691 1.39205E-04-5.12790E-02-2.36459E-03
 -1       692 1.38811E-04-5.45358E-02-2.51478E-03
 -1       693 1.38195E-04-5.77808E-02-2.66447E-03
 -1       694 1.37471E-04-6.10100E-02-2.81350E-03
 -1       695 1.36915E-04-6.42237E-02-2.96181E-03
 -1       696 1.37029E-04-6.74309E-02-3.10955E-03
 -1       697 1.38139E-04-7.06518E-02-3.25707E-03
 -1       698 1.39621E-04-7.39043E-02-3.40529E-03
 -1       699-2.96552E-04-3.93369E-04 9.35188E-05
 -1       700-6.26009E-04-1.51630E-03 3.77539E-04
 -1       701-9.17161E-04-3.33184E-03 8.14238E-04
 -1       702-1.18793E-03-5.78778E-03 1.39498E-03
 -1       703-1.43633E-03-8.83320E-03 2.11111E-03
 -1       704-1.66342E-03-1.24195E-02 2.95371E-03
 -1       705-1.87006E-03-1.64994E-02 3.91280E-03
 -1       706-2.05703E-03-2.10272E-02 4.97787E-03
 -1       707-2.22505E-03-2.59589E-02 6.13847E-03
 -1       708-2.37488E-03-3.12519E-02 7.38446E-03
 -1       709-2.50725E-03-3.68654E-02 8.70614E-03
 -1       710-2.62294E-03-4.27605E-02 1.00943E-02
 -1       711-2.72273E-03-4.88997E-02 1.15401E-02
 -1       712-2.80747E-03-5.52479E-02 1.30353E-02
 -1       713-2.87802E-03-6.17713E-02 1.45718E-02
 -1       714-2.93529E-03-6.84386E-02 1.61425E-02
 -1       715-2.98022E-03-7.52204E-02 1.77402E-02
 -1       716-3.01384E-03-8.20896E-02 1.93585E-02
 -1       717-3.03719E-03-8.90214E-02 2.09917E-02
 -1       718-3.05138E-03-9.59934E-02 2.26343E-02
 -1       719-3.05757E-03-1.02986E-01 2.42819E-02
 -1       720-3.05695E-03-1.09982E-01 2.59311E-02
 -1       721-3.05079E-03-1.16968E-01 2.75797E-02
 -1       722-3.04046E-03-1.23934E-01 2.92270E-02
 -1       723-3.02770E-03-1.30870E-01 3.08716E-02
 -1       724-3.01481E-03-1.37773E-01 3.25073E-02
 -1       725-3.00480E-03-1.44639E-01 3.41154E-02
 -1       726-3.00118E-03-1.51464E-01 3.56568E-02
 -1       727-3.00401E-03-1.58250E-01 3.70810E-02
 -1       728-3.23367E-04-3.62705E-04 1.10615E-04
 -1       729-6.75791E-04-1.40502E-03 3.89847E-04
 -1       730-9.87457E-04-3.09517E-03 8.26271E-04
 -1       731-1.27755E-03-5.38495E-03 1.40599E-03
 -1       732-1.54414E-03-8.22557E-03 2.12122E-03
 -1       733-1.78809E-03-1.15709E-02 2.96293E-03
 -1       734-2.01016E-03-1.53765E-02 3.92116E-03
 -1       735-2.21109E-03-1.95996E-02 4.98541E-03
 -1       736-2.39165E-03-2.41992E-02 6.14522E-03
 -1       737-2.55263E-03-2.91357E-02 7.39045E-03
 -1       738-2.69486E-03-3.43710E-02 8.71142E-03
 -1       739-2.81915E-03-3.98688E-02 1.00989E-02
 -1       740-2.92636E-03-4.55943E-02 1.15440E-02
 -1       741-3.01739E-03-5.15145E-02 1.30386E-02
 -1       742-3.09317E-03-5.75982E-02 1.45746E-02
 -1       743-3.15468E-03-6.38159E-02 1.61446E-02
 -1       744-3.20293E-03-7.01404E-02 1.77418E-02
 -1       745-3.23900E-03-7.65464E-02 1.93598E-02
 -1       746-3.26403E-03-8.30106E-02 2.09925E-02
 -1       747-3.27923E-03-8.95124E-02 2.26347E-02
 -1       748-3.28587E-03-9.60334E-02 2.42820E-02
 -1       749-3.28531E-03-1.02558E-01 2.59309E-02
 -1       750-3.27902E-03-1.09072E-01 2.75794E-02
 -1       751-3.26850E-03-1.15565E-01 2.92265E-02
 -1       752-3.25516E-03-1.22030E-01 3.08711E-02
 -1       753-3.24013E-03-1.28465E-01 3.25069E-02
 -1       754-3.22414E-03-1.34870E-01 3.41150E-02
 -1       755-3.20736E-03-1.41257E-01 3.56563E-02
 -1       756-3.19244E-03-1.47641E-01 3.70800E-02
 -1       757 3.23367E-04 3.62705E-04 1.10615E-04
 -1       758 6.75791E-04 1.40502E-03 3.89847E-04
 -1       759 9.87457E-04 3.09517E-03 8.26271E-04
 -1       760 1.27755E-03 5.38495E-03 1.40599E-03
 -1       761 1.54414E-03 8.22557E-03 2.12122E-03
 -1       762 1.78809E-03 1.15709E-02 2.96293E-03
 -1       763 2.01016E-03 1.53765E-02 3.92116E-03
 -1       764 2.21109E-03 1.95996E-02 4.98541E-03
 -1       765 2.39165E-03 2.41992E-02 6.14522E-03
 -1       766 2.55263E-03 2.91357E-02 7.39045E-03
 -1       767 2.69486E-03 3.43710E-02 8.71142E-03
 -1       768 2.81915E-03 3.98688E-02 1.00989E-02
 -1       769 2.92636E-03 4.55943E-02 1.15440E-02
 -1       770 3.01739E-03 5.15145E-02 1.30386E-02
 -1       771 3.09317E-03 5.75982E-02 1.45746E-02
 -1       772 3.15468E-03 6.38159E-02 1.61446E-02
 -1       773 3.20293E-03 7.01404E-02 1.77418E-02
 -1       774 3.23900E-03 7.65464E-02 1.93598E-02
 -1       775 3.26403E-03 8.30106E-02 2.09925E-02
 -1       776 3.27923E-03 8.95124E-02 2.26347E-02
 -1       777 3.28587E-03 9.60334E-02 2.42820E-02
 -1       778 3.28531E-03 1.02558E-01 2.59309E-02
 -1       779 3.27902E-03 1.09072E-01 2.75794E-02
 -1       780 3.26850E-03 1.15565E-01 2.92265E-02
 -1       781 3.25516E-03 1.22030E-01 3.08711E-02
 -1       782 3.24013E-03 1.28465E-01 3.25069E-02
 -1       783 3.22414E-03 1.34870E-01 3.41150E-02
 -1       784 3.20736E-03 1.41257E-01 3.56563E-02
 -1       785 3.19244E-03 1.47641E-01 3.70800E-02
 -1       786 2.96552E-04 3.93369E-04 9.35188E-05
 -1       787 6.26009E-04 1.51630E-03 3.77539E-04
 -1       788 9.17161E-04 3.33184E-03 8.14238E-04
 -1       789 1.18793E-03 5.78778E-03 1.39498E-03
 -1       790 1.43633E-03 8.83320E-03 2.11111E-03
 -1       791 1.66342E-03 1.24195E-02 2.95371E-03
 -1       792 1.87006E-03 1.64994E-02 3.91280E-03
 -1       793 2.05703E-03 2.10272E-02 4.97787E-03
 -1       794 2.22505E-03 2.59589E-02 6.13847E-03
 -1       795 2.37488E-03 3.12519E-02 7.38446E-03
 -1       796 2.50725E-03 3.68654E-02 8.70614E-03
 -1       797 2.62294E-03 4.27605E-02 1.00943E-02
 -1       798 2.72273E-03 4.88997E-02 1.15401E-02
 -1       799 2.80747E-03 5.52479E-02 1.30353E-02
 -1       800 2.87802E-03 6.17713E-02 1.45718E-02
 -1       801 2.93529E-03 6.84386E-02 1.61425E-02
 -1       802 2.98022E-03 7.52204E-02 1.77402E-02
 -1       803 3.01384E-03 8.20896E-02 1.93585E-02
 -1       804 3.03719E-03 8.90214E-02 2.09917E-02
 -1       805 3.05138E-03 9.59934E-02 2.26343E-02
 -1       806 3.05757E-03 1.02986E-01 2.42819E-02
 -1       807 3.05695E-03 1.09982E-01 2.59311E-02
 -1       808 3.05079E-03 1.16968E-01 2.75797E-02
 -1       809 3.04046E-03 1.23934E-01 2.92270E-02
 -1       810 3.02770E-03 1.30870E-01 3.08716E-02
 -1       811 3.01481E-03 1.37773E-01 3.25073E-02
 -1       812 3.00480E-03 1.44639E-01 3.41154E-02
 -1       813 3.00118E-03 1.51464E-01 3.56568E-02
 -1       814 3.00401E-03 1.58250E-01 3.70810E-02
 -1       815 2.96552E-04-3.93369E-04-9.35188E-05
 -1       816 6.26009E-04-1.51630E-03-3.77539E-04
 -1       817 9.17161E-04-3.33184E-03-8.14238E-04
 -1       818 1.18793E-03-5.78778E-03-1.39498E-03
 -1       819 1.43633E-03-8.83320E-03-2.11111E-03
 -1       820 1.66342E-03-1.24195E-02-2.95371E-03
 -1       821 1.87006E-03-1.64994E-02-3.91280E-03
 -1       822 2.05703E-03-2.10272E-02-4.97787E-03
 -1       823 2.22505E-03-2.59589E-02-6.13847E-03
 -1       824 2.37488E-03-3.12519E-02-7.38446E-03
 -1       825 2.50725E-03-3.68654E-02-8.70614E-03
 -1       826 2.62294E-03-4.27605E-02-1.00943E-02
 -1       827 2.72273E-03-4.88997E-02-1.15401E-02
 -1       828 2.80747E-03-5.52479E-02-1.30353E-02
 -1       829 2.87802E-03-6.17713E-02-1.45718E-02
 -1       830 2.93529E-03-6.84386E-02-1.61425E-02
 -1       831 2.98022E-03-7.52204E-02-1.77402E-02
 -1       832 3.01384E-03-8.20896E-02-1.93585E-02
 -1       833 3.03719E-03-8.90214E-02-2.09917E-02
 -1       834 3.05138E-03-9.59934E-02-2.26343E-02
 -1       835 3.05757E-03-1.02986E-01-2.42819E-02
 -1       836 3.05695E-03-1.09982E-01-2.59311E-02
 -1       837 3.05079E-03-1.16968E-01-2.75797E-02
 -1       838 3.04046E-03-1.23934E-01-2.92270E-02
 -1       839 3.02770E-03-1.30870E-01-3.08716E-02
 -1       840 3.01481E-03-1.37773E-01-3.25073E-02
 -1       841 3.00480E-03-1.44639E-01-3.41154E-02
 -1       842 3.00118E-03-1.51464E-01-3.56568E-02
 -1       843 3.00401E-03-1.58250E-01-3.70810E-02
 -1       844 3.23367E-04-3.62705E-04-1.10615E-04
 -1       845 6.75791E-04-1.40502E-03-3.89847E-04
 -1       846 9.87457E-04-3.09517E-03-8.26271E-04
 -1       847 1.27755E-03-5.38495E-03-1.40599E-03
 -1       848 1.54414E-03-8.22557E-03-2.12122E-03
 -1       849 1.78809E-03-1.15709E-02-2.96293E-03
 -1       850 2.01016E-03-1.53765E-02-3.92116E-03
 -1       851 2.21109E-03-1.95996E-02-4.98541E-03
 -1       852 2.39165E-03-2.41992E-02-6.14522E-03
 -1       853 2.55263E-03-2.91357E-02-7.39045E-03
 -1       854 2.69486E-03-3.43710E-02-8.71142E-03
 -1       855 2.81915E-03-3.98688E-02-1.00989E-02
 -1       856 2.92636E-03-4.55943E-02-1.15440E-02
 -1       857 3.01739E-03-5.15145E-02-1.30386E-02
 -1       858 3.09317E-03-5.75982E-02-1.45746E-02
 -1       859 3.15468E-03-6.38159E-02-1.61446E-02
 -1       860 3.20293E-03-7.01404E-02-1.77418E-02
 -1       861 3.23900E-03-7.65464E-02-1.93598E-02
 -1       862 3.26403E-03-8.30106E-02-2.09925E-02
 -1       863 3.27923E-03-8.95124E-02-2.26347E-02
 -1       864 3.28587E-03-9.60334E-02-2.42820E-02
 -1       865 3.28531E-03-1.02558E-01-2.59309E-02
 -1       866 3.27902E-03-1.09072E-01-2.75794E-02
 -1       867 3.26850E-03-1.15565E-01-2.92265E-02
 -1       868 3.25516E-03-1.22030E-01-3.08711E-02
 -1       869 3.24013E-03-1.28465E-01-3.25069E-02
 -1       870 3.22414E-03-1.34870E-01-3.41150E-02
 -1       871 3.20736E-03-1.41257E-01-3.56563E-02
 -1       872 3.19244E-03-1.47641E-01-3.70800E-02
 -1       873-3.00401E-03 1.58250E-01-3.70810E-02
 -1       874-3.00118E-03 1.51464E-01-3.56568E-02
 -1       875-3.00480E-03 1.44639E-01-3.41154E-02
 -1       876-3.01481E-03 1.37773E-01-3.25073E-02
 -1       877-3.02770E-03 1.30870E-01-3.08716E-02
 -1       878-3.04046E-03 1.23934E-01-2.92270E-02
 -1       879-3.05079E-03 1.16968E-01-2.75797E-02
 -1       880-3.05695E-03 1.09982E-01-2.59311E-02
 -1       881-3.05757E-03 1.02986E-01-2.42819E-02
 -1       882-3.05138E-03 9.59934E-02-2.26343E-02
 -1       883-3.03719E-03 8.90214E-02-2.09917E-02
 -1       884-3.01384E-03 8.20896E-02-1.93585E-02
 -1       885-2.98022E-03 7.52204E-02-1.77402E-02
 -1       886-2.93529E-03 6.84386E-02-1.61425E-02
 -1       887-2.87802E-03 6.17713E-02-1.45718E-02
 -1       888-2.80747E-03 5.52479E-02-1.30353E-02
 -1       889-2.72273E-03 4.88997E-02-1.15401E-02
 -1       890-2.62294E-03 4.27605E-02-1.00943E-02
 -1       891-2.50725E-03 3.68654E-02-8.70614E-03
 -1       892-2.37488E-03 3.12519E-02-7.38446E-03
 -1       893-2.22505E-03 2.59589E-02-6.13847E-03
 -1       894-2.05703E-03 2.10272E-02-4.97787E-03
 -1       895-1.87006E-03 1.64994E-02-3.91280E-03
 -1       896-1.66342E-03 1.24195E-02-2.95371E-03
 -1       897-1.43633E-03 8.83320E-03-2.11111E-03
 -1       898-1.18793E-03 5.78778E-03-1.39498E-03
 -1       899-9.17161E-04 3.33184E-03-8.14238E-04
 -1       900-6.26009E-04 1.51630E-03-3.77539E-04
 -1       901-2.96552E-04 3.93369E-04-9.35188E-05
 -1       902-3.23367E-04 3.62705E-04-1.10615E-04
 -1       903-6.75791E-04 1.40502E-03-3.89847E-04
 -1       904-9.87457E-04 3.09517E-03-8.26271E-04
 -1       905-1.27755E-03 5.38495E-03-1.40599E-03
 -1       906-1.54414E-03 8.22557E-03-2.12122E-03
 -1       907-1.78809E-03 1.15709E-02-2.96293E-03
 -1       908-2.01016E-03 1.53765E-02-3.92116E-03
 -1       909-2.21109E-03 1.95996E-02-4.98541E-03
 -1       910-2.39165E-03 2.41992E-02-6.14522E-03
 -1       911-2.55263E-03 2.91357E-02-7.39045E-03
 -1       912-2.69486E-03 3.43710E-02-8.71142E-03
 -1       913-2.81915E-03 3.98688E-02-1.00989E-02
 -1       914-2.92636E-03 4.55943E-02-1.15440E-02
 -1       915-3.01739E-03 5.15145E-02-1.30386E-02
 -1       916-3.09317E-03 5.75982E-02-1.45746E-02
 -1       917-3.15468E-03 6.38159E-02-1.61446E-02
 -1       918-3.20293E-03 7.01404E-02-1.77418E-02
 -1       919-3.23900E-03 7.65464E-02-1.93598E-02
 -1       920-3.26403E-03 8.30106E-02-2.09925E-02
 -1       921-3.27923E-03 8.95124E-02-2.26347E-02
 -1       922-3.28587E-03 9.60334E-02-2.42820E-02
 -1       923-3.28531E-03 1.02558E-01-2.59309E-02
 -1       924-3.27902E-03 1.09072E-01-2.75794E-02
 -1       925-3.26850E-03 1.15565E-01-2.92265E-02
 -1       926-3.25516E-03 1.22030E-01-3.08711E-02
 -1       927-3.24013E-03 1.28465E-01-3.25069E-02
 -1       928-3.22414E-03 1.34870E-01-3.41150E-02
 -1       929-3.20736E-03 1.41257E-01-3.56563E-02
 -1       930-3.19244E-03 1.47641E-01-3.70800E-02
 -3
    1PSTEP                         6           1           1          
    1PGM                1.000000E+00                                  
    1PGK                1.836514E+04                                  
    1PHID                         -1                                  
    1PSUBC                         0                                  
    1PMODE                         2                                  
  100CL  102 21.56836390         930                     2    2MODAL      1
 -4  STRESS      6    1
 -5  SXX         1    4    1    1
 -5  SYY         1    4    2    2
 -5  SZZ         1    4    3    3
 -5  SXY         1    4    1    2
 -5  SYZ         1    4    2    3
 -5  SZX         1    4    3    1
 -1         1-8.32202E+07-3.56669E+07-3.56670E+07-2.71904E+08-1.17381E+02 6.52115E+06
 -1         2 8.32202E+07 3.56669E+07 3.56670E+07-2.71904E+08-1.17381E+02-6.52115E+06
 -1         3 7.60197E+07 9.95455E+07 1.58997E+08 1.57200E+08-1.65034E+07 1.23052E+08
 -1         4-7.60197E+07-9.95455E+07-1.58997E+08 1.57200E+08-1.65034E+07-1.23052E+08
 -1         5 8.32202E+07 3.56669E+07 3.56670E+07 2.71904E+08-1.17381E+02 6.52115E+06
 -1         6-8.32202E+07-3.56669E+07-3.56670E+07 2.71904E+08-1.17381E+02-6.52115E+06
 -1         7-7.60197E+07-9.95455E+07-1.58997E+08-1.57200E+08-1.65034E+07 1.23052E+08
 -1         8 7.60197E+07 9.95455E+07 1.58997E+08-1.57200E+08-1.65034E+07-1.23052E+08
 -1         9-7.55792E+07-3.23927E+07-3.23929E+07-2.95045E+08-1.46989E+02 6.58004E+06
 -1        10 4.00948E+07-2.15314E+06 1.43597E+08-3.36432E+08-8.90066E+07 6.62311E+07
 -1        11-1.67854E+09-7.19383E+08-7.19383E+08-3.76540E+08 5.08472E+01 1.45878E+08
 -1        12-1.81954E+09-7.79810E+08-7.79810E+08-3.52656E+08-6.47534E+01 1.73652E+08
 -1        13-3.42994E+07-4.87854E+07-1.38500E+07-2.59671E+08-4.37599E+07 9.70076E+07
 -1        14 7.21491E+07 8.42947E+07 5.80085E+07 2.63251E+08-4.91959E+07 9.75470E+07
 -1        15 7.55792E+07 3.23927E+07 3.23929E+07 2.95045E+08-1.46989E+02 6.58004E+06
 -1        16-4.00948E+07 2.15314E+06-1.43597E+08 3.36432E+08-8.90066E+07 6.62311E+07
 -1        17 1.81954E+09 7.79810E+08 7.79810E+08 3.52656E+08-6.47534E+01 1.73652E+08
 -1        18 1.67854E+09 7.19383E+08 7.19383E+08 3.76540E+08 5.08472E+01 1.45878E+08
 -1        19-7.21491E+07-8.42947E+07-5.80085E+07-2.63251E+08-4.91959E+07 9.75470E+07
 -1        20 3.42994E+07 4.87854E+07 1.38500E+07 2.59671E+08-4.37599E+07 9.70076E+07
 -1        21 1.81954E+09 7.79810E+08 7.79810E+08-3.52656E+08-6.47534E+01-1.73652E+08
 -1        22 1.67854E+09 7.19383E+08 7.19383E+08-3.76540E+08 5.08472E+01-1.45878E+08
 -1        23 3.42994E+07 4.87854E+07 1.38500E+07-2.59671E+08-4.37599E+07-9.70076E+07
 -1        24-7.21491E+07-8.42947E+07-5.80085E+07 2.63251E+08-4.91959E+07-9.75470E+07
 -1        25 7.55792E+07 3.23927E+07 3.23929E+07-2.95045E+08-1.46989E+02-6.58004E+06
 -1        26-4.00948E+07 2.15314E+06-1.43597E+08-3.36432E+08-8.90066E+07-6.62311E+07
 -1        27-7.55792E+07-3.23927E+07-3.23929E+07 2.95045E+08-1.46989E+02-6.58004E+06
 -1        28-1.67854E+09-7.19383E+08-7.19383E+08 3.76540E+08 5.08472E+01-1.45878E+08
 -1        29-1.81954E+09-7.79810E+08-7.79810E+08 3.52656E+08-6.47534E+01-1.73652E+08
 -1        30 4.00948E+07-2.15314E+06 1.43597E+08 3.36432E+08-8.90066E+07-6.62311E+07
 -1        31-3.42994E+07-4.87854E+07-1.38500E+07 2.59671E+08-4.37599E+07-9.70076E+07
 -1        32 7.21491E+07 8.42947E+07 5.80085E+07-2.63251E+08-4.91959E+07-9.75470E+07
 -1        33 6.05055E+07-2.05058E+07 1.30370E+07-4.77655E+06-3.13981E+06-6.86939E+06
 -1        34 6.46281E+07-1.05771E+07 2.54713E+07 2.93361E+07-9.92998E+05-2.29529E+07
 -1        35 5.97517E+07-6.96151E+06 2.39353E+07 4.30089E+07-2.00248E+06-3.56346E+07
 -1        36 5.58941E+07-6.21400E+06 2.40932E+07 5.97038E+07-1.32353E+06-4.70523E+07
 -1        37 5.13237E+07-5.41176E+06 2.21769E+07 7.48862E+07-1.25999E+06-5.80067E+07
 -1        38 4.67537E+07-5.02673E+06 2.01477E+07 8.89301E+07-1.13653E+06-6.79705E+07
 -1        39 4.23773E+07-4.62421E+06 1.81746E+07 1.01886E+08-1.02644E+06-7.70915E+07
 -1        40 3.81992E+07-4.17828E+06 1.63718E+07 1.13632E+08-9.18208E+05-8.53593E+07
 -1        41 3.42154E+07-3.70986E+06 1.47086E+07 1.24233E+08-8.10252E+05-9.28038E+07
 -1        42 3.04083E+07-3.23640E+06 1.31519E+07 1.33728E+08-7.04803E+05-9.94582E+07
 -1        43 2.67699E+07-2.77410E+06 1.16772E+07 1.42172E+08-6.01986E+05-1.05358E+08
 -1        44 2.33005E+07-2.32934E+06 1.02763E+07 1.49620E+08-5.02734E+05-1.10538E+08
 -1        45 2.00055E+07-1.90427E+06 8.94944E+06 1.56126E+08-4.07437E+05-1.15036E+08
 -1        46 1.68928E+07-1.49914E+06 7.70083E+06 1.61742E+08-3.16379E+05-1.18888E+08
 -1        47 1.39716E+07-1.11419E+06 6.53522E+06 1.66524E+08-2.29818E+05-1.22133E+08
 -1        48 1.12510E+07-7.50853E+05 5.45596E+06 1.70527E+08-1.48116E+05-1.24812E+08
 -1        49 8.73916E+06-4.13167E+05 4.46247E+06 1.73810E+08-7.18179E+04-1.26964E+08
 -1        50 6.44160E+06-1.09246E+05 3.54763E+06 1.76433E+08-1.65416E+03-1.28635E+08
 -1        51 4.36147E+06 1.49290E+05 2.69876E+06 1.78463E+08 6.17308E+04-1.29871E+08
 -1        52 2.50575E+06 3.55373E+05 1.91162E+06 1.79977E+08 1.18565E+05-1.30723E+08
 -1        53 9.04551E+05 5.30422E+05 1.23178E+06 1.81083E+08 1.71647E+05-1.31252E+08
 -1        54-3.51132E+05 7.68752E+05 8.31669E+05 1.81918E+08 2.28640E+05-1.31530E+08
 -1        55-1.06791E+06 1.28511E+06 1.08964E+06 1.82639E+08 3.03687E+05-1.31635E+08
 -1        56-9.67404E+05 2.37564E+06 2.53099E+06 1.83304E+08 4.00204E+05-1.31626E+08
 -1        57 7.61370E+04 4.11939E+06 5.31769E+06 1.83647E+08 4.91722E+05-1.31463E+08
 -1        58 1.40581E+06 5.63329E+06 7.85952E+06 1.82704E+08 3.75095E+05-1.30924E+08
 -1        59 6.02321E+05 3.76836E+06 4.95713E+06 1.78601E+08 3.32324E+05-1.29417E+08
 -1        60-8.19268E+06-7.96017E+06-1.56253E+07 1.69831E+08-1.29851E+06-1.27047E+08
 -1        61-3.21500E+07-3.91267E+07-6.94979E+07 1.55727E+08-1.19268E+06-1.23259E+08
 -1        62-6.05055E+07 2.05058E+07-1.30370E+07-4.77655E+06-3.13981E+06 6.86939E+06
 -1        63-6.46281E+07 1.05771E+07-2.54713E+07 2.93361E+07-9.92998E+05 2.29529E+07
 -1        64-5.97517E+07 6.96151E+06-2.39353E+07 4.30089E+07-2.00248E+06 3.56346E+07
 -1        65-5.58941E+07 6.21400E+06-2.40932E+07 5.97038E+07-1.32353E+06 4.70523E+07
 -1        66-5.13237E+07 5.41176E+06-2.21769E+07 7.48862E+07-1.25999E+06 5.80067E+07
 -1        67-4.67537E+07 5.02673E+06-2.01477E+07 8.89301E+07-1.13653E+06 6.79705E+07
 -1        68-4.23773E+07 4.62421E+06-1.81746E+07 1.01886E+08-1.02644E+06 7.70915E+07
 -1        69-3.81992E+07 4.17828E+06-1.63718E+07 1.13632E+08-9.18208E+05 8.53593E+07
 -1        70-3.42154E+07 3.70986E+06-1.47086E+07 1.24233E+08-8.10252E+05 9.28038E+07
 -1        71-3.04083E+07 3.23640E+06-1.31519E+07 1.33728E+08-7.04803E+05 9.94582E+07
 -1        72-2.67699E+07 2.77410E+06-1.16772E+07 1.42172E+08-6.01986E+05 1.05358E+08
 -1        73-2.33005E+07 2.32934E+06-1.02763E+07 1.49620E+08-5.02734E+05 1.10538E+08
 -1        74-2.00055E+07 1.90427E+06-8.94944E+06 1.56126E+08-4.07437E+05 1.15036E+08
 -1        75-1.68928E+07 1.49914E+06-7.70083E+06 1.61742E+08-3.16379E+05 1.18888E+08
 -1        76-1.39716E+07 1.11419E+06-6.53522E+06 1.66524E+08-2.29818E+05 1.22133E+08
 -1        77-1.12510E+07 7.50853E+05-5.45596E+06 1.70527E+08-1.48116E+05 1.24812E+08
 -1        78-8.73916E+06 4.13167E+05-4.46247E+06 1.73810E+08-7.18179E+04 1.26964E+08
 -1        79-6.44160E+06 1.09246E+05-3.54763E+06 1.76433E+08-1.65417E+03 1.28635E+08
 -1        80-4.36147E+06-1.49290E+05-2.69876E+06 1.78463E+08 6.17308E+04 1.29871E+08
 -1        81-2.50575E+06-3.55373E+05-1.91162E+06 1.79977E+08 1.18565E+05 1.30723E+08
 -1        82-9.04551E+05-5.30422E+05-1.23178E+06 1.81083E+08 1.71647E+05 1.31252E+08
 -1        83 3.51132E+05-7.68752E+05-8.31669E+05 1.81918E+08 2.28640E+05 1.31530E+08
 -1        84 1.06791E+06-1.28511E+06-1.08964E+06 1.82639E+08 3.03687E+05 1.31635E+08
 -1        85 9.67404E+05-2.37564E+06-2.53099E+06 1.83304E+08 4.00204E+05 1.31626E+08
 -1        86-7.61370E+04-4.11939E+06-5.31769E+06 1.83647E+08 4.91722E+05 1.31463E+08
 -1        87-1.40581E+06-5.63329E+06-7.85952E+06 1.82704E+08 3.75095E+05 1.30924E+08
 -1        88-6.02321E+05-3.76836E+06-4.95713E+06 1.78601E+08 3.32324E+05 1.29417E+08
 -1        89 8.19268E+06 7.96017E+06 1.56253E+07 1.69831E+08-1.29851E+06 1.27047E+08
 -1        90 3.21500E+07 3.91267E+07 6.94979E+07 1.55727E+08-1.19268E+06 1.23259E+08
 -1        91-4.15916E+07-1.78250E+07-1.78250E+07-1.37302E+08 4.22741E+01 6.21984E+06
 -1        92-1.39605E-02-5.98331E-03-5.98311E-03 7.68083E-02-1.00250E+01 6.43758E+06
 -1        93 4.15916E+07 1.78250E+07 1.78250E+07 1.37302E+08 4.22741E+01 6.21984E+06
 -1        94-4.15916E+07-1.78250E+07-1.78250E+07 1.37302E+08 4.22741E+01-6.21984E+06
 -1        95-6.07050E-02-2.60167E-02-2.60165E-02 7.72735E-02-1.00250E+01-6.43758E+06
 -1        96 4.15916E+07 1.78250E+07 1.78250E+07-1.37302E+08 4.22741E+01-6.21984E+06
 -1        97 6.05055E+07-2.05058E+07 1.30370E+07 4.77655E+06-3.13981E+06 6.86939E+06
 -1        98 6.46281E+07-1.05771E+07 2.54713E+07-2.93361E+07-9.92998E+05 2.29529E+07
 -1        99 5.97517E+07-6.96151E+06 2.39353E+07-4.30089E+07-2.00248E+06 3.56346E+07
 -1       100 5.58941E+07-6.21400E+06 2.40932E+07-5.97038E+07-1.32353E+06 4.70523E+07
 -1       101 5.13237E+07-5.41176E+06 2.21769E+07-7.48862E+07-1.25999E+06 5.80067E+07
 -1       102 4.67537E+07-5.02673E+06 2.01477E+07-8.89301E+07-1.13653E+06 6.79705E+07
 -1       103 4.23773E+07-4.62421E+06 1.81746E+07-1.01886E+08-1.02644E+06 7.70915E+07
 -1       104 3.81992E+07-4.17828E+06 1.63718E+07-1.13632E+08-9.18208E+05 8.53593E+07
 -1       105 3.42154E+07-3.70986E+06 1.47086E+07-1.24233E+08-8.10252E+05 9.28038E+07
 -1       106 3.04083E+07-3.23640E+06 1.31519E+07-1.33728E+08-7.04803E+05 9.94582E+07
 -1       107 2.67699E+07-2.77410E+06 1.16772E+07-1.42172E+08-6.01986E+05 1.05358E+08
 -1       108 2.33005E+07-2.32934E+06 1.02763E+07-1.49620E+08-5.02734E+05 1.10538E+08
 -1       109 2.00055E+07-1.90427E+06 8.94944E+06-1.56126E+08-4.07437E+05 1.15036E+08
 -1       110 1.68928E+07-1.49914E+06 7.70083E+06-1.61742E+08-3.16379E+05 1.18888E+08
 -1       111 1.39716E+07-1.11419E+06 6.53522E+06-1.66524E+08-2.29818E+05 1.22133E+08
 -1       112 1.12510E+07-7.50853E+05 5.45596E+06-1.70527E+08-1.48116E+05 1.24812E+08
 -1       113 8.73916E+06-4.13167E+05 4.46247E+06-1.73810E+08-7.18179E+04 1.26964E+08
 -1       114 6.44160E+06-1.09246E+05 3.54763E+06-1.76433E+08-1.65417E+03 1.28635E+08
 -1       115 4.36147E+06 1.49290E+05 2.69876E+06-1.78463E+08 6.17308E+04 1.29871E+08
 -1       116 2.50575E+06 3.55373E+05 1.91162E+06-1.79977E+08 1.18565E+05 1.30723E+08
 -1       117 9.04551E+05 5.30422E+05 1.23178E+06-1.81083E+08 1.71647E+05 1.31252E+08
 -1       118-3.51132E+05 7.68752E+05 8.31669E+05-1.81918E+08 2.28640E+05 1.31530E+08
 -1       119-1.06791E+06 1.28511E+06 1.08964E+06-1.82639E+08 3.03687E+05 1.31635E+08
 -1       120-9.67404E+05 2.37564E+06 2.53099E+06-1.83304E+08 4.00204E+05 1.31626E+08
 -1       121 7.61370E+04 4.11939E+06 5.31769E+06-1.83647E+08 4.91722E+05 1.31463E+08
 -1       122 1.40581E+06 5.63329E+06 7.85952E+06-1.82704E+08 3.75095E+05 1.30924E+08
 -1       123 6.02321E+05 3.76836E+06 4.95713E+06-1.78601E+08 3.32324E+05 1.29417E+08
 -1       124-8.19268E+06-7.96017E+06-1.56253E+07-1.69831E+08-1.29851E+06 1.27047E+08
 -1       125-3.21500E+07-3.91267E+07-6.94979E+07-1.55727E+08-1.19268E+06 1.23259E+08
 -1       126 1.89752E+07 1.99565E+07 4.75464E+07-1.33473E+07-3.93383E+07 2.40214E+08
 -1       127 4.51355E-03 4.78425E-03 3.17210E-02-2.55323E-03-3.50156E+07 2.43793E+08
 -1       128-1.89752E+07-1.99565E+07-4.75464E+07 1.33473E+07-3.93383E+07 2.40214E+08
 -1       129-6.05055E+07 2.05058E+07-1.30370E+07 4.77655E+06-3.13981E+06-6.86939E+06
 -1       130-6.46281E+07 1.05771E+07-2.54713E+07-2.93361E+07-9.92998E+05-2.29529E+07
 -1       131-5.97517E+07 6.96151E+06-2.39353E+07-4.30089E+07-2.00248E+06-3.56346E+07
 -1       132-5.58941E+07 6.21400E+06-2.40932E+07-5.97038E+07-1.32353E+06-4.70523E+07
 -1       133-5.13237E+07 5.41176E+06-2.21769E+07-7.48862E+07-1.25999E+06-5.80067E+07
 -1       134-4.67537E+07 5.02673E+06-2.01477E+07-8.89301E+07-1.13653E+06-6.79705E+07
 -1       135-4.23773E+07 4.62421E+06-1.81746E+07-1.01886E+08-1.02644E+06-7.70915E+07
 -1       136-3.81992E+07 4.17828E+06-1.63718E+07-1.13632E+08-9.18208E+05-8.53593E+07
 -1       137-3.42154E+07 3.70986E+06-1.47086E+07-1.24233E+08-8.10252E+05-9.28038E+07
 -1       138-3.04083E+07 3.23640E+06-1.31519E+07-1.33728E+08-7.04803E+05-9.94582E+07
 -1       139-2.67699E+07 2.77410E+06-1.16772E+07-1.42172E+08-6.01986E+05-1.05358E+08
 -1       140-2.33005E+07 2.32934E+06-1.02763E+07-1.49620E+08-5.02734E+05-1.10538E+08
 -1       141-2.00055E+07 1.90427E+06-8.94944E+06-1.56126E+08-4.07437E+05-1.15036E+08
 -1       142-1.68928E+07 1.49914E+06-7.70083E+06-1.61742E+08-3.16379E+05-1.18888E+08
 -1       143-1.39716E+07 1.11419E+06-6.53522E+06-1.66524E+08-2.29818E+05-1.22133E+08
 -1       144-1.12510E+07 7.50853E+05-5.45596E+06-1.70527E+08-1.48116E+05-1.24812E+08
 -1       145-8.73916E+06 4.13167E+05-4.46247E+06-1.73810E+08-7.18179E+04-1.26964E+08
 -1       146-6.44160E+06 1.09246E+05-3.54763E+06-1.76433E+08-1.65416E+03-1.28635E+08
 -1       147-4.36147E+06-1.49290E+05-2.69876E+06-1.78463E+08 6.17308E+04-1.29871E+08
 -1       148-2.50575E+06-3.55373E+05-1.91162E+06-1.79977E+08 1.18565E+05-1.30723E+08
 -1       149-9.04551E+05-5.30422E+05-1.23178E+06-1.81083E+08 1.71647E+05-1.31252E+08
 -1       150 3.51132E+05-7.68752E+05-8.31669E+05-1.81918E+08 2.28640E+05-1.31530E+08
 -1       151 1.06791E+06-1.28511E+06-1.08964E+06-1.82639E+08 3.03687E+05-1.31635E+08
 -1       152 9.67404E+05-2.37564E+06-2.53099E+06-1.83304E+08 4.00204E+05-1.31626E+08
 -1       153-7.61370E+04-4.11939E+06-5.31769E+06-1.83647E+08 4.91722E+05-1.31463E+08
 -1       154-1.40581E+06-5.63329E+06-7.85952E+06-1.82704E+08 3.75095E+05-1.30924E+08
 -1       155-6.02321E+05-3.76836E+06-4.95713E+06-1.78601E+08 3.32324E+05-1.29417E+08
 -1       156 8.19268E+06 7.96017E+06 1.56253E+07-1.69831E+08-1.29851E+06-1.27047E+08
 -1       157 3.21500E+07 3.91267E+07 6.94979E+07-1.55727E+08-1.19268E+06-1.23259E+08
 -1       158 1.89752E+07 1.99565E+07 4.75464E+07 1.33473E+07-3.93383E+07-2.40214E+08
 -1       159-7.07256E-03-5.36464E-03 9.41014E-03-2.78700E-03-3.50156E+07-2.43793E+08
 -1       160-1.89752E+07-1.99565E+07-4.75464E+07-1.33473E+07-3.93383E+07-2.40214E+08
 -1       161-4.11953E+07 5.75598E+07 3.77378E+06-9.68495E+07 1.44399E+07-2.45301E+06
 -1       162-5.14699E+07 4.11970E+07-1.53535E+07-1.19388E+08 1.12411E+07 8.36578E+06
 -1       163-4.59328E+07 3.72129E+07-1.26172E+07-1.59590E+08 1.30179E+07 1.57623E+07
 -1       164-4.28902E+07 3.50816E+07-1.39714E+07-1.94645E+08 1.23417E+07 2.21542E+07
 -1       165-3.94377E+07 3.19044E+07-1.28447E+07-2.27249E+08 1.15122E+07 2.85353E+07
 -1       166-3.59077E+07 2.91641E+07-1.16465E+07-2.57529E+08 1.04381E+07 3.43425E+07
 -1       167-3.25650E+07 2.64708E+07-1.04718E+07-2.85088E+08 9.43382E+06 3.96867E+07
 -1       168-2.93654E+07 2.38692E+07-9.43684E+06-3.09974E+08 8.49295E+06 4.45478E+07
 -1       169-2.63119E+07 2.13660E+07-8.50804E+06-3.32209E+08 7.62475E+06 4.89397E+07
 -1       170-2.33924E+07 1.89595E+07-7.65555E+06-3.51888E+08 6.80772E+06 5.28838E+07
 -1       171-2.06018E+07 1.66552E+07-6.85486E+06-3.69115E+08 6.03344E+06 5.64017E+07
 -1       172-1.79412E+07 1.44562E+07-6.09763E+06-3.83997E+08 5.29736E+06 5.95159E+07
 -1       173-1.54149E+07 1.23667E+07-5.38292E+06-3.96641E+08 4.59983E+06 6.22486E+07
 -1       174-1.30290E+07 1.03912E+07-4.71349E+06-4.07157E+08 3.94283E+06 6.46221E+07
 -1       175-1.07903E+07 8.53488E+06-4.09244E+06-4.15656E+08 3.32873E+06 6.66591E+07
 -1       176-8.70603E+06 6.80369E+06-3.52141E+06-4.22256E+08 2.75926E+06 6.83830E+07
 -1       177-6.78262E+06 5.20428E+06-2.99816E+06-4.27079E+08 2.23435E+06 6.98182E+07
 -1       178-5.02501E+06 3.74422E+06-2.51412E+06-4.30254E+08 1.75111E+06 7.09898E+07
 -1       179-3.43639E+06 2.43191E+06-2.05536E+06-4.31923E+08 1.30452E+06 7.19251E+07
 -1       180-2.02181E+06 1.27611E+06-1.61574E+06-4.32255E+08 8.94167E+05 7.26560E+07
 -1       181-8.00445E+05 2.83963E+05-1.23604E+06-4.31469E+08 5.43555E+05 7.32231E+07
 -1       182 1.69424E+05-5.42722E+05-1.07718E+06-4.29849E+08 3.33309E+05 7.36784E+07
 -1       183 7.61409E+05-1.21137E+06-1.49430E+06-4.27692E+08 4.37321E+05 7.40786E+07
 -1       184 7.84333E+05-1.73821E+06-2.98209E+06-4.25123E+08 1.06961E+06 7.44556E+07
 -1       185 1.09727E+05-2.14978E+06-5.69824E+06-4.21600E+08 2.31313E+06 7.47145E+07
 -1       186-8.27175E+05-2.25446E+06-8.05544E+06-4.15333E+08 3.16915E+06 7.45836E+07
 -1       187-8.79939E+05-2.30278E+06-5.54582E+06-4.02755E+08 2.03269E+06 7.33441E+07
 -1       188 4.91954E+06-3.83275E+05 1.43612E+07-3.80391E+08-9.61855E+06 7.09964E+07
 -1       189 1.97862E+07 2.87983E+06 6.60696E+07-3.56603E+08-2.78732E+07 6.64113E+07
 -1       190-8.38298E+08-3.59277E+08-3.59277E+08-3.17718E+08 7.35981E+01 7.55338E+07
 -1       191-9.14103E+08-3.91765E+08-3.91765E+08-2.92951E+08-4.15953E+01 8.93426E+07
 -1       192-6.68165E+07-1.21567E+08-9.03021E+07-2.84417E+08-4.67758E+07-1.38696E+07
 -1       193-1.18873E+09 5.90903E+07 1.96019E+08-7.49792E+07 1.27488E+07-5.77702E+06
 -1       194-1.28148E+09-1.21098E+08-4.82487E+07-8.74544E+07 9.30623E+06 1.35991E+07
 -1       195-1.15616E+09-8.25409E+07 5.65581E+06-1.22228E+08 9.88371E+06 2.04445E+07
 -1       196-1.06980E+09-8.13202E+07-6.85052E+06-1.51861E+08 8.81494E+06 2.73923E+07
 -1       197-9.78338E+08-7.28300E+07-2.90853E+06-1.80647E+08 8.13765E+06 3.28887E+07
 -1       198-8.92759E+08-6.66678E+07-3.20452E+06-2.07088E+08 7.38167E+06 3.81913E+07
 -1       199-8.09970E+08-6.03884E+07-2.71851E+06-2.31389E+08 6.69036E+06 4.31770E+07
 -1       200-7.30484E+08-5.44967E+07-2.51725E+06-2.53350E+08 6.03209E+06 4.78057E+07
 -1       201-6.54012E+08-4.88116E+07-2.30038E+06-2.73031E+08 5.40573E+06 5.20143E+07
 -1       202-5.80591E+08-4.33525E+07-2.10183E+06-2.90512E+08 4.80600E+06 5.57846E+07
 -1       203-5.10282E+08-3.81194E+07-1.90692E+06-3.05893E+08 4.23218E+06 5.91246E+07
 -1       204-4.43189E+08-3.31235E+07-1.72035E+06-3.19273E+08 3.68461E+06 6.20541E+07
 -1       205-3.79440E+08-2.83762E+07-1.54421E+06-3.30749E+08 3.16445E+06 6.45959E+07
 -1       206-3.19180E+08-2.38895E+07-1.38068E+06-3.40419E+08 2.67312E+06 6.67729E+07
 -1       207-2.62574E+08-1.96763E+07-1.23131E+06-3.48383E+08 2.21214E+06 6.86069E+07
 -1       208-2.09806E+08-1.57513E+07-1.09778E+06-3.54745E+08 1.78312E+06 7.01194E+07
 -1       209-1.61075E+08-1.21305E+07-9.81474E+05-3.59610E+08 1.38749E+06 7.13341E+07
 -1       210-1.16593E+08-8.82970E+06-8.81264E+05-3.63091E+08 1.02618E+06 7.22813E+07
 -1       211-7.65679E+07-5.85972E+06-7.88667E+05-3.65311E+08 6.99084E+05 7.30050E+07
 -1       212-4.11843E+07-3.21870E+06-6.81697E+05-3.66424E+08 4.05076E+05 7.35678E+07
 -1       213-1.06009E+07-8.86987E+05-5.24996E+05-3.66643E+08 1.44641E+05 7.40400E+07
 -1       214 1.49940E+07 1.15836E+06-2.95251E+05-3.66260E+08-7.46852E+04 7.44429E+07
 -1       215 3.51748E+07 2.87978E+06-6.09975E+04-3.65595E+08-2.17908E+05 7.46072E+07
 -1       216 4.88692E+07 4.02757E+06-1.34958E+05-3.64750E+08-2.33593E+05 7.39912E+07
 -1       217 5.38460E+07 3.89383E+06-1.24520E+06-3.63078E+08 1.17118E+04 7.15426E+07
 -1       218 4.67789E+07 1.41205E+06-4.42297E+06-3.58305E+08 4.37800E+05 6.60590E+07
 -1       219 2.51911E+07-5.18401E+06-1.04330E+07-3.45909E+08 1.25434E+06 5.90020E+07
 -1       220-7.30987E+06-1.44980E+07-1.66965E+07-3.23047E+08-5.36395E+05 5.41280E+07
 -1       221-2.22434E+07-1.49578E+07-1.04732E+07-2.85466E+08 4.14428E+06 7.50781E+07
 -1       222-1.31395E+09 1.13162E+07 1.44121E+08 1.32736E+07-1.98439E+07 3.89457E+06
 -1       223-1.39052E+09-1.65770E+08-9.43609E+07 7.33208E+07-1.26362E+07 9.50643E+06
 -1       224-1.25665E+09-1.23833E+08-3.68779E+07 1.03946E+08-1.31500E+07 1.95607E+07
 -1       225-1.16464E+09-1.20902E+08-4.71761E+07 1.35420E+08-1.14570E+07 2.57094E+07
 -1       226-1.06704E+09-1.09776E+08-4.06045E+07 1.64239E+08-1.06690E+07 3.14903E+07
 -1       227-9.74556E+08-1.00702E+08-3.79538E+07 1.91432E+08-9.73010E+06 3.67880E+07
 -1       228-8.84426E+08-9.13314E+07-3.43381E+07 2.16261E+08-8.85030E+06 4.18361E+07
 -1       229-7.97606E+08-8.23923E+07-3.10224E+07 2.38795E+08-7.97796E+06 4.65117E+07
 -1       230-7.14028E+08-7.37764E+07-2.77947E+07 2.59043E+08-7.13171E+06 5.07708E+07
 -1       231-6.33812E+08-6.55247E+07-2.47198E+07 2.77103E+08-6.31544E+06 5.45921E+07
 -1       232-5.57031E+08-5.76354E+07-2.17863E+07 2.93079E+08-5.53290E+06 5.79847E+07
 -1       233-4.83783E+08-5.01151E+07-1.89959E+07 3.07074E+08-4.78580E+06 6.09685E+07
 -1       234-4.14194E+08-4.29740E+07-1.63496E+07 3.19189E+08-4.07546E+06 6.35670E+07
 -1       235-3.48414E+08-3.62266E+07-1.38519E+07 3.29527E+08-3.40316E+06 6.58031E+07
 -1       236-2.86618E+08-2.98904E+07-1.15087E+07 3.38190E+08-2.77044E+06 6.76990E+07
 -1       237-2.29000E+08-2.39842E+07-9.32580E+06 3.45286E+08-2.17923E+06 6.92765E+07
 -1       238-1.75771E+08-1.85278E+07-7.30937E+06 3.50924E+08-1.63204E+06 7.05598E+07
 -1       239-1.27165E+08-1.35431E+07-5.46687E+06 3.55218E+08-1.13247E+06 7.15792E+07
 -1       240-8.34481E+07-9.05866E+06-3.81242E+06 3.58295E+08-6.85606E+05 7.23791E+07
 -1       241-4.49325E+07-5.11994E+06-2.37653E+06 3.60310E+08-2.97527E+05 7.30221E+07
 -1       242-1.19925E+07-1.80182E+06-1.21692E+06 3.61480E+08 2.87312E+04 7.35783E+07
 -1       243 1.49670E+07 7.90140E+05-4.13797E+05 3.62105E+08 3.01077E+05 7.40691E+07
 -1       244 3.56591E+07 2.56676E+06-9.62588E+03 3.62520E+08 5.61163E+05 7.43251E+07
 -1       245 5.02614E+07 3.62147E+06 1.60876E+05 3.62849E+08 8.70437E+05 7.38071E+07
 -1       246 5.99626E+07 4.56353E+06 7.90670E+05 3.62456E+08 1.35794E+06 7.14679E+07
 -1       247 6.72983E+07 6.74861E+06 3.33381E+06 3.59055E+08 1.87934E+06 6.61143E+07
 -1       248 7.45080E+07 1.25608E+07 9.68558E+06 3.47943E+08 2.48259E+06 5.92285E+07
 -1       249 7.98001E+07 2.27954E+07 2.06246E+07 3.25846E+08-2.82573E+05 5.45725E+07
 -1       250 6.52009E+07 3.10816E+07 2.95719E+07 2.87698E+08 2.12602E+06 7.56292E+07
 -1       251 3.56301E+07 7.68617E+07-3.95808E+04 2.91027E+08-3.94363E+07-1.47947E+07
 -1       252-1.97862E+07-2.87983E+06-6.60696E+07 3.56603E+08-2.78732E+07 6.64113E+07
 -1       253-4.91954E+06 3.83275E+05-1.43612E+07 3.80391E+08-9.61855E+06 7.09964E+07
 -1       254 8.79939E+05 2.30278E+06 5.54582E+06 4.02755E+08 2.03269E+06 7.33441E+07
 -1       255 8.27175E+05 2.25446E+06 8.05544E+06 4.15333E+08 3.16915E+06 7.45836E+07
 -1       256-1.09727E+05 2.14978E+06 5.69824E+06 4.21600E+08 2.31313E+06 7.47145E+07
 -1       257-7.84333E+05 1.73821E+06 2.98209E+06 4.25123E+08 1.06961E+06 7.44556E+07
 -1       258-7.61409E+05 1.21137E+06 1.49430E+06 4.27692E+08 4.37321E+05 7.40786E+07
 -1       259-1.69425E+05 5.42722E+05 1.07718E+06 4.29849E+08 3.33309E+05 7.36784E+07
 -1       260 8.00445E+05-2.83964E+05 1.23604E+06 4.31469E+08 5.43555E+05 7.32231E+07
 -1       261 2.02181E+06-1.27611E+06 1.61574E+06 4.32255E+08 8.94167E+05 7.26560E+07
 -1       262 3.43639E+06-2.43191E+06 2.05536E+06 4.31923E+08 1.30452E+06 7.19251E+07
 -1       263 5.02501E+06-3.74422E+06 2.51412E+06 4.30254E+08 1.75111E+06 7.09898E+07
 -1       264 6.78262E+06-5.20428E+06 2.99816E+06 4.27079E+08 2.23435E+06 6.98182E+07
 -1       265 8.70603E+06-6.80369E+06 3.52141E+06 4.22256E+08 2.75926E+06 6.83830E+07
 -1       266 1.07903E+07-8.53488E+06 4.09244E+06 4.15656E+08 3.32873E+06 6.66591E+07
 -1       267 1.30290E+07-1.03912E+07 4.71349E+06 4.07157E+08 3.94283E+06 6.46221E+07
 -1       268 1.54149E+07-1.23667E+07 5.38292E+06 3.96641E+08 4.59983E+06 6.22486E+07
 -1       269 1.79412E+07-1.44562E+07 6.09763E+06 3.83997E+08 5.29736E+06 5.95159E+07
 -1       270 2.06018E+07-1.66552E+07 6.85486E+06 3.69115E+08 6.03344E+06 5.64017E+07
 -1       271 2.33924E+07-1.89595E+07 7.65555E+06 3.51888E+08 6.80772E+06 5.28838E+07
 -1       272 2.63119E+07-2.13660E+07 8.50804E+06 3.32209E+08 7.62475E+06 4.89397E+07
 -1       273 2.93654E+07-2.38692E+07 9.43684E+06 3.09974E+08 8.49295E+06 4.45478E+07
 -1       274 3.25650E+07-2.64708E+07 1.04718E+07 2.85088E+08 9.43382E+06 3.96867E+07
 -1       275 3.59077E+07-2.91641E+07 1.16465E+07 2.57529E+08 1.04381E+07 3.43425E+07
 -1       276 3.94377E+07-3.19044E+07 1.28447E+07 2.27249E+08 1.15122E+07 2.85353E+07
 -1       277 4.28902E+07-3.50816E+07 1.39714E+07 1.94645E+08 1.23417E+07 2.21542E+07
 -1       278 4.59328E+07-3.72129E+07 1.26172E+07 1.59590E+08 1.30179E+07 1.57623E+07
 -1       279 5.14699E+07-4.11970E+07 1.53535E+07 1.19388E+08 1.12411E+07 8.36578E+06
 -1       280 4.11953E+07-5.75598E+07-3.77378E+06 9.68495E+07 1.44399E+07-2.45301E+06
 -1       281 9.14103E+08 3.91765E+08 3.91765E+08 2.92951E+08-4.15953E+01 8.93426E+07
 -1       282 8.38298E+08 3.59277E+08 3.59277E+08 3.17718E+08 7.35981E+01 7.55338E+07
 -1       283 1.31395E+09-1.13162E+07-1.44121E+08-1.32736E+07-1.98439E+07 3.89457E+06
 -1       284 1.39052E+09 1.65770E+08 9.43609E+07-7.33208E+07-1.26362E+07 9.50643E+06
 -1       285 1.25665E+09 1.23833E+08 3.68779E+07-1.03946E+08-1.31500E+07 1.95607E+07
 -1       286 1.16464E+09 1.20902E+08 4.71761E+07-1.35420E+08-1.14570E+07 2.57094E+07
 -1       287 1.06704E+09 1.09776E+08 4.06045E+07-1.64239E+08-1.06690E+07 3.14903E+07
 -1       288 9.74556E+08 1.00702E+08 3.79538E+07-1.91432E+08-9.73010E+06 3.67880E+07
 -1       289 8.84426E+08 9.13314E+07 3.43381E+07-2.16261E+08-8.85030E+06 4.18361E+07
 -1       290 7.97606E+08 8.23923E+07 3.10224E+07-2.38795E+08-7.97796E+06 4.65117E+07
 -1       291 7.14028E+08 7.37764E+07 2.77947E+07-2.59043E+08-7.13171E+06 5.07708E+07
 -1       292 6.33812E+08 6.55247E+07 2.47198E+07-2.77103E+08-6.31544E+06 5.45921E+07
 -1       293 5.57031E+08 5.76354E+07 2.17863E+07-2.93079E+08-5.53290E+06 5.79847E+07
 -1       294 4.83783E+08 5.01151E+07 1.89959E+07-3.07074E+08-4.78580E+06 6.09685E+07
 -1       295 4.14194E+08 4.29740E+07 1.63496E+07-3.19189E+08-4.07546E+06 6.35670E+07
 -1       296 3.48414E+08 3.62266E+07 1.38519E+07-3.29527E+08-3.40316E+06 6.58031E+07
 -1       297 2.86618E+08 2.98904E+07 1.15087E+07-3.38190E+08-2.77044E+06 6.76990E+07
 -1       298 2.29000E+08 2.39842E+07 9.32580E+06-3.45286E+08-2.17923E+06 6.92765E+07
 -1       299 1.75771E+08 1.85278E+07 7.30937E+06-3.50924E+08-1.63204E+06 7.05598E+07
 -1       300 1.27165E+08 1.35431E+07 5.46687E+06-3.55218E+08-1.13247E+06 7.15792E+07
 -1       301 8.34481E+07 9.05866E+06 3.81242E+06-3.58295E+08-6.85606E+05 7.23791E+07
 -1       302 4.49325E+07 5.11994E+06 2.37653E+06-3.60310E+08-2.97527E+05 7.30221E+07
 -1       303 1.19925E+07 1.80182E+06 1.21692E+06-3.61480E+08 2.87312E+04 7.35783E+07
 -1       304-1.49670E+07-7.90140E+05 4.13797E+05-3.62105E+08 3.01077E+05 7.40691E+07
 -1       305-3.56591E+07-2.56676E+06 9.62587E+03-3.62520E+08 5.61163E+05 7.43251E+07
 -1       306-5.02614E+07-3.62147E+06-1.60876E+05-3.62849E+08 8.70437E+05 7.38071E+07
 -1       307-5.99626E+07-4.56353E+06-7.90670E+05-3.62456E+08 1.35794E+06 7.14679E+07
 -1       308-6.72983E+07-6.74861E+06-3.33381E+06-3.59055E+08 1.87934E+06 6.61143E+07
 -1       309-7.45080E+07-1.25608E+07-9.68558E+06-3.47943E+08 2.48259E+06 5.92285E+07
 -1       310-7.98001E+07-2.27954E+07-2.06246E+07-3.25846E+08-2.82573E+05 5.45725E+07
 -1       311-6.52009E+07-3.10816E+07-2.95719E+07-2.87698E+08 2.12602E+06 7.56292E+07
 -1       312-3.56301E+07-7.68617E+07 3.95808E+04-2.91027E+08-3.94363E+07-1.47947E+07
 -1       313 1.18873E+09-5.90903E+07-1.96019E+08 7.49792E+07 1.27488E+07-5.77702E+06
 -1       314 1.28148E+09 1.21098E+08 4.82487E+07 8.74544E+07 9.30623E+06 1.35991E+07
 -1       315 1.15616E+09 8.25409E+07-5.65581E+06 1.22228E+08 9.88371E+06 2.04445E+07
 -1       316 1.06980E+09 8.13202E+07 6.85052E+06 1.51861E+08 8.81494E+06 2.73923E+07
 -1       317 9.78338E+08 7.28300E+07 2.90853E+06 1.80647E+08 8.13765E+06 3.28887E+07
 -1       318 8.92759E+08 6.66678E+07 3.20452E+06 2.07088E+08 7.38167E+06 3.81913E+07
 -1       319 8.09970E+08 6.03884E+07 2.71851E+06 2.31389E+08 6.69036E+06 4.31770E+07
 -1       320 7.30484E+08 5.44967E+07 2.51725E+06 2.53350E+08 6.03209E+06 4.78057E+07
 -1       321 6.54012E+08 4.88116E+07 2.30038E+06 2.73031E+08 5.40573E+06 5.20143E+07
 -1       322 5.80591E+08 4.33525E+07 2.10183E+06 2.90512E+08 4.80600E+06 5.57846E+07
 -1       323 5.10282E+08 3.81194E+07 1.90692E+06 3.05893E+08 4.23218E+06 5.91246E+07
 -1       324 4.43189E+08 3.31235E+07 1.72035E+06 3.19273E+08 3.68461E+06 6.20541E+07
 -1       325 3.79440E+08 2.83762E+07 1.54421E+06 3.30749E+08 3.16445E+06 6.45959E+07
 -1       326 3.19180E+08 2.38895E+07 1.38068E+06 3.40419E+08 2.67312E+06 6.67729E+07
 -1       327 2.62574E+08 1.96763E+07 1.23131E+06 3.48383E+08 2.21214E+06 6.86069E+07
 -1       328 2.09806E+08 1.57513E+07 1.09778E+06 3.54745E+08 1.78312E+06 7.01194E+07
 -1       329 1.61075E+08 1.21305E+07 9.81474E+05 3.59610E+08 1.38749E+06 7.13341E+07
 -1       330 1.16593E+08 8.82970E+06 8.81264E+05 3.63091E+08 1.02618E+06 7.22813E+07
 -1       331 7.65679E+07 5.85972E+06 7.88667E+05 3.65311E+08 6.99084E+05 7.30050E+07
 -1       332 4.11843E+07 3.21870E+06 6.81697E+05 3.66424E+08 4.05076E+05 7.35678E+07
 -1       333 1.06009E+07 8.86987E+05 5.24996E+05 3.66643E+08 1.44641E+05 7.40400E+07
 -1       334-1.49940E+07-1.15836E+06 2.95251E+05 3.66260E+08-7.46852E+04 7.44429E+07
 -1       335-3.51748E+07-2.87978E+06 6.09975E+04 3.65595E+08-2.17908E+05 7.46072E+07
 -1       336-4.88692E+07-4.02757E+06 1.34958E+05 3.64750E+08-2.33593E+05 7.39912E+07
 -1       337-5.38460E+07-3.89383E+06 1.24520E+06 3.63078E+08 1.17118E+04 7.15426E+07
 -1       338-4.67789E+07-1.41205E+06 4.42297E+06 3.58305E+08 4.37800E+05 6.60590E+07
 -1       339-2.51911E+07 5.18401E+06 1.04330E+07 3.45909E+08 1.25434E+06 5.90020E+07
 -1       340 7.30987E+06 1.44980E+07 1.66965E+07 3.23047E+08-5.36395E+05 5.41280E+07
 -1       341 2.22434E+07 1.49578E+07 1.04732E+07 2.85466E+08 4.14428E+06 7.50781E+07
 -1       342 6.68165E+07 1.21567E+08 9.03021E+07 2.84417E+08-4.67758E+07-1.38696E+07
 -1       343 1.18873E+09-5.90903E+07-1.96019E+08-7.49792E+07 1.27488E+07 5.77702E+06
 -1       344 1.28148E+09 1.21098E+08 4.82487E+07-8.74544E+07 9.30623E+06-1.35991E+07
 -1       345 1.15616E+09 8.25409E+07-5.65581E+06-1.22228E+08 9.88371E+06-2.04445E+07
 -1       346 1.06980E+09 8.13202E+07 6.85052E+06-1.51861E+08 8.81494E+06-2.73923E+07
 -1       347 9.78338E+08 7.28300E+07 2.90853E+06-1.80647E+08 8.13765E+06-3.28887E+07
 -1       348 8.92759E+08 6.66678E+07 3.20452E+06-2.07088E+08 7.38167E+06-3.81913E+07
 -1       349 8.09970E+08 6.03884E+07 2.71851E+06-2.31389E+08 6.69036E+06-4.31770E+07
 -1       350 7.30484E+08 5.44967E+07 2.51725E+06-2.53350E+08 6.03209E+06-4.78057E+07
 -1       351 6.54012E+08 4.88116E+07 2.30038E+06-2.73031E+08 5.40573E+06-5.20143E+07
 -1       352 5.80591E+08 4.33525E+07 2.10183E+06-2.90512E+08 4.80600E+06-5.57846E+07
 -1       353 5.10282E+08 3.81194E+07 1.90692E+06-3.05893E+08 4.23218E+06-5.91246E+07
 -1       354 4.43189E+08 3.31235E+07 1.72035E+06-3.19273E+08 3.68461E+06-6.20541E+07
 -1       355 3.79440E+08 2.83762E+07 1.54421E+06-3.30749E+08 3.16445E+06-6.45959E+07
 -1       356 3.19180E+08 2.38895E+07 1.38068E+06-3.40419E+08 2.67312E+06-6.67729E+07
 -1       357 2.62574E+08 1.96763E+07 1.23131E+06-3.48383E+08 2.21214E+06-6.86069E+07
 -1       358 2.09806E+08 1.57513E+07 1.09778E+06-3.54745E+08 1.78312E+06-7.01194E+07
 -1       359 1.61075E+08 1.21305E+07 9.81474E+05-3.59610E+08 1.38749E+06-7.13341E+07
 -1       360 1.16593E+08 8.82970E+06 8.81264E+05-3.63091E+08 1.02618E+06-7.22813E+07
 -1       361 7.65679E+07 5.85972E+06 7.88667E+05-3.65311E+08 6.99084E+05-7.30050E+07
 -1       362 4.11843E+07 3.21870E+06 6.81697E+05-3.66424E+08 4.05076E+05-7.35678E+07
 -1       363 1.06009E+07 8.86987E+05 5.24996E+05-3.66643E+08 1.44641E+05-7.40400E+07
 -1       364-1.49940E+07-1.15836E+06 2.95251E+05-3.66260E+08-7.46852E+04-7.44429E+07
 -1       365-3.51748E+07-2.87978E+06 6.09975E+04-3.65595E+08-2.17908E+05-7.46072E+07
 -1       366-4.88692E+07-4.02757E+06 1.34958E+05-3.64750E+08-2.33593E+05-7.39912E+07
 -1       367-5.38460E+07-3.89383E+06 1.24520E+06-3.63078E+08 1.17118E+04-7.15426E+07
 -1       368-4.67789E+07-1.41205E+06 4.42297E+06-3.58305E+08 4.37800E+05-6.60590E+07
 -1       369-2.51911E+07 5.18401E+06 1.04330E+07-3.45909E+08 1.25434E+06-5.90020E+07
 -1       370 7.30987E+06 1.44980E+07 1.66965E+07-3.23047E+08-5.36395E+05-5.41280E+07
 -1       371 2.22434E+07 1.49578E+07 1.04732E+07-2.85466E+08 4.14428E+06-7.50781E+07
 -1       372 1.31395E+09-1.13162E+07-1.44121E+08 1.32736E+07-1.98439E+07-3.89457E+06
 -1       373 1.39052E+09 1.65770E+08 9.43609E+07 7.33208E+07-1.26362E+07-9.50643E+06
 -1       374 1.25665E+09 1.23833E+08 3.68779E+07 1.03946E+08-1.31500E+07-1.95607E+07
 -1       375 1.16464E+09 1.20902E+08 4.71761E+07 1.35420E+08-1.14570E+07-2.57094E+07
 -1       376 1.06704E+09 1.09776E+08 4.06045E+07 1.64239E+08-1.06690E+07-3.14903E+07
 -1       377 9.74556E+08 1.00702E+08 3.79538E+07 1.91432E+08-9.73010E+06-3.67880E+07
 -1       378 8.84426E+08 9.13314E+07 3.43381E+07 2.16261E+08-8.85030E+06-4.18361E+07
 -1       379 7.97606E+08 8.23923E+07 3.10224E+07 2.38795E+08-7.97796E+06-4.65117E+07
 -1       380 7.14028E+08 7.37764E+07 2.77947E+07 2.59043E+08-7.13171E+06-5.07708E+07
 -1       381 6.33812E+08 6.55247E+07 2.47198E+07 2.77103E+08-6.31544E+06-5.45921E+07
 -1       382 5.57031E+08 5.76354E+07 2.17863E+07 2.93079E+08-5.53290E+06-5.79847E+07
 -1       383 4.83783E+08 5.01151E+07 1.89959E+07 3.07074E+08-4.78580E+06-6.09685E+07
 -1       384 4.14194E+08 4.29740E+07 1.63496E+07 3.19189E+08-4.07546E+06-6.35670E+07
 -1       385 3.48414E+08 3.62266E+07 1.38519E+07 3.29527E+08-3.40316E+06-6.58031E+07
 -1       386 2.86618E+08 2.98904E+07 1.15087E+07 3.38190E+08-2.77044E+06-6.76990E+07
 -1       387 2.29000E+08 2.39842E+07 9.32580E+06 3.45286E+08-2.17923E+06-6.92765E+07
 -1       388 1.75771E+08 1.85278E+07 7.30937E+06 3.50924E+08-1.63204E+06-7.05598E+07
 -1       389 1.27165E+08 1.35431E+07 5.46687E+06 3.55218E+08-1.13247E+06-7.15792E+07
 -1       390 8.34481E+07 9.05866E+06 3.81242E+06 3.58295E+08-6.85606E+05-7.23791E+07
 -1       391 4.49325E+07 5.11994E+06 2.37653E+06 3.60310E+08-2.97527E+05-7.30221E+07
 -1       392 1.19925E+07 1.80182E+06 1.21692E+06 3.61480E+08 2.87312E+04-7.35783E+07
 -1       393-1.49670E+07-7.90140E+05 4.13797E+05 3.62105E+08 3.01077E+05-7.40691E+07
 -1       394-3.56591E+07-2.56676E+06 9.62588E+03 3.62520E+08 5.61163E+05-7.43251E+07
 -1       395-5.02614E+07-3.62147E+06-1.60876E+05 3.62849E+08 8.70437E+05-7.38071E+07
 -1       396-5.99626E+07-4.56353E+06-7.90670E+05 3.62456E+08 1.35794E+06-7.14679E+07
 -1       397-6.72983E+07-6.74861E+06-3.33381E+06 3.59055E+08 1.87934E+06-6.61143E+07
 -1       398-7.45080E+07-1.25608E+07-9.68558E+06 3.47943E+08 2.48259E+06-5.92285E+07
 -1       399-7.98001E+07-2.27954E+07-2.06246E+07 3.25846E+08-2.82573E+05-5.45725E+07
 -1       400-6.52009E+07-3.10816E+07-2.95719E+07 2.87698E+08 2.12602E+06-7.56292E+07
 -1       401 8.38298E+08 3.59277E+08 3.59277E+08-3.17718E+08 7.35981E+01-7.55338E+07
 -1       402 9.14103E+08 3.91765E+08 3.91765E+08-2.92951E+08-4.15953E+01-8.93426E+07
 -1       403 6.68165E+07 1.21567E+08 9.03021E+07-2.84417E+08-4.67758E+07 1.38696E+07
 -1       404 4.11953E+07-5.75598E+07-3.77378E+06-9.68495E+07 1.44399E+07 2.45301E+06
 -1       405 5.14699E+07-4.11970E+07 1.53535E+07-1.19388E+08 1.12411E+07-8.36578E+06
 -1       406 4.59328E+07-3.72129E+07 1.26172E+07-1.59590E+08 1.30179E+07-1.57623E+07
 -1       407 4.28902E+07-3.50816E+07 1.39714E+07-1.94645E+08 1.23417E+07-2.21542E+07
 -1       408 3.94377E+07-3.19044E+07 1.28447E+07-2.27249E+08 1.15122E+07-2.85353E+07
 -1       409 3.59077E+07-2.91641E+07 1.16465E+07-2.57529E+08 1.04381E+07-3.43425E+07
 -1       410 3.25650E+07-2.64708E+07 1.04718E+07-2.85088E+08 9.43382E+06-3.96867E+07
 -1       411 2.93654E+07-2.38692E+07 9.43684E+06-3.09974E+08 8.49295E+06-4.45478E+07
 -1       412 2.63119E+07-2.13660E+07 8.50804E+06-3.32209E+08 7.62475E+06-4.89397E+07
 -1       413 2.33924E+07-1.89595E+07 7.65555E+06-3.51888E+08 6.80772E+06-5.28838E+07
 -1       414 2.06018E+07-1.66552E+07 6.85486E+06-3.69115E+08 6.03344E+06-5.64017E+07
 -1       415 1.79412E+07-1.44562E+07 6.09763E+06-3.83997E+08 5.29736E+06-5.95159E+07
 -1       416 1.54149E+07-1.23667E+07 5.38292E+06-3.96641E+08 4.59983E+06-6.22486E+07
 -1       417 1.30290E+07-1.03912E+07 4.71349E+06-4.07157E+08 3.94283E+06-6.46221E+07
 -1       418 1.07903E+07-8.53488E+06 4.09244E+06-4.15656E+08 3.32873E+06-6.66591E+07
 -1       419 8.70603E+06-6.80369E+06 3.52141E+06-4.22256E+08 2.75926E+06-6.83830E+07
 -1       420 6.78262E+06-5.20428E+06 2.99816E+06-4.27079E+08 2.23435E+06-6.98182E+07
 -1       421 5.02501E+06-3.74422E+06 2.51412E+06-4.30254E+08 1.75111E+06-7.09898E+07
 -1       422 3.43639E+06-2.43191E+06 2.05536E+06-4.31923E+08 1.30452E+06-7.19251E+07
 -1       423 2.02181E+06-1.27611E+06 1.61574E+06-4.32255E+08 8.94167E+05-7.26560E+07
 -1       424 8.00445E+05-2.83964E+05 1.23604E+06-4.31469E+08 5.43555E+05-7.32231E+07
 -1       425-1.69425E+05 5.42722E+05 1.07718E+06-4.29849E+08 3.33309E+05-7.36784E+07
 -1       426-7.61409E+05 1.21137E+06 1.49430E+06-4.27692E+08 4.37321E+05-7.40786E+07
 -1       427-7.84333E+05 1.73821E+06 2.98209E+06-4.25123E+08 1.06961E+06-7.44556E+07
 -1       428-1.09727E+05 2.14978E+06 5.69824E+06-4.21600E+08 2.31313E+06-7.47145E+07
 -1       429 8.27175E+05 2.25446E+06 8.05544E+06-4.15333E+08 3.16915E+06-7.45836E+07
 -1       430 8.79939E+05 2.30278E+06 5.54582E+06-4.02755E+08 2.03269E+06-7.33441E+07
 -1       431-4.91954E+06 3.83275E+05-1.43612E+07-3.80391E+08-9.61855E+06-7.09964E+07
 -1       432-1.97862E+07-2.87983E+06-6.60696E+07-3.56603E+08-2.78732E+07-6.64113E+07
 -1       433-3.56301E+07-7.68617E+07 3.95808E+04 2.91027E+08-3.94363E+07 1.47947E+07
 -1       434-8.38298E+08-3.59277E+08-3.59277E+08 3.17718E+08 7.35981E+01-7.55338E+07
 -1       435-9.14103E+08-3.91765E+08-3.91765E+08 2.92951E+08-4.15953E+01-8.93426E+07
 -1       436 1.97862E+07 2.87983E+06 6.60696E+07 3.56603E+08-2.78732E+07-6.64113E+07
 -1       437 4.91954E+06-3.83275E+05 1.43612E+07 3.80391E+08-9.61855E+06-7.09964E+07
 -1       438-8.79939E+05-2.30278E+06-5.54582E+06 4.02755E+08 2.03269E+06-7.33441E+07
 -1       439-8.27175E+05-2.25446E+06-8.05544E+06 4.15333E+08 3.16915E+06-7.45836E+07
 -1       440 1.09727E+05-2.14978E+06-5.69824E+06 4.21600E+08 2.31313E+06-7.47145E+07
 -1       441 7.84333E+05-1.73821E+06-2.98209E+06 4.25123E+08 1.06961E+06-7.44556E+07
 -1       442 7.61409E+05-1.21137E+06-1.49430E+06 4.27692E+08 4.37321E+05-7.40786E+07
 -1       443 1.69425E+05-5.42722E+05-1.07718E+06 4.29849E+08 3.33309E+05-7.36784E+07
 -1       444-8.00445E+05 2.83963E+05-1.23604E+06 4.31469E+08 5.43555E+05-7.32231E+07
 -1       445-2.02181E+06 1.27611E+06-1.61574E+06 4.32255E+08 8.94167E+05-7.26560E+07
 -1       446-3.43639E+06 2.43191E+06-2.05536E+06 4.31923E+08 1.30452E+06-7.19251E+07
 -1       447-5.02501E+06 3.74422E+06-2.51412E+06 4.30254E+08 1.75111E+06-7.09898E+07
 -1       448-6.78262E+06 5.20428E+06-2.99816E+06 4.27079E+08 2.23435E+06-6.98182E+07
 -1       449-8.70603E+06 6.80369E+06-3.52141E+06 4.22256E+08 2.75926E+06-6.83830E+07
 -1       450-1.07903E+07 8.53488E+06-4.09244E+06 4.15656E+08 3.32873E+06-6.66591E+07
 -1       451-1.30290E+07 1.03912E+07-4.71349E+06 4.07157E+08 3.94283E+06-6.46221E+07
 -1       452-1.54149E+07 1.23667E+07-5.38292E+06 3.96641E+08 4.59983E+06-6.22486E+07
 -1       453-1.79412E+07 1.44562E+07-6.09763E+06 3.83997E+08 5.29736E+06-5.95159E+07
 -1       454-2.06018E+07 1.66552E+07-6.85486E+06 3.69115E+08 6.03344E+06-5.64017E+07
 -1       455-2.33924E+07 1.89595E+07-7.65555E+06 3.51888E+08 6.80772E+06-5.28838E+07
 -1       456-2.63119E+07 2.13660E+07-8.50804E+06 3.32209E+08 7.62475E+06-4.89397E+07
 -1       457-2.93654E+07 2.38692E+07-9.43684E+06 3.09974E+08 8.49295E+06-4.45478E+07
 -1       458-3.25650E+07 2.64708E+07-1.04718E+07 2.85088E+08 9.43382E+06-3.96867E+07
 -1       459-3.59077E+07 2.91641E+07-1.16465E+07 2.57529E+08 1.04381E+07-3.43425E+07
 -1       460-3.94377E+07 3.19044E+07-1.28447E+07 2.27249E+08 1.15122E+07-2.85353E+07
 -1       461-4.28902E+07 3.50816E+07-1.39714E+07 1.94645E+08 1.23417E+07-2.21542E+07
 -1       462-4.59328E+07 3.72129E+07-1.26172E+07 1.59590E+08 1.30179E+07-1.57623E+07
 -1       463-5.14699E+07 4.11970E+07-1.53535E+07 1.19388E+08 1.12411E+07-8.36578E+06
 -1       464-4.11953E+07 5.75598E+07 3.77378E+06 9.68495E+07 1.44399E+07 2.45301E+06
 -1       465-6.68165E+07-1.21567E+08-9.03021E+07 2.84417E+08-4.67758E+07 1.38696E+07
 -1       466-1.18873E+09 5.90903E+07 1.96019E+08 7.49792E+07 1.27488E+07 5.77702E+06
 -1       467-1.28148E+09-1.21098E+08-4.82487E+07 8.74544E+07 9.30623E+06-1.35991E+07
 -1       468-1.15616E+09-8.25409E+07 5.65581E+06 1.22228E+08 9.88371E+06-2.04445E+07
 -1       469-1.06980E+09-8.13202E+07-6.85052E+06 1.51861E+08 8.81494E+06-2.73923E+07
 -1       470-9.78338E+08-7.28300E+07-2.90853E+06 1.80647E+08 8.13765E+06-3.28887E+07
 -1       471-8.92759E+08-6.66678E+07-3.20452E+06 2.07088E+08 7.38167E+06-3.81913E+07
 -1       472-8.09970E+08-6.03884E+07-2.71851E+06 2.31389E+08 6.69036E+06-4.31770E+07
 -1       473-7.30484E+08-5.44967E+07-2.51725E+06 2.53350E+08 6.03209E+06-4.78057E+07
 -1       474-6.54012E+08-4.88116E+07-2.30038E+06 2.73031E+08 5.40573E+06-5.20143E+07
 -1       475-5.80591E+08-4.33525E+07-2.10183E+06 2.90512E+08 4.80600E+06-5.57846E+07
 -1       476-5.10282E+08-3.81194E+07-1.90692E+06 3.05893E+08 4.23218E+06-5.91246E+07
 -1       477-4.43189E+08-3.31235E+07-1.72035E+06 3.19273E+08 3.68461E+06-6.20541E+07
 -1       478-3.79440E+08-2.83762E+07-1.54421E+06 3.30749E+08 3.16445E+06-6.45959E+07
 -1       479-3.19180E+08-2.38895E+07-1.38068E+06 3.40419E+08 2.67312E+06-6.67729E+07
 -1       480-2.62574E+08-1.96763E+07-1.23131E+06 3.48383E+08 2.21214E+06-6.86069E+07
 -1       481-2.09806E+08-1.57513E+07-1.09778E+06 3.54745E+08 1.78312E+06-7.01194E+07
 -1       482-1.61075E+08-1.21305E+07-9.81474E+05 3.59610E+08 1.38749E+06-7.13341E+07
 -1       483-1.16593E+08-8.82970E+06-8.81264E+05 3.63091E+08 1.02618E+06-7.22813E+07
 -1       484-7.65679E+07-5.85972E+06-7.88667E+05 3.65311E+08 6.99084E+05-7.30050E+07
 -1       485-4.11843E+07-3.21870E+06-6.81697E+05 3.66424E+08 4.05076E+05-7.35678E+07
 -1       486-1.06009E+07-8.86987E+05-5.24996E+05 3.66643E+08 1.44641E+05-7.40400E+07
 -1       487 1.49940E+07 1.15836E+06-2.95251E+05 3.66260E+08-7.46852E+04-7.44429E+07
 -1       488 3.51748E+07 2.87978E+06-6.09975E+04 3.65595E+08-2.17908E+05-7.46072E+07
 -1       489 4.88692E+07 4.02757E+06-1.34958E+05 3.64750E+08-2.33593E+05-7.39912E+07
 -1       490 5.38460E+07 3.89383E+06-1.24520E+06 3.63078E+08 1.17118E+04-7.15426E+07
 -1       491 4.67789E+07 1.41205E+06-4.42297E+06 3.58305E+08 4.37800E+05-6.60590E+07
 -1       492 2.51911E+07-5.18401E+06-1.04330E+07 3.45909E+08 1.25434E+06-5.90020E+07
 -1       493-7.30987E+06-1.44980E+07-1.66965E+07 3.23047E+08-5.36395E+05-5.41280E+07
 -1       494-2.22434E+07-1.49578E+07-1.04732E+07 2.85466E+08 4.14428E+06-7.50781E+07
 -1       495-1.31395E+09 1.13162E+07 1.44121E+08-1.32736E+07-1.98439E+07-3.89457E+06
 -1       496-1.39052E+09-1.65770E+08-9.43609E+07-7.33208E+07-1.26362E+07-9.50643E+06
 -1       497-1.25665E+09-1.23833E+08-3.68779E+07-1.03946E+08-1.31500E+07-1.95607E+07
 -1       498-1.16464E+09-1.20902E+08-4.71761E+07-1.35420E+08-1.14570E+07-2.57094E+07
 -1       499-1.06704E+09-1.09776E+08-4.06045E+07-1.64239E+08-1.06690E+07-3.14903E+07
 -1       500-9.74556E+08-1.00702E+08-3.79538E+07-1.91432E+08-9.73010E+06-3.67880E+07
 -1       501-8.84426E+08-9.13314E+07-3.43381E+07-2.16261E+08-8.85030E+06-4.18361E+07
 -1       502-7.97606E+08-8.23923E+07-3.10224E+07-2.38795E+08-7.97796E+06-4.65117E+07
 -1       503-7.14028E+08-7.37764E+07-2.77947E+07-2.59043E+08-7.13171E+06-5.07708E+07
 -1       504-6.33812E+08-6.55247E+07-2.47198E+07-2.77103E+08-6.31544E+06-5.45921E+07
 -1       505-5.57031E+08-5.76354E+07-2.17863E+07-2.93079E+08-5.53290E+06-5.79847E+07
 -1       506-4.83783E+08-5.01151E+07-1.89959E+07-3.07074E+08-4.78580E+06-6.09685E+07
 -1       507-4.14194E+08-4.29740E+07-1.63496E+07-3.19189E+08-4.07546E+06-6.35670E+07
 -1       508-3.48414E+08-3.62266E+07-1.38519E+07-3.29527E+08-3.40316E+06-6.58031E+07
 -1       509-2.86618E+08-2.98904E+07-1.15087E+07-3.38190E+08-2.77044E+06-6.76990E+07
 -1       510-2.29000E+08-2.39842E+07-9.32580E+06-3.45286E+08-2.17923E+06-6.92765E+07
 -1       511-1.75771E+08-1.85278E+07-7.30937E+06-3.50924E+08-1.63204E+06-7.05598E+07
 -1       512-1.27165E+08-1.35431E+07-5.46687E+06-3.55218E+08-1.13247E+06-7.15792E+07
 -1       513-8.34481E+07-9.05866E+06-3.81242E+06-3.58295E+08-6.85606E+05-7.23791E+07
 -1       514-4.49325E+07-5.11994E+06-2.37653E+06-3.60310E+08-2.97527E+05-7.30221E+07
 -1       515-1.19925E+07-1.80182E+06-1.21692E+06-3.61480E+08 2.87312E+04-7.35783E+07
 -1       516 1.49670E+07 7.90140E+05-4.13797E+05-3.62105E+08 3.01077E+05-7.40691E+07
 -1       517 3.56591E+07 2.56676E+06-9.62587E+03-3.62520E+08 5.61163E+05-7.43251E+07
 -1       518 5.02614E+07 3.62147E+06 1.60876E+05-3.62849E+08 8.70437E+05-7.38071E+07
 -1       519 5.99626E+07 4.56353E+06 7.90670E+05-3.62456E+08 1.35794E+06-7.14679E+07
 -1       520 6.72983E+07 6.74861E+06 3.33381E+06-3.59055E+08 1.87934E+06-6.61143E+07
 -1       521 7.45080E+07 1.25608E+07 9.68558E+06-3.47943E+08 2.48259E+06-5.92285E+07
 -1       522 7.98001E+07 2.27954E+07 2.06246E+07-3.25846E+08-2.82573E+05-5.45725E+07
 -1       523 6.52009E+07 3.10816E+07 2.95719E+07-2.87698E+08 2.12602E+06-7.56292E+07
 -1       524 3.56301E+07 7.68617E+07-3.95808E+04-2.91027E+08-3.94363E+07 1.47947E+07
 -1       525-4.12773E+07-1.77287E+07-1.78182E+07 1.46056E+06 1.14730E+06 2.55666E+07
 -1       526-4.09128E+07-1.82412E+07-1.98912E+07 1.04262E+06 2.38213E+06 5.13397E+07
 -1       527-3.83564E+07-1.73986E+07-1.96390E+07 4.88403E+05 3.20765E+06 7.46426E+07
 -1       528-3.50036E+07-1.59498E+07-1.81625E+07-1.99679E+06 3.40698E+06 9.62242E+07
 -1       529-3.20327E+07-1.46173E+07-1.66914E+07-3.86651E+06 3.20493E+06 1.16046E+08
 -1       530-2.91660E+07-1.33006E+07-1.51692E+07-5.49318E+06 2.88701E+06 1.34147E+08
 -1       531-2.64187E+07-1.20375E+07-1.37064E+07-7.03168E+06 2.58945E+06 1.50616E+08
 -1       532-2.38062E+07-1.08421E+07-1.23341E+07-8.41286E+06 2.33136E+06 1.65512E+08
 -1       533-2.13072E+07-9.70424E+06-1.10402E+07-9.66395E+06 2.10713E+06 1.78894E+08
 -1       534-1.89113E+07-8.61618E+06-9.80934E+06-1.07978E+07 1.90460E+06 1.90822E+08
 -1       535-1.66156E+07-7.57472E+06-8.63348E+06-1.18267E+07 1.71615E+06 2.01353E+08
 -1       536-1.44232E+07-6.58034E+06-7.51126E+06-1.27572E+07 1.53855E+06 2.10550E+08
 -1       537-1.23388E+07-5.63502E+06-6.44455E+06-1.35954E+07 1.37140E+06 2.18475E+08
 -1       538-1.03680E+07-4.74132E+06-5.43644E+06-1.43476E+07 1.21544E+06 2.25195E+08
 -1       539-8.51647E+06-3.90205E+06-4.49035E+06-1.50201E+07 1.07154E+06 2.30778E+08
 -1       540-6.79072E+06-3.12004E+06-3.60941E+06-1.56201E+07 9.40034E+05 2.35297E+08
 -1       541-5.19696E+06-2.39775E+06-2.79555E+06-1.61542E+07 8.19908E+05 2.38827E+08
 -1       542-3.74020E+06-1.73654E+06-2.04827E+06-1.66281E+07 7.08007E+05 2.41450E+08
 -1       543-2.42249E+06-1.13600E+06-1.36418E+06-1.70451E+07 5.99357E+05 2.43250E+08
 -1       544-1.24242E+06-5.94935E+05-7.40693E+05-1.74069E+07 4.91750E+05 2.44314E+08
 -1       545-2.00603E+05-1.17193E+05-1.90040E+05-1.77190E+07 3.98823E+05 2.44733E+08
 -1       546 6.82769E+05 2.74513E+05 2.32274E+05-1.80028E+07 3.75745E+05 2.44603E+08
 -1       547 1.33390E+06 5.17710E+05 3.91800E+05-1.83185E+07 5.41016E+05 2.44021E+08
 -1       548 1.57501E+06 4.92172E+05 6.55642E+04-1.88069E+07 1.06816E+06 2.43100E+08
 -1       549 1.06607E+06 3.21464E+04-9.58915E+05-1.97625E+07 1.97474E+06 2.41986E+08
 -1       550-5.16606E+05-8.73769E+05-2.39596E+06-2.13296E+07 2.83367E+06 2.40885E+08
 -1       551-2.35510E+06-1.36611E+06-2.19861E+06-2.20968E+07 1.64067E+06 2.40058E+08
 -1       552-1.03648E+06 1.05700E+06 4.55983E+06-1.95026E+07-4.03447E+06 2.39929E+08
 -1       553 7.19817E+06 8.88539E+06 2.24198E+07-1.45940E+07-2.56521E+07 2.39985E+08
 -1       554-2.94136E-03 1.41055E-02 3.08279E-03 2.70645E-03-2.47001E+06 2.53692E+07
 -1       555-7.40203E-03 8.36131E-03-1.19443E-03-9.26035E-04 2.34409E+06 5.03274E+07
 -1       556-1.85189E-02 1.09381E-02-3.55752E-03-5.99307E-03 3.62184E+06 7.40662E+07
 -1       557-2.84206E-02 7.14941E-03-3.18052E-03-5.69731E-03 3.44394E+06 9.55566E+07
 -1       558-3.11121E-02 1.61015E-03-3.50762E-03-5.34528E-03 3.23323E+06 1.15168E+08
 -1       559-3.10913E-02-9.69261E-04-9.86058E-03-1.38904E-03 2.90500E+06 1.33076E+08
 -1       560-2.90829E-02-2.39798E-03-9.43472E-03 1.28870E-03 2.57074E+06 1.49344E+08
 -1       561-3.60421E-02-2.48241E-03-7.30928E-03-5.58350E-03 2.27640E+06 1.64052E+08
 -1       562-4.84335E-02-8.18251E-03-5.97466E-03-7.81378E-03 2.01880E+06 1.77267E+08
 -1       563-5.27250E-02-1.14968E-02-1.53468E-02-2.75372E-03 1.78399E+06 1.89046E+08
 -1       564-4.70911E-02-1.43655E-02-1.95115E-02-2.21829E-03 1.56201E+06 1.99446E+08
 -1       565-4.14697E-02-1.54456E-02-2.62124E-02-1.22385E-03 1.34949E+06 2.08526E+08
 -1       566-3.60318E-02-1.15770E-02-2.13574E-02 4.99622E-03 1.14625E+06 2.16348E+08
 -1       567-3.02426E-02-6.66193E-03-7.25876E-03 5.73863E-03 9.53317E+05 2.22977E+08
 -1       568-2.46468E-02-2.59514E-03-3.89131E-03-2.25846E-04 7.71836E+05 2.28481E+08
 -1       569-2.36228E-02-4.40596E-03-7.10378E-03-5.29682E-03 6.02317E+05 2.32931E+08
 -1       570-2.73853E-02-8.72799E-03-1.45177E-02-1.80828E-03 4.43702E+05 2.36405E+08
 -1       571-2.54771E-02-7.83112E-03-1.57039E-02 2.76743E-03 2.92362E+05 2.38981E+08
 -1       572-1.99514E-02-3.69733E-03-6.43020E-03 3.30856E-03 1.42401E+05 2.40743E+08
 -1       573-2.04359E-02-8.96584E-04 6.65535E-03 2.65479E-03-8.90932E+03 2.41776E+08
 -1       574-2.34323E-02 1.06530E-03 1.27989E-02 4.73103E-04-1.45709E+05 2.42161E+08
 -1       575-2.30335E-02 6.50916E-04 1.26930E-02-1.91985E-03-2.05153E+05 2.41974E+08
 -1       576-2.11878E-02-1.46552E-04 7.34369E-03 4.22902E-04-5.43655E+04 2.41293E+08
 -1       577-1.51141E-02 5.57159E-05 4.58402E-03 1.16320E-03 5.14775E+05 2.40227E+08
 -1       578-7.52682E-03-5.11590E-05 6.49186E-04-1.09844E-03 1.58135E+06 2.39005E+08
 -1       579 2.77157E-04-2.82270E-04-2.44687E-03-3.69847E-04 2.74799E+06 2.38177E+08
 -1       580 4.79892E-03-2.77774E-04 2.66872E-03 1.42216E-03 8.65018E+05 2.38600E+08
 -1       581 3.06417E-03 3.25475E-03 9.02900E-03 3.59917E-03-6.79905E+06 2.40840E+08
 -1       582 5.79275E-04 1.64846E-03 1.78880E-02 1.61075E-03-2.89627E+07 2.43145E+08
 -1       583 4.12773E+07 1.77287E+07 1.78182E+07-1.46056E+06 1.14730E+06 2.55666E+07
 -1       584 4.09128E+07 1.82412E+07 1.98912E+07-1.04262E+06 2.38213E+06 5.13397E+07
 -1       585 3.83564E+07 1.73986E+07 1.96390E+07-4.88403E+05 3.20765E+06 7.46426E+07
 -1       586 3.50036E+07 1.59498E+07 1.81625E+07 1.99679E+06 3.40698E+06 9.62242E+07
 -1       587 3.20327E+07 1.46173E+07 1.66914E+07 3.86651E+06 3.20493E+06 1.16046E+08
 -1       588 2.91660E+07 1.33006E+07 1.51692E+07 5.49318E+06 2.88701E+06 1.34147E+08
 -1       589 2.64187E+07 1.20375E+07 1.37064E+07 7.03168E+06 2.58945E+06 1.50616E+08
 -1       590 2.38062E+07 1.08421E+07 1.23341E+07 8.41286E+06 2.33136E+06 1.65512E+08
 -1       591 2.13072E+07 9.70424E+06 1.10402E+07 9.66395E+06 2.10713E+06 1.78894E+08
 -1       592 1.89113E+07 8.61618E+06 9.80934E+06 1.07978E+07 1.90460E+06 1.90822E+08
 -1       593 1.66156E+07 7.57472E+06 8.63348E+06 1.18267E+07 1.71615E+06 2.01353E+08
 -1       594 1.44232E+07 6.58034E+06 7.51126E+06 1.27572E+07 1.53855E+06 2.10550E+08
 -1       595 1.23388E+07 5.63502E+06 6.44455E+06 1.35954E+07 1.37140E+06 2.18475E+08
 -1       596 1.03680E+07 4.74132E+06 5.43644E+06 1.43476E+07 1.21544E+06 2.25195E+08
 -1       597 8.51647E+06 3.90205E+06 4.49035E+06 1.50201E+07 1.07154E+06 2.30778E+08
 -1       598 6.79072E+06 3.12004E+06 3.60941E+06 1.56201E+07 9.40034E+05 2.35297E+08
 -1       599 5.19696E+06 2.39775E+06 2.79555E+06 1.61542E+07 8.19908E+05 2.38827E+08
 -1       600 3.74020E+06 1.73654E+06 2.04827E+06 1.66281E+07 7.08007E+05 2.41450E+08
 -1       601 2.42249E+06 1.13600E+06 1.36418E+06 1.70451E+07 5.99357E+05 2.43250E+08
 -1       602 1.24242E+06 5.94935E+05 7.40693E+05 1.74069E+07 4.91750E+05 2.44314E+08
 -1       603 2.00603E+05 1.17193E+05 1.90040E+05 1.77190E+07 3.98823E+05 2.44733E+08
 -1       604-6.82769E+05-2.74513E+05-2.32274E+05 1.80028E+07 3.75745E+05 2.44603E+08
 -1       605-1.33390E+06-5.17710E+05-3.91800E+05 1.83185E+07 5.41016E+05 2.44021E+08
 -1       606-1.57501E+06-4.92172E+05-6.55642E+04 1.88069E+07 1.06816E+06 2.43100E+08
 -1       607-1.06607E+06-3.21464E+04 9.58915E+05 1.97625E+07 1.97474E+06 2.41986E+08
 -1       608 5.16606E+05 8.73769E+05 2.39596E+06 2.13296E+07 2.83367E+06 2.40885E+08
 -1       609 2.35510E+06 1.36611E+06 2.19861E+06 2.20968E+07 1.64067E+06 2.40058E+08
 -1       610 1.03648E+06-1.05700E+06-4.55983E+06 1.95026E+07-4.03447E+06 2.39929E+08
 -1       611-7.19817E+06-8.88539E+06-2.24198E+07 1.45940E+07-2.56521E+07 2.39985E+08
 -1       612-4.12773E+07-1.77287E+07-1.78182E+07-1.46056E+06 1.14730E+06-2.55666E+07
 -1       613-4.09128E+07-1.82412E+07-1.98912E+07-1.04262E+06 2.38213E+06-5.13397E+07
 -1       614-3.83564E+07-1.73986E+07-1.96390E+07-4.88403E+05 3.20765E+06-7.46426E+07
 -1       615-3.50036E+07-1.59498E+07-1.81625E+07 1.99679E+06 3.40698E+06-9.62242E+07
 -1       616-3.20327E+07-1.46173E+07-1.66914E+07 3.86651E+06 3.20493E+06-1.16046E+08
 -1       617-2.91660E+07-1.33006E+07-1.51692E+07 5.49318E+06 2.88701E+06-1.34147E+08
 -1       618-2.64187E+07-1.20375E+07-1.37064E+07 7.03168E+06 2.58945E+06-1.50616E+08
 -1       619-2.38062E+07-1.08421E+07-1.23341E+07 8.41286E+06 2.33136E+06-1.65512E+08
 -1       620-2.13072E+07-9.70424E+06-1.10402E+07 9.66395E+06 2.10713E+06-1.78894E+08
 -1       621-1.89113E+07-8.61618E+06-9.80934E+06 1.07978E+07 1.90460E+06-1.90822E+08
 -1       622-1.66156E+07-7.57472E+06-8.63348E+06 1.18267E+07 1.71615E+06-2.01353E+08
 -1       623-1.44232E+07-6.58034E+06-7.51126E+06 1.27572E+07 1.53855E+06-2.10550E+08
 -1       624-1.23388E+07-5.63502E+06-6.44455E+06 1.35954E+07 1.37140E+06-2.18475E+08
 -1       625-1.03680E+07-4.74132E+06-5.43644E+06 1.43476E+07 1.21544E+06-2.25195E+08
 -1       626-8.51647E+06-3.90205E+06-4.49035E+06 1.50201E+07 1.07154E+06-2.30778E+08
 -1       627-6.79072E+06-3.12004E+06-3.60941E+06 1.56201E+07 9.40034E+05-2.35297E+08
 -1       628-5.19696E+06-2.39775E+06-2.79555E+06 1.61542E+07 8.19908E+05-2.38827E+08
 -1       629-3.74020E+06-1.73654E+06-2.04827E+06 1.66281E+07 7.08007E+05-2.41450E+08
 -1       630-2.42249E+06-1.13600E+06-1.36418E+06 1.70451E+07 5.99357E+05-2.43250E+08
 -1       631-1.24242E+06-5.94935E+05-7.40693E+05 1.74069E+07 4.91750E+05-2.44314E+08
 -1       632-2.00603E+05-1.17193E+05-1.90040E+05 1.77190E+07 3.98823E+05-2.44733E+08
 -1       633 6.82769E+05 2.74513E+05 2.32274E+05 1.80028E+07 3.75745E+05-2.44603E+08
 -1       634 1.33390E+06 5.17710E+05 3.91800E+05 1.83185E+07 5.41016E+05-2.44021E+08
 -1       635 1.57501E+06 4.92172E+05 6.55642E+04 1.88069E+07 1.06816E+06-2.43100E+08
 -1       636 1.06607E+06 3.21464E+04-9.58915E+05 1.97625E+07 1.97474E+06-2.41986E+08
 -1       637-5.16606E+05-8.73769E+05-2.39596E+06 2.13296E+07 2.83367E+06-2.40885E+08
 -1       638-2.35510E+06-1.36611E+06-2.19861E+06 2.20968E+07 1.64067E+06-2.40058E+08
 -1       639-1.03648E+06 1.05700E+06 4.55983E+06 1.95026E+07-4.03447E+06-2.39929E+08
 -1       640 7.19817E+06 8.88539E+06 2.24198E+07 1.45940E+07-2.56521E+07-2.39985E+08
 -1       641-5.28449E-02-7.98886E-03-2.06615E-02 2.88707E-03-2.47001E+06-2.53692E+07
 -1       642-5.88525E-02-1.50540E-02-2.77950E-02-8.69798E-04 2.34409E+06-5.03274E+07
 -1       643-6.10386E-02-8.00375E-03-2.41734E-02-5.90241E-03 3.62184E+06-7.40662E+07
 -1       644-5.57174E-02-3.65581E-03-1.18990E-02-5.79534E-03 3.44394E+06-9.55566E+07
 -1       645-4.39039E-02-1.43528E-03-8.76233E-04-5.44261E-03 3.23323E+06-1.15168E+08
 -1       646-3.43408E-02 9.94008E-04-6.68497E-05-1.44854E-03 2.90500E+06-1.33076E+08
 -1       647-3.04378E-02 2.77935E-04 8.32566E-04 1.25822E-03 2.57074E+06-1.49344E+08
 -1       648-3.03621E-02 3.92197E-03 8.33259E-03-5.62302E-03 2.27640E+06-1.64052E+08
 -1       649-2.53890E-02 7.62095E-03 2.36755E-02-7.86796E-03 2.01880E+06-1.77267E+08
 -1       650-1.60057E-02 1.15693E-02 2.47784E-02-2.82909E-03 1.78399E+06-1.89046E+08
 -1       651-3.87813E-03 1.18045E-02 2.45454E-02-2.32443E-03 1.56201E+06-1.99446E+08
 -1       652 4.50827E-03 1.12573E-02 1.68068E-02-1.27132E-03 1.34949E+06-2.08526E+08
 -1       653 3.12615E-03 1.01790E-02 1.20625E-02 4.93827E-03 1.14625E+06-2.16348E+08
 -1       654-5.71497E-03 6.30583E-03 1.14162E-02 5.68307E-03 9.53317E+05-2.22977E+08
 -1       655-8.37809E-03 5.25155E-03 6.00011E-03-2.88107E-04 7.71836E+05-2.28481E+08
 -1       656-1.85323E-03 6.24514E-03 6.63031E-03-5.40198E-03 6.02317E+05-2.32931E+08
 -1       657 2.80476E-03 6.86392E-03 7.29548E-03-1.89129E-03 4.43702E+05-2.36405E+08
 -1       658 3.29420E-03 7.20339E-03 5.66499E-03 2.68644E-03 2.92362E+05-2.38981E+08
 -1       659-1.17806E-04 5.94391E-03 5.96647E-03 3.19213E-03 1.42401E+05-2.40743E+08
 -1       660-9.38220E-03 3.33804E-03 9.75390E-03 2.55073E-03-8.90932E+03-2.41776E+08
 -1       661-1.73042E-02 2.29477E-03 1.06658E-02 3.78583E-04-1.45709E+05-2.42161E+08
 -1       662-1.60324E-02 2.34911E-03 1.12314E-02-2.04028E-03-2.05153E+05-2.41974E+08
 -1       663-1.27105E-02 2.41057E-03 7.65197E-03 2.88916E-04-5.43655E+04-2.41293E+08
 -1       664-9.01604E-03 1.33699E-03 2.57252E-03 9.97187E-04 5.14775E+05-2.40227E+08
 -1       665-2.49091E-03 2.52921E-04-3.42178E-03-1.28748E-03 1.58135E+06-2.39005E+08
 -1       666 5.72363E-03-3.82400E-04-8.22711E-03-5.98729E-04 2.74799E+06-2.38177E+08
 -1       667 7.86514E-03-2.15579E-03-6.72471E-03 1.25678E-03 8.65018E+05-2.38600E+08
 -1       668 4.11167E-06-1.86133E-03-5.51799E-03 3.40580E-03-6.79905E+06-2.40840E+08
 -1       669-8.97831E-03-7.40923E-03-2.29120E-03 1.34425E-03-2.89627E+07-2.43145E+08
 -1       670 4.12773E+07 1.77287E+07 1.78182E+07 1.46056E+06 1.14730E+06-2.55666E+07
 -1       671 4.09128E+07 1.82412E+07 1.98912E+07 1.04262E+06 2.38213E+06-5.13397E+07
 -1       672 3.83564E+07 1.73986E+07 1.96390E+07 4.88403E+05 3.20765E+06-7.46426E+07
 -1       673 3.50036E+07 1.59498E+07 1.81625E+07-1.99679E+06 3.40698E+06-9.62242E+07
 -1       674 3.20327E+07 1.46173E+07 1.66914E+07-3.86651E+06 3.20493E+06-1.16046E+08
 -1       675 2.91660E+07 1.33006E+07 1.51692E+07-5.49318E+06 2.88701E+06-1.34147E+08
 -1       676 2.64187E+07 1.20375E+07 1.37064E+07-7.03168E+06 2.58945E+06-1.50616E+08
 -1       677 2.38062E+07 1.08421E+07 1.23341E+07-8.41286E+06 2.33136E+06-1.65512E+08
 -1       678 2.13072E+07 9.70424E+06 1.10402E+07-9.66395E+06 2.10713E+06-1.78894E+08
 -1       679 1.89113E+07 8.61618E+06 9.80934E+06-1.07978E+07 1.90460E+06-1.90822E+08
 -1       680 1.66156E+07 7.57472E+06 8.63348E+06-1.18267E+07 1.71615E+06-2.01353E+08
 -1       681 1.44232E+07 6.58034E+06 7.51126E+06-1.27572E+07 1.53855E+06-2.10550E+08
 -1       682 1.23388E+07 5.63502E+06 6.44455E+06-1.35954E+07 1.37140E+06-2.18475E+08
 -1       683 1.03680E+07 4.74132E+06 5.43644E+06-1.43476E+07 1.21544E+06-2.25195E+08
 -1       684 8.51647E+06 3.90205E+06 4.49035E+06-1.50201E+07 1.07154E+06-2.30778E+08
 -1       685 6.79072E+06 3.12004E+06 3.60941E+06-1.56201E+07 9.40034E+05-2.35297E+08
 -1       686 5.19696E+06 2.39775E+06 2.79555E+06-1.61542E+07 8.19908E+05-2.38827E+08
 -1       687 3.74020E+06 1.73654E+06 2.04827E+06-1.66281E+07 7.08007E+05-2.41450E+08
 -1       688 2.42249E+06 1.13600E+06 1.36418E+06-1.70451E+07 5.99357E+05-2.43250E+08
 -1       689 1.24242E+06 5.94935E+05 7.40693E+05-1.74069E+07 4.91750E+05-2.44314E+08
 -1       690 2.00603E+05 1.17193E+05 1.90040E+05-1.77190E+07 3.98823E+05-2.44733E+08
 -1       691-6.82769E+05-2.74513E+05-2.32274E+05-1.80028E+07 3.75745E+05-2.44603E+08
 -1       692-1.33390E+06-5.17710E+05-3.91800E+05-1.83185E+07 5.41016E+05-2.44021E+08
 -1       693-1.57501E+06-4.92172E+05-6.55642E+04-1.88069E+07 1.06816E+06-2.43100E+08
 -1       694-1.06607E+06-3.21464E+04 9.58915E+05-1.97625E+07 1.97474E+06-2.41986E+08
 -1       695 5.16606E+05 8.73769E+05 2.39596E+06-2.13296E+07 2.83367E+06-2.40885E+08
 -1       696 2.35510E+06 1.36611E+06 2.19861E+06-2.20968E+07 1.64067E+06-2.40058E+08
 -1       697 1.03648E+06-1.05700E+06-4.55983E+06-1.95026E+07-4.03447E+06-2.39929E+08
 -1       698-7.19817E+06-8.88539E+06-2.24198E+07-1.45940E+07-2.56521E+07-2.39985E+08
 -1       699-5.88738E+08 1.07047E+08 1.21433E+08-7.79280E+07 2.09148E+07-7.96713E+06
 -1       700-6.51248E+08 3.95813E+06-2.73982E+06-1.04462E+08 1.48728E+07-6.78106E+06
 -1       701-5.78872E+08 1.81080E+07 1.89533E+07-1.39083E+08 1.55828E+07-9.68252E+06
 -1       702-5.35233E+08 1.71381E+07 1.57657E+07-1.70247E+08 1.42850E+07-1.24907E+07
 -1       703-4.89989E+08 1.58656E+07 1.50037E+07-1.99904E+08 1.32570E+07-1.55170E+07
 -1       704-4.46946E+08 1.45107E+07 1.36788E+07-2.27268E+08 1.20775E+07-1.82649E+07
 -1       705-4.05609E+08 1.31269E+07 1.23959E+07-2.52342E+08 1.09522E+07-2.07256E+07
 -1       706-3.65833E+08 1.18077E+07 1.11524E+07-2.74976E+08 9.87379E+06-2.29024E+07
 -1       707-3.27557E+08 1.05829E+07 9.98984E+06-2.95219E+08 8.84798E+06-2.48382E+07
 -1       708-2.90798E+08 9.42959E+06 8.89169E+06-3.13152E+08 7.87012E+06-2.65589E+07
 -1       709-2.55595E+08 8.33758E+06 7.85055E+06-3.28876E+08 6.93734E+06-2.80820E+07
 -1       710-2.22002E+08 7.30027E+06 6.86124E+06-3.42490E+08 6.04887E+06-2.94182E+07
 -1       711-1.90085E+08 6.31698E+06 5.92315E+06-3.54094E+08 5.20567E+06-3.05763E+07
 -1       712-1.59916E+08 5.38989E+06 5.03814E+06-3.63786E+08 4.40965E+06-3.15652E+07
 -1       713-1.31577E+08 4.52182E+06 4.20870E+06-3.71671E+08 3.66307E+06-3.23947E+07
 -1       714-1.05160E+08 3.71471E+06 3.43664E+06-3.77853E+08 2.96811E+06-3.30753E+07
 -1       715-8.07673E+07 2.96824E+06 2.72207E+06-3.82443E+08 2.32649E+06-3.36170E+07
 -1       716-5.85070E+07 2.27919E+06 2.06322E+06-3.85557E+08 1.73919E+06-3.40277E+07
 -1       717-3.84882E+07 1.64444E+06 1.45944E+06-3.87322E+08 1.20715E+06-3.43103E+07
 -1       718-2.08050E+07 1.07283E+06 9.21369E+05-3.87898E+08 7.34113E+05-3.44646E+07
 -1       719-5.52193E+06 6.11204E+05 4.91624E+05-3.87502E+08 3.34295E+05-3.44980E+07
 -1       720 7.31933E+06 3.80798E+05 2.70075E+05-3.86429E+08 4.15451E+04-3.44592E+07
 -1       721 1.76195E+07 5.91748E+05 4.15274E+05-3.84996E+08-7.78676E+04-3.44925E+07
 -1       722 2.49767E+07 1.42615E+06 1.02790E+06-3.83298E+08 2.25821E+04-3.49108E+07
 -1       723 2.82533E+07 2.59906E+06 1.79834E+06-3.80657E+08 3.62135E+05-3.61108E+07
 -1       724 2.53162E+07 2.79242E+06 1.44867E+06-3.74838E+08 3.33369E+05-3.80888E+07
 -1       725 1.26425E+07-2.35153E+06-3.21168E+06-3.61431E+08-1.55248E+05-4.03743E+07
 -1       726-9.19837E+06-1.73855E+07-1.60348E+07-3.36951E+08-5.96649E+06-3.59418E+07
 -1       727-3.00902E+07-4.61256E+07-3.88341E+07-3.02542E+08-7.95753E+06-1.80371E+07
 -1       728-6.60402E+08 7.38580E+07 8.99771E+07 1.14715E+07-1.15631E+07-2.99669E+06
 -1       729-7.14953E+08-2.76266E+07-3.13268E+07 6.14589E+07-8.44148E+06-8.82573E+06
 -1       730-6.38577E+08-1.39298E+07-8.56947E+06 9.57026E+07-7.88114E+06-1.02084E+07
 -1       731-5.91913E+08-1.41215E+07-1.06161E+07 1.28707E+08-6.92788E+06-1.32680E+07
 -1       732-5.42925E+08-1.33145E+07-9.63115E+06 1.59592E+08-6.31462E+06-1.62383E+07
 -1       733-4.95651E+08-1.22087E+07-8.94872E+06 1.88474E+08-5.75040E+06-1.89685E+07
 -1       734-4.49901E+08-1.10833E+07-8.15480E+06 2.14925E+08-5.22684E+06-2.14019E+07
 -1       735-4.05765E+08-1.00198E+07-7.37560E+06 2.38956E+08-4.71375E+06-2.35530E+07
 -1       736-3.63293E+08-9.00439E+06-6.60724E+06 2.60600E+08-4.21309E+06-2.54628E+07
 -1       737-3.22532E+08-8.04680E+06-5.87131E+06 2.79963E+08-3.72690E+06-2.71575E+07
 -1       738-2.83519E+08-7.13942E+06-5.16980E+06 2.97154E+08-3.25873E+06-2.86540E+07
 -1       739-2.46305E+08-6.27964E+06-4.50348E+06 3.12287E+08-2.81069E+06-2.99628E+07
 -1       740-2.10953E+08-5.46691E+06-3.87228E+06 3.25469E+08-2.38417E+06-3.10923E+07
 -1       741-1.77540E+08-4.70244E+06-3.27655E+06 3.36811E+08-1.98014E+06-3.20514E+07
 -1       742-1.46154E+08-3.98807E+06-2.71712E+06 3.46424E+08-1.59961E+06-3.28497E+07
 -1       743-1.16893E+08-3.32529E+06-2.19512E+06 3.54422E+08-1.24399E+06-3.34975E+07
 -1       744-8.98655E+07-2.71470E+06-1.71228E+06 3.60922E+08-9.15277E+05-3.40049E+07
 -1       745-6.51898E+07-2.15631E+06-1.27229E+06 3.66048E+08-6.16209E+05-3.43794E+07
 -1       746-4.30005E+07-1.65219E+06-8.83237E+05 3.69932E+08-3.49586E+05-3.46242E+07
 -1       747-2.34562E+07-1.21372E+06-5.59957E+05 3.72740E+08-1.16014E+05-3.47384E+07
 -1       748-6.74662E+06-8.74194E+05-3.21402E+05 3.74693E+08 9.17928E+04-3.47286E+07
 -1       749 6.92366E+06-6.99519E+05-1.72721E+05 3.76098E+08 2.94547E+05-3.46413E+07
 -1       750 1.74038E+07-7.79002E+05-6.06792E+04 3.77301E+08 5.35169E+05-3.46185E+07
 -1       751 2.47871E+07-1.11359E+06 2.09081E+05 3.78456E+08 8.28895E+05-3.49734E+07
 -1       752 2.96876E+07-1.36499E+06 1.03941E+06 3.78950E+08 1.17892E+06-3.61131E+07
 -1       753 3.31773E+07-7.22069E+05 2.75264E+06 3.76579E+08 1.04524E+06-3.80587E+07
 -1       754 3.71986E+07 3.42672E+06 5.88861E+06 3.66861E+08 5.62368E+05-4.04022E+07
 -1       755 3.87439E+07 1.12620E+07 6.94212E+06 3.45490E+08-4.56360E+06-3.61929E+07
 -1       756 2.85835E+07 2.26705E+07-5.93133E+05 3.11553E+08-4.40814E+06-1.87050E+07
 -1       757 6.60402E+08-7.38580E+07-8.99771E+07-1.14715E+07-1.15631E+07-2.99669E+06
 -1       758 7.14953E+08 2.76266E+07 3.13268E+07-6.14589E+07-8.44148E+06-8.82573E+06
 -1       759 6.38577E+08 1.39298E+07 8.56947E+06-9.57026E+07-7.88114E+06-1.02084E+07
 -1       760 5.91913E+08 1.41215E+07 1.06161E+07-1.28707E+08-6.92788E+06-1.32680E+07
 -1       761 5.42925E+08 1.33145E+07 9.63115E+06-1.59592E+08-6.31462E+06-1.62383E+07
 -1       762 4.95651E+08 1.22087E+07 8.94872E+06-1.88474E+08-5.75040E+06-1.89685E+07
 -1       763 4.49901E+08 1.10833E+07 8.15480E+06-2.14925E+08-5.22684E+06-2.14019E+07
 -1       764 4.05765E+08 1.00198E+07 7.37560E+06-2.38956E+08-4.71375E+06-2.35530E+07
 -1       765 3.63293E+08 9.00439E+06 6.60724E+06-2.60600E+08-4.21309E+06-2.54628E+07
 -1       766 3.22532E+08 8.04680E+06 5.87131E+06-2.79963E+08-3.72690E+06-2.71575E+07
 -1       767 2.83519E+08 7.13942E+06 5.16980E+06-2.97154E+08-3.25873E+06-2.86540E+07
 -1       768 2.46305E+08 6.27964E+06 4.50348E+06-3.12287E+08-2.81069E+06-2.99628E+07
 -1       769 2.10953E+08 5.46691E+06 3.87227E+06-3.25469E+08-2.38417E+06-3.10923E+07
 -1       770 1.77540E+08 4.70244E+06 3.27655E+06-3.36811E+08-1.98014E+06-3.20514E+07
 -1       771 1.46154E+08 3.98807E+06 2.71712E+06-3.46424E+08-1.59961E+06-3.28497E+07
 -1       772 1.16893E+08 3.32529E+06 2.19512E+06-3.54422E+08-1.24399E+06-3.34975E+07
 -1       773 8.98655E+07 2.71470E+06 1.71228E+06-3.60922E+08-9.15277E+05-3.40049E+07
 -1       774 6.51898E+07 2.15631E+06 1.27229E+06-3.66048E+08-6.16209E+05-3.43794E+07
 -1       775 4.30005E+07 1.65219E+06 8.83237E+05-3.69932E+08-3.49586E+05-3.46242E+07
 -1       776 2.34562E+07 1.21372E+06 5.59957E+05-3.72740E+08-1.16014E+05-3.47384E+07
 -1       777 6.74662E+06 8.74194E+05 3.21402E+05-3.74693E+08 9.17928E+04-3.47286E+07
 -1       778-6.92366E+06 6.99519E+05 1.72721E+05-3.76098E+08 2.94547E+05-3.46413E+07
 -1       779-1.74038E+07 7.79002E+05 6.06792E+04-3.77301E+08 5.35169E+05-3.46185E+07
 -1       780-2.47871E+07 1.11359E+06-2.09081E+05-3.78456E+08 8.28895E+05-3.49734E+07
 -1       781-2.96876E+07 1.36499E+06-1.03941E+06-3.78950E+08 1.17892E+06-3.61131E+07
 -1       782-3.31773E+07 7.22069E+05-2.75264E+06-3.76579E+08 1.04524E+06-3.80587E+07
 -1       783-3.71986E+07-3.42672E+06-5.88861E+06-3.66861E+08 5.62368E+05-4.04022E+07
 -1       784-3.87439E+07-1.12620E+07-6.94212E+06-3.45490E+08-4.56360E+06-3.61929E+07
 -1       785-2.85835E+07-2.26705E+07 5.93133E+05-3.11553E+08-4.40814E+06-1.87050E+07
 -1       786 5.88738E+08-1.07047E+08-1.21433E+08 7.79280E+07 2.09148E+07-7.96713E+06
 -1       787 6.51248E+08-3.95813E+06 2.73982E+06 1.04462E+08 1.48728E+07-6.78106E+06
 -1       788 5.78872E+08-1.81080E+07-1.89533E+07 1.39083E+08 1.55828E+07-9.68252E+06
 -1       789 5.35233E+08-1.71381E+07-1.57657E+07 1.70247E+08 1.42850E+07-1.24907E+07
 -1       790 4.89989E+08-1.58656E+07-1.50037E+07 1.99904E+08 1.32570E+07-1.55170E+07
 -1       791 4.46946E+08-1.45107E+07-1.36788E+07 2.27268E+08 1.20775E+07-1.82649E+07
 -1       792 4.05609E+08-1.31269E+07-1.23959E+07 2.52342E+08 1.09522E+07-2.07256E+07
 -1       793 3.65833E+08-1.18077E+07-1.11524E+07 2.74976E+08 9.87379E+06-2.29024E+07
 -1       794 3.27557E+08-1.05829E+07-9.98984E+06 2.95219E+08 8.84798E+06-2.48382E+07
 -1       795 2.90798E+08-9.42959E+06-8.89169E+06 3.13152E+08 7.87012E+06-2.65589E+07
 -1       796 2.55595E+08-8.33758E+06-7.85055E+06 3.28876E+08 6.93734E+06-2.80820E+07
 -1       797 2.22002E+08-7.30027E+06-6.86124E+06 3.42490E+08 6.04887E+06-2.94182E+07
 -1       798 1.90085E+08-6.31698E+06-5.92315E+06 3.54094E+08 5.20567E+06-3.05763E+07
 -1       799 1.59916E+08-5.38989E+06-5.03814E+06 3.63786E+08 4.40965E+06-3.15652E+07
 -1       800 1.31577E+08-4.52182E+06-4.20870E+06 3.71671E+08 3.66307E+06-3.23947E+07
 -1       801 1.05160E+08-3.71471E+06-3.43664E+06 3.77853E+08 2.96811E+06-3.30753E+07
 -1       802 8.07673E+07-2.96824E+06-2.72207E+06 3.82443E+08 2.32649E+06-3.36170E+07
 -1       803 5.85070E+07-2.27919E+06-2.06322E+06 3.85557E+08 1.73919E+06-3.40277E+07
 -1       804 3.84882E+07-1.64444E+06-1.45944E+06 3.87322E+08 1.20715E+06-3.43103E+07
 -1       805 2.08050E+07-1.07283E+06-9.21369E+05 3.87898E+08 7.34113E+05-3.44646E+07
 -1       806 5.52193E+06-6.11204E+05-4.91624E+05 3.87502E+08 3.34295E+05-3.44980E+07
 -1       807-7.31933E+06-3.80798E+05-2.70075E+05 3.86429E+08 4.15451E+04-3.44592E+07
 -1       808-1.76195E+07-5.91748E+05-4.15274E+05 3.84996E+08-7.78676E+04-3.44925E+07
 -1       809-2.49767E+07-1.42615E+06-1.02790E+06 3.83298E+08 2.25821E+04-3.49108E+07
 -1       810-2.82533E+07-2.59906E+06-1.79834E+06 3.80657E+08 3.62135E+05-3.61108E+07
 -1       811-2.53162E+07-2.79242E+06-1.44867E+06 3.74838E+08 3.33369E+05-3.80888E+07
 -1       812-1.26425E+07 2.35153E+06 3.21168E+06 3.61431E+08-1.55248E+05-4.03743E+07
 -1       813 9.19837E+06 1.73855E+07 1.60348E+07 3.36951E+08-5.96649E+06-3.59418E+07
 -1       814 3.00902E+07 4.61256E+07 3.88341E+07 3.02542E+08-7.95753E+06-1.80371E+07
 -1       815 5.88738E+08-1.07047E+08-1.21433E+08-7.79280E+07 2.09148E+07 7.96713E+06
 -1       816 6.51248E+08-3.95813E+06 2.73982E+06-1.04462E+08 1.48728E+07 6.78106E+06
 -1       817 5.78872E+08-1.81080E+07-1.89533E+07-1.39083E+08 1.55828E+07 9.68252E+06
 -1       818 5.35233E+08-1.71381E+07-1.57657E+07-1.70247E+08 1.42850E+07 1.24907E+07
 -1       819 4.89989E+08-1.58656E+07-1.50037E+07-1.99904E+08 1.32570E+07 1.55170E+07
 -1       820 4.46946E+08-1.45107E+07-1.36788E+07-2.27268E+08 1.20775E+07 1.82649E+07
 -1       821 4.05609E+08-1.31269E+07-1.23959E+07-2.52342E+08 1.09522E+07 2.07256E+07
 -1       822 3.65833E+08-1.18077E+07-1.11524E+07-2.74976E+08 9.87379E+06 2.29024E+07
 -1       823 3.27557E+08-1.05829E+07-9.98984E+06-2.95219E+08 8.84798E+06 2.48382E+07
 -1       824 2.90798E+08-9.42959E+06-8.89169E+06-3.13152E+08 7.87012E+06 2.65589E+07
 -1       825 2.55595E+08-8.33758E+06-7.85055E+06-3.28876E+08 6.93734E+06 2.80820E+07
 -1       826 2.22002E+08-7.30027E+06-6.86124E+06-3.42490E+08 6.04887E+06 2.94182E+07
 -1       827 1.90085E+08-6.31698E+06-5.92315E+06-3.54094E+08 5.20567E+06 3.05763E+07
 -1       828 1.59916E+08-5.38989E+06-5.03814E+06-3.63786E+08 4.40965E+06 3.15652E+07
 -1       829 1.31577E+08-4.52182E+06-4.20870E+06-3.71671E+08 3.66307E+06 3.23947E+07
 -1       830 1.05160E+08-3.71471E+06-3.43664E+06-3.77853E+08 2.96811E+06 3.30753E+07
 -1       831 8.07673E+07-2.96824E+06-2.72207E+06-3.82443E+08 2.32649E+06 3.36170E+07
 -1       832 5.85070E+07-2.27919E+06-2.06322E+06-3.85557E+08 1.73919E+06 3.40277E+07
 -1       833 3.84882E+07-1.64444E+06-1.45944E+06-3.87322E+08 1.20715E+06 3.43103E+07
 -1       834 2.08050E+07-1.07283E+06-9.21369E+05-3.87898E+08 7.34113E+05 3.44646E+07
 -1       835 5.52193E+06-6.11204E+05-4.91624E+05-3.87502E+08 3.34295E+05 3.44980E+07
 -1       836-7.31933E+06-3.80798E+05-2.70075E+05-3.86429E+08 4.15451E+04 3.44592E+07
 -1       837-1.76195E+07-5.91748E+05-4.15274E+05-3.84996E+08-7.78676E+04 3.44925E+07
 -1       838-2.49767E+07-1.42615E+06-1.02790E+06-3.83298E+08 2.25821E+04 3.49108E+07
 -1       839-2.82533E+07-2.59906E+06-1.79834E+06-3.80657E+08 3.62135E+05 3.61108E+07
 -1       840-2.53162E+07-2.79242E+06-1.44867E+06-3.74838E+08 3.33369E+05 3.80888E+07
 -1       841-1.26425E+07 2.35153E+06 3.21168E+06-3.61431E+08-1.55248E+05 4.03743E+07
 -1       842 9.19837E+06 1.73855E+07 1.60348E+07-3.36951E+08-5.96649E+06 3.59418E+07
 -1       843 3.00902E+07 4.61256E+07 3.88341E+07-3.02542E+08-7.95753E+06 1.80371E+07
 -1       844 6.60402E+08-7.38580E+07-8.99771E+07 1.14715E+07-1.15631E+07 2.99669E+06
 -1       845 7.14953E+08 2.76266E+07 3.13268E+07 6.14589E+07-8.44148E+06 8.82573E+06
 -1       846 6.38577E+08 1.39298E+07 8.56947E+06 9.57026E+07-7.88114E+06 1.02084E+07
 -1       847 5.91913E+08 1.41215E+07 1.06161E+07 1.28707E+08-6.92788E+06 1.32680E+07
 -1       848 5.42925E+08 1.33145E+07 9.63115E+06 1.59592E+08-6.31462E+06 1.62383E+07
 -1       849 4.95651E+08 1.22087E+07 8.94872E+06 1.88474E+08-5.75040E+06 1.89685E+07
 -1       850 4.49901E+08 1.10833E+07 8.15480E+06 2.14925E+08-5.22684E+06 2.14019E+07
 -1       851 4.05765E+08 1.00198E+07 7.37560E+06 2.38956E+08-4.71375E+06 2.35530E+07
 -1       852 3.63293E+08 9.00439E+06 6.60724E+06 2.60600E+08-4.21309E+06 2.54628E+07
 -1       853 3.22532E+08 8.04680E+06 5.87131E+06 2.79963E+08-3.72690E+06 2.71575E+07
 -1       854 2.83519E+08 7.13942E+06 5.16980E+06 2.97154E+08-3.25873E+06 2.86540E+07
 -1       855 2.46305E+08 6.27964E+06 4.50348E+06 3.12287E+08-2.81069E+06 2.99628E+07
 -1       856 2.10953E+08 5.46691E+06 3.87227E+06 3.25469E+08-2.38417E+06 3.10923E+07
 -1       857 1.77540E+08 4.70244E+06 3.27655E+06 3.36811E+08-1.98014E+06 3.20514E+07
 -1       858 1.46154E+08 3.98807E+06 2.71712E+06 3.46424E+08-1.59961E+06 3.28497E+07
 -1       859 1.16893E+08 3.32529E+06 2.19512E+06 3.54422E+08-1.24399E+06 3.34975E+07
 -1       860 8.98655E+07 2.71470E+06 1.71228E+06 3.60922E+08-9.15277E+05 3.40049E+07
 -1       861 6.51898E+07 2.15631E+06 1.27229E+06 3.66048E+08-6.16209E+05 3.43794E+07
 -1       862 4.30005E+07 1.65219E+06 8.83237E+05 3.69932E+08-3.49586E+05 3.46242E+07
 -1       863 2.34562E+07 1.21372E+06 5.59957E+05 3.72740E+08-1.16014E+05 3.47384E+07
 -1       864 6.74662E+06 8.74194E+05 3.21402E+05 3.74693E+08 9.17928E+04 3.47286E+07
 -1       865-6.92366E+06 6.99519E+05 1.72721E+05 3.76098E+08 2.94547E+05 3.46413E+07
 -1       866-1.74038E+07 7.79002E+05 6.06792E+04 3.77301E+08 5.35169E+05 3.46185E+07
 -1       867-2.47871E+07 1.11359E+06-2.09081E+05 3.78456E+08 8.28895E+05 3.49734E+07
 -1       868-2.96876E+07 1.36499E+06-1.03941E+06 3.78950E+08 1.17892E+06 3.61131E+07
 -1       869-3.31773E+07 7.22069E+05-2.75264E+06 3.76579E+08 1.04524E+06 3.80587E+07
 -1       870-3.71986E+07-3.42672E+06-5.88861E+06 3.66861E+08 5.62368E+05 4.04022E+07
 -1       871-3.87439E+07-1.12620E+07-6.94212E+06 3.45490E+08-4.56360E+06 3.61929E+07
 -1       872-2.85835E+07-2.26705E+07 5.93133E+05 3.11553E+08-4.40814E+06 1.87050E+07
 -1       873-3.00902E+07-4.61256E+07-3.88341E+07 3.02542E+08-7.95753E+06 1.80371E+07
 -1       874-9.19837E+06-1.73855E+07-1.60348E+07 3.36951E+08-5.96649E+06 3.59418E+07
 -1       875 1.26425E+07-2.35153E+06-3.21168E+06 3.61431E+08-1.55248E+05 4.03743E+07
 -1       876 2.53162E+07 2.79242E+06 1.44867E+06 3.74838E+08 3.33369E+05 3.80888E+07
 -1       877 2.82533E+07 2.59906E+06 1.79834E+06 3.80657E+08 3.62135E+05 3.61108E+07
 -1       878 2.49767E+07 1.42615E+06 1.02790E+06 3.83298E+08 2.25821E+04 3.49108E+07
 -1       879 1.76195E+07 5.91748E+05 4.15274E+05 3.84996E+08-7.78676E+04 3.44925E+07
 -1       880 7.31933E+06 3.80798E+05 2.70075E+05 3.86429E+08 4.15451E+04 3.44592E+07
 -1       881-5.52193E+06 6.11204E+05 4.91624E+05 3.87502E+08 3.34295E+05 3.44980E+07
 -1       882-2.08050E+07 1.07283E+06 9.21369E+05 3.87898E+08 7.34113E+05 3.44646E+07
 -1       883-3.84882E+07 1.64444E+06 1.45944E+06 3.87322E+08 1.20715E+06 3.43103E+07
 -1       884-5.85070E+07 2.27919E+06 2.06322E+06 3.85557E+08 1.73919E+06 3.40277E+07
 -1       885-8.07673E+07 2.96824E+06 2.72207E+06 3.82443E+08 2.32649E+06 3.36170E+07
 -1       886-1.05160E+08 3.71471E+06 3.43664E+06 3.77853E+08 2.96811E+06 3.30753E+07
 -1       887-1.31577E+08 4.52182E+06 4.20870E+06 3.71671E+08 3.66307E+06 3.23947E+07
 -1       888-1.59916E+08 5.38989E+06 5.03814E+06 3.63786E+08 4.40965E+06 3.15652E+07
 -1       889-1.90085E+08 6.31698E+06 5.92315E+06 3.54094E+08 5.20567E+06 3.05763E+07
 -1       890-2.22002E+08 7.30027E+06 6.86124E+06 3.42490E+08 6.04887E+06 2.94182E+07
 -1       891-2.55595E+08 8.33758E+06 7.85055E+06 3.28876E+08 6.93734E+06 2.80820E+07
 -1       892-2.90798E+08 9.42959E+06 8.89169E+06 3.13152E+08 7.87012E+06 2.65589E+07
 -1       893-3.27557E+08 1.05829E+07 9.98984E+06 2.95219E+08 8.84798E+06 2.48382E+07
 -1       894-3.65833E+08 1.18077E+07 1.11524E+07 2.74976E+08 9.87379E+06 2.29024E+07
 -1       895-4.05609E+08 1.31269E+07 1.23959E+07 2.52342E+08 1.09522E+07 2.07256E+07
 -1       896-4.46946E+08 1.45107E+07 1.36788E+07 2.27268E+08 1.20775E+07 1.82649E+07
 -1       897-4.89989E+08 1.58656E+07 1.50037E+07 1.99904E+08 1.32570E+07 1.55170E+07
 -1       898-5.35233E+08 1.71381E+07 1.57657E+07 1.70247E+08 1.42850E+07 1.24907E+07
 -1       899-5.78872E+08 1.81080E+07 1.89533E+07 1.39083E+08 1.55828E+07 9.68252E+06
 -1       900-6.51248E+08 3.95813E+06-2.73982E+06 1.04462E+08 1.48728E+07 6.78106E+06
 -1       901-5.88738E+08 1.07047E+08 1.21433E+08 7.79280E+07 2.09148E+07 7.96713E+06
 -1       902-6.60402E+08 7.38580E+07 8.99771E+07-1.14715E+07-1.15631E+07 2.99669E+06
 -1       903-7.14953E+08-2.76266E+07-3.13268E+07-6.14589E+07-8.44148E+06 8.82573E+06
 -1       904-6.38577E+08-1.39298E+07-8.56947E+06-9.57026E+07-7.88114E+06 1.02084E+07
 -1       905-5.91913E+08-1.41215E+07-1.06161E+07-1.28707E+08-6.92788E+06 1.32680E+07
 -1       906-5.42925E+08-1.33145E+07-9.63115E+06-1.59592E+08-6.31462E+06 1.62383E+07
 -1       907-4.95651E+08-1.22087E+07-8.94872E+06-1.88474E+08-5.75040E+06 1.89685E+07
 -1       908-4.49901E+08-1.10833E+07-8.15480E+06-2.14925E+08-5.22684E+06 2.14019E+07
 -1       909-4.05765E+08-1.00198E+07-7.37560E+06-2.38956E+08-4.71375E+06 2.35530E+07
 -1       910-3.63293E+08-9.00439E+06-6.60724E+06-2.60600E+08-4.21309E+06 2.54628E+07
 -1       911-3.22532E+08-8.04680E+06-5.87131E+06-2.79963E+08-3.72690E+06 2.71575E+07
 -1       912-2.83519E+08-7.13942E+06-5.16980E+06-2.97154E+08-3.25873E+06 2.86540E+07
 -1       913-2.46305E+08-6.27964E+06-4.50348E+06-3.12287E+08-2.81069E+06 2.99628E+07
 -1       914-2.10953E+08-5.46691E+06-3.87227E+06-3.25469E+08-2.38417E+06 3.10923E+07
 -1       915-1.77540E+08-4.70244E+06-3.27655E+06-3.36811E+08-1.98014E+06 3.20514E+07
 -1       916-1.46154E+08-3.98807E+06-2.71712E+06-3.46424E+08-1.59961E+06 3.28497E+07
 -1       917-1.16893E+08-3.32529E+06-2.19512E+06-3.54422E+08-1.24399E+06 3.34975E+07
 -1       918-8.98655E+07-2.71470E+06-1.71228E+06-3.60922E+08-9.15277E+05 3.40049E+07
 -1       919-6.51898E+07-2.15631E+06-1.27229E+06-3.66048E+08-6.16209E+05 3.43794E+07
 -1       920-4.30005E+07-1.65219E+06-8.83237E+05-3.69932E+08-3.49586E+05 3.46242E+07
 -1       921-2.34562E+07-1.21372E+06-5.59957E+05-3.72740E+08-1.16014E+05 3.47384E+07
 -1       922-6.74662E+06-8.74194E+05-3.21402E+05-3.74693E+08 9.17928E+04 3.47286E+07
 -1       923 6.92366E+06-6.99519E+05-1.72721E+05-3.76098E+08 2.94547E+05 3.46413E+07
 -1       924 1.74038E+07-7.79002E+05-6.06792E+04-3.77301E+08 5.35169E+05 3.46185E+07
 -1       925 2.47871E+07-1.11359E+06 2.09081E+05-3.78456E+08 8.28895E+05 3.49734E+07
 -1       926 2.96876E+07-1.36499E+06 1.03941E+06-3.78950E+08 1.17892E+06 3.61131E+07
 -1       927 3.31773E+07-7.22069E+05 2.75264E+06-3.76579E+08 1.04524E+06 3.80587E+07
 -1       928 3.71986E+07 3.42672E+06 5.88861E+06-3.66861E+08 5.62368E+05 4.04022E+07
 -1       929 3.87439E+07 1.12620E+07 6.94212E+06-3.45490E+08-4.56360E+06 3.61929E+07
 -1       930 2.85835E+07 2.26705E+07-5.93133E+05-3.11553E+08-4.40814E+06 1.87050E+07
 -3
    1PSTEP                         7           1           1          
    1PGM                1.000000E+00                                  
    1PGK                1.836514E+04                                  
    1PHID                         -1                                  
    1PSUBC                         0                                  
    1PMODE                         2                                  
  100CL  102 21.56836390         930                     2    2MODAL      1
 -4  FORC        4    1
 -5  F1          1    2    1    0
 -5  F2          1    2    2    0
 -5  F3          1    2    3    0
 -5  ALL         1    2    0    0    1ALL
 -1         1 2.25315E+05-3.84677E+04-8.91432E+04
 -1         2-2.25315E+05-3.84677E+04 8.91432E+04
 -1         3-1.40979E+00-3.77659E+02 1.75352E+01
 -1         4 1.40978E+00-3.77659E+02-1.75352E+01
 -1         5-2.25315E+05 3.84677E+04-8.91432E+04
 -1         6 2.25315E+05 3.84677E+04 8.91432E+04
 -1         7 1.40979E+00 3.77659E+02 1.75352E+01
 -1         8-1.40979E+00 3.77659E+02-1.75352E+01
 -1         9 2.61801E+04-3.43898E+04 8.99883E+04
 -1        10-1.27495E+00-1.99198E+02 1.58521E+01
 -1        11 1.70816E+05 1.16323E+05 3.80177E+05
 -1        12 2.78933E+05 1.18090E+05-3.82366E+05
 -1        13-5.14084E+00-1.65894E+02 6.34866E+01
 -1        14-5.23603E+00-1.62128E+02 6.34865E+01
 -1        15-2.61801E+04 3.43898E+04 8.99883E+04
 -1        16 1.27495E+00 1.99198E+02 1.58521E+01
 -1        17-2.78933E+05-1.18090E+05-3.82366E+05
 -1        18-1.70816E+05-1.16323E+05 3.80177E+05
 -1        19 5.23603E+00 1.62128E+02 6.34865E+01
 -1        20 5.14084E+00 1.65894E+02 6.34866E+01
 -1        21-2.78933E+05 1.18090E+05 3.82366E+05
 -1        22-1.70816E+05 1.16323E+05-3.80177E+05
 -1        23 5.14084E+00-1.65894E+02-6.34866E+01
 -1        24 5.23603E+00-1.62128E+02-6.34865E+01
 -1        25-2.61801E+04-3.43898E+04-8.99883E+04
 -1        26 1.27495E+00-1.99198E+02-1.58521E+01
 -1        27 2.61801E+04 3.43898E+04-8.99883E+04
 -1        28 1.70816E+05-1.16323E+05-3.80177E+05
 -1        29 2.78933E+05-1.18090E+05 3.82366E+05
 -1        30-1.27495E+00 1.99198E+02-1.58521E+01
 -1        31-5.14084E+00 1.65894E+02-6.34866E+01
 -1        32-5.23603E+00 1.62128E+02-6.34865E+01
 -1        33 2.89825E-01-2.27948E+00-1.20422E-01
 -1        34 5.89842E-01-7.42414E+00-3.74675E-01
 -1        35 8.67040E-01-1.57985E+01-7.74472E-01
 -1        36 1.12200E+00-2.71507E+01-1.30802E+00
 -1        37 1.35656E+00-4.12440E+01-1.96694E+00
 -1        38 1.57107E+00-5.78481E+01-2.74254E+00
 -1        39 1.76632E+00-7.67419E+01-3.62551E+00
 -1        40 1.94297E+00-9.77131E+01-4.60621E+00
 -1        41 2.10172E+00-1.20557E+02-5.67503E+00
 -1        42 2.24328E+00-1.45077E+02-6.82266E+00
 -1        43 2.36835E+00-1.71085E+02-8.04018E+00
 -1        44 2.47764E+00-1.98398E+02-9.31906E+00
 -1        45 2.57194E+00-2.26845E+02-1.06512E+01
 -1        46 2.65200E+00-2.56262E+02-1.20289E+01
 -1        47 2.71866E+00-2.86492E+02-1.34449E+01
 -1        48 2.77277E+00-3.17391E+02-1.48924E+01
 -1        49 2.81524E+00-3.48821E+02-1.63649E+01
 -1        50 2.84700E+00-3.80659E+02-1.78566E+01
 -1        51 2.86907E+00-4.12787E+02-1.93620E+01
 -1        52 2.88248E+00-4.45104E+02-2.08763E+01
 -1        53 2.88836E+00-4.77518E+02-2.23954E+01
 -1        54 2.88787E+00-5.09950E+02-2.39160E+01
 -1        55 2.88225E+00-5.42333E+02-2.54361E+01
 -1        56 2.87280E+00-5.74616E+02-2.69544E+01
 -1        57 2.86097E+00-6.06762E+02-2.84691E+01
 -1        58 2.84829E+00-6.38757E+02-2.99742E+01
 -1        59 2.83642E+00-6.70617E+02-3.14536E+01
 -1        60 2.82684E+00-7.02389E+02-3.28779E+01
 -1        61 2.82086E+00-7.34139E+02-3.42184E+01
 -1        62-2.89825E-01-2.27949E+00 1.20425E-01
 -1        63-5.89837E-01-7.42414E+00 3.74676E-01
 -1        64-8.67033E-01-1.57985E+01 7.74475E-01
 -1        65-1.12200E+00-2.71507E+01 1.30803E+00
 -1        66-1.35656E+00-4.12440E+01 1.96694E+00
 -1        67-1.57108E+00-5.78481E+01 2.74254E+00
 -1        68-1.76632E+00-7.67419E+01 3.62551E+00
 -1        69-1.94297E+00-9.77131E+01 4.60621E+00
 -1        70-2.10173E+00-1.20557E+02 5.67503E+00
 -1        71-2.24328E+00-1.45077E+02 6.82267E+00
 -1        72-2.36834E+00-1.71085E+02 8.04018E+00
 -1        73-2.47764E+00-1.98398E+02 9.31906E+00
 -1        74-2.57193E+00-2.26845E+02 1.06512E+01
 -1        75-2.65200E+00-2.56262E+02 1.20289E+01
 -1        76-2.71866E+00-2.86492E+02 1.34449E+01
 -1        77-2.77277E+00-3.17391E+02 1.48924E+01
 -1        78-2.81523E+00-3.48821E+02 1.63649E+01
 -1        79-2.84700E+00-3.80659E+02 1.78566E+01
 -1        80-2.86906E+00-4.12787E+02 1.93620E+01
 -1        81-2.88248E+00-4.45104E+02 2.08763E+01
 -1        82-2.88836E+00-4.77518E+02 2.23954E+01
 -1        83-2.88787E+00-5.09950E+02 2.39160E+01
 -1        84-2.88225E+00-5.42333E+02 2.54361E+01
 -1        85-2.87281E+00-5.74616E+02 2.69544E+01
 -1        86-2.86098E+00-6.06762E+02 2.84691E+01
 -1        87-2.84829E+00-6.38757E+02 2.99742E+01
 -1        88-2.83642E+00-6.70617E+02 3.14536E+01
 -1        89-2.82685E+00-7.02389E+02 3.28779E+01
 -1        90-2.82086E+00-7.34139E+02 3.42184E+01
 -1        91 2.14066E+05-8.17901E+02-1.67608E+03
 -1        92-1.10332E-04 4.30756E-05-1.72529E+03
 -1        93-2.14066E+05 8.17901E+02-1.67608E+03
 -1        94 2.14066E+05 8.17901E+02 1.67608E+03
 -1        95 1.36448E-04-4.26655E-05 1.72529E+03
 -1        96-2.14066E+05-8.17901E+02 1.67608E+03
 -1        97 2.89830E-01 2.27948E+00 1.20423E-01
 -1        98 5.89841E-01 7.42414E+00 3.74671E-01
 -1        99 8.67037E-01 1.57985E+01 7.74470E-01
 -1       100 1.12200E+00 2.71507E+01 1.30802E+00
 -1       101 1.35656E+00 4.12440E+01 1.96694E+00
 -1       102 1.57108E+00 5.78481E+01 2.74254E+00
 -1       103 1.76632E+00 7.67419E+01 3.62551E+00
 -1       104 1.94297E+00 9.77131E+01 4.60621E+00
 -1       105 2.10172E+00 1.20557E+02 5.67504E+00
 -1       106 2.24328E+00 1.45077E+02 6.82267E+00
 -1       107 2.36834E+00 1.71085E+02 8.04018E+00
 -1       108 2.47764E+00 1.98398E+02 9.31906E+00
 -1       109 2.57193E+00 2.26845E+02 1.06512E+01
 -1       110 2.65200E+00 2.56262E+02 1.20289E+01
 -1       111 2.71866E+00 2.86492E+02 1.34449E+01
 -1       112 2.77277E+00 3.17391E+02 1.48924E+01
 -1       113 2.81523E+00 3.48821E+02 1.63649E+01
 -1       114 2.84700E+00 3.80659E+02 1.78566E+01
 -1       115 2.86906E+00 4.12787E+02 1.93620E+01
 -1       116 2.88248E+00 4.45104E+02 2.08763E+01
 -1       117 2.88836E+00 4.77518E+02 2.23954E+01
 -1       118 2.88787E+00 5.09950E+02 2.39160E+01
 -1       119 2.88224E+00 5.42333E+02 2.54361E+01
 -1       120 2.87281E+00 5.74616E+02 2.69544E+01
 -1       121 2.86097E+00 6.06762E+02 2.84691E+01
 -1       122 2.84829E+00 6.38757E+02 2.99742E+01
 -1       123 2.83642E+00 6.70617E+02 3.14536E+01
 -1       124 2.82685E+00 7.02389E+02 3.28779E+01
 -1       125 2.82086E+00 7.34139E+02 3.42184E+01
 -1       126-1.34643E-01-2.19788E+02 3.37373E+00
 -1       127-5.93901E-07 1.52651E-06 3.38006E+00
 -1       128 1.34644E-01 2.19788E+02 3.37373E+00
 -1       129-2.89823E-01 2.27948E+00-1.20426E-01
 -1       130-5.89838E-01 7.42414E+00-3.74677E-01
 -1       131-8.67034E-01 1.57985E+01-7.74475E-01
 -1       132-1.12200E+00 2.71507E+01-1.30802E+00
 -1       133-1.35656E+00 4.12440E+01-1.96694E+00
 -1       134-1.57108E+00 5.78481E+01-2.74254E+00
 -1       135-1.76632E+00 7.67419E+01-3.62551E+00
 -1       136-1.94297E+00 9.77131E+01-4.60621E+00
 -1       137-2.10172E+00 1.20557E+02-5.67503E+00
 -1       138-2.24328E+00 1.45077E+02-6.82266E+00
 -1       139-2.36834E+00 1.71085E+02-8.04018E+00
 -1       140-2.47764E+00 1.98398E+02-9.31906E+00
 -1       141-2.57194E+00 2.26845E+02-1.06512E+01
 -1       142-2.65200E+00 2.56262E+02-1.20289E+01
 -1       143-2.71866E+00 2.86492E+02-1.34449E+01
 -1       144-2.77277E+00 3.17391E+02-1.48924E+01
 -1       145-2.81523E+00 3.48821E+02-1.63649E+01
 -1       146-2.84700E+00 3.80659E+02-1.78566E+01
 -1       147-2.86906E+00 4.12787E+02-1.93620E+01
 -1       148-2.88248E+00 4.45104E+02-2.08763E+01
 -1       149-2.88836E+00 4.77518E+02-2.23954E+01
 -1       150-2.88787E+00 5.09950E+02-2.39160E+01
 -1       151-2.88225E+00 5.42333E+02-2.54361E+01
 -1       152-2.87281E+00 5.74616E+02-2.69544E+01
 -1       153-2.86097E+00 6.06762E+02-2.84691E+01
 -1       154-2.84829E+00 6.38757E+02-2.99742E+01
 -1       155-2.83642E+00 6.70617E+02-3.14536E+01
 -1       156-2.82685E+00 7.02389E+02-3.28779E+01
 -1       157-2.82086E+00 7.34139E+02-3.42184E+01
 -1       158-1.34644E-01 2.19788E+02-3.37373E+00
 -1       159-5.88589E-07-7.20348E-07-3.38005E+00
 -1       160 1.34642E-01-2.19788E+02-3.37373E+00
 -1       161-2.58875E-01-1.21623E+00 1.07046E-01
 -1       162-5.29502E-01-3.94167E+00 3.38143E-01
 -1       163-7.79779E-01-8.36549E+00 7.00520E-01
 -1       164-1.00987E+00-1.43567E+01 1.18354E+00
 -1       165-1.22150E+00-2.17926E+01 1.77975E+00
 -1       166-1.41501E+00-3.05530E+01 2.48143E+00
 -1       167-1.59111E+00-4.05217E+01 3.28025E+00
 -1       168-1.75046E+00-5.15870E+01 4.16751E+00
 -1       169-1.89367E+00-6.36409E+01 5.13451E+00
 -1       170-2.02137E+00-7.65795E+01 6.17282E+00
 -1       171-2.13420E+00-9.03031E+01 7.27435E+00
 -1       172-2.23283E+00-1.04716E+02 8.43141E+00
 -1       173-2.31792E+00-1.19727E+02 9.63666E+00
 -1       174-2.39018E+00-1.35250E+02 1.08831E+01
 -1       175-2.45036E+00-1.51203E+02 1.21643E+01
 -1       176-2.49924E+00-1.67508E+02 1.34738E+01
 -1       177-2.53761E+00-1.84095E+02 1.48061E+01
 -1       178-2.56634E+00-2.00896E+02 1.61557E+01
 -1       179-2.58633E+00-2.17850E+02 1.75177E+01
 -1       180-2.59853E+00-2.34905E+02 1.88877E+01
 -1       181-2.60392E+00-2.52010E+02 2.02621E+01
 -1       182-2.60356E+00-2.69125E+02 2.16379E+01
 -1       183-2.59853E+00-2.86216E+02 2.30133E+01
 -1       184-2.59005E+00-3.03256E+02 2.43873E+01
 -1       185-2.57948E+00-3.20226E+02 2.57583E+01
 -1       186-2.56845E+00-3.37115E+02 2.71203E+01
 -1       187-2.55888E+00-3.53919E+02 2.84577E+01
 -1       188-2.55254E+00-3.70644E+02 2.97416E+01
 -1       189-2.54990E+00-3.87307E+02 3.09436E+01
 -1       190 1.39410E+05-5.70298E+04 4.58556E+05
 -1       191 2.73324E+05-6.17133E+04-4.60420E+05
 -1       192-6.39470E+00-3.31793E+02 7.91220E+01
 -1       193-1.06777E+00-1.12754E+00 4.37866E-01
 -1       194-2.14710E+00-3.40155E+00 1.36948E+00
 -1       195-3.15496E+00-7.07429E+00 2.82707E+00
 -1       196-4.08385E+00-1.20561E+01 4.76626E+00
 -1       197-4.93724E+00-1.82409E+01 7.15754E+00
 -1       198-5.71776E+00-2.55289E+01 9.97139E+00
 -1       199-6.42806E+00-3.38237E+01 1.31750E+01
 -1       200-7.07072E+00-4.30320E+01 1.67336E+01
 -1       201-7.64827E+00-5.30640E+01 2.06123E+01
 -1       202-8.16324E+00-6.38330E+01 2.47773E+01
 -1       203-8.61822E+00-7.52562E+01 2.91960E+01
 -1       204-9.01584E+00-8.72538E+01 3.38376E+01
 -1       205-9.35885E+00-9.97500E+01 3.86726E+01
 -1       206-9.65009E+00-1.12673E+02 4.36730E+01
 -1       207-9.89256E+00-1.25954E+02 4.88125E+01
 -1       208-1.00894E+01-1.39529E+02 5.40663E+01
 -1       209-1.02438E+01-1.53338E+02 5.94112E+01
 -1       210-1.03593E+01-1.67326E+02 6.48256E+01
 -1       211-1.04395E+01-1.81443E+02 7.02898E+01
 -1       212-1.04883E+01-1.95644E+02 7.57863E+01
 -1       213-1.05095E+01-2.09887E+02 8.13002E+01
 -1       214-1.05076E+01-2.24139E+02 8.68203E+01
 -1       215-1.04868E+01-2.38372E+02 9.23398E+01
 -1       216-1.04520E+01-2.52562E+02 9.78554E+01
 -1       217-1.04087E+01-2.66695E+02 1.03360E+02
 -1       218-1.03633E+01-2.80761E+02 1.08828E+02
 -1       219-1.03230E+01-2.94756E+02 1.14186E+02
 -1       220-1.02953E+01-3.08685E+02 1.19303E+02
 -1       221-1.02836E+01-3.22559E+02 1.24035E+02
 -1       222-1.09624E+00-1.10081E+00 4.53452E-01
 -1       223-2.20029E+00-3.31926E+00 1.38443E+00
 -1       224-3.23023E+00-6.90523E+00 2.84085E+00
 -1       225-4.17972E+00-1.17718E+01 4.77896E+00
 -1       226-5.05246E+00-1.78145E+01 7.16918E+00
 -1       227-5.85095E+00-2.49354E+01 9.98201E+00
 -1       228-6.57772E+00-3.30399E+01 1.31846E+01
 -1       229-7.23529E+00-4.20368E+01 1.67423E+01
 -1       230-7.82623E+00-5.18383E+01 2.06201E+01
 -1       231-8.35313E+00-6.23599E+01 2.47842E+01
 -1       232-8.81862E+00-7.35204E+01 2.92021E+01
 -1       233-9.22543E+00-8.52423E+01 3.38429E+01
 -1       234-9.57636E+00-9.74512E+01 3.86771E+01
 -1       235-9.87433E+00-1.10077E+02 4.36768E+01
 -1       236-1.01224E+01-1.23052E+02 4.88157E+01
 -1       237-1.03237E+01-1.36315E+02 5.40688E+01
 -1       238-1.04817E+01-1.49807E+02 5.94131E+01
 -1       239-1.05998E+01-1.63473E+02 6.48270E+01
 -1       240-1.06818E+01-1.77266E+02 7.02907E+01
 -1       241-1.07316E+01-1.91139E+02 7.57868E+01
 -1       242-1.07534E+01-2.05055E+02 8.13003E+01
 -1       243-1.07515E+01-2.18979E+02 8.68201E+01
 -1       244-1.07306E+01-2.32884E+02 9.23394E+01
 -1       245-1.06956E+01-2.46746E+02 9.78548E+01
 -1       246-1.06515E+01-2.60552E+02 1.03360E+02
 -1       247-1.06033E+01-2.74292E+02 1.08827E+02
 -1       248-1.05557E+01-2.87970E+02 1.14186E+02
 -1       249-1.05136E+01-3.01595E+02 1.19303E+02
 -1       250-1.04833E+01-3.15193E+02 1.24034E+02
 -1       251-6.51742E+00-3.24252E+02 7.91221E+01
 -1       252 2.54990E+00 3.87307E+02 3.09436E+01
 -1       253 2.55254E+00 3.70644E+02 2.97416E+01
 -1       254 2.55888E+00 3.53919E+02 2.84577E+01
 -1       255 2.56845E+00 3.37115E+02 2.71203E+01
 -1       256 2.57948E+00 3.20226E+02 2.57583E+01
 -1       257 2.59005E+00 3.03256E+02 2.43873E+01
 -1       258 2.59853E+00 2.86216E+02 2.30133E+01
 -1       259 2.60356E+00 2.69125E+02 2.16379E+01
 -1       260 2.60392E+00 2.52010E+02 2.02621E+01
 -1       261 2.59853E+00 2.34905E+02 1.88877E+01
 -1       262 2.58633E+00 2.17850E+02 1.75177E+01
 -1       263 2.56634E+00 2.00896E+02 1.61557E+01
 -1       264 2.53760E+00 1.84095E+02 1.48061E+01
 -1       265 2.49923E+00 1.67508E+02 1.34738E+01
 -1       266 2.45037E+00 1.51203E+02 1.21643E+01
 -1       267 2.39018E+00 1.35250E+02 1.08831E+01
 -1       268 2.31791E+00 1.19727E+02 9.63666E+00
 -1       269 2.23282E+00 1.04716E+02 8.43141E+00
 -1       270 2.13420E+00 9.03031E+01 7.27435E+00
 -1       271 2.02137E+00 7.65795E+01 6.17282E+00
 -1       272 1.89366E+00 6.36409E+01 5.13451E+00
 -1       273 1.75046E+00 5.15870E+01 4.16751E+00
 -1       274 1.59112E+00 4.05217E+01 3.28025E+00
 -1       275 1.41501E+00 3.05530E+01 2.48143E+00
 -1       276 1.22150E+00 2.17926E+01 1.77975E+00
 -1       277 1.00987E+00 1.43567E+01 1.18354E+00
 -1       278 7.79778E-01 8.36549E+00 7.00517E-01
 -1       279 5.29500E-01 3.94167E+00 3.38139E-01
 -1       280 2.58877E-01 1.21623E+00 1.07044E-01
 -1       281-2.73324E+05 6.17133E+04-4.60420E+05
 -1       282-1.39410E+05 5.70298E+04 4.58556E+05
 -1       283 1.09624E+00 1.10081E+00 4.53450E-01
 -1       284 2.20029E+00 3.31926E+00 1.38443E+00
 -1       285 3.23023E+00 6.90523E+00 2.84085E+00
 -1       286 4.17972E+00 1.17718E+01 4.77896E+00
 -1       287 5.05246E+00 1.78145E+01 7.16917E+00
 -1       288 5.85095E+00 2.49354E+01 9.98201E+00
 -1       289 6.57772E+00 3.30399E+01 1.31846E+01
 -1       290 7.23529E+00 4.20368E+01 1.67423E+01
 -1       291 7.82623E+00 5.18383E+01 2.06201E+01
 -1       292 8.35313E+00 6.23599E+01 2.47842E+01
 -1       293 8.81862E+00 7.35204E+01 2.92021E+01
 -1       294 9.22543E+00 8.52423E+01 3.38429E+01
 -1       295 9.57636E+00 9.74512E+01 3.86771E+01
 -1       296 9.87433E+00 1.10077E+02 4.36768E+01
 -1       297 1.01224E+01 1.23052E+02 4.88157E+01
 -1       298 1.03237E+01 1.36315E+02 5.40688E+01
 -1       299 1.04817E+01 1.49807E+02 5.94131E+01
 -1       300 1.05998E+01 1.63473E+02 6.48270E+01
 -1       301 1.06818E+01 1.77266E+02 7.02907E+01
 -1       302 1.07316E+01 1.91139E+02 7.57868E+01
 -1       303 1.07534E+01 2.05055E+02 8.13003E+01
 -1       304 1.07515E+01 2.18979E+02 8.68201E+01
 -1       305 1.07307E+01 2.32884E+02 9.23394E+01
 -1       306 1.06956E+01 2.46746E+02 9.78548E+01
 -1       307 1.06515E+01 2.60552E+02 1.03360E+02
 -1       308 1.06033E+01 2.74292E+02 1.08827E+02
 -1       309 1.05557E+01 2.87970E+02 1.14186E+02
 -1       310 1.05136E+01 3.01595E+02 1.19303E+02
 -1       311 1.04833E+01 3.15193E+02 1.24034E+02
 -1       312 6.51742E+00 3.24252E+02 7.91221E+01
 -1       313 1.06776E+00 1.12754E+00 4.37863E-01
 -1       314 2.14709E+00 3.40155E+00 1.36948E+00
 -1       315 3.15496E+00 7.07429E+00 2.82707E+00
 -1       316 4.08385E+00 1.20561E+01 4.76626E+00
 -1       317 4.93724E+00 1.82409E+01 7.15754E+00
 -1       318 5.71776E+00 2.55289E+01 9.97138E+00
 -1       319 6.42806E+00 3.38237E+01 1.31750E+01
 -1       320 7.07072E+00 4.30320E+01 1.67336E+01
 -1       321 7.64827E+00 5.30640E+01 2.06123E+01
 -1       322 8.16324E+00 6.38330E+01 2.47773E+01
 -1       323 8.61822E+00 7.52562E+01 2.91960E+01
 -1       324 9.01584E+00 8.72538E+01 3.38376E+01
 -1       325 9.35885E+00 9.97500E+01 3.86726E+01
 -1       326 9.65009E+00 1.12673E+02 4.36730E+01
 -1       327 9.89256E+00 1.25954E+02 4.88125E+01
 -1       328 1.00894E+01 1.39529E+02 5.40663E+01
 -1       329 1.02438E+01 1.53338E+02 5.94112E+01
 -1       330 1.03593E+01 1.67326E+02 6.48256E+01
 -1       331 1.04395E+01 1.81443E+02 7.02898E+01
 -1       332 1.04883E+01 1.95644E+02 7.57863E+01
 -1       333 1.05095E+01 2.09887E+02 8.13002E+01
 -1       334 1.05076E+01 2.24139E+02 8.68203E+01
 -1       335 1.04868E+01 2.38372E+02 9.23398E+01
 -1       336 1.04520E+01 2.52562E+02 9.78554E+01
 -1       337 1.04087E+01 2.66695E+02 1.03360E+02
 -1       338 1.03633E+01 2.80761E+02 1.08828E+02
 -1       339 1.03230E+01 2.94756E+02 1.14186E+02
 -1       340 1.02953E+01 3.08685E+02 1.19303E+02
 -1       341 1.02836E+01 3.22559E+02 1.24035E+02
 -1       342 6.39470E+00 3.31793E+02 7.91220E+01
 -1       343 1.06777E+00-1.12754E+00-4.37863E-01
 -1       344 2.14710E+00-3.40155E+00-1.36948E+00
 -1       345 3.15496E+00-7.07429E+00-2.82707E+00
 -1       346 4.08385E+00-1.20561E+01-4.76626E+00
 -1       347 4.93724E+00-1.82409E+01-7.15754E+00
 -1       348 5.71776E+00-2.55289E+01-9.97138E+00
 -1       349 6.42806E+00-3.38237E+01-1.31750E+01
 -1       350 7.07072E+00-4.30320E+01-1.67336E+01
 -1       351 7.64827E+00-5.30640E+01-2.06123E+01
 -1       352 8.16324E+00-6.38330E+01-2.47773E+01
 -1       353 8.61821E+00-7.52562E+01-2.91960E+01
 -1       354 9.01583E+00-8.72538E+01-3.38376E+01
 -1       355 9.35884E+00-9.97500E+01-3.86726E+01
 -1       356 9.65009E+00-1.12673E+02-4.36730E+01
 -1       357 9.89256E+00-1.25954E+02-4.88125E+01
 -1       358 1.00894E+01-1.39529E+02-5.40663E+01
 -1       359 1.02438E+01-1.53338E+02-5.94112E+01
 -1       360 1.03593E+01-1.67326E+02-6.48256E+01
 -1       361 1.04395E+01-1.81443E+02-7.02898E+01
 -1       362 1.04883E+01-1.95644E+02-7.57863E+01
 -1       363 1.05095E+01-2.09887E+02-8.13002E+01
 -1       364 1.05076E+01-2.24139E+02-8.68203E+01
 -1       365 1.04868E+01-2.38372E+02-9.23398E+01
 -1       366 1.04520E+01-2.52562E+02-9.78554E+01
 -1       367 1.04087E+01-2.66695E+02-1.03360E+02
 -1       368 1.03633E+01-2.80761E+02-1.08828E+02
 -1       369 1.03230E+01-2.94756E+02-1.14186E+02
 -1       370 1.02953E+01-3.08685E+02-1.19303E+02
 -1       371 1.02836E+01-3.22559E+02-1.24035E+02
 -1       372 1.09624E+00-1.10081E+00-4.53451E-01
 -1       373 2.20029E+00-3.31926E+00-1.38443E+00
 -1       374 3.23023E+00-6.90523E+00-2.84085E+00
 -1       375 4.17972E+00-1.17718E+01-4.77896E+00
 -1       376 5.05246E+00-1.78145E+01-7.16917E+00
 -1       377 5.85095E+00-2.49354E+01-9.98201E+00
 -1       378 6.57772E+00-3.30399E+01-1.31846E+01
 -1       379 7.23529E+00-4.20368E+01-1.67423E+01
 -1       380 7.82623E+00-5.18383E+01-2.06201E+01
 -1       381 8.35313E+00-6.23599E+01-2.47842E+01
 -1       382 8.81862E+00-7.35204E+01-2.92021E+01
 -1       383 9.22543E+00-8.52423E+01-3.38429E+01
 -1       384 9.57636E+00-9.74512E+01-3.86771E+01
 -1       385 9.87433E+00-1.10077E+02-4.36768E+01
 -1       386 1.01224E+01-1.23052E+02-4.88157E+01
 -1       387 1.03237E+01-1.36315E+02-5.40688E+01
 -1       388 1.04817E+01-1.49807E+02-5.94131E+01
 -1       389 1.05998E+01-1.63473E+02-6.48270E+01
 -1       390 1.06818E+01-1.77266E+02-7.02907E+01
 -1       391 1.07316E+01-1.91139E+02-7.57868E+01
 -1       392 1.07534E+01-2.05055E+02-8.13003E+01
 -1       393 1.07515E+01-2.18979E+02-8.68201E+01
 -1       394 1.07307E+01-2.32884E+02-9.23394E+01
 -1       395 1.06956E+01-2.46746E+02-9.78548E+01
 -1       396 1.06515E+01-2.60552E+02-1.03360E+02
 -1       397 1.06033E+01-2.74292E+02-1.08827E+02
 -1       398 1.05557E+01-2.87970E+02-1.14186E+02
 -1       399 1.05136E+01-3.01595E+02-1.19303E+02
 -1       400 1.04833E+01-3.15193E+02-1.24034E+02
 -1       401-1.39410E+05-5.70298E+04-4.58556E+05
 -1       402-2.73324E+05-6.17133E+04 4.60420E+05
 -1       403 6.39470E+00-3.31793E+02-7.91220E+01
 -1       404 2.58875E-01-1.21623E+00-1.07045E-01
 -1       405 5.29501E-01-3.94167E+00-3.38141E-01
 -1       406 7.79778E-01-8.36549E+00-7.00519E-01
 -1       407 1.00987E+00-1.43567E+01-1.18354E+00
 -1       408 1.22150E+00-2.17926E+01-1.77975E+00
 -1       409 1.41501E+00-3.05530E+01-2.48143E+00
 -1       410 1.59112E+00-4.05217E+01-3.28025E+00
 -1       411 1.75046E+00-5.15870E+01-4.16751E+00
 -1       412 1.89367E+00-6.36409E+01-5.13451E+00
 -1       413 2.02137E+00-7.65795E+01-6.17281E+00
 -1       414 2.13420E+00-9.03031E+01-7.27435E+00
 -1       415 2.23282E+00-1.04716E+02-8.43141E+00
 -1       416 2.31791E+00-1.19727E+02-9.63666E+00
 -1       417 2.39018E+00-1.35250E+02-1.08831E+01
 -1       418 2.45036E+00-1.51203E+02-1.21643E+01
 -1       419 2.49923E+00-1.67508E+02-1.34738E+01
 -1       420 2.53761E+00-1.84095E+02-1.48061E+01
 -1       421 2.56634E+00-2.00896E+02-1.61557E+01
 -1       422 2.58633E+00-2.17850E+02-1.75177E+01
 -1       423 2.59852E+00-2.34905E+02-1.88877E+01
 -1       424 2.60392E+00-2.52010E+02-2.02621E+01
 -1       425 2.60356E+00-2.69125E+02-2.16379E+01
 -1       426 2.59853E+00-2.86216E+02-2.30133E+01
 -1       427 2.59005E+00-3.03256E+02-2.43873E+01
 -1       428 2.57948E+00-3.20226E+02-2.57583E+01
 -1       429 2.56845E+00-3.37115E+02-2.71203E+01
 -1       430 2.55888E+00-3.53919E+02-2.84577E+01
 -1       431 2.55254E+00-3.70644E+02-2.97416E+01
 -1       432 2.54990E+00-3.87307E+02-3.09436E+01
 -1       433 6.51742E+00-3.24252E+02-7.91221E+01
 -1       434 1.39410E+05 5.70298E+04-4.58556E+05
 -1       435 2.73324E+05 6.17133E+04 4.60420E+05
 -1       436-2.54990E+00 3.87307E+02-3.09436E+01
 -1       437-2.55254E+00 3.70644E+02-2.97416E+01
 -1       438-2.55888E+00 3.53919E+02-2.84577E+01
 -1       439-2.56845E+00 3.37115E+02-2.71203E+01
 -1       440-2.57948E+00 3.20226E+02-2.57583E+01
 -1       441-2.59005E+00 3.03256E+02-2.43873E+01
 -1       442-2.59853E+00 2.86216E+02-2.30133E+01
 -1       443-2.60356E+00 2.69125E+02-2.16379E+01
 -1       444-2.60392E+00 2.52010E+02-2.02621E+01
 -1       445-2.59853E+00 2.34905E+02-1.88877E+01
 -1       446-2.58633E+00 2.17850E+02-1.75177E+01
 -1       447-2.56634E+00 2.00896E+02-1.61557E+01
 -1       448-2.53761E+00 1.84095E+02-1.48061E+01
 -1       449-2.49923E+00 1.67508E+02-1.34738E+01
 -1       450-2.45036E+00 1.51203E+02-1.21643E+01
 -1       451-2.39018E+00 1.35250E+02-1.08831E+01
 -1       452-2.31792E+00 1.19727E+02-9.63666E+00
 -1       453-2.23282E+00 1.04716E+02-8.43141E+00
 -1       454-2.13420E+00 9.03031E+01-7.27435E+00
 -1       455-2.02137E+00 7.65795E+01-6.17282E+00
 -1       456-1.89367E+00 6.36409E+01-5.13451E+00
 -1       457-1.75046E+00 5.15870E+01-4.16751E+00
 -1       458-1.59112E+00 4.05217E+01-3.28025E+00
 -1       459-1.41501E+00 3.05530E+01-2.48143E+00
 -1       460-1.22150E+00 2.17926E+01-1.77975E+00
 -1       461-1.00987E+00 1.43567E+01-1.18354E+00
 -1       462-7.79777E-01 8.36549E+00-7.00520E-01
 -1       463-5.29499E-01 3.94167E+00-3.38142E-01
 -1       464-2.58875E-01 1.21623E+00-1.07044E-01
 -1       465-6.39470E+00 3.31793E+02-7.91220E+01
 -1       466-1.06776E+00 1.12754E+00-4.37865E-01
 -1       467-2.14709E+00 3.40155E+00-1.36948E+00
 -1       468-3.15496E+00 7.07429E+00-2.82707E+00
 -1       469-4.08385E+00 1.20561E+01-4.76626E+00
 -1       470-4.93724E+00 1.82409E+01-7.15753E+00
 -1       471-5.71776E+00 2.55289E+01-9.97139E+00
 -1       472-6.42806E+00 3.38237E+01-1.31750E+01
 -1       473-7.07072E+00 4.30320E+01-1.67336E+01
 -1       474-7.64827E+00 5.30640E+01-2.06123E+01
 -1       475-8.16324E+00 6.38330E+01-2.47773E+01
 -1       476-8.61822E+00 7.52562E+01-2.91960E+01
 -1       477-9.01584E+00 8.72538E+01-3.38376E+01
 -1       478-9.35885E+00 9.97500E+01-3.86726E+01
 -1       479-9.65010E+00 1.12673E+02-4.36730E+01
 -1       480-9.89256E+00 1.25954E+02-4.88125E+01
 -1       481-1.00894E+01 1.39529E+02-5.40663E+01
 -1       482-1.02438E+01 1.53338E+02-5.94112E+01
 -1       483-1.03593E+01 1.67326E+02-6.48256E+01
 -1       484-1.04395E+01 1.81443E+02-7.02898E+01
 -1       485-1.04883E+01 1.95644E+02-7.57863E+01
 -1       486-1.05095E+01 2.09887E+02-8.13002E+01
 -1       487-1.05076E+01 2.24139E+02-8.68203E+01
 -1       488-1.04868E+01 2.38372E+02-9.23398E+01
 -1       489-1.04520E+01 2.52562E+02-9.78554E+01
 -1       490-1.04087E+01 2.66695E+02-1.03360E+02
 -1       491-1.03633E+01 2.80761E+02-1.08828E+02
 -1       492-1.03230E+01 2.94756E+02-1.14186E+02
 -1       493-1.02953E+01 3.08685E+02-1.19303E+02
 -1       494-1.02836E+01 3.22559E+02-1.24035E+02
 -1       495-1.09624E+00 1.10081E+00-4.53451E-01
 -1       496-2.20029E+00 3.31926E+00-1.38443E+00
 -1       497-3.23023E+00 6.90523E+00-2.84085E+00
 -1       498-4.17972E+00 1.17718E+01-4.77896E+00
 -1       499-5.05246E+00 1.78145E+01-7.16917E+00
 -1       500-5.85095E+00 2.49354E+01-9.98201E+00
 -1       501-6.57772E+00 3.30399E+01-1.31846E+01
 -1       502-7.23529E+00 4.20368E+01-1.67423E+01
 -1       503-7.82623E+00 5.18383E+01-2.06201E+01
 -1       504-8.35313E+00 6.23599E+01-2.47842E+01
 -1       505-8.81862E+00 7.35204E+01-2.92021E+01
 -1       506-9.22543E+00 8.52423E+01-3.38429E+01
 -1       507-9.57636E+00 9.74512E+01-3.86771E+01
 -1       508-9.87433E+00 1.10077E+02-4.36768E+01
 -1       509-1.01224E+01 1.23052E+02-4.88157E+01
 -1       510-1.03237E+01 1.36315E+02-5.40688E+01
 -1       511-1.04817E+01 1.49807E+02-5.94131E+01
 -1       512-1.05998E+01 1.63473E+02-6.48270E+01
 -1       513-1.06818E+01 1.77266E+02-7.02907E+01
 -1       514-1.07316E+01 1.91139E+02-7.57868E+01
 -1       515-1.07534E+01 2.05055E+02-8.13003E+01
 -1       516-1.07515E+01 2.18979E+02-8.68201E+01
 -1       517-1.07306E+01 2.32884E+02-9.23394E+01
 -1       518-1.06956E+01 2.46746E+02-9.78548E+01
 -1       519-1.06515E+01 2.60552E+02-1.03360E+02
 -1       520-1.06033E+01 2.74292E+02-1.08827E+02
 -1       521-1.05557E+01 2.87970E+02-1.14186E+02
 -1       522-1.05136E+01 3.01595E+02-1.19303E+02
 -1       523-1.04833E+01 3.15193E+02-1.24034E+02
 -1       524-6.51742E+00 3.24252E+02-7.91221E+01
 -1       525-2.83430E-02-1.31211E+00 2.02745E-02
 -1       526-5.62888E-02-4.27215E+00 6.62653E-02
 -1       527-8.24305E-02-9.12497E+00 1.41127E-01
 -1       528-1.06362E-01-1.57235E+01 2.42562E-01
 -1       529-1.28261E-01-2.39194E+01 3.68484E-01
 -1       530-1.48260E-01-3.35762E+01 5.16840E-01
 -1       531-1.66437E-01-4.45640E+01 6.85654E-01
 -1       532-1.82870E-01-5.67589E+01 8.73027E-01
 -1       533-1.97639E-01-7.00419E+01 1.07713E+00
 -1       534-2.10806E-01-8.42990E+01 1.29622E+00
 -1       535-2.22427E-01-9.94202E+01 1.52859E+00
 -1       536-2.32578E-01-1.15301E+02 1.77263E+00
 -1       537-2.41320E-01-1.31840E+02 2.02680E+00
 -1       538-2.48736E-01-1.48942E+02 2.28963E+00
 -1       539-2.54899E-01-1.66517E+02 2.55974E+00
 -1       540-2.59878E-01-1.84481E+02 2.83581E+00
 -1       541-2.63768E-01-2.02753E+02 3.11664E+00
 -1       542-2.66661E-01-2.21262E+02 3.40110E+00
 -1       543-2.68643E-01-2.39940E+02 3.68816E+00
 -1       544-2.69814E-01-2.58728E+02 3.97691E+00
 -1       545-2.70265E-01-2.77571E+02 4.26652E+00
 -1       546-2.70092E-01-2.96424E+02 4.55629E+00
 -1       547-2.69398E-01-3.15245E+02 4.84563E+00
 -1       548-2.68305E-01-3.34004E+02 5.13408E+00
 -1       549-2.67033E-01-3.52677E+02 5.42131E+00
 -1       550-2.66006E-01-3.71268E+02 5.70719E+00
 -1       551-2.65855E-01-3.89813E+02 5.99182E+00
 -1       552-2.66908E-01-4.08392E+02 6.27559E+00
 -1       553-2.68479E-01-4.27070E+02 6.55907E+00
 -1       554-5.85276E-07-1.84860E-07 2.02158E-02
 -1       555 3.72179E-06-7.22827E-07 6.54653E-02
 -1       556 3.23034E-06 1.90094E-08 1.39919E-01
 -1       557-1.98751E-06 1.99979E-06 2.41332E-01
 -1       558-1.66705E-06-2.14318E-07 3.67334E-01
 -1       559-1.95503E-06-8.53584E-07 5.15800E-01
 -1       560-1.04655E-06-3.03416E-06 6.84725E-01
 -1       561 2.88519E-06-2.76198E-06 8.72198E-01
 -1       562-6.65020E-07 3.27489E-06 1.07640E+00
 -1       563-4.66698E-06 4.06631E-06 1.29556E+00
 -1       564-6.00530E-06 3.30230E-06 1.52801E+00
 -1       565-4.91887E-06 4.56489E-06 1.77213E+00
 -1       566-9.78128E-07 2.22124E-06 2.02636E+00
 -1       567-8.69734E-08-2.89227E-07 2.28926E+00
 -1       568-3.06028E-06-3.48256E-06 2.55943E+00
 -1       569-4.95401E-07-6.98330E-08 2.83556E+00
 -1       570-2.07665E-07 6.20525E-06 3.11644E+00
 -1       571-4.69260E-07 1.18334E-06 3.40095E+00
 -1       572-1.99021E-07-2.92140E-06 3.68806E+00
 -1       573 1.81106E-06-1.06647E-06 3.97686E+00
 -1       574-1.11440E-08-4.39856E-07 4.26651E+00
 -1       575-4.47428E-07-1.73620E-06 4.55629E+00
 -1       576-2.46512E-06-4.80558E-07 4.84557E+00
 -1       577-2.40482E-06-1.18432E-06 5.13384E+00
 -1       578-3.32704E-06-3.01446E-06 5.42078E+00
 -1       579-3.58914E-06-2.03853E-06 5.70647E+00
 -1       580 1.71700E-06-3.14925E-06 5.99174E+00
 -1       581 4.63106E-06 1.09414E-06 6.27819E+00
 -1       582-1.29882E-08 7.69063E-06 6.56707E+00
 -1       583 2.83454E-02 1.31210E+00 2.02745E-02
 -1       584 5.62920E-02 4.27215E+00 6.62626E-02
 -1       585 8.24354E-02 9.12496E+00 1.41120E-01
 -1       586 1.06364E-01 1.57235E+01 2.42557E-01
 -1       587 1.28256E-01 2.39194E+01 3.68483E-01
 -1       588 1.48255E-01 3.35762E+01 5.16837E-01
 -1       589 1.66432E-01 4.45640E+01 6.85651E-01
 -1       590 1.82872E-01 5.67589E+01 8.73024E-01
 -1       591 1.97639E-01 7.00419E+01 1.07714E+00
 -1       592 2.10802E-01 8.42990E+01 1.29622E+00
 -1       593 2.22421E-01 9.94202E+01 1.52860E+00
 -1       594 2.32572E-01 1.15301E+02 1.77264E+00
 -1       595 2.41325E-01 1.31840E+02 2.02680E+00
 -1       596 2.48739E-01 1.48942E+02 2.28964E+00
 -1       597 2.54899E-01 1.66517E+02 2.55974E+00
 -1       598 2.59879E-01 1.84481E+02 2.83581E+00
 -1       599 2.63770E-01 2.02753E+02 3.11664E+00
 -1       600 2.66664E-01 2.21262E+02 3.40110E+00
 -1       601 2.68646E-01 2.39940E+02 3.68816E+00
 -1       602 2.69815E-01 2.58728E+02 3.97691E+00
 -1       603 2.70268E-01 2.77571E+02 4.26652E+00
 -1       604 2.70096E-01 2.96424E+02 4.55629E+00
 -1       605 2.69394E-01 3.15245E+02 4.84563E+00
 -1       606 2.68298E-01 3.34004E+02 5.13408E+00
 -1       607 2.67027E-01 3.52677E+02 5.42131E+00
 -1       608 2.66003E-01 3.71268E+02 5.70719E+00
 -1       609 2.65855E-01 3.89813E+02 5.99182E+00
 -1       610 2.66911E-01 4.08392E+02 6.27559E+00
 -1       611 2.68478E-01 4.27070E+02 6.55907E+00
 -1       612-2.83448E-02 1.31211E+00-2.02717E-02
 -1       613-5.62941E-02 4.27215E+00-6.62661E-02
 -1       614-8.24312E-02 9.12496E+00-1.41129E-01
 -1       615-1.06364E-01 1.57235E+01-2.42561E-01
 -1       616-1.28265E-01 2.39194E+01-3.68480E-01
 -1       617-1.48258E-01 3.35762E+01-5.16835E-01
 -1       618-1.66435E-01 4.45640E+01-6.85650E-01
 -1       619-1.82869E-01 5.67589E+01-8.73028E-01
 -1       620-1.97637E-01 7.00420E+01-1.07713E+00
 -1       621-2.10802E-01 8.42990E+01-1.29621E+00
 -1       622-2.22430E-01 9.94202E+01-1.52859E+00
 -1       623-2.32579E-01 1.15301E+02-1.77263E+00
 -1       624-2.41320E-01 1.31840E+02-2.02680E+00
 -1       625-2.48733E-01 1.48942E+02-2.28963E+00
 -1       626-2.54893E-01 1.66517E+02-2.55974E+00
 -1       627-2.59882E-01 1.84481E+02-2.83581E+00
 -1       628-2.63773E-01 2.02753E+02-3.11664E+00
 -1       629-2.66661E-01 2.21262E+02-3.40110E+00
 -1       630-2.68643E-01 2.39940E+02-3.68816E+00
 -1       631-2.69813E-01 2.58728E+02-3.97691E+00
 -1       632-2.70264E-01 2.77571E+02-4.26652E+00
 -1       633-2.70091E-01 2.96424E+02-4.55629E+00
 -1       634-2.69400E-01 3.15245E+02-4.84563E+00
 -1       635-2.68307E-01 3.34004E+02-5.13408E+00
 -1       636-2.67030E-01 3.52677E+02-5.42131E+00
 -1       637-2.66003E-01 3.71268E+02-5.70720E+00
 -1       638-2.65859E-01 3.89813E+02-5.99182E+00
 -1       639-2.66908E-01 4.08392E+02-6.27559E+00
 -1       640-2.68479E-01 4.27070E+02-6.55906E+00
 -1       641-3.00133E-06 2.31798E-07-2.02123E-02
 -1       642 1.50473E-06-1.53901E-06-6.54679E-02
 -1       643 2.56348E-06-1.75921E-07-1.39924E-01
 -1       644-3.53652E-06 1.19572E-06-2.41335E-01
 -1       645-4.84367E-06 1.43311E-06-3.67332E-01
 -1       646-2.15962E-06 4.30778E-06-5.15793E-01
 -1       647-1.10671E-07-4.26731E-07-6.84720E-01
 -1       648 2.42807E-06-7.53982E-07-8.72196E-01
 -1       649-1.01574E-06 1.57739E-06-1.07639E+00
 -1       650-3.39675E-06 3.02471E-06-1.29556E+00
 -1       651-4.37693E-06 1.84340E-06-1.52801E+00
 -1       652-3.46030E-06 5.03090E-06-1.77213E+00
 -1       653-4.81013E-07 5.74799E-06-2.02636E+00
 -1       654-2.02269E-06 2.29148E-06-2.28926E+00
 -1       655-3.63463E-06 1.67087E-06-2.55943E+00
 -1       656-2.49778E-06 2.29174E-06-2.83555E+00
 -1       657-1.83038E-06 1.24123E-06-3.11644E+00
 -1       658-2.86405E-06 2.48004E-06-3.40095E+00
 -1       659-1.39362E-06 1.36311E-06-3.68806E+00
 -1       660 2.72999E-06-1.60930E-07-3.97685E+00
 -1       661-1.25610E-06 3.30367E-07-4.26650E+00
 -1       662-2.54751E-06 3.32286E-06-4.55629E+00
 -1       663-2.10137E-06 3.65031E-06-4.84557E+00
 -1       664-3.57657E-06-7.06273E-07-5.13385E+00
 -1       665-3.71804E-06-8.34781E-07-5.42078E+00
 -1       666-2.53861E-06-3.37404E-06-5.70647E+00
 -1       667 1.81946E-06-3.98276E-06-5.99175E+00
 -1       668 4.88878E-06-3.90061E-06-6.27819E+00
 -1       669 2.12839E-06-1.16640E-05-6.56706E+00
 -1       670 2.83426E-02-1.31210E+00-2.02740E-02
 -1       671 5.62929E-02-4.27215E+00-6.62675E-02
 -1       672 8.24360E-02-9.12496E+00-1.41122E-01
 -1       673 1.06363E-01-1.57235E+01-2.42556E-01
 -1       674 1.28256E-01-2.39194E+01-3.68482E-01
 -1       675 1.48250E-01-3.35762E+01-5.16835E-01
 -1       676 1.66429E-01-4.45640E+01-6.85649E-01
 -1       677 1.82870E-01-5.67589E+01-8.73027E-01
 -1       678 1.97640E-01-7.00419E+01-1.07714E+00
 -1       679 2.10800E-01-8.42990E+01-1.29622E+00
 -1       680 2.22425E-01-9.94202E+01-1.52859E+00
 -1       681 2.32576E-01-1.15301E+02-1.77263E+00
 -1       682 2.41325E-01-1.31840E+02-2.02680E+00
 -1       683 2.48735E-01-1.48942E+02-2.28964E+00
 -1       684 2.54891E-01-1.66517E+02-2.55973E+00
 -1       685 2.59881E-01-1.84481E+02-2.83581E+00
 -1       686 2.63774E-01-2.02753E+02-3.11664E+00
 -1       687 2.66663E-01-2.21262E+02-3.40110E+00
 -1       688 2.68648E-01-2.39940E+02-3.68816E+00
 -1       689 2.69817E-01-2.58728E+02-3.97691E+00
 -1       690 2.70267E-01-2.77571E+02-4.26652E+00
 -1       691 2.70092E-01-2.96424E+02-4.55629E+00
 -1       692 2.69397E-01-3.15245E+02-4.84563E+00
 -1       693 2.68302E-01-3.34004E+02-5.13408E+00
 -1       694 2.67025E-01-3.52677E+02-5.42131E+00
 -1       695 2.66000E-01-3.71268E+02-5.70719E+00
 -1       696 2.65857E-01-3.89813E+02-5.99183E+00
 -1       697 2.66909E-01-4.08392E+02-6.27559E+00
 -1       698 2.68478E-01-4.27070E+02-6.55907E+00
 -1       699-1.30928E+00-2.11809E+00 5.42210E-01
 -1       700-2.66049E+00-6.66310E+00 1.70057E+00
 -1       701-3.91534E+00-1.40219E+01 3.51449E+00
 -1       702-5.07039E+00-2.39951E+01 5.92909E+00
 -1       703-6.13220E+00-3.63744E+01 8.90762E+00
 -1       704-7.10325E+00-5.09599E+01 1.24127E+01
 -1       705-7.98695E+00-6.75585E+01 1.64032E+01
 -1       706-8.78653E+00-8.59838E+01 2.08357E+01
 -1       707-9.50513E+00-1.06056E+02 2.56669E+01
 -1       708-1.01459E+01-1.27602E+02 3.08545E+01
 -1       709-1.07121E+01-1.50456E+02 3.63581E+01
 -1       710-1.12069E+01-1.74459E+02 4.21393E+01
 -1       711-1.16339E+01-1.99458E+02 4.81612E+01
 -1       712-1.19964E+01-2.25310E+02 5.43893E+01
 -1       713-1.22984E+01-2.51878E+02 6.07905E+01
 -1       714-1.25435E+01-2.79034E+02 6.73340E+01
 -1       715-1.27360E+01-3.06658E+02 7.39909E+01
 -1       716-1.28800E+01-3.34640E+02 8.07344E+01
 -1       717-1.29802E+01-3.62878E+02 8.75400E+01
 -1       718-1.30413E+01-3.91283E+02 9.43857E+01
 -1       719-1.30683E+01-4.19773E+02 1.01253E+02
 -1       720-1.30663E+01-4.48280E+02 1.08128E+02
 -1       721-1.30410E+01-4.76747E+02 1.15002E+02
 -1       722-1.29984E+01-5.05129E+02 1.21870E+02
 -1       723-1.29452E+01-5.33396E+02 1.28724E+02
 -1       724-1.28895E+01-5.61527E+02 1.35532E+02
 -1       725-1.28404E+01-5.89517E+02 1.42209E+02
 -1       726-1.28070E+01-6.17374E+02 1.48596E+02
 -1       727-1.27925E+01-6.45123E+02 1.54527E+02
 -1       728-1.34527E+00-2.06447E+00 5.60865E-01
 -1       729-2.72783E+00-6.49866E+00 1.71848E+00
 -1       730-4.01065E+00-1.36842E+01 3.53088E+00
 -1       731-5.19183E+00-2.34270E+01 5.94422E+00
 -1       732-6.27816E+00-3.55221E+01 8.92148E+00
 -1       733-7.27197E+00-4.97733E+01 1.24253E+01
 -1       734-8.17652E+00-6.59912E+01 1.64147E+01
 -1       735-8.99498E+00-8.39937E+01 2.08461E+01
 -1       736-9.73054E+00-1.03605E+02 2.56762E+01
 -1       737-1.03864E+01-1.24656E+02 3.08627E+01
 -1       738-1.09659E+01-1.46985E+02 3.63654E+01
 -1       739-1.14724E+01-1.70436E+02 4.21455E+01
 -1       740-1.19094E+01-1.94861E+02 4.81666E+01
 -1       741-1.22804E+01-2.20119E+02 5.43938E+01
 -1       742-1.25894E+01-2.46076E+02 6.07942E+01
 -1       743-1.28403E+01-2.72607E+02 6.73370E+01
 -1       744-1.30373E+01-2.99596E+02 7.39932E+01
 -1       745-1.31846E+01-3.26934E+02 8.07361E+01
 -1       746-1.32871E+01-3.54523E+02 8.75411E+01
 -1       747-1.33496E+01-3.82274E+02 9.43863E+01
 -1       748-1.33771E+01-4.10109E+02 1.01253E+02
 -1       749-1.33753E+01-4.37960E+02 1.08128E+02
 -1       750-1.33498E+01-4.65771E+02 1.15001E+02
 -1       751-1.33068E+01-4.93498E+02 1.21869E+02
 -1       752-1.32526E+01-5.21110E+02 1.28723E+02
 -1       753-1.31933E+01-5.48591E+02 1.35532E+02
 -1       754-1.31353E+01-5.75945E+02 1.42209E+02
 -1       755-1.30844E+01-6.03194E+02 1.48596E+02
 -1       756-1.30481E+01-6.30384E+02 1.54527E+02
 -1       757 1.34527E+00 2.06447E+00 5.60860E-01
 -1       758 2.72782E+00 6.49866E+00 1.71848E+00
 -1       759 4.01065E+00 1.36842E+01 3.53087E+00
 -1       760 5.19183E+00 2.34270E+01 5.94422E+00
 -1       761 6.27817E+00 3.55221E+01 8.92148E+00
 -1       762 7.27197E+00 4.97733E+01 1.24253E+01
 -1       763 8.17652E+00 6.59912E+01 1.64147E+01
 -1       764 8.99498E+00 8.39937E+01 2.08461E+01
 -1       765 9.73054E+00 1.03605E+02 2.56762E+01
 -1       766 1.03864E+01 1.24656E+02 3.08627E+01
 -1       767 1.09659E+01 1.46985E+02 3.63654E+01
 -1       768 1.14724E+01 1.70436E+02 4.21455E+01
 -1       769 1.19093E+01 1.94861E+02 4.81666E+01
 -1       770 1.22804E+01 2.20119E+02 5.43938E+01
 -1       771 1.25894E+01 2.46076E+02 6.07942E+01
 -1       772 1.28403E+01 2.72607E+02 6.73370E+01
 -1       773 1.30372E+01 2.99596E+02 7.39932E+01
 -1       774 1.31847E+01 3.26934E+02 8.07361E+01
 -1       775 1.32871E+01 3.54523E+02 8.75411E+01
 -1       776 1.33496E+01 3.82274E+02 9.43863E+01
 -1       777 1.33771E+01 4.10109E+02 1.01253E+02
 -1       778 1.33753E+01 4.37960E+02 1.08128E+02
 -1       779 1.33498E+01 4.65771E+02 1.15001E+02
 -1       780 1.33068E+01 4.93498E+02 1.21869E+02
 -1       781 1.32526E+01 5.21110E+02 1.28723E+02
 -1       782 1.31933E+01 5.48591E+02 1.35532E+02
 -1       783 1.31353E+01 5.75945E+02 1.42209E+02
 -1       784 1.30844E+01 6.03194E+02 1.48596E+02
 -1       785 1.30481E+01 6.30384E+02 1.54527E+02
 -1       786 1.30928E+00 2.11810E+00 5.42204E-01
 -1       787 2.66049E+00 6.66311E+00 1.70056E+00
 -1       788 3.91535E+00 1.40219E+01 3.51449E+00
 -1       789 5.07040E+00 2.39951E+01 5.92910E+00
 -1       790 6.13221E+00 3.63744E+01 8.90762E+00
 -1       791 7.10325E+00 5.09599E+01 1.24127E+01
 -1       792 7.98695E+00 6.75585E+01 1.64032E+01
 -1       793 8.78653E+00 8.59838E+01 2.08357E+01
 -1       794 9.50513E+00 1.06056E+02 2.56669E+01
 -1       795 1.01459E+01 1.27602E+02 3.08545E+01
 -1       796 1.07121E+01 1.50456E+02 3.63581E+01
 -1       797 1.12069E+01 1.74459E+02 4.21393E+01
 -1       798 1.16339E+01 1.99458E+02 4.81612E+01
 -1       799 1.19964E+01 2.25310E+02 5.43893E+01
 -1       800 1.22984E+01 2.51878E+02 6.07905E+01
 -1       801 1.25435E+01 2.79034E+02 6.73340E+01
 -1       802 1.27360E+01 3.06658E+02 7.39909E+01
 -1       803 1.28800E+01 3.34640E+02 8.07344E+01
 -1       804 1.29802E+01 3.62878E+02 8.75400E+01
 -1       805 1.30413E+01 3.91283E+02 9.43857E+01
 -1       806 1.30683E+01 4.19773E+02 1.01253E+02
 -1       807 1.30663E+01 4.48280E+02 1.08128E+02
 -1       808 1.30410E+01 4.76747E+02 1.15002E+02
 -1       809 1.29984E+01 5.05129E+02 1.21870E+02
 -1       810 1.29452E+01 5.33396E+02 1.28724E+02
 -1       811 1.28895E+01 5.61527E+02 1.35532E+02
 -1       812 1.28404E+01 5.89517E+02 1.42209E+02
 -1       813 1.28070E+01 6.17374E+02 1.48596E+02
 -1       814 1.27925E+01 6.45123E+02 1.54527E+02
 -1       815 1.30927E+00-2.11809E+00-5.42205E-01
 -1       816 2.66049E+00-6.66310E+00-1.70057E+00
 -1       817 3.91535E+00-1.40219E+01-3.51449E+00
 -1       818 5.07039E+00-2.39951E+01-5.92910E+00
 -1       819 6.13220E+00-3.63744E+01-8.90762E+00
 -1       820 7.10324E+00-5.09599E+01-1.24127E+01
 -1       821 7.98695E+00-6.75585E+01-1.64032E+01
 -1       822 8.78653E+00-8.59838E+01-2.08357E+01
 -1       823 9.50513E+00-1.06056E+02-2.56669E+01
 -1       824 1.01459E+01-1.27602E+02-3.08545E+01
 -1       825 1.07121E+01-1.50456E+02-3.63581E+01
 -1       826 1.12069E+01-1.74459E+02-4.21393E+01
 -1       827 1.16339E+01-1.99458E+02-4.81612E+01
 -1       828 1.19964E+01-2.25310E+02-5.43893E+01
 -1       829 1.22984E+01-2.51878E+02-6.07905E+01
 -1       830 1.25435E+01-2.79034E+02-6.73340E+01
 -1       831 1.27360E+01-3.06658E+02-7.39909E+01
 -1       832 1.28800E+01-3.34640E+02-8.07344E+01
 -1       833 1.29802E+01-3.62878E+02-8.75400E+01
 -1       834 1.30413E+01-3.91283E+02-9.43857E+01
 -1       835 1.30683E+01-4.19773E+02-1.01253E+02
 -1       836 1.30663E+01-4.48280E+02-1.08128E+02
 -1       837 1.30410E+01-4.76747E+02-1.15002E+02
 -1       838 1.29984E+01-5.05129E+02-1.21870E+02
 -1       839 1.29452E+01-5.33396E+02-1.28724E+02
 -1       840 1.28895E+01-5.61527E+02-1.35532E+02
 -1       841 1.28404E+01-5.89517E+02-1.42209E+02
 -1       842 1.28070E+01-6.17374E+02-1.48596E+02
 -1       843 1.27925E+01-6.45123E+02-1.54527E+02
 -1       844 1.34527E+00-2.06447E+00-5.60862E-01
 -1       845 2.72783E+00-6.49866E+00-1.71848E+00
 -1       846 4.01065E+00-1.36842E+01-3.53088E+00
 -1       847 5.19183E+00-2.34270E+01-5.94422E+00
 -1       848 6.27816E+00-3.55221E+01-8.92148E+00
 -1       849 7.27197E+00-4.97733E+01-1.24253E+01
 -1       850 8.17652E+00-6.59912E+01-1.64147E+01
 -1       851 8.99499E+00-8.39937E+01-2.08461E+01
 -1       852 9.73054E+00-1.03605E+02-2.56762E+01
 -1       853 1.03864E+01-1.24656E+02-3.08627E+01
 -1       854 1.09659E+01-1.46985E+02-3.63654E+01
 -1       855 1.14724E+01-1.70436E+02-4.21455E+01
 -1       856 1.19093E+01-1.94861E+02-4.81666E+01
 -1       857 1.22804E+01-2.20118E+02-5.43938E+01
 -1       858 1.25894E+01-2.46076E+02-6.07942E+01
 -1       859 1.28403E+01-2.72607E+02-6.73370E+01
 -1       860 1.30373E+01-2.99596E+02-7.39932E+01
 -1       861 1.31847E+01-3.26934E+02-8.07361E+01
 -1       862 1.32871E+01-3.54523E+02-8.75411E+01
 -1       863 1.33496E+01-3.82274E+02-9.43863E+01
 -1       864 1.33771E+01-4.10109E+02-1.01253E+02
 -1       865 1.33753E+01-4.37960E+02-1.08128E+02
 -1       866 1.33498E+01-4.65771E+02-1.15001E+02
 -1       867 1.33068E+01-4.93498E+02-1.21869E+02
 -1       868 1.32526E+01-5.21110E+02-1.28723E+02
 -1       869 1.31933E+01-5.48591E+02-1.35532E+02
 -1       870 1.31353E+01-5.75945E+02-1.42209E+02
 -1       871 1.30844E+01-6.03194E+02-1.48596E+02
 -1       872 1.30481E+01-6.30384E+02-1.54527E+02
 -1       873-1.27925E+01 6.45123E+02-1.54527E+02
 -1       874-1.28070E+01 6.17374E+02-1.48596E+02
 -1       875-1.28404E+01 5.89517E+02-1.42209E+02
 -1       876-1.28894E+01 5.61527E+02-1.35532E+02
 -1       877-1.29452E+01 5.33396E+02-1.28724E+02
 -1       878-1.29984E+01 5.05129E+02-1.21870E+02
 -1       879-1.30410E+01 4.76747E+02-1.15002E+02
 -1       880-1.30663E+01 4.48280E+02-1.08128E+02
 -1       881-1.30683E+01 4.19773E+02-1.01253E+02
 -1       882-1.30413E+01 3.91283E+02-9.43857E+01
 -1       883-1.29803E+01 3.62878E+02-8.75400E+01
 -1       884-1.28800E+01 3.34640E+02-8.07344E+01
 -1       885-1.27360E+01 3.06658E+02-7.39909E+01
 -1       886-1.25435E+01 2.79034E+02-6.73340E+01
 -1       887-1.22984E+01 2.51878E+02-6.07905E+01
 -1       888-1.19964E+01 2.25310E+02-5.43893E+01
 -1       889-1.16339E+01 1.99458E+02-4.81612E+01
 -1       890-1.12069E+01 1.74459E+02-4.21393E+01
 -1       891-1.07121E+01 1.50456E+02-3.63581E+01
 -1       892-1.01459E+01 1.27602E+02-3.08545E+01
 -1       893-9.50513E+00 1.06056E+02-2.56669E+01
 -1       894-8.78653E+00 8.59838E+01-2.08357E+01
 -1       895-7.98695E+00 6.75585E+01-1.64032E+01
 -1       896-7.10324E+00 5.09599E+01-1.24127E+01
 -1       897-6.13220E+00 3.63744E+01-8.90762E+00
 -1       898-5.07039E+00 2.39951E+01-5.92909E+00
 -1       899-3.91534E+00 1.40219E+01-3.51449E+00
 -1       900-2.66049E+00 6.66310E+00-1.70057E+00
 -1       901-1.30927E+00 2.11809E+00-5.42206E-01
 -1       902-1.34527E+00 2.06447E+00-5.60863E-01
 -1       903-2.72782E+00 6.49866E+00-1.71848E+00
 -1       904-4.01065E+00 1.36842E+01-3.53088E+00
 -1       905-5.19183E+00 2.34270E+01-5.94422E+00
 -1       906-6.27816E+00 3.55221E+01-8.92148E+00
 -1       907-7.27197E+00 4.97733E+01-1.24253E+01
 -1       908-8.17652E+00 6.59912E+01-1.64147E+01
 -1       909-8.99498E+00 8.39937E+01-2.08461E+01
 -1       910-9.73054E+00 1.03605E+02-2.56762E+01
 -1       911-1.03864E+01 1.24656E+02-3.08627E+01
 -1       912-1.09659E+01 1.46985E+02-3.63654E+01
 -1       913-1.14724E+01 1.70436E+02-4.21455E+01
 -1       914-1.19094E+01 1.94861E+02-4.81666E+01
 -1       915-1.22804E+01 2.20118E+02-5.43938E+01
 -1       916-1.25894E+01 2.46076E+02-6.07942E+01
 -1       917-1.28403E+01 2.72607E+02-6.73370E+01
 -1       918-1.30373E+01 2.99596E+02-7.39932E+01
 -1       919-1.31847E+01 3.26934E+02-8.07361E+01
 -1       920-1.32871E+01 3.54523E+02-8.75411E+01
 -1       921-1.33496E+01 3.82274E+02-9.43863E+01
 -1       922-1.33771E+01 4.10109E+02-1.01253E+02
 -1       923-1.33753E+01 4.37960E+02-1.08128E+02
 -1       924-1.33498E+01 4.65771E+02-1.15001E+02
 -1       925-1.33068E+01 4.93498E+02-1.21869E+02
 -1       926-1.32526E+01 5.21110E+02-1.28723E+02
 -1       927-1.31933E+01 5.48591E+02-1.35532E+02
 -1       928-1.31353E+01 5.75945E+02-1.42209E+02
 -1       929-1.30844E+01 6.03194E+02-1.48596E+02
 -1       930-1.30481E+01 6.30384E+02-1.54527E+02
 -3
    1PSTEP                         8           1           1          
    1PGM                1.000000E+00                                  
    1PGK                1.836514E+04                                  
    1PHID                         -1                                  
    1PSUBC                         0                                  
    1PMODE                         2                                  
  100CL  102 21.56836390         930                     2    2MODAL      1
 -4  ERROR       1    1
 -5  STR(%)      1    1    0    0
 -1         1 5.37533E+01
 -1         2 5.37533E+01
 -1         3 4.33910E+01
 -1         4 4.33910E+01
 -1         5 5.37533E+01
 -1         6 5.37533E+01
 -1         7 4.33910E+01
 -1         8 4.33910E+01
 -1         9 5.37533E+01
 -1        10 4.33910E+01
 -1        11 3.58848E+01
 -1        12 3.58848E+01
 -1        13 2.18915E+01
 -1        14 2.18915E+01
 -1        15 5.37533E+01
 -1        16 4.33910E+01
 -1        17 3.58848E+01
 -1        18 3.58848E+01
 -1        19 2.18915E+01
 -1        20 2.18915E+01
 -1        21 3.58848E+01
 -1        22 3.58848E+01
 -1        23 2.18915E+01
 -1        24 2.18915E+01
 -1        25 5.37533E+01
 -1        26 4.33910E+01
 -1        27 5.37533E+01
 -1        28 3.58848E+01
 -1        29 3.58848E+01
 -1        30 4.33910E+01
 -1        31 2.18915E+01
 -1        32 2.18915E+01
 -1        33 6.82529E+01
 -1        34 7.44170E+01
 -1        35 7.60959E+01
 -1        36 7.60959E+01
 -1        37 6.98571E+01
 -1        38 6.29800E+01
 -1        39 6.49650E+01
 -1        40 6.66299E+01
 -1        41 6.80052E+01
 -1        42 6.91114E+01
 -1        43 6.99495E+01
 -1        44 7.04947E+01
 -1        45 7.06910E+01
 -1        46 7.06910E+01
 -1        47 7.04667E+01
 -1        48 6.98086E+01
 -1        49 6.88229E+01
 -1        50 6.76667E+01
 -1        51 6.64609E+01
 -1        52 6.52815E+01
 -1        53 6.41906E+01
 -1        54 6.40054E+01
 -1        55 6.45793E+01
 -1        56 6.54197E+01
 -1        57 6.62928E+01
 -1        58 6.64759E+01
 -1        59 6.70917E+01
 -1        60 6.70917E+01
 -1        61 6.34668E+01
 -1        62 6.82529E+01
 -1        63 7.44170E+01
 -1        64 7.60959E+01
 -1        65 7.60959E+01
 -1        66 6.98571E+01
 -1        67 6.29800E+01
 -1        68 6.49650E+01
 -1        69 6.66299E+01
 -1        70 6.80052E+01
 -1        71 6.91114E+01
 -1        72 6.99495E+01
 -1        73 7.04947E+01
 -1        74 7.06910E+01
 -1        75 7.06910E+01
 -1        76 7.04667E+01
 -1        77 6.98086E+01
 -1        78 6.88229E+01
 -1        79 6.76667E+01
 -1        80 6.64609E+01
 -1        81 6.52815E+01
 -1        82 6.41906E+01
 -1        83 6.40054E+01
 -1        84 6.45793E+01
 -1        85 6.54197E+01
 -1        86 6.62928E+01
 -1        87 6.64759E+01
 -1        88 6.70917E+01
 -1        89 6.70917E+01
 -1        90 6.34668E+01
 -1        91 6.15040E+01
 -1        92 6.15040E+01
 -1        93 6.15040E+01
 -1        94 6.15040E+01
 -1        95 6.15040E+01
 -1        96 6.15040E+01
 -1        97 6.82529E+01
 -1        98 7.44170E+01
 -1        99 7.60959E+01
 -1       100 7.60959E+01
 -1       101 6.98571E+01
 -1       102 6.29800E+01
 -1       103 6.49650E+01
 -1       104 6.66299E+01
 -1       105 6.80052E+01
 -1       106 6.91114E+01
 -1       107 6.99495E+01
 -1       108 7.04947E+01
 -1       109 7.06910E+01
 -1       110 7.06910E+01
 -1       111 7.04667E+01
 -1       112 6.98086E+01
 -1       113 6.88229E+01
 -1       114 6.76667E+01
 -1       115 6.64609E+01
 -1       116 6.52815E+01
 -1       117 6.41906E+01
 -1       118 6.40054E+01
 -1       119 6.45793E+01
 -1       120 6.54197E+01
 -1       121 6.62928E+01
 -1       122 6.64759E+01
 -1       123 6.70917E+01
 -1       124 6.70917E+01
 -1       125 6.34668E+01
 -1       126 3.49147E+01
 -1       127 6.08460E+00
 -1       128 3.49147E+01
 -1       129 6.82529E+01
 -1       130 7.44170E+01
 -1       131 7.60959E+01
 -1       132 7.60959E+01
 -1       133 6.98571E+01
 -1       134 6.29800E+01
 -1       135 6.49650E+01
 -1       136 6.66299E+01
 -1       137 6.80052E+01
 -1       138 6.91114E+01
 -1       139 6.99495E+01
 -1       140 7.04947E+01
 -1       141 7.06910E+01
 -1       142 7.06910E+01
 -1       143 7.04667E+01
 -1       144 6.98086E+01
 -1       145 6.88229E+01
 -1       146 6.76667E+01
 -1       147 6.64609E+01
 -1       148 6.52815E+01
 -1       149 6.41906E+01
 -1       150 6.40054E+01
 -1       151 6.45793E+01
 -1       152 6.54197E+01
 -1       153 6.62928E+01
 -1       154 6.64759E+01
 -1       155 6.70917E+01
 -1       156 6.70917E+01
 -1       157 6.34668E+01
 -1       158 3.49147E+01
 -1       159 6.08460E+00
 -1       160 3.49147E+01
 -1       161 6.82529E+01
 -1       162 7.44170E+01
 -1       163 7.60959E+01
 -1       164 7.60959E+01
 -1       165 6.98571E+01
 -1       166 6.29800E+01
 -1       167 6.49650E+01
 -1       168 6.66299E+01
 -1       169 6.80052E+01
 -1       170 6.91114E+01
 -1       171 6.99495E+01
 -1       172 7.04947E+01
 -1       173 7.06910E+01
 -1       174 7.06910E+01
 -1       175 7.04667E+01
 -1       176 6.98086E+01
 -1       177 6.88229E+01
 -1       178 6.76667E+01
 -1       179 6.64609E+01
 -1       180 6.52815E+01
 -1       181 6.41906E+01
 -1       182 6.40054E+01
 -1       183 6.45793E+01
 -1       184 6.54197E+01
 -1       185 6.62928E+01
 -1       186 6.64759E+01
 -1       187 6.70917E+01
 -1       188 6.70917E+01
 -1       189 6.34668E+01
 -1       190 5.37533E+01
 -1       191 5.37533E+01
 -1       192 4.12672E+01
 -1       193 3.58848E+01
 -1       194 2.49202E+01
 -1       195 2.53636E+01
 -1       196 2.59808E+01
 -1       197 2.65231E+01
 -1       198 2.69191E+01
 -1       199 2.71515E+01
 -1       200 2.71635E+01
 -1       201 2.75145E+01
 -1       202 2.77502E+01
 -1       203 2.77502E+01
 -1       204 2.76213E+01
 -1       205 2.70217E+01
 -1       206 2.58542E+01
 -1       207 2.42596E+01
 -1       208 2.20772E+01
 -1       209 1.92205E+01
 -1       210 1.57226E+01
 -1       211 1.16524E+01
 -1       212 7.11507E+00
 -1       213 4.03862E+00
 -1       214 3.62656E+00
 -1       215 4.18337E+00
 -1       216 4.37685E+00
 -1       217 4.37685E+00
 -1       218 5.37209E+00
 -1       219 1.10245E+01
 -1       220 1.94520E+01
 -1       221 2.18915E+01
 -1       222 3.58848E+01
 -1       223 2.49202E+01
 -1       224 2.53636E+01
 -1       225 2.59808E+01
 -1       226 2.65231E+01
 -1       227 2.69191E+01
 -1       228 2.71515E+01
 -1       229 2.71635E+01
 -1       230 2.75145E+01
 -1       231 2.77502E+01
 -1       232 2.77502E+01
 -1       233 2.76213E+01
 -1       234 2.70217E+01
 -1       235 2.58542E+01
 -1       236 2.42596E+01
 -1       237 2.20772E+01
 -1       238 1.92205E+01
 -1       239 1.57226E+01
 -1       240 1.16524E+01
 -1       241 7.11507E+00
 -1       242 4.03862E+00
 -1       243 3.62656E+00
 -1       244 4.18337E+00
 -1       245 4.37685E+00
 -1       246 4.37685E+00
 -1       247 5.37209E+00
 -1       248 1.10245E+01
 -1       249 1.94520E+01
 -1       250 2.18915E+01
 -1       251 4.12672E+01
 -1       252 6.34668E+01
 -1       253 6.70917E+01
 -1       254 6.70917E+01
 -1       255 6.64759E+01
 -1       256 6.62928E+01
 -1       257 6.54197E+01
 -1       258 6.45793E+01
 -1       259 6.40054E+01
 -1       260 6.41906E+01
 -1       261 6.52815E+01
 -1       262 6.64609E+01
 -1       263 6.76667E+01
 -1       264 6.88229E+01
 -1       265 6.98086E+01
 -1       266 7.04667E+01
 -1       267 7.06910E+01
 -1       268 7.06910E+01
 -1       269 7.04947E+01
 -1       270 6.99495E+01
 -1       271 6.91114E+01
 -1       272 6.80052E+01
 -1       273 6.66299E+01
 -1       274 6.49650E+01
 -1       275 6.29800E+01
 -1       276 6.98571E+01
 -1       277 7.60959E+01
 -1       278 7.60959E+01
 -1       279 7.44170E+01
 -1       280 6.82529E+01
 -1       281 5.37533E+01
 -1       282 5.37533E+01
 -1       283 3.58848E+01
 -1       284 2.49202E+01
 -1       285 2.53636E+01
 -1       286 2.59808E+01
 -1       287 2.65231E+01
 -1       288 2.69191E+01
 -1       289 2.71515E+01
 -1       290 2.71635E+01
 -1       291 2.75145E+01
 -1       292 2.77502E+01
 -1       293 2.77502E+01
 -1       294 2.76213E+01
 -1       295 2.70217E+01
 -1       296 2.58542E+01
 -1       297 2.42596E+01
 -1       298 2.20772E+01
 -1       299 1.92205E+01
 -1       300 1.57226E+01
 -1       301 1.16524E+01
 -1       302 7.11507E+00
 -1       303 4.03862E+00
 -1       304 3.62656E+00
 -1       305 4.18337E+00
 -1       306 4.37685E+00
 -1       307 4.37685E+00
 -1       308 5.37209E+00
 -1       309 1.10245E+01
 -1       310 1.94520E+01
 -1       311 2.18915E+01
 -1       312 4.12672E+01
 -1       313 3.58848E+01
 -1       314 2.49202E+01
 -1       315 2.53636E+01
 -1       316 2.59808E+01
 -1       317 2.65231E+01
 -1       318 2.69191E+01
 -1       319 2.71515E+01
 -1       320 2.71635E+01
 -1       321 2.75145E+01
 -1       322 2.77502E+01
 -1       323 2.77502E+01
 -1       324 2.76213E+01
 -1       325 2.70217E+01
 -1       326 2.58542E+01
 -1       327 2.42596E+01
 -1       328 2.20772E+01
 -1       329 1.92205E+01
 -1       330 1.57226E+01
 -1       331 1.16524E+01
 -1       332 7.11507E+00
 -1       333 4.03862E+00
 -1       334 3.62656E+00
 -1       335 4.18337E+00
 -1       336 4.37685E+00
 -1       337 4.37685E+00
 -1       338 5.37209E+00
 -1       339 1.10245E+01
 -1       340 1.94520E+01
 -1       341 2.18915E+01
 -1       342 4.12672E+01
 -1       343 3.58848E+01
 -1       344 2.49202E+01
 -1       345 2.53636E+01
 -1       346 2.59808E+01
 -1       347 2.65231E+01
 -1       348 2.69191E+01
 -1       349 2.71515E+01
 -1       350 2.71635E+01
 -1       351 2.75145E+01
 -1       352 2.77502E+01
 -1       353 2.77502E+01
 -1       354 2.76213E+01
 -1       355 2.70217E+01
 -1       356 2.58542E+01
 -1       357 2.42596E+01
 -1       358 2.20772E+01
 -1       359 1.92205E+01
 -1       360 1.57226E+01
 -1       361 1.16524E+01
 -1       362 7.11507E+00
 -1       363 4.03862E+00
 -1       364 3.62656E+00
 -1       365 4.18337E+00
 -1       366 4.37685E+00
 -1       367 4.37685E+00
 -1       368 5.37209E+00
 -1       369 1.10245E+01
 -1       370 1.94520E+01
 -1       371 2.18915E+01
 -1       372 3.58848E+01
 -1       373 2.49202E+01
 -1       374 2.53636E+01
 -1       375 2.59808E+01
 -1       376 2.65231E+01
 -1       377 2.69191E+01
 -1       378 2.71515E+01
 -1       379 2.71635E+01
 -1       380 2.75145E+01
 -1       381 2.77502E+01
 -1       382 2.77502E+01
 -1       383 2.76213E+01
 -1       384 2.70217E+01
 -1       385 2.58542E+01
 -1       386 2.42596E+01
 -1       387 2.20772E+01
 -1       388 1.92205E+01
 -1       389 1.57226E+01
 -1       390 1.16524E+01
 -1       391 7.11507E+00
 -1       392 4.03862E+00
 -1       393 3.62656E+00
 -1       394 4.18337E+00
 -1       395 4.37685E+00
 -1       396 4.37685E+00
 -1       397 5.37209E+00
 -1       398 1.10245E+01
 -1       399 1.94520E+01
 -1       400 2.18915E+01
 -1       401 5.37533E+01
 -1       402 5.37533E+01
 -1       403 4.12672E+01
 -1       404 6.82529E+01
 -1       405 7.44170E+01
 -1       406 7.60959E+01
 -1       407 7.60959E+01
 -1       408 6.98571E+01
 -1       409 6.29800E+01
 -1       410 6.49650E+01
 -1       411 6.66299E+01
 -1       412 6.80052E+01
 -1       413 6.91114E+01
 -1       414 6.99495E+01
 -1       415 7.04947E+01
 -1       416 7.06910E+01
 -1       417 7.06910E+01
 -1       418 7.04667E+01
 -1       419 6.98086E+01
 -1       420 6.88229E+01
 -1       421 6.76667E+01
 -1       422 6.64609E+01
 -1       423 6.52815E+01
 -1       424 6.41906E+01
 -1       425 6.40054E+01
 -1       426 6.45793E+01
 -1       427 6.54197E+01
 -1       428 6.62928E+01
 -1       429 6.64759E+01
 -1       430 6.70917E+01
 -1       431 6.70917E+01
 -1       432 6.34668E+01
 -1       433 4.12672E+01
 -1       434 5.37533E+01
 -1       435 5.37533E+01
 -1       436 6.34668E+01
 -1       437 6.70917E+01
 -1       438 6.70917E+01
 -1       439 6.64759E+01
 -1       440 6.62928E+01
 -1       441 6.54197E+01
 -1       442 6.45793E+01
 -1       443 6.40054E+01
 -1       444 6.41906E+01
 -1       445 6.52815E+01
 -1       446 6.64609E+01
 -1       447 6.76667E+01
 -1       448 6.88229E+01
 -1       449 6.98086E+01
 -1       450 7.04667E+01
 -1       451 7.06910E+01
 -1       452 7.06910E+01
 -1       453 7.04947E+01
 -1       454 6.99495E+01
 -1       455 6.91114E+01
 -1       456 6.80052E+01
 -1       457 6.66299E+01
 -1       458 6.49650E+01
 -1       459 6.29800E+01
 -1       460 6.98571E+01
 -1       461 7.60959E+01
 -1       462 7.60959E+01
 -1       463 7.44170E+01
 -1       464 6.82529E+01
 -1       465 4.12672E+01
 -1       466 3.58848E+01
 -1       467 2.49202E+01
 -1       468 2.53636E+01
 -1       469 2.59808E+01
 -1       470 2.65231E+01
 -1       471 2.69191E+01
 -1       472 2.71515E+01
 -1       473 2.71635E+01
 -1       474 2.75145E+01
 -1       475 2.77502E+01
 -1       476 2.77502E+01
 -1       477 2.76213E+01
 -1       478 2.70217E+01
 -1       479 2.58542E+01
 -1       480 2.42596E+01
 -1       481 2.20772E+01
 -1       482 1.92205E+01
 -1       483 1.57226E+01
 -1       484 1.16524E+01
 -1       485 7.11507E+00
 -1       486 4.03862E+00
 -1       487 3.62656E+00
 -1       488 4.18337E+00
 -1       489 4.37685E+00
 -1       490 4.37685E+00
 -1       491 5.37209E+00
 -1       492 1.10245E+01
 -1       493 1.94520E+01
 -1       494 2.18915E+01
 -1       495 3.58848E+01
 -1       496 2.49202E+01
 -1       497 2.53636E+01
 -1       498 2.59808E+01
 -1       499 2.65231E+01
 -1       500 2.69191E+01
 -1       501 2.71515E+01
 -1       502 2.71635E+01
 -1       503 2.75145E+01
 -1       504 2.77502E+01
 -1       505 2.77502E+01
 -1       506 2.76213E+01
 -1       507 2.70217E+01
 -1       508 2.58542E+01
 -1       509 2.42596E+01
 -1       510 2.20772E+01
 -1       511 1.92205E+01
 -1       512 1.57226E+01
 -1       513 1.16524E+01
 -1       514 7.11507E+00
 -1       515 4.03862E+00
 -1       516 3.62656E+00
 -1       517 4.18337E+00
 -1       518 4.37685E+00
 -1       519 4.37685E+00
 -1       520 5.37209E+00
 -1       521 1.10245E+01
 -1       522 1.94520E+01
 -1       523 2.18915E+01
 -1       524 4.12672E+01
 -1       525 6.15040E+01
 -1       526 5.26321E+01
 -1       527 4.18773E+01
 -1       528 4.07551E+01
 -1       529 3.94989E+01
 -1       530 3.72307E+01
 -1       531 3.43207E+01
 -1       532 3.11107E+01
 -1       533 2.93834E+01
 -1       534 2.72828E+01
 -1       535 2.46610E+01
 -1       536 2.16657E+01
 -1       537 1.84298E+01
 -1       538 1.50663E+01
 -1       539 1.16680E+01
 -1       540 8.30907E+00
 -1       541 5.46310E+00
 -1       542 4.41643E+00
 -1       543 3.72838E+00
 -1       544 3.10929E+00
 -1       545 2.56551E+00
 -1       546 2.52635E+00
 -1       547 2.75186E+00
 -1       548 2.95004E+00
 -1       549 3.45331E+00
 -1       550 3.61528E+00
 -1       551 3.61528E+00
 -1       552 1.91607E+01
 -1       553 3.49147E+01
 -1       554 6.15040E+01
 -1       555 5.26321E+01
 -1       556 4.18773E+01
 -1       557 3.10060E+01
 -1       558 2.20608E+01
 -1       559 1.54747E+01
 -1       560 1.08327E+01
 -1       561 8.08714E+00
 -1       562 5.71744E+00
 -1       563 4.50068E+00
 -1       564 3.83031E+00
 -1       565 3.24075E+00
 -1       566 2.71900E+00
 -1       567 2.25461E+00
 -1       568 1.83936E+00
 -1       569 1.46692E+00
 -1       570 1.13259E+00
 -1       571 8.32983E-01
 -1       572 5.65545E-01
 -1       573 3.91181E-01
 -1       574 2.46687E-01
 -1       575 3.25685E-01
 -1       576 3.89331E-01
 -1       577 4.36564E-01
 -1       578 4.36564E-01
 -1       579 4.32150E-01
 -1       580 5.47855E-01
 -1       581 1.86338E+00
 -1       582 6.08460E+00
 -1       583 6.15040E+01
 -1       584 5.26321E+01
 -1       585 4.18773E+01
 -1       586 4.07551E+01
 -1       587 3.94989E+01
 -1       588 3.72307E+01
 -1       589 3.43207E+01
 -1       590 3.11107E+01
 -1       591 2.93834E+01
 -1       592 2.72828E+01
 -1       593 2.46610E+01
 -1       594 2.16657E+01
 -1       595 1.84298E+01
 -1       596 1.50663E+01
 -1       597 1.16680E+01
 -1       598 8.30907E+00
 -1       599 5.46310E+00
 -1       600 4.41643E+00
 -1       601 3.72838E+00
 -1       602 3.10929E+00
 -1       603 2.56551E+00
 -1       604 2.52635E+00
 -1       605 2.75186E+00
 -1       606 2.95004E+00
 -1       607 3.45331E+00
 -1       608 3.61528E+00
 -1       609 3.61528E+00
 -1       610 1.91607E+01
 -1       611 3.49147E+01
 -1       612 6.15040E+01
 -1       613 5.26321E+01
 -1       614 4.18773E+01
 -1       615 4.07551E+01
 -1       616 3.94989E+01
 -1       617 3.72307E+01
 -1       618 3.43207E+01
 -1       619 3.11107E+01
 -1       620 2.93834E+01
 -1       621 2.72828E+01
 -1       622 2.46610E+01
 -1       623 2.16657E+01
 -1       624 1.84298E+01
 -1       625 1.50663E+01
 -1       626 1.16680E+01
 -1       627 8.30907E+00
 -1       628 5.46310E+00
 -1       629 4.41643E+00
 -1       630 3.72838E+00
 -1       631 3.10929E+00
 -1       632 2.56551E+00
 -1       633 2.52635E+00
 -1       634 2.75186E+00
 -1       635 2.95004E+00
 -1       636 3.45331E+00
 -1       637 3.61528E+00
 -1       638 3.61528E+00
 -1       639 1.91607E+01
 -1       640 3.49147E+01
 -1       641 6.15040E+01
 -1       642 5.26321E+01
 -1       643 4.18773E+01
 -1       644 3.10060E+01
 -1       645 2.20608E+01
 -1       646 1.54747E+01
 -1       647 1.08327E+01
 -1       648 8.08714E+00
 -1       649 5.71744E+00
 -1       650 4.50068E+00
 -1       651 3.83031E+00
 -1       652 3.24075E+00
 -1       653 2.71900E+00
 -1       654 2.25461E+00
 -1       655 1.83936E+00
 -1       656 1.46692E+00
 -1       657 1.13259E+00
 -1       658 8.32983E-01
 -1       659 5.65545E-01
 -1       660 3.91181E-01
 -1       661 2.46687E-01
 -1       662 3.25685E-01
 -1       663 3.89331E-01
 -1       664 4.36564E-01
 -1       665 4.36564E-01
 -1       666 4.32150E-01
 -1       667 5.47855E-01
 -1       668 1.86338E+00
 -1       669 6.08460E+00
 -1       670 6.15040E+01
 -1       671 5.26321E+01
 -1       672 4.18773E+01
 -1       673 4.07551E+01
 -1       674 3.94989E+01
 -1       675 3.72307E+01
 -1       676 3.43207E+01
 -1       677 3.11107E+01
 -1       678 2.93834E+01
 -1       679 2.72828E+01
 -1       680 2.46610E+01
 -1       681 2.16657E+01
 -1       682 1.84298E+01
 -1       683 1.50663E+01
 -1       684 1.16680E+01
 -1       685 8.30907E+00
 -1       686 5.46310E+00
 -1       687 4.41643E+00
 -1       688 3.72838E+00
 -1       689 3.10929E+00
 -1       690 2.56551E+00
 -1       691 2.52635E+00
 -1       692 2.75186E+00
 -1       693 2.95004E+00
 -1       694 3.45331E+00
 -1       695 3.61528E+00
 -1       696 3.61528E+00
 -1       697 1.91607E+01
 -1       698 3.49147E+01
 -1       699 5.37533E+01
 -1       700 5.47696E+01
 -1       701 5.64564E+01
 -1       702 5.70212E+01
 -1       703 5.70212E+01
 -1       704 5.64622E+01
 -1       705 5.68248E+01
 -1       706 5.68248E+01
 -1       707 5.57915E+01
 -1       708 5.36144E+01
 -1       709 5.06113E+01
 -1       710 4.70237E+01
 -1       711 4.30020E+01
 -1       712 3.86359E+01
 -1       713 3.39797E+01
 -1       714 2.90706E+01
 -1       715 2.39402E+01
 -1       716 1.86243E+01
 -1       717 1.31700E+01
 -1       718 7.64030E+00
 -1       719 6.54487E+00
 -1       720 3.77024E+00
 -1       721 4.18337E+00
 -1       722 4.37685E+00
 -1       723 4.37685E+00
 -1       724 5.37209E+00
 -1       725 1.10245E+01
 -1       726 2.17666E+01
 -1       727 4.12672E+01
 -1       728 5.37533E+01
 -1       729 5.47696E+01
 -1       730 5.64564E+01
 -1       731 5.70212E+01
 -1       732 5.70212E+01
 -1       733 5.64622E+01
 -1       734 5.68248E+01
 -1       735 5.68248E+01
 -1       736 5.57915E+01
 -1       737 5.36144E+01
 -1       738 5.06113E+01
 -1       739 4.70237E+01
 -1       740 4.30020E+01
 -1       741 3.86359E+01
 -1       742 3.39797E+01
 -1       743 2.90706E+01
 -1       744 2.39402E+01
 -1       745 1.86243E+01
 -1       746 1.31700E+01
 -1       747 7.64030E+00
 -1       748 6.54487E+00
 -1       749 3.77024E+00
 -1       750 4.18337E+00
 -1       751 4.37685E+00
 -1       752 4.37685E+00
 -1       753 5.37209E+00
 -1       754 1.10245E+01
 -1       755 2.17666E+01
 -1       756 4.12672E+01
 -1       757 5.37533E+01
 -1       758 5.47696E+01
 -1       759 5.64564E+01
 -1       760 5.70212E+01
 -1       761 5.70212E+01
 -1       762 5.64622E+01
 -1       763 5.68248E+01
 -1       764 5.68248E+01
 -1       765 5.57915E+01
 -1       766 5.36144E+01
 -1       767 5.06113E+01
 -1       768 4.70237E+01
 -1       769 4.30020E+01
 -1       770 3.86359E+01
 -1       771 3.39797E+01
 -1       772 2.90706E+01
 -1       773 2.39402E+01
 -1       774 1.86243E+01
 -1       775 1.31700E+01
 -1       776 7.64030E+00
 -1       777 6.54487E+00
 -1       778 3.77024E+00
 -1       779 4.18337E+00
 -1       780 4.37685E+00
 -1       781 4.37685E+00
 -1       782 5.37209E+00
 -1       783 1.10245E+01
 -1       784 2.17666E+01
 -1       785 4.12672E+01
 -1       786 5.37533E+01
 -1       787 5.47696E+01
 -1       788 5.64564E+01
 -1       789 5.70212E+01
 -1       790 5.70212E+01
 -1       791 5.64622E+01
 -1       792 5.68248E+01
 -1       793 5.68248E+01
 -1       794 5.57915E+01
 -1       795 5.36144E+01
 -1       796 5.06113E+01
 -1       797 4.70237E+01
 -1       798 4.30020E+01
 -1       799 3.86359E+01
 -1       800 3.39797E+01
 -1       801 2.90706E+01
 -1       802 2.39402E+01
 -1       803 1.86243E+01
 -1       804 1.31700E+01
 -1       805 7.64030E+00
 -1       806 6.54487E+00
 -1       807 3.77024E+00
 -1       808 4.18337E+00
 -1       809 4.37685E+00
 -1       810 4.37685E+00
 -1       811 5.37209E+00
 -1       812 1.10245E+01
 -1       813 2.17666E+01
 -1       814 4.12672E+01
 -1       815 5.37533E+01
 -1       816 5.47696E+01
 -1       817 5.64564E+01
 -1       818 5.70212E+01
 -1       819 5.70212E+01
 -1       820 5.64622E+01
 -1       821 5.68248E+01
 -1       822 5.68248E+01
 -1       823 5.57915E+01
 -1       824 5.36144E+01
 -1       825 5.06113E+01
 -1       826 4.70237E+01
 -1       827 4.30020E+01
 -1       828 3.86359E+01
 -1       829 3.39797E+01
 -1       830 2.90706E+01
 -1       831 2.39402E+01
 -1       832 1.86243E+01
 -1       833 1.31700E+01
 -1       834 7.64030E+00
 -1       835 6.54487E+00
 -1       836 3.77024E+00
 -1       837 4.18337E+00
 -1       838 4.37685E+00
 -1       839 4.37685E+00
 -1       840 5.37209E+00
 -1       841 1.10245E+01
 -1       842 2.17666E+01
 -1       843 4.12672E+01
 -1       844 5.37533E+01
 -1       845 5.47696E+01
 -1       846 5.64564E+01
 -1       847 5.70212E+01
 -1       848 5.70212E+01
 -1       849 5.64622E+01
 -1       850 5.68248E+01
 -1       851 5.68248E+01
 -1       852 5.57915E+01
 -1       853 5.36144E+01
 -1       854 5.06113E+01
 -1       855 4.70237E+01
 -1       856 4.30020E+01
 -1       857 3.86359E+01
 -1       858 3.39797E+01
 -1       859 2.90706E+01
 -1       860 2.39402E+01
 -1       861 1.86243E+01
 -1       862 1.31700E+01
 -1       863 7.64030E+00
 -1       864 6.54487E+00
 -1       865 3.77024E+00
 -1       866 4.18337E+00
 -1       867 4.37685E+00
 -1       868 4.37685E+00
 -1       869 5.37209E+00
 -1       870 1.10245E+01
 -1       871 2.17666E+01
 -1       872 4.12672E+01
 -1       873 4.12672E+01
 -1       874 2.17666E+01
 -1       875 1.10245E+01
 -1       876 5.37209E+00
 -1       877 4.37685E+00
 -1       878 4.37685E+00
 -1       879 4.18337E+00
 -1       880 3.77024E+00
 -1       881 6.54487E+00
 -1       882 7.64030E+00
 -1       883 1.31700E+01
 -1       884 1.86243E+01
 -1       885 2.39402E+01
 -1       886 2.90706E+01
 -1       887 3.39797E+01
 -1       888 3.86359E+01
 -1       889 4.30020E+01
 -1       890 4.70237E+01
 -1       891 5.06113E+01
 -1       892 5.36144E+01
 -1       893 5.57915E+01
 -1       894 5.68248E+01
 -1       895 5.68248E+01
 -1       896 5.64622E+01
 -1       897 5.70212E+01
 -1       898 5.70212E+01
 -1       899 5.64564E+01
 -1       900 5.47696E+01
 -1       901 5.37533E+01
 -1       902 5.37533E+01
 -1       903 5.47696E+01
 -1       904 5.64564E+01
 -1       905 5.70212E+01
 -1       906 5.70212E+01
 -1       907 5.64622E+01
 -1       908 5.68248E+01
 -1       909 5.68248E+01
 -1       910 5.57915E+01
 -1       911 5.36144E+01
 -1       912 5.06113E+01
 -1       913 4.70237E+01
 -1       914 4.30020E+01
 -1       915 3.86359E+01
 -1       916 3.39797E+01
 -1       917 2.90706E+01
 -1       918 2.39402E+01
 -1       919 1.86243E+01
 -1       920 1.31700E+01
 -1       921 7.64030E+00
 -1       922 6.54487E+00
 -1       923 3.77024E+00
 -1       924 4.18337E+00
 -1       925 4.37685E+00
 -1       926 4.37685E+00
 -1       927 5.37209E+00
 -1       928 1.10245E+01
 -1       929 2.17666E+01
 -1       930 4.12672E+01
 -3
    1PSTEP                         9           1           1          
    1PGM                1.000000E+00                                  
    1PGK                1.030430E+05                                  
    1PHID                         -1                                  
    1PSUBC                         0                                  
    1PMODE                         3                                  
  100CL  103 51.08924173         930                     2    3MODAL      1
 -4  DISP        4    1
 -5  D1          1    2    1    0
 -5  D2          1    2    2    0
 -5  D3          1    2    3    0
 -5  ALL         1    2    0    0    1ALL
 -1         1 0.00000E+00 0.00000E+00 0.00000E+00
 -1         2 0.00000E+00 0.00000E+00 0.00000E+00
 -1         3-1.14086E-02-1.73272E-07-1.41578E-01
 -1         4-1.14086E-02 1.73251E-07-1.41578E-01
 -1         5 0.00000E+00 0.00000E+00 0.00000E+00
 -1         6 0.00000E+00 0.00000E+00 0.00000E+00
 -1         7 1.14086E-02 1.73265E-07-1.41578E-01
 -1         8 1.14086E-02-1.73259E-07-1.41578E-01
 -1         9 0.00000E+00 0.00000E+00 0.00000E+00
 -1        10-1.22359E-02 2.11400E-06-1.41579E-01
 -1        11 0.00000E+00 0.00000E+00 0.00000E+00
 -1        12 0.00000E+00 0.00000E+00 0.00000E+00
 -1        13-1.22337E-02 9.68922E-06-1.41656E-01
 -1        14-1.14027E-02-5.65263E-06-1.41656E-01
 -1        15 0.00000E+00 0.00000E+00 0.00000E+00
 -1        16 1.22359E-02-2.11401E-06-1.41579E-01
 -1        17 0.00000E+00 0.00000E+00 0.00000E+00
 -1        18 0.00000E+00 0.00000E+00 0.00000E+00
 -1        19 1.14027E-02 5.65262E-06-1.41656E-01
 -1        20 1.22337E-02-9.68923E-06-1.41656E-01
 -1        21 0.00000E+00 0.00000E+00 0.00000E+00
 -1        22 0.00000E+00 0.00000E+00 0.00000E+00
 -1        23-1.22337E-02-9.68925E-06-1.41656E-01
 -1        24-1.14027E-02 5.65261E-06-1.41656E-01
 -1        25 0.00000E+00 0.00000E+00 0.00000E+00
 -1        26-1.22359E-02-2.11403E-06-1.41579E-01
 -1        27 0.00000E+00 0.00000E+00 0.00000E+00
 -1        28 0.00000E+00 0.00000E+00 0.00000E+00
 -1        29 0.00000E+00 0.00000E+00 0.00000E+00
 -1        30 1.22359E-02 2.11402E-06-1.41579E-01
 -1        31 1.22337E-02 9.68924E-06-1.41656E-01
 -1        32 1.14027E-02-5.65262E-06-1.41656E-01
 -1        33-8.26452E-04 1.54359E-05-6.26811E-04
 -1        34-1.76927E-03 1.15044E-05-1.78058E-03
 -1        35-2.63711E-03 1.15861E-05-3.37183E-03
 -1        36-3.45762E-03 1.08840E-05-5.41615E-03
 -1        37-4.23365E-03 1.03136E-05-7.88455E-03
 -1        38-4.96517E-03 9.68479E-06-1.07545E-02
 -1        39-5.65221E-03 9.08423E-06-1.40024E-02
 -1        40-6.29518E-03 8.48857E-06-1.76038E-02
 -1        41-6.89445E-03 7.89961E-06-2.15341E-02
 -1        42-7.45051E-03 7.31773E-06-2.57690E-02
 -1        43-7.96396E-03 6.74489E-06-3.02845E-02
 -1        44-8.43550E-03 6.18284E-06-3.50568E-02
 -1        45-8.86598E-03 5.63332E-06-4.00626E-02
 -1        46-9.25637E-03 5.09810E-06-4.52790E-02
 -1        47-9.60777E-03 4.57904E-06-5.06834E-02
 -1        48-9.92142E-03 4.07805E-06-5.62540E-02
 -1        49-1.01987E-02 3.59713E-06-6.19697E-02
 -1        50-1.04412E-02 3.13830E-06-6.78099E-02
 -1        51-1.06505E-02 2.70367E-06-7.37551E-02
 -1        52-1.08285E-02 2.29532E-06-7.97866E-02
 -1        53-1.09772E-02 1.91543E-06-8.58867E-02
 -1        54-1.10988E-02 1.56615E-06-9.20387E-02
 -1        55-1.11956E-02 1.24974E-06-9.82274E-02
 -1        56-1.12701E-02 9.68509E-07-1.04439E-01
 -1        57-1.13249E-02 7.24777E-07-1.10660E-01
 -1        58-1.13628E-02 5.19533E-07-1.16879E-01
 -1        59-1.13868E-02 3.52406E-07-1.23087E-01
 -1        60-1.14001E-02 2.24843E-07-1.29276E-01
 -1        61-1.14060E-02 1.74125E-07-1.35440E-01
 -1        62-8.26452E-04-1.54359E-05-6.26811E-04
 -1        63-1.76927E-03-1.15044E-05-1.78058E-03
 -1        64-2.63711E-03-1.15861E-05-3.37183E-03
 -1        65-3.45762E-03-1.08840E-05-5.41615E-03
 -1        66-4.23365E-03-1.03136E-05-7.88455E-03
 -1        67-4.96517E-03-9.68479E-06-1.07545E-02
 -1        68-5.65221E-03-9.08424E-06-1.40024E-02
 -1        69-6.29518E-03-8.48858E-06-1.76038E-02
 -1        70-6.89445E-03-7.89962E-06-2.15341E-02
 -1        71-7.45051E-03-7.31774E-06-2.57690E-02
 -1        72-7.96396E-03-6.74490E-06-3.02845E-02
 -1        73-8.43550E-03-6.18285E-06-3.50568E-02
 -1        74-8.86598E-03-5.63333E-06-4.00626E-02
 -1        75-9.25637E-03-5.09811E-06-4.52790E-02
 -1        76-9.60777E-03-4.57905E-06-5.06834E-02
 -1        77-9.92142E-03-4.07807E-06-5.62540E-02
 -1        78-1.01987E-02-3.59715E-06-6.19697E-02
 -1        79-1.04412E-02-3.13832E-06-6.78099E-02
 -1        80-1.06505E-02-2.70369E-06-7.37551E-02
 -1        81-1.08285E-02-2.29535E-06-7.97866E-02
 -1        82-1.09772E-02-1.91545E-06-8.58867E-02
 -1        83-1.10988E-02-1.56617E-06-9.20387E-02
 -1        84-1.11956E-02-1.24977E-06-9.82274E-02
 -1        85-1.12701E-02-9.68532E-07-1.04439E-01
 -1        86-1.13249E-02-7.24800E-07-1.10660E-01
 -1        87-1.13628E-02-5.19556E-07-1.16879E-01
 -1        88-1.13868E-02-3.52428E-07-1.23087E-01
 -1        89-1.14001E-02-2.24865E-07-1.29276E-01
 -1        90-1.14060E-02-1.74147E-07-1.35440E-01
 -1        91 0.00000E+00 0.00000E+00 0.00000E+00
 -1        92 0.00000E+00 0.00000E+00 0.00000E+00
 -1        93 0.00000E+00 0.00000E+00 0.00000E+00
 -1        94 0.00000E+00 0.00000E+00 0.00000E+00
 -1        95 0.00000E+00 0.00000E+00 0.00000E+00
 -1        96 0.00000E+00 0.00000E+00 0.00000E+00
 -1        97 8.26452E-04 1.54359E-05-6.26811E-04
 -1        98 1.76927E-03 1.15044E-05-1.78058E-03
 -1        99 2.63711E-03 1.15861E-05-3.37183E-03
 -1       100 3.45762E-03 1.08840E-05-5.41615E-03
 -1       101 4.23365E-03 1.03136E-05-7.88455E-03
 -1       102 4.96517E-03 9.68480E-06-1.07545E-02
 -1       103 5.65221E-03 9.08424E-06-1.40024E-02
 -1       104 6.29518E-03 8.48858E-06-1.76038E-02
 -1       105 6.89445E-03 7.89963E-06-2.15341E-02
 -1       106 7.45051E-03 7.31775E-06-2.57690E-02
 -1       107 7.96396E-03 6.74491E-06-3.02845E-02
 -1       108 8.43550E-03 6.18285E-06-3.50568E-02
 -1       109 8.86598E-03 5.63334E-06-4.00626E-02
 -1       110 9.25637E-03 5.09812E-06-4.52790E-02
 -1       111 9.60777E-03 4.57906E-06-5.06834E-02
 -1       112 9.92142E-03 4.07807E-06-5.62540E-02
 -1       113 1.01987E-02 3.59715E-06-6.19697E-02
 -1       114 1.04412E-02 3.13833E-06-6.78099E-02
 -1       115 1.06505E-02 2.70369E-06-7.37551E-02
 -1       116 1.08285E-02 2.29535E-06-7.97866E-02
 -1       117 1.09772E-02 1.91545E-06-8.58867E-02
 -1       118 1.10988E-02 1.56617E-06-9.20387E-02
 -1       119 1.11956E-02 1.24976E-06-9.82274E-02
 -1       120 1.12701E-02 9.68529E-07-1.04439E-01
 -1       121 1.13249E-02 7.24797E-07-1.10660E-01
 -1       122 1.13628E-02 5.19551E-07-1.16879E-01
 -1       123 1.13868E-02 3.52423E-07-1.23087E-01
 -1       124 1.14001E-02 2.24859E-07-1.29276E-01
 -1       125 1.14060E-02 1.74140E-07-1.35440E-01
 -1       126-5.70376E-03 2.20612E-07-1.41567E-01
 -1       127-3.35153E-13-3.91927E-12-1.41562E-01
 -1       128 5.70376E-03-2.20620E-07-1.41567E-01
 -1       129 8.26452E-04-1.54359E-05-6.26811E-04
 -1       130 1.76927E-03-1.15044E-05-1.78058E-03
 -1       131 2.63711E-03-1.15861E-05-3.37183E-03
 -1       132 3.45762E-03-1.08840E-05-5.41615E-03
 -1       133 4.23365E-03-1.03136E-05-7.88455E-03
 -1       134 4.96517E-03-9.68479E-06-1.07545E-02
 -1       135 5.65221E-03-9.08423E-06-1.40024E-02
 -1       136 6.29518E-03-8.48857E-06-1.76038E-02
 -1       137 6.89445E-03-7.89961E-06-2.15341E-02
 -1       138 7.45051E-03-7.31773E-06-2.57690E-02
 -1       139 7.96396E-03-6.74488E-06-3.02845E-02
 -1       140 8.43550E-03-6.18283E-06-3.50568E-02
 -1       141 8.86598E-03-5.63331E-06-4.00626E-02
 -1       142 9.25637E-03-5.09809E-06-4.52790E-02
 -1       143 9.60777E-03-4.57903E-06-5.06834E-02
 -1       144 9.92142E-03-4.07805E-06-5.62540E-02
 -1       145 1.01987E-02-3.59712E-06-6.19697E-02
 -1       146 1.04412E-02-3.13830E-06-6.78099E-02
 -1       147 1.06505E-02-2.70366E-06-7.37551E-02
 -1       148 1.08285E-02-2.29532E-06-7.97866E-02
 -1       149 1.09772E-02-1.91543E-06-8.58867E-02
 -1       150 1.10988E-02-1.56615E-06-9.20387E-02
 -1       151 1.11956E-02-1.24974E-06-9.82274E-02
 -1       152 1.12701E-02-9.68511E-07-1.04439E-01
 -1       153 1.13249E-02-7.24781E-07-1.10660E-01
 -1       154 1.13628E-02-5.19537E-07-1.16879E-01
 -1       155 1.13868E-02-3.52411E-07-1.23087E-01
 -1       156 1.14001E-02-2.24849E-07-1.29276E-01
 -1       157 1.14060E-02-1.74132E-07-1.35440E-01
 -1       158 5.70376E-03 2.20619E-07-1.41567E-01
 -1       159-2.95170E-13-3.91965E-12-1.41562E-01
 -1       160-5.70376E-03-2.20627E-07-1.41567E-01
 -1       161-9.53586E-04-1.75441E-05-6.74732E-04
 -1       162-1.94721E-03-1.46423E-05-1.81490E-03
 -1       163-2.87765E-03-1.14261E-05-3.40774E-03
 -1       164-3.75682E-03-1.04488E-05-5.44953E-03
 -1       165-4.58863E-03-1.00372E-05-7.91620E-03
 -1       166-5.37284E-03-9.49950E-06-1.07842E-02
 -1       167-6.10931E-03-8.88279E-06-1.40303E-02
 -1       168-6.79839E-03-8.23768E-06-1.76298E-02
 -1       169-7.44049E-03-7.59544E-06-2.15583E-02
 -1       170-8.03612E-03-6.96153E-06-2.57915E-02
 -1       171-8.58593E-03-6.33524E-06-3.03052E-02
 -1       172-9.09068E-03-5.71665E-06-3.50758E-02
 -1       173-9.55125E-03-5.10740E-06-4.00799E-02
 -1       174-9.96868E-03-4.50962E-06-4.52946E-02
 -1       175-1.03441E-02-3.92556E-06-5.06975E-02
 -1       176-1.06790E-02-3.35742E-06-5.62666E-02
 -1       177-1.09746E-02-2.80745E-06-6.19808E-02
 -1       178-1.12328E-02-2.27792E-06-6.78196E-02
 -1       179-1.14552E-02-1.77116E-06-7.37635E-02
 -1       180-1.16440E-02-1.28953E-06-7.97937E-02
 -1       181-1.18011E-02-8.35446E-07-8.58926E-02
 -1       182-1.19290E-02-4.11211E-07-9.20436E-02
 -1       183-1.20300E-02-1.86834E-08-9.82313E-02
 -1       184-1.21070E-02 3.40871E-07-1.04442E-01
 -1       185-1.21627E-02 6.64667E-07-1.10662E-01
 -1       186-1.22001E-02 9.42694E-07-1.16881E-01
 -1       187-1.22224E-02 1.14782E-06-1.23088E-01
 -1       188-1.22331E-02 1.27943E-06-1.29277E-01
 -1       189-1.22359E-02 1.34968E-06-1.35441E-01
 -1       190 0.00000E+00 0.00000E+00 0.00000E+00
 -1       191 0.00000E+00 0.00000E+00 0.00000E+00
 -1       192-1.22344E-02 8.71053E-06-1.41609E-01
 -1       193-9.57998E-04-2.96883E-04-4.76931E-04
 -1       194-1.91227E-03-2.69515E-04-1.70891E-03
 -1       195-2.83038E-03-2.37673E-04-3.39341E-03
 -1       196-3.70964E-03-2.24396E-04-5.44742E-03
 -1       197-4.54133E-03-2.12669E-04-7.90856E-03
 -1       198-5.32603E-03-2.00403E-04-1.07743E-02
 -1       199-6.06299E-03-1.87788E-04-1.40218E-02
 -1       200-6.75253E-03-1.75109E-04-1.76242E-02
 -1       201-7.39516E-03-1.62539E-04-2.15557E-02
 -1       202-7.99145E-03-1.50129E-04-2.57917E-02
 -1       203-8.54204E-03-1.37899E-04-3.03083E-02
 -1       204-9.04769E-03-1.25875E-04-3.50819E-02
 -1       205-9.50931E-03-1.14094E-04-4.00891E-02
 -1       206-9.92792E-03-1.02593E-04-4.53070E-02
 -1       207-1.03047E-02-9.14142E-05-5.07131E-02
 -1       208-1.06410E-02-8.05986E-05-5.62855E-02
 -1       209-1.09383E-02-7.01892E-05-6.20030E-02
 -1       210-1.11983E-02-6.02298E-05-6.78451E-02
 -1       211-1.14227E-02-5.07651E-05-7.37923E-02
 -1       212-1.16135E-02-4.18407E-05-7.98259E-02
 -1       213-1.17730E-02-3.35026E-05-8.59281E-02
 -1       214-1.19033E-02-2.57971E-05-9.20824E-02
 -1       215-1.20070E-02-1.87682E-05-9.82734E-02
 -1       216-1.20868E-02-1.24571E-05-1.04487E-01
 -1       217-1.21454E-02-6.91316E-06-1.10711E-01
 -1       218-1.21859E-02-2.22294E-06-1.16932E-01
 -1       219-1.22115E-02 1.46894E-06-1.23141E-01
 -1       220-1.22256E-02 3.95355E-06-1.29330E-01
 -1       221-1.22320E-02 5.93684E-06-1.35498E-01
 -1       222-8.38070E-04-2.57354E-04-4.29521E-04
 -1       223-1.71095E-03-2.43986E-04-1.67556E-03
 -1       224-2.57950E-03-2.32991E-04-3.35704E-03
 -1       225-3.40585E-03-2.22128E-04-5.41410E-03
 -1       226-4.18194E-03-2.09279E-04-7.87690E-03
 -1       227-4.91338E-03-1.96648E-04-1.07445E-02
 -1       228-5.60060E-03-1.84437E-04-1.39939E-02
 -1       229-6.24402E-03-1.72452E-04-1.75981E-02
 -1       230-6.84389E-03-1.60593E-04-2.15314E-02
 -1       231-7.40067E-03-1.48878E-04-2.57692E-02
 -1       232-7.91497E-03-1.37348E-04-3.02876E-02
 -1       233-8.38751E-03-1.26042E-04-3.50630E-02
 -1       234-8.81914E-03-1.14994E-04-4.00719E-02
 -1       235-9.21083E-03-1.04241E-04-4.52914E-02
 -1       236-9.56369E-03-9.38188E-05-5.06991E-02
 -1       237-9.87897E-03-8.37664E-05-5.62730E-02
 -1       238-1.01581E-02-7.41237E-05-6.19920E-02
 -1       239-1.04025E-02-6.49314E-05-6.78356E-02
 -1       240-1.06140E-02-5.62316E-05-7.37841E-02
 -1       241-1.07944E-02-4.80666E-05-7.98190E-02
 -1       242-1.09457E-02-4.04795E-05-8.59224E-02
 -1       243-1.10700E-02-3.35143E-05-9.20777E-02
 -1       244-1.11697E-02-2.72170E-05-9.82697E-02
 -1       245-1.12473E-02-2.16365E-05-1.04484E-01
 -1       246-1.13053E-02-1.68176E-05-1.10709E-01
 -1       247-1.13468E-02-1.27756E-05-1.16931E-01
 -1       248-1.13746E-02-9.44355E-06-1.23141E-01
 -1       249-1.13918E-02-6.90797E-06-1.29329E-01
 -1       250-1.14003E-02-5.94094E-06-1.35497E-01
 -1       251-1.14049E-02-4.67435E-06-1.41609E-01
 -1       252 1.22359E-02-1.34969E-06-1.35441E-01
 -1       253 1.22331E-02-1.27944E-06-1.29277E-01
 -1       254 1.22224E-02-1.14782E-06-1.23088E-01
 -1       255 1.22001E-02-9.42698E-07-1.16881E-01
 -1       256 1.21627E-02-6.64671E-07-1.10662E-01
 -1       257 1.21070E-02-3.40874E-07-1.04442E-01
 -1       258 1.20300E-02 1.86819E-08-9.82313E-02
 -1       259 1.19290E-02 4.11211E-07-9.20436E-02
 -1       260 1.18011E-02 8.35446E-07-8.58926E-02
 -1       261 1.16440E-02 1.28953E-06-7.97937E-02
 -1       262 1.14552E-02 1.77116E-06-7.37635E-02
 -1       263 1.12328E-02 2.27793E-06-6.78196E-02
 -1       264 1.09746E-02 2.80746E-06-6.19808E-02
 -1       265 1.06790E-02 3.35743E-06-5.62666E-02
 -1       266 1.03441E-02 3.92556E-06-5.06975E-02
 -1       267 9.96868E-03 4.50963E-06-4.52946E-02
 -1       268 9.55125E-03 5.10740E-06-4.00799E-02
 -1       269 9.09068E-03 5.71666E-06-3.50758E-02
 -1       270 8.58593E-03 6.33524E-06-3.03052E-02
 -1       271 8.03612E-03 6.96154E-06-2.57915E-02
 -1       272 7.44049E-03 7.59545E-06-2.15583E-02
 -1       273 6.79839E-03 8.23769E-06-1.76298E-02
 -1       274 6.10931E-03 8.88280E-06-1.40303E-02
 -1       275 5.37284E-03 9.49951E-06-1.07842E-02
 -1       276 4.58863E-03 1.00372E-05-7.91620E-03
 -1       277 3.75682E-03 1.04488E-05-5.44953E-03
 -1       278 2.87765E-03 1.14261E-05-3.40774E-03
 -1       279 1.94721E-03 1.46423E-05-1.81490E-03
 -1       280 9.53586E-04 1.75441E-05-6.74732E-04
 -1       281 0.00000E+00 0.00000E+00 0.00000E+00
 -1       282 0.00000E+00 0.00000E+00 0.00000E+00
 -1       283 8.38070E-04 2.57354E-04-4.29521E-04
 -1       284 1.71095E-03 2.43986E-04-1.67556E-03
 -1       285 2.57950E-03 2.32991E-04-3.35704E-03
 -1       286 3.40585E-03 2.22128E-04-5.41410E-03
 -1       287 4.18194E-03 2.09279E-04-7.87690E-03
 -1       288 4.91338E-03 1.96648E-04-1.07445E-02
 -1       289 5.60060E-03 1.84437E-04-1.39939E-02
 -1       290 6.24402E-03 1.72452E-04-1.75981E-02
 -1       291 6.84389E-03 1.60593E-04-2.15314E-02
 -1       292 7.40067E-03 1.48878E-04-2.57692E-02
 -1       293 7.91497E-03 1.37348E-04-3.02876E-02
 -1       294 8.38751E-03 1.26042E-04-3.50630E-02
 -1       295 8.81914E-03 1.14994E-04-4.00719E-02
 -1       296 9.21083E-03 1.04241E-04-4.52914E-02
 -1       297 9.56369E-03 9.38188E-05-5.06991E-02
 -1       298 9.87897E-03 8.37664E-05-5.62730E-02
 -1       299 1.01581E-02 7.41237E-05-6.19920E-02
 -1       300 1.04025E-02 6.49314E-05-6.78356E-02
 -1       301 1.06140E-02 5.62316E-05-7.37841E-02
 -1       302 1.07944E-02 4.80666E-05-7.98190E-02
 -1       303 1.09457E-02 4.04795E-05-8.59224E-02
 -1       304 1.10700E-02 3.35143E-05-9.20777E-02
 -1       305 1.11697E-02 2.72170E-05-9.82697E-02
 -1       306 1.12473E-02 2.16365E-05-1.04484E-01
 -1       307 1.13053E-02 1.68176E-05-1.10709E-01
 -1       308 1.13468E-02 1.27755E-05-1.16931E-01
 -1       309 1.13746E-02 9.44354E-06-1.23141E-01
 -1       310 1.13918E-02 6.90797E-06-1.29329E-01
 -1       311 1.14003E-02 5.94093E-06-1.35497E-01
 -1       312 1.14049E-02 4.67434E-06-1.41609E-01
 -1       313 9.57998E-04 2.96883E-04-4.76931E-04
 -1       314 1.91227E-03 2.69515E-04-1.70891E-03
 -1       315 2.83038E-03 2.37673E-04-3.39341E-03
 -1       316 3.70964E-03 2.24396E-04-5.44742E-03
 -1       317 4.54133E-03 2.12669E-04-7.90856E-03
 -1       318 5.32603E-03 2.00403E-04-1.07743E-02
 -1       319 6.06299E-03 1.87788E-04-1.40218E-02
 -1       320 6.75253E-03 1.75109E-04-1.76242E-02
 -1       321 7.39516E-03 1.62539E-04-2.15557E-02
 -1       322 7.99145E-03 1.50129E-04-2.57917E-02
 -1       323 8.54204E-03 1.37899E-04-3.03083E-02
 -1       324 9.04769E-03 1.25875E-04-3.50819E-02
 -1       325 9.50931E-03 1.14094E-04-4.00891E-02
 -1       326 9.92792E-03 1.02593E-04-4.53070E-02
 -1       327 1.03047E-02 9.14142E-05-5.07131E-02
 -1       328 1.06410E-02 8.05986E-05-5.62855E-02
 -1       329 1.09383E-02 7.01892E-05-6.20030E-02
 -1       330 1.11983E-02 6.02298E-05-6.78451E-02
 -1       331 1.14227E-02 5.07651E-05-7.37923E-02
 -1       332 1.16135E-02 4.18407E-05-7.98259E-02
 -1       333 1.17730E-02 3.35026E-05-8.59281E-02
 -1       334 1.19033E-02 2.57971E-05-9.20824E-02
 -1       335 1.20070E-02 1.87682E-05-9.82734E-02
 -1       336 1.20868E-02 1.24571E-05-1.04487E-01
 -1       337 1.21454E-02 6.91316E-06-1.10711E-01
 -1       338 1.21859E-02 2.22294E-06-1.16932E-01
 -1       339 1.22115E-02-1.46895E-06-1.23141E-01
 -1       340 1.22256E-02-3.95356E-06-1.29330E-01
 -1       341 1.22320E-02-5.93685E-06-1.35498E-01
 -1       342 1.22344E-02-8.71054E-06-1.41609E-01
 -1       343-9.57998E-04 2.96883E-04-4.76931E-04
 -1       344-1.91227E-03 2.69515E-04-1.70891E-03
 -1       345-2.83038E-03 2.37673E-04-3.39341E-03
 -1       346-3.70964E-03 2.24396E-04-5.44742E-03
 -1       347-4.54133E-03 2.12669E-04-7.90856E-03
 -1       348-5.32603E-03 2.00403E-04-1.07743E-02
 -1       349-6.06299E-03 1.87788E-04-1.40218E-02
 -1       350-6.75253E-03 1.75109E-04-1.76242E-02
 -1       351-7.39516E-03 1.62539E-04-2.15557E-02
 -1       352-7.99145E-03 1.50129E-04-2.57917E-02
 -1       353-8.54204E-03 1.37899E-04-3.03083E-02
 -1       354-9.04769E-03 1.25875E-04-3.50819E-02
 -1       355-9.50931E-03 1.14094E-04-4.00891E-02
 -1       356-9.92792E-03 1.02593E-04-4.53070E-02
 -1       357-1.03047E-02 9.14142E-05-5.07131E-02
 -1       358-1.06410E-02 8.05986E-05-5.62855E-02
 -1       359-1.09383E-02 7.01892E-05-6.20030E-02
 -1       360-1.11983E-02 6.02298E-05-6.78451E-02
 -1       361-1.14227E-02 5.07651E-05-7.37923E-02
 -1       362-1.16135E-02 4.18406E-05-7.98259E-02
 -1       363-1.17730E-02 3.35026E-05-8.59281E-02
 -1       364-1.19033E-02 2.57971E-05-9.20824E-02
 -1       365-1.20070E-02 1.87681E-05-9.82734E-02
 -1       366-1.20868E-02 1.24571E-05-1.04487E-01
 -1       367-1.21454E-02 6.91314E-06-1.10711E-01
 -1       368-1.21859E-02 2.22292E-06-1.16932E-01
 -1       369-1.22115E-02-1.46897E-06-1.23141E-01
 -1       370-1.22256E-02-3.95358E-06-1.29330E-01
 -1       371-1.22320E-02-5.93687E-06-1.35498E-01
 -1       372-8.38070E-04 2.57354E-04-4.29521E-04
 -1       373-1.71095E-03 2.43986E-04-1.67556E-03
 -1       374-2.57950E-03 2.32991E-04-3.35704E-03
 -1       375-3.40585E-03 2.22128E-04-5.41410E-03
 -1       376-4.18194E-03 2.09279E-04-7.87690E-03
 -1       377-4.91338E-03 1.96648E-04-1.07445E-02
 -1       378-5.60060E-03 1.84437E-04-1.39939E-02
 -1       379-6.24402E-03 1.72452E-04-1.75981E-02
 -1       380-6.84389E-03 1.60593E-04-2.15314E-02
 -1       381-7.40067E-03 1.48878E-04-2.57692E-02
 -1       382-7.91497E-03 1.37348E-04-3.02876E-02
 -1       383-8.38751E-03 1.26042E-04-3.50630E-02
 -1       384-8.81914E-03 1.14994E-04-4.00719E-02
 -1       385-9.21083E-03 1.04241E-04-4.52914E-02
 -1       386-9.56369E-03 9.38187E-05-5.06991E-02
 -1       387-9.87897E-03 8.37664E-05-5.62730E-02
 -1       388-1.01581E-02 7.41236E-05-6.19920E-02
 -1       389-1.04025E-02 6.49314E-05-6.78356E-02
 -1       390-1.06140E-02 5.62316E-05-7.37841E-02
 -1       391-1.07944E-02 4.80665E-05-7.98190E-02
 -1       392-1.09457E-02 4.04794E-05-8.59224E-02
 -1       393-1.10700E-02 3.35143E-05-9.20777E-02
 -1       394-1.11697E-02 2.72170E-05-9.82697E-02
 -1       395-1.12473E-02 2.16365E-05-1.04484E-01
 -1       396-1.13053E-02 1.68176E-05-1.10709E-01
 -1       397-1.13468E-02 1.27755E-05-1.16931E-01
 -1       398-1.13746E-02 9.44353E-06-1.23141E-01
 -1       399-1.13918E-02 6.90795E-06-1.29329E-01
 -1       400-1.14003E-02 5.94092E-06-1.35497E-01
 -1       401 0.00000E+00 0.00000E+00 0.00000E+00
 -1       402 0.00000E+00 0.00000E+00 0.00000E+00
 -1       403-1.22344E-02-8.71055E-06-1.41609E-01
 -1       404-9.53586E-04 1.75441E-05-6.74732E-04
 -1       405-1.94721E-03 1.46423E-05-1.81490E-03
 -1       406-2.87765E-03 1.14261E-05-3.40774E-03
 -1       407-3.75682E-03 1.04488E-05-5.44953E-03
 -1       408-4.58863E-03 1.00372E-05-7.91620E-03
 -1       409-5.37284E-03 9.49950E-06-1.07842E-02
 -1       410-6.10931E-03 8.88279E-06-1.40303E-02
 -1       411-6.79839E-03 8.23767E-06-1.76298E-02
 -1       412-7.44049E-03 7.59544E-06-2.15583E-02
 -1       413-8.03612E-03 6.96152E-06-2.57915E-02
 -1       414-8.58593E-03 6.33523E-06-3.03052E-02
 -1       415-9.09068E-03 5.71664E-06-3.50758E-02
 -1       416-9.55125E-03 5.10738E-06-4.00799E-02
 -1       417-9.96868E-03 4.50961E-06-4.52946E-02
 -1       418-1.03441E-02 3.92554E-06-5.06975E-02
 -1       419-1.06790E-02 3.35740E-06-5.62666E-02
 -1       420-1.09746E-02 2.80743E-06-6.19808E-02
 -1       421-1.12328E-02 2.27790E-06-6.78196E-02
 -1       422-1.14552E-02 1.77114E-06-7.37635E-02
 -1       423-1.16440E-02 1.28951E-06-7.97937E-02
 -1       424-1.18011E-02 8.35422E-07-8.58926E-02
 -1       425-1.19290E-02 4.11187E-07-9.20436E-02
 -1       426-1.20300E-02 1.86589E-08-9.82313E-02
 -1       427-1.21070E-02-3.40896E-07-1.04442E-01
 -1       428-1.21627E-02-6.64692E-07-1.10662E-01
 -1       429-1.22001E-02-9.42718E-07-1.16881E-01
 -1       430-1.22224E-02-1.14784E-06-1.23088E-01
 -1       431-1.22331E-02-1.27945E-06-1.29277E-01
 -1       432-1.22359E-02-1.34970E-06-1.35441E-01
 -1       433-1.14049E-02 4.67433E-06-1.41609E-01
 -1       434 0.00000E+00 0.00000E+00 0.00000E+00
 -1       435 0.00000E+00 0.00000E+00 0.00000E+00
 -1       436 1.22359E-02 1.34970E-06-1.35441E-01
 -1       437 1.22331E-02 1.27945E-06-1.29277E-01
 -1       438 1.22224E-02 1.14783E-06-1.23088E-01
 -1       439 1.22001E-02 9.42714E-07-1.16881E-01
 -1       440 1.21627E-02 6.64688E-07-1.10662E-01
 -1       441 1.21070E-02 3.40893E-07-1.04442E-01
 -1       442 1.20300E-02-1.86604E-08-9.82313E-02
 -1       443 1.19290E-02-4.11188E-07-9.20436E-02
 -1       444 1.18011E-02-8.35421E-07-8.58926E-02
 -1       445 1.16440E-02-1.28950E-06-7.97937E-02
 -1       446 1.14552E-02-1.77113E-06-7.37635E-02
 -1       447 1.12328E-02-2.27790E-06-6.78196E-02
 -1       448 1.09746E-02-2.80743E-06-6.19808E-02
 -1       449 1.06790E-02-3.35740E-06-5.62666E-02
 -1       450 1.03441E-02-3.92554E-06-5.06975E-02
 -1       451 9.96868E-03-4.50960E-06-4.52946E-02
 -1       452 9.55125E-03-5.10738E-06-4.00799E-02
 -1       453 9.09068E-03-5.71663E-06-3.50758E-02
 -1       454 8.58593E-03-6.33522E-06-3.03052E-02
 -1       455 8.03612E-03-6.96152E-06-2.57915E-02
 -1       456 7.44049E-03-7.59543E-06-2.15583E-02
 -1       457 6.79839E-03-8.23767E-06-1.76298E-02
 -1       458 6.10931E-03-8.88278E-06-1.40303E-02
 -1       459 5.37284E-03-9.49950E-06-1.07842E-02
 -1       460 4.58863E-03-1.00372E-05-7.91620E-03
 -1       461 3.75682E-03-1.04488E-05-5.44953E-03
 -1       462 2.87765E-03-1.14261E-05-3.40774E-03
 -1       463 1.94721E-03-1.46423E-05-1.81490E-03
 -1       464 9.53586E-04-1.75441E-05-6.74732E-04
 -1       465 1.22344E-02 8.71055E-06-1.41609E-01
 -1       466 9.57998E-04-2.96883E-04-4.76931E-04
 -1       467 1.91227E-03-2.69515E-04-1.70891E-03
 -1       468 2.83038E-03-2.37673E-04-3.39341E-03
 -1       469 3.70964E-03-2.24396E-04-5.44742E-03
 -1       470 4.54133E-03-2.12669E-04-7.90856E-03
 -1       471 5.32603E-03-2.00403E-04-1.07743E-02
 -1       472 6.06299E-03-1.87788E-04-1.40218E-02
 -1       473 6.75253E-03-1.75109E-04-1.76242E-02
 -1       474 7.39516E-03-1.62539E-04-2.15557E-02
 -1       475 7.99145E-03-1.50129E-04-2.57917E-02
 -1       476 8.54204E-03-1.37899E-04-3.03083E-02
 -1       477 9.04769E-03-1.25875E-04-3.50819E-02
 -1       478 9.50931E-03-1.14094E-04-4.00891E-02
 -1       479 9.92792E-03-1.02593E-04-4.53070E-02
 -1       480 1.03047E-02-9.14142E-05-5.07131E-02
 -1       481 1.06410E-02-8.05986E-05-5.62855E-02
 -1       482 1.09383E-02-7.01892E-05-6.20030E-02
 -1       483 1.11983E-02-6.02298E-05-6.78451E-02
 -1       484 1.14227E-02-5.07651E-05-7.37923E-02
 -1       485 1.16135E-02-4.18406E-05-7.98259E-02
 -1       486 1.17730E-02-3.35026E-05-8.59281E-02
 -1       487 1.19033E-02-2.57971E-05-9.20824E-02
 -1       488 1.20070E-02-1.87681E-05-9.82734E-02
 -1       489 1.20868E-02-1.24571E-05-1.04487E-01
 -1       490 1.21454E-02-6.91314E-06-1.10711E-01
 -1       491 1.21859E-02-2.22292E-06-1.16932E-01
 -1       492 1.22115E-02 1.46896E-06-1.23141E-01
 -1       493 1.22256E-02 3.95357E-06-1.29330E-01
 -1       494 1.22320E-02 5.93686E-06-1.35498E-01
 -1       495 8.38070E-04-2.57354E-04-4.29521E-04
 -1       496 1.71095E-03-2.43986E-04-1.67556E-03
 -1       497 2.57950E-03-2.32991E-04-3.35704E-03
 -1       498 3.40585E-03-2.22128E-04-5.41410E-03
 -1       499 4.18194E-03-2.09279E-04-7.87690E-03
 -1       500 4.91338E-03-1.96648E-04-1.07445E-02
 -1       501 5.60060E-03-1.84437E-04-1.39939E-02
 -1       502 6.24402E-03-1.72452E-04-1.75981E-02
 -1       503 6.84389E-03-1.60593E-04-2.15314E-02
 -1       504 7.40067E-03-1.48878E-04-2.57692E-02
 -1       505 7.91497E-03-1.37348E-04-3.02876E-02
 -1       506 8.38751E-03-1.26042E-04-3.50630E-02
 -1       507 8.81914E-03-1.14994E-04-4.00719E-02
 -1       508 9.21083E-03-1.04241E-04-4.52914E-02
 -1       509 9.56369E-03-9.38187E-05-5.06991E-02
 -1       510 9.87897E-03-8.37664E-05-5.62730E-02
 -1       511 1.01581E-02-7.41236E-05-6.19920E-02
 -1       512 1.04025E-02-6.49314E-05-6.78356E-02
 -1       513 1.06140E-02-5.62316E-05-7.37841E-02
 -1       514 1.07944E-02-4.80665E-05-7.98190E-02
 -1       515 1.09457E-02-4.04794E-05-8.59224E-02
 -1       516 1.10700E-02-3.35143E-05-9.20777E-02
 -1       517 1.11697E-02-2.72170E-05-9.82697E-02
 -1       518 1.12473E-02-2.16365E-05-1.04484E-01
 -1       519 1.13053E-02-1.68176E-05-1.10709E-01
 -1       520 1.13468E-02-1.27755E-05-1.16931E-01
 -1       521 1.13746E-02-9.44353E-06-1.23141E-01
 -1       522 1.13918E-02-6.90796E-06-1.29329E-01
 -1       523 1.14003E-02-5.94093E-06-1.35497E-01
 -1       524 1.14049E-02-4.67433E-06-1.41609E-01
 -1       525-3.91872E-04-8.40794E-06-4.89498E-04
 -1       526-8.48026E-04-5.37699E-06-1.59056E-03
 -1       527-1.29025E-03-5.48753E-06-3.19515E-03
 -1       528-1.70540E-03-4.98557E-06-5.24870E-03
 -1       529-2.09447E-03-4.72825E-06-7.72740E-03
 -1       530-2.46047E-03-4.44702E-06-1.06069E-02
 -1       531-2.80409E-03-4.16804E-06-1.38639E-02
 -1       532-3.12573E-03-3.88660E-06-1.74742E-02
 -1       533-3.42560E-03-3.60758E-06-2.14132E-02
 -1       534-3.70394E-03-3.33175E-06-2.56567E-02
 -1       535-3.96103E-03-3.05986E-06-3.01807E-02
 -1       536-4.19722E-03-2.79256E-06-3.49614E-02
 -1       537-4.41295E-03-2.53062E-06-3.99753E-02
 -1       538-4.60870E-03-2.27490E-06-4.51995E-02
 -1       539-4.78502E-03-2.02632E-06-5.06116E-02
 -1       540-4.94254E-03-1.78580E-06-5.61896E-02
 -1       541-5.08196E-03-1.55428E-06-6.19122E-02
 -1       542-5.20403E-03-1.33275E-06-6.77592E-02
 -1       543-5.30962E-03-1.12219E-06-7.37107E-02
 -1       544-5.39964E-03-9.23626E-07-7.97481E-02
 -1       545-5.47509E-03-7.38072E-07-8.58536E-02
 -1       546-5.53705E-03-5.66550E-07-9.20107E-02
 -1       547-5.58669E-03-4.10058E-07-9.82039E-02
 -1       548-5.62525E-03-2.69587E-07-1.04419E-01
 -1       549-5.65407E-03-1.46287E-07-1.10643E-01
 -1       550-5.67455E-03-4.20445E-08-1.16866E-01
 -1       551-5.68818E-03 4.02384E-08-1.23076E-01
 -1       552-5.69641E-03 1.01228E-07-1.29267E-01
 -1       553-5.70078E-03 1.41503E-07-1.35432E-01
 -1       554-1.11326E-14 4.04509E-14-4.53638E-04
 -1       555-1.92019E-14 1.84090E-13-1.52885E-03
 -1       556-3.06694E-14 4.50562E-13-3.13276E-03
 -1       557-4.95853E-14 8.16600E-13-5.19111E-03
 -1       558-6.96726E-14 1.23039E-12-7.67354E-03
 -1       559-8.87443E-14 1.64970E-12-1.05565E-02
 -1       560-1.04928E-13 2.04305E-12-1.38166E-02
 -1       561-1.20619E-13 2.41746E-12-1.74298E-02
 -1       562-1.44071E-13 2.76311E-12-2.13718E-02
 -1       563-1.70456E-13 3.01994E-12-2.56182E-02
 -1       564-1.92970E-13 3.15475E-12-3.01451E-02
 -1       565-2.09303E-13 3.16004E-12-3.49285E-02
 -1       566-2.21492E-13 3.03328E-12-3.99452E-02
 -1       567-2.33542E-13 2.79806E-12-4.51720E-02
 -1       568-2.44565E-13 2.52837E-12-5.05866E-02
 -1       569-2.52875E-13 2.25692E-12-5.61671E-02
 -1       570-2.60893E-13 1.94651E-12-6.18921E-02
 -1       571-2.69108E-13 1.58803E-12-6.77413E-02
 -1       572-2.77197E-13 1.14965E-12-7.36949E-02
 -1       573-2.85562E-13 6.49741E-13-7.97343E-02
 -1       574-2.98215E-13 1.32979E-13-8.58417E-02
 -1       575-3.10510E-13-3.51745E-13-9.20004E-02
 -1       576-3.22458E-13-8.16530E-13-9.81951E-02
 -1       577-3.31967E-13-1.28729E-12-1.04412E-01
 -1       578-3.36127E-13-1.75328E-12-1.10637E-01
 -1       579-3.34762E-13-2.18623E-12-1.16860E-01
 -1       580-3.29364E-13-2.60306E-12-1.23071E-01
 -1       581-3.27046E-13-3.01725E-12-1.29263E-01
 -1       582-3.30578E-13-3.45811E-12-1.35428E-01
 -1       583 3.91872E-04 8.40794E-06-4.89498E-04
 -1       584 8.48026E-04 5.37699E-06-1.59056E-03
 -1       585 1.29025E-03 5.48753E-06-3.19515E-03
 -1       586 1.70540E-03 4.98558E-06-5.24870E-03
 -1       587 2.09447E-03 4.72826E-06-7.72740E-03
 -1       588 2.46047E-03 4.44702E-06-1.06069E-02
 -1       589 2.80409E-03 4.16805E-06-1.38639E-02
 -1       590 3.12573E-03 3.88660E-06-1.74742E-02
 -1       591 3.42560E-03 3.60759E-06-2.14132E-02
 -1       592 3.70394E-03 3.33175E-06-2.56567E-02
 -1       593 3.96103E-03 3.05987E-06-3.01807E-02
 -1       594 4.19722E-03 2.79256E-06-3.49614E-02
 -1       595 4.41295E-03 2.53062E-06-3.99753E-02
 -1       596 4.60870E-03 2.27491E-06-4.51995E-02
 -1       597 4.78502E-03 2.02633E-06-5.06116E-02
 -1       598 4.94254E-03 1.78580E-06-5.61896E-02
 -1       599 5.08196E-03 1.55428E-06-6.19122E-02
 -1       600 5.20403E-03 1.33275E-06-6.77592E-02
 -1       601 5.30962E-03 1.12220E-06-7.37107E-02
 -1       602 5.39964E-03 9.23628E-07-7.97481E-02
 -1       603 5.47509E-03 7.38072E-07-8.58536E-02
 -1       604 5.53705E-03 5.66549E-07-9.20107E-02
 -1       605 5.58669E-03 4.10056E-07-9.82039E-02
 -1       606 5.62525E-03 2.69585E-07-1.04419E-01
 -1       607 5.65407E-03 1.46283E-07-1.10643E-01
 -1       608 5.67455E-03 4.20402E-08-1.16866E-01
 -1       609 5.68818E-03-4.02436E-08-1.23076E-01
 -1       610 5.69641E-03-1.01234E-07-1.29267E-01
 -1       611 5.70078E-03-1.41510E-07-1.35432E-01
 -1       612 3.91872E-04-8.40794E-06-4.89498E-04
 -1       613 8.48026E-04-5.37699E-06-1.59056E-03
 -1       614 1.29025E-03-5.48752E-06-3.19515E-03
 -1       615 1.70540E-03-4.98557E-06-5.24870E-03
 -1       616 2.09447E-03-4.72825E-06-7.72740E-03
 -1       617 2.46047E-03-4.44702E-06-1.06069E-02
 -1       618 2.80409E-03-4.16804E-06-1.38639E-02
 -1       619 3.12573E-03-3.88659E-06-1.74742E-02
 -1       620 3.42560E-03-3.60758E-06-2.14132E-02
 -1       621 3.70394E-03-3.33174E-06-2.56567E-02
 -1       622 3.96103E-03-3.05985E-06-3.01807E-02
 -1       623 4.19722E-03-2.79255E-06-3.49614E-02
 -1       624 4.41295E-03-2.53061E-06-3.99753E-02
 -1       625 4.60870E-03-2.27489E-06-4.51995E-02
 -1       626 4.78502E-03-2.02631E-06-5.06116E-02
 -1       627 4.94254E-03-1.78579E-06-5.61896E-02
 -1       628 5.08196E-03-1.55427E-06-6.19122E-02
 -1       629 5.20403E-03-1.33274E-06-6.77592E-02
 -1       630 5.30962E-03-1.12218E-06-7.37107E-02
 -1       631 5.39964E-03-9.23615E-07-7.97481E-02
 -1       632 5.47509E-03-7.38061E-07-8.58536E-02
 -1       633 5.53705E-03-5.66539E-07-9.20107E-02
 -1       634 5.58669E-03-4.10047E-07-9.82039E-02
 -1       635 5.62525E-03-2.69577E-07-1.04419E-01
 -1       636 5.65407E-03-1.46277E-07-1.10643E-01
 -1       637 5.67455E-03-4.20352E-08-1.16866E-01
 -1       638 5.68818E-03 4.02470E-08-1.23076E-01
 -1       639 5.69641E-03 1.01236E-07-1.29267E-01
 -1       640 5.70078E-03 1.41510E-07-1.35432E-01
 -1       641-1.85730E-14 4.10983E-14-4.53638E-04
 -1       642-3.67832E-14 1.84595E-13-1.52885E-03
 -1       643-5.84256E-14 4.51374E-13-3.13276E-03
 -1       644-8.37217E-14 8.17372E-13-5.19111E-03
 -1       645-1.06013E-13 1.23095E-12-7.67354E-03
 -1       646-1.23746E-13 1.65022E-12-1.05565E-02
 -1       647-1.37698E-13 2.04346E-12-1.38166E-02
 -1       648-1.52101E-13 2.41790E-12-1.74298E-02
 -1       649-1.70713E-13 2.76350E-12-2.13718E-02
 -1       650-1.87456E-13 3.02035E-12-2.56182E-02
 -1       651-1.99026E-13 3.15502E-12-3.01451E-02
 -1       652-2.04056E-13 3.16028E-12-3.49285E-02
 -1       653-2.05193E-13 3.03350E-12-3.99452E-02
 -1       654-2.10937E-13 2.79830E-12-4.51720E-02
 -1       655-2.21519E-13 2.52863E-12-5.05866E-02
 -1       656-2.28260E-13 2.25716E-12-5.61671E-02
 -1       657-2.32441E-13 1.94673E-12-6.18921E-02
 -1       658-2.35096E-13 1.58826E-12-6.77413E-02
 -1       659-2.36377E-13 1.14979E-12-7.36949E-02
 -1       660-2.41086E-13 6.49938E-13-7.97343E-02
 -1       661-2.54897E-13 1.33164E-13-8.58417E-02
 -1       662-2.70170E-13-3.51634E-13-9.20004E-02
 -1       663-2.82397E-13-8.16303E-13-9.81951E-02
 -1       664-2.91269E-13-1.28718E-12-1.04412E-01
 -1       665-2.97392E-13-1.75320E-12-1.10637E-01
 -1       666-2.98429E-13-2.18615E-12-1.16860E-01
 -1       667-2.93920E-13-2.60319E-12-1.23071E-01
 -1       668-2.90512E-13-3.01729E-12-1.29263E-01
 -1       669-2.91501E-13-3.45807E-12-1.35428E-01
 -1       670-3.91872E-04 8.40794E-06-4.89498E-04
 -1       671-8.48026E-04 5.37699E-06-1.59056E-03
 -1       672-1.29025E-03 5.48753E-06-3.19515E-03
 -1       673-1.70540E-03 4.98557E-06-5.24870E-03
 -1       674-2.09447E-03 4.72825E-06-7.72740E-03
 -1       675-2.46047E-03 4.44702E-06-1.06069E-02
 -1       676-2.80409E-03 4.16804E-06-1.38639E-02
 -1       677-3.12573E-03 3.88660E-06-1.74742E-02
 -1       678-3.42560E-03 3.60758E-06-2.14132E-02
 -1       679-3.70394E-03 3.33174E-06-2.56567E-02
 -1       680-3.96103E-03 3.05986E-06-3.01807E-02
 -1       681-4.19722E-03 2.79255E-06-3.49614E-02
 -1       682-4.41295E-03 2.53061E-06-3.99753E-02
 -1       683-4.60870E-03 2.27490E-06-4.51995E-02
 -1       684-4.78502E-03 2.02632E-06-5.06116E-02
 -1       685-4.94254E-03 1.78579E-06-5.61896E-02
 -1       686-5.08196E-03 1.55427E-06-6.19122E-02
 -1       687-5.20403E-03 1.33274E-06-6.77592E-02
 -1       688-5.30962E-03 1.12218E-06-7.37107E-02
 -1       689-5.39964E-03 9.23616E-07-7.97481E-02
 -1       690-5.47509E-03 7.38061E-07-8.58536E-02
 -1       691-5.53705E-03 5.66538E-07-9.20107E-02
 -1       692-5.58669E-03 4.10046E-07-9.82039E-02
 -1       693-5.62525E-03 2.69574E-07-1.04419E-01
 -1       694-5.65407E-03 1.46274E-07-1.10643E-01
 -1       695-5.67455E-03 4.20309E-08-1.16866E-01
 -1       696-5.68818E-03-4.02522E-08-1.23076E-01
 -1       697-5.69641E-03-1.01242E-07-1.29267E-01
 -1       698-5.70078E-03-1.41517E-07-1.35432E-01
 -1       699-9.27941E-04-1.59713E-04-5.95317E-04
 -1       700-1.92666E-03-1.47674E-04-1.78220E-03
 -1       701-2.84634E-03-1.24202E-04-3.40385E-03
 -1       702-3.72577E-03-1.16975E-04-5.45093E-03
 -1       703-4.55763E-03-1.11110E-04-7.91544E-03
 -1       704-5.34210E-03-1.04791E-04-1.07825E-02
 -1       705-6.07885E-03-9.81525E-05-1.40290E-02
 -1       706-6.76823E-03-9.14261E-05-1.76295E-02
 -1       707-7.41068E-03-8.47496E-05-2.15590E-02
 -1       708-8.00674E-03-7.81584E-05-2.57931E-02
 -1       709-8.55706E-03-7.16593E-05-3.03078E-02
 -1       710-9.06241E-03-6.52637E-05-3.50794E-02
 -1       711-9.52367E-03-5.89897E-05-4.00846E-02
 -1       712-9.94187E-03-5.28586E-05-4.53004E-02
 -1       713-1.03182E-02-4.68921E-05-5.07043E-02
 -1       714-1.06540E-02-4.11129E-05-5.62745E-02
 -1       715-1.09508E-02-3.55436E-05-6.19899E-02
 -1       716-1.12101E-02-3.02076E-05-6.78299E-02
 -1       717-1.14338E-02-2.51288E-05-7.37749E-02
 -1       718-1.16239E-02-2.03314E-05-7.98063E-02
 -1       719-1.17826E-02-1.58402E-05-8.59063E-02
 -1       720-1.19121E-02-1.16793E-05-9.20585E-02
 -1       721-1.20149E-02-7.87141E-06-9.82474E-02
 -1       722-1.20937E-02-4.43663E-06-1.04459E-01
 -1       723-1.21513E-02-1.40196E-06-1.10680E-01
 -1       724-1.21908E-02 1.17369E-06-1.16900E-01
 -1       725-1.22152E-02 3.17601E-06-1.23108E-01
 -1       726-1.22281E-02 4.50018E-06-1.29297E-01
 -1       727-1.22333E-02 5.45589E-06-1.35462E-01
 -1       728-7.95529E-04-1.24910E-04-5.45483E-04
 -1       729-1.73472E-03-1.30243E-04-1.74735E-03
 -1       730-2.59705E-03-1.21757E-04-3.36811E-03
 -1       731-3.41933E-03-1.16868E-04-5.41748E-03
 -1       732-4.19575E-03-1.10042E-04-7.88379E-03
 -1       733-4.92728E-03-1.03305E-04-1.07527E-02
 -1       734-5.61453E-03-9.69060E-05-1.40011E-02
 -1       735-6.25783E-03-9.06556E-05-1.76034E-02
 -1       736-6.85754E-03-8.44755E-05-2.15347E-02
 -1       737-7.41414E-03-7.83695E-05-2.57706E-02
 -1       738-7.92821E-03-7.23613E-05-3.02871E-02
 -1       739-8.40048E-03-6.64726E-05-3.50605E-02
 -1       740-8.83180E-03-6.07222E-05-4.00674E-02
 -1       741-9.22315E-03-5.51283E-05-4.52848E-02
 -1       742-9.57562E-03-4.97100E-05-5.06904E-02
 -1       743-9.89047E-03-4.44873E-05-5.62622E-02
 -1       744-1.01691E-02-3.94809E-05-6.19790E-02
 -1       745-1.04130E-02-3.47120E-05-6.78204E-02
 -1       746-1.06239E-02-3.02025E-05-7.37668E-02
 -1       747-1.08036E-02-2.59745E-05-7.97995E-02
 -1       748-1.09542E-02-2.20503E-05-8.59007E-02
 -1       749-1.10778E-02-1.84530E-05-9.20540E-02
 -1       750-1.11768E-02-1.52070E-05-9.82438E-02
 -1       751-1.12535E-02-1.23388E-05-1.04456E-01
 -1       752-1.13107E-02-9.87208E-06-1.10678E-01
 -1       753-1.13512E-02-7.80395E-06-1.16899E-01
 -1       754-1.13780E-02-6.07952E-06-1.23108E-01
 -1       755-1.13940E-02-4.74238E-06-1.29296E-01
 -1       756-1.14024E-02-4.47354E-06-1.35462E-01
 -1       757 7.95529E-04 1.24910E-04-5.45483E-04
 -1       758 1.73472E-03 1.30243E-04-1.74735E-03
 -1       759 2.59705E-03 1.21757E-04-3.36811E-03
 -1       760 3.41933E-03 1.16868E-04-5.41748E-03
 -1       761 4.19575E-03 1.10042E-04-7.88379E-03
 -1       762 4.92728E-03 1.03305E-04-1.07527E-02
 -1       763 5.61453E-03 9.69060E-05-1.40011E-02
 -1       764 6.25783E-03 9.06556E-05-1.76034E-02
 -1       765 6.85754E-03 8.44755E-05-2.15347E-02
 -1       766 7.41414E-03 7.83695E-05-2.57706E-02
 -1       767 7.92821E-03 7.23613E-05-3.02871E-02
 -1       768 8.40048E-03 6.64726E-05-3.50605E-02
 -1       769 8.83180E-03 6.07222E-05-4.00674E-02
 -1       770 9.22315E-03 5.51283E-05-4.52848E-02
 -1       771 9.57562E-03 4.97100E-05-5.06904E-02
 -1       772 9.89047E-03 4.44873E-05-5.62622E-02
 -1       773 1.01691E-02 3.94809E-05-6.19790E-02
 -1       774 1.04130E-02 3.47120E-05-6.78204E-02
 -1       775 1.06239E-02 3.02025E-05-7.37668E-02
 -1       776 1.08036E-02 2.59745E-05-7.97995E-02
 -1       777 1.09542E-02 2.20503E-05-8.59007E-02
 -1       778 1.10778E-02 1.84530E-05-9.20540E-02
 -1       779 1.11768E-02 1.52070E-05-9.82438E-02
 -1       780 1.12535E-02 1.23388E-05-1.04456E-01
 -1       781 1.13107E-02 9.87207E-06-1.10678E-01
 -1       782 1.13512E-02 7.80395E-06-1.16899E-01
 -1       783 1.13780E-02 6.07951E-06-1.23108E-01
 -1       784 1.13940E-02 4.74237E-06-1.29296E-01
 -1       785 1.14024E-02 4.47353E-06-1.35462E-01
 -1       786 9.27941E-04 1.59713E-04-5.95317E-04
 -1       787 1.92666E-03 1.47674E-04-1.78220E-03
 -1       788 2.84634E-03 1.24202E-04-3.40385E-03
 -1       789 3.72577E-03 1.16975E-04-5.45093E-03
 -1       790 4.55763E-03 1.11110E-04-7.91544E-03
 -1       791 5.34210E-03 1.04791E-04-1.07825E-02
 -1       792 6.07885E-03 9.81525E-05-1.40290E-02
 -1       793 6.76823E-03 9.14261E-05-1.76295E-02
 -1       794 7.41068E-03 8.47496E-05-2.15590E-02
 -1       795 8.00674E-03 7.81584E-05-2.57931E-02
 -1       796 8.55706E-03 7.16593E-05-3.03078E-02
 -1       797 9.06241E-03 6.52637E-05-3.50794E-02
 -1       798 9.52367E-03 5.89897E-05-4.00846E-02
 -1       799 9.94187E-03 5.28586E-05-4.53004E-02
 -1       800 1.03182E-02 4.68921E-05-5.07043E-02
 -1       801 1.06540E-02 4.11129E-05-5.62745E-02
 -1       802 1.09508E-02 3.55436E-05-6.19899E-02
 -1       803 1.12101E-02 3.02076E-05-6.78299E-02
 -1       804 1.14338E-02 2.51288E-05-7.37749E-02
 -1       805 1.16239E-02 2.03314E-05-7.98063E-02
 -1       806 1.17826E-02 1.58402E-05-8.59063E-02
 -1       807 1.19121E-02 1.16793E-05-9.20585E-02
 -1       808 1.20149E-02 7.87140E-06-9.82474E-02
 -1       809 1.20937E-02 4.43663E-06-1.04459E-01
 -1       810 1.21513E-02 1.40196E-06-1.10680E-01
 -1       811 1.21908E-02-1.17370E-06-1.16900E-01
 -1       812 1.22152E-02-3.17602E-06-1.23108E-01
 -1       813 1.22281E-02-4.50019E-06-1.29297E-01
 -1       814 1.22333E-02-5.45590E-06-1.35462E-01
 -1       815-9.27941E-04 1.59713E-04-5.95317E-04
 -1       816-1.92666E-03 1.47674E-04-1.78220E-03
 -1       817-2.84634E-03 1.24202E-04-3.40385E-03
 -1       818-3.72577E-03 1.16975E-04-5.45093E-03
 -1       819-4.55763E-03 1.11110E-04-7.91544E-03
 -1       820-5.34210E-03 1.04791E-04-1.07825E-02
 -1       821-6.07885E-03 9.81525E-05-1.40290E-02
 -1       822-6.76823E-03 9.14261E-05-1.76295E-02
 -1       823-7.41068E-03 8.47496E-05-2.15590E-02
 -1       824-8.00674E-03 7.81584E-05-2.57931E-02
 -1       825-8.55706E-03 7.16593E-05-3.03078E-02
 -1       826-9.06241E-03 6.52637E-05-3.50794E-02
 -1       827-9.52367E-03 5.89897E-05-4.00846E-02
 -1       828-9.94187E-03 5.28585E-05-4.53004E-02
 -1       829-1.03182E-02 4.68921E-05-5.07043E-02
 -1       830-1.06540E-02 4.11129E-05-5.62745E-02
 -1       831-1.09508E-02 3.55436E-05-6.19899E-02
 -1       832-1.12101E-02 3.02076E-05-6.78299E-02
 -1       833-1.14338E-02 2.51288E-05-7.37749E-02
 -1       834-1.16239E-02 2.03314E-05-7.98063E-02
 -1       835-1.17826E-02 1.58401E-05-8.59063E-02
 -1       836-1.19121E-02 1.16793E-05-9.20585E-02
 -1       837-1.20149E-02 7.87138E-06-9.82474E-02
 -1       838-1.20937E-02 4.43660E-06-1.04459E-01
 -1       839-1.21513E-02 1.40194E-06-1.10680E-01
 -1       840-1.21908E-02-1.17372E-06-1.16900E-01
 -1       841-1.22152E-02-3.17603E-06-1.23108E-01
 -1       842-1.22281E-02-4.50020E-06-1.29297E-01
 -1       843-1.22333E-02-5.45591E-06-1.35462E-01
 -1       844-7.95529E-04 1.24910E-04-5.45483E-04
 -1       845-1.73472E-03 1.30243E-04-1.74735E-03
 -1       846-2.59705E-03 1.21757E-04-3.36811E-03
 -1       847-3.41933E-03 1.16868E-04-5.41748E-03
 -1       848-4.19575E-03 1.10042E-04-7.88379E-03
 -1       849-4.92728E-03 1.03305E-04-1.07527E-02
 -1       850-5.61453E-03 9.69060E-05-1.40011E-02
 -1       851-6.25783E-03 9.06556E-05-1.76034E-02
 -1       852-6.85754E-03 8.44755E-05-2.15347E-02
 -1       853-7.41414E-03 7.83695E-05-2.57706E-02
 -1       854-7.92821E-03 7.23613E-05-3.02871E-02
 -1       855-8.40048E-03 6.64726E-05-3.50605E-02
 -1       856-8.83180E-03 6.07222E-05-4.00674E-02
 -1       857-9.22315E-03 5.51283E-05-4.52848E-02
 -1       858-9.57562E-03 4.97100E-05-5.06904E-02
 -1       859-9.89047E-03 4.44873E-05-5.62622E-02
 -1       860-1.01691E-02 3.94808E-05-6.19790E-02
 -1       861-1.04130E-02 3.47120E-05-6.78204E-02
 -1       862-1.06239E-02 3.02025E-05-7.37668E-02
 -1       863-1.08036E-02 2.59745E-05-7.97995E-02
 -1       864-1.09542E-02 2.20503E-05-8.59007E-02
 -1       865-1.10778E-02 1.84530E-05-9.20540E-02
 -1       866-1.11768E-02 1.52070E-05-9.82438E-02
 -1       867-1.12535E-02 1.23388E-05-1.04456E-01
 -1       868-1.13107E-02 9.87206E-06-1.10678E-01
 -1       869-1.13512E-02 7.80393E-06-1.16899E-01
 -1       870-1.13780E-02 6.07949E-06-1.23108E-01
 -1       871-1.13940E-02 4.74236E-06-1.29296E-01
 -1       872-1.14024E-02 4.47352E-06-1.35462E-01
 -1       873 1.22333E-02 5.45591E-06-1.35462E-01
 -1       874 1.22281E-02 4.50020E-06-1.29297E-01
 -1       875 1.22152E-02 3.17603E-06-1.23108E-01
 -1       876 1.21908E-02 1.17371E-06-1.16900E-01
 -1       877 1.21513E-02-1.40194E-06-1.10680E-01
 -1       878 1.20937E-02-4.43661E-06-1.04459E-01
 -1       879 1.20149E-02-7.87138E-06-9.82474E-02
 -1       880 1.19121E-02-1.16793E-05-9.20585E-02
 -1       881 1.17826E-02-1.58401E-05-8.59063E-02
 -1       882 1.16239E-02-2.03314E-05-7.98063E-02
 -1       883 1.14338E-02-2.51288E-05-7.37749E-02
 -1       884 1.12101E-02-3.02076E-05-6.78299E-02
 -1       885 1.09508E-02-3.55436E-05-6.19899E-02
 -1       886 1.06540E-02-4.11129E-05-5.62745E-02
 -1       887 1.03182E-02-4.68921E-05-5.07043E-02
 -1       888 9.94187E-03-5.28585E-05-4.53004E-02
 -1       889 9.52367E-03-5.89897E-05-4.00846E-02
 -1       890 9.06241E-03-6.52637E-05-3.50794E-02
 -1       891 8.55706E-03-7.16593E-05-3.03078E-02
 -1       892 8.00674E-03-7.81584E-05-2.57931E-02
 -1       893 7.41068E-03-8.47496E-05-2.15590E-02
 -1       894 6.76823E-03-9.14261E-05-1.76295E-02
 -1       895 6.07885E-03-9.81525E-05-1.40290E-02
 -1       896 5.34210E-03-1.04791E-04-1.07825E-02
 -1       897 4.55763E-03-1.11110E-04-7.91544E-03
 -1       898 3.72577E-03-1.16975E-04-5.45093E-03
 -1       899 2.84634E-03-1.24202E-04-3.40385E-03
 -1       900 1.92666E-03-1.47674E-04-1.78220E-03
 -1       901 9.27941E-04-1.59713E-04-5.95317E-04
 -1       902 7.95529E-04-1.24910E-04-5.45483E-04
 -1       903 1.73472E-03-1.30243E-04-1.74735E-03
 -1       904 2.59705E-03-1.21757E-04-3.36811E-03
 -1       905 3.41933E-03-1.16868E-04-5.41748E-03
 -1       906 4.19575E-03-1.10042E-04-7.88379E-03
 -1       907 4.92728E-03-1.03305E-04-1.07527E-02
 -1       908 5.61453E-03-9.69060E-05-1.40011E-02
 -1       909 6.25783E-03-9.06556E-05-1.76034E-02
 -1       910 6.85754E-03-8.44755E-05-2.15347E-02
 -1       911 7.41414E-03-7.83695E-05-2.57706E-02
 -1       912 7.92821E-03-7.23613E-05-3.02871E-02
 -1       913 8.40048E-03-6.64726E-05-3.50605E-02
 -1       914 8.83180E-03-6.07222E-05-4.00674E-02
 -1       915 9.22315E-03-5.51283E-05-4.52848E-02
 -1       916 9.57562E-03-4.97100E-05-5.06904E-02
 -1       917 9.89047E-03-4.44873E-05-5.62622E-02
 -1       918 1.01691E-02-3.94808E-05-6.19790E-02
 -1       919 1.04130E-02-3.47120E-05-6.78204E-02
 -1       920 1.06239E-02-3.02025E-05-7.37668E-02
 -1       921 1.08036E-02-2.59745E-05-7.97995E-02
 -1       922 1.09542E-02-2.20503E-05-8.59007E-02
 -1       923 1.10778E-02-1.84530E-05-9.20540E-02
 -1       924 1.11768E-02-1.52070E-05-9.82438E-02
 -1       925 1.12535E-02-1.23388E-05-1.04456E-01
 -1       926 1.13107E-02-9.87206E-06-1.10678E-01
 -1       927 1.13512E-02-7.80393E-06-1.16899E-01
 -1       928 1.13780E-02-6.07950E-06-1.23108E-01
 -1       929 1.13940E-02-4.74236E-06-1.29296E-01
 -1       930 1.14024E-02-4.47352E-06-1.35462E-01
 -3
    1PSTEP                        10           1           1          
    1PGM                1.000000E+00                                  
    1PGK                1.030430E+05                                  
    1PHID                         -1                                  
    1PSUBC                         0                                  
    1PMODE                         3                                  
  100CL  103 51.08924173         930                     2    3MODAL      1
 -4  STRESS      6    1
 -5  SXX         1    4    1    1
 -5  SYY         1    4    2    2
 -5  SZZ         1    4    3    3
 -5  SXY         1    4    1    2
 -5  SYZ         1    4    2    3
 -5  SZX         1    4    3    1
 -1         1-2.33624E+09-1.00126E+09-1.00126E+09-1.24663E+07 1.35463E+02-5.06261E+08
 -1         2-2.33624E+09-1.00126E+09-1.00126E+09 1.24663E+07-1.35463E+02-5.06261E+08
 -1         3 9.54555E+06 2.38255E+07 2.65582E+07-2.35123E+06 1.01587E+07-1.09563E+07
 -1         4 9.54555E+06 2.38255E+07 2.65582E+07 2.35123E+06-1.01587E+07-1.09563E+07
 -1         5 2.33624E+09 1.00126E+09 1.00126E+09 1.24663E+07 1.35463E+02-5.06261E+08
 -1         6 2.33624E+09 1.00126E+09 1.00126E+09-1.24663E+07-1.35463E+02-5.06261E+08
 -1         7-9.54555E+06-2.38255E+07-2.65582E+07 2.35123E+06 1.01587E+07-1.09563E+07
 -1         8-9.54555E+06-2.38255E+07-2.65582E+07-2.35123E+06-1.01587E+07-1.09563E+07
 -1         9-2.69563E+09-1.15529E+09-1.15529E+09-1.41686E+07 1.98794E+02-5.44969E+08
 -1        10-3.23046E+07-8.43299E+07-2.28472E+07-8.61909E+05 1.43022E+07-8.43486E+06
 -1        11-2.70810E+09-1.16063E+09-1.16063E+09-2.39784E+08 1.67860E+01-3.85210E+08
 -1        12-2.36907E+09-1.01533E+09-1.01533E+09-2.07857E+08 3.29940E+01-3.46917E+08
 -1        13-6.73498E+06-7.64264E+06-2.75247E+06 1.75212E+06-2.91641E+06-2.05037E+06
 -1        14-3.03403E+06 4.48274E+06 1.99543E+06-3.98417E+06-3.16462E+06-2.13350E+06
 -1        15 2.69563E+09 1.15529E+09 1.15529E+09 1.41686E+07 1.98794E+02-5.44969E+08
 -1        16 3.23046E+07 8.43299E+07 2.28472E+07 8.61909E+05 1.43022E+07-8.43486E+06
 -1        17 2.36907E+09 1.01533E+09 1.01533E+09 2.07857E+08 3.29940E+01-3.46917E+08
 -1        18 2.70810E+09 1.16063E+09 1.16063E+09 2.39784E+08 1.67860E+01-3.85210E+08
 -1        19 3.03403E+06-4.48274E+06-1.99543E+06 3.98417E+06-3.16462E+06-2.13350E+06
 -1        20 6.73498E+06 7.64264E+06 2.75247E+06-1.75212E+06-2.91641E+06-2.05037E+06
 -1        21-2.36907E+09-1.01533E+09-1.01533E+09 2.07857E+08-3.29940E+01-3.46917E+08
 -1        22-2.70810E+09-1.16063E+09-1.16063E+09 2.39784E+08-1.67860E+01-3.85210E+08
 -1        23-6.73498E+06-7.64264E+06-2.75247E+06-1.75212E+06 2.91641E+06-2.05037E+06
 -1        24-3.03403E+06 4.48274E+06 1.99543E+06 3.98417E+06 3.16462E+06-2.13350E+06
 -1        25-2.69563E+09-1.15529E+09-1.15529E+09 1.41686E+07-1.98794E+02-5.44969E+08
 -1        26-3.23046E+07-8.43299E+07-2.28472E+07 8.61909E+05-1.43022E+07-8.43486E+06
 -1        27 2.69563E+09 1.15529E+09 1.15529E+09-1.41686E+07-1.98794E+02-5.44969E+08
 -1        28 2.70810E+09 1.16063E+09 1.16063E+09-2.39784E+08-1.67860E+01-3.85210E+08
 -1        29 2.36907E+09 1.01533E+09 1.01533E+09-2.07857E+08-3.29940E+01-3.46917E+08
 -1        30 3.23046E+07 8.43299E+07 2.28472E+07-8.61909E+05-1.43022E+07-8.43486E+06
 -1        31 6.73498E+06 7.64264E+06 2.75247E+06 1.75212E+06 2.91641E+06-2.05037E+06
 -1        32 3.03403E+06-4.48274E+06-1.99543E+06-3.98417E+06 3.16462E+06-2.13350E+06
 -1        33-1.76143E+09 1.91680E+08 1.29098E+08 2.40740E+07 4.06608E+07-8.65177E+07
 -1        34-1.94363E+09-4.39227E+07-9.78057E+07 2.01575E+07 6.59743E+06-1.32865E+08
 -1        35-1.77350E+09 1.87075E+07-2.13983E+07 2.49155E+07 1.21359E+06-1.19926E+08
 -1        36-1.68002E+09 1.51992E+07-2.75836E+07 2.35450E+07-8.06031E+05-1.23127E+08
 -1        37-1.58566E+09 1.55391E+07-2.48402E+07 2.33264E+07-3.39366E+04-1.22358E+08
 -1        38-1.49314E+09 1.27623E+07-2.51184E+07 2.33137E+07 3.54595E+05-1.21493E+08
 -1        39-1.39966E+09 1.23932E+07-2.30811E+07 2.31919E+07 2.15940E+05-1.20552E+08
 -1        40-1.30690E+09 1.22478E+07-2.08929E+07 2.29867E+07-9.66798E+04-1.19439E+08
 -1        41-1.21498E+09 1.21933E+07-1.86314E+07 2.27159E+07-4.25453E+05-1.18036E+08
 -1        42-1.12422E+09 1.21179E+07-1.64141E+07 2.23884E+07-7.45591E+05-1.16326E+08
 -1        43-1.03484E+09 1.20673E+07-1.42046E+07 2.20022E+07-1.07095E+06-1.14299E+08
 -1        44-9.47071E+08 1.20620E+07-1.19910E+07 2.15527E+07-1.40940E+06-1.11938E+08
 -1        45-8.61183E+08 1.21063E+07-9.77584E+06 2.10356E+07-1.76145E+06-1.09227E+08
 -1        46-7.77457E+08 1.21980E+07-7.56862E+06 2.04477E+07-2.12502E+06-1.06150E+08
 -1        47-6.96183E+08 1.23348E+07-5.37879E+06 1.97864E+07-2.49806E+06-1.02692E+08
 -1        48-6.17666E+08 1.25155E+07-3.21510E+06 1.90491E+07-2.87891E+06-9.88407E+07
 -1        49-5.42215E+08 1.27395E+07-1.08595E+06 1.82339E+07-3.26616E+06-9.45839E+07
 -1        50-4.70149E+08 1.30066E+07 1.00026E+06 1.73387E+07-3.65841E+06-8.99123E+07
 -1        51-4.01795E+08 1.33164E+07 3.03497E+06 1.63621E+07-4.05426E+06-8.48177E+07
 -1        52-3.37483E+08 1.36684E+07 5.00933E+06 1.53027E+07-4.45223E+06-7.92932E+07
 -1        53-2.77549E+08 1.40621E+07 6.91435E+06 1.41594E+07-4.85077E+06-7.33335E+07
 -1        54-2.22332E+08 1.44985E+07 8.74260E+06 1.29317E+07-5.24903E+06-6.69340E+07
 -1        55-1.72169E+08 1.49855E+07 1.04925E+07 1.16194E+07-5.64873E+06-6.00903E+07
 -1        56-1.27400E+08 1.55371E+07 1.21688E+07 1.02219E+07-6.05464E+06-5.27964E+07
 -1        57-8.83712E+07 1.61576E+07 1.37631E+07 8.73594E+06-6.46565E+06-4.50526E+07
 -1        58-5.54843E+07 1.67175E+07 1.51602E+07 7.15019E+06-6.83320E+06-3.68777E+07
 -1        59-2.92424E+07 1.68855E+07 1.60951E+07 5.46653E+06-7.03436E+06-2.83274E+07
 -1        60-1.02461E+07 1.65317E+07 1.63492E+07 3.75379E+06-7.02028E+06-1.95429E+07
 -1        61 1.54684E+06 1.82226E+07 1.68839E+07 2.26685E+06-7.56456E+06-1.10473E+07
 -1        62-1.76143E+09 1.91680E+08 1.29098E+08-2.40740E+07-4.06608E+07-8.65177E+07
 -1        63-1.94363E+09-4.39227E+07-9.78057E+07-2.01575E+07-6.59743E+06-1.32865E+08
 -1        64-1.77350E+09 1.87075E+07-2.13983E+07-2.49155E+07-1.21359E+06-1.19926E+08
 -1        65-1.68002E+09 1.51992E+07-2.75836E+07-2.35450E+07 8.06031E+05-1.23127E+08
 -1        66-1.58566E+09 1.55391E+07-2.48402E+07-2.33264E+07 3.39366E+04-1.22358E+08
 -1        67-1.49314E+09 1.27623E+07-2.51184E+07-2.33137E+07-3.54595E+05-1.21493E+08
 -1        68-1.39966E+09 1.23932E+07-2.30811E+07-2.31919E+07-2.15940E+05-1.20552E+08
 -1        69-1.30690E+09 1.22478E+07-2.08929E+07-2.29867E+07 9.66798E+04-1.19439E+08
 -1        70-1.21498E+09 1.21933E+07-1.86314E+07-2.27159E+07 4.25453E+05-1.18036E+08
 -1        71-1.12422E+09 1.21179E+07-1.64141E+07-2.23884E+07 7.45591E+05-1.16326E+08
 -1        72-1.03484E+09 1.20673E+07-1.42046E+07-2.20022E+07 1.07095E+06-1.14299E+08
 -1        73-9.47071E+08 1.20620E+07-1.19910E+07-2.15527E+07 1.40940E+06-1.11938E+08
 -1        74-8.61183E+08 1.21063E+07-9.77584E+06-2.10356E+07 1.76145E+06-1.09227E+08
 -1        75-7.77457E+08 1.21980E+07-7.56862E+06-2.04477E+07 2.12502E+06-1.06150E+08
 -1        76-6.96183E+08 1.23348E+07-5.37879E+06-1.97864E+07 2.49806E+06-1.02692E+08
 -1        77-6.17666E+08 1.25155E+07-3.21510E+06-1.90491E+07 2.87891E+06-9.88407E+07
 -1        78-5.42215E+08 1.27395E+07-1.08595E+06-1.82339E+07 3.26616E+06-9.45839E+07
 -1        79-4.70149E+08 1.30066E+07 1.00026E+06-1.73387E+07 3.65841E+06-8.99123E+07
 -1        80-4.01795E+08 1.33164E+07 3.03497E+06-1.63621E+07 4.05426E+06-8.48177E+07
 -1        81-3.37483E+08 1.36684E+07 5.00933E+06-1.53027E+07 4.45223E+06-7.92932E+07
 -1        82-2.77549E+08 1.40621E+07 6.91435E+06-1.41594E+07 4.85077E+06-7.33335E+07
 -1        83-2.22332E+08 1.44985E+07 8.74260E+06-1.29317E+07 5.24903E+06-6.69340E+07
 -1        84-1.72169E+08 1.49855E+07 1.04925E+07-1.16194E+07 5.64873E+06-6.00903E+07
 -1        85-1.27400E+08 1.55371E+07 1.21688E+07-1.02219E+07 6.05464E+06-5.27964E+07
 -1        86-8.83712E+07 1.61576E+07 1.37631E+07-8.73594E+06 6.46565E+06-4.50526E+07
 -1        87-5.54843E+07 1.67175E+07 1.51602E+07-7.15019E+06 6.83320E+06-3.68777E+07
 -1        88-2.92424E+07 1.68855E+07 1.60951E+07-5.46653E+06 7.03436E+06-2.83274E+07
 -1        89-1.02461E+07 1.65317E+07 1.63492E+07-3.75379E+06 7.02028E+06-1.95429E+07
 -1        90 1.54684E+06 1.82226E+07 1.68839E+07-2.26685E+06 7.56456E+06-1.10473E+07
 -1        91-1.10775E+09-4.74759E+08-4.74757E+08-6.79098E+06 2.37101E+01-3.95353E+08
 -1        92-3.14693E-02-1.34870E-02-1.34869E-02 3.26718E-02 2.58299E+01-3.66390E+08
 -1        93 1.10775E+09 4.74759E+08 4.74757E+08 6.79098E+06 2.37101E+01-3.95353E+08
 -1        94 1.10775E+09 4.74759E+08 4.74757E+08-6.79098E+06-2.37101E+01-3.95353E+08
 -1        95-5.25029E-02-2.25013E-02-2.25012E-02 3.31946E-02-2.58299E+01-3.66390E+08
 -1        96-1.10775E+09-4.74759E+08-4.74757E+08 6.79098E+06-2.37101E+01-3.95353E+08
 -1        97 1.76143E+09-1.91680E+08-1.29098E+08 2.40740E+07-4.06608E+07-8.65177E+07
 -1        98 1.94363E+09 4.39227E+07 9.78057E+07 2.01575E+07-6.59743E+06-1.32865E+08
 -1        99 1.77350E+09-1.87075E+07 2.13983E+07 2.49155E+07-1.21359E+06-1.19926E+08
 -1       100 1.68002E+09-1.51992E+07 2.75836E+07 2.35450E+07 8.06031E+05-1.23127E+08
 -1       101 1.58566E+09-1.55391E+07 2.48402E+07 2.33264E+07 3.39366E+04-1.22358E+08
 -1       102 1.49314E+09-1.27623E+07 2.51184E+07 2.33137E+07-3.54595E+05-1.21493E+08
 -1       103 1.39966E+09-1.23932E+07 2.30811E+07 2.31919E+07-2.15940E+05-1.20552E+08
 -1       104 1.30690E+09-1.22478E+07 2.08929E+07 2.29867E+07 9.66798E+04-1.19439E+08
 -1       105 1.21498E+09-1.21933E+07 1.86314E+07 2.27159E+07 4.25453E+05-1.18036E+08
 -1       106 1.12422E+09-1.21179E+07 1.64141E+07 2.23884E+07 7.45591E+05-1.16326E+08
 -1       107 1.03484E+09-1.20673E+07 1.42046E+07 2.20022E+07 1.07095E+06-1.14299E+08
 -1       108 9.47071E+08-1.20620E+07 1.19910E+07 2.15527E+07 1.40940E+06-1.11938E+08
 -1       109 8.61183E+08-1.21063E+07 9.77584E+06 2.10356E+07 1.76145E+06-1.09227E+08
 -1       110 7.77457E+08-1.21980E+07 7.56862E+06 2.04477E+07 2.12502E+06-1.06150E+08
 -1       111 6.96183E+08-1.23348E+07 5.37879E+06 1.97864E+07 2.49806E+06-1.02692E+08
 -1       112 6.17666E+08-1.25155E+07 3.21510E+06 1.90491E+07 2.87891E+06-9.88407E+07
 -1       113 5.42215E+08-1.27395E+07 1.08595E+06 1.82339E+07 3.26616E+06-9.45839E+07
 -1       114 4.70149E+08-1.30066E+07-1.00026E+06 1.73387E+07 3.65841E+06-8.99123E+07
 -1       115 4.01795E+08-1.33164E+07-3.03497E+06 1.63621E+07 4.05426E+06-8.48177E+07
 -1       116 3.37483E+08-1.36684E+07-5.00933E+06 1.53027E+07 4.45223E+06-7.92932E+07
 -1       117 2.77549E+08-1.40621E+07-6.91435E+06 1.41594E+07 4.85077E+06-7.33335E+07
 -1       118 2.22332E+08-1.44985E+07-8.74260E+06 1.29317E+07 5.24903E+06-6.69340E+07
 -1       119 1.72169E+08-1.49855E+07-1.04925E+07 1.16194E+07 5.64873E+06-6.00903E+07
 -1       120 1.27400E+08-1.55371E+07-1.21688E+07 1.02219E+07 6.05464E+06-5.27964E+07
 -1       121 8.83712E+07-1.61576E+07-1.37631E+07 8.73594E+06 6.46565E+06-4.50526E+07
 -1       122 5.54843E+07-1.67175E+07-1.51602E+07 7.15019E+06 6.83320E+06-3.68777E+07
 -1       123 2.92424E+07-1.68855E+07-1.60951E+07 5.46653E+06 7.03436E+06-2.83274E+07
 -1       124 1.02461E+07-1.65317E+07-1.63492E+07 3.75379E+06 7.02028E+06-1.95429E+07
 -1       125-1.54684E+06-1.82226E+07-1.68839E+07 2.26685E+06 7.56456E+06-1.10473E+07
 -1       126-4.15638E+06-7.63227E+06 1.46297E+07 6.38954E+04 7.50356E+04-1.43214E+07
 -1       127-4.73836E-03-4.52749E-03 2.07096E-02 3.03890E-03-1.91090E+05-1.40344E+07
 -1       128 4.15638E+06 7.63227E+06-1.46297E+07-6.38954E+04 7.50356E+04-1.43214E+07
 -1       129 1.76143E+09-1.91680E+08-1.29098E+08-2.40740E+07 4.06608E+07-8.65177E+07
 -1       130 1.94363E+09 4.39227E+07 9.78057E+07-2.01575E+07 6.59743E+06-1.32865E+08
 -1       131 1.77350E+09-1.87075E+07 2.13983E+07-2.49155E+07 1.21359E+06-1.19926E+08
 -1       132 1.68002E+09-1.51992E+07 2.75836E+07-2.35450E+07-8.06031E+05-1.23127E+08
 -1       133 1.58566E+09-1.55391E+07 2.48402E+07-2.33264E+07-3.39366E+04-1.22358E+08
 -1       134 1.49314E+09-1.27623E+07 2.51184E+07-2.33137E+07 3.54595E+05-1.21493E+08
 -1       135 1.39966E+09-1.23932E+07 2.30811E+07-2.31919E+07 2.15940E+05-1.20552E+08
 -1       136 1.30690E+09-1.22478E+07 2.08929E+07-2.29867E+07-9.66797E+04-1.19439E+08
 -1       137 1.21498E+09-1.21933E+07 1.86314E+07-2.27159E+07-4.25453E+05-1.18036E+08
 -1       138 1.12422E+09-1.21179E+07 1.64141E+07-2.23884E+07-7.45591E+05-1.16326E+08
 -1       139 1.03484E+09-1.20673E+07 1.42046E+07-2.20022E+07-1.07095E+06-1.14299E+08
 -1       140 9.47071E+08-1.20620E+07 1.19910E+07-2.15527E+07-1.40940E+06-1.11938E+08
 -1       141 8.61183E+08-1.21063E+07 9.77584E+06-2.10356E+07-1.76145E+06-1.09227E+08
 -1       142 7.77457E+08-1.21980E+07 7.56862E+06-2.04477E+07-2.12502E+06-1.06150E+08
 -1       143 6.96183E+08-1.23348E+07 5.37879E+06-1.97864E+07-2.49806E+06-1.02692E+08
 -1       144 6.17666E+08-1.25155E+07 3.21510E+06-1.90491E+07-2.87891E+06-9.88407E+07
 -1       145 5.42215E+08-1.27395E+07 1.08595E+06-1.82339E+07-3.26616E+06-9.45839E+07
 -1       146 4.70149E+08-1.30066E+07-1.00026E+06-1.73387E+07-3.65841E+06-8.99123E+07
 -1       147 4.01795E+08-1.33164E+07-3.03497E+06-1.63621E+07-4.05426E+06-8.48177E+07
 -1       148 3.37483E+08-1.36684E+07-5.00933E+06-1.53027E+07-4.45223E+06-7.92932E+07
 -1       149 2.77549E+08-1.40621E+07-6.91435E+06-1.41594E+07-4.85077E+06-7.33335E+07
 -1       150 2.22332E+08-1.44985E+07-8.74260E+06-1.29317E+07-5.24903E+06-6.69340E+07
 -1       151 1.72169E+08-1.49855E+07-1.04925E+07-1.16194E+07-5.64873E+06-6.00903E+07
 -1       152 1.27400E+08-1.55371E+07-1.21688E+07-1.02219E+07-6.05464E+06-5.27964E+07
 -1       153 8.83712E+07-1.61576E+07-1.37631E+07-8.73594E+06-6.46565E+06-4.50526E+07
 -1       154 5.54843E+07-1.67175E+07-1.51602E+07-7.15019E+06-6.83320E+06-3.68777E+07
 -1       155 2.92424E+07-1.68855E+07-1.60951E+07-5.46653E+06-7.03436E+06-2.83274E+07
 -1       156 1.02461E+07-1.65317E+07-1.63492E+07-3.75379E+06-7.02028E+06-1.95429E+07
 -1       157-1.54684E+06-1.82226E+07-1.68839E+07-2.26685E+06-7.56456E+06-1.10473E+07
 -1       158 4.15638E+06 7.63227E+06-1.46297E+07 6.38954E+04-7.50356E+04-1.43214E+07
 -1       159-2.30578E-03-3.53278E-03 2.15927E-02 2.70432E-03 1.91090E+05-1.40344E+07
 -1       160-4.15638E+06-7.63227E+06 1.46297E+07-6.38954E+04-7.50356E+04-1.43214E+07
 -1       161-1.87402E+09 2.96168E+08 2.72072E+08-3.00819E+07-6.22318E+07 2.76940E+07
 -1       162-2.01723E+09 6.25309E+07-5.26716E+07-1.68925E+07-1.20466E+07-3.91442E+07
 -1       163-1.91505E+09-2.63166E+07-2.37842E+07-2.78057E+07-4.62992E+06-2.87085E+07
 -1       164-1.82096E+09-4.20266E+07-3.96450E+07-2.87082E+07-1.28126E+06-3.06016E+07
 -1       165-1.71576E+09-3.15391E+07-3.18431E+07-2.88260E+07-2.36969E+06-3.05625E+07
 -1       166-1.61407E+09-2.78379E+07-3.02206E+07-2.85040E+07-2.75597E+06-3.01270E+07
 -1       167-1.51333E+09-2.68569E+07-2.83131E+07-2.81956E+07-2.42210E+06-2.97828E+07
 -1       168-1.41403E+09-2.73619E+07-2.71180E+07-2.79095E+07-1.83349E+06-2.94953E+07
 -1       169-1.31574E+09-2.79845E+07-2.59242E+07-2.75808E+07-1.22447E+06-2.91481E+07
 -1       170-1.21867E+09-2.85882E+07-2.47503E+07-2.71819E+07-6.29421E+05-2.87187E+07
 -1       171-1.12310E+09-2.92582E+07-2.36110E+07-2.67052E+07-2.90108E+04-2.82064E+07
 -1       172-1.02932E+09-3.00615E+07-2.25335E+07-2.61493E+07 5.87705E+05-2.76108E+07
 -1       173-9.37626E+08-3.10063E+07-2.15237E+07-2.55116E+07 1.22104E+06-2.69295E+07
 -1       174-8.48306E+08-3.20831E+07-2.05834E+07-2.47886E+07 1.86761E+06-2.61583E+07
 -1       175-7.61673E+08-3.32823E+07-1.97139E+07-2.39767E+07 2.52401E+06-2.52934E+07
 -1       176-6.78047E+08-3.45974E+07-1.89181E+07-2.30729E+07 3.18746E+06-2.43315E+07
 -1       177-5.97762E+08-3.60239E+07-1.81991E+07-2.20745E+07 3.85541E+06-2.32699E+07
 -1       178-5.21155E+08-3.75575E+07-1.75607E+07-2.09792E+07 4.52541E+06-2.21059E+07
 -1       179-4.48575E+08-3.91943E+07-1.70063E+07-1.97851E+07 5.19498E+06-2.08377E+07
 -1       180-3.80375E+08-4.09295E+07-1.65398E+07-1.84907E+07 5.86147E+06-1.94635E+07
 -1       181-3.16913E+08-4.27585E+07-1.61646E+07-1.70945E+07 6.52218E+06-1.79820E+07
 -1       182-2.58553E+08-4.46816E+07-1.58860E+07-1.55952E+07 7.17534E+06-1.63917E+07
 -1       183-2.05667E+08-4.67180E+07-1.57150E+07-1.39909E+07 7.82297E+06-1.46901E+07
 -1       184-1.58639E+08-4.89105E+07-1.56694E+07-1.22806E+07 8.47136E+06-1.28738E+07
 -1       185-1.17831E+08-5.12403E+07-1.57471E+07-1.04708E+07 9.11830E+06-1.09516E+07
 -1       186-8.34936E+07-5.33910E+07-1.58579E+07-8.58568E+06 9.69460E+06-8.94445E+06
 -1       187-5.56507E+07-5.44018E+07-1.56955E+07-6.62934E+06 1.00204E+07-6.88362E+06
 -1       188-3.50281E+07-5.42696E+07-1.54245E+07-4.57856E+06 1.00300E+07-4.83956E+06
 -1       189-2.45818E+07-5.53523E+07-1.65303E+07-2.08472E+06 1.08296E+07-3.25140E+06
 -1       190-2.62313E+09-1.12421E+09-1.12422E+09-1.28994E+08 4.81587E+02-4.80828E+08
 -1       191-2.24882E+09-9.63795E+08-9.63796E+08-1.00884E+08 4.83296E+02-4.40577E+08
 -1       192-1.40213E+07-2.65680E+07-1.26644E+07 5.10172E+05-7.65730E+06-2.32026E+06
 -1       193-1.88954E+09 1.72028E+08 2.22221E+08-5.21851E+07 1.33444E+07 2.73817E+07
 -1       194-2.00265E+09-3.10909E+07-9.13120E+07-3.21156E+06 1.46009E+07 2.66709E+07
 -1       195-1.89315E+09-1.37356E+07-6.22689E+06-1.18630E+07 8.34200E+06-8.75003E+06
 -1       196-1.81547E+09-2.86596E+07-3.48325E+07-2.03016E+07 6.95113E+06-5.88462E+06
 -1       197-1.71328E+09-2.49355E+07-2.88458E+07-2.10460E+07 7.32158E+06-1.05270E+06
 -1       198-1.61337E+09-2.39521E+07-2.83208E+07-2.02293E+07 6.97784E+06 9.50481E+04
 -1       199-1.51229E+09-2.22681E+07-2.61610E+07-1.96826E+07 6.50389E+06 8.71768E+04
 -1       200-1.41232E+09-2.09177E+07-2.44018E+07-1.93915E+07 5.93445E+06-1.17690E+05
 -1       201-1.31351E+09-1.96406E+07-2.26790E+07-1.91621E+07 5.37778E+06-1.95186E+05
 -1       202-1.21600E+09-1.84065E+07-2.10166E+07-1.88802E+07 4.83141E+06-1.89919E+05
 -1       203-1.11998E+09-1.71934E+07-1.93743E+07-1.85323E+07 4.28940E+06-1.68514E+05
 -1       204-1.02573E+09-1.60103E+07-1.77589E+07-1.81244E+07 3.74893E+06-1.51497E+05
 -1       205-9.33519E+08-1.48643E+07-1.61775E+07-1.76598E+07 3.21129E+06-1.38782E+05
 -1       206-8.43666E+08-1.37602E+07-1.46372E+07-1.71371E+07 2.67876E+06-1.27020E+05
 -1       207-7.56480E+08-1.27014E+07-1.31434E+07-1.65536E+07 2.15356E+06-1.14774E+05
 -1       208-6.72286E+08-1.16917E+07-1.17017E+07-1.59066E+07 1.63775E+06-1.01861E+05
 -1       209-5.91416E+08-1.07350E+07-1.03176E+07-1.51943E+07 1.13333E+06-8.83640E+04
 -1       210-5.14212E+08-9.83549E+06-8.99692E+06-1.44149E+07 6.42322E+05-7.42670E+04
 -1       211-4.41025E+08-8.99740E+06-7.74563E+06-1.35672E+07 1.66785E+05-5.95368E+04
 -1       212-3.72209E+08-8.22510E+06-6.56984E+06-1.26502E+07-2.91144E+05-4.45014E+04
 -1       213-3.08125E+08-7.52338E+06-5.47618E+06-1.16625E+07-7.29248E+05-3.02534E+04
 -1       214-2.49142E+08-6.89823E+06-4.47216E+06-1.06018E+07-1.14552E+06-1.76844E+04
 -1       215-1.95626E+08-6.35631E+06-3.56424E+06-9.46323E+06-1.53914E+06-1.70982E+03
 -1       216-1.47932E+08-5.90026E+06-2.75300E+06-8.24707E+06-1.91157E+06 3.90563E+04
 -1       217-1.06374E+08-5.50885E+06-2.01622E+06-6.98068E+06-2.26148E+06 1.30851E+05
 -1       218-7.12955E+07-5.15342E+06-1.36742E+06-5.74494E+06-2.57297E+06 2.32130E+05
 -1       219-4.33740E+07-4.89659E+06-8.33051E+05-4.63176E+06-2.76927E+06-1.17486E+05
 -1       220-2.30718E+07-4.44667E+06-6.79281E+05-2.94056E+06-2.74062E+06-1.44096E+06
 -1       221-1.09670E+07-6.24810E+06-2.00282E+06-1.87328E+05-3.32747E+06-2.02150E+06
 -1       222-1.61834E+09 2.62810E+08 3.30815E+08-1.83455E+07 1.79142E+07 4.08513E+07
 -1       223-1.84044E+09-5.18405E+06-3.48773E+07-3.49523E+07 1.74160E+07 2.22150E+07
 -1       224-1.75464E+09 3.35767E+07 4.95197E+07-2.42630E+07 7.13130E+06-8.76058E+06
 -1       225-1.66822E+09 2.28068E+07 2.47811E+07-1.58245E+07 7.18193E+06-7.78553E+06
 -1       226-1.56597E+09 2.56914E+07 3.05370E+07-1.57301E+07 7.28511E+06-2.49443E+06
 -1       227-1.47419E+09 2.34808E+07 2.76618E+07-1.61698E+07 7.00315E+06-1.42150E+06
 -1       228-1.38275E+09 2.19165E+07 2.59559E+07-1.64720E+07 6.50936E+06-1.40061E+06
 -1       229-1.29202E+09 2.04801E+07 2.41074E+07-1.64141E+07 5.93071E+06-1.59604E+06
 -1       230-1.20197E+09 1.91594E+07 2.24229E+07-1.62192E+07 5.36126E+06-1.65593E+06
 -1       231-1.11300E+09 1.78637E+07 2.07639E+07-1.59858E+07 4.80306E+06-1.63047E+06
 -1       232-1.02542E+09 1.65878E+07 1.91296E+07-1.57245E+07 4.24883E+06-1.58459E+06
 -1       233-9.39477E+08 1.53375E+07 1.75204E+07-1.54233E+07 3.69561E+06-1.53897E+06
 -1       234-8.55429E+08 1.41204E+07 1.59450E+07-1.50737E+07 3.14470E+06-1.49328E+06
 -1       235-7.73544E+08 1.29414E+07 1.44099E+07-1.46725E+07 2.59847E+06-1.44400E+06
 -1       236-6.94106E+08 1.18044E+07 1.29205E+07-1.42180E+07 2.05922E+06-1.38950E+06
 -1       237-6.17411E+08 1.07135E+07 1.14824E+07-1.37089E+07 1.52906E+06-1.32945E+06
 -1       238-5.43762E+08 9.67295E+06 1.01010E+07-1.31437E+07 1.01005E+06-1.26379E+06
 -1       239-4.73471E+08 8.68717E+06 8.78219E+06-1.25214E+07 5.04261E+05-1.19238E+06
 -1       240-4.06858E+08 7.76071E+06 7.53191E+06-1.18406E+07 1.38069E+04-1.11510E+06
 -1       241-3.44245E+08 6.89820E+06 6.35623E+06-1.11002E+07-4.59121E+05-1.03218E+06
 -1       242-2.85960E+08 6.10472E+06 5.26170E+06-1.03000E+07-9.12248E+05-9.44660E+05
 -1       243-2.32334E+08 5.38633E+06 4.25563E+06-9.44100E+06-1.34352E+06-8.53361E+05
 -1       244-1.83701E+08 4.74971E+06 3.34509E+06-8.52685E+06-1.75218E+06-7.53146E+05
 -1       245-1.40419E+08 4.19791E+06 2.53030E+06-7.55671E+06-2.13975E+06-6.22514E+05
 -1       246-1.02873E+08 3.71618E+06 1.80160E+06-6.50134E+06-2.50566E+06-4.35892E+05
 -1       247-7.14512E+07 3.26183E+06 1.11046E+06-5.28715E+06-2.82868E+06-2.32610E+05
 -1       248-4.62099E+07 2.81162E+06 6.28666E+05-3.85499E+06-3.04653E+06-4.80726E+05
 -1       249-2.57563E+07 3.12175E+06 7.85888E+05-2.72442E+06-2.99989E+06-1.71321E+06
 -1       250-9.37956E+06 4.92507E+06 1.82538E+06-3.37130E+06-3.56898E+06-2.17767E+06
 -1       251 2.56297E+05 1.47036E+07 4.00038E+06-5.79860E+06-7.01614E+06-2.40625E+06
 -1       252 2.45818E+07 5.53523E+07 1.65303E+07 2.08472E+06 1.08296E+07-3.25140E+06
 -1       253 3.50281E+07 5.42696E+07 1.54245E+07 4.57856E+06 1.00300E+07-4.83956E+06
 -1       254 5.56507E+07 5.44018E+07 1.56955E+07 6.62934E+06 1.00204E+07-6.88362E+06
 -1       255 8.34936E+07 5.33910E+07 1.58579E+07 8.58568E+06 9.69460E+06-8.94445E+06
 -1       256 1.17831E+08 5.12403E+07 1.57471E+07 1.04708E+07 9.11830E+06-1.09516E+07
 -1       257 1.58639E+08 4.89105E+07 1.56694E+07 1.22806E+07 8.47136E+06-1.28738E+07
 -1       258 2.05667E+08 4.67180E+07 1.57150E+07 1.39909E+07 7.82297E+06-1.46901E+07
 -1       259 2.58553E+08 4.46816E+07 1.58860E+07 1.55952E+07 7.17534E+06-1.63917E+07
 -1       260 3.16913E+08 4.27585E+07 1.61646E+07 1.70945E+07 6.52218E+06-1.79820E+07
 -1       261 3.80375E+08 4.09295E+07 1.65398E+07 1.84907E+07 5.86147E+06-1.94635E+07
 -1       262 4.48575E+08 3.91943E+07 1.70063E+07 1.97851E+07 5.19498E+06-2.08377E+07
 -1       263 5.21155E+08 3.75575E+07 1.75607E+07 2.09792E+07 4.52541E+06-2.21059E+07
 -1       264 5.97762E+08 3.60239E+07 1.81991E+07 2.20745E+07 3.85541E+06-2.32699E+07
 -1       265 6.78047E+08 3.45974E+07 1.89181E+07 2.30729E+07 3.18746E+06-2.43315E+07
 -1       266 7.61673E+08 3.32823E+07 1.97139E+07 2.39767E+07 2.52401E+06-2.52934E+07
 -1       267 8.48306E+08 3.20831E+07 2.05834E+07 2.47886E+07 1.86761E+06-2.61583E+07
 -1       268 9.37626E+08 3.10063E+07 2.15237E+07 2.55116E+07 1.22104E+06-2.69295E+07
 -1       269 1.02932E+09 3.00615E+07 2.25335E+07 2.61493E+07 5.87705E+05-2.76108E+07
 -1       270 1.12310E+09 2.92582E+07 2.36110E+07 2.67052E+07-2.90108E+04-2.82064E+07
 -1       271 1.21867E+09 2.85882E+07 2.47503E+07 2.71819E+07-6.29421E+05-2.87187E+07
 -1       272 1.31574E+09 2.79845E+07 2.59242E+07 2.75808E+07-1.22447E+06-2.91481E+07
 -1       273 1.41403E+09 2.73619E+07 2.71180E+07 2.79095E+07-1.83349E+06-2.94953E+07
 -1       274 1.51333E+09 2.68569E+07 2.83131E+07 2.81956E+07-2.42210E+06-2.97828E+07
 -1       275 1.61407E+09 2.78379E+07 3.02206E+07 2.85040E+07-2.75597E+06-3.01270E+07
 -1       276 1.71576E+09 3.15391E+07 3.18431E+07 2.88260E+07-2.36969E+06-3.05625E+07
 -1       277 1.82096E+09 4.20266E+07 3.96450E+07 2.87082E+07-1.28126E+06-3.06016E+07
 -1       278 1.91505E+09 2.63166E+07 2.37842E+07 2.78057E+07-4.62992E+06-2.87085E+07
 -1       279 2.01723E+09-6.25309E+07 5.26716E+07 1.68925E+07-1.20466E+07-3.91442E+07
 -1       280 1.87402E+09-2.96168E+08-2.72072E+08 3.00819E+07-6.22318E+07 2.76940E+07
 -1       281 2.24882E+09 9.63795E+08 9.63796E+08 1.00884E+08 4.83296E+02-4.40577E+08
 -1       282 2.62313E+09 1.12421E+09 1.12422E+09 1.28994E+08 4.81587E+02-4.80828E+08
 -1       283 1.61834E+09-2.62810E+08-3.30815E+08 1.83455E+07 1.79142E+07 4.08513E+07
 -1       284 1.84044E+09 5.18405E+06 3.48773E+07 3.49523E+07 1.74160E+07 2.22150E+07
 -1       285 1.75464E+09-3.35767E+07-4.95197E+07 2.42630E+07 7.13130E+06-8.76058E+06
 -1       286 1.66822E+09-2.28068E+07-2.47811E+07 1.58245E+07 7.18193E+06-7.78553E+06
 -1       287 1.56597E+09-2.56914E+07-3.05370E+07 1.57301E+07 7.28511E+06-2.49443E+06
 -1       288 1.47419E+09-2.34808E+07-2.76618E+07 1.61698E+07 7.00315E+06-1.42150E+06
 -1       289 1.38275E+09-2.19165E+07-2.59559E+07 1.64720E+07 6.50936E+06-1.40061E+06
 -1       290 1.29202E+09-2.04801E+07-2.41074E+07 1.64141E+07 5.93071E+06-1.59604E+06
 -1       291 1.20197E+09-1.91594E+07-2.24229E+07 1.62192E+07 5.36126E+06-1.65593E+06
 -1       292 1.11300E+09-1.78637E+07-2.07639E+07 1.59858E+07 4.80306E+06-1.63047E+06
 -1       293 1.02542E+09-1.65878E+07-1.91296E+07 1.57245E+07 4.24883E+06-1.58459E+06
 -1       294 9.39477E+08-1.53375E+07-1.75204E+07 1.54233E+07 3.69561E+06-1.53897E+06
 -1       295 8.55429E+08-1.41204E+07-1.59450E+07 1.50737E+07 3.14470E+06-1.49328E+06
 -1       296 7.73544E+08-1.29414E+07-1.44099E+07 1.46725E+07 2.59847E+06-1.44400E+06
 -1       297 6.94106E+08-1.18044E+07-1.29205E+07 1.42180E+07 2.05922E+06-1.38950E+06
 -1       298 6.17411E+08-1.07135E+07-1.14824E+07 1.37089E+07 1.52906E+06-1.32945E+06
 -1       299 5.43762E+08-9.67295E+06-1.01010E+07 1.31437E+07 1.01005E+06-1.26379E+06
 -1       300 4.73471E+08-8.68717E+06-8.78219E+06 1.25214E+07 5.04261E+05-1.19238E+06
 -1       301 4.06858E+08-7.76071E+06-7.53191E+06 1.18406E+07 1.38069E+04-1.11510E+06
 -1       302 3.44245E+08-6.89820E+06-6.35623E+06 1.11002E+07-4.59121E+05-1.03218E+06
 -1       303 2.85960E+08-6.10471E+06-5.26170E+06 1.03000E+07-9.12248E+05-9.44660E+05
 -1       304 2.32334E+08-5.38633E+06-4.25563E+06 9.44100E+06-1.34352E+06-8.53361E+05
 -1       305 1.83701E+08-4.74971E+06-3.34509E+06 8.52685E+06-1.75218E+06-7.53146E+05
 -1       306 1.40419E+08-4.19791E+06-2.53030E+06 7.55671E+06-2.13975E+06-6.22514E+05
 -1       307 1.02873E+08-3.71618E+06-1.80160E+06 6.50134E+06-2.50566E+06-4.35892E+05
 -1       308 7.14512E+07-3.26183E+06-1.11046E+06 5.28715E+06-2.82868E+06-2.32610E+05
 -1       309 4.62099E+07-2.81162E+06-6.28666E+05 3.85499E+06-3.04653E+06-4.80726E+05
 -1       310 2.57563E+07-3.12175E+06-7.85888E+05 2.72442E+06-2.99989E+06-1.71321E+06
 -1       311 9.37956E+06-4.92507E+06-1.82538E+06 3.37130E+06-3.56898E+06-2.17767E+06
 -1       312-2.56297E+05-1.47036E+07-4.00038E+06 5.79860E+06-7.01614E+06-2.40625E+06
 -1       313 1.88954E+09-1.72028E+08-2.22221E+08 5.21851E+07 1.33444E+07 2.73817E+07
 -1       314 2.00265E+09 3.10909E+07 9.13120E+07 3.21156E+06 1.46009E+07 2.66709E+07
 -1       315 1.89315E+09 1.37356E+07 6.22689E+06 1.18630E+07 8.34200E+06-8.75003E+06
 -1       316 1.81547E+09 2.86596E+07 3.48325E+07 2.03016E+07 6.95113E+06-5.88462E+06
 -1       317 1.71328E+09 2.49355E+07 2.88458E+07 2.10460E+07 7.32158E+06-1.05270E+06
 -1       318 1.61337E+09 2.39521E+07 2.83208E+07 2.02293E+07 6.97784E+06 9.50481E+04
 -1       319 1.51229E+09 2.22681E+07 2.61610E+07 1.96826E+07 6.50389E+06 8.71768E+04
 -1       320 1.41232E+09 2.09177E+07 2.44018E+07 1.93915E+07 5.93445E+06-1.17690E+05
 -1       321 1.31351E+09 1.96406E+07 2.26790E+07 1.91621E+07 5.37778E+06-1.95186E+05
 -1       322 1.21600E+09 1.84065E+07 2.10166E+07 1.88802E+07 4.83141E+06-1.89919E+05
 -1       323 1.11998E+09 1.71934E+07 1.93743E+07 1.85323E+07 4.28940E+06-1.68514E+05
 -1       324 1.02573E+09 1.60103E+07 1.77589E+07 1.81244E+07 3.74893E+06-1.51497E+05
 -1       325 9.33519E+08 1.48643E+07 1.61775E+07 1.76598E+07 3.21129E+06-1.38782E+05
 -1       326 8.43666E+08 1.37602E+07 1.46372E+07 1.71371E+07 2.67876E+06-1.27020E+05
 -1       327 7.56480E+08 1.27014E+07 1.31434E+07 1.65536E+07 2.15356E+06-1.14774E+05
 -1       328 6.72286E+08 1.16917E+07 1.17017E+07 1.59066E+07 1.63775E+06-1.01861E+05
 -1       329 5.91416E+08 1.07350E+07 1.03176E+07 1.51943E+07 1.13333E+06-8.83639E+04
 -1       330 5.14212E+08 9.83549E+06 8.99692E+06 1.44149E+07 6.42322E+05-7.42670E+04
 -1       331 4.41025E+08 8.99740E+06 7.74563E+06 1.35672E+07 1.66785E+05-5.95368E+04
 -1       332 3.72209E+08 8.22510E+06 6.56984E+06 1.26502E+07-2.91144E+05-4.45014E+04
 -1       333 3.08125E+08 7.52338E+06 5.47618E+06 1.16625E+07-7.29248E+05-3.02534E+04
 -1       334 2.49142E+08 6.89823E+06 4.47216E+06 1.06018E+07-1.14552E+06-1.76844E+04
 -1       335 1.95626E+08 6.35631E+06 3.56424E+06 9.46323E+06-1.53914E+06-1.70981E+03
 -1       336 1.47932E+08 5.90026E+06 2.75300E+06 8.24707E+06-1.91157E+06 3.90563E+04
 -1       337 1.06374E+08 5.50885E+06 2.01622E+06 6.98068E+06-2.26148E+06 1.30851E+05
 -1       338 7.12955E+07 5.15342E+06 1.36742E+06 5.74494E+06-2.57297E+06 2.32130E+05
 -1       339 4.33740E+07 4.89659E+06 8.33051E+05 4.63176E+06-2.76927E+06-1.17486E+05
 -1       340 2.30718E+07 4.44667E+06 6.79281E+05 2.94056E+06-2.74062E+06-1.44096E+06
 -1       341 1.09670E+07 6.24810E+06 2.00282E+06 1.87328E+05-3.32747E+06-2.02150E+06
 -1       342 1.40213E+07 2.65680E+07 1.26644E+07-5.10172E+05-7.65730E+06-2.32026E+06
 -1       343-1.88954E+09 1.72028E+08 2.22221E+08 5.21851E+07-1.33444E+07 2.73817E+07
 -1       344-2.00265E+09-3.10909E+07-9.13120E+07 3.21156E+06-1.46009E+07 2.66709E+07
 -1       345-1.89315E+09-1.37356E+07-6.22689E+06 1.18630E+07-8.34200E+06-8.75003E+06
 -1       346-1.81547E+09-2.86596E+07-3.48325E+07 2.03016E+07-6.95113E+06-5.88462E+06
 -1       347-1.71328E+09-2.49355E+07-2.88458E+07 2.10460E+07-7.32158E+06-1.05270E+06
 -1       348-1.61337E+09-2.39521E+07-2.83208E+07 2.02293E+07-6.97784E+06 9.50481E+04
 -1       349-1.51229E+09-2.22681E+07-2.61610E+07 1.96826E+07-6.50389E+06 8.71767E+04
 -1       350-1.41232E+09-2.09177E+07-2.44018E+07 1.93915E+07-5.93445E+06-1.17690E+05
 -1       351-1.31351E+09-1.96406E+07-2.26790E+07 1.91621E+07-5.37778E+06-1.95186E+05
 -1       352-1.21600E+09-1.84065E+07-2.10166E+07 1.88802E+07-4.83141E+06-1.89919E+05
 -1       353-1.11998E+09-1.71934E+07-1.93743E+07 1.85323E+07-4.28940E+06-1.68514E+05
 -1       354-1.02573E+09-1.60103E+07-1.77589E+07 1.81244E+07-3.74893E+06-1.51497E+05
 -1       355-9.33519E+08-1.48643E+07-1.61775E+07 1.76598E+07-3.21129E+06-1.38782E+05
 -1       356-8.43666E+08-1.37602E+07-1.46372E+07 1.71371E+07-2.67876E+06-1.27020E+05
 -1       357-7.56480E+08-1.27014E+07-1.31434E+07 1.65536E+07-2.15356E+06-1.14774E+05
 -1       358-6.72286E+08-1.16917E+07-1.17017E+07 1.59066E+07-1.63775E+06-1.01861E+05
 -1       359-5.91416E+08-1.07350E+07-1.03176E+07 1.51943E+07-1.13333E+06-8.83640E+04
 -1       360-5.14212E+08-9.83549E+06-8.99692E+06 1.44149E+07-6.42322E+05-7.42670E+04
 -1       361-4.41025E+08-8.99740E+06-7.74563E+06 1.35672E+07-1.66785E+05-5.95368E+04
 -1       362-3.72209E+08-8.22510E+06-6.56984E+06 1.26502E+07 2.91144E+05-4.45014E+04
 -1       363-3.08125E+08-7.52338E+06-5.47618E+06 1.16625E+07 7.29248E+05-3.02534E+04
 -1       364-2.49142E+08-6.89823E+06-4.47216E+06 1.06018E+07 1.14552E+06-1.76843E+04
 -1       365-1.95626E+08-6.35631E+06-3.56424E+06 9.46323E+06 1.53914E+06-1.70981E+03
 -1       366-1.47932E+08-5.90026E+06-2.75300E+06 8.24707E+06 1.91157E+06 3.90563E+04
 -1       367-1.06374E+08-5.50885E+06-2.01622E+06 6.98068E+06 2.26148E+06 1.30851E+05
 -1       368-7.12955E+07-5.15342E+06-1.36742E+06 5.74494E+06 2.57297E+06 2.32130E+05
 -1       369-4.33740E+07-4.89659E+06-8.33051E+05 4.63176E+06 2.76927E+06-1.17485E+05
 -1       370-2.30718E+07-4.44667E+06-6.79281E+05 2.94056E+06 2.74062E+06-1.44096E+06
 -1       371-1.09670E+07-6.24810E+06-2.00282E+06 1.87328E+05 3.32747E+06-2.02150E+06
 -1       372-1.61834E+09 2.62810E+08 3.30815E+08 1.83455E+07-1.79142E+07 4.08513E+07
 -1       373-1.84044E+09-5.18405E+06-3.48773E+07 3.49523E+07-1.74160E+07 2.22150E+07
 -1       374-1.75464E+09 3.35767E+07 4.95197E+07 2.42630E+07-7.13130E+06-8.76058E+06
 -1       375-1.66822E+09 2.28068E+07 2.47811E+07 1.58245E+07-7.18193E+06-7.78553E+06
 -1       376-1.56597E+09 2.56914E+07 3.05370E+07 1.57301E+07-7.28511E+06-2.49443E+06
 -1       377-1.47419E+09 2.34808E+07 2.76618E+07 1.61698E+07-7.00315E+06-1.42150E+06
 -1       378-1.38275E+09 2.19165E+07 2.59559E+07 1.64720E+07-6.50936E+06-1.40061E+06
 -1       379-1.29202E+09 2.04801E+07 2.41074E+07 1.64141E+07-5.93071E+06-1.59604E+06
 -1       380-1.20197E+09 1.91594E+07 2.24229E+07 1.62192E+07-5.36126E+06-1.65593E+06
 -1       381-1.11300E+09 1.78637E+07 2.07639E+07 1.59858E+07-4.80306E+06-1.63047E+06
 -1       382-1.02542E+09 1.65878E+07 1.91296E+07 1.57245E+07-4.24883E+06-1.58459E+06
 -1       383-9.39477E+08 1.53375E+07 1.75204E+07 1.54233E+07-3.69561E+06-1.53897E+06
 -1       384-8.55429E+08 1.41204E+07 1.59450E+07 1.50737E+07-3.14470E+06-1.49328E+06
 -1       385-7.73544E+08 1.29414E+07 1.44099E+07 1.46725E+07-2.59847E+06-1.44400E+06
 -1       386-6.94106E+08 1.18044E+07 1.29205E+07 1.42180E+07-2.05922E+06-1.38950E+06
 -1       387-6.17411E+08 1.07135E+07 1.14824E+07 1.37089E+07-1.52906E+06-1.32945E+06
 -1       388-5.43762E+08 9.67295E+06 1.01010E+07 1.31437E+07-1.01005E+06-1.26379E+06
 -1       389-4.73471E+08 8.68717E+06 8.78219E+06 1.25214E+07-5.04261E+05-1.19238E+06
 -1       390-4.06858E+08 7.76071E+06 7.53191E+06 1.18406E+07-1.38069E+04-1.11510E+06
 -1       391-3.44245E+08 6.89820E+06 6.35623E+06 1.11002E+07 4.59121E+05-1.03218E+06
 -1       392-2.85960E+08 6.10471E+06 5.26170E+06 1.03000E+07 9.12248E+05-9.44660E+05
 -1       393-2.32334E+08 5.38633E+06 4.25563E+06 9.44100E+06 1.34352E+06-8.53361E+05
 -1       394-1.83701E+08 4.74971E+06 3.34509E+06 8.52685E+06 1.75218E+06-7.53146E+05
 -1       395-1.40419E+08 4.19791E+06 2.53030E+06 7.55671E+06 2.13975E+06-6.22514E+05
 -1       396-1.02873E+08 3.71618E+06 1.80160E+06 6.50134E+06 2.50566E+06-4.35892E+05
 -1       397-7.14512E+07 3.26183E+06 1.11046E+06 5.28715E+06 2.82868E+06-2.32610E+05
 -1       398-4.62099E+07 2.81162E+06 6.28666E+05 3.85499E+06 3.04653E+06-4.80726E+05
 -1       399-2.57563E+07 3.12175E+06 7.85888E+05 2.72442E+06 2.99989E+06-1.71321E+06
 -1       400-9.37956E+06 4.92507E+06 1.82538E+06 3.37130E+06 3.56898E+06-2.17767E+06
 -1       401-2.62313E+09-1.12421E+09-1.12422E+09 1.28994E+08-4.81587E+02-4.80828E+08
 -1       402-2.24882E+09-9.63795E+08-9.63796E+08 1.00884E+08-4.83296E+02-4.40577E+08
 -1       403-1.40213E+07-2.65680E+07-1.26644E+07-5.10172E+05 7.65730E+06-2.32026E+06
 -1       404-1.87402E+09 2.96168E+08 2.72072E+08 3.00819E+07 6.22318E+07 2.76940E+07
 -1       405-2.01723E+09 6.25309E+07-5.26716E+07 1.68925E+07 1.20466E+07-3.91442E+07
 -1       406-1.91505E+09-2.63166E+07-2.37842E+07 2.78057E+07 4.62992E+06-2.87085E+07
 -1       407-1.82096E+09-4.20266E+07-3.96450E+07 2.87082E+07 1.28126E+06-3.06016E+07
 -1       408-1.71576E+09-3.15391E+07-3.18431E+07 2.88260E+07 2.36969E+06-3.05625E+07
 -1       409-1.61407E+09-2.78379E+07-3.02206E+07 2.85040E+07 2.75597E+06-3.01270E+07
 -1       410-1.51333E+09-2.68569E+07-2.83131E+07 2.81956E+07 2.42210E+06-2.97828E+07
 -1       411-1.41403E+09-2.73619E+07-2.71180E+07 2.79095E+07 1.83349E+06-2.94953E+07
 -1       412-1.31574E+09-2.79845E+07-2.59242E+07 2.75808E+07 1.22447E+06-2.91481E+07
 -1       413-1.21867E+09-2.85882E+07-2.47503E+07 2.71819E+07 6.29421E+05-2.87187E+07
 -1       414-1.12310E+09-2.92582E+07-2.36110E+07 2.67052E+07 2.90108E+04-2.82064E+07
 -1       415-1.02932E+09-3.00615E+07-2.25335E+07 2.61493E+07-5.87705E+05-2.76108E+07
 -1       416-9.37626E+08-3.10063E+07-2.15237E+07 2.55116E+07-1.22104E+06-2.69295E+07
 -1       417-8.48306E+08-3.20831E+07-2.05834E+07 2.47886E+07-1.86761E+06-2.61583E+07
 -1       418-7.61673E+08-3.32823E+07-1.97139E+07 2.39767E+07-2.52401E+06-2.52934E+07
 -1       419-6.78047E+08-3.45974E+07-1.89181E+07 2.30729E+07-3.18746E+06-2.43315E+07
 -1       420-5.97762E+08-3.60239E+07-1.81991E+07 2.20745E+07-3.85541E+06-2.32699E+07
 -1       421-5.21155E+08-3.75575E+07-1.75607E+07 2.09792E+07-4.52541E+06-2.21059E+07
 -1       422-4.48575E+08-3.91943E+07-1.70063E+07 1.97851E+07-5.19498E+06-2.08377E+07
 -1       423-3.80375E+08-4.09295E+07-1.65398E+07 1.84907E+07-5.86147E+06-1.94635E+07
 -1       424-3.16913E+08-4.27585E+07-1.61646E+07 1.70945E+07-6.52218E+06-1.79820E+07
 -1       425-2.58553E+08-4.46816E+07-1.58860E+07 1.55952E+07-7.17534E+06-1.63917E+07
 -1       426-2.05667E+08-4.67180E+07-1.57150E+07 1.39909E+07-7.82297E+06-1.46901E+07
 -1       427-1.58639E+08-4.89105E+07-1.56694E+07 1.22806E+07-8.47136E+06-1.28738E+07
 -1       428-1.17831E+08-5.12403E+07-1.57471E+07 1.04708E+07-9.11830E+06-1.09516E+07
 -1       429-8.34936E+07-5.33910E+07-1.58579E+07 8.58568E+06-9.69460E+06-8.94445E+06
 -1       430-5.56507E+07-5.44018E+07-1.56955E+07 6.62934E+06-1.00204E+07-6.88362E+06
 -1       431-3.50281E+07-5.42696E+07-1.54245E+07 4.57856E+06-1.00300E+07-4.83956E+06
 -1       432-2.45818E+07-5.53523E+07-1.65303E+07 2.08472E+06-1.08296E+07-3.25140E+06
 -1       433 2.56297E+05 1.47036E+07 4.00038E+06 5.79860E+06 7.01614E+06-2.40625E+06
 -1       434 2.62313E+09 1.12421E+09 1.12422E+09-1.28994E+08-4.81587E+02-4.80828E+08
 -1       435 2.24882E+09 9.63795E+08 9.63796E+08-1.00884E+08-4.83296E+02-4.40577E+08
 -1       436 2.45818E+07 5.53523E+07 1.65303E+07-2.08472E+06-1.08296E+07-3.25140E+06
 -1       437 3.50281E+07 5.42696E+07 1.54245E+07-4.57856E+06-1.00300E+07-4.83956E+06
 -1       438 5.56507E+07 5.44018E+07 1.56955E+07-6.62934E+06-1.00204E+07-6.88362E+06
 -1       439 8.34936E+07 5.33910E+07 1.58579E+07-8.58568E+06-9.69460E+06-8.94445E+06
 -1       440 1.17831E+08 5.12403E+07 1.57471E+07-1.04708E+07-9.11830E+06-1.09516E+07
 -1       441 1.58639E+08 4.89105E+07 1.56694E+07-1.22806E+07-8.47136E+06-1.28738E+07
 -1       442 2.05667E+08 4.67180E+07 1.57150E+07-1.39909E+07-7.82297E+06-1.46901E+07
 -1       443 2.58553E+08 4.46816E+07 1.58860E+07-1.55952E+07-7.17534E+06-1.63917E+07
 -1       444 3.16913E+08 4.27585E+07 1.61646E+07-1.70945E+07-6.52218E+06-1.79820E+07
 -1       445 3.80375E+08 4.09295E+07 1.65398E+07-1.84907E+07-5.86147E+06-1.94635E+07
 -1       446 4.48575E+08 3.91943E+07 1.70063E+07-1.97851E+07-5.19498E+06-2.08377E+07
 -1       447 5.21155E+08 3.75575E+07 1.75607E+07-2.09792E+07-4.52541E+06-2.21059E+07
 -1       448 5.97762E+08 3.60239E+07 1.81991E+07-2.20745E+07-3.85541E+06-2.32699E+07
 -1       449 6.78047E+08 3.45974E+07 1.89181E+07-2.30729E+07-3.18746E+06-2.43315E+07
 -1       450 7.61673E+08 3.32823E+07 1.97139E+07-2.39767E+07-2.52401E+06-2.52934E+07
 -1       451 8.48306E+08 3.20831E+07 2.05834E+07-2.47886E+07-1.86761E+06-2.61583E+07
 -1       452 9.37626E+08 3.10063E+07 2.15237E+07-2.55116E+07-1.22104E+06-2.69295E+07
 -1       453 1.02932E+09 3.00615E+07 2.25335E+07-2.61493E+07-5.87705E+05-2.76108E+07
 -1       454 1.12310E+09 2.92582E+07 2.36110E+07-2.67052E+07 2.90108E+04-2.82064E+07
 -1       455 1.21867E+09 2.85882E+07 2.47503E+07-2.71819E+07 6.29421E+05-2.87187E+07
 -1       456 1.31574E+09 2.79845E+07 2.59242E+07-2.75808E+07 1.22447E+06-2.91481E+07
 -1       457 1.41403E+09 2.73619E+07 2.71180E+07-2.79095E+07 1.83349E+06-2.94953E+07
 -1       458 1.51333E+09 2.68569E+07 2.83131E+07-2.81956E+07 2.42210E+06-2.97828E+07
 -1       459 1.61407E+09 2.78379E+07 3.02206E+07-2.85040E+07 2.75597E+06-3.01270E+07
 -1       460 1.71576E+09 3.15391E+07 3.18431E+07-2.88260E+07 2.36969E+06-3.05625E+07
 -1       461 1.82096E+09 4.20266E+07 3.96450E+07-2.87082E+07 1.28126E+06-3.06016E+07
 -1       462 1.91505E+09 2.63166E+07 2.37842E+07-2.78057E+07 4.62992E+06-2.87085E+07
 -1       463 2.01723E+09-6.25309E+07 5.26716E+07-1.68925E+07 1.20466E+07-3.91442E+07
 -1       464 1.87402E+09-2.96168E+08-2.72072E+08-3.00819E+07 6.22318E+07 2.76940E+07
 -1       465 1.40213E+07 2.65680E+07 1.26644E+07 5.10172E+05 7.65730E+06-2.32026E+06
 -1       466 1.88954E+09-1.72028E+08-2.22221E+08-5.21851E+07-1.33444E+07 2.73817E+07
 -1       467 2.00265E+09 3.10909E+07 9.13120E+07-3.21156E+06-1.46009E+07 2.66709E+07
 -1       468 1.89315E+09 1.37356E+07 6.22689E+06-1.18630E+07-8.34200E+06-8.75003E+06
 -1       469 1.81547E+09 2.86596E+07 3.48325E+07-2.03016E+07-6.95113E+06-5.88462E+06
 -1       470 1.71328E+09 2.49355E+07 2.88458E+07-2.10460E+07-7.32158E+06-1.05270E+06
 -1       471 1.61337E+09 2.39521E+07 2.83208E+07-2.02293E+07-6.97784E+06 9.50481E+04
 -1       472 1.51229E+09 2.22681E+07 2.61610E+07-1.96826E+07-6.50389E+06 8.71767E+04
 -1       473 1.41232E+09 2.09177E+07 2.44018E+07-1.93915E+07-5.93445E+06-1.17690E+05
 -1       474 1.31351E+09 1.96406E+07 2.26790E+07-1.91621E+07-5.37778E+06-1.95186E+05
 -1       475 1.21600E+09 1.84065E+07 2.10166E+07-1.88802E+07-4.83141E+06-1.89919E+05
 -1       476 1.11998E+09 1.71934E+07 1.93743E+07-1.85323E+07-4.28940E+06-1.68514E+05
 -1       477 1.02573E+09 1.60103E+07 1.77589E+07-1.81244E+07-3.74893E+06-1.51497E+05
 -1       478 9.33519E+08 1.48643E+07 1.61775E+07-1.76598E+07-3.21129E+06-1.38782E+05
 -1       479 8.43666E+08 1.37602E+07 1.46372E+07-1.71371E+07-2.67876E+06-1.27020E+05
 -1       480 7.56480E+08 1.27014E+07 1.31434E+07-1.65536E+07-2.15356E+06-1.14774E+05
 -1       481 6.72286E+08 1.16917E+07 1.17017E+07-1.59066E+07-1.63775E+06-1.01861E+05
 -1       482 5.91416E+08 1.07350E+07 1.03176E+07-1.51943E+07-1.13333E+06-8.83640E+04
 -1       483 5.14212E+08 9.83549E+06 8.99692E+06-1.44149E+07-6.42322E+05-7.42670E+04
 -1       484 4.41025E+08 8.99740E+06 7.74563E+06-1.35672E+07-1.66785E+05-5.95368E+04
 -1       485 3.72209E+08 8.22510E+06 6.56984E+06-1.26502E+07 2.91144E+05-4.45014E+04
 -1       486 3.08125E+08 7.52338E+06 5.47618E+06-1.16625E+07 7.29248E+05-3.02534E+04
 -1       487 2.49142E+08 6.89823E+06 4.47216E+06-1.06018E+07 1.14552E+06-1.76843E+04
 -1       488 1.95626E+08 6.35631E+06 3.56424E+06-9.46323E+06 1.53914E+06-1.70981E+03
 -1       489 1.47932E+08 5.90026E+06 2.75300E+06-8.24707E+06 1.91157E+06 3.90563E+04
 -1       490 1.06374E+08 5.50885E+06 2.01622E+06-6.98068E+06 2.26148E+06 1.30851E+05
 -1       491 7.12955E+07 5.15342E+06 1.36742E+06-5.74494E+06 2.57297E+06 2.32130E+05
 -1       492 4.33740E+07 4.89659E+06 8.33051E+05-4.63176E+06 2.76927E+06-1.17485E+05
 -1       493 2.30718E+07 4.44667E+06 6.79281E+05-2.94056E+06 2.74062E+06-1.44096E+06
 -1       494 1.09670E+07 6.24810E+06 2.00282E+06-1.87328E+05 3.32747E+06-2.02150E+06
 -1       495 1.61834E+09-2.62810E+08-3.30815E+08-1.83455E+07-1.79142E+07 4.08513E+07
 -1       496 1.84044E+09 5.18405E+06 3.48773E+07-3.49523E+07-1.74160E+07 2.22150E+07
 -1       497 1.75464E+09-3.35767E+07-4.95197E+07-2.42630E+07-7.13130E+06-8.76058E+06
 -1       498 1.66822E+09-2.28068E+07-2.47811E+07-1.58245E+07-7.18193E+06-7.78553E+06
 -1       499 1.56597E+09-2.56914E+07-3.05370E+07-1.57301E+07-7.28511E+06-2.49443E+06
 -1       500 1.47419E+09-2.34808E+07-2.76618E+07-1.61698E+07-7.00315E+06-1.42150E+06
 -1       501 1.38275E+09-2.19165E+07-2.59559E+07-1.64720E+07-6.50936E+06-1.40061E+06
 -1       502 1.29202E+09-2.04801E+07-2.41074E+07-1.64141E+07-5.93071E+06-1.59604E+06
 -1       503 1.20197E+09-1.91594E+07-2.24229E+07-1.62192E+07-5.36126E+06-1.65593E+06
 -1       504 1.11300E+09-1.78637E+07-2.07639E+07-1.59858E+07-4.80306E+06-1.63047E+06
 -1       505 1.02542E+09-1.65878E+07-1.91296E+07-1.57245E+07-4.24883E+06-1.58459E+06
 -1       506 9.39477E+08-1.53375E+07-1.75204E+07-1.54233E+07-3.69561E+06-1.53897E+06
 -1       507 8.55429E+08-1.41204E+07-1.59450E+07-1.50737E+07-3.14470E+06-1.49328E+06
 -1       508 7.73544E+08-1.29414E+07-1.44099E+07-1.46725E+07-2.59847E+06-1.44400E+06
 -1       509 6.94106E+08-1.18044E+07-1.29205E+07-1.42180E+07-2.05922E+06-1.38950E+06
 -1       510 6.17411E+08-1.07135E+07-1.14824E+07-1.37089E+07-1.52906E+06-1.32945E+06
 -1       511 5.43762E+08-9.67295E+06-1.01010E+07-1.31437E+07-1.01005E+06-1.26379E+06
 -1       512 4.73471E+08-8.68717E+06-8.78219E+06-1.25214E+07-5.04261E+05-1.19238E+06
 -1       513 4.06858E+08-7.76071E+06-7.53191E+06-1.18406E+07-1.38069E+04-1.11510E+06
 -1       514 3.44245E+08-6.89820E+06-6.35623E+06-1.11002E+07 4.59121E+05-1.03218E+06
 -1       515 2.85960E+08-6.10471E+06-5.26170E+06-1.03000E+07 9.12248E+05-9.44660E+05
 -1       516 2.32334E+08-5.38633E+06-4.25563E+06-9.44100E+06 1.34352E+06-8.53361E+05
 -1       517 1.83701E+08-4.74971E+06-3.34509E+06-8.52685E+06 1.75218E+06-7.53146E+05
 -1       518 1.40419E+08-4.19791E+06-2.53030E+06-7.55671E+06 2.13975E+06-6.22514E+05
 -1       519 1.02873E+08-3.71618E+06-1.80160E+06-6.50134E+06 2.50566E+06-4.35892E+05
 -1       520 7.14512E+07-3.26183E+06-1.11046E+06-5.28715E+06 2.82868E+06-2.32610E+05
 -1       521 4.62099E+07-2.81162E+06-6.28666E+05-3.85499E+06 3.04653E+06-4.80726E+05
 -1       522 2.57563E+07-3.12175E+06-7.85888E+05-2.72442E+06 2.99989E+06-1.71321E+06
 -1       523 9.37956E+06-4.92507E+06-1.82538E+06-3.37130E+06 3.56898E+06-2.17767E+06
 -1       524-2.56297E+05-1.47036E+07-4.00038E+06-5.79860E+06 7.01614E+06-2.40625E+06
 -1       525-8.49222E+08 1.51547E+08-1.43157E+07-2.17146E+06 6.68490E+06-2.84413E+08
 -1       526-9.54756E+08-2.71809E+07-1.11318E+07 1.17939E+06 4.98227E+06-3.26419E+08
 -1       527-9.01918E+08-3.30633E+06-2.38505E+06 1.58071E+05 5.01766E+06-3.35235E+08
 -1       528-8.50040E+08-1.32178E+07-5.59084E+06 3.06627E+05 4.71359E+06-3.32893E+08
 -1       529-7.96920E+08-9.46808E+06-4.32402E+06 2.17491E+05 4.46656E+06-3.30386E+08
 -1       530-7.49059E+08-8.87751E+06-4.43596E+06 2.26238E+05 4.19425E+06-3.27890E+08
 -1       531-7.02152E+08-8.27077E+06-3.90766E+06 2.26323E+05 3.93417E+06-3.25437E+08
 -1       532-6.55931E+08-7.95414E+06-3.25883E+06 2.26339E+05 3.67620E+06-3.22423E+08
 -1       533-6.10171E+08-7.65226E+06-2.59310E+06 2.24074E+05 3.42114E+06-3.18651E+08
 -1       534-5.64958E+08-7.36133E+06-1.93386E+06 2.21195E+05 3.16914E+06-3.14055E+08
 -1       535-5.20428E+08-7.07951E+06-1.26595E+06 2.17749E+05 2.92105E+06-3.08602E+08
 -1       536-4.76722E+08-6.81692E+06-5.84176E+05 2.13732E+05 2.67764E+06-3.02250E+08
 -1       537-4.33974E+08-6.57595E+06 1.10542E+05 2.09050E+05 2.43966E+06-2.94953E+08
 -1       538-3.92323E+08-6.35714E+06 8.14730E+05 2.03657E+05 2.20787E+06-2.86666E+08
 -1       539-3.51913E+08-6.16063E+06 1.52512E+06 1.97524E+05 1.98308E+06-2.77349E+08
 -1       540-3.12893E+08-5.98690E+06 2.23879E+06 1.90631E+05 1.76611E+06-2.66969E+08
 -1       541-2.75420E+08-5.83668E+06 2.95301E+06 1.82961E+05 1.55783E+06-2.55495E+08
 -1       542-2.39650E+08-5.71080E+06 3.66511E+06 1.74496E+05 1.35913E+06-2.42901E+08
 -1       543-2.05746E+08-5.61009E+06 4.37236E+06 1.65222E+05 1.17090E+06-2.29164E+08
 -1       544-1.73874E+08-5.53538E+06 5.07200E+06 1.55125E+05 9.94055E+05-2.14267E+08
 -1       545-1.44198E+08-5.48756E+06 5.76116E+06 1.44203E+05 8.29530E+05-1.98195E+08
 -1       546-1.16889E+08-5.46836E+06 6.43756E+06 1.32467E+05 6.78268E+05-1.80935E+08
 -1       547-9.21223E+07-5.48151E+06 7.10123E+06 1.19927E+05 5.41239E+05-1.62477E+08
 -1       548-7.00774E+07-5.53146E+06 7.75630E+06 1.06523E+05 4.19443E+05-1.42807E+08
 -1       549-5.09294E+07-5.61591E+06 8.39827E+06 9.18918E+04 3.13889E+05-1.21915E+08
 -1       550-3.48302E+07-5.70298E+06 8.97780E+06 7.53271E+04 2.25002E+05-9.98384E+07
 -1       551-2.18118E+07-5.67490E+06 9.44738E+06 5.78597E+04 1.52623E+05-7.67040E+07
 -1       552-1.20837E+07-5.70669E+06 9.54146E+06 4.08951E+04 9.73789E+04-5.28100E+07
 -1       553-6.65924E+06-6.03418E+06 9.58152E+06 4.82125E+04 7.54142E+04-2.77565E+07
 -1       554-1.81190E-02 9.54819E-03-2.74471E-03 4.46518E-03 7.28254E+06-2.77984E+08
 -1       555-2.13895E-02 3.86096E-03-6.79101E-03 5.03173E-04 4.65730E+06-3.47415E+08
 -1       556-3.22885E-02 7.49717E-03-8.79855E-03-5.24284E-03 4.75303E+06-3.61413E+08
 -1       557-4.21720E-02 3.82529E-03-7.90730E-03-5.66682E-03 4.31827E+06-3.56610E+08
 -1       558-4.42177E-02-2.23330E-03-8.12498E-03-4.85233E-03 4.09539E+06-3.52628E+08
 -1       559-4.29608E-02-4.78114E-03-1.50512E-02-5.43715E-04 3.85180E+06-3.49680E+08
 -1       560-3.96228E-02-6.06488E-03-1.44790E-02 2.29179E-03 3.61016E+06-3.46964E+08
 -1       561-4.64198E-02-6.47079E-03-1.12943E-02-4.87739E-03 3.36639E+06-3.43752E+08
 -1       562-5.74076E-02-9.86390E-03-7.09860E-03-6.90680E-03 3.12472E+06-3.39741E+08
 -1       563-5.97221E-02-1.25460E-02-1.54189E-02-1.49319E-03 2.88580E+06-3.34847E+08
 -1       564-5.03481E-02-1.40272E-02-1.78698E-02-2.96901E-04 2.65031E+06-3.29035E+08
 -1       565-4.05148E-02-1.29245E-02-2.23334E-02 2.28118E-04 2.41878E+06-3.22263E+08
 -1       566-3.32487E-02-9.50963E-03-1.65223E-02 6.90044E-03 2.19190E+06-3.14483E+08
 -1       567-2.43115E-02-1.25425E-03 9.28879E-04 8.40310E-03 1.97041E+06-3.05648E+08
 -1       568-1.80051E-02 2.55293E-03 5.05380E-03-2.10122E-03 1.75510E+06-2.95715E+08
 -1       569-1.71334E-02 6.07211E-04-6.09394E-04-3.79461E-03 1.54677E+06-2.84648E+08
 -1       570-2.07855E-02-3.51417E-03-9.00091E-03-2.90713E-03 1.34624E+06-2.72416E+08
 -1       571-2.34601E-02-6.00106E-03-1.51808E-02-2.38106E-03 1.15436E+06-2.58988E+08
 -1       572-2.09496E-02-4.99808E-03-7.28828E-03 4.44167E-03 9.71986E+05-2.44343E+08
 -1       573-1.77538E-02 2.92688E-03 1.14139E-02 7.13976E-03 7.99997E+05-2.28461E+08
 -1       574-1.85933E-02 5.03224E-03 2.02596E-02 2.39479E-03 6.39278E+05-2.11325E+08
 -1       575-1.82484E-02 3.40599E-03 2.05654E-02-4.58135E-03 4.90714E+05-1.92924E+08
 -1       576-1.69505E-02 4.64755E-03 1.39019E-02-1.57168E-03 3.55167E+05-1.73243E+08
 -1       577-1.08433E-02 2.23842E-03 9.40967E-03 3.93062E-03 2.33498E+05-1.52267E+08
 -1       578 5.72939E-04 4.38369E-03 7.26219E-03 7.59355E-04 1.26701E+05-1.29988E+08
 -1       579 9.35139E-03 5.24675E-03 2.20765E-03-1.94728E-03 3.64111E+04-1.06451E+08
 -1       580 9.40638E-03 6.87015E-04 3.61468E-03-2.72334E-03-3.48585E+04-8.18230E+07
 -1       581-3.46169E-04-2.70139E-05 3.08004E-03-2.19073E-03-8.76848E+04-5.62852E+07
 -1       582-5.02039E-03 2.16733E-03 9.42066E-03 2.73755E-03-1.22569E+05-2.93377E+07
 -1       583 8.49222E+08-1.51547E+08 1.43157E+07 2.17146E+06 6.68490E+06-2.84413E+08
 -1       584 9.54756E+08 2.71809E+07 1.11318E+07-1.17939E+06 4.98227E+06-3.26419E+08
 -1       585 9.01918E+08 3.30633E+06 2.38505E+06-1.58071E+05 5.01766E+06-3.35235E+08
 -1       586 8.50040E+08 1.32178E+07 5.59084E+06-3.06627E+05 4.71359E+06-3.32893E+08
 -1       587 7.96920E+08 9.46808E+06 4.32402E+06-2.17491E+05 4.46656E+06-3.30386E+08
 -1       588 7.49059E+08 8.87751E+06 4.43596E+06-2.26238E+05 4.19425E+06-3.27890E+08
 -1       589 7.02152E+08 8.27077E+06 3.90766E+06-2.26323E+05 3.93417E+06-3.25437E+08
 -1       590 6.55931E+08 7.95414E+06 3.25883E+06-2.26339E+05 3.67620E+06-3.22423E+08
 -1       591 6.10171E+08 7.65226E+06 2.59310E+06-2.24074E+05 3.42114E+06-3.18651E+08
 -1       592 5.64958E+08 7.36133E+06 1.93386E+06-2.21195E+05 3.16914E+06-3.14055E+08
 -1       593 5.20428E+08 7.07951E+06 1.26595E+06-2.17749E+05 2.92105E+06-3.08602E+08
 -1       594 4.76722E+08 6.81692E+06 5.84176E+05-2.13732E+05 2.67764E+06-3.02250E+08
 -1       595 4.33974E+08 6.57595E+06-1.10542E+05-2.09050E+05 2.43966E+06-2.94953E+08
 -1       596 3.92323E+08 6.35714E+06-8.14730E+05-2.03656E+05 2.20787E+06-2.86666E+08
 -1       597 3.51913E+08 6.16063E+06-1.52512E+06-1.97524E+05 1.98308E+06-2.77349E+08
 -1       598 3.12893E+08 5.98690E+06-2.23879E+06-1.90631E+05 1.76611E+06-2.66969E+08
 -1       599 2.75420E+08 5.83668E+06-2.95301E+06-1.82961E+05 1.55783E+06-2.55495E+08
 -1       600 2.39650E+08 5.71080E+06-3.66511E+06-1.74496E+05 1.35913E+06-2.42901E+08
 -1       601 2.05746E+08 5.61009E+06-4.37236E+06-1.65222E+05 1.17090E+06-2.29164E+08
 -1       602 1.73874E+08 5.53538E+06-5.07200E+06-1.55125E+05 9.94055E+05-2.14267E+08
 -1       603 1.44198E+08 5.48756E+06-5.76116E+06-1.44203E+05 8.29530E+05-1.98195E+08
 -1       604 1.16889E+08 5.46836E+06-6.43756E+06-1.32467E+05 6.78268E+05-1.80935E+08
 -1       605 9.21223E+07 5.48151E+06-7.10123E+06-1.19927E+05 5.41239E+05-1.62477E+08
 -1       606 7.00774E+07 5.53146E+06-7.75630E+06-1.06523E+05 4.19443E+05-1.42807E+08
 -1       607 5.09294E+07 5.61591E+06-8.39827E+06-9.18918E+04 3.13889E+05-1.21915E+08
 -1       608 3.48302E+07 5.70298E+06-8.97780E+06-7.53271E+04 2.25002E+05-9.98384E+07
 -1       609 2.18118E+07 5.67490E+06-9.44738E+06-5.78598E+04 1.52623E+05-7.67040E+07
 -1       610 1.20837E+07 5.70669E+06-9.54146E+06-4.08951E+04 9.73789E+04-5.28100E+07
 -1       611 6.65924E+06 6.03418E+06-9.58152E+06-4.82125E+04 7.54142E+04-2.77565E+07
 -1       612 8.49222E+08-1.51547E+08 1.43157E+07-2.17146E+06-6.68490E+06-2.84413E+08
 -1       613 9.54756E+08 2.71809E+07 1.11318E+07 1.17939E+06-4.98227E+06-3.26419E+08
 -1       614 9.01918E+08 3.30633E+06 2.38505E+06 1.58071E+05-5.01766E+06-3.35235E+08
 -1       615 8.50040E+08 1.32178E+07 5.59084E+06 3.06627E+05-4.71359E+06-3.32893E+08
 -1       616 7.96920E+08 9.46808E+06 4.32402E+06 2.17491E+05-4.46656E+06-3.30386E+08
 -1       617 7.49059E+08 8.87751E+06 4.43596E+06 2.26238E+05-4.19425E+06-3.27890E+08
 -1       618 7.02152E+08 8.27077E+06 3.90766E+06 2.26323E+05-3.93417E+06-3.25437E+08
 -1       619 6.55931E+08 7.95414E+06 3.25883E+06 2.26339E+05-3.67620E+06-3.22423E+08
 -1       620 6.10171E+08 7.65226E+06 2.59310E+06 2.24074E+05-3.42114E+06-3.18651E+08
 -1       621 5.64958E+08 7.36133E+06 1.93386E+06 2.21195E+05-3.16914E+06-3.14055E+08
 -1       622 5.20428E+08 7.07951E+06 1.26595E+06 2.17749E+05-2.92105E+06-3.08602E+08
 -1       623 4.76722E+08 6.81692E+06 5.84176E+05 2.13732E+05-2.67764E+06-3.02250E+08
 -1       624 4.33974E+08 6.57595E+06-1.10542E+05 2.09050E+05-2.43966E+06-2.94953E+08
 -1       625 3.92323E+08 6.35714E+06-8.14730E+05 2.03656E+05-2.20787E+06-2.86666E+08
 -1       626 3.51913E+08 6.16063E+06-1.52512E+06 1.97524E+05-1.98308E+06-2.77349E+08
 -1       627 3.12893E+08 5.98690E+06-2.23879E+06 1.90631E+05-1.76611E+06-2.66969E+08
 -1       628 2.75420E+08 5.83668E+06-2.95301E+06 1.82961E+05-1.55783E+06-2.55495E+08
 -1       629 2.39650E+08 5.71080E+06-3.66511E+06 1.74496E+05-1.35913E+06-2.42901E+08
 -1       630 2.05746E+08 5.61009E+06-4.37236E+06 1.65222E+05-1.17090E+06-2.29164E+08
 -1       631 1.73874E+08 5.53538E+06-5.07200E+06 1.55125E+05-9.94055E+05-2.14267E+08
 -1       632 1.44198E+08 5.48756E+06-5.76116E+06 1.44203E+05-8.29530E+05-1.98195E+08
 -1       633 1.16889E+08 5.46836E+06-6.43756E+06 1.32467E+05-6.78268E+05-1.80935E+08
 -1       634 9.21223E+07 5.48151E+06-7.10123E+06 1.19927E+05-5.41239E+05-1.62477E+08
 -1       635 7.00774E+07 5.53146E+06-7.75630E+06 1.06523E+05-4.19443E+05-1.42807E+08
 -1       636 5.09294E+07 5.61591E+06-8.39827E+06 9.18918E+04-3.13889E+05-1.21915E+08
 -1       637 3.48302E+07 5.70298E+06-8.97780E+06 7.53271E+04-2.25002E+05-9.98384E+07
 -1       638 2.18118E+07 5.67490E+06-9.44738E+06 5.78597E+04-1.52623E+05-7.67040E+07
 -1       639 1.20837E+07 5.70669E+06-9.54146E+06 4.08951E+04-9.73789E+04-5.28100E+07
 -1       640 6.65924E+06 6.03418E+06-9.58152E+06 4.82125E+04-7.54142E+04-2.77565E+07
 -1       641-4.45778E-02-2.70891E-03-1.71426E-02 4.66896E-03-7.28254E+06-2.77984E+08
 -1       642-5.30913E-02-1.14283E-02-2.60536E-02 5.69562E-04-4.65730E+06-3.47415E+08
 -1       643-5.73803E-02-4.21776E-03-2.27565E-02-5.13514E-03-4.75303E+06-3.61413E+08
 -1       644-5.26034E-02 3.34851E-04-9.11067E-03-5.77242E-03-4.31827E+06-3.56610E+08
 -1       645-4.03383E-02 2.35447E-03 3.28823E-03-4.95442E-03-4.09539E+06-3.52628E+08
 -1       646-3.08072E-02 4.49914E-03 3.72965E-03-5.97842E-04-3.85180E+06-3.49680E+08
 -1       647-2.75184E-02 3.20940E-03 4.33098E-03 2.26207E-03-3.61016E+06-3.46964E+08
 -1       648-2.95281E-02 5.48652E-03 1.16717E-02-4.88758E-03-3.36639E+06-3.43752E+08
 -1       649-2.56283E-02 1.02336E-02 2.81136E-02-6.92179E-03-3.12472E+06-3.39741E+08
 -1       650-1.78656E-02 1.27005E-02 2.68796E-02-1.54201E-03-2.88580E+06-3.34847E+08
 -1       651-6.98198E-03 1.13875E-02 2.34799E-02-3.64327E-04-2.65031E+06-3.29035E+08
 -1       652-3.16761E-05 9.52115E-03 1.20024E-02 2.11795E-04-2.41878E+06-3.22263E+08
 -1       653-4.49127E-03 5.24801E-03 3.91250E-03 6.89709E-03-2.19190E+06-3.14483E+08
 -1       654-1.60469E-02 1.58281E-03 2.12110E-03 8.41978E-03-1.97041E+06-3.05648E+08
 -1       655-1.91090E-02-1.53061E-04-2.86224E-03-2.09748E-03-1.75510E+06-2.95715E+08
 -1       656-1.10964E-02 2.29877E-03-1.00782E-03-3.81257E-03-1.54677E+06-2.84648E+08
 -1       657-5.53602E-03 4.16869E-03 1.35918E-03-2.91172E-03-1.34624E+06-2.72416E+08
 -1       658-9.63697E-04 6.52974E-03 4.09219E-03-2.41280E-03-1.15436E+06-2.58988E+08
 -1       659-2.49115E-03 5.03254E-03 7.68863E-03 4.42916E-03-9.71986E+05-2.44343E+08
 -1       660-1.43846E-02 4.30043E-03 1.26233E-02 7.15761E-03-7.99997E+05-2.28461E+08
 -1       661-2.81326E-02-1.14166E-03 9.21930E-03 2.36213E-03-6.39278E+05-2.11325E+08
 -1       662-2.74860E-02-3.17517E-03 7.86589E-03-4.56601E-03-4.90714E+05-1.92924E+08
 -1       663-2.06682E-02 6.66017E-04 4.34778E-03-1.57260E-03-3.55167E+05-1.73243E+08
 -1       664-1.80152E-02-3.83640E-03-3.66778E-03 3.87147E-03-2.33498E+05-1.52267E+08
 -1       665-1.28102E-02-5.44860E-03-1.21290E-02 7.43899E-04-1.26701E+05-1.29988E+08
 -1       666-2.55278E-03-3.97312E-03-1.66211E-02-2.03469E-03-3.64111E+04-1.06451E+08
 -1       667 3.81394E-03-5.04211E-03-9.88995E-03-2.76711E-03 3.48586E+04-8.18230E+07
 -1       668 2.22582E-03-3.65370E-04-6.19797E-04-2.12558E-03 8.76848E+04-5.62852E+07
 -1       669-6.33484E-04 3.79579E-03 1.04620E-02 2.59767E-03 1.22569E+05-2.93377E+07
 -1       670-8.49222E+08 1.51547E+08-1.43157E+07 2.17146E+06-6.68490E+06-2.84413E+08
 -1       671-9.54756E+08-2.71809E+07-1.11318E+07-1.17939E+06-4.98227E+06-3.26419E+08
 -1       672-9.01918E+08-3.30633E+06-2.38505E+06-1.58071E+05-5.01766E+06-3.35235E+08
 -1       673-8.50040E+08-1.32178E+07-5.59084E+06-3.06627E+05-4.71359E+06-3.32893E+08
 -1       674-7.96920E+08-9.46808E+06-4.32402E+06-2.17491E+05-4.46656E+06-3.30386E+08
 -1       675-7.49059E+08-8.87751E+06-4.43596E+06-2.26238E+05-4.19425E+06-3.27890E+08
 -1       676-7.02152E+08-8.27077E+06-3.90766E+06-2.26323E+05-3.93417E+06-3.25437E+08
 -1       677-6.55931E+08-7.95414E+06-3.25883E+06-2.26339E+05-3.67620E+06-3.22423E+08
 -1       678-6.10171E+08-7.65226E+06-2.59310E+06-2.24074E+05-3.42114E+06-3.18651E+08
 -1       679-5.64958E+08-7.36133E+06-1.93386E+06-2.21195E+05-3.16914E+06-3.14055E+08
 -1       680-5.20428E+08-7.07951E+06-1.26595E+06-2.17749E+05-2.92105E+06-3.08602E+08
 -1       681-4.76722E+08-6.81692E+06-5.84176E+05-2.13732E+05-2.67764E+06-3.02250E+08
 -1       682-4.33974E+08-6.57595E+06 1.10542E+05-2.09050E+05-2.43966E+06-2.94953E+08
 -1       683-3.92323E+08-6.35714E+06 8.14730E+05-2.03656E+05-2.20787E+06-2.86666E+08
 -1       684-3.51913E+08-6.16063E+06 1.52512E+06-1.97524E+05-1.98308E+06-2.77349E+08
 -1       685-3.12893E+08-5.98690E+06 2.23879E+06-1.90631E+05-1.76611E+06-2.66969E+08
 -1       686-2.75420E+08-5.83668E+06 2.95301E+06-1.82961E+05-1.55783E+06-2.55495E+08
 -1       687-2.39650E+08-5.71080E+06 3.66511E+06-1.74496E+05-1.35913E+06-2.42901E+08
 -1       688-2.05746E+08-5.61009E+06 4.37236E+06-1.65222E+05-1.17090E+06-2.29164E+08
 -1       689-1.73874E+08-5.53538E+06 5.07200E+06-1.55125E+05-9.94055E+05-2.14267E+08
 -1       690-1.44198E+08-5.48756E+06 5.76116E+06-1.44203E+05-8.29530E+05-1.98195E+08
 -1       691-1.16889E+08-5.46836E+06 6.43756E+06-1.32467E+05-6.78268E+05-1.80935E+08
 -1       692-9.21223E+07-5.48151E+06 7.10123E+06-1.19927E+05-5.41239E+05-1.62477E+08
 -1       693-7.00774E+07-5.53146E+06 7.75630E+06-1.06522E+05-4.19443E+05-1.42807E+08
 -1       694-5.09294E+07-5.61591E+06 8.39827E+06-9.18918E+04-3.13889E+05-1.21915E+08
 -1       695-3.48302E+07-5.70298E+06 8.97780E+06-7.53271E+04-2.25002E+05-9.98384E+07
 -1       696-2.18118E+07-5.67490E+06 9.44738E+06-5.78598E+04-1.52623E+05-7.67040E+07
 -1       697-1.20837E+07-5.70669E+06 9.54146E+06-4.08951E+04-9.73789E+04-5.28100E+07
 -1       698-6.65924E+06-6.03418E+06 9.58152E+06-4.82125E+04-7.54142E+04-2.77565E+07
 -1       699-1.88105E+09 2.01560E+08 2.71338E+08-5.54774E+07 2.18052E+07 7.24712E+07
 -1       700-2.03847E+09-8.65072E+06-7.20947E+07-1.85839E+07 4.40074E+06 1.41854E+07
 -1       701-1.90235E+09-2.28445E+07-2.17121E+07-3.21435E+07 1.11906E+06 9.88876E+06
 -1       702-1.81612E+09-3.07238E+07-3.37437E+07-3.91814E+07-1.34942E+06 1.14208E+07
 -1       703-1.71405E+09-2.66756E+07-2.98999E+07-3.96571E+07-8.10752E+05 1.20151E+07
 -1       704-1.61307E+09-2.46150E+07-2.82214E+07-3.88762E+07-4.97125E+05 1.29056E+07
 -1       705-1.51226E+09-2.32257E+07-2.63952E+07-3.82563E+07-5.30514E+05 1.28673E+07
 -1       706-1.41255E+09-2.23588E+07-2.49345E+07-3.78107E+07-7.03311E+05 1.26935E+07
 -1       707-1.31391E+09-2.15703E+07-2.35167E+07-3.73633E+07-8.96549E+05 1.25150E+07
 -1       708-1.21654E+09-2.07956E+07-2.21280E+07-3.68198E+07-1.08671E+06 1.23404E+07
 -1       709-1.12065E+09-2.00545E+07-2.07677E+07-3.61639E+07-1.28078E+06 1.21438E+07
 -1       710-1.02654E+09-1.93698E+07-1.94500E+07-3.53976E+07-1.48471E+06 1.19110E+07
 -1       711-9.34482E+08-1.87484E+07-1.81812E+07-3.45205E+07-1.69926E+06 1.16386E+07
 -1       712-8.44788E+08-1.81907E+07-1.69655E+07-3.35284E+07-1.92326E+06 1.13262E+07
 -1       713-7.57765E+08-1.76972E+07-1.58062E+07-3.24166E+07-2.15536E+06 1.09730E+07
 -1       714-6.73738E+08-1.72688E+07-1.47074E+07-3.11805E+07-2.39450E+06 1.05777E+07
 -1       715-5.93038E+08-1.69074E+07-1.36734E+07-2.98164E+07-2.63978E+06 1.01393E+07
 -1       716-5.16008E+08-1.66153E+07-1.27090E+07-2.83214E+07-2.89033E+06 9.65663E+06
 -1       717-4.42997E+08-1.63944E+07-1.18187E+07-2.66926E+07-3.14529E+06 9.12896E+06
 -1       718-3.74358E+08-1.62469E+07-1.10074E+07-2.49282E+07-3.40375E+06 8.55536E+06
 -1       719-3.10452E+08-1.61752E+07-1.02801E+07-2.30260E+07-3.66478E+06 7.93484E+06
 -1       720-2.51645E+08-1.61833E+07-9.64269E+06-2.09830E+07-3.92804E+06 7.26713E+06
 -1       721-1.98306E+08-1.62812E+07-9.10378E+06-1.87949E+07-4.19508E+06 6.55518E+06
 -1       722-1.50801E+08-1.64830E+07-8.67159E+06-1.64613E+07-4.46864E+06 5.80731E+06
 -1       723-1.09478E+08-1.67788E+07-8.34362E+06-1.40050E+07-4.74651E+06 5.03113E+06
 -1       724-7.46511E+07-1.70554E+07-8.05496E+06-1.14970E+07-4.98806E+06 4.16072E+06
 -1       725-4.66863E+07-1.71285E+07-7.78441E+06-8.98500E+06-5.11908E+06 3.10413E+06
 -1       726-2.61659E+07-1.66226E+07-7.39999E+06-6.11181E+06-5.14575E+06 1.60024E+06
 -1       727-1.46426E+07-1.82423E+07-8.69691E+06-1.97325E+06-5.59218E+06-6.79252E+05
 -1       728-1.66264E+09 1.94401E+08 3.34713E+08-4.16464E+07 2.22872E+07 8.65440E+07
 -1       729-1.90492E+09-1.17085E+07-3.29464E+07-5.36909E+07 5.30512E+06 8.49110E+06
 -1       730-1.74737E+09 3.05403E+07 4.07996E+07-4.88929E+07 6.82104E+05 9.32453E+06
 -1       731-1.66080E+09 2.85671E+07 3.06412E+07-4.40575E+07-1.29818E+06 9.77144E+06
 -1       732-1.56605E+09 2.68839E+07 3.05701E+07-4.32487E+07-8.27259E+05 1.05294E+07
 -1       733-1.47384E+09 2.44443E+07 2.82632E+07-4.35112E+07-5.28752E+05 1.13980E+07
 -1       734-1.38220E+09 2.29530E+07 2.64789E+07-4.35258E+07-5.58669E+05 1.13733E+07
 -1       735-1.29114E+09 2.18463E+07 2.47516E+07-4.31993E+07-7.19682E+05 1.12105E+07
 -1       736-1.20089E+09 2.08086E+07 2.31029E+07-4.26912E+07-9.00936E+05 1.10490E+07
 -1       737-1.11177E+09 1.97755E+07 2.14718E+07-4.20764E+07-1.07931E+06 1.08947E+07
 -1       738-1.02403E+09 1.87684E+07 1.98656E+07-4.13597E+07-1.26153E+06 1.07224E+07
 -1       739-9.37910E+08 1.78051E+07 1.82907E+07-4.05274E+07-1.45322E+06 1.05179E+07
 -1       740-8.53671E+08 1.68928E+07 1.67546E+07-3.95681E+07-1.65513E+06 1.02784E+07
 -1       741-7.71585E+08 1.60335E+07 1.52625E+07-3.84750E+07-1.86614E+06 1.00033E+07
 -1       742-6.91939E+08 1.52290E+07 1.38194E+07-3.72434E+07-2.08499E+06 9.69217E+06
 -1       743-6.15029E+08 1.44818E+07 1.24305E+07-3.58688E+07-2.31066E+06 9.34392E+06
 -1       744-5.41158E+08 1.37949E+07 1.11013E+07-3.43474E+07-2.54230E+06 8.95754E+06
 -1       745-4.70640E+08 1.31716E+07 9.83745E+06-3.26758E+07-2.77911E+06 8.53215E+06
 -1       746-4.03795E+08 1.26152E+07 8.64474E+06-3.08509E+07-3.02027E+06 8.06699E+06
 -1       747-3.40946E+08 1.21290E+07 7.52903E+06-2.88701E+07-3.26492E+06 7.56124E+06
 -1       748-2.82422E+08 1.17163E+07 6.49641E+06-2.67317E+07-3.51219E+06 7.01400E+06
 -1       749-2.28556E+08 1.13823E+07 5.55367E+06-2.44357E+07-3.76176E+06 6.42501E+06
 -1       750-1.79682E+08 1.11359E+07 4.70839E+06-2.19838E+07-4.01512E+06 5.79727E+06
 -1       751-1.36143E+08 1.09907E+07 3.96784E+06-1.93745E+07-4.27483E+06 5.13906E+06
 -1       752-9.83048E+07 1.09383E+07 3.32349E+06-1.65844E+07-4.53895E+06 4.45849E+06
 -1       753-6.65081E+07 1.09124E+07 2.77829E+06-1.35518E+07-4.76750E+06 3.68889E+06
 -1       754-4.10951E+07 1.06125E+07 2.21522E+06-1.02542E+07-4.89660E+06 2.74013E+06
 -1       755-2.19064E+07 1.03995E+07 1.98447E+06-7.15958E+06-4.91621E+06 1.33565E+06
 -1       756-6.58444E+06 1.30918E+07 3.12075E+06-5.34318E+06-5.33236E+06-8.33056E+05
 -1       757 1.66264E+09-1.94401E+08-3.34713E+08 4.16464E+07 2.22872E+07 8.65440E+07
 -1       758 1.90492E+09 1.17085E+07 3.29464E+07 5.36909E+07 5.30512E+06 8.49110E+06
 -1       759 1.74737E+09-3.05403E+07-4.07996E+07 4.88929E+07 6.82104E+05 9.32453E+06
 -1       760 1.66080E+09-2.85671E+07-3.06412E+07 4.40575E+07-1.29818E+06 9.77144E+06
 -1       761 1.56605E+09-2.68839E+07-3.05701E+07 4.32487E+07-8.27259E+05 1.05294E+07
 -1       762 1.47384E+09-2.44443E+07-2.82632E+07 4.35112E+07-5.28752E+05 1.13980E+07
 -1       763 1.38220E+09-2.29530E+07-2.64789E+07 4.35258E+07-5.58669E+05 1.13733E+07
 -1       764 1.29114E+09-2.18463E+07-2.47516E+07 4.31993E+07-7.19682E+05 1.12105E+07
 -1       765 1.20089E+09-2.08086E+07-2.31029E+07 4.26912E+07-9.00936E+05 1.10490E+07
 -1       766 1.11177E+09-1.97755E+07-2.14718E+07 4.20764E+07-1.07931E+06 1.08947E+07
 -1       767 1.02403E+09-1.87684E+07-1.98656E+07 4.13597E+07-1.26153E+06 1.07224E+07
 -1       768 9.37910E+08-1.78051E+07-1.82907E+07 4.05274E+07-1.45322E+06 1.05179E+07
 -1       769 8.53671E+08-1.68928E+07-1.67546E+07 3.95681E+07-1.65513E+06 1.02784E+07
 -1       770 7.71585E+08-1.60335E+07-1.52625E+07 3.84750E+07-1.86614E+06 1.00033E+07
 -1       771 6.91939E+08-1.52290E+07-1.38194E+07 3.72434E+07-2.08499E+06 9.69217E+06
 -1       772 6.15029E+08-1.44818E+07-1.24305E+07 3.58688E+07-2.31066E+06 9.34392E+06
 -1       773 5.41158E+08-1.37949E+07-1.11013E+07 3.43474E+07-2.54230E+06 8.95754E+06
 -1       774 4.70640E+08-1.31716E+07-9.83745E+06 3.26758E+07-2.77911E+06 8.53215E+06
 -1       775 4.03795E+08-1.26152E+07-8.64474E+06 3.08509E+07-3.02027E+06 8.06699E+06
 -1       776 3.40946E+08-1.21290E+07-7.52903E+06 2.88701E+07-3.26492E+06 7.56124E+06
 -1       777 2.82422E+08-1.17163E+07-6.49641E+06 2.67317E+07-3.51219E+06 7.01400E+06
 -1       778 2.28556E+08-1.13823E+07-5.55367E+06 2.44357E+07-3.76176E+06 6.42501E+06
 -1       779 1.79682E+08-1.11359E+07-4.70839E+06 2.19838E+07-4.01512E+06 5.79727E+06
 -1       780 1.36143E+08-1.09907E+07-3.96784E+06 1.93745E+07-4.27483E+06 5.13906E+06
 -1       781 9.83048E+07-1.09383E+07-3.32349E+06 1.65844E+07-4.53895E+06 4.45849E+06
 -1       782 6.65081E+07-1.09124E+07-2.77829E+06 1.35518E+07-4.76750E+06 3.68889E+06
 -1       783 4.10951E+07-1.06125E+07-2.21522E+06 1.02542E+07-4.89660E+06 2.74013E+06
 -1       784 2.19064E+07-1.03995E+07-1.98447E+06 7.15958E+06-4.91621E+06 1.33565E+06
 -1       785 6.58444E+06-1.30918E+07-3.12075E+06 5.34318E+06-5.33236E+06-8.33056E+05
 -1       786 1.88105E+09-2.01560E+08-2.71338E+08 5.54774E+07 2.18052E+07 7.24712E+07
 -1       787 2.03847E+09 8.65072E+06 7.20947E+07 1.85839E+07 4.40074E+06 1.41854E+07
 -1       788 1.90235E+09 2.28445E+07 2.17121E+07 3.21435E+07 1.11906E+06 9.88876E+06
 -1       789 1.81612E+09 3.07238E+07 3.37437E+07 3.91814E+07-1.34942E+06 1.14208E+07
 -1       790 1.71405E+09 2.66756E+07 2.98999E+07 3.96571E+07-8.10752E+05 1.20151E+07
 -1       791 1.61307E+09 2.46150E+07 2.82214E+07 3.88762E+07-4.97125E+05 1.29056E+07
 -1       792 1.51226E+09 2.32257E+07 2.63952E+07 3.82563E+07-5.30514E+05 1.28673E+07
 -1       793 1.41255E+09 2.23588E+07 2.49345E+07 3.78107E+07-7.03311E+05 1.26935E+07
 -1       794 1.31391E+09 2.15703E+07 2.35167E+07 3.73633E+07-8.96549E+05 1.25150E+07
 -1       795 1.21654E+09 2.07956E+07 2.21280E+07 3.68198E+07-1.08671E+06 1.23404E+07
 -1       796 1.12065E+09 2.00545E+07 2.07677E+07 3.61639E+07-1.28078E+06 1.21438E+07
 -1       797 1.02654E+09 1.93698E+07 1.94500E+07 3.53976E+07-1.48471E+06 1.19110E+07
 -1       798 9.34482E+08 1.87484E+07 1.81812E+07 3.45205E+07-1.69926E+06 1.16386E+07
 -1       799 8.44788E+08 1.81907E+07 1.69655E+07 3.35284E+07-1.92326E+06 1.13262E+07
 -1       800 7.57765E+08 1.76972E+07 1.58062E+07 3.24166E+07-2.15536E+06 1.09730E+07
 -1       801 6.73738E+08 1.72688E+07 1.47074E+07 3.11805E+07-2.39450E+06 1.05777E+07
 -1       802 5.93038E+08 1.69074E+07 1.36734E+07 2.98164E+07-2.63978E+06 1.01393E+07
 -1       803 5.16008E+08 1.66153E+07 1.27090E+07 2.83214E+07-2.89033E+06 9.65663E+06
 -1       804 4.42997E+08 1.63944E+07 1.18187E+07 2.66926E+07-3.14529E+06 9.12896E+06
 -1       805 3.74358E+08 1.62469E+07 1.10074E+07 2.49282E+07-3.40375E+06 8.55536E+06
 -1       806 3.10452E+08 1.61752E+07 1.02801E+07 2.30260E+07-3.66478E+06 7.93484E+06
 -1       807 2.51645E+08 1.61833E+07 9.64269E+06 2.09830E+07-3.92804E+06 7.26713E+06
 -1       808 1.98306E+08 1.62812E+07 9.10378E+06 1.87949E+07-4.19508E+06 6.55518E+06
 -1       809 1.50801E+08 1.64830E+07 8.67159E+06 1.64613E+07-4.46864E+06 5.80731E+06
 -1       810 1.09478E+08 1.67788E+07 8.34362E+06 1.40050E+07-4.74651E+06 5.03113E+06
 -1       811 7.46511E+07 1.70554E+07 8.05496E+06 1.14970E+07-4.98806E+06 4.16072E+06
 -1       812 4.66863E+07 1.71285E+07 7.78441E+06 8.98500E+06-5.11908E+06 3.10413E+06
 -1       813 2.61659E+07 1.66226E+07 7.39999E+06 6.11181E+06-5.14575E+06 1.60024E+06
 -1       814 1.46426E+07 1.82423E+07 8.69691E+06 1.97325E+06-5.59218E+06-6.79252E+05
 -1       815-1.88105E+09 2.01560E+08 2.71338E+08 5.54774E+07-2.18052E+07 7.24712E+07
 -1       816-2.03847E+09-8.65072E+06-7.20947E+07 1.85839E+07-4.40074E+06 1.41854E+07
 -1       817-1.90235E+09-2.28445E+07-2.17121E+07 3.21435E+07-1.11906E+06 9.88876E+06
 -1       818-1.81612E+09-3.07238E+07-3.37437E+07 3.91814E+07 1.34942E+06 1.14208E+07
 -1       819-1.71405E+09-2.66756E+07-2.98999E+07 3.96571E+07 8.10752E+05 1.20151E+07
 -1       820-1.61307E+09-2.46150E+07-2.82214E+07 3.88762E+07 4.97125E+05 1.29056E+07
 -1       821-1.51226E+09-2.32257E+07-2.63952E+07 3.82563E+07 5.30514E+05 1.28673E+07
 -1       822-1.41255E+09-2.23588E+07-2.49345E+07 3.78107E+07 7.03311E+05 1.26935E+07
 -1       823-1.31391E+09-2.15703E+07-2.35167E+07 3.73633E+07 8.96549E+05 1.25150E+07
 -1       824-1.21654E+09-2.07956E+07-2.21280E+07 3.68198E+07 1.08671E+06 1.23404E+07
 -1       825-1.12065E+09-2.00545E+07-2.07677E+07 3.61639E+07 1.28078E+06 1.21438E+07
 -1       826-1.02654E+09-1.93698E+07-1.94500E+07 3.53976E+07 1.48471E+06 1.19110E+07
 -1       827-9.34482E+08-1.87484E+07-1.81812E+07 3.45205E+07 1.69926E+06 1.16386E+07
 -1       828-8.44788E+08-1.81907E+07-1.69655E+07 3.35284E+07 1.92326E+06 1.13262E+07
 -1       829-7.57765E+08-1.76972E+07-1.58062E+07 3.24166E+07 2.15536E+06 1.09730E+07
 -1       830-6.73738E+08-1.72688E+07-1.47074E+07 3.11805E+07 2.39450E+06 1.05777E+07
 -1       831-5.93038E+08-1.69074E+07-1.36734E+07 2.98164E+07 2.63978E+06 1.01393E+07
 -1       832-5.16008E+08-1.66153E+07-1.27090E+07 2.83214E+07 2.89033E+06 9.65663E+06
 -1       833-4.42997E+08-1.63944E+07-1.18187E+07 2.66926E+07 3.14529E+06 9.12896E+06
 -1       834-3.74358E+08-1.62469E+07-1.10074E+07 2.49282E+07 3.40375E+06 8.55536E+06
 -1       835-3.10452E+08-1.61752E+07-1.02801E+07 2.30260E+07 3.66478E+06 7.93484E+06
 -1       836-2.51645E+08-1.61833E+07-9.64269E+06 2.09830E+07 3.92804E+06 7.26713E+06
 -1       837-1.98306E+08-1.62812E+07-9.10378E+06 1.87949E+07 4.19508E+06 6.55518E+06
 -1       838-1.50801E+08-1.64830E+07-8.67159E+06 1.64613E+07 4.46864E+06 5.80731E+06
 -1       839-1.09478E+08-1.67788E+07-8.34362E+06 1.40050E+07 4.74651E+06 5.03113E+06
 -1       840-7.46511E+07-1.70554E+07-8.05496E+06 1.14970E+07 4.98806E+06 4.16072E+06
 -1       841-4.66863E+07-1.71285E+07-7.78441E+06 8.98500E+06 5.11908E+06 3.10413E+06
 -1       842-2.61659E+07-1.66226E+07-7.39999E+06 6.11181E+06 5.14575E+06 1.60024E+06
 -1       843-1.46426E+07-1.82423E+07-8.69691E+06 1.97325E+06 5.59218E+06-6.79252E+05
 -1       844-1.66264E+09 1.94401E+08 3.34713E+08 4.16464E+07-2.22872E+07 8.65440E+07
 -1       845-1.90492E+09-1.17085E+07-3.29464E+07 5.36909E+07-5.30512E+06 8.49110E+06
 -1       846-1.74737E+09 3.05403E+07 4.07996E+07 4.88929E+07-6.82104E+05 9.32453E+06
 -1       847-1.66080E+09 2.85671E+07 3.06412E+07 4.40575E+07 1.29818E+06 9.77144E+06
 -1       848-1.56605E+09 2.68839E+07 3.05701E+07 4.32487E+07 8.27259E+05 1.05294E+07
 -1       849-1.47384E+09 2.44443E+07 2.82632E+07 4.35112E+07 5.28752E+05 1.13980E+07
 -1       850-1.38220E+09 2.29530E+07 2.64789E+07 4.35258E+07 5.58669E+05 1.13733E+07
 -1       851-1.29114E+09 2.18463E+07 2.47516E+07 4.31993E+07 7.19682E+05 1.12105E+07
 -1       852-1.20089E+09 2.08086E+07 2.31029E+07 4.26912E+07 9.00936E+05 1.10490E+07
 -1       853-1.11177E+09 1.97755E+07 2.14718E+07 4.20764E+07 1.07931E+06 1.08947E+07
 -1       854-1.02403E+09 1.87684E+07 1.98656E+07 4.13597E+07 1.26153E+06 1.07224E+07
 -1       855-9.37910E+08 1.78051E+07 1.82907E+07 4.05274E+07 1.45322E+06 1.05179E+07
 -1       856-8.53671E+08 1.68928E+07 1.67546E+07 3.95681E+07 1.65513E+06 1.02784E+07
 -1       857-7.71585E+08 1.60335E+07 1.52625E+07 3.84750E+07 1.86614E+06 1.00033E+07
 -1       858-6.91939E+08 1.52290E+07 1.38194E+07 3.72434E+07 2.08499E+06 9.69217E+06
 -1       859-6.15029E+08 1.44818E+07 1.24305E+07 3.58688E+07 2.31066E+06 9.34392E+06
 -1       860-5.41158E+08 1.37949E+07 1.11013E+07 3.43474E+07 2.54230E+06 8.95754E+06
 -1       861-4.70640E+08 1.31716E+07 9.83745E+06 3.26758E+07 2.77911E+06 8.53215E+06
 -1       862-4.03795E+08 1.26152E+07 8.64474E+06 3.08509E+07 3.02027E+06 8.06699E+06
 -1       863-3.40946E+08 1.21290E+07 7.52903E+06 2.88701E+07 3.26492E+06 7.56124E+06
 -1       864-2.82422E+08 1.17163E+07 6.49641E+06 2.67317E+07 3.51219E+06 7.01400E+06
 -1       865-2.28556E+08 1.13823E+07 5.55367E+06 2.44357E+07 3.76176E+06 6.42501E+06
 -1       866-1.79682E+08 1.11359E+07 4.70839E+06 2.19838E+07 4.01512E+06 5.79727E+06
 -1       867-1.36143E+08 1.09907E+07 3.96784E+06 1.93745E+07 4.27483E+06 5.13906E+06
 -1       868-9.83048E+07 1.09383E+07 3.32349E+06 1.65844E+07 4.53895E+06 4.45849E+06
 -1       869-6.65081E+07 1.09124E+07 2.77829E+06 1.35518E+07 4.76750E+06 3.68889E+06
 -1       870-4.10951E+07 1.06125E+07 2.21522E+06 1.02542E+07 4.89660E+06 2.74013E+06
 -1       871-2.19064E+07 1.03995E+07 1.98447E+06 7.15958E+06 4.91621E+06 1.33565E+06
 -1       872-6.58444E+06 1.30918E+07 3.12075E+06 5.34318E+06 5.33236E+06-8.33056E+05
 -1       873 1.46426E+07 1.82423E+07 8.69691E+06-1.97325E+06 5.59218E+06-6.79252E+05
 -1       874 2.61659E+07 1.66226E+07 7.39999E+06-6.11181E+06 5.14575E+06 1.60024E+06
 -1       875 4.66863E+07 1.71285E+07 7.78441E+06-8.98500E+06 5.11908E+06 3.10413E+06
 -1       876 7.46511E+07 1.70554E+07 8.05496E+06-1.14970E+07 4.98806E+06 4.16072E+06
 -1       877 1.09478E+08 1.67788E+07 8.34362E+06-1.40050E+07 4.74651E+06 5.03113E+06
 -1       878 1.50801E+08 1.64830E+07 8.67159E+06-1.64613E+07 4.46864E+06 5.80731E+06
 -1       879 1.98306E+08 1.62812E+07 9.10378E+06-1.87949E+07 4.19508E+06 6.55518E+06
 -1       880 2.51645E+08 1.61833E+07 9.64269E+06-2.09830E+07 3.92804E+06 7.26713E+06
 -1       881 3.10452E+08 1.61752E+07 1.02801E+07-2.30260E+07 3.66478E+06 7.93484E+06
 -1       882 3.74358E+08 1.62469E+07 1.10074E+07-2.49282E+07 3.40375E+06 8.55536E+06
 -1       883 4.42997E+08 1.63944E+07 1.18187E+07-2.66926E+07 3.14529E+06 9.12896E+06
 -1       884 5.16008E+08 1.66153E+07 1.27090E+07-2.83214E+07 2.89033E+06 9.65663E+06
 -1       885 5.93038E+08 1.69074E+07 1.36734E+07-2.98164E+07 2.63978E+06 1.01393E+07
 -1       886 6.73738E+08 1.72688E+07 1.47074E+07-3.11805E+07 2.39450E+06 1.05777E+07
 -1       887 7.57765E+08 1.76972E+07 1.58062E+07-3.24166E+07 2.15536E+06 1.09730E+07
 -1       888 8.44788E+08 1.81907E+07 1.69655E+07-3.35284E+07 1.92326E+06 1.13262E+07
 -1       889 9.34482E+08 1.87484E+07 1.81812E+07-3.45205E+07 1.69926E+06 1.16386E+07
 -1       890 1.02654E+09 1.93698E+07 1.94500E+07-3.53976E+07 1.48471E+06 1.19110E+07
 -1       891 1.12065E+09 2.00545E+07 2.07677E+07-3.61639E+07 1.28078E+06 1.21438E+07
 -1       892 1.21654E+09 2.07956E+07 2.21280E+07-3.68198E+07 1.08671E+06 1.23404E+07
 -1       893 1.31391E+09 2.15703E+07 2.35167E+07-3.73633E+07 8.96549E+05 1.25150E+07
 -1       894 1.41255E+09 2.23588E+07 2.49345E+07-3.78107E+07 7.03311E+05 1.26935E+07
 -1       895 1.51226E+09 2.32257E+07 2.63952E+07-3.82563E+07 5.30514E+05 1.28673E+07
 -1       896 1.61307E+09 2.46150E+07 2.82214E+07-3.88762E+07 4.97125E+05 1.29056E+07
 -1       897 1.71405E+09 2.66756E+07 2.98999E+07-3.96571E+07 8.10752E+05 1.20151E+07
 -1       898 1.81612E+09 3.07238E+07 3.37437E+07-3.91814E+07 1.34942E+06 1.14208E+07
 -1       899 1.90235E+09 2.28445E+07 2.17121E+07-3.21435E+07-1.11906E+06 9.88876E+06
 -1       900 2.03847E+09 8.65072E+06 7.20947E+07-1.85839E+07-4.40074E+06 1.41854E+07
 -1       901 1.88105E+09-2.01560E+08-2.71338E+08-5.54774E+07-2.18052E+07 7.24712E+07
 -1       902 1.66264E+09-1.94401E+08-3.34713E+08-4.16464E+07-2.22872E+07 8.65440E+07
 -1       903 1.90492E+09 1.17085E+07 3.29464E+07-5.36909E+07-5.30512E+06 8.49110E+06
 -1       904 1.74737E+09-3.05403E+07-4.07996E+07-4.88929E+07-6.82104E+05 9.32453E+06
 -1       905 1.66080E+09-2.85671E+07-3.06412E+07-4.40575E+07 1.29818E+06 9.77144E+06
 -1       906 1.56605E+09-2.68839E+07-3.05701E+07-4.32487E+07 8.27259E+05 1.05294E+07
 -1       907 1.47384E+09-2.44443E+07-2.82632E+07-4.35112E+07 5.28752E+05 1.13980E+07
 -1       908 1.38220E+09-2.29530E+07-2.64789E+07-4.35258E+07 5.58669E+05 1.13733E+07
 -1       909 1.29114E+09-2.18463E+07-2.47516E+07-4.31993E+07 7.19682E+05 1.12105E+07
 -1       910 1.20089E+09-2.08086E+07-2.31029E+07-4.26912E+07 9.00936E+05 1.10490E+07
 -1       911 1.11177E+09-1.97755E+07-2.14718E+07-4.20764E+07 1.07931E+06 1.08947E+07
 -1       912 1.02403E+09-1.87684E+07-1.98656E+07-4.13597E+07 1.26153E+06 1.07224E+07
 -1       913 9.37910E+08-1.78051E+07-1.82907E+07-4.05274E+07 1.45322E+06 1.05179E+07
 -1       914 8.53671E+08-1.68928E+07-1.67546E+07-3.95681E+07 1.65513E+06 1.02784E+07
 -1       915 7.71585E+08-1.60335E+07-1.52625E+07-3.84750E+07 1.86614E+06 1.00033E+07
 -1       916 6.91939E+08-1.52290E+07-1.38194E+07-3.72434E+07 2.08499E+06 9.69217E+06
 -1       917 6.15029E+08-1.44818E+07-1.24305E+07-3.58688E+07 2.31066E+06 9.34392E+06
 -1       918 5.41158E+08-1.37949E+07-1.11013E+07-3.43474E+07 2.54230E+06 8.95754E+06
 -1       919 4.70640E+08-1.31716E+07-9.83745E+06-3.26758E+07 2.77911E+06 8.53215E+06
 -1       920 4.03795E+08-1.26152E+07-8.64474E+06-3.08509E+07 3.02027E+06 8.06699E+06
 -1       921 3.40946E+08-1.21290E+07-7.52903E+06-2.88701E+07 3.26492E+06 7.56124E+06
 -1       922 2.82422E+08-1.17163E+07-6.49641E+06-2.67317E+07 3.51219E+06 7.01400E+06
 -1       923 2.28556E+08-1.13823E+07-5.55367E+06-2.44357E+07 3.76176E+06 6.42501E+06
 -1       924 1.79682E+08-1.11359E+07-4.70839E+06-2.19838E+07 4.01512E+06 5.79727E+06
 -1       925 1.36143E+08-1.09907E+07-3.96784E+06-1.93745E+07 4.27483E+06 5.13906E+06
 -1       926 9.83048E+07-1.09383E+07-3.32349E+06-1.65844E+07 4.53895E+06 4.45849E+06
 -1       927 6.65081E+07-1.09124E+07-2.77829E+06-1.35518E+07 4.76750E+06 3.68889E+06
 -1       928 4.10951E+07-1.06125E+07-2.21522E+06-1.02542E+07 4.89660E+06 2.74013E+06
 -1       929 2.19064E+07-1.03995E+07-1.98447E+06-7.15958E+06 4.91621E+06 1.33565E+06
 -1       930 6.58444E+06-1.30918E+07-3.12075E+06-5.34318E+06 5.33236E+06-8.33056E+05
 -3
    1PSTEP                        11           1           1          
    1PGM                1.000000E+00                                  
    1PGK                1.030430E+05                                  
    1PHID                         -1                                  
    1PSUBC                         0                                  
    1PMODE                         3                                  
  100CL  103 51.08924173         930                     2    3MODAL      1
 -4  FORC        4    1
 -5  F1          1    2    1    0
 -5  F2          1    2    2    0
 -5  F3          1    2    3    0
 -5  ALL         1    2    0    0    1ALL
 -1         1 4.04925E+05 1.07969E+06-6.02729E+05
 -1         2 4.04925E+05-1.07969E+06-6.02729E+05
 -1         3-1.59130E+02 9.90550E-04-2.11136E+03
 -1         4-1.59130E+02-9.89028E-04-2.11136E+03
 -1         5-4.04925E+05-1.07969E+06-6.02729E+05
 -1         6-4.04925E+05 1.07969E+06-6.02729E+05
 -1         7 1.59130E+02-9.94154E-04-2.11136E+03
 -1         8 1.59130E+02 9.90455E-04-2.11136E+03
 -1         9 6.66810E+05 1.63901E+04 7.97295E+05
 -1        10-8.39883E+01 1.19869E-02-9.79979E+02
 -1        11 5.24076E+05 2.39630E+05 6.57842E+05
 -1        12 1.81547E+05 2.25990E+05-6.50541E+05
 -1        13-6.99337E+01 2.13804E-02-8.16456E+02
 -1        14-6.83138E+01-5.00860E-03-8.16456E+02
 -1        15-6.66810E+05-1.63901E+04 7.97295E+05
 -1        16 8.39883E+01-1.19878E-02-9.79979E+02
 -1        17-1.81547E+05-2.25990E+05-6.50541E+05
 -1        18-5.24076E+05-2.39630E+05 6.57842E+05
 -1        19 6.83138E+01 5.00829E-03-8.16456E+02
 -1        20 6.99337E+01-2.13828E-02-8.16456E+02
 -1        21 1.81547E+05-2.25990E+05-6.50541E+05
 -1        22 5.24076E+05-2.39630E+05 6.57842E+05
 -1        23-6.99337E+01-2.13811E-02-8.16456E+02
 -1        24-6.83138E+01 5.00833E-03-8.16456E+02
 -1        25 6.66810E+05-1.63901E+04 7.97295E+05
 -1        26-8.39883E+01-1.19855E-02-9.79979E+02
 -1        27-6.66810E+05 1.63901E+04 7.97295E+05
 -1        28-5.24076E+05 2.39630E+05 6.57842E+05
 -1        29-1.81547E+05 2.25990E+05-6.50541E+05
 -1        30 8.39883E+01 1.19879E-02-9.79979E+02
 -1        31 6.99337E+01 2.13819E-02-8.16456E+02
 -1        32 6.83138E+01-5.00939E-03-8.16456E+02
 -1        33-2.36422E+01 6.09273E-01-2.09062E+01
 -1        34-4.89618E+01 6.87930E-01-5.51564E+01
 -1        35-7.32895E+01 6.33301E-01-1.03503E+02
 -1        36-9.62163E+01 5.96212E-01-1.65301E+02
 -1        37-1.17875E+02 5.63660E-01-2.39931E+02
 -1        38-1.38285E+02 5.30328E-01-3.26705E+02
 -1        39-1.57454E+02 4.97155E-01-4.24915E+02
 -1        40-1.75395E+02 4.64271E-01-5.33823E+02
 -1        41-1.92116E+02 4.31709E-01-6.52686E+02
 -1        42-2.07633E+02 3.99544E-01-7.80768E+02
 -1        43-2.21961E+02 3.67871E-01-9.17342E+02
 -1        44-2.35122E+02 3.36779E-01-1.06169E+03
 -1        45-2.47137E+02 3.06353E-01-1.21311E+03
 -1        46-2.58034E+02 2.76699E-01-1.37089E+03
 -1        47-2.67845E+02 2.47922E-01-1.53438E+03
 -1        48-2.76602E+02 2.20114E-01-1.70289E+03
 -1        49-2.84347E+02 1.93406E-01-1.87580E+03
 -1        50-2.91120E+02 1.67901E-01-2.05247E+03
 -1        51-2.96970E+02 1.43703E-01-2.23233E+03
 -1        52-3.01947E+02 1.20971E-01-2.41480E+03
 -1        53-3.06109E+02 9.97616E-02-2.59936E+03
 -1        54-3.09514E+02 8.02585E-02-2.78548E+03
 -1        55-3.12227E+02 6.25403E-02-2.97273E+03
 -1        56-3.14319E+02 4.67176E-02-3.16065E+03
 -1        57-3.15863E+02 3.29572E-02-3.34888E+03
 -1        58-3.16937E+02 2.13486E-02-3.53707E+03
 -1        59-3.17624E+02 1.20224E-02-3.72491E+03
 -1        60-3.18012E+02 5.42652E-03-3.91219E+03
 -1        61-3.18196E+02 1.48443E-03-4.09874E+03
 -1        62-2.36422E+01-6.09279E-01-2.09062E+01
 -1        63-4.89618E+01-6.87934E-01-5.51564E+01
 -1        64-7.32895E+01-6.33303E-01-1.03503E+02
 -1        65-9.62163E+01-5.96214E-01-1.65301E+02
 -1        66-1.17875E+02-5.63663E-01-2.39931E+02
 -1        67-1.38285E+02-5.30337E-01-3.26705E+02
 -1        68-1.57454E+02-4.97158E-01-4.24915E+02
 -1        69-1.75395E+02-4.64274E-01-5.33823E+02
 -1        70-1.92116E+02-4.31710E-01-6.52686E+02
 -1        71-2.07633E+02-3.99551E-01-7.80768E+02
 -1        72-2.21961E+02-3.67878E-01-9.17342E+02
 -1        73-2.35122E+02-3.36781E-01-1.06169E+03
 -1        74-2.47137E+02-3.06349E-01-1.21311E+03
 -1        75-2.58034E+02-2.76697E-01-1.37089E+03
 -1        76-2.67845E+02-2.47924E-01-1.53438E+03
 -1        77-2.76602E+02-2.20113E-01-1.70289E+03
 -1        78-2.84347E+02-1.93408E-01-1.87580E+03
 -1        79-2.91120E+02-1.67898E-01-2.05247E+03
 -1        80-2.96970E+02-1.43709E-01-2.23233E+03
 -1        81-3.01947E+02-1.20966E-01-2.41480E+03
 -1        82-3.06109E+02-9.97691E-02-2.59936E+03
 -1        83-3.09514E+02-8.02481E-02-2.78548E+03
 -1        84-3.12227E+02-6.25367E-02-2.97273E+03
 -1        85-3.14319E+02-4.67263E-02-3.16065E+03
 -1        86-3.15863E+02-3.29643E-02-3.34888E+03
 -1        87-3.16937E+02-2.13545E-02-3.53707E+03
 -1        88-3.17624E+02-1.20010E-02-3.72491E+03
 -1        89-3.18012E+02-5.41918E-03-3.91219E+03
 -1        90-3.18196E+02-1.47948E-03-4.09874E+03
 -1        91 3.71131E+05 1.24425E+06 2.22374E+04
 -1        92-3.56563E-05 4.88863E-05 1.32228E+04
 -1        93-3.71131E+05-1.24425E+06 2.22374E+04
 -1        94-3.71131E+05 1.24425E+06 2.22374E+04
 -1        95 6.50370E-05-4.75718E-05 1.32228E+04
 -1        96 3.71131E+05-1.24425E+06 2.22374E+04
 -1        97 2.36422E+01 6.09278E-01-2.09062E+01
 -1        98 4.89619E+01 6.87930E-01-5.51564E+01
 -1        99 7.32895E+01 6.33303E-01-1.03503E+02
 -1       100 9.62163E+01 5.96214E-01-1.65301E+02
 -1       101 1.17875E+02 5.63663E-01-2.39931E+02
 -1       102 1.38285E+02 5.30333E-01-3.26705E+02
 -1       103 1.57454E+02 4.97161E-01-4.24915E+02
 -1       104 1.75395E+02 4.64271E-01-5.33823E+02
 -1       105 1.92116E+02 4.31707E-01-6.52686E+02
 -1       106 2.07633E+02 3.99549E-01-7.80768E+02
 -1       107 2.21961E+02 3.67883E-01-9.17342E+02
 -1       108 2.35122E+02 3.36780E-01-1.06169E+03
 -1       109 2.47137E+02 3.06353E-01-1.21311E+03
 -1       110 2.58034E+02 2.76699E-01-1.37089E+03
 -1       111 2.67845E+02 2.47920E-01-1.53438E+03
 -1       112 2.76602E+02 2.20116E-01-1.70289E+03
 -1       113 2.84347E+02 1.93403E-01-1.87580E+03
 -1       114 2.91120E+02 1.67897E-01-2.05247E+03
 -1       115 2.96970E+02 1.43715E-01-2.23233E+03
 -1       116 3.01947E+02 1.20963E-01-2.41480E+03
 -1       117 3.06109E+02 9.97747E-02-2.59936E+03
 -1       118 3.09514E+02 8.02489E-02-2.78548E+03
 -1       119 3.12227E+02 6.25228E-02-2.97273E+03
 -1       120 3.14319E+02 4.67172E-02-3.16065E+03
 -1       121 3.15863E+02 3.29649E-02-3.34888E+03
 -1       122 3.16937E+02 2.13655E-02-3.53707E+03
 -1       123 3.17624E+02 1.20301E-02-3.72491E+03
 -1       124 3.18012E+02 5.43439E-03-3.91219E+03
 -1       125 3.18196E+02 1.48738E-03-4.09874E+03
 -1       126-9.24889E+01 5.48076E-04-2.26267E+03
 -1       127-6.58261E-07-5.41911E-07-2.26261E+03
 -1       128 9.24889E+01-5.44252E-04-2.26267E+03
 -1       129 2.36422E+01-6.09276E-01-2.09062E+01
 -1       130 4.89619E+01-6.87933E-01-5.51564E+01
 -1       131 7.32895E+01-6.33301E-01-1.03503E+02
 -1       132 9.62163E+01-5.96214E-01-1.65301E+02
 -1       133 1.17875E+02-5.63666E-01-2.39931E+02
 -1       134 1.38285E+02-5.30332E-01-3.26705E+02
 -1       135 1.57454E+02-4.97153E-01-4.24915E+02
 -1       136 1.75395E+02-4.64271E-01-5.33823E+02
 -1       137 1.92116E+02-4.31709E-01-6.52686E+02
 -1       138 2.07633E+02-3.99546E-01-7.80768E+02
 -1       139 2.21961E+02-3.67873E-01-9.17342E+02
 -1       140 2.35122E+02-3.36772E-01-1.06169E+03
 -1       141 2.47137E+02-3.06355E-01-1.21311E+03
 -1       142 2.58034E+02-2.76702E-01-1.37089E+03
 -1       143 2.67845E+02-2.47917E-01-1.53438E+03
 -1       144 2.76602E+02-2.20111E-01-1.70289E+03
 -1       145 2.84347E+02-1.93405E-01-1.87580E+03
 -1       146 2.91120E+02-1.67907E-01-2.05247E+03
 -1       147 2.96970E+02-1.43715E-01-2.23233E+03
 -1       148 3.01947E+02-1.20966E-01-2.41480E+03
 -1       149 3.06109E+02-9.97711E-02-2.59936E+03
 -1       150 3.09514E+02-8.02479E-02-2.78548E+03
 -1       151 3.12227E+02-6.25300E-02-2.97273E+03
 -1       152 3.14319E+02-4.67210E-02-3.16065E+03
 -1       153 3.15863E+02-3.29627E-02-3.34888E+03
 -1       154 3.16937E+02-2.13568E-02-3.53707E+03
 -1       155 3.17624E+02-1.20198E-02-3.72491E+03
 -1       156 3.18012E+02-5.42826E-03-3.91219E+03
 -1       157 3.18196E+02-1.49914E-03-4.09874E+03
 -1       158 9.24889E+01 5.43838E-04-2.26267E+03
 -1       159-9.02629E-07-4.98653E-06-2.26261E+03
 -1       160-9.24889E+01-5.39390E-04-2.26267E+03
 -1       161-1.28643E+01-5.93016E-01-1.01609E+01
 -1       162-2.62544E+01-6.63515E-01-2.62389E+01
 -1       163-3.90487E+01-5.89215E-01-4.87202E+01
 -1       164-5.11273E+01-5.47668E-01-7.73815E+01
 -1       165-6.25503E+01-5.18466E-01-1.11979E+02
 -1       166-7.33190E+01-4.88609E-01-1.52213E+02
 -1       167-8.34338E+01-4.57883E-01-1.97759E+02
 -1       168-9.28987E+01-4.26952E-01-2.48272E+02
 -1       169-1.01720E+02-3.96227E-01-3.03407E+02
 -1       170-1.09904E+02-3.65872E-01-3.62821E+02
 -1       171-1.17460E+02-3.35959E-01-4.26176E+02
 -1       172-1.24399E+02-3.06547E-01-4.93141E+02
 -1       173-1.30732E+02-2.77721E-01-5.63386E+02
 -1       174-1.36475E+02-2.49574E-01-6.36590E+02
 -1       175-1.41642E+02-2.22214E-01-7.12438E+02
 -1       176-1.46254E+02-1.95734E-01-7.90623E+02
 -1       177-1.50329E+02-1.70247E-01-8.70847E+02
 -1       178-1.53890E+02-1.45856E-01-9.52823E+02
 -1       179-1.56963E+02-1.22666E-01-1.03628E+03
 -1       180-1.59575E+02-1.00798E-01-1.12095E+03
 -1       181-1.61754E+02-8.03521E-02-1.20658E+03
 -1       182-1.63533E+02-6.14510E-02-1.29295E+03
 -1       183-1.64946E+02-4.42005E-02-1.37984E+03
 -1       184-1.66030E+02-2.87034E-02-1.46705E+03
 -1       185-1.66823E+02-1.50952E-02-1.55440E+03
 -1       186-1.67367E+02-3.59840E-03-1.64173E+03
 -1       187-1.67705E+02 5.44502E-03-1.72890E+03
 -1       188-1.67885E+02 1.17239E-02-1.81582E+03
 -1       189-1.67958E+02 1.71206E-02-1.90240E+03
 -1       190 1.01277E+06 3.95730E+04 1.29354E+06
 -1       191 1.36325E+05 3.49790E+04-1.24433E+06
 -1       192-1.39880E+02 3.72042E-02-1.63261E+03
 -1       193-1.06793E+01-2.29150E+00-7.25928E+00
 -1       194-2.15690E+01-2.57788E+00-2.10045E+01
 -1       195-3.21179E+01-2.34646E+00-4.03560E+01
 -1       196-4.21768E+01-2.20074E+00-6.44075E+01
 -1       197-5.16933E+01-2.08105E+00-9.32056E+01
 -1       198-6.06641E+01-1.95962E+00-1.26696E+02
 -1       199-6.90913E+01-1.83693E+00-1.64638E+02
 -1       200-7.69779E+01-1.71440E+00-2.06729E+02
 -1       201-8.43291E+01-1.59290E+00-2.52671E+02
 -1       202-9.11508E+01-1.47289E+00-3.02177E+02
 -1       203-9.74506E+01-1.35468E+00-3.54966E+02
 -1       204-1.03237E+02-1.23856E+00-4.10761E+02
 -1       205-1.08521E+02-1.12486E+00-4.69290E+02
 -1       206-1.13314E+02-1.01397E+00-5.30283E+02
 -1       207-1.17629E+02-9.06274E-01-5.93479E+02
 -1       208-1.21482E+02-8.02166E-01-6.58621E+02
 -1       209-1.24890E+02-7.02065E-01-7.25462E+02
 -1       210-1.27872E+02-6.06391E-01-7.93763E+02
 -1       211-1.30448E+02-5.15576E-01-8.63294E+02
 -1       212-1.32641E+02-4.30060E-01-9.33836E+02
 -1       213-1.34475E+02-3.50285E-01-1.00518E+03
 -1       214-1.35978E+02-2.76697E-01-1.07714E+03
 -1       215-1.37177E+02-2.09737E-01-1.14953E+03
 -1       216-1.38104E+02-1.49838E-01-1.22219E+03
 -1       217-1.38790E+02-9.74971E-02-1.29497E+03
 -1       218-1.39269E+02-5.33527E-02-1.36772E+03
 -1       219-1.39579E+02-1.83251E-02-1.44034E+03
 -1       220-1.39758E+02 6.62582E-03-1.51273E+03
 -1       221-1.39843E+02 2.59224E-02-1.58489E+03
 -1       222-1.02279E+01-2.17800E+00-7.11194E+00
 -1       223-2.08104E+01-2.49131E+00-2.08617E+01
 -1       224-3.11402E+01-2.32038E+00-4.02183E+01
 -1       225-4.09880E+01-2.19246E+00-6.42767E+01
 -1       226-5.02902E+01-2.07129E+00-9.30822E+01
 -1       227-5.90544E+01-1.94840E+00-1.26580E+02
 -1       228-6.72881E+01-1.82678E+00-1.64529E+02
 -1       229-7.49948E+01-1.70650E+00-2.06627E+02
 -1       230-8.21792E+01-1.58747E+00-2.52576E+02
 -1       231-8.88469E+01-1.46992E+00-3.02089E+02
 -1       232-9.50052E+01-1.35417E+00-3.54885E+02
 -1       233-1.00663E+02-1.24057E+00-4.10687E+02
 -1       234-1.05829E+02-1.12946E+00-4.69223E+02
 -1       235-1.10517E+02-1.02121E+00-5.30222E+02
 -1       236-1.14739E+02-9.16191E-01-5.93424E+02
 -1       237-1.18510E+02-8.14790E-01-6.58573E+02
 -1       238-1.21847E+02-7.17412E-01-7.25419E+02
 -1       239-1.24769E+02-6.24467E-01-7.93726E+02
 -1       240-1.27294E+02-5.36379E-01-8.63262E+02
 -1       241-1.29447E+02-4.53574E-01-9.33810E+02
 -1       242-1.31249E+02-3.76488E-01-1.00516E+03
 -1       243-1.32729E+02-3.05558E-01-1.07713E+03
 -1       244-1.33913E+02-2.41236E-01-1.14952E+03
 -1       245-1.34830E+02-1.83969E-01-1.22218E+03
 -1       246-1.35514E+02-1.34208E-01-1.29496E+03
 -1       247-1.35998E+02-9.22818E-02-1.36772E+03
 -1       248-1.36316E+02-5.84823E-02-1.44034E+03
 -1       249-1.36506E+02-3.42356E-02-1.51273E+03
 -1       250-1.36600E+02-1.95197E-02-1.58489E+03
 -1       251-1.36644E+02-5.13803E-03-1.63261E+03
 -1       252 1.67958E+02-1.71220E-02-1.90240E+03
 -1       253 1.67885E+02-1.17243E-02-1.81582E+03
 -1       254 1.67705E+02-5.44502E-03-1.72890E+03
 -1       255 1.67367E+02 3.59562E-03-1.64173E+03
 -1       256 1.66823E+02 1.50934E-02-1.55440E+03
 -1       257 1.66030E+02 2.87009E-02-1.46705E+03
 -1       258 1.64946E+02 4.41994E-02-1.37984E+03
 -1       259 1.63533E+02 6.14544E-02-1.29295E+03
 -1       260 1.61754E+02 8.03566E-02-1.20658E+03
 -1       261 1.59575E+02 1.00797E-01-1.12095E+03
 -1       262 1.56963E+02 1.22667E-01-1.03628E+03
 -1       263 1.53890E+02 1.45854E-01-9.52823E+02
 -1       264 1.50329E+02 1.70246E-01-8.70847E+02
 -1       265 1.46254E+02 1.95737E-01-7.90623E+02
 -1       266 1.41642E+02 2.22217E-01-7.12438E+02
 -1       267 1.36475E+02 2.49577E-01-6.36590E+02
 -1       268 1.30732E+02 2.77720E-01-5.63386E+02
 -1       269 1.24399E+02 3.06545E-01-4.93141E+02
 -1       270 1.17460E+02 3.35959E-01-4.26176E+02
 -1       271 1.09904E+02 3.65870E-01-3.62821E+02
 -1       272 1.01720E+02 3.96223E-01-3.03407E+02
 -1       273 9.28987E+01 4.26951E-01-2.48272E+02
 -1       274 8.34338E+01 4.57885E-01-1.97759E+02
 -1       275 7.33190E+01 4.88607E-01-1.52213E+02
 -1       276 6.25503E+01 5.18464E-01-1.11979E+02
 -1       277 5.11273E+01 5.47668E-01-7.73815E+01
 -1       278 3.90487E+01 5.89215E-01-4.87202E+01
 -1       279 2.62544E+01 6.63515E-01-2.62390E+01
 -1       280 1.28643E+01 5.93017E-01-1.01609E+01
 -1       281-1.36325E+05-3.49790E+04-1.24433E+06
 -1       282-1.01277E+06-3.95730E+04 1.29354E+06
 -1       283 1.02279E+01 2.17800E+00-7.11194E+00
 -1       284 2.08104E+01 2.49131E+00-2.08617E+01
 -1       285 3.11402E+01 2.32038E+00-4.02183E+01
 -1       286 4.09880E+01 2.19246E+00-6.42767E+01
 -1       287 5.02902E+01 2.07129E+00-9.30822E+01
 -1       288 5.90544E+01 1.94840E+00-1.26580E+02
 -1       289 6.72881E+01 1.82678E+00-1.64529E+02
 -1       290 7.49948E+01 1.70650E+00-2.06627E+02
 -1       291 8.21792E+01 1.58747E+00-2.52576E+02
 -1       292 8.88469E+01 1.46992E+00-3.02089E+02
 -1       293 9.50052E+01 1.35417E+00-3.54885E+02
 -1       294 1.00663E+02 1.24057E+00-4.10687E+02
 -1       295 1.05829E+02 1.12946E+00-4.69223E+02
 -1       296 1.10517E+02 1.02121E+00-5.30222E+02
 -1       297 1.14739E+02 9.16190E-01-5.93424E+02
 -1       298 1.18510E+02 8.14789E-01-6.58573E+02
 -1       299 1.21847E+02 7.17411E-01-7.25419E+02
 -1       300 1.24769E+02 6.24467E-01-7.93726E+02
 -1       301 1.27294E+02 5.36377E-01-8.63262E+02
 -1       302 1.29447E+02 4.53573E-01-9.33810E+02
 -1       303 1.31249E+02 3.76485E-01-1.00516E+03
 -1       304 1.32729E+02 3.05555E-01-1.07713E+03
 -1       305 1.33913E+02 2.41232E-01-1.14952E+03
 -1       306 1.34830E+02 1.83968E-01-1.22218E+03
 -1       307 1.35514E+02 1.34209E-01-1.29496E+03
 -1       308 1.35998E+02 9.22826E-02-1.36772E+03
 -1       309 1.36316E+02 5.84827E-02-1.44034E+03
 -1       310 1.36506E+02 3.42335E-02-1.51273E+03
 -1       311 1.36600E+02 1.95172E-02-1.58489E+03
 -1       312 1.36644E+02 5.13451E-03-1.63261E+03
 -1       313 1.06793E+01 2.29150E+00-7.25929E+00
 -1       314 2.15690E+01 2.57788E+00-2.10046E+01
 -1       315 3.21179E+01 2.34646E+00-4.03560E+01
 -1       316 4.21768E+01 2.20074E+00-6.44075E+01
 -1       317 5.16933E+01 2.08105E+00-9.32056E+01
 -1       318 6.06641E+01 1.95962E+00-1.26696E+02
 -1       319 6.90913E+01 1.83693E+00-1.64638E+02
 -1       320 7.69779E+01 1.71440E+00-2.06729E+02
 -1       321 8.43291E+01 1.59290E+00-2.52671E+02
 -1       322 9.11508E+01 1.47289E+00-3.02177E+02
 -1       323 9.74506E+01 1.35468E+00-3.54966E+02
 -1       324 1.03237E+02 1.23856E+00-4.10761E+02
 -1       325 1.08521E+02 1.12486E+00-4.69290E+02
 -1       326 1.13314E+02 1.01397E+00-5.30283E+02
 -1       327 1.17629E+02 9.06273E-01-5.93479E+02
 -1       328 1.21482E+02 8.02166E-01-6.58621E+02
 -1       329 1.24890E+02 7.02064E-01-7.25462E+02
 -1       330 1.27872E+02 6.06390E-01-7.93763E+02
 -1       331 1.30448E+02 5.15576E-01-8.63294E+02
 -1       332 1.32641E+02 4.30059E-01-9.33836E+02
 -1       333 1.34475E+02 3.50283E-01-1.00518E+03
 -1       334 1.35978E+02 2.76695E-01-1.07714E+03
 -1       335 1.37177E+02 2.09733E-01-1.14953E+03
 -1       336 1.38104E+02 1.49837E-01-1.22219E+03
 -1       337 1.38790E+02 9.74994E-02-1.29497E+03
 -1       338 1.39269E+02 5.33577E-02-1.36772E+03
 -1       339 1.39579E+02 1.83258E-02-1.44034E+03
 -1       340 1.39758E+02-6.62845E-03-1.51273E+03
 -1       341 1.39843E+02-2.59256E-02-1.58489E+03
 -1       342 1.39880E+02-3.72071E-02-1.63261E+03
 -1       343-1.06793E+01 2.29150E+00-7.25928E+00
 -1       344-2.15690E+01 2.57788E+00-2.10045E+01
 -1       345-3.21179E+01 2.34646E+00-4.03560E+01
 -1       346-4.21768E+01 2.20074E+00-6.44075E+01
 -1       347-5.16933E+01 2.08104E+00-9.32056E+01
 -1       348-6.06641E+01 1.95962E+00-1.26696E+02
 -1       349-6.90913E+01 1.83693E+00-1.64638E+02
 -1       350-7.69779E+01 1.71440E+00-2.06729E+02
 -1       351-8.43291E+01 1.59290E+00-2.52671E+02
 -1       352-9.11508E+01 1.47289E+00-3.02177E+02
 -1       353-9.74506E+01 1.35468E+00-3.54966E+02
 -1       354-1.03237E+02 1.23856E+00-4.10761E+02
 -1       355-1.08521E+02 1.12486E+00-4.69290E+02
 -1       356-1.13314E+02 1.01397E+00-5.30283E+02
 -1       357-1.17629E+02 9.06270E-01-5.93479E+02
 -1       358-1.21482E+02 8.02165E-01-6.58621E+02
 -1       359-1.24890E+02 7.02062E-01-7.25462E+02
 -1       360-1.27872E+02 6.06389E-01-7.93763E+02
 -1       361-1.30448E+02 5.15576E-01-8.63294E+02
 -1       362-1.32641E+02 4.30057E-01-9.33836E+02
 -1       363-1.34475E+02 3.50282E-01-1.00518E+03
 -1       364-1.35978E+02 2.76696E-01-1.07714E+03
 -1       365-1.37177E+02 2.09735E-01-1.14953E+03
 -1       366-1.38104E+02 1.49837E-01-1.22219E+03
 -1       367-1.38790E+02 9.74972E-02-1.29497E+03
 -1       368-1.39269E+02 5.33549E-02-1.36772E+03
 -1       369-1.39579E+02 1.83265E-02-1.44034E+03
 -1       370-1.39758E+02-6.62497E-03-1.51273E+03
 -1       371-1.39843E+02-2.59231E-02-1.58489E+03
 -1       372-1.02279E+01 2.17800E+00-7.11194E+00
 -1       373-2.08104E+01 2.49131E+00-2.08617E+01
 -1       374-3.11402E+01 2.32038E+00-4.02183E+01
 -1       375-4.09880E+01 2.19246E+00-6.42767E+01
 -1       376-5.02902E+01 2.07129E+00-9.30822E+01
 -1       377-5.90544E+01 1.94840E+00-1.26580E+02
 -1       378-6.72881E+01 1.82678E+00-1.64529E+02
 -1       379-7.49948E+01 1.70650E+00-2.06627E+02
 -1       380-8.21792E+01 1.58747E+00-2.52576E+02
 -1       381-8.88469E+01 1.46992E+00-3.02089E+02
 -1       382-9.50052E+01 1.35417E+00-3.54885E+02
 -1       383-1.00663E+02 1.24057E+00-4.10687E+02
 -1       384-1.05829E+02 1.12946E+00-4.69223E+02
 -1       385-1.10517E+02 1.02121E+00-5.30222E+02
 -1       386-1.14739E+02 9.16189E-01-5.93424E+02
 -1       387-1.18510E+02 8.14789E-01-6.58573E+02
 -1       388-1.21847E+02 7.17409E-01-7.25419E+02
 -1       389-1.24769E+02 6.24466E-01-7.93726E+02
 -1       390-1.27294E+02 5.36377E-01-8.63262E+02
 -1       391-1.29447E+02 4.53571E-01-9.33810E+02
 -1       392-1.31249E+02 3.76484E-01-1.00516E+03
 -1       393-1.32729E+02 3.05557E-01-1.07713E+03
 -1       394-1.33913E+02 2.41234E-01-1.14952E+03
 -1       395-1.34830E+02 1.83969E-01-1.22218E+03
 -1       396-1.35514E+02 1.34208E-01-1.29496E+03
 -1       397-1.35998E+02 9.22822E-02-1.36772E+03
 -1       398-1.36316E+02 5.84827E-02-1.44034E+03
 -1       399-1.36506E+02 3.42363E-02-1.51273E+03
 -1       400-1.36600E+02 1.95191E-02-1.58489E+03
 -1       401 1.01277E+06-3.95730E+04 1.29354E+06
 -1       402 1.36325E+05-3.49790E+04-1.24433E+06
 -1       403-1.39880E+02-3.72046E-02-1.63261E+03
 -1       404-1.28643E+01 5.93015E-01-1.01609E+01
 -1       405-2.62544E+01 6.63516E-01-2.62389E+01
 -1       406-3.90487E+01 5.89216E-01-4.87202E+01
 -1       407-5.11273E+01 5.47669E-01-7.73815E+01
 -1       408-6.25503E+01 5.18464E-01-1.11979E+02
 -1       409-7.33190E+01 4.88605E-01-1.52213E+02
 -1       410-8.34338E+01 4.57881E-01-1.97759E+02
 -1       411-9.28987E+01 4.26950E-01-2.48272E+02
 -1       412-1.01720E+02 3.96223E-01-3.03407E+02
 -1       413-1.09904E+02 3.65872E-01-3.62821E+02
 -1       414-1.17460E+02 3.35957E-01-4.26176E+02
 -1       415-1.24399E+02 3.06546E-01-4.93141E+02
 -1       416-1.30732E+02 2.77720E-01-5.63386E+02
 -1       417-1.36475E+02 2.49576E-01-6.36590E+02
 -1       418-1.41642E+02 2.22213E-01-7.12438E+02
 -1       419-1.46254E+02 1.95735E-01-7.90623E+02
 -1       420-1.50329E+02 1.70248E-01-8.70847E+02
 -1       421-1.53890E+02 1.45852E-01-9.52823E+02
 -1       422-1.56963E+02 1.22668E-01-1.03628E+03
 -1       423-1.59575E+02 1.00797E-01-1.12095E+03
 -1       424-1.61754E+02 8.03585E-02-1.20658E+03
 -1       425-1.63533E+02 6.14537E-02-1.29295E+03
 -1       426-1.64946E+02 4.42031E-02-1.37984E+03
 -1       427-1.66030E+02 2.87042E-02-1.46705E+03
 -1       428-1.66823E+02 1.50932E-02-1.55440E+03
 -1       429-1.67367E+02 3.59369E-03-1.64173E+03
 -1       430-1.67705E+02-5.44678E-03-1.72890E+03
 -1       431-1.67885E+02-1.17203E-02-1.81582E+03
 -1       432-1.67958E+02-1.71224E-02-1.90240E+03
 -1       433-1.36644E+02 5.13506E-03-1.63261E+03
 -1       434-1.01277E+06 3.95730E+04 1.29354E+06
 -1       435-1.36325E+05 3.49790E+04-1.24433E+06
 -1       436 1.67958E+02 1.71227E-02-1.90240E+03
 -1       437 1.67885E+02 1.17259E-02-1.81582E+03
 -1       438 1.67705E+02 5.44791E-03-1.72890E+03
 -1       439 1.67367E+02-3.59608E-03-1.64173E+03
 -1       440 1.66823E+02-1.50944E-02-1.55440E+03
 -1       441 1.66030E+02-2.87039E-02-1.46705E+03
 -1       442 1.64946E+02-4.42031E-02-1.37984E+03
 -1       443 1.63533E+02-6.14511E-02-1.29295E+03
 -1       444 1.61754E+02-8.03533E-02-1.20658E+03
 -1       445 1.59575E+02-1.00794E-01-1.12095E+03
 -1       446 1.56963E+02-1.22667E-01-1.03628E+03
 -1       447 1.53890E+02-1.45857E-01-9.52823E+02
 -1       448 1.50329E+02-1.70247E-01-8.70847E+02
 -1       449 1.46254E+02-1.95735E-01-7.90623E+02
 -1       450 1.41642E+02-2.22216E-01-7.12438E+02
 -1       451 1.36475E+02-2.49576E-01-6.36590E+02
 -1       452 1.30732E+02-2.77720E-01-5.63386E+02
 -1       453 1.24399E+02-3.06543E-01-4.93141E+02
 -1       454 1.17460E+02-3.35956E-01-4.26176E+02
 -1       455 1.09904E+02-3.65870E-01-3.62821E+02
 -1       456 1.01720E+02-3.96225E-01-3.03407E+02
 -1       457 9.28987E+01-4.26949E-01-2.48272E+02
 -1       458 8.34338E+01-4.57882E-01-1.97759E+02
 -1       459 7.33190E+01-4.88606E-01-1.52213E+02
 -1       460 6.25503E+01-5.18464E-01-1.11979E+02
 -1       461 5.11273E+01-5.47668E-01-7.73815E+01
 -1       462 3.90487E+01-5.89215E-01-4.87202E+01
 -1       463 2.62544E+01-6.63515E-01-2.62389E+01
 -1       464 1.28643E+01-5.93016E-01-1.01609E+01
 -1       465 1.39880E+02 3.72059E-02-1.63261E+03
 -1       466 1.06793E+01-2.29150E+00-7.25929E+00
 -1       467 2.15690E+01-2.57788E+00-2.10045E+01
 -1       468 3.21179E+01-2.34646E+00-4.03560E+01
 -1       469 4.21768E+01-2.20074E+00-6.44075E+01
 -1       470 5.16933E+01-2.08104E+00-9.32056E+01
 -1       471 6.06641E+01-1.95962E+00-1.26696E+02
 -1       472 6.90913E+01-1.83693E+00-1.64638E+02
 -1       473 7.69779E+01-1.71440E+00-2.06729E+02
 -1       474 8.43291E+01-1.59290E+00-2.52671E+02
 -1       475 9.11508E+01-1.47289E+00-3.02177E+02
 -1       476 9.74506E+01-1.35468E+00-3.54966E+02
 -1       477 1.03237E+02-1.23856E+00-4.10761E+02
 -1       478 1.08521E+02-1.12486E+00-4.69290E+02
 -1       479 1.13314E+02-1.01397E+00-5.30283E+02
 -1       480 1.17629E+02-9.06270E-01-5.93479E+02
 -1       481 1.21482E+02-8.02165E-01-6.58621E+02
 -1       482 1.24890E+02-7.02064E-01-7.25462E+02
 -1       483 1.27872E+02-6.06392E-01-7.93763E+02
 -1       484 1.30448E+02-5.15576E-01-8.63294E+02
 -1       485 1.32641E+02-4.30056E-01-9.33836E+02
 -1       486 1.34475E+02-3.50280E-01-1.00518E+03
 -1       487 1.35978E+02-2.76695E-01-1.07714E+03
 -1       488 1.37177E+02-2.09735E-01-1.14953E+03
 -1       489 1.38104E+02-1.49836E-01-1.22219E+03
 -1       490 1.38790E+02-9.74979E-02-1.29497E+03
 -1       491 1.39269E+02-5.33577E-02-1.36772E+03
 -1       492 1.39579E+02-1.83279E-02-1.44034E+03
 -1       493 1.39758E+02 6.62662E-03-1.51273E+03
 -1       494 1.39843E+02 2.59250E-02-1.58489E+03
 -1       495 1.02279E+01-2.17800E+00-7.11194E+00
 -1       496 2.08104E+01-2.49131E+00-2.08617E+01
 -1       497 3.11402E+01-2.32038E+00-4.02183E+01
 -1       498 4.09880E+01-2.19246E+00-6.42767E+01
 -1       499 5.02902E+01-2.07129E+00-9.30822E+01
 -1       500 5.90544E+01-1.94840E+00-1.26580E+02
 -1       501 6.72881E+01-1.82678E+00-1.64529E+02
 -1       502 7.49948E+01-1.70650E+00-2.06627E+02
 -1       503 8.21792E+01-1.58747E+00-2.52576E+02
 -1       504 8.88469E+01-1.46992E+00-3.02089E+02
 -1       505 9.50052E+01-1.35417E+00-3.54885E+02
 -1       506 1.00663E+02-1.24057E+00-4.10687E+02
 -1       507 1.05829E+02-1.12946E+00-4.69223E+02
 -1       508 1.10517E+02-1.02121E+00-5.30222E+02
 -1       509 1.14739E+02-9.16188E-01-5.93424E+02
 -1       510 1.18510E+02-8.14788E-01-6.58573E+02
 -1       511 1.21847E+02-7.17410E-01-7.25419E+02
 -1       512 1.24769E+02-6.24468E-01-7.93726E+02
 -1       513 1.27294E+02-5.36379E-01-8.63262E+02
 -1       514 1.29447E+02-4.53573E-01-9.33810E+02
 -1       515 1.31249E+02-3.76485E-01-1.00516E+03
 -1       516 1.32729E+02-3.05556E-01-1.07713E+03
 -1       517 1.33913E+02-2.41232E-01-1.14952E+03
 -1       518 1.34830E+02-1.83966E-01-1.22218E+03
 -1       519 1.35514E+02-1.34207E-01-1.29496E+03
 -1       520 1.35998E+02-9.22827E-02-1.36772E+03
 -1       521 1.36316E+02-5.84837E-02-1.44034E+03
 -1       522 1.36506E+02-3.42351E-02-1.51273E+03
 -1       523 1.36600E+02-1.95190E-02-1.58489E+03
 -1       524 1.36644E+02-5.13688E-03-1.63261E+03
 -1       525-1.32775E+01-6.88600E-02-1.96637E+01
 -1       526-2.77833E+01-6.44683E-02-5.49676E+01
 -1       527-4.20143E+01-5.94625E-02-1.06686E+02
 -1       528-5.54327E+01-5.58837E-02-1.73128E+02
 -1       529-6.80513E+01-5.26165E-02-2.53359E+02
 -1       530-7.99221E+01-4.95145E-02-3.46595E+02
 -1       531-9.10680E+01-4.64118E-02-4.52070E+02
 -1       532-1.01500E+02-4.33150E-02-5.69002E+02
 -1       533-1.11225E+02-4.02427E-02-6.96600E+02
 -1       534-1.20250E+02-3.72066E-02-8.34075E+02
 -1       535-1.28587E+02-3.42189E-02-9.80649E+02
 -1       536-1.36245E+02-3.12772E-02-1.13555E+03
 -1       537-1.43240E+02-2.83939E-02-1.29802E+03
 -1       538-1.49586E+02-2.55923E-02-1.46731E+03
 -1       539-1.55301E+02-2.28757E-02-1.64271E+03
 -1       540-1.60407E+02-2.02414E-02-1.82348E+03
 -1       541-1.64924E+02-1.77061E-02-2.00896E+03
 -1       542-1.68879E+02-1.52784E-02-2.19847E+03
 -1       543-1.72299E+02-1.29763E-02-2.39138E+03
 -1       544-1.75213E+02-1.08141E-02-2.58708E+03
 -1       545-1.77654E+02-8.79371E-03-2.78500E+03
 -1       546-1.79658E+02-6.92904E-03-2.98460E+03
 -1       547-1.81261E+02-5.23518E-03-3.18538E+03
 -1       548-1.82505E+02-3.73269E-03-3.38688E+03
 -1       549-1.83432E+02-2.39281E-03-3.58869E+03
 -1       550-1.84088E+02-1.27085E-03-3.79044E+03
 -1       551-1.84520E+02-3.75872E-04-3.99182E+03
 -1       552-1.84778E+02 2.77003E-04-4.19258E+03
 -1       553-1.84917E+02 7.43765E-04-4.39252E+03
 -1       554-6.66242E-07-1.86640E-07-1.84432E+01
 -1       555 4.24697E-06-6.98301E-07-5.30671E+01
 -1       556 3.66999E-06-4.17830E-08-1.04730E+02
 -1       557-2.25563E-06 1.81721E-06-1.71287E+02
 -1       558-1.86899E-06 5.59908E-07-2.51634E+02
 -1       559-2.22808E-06 3.86954E-07-3.44978E+02
 -1       560-1.14536E-06-7.70535E-07-4.50553E+02
 -1       561 3.29310E-06 5.18142E-07-5.67582E+02
 -1       562-7.87547E-07 3.01798E-06-6.95274E+02
 -1       563-5.44482E-06 3.64139E-06-8.32844E+02
 -1       564-6.99083E-06 2.30649E-06-9.79509E+02
 -1       565-5.63690E-06 9.36330E-07-1.13450E+03
 -1       566-8.93687E-07 5.96782E-06-1.29706E+03
 -1       567-7.19192E-08 2.03623E-06-1.46644E+03
 -1       568-3.55209E-06-6.61163E-07-1.64191E+03
 -1       569-7.31275E-07-2.81177E-06-1.82277E+03
 -1       570-8.23213E-08-5.68690E-06-2.00832E+03
 -1       571-3.37837E-07 2.68259E-06-2.19791E+03
 -1       572-5.16211E-07-1.81442E-07-2.39088E+03
 -1       573 1.95340E-06-3.03764E-06-2.58665E+03
 -1       574 2.71416E-08-5.59710E-07-2.78463E+03
 -1       575-4.52576E-07 4.54730E-06-2.98428E+03
 -1       576-3.04823E-06-4.38836E-06-3.18511E+03
 -1       577-2.64360E-06-3.45410E-07-3.38666E+03
 -1       578-3.37481E-06 1.13519E-06-3.58850E+03
 -1       579-4.12316E-06-3.39588E-06-3.79028E+03
 -1       580 1.88572E-06-4.02823E-06-3.99169E+03
 -1       581 5.16812E-06-4.41861E-06-4.19246E+03
 -1       582 4.38122E-07-1.32648E-05-4.39240E+03
 -1       583 1.32775E+01 6.88570E-02-1.96637E+01
 -1       584 2.77833E+01 6.44614E-02-5.49676E+01
 -1       585 4.20143E+01 5.94564E-02-1.06686E+02
 -1       586 5.54327E+01 5.58823E-02-1.73128E+02
 -1       587 6.80513E+01 5.26179E-02-2.53359E+02
 -1       588 7.99221E+01 4.95185E-02-3.46595E+02
 -1       589 9.10679E+01 4.64156E-02-4.52070E+02
 -1       590 1.01500E+02 4.33149E-02-5.69002E+02
 -1       591 1.11225E+02 4.02441E-02-6.96600E+02
 -1       592 1.20250E+02 3.72111E-02-8.34075E+02
 -1       593 1.28587E+02 3.42193E-02-9.80649E+02
 -1       594 1.36245E+02 3.12784E-02-1.13555E+03
 -1       595 1.43240E+02 2.84038E-02-1.29802E+03
 -1       596 1.49586E+02 2.56013E-02-1.46731E+03
 -1       597 1.55301E+02 2.28780E-02-1.64271E+03
 -1       598 1.60407E+02 2.02380E-02-1.82348E+03
 -1       599 1.64924E+02 1.76983E-02-2.00896E+03
 -1       600 1.68879E+02 1.52763E-02-2.19847E+03
 -1       601 1.72299E+02 1.29766E-02-2.39138E+03
 -1       602 1.75213E+02 1.08175E-02-2.58708E+03
 -1       603 1.77654E+02 8.79034E-03-2.78500E+03
 -1       604 1.79658E+02 6.92509E-03-2.98460E+03
 -1       605 1.81261E+02 5.22918E-03-3.18538E+03
 -1       606 1.82505E+02 3.71847E-03-3.38688E+03
 -1       607 1.83432E+02 2.39490E-03-3.58869E+03
 -1       608 1.84087E+02 1.27860E-03-3.79044E+03
 -1       609 1.84520E+02 3.73976E-04-3.99182E+03
 -1       610 1.84778E+02-2.86910E-04-4.19258E+03
 -1       611 1.84917E+02-7.44737E-04-4.39252E+03
 -1       612 1.32775E+01-6.88558E-02-1.96637E+01
 -1       613 2.77833E+01-6.44654E-02-5.49676E+01
 -1       614 4.20143E+01-5.94588E-02-1.06686E+02
 -1       615 5.54327E+01-5.58770E-02-1.73128E+02
 -1       616 6.80513E+01-5.26166E-02-2.53359E+02
 -1       617 7.99221E+01-4.95119E-02-3.46595E+02
 -1       618 9.10679E+01-4.64039E-02-4.52070E+02
 -1       619 1.01500E+02-4.33116E-02-5.69002E+02
 -1       620 1.11225E+02-4.02377E-02-6.96600E+02
 -1       621 1.20250E+02-3.72015E-02-8.34075E+02
 -1       622 1.28587E+02-3.42187E-02-9.80649E+02
 -1       623 1.36245E+02-3.12746E-02-1.13555E+03
 -1       624 1.43240E+02-2.84021E-02-1.29802E+03
 -1       625 1.49586E+02-2.56069E-02-1.46731E+03
 -1       626 1.55301E+02-2.28770E-02-1.64271E+03
 -1       627 1.60407E+02-2.02322E-02-1.82348E+03
 -1       628 1.64924E+02-1.77012E-02-2.00896E+03
 -1       629 1.68879E+02-1.52842E-02-2.19847E+03
 -1       630 1.72299E+02-1.29886E-02-2.39138E+03
 -1       631 1.75213E+02-1.08248E-02-2.58708E+03
 -1       632 1.77654E+02-8.80496E-03-2.78500E+03
 -1       633 1.79658E+02-6.94312E-03-2.98460E+03
 -1       634 1.81261E+02-5.23647E-03-3.18538E+03
 -1       635 1.82505E+02-3.71900E-03-3.38688E+03
 -1       636 1.83432E+02-2.39556E-03-3.58869E+03
 -1       637 1.84088E+02-1.27856E-03-3.79044E+03
 -1       638 1.84520E+02-3.78337E-04-3.99182E+03
 -1       639 1.84778E+02 2.85464E-04-4.19258E+03
 -1       640 1.84917E+02 7.48287E-04-4.39252E+03
 -1       641-3.40880E-06 2.64734E-07-1.84432E+01
 -1       642 1.70345E-06-1.88490E-06-5.30671E+01
 -1       643 2.90763E-06-4.50615E-07-1.04730E+02
 -1       644-4.03147E-06 1.74878E-06-1.71287E+02
 -1       645-5.43203E-06 1.55966E-06-2.51634E+02
 -1       646-2.44958E-06 2.75236E-06-3.44978E+02
 -1       647-1.05764E-07-2.13536E-06-4.50553E+02
 -1       648 2.70046E-06-4.52550E-06-5.67582E+02
 -1       649-1.24846E-06 2.67447E-06-6.95274E+02
 -1       650-3.71845E-06 3.62482E-06-8.32844E+02
 -1       651-4.96421E-06 3.47785E-06-9.79509E+02
 -1       652-3.86498E-06 5.09559E-06-1.13450E+03
 -1       653-4.68922E-07 1.25601E-06-1.29706E+03
 -1       654-2.37750E-06-4.03351E-06-1.46644E+03
 -1       655-4.36780E-06-6.23552E-06-1.64191E+03
 -1       656-2.98591E-06 4.67750E-06-1.82277E+03
 -1       657-2.14968E-06 3.34276E-06-2.00832E+03
 -1       658-3.34675E-06 4.38435E-06-2.19791E+03
 -1       659-1.51992E-06 1.02785E-06-2.39088E+03
 -1       660 3.52236E-06 3.19129E-06-2.58665E+03
 -1       661-1.47172E-06-1.56554E-06-2.78463E+03
 -1       662-2.80413E-06-3.24667E-06-2.98428E+03
 -1       663-2.28175E-06 6.30232E-06-3.18511E+03
 -1       664-3.65101E-06 6.57454E-07-3.38666E+03
 -1       665-4.36596E-06-7.86733E-06-3.58850E+03
 -1       666-3.00903E-06-1.87686E-06-3.79028E+03
 -1       667 2.21579E-06-4.43078E-06-3.99169E+03
 -1       668 5.28033E-06 4.41009E-06-4.19246E+03
 -1       669 2.42272E-06 9.40541E-06-4.39240E+03
 -1       670-1.32775E+01 6.88566E-02-1.96638E+01
 -1       671-2.77833E+01 6.44597E-02-5.49676E+01
 -1       672-4.20143E+01 5.94549E-02-1.06686E+02
 -1       673-5.54327E+01 5.58767E-02-1.73128E+02
 -1       674-6.80513E+01 5.26144E-02-2.53359E+02
 -1       675-7.99221E+01 4.95159E-02-3.46595E+02
 -1       676-9.10680E+01 4.64092E-02-4.52070E+02
 -1       677-1.01500E+02 4.33133E-02-5.69002E+02
 -1       678-1.11225E+02 4.02419E-02-6.96600E+02
 -1       679-1.20250E+02 3.72089E-02-8.34075E+02
 -1       680-1.28587E+02 3.42197E-02-9.80649E+02
 -1       681-1.36245E+02 3.12860E-02-1.13555E+03
 -1       682-1.43240E+02 2.84058E-02-1.29802E+03
 -1       683-1.49586E+02 2.55946E-02-1.46731E+03
 -1       684-1.55301E+02 2.28709E-02-1.64271E+03
 -1       685-1.60407E+02 2.02432E-02-1.82348E+03
 -1       686-1.64924E+02 1.77078E-02-2.00896E+03
 -1       687-1.68879E+02 1.52815E-02-2.19847E+03
 -1       688-1.72299E+02 1.29944E-02-2.39138E+03
 -1       689-1.75213E+02 1.08200E-02-2.58708E+03
 -1       690-1.77654E+02 8.79268E-03-2.78500E+03
 -1       691-1.79658E+02 6.93470E-03-2.98460E+03
 -1       692-1.81261E+02 5.24846E-03-3.18538E+03
 -1       693-1.82505E+02 3.72438E-03-3.38688E+03
 -1       694-1.83432E+02 2.38180E-03-3.58869E+03
 -1       695-1.84088E+02 1.27073E-03-3.79044E+03
 -1       696-1.84520E+02 3.86708E-04-3.99182E+03
 -1       697-1.84778E+02-2.68544E-04-4.19258E+03
 -1       698-1.84917E+02-7.37544E-04-4.39252E+03
 -1       699-2.12135E+01-2.86864E+00-1.58069E+01
 -1       700-4.33456E+01-3.25099E+00-4.29667E+01
 -1       701-6.45553E+01-2.93011E+00-8.09742E+01
 -1       702-8.46657E+01-2.73850E+00-1.28876E+02
 -1       703-1.03697E+02-2.59087E+00-1.86490E+02
 -1       704-1.21637E+02-2.44024E+00-2.53490E+02
 -1       705-1.38489E+02-2.28722E+00-3.29363E+02
 -1       706-1.54259E+02-2.13403E+00-4.13521E+02
 -1       707-1.68958E+02-1.98204E+00-5.05378E+02
 -1       708-1.82597E+02-1.83192E+00-6.04364E+02
 -1       709-1.95191E+02-1.68401E+00-7.09915E+02
 -1       710-2.06759E+02-1.53867E+00-8.21479E+02
 -1       711-2.17319E+02-1.39633E+00-9.38508E+02
 -1       712-2.26897E+02-1.25745E+00-1.06047E+03
 -1       713-2.35519E+02-1.12253E+00-1.18683E+03
 -1       714-2.43215E+02-9.92054E-01-1.31708E+03
 -1       715-2.50020E+02-8.66555E-01-1.45074E+03
 -1       716-2.55972E+02-7.46557E-01-1.58731E+03
 -1       717-2.61111E+02-6.32598E-01-1.72634E+03
 -1       718-2.65483E+02-5.25230E-01-1.86739E+03
 -1       719-2.69137E+02-4.25007E-01-2.01006E+03
 -1       720-2.72126E+02-3.32483E-01-2.15395E+03
 -1       721-2.74508E+02-2.48214E-01-2.29870E+03
 -1       722-2.76342E+02-1.72730E-01-2.44399E+03
 -1       723-2.77694E+02-1.06658E-01-2.58951E+03
 -1       724-2.78633E+02-5.08939E-02-2.73500E+03
 -1       725-2.79231E+02-6.76258E-03-2.88022E+03
 -1       726-2.79566E+02 2.43080E-02-3.02499E+03
 -1       727-2.79719E+02 4.89494E-02-3.16926E+03
 -1       728-2.02919E+01-2.69062E+00-1.55067E+01
 -1       729-4.18610E+01-3.12345E+00-4.26769E+01
 -1       730-6.26208E+01-2.89591E+00-8.06994E+01
 -1       731-8.22903E+01-2.73185E+00-1.28614E+02
 -1       732-1.00890E+02-2.58192E+00-1.86243E+02
 -1       733-1.18418E+02-2.42863E+00-2.53258E+02
 -1       734-1.34884E+02-2.27692E+00-3.29145E+02
 -1       735-1.50295E+02-2.12692E+00-4.13318E+02
 -1       736-1.64660E+02-1.97847E+00-5.05189E+02
 -1       737-1.77991E+02-1.83186E+00-6.04189E+02
 -1       738-1.90303E+02-1.68749E+00-7.09754E+02
 -1       739-2.01612E+02-1.54580E+00-8.21331E+02
 -1       740-2.11938E+02-1.40721E+00-9.38374E+02
 -1       741-2.21306E+02-1.27217E+00-1.06034E+03
 -1       742-2.29741E+02-1.14116E+00-1.18672E+03
 -1       743-2.37274E+02-1.01466E+00-1.31699E+03
 -1       744-2.43937E+02-8.93169E-01-1.45065E+03
 -1       745-2.49767E+02-7.77204E-01-1.58723E+03
 -1       746-2.54806E+02-6.67292E-01-1.72628E+03
 -1       747-2.59096E+02-5.63965E-01-1.86734E+03
 -1       748-2.62687E+02-4.67760E-01-2.01002E+03
 -1       749-2.65630E+02-3.79232E-01-2.15391E+03
 -1       750-2.67980E+02-2.98942E-01-2.29867E+03
 -1       751-2.69797E+02-2.27447E-01-2.44397E+03
 -1       752-2.71145E+02-1.65301E-01-2.58949E+03
 -1       753-2.72090E+02-1.12914E-01-2.73499E+03
 -1       754-2.72705E+02-7.06656E-02-2.88021E+03
 -1       755-2.73063E+02-4.06591E-02-3.02499E+03
 -1       756-2.73237E+02-2.31815E-02-3.16926E+03
 -1       757 2.02919E+01 2.69062E+00-1.55067E+01
 -1       758 4.18610E+01 3.12345E+00-4.26769E+01
 -1       759 6.26208E+01 2.89591E+00-8.06994E+01
 -1       760 8.22903E+01 2.73185E+00-1.28614E+02
 -1       761 1.00890E+02 2.58192E+00-1.86243E+02
 -1       762 1.18418E+02 2.42863E+00-2.53258E+02
 -1       763 1.34884E+02 2.27692E+00-3.29145E+02
 -1       764 1.50295E+02 2.12692E+00-4.13318E+02
 -1       765 1.64660E+02 1.97847E+00-5.05189E+02
 -1       766 1.77991E+02 1.83186E+00-6.04189E+02
 -1       767 1.90303E+02 1.68749E+00-7.09754E+02
 -1       768 2.01612E+02 1.54580E+00-8.21331E+02
 -1       769 2.11938E+02 1.40721E+00-9.38374E+02
 -1       770 2.21306E+02 1.27217E+00-1.06034E+03
 -1       771 2.29741E+02 1.14116E+00-1.18672E+03
 -1       772 2.37274E+02 1.01466E+00-1.31699E+03
 -1       773 2.43937E+02 8.93168E-01-1.45065E+03
 -1       774 2.49767E+02 7.77206E-01-1.58723E+03
 -1       775 2.54806E+02 6.67289E-01-1.72628E+03
 -1       776 2.59096E+02 5.63961E-01-1.86734E+03
 -1       777 2.62687E+02 4.67759E-01-2.01002E+03
 -1       778 2.65630E+02 3.79228E-01-2.15391E+03
 -1       779 2.67980E+02 2.98933E-01-2.29867E+03
 -1       780 2.69797E+02 2.27439E-01-2.44397E+03
 -1       781 2.71145E+02 1.65302E-01-2.58949E+03
 -1       782 2.72090E+02 1.12922E-01-2.73499E+03
 -1       783 2.72705E+02 7.06668E-02-2.88021E+03
 -1       784 2.73063E+02 4.06599E-02-3.02499E+03
 -1       785 2.73237E+02 2.31772E-02-3.16926E+03
 -1       786 2.12135E+01 2.86865E+00-1.58069E+01
 -1       787 4.33456E+01 3.25099E+00-4.29668E+01
 -1       788 6.45553E+01 2.93010E+00-8.09742E+01
 -1       789 8.46657E+01 2.73850E+00-1.28876E+02
 -1       790 1.03697E+02 2.59087E+00-1.86490E+02
 -1       791 1.21637E+02 2.44024E+00-2.53490E+02
 -1       792 1.38489E+02 2.28722E+00-3.29363E+02
 -1       793 1.54259E+02 2.13403E+00-4.13521E+02
 -1       794 1.68958E+02 1.98204E+00-5.05378E+02
 -1       795 1.82597E+02 1.83192E+00-6.04364E+02
 -1       796 1.95191E+02 1.68401E+00-7.09915E+02
 -1       797 2.06759E+02 1.53867E+00-8.21479E+02
 -1       798 2.17319E+02 1.39633E+00-9.38508E+02
 -1       799 2.26897E+02 1.25745E+00-1.06047E+03
 -1       800 2.35519E+02 1.12253E+00-1.18683E+03
 -1       801 2.43215E+02 9.92054E-01-1.31708E+03
 -1       802 2.50020E+02 8.66552E-01-1.45074E+03
 -1       803 2.55972E+02 7.46556E-01-1.58731E+03
 -1       804 2.61111E+02 6.32597E-01-1.72634E+03
 -1       805 2.65483E+02 5.25230E-01-1.86739E+03
 -1       806 2.69137E+02 4.25007E-01-2.01006E+03
 -1       807 2.72126E+02 3.32482E-01-2.15395E+03
 -1       808 2.74508E+02 2.48207E-01-2.29870E+03
 -1       809 2.76342E+02 1.72722E-01-2.44399E+03
 -1       810 2.77694E+02 1.06656E-01-2.58951E+03
 -1       811 2.78633E+02 5.08966E-02-2.73500E+03
 -1       812 2.79231E+02 6.75964E-03-2.88022E+03
 -1       813 2.79566E+02-2.43063E-02-3.02499E+03
 -1       814 2.79719E+02-4.89550E-02-3.16926E+03
 -1       815-2.12135E+01 2.86865E+00-1.58069E+01
 -1       816-4.33456E+01 3.25099E+00-4.29667E+01
 -1       817-6.45553E+01 2.93010E+00-8.09742E+01
 -1       818-8.46657E+01 2.73850E+00-1.28876E+02
 -1       819-1.03697E+02 2.59087E+00-1.86490E+02
 -1       820-1.21637E+02 2.44023E+00-2.53490E+02
 -1       821-1.38489E+02 2.28722E+00-3.29363E+02
 -1       822-1.54259E+02 2.13403E+00-4.13521E+02
 -1       823-1.68958E+02 1.98204E+00-5.05378E+02
 -1       824-1.82597E+02 1.83192E+00-6.04364E+02
 -1       825-1.95191E+02 1.68401E+00-7.09915E+02
 -1       826-2.06759E+02 1.53867E+00-8.21479E+02
 -1       827-2.17319E+02 1.39633E+00-9.38508E+02
 -1       828-2.26897E+02 1.25745E+00-1.06047E+03
 -1       829-2.35519E+02 1.12253E+00-1.18683E+03
 -1       830-2.43215E+02 9.92054E-01-1.31708E+03
 -1       831-2.50020E+02 8.66555E-01-1.45074E+03
 -1       832-2.55972E+02 7.46553E-01-1.58731E+03
 -1       833-2.61111E+02 6.32597E-01-1.72634E+03
 -1       834-2.65483E+02 5.25227E-01-1.86739E+03
 -1       835-2.69137E+02 4.25005E-01-2.01006E+03
 -1       836-2.72126E+02 3.32490E-01-2.15395E+03
 -1       837-2.74508E+02 2.48216E-01-2.29870E+03
 -1       838-2.76342E+02 1.72727E-01-2.44399E+03
 -1       839-2.77694E+02 1.06654E-01-2.58951E+03
 -1       840-2.78633E+02 5.08952E-02-2.73500E+03
 -1       841-2.79231E+02 6.75731E-03-2.88022E+03
 -1       842-2.79566E+02-2.43030E-02-3.02499E+03
 -1       843-2.79719E+02-4.89517E-02-3.16926E+03
 -1       844-2.02919E+01 2.69062E+00-1.55067E+01
 -1       845-4.18610E+01 3.12345E+00-4.26769E+01
 -1       846-6.26208E+01 2.89591E+00-8.06994E+01
 -1       847-8.22903E+01 2.73185E+00-1.28614E+02
 -1       848-1.00890E+02 2.58192E+00-1.86243E+02
 -1       849-1.18418E+02 2.42863E+00-2.53258E+02
 -1       850-1.34884E+02 2.27692E+00-3.29145E+02
 -1       851-1.50295E+02 2.12692E+00-4.13318E+02
 -1       852-1.64660E+02 1.97847E+00-5.05189E+02
 -1       853-1.77991E+02 1.83186E+00-6.04189E+02
 -1       854-1.90303E+02 1.68749E+00-7.09754E+02
 -1       855-2.01612E+02 1.54580E+00-8.21331E+02
 -1       856-2.11938E+02 1.40721E+00-9.38374E+02
 -1       857-2.21306E+02 1.27217E+00-1.06034E+03
 -1       858-2.29741E+02 1.14116E+00-1.18672E+03
 -1       859-2.37274E+02 1.01466E+00-1.31699E+03
 -1       860-2.43937E+02 8.93166E-01-1.45065E+03
 -1       861-2.49767E+02 7.77201E-01-1.58723E+03
 -1       862-2.54806E+02 6.67289E-01-1.72628E+03
 -1       863-2.59096E+02 5.63960E-01-1.86734E+03
 -1       864-2.62687E+02 4.67759E-01-2.01002E+03
 -1       865-2.65630E+02 3.79230E-01-2.15391E+03
 -1       866-2.67980E+02 2.98939E-01-2.29867E+03
 -1       867-2.69797E+02 2.27440E-01-2.44397E+03
 -1       868-2.71145E+02 1.65300E-01-2.58949E+03
 -1       869-2.72090E+02 1.12917E-01-2.73499E+03
 -1       870-2.72705E+02 7.06639E-02-2.88021E+03
 -1       871-2.73063E+02 4.06627E-02-3.02499E+03
 -1       872-2.73237E+02 2.31790E-02-3.16926E+03
 -1       873 2.79719E+02 4.89540E-02-3.16926E+03
 -1       874 2.79566E+02 2.43071E-02-3.02499E+03
 -1       875 2.79231E+02-6.76194E-03-2.88022E+03
 -1       876 2.78633E+02-5.08960E-02-2.73500E+03
 -1       877 2.77694E+02-1.06655E-01-2.58951E+03
 -1       878 2.76342E+02-1.72721E-01-2.44399E+03
 -1       879 2.74508E+02-2.48210E-01-2.29870E+03
 -1       880 2.72126E+02-3.32482E-01-2.15395E+03
 -1       881 2.69137E+02-4.24999E-01-2.01006E+03
 -1       882 2.65483E+02-5.25221E-01-1.86739E+03
 -1       883 2.61111E+02-6.32596E-01-1.72634E+03
 -1       884 2.55972E+02-7.46557E-01-1.58731E+03
 -1       885 2.50020E+02-8.66553E-01-1.45074E+03
 -1       886 2.43215E+02-9.92054E-01-1.31708E+03
 -1       887 2.35519E+02-1.12252E+00-1.18683E+03
 -1       888 2.26897E+02-1.25745E+00-1.06047E+03
 -1       889 2.17319E+02-1.39633E+00-9.38508E+02
 -1       890 2.06759E+02-1.53867E+00-8.21479E+02
 -1       891 1.95191E+02-1.68401E+00-7.09915E+02
 -1       892 1.82597E+02-1.83192E+00-6.04364E+02
 -1       893 1.68958E+02-1.98204E+00-5.05378E+02
 -1       894 1.54259E+02-2.13403E+00-4.13521E+02
 -1       895 1.38489E+02-2.28722E+00-3.29363E+02
 -1       896 1.21637E+02-2.44023E+00-2.53490E+02
 -1       897 1.03697E+02-2.59087E+00-1.86490E+02
 -1       898 8.46657E+01-2.73850E+00-1.28876E+02
 -1       899 6.45553E+01-2.93011E+00-8.09742E+01
 -1       900 4.33456E+01-3.25099E+00-4.29667E+01
 -1       901 2.12135E+01-2.86864E+00-1.58069E+01
 -1       902 2.02919E+01-2.69062E+00-1.55067E+01
 -1       903 4.18610E+01-3.12345E+00-4.26769E+01
 -1       904 6.26208E+01-2.89591E+00-8.06994E+01
 -1       905 8.22903E+01-2.73185E+00-1.28614E+02
 -1       906 1.00890E+02-2.58192E+00-1.86243E+02
 -1       907 1.18418E+02-2.42863E+00-2.53258E+02
 -1       908 1.34884E+02-2.27692E+00-3.29145E+02
 -1       909 1.50295E+02-2.12692E+00-4.13318E+02
 -1       910 1.64660E+02-1.97847E+00-5.05189E+02
 -1       911 1.77991E+02-1.83186E+00-6.04189E+02
 -1       912 1.90303E+02-1.68749E+00-7.09754E+02
 -1       913 2.01612E+02-1.54580E+00-8.21331E+02
 -1       914 2.11938E+02-1.40721E+00-9.38374E+02
 -1       915 2.21306E+02-1.27217E+00-1.06034E+03
 -1       916 2.29741E+02-1.14116E+00-1.18672E+03
 -1       917 2.37274E+02-1.01466E+00-1.31699E+03
 -1       918 2.43937E+02-8.93168E-01-1.45065E+03
 -1       919 2.49767E+02-7.77205E-01-1.58723E+03
 -1       920 2.54806E+02-6.67288E-01-1.72628E+03
 -1       921 2.59096E+02-5.63957E-01-1.86734E+03
 -1       922 2.62687E+02-4.67754E-01-2.01002E+03
 -1       923 2.65630E+02-3.79230E-01-2.15391E+03
 -1       924 2.67980E+02-2.98934E-01-2.29867E+03
 -1       925 2.69797E+02-2.27438E-01-2.44397E+03
 -1       926 2.71145E+02-1.65299E-01-2.58949E+03
 -1       927 2.72090E+02-1.12918E-01-2.73499E+03
 -1       928 2.72705E+02-7.06642E-02-2.88021E+03
 -1       929 2.73063E+02-4.06586E-02-3.02499E+03
 -1       930 2.73237E+02-2.31811E-02-3.16926E+03
 -3
    1PSTEP                        12           1           1          
    1PGM                1.000000E+00                                  
    1PGK                1.030430E+05                                  
    1PHID                         -1                                  
    1PSUBC                         0                                  
    1PMODE                         3                                  
  100CL  103 51.08924173         930                     2    3MODAL      1
 -4  ERROR       1    1
 -5  STR(%)      1    1    0    0
 -1         1 3.49203E+01
 -1         2 3.49203E+01
 -1         3 8.61761E+01
 -1         4 8.61761E+01
 -1         5 3.49203E+01
 -1         6 3.49203E+01
 -1         7 8.61761E+01
 -1         8 8.61761E+01
 -1         9 1.83219E+01
 -1        10 8.61761E+01
 -1        11 1.80826E+01
 -1        12 1.80826E+01
 -1        13 4.70587E+01
 -1        14 4.70587E+01
 -1        15 1.83219E+01
 -1        16 8.61761E+01
 -1        17 1.80826E+01
 -1        18 1.80826E+01
 -1        19 4.70587E+01
 -1        20 4.70587E+01
 -1        21 1.80826E+01
 -1        22 1.80826E+01
 -1        23 4.70587E+01
 -1        24 4.70587E+01
 -1        25 1.83219E+01
 -1        26 8.61761E+01
 -1        27 1.83219E+01
 -1        28 1.80826E+01
 -1        29 1.80826E+01
 -1        30 8.61761E+01
 -1        31 4.70587E+01
 -1        32 4.70587E+01
 -1        33 3.49203E+01
 -1        34 2.52617E+01
 -1        35 2.30938E+01
 -1        36 2.32306E+01
 -1        37 2.32306E+01
 -1        38 2.31911E+01
 -1        39 2.30916E+01
 -1        40 2.29189E+01
 -1        41 2.26991E+01
 -1        42 2.24381E+01
 -1        43 2.21302E+01
 -1        44 2.17664E+01
 -1        45 2.13370E+01
 -1        46 2.08321E+01
 -1        47 2.02403E+01
 -1        48 1.95486E+01
 -1        49 1.87420E+01
 -1        50 1.78031E+01
 -1        51 1.67116E+01
 -1        52 1.54433E+01
 -1        53 1.39692E+01
 -1        54 1.22530E+01
 -1        55 1.02472E+01
 -1        56 9.90028E+00
 -1        57 1.52099E+01
 -1        58 2.33247E+01
 -1        59 4.37017E+01
 -1        60 8.45314E+01
 -1        61 8.61761E+01
 -1        62 3.49203E+01
 -1        63 2.52617E+01
 -1        64 2.30938E+01
 -1        65 2.32306E+01
 -1        66 2.32306E+01
 -1        67 2.31911E+01
 -1        68 2.30916E+01
 -1        69 2.29189E+01
 -1        70 2.26991E+01
 -1        71 2.24381E+01
 -1        72 2.21302E+01
 -1        73 2.17664E+01
 -1        74 2.13370E+01
 -1        75 2.08321E+01
 -1        76 2.02403E+01
 -1        77 1.95486E+01
 -1        78 1.87420E+01
 -1        79 1.78031E+01
 -1        80 1.67116E+01
 -1        81 1.54433E+01
 -1        82 1.39692E+01
 -1        83 1.22530E+01
 -1        84 1.02472E+01
 -1        85 9.90028E+00
 -1        86 1.52099E+01
 -1        87 2.33247E+01
 -1        88 4.37017E+01
 -1        89 8.45314E+01
 -1        90 8.61761E+01
 -1        91 5.89604E+01
 -1        92 5.89604E+01
 -1        93 5.89604E+01
 -1        94 5.89604E+01
 -1        95 5.89604E+01
 -1        96 5.89604E+01
 -1        97 3.49203E+01
 -1        98 2.52617E+01
 -1        99 2.30938E+01
 -1       100 2.32306E+01
 -1       101 2.32306E+01
 -1       102 2.31911E+01
 -1       103 2.30916E+01
 -1       104 2.29189E+01
 -1       105 2.26991E+01
 -1       106 2.24381E+01
 -1       107 2.21302E+01
 -1       108 2.17664E+01
 -1       109 2.13370E+01
 -1       110 2.08321E+01
 -1       111 2.02403E+01
 -1       112 1.95486E+01
 -1       113 1.87420E+01
 -1       114 1.78031E+01
 -1       115 1.67116E+01
 -1       116 1.54433E+01
 -1       117 1.39692E+01
 -1       118 1.22530E+01
 -1       119 1.02472E+01
 -1       120 9.90028E+00
 -1       121 1.52099E+01
 -1       122 2.33247E+01
 -1       123 4.37017E+01
 -1       124 8.45314E+01
 -1       125 8.61761E+01
 -1       126 1.71824E+01
 -1       127 1.44894E+01
 -1       128 1.71824E+01
 -1       129 3.49203E+01
 -1       130 2.52617E+01
 -1       131 2.30938E+01
 -1       132 2.32306E+01
 -1       133 2.32306E+01
 -1       134 2.31911E+01
 -1       135 2.30916E+01
 -1       136 2.29189E+01
 -1       137 2.26991E+01
 -1       138 2.24381E+01
 -1       139 2.21302E+01
 -1       140 2.17664E+01
 -1       141 2.13370E+01
 -1       142 2.08321E+01
 -1       143 2.02403E+01
 -1       144 1.95486E+01
 -1       145 1.87420E+01
 -1       146 1.78031E+01
 -1       147 1.67116E+01
 -1       148 1.54433E+01
 -1       149 1.39692E+01
 -1       150 1.22530E+01
 -1       151 1.02472E+01
 -1       152 9.90028E+00
 -1       153 1.52099E+01
 -1       154 2.33247E+01
 -1       155 4.37017E+01
 -1       156 8.45314E+01
 -1       157 8.61761E+01
 -1       158 1.71824E+01
 -1       159 1.44894E+01
 -1       160 1.71824E+01
 -1       161 1.83219E+01
 -1       162 2.56610E+00
 -1       163 2.05629E+00
 -1       164 2.05629E+00
 -1       165 1.97157E+00
 -1       166 1.97601E+00
 -1       167 1.99681E+00
 -1       168 2.02482E+00
 -1       169 2.06235E+00
 -1       170 2.10729E+00
 -1       171 2.15975E+00
 -1       172 2.22159E+00
 -1       173 2.29500E+00
 -1       174 2.38278E+00
 -1       175 2.48876E+00
 -1       176 2.61815E+00
 -1       177 2.77823E+00
 -1       178 2.97932E+00
 -1       179 3.23646E+00
 -1       180 3.57212E+00
 -1       181 4.02114E+00
 -1       182 4.63995E+00
 -1       183 6.40180E+00
 -1       184 9.90028E+00
 -1       185 1.52099E+01
 -1       186 2.33247E+01
 -1       187 4.37017E+01
 -1       188 8.45314E+01
 -1       189 8.61761E+01
 -1       190 1.80826E+01
 -1       191 1.80826E+01
 -1       192 8.61761E+01
 -1       193 1.80826E+01
 -1       194 4.26417E+00
 -1       195 1.92769E+00
 -1       196 1.94772E+00
 -1       197 1.99189E+00
 -1       198 2.00249E+00
 -1       199 2.01926E+00
 -1       200 2.04098E+00
 -1       201 2.06617E+00
 -1       202 2.09337E+00
 -1       203 2.12253E+00
 -1       204 2.15401E+00
 -1       205 2.18820E+00
 -1       206 2.22547E+00
 -1       207 2.26620E+00
 -1       208 2.31077E+00
 -1       209 2.35960E+00
 -1       210 2.41303E+00
 -1       211 2.47669E+00
 -1       212 2.54941E+00
 -1       213 2.63067E+00
 -1       214 2.72046E+00
 -1       215 2.81523E+00
 -1       216 2.89747E+00
 -1       217 2.90799E+00
 -1       218 3.70348E+00
 -1       219 6.19506E+00
 -1       220 6.86541E+00
 -1       221 4.70587E+01
 -1       222 1.80826E+01
 -1       223 4.26417E+00
 -1       224 1.92769E+00
 -1       225 1.94772E+00
 -1       226 1.99189E+00
 -1       227 2.00249E+00
 -1       228 2.01926E+00
 -1       229 2.04098E+00
 -1       230 2.06617E+00
 -1       231 2.09337E+00
 -1       232 2.12253E+00
 -1       233 2.15401E+00
 -1       234 2.18820E+00
 -1       235 2.22547E+00
 -1       236 2.26620E+00
 -1       237 2.31077E+00
 -1       238 2.35960E+00
 -1       239 2.41303E+00
 -1       240 2.47669E+00
 -1       241 2.54941E+00
 -1       242 2.63067E+00
 -1       243 2.72046E+00
 -1       244 2.81523E+00
 -1       245 2.89747E+00
 -1       246 2.90799E+00
 -1       247 3.70348E+00
 -1       248 6.19506E+00
 -1       249 6.86541E+00
 -1       250 4.70587E+01
 -1       251 8.61761E+01
 -1       252 8.61761E+01
 -1       253 8.45314E+01
 -1       254 4.37017E+01
 -1       255 2.33247E+01
 -1       256 1.52099E+01
 -1       257 9.90028E+00
 -1       258 6.40180E+00
 -1       259 4.63995E+00
 -1       260 4.02114E+00
 -1       261 3.57212E+00
 -1       262 3.23646E+00
 -1       263 2.97932E+00
 -1       264 2.77823E+00
 -1       265 2.61815E+00
 -1       266 2.48876E+00
 -1       267 2.38278E+00
 -1       268 2.29500E+00
 -1       269 2.22159E+00
 -1       270 2.15975E+00
 -1       271 2.10729E+00
 -1       272 2.06235E+00
 -1       273 2.02482E+00
 -1       274 1.99681E+00
 -1       275 1.97601E+00
 -1       276 1.97157E+00
 -1       277 2.05629E+00
 -1       278 2.05629E+00
 -1       279 2.56610E+00
 -1       280 1.83219E+01
 -1       281 1.80826E+01
 -1       282 1.80826E+01
 -1       283 1.80826E+01
 -1       284 4.26417E+00
 -1       285 1.92769E+00
 -1       286 1.94772E+00
 -1       287 1.99189E+00
 -1       288 2.00249E+00
 -1       289 2.01926E+00
 -1       290 2.04098E+00
 -1       291 2.06617E+00
 -1       292 2.09337E+00
 -1       293 2.12253E+00
 -1       294 2.15401E+00
 -1       295 2.18820E+00
 -1       296 2.22547E+00
 -1       297 2.26620E+00
 -1       298 2.31077E+00
 -1       299 2.35960E+00
 -1       300 2.41303E+00
 -1       301 2.47669E+00
 -1       302 2.54941E+00
 -1       303 2.63067E+00
 -1       304 2.72046E+00
 -1       305 2.81523E+00
 -1       306 2.89747E+00
 -1       307 2.90799E+00
 -1       308 3.70348E+00
 -1       309 6.19506E+00
 -1       310 6.86541E+00
 -1       311 4.70587E+01
 -1       312 8.61761E+01
 -1       313 1.80826E+01
 -1       314 4.26417E+00
 -1       315 1.92769E+00
 -1       316 1.94772E+00
 -1       317 1.99189E+00
 -1       318 2.00249E+00
 -1       319 2.01926E+00
 -1       320 2.04098E+00
 -1       321 2.06617E+00
 -1       322 2.09337E+00
 -1       323 2.12253E+00
 -1       324 2.15401E+00
 -1       325 2.18820E+00
 -1       326 2.22547E+00
 -1       327 2.26620E+00
 -1       328 2.31077E+00
 -1       329 2.35960E+00
 -1       330 2.41303E+00
 -1       331 2.47669E+00
 -1       332 2.54941E+00
 -1       333 2.63067E+00
 -1       334 2.72046E+00
 -1       335 2.81523E+00
 -1       336 2.89747E+00
 -1       337 2.90799E+00
 -1       338 3.70348E+00
 -1       339 6.19506E+00
 -1       340 6.86541E+00
 -1       341 4.70587E+01
 -1       342 8.61761E+01
 -1       343 1.80826E+01
 -1       344 4.26417E+00
 -1       345 1.92769E+00
 -1       346 1.94772E+00
 -1       347 1.99189E+00
 -1       348 2.00249E+00
 -1       349 2.01926E+00
 -1       350 2.04098E+00
 -1       351 2.06617E+00
 -1       352 2.09337E+00
 -1       353 2.12253E+00
 -1       354 2.15401E+00
 -1       355 2.18820E+00
 -1       356 2.22547E+00
 -1       357 2.26620E+00
 -1       358 2.31077E+00
 -1       359 2.35960E+00
 -1       360 2.41303E+00
 -1       361 2.47669E+00
 -1       362 2.54941E+00
 -1       363 2.63067E+00
 -1       364 2.72046E+00
 -1       365 2.81523E+00
 -1       366 2.89747E+00
 -1       367 2.90799E+00
 -1       368 3.70348E+00
 -1       369 6.19506E+00
 -1       370 6.86541E+00
 -1       371 4.70587E+01
 -1       372 1.80826E+01
 -1       373 4.26417E+00
 -1       374 1.92769E+00
 -1       375 1.94772E+00
 -1       376 1.99189E+00
 -1       377 2.00249E+00
 -1       378 2.01926E+00
 -1       379 2.04098E+00
 -1       380 2.06617E+00
 -1       381 2.09337E+00
 -1       382 2.12253E+00
 -1       383 2.15401E+00
 -1       384 2.18820E+00
 -1       385 2.22547E+00
 -1       386 2.26620E+00
 -1       387 2.31077E+00
 -1       388 2.35960E+00
 -1       389 2.41303E+00
 -1       390 2.47669E+00
 -1       391 2.54941E+00
 -1       392 2.63067E+00
 -1       393 2.72046E+00
 -1       394 2.81523E+00
 -1       395 2.89747E+00
 -1       396 2.90799E+00
 -1       397 3.70348E+00
 -1       398 6.19506E+00
 -1       399 6.86541E+00
 -1       400 4.70587E+01
 -1       401 1.80826E+01
 -1       402 1.80826E+01
 -1       403 8.61761E+01
 -1       404 1.83219E+01
 -1       405 2.56610E+00
 -1       406 2.05629E+00
 -1       407 2.05629E+00
 -1       408 1.97157E+00
 -1       409 1.97601E+00
 -1       410 1.99681E+00
 -1       411 2.02482E+00
 -1       412 2.06235E+00
 -1       413 2.10729E+00
 -1       414 2.15975E+00
 -1       415 2.22159E+00
 -1       416 2.29500E+00
 -1       417 2.38278E+00
 -1       418 2.48876E+00
 -1       419 2.61815E+00
 -1       420 2.77823E+00
 -1       421 2.97932E+00
 -1       422 3.23646E+00
 -1       423 3.57212E+00
 -1       424 4.02114E+00
 -1       425 4.63995E+00
 -1       426 6.40180E+00
 -1       427 9.90028E+00
 -1       428 1.52099E+01
 -1       429 2.33247E+01
 -1       430 4.37017E+01
 -1       431 8.45314E+01
 -1       432 8.61761E+01
 -1       433 8.61761E+01
 -1       434 1.80826E+01
 -1       435 1.80826E+01
 -1       436 8.61761E+01
 -1       437 8.45314E+01
 -1       438 4.37017E+01
 -1       439 2.33247E+01
 -1       440 1.52099E+01
 -1       441 9.90028E+00
 -1       442 6.40180E+00
 -1       443 4.63995E+00
 -1       444 4.02114E+00
 -1       445 3.57212E+00
 -1       446 3.23646E+00
 -1       447 2.97932E+00
 -1       448 2.77823E+00
 -1       449 2.61815E+00
 -1       450 2.48876E+00
 -1       451 2.38278E+00
 -1       452 2.29500E+00
 -1       453 2.22159E+00
 -1       454 2.15975E+00
 -1       455 2.10729E+00
 -1       456 2.06235E+00
 -1       457 2.02482E+00
 -1       458 1.99681E+00
 -1       459 1.97601E+00
 -1       460 1.97157E+00
 -1       461 2.05629E+00
 -1       462 2.05629E+00
 -1       463 2.56610E+00
 -1       464 1.83219E+01
 -1       465 8.61761E+01
 -1       466 1.80826E+01
 -1       467 4.26417E+00
 -1       468 1.92769E+00
 -1       469 1.94772E+00
 -1       470 1.99189E+00
 -1       471 2.00249E+00
 -1       472 2.01926E+00
 -1       473 2.04098E+00
 -1       474 2.06617E+00
 -1       475 2.09337E+00
 -1       476 2.12253E+00
 -1       477 2.15401E+00
 -1       478 2.18820E+00
 -1       479 2.22547E+00
 -1       480 2.26620E+00
 -1       481 2.31077E+00
 -1       482 2.35960E+00
 -1       483 2.41303E+00
 -1       484 2.47669E+00
 -1       485 2.54941E+00
 -1       486 2.63067E+00
 -1       487 2.72046E+00
 -1       488 2.81523E+00
 -1       489 2.89747E+00
 -1       490 2.90799E+00
 -1       491 3.70348E+00
 -1       492 6.19506E+00
 -1       493 6.86541E+00
 -1       494 4.70587E+01
 -1       495 1.80826E+01
 -1       496 4.26417E+00
 -1       497 1.92769E+00
 -1       498 1.94772E+00
 -1       499 1.99189E+00
 -1       500 2.00249E+00
 -1       501 2.01926E+00
 -1       502 2.04098E+00
 -1       503 2.06617E+00
 -1       504 2.09337E+00
 -1       505 2.12253E+00
 -1       506 2.15401E+00
 -1       507 2.18820E+00
 -1       508 2.22547E+00
 -1       509 2.26620E+00
 -1       510 2.31077E+00
 -1       511 2.35960E+00
 -1       512 2.41303E+00
 -1       513 2.47669E+00
 -1       514 2.54941E+00
 -1       515 2.63067E+00
 -1       516 2.72046E+00
 -1       517 2.81523E+00
 -1       518 2.89747E+00
 -1       519 2.90799E+00
 -1       520 3.70348E+00
 -1       521 6.19506E+00
 -1       522 6.86541E+00
 -1       523 4.70587E+01
 -1       524 8.61761E+01
 -1       525 5.89604E+01
 -1       526 5.27049E+01
 -1       527 5.13280E+01
 -1       528 4.99531E+01
 -1       529 4.89990E+01
 -1       530 4.78519E+01
 -1       531 4.66209E+01
 -1       532 4.53093E+01
 -1       533 4.39298E+01
 -1       534 4.24823E+01
 -1       535 4.09666E+01
 -1       536 3.93817E+01
 -1       537 3.77268E+01
 -1       538 3.60013E+01
 -1       539 3.42040E+01
 -1       540 3.23340E+01
 -1       541 3.03905E+01
 -1       542 2.83728E+01
 -1       543 2.62810E+01
 -1       544 2.41161E+01
 -1       545 2.18809E+01
 -1       546 1.95819E+01
 -1       547 1.72328E+01
 -1       548 1.48620E+01
 -1       549 1.25216E+01
 -1       550 1.02914E+01
 -1       551 9.14349E+00
 -1       552 9.14349E+00
 -1       553 1.71824E+01
 -1       554 5.89604E+01
 -1       555 5.27049E+01
 -1       556 5.13280E+01
 -1       557 4.99531E+01
 -1       558 4.89990E+01
 -1       559 4.78519E+01
 -1       560 4.66209E+01
 -1       561 4.53093E+01
 -1       562 4.39298E+01
 -1       563 4.24823E+01
 -1       564 4.09666E+01
 -1       565 3.93817E+01
 -1       566 3.77268E+01
 -1       567 3.60013E+01
 -1       568 3.42040E+01
 -1       569 3.23340E+01
 -1       570 3.03905E+01
 -1       571 2.83728E+01
 -1       572 2.62810E+01
 -1       573 2.41161E+01
 -1       574 2.18809E+01
 -1       575 1.95819E+01
 -1       576 1.72328E+01
 -1       577 1.48620E+01
 -1       578 1.25216E+01
 -1       579 1.02914E+01
 -1       580 9.14349E+00
 -1       581 9.14349E+00
 -1       582 1.44894E+01
 -1       583 5.89604E+01
 -1       584 5.27049E+01
 -1       585 5.13280E+01
 -1       586 4.99531E+01
 -1       587 4.89990E+01
 -1       588 4.78519E+01
 -1       589 4.66209E+01
 -1       590 4.53093E+01
 -1       591 4.39298E+01
 -1       592 4.24823E+01
 -1       593 4.09666E+01
 -1       594 3.93817E+01
 -1       595 3.77268E+01
 -1       596 3.60013E+01
 -1       597 3.42040E+01
 -1       598 3.23340E+01
 -1       599 3.03905E+01
 -1       600 2.83728E+01
 -1       601 2.62810E+01
 -1       602 2.41161E+01
 -1       603 2.18809E+01
 -1       604 1.95819E+01
 -1       605 1.72328E+01
 -1       606 1.48620E+01
 -1       607 1.25216E+01
 -1       608 1.02914E+01
 -1       609 9.14349E+00
 -1       610 9.14349E+00
 -1       611 1.71824E+01
 -1       612 5.89604E+01
 -1       613 5.27049E+01
 -1       614 5.13280E+01
 -1       615 4.99531E+01
 -1       616 4.89990E+01
 -1       617 4.78519E+01
 -1       618 4.66209E+01
 -1       619 4.53093E+01
 -1       620 4.39298E+01
 -1       621 4.24823E+01
 -1       622 4.09666E+01
 -1       623 3.93817E+01
 -1       624 3.77268E+01
 -1       625 3.60013E+01
 -1       626 3.42040E+01
 -1       627 3.23340E+01
 -1       628 3.03905E+01
 -1       629 2.83728E+01
 -1       630 2.62810E+01
 -1       631 2.41161E+01
 -1       632 2.18809E+01
 -1       633 1.95819E+01
 -1       634 1.72328E+01
 -1       635 1.48620E+01
 -1       636 1.25216E+01
 -1       637 1.02914E+01
 -1       638 9.14349E+00
 -1       639 9.14349E+00
 -1       640 1.71824E+01
 -1       641 5.89604E+01
 -1       642 5.27049E+01
 -1       643 5.13280E+01
 -1       644 4.99531E+01
 -1       645 4.89990E+01
 -1       646 4.78519E+01
 -1       647 4.66209E+01
 -1       648 4.53093E+01
 -1       649 4.39298E+01
 -1       650 4.24823E+01
 -1       651 4.09666E+01
 -1       652 3.93817E+01
 -1       653 3.77268E+01
 -1       654 3.60013E+01
 -1       655 3.42040E+01
 -1       656 3.23340E+01
 -1       657 3.03905E+01
 -1       658 2.83728E+01
 -1       659 2.62810E+01
 -1       660 2.41161E+01
 -1       661 2.18809E+01
 -1       662 1.95819E+01
 -1       663 1.72328E+01
 -1       664 1.48620E+01
 -1       665 1.25216E+01
 -1       666 1.02914E+01
 -1       667 9.14349E+00
 -1       668 9.14349E+00
 -1       669 1.44894E+01
 -1       670 5.89604E+01
 -1       671 5.27049E+01
 -1       672 5.13280E+01
 -1       673 4.99531E+01
 -1       674 4.89990E+01
 -1       675 4.78519E+01
 -1       676 4.66209E+01
 -1       677 4.53093E+01
 -1       678 4.39298E+01
 -1       679 4.24823E+01
 -1       680 4.09666E+01
 -1       681 3.93817E+01
 -1       682 3.77268E+01
 -1       683 3.60013E+01
 -1       684 3.42040E+01
 -1       685 3.23340E+01
 -1       686 3.03905E+01
 -1       687 2.83728E+01
 -1       688 2.62810E+01
 -1       689 2.41161E+01
 -1       690 2.18809E+01
 -1       691 1.95819E+01
 -1       692 1.72328E+01
 -1       693 1.48620E+01
 -1       694 1.25216E+01
 -1       695 1.02914E+01
 -1       696 9.14349E+00
 -1       697 9.14349E+00
 -1       698 1.71824E+01
 -1       699 1.80826E+01
 -1       700 4.26417E+00
 -1       701 1.92769E+00
 -1       702 1.94772E+00
 -1       703 1.99189E+00
 -1       704 2.00249E+00
 -1       705 2.01926E+00
 -1       706 2.04098E+00
 -1       707 2.06617E+00
 -1       708 2.09337E+00
 -1       709 2.13167E+00
 -1       710 2.17594E+00
 -1       711 2.22627E+00
 -1       712 2.28387E+00
 -1       713 2.35036E+00
 -1       714 2.42785E+00
 -1       715 2.53441E+00
 -1       716 2.67839E+00
 -1       717 2.86019E+00
 -1       718 3.09528E+00
 -1       719 3.40826E+00
 -1       720 3.84035E+00
 -1       721 4.46430E+00
 -1       722 6.10743E+00
 -1       723 1.01936E+01
 -1       724 1.70815E+01
 -1       725 2.80459E+01
 -1       726 8.45314E+01
 -1       727 8.61761E+01
 -1       728 1.80826E+01
 -1       729 4.26417E+00
 -1       730 1.92769E+00
 -1       731 1.94772E+00
 -1       732 1.99189E+00
 -1       733 2.00249E+00
 -1       734 2.01926E+00
 -1       735 2.04098E+00
 -1       736 2.06617E+00
 -1       737 2.09337E+00
 -1       738 2.13167E+00
 -1       739 2.17594E+00
 -1       740 2.22627E+00
 -1       741 2.28387E+00
 -1       742 2.35036E+00
 -1       743 2.42785E+00
 -1       744 2.53441E+00
 -1       745 2.67839E+00
 -1       746 2.86019E+00
 -1       747 3.09528E+00
 -1       748 3.40826E+00
 -1       749 3.84035E+00
 -1       750 4.46430E+00
 -1       751 6.10743E+00
 -1       752 1.01936E+01
 -1       753 1.70815E+01
 -1       754 2.80459E+01
 -1       755 8.45314E+01
 -1       756 8.61761E+01
 -1       757 1.80826E+01
 -1       758 4.26417E+00
 -1       759 1.92769E+00
 -1       760 1.94772E+00
 -1       761 1.99189E+00
 -1       762 2.00249E+00
 -1       763 2.01926E+00
 -1       764 2.04098E+00
 -1       765 2.06617E+00
 -1       766 2.09337E+00
 -1       767 2.13167E+00
 -1       768 2.17594E+00
 -1       769 2.22627E+00
 -1       770 2.28387E+00
 -1       771 2.35036E+00
 -1       772 2.42785E+00
 -1       773 2.53441E+00
 -1       774 2.67839E+00
 -1       775 2.86019E+00
 -1       776 3.09528E+00
 -1       777 3.40826E+00
 -1       778 3.84035E+00
 -1       779 4.46430E+00
 -1       780 6.10743E+00
 -1       781 1.01936E+01
 -1       782 1.70815E+01
 -1       783 2.80459E+01
 -1       784 8.45314E+01
 -1       785 8.61761E+01
 -1       786 1.80826E+01
 -1       787 4.26417E+00
 -1       788 1.92769E+00
 -1       789 1.94772E+00
 -1       790 1.99189E+00
 -1       791 2.00249E+00
 -1       792 2.01926E+00
 -1       793 2.04098E+00
 -1       794 2.06617E+00
 -1       795 2.09337E+00
 -1       796 2.13167E+00
 -1       797 2.17594E+00
 -1       798 2.22627E+00
 -1       799 2.28387E+00
 -1       800 2.35036E+00
 -1       801 2.42785E+00
 -1       802 2.53441E+00
 -1       803 2.67839E+00
 -1       804 2.86019E+00
 -1       805 3.09528E+00
 -1       806 3.40826E+00
 -1       807 3.84035E+00
 -1       808 4.46430E+00
 -1       809 6.10743E+00
 -1       810 1.01936E+01
 -1       811 1.70815E+01
 -1       812 2.80459E+01
 -1       813 8.45314E+01
 -1       814 8.61761E+01
 -1       815 1.80826E+01
 -1       816 4.26417E+00
 -1       817 1.92769E+00
 -1       818 1.94772E+00
 -1       819 1.99189E+00
 -1       820 2.00249E+00
 -1       821 2.01926E+00
 -1       822 2.04098E+00
 -1       823 2.06617E+00
 -1       824 2.09337E+00
 -1       825 2.13167E+00
 -1       826 2.17594E+00
 -1       827 2.22627E+00
 -1       828 2.28387E+00
 -1       829 2.35036E+00
 -1       830 2.42785E+00
 -1       831 2.53441E+00
 -1       832 2.67839E+00
 -1       833 2.86019E+00
 -1       834 3.09528E+00
 -1       835 3.40826E+00
 -1       836 3.84035E+00
 -1       837 4.46430E+00
 -1       838 6.10743E+00
 -1       839 1.01936E+01
 -1       840 1.70815E+01
 -1       841 2.80459E+01
 -1       842 8.45314E+01
 -1       843 8.61761E+01
 -1       844 1.80826E+01
 -1       845 4.26417E+00
 -1       846 1.92769E+00
 -1       847 1.94772E+00
 -1       848 1.99189E+00
 -1       849 2.00249E+00
 -1       850 2.01926E+00
 -1       851 2.04098E+00
 -1       852 2.06617E+00
 -1       853 2.09337E+00
 -1       854 2.13167E+00
 -1       855 2.17594E+00
 -1       856 2.22627E+00
 -1       857 2.28387E+00
 -1       858 2.35036E+00
 -1       859 2.42785E+00
 -1       860 2.53441E+00
 -1       861 2.67839E+00
 -1       862 2.86019E+00
 -1       863 3.09528E+00
 -1       864 3.40826E+00
 -1       865 3.84035E+00
 -1       866 4.46430E+00
 -1       867 6.10743E+00
 -1       868 1.01936E+01
 -1       869 1.70815E+01
 -1       870 2.80459E+01
 -1       871 8.45314E+01
 -1       872 8.61761E+01
 -1       873 8.61761E+01
 -1       874 8.45314E+01
 -1       875 2.80459E+01
 -1       876 1.70815E+01
 -1       877 1.01936E+01
 -1       878 6.10743E+00
 -1       879 4.46430E+00
 -1       880 3.84035E+00
 -1       881 3.40826E+00
 -1       882 3.09528E+00
 -1       883 2.86019E+00
 -1       884 2.67839E+00
 -1       885 2.53441E+00
 -1       886 2.42785E+00
 -1       887 2.35036E+00
 -1       888 2.28387E+00
 -1       889 2.22627E+00
 -1       890 2.17594E+00
 -1       891 2.13167E+00
 -1       892 2.09337E+00
 -1       893 2.06617E+00
 -1       894 2.04098E+00
 -1       895 2.01926E+00
 -1       896 2.00249E+00
 -1       897 1.99189E+00
 -1       898 1.94772E+00
 -1       899 1.92769E+00
 -1       900 4.26417E+00
 -1       901 1.80826E+01
 -1       902 1.80826E+01
 -1       903 4.26417E+00
 -1       904 1.92769E+00
 -1       905 1.94772E+00
 -1       906 1.99189E+00
 -1       907 2.00249E+00
 -1       908 2.01926E+00
 -1       909 2.04098E+00
 -1       910 2.06617E+00
 -1       911 2.09337E+00
 -1       912 2.13167E+00
 -1       913 2.17594E+00
 -1       914 2.22627E+00
 -1       915 2.28387E+00
 -1       916 2.35036E+00
 -1       917 2.42785E+00
 -1       918 2.53441E+00
 -1       919 2.67839E+00
 -1       920 2.86019E+00
 -1       921 3.09528E+00
 -1       922 3.40826E+00
 -1       923 3.84035E+00
 -1       924 4.46430E+00
 -1       925 6.10743E+00
 -1       926 1.01936E+01
 -1       927 1.70815E+01
 -1       928 2.80459E+01
 -1       929 8.45314E+01
 -1       930 8.61761E+01
 -3
    1PSTEP                        13           1           1          
    1PGM                1.000000E+00                                  
    1PGK                3.079301E+05                                  
    1PHID                         -1                                  
    1PSUBC                         0                                  
    1PMODE                         4                                  
  100CL  104 88.31738313         930                     2    4MODAL      1
 -4  DISP        4    1
 -5  D1          1    2    1    0
 -5  D2          1    2    2    0
 -5  D3          1    2    3    0
 -5  ALL         1    2    0    0    1ALL
 -1         1 0.00000E+00 0.00000E+00 0.00000E+00
 -1         2 0.00000E+00 0.00000E+00 0.00000E+00
 -1         3-9.81018E-04-1.43700E-01-4.54224E-05
 -1         4 9.81018E-04-1.43700E-01 4.54224E-05
 -1         5 0.00000E+00 0.00000E+00 0.00000E+00
 -1         6 0.00000E+00 0.00000E+00 0.00000E+00
 -1         7-9.81018E-04-1.43700E-01 4.54224E-05
 -1         8 9.81018E-04-1.43700E-01-4.54224E-05
 -1         9 0.00000E+00 0.00000E+00 0.00000E+00
 -1        10-9.80699E-04-1.43558E-01-4.54119E-05
 -1        11 0.00000E+00 0.00000E+00 0.00000E+00
 -1        12 0.00000E+00 0.00000E+00 0.00000E+00
 -1        13-2.05258E-02-1.43561E-01-9.30302E-04
 -1        14-2.05090E-02-1.43698E-01-9.30125E-04
 -1        15 0.00000E+00 0.00000E+00 0.00000E+00
 -1        16-9.80699E-04-1.43558E-01 4.54119E-05
 -1        17 0.00000E+00 0.00000E+00 0.00000E+00
 -1        18 0.00000E+00 0.00000E+00 0.00000E+00
 -1        19-2.05090E-02-1.43698E-01 9.30125E-04
 -1        20-2.05258E-02-1.43561E-01 9.30302E-04
 -1        21 0.00000E+00 0.00000E+00 0.00000E+00
 -1        22 0.00000E+00 0.00000E+00 0.00000E+00
 -1        23 2.05258E-02-1.43561E-01 9.30302E-04
 -1        24 2.05090E-02-1.43698E-01 9.30125E-04
 -1        25 0.00000E+00 0.00000E+00 0.00000E+00
 -1        26 9.80699E-04-1.43558E-01 4.54119E-05
 -1        27 0.00000E+00 0.00000E+00 0.00000E+00
 -1        28 0.00000E+00 0.00000E+00 0.00000E+00
 -1        29 0.00000E+00 0.00000E+00 0.00000E+00
 -1        30 9.80699E-04-1.43558E-01-4.54119E-05
 -1        31 2.05258E-02-1.43561E-01-9.30302E-04
 -1        32 2.05090E-02-1.43698E-01-9.30125E-04
 -1        33-1.37317E-04 1.75189E-03-1.81102E-07
 -1        34-2.54191E-04 6.51189E-03-1.59311E-06
 -1        35-3.44454E-04 1.36588E-02-4.37326E-06
 -1        36-4.11423E-04 2.26323E-02-7.85044E-06
 -1        37-4.55374E-04 3.28935E-02-1.11626E-05
 -1        38-4.76667E-04 4.39057E-02-1.44389E-05
 -1        39-4.76463E-04 5.51546E-02-1.75889E-05
 -1        40-4.55955E-04 6.61514E-02-2.05891E-05
 -1        41-4.16699E-04 7.64401E-02-2.33671E-05
 -1        42-3.60504E-04 8.56035E-02-2.58308E-05
 -1        43-2.89433E-04 9.32698E-02-2.78815E-05
 -1        44-2.05766E-04 9.91179E-02-2.94242E-05
 -1        45-1.11955E-04 1.02882E-01-3.03758E-05
 -1        46-1.05777E-05 1.04356E-01-3.06692E-05
 -1        47 9.57198E-05 1.03394E-01-3.02558E-05
 -1        48 2.04284E-04 9.99129E-02-2.91060E-05
 -1        49 3.12518E-04 9.38903E-02-2.72086E-05
 -1        50 4.17944E-04 8.53642E-02-2.45700E-05
 -1        51 5.18269E-04 7.44283E-02-2.12126E-05
 -1        52 6.11447E-04 6.12271E-02-1.71740E-05
 -1        53 6.95740E-04 4.59498E-02-1.25061E-05
 -1        54 7.69772E-04 2.88220E-02-7.27582E-06
 -1        55 8.32577E-04 1.00971E-02-1.56647E-06
 -1        56 8.83650E-04-9.95423E-03 4.51844E-06
 -1        57 9.22976E-04-3.10548E-02 1.08542E-05
 -1        58 9.51072E-04-5.29333E-02 1.73002E-05
 -1        59 9.68973E-04-7.53363E-02 2.37641E-05
 -1        60 9.78359E-04-9.80414E-02 3.02720E-05
 -1        61 9.81097E-04-1.20870E-01 3.71664E-05
 -1        62 1.37317E-04 1.75189E-03 1.81102E-07
 -1        63 2.54191E-04 6.51189E-03 1.59311E-06
 -1        64 3.44454E-04 1.36588E-02 4.37326E-06
 -1        65 4.11423E-04 2.26323E-02 7.85044E-06
 -1        66 4.55374E-04 3.28935E-02 1.11626E-05
 -1        67 4.76667E-04 4.39057E-02 1.44389E-05
 -1        68 4.76463E-04 5.51546E-02 1.75889E-05
 -1        69 4.55955E-04 6.61514E-02 2.05891E-05
 -1        70 4.16699E-04 7.64401E-02 2.33671E-05
 -1        71 3.60504E-04 8.56035E-02 2.58308E-05
 -1        72 2.89433E-04 9.32698E-02 2.78815E-05
 -1        73 2.05766E-04 9.91179E-02 2.94242E-05
 -1        74 1.11955E-04 1.02882E-01 3.03758E-05
 -1        75 1.05777E-05 1.04356E-01 3.06692E-05
 -1        76-9.57198E-05 1.03394E-01 3.02558E-05
 -1        77-2.04284E-04 9.99129E-02 2.91060E-05
 -1        78-3.12518E-04 9.38903E-02 2.72086E-05
 -1        79-4.17944E-04 8.53642E-02 2.45700E-05
 -1        80-5.18269E-04 7.44283E-02 2.12126E-05
 -1        81-6.11447E-04 6.12271E-02 1.71740E-05
 -1        82-6.95740E-04 4.59498E-02 1.25061E-05
 -1        83-7.69772E-04 2.88220E-02 7.27583E-06
 -1        84-8.32577E-04 1.00971E-02 1.56648E-06
 -1        85-8.83650E-04-9.95423E-03-4.51843E-06
 -1        86-9.22976E-04-3.10548E-02-1.08542E-05
 -1        87-9.51072E-04-5.29333E-02-1.73001E-05
 -1        88-9.68973E-04-7.53363E-02-2.37641E-05
 -1        89-9.78359E-04-9.80414E-02-3.02720E-05
 -1        90-9.81097E-04-1.20870E-01-3.71664E-05
 -1        91 0.00000E+00 0.00000E+00 0.00000E+00
 -1        92 0.00000E+00 0.00000E+00 0.00000E+00
 -1        93 0.00000E+00 0.00000E+00 0.00000E+00
 -1        94 0.00000E+00 0.00000E+00 0.00000E+00
 -1        95 0.00000E+00 0.00000E+00 0.00000E+00
 -1        96 0.00000E+00 0.00000E+00 0.00000E+00
 -1        97 1.37317E-04 1.75189E-03-1.81102E-07
 -1        98 2.54191E-04 6.51189E-03-1.59311E-06
 -1        99 3.44454E-04 1.36588E-02-4.37326E-06
 -1       100 4.11423E-04 2.26323E-02-7.85044E-06
 -1       101 4.55374E-04 3.28935E-02-1.11626E-05
 -1       102 4.76667E-04 4.39057E-02-1.44389E-05
 -1       103 4.76463E-04 5.51546E-02-1.75889E-05
 -1       104 4.55955E-04 6.61514E-02-2.05891E-05
 -1       105 4.16699E-04 7.64401E-02-2.33671E-05
 -1       106 3.60504E-04 8.56035E-02-2.58308E-05
 -1       107 2.89433E-04 9.32698E-02-2.78815E-05
 -1       108 2.05766E-04 9.91179E-02-2.94242E-05
 -1       109 1.11955E-04 1.02882E-01-3.03758E-05
 -1       110 1.05777E-05 1.04356E-01-3.06692E-05
 -1       111-9.57198E-05 1.03394E-01-3.02558E-05
 -1       112-2.04284E-04 9.99129E-02-2.91060E-05
 -1       113-3.12518E-04 9.38903E-02-2.72086E-05
 -1       114-4.17944E-04 8.53642E-02-2.45700E-05
 -1       115-5.18269E-04 7.44283E-02-2.12126E-05
 -1       116-6.11447E-04 6.12271E-02-1.71740E-05
 -1       117-6.95740E-04 4.59498E-02-1.25061E-05
 -1       118-7.69772E-04 2.88220E-02-7.27583E-06
 -1       119-8.32577E-04 1.00971E-02-1.56647E-06
 -1       120-8.83650E-04-9.95423E-03 4.51844E-06
 -1       121-9.22976E-04-3.10548E-02 1.08542E-05
 -1       122-9.51072E-04-5.29333E-02 1.73002E-05
 -1       123-9.68973E-04-7.53363E-02 2.37641E-05
 -1       124-9.78359E-04-9.80414E-02 3.02720E-05
 -1       125-9.81097E-04-1.20870E-01 3.71664E-05
 -1       126-9.89656E-04-1.44592E-01-3.19176E-05
 -1       127-9.92629E-04-1.44955E-01 6.02483E-12
 -1       128-9.89656E-04-1.44592E-01 3.19176E-05
 -1       129-1.37317E-04 1.75189E-03 1.81102E-07
 -1       130-2.54191E-04 6.51189E-03 1.59311E-06
 -1       131-3.44454E-04 1.36588E-02 4.37326E-06
 -1       132-4.11423E-04 2.26323E-02 7.85044E-06
 -1       133-4.55374E-04 3.28935E-02 1.11626E-05
 -1       134-4.76667E-04 4.39057E-02 1.44389E-05
 -1       135-4.76463E-04 5.51546E-02 1.75889E-05
 -1       136-4.55955E-04 6.61514E-02 2.05891E-05
 -1       137-4.16699E-04 7.64401E-02 2.33671E-05
 -1       138-3.60504E-04 8.56035E-02 2.58308E-05
 -1       139-2.89433E-04 9.32698E-02 2.78815E-05
 -1       140-2.05766E-04 9.91179E-02 2.94242E-05
 -1       141-1.11955E-04 1.02882E-01 3.03758E-05
 -1       142-1.05777E-05 1.04356E-01 3.06692E-05
 -1       143 9.57198E-05 1.03394E-01 3.02558E-05
 -1       144 2.04284E-04 9.99129E-02 2.91060E-05
 -1       145 3.12518E-04 9.38903E-02 2.72086E-05
 -1       146 4.17944E-04 8.53642E-02 2.45700E-05
 -1       147 5.18269E-04 7.44283E-02 2.12126E-05
 -1       148 6.11447E-04 6.12271E-02 1.71740E-05
 -1       149 6.95740E-04 4.59498E-02 1.25061E-05
 -1       150 7.69772E-04 2.88220E-02 7.27583E-06
 -1       151 8.32577E-04 1.00971E-02 1.56648E-06
 -1       152 8.83650E-04-9.95423E-03-4.51843E-06
 -1       153 9.22976E-04-3.10548E-02-1.08542E-05
 -1       154 9.51072E-04-5.29333E-02-1.73001E-05
 -1       155 9.68973E-04-7.53363E-02-2.37641E-05
 -1       156 9.78359E-04-9.80414E-02-3.02720E-05
 -1       157 9.81097E-04-1.20870E-01-3.71664E-05
 -1       158 9.89656E-04-1.44592E-01-3.19176E-05
 -1       159 9.92629E-04-1.44955E-01 5.06711E-12
 -1       160 9.89656E-04-1.44592E-01 3.19176E-05
 -1       161 1.19636E-04 1.74929E-03 2.27135E-06
 -1       162 2.40462E-04 6.50609E-03 8.58480E-07
 -1       163 3.30778E-04 1.36441E-02 4.85608E-06
 -1       164 3.97835E-04 2.26071E-02 7.89286E-06
 -1       165 4.42258E-04 3.28575E-02 1.13308E-05
 -1       166 4.64115E-04 4.38588E-02 1.46381E-05
 -1       167 4.64652E-04 5.50974E-02 1.78317E-05
 -1       168 4.45047E-04 6.60844E-02 2.08579E-05
 -1       169 4.06848E-04 7.63641E-02 2.36549E-05
 -1       170 3.51850E-04 8.55195E-02 2.61327E-05
 -1       171 2.82096E-04 9.31792E-02 2.81944E-05
 -1       172 1.99842E-04 9.90224E-02 2.97444E-05
 -1       173 1.07512E-04 1.02784E-01 3.06982E-05
 -1       174 7.65182E-06 1.04257E-01 3.09879E-05
 -1       175-9.71270E-05 1.03296E-01 3.05640E-05
 -1       176-2.04207E-04 9.98185E-02 2.93962E-05
 -1       177-3.11029E-04 9.38020E-02 2.74731E-05
 -1       178-4.15150E-04 8.52845E-02 2.48006E-05
 -1       179-5.14315E-04 7.43595E-02 2.14013E-05
 -1       180-6.06513E-04 6.11714E-02 1.73128E-05
 -1       181-6.90036E-04 4.59093E-02 1.25879E-05
 -1       182-7.63536E-04 2.87985E-02 7.29487E-06
 -1       183-8.26075E-04 1.00921E-02 1.51962E-06
 -1       184-8.77166E-04-9.93946E-03-4.63233E-06
 -1       185-9.16813E-04-3.10195E-02-1.10390E-05
 -1       186-9.45539E-04-5.28770E-02-1.75704E-05
 -1       187-9.64405E-04-7.52587E-02-2.41492E-05
 -1       188-9.75045E-04-9.79424E-02-3.07499E-05
 -1       189-9.79632E-04-1.20749E-01-3.76606E-05
 -1       190 0.00000E+00 0.00000E+00 0.00000E+00
 -1       191 0.00000E+00 0.00000E+00 0.00000E+00
 -1       192-1.07507E-02-1.43559E-01-4.91473E-04
 -1       193 2.65938E-03 2.16190E-03 8.37909E-05
 -1       194 5.07860E-03 6.79348E-03 8.77103E-05
 -1       195 6.97553E-03 1.38647E-02 1.34975E-04
 -1       196 8.38586E-03 2.27643E-02 1.90769E-04
 -1       197 9.31005E-03 3.29499E-02 2.54038E-04
 -1       198 9.76634E-03 4.38894E-02 3.16546E-04
 -1       199 9.77417E-03 5.50691E-02 3.76563E-04
 -1       200 9.36010E-03 6.60014E-02 4.32977E-04
 -1       201 8.55618E-03 7.62310E-02 4.84820E-04
 -1       202 7.40011E-03 8.53418E-02 5.30597E-04
 -1       203 5.93474E-03 9.29630E-02 5.68449E-04
 -1       204 4.20734E-03 9.87743E-02 5.96454E-04
 -1       205 2.26879E-03 1.02511E-01 6.12869E-04
 -1       206 1.72493E-04 1.03966E-01 6.16268E-04
 -1       207-2.02675E-03 1.02995E-01 6.05599E-04
 -1       208-4.27401E-03 9.95151E-02 5.80199E-04
 -1       209-6.51555E-03 9.35030E-02 5.39775E-04
 -1       210-8.70014E-03 8.49964E-02 4.84384E-04
 -1       211-1.07804E-02 7.40884E-02 4.14403E-04
 -1       212-1.27140E-02 6.09227E-02 3.30514E-04
 -1       213-1.44653E-02 4.56873E-02 2.33711E-04
 -1       214-1.60057E-02 2.86064E-02 1.25342E-04
 -1       215-1.73157E-02 9.93201E-03 7.15033E-06
 -1       216-1.83849E-02-1.00669E-02-1.18768E-04
 -1       217-1.92133E-02-3.11150E-02-2.50235E-04
 -1       218-1.98119E-02-5.29427E-02-3.85506E-04
 -1       219-2.02029E-02-7.52983E-02-5.23525E-04
 -1       220-2.04197E-02-9.79614E-02-6.62997E-04
 -1       221-2.05071E-02-1.20754E-01-8.00288E-04
 -1       222 2.65844E-03 2.16321E-03-5.99608E-05
 -1       223 5.07453E-03 6.80086E-03 4.22390E-06
 -1       224 6.96918E-03 1.38796E-02 6.20775E-05
 -1       225 8.37810E-03 2.27892E-02 1.41562E-04
 -1       226 9.30204E-03 3.29858E-02 2.24538E-04
 -1       227 9.75856E-03 4.39362E-02 3.06834E-04
 -1       228 9.76678E-03 5.51264E-02 3.85462E-04
 -1       229 9.35322E-03 6.60685E-02 4.59277E-04
 -1       230 8.54996E-03 7.63071E-02 5.27019E-04
 -1       231 7.39478E-03 8.54258E-02 5.86968E-04
 -1       232 5.93054E-03 9.30535E-02 6.37060E-04
 -1       233 4.20452E-03 9.88698E-02 6.75199E-04
 -1       234 2.26756E-03 1.02609E-01 6.99511E-04
 -1       235 1.73015E-04 1.04066E-01 7.08486E-04
 -1       236-2.02436E-03 1.03094E-01 7.01038E-04
 -1       237-4.26971E-03 9.96094E-02 6.76526E-04
 -1       238-6.50930E-03 9.35912E-02 6.34738E-04
 -1       239-8.69197E-03 8.50760E-02 5.75864E-04
 -1       240-1.07704E-02 7.41571E-02 5.00476E-04
 -1       241-1.27023E-02 6.09783E-02 4.09502E-04
 -1       242-1.44519E-02 4.57276E-02 3.04234E-04
 -1       243-1.59910E-02 2.86298E-02 1.86365E-04
 -1       244-1.72998E-02 9.93689E-03 5.80262E-05
 -1       245-1.83681E-02-1.00817E-02-7.82635E-05
 -1       246-1.91959E-02-3.11503E-02-2.19873E-04
 -1       247-1.97941E-02-5.29990E-02-3.64584E-04
 -1       248-2.01848E-02-7.53761E-02-5.10839E-04
 -1       249-2.04015E-02-9.80606E-02-6.56917E-04
 -1       250-2.04897E-02-1.20874E-01-7.98485E-04
 -1       251-1.07404E-02-1.43698E-01-4.91061E-04
 -1       252-9.79632E-04-1.20749E-01 3.76606E-05
 -1       253-9.75045E-04-9.79424E-02 3.07499E-05
 -1       254-9.64405E-04-7.52587E-02 2.41492E-05
 -1       255-9.45539E-04-5.28770E-02 1.75704E-05
 -1       256-9.16813E-04-3.10195E-02 1.10390E-05
 -1       257-8.77166E-04-9.93946E-03 4.63234E-06
 -1       258-8.26075E-04 1.00921E-02-1.51962E-06
 -1       259-7.63536E-04 2.87985E-02-7.29487E-06
 -1       260-6.90036E-04 4.59093E-02-1.25879E-05
 -1       261-6.06513E-04 6.11714E-02-1.73128E-05
 -1       262-5.14315E-04 7.43595E-02-2.14012E-05
 -1       263-4.15150E-04 8.52845E-02-2.48006E-05
 -1       264-3.11029E-04 9.38020E-02-2.74731E-05
 -1       265-2.04207E-04 9.98185E-02-2.93962E-05
 -1       266-9.71270E-05 1.03296E-01-3.05640E-05
 -1       267 7.65182E-06 1.04257E-01-3.09879E-05
 -1       268 1.07512E-04 1.02784E-01-3.06982E-05
 -1       269 1.99842E-04 9.90224E-02-2.97444E-05
 -1       270 2.82096E-04 9.31792E-02-2.81944E-05
 -1       271 3.51850E-04 8.55195E-02-2.61327E-05
 -1       272 4.06848E-04 7.63641E-02-2.36549E-05
 -1       273 4.45047E-04 6.60844E-02-2.08579E-05
 -1       274 4.64652E-04 5.50974E-02-1.78317E-05
 -1       275 4.64115E-04 4.38588E-02-1.46381E-05
 -1       276 4.42258E-04 3.28575E-02-1.13308E-05
 -1       277 3.97835E-04 2.26071E-02-7.89286E-06
 -1       278 3.30778E-04 1.36441E-02-4.85608E-06
 -1       279 2.40462E-04 6.50609E-03-8.58480E-07
 -1       280 1.19636E-04 1.74929E-03-2.27135E-06
 -1       281 0.00000E+00 0.00000E+00 0.00000E+00
 -1       282 0.00000E+00 0.00000E+00 0.00000E+00
 -1       283 2.65844E-03 2.16321E-03 5.99608E-05
 -1       284 5.07453E-03 6.80086E-03-4.22390E-06
 -1       285 6.96918E-03 1.38796E-02-6.20775E-05
 -1       286 8.37810E-03 2.27892E-02-1.41562E-04
 -1       287 9.30204E-03 3.29858E-02-2.24538E-04
 -1       288 9.75856E-03 4.39362E-02-3.06834E-04
 -1       289 9.76678E-03 5.51264E-02-3.85462E-04
 -1       290 9.35322E-03 6.60685E-02-4.59277E-04
 -1       291 8.54996E-03 7.63071E-02-5.27019E-04
 -1       292 7.39478E-03 8.54258E-02-5.86968E-04
 -1       293 5.93054E-03 9.30535E-02-6.37060E-04
 -1       294 4.20452E-03 9.88698E-02-6.75199E-04
 -1       295 2.26756E-03 1.02609E-01-6.99511E-04
 -1       296 1.73015E-04 1.04066E-01-7.08486E-04
 -1       297-2.02436E-03 1.03094E-01-7.01038E-04
 -1       298-4.26971E-03 9.96094E-02-6.76526E-04
 -1       299-6.50930E-03 9.35912E-02-6.34738E-04
 -1       300-8.69197E-03 8.50760E-02-5.75865E-04
 -1       301-1.07704E-02 7.41571E-02-5.00476E-04
 -1       302-1.27023E-02 6.09783E-02-4.09502E-04
 -1       303-1.44519E-02 4.57276E-02-3.04234E-04
 -1       304-1.59910E-02 2.86298E-02-1.86365E-04
 -1       305-1.72998E-02 9.93689E-03-5.80262E-05
 -1       306-1.83681E-02-1.00817E-02 7.82635E-05
 -1       307-1.91959E-02-3.11503E-02 2.19873E-04
 -1       308-1.97941E-02-5.29990E-02 3.64584E-04
 -1       309-2.01848E-02-7.53761E-02 5.10839E-04
 -1       310-2.04015E-02-9.80606E-02 6.56917E-04
 -1       311-2.04897E-02-1.20874E-01 7.98485E-04
 -1       312-1.07404E-02-1.43698E-01 4.91061E-04
 -1       313 2.65938E-03 2.16190E-03-8.37909E-05
 -1       314 5.07860E-03 6.79348E-03-8.77103E-05
 -1       315 6.97553E-03 1.38647E-02-1.34975E-04
 -1       316 8.38586E-03 2.27643E-02-1.90769E-04
 -1       317 9.31005E-03 3.29499E-02-2.54038E-04
 -1       318 9.76634E-03 4.38894E-02-3.16546E-04
 -1       319 9.77417E-03 5.50691E-02-3.76563E-04
 -1       320 9.36010E-03 6.60014E-02-4.32977E-04
 -1       321 8.55618E-03 7.62310E-02-4.84820E-04
 -1       322 7.40011E-03 8.53418E-02-5.30597E-04
 -1       323 5.93474E-03 9.29630E-02-5.68449E-04
 -1       324 4.20734E-03 9.87743E-02-5.96454E-04
 -1       325 2.26879E-03 1.02511E-01-6.12869E-04
 -1       326 1.72493E-04 1.03966E-01-6.16268E-04
 -1       327-2.02675E-03 1.02995E-01-6.05599E-04
 -1       328-4.27401E-03 9.95151E-02-5.80199E-04
 -1       329-6.51555E-03 9.35030E-02-5.39775E-04
 -1       330-8.70014E-03 8.49964E-02-4.84384E-04
 -1       331-1.07804E-02 7.40884E-02-4.14403E-04
 -1       332-1.27140E-02 6.09227E-02-3.30514E-04
 -1       333-1.44653E-02 4.56873E-02-2.33711E-04
 -1       334-1.60057E-02 2.86064E-02-1.25342E-04
 -1       335-1.73157E-02 9.93201E-03-7.15033E-06
 -1       336-1.83849E-02-1.00669E-02 1.18768E-04
 -1       337-1.92133E-02-3.11150E-02 2.50235E-04
 -1       338-1.98119E-02-5.29427E-02 3.85506E-04
 -1       339-2.02029E-02-7.52983E-02 5.23525E-04
 -1       340-2.04197E-02-9.79614E-02 6.62997E-04
 -1       341-2.05071E-02-1.20754E-01 8.00288E-04
 -1       342-1.07507E-02-1.43559E-01 4.91473E-04
 -1       343-2.65938E-03 2.16190E-03-8.37909E-05
 -1       344-5.07860E-03 6.79348E-03-8.77103E-05
 -1       345-6.97553E-03 1.38647E-02-1.34975E-04
 -1       346-8.38586E-03 2.27643E-02-1.90769E-04
 -1       347-9.31005E-03 3.29499E-02-2.54038E-04
 -1       348-9.76634E-03 4.38894E-02-3.16546E-04
 -1       349-9.77417E-03 5.50691E-02-3.76563E-04
 -1       350-9.36010E-03 6.60014E-02-4.32977E-04
 -1       351-8.55618E-03 7.62310E-02-4.84820E-04
 -1       352-7.40011E-03 8.53418E-02-5.30597E-04
 -1       353-5.93474E-03 9.29630E-02-5.68449E-04
 -1       354-4.20734E-03 9.87743E-02-5.96454E-04
 -1       355-2.26879E-03 1.02511E-01-6.12869E-04
 -1       356-1.72493E-04 1.03966E-01-6.16268E-04
 -1       357 2.02675E-03 1.02995E-01-6.05599E-04
 -1       358 4.27401E-03 9.95151E-02-5.80199E-04
 -1       359 6.51555E-03 9.35030E-02-5.39775E-04
 -1       360 8.70014E-03 8.49964E-02-4.84384E-04
 -1       361 1.07804E-02 7.40884E-02-4.14403E-04
 -1       362 1.27140E-02 6.09227E-02-3.30514E-04
 -1       363 1.44653E-02 4.56873E-02-2.33711E-04
 -1       364 1.60057E-02 2.86064E-02-1.25342E-04
 -1       365 1.73157E-02 9.93201E-03-7.15032E-06
 -1       366 1.83849E-02-1.00669E-02 1.18768E-04
 -1       367 1.92133E-02-3.11150E-02 2.50235E-04
 -1       368 1.98119E-02-5.29427E-02 3.85506E-04
 -1       369 2.02029E-02-7.52983E-02 5.23525E-04
 -1       370 2.04197E-02-9.79614E-02 6.62997E-04
 -1       371 2.05071E-02-1.20754E-01 8.00288E-04
 -1       372-2.65844E-03 2.16321E-03 5.99608E-05
 -1       373-5.07453E-03 6.80086E-03-4.22390E-06
 -1       374-6.96918E-03 1.38796E-02-6.20775E-05
 -1       375-8.37810E-03 2.27892E-02-1.41562E-04
 -1       376-9.30204E-03 3.29858E-02-2.24538E-04
 -1       377-9.75856E-03 4.39362E-02-3.06834E-04
 -1       378-9.76678E-03 5.51264E-02-3.85462E-04
 -1       379-9.35322E-03 6.60685E-02-4.59277E-04
 -1       380-8.54996E-03 7.63071E-02-5.27019E-04
 -1       381-7.39478E-03 8.54258E-02-5.86968E-04
 -1       382-5.93054E-03 9.30535E-02-6.37060E-04
 -1       383-4.20452E-03 9.88698E-02-6.75199E-04
 -1       384-2.26756E-03 1.02609E-01-6.99511E-04
 -1       385-1.73015E-04 1.04066E-01-7.08486E-04
 -1       386 2.02436E-03 1.03094E-01-7.01038E-04
 -1       387 4.26971E-03 9.96094E-02-6.76526E-04
 -1       388 6.50930E-03 9.35912E-02-6.34738E-04
 -1       389 8.69197E-03 8.50760E-02-5.75864E-04
 -1       390 1.07704E-02 7.41571E-02-5.00476E-04
 -1       391 1.27023E-02 6.09783E-02-4.09502E-04
 -1       392 1.44519E-02 4.57276E-02-3.04234E-04
 -1       393 1.59910E-02 2.86298E-02-1.86365E-04
 -1       394 1.72998E-02 9.93689E-03-5.80262E-05
 -1       395 1.83681E-02-1.00817E-02 7.82635E-05
 -1       396 1.91959E-02-3.11503E-02 2.19873E-04
 -1       397 1.97941E-02-5.29990E-02 3.64584E-04
 -1       398 2.01848E-02-7.53761E-02 5.10839E-04
 -1       399 2.04015E-02-9.80606E-02 6.56917E-04
 -1       400 2.04897E-02-1.20874E-01 7.98485E-04
 -1       401 0.00000E+00 0.00000E+00 0.00000E+00
 -1       402 0.00000E+00 0.00000E+00 0.00000E+00
 -1       403 1.07507E-02-1.43559E-01 4.91473E-04
 -1       404-1.19636E-04 1.74929E-03-2.27135E-06
 -1       405-2.40462E-04 6.50609E-03-8.58480E-07
 -1       406-3.30778E-04 1.36441E-02-4.85608E-06
 -1       407-3.97835E-04 2.26071E-02-7.89286E-06
 -1       408-4.42258E-04 3.28575E-02-1.13308E-05
 -1       409-4.64115E-04 4.38588E-02-1.46381E-05
 -1       410-4.64652E-04 5.50974E-02-1.78317E-05
 -1       411-4.45047E-04 6.60844E-02-2.08579E-05
 -1       412-4.06848E-04 7.63641E-02-2.36549E-05
 -1       413-3.51850E-04 8.55195E-02-2.61327E-05
 -1       414-2.82096E-04 9.31792E-02-2.81944E-05
 -1       415-1.99842E-04 9.90224E-02-2.97444E-05
 -1       416-1.07512E-04 1.02784E-01-3.06982E-05
 -1       417-7.65182E-06 1.04257E-01-3.09879E-05
 -1       418 9.71270E-05 1.03296E-01-3.05640E-05
 -1       419 2.04207E-04 9.98185E-02-2.93962E-05
 -1       420 3.11029E-04 9.38020E-02-2.74731E-05
 -1       421 4.15150E-04 8.52845E-02-2.48006E-05
 -1       422 5.14315E-04 7.43595E-02-2.14012E-05
 -1       423 6.06513E-04 6.11714E-02-1.73128E-05
 -1       424 6.90036E-04 4.59093E-02-1.25879E-05
 -1       425 7.63536E-04 2.87985E-02-7.29487E-06
 -1       426 8.26075E-04 1.00921E-02-1.51962E-06
 -1       427 8.77166E-04-9.93946E-03 4.63234E-06
 -1       428 9.16813E-04-3.10195E-02 1.10390E-05
 -1       429 9.45539E-04-5.28770E-02 1.75704E-05
 -1       430 9.64405E-04-7.52587E-02 2.41492E-05
 -1       431 9.75045E-04-9.79424E-02 3.07499E-05
 -1       432 9.79632E-04-1.20749E-01 3.76606E-05
 -1       433 1.07404E-02-1.43698E-01 4.91061E-04
 -1       434 0.00000E+00 0.00000E+00 0.00000E+00
 -1       435 0.00000E+00 0.00000E+00 0.00000E+00
 -1       436 9.79632E-04-1.20749E-01-3.76606E-05
 -1       437 9.75045E-04-9.79424E-02-3.07499E-05
 -1       438 9.64405E-04-7.52587E-02-2.41492E-05
 -1       439 9.45539E-04-5.28770E-02-1.75704E-05
 -1       440 9.16813E-04-3.10195E-02-1.10390E-05
 -1       441 8.77166E-04-9.93946E-03-4.63233E-06
 -1       442 8.26075E-04 1.00921E-02 1.51962E-06
 -1       443 7.63536E-04 2.87985E-02 7.29487E-06
 -1       444 6.90036E-04 4.59093E-02 1.25879E-05
 -1       445 6.06513E-04 6.11714E-02 1.73128E-05
 -1       446 5.14315E-04 7.43595E-02 2.14013E-05
 -1       447 4.15150E-04 8.52845E-02 2.48006E-05
 -1       448 3.11029E-04 9.38020E-02 2.74731E-05
 -1       449 2.04207E-04 9.98185E-02 2.93962E-05
 -1       450 9.71270E-05 1.03296E-01 3.05640E-05
 -1       451-7.65182E-06 1.04257E-01 3.09879E-05
 -1       452-1.07512E-04 1.02784E-01 3.06982E-05
 -1       453-1.99842E-04 9.90224E-02 2.97444E-05
 -1       454-2.82096E-04 9.31792E-02 2.81944E-05
 -1       455-3.51850E-04 8.55195E-02 2.61327E-05
 -1       456-4.06848E-04 7.63641E-02 2.36549E-05
 -1       457-4.45047E-04 6.60844E-02 2.08579E-05
 -1       458-4.64652E-04 5.50974E-02 1.78317E-05
 -1       459-4.64115E-04 4.38588E-02 1.46381E-05
 -1       460-4.42258E-04 3.28575E-02 1.13308E-05
 -1       461-3.97835E-04 2.26071E-02 7.89286E-06
 -1       462-3.30778E-04 1.36441E-02 4.85608E-06
 -1       463-2.40462E-04 6.50609E-03 8.58480E-07
 -1       464-1.19636E-04 1.74929E-03 2.27135E-06
 -1       465 1.07507E-02-1.43559E-01-4.91473E-04
 -1       466-2.65938E-03 2.16190E-03 8.37909E-05
 -1       467-5.07860E-03 6.79348E-03 8.77103E-05
 -1       468-6.97553E-03 1.38647E-02 1.34975E-04
 -1       469-8.38586E-03 2.27643E-02 1.90769E-04
 -1       470-9.31005E-03 3.29499E-02 2.54038E-04
 -1       471-9.76634E-03 4.38894E-02 3.16546E-04
 -1       472-9.77417E-03 5.50691E-02 3.76563E-04
 -1       473-9.36010E-03 6.60014E-02 4.32977E-04
 -1       474-8.55618E-03 7.62310E-02 4.84820E-04
 -1       475-7.40011E-03 8.53418E-02 5.30597E-04
 -1       476-5.93474E-03 9.29630E-02 5.68449E-04
 -1       477-4.20734E-03 9.87743E-02 5.96454E-04
 -1       478-2.26879E-03 1.02511E-01 6.12869E-04
 -1       479-1.72493E-04 1.03966E-01 6.16268E-04
 -1       480 2.02675E-03 1.02995E-01 6.05599E-04
 -1       481 4.27401E-03 9.95151E-02 5.80199E-04
 -1       482 6.51555E-03 9.35030E-02 5.39775E-04
 -1       483 8.70014E-03 8.49964E-02 4.84384E-04
 -1       484 1.07804E-02 7.40884E-02 4.14403E-04
 -1       485 1.27140E-02 6.09227E-02 3.30514E-04
 -1       486 1.44653E-02 4.56873E-02 2.33711E-04
 -1       487 1.60057E-02 2.86064E-02 1.25342E-04
 -1       488 1.73157E-02 9.93201E-03 7.15033E-06
 -1       489 1.83849E-02-1.00669E-02-1.18768E-04
 -1       490 1.92133E-02-3.11150E-02-2.50235E-04
 -1       491 1.98119E-02-5.29427E-02-3.85506E-04
 -1       492 2.02029E-02-7.52983E-02-5.23525E-04
 -1       493 2.04197E-02-9.79614E-02-6.62997E-04
 -1       494 2.05071E-02-1.20754E-01-8.00288E-04
 -1       495-2.65844E-03 2.16321E-03-5.99608E-05
 -1       496-5.07453E-03 6.80086E-03 4.22390E-06
 -1       497-6.96918E-03 1.38796E-02 6.20775E-05
 -1       498-8.37810E-03 2.27892E-02 1.41562E-04
 -1       499-9.30204E-03 3.29858E-02 2.24538E-04
 -1       500-9.75856E-03 4.39362E-02 3.06834E-04
 -1       501-9.76678E-03 5.51264E-02 3.85462E-04
 -1       502-9.35322E-03 6.60685E-02 4.59277E-04
 -1       503-8.54996E-03 7.63071E-02 5.27019E-04
 -1       504-7.39478E-03 8.54258E-02 5.86968E-04
 -1       505-5.93054E-03 9.30535E-02 6.37060E-04
 -1       506-4.20452E-03 9.88698E-02 6.75199E-04
 -1       507-2.26756E-03 1.02609E-01 6.99511E-04
 -1       508-1.73015E-04 1.04066E-01 7.08486E-04
 -1       509 2.02436E-03 1.03094E-01 7.01038E-04
 -1       510 4.26971E-03 9.96094E-02 6.76526E-04
 -1       511 6.50930E-03 9.35912E-02 6.34738E-04
 -1       512 8.69197E-03 8.50760E-02 5.75865E-04
 -1       513 1.07704E-02 7.41571E-02 5.00476E-04
 -1       514 1.27023E-02 6.09783E-02 4.09502E-04
 -1       515 1.44519E-02 4.57276E-02 3.04234E-04
 -1       516 1.59910E-02 2.86298E-02 1.86365E-04
 -1       517 1.72998E-02 9.93689E-03 5.80262E-05
 -1       518 1.83681E-02-1.00817E-02-7.82635E-05
 -1       519 1.91959E-02-3.11503E-02-2.19873E-04
 -1       520 1.97941E-02-5.29990E-02-3.64584E-04
 -1       521 2.01848E-02-7.53761E-02-5.10839E-04
 -1       522 2.04015E-02-9.80606E-02-6.56917E-04
 -1       523 2.04897E-02-1.20874E-01-7.98485E-04
 -1       524 1.07404E-02-1.43698E-01-4.91061E-04
 -1       525 1.47139E-04 1.74324E-03-5.20209E-07
 -1       526 2.63782E-04 6.53064E-03 3.56328E-07
 -1       527 3.55062E-04 1.37367E-02 2.59178E-06
 -1       528 4.21987E-04 2.27803E-02 5.15446E-06
 -1       529 4.65498E-04 3.31072E-02 7.53946E-06
 -1       530 4.86428E-04 4.41833E-02 9.82143E-06
 -1       531 4.85702E-04 5.54940E-02 1.20406E-05
 -1       532 4.64549E-04 6.65499E-02 1.41679E-05
 -1       533 4.24478E-04 7.68935E-02 1.61467E-05
 -1       534 3.67300E-04 8.61056E-02 1.79057E-05
 -1       535 2.95091E-04 9.38125E-02 1.93726E-05
 -1       536 2.10152E-04 9.96913E-02 2.04808E-05
 -1       537 1.14965E-04 1.03475E-01 2.11730E-05
 -1       538 1.21410E-05 1.04955E-01 2.14035E-05
 -1       539-9.56394E-05 1.03985E-01 2.11392E-05
 -1       540-2.05686E-04 1.00482E-01 2.03603E-05
 -1       541-3.15364E-04 9.44225E-02 1.90598E-05
 -1       542-4.22162E-04 8.58453E-02 1.72428E-05
 -1       543-5.23751E-04 7.48443E-02 1.49259E-05
 -1       544-6.18056E-04 6.15648E-02 1.21360E-05
 -1       545-7.03308E-04 4.61968E-02 8.90975E-06
 -1       546-7.78101E-04 2.89675E-02 5.29272E-06
 -1       547-8.41441E-04 1.01317E-02 1.34101E-06
 -1       548-8.92789E-04-1.00378E-02-2.87395E-06
 -1       549-9.32096E-04-3.12614E-02-7.25769E-06
 -1       550-9.59859E-04-5.32647E-02-1.16941E-05
 -1       551-9.77229E-04-7.57919E-02-1.60840E-05
 -1       552-9.86029E-04-9.86223E-02-2.05059E-05
 -1       553-9.89032E-04-1.21587E-01-2.55527E-05
 -1       554 1.43824E-04 1.73778E-03-4.70062E-14
 -1       555 2.62092E-04 6.53357E-03-1.14044E-13
 -1       556 3.53781E-04 1.37654E-02-2.07678E-13
 -1       557 4.20700E-04 2.28383E-02-3.21293E-13
 -1       558 4.64199E-04 3.31927E-02-4.40975E-13
 -1       559 4.85193E-04 4.42946E-02-5.56236E-13
 -1       560 4.84576E-04 5.56306E-02-6.55361E-13
 -1       561 4.63531E-04 6.67108E-02-7.34253E-13
 -1       562 4.23567E-04 7.70769E-02-7.98511E-13
 -1       563 3.66488E-04 8.63090E-02-8.34589E-13
 -1       564 2.94366E-04 9.40327E-02-8.29992E-13
 -1       565 2.09504E-04 9.99241E-02-7.92415E-13
 -1       566 1.14382E-04 1.03715E-01-7.19157E-13
 -1       567 1.16106E-05 1.05198E-01-6.09398E-13
 -1       568-9.61282E-05 1.04226E-01-4.57016E-13
 -1       569-2.06145E-04 1.00713E-01-2.57187E-13
 -1       570-3.15808E-04 9.46394E-02-7.77156E-16
 -1       571-4.22603E-04 8.60415E-02 3.05814E-13
 -1       572-5.24207E-04 7.50142E-02 6.55517E-13
 -1       573-6.18544E-04 6.17030E-02 1.04454E-12
 -1       574-7.03846E-04 4.62984E-02 1.47476E-12
 -1       575-7.78710E-04 2.90280E-02 1.94327E-12
 -1       576-8.42142E-04 1.01473E-02 2.44060E-12
 -1       577-8.93593E-04-1.00701E-02 2.96084E-12
 -1       578-9.33008E-04-3.13435E-02 3.49353E-12
 -1       579-9.60880E-04-5.33971E-02 4.02343E-12
 -1       580-9.78363E-04-7.59740E-02 4.54072E-12
 -1       581-9.87570E-04-9.88543E-02 5.04296E-12
 -1       582-9.91433E-04-1.21878E-01 5.53135E-12
 -1       583 1.47139E-04 1.74324E-03 5.20209E-07
 -1       584 2.63782E-04 6.53064E-03-3.56328E-07
 -1       585 3.55062E-04 1.37367E-02-2.59178E-06
 -1       586 4.21987E-04 2.27803E-02-5.15446E-06
 -1       587 4.65498E-04 3.31072E-02-7.53946E-06
 -1       588 4.86428E-04 4.41833E-02-9.82143E-06
 -1       589 4.85702E-04 5.54940E-02-1.20406E-05
 -1       590 4.64549E-04 6.65499E-02-1.41679E-05
 -1       591 4.24478E-04 7.68935E-02-1.61467E-05
 -1       592 3.67300E-04 8.61056E-02-1.79057E-05
 -1       593 2.95091E-04 9.38125E-02-1.93726E-05
 -1       594 2.10152E-04 9.96913E-02-2.04808E-05
 -1       595 1.14965E-04 1.03475E-01-2.11730E-05
 -1       596 1.21410E-05 1.04955E-01-2.14035E-05
 -1       597-9.56394E-05 1.03985E-01-2.11392E-05
 -1       598-2.05686E-04 1.00482E-01-2.03603E-05
 -1       599-3.15364E-04 9.44225E-02-1.90598E-05
 -1       600-4.22162E-04 8.58453E-02-1.72428E-05
 -1       601-5.23751E-04 7.48443E-02-1.49259E-05
 -1       602-6.18056E-04 6.15648E-02-1.21360E-05
 -1       603-7.03308E-04 4.61968E-02-8.90974E-06
 -1       604-7.78101E-04 2.89675E-02-5.29271E-06
 -1       605-8.41441E-04 1.01317E-02-1.34100E-06
 -1       606-8.92789E-04-1.00378E-02 2.87396E-06
 -1       607-9.32096E-04-3.12614E-02 7.25770E-06
 -1       608-9.59859E-04-5.32647E-02 1.16941E-05
 -1       609-9.77229E-04-7.57919E-02 1.60840E-05
 -1       610-9.86029E-04-9.86223E-02 2.05059E-05
 -1       611-9.89032E-04-1.21587E-01 2.55527E-05
 -1       612-1.47139E-04 1.74324E-03-5.20209E-07
 -1       613-2.63782E-04 6.53064E-03 3.56328E-07
 -1       614-3.55062E-04 1.37367E-02 2.59178E-06
 -1       615-4.21987E-04 2.27803E-02 5.15446E-06
 -1       616-4.65498E-04 3.31072E-02 7.53946E-06
 -1       617-4.86428E-04 4.41833E-02 9.82143E-06
 -1       618-4.85702E-04 5.54940E-02 1.20406E-05
 -1       619-4.64549E-04 6.65499E-02 1.41679E-05
 -1       620-4.24478E-04 7.68935E-02 1.61467E-05
 -1       621-3.67300E-04 8.61056E-02 1.79057E-05
 -1       622-2.95091E-04 9.38125E-02 1.93726E-05
 -1       623-2.10152E-04 9.96913E-02 2.04808E-05
 -1       624-1.14965E-04 1.03475E-01 2.11730E-05
 -1       625-1.21410E-05 1.04955E-01 2.14035E-05
 -1       626 9.56394E-05 1.03985E-01 2.11392E-05
 -1       627 2.05686E-04 1.00482E-01 2.03603E-05
 -1       628 3.15364E-04 9.44225E-02 1.90598E-05
 -1       629 4.22162E-04 8.58453E-02 1.72428E-05
 -1       630 5.23751E-04 7.48443E-02 1.49259E-05
 -1       631 6.18056E-04 6.15648E-02 1.21360E-05
 -1       632 7.03308E-04 4.61968E-02 8.90975E-06
 -1       633 7.78101E-04 2.89675E-02 5.29272E-06
 -1       634 8.41441E-04 1.01317E-02 1.34101E-06
 -1       635 8.92789E-04-1.00378E-02-2.87395E-06
 -1       636 9.32096E-04-3.12614E-02-7.25769E-06
 -1       637 9.59859E-04-5.32647E-02-1.16941E-05
 -1       638 9.77229E-04-7.57919E-02-1.60840E-05
 -1       639 9.86029E-04-9.86223E-02-2.05059E-05
 -1       640 9.89032E-04-1.21587E-01-2.55527E-05
 -1       641-1.43824E-04 1.73778E-03-2.81981E-14
 -1       642-2.62092E-04 6.53357E-03-4.63726E-14
 -1       643-3.53781E-04 1.37654E-02-6.86365E-14
 -1       644-4.20700E-04 2.28383E-02-9.40038E-14
 -1       645-4.64199E-04 3.31927E-02-1.14323E-13
 -1       646-4.85193E-04 4.42946E-02-1.21621E-13
 -1       647-4.84576E-04 5.56306E-02-1.10476E-13
 -1       648-4.63531E-04 6.67108E-02-8.64257E-14
 -1       649-4.23567E-04 7.70769E-02-5.40436E-14
 -1       650-3.66488E-04 8.63090E-02-4.09048E-15
 -1       651-2.94366E-04 9.40327E-02 7.26710E-14
 -1       652-2.09504E-04 9.99241E-02 1.66461E-13
 -1       653-1.14382E-04 1.03715E-01 2.77785E-13
 -1       654-1.16106E-05 1.05198E-01 4.06342E-13
 -1       655 9.61282E-05 1.04226E-01 5.57391E-13
 -1       656 2.06145E-04 1.00713E-01 7.34132E-13
 -1       657 3.15808E-04 9.46394E-02 9.44446E-13
 -1       658 4.22603E-04 8.60415E-02 1.18303E-12
 -1       659 5.24207E-04 7.50142E-02 1.44566E-12
 -1       660 6.18544E-04 6.17030E-02 1.73492E-12
 -1       661 7.03846E-04 4.62984E-02 2.04602E-12
 -1       662 7.78710E-04 2.90280E-02 2.37809E-12
 -1       663 8.42142E-04 1.01473E-02 2.72907E-12
 -1       664 8.93593E-04-1.00701E-02 3.09666E-12
 -1       665 9.33008E-04-3.13435E-02 3.46395E-12
 -1       666 9.60880E-04-5.33971E-02 3.81558E-12
 -1       667 9.78363E-04-7.59740E-02 4.14786E-12
 -1       668 9.87570E-04-9.88543E-02 4.46431E-12
 -1       669 9.91433E-04-1.21878E-01 4.76536E-12
 -1       670-1.47139E-04 1.74324E-03 5.20209E-07
 -1       671-2.63782E-04 6.53064E-03-3.56328E-07
 -1       672-3.55062E-04 1.37367E-02-2.59178E-06
 -1       673-4.21987E-04 2.27803E-02-5.15446E-06
 -1       674-4.65498E-04 3.31072E-02-7.53946E-06
 -1       675-4.86428E-04 4.41833E-02-9.82143E-06
 -1       676-4.85702E-04 5.54940E-02-1.20406E-05
 -1       677-4.64549E-04 6.65499E-02-1.41679E-05
 -1       678-4.24478E-04 7.68935E-02-1.61467E-05
 -1       679-3.67300E-04 8.61056E-02-1.79057E-05
 -1       680-2.95091E-04 9.38125E-02-1.93726E-05
 -1       681-2.10152E-04 9.96913E-02-2.04808E-05
 -1       682-1.14965E-04 1.03475E-01-2.11730E-05
 -1       683-1.21410E-05 1.04955E-01-2.14035E-05
 -1       684 9.56394E-05 1.03985E-01-2.11392E-05
 -1       685 2.05686E-04 1.00482E-01-2.03603E-05
 -1       686 3.15364E-04 9.44225E-02-1.90598E-05
 -1       687 4.22162E-04 8.58453E-02-1.72428E-05
 -1       688 5.23751E-04 7.48443E-02-1.49259E-05
 -1       689 6.18056E-04 6.15648E-02-1.21360E-05
 -1       690 7.03308E-04 4.61968E-02-8.90974E-06
 -1       691 7.78101E-04 2.89675E-02-5.29271E-06
 -1       692 8.41441E-04 1.01317E-02-1.34100E-06
 -1       693 8.92789E-04-1.00378E-02 2.87396E-06
 -1       694 9.32096E-04-3.12614E-02 7.25770E-06
 -1       695 9.59859E-04-5.32647E-02 1.16941E-05
 -1       696 9.77229E-04-7.57919E-02 1.60840E-05
 -1       697 9.86029E-04-9.86223E-02 2.05059E-05
 -1       698 9.89032E-04-1.21587E-01 2.55527E-05
 -1       699 1.30293E-03 1.85980E-03 4.21690E-05
 -1       700 2.61781E-03 6.59135E-03 4.42143E-05
 -1       701 3.60443E-03 1.37050E-02 6.89860E-05
 -1       702 4.34410E-03 2.26519E-02 9.95763E-05
 -1       703 4.83017E-03 3.28835E-02 1.32663E-04
 -1       704 5.07116E-03 4.38672E-02 1.65618E-04
 -1       705 5.07795E-03 5.50890E-02 1.97211E-04
 -1       706 4.86427E-03 6.60605E-02 2.26980E-04
 -1       707 4.44692E-03 7.63259E-02 2.54370E-04
 -1       708 3.84560E-03 8.54687E-02 2.78567E-04
 -1       709 3.08267E-03 9.31174E-02 2.98585E-04
 -1       710 2.18282E-03 9.89515E-02 3.13412E-04
 -1       711 1.17260E-03 1.02706E-01 3.22133E-04
 -1       712 7.98838E-05 1.04174E-01 3.24003E-04
 -1       713-1.06676E-03 1.03210E-01 3.18472E-04
 -1       714-2.23869E-03 9.97320E-02 3.05194E-04
 -1       715-3.40787E-03 9.37168E-02 2.84018E-04
 -1       716-4.54760E-03 8.52025E-02 2.54975E-04
 -1       717-5.63320E-03 7.42823E-02 2.18267E-04
 -1       718-6.64264E-03 6.11007E-02 1.74256E-04
 -1       719-7.55727E-03 4.58462E-02 1.23464E-04
 -1       720-8.36235E-03 2.87440E-02 6.65973E-05
 -1       721-9.04763E-03 1.00468E-02 4.56402E-06
 -1       722-9.60779E-03-9.97543E-03-6.15377E-05
 -1       723-1.00429E-02-3.10463E-02-1.30539E-04
 -1       724-1.03588E-02-5.28952E-02-2.01446E-04
 -1       725-1.05670E-02-7.52694E-02-2.73658E-04
 -1       726-1.06853E-02-9.79471E-02-3.46639E-04
 -1       727-1.07373E-02-1.20750E-01-4.19138E-04
 -1       728 1.29672E-03 1.86148E-03-2.75473E-05
 -1       729 2.61121E-03 6.59856E-03 1.15043E-06
 -1       730 3.59618E-03 1.37198E-02 3.37016E-05
 -1       731 4.33533E-03 2.26768E-02 7.49344E-05
 -1       732 4.82142E-03 3.29194E-02 1.18026E-04
 -1       733 5.06272E-03 4.39140E-02 1.60676E-04
 -1       734 5.06996E-03 5.51462E-02 2.01460E-04
 -1       735 4.85686E-03 6.61275E-02 2.39801E-04
 -1       736 4.44022E-03 7.64019E-02 2.75024E-04
 -1       737 3.83978E-03 8.55526E-02 3.06203E-04
 -1       738 3.07792E-03 9.32079E-02 3.32251E-04
 -1       739 2.17931E-03 9.90470E-02 3.52072E-04
 -1       740 1.17046E-03 1.02804E-01 3.64688E-04
 -1       741 7.92175E-05 1.04273E-01 3.69310E-04
 -1       742-1.06589E-03 1.03308E-01 3.65375E-04
 -1       743-2.23625E-03 9.98263E-02 3.52545E-04
 -1       744-3.40389E-03 9.38050E-02 3.30711E-04
 -1       745-4.54213E-03 8.52820E-02 2.99970E-04
 -1       746-5.62631E-03 7.43510E-02 2.60619E-04
 -1       747-6.63446E-03 6.11562E-02 2.13140E-04
 -1       748-7.54795E-03 4.58865E-02 1.58205E-04
 -1       749-8.35207E-03 2.87674E-02 9.66890E-05
 -1       750-9.03661E-03 1.00516E-02 2.96914E-05
 -1       751-9.59630E-03-9.99023E-03-4.14807E-05
 -1       752-1.00312E-02-3.10816E-02-1.15436E-04
 -1       753-1.03471E-02-5.29515E-02-1.90951E-04
 -1       754-1.05554E-02-7.53471E-02-2.67195E-04
 -1       755-1.06741E-02-9.80462E-02-3.43343E-04
 -1       756-1.07267E-02-1.20870E-01-4.17964E-04
 -1       757 1.29672E-03 1.86148E-03 2.75473E-05
 -1       758 2.61121E-03 6.59856E-03-1.15043E-06
 -1       759 3.59618E-03 1.37198E-02-3.37016E-05
 -1       760 4.33533E-03 2.26768E-02-7.49344E-05
 -1       761 4.82142E-03 3.29194E-02-1.18026E-04
 -1       762 5.06272E-03 4.39140E-02-1.60676E-04
 -1       763 5.06996E-03 5.51462E-02-2.01460E-04
 -1       764 4.85686E-03 6.61275E-02-2.39801E-04
 -1       765 4.44022E-03 7.64019E-02-2.75024E-04
 -1       766 3.83978E-03 8.55526E-02-3.06203E-04
 -1       767 3.07792E-03 9.32079E-02-3.32251E-04
 -1       768 2.17931E-03 9.90470E-02-3.52072E-04
 -1       769 1.17046E-03 1.02804E-01-3.64688E-04
 -1       770 7.92175E-05 1.04273E-01-3.69310E-04
 -1       771-1.06589E-03 1.03308E-01-3.65375E-04
 -1       772-2.23625E-03 9.98263E-02-3.52546E-04
 -1       773-3.40389E-03 9.38050E-02-3.30711E-04
 -1       774-4.54213E-03 8.52820E-02-2.99970E-04
 -1       775-5.62631E-03 7.43510E-02-2.60619E-04
 -1       776-6.63446E-03 6.11562E-02-2.13140E-04
 -1       777-7.54795E-03 4.58865E-02-1.58205E-04
 -1       778-8.35207E-03 2.87674E-02-9.66890E-05
 -1       779-9.03661E-03 1.00516E-02-2.96914E-05
 -1       780-9.59630E-03-9.99023E-03 4.14807E-05
 -1       781-1.00312E-02-3.10816E-02 1.15436E-04
 -1       782-1.03471E-02-5.29515E-02 1.90951E-04
 -1       783-1.05554E-02-7.53471E-02 2.67195E-04
 -1       784-1.06741E-02-9.80462E-02 3.43343E-04
 -1       785-1.07267E-02-1.20870E-01 4.17964E-04
 -1       786 1.30293E-03 1.85980E-03-4.21690E-05
 -1       787 2.61781E-03 6.59135E-03-4.42143E-05
 -1       788 3.60443E-03 1.37050E-02-6.89860E-05
 -1       789 4.34410E-03 2.26519E-02-9.95763E-05
 -1       790 4.83017E-03 3.28835E-02-1.32663E-04
 -1       791 5.07116E-03 4.38672E-02-1.65618E-04
 -1       792 5.07795E-03 5.50890E-02-1.97211E-04
 -1       793 4.86427E-03 6.60605E-02-2.26980E-04
 -1       794 4.44692E-03 7.63259E-02-2.54370E-04
 -1       795 3.84560E-03 8.54687E-02-2.78567E-04
 -1       796 3.08267E-03 9.31174E-02-2.98585E-04
 -1       797 2.18282E-03 9.89515E-02-3.13412E-04
 -1       798 1.17260E-03 1.02706E-01-3.22133E-04
 -1       799 7.98838E-05 1.04174E-01-3.24003E-04
 -1       800-1.06676E-03 1.03210E-01-3.18472E-04
 -1       801-2.23869E-03 9.97320E-02-3.05194E-04
 -1       802-3.40787E-03 9.37168E-02-2.84018E-04
 -1       803-4.54760E-03 8.52025E-02-2.54975E-04
 -1       804-5.63320E-03 7.42823E-02-2.18267E-04
 -1       805-6.64264E-03 6.11007E-02-1.74256E-04
 -1       806-7.55727E-03 4.58462E-02-1.23464E-04
 -1       807-8.36235E-03 2.87440E-02-6.65973E-05
 -1       808-9.04763E-03 1.00468E-02-4.56402E-06
 -1       809-9.60779E-03-9.97543E-03 6.15377E-05
 -1       810-1.00429E-02-3.10463E-02 1.30539E-04
 -1       811-1.03588E-02-5.28952E-02 2.01446E-04
 -1       812-1.05670E-02-7.52694E-02 2.73658E-04
 -1       813-1.06853E-02-9.79471E-02 3.46639E-04
 -1       814-1.07373E-02-1.20750E-01 4.19138E-04
 -1       815-1.30293E-03 1.85980E-03-4.21690E-05
 -1       816-2.61781E-03 6.59135E-03-4.42143E-05
 -1       817-3.60443E-03 1.37050E-02-6.89860E-05
 -1       818-4.34410E-03 2.26519E-02-9.95763E-05
 -1       819-4.83017E-03 3.28835E-02-1.32663E-04
 -1       820-5.07116E-03 4.38672E-02-1.65618E-04
 -1       821-5.07795E-03 5.50890E-02-1.97211E-04
 -1       822-4.86427E-03 6.60605E-02-2.26980E-04
 -1       823-4.44692E-03 7.63259E-02-2.54370E-04
 -1       824-3.84560E-03 8.54687E-02-2.78567E-04
 -1       825-3.08267E-03 9.31174E-02-2.98585E-04
 -1       826-2.18282E-03 9.89515E-02-3.13412E-04
 -1       827-1.17260E-03 1.02706E-01-3.22133E-04
 -1       828-7.98838E-05 1.04174E-01-3.24003E-04
 -1       829 1.06676E-03 1.03210E-01-3.18472E-04
 -1       830 2.23869E-03 9.97320E-02-3.05194E-04
 -1       831 3.40787E-03 9.37168E-02-2.84018E-04
 -1       832 4.54760E-03 8.52025E-02-2.54975E-04
 -1       833 5.63320E-03 7.42823E-02-2.18267E-04
 -1       834 6.64264E-03 6.11007E-02-1.74256E-04
 -1       835 7.55727E-03 4.58462E-02-1.23464E-04
 -1       836 8.36235E-03 2.87440E-02-6.65973E-05
 -1       837 9.04763E-03 1.00468E-02-4.56401E-06
 -1       838 9.60779E-03-9.97543E-03 6.15377E-05
 -1       839 1.00429E-02-3.10463E-02 1.30539E-04
 -1       840 1.03588E-02-5.28952E-02 2.01446E-04
 -1       841 1.05670E-02-7.52694E-02 2.73658E-04
 -1       842 1.06853E-02-9.79471E-02 3.46639E-04
 -1       843 1.07373E-02-1.20750E-01 4.19138E-04
 -1       844-1.29672E-03 1.86148E-03 2.75473E-05
 -1       845-2.61121E-03 6.59856E-03-1.15043E-06
 -1       846-3.59618E-03 1.37198E-02-3.37016E-05
 -1       847-4.33533E-03 2.26768E-02-7.49344E-05
 -1       848-4.82142E-03 3.29194E-02-1.18026E-04
 -1       849-5.06272E-03 4.39140E-02-1.60676E-04
 -1       850-5.06996E-03 5.51462E-02-2.01460E-04
 -1       851-4.85686E-03 6.61275E-02-2.39801E-04
 -1       852-4.44022E-03 7.64019E-02-2.75024E-04
 -1       853-3.83978E-03 8.55526E-02-3.06203E-04
 -1       854-3.07792E-03 9.32079E-02-3.32251E-04
 -1       855-2.17931E-03 9.90470E-02-3.52072E-04
 -1       856-1.17046E-03 1.02804E-01-3.64688E-04
 -1       857-7.92175E-05 1.04273E-01-3.69310E-04
 -1       858 1.06589E-03 1.03308E-01-3.65375E-04
 -1       859 2.23625E-03 9.98263E-02-3.52545E-04
 -1       860 3.40389E-03 9.38050E-02-3.30711E-04
 -1       861 4.54213E-03 8.52820E-02-2.99970E-04
 -1       862 5.62631E-03 7.43510E-02-2.60619E-04
 -1       863 6.63446E-03 6.11562E-02-2.13140E-04
 -1       864 7.54795E-03 4.58865E-02-1.58205E-04
 -1       865 8.35207E-03 2.87674E-02-9.66890E-05
 -1       866 9.03661E-03 1.00516E-02-2.96914E-05
 -1       867 9.59630E-03-9.99023E-03 4.14807E-05
 -1       868 1.00312E-02-3.10816E-02 1.15436E-04
 -1       869 1.03471E-02-5.29515E-02 1.90951E-04
 -1       870 1.05554E-02-7.53471E-02 2.67195E-04
 -1       871 1.06741E-02-9.80462E-02 3.43343E-04
 -1       872 1.07267E-02-1.20870E-01 4.17964E-04
 -1       873 1.07373E-02-1.20750E-01-4.19138E-04
 -1       874 1.06853E-02-9.79471E-02-3.46639E-04
 -1       875 1.05670E-02-7.52694E-02-2.73658E-04
 -1       876 1.03588E-02-5.28952E-02-2.01446E-04
 -1       877 1.00429E-02-3.10463E-02-1.30539E-04
 -1       878 9.60779E-03-9.97543E-03-6.15377E-05
 -1       879 9.04763E-03 1.00468E-02 4.56402E-06
 -1       880 8.36235E-03 2.87440E-02 6.65973E-05
 -1       881 7.55727E-03 4.58462E-02 1.23464E-04
 -1       882 6.64264E-03 6.11007E-02 1.74256E-04
 -1       883 5.63320E-03 7.42823E-02 2.18267E-04
 -1       884 4.54760E-03 8.52025E-02 2.54975E-04
 -1       885 3.40787E-03 9.37168E-02 2.84018E-04
 -1       886 2.23869E-03 9.97320E-02 3.05194E-04
 -1       887 1.06676E-03 1.03210E-01 3.18472E-04
 -1       888-7.98838E-05 1.04174E-01 3.24003E-04
 -1       889-1.17260E-03 1.02706E-01 3.22133E-04
 -1       890-2.18282E-03 9.89515E-02 3.13412E-04
 -1       891-3.08267E-03 9.31174E-02 2.98585E-04
 -1       892-3.84560E-03 8.54687E-02 2.78567E-04
 -1       893-4.44692E-03 7.63259E-02 2.54370E-04
 -1       894-4.86427E-03 6.60605E-02 2.26980E-04
 -1       895-5.07795E-03 5.50890E-02 1.97211E-04
 -1       896-5.07116E-03 4.38672E-02 1.65618E-04
 -1       897-4.83017E-03 3.28835E-02 1.32663E-04
 -1       898-4.34410E-03 2.26519E-02 9.95763E-05
 -1       899-3.60443E-03 1.37050E-02 6.89860E-05
 -1       900-2.61781E-03 6.59135E-03 4.42143E-05
 -1       901-1.30293E-03 1.85980E-03 4.21690E-05
 -1       902-1.29672E-03 1.86148E-03-2.75473E-05
 -1       903-2.61121E-03 6.59856E-03 1.15043E-06
 -1       904-3.59618E-03 1.37198E-02 3.37016E-05
 -1       905-4.33533E-03 2.26768E-02 7.49344E-05
 -1       906-4.82142E-03 3.29194E-02 1.18026E-04
 -1       907-5.06272E-03 4.39140E-02 1.60676E-04
 -1       908-5.06996E-03 5.51462E-02 2.01460E-04
 -1       909-4.85686E-03 6.61275E-02 2.39801E-04
 -1       910-4.44022E-03 7.64019E-02 2.75024E-04
 -1       911-3.83978E-03 8.55526E-02 3.06203E-04
 -1       912-3.07792E-03 9.32079E-02 3.32251E-04
 -1       913-2.17931E-03 9.90470E-02 3.52072E-04
 -1       914-1.17046E-03 1.02804E-01 3.64688E-04
 -1       915-7.92175E-05 1.04273E-01 3.69310E-04
 -1       916 1.06589E-03 1.03308E-01 3.65375E-04
 -1       917 2.23625E-03 9.98263E-02 3.52546E-04
 -1       918 3.40389E-03 9.38050E-02 3.30711E-04
 -1       919 4.54213E-03 8.52820E-02 2.99970E-04
 -1       920 5.62631E-03 7.43510E-02 2.60619E-04
 -1       921 6.63446E-03 6.11562E-02 2.13140E-04
 -1       922 7.54795E-03 4.58865E-02 1.58205E-04
 -1       923 8.35207E-03 2.87674E-02 9.66890E-05
 -1       924 9.03661E-03 1.00516E-02 2.96914E-05
 -1       925 9.59630E-03-9.99023E-03-4.14807E-05
 -1       926 1.00312E-02-3.10816E-02-1.15436E-04
 -1       927 1.03471E-02-5.29515E-02-1.90951E-04
 -1       928 1.05554E-02-7.53471E-02-2.67195E-04
 -1       929 1.06741E-02-9.80462E-02-3.43343E-04
 -1       930 1.07267E-02-1.20870E-01-4.17964E-04
 -3
    1PSTEP                        14           1           1          
    1PGM                1.000000E+00                                  
    1PGK                3.079301E+05                                  
    1PHID                         -1                                  
    1PSUBC                         0                                  
    1PMODE                         4                                  
  100CL  104 88.31738313         930                     2    4MODAL      1
 -4  STRESS      6    1
 -5  SXX         1    4    1    1
 -5  SYY         1    4    2    2
 -5  SZZ         1    4    3    3
 -5  SXY         1    4    1    2
 -5  SYZ         1    4    2    3
 -5  SZX         1    4    3    1
 -1         1 3.88163E+08 1.66360E+08 1.66361E+08 1.41498E+09 1.52606E+02 1.46230E+05
 -1         2-3.88163E+08-1.66360E+08-1.66361E+08 1.41498E+09 1.52606E+02-1.46230E+05
 -1         3 3.65806E+06 3.94599E+05 1.12441E+07-2.34338E+07 2.41675E+07-1.04337E+07
 -1         4-3.65806E+06-3.94599E+05-1.12441E+07-2.34338E+07 2.41675E+07 1.04337E+07
 -1         5 3.88163E+08 1.66360E+08 1.66361E+08 1.41498E+09-1.52606E+02-1.46230E+05
 -1         6-3.88163E+08-1.66360E+08-1.66361E+08 1.41498E+09-1.52606E+02 1.46230E+05
 -1         7 3.65806E+06 3.94598E+05 1.12441E+07-2.34338E+07-2.41675E+07 1.04337E+07
 -1         8-3.65806E+06-3.94599E+05-1.12441E+07-2.34338E+07-2.41675E+07-1.04337E+07
 -1         9 3.38171E+08 1.44937E+08 1.44938E+08 1.41287E+09-9.14947E+01 1.83455E+06
 -1        10-1.95276E+06 1.31595E+06-3.55008E+05-3.96826E+06-3.66585E+06-8.16794E+06
 -1        11 7.51766E+09 3.22189E+09 3.22189E+09 1.74613E+09-2.55713E+02 6.76769E+07
 -1        12 7.51500E+09 3.22075E+09 3.22075E+09 1.74719E+09 2.39246E+02-4.84293E+07
 -1        13-4.65158E+07-1.00732E+07-1.42310E+07 4.91803E+06 2.45154E+06-4.35017E+06
 -1        14-5.11889E+07-1.74949E+07-1.78594E+07-2.18224E+07 2.89555E+06-5.66347E+06
 -1        15 3.38171E+08 1.44937E+08 1.44938E+08 1.41287E+09 9.14947E+01-1.83455E+06
 -1        16-1.95276E+06 1.31595E+06-3.55008E+05-3.96826E+06 3.66585E+06 8.16794E+06
 -1        17 7.51500E+09 3.22075E+09 3.22075E+09 1.74719E+09-2.39246E+02 4.84293E+07
 -1        18 7.51766E+09 3.22189E+09 3.22189E+09 1.74613E+09 2.55713E+02-6.76769E+07
 -1        19-5.11889E+07-1.74949E+07-1.78594E+07-2.18224E+07-2.89555E+06 5.66347E+06
 -1        20-4.65158E+07-1.00732E+07-1.42310E+07 4.91803E+06-2.45154E+06 4.35017E+06
 -1        21-7.51500E+09-3.22075E+09-3.22075E+09 1.74719E+09 2.39246E+02 4.84293E+07
 -1        22-7.51766E+09-3.22189E+09-3.22189E+09 1.74613E+09-2.55713E+02-6.76769E+07
 -1        23 4.65158E+07 1.00732E+07 1.42310E+07 4.91803E+06 2.45154E+06 4.35017E+06
 -1        24 5.11889E+07 1.74949E+07 1.78594E+07-2.18224E+07 2.89555E+06 5.66346E+06
 -1        25-3.38171E+08-1.44937E+08-1.44938E+08 1.41287E+09-9.14947E+01-1.83455E+06
 -1        26 1.95276E+06-1.31595E+06 3.55008E+05-3.96826E+06-3.66585E+06 8.16794E+06
 -1        27-3.38171E+08-1.44937E+08-1.44938E+08 1.41287E+09 9.14947E+01 1.83455E+06
 -1        28-7.51766E+09-3.22189E+09-3.22189E+09 1.74613E+09 2.55713E+02 6.76769E+07
 -1        29-7.51500E+09-3.22075E+09-3.22075E+09 1.74719E+09-2.39246E+02-4.84293E+07
 -1        30 1.95276E+06-1.31595E+06 3.55008E+05-3.96826E+06 3.66585E+06-8.16794E+06
 -1        31 4.65158E+07 1.00732E+07 1.42310E+07 4.91803E+06-2.45154E+06-4.35017E+06
 -1        32 5.11889E+07 1.74949E+07 1.78594E+07-2.18224E+07-2.89555E+06-5.66347E+06
 -1        33-2.43184E+08 9.98088E+07-2.08132E+07 1.81794E+08 2.30547E+07-7.40017E+07
 -1        34-2.14946E+08 6.12438E+07-5.28048E+07 1.44547E+08 8.89424E+06-5.92204E+07
 -1        35-1.61129E+08 4.24399E+07-2.92655E+07 1.53674E+08 8.14907E+06-6.01347E+07
 -1        36-1.13374E+08 3.21760E+07-2.18980E+07 1.50435E+08 2.49580E+06-5.99897E+07
 -1        37-6.53122E+07 1.98140E+07-9.18618E+06 1.45595E+08-1.57448E+06-5.78968E+07
 -1        38-1.87955E+07 8.66290E+06 2.49139E+06 1.39567E+08-5.65630E+06-5.54759E+07
 -1        39 2.52493E+07-1.98416E+06 1.36625E+07 1.31269E+08-9.57695E+06-5.22619E+07
 -1        40 6.62936E+07-1.20595E+07 2.38795E+07 1.21301E+08-1.32788E+07-4.83221E+07
 -1        41 1.03766E+08-2.13109E+07 3.31425E+07 1.09545E+08-1.67121E+07-4.36559E+07
 -1        42 1.37148E+08-2.95877E+07 4.13507E+07 9.61607E+07-1.97713E+07-3.83050E+07
 -1        43 1.65958E+08-3.67509E+07 4.83977E+07 8.13360E+07-2.23790E+07-3.23510E+07
 -1        44 1.89773E+08-4.27094E+07 5.41561E+07 6.53385E+07-2.44632E+07-2.59027E+07
 -1        45 2.08268E+08-4.73993E+07 5.85165E+07 4.84927E+07-2.59672E+07-1.90932E+07
 -1        46 2.21227E+08-5.07844E+07 6.13977E+07 3.11664E+07-2.68483E+07-1.20729E+07
 -1        47 2.28559E+08-5.28559E+07 6.27547E+07 1.37583E+07-2.70796E+07-5.00442E+06
 -1        48 2.30306E+08-5.36346E+07 6.25803E+07-3.31484E+06-2.66504E+07 1.94249E+06
 -1        49 2.26646E+08-5.31724E+07 6.09054E+07-1.96283E+07-2.55661E+07 8.59529E+06
 -1        50 2.17896E+08-5.15532E+07 5.77982E+07-3.47601E+07-2.38483E+07 1.47829E+07
 -1        51 2.04505E+08-4.88925E+07 5.33628E+07-4.82994E+07-2.15334E+07 2.03392E+07
 -1        52 1.87052E+08-4.53357E+07 4.77397E+07-5.98546E+07-1.86723E+07 2.51062E+07
 -1        53 1.66245E+08-4.10530E+07 4.11081E+07-6.90591E+07-1.53277E+07 2.89366E+07
 -1        54 1.42906E+08-3.62328E+07 3.36906E+07-7.55761E+07-1.15740E+07 3.16947E+07
 -1        55 1.17965E+08-3.10795E+07 2.57512E+07-7.91063E+07-7.49563E+06 3.32569E+07
 -1        56 9.24369E+07-2.58206E+07 1.75710E+07-7.93993E+07-3.19837E+06 3.35149E+07
 -1        57 6.73693E+07-2.07624E+07 9.36720E+06-7.62896E+07 1.19597E+06 3.23762E+07
 -1        58 4.37780E+07-1.62873E+07 1.23760E+06-6.96324E+07 5.47373E+06 2.98204E+07
 -1        59 2.27622E+07-1.28397E+07-6.78165E+06-5.96240E+07 9.61646E+06 2.58420E+07
 -1        60 5.46798E+06-1.04296E+07-1.37753E+07-4.52403E+07 1.34150E+07 2.08433E+07
 -1        61-4.57263E+06-7.17983E+06-1.73690E+07-3.02287E+07 1.77397E+07 1.42537E+07
 -1        62 2.43184E+08-9.98088E+07 2.08132E+07 1.81794E+08 2.30547E+07 7.40017E+07
 -1        63 2.14946E+08-6.12438E+07 5.28048E+07 1.44547E+08 8.89424E+06 5.92204E+07
 -1        64 1.61129E+08-4.24399E+07 2.92655E+07 1.53674E+08 8.14907E+06 6.01347E+07
 -1        65 1.13374E+08-3.21760E+07 2.18980E+07 1.50435E+08 2.49580E+06 5.99897E+07
 -1        66 6.53122E+07-1.98140E+07 9.18618E+06 1.45595E+08-1.57448E+06 5.78968E+07
 -1        67 1.87955E+07-8.66290E+06-2.49139E+06 1.39567E+08-5.65630E+06 5.54759E+07
 -1        68-2.52493E+07 1.98416E+06-1.36625E+07 1.31269E+08-9.57695E+06 5.22619E+07
 -1        69-6.62936E+07 1.20595E+07-2.38795E+07 1.21301E+08-1.32788E+07 4.83221E+07
 -1        70-1.03766E+08 2.13109E+07-3.31425E+07 1.09545E+08-1.67121E+07 4.36559E+07
 -1        71-1.37148E+08 2.95877E+07-4.13507E+07 9.61607E+07-1.97713E+07 3.83050E+07
 -1        72-1.65958E+08 3.67509E+07-4.83977E+07 8.13360E+07-2.23790E+07 3.23510E+07
 -1        73-1.89773E+08 4.27094E+07-5.41561E+07 6.53385E+07-2.44632E+07 2.59027E+07
 -1        74-2.08268E+08 4.73993E+07-5.85165E+07 4.84927E+07-2.59672E+07 1.90932E+07
 -1        75-2.21227E+08 5.07844E+07-6.13977E+07 3.11664E+07-2.68483E+07 1.20729E+07
 -1        76-2.28559E+08 5.28559E+07-6.27547E+07 1.37583E+07-2.70796E+07 5.00442E+06
 -1        77-2.30306E+08 5.36346E+07-6.25803E+07-3.31484E+06-2.66504E+07-1.94249E+06
 -1        78-2.26646E+08 5.31724E+07-6.09054E+07-1.96283E+07-2.55661E+07-8.59529E+06
 -1        79-2.17896E+08 5.15532E+07-5.77982E+07-3.47601E+07-2.38483E+07-1.47829E+07
 -1        80-2.04505E+08 4.88925E+07-5.33628E+07-4.82994E+07-2.15334E+07-2.03392E+07
 -1        81-1.87052E+08 4.53357E+07-4.77397E+07-5.98546E+07-1.86723E+07-2.51062E+07
 -1        82-1.66245E+08 4.10530E+07-4.11081E+07-6.90591E+07-1.53277E+07-2.89366E+07
 -1        83-1.42906E+08 3.62328E+07-3.36906E+07-7.55761E+07-1.15740E+07-3.16947E+07
 -1        84-1.17965E+08 3.10795E+07-2.57512E+07-7.91063E+07-7.49563E+06-3.32569E+07
 -1        85-9.24369E+07 2.58206E+07-1.75710E+07-7.93993E+07-3.19837E+06-3.35149E+07
 -1        86-6.73693E+07 2.07624E+07-9.36720E+06-7.62896E+07 1.19597E+06-3.23762E+07
 -1        87-4.37780E+07 1.62873E+07-1.23760E+06-6.96324E+07 5.47373E+06-2.98204E+07
 -1        88-2.27622E+07 1.28397E+07 6.78165E+06-5.96240E+07 9.61646E+06-2.58420E+07
 -1        89-5.46798E+06 1.04296E+07 1.37753E+07-4.52403E+07 1.34150E+07-2.08433E+07
 -1        90 4.57263E+06 7.17983E+06 1.73690E+07-3.02287E+07 1.77397E+07-1.42537E+07
 -1        91 4.15949E+08 1.78264E+08 1.78264E+08 1.40799E+09 5.53776E+01-4.20155E+05
 -1        92 4.06577E+08 1.74247E+08 1.74247E+08 1.40359E+09-8.53470E-09-3.79654E-02
 -1        93 4.15949E+08 1.78264E+08 1.78264E+08 1.40799E+09-5.53776E+01 4.20155E+05
 -1        94-4.15949E+08-1.78264E+08-1.78264E+08 1.40799E+09-5.53776E+01-4.20155E+05
 -1        95-4.06577E+08-1.74247E+08-1.74247E+08 1.40359E+09 4.35975E-08-2.27743E-02
 -1        96-4.15949E+08-1.78264E+08-1.78264E+08 1.40799E+09 5.53776E+01 4.20155E+05
 -1        97 2.43184E+08-9.98088E+07 2.08132E+07 1.81794E+08-2.30547E+07-7.40017E+07
 -1        98 2.14946E+08-6.12438E+07 5.28048E+07 1.44547E+08-8.89424E+06-5.92204E+07
 -1        99 1.61129E+08-4.24399E+07 2.92655E+07 1.53674E+08-8.14907E+06-6.01347E+07
 -1       100 1.13374E+08-3.21760E+07 2.18980E+07 1.50435E+08-2.49580E+06-5.99897E+07
 -1       101 6.53122E+07-1.98140E+07 9.18618E+06 1.45595E+08 1.57448E+06-5.78968E+07
 -1       102 1.87955E+07-8.66290E+06-2.49139E+06 1.39567E+08 5.65630E+06-5.54759E+07
 -1       103-2.52493E+07 1.98416E+06-1.36625E+07 1.31269E+08 9.57695E+06-5.22619E+07
 -1       104-6.62936E+07 1.20595E+07-2.38795E+07 1.21301E+08 1.32788E+07-4.83221E+07
 -1       105-1.03766E+08 2.13109E+07-3.31425E+07 1.09545E+08 1.67121E+07-4.36559E+07
 -1       106-1.37148E+08 2.95877E+07-4.13507E+07 9.61607E+07 1.97713E+07-3.83050E+07
 -1       107-1.65958E+08 3.67509E+07-4.83977E+07 8.13360E+07 2.23790E+07-3.23510E+07
 -1       108-1.89773E+08 4.27094E+07-5.41561E+07 6.53385E+07 2.44632E+07-2.59027E+07
 -1       109-2.08268E+08 4.73993E+07-5.85165E+07 4.84927E+07 2.59672E+07-1.90932E+07
 -1       110-2.21227E+08 5.07844E+07-6.13977E+07 3.11664E+07 2.68483E+07-1.20729E+07
 -1       111-2.28559E+08 5.28559E+07-6.27547E+07 1.37583E+07 2.70796E+07-5.00442E+06
 -1       112-2.30306E+08 5.36346E+07-6.25803E+07-3.31484E+06 2.66504E+07 1.94249E+06
 -1       113-2.26646E+08 5.31724E+07-6.09054E+07-1.96283E+07 2.55661E+07 8.59529E+06
 -1       114-2.17896E+08 5.15532E+07-5.77982E+07-3.47601E+07 2.38483E+07 1.47829E+07
 -1       115-2.04505E+08 4.88925E+07-5.33628E+07-4.82994E+07 2.15334E+07 2.03392E+07
 -1       116-1.87052E+08 4.53357E+07-4.77397E+07-5.98546E+07 1.86723E+07 2.51062E+07
 -1       117-1.66245E+08 4.10530E+07-4.11081E+07-6.90591E+07 1.53277E+07 2.89366E+07
 -1       118-1.42906E+08 3.62328E+07-3.36906E+07-7.55761E+07 1.15740E+07 3.16947E+07
 -1       119-1.17965E+08 3.10795E+07-2.57512E+07-7.91063E+07 7.49563E+06 3.32569E+07
 -1       120-9.24369E+07 2.58206E+07-1.75710E+07-7.93993E+07 3.19837E+06 3.35149E+07
 -1       121-6.73693E+07 2.07624E+07-9.36720E+06-7.62896E+07-1.19597E+06 3.23762E+07
 -1       122-4.37780E+07 1.62873E+07-1.23760E+06-6.96324E+07-5.47373E+06 2.98204E+07
 -1       123-2.27622E+07 1.28397E+07 6.78165E+06-5.96240E+07-9.61646E+06 2.58420E+07
 -1       124-5.46798E+06 1.04296E+07 1.37753E+07-4.52403E+07-1.34150E+07 2.08433E+07
 -1       125 4.57263E+06 7.17983E+06 1.73690E+07-3.02287E+07-1.77397E+07 1.42537E+07
 -1       126 2.77443E+07 2.87516E+07 6.80943E+07 8.15358E+06 5.63189E+07-1.01690E+07
 -1       127 3.80893E+07 4.00201E+07 9.53111E+07 6.61802E+06-2.90391E-02 1.51661E-01
 -1       128 2.77443E+07 2.87516E+07 6.80943E+07 8.15358E+06-5.63189E+07 1.01690E+07
 -1       129-2.43184E+08 9.98088E+07-2.08132E+07 1.81794E+08-2.30547E+07 7.40017E+07
 -1       130-2.14946E+08 6.12438E+07-5.28048E+07 1.44547E+08-8.89424E+06 5.92204E+07
 -1       131-1.61129E+08 4.24399E+07-2.92655E+07 1.53674E+08-8.14907E+06 6.01347E+07
 -1       132-1.13374E+08 3.21760E+07-2.18980E+07 1.50435E+08-2.49580E+06 5.99897E+07
 -1       133-6.53122E+07 1.98140E+07-9.18618E+06 1.45595E+08 1.57448E+06 5.78968E+07
 -1       134-1.87955E+07 8.66290E+06 2.49139E+06 1.39567E+08 5.65630E+06 5.54759E+07
 -1       135 2.52493E+07-1.98416E+06 1.36625E+07 1.31269E+08 9.57695E+06 5.22619E+07
 -1       136 6.62936E+07-1.20595E+07 2.38795E+07 1.21301E+08 1.32788E+07 4.83221E+07
 -1       137 1.03766E+08-2.13109E+07 3.31425E+07 1.09545E+08 1.67121E+07 4.36559E+07
 -1       138 1.37148E+08-2.95877E+07 4.13507E+07 9.61607E+07 1.97713E+07 3.83050E+07
 -1       139 1.65958E+08-3.67509E+07 4.83977E+07 8.13360E+07 2.23790E+07 3.23510E+07
 -1       140 1.89773E+08-4.27094E+07 5.41561E+07 6.53385E+07 2.44632E+07 2.59027E+07
 -1       141 2.08268E+08-4.73993E+07 5.85165E+07 4.84927E+07 2.59672E+07 1.90932E+07
 -1       142 2.21227E+08-5.07844E+07 6.13977E+07 3.11664E+07 2.68483E+07 1.20729E+07
 -1       143 2.28559E+08-5.28559E+07 6.27547E+07 1.37583E+07 2.70796E+07 5.00442E+06
 -1       144 2.30306E+08-5.36346E+07 6.25803E+07-3.31484E+06 2.66504E+07-1.94249E+06
 -1       145 2.26646E+08-5.31724E+07 6.09054E+07-1.96283E+07 2.55661E+07-8.59529E+06
 -1       146 2.17896E+08-5.15532E+07 5.77982E+07-3.47601E+07 2.38483E+07-1.47829E+07
 -1       147 2.04505E+08-4.88925E+07 5.33628E+07-4.82994E+07 2.15334E+07-2.03392E+07
 -1       148 1.87052E+08-4.53357E+07 4.77397E+07-5.98546E+07 1.86723E+07-2.51062E+07
 -1       149 1.66245E+08-4.10530E+07 4.11081E+07-6.90591E+07 1.53277E+07-2.89366E+07
 -1       150 1.42906E+08-3.62328E+07 3.36906E+07-7.55761E+07 1.15740E+07-3.16947E+07
 -1       151 1.17965E+08-3.10795E+07 2.57512E+07-7.91063E+07 7.49563E+06-3.32569E+07
 -1       152 9.24369E+07-2.58206E+07 1.75710E+07-7.93993E+07 3.19837E+06-3.35149E+07
 -1       153 6.73693E+07-2.07624E+07 9.36720E+06-7.62896E+07-1.19597E+06-3.23762E+07
 -1       154 4.37780E+07-1.62873E+07 1.23760E+06-6.96324E+07-5.47373E+06-2.98204E+07
 -1       155 2.27622E+07-1.28397E+07-6.78165E+06-5.96240E+07-9.61646E+06-2.58420E+07
 -1       156 5.46798E+06-1.04296E+07-1.37753E+07-4.52403E+07-1.34150E+07-2.08433E+07
 -1       157-4.57263E+06-7.17983E+06-1.73690E+07-3.02287E+07-1.77397E+07-1.42537E+07
 -1       158-2.77443E+07-2.87516E+07-6.80943E+07 8.15358E+06-5.63189E+07-1.01690E+07
 -1       159-3.80893E+07-4.00201E+07-9.53111E+07 6.61802E+06-2.89769E-02-1.57230E-01
 -1       160-2.77443E+07-2.87516E+07-6.80943E+07 8.15358E+06 5.63189E+07 1.01690E+07
 -1       161 1.64865E+08-2.37639E+08-5.43414E+07 3.88640E+08-4.33338E+07 1.06130E+08
 -1       162 1.84474E+08-1.46756E+08 2.27496E+07 3.04714E+08-1.41948E+07 8.31813E+07
 -1       163 1.32012E+08-1.09848E+08-8.56583E+05 3.10441E+08-1.77661E+07 8.46581E+07
 -1       164 9.39310E+07-8.04286E+07 3.39408E+06 3.03676E+08-1.02424E+07 8.39116E+07
 -1       165 5.55142E+07-4.68831E+07-2.60237E+04 2.93362E+08-5.25782E+06 8.11938E+07
 -1       166 1.80445E+07-1.57972E+07-2.42332E+06 2.80615E+08 5.64378E+05 7.77189E+07
 -1       167-1.73068E+07 1.38551E+07-4.81255E+06 2.63946E+08 5.79457E+06 7.31778E+07
 -1       168-5.02599E+07 4.15545E+07-6.79518E+06 2.43735E+08 1.06817E+07 6.76127E+07
 -1       169-8.03486E+07 6.68546E+07-8.52717E+06 2.20119E+08 1.50766E+07 6.10702E+07
 -1       170-1.07158E+08 8.94148E+07-1.00231E+07 1.93472E+08 1.89804E+07 5.36130E+07
 -1       171-1.30311E+08 1.08897E+08-1.12967E+07 1.64250E+08 2.23305E+07 4.53579E+07
 -1       172-1.49480E+08 1.25031E+08-1.23201E+07 1.32999E+08 2.50747E+07 3.64545E+07
 -1       173-1.64414E+08 1.37608E+08-1.30636E+07 1.00345E+08 2.71624E+07 2.70840E+07
 -1       174-1.74950E+08 1.46495E+08-1.35010E+07 6.69792E+07 2.85582E+07 1.74508E+07
 -1       175-1.81021E+08 1.51640E+08-1.36150E+07 3.36528E+07 2.92422E+07 7.77591E+06
 -1       176-1.82669E+08 1.53079E+08-1.33978E+07 1.15527E+06 2.92126E+07-1.70922E+06
 -1       177-1.80040E+08 1.50938E+08-1.28500E+07-2.97028E+07 2.84850E+07-1.07687E+07
 -1       178-1.73392E+08 1.45433E+08-1.19802E+07-5.81095E+07 2.70926E+07-1.91677E+07
 -1       179-1.63089E+08 1.36873E+08-1.08047E+07-8.32716E+07 2.50854E+07-2.66781E+07
 -1       180-1.49596E+08 1.25649E+08-9.34824E+06-1.04434E+08 2.25304E+07-3.30824E+07
 -1       181-1.33480E+08 1.12238E+08-7.64883E+06-1.20901E+08 1.95133E+07-3.81774E+07
 -1       182-1.15400E+08 9.71865E+07-5.76408E+06-1.32047E+08 1.61394E+07-4.17779E+07
 -1       183-9.60972E+07 8.11104E+07-3.77050E+06-1.37336E+08 1.25343E+07-4.37187E+07
 -1       184-7.63835E+07 6.46798E+07-1.74206E+06-1.36312E+08 8.82374E+06-4.38620E+07
 -1       185-5.70963E+07 4.86254E+07 3.31356E+05-1.28596E+08 5.12352E+06-4.20968E+07
 -1       186-3.90863E+07 3.36839E+07 2.58135E+06-1.13866E+08 1.42189E+06-3.83992E+07
 -1       187-2.31924E+07 2.07082E+07 5.24457E+06-9.18908E+07-2.09856E+06-3.26522E+07
 -1       188-1.06472E+07 1.04300E+07 7.36837E+06-6.22879E+07-5.44818E+06-2.52811E+07
 -1       189-2.69267E+06 3.02462E+06 7.78748E+06-2.49648E+07-6.41753E+06-1.46877E+07
 -1       190 3.68315E+09 1.57852E+09 1.57852E+09 1.50213E+09-2.53313E+02 3.40589E+07
 -1       191 3.66561E+09 1.57100E+09 1.57100E+09 1.50348E+09 2.20222E+02-2.22501E+07
 -1       192-3.06768E+07-4.34863E+06-4.09756E+06-1.94940E+06 3.24820E+06 3.03976E+06
 -1       193 5.03400E+09-2.06647E+08-7.87879E+08 1.86694E+08-7.06003E+07 2.97947E+07
 -1       194 4.77984E+09 5.31880E+08 2.94885E+08 8.77281E+07-3.78347E+07-3.67535E+06
 -1       195 3.56863E+09 2.95181E+08 2.52112E+07 9.54598E+07-3.54358E+07 3.60991E+06
 -1       196 2.54015E+09 2.30746E+08 6.58529E+07 8.90369E+07-2.32906E+07 1.65421E+06
 -1       197 1.49853E+09 1.32983E+08 3.05647E+07 8.69872E+07-1.40150E+07 2.85097E+06
 -1       198 5.06132E+08 4.76782E+07 1.50710E+07 8.26646E+07-4.45556E+06 2.90816E+06
 -1       199-4.38234E+08-3.53234E+07-3.64237E+06 7.78233E+07 4.46097E+06 2.82292E+06
 -1       200-1.31856E+09-1.12233E+08-2.01314E+07 7.18308E+07 1.28040E+07 2.55464E+06
 -1       201-2.12334E+09-1.82660E+08-3.54006E+07 6.48826E+07 2.04178E+07 2.22689E+06
 -1       202-2.84077E+09-2.45455E+08-4.90068E+07 5.71115E+07 2.72089E+07 1.87694E+06
 -1       203-3.46047E+09-2.99732E+08-6.08158E+07 4.86840E+07 3.30748E+07 1.50354E+06
 -1       204-3.97374E+09-3.44726E+08-7.06561E+07 3.97672E+07 3.79319E+07 1.09793E+06
 -1       205-4.37393E+09-3.79862E+08-7.84142E+07 3.05364E+07 4.17150E+07 6.57591E+05
 -1       206-4.65681E+09-4.04777E+08-8.40202E+07 2.11808E+07 4.43824E+07 1.86853E+05
 -1       207-4.82072E+09-4.19335E+08-8.74552E+07 1.19045E+07 4.59175E+07-3.05044E+05
 -1       208-4.86681E+09-4.23644E+08-8.87510E+07 2.92401E+06 4.63303E+07-8.06499E+05
 -1       209-4.79910E+09-4.18059E+08-8.79922E+07-5.53568E+06 4.56584E+07-1.30493E+06
 -1       210-4.62447E+09-4.03189E+08-8.53153E+07-1.32472E+07 4.39667E+07-1.78709E+06
 -1       211-4.35270E+09-3.79889E+08-8.09078E+07-1.99874E+07 4.13473E+07-2.23863E+06
 -1       212-3.99629E+09-3.49254E+08-7.50057E+07-2.55448E+07 3.79180E+07-2.64382E+06
 -1       213-3.57032E+09-3.12600E+08-6.78907E+07-2.97287E+07 3.38217E+07-2.98714E+06
 -1       214-3.09224E+09-2.71448E+08-5.98897E+07-3.23753E+07 2.92243E+07-3.25951E+06
 -1       215-2.58167E+09-2.27511E+08-5.13761E+07-3.33466E+07 2.43136E+07-3.46845E+06
 -1       216-2.06006E+09-1.82679E+08-4.27749E+07-3.25122E+07 1.92956E+07-3.64372E+06
 -1       217-1.55040E+09-1.38977E+08-3.45310E+07-2.97211E+07 1.43851E+07-3.79780E+06
 -1       218-1.07675E+09-9.85531E+07-2.71429E+07-2.48245E+07 9.79502E+06-3.85763E+06
 -1       219-6.63413E+08-6.33992E+07-2.07205E+07-1.77366E+07 5.75322E+06-3.63127E+06
 -1       220-3.35051E+08-3.54489E+07-1.65623E+07-8.52586E+06 2.47790E+06-2.95953E+06
 -1       221-1.21845E+08-2.02337E+07-1.45853E+07 3.73812E+05 3.37800E+05-3.41960E+06
 -1       222 5.02927E+09-2.06719E+08-7.89319E+08 1.79749E+08 6.89498E+07-3.92072E+06
 -1       223 4.77170E+09 5.27447E+08 2.91112E+08 8.84285E+07 3.83585E+07 2.49384E+07
 -1       224 3.56326E+09 2.92594E+08 2.28247E+07 9.89416E+07 3.54626E+07 1.74535E+07
 -1       225 2.53803E+09 2.30289E+08 6.50820E+07 9.56315E+07 2.30124E+07 1.91798E+07
 -1       226 1.49852E+09 1.33021E+08 3.05728E+07 9.44716E+07 1.40011E+07 1.88006E+07
 -1       227 5.06983E+08 4.79796E+07 1.54170E+07 9.00446E+07 4.53692E+06 1.84157E+07
 -1       228-4.37047E+08-3.49861E+07-3.18490E+06 8.48705E+07-4.30399E+06 1.73663E+07
 -1       229-1.31702E+09-1.11797E+08-1.95395E+07 7.84026E+07-1.26022E+07 1.60023E+07
 -1       230-2.12127E+09-1.82011E+08-3.45865E+07 7.08002E+07-2.01905E+07 1.43708E+07
 -1       231-2.83804E+09-2.44535E+08-4.79124E+07 6.20700E+07-2.69548E+07 1.25434E+07
 -1       232-3.45706E+09-2.98531E+08-5.94302E+07 5.23112E+07-3.27933E+07 1.05390E+07
 -1       233-3.96969E+09-3.43271E+08-6.90059E+07 4.16899E+07-3.76247E+07 8.37976E+06
 -1       234-4.36937E+09-3.78199E+08-7.65465E+07 3.04237E+07-4.13871E+07 6.09852E+06
 -1       235-4.65186E+09-4.02958E+08-8.19905E+07 1.87655E+07-4.40408E+07 3.73944E+06
 -1       236-4.81553E+09-4.17412E+08-8.53200E+07 6.98925E+06-4.55704E+07 1.35475E+06
 -1       237-4.86151E+09-4.21664E+08-8.65646E+07-4.62004E+06-4.59864E+07-9.98804E+05
 -1       238-4.79380E+09-4.16069E+08-8.58047E+07-1.57744E+07-4.53262E+07-3.26254E+06
 -1       239-4.61929E+09-4.01228E+08-8.31726E+07-2.61897E+07-4.36548E+07-5.37723E+06
 -1       240-4.34775E+09-3.77996E+08-7.88532E+07-3.55903E+07-4.10644E+07-7.28375E+06
 -1       241-3.99167E+09-3.47465E+08-7.30837E+07-4.37124E+07-3.76732E+07-8.92371E+06
 -1       242-3.56616E+09-3.10961E+08-6.61523E+07-5.03047E+07-3.36235E+07-1.02420E+07
 -1       243-3.08869E+09-2.70016E+08-5.83943E+07-5.51300E+07-2.90787E+07-1.11937E+07
 -1       244-2.57884E+09-2.26347E+08-5.01793E+07-5.79739E+07-2.42203E+07-1.17548E+07
 -1       245-2.05799E+09-1.81809E+08-4.18926E+07-5.86694E+07-1.92459E+07-1.19281E+07
 -1       246-1.54893E+09-1.38340E+08-3.38988E+07-5.71382E+07-1.43785E+07-1.17059E+07
 -1       247-1.07563E+09-9.79600E+07-2.66279E+07-5.33862E+07-9.85960E+06-1.09962E+07
 -1       248-6.62729E+08-6.28387E+07-2.03472E+07-4.73580E+07-5.97484E+06-9.62490E+06
 -1       249-3.35655E+08-3.51021E+07-1.66395E+07-3.87113E+07-2.77091E+06-7.35452E+06
 -1       250-1.23807E+08-2.11439E+07-1.54469E+07-2.82202E+07-8.48349E+05-5.80401E+06
 -1       251-3.76217E+07-1.89601E+07-1.05645E+07-3.33005E+07 3.07189E+06 2.42499E+06
 -1       252-2.69267E+06 3.02462E+06 7.78748E+06-2.49648E+07 6.41753E+06 1.46877E+07
 -1       253-1.06472E+07 1.04300E+07 7.36837E+06-6.22879E+07 5.44818E+06 2.52811E+07
 -1       254-2.31924E+07 2.07082E+07 5.24457E+06-9.18908E+07 2.09856E+06 3.26522E+07
 -1       255-3.90863E+07 3.36839E+07 2.58135E+06-1.13866E+08-1.42189E+06 3.83992E+07
 -1       256-5.70963E+07 4.86254E+07 3.31356E+05-1.28596E+08-5.12352E+06 4.20968E+07
 -1       257-7.63835E+07 6.46798E+07-1.74206E+06-1.36312E+08-8.82374E+06 4.38620E+07
 -1       258-9.60972E+07 8.11104E+07-3.77050E+06-1.37336E+08-1.25343E+07 4.37187E+07
 -1       259-1.15400E+08 9.71865E+07-5.76408E+06-1.32047E+08-1.61394E+07 4.17779E+07
 -1       260-1.33480E+08 1.12238E+08-7.64883E+06-1.20901E+08-1.95133E+07 3.81774E+07
 -1       261-1.49596E+08 1.25649E+08-9.34824E+06-1.04434E+08-2.25304E+07 3.30824E+07
 -1       262-1.63089E+08 1.36873E+08-1.08047E+07-8.32716E+07-2.50854E+07 2.66781E+07
 -1       263-1.73392E+08 1.45433E+08-1.19802E+07-5.81095E+07-2.70926E+07 1.91677E+07
 -1       264-1.80040E+08 1.50938E+08-1.28500E+07-2.97028E+07-2.84850E+07 1.07687E+07
 -1       265-1.82669E+08 1.53079E+08-1.33978E+07 1.15527E+06-2.92126E+07 1.70922E+06
 -1       266-1.81021E+08 1.51640E+08-1.36150E+07 3.36528E+07-2.92422E+07-7.77591E+06
 -1       267-1.74950E+08 1.46495E+08-1.35010E+07 6.69792E+07-2.85582E+07-1.74508E+07
 -1       268-1.64414E+08 1.37608E+08-1.30636E+07 1.00345E+08-2.71624E+07-2.70840E+07
 -1       269-1.49480E+08 1.25031E+08-1.23201E+07 1.32999E+08-2.50747E+07-3.64545E+07
 -1       270-1.30311E+08 1.08897E+08-1.12967E+07 1.64250E+08-2.23305E+07-4.53579E+07
 -1       271-1.07158E+08 8.94148E+07-1.00231E+07 1.93472E+08-1.89804E+07-5.36130E+07
 -1       272-8.03486E+07 6.68546E+07-8.52717E+06 2.20119E+08-1.50766E+07-6.10702E+07
 -1       273-5.02599E+07 4.15545E+07-6.79518E+06 2.43735E+08-1.06817E+07-6.76127E+07
 -1       274-1.73068E+07 1.38551E+07-4.81255E+06 2.63946E+08-5.79457E+06-7.31778E+07
 -1       275 1.80445E+07-1.57972E+07-2.42332E+06 2.80615E+08-5.64378E+05-7.77189E+07
 -1       276 5.55142E+07-4.68831E+07-2.60237E+04 2.93362E+08 5.25782E+06-8.11938E+07
 -1       277 9.39310E+07-8.04286E+07 3.39408E+06 3.03676E+08 1.02424E+07-8.39116E+07
 -1       278 1.32012E+08-1.09848E+08-8.56583E+05 3.10441E+08 1.77661E+07-8.46581E+07
 -1       279 1.84474E+08-1.46756E+08 2.27496E+07 3.04714E+08 1.41948E+07-8.31813E+07
 -1       280 1.64865E+08-2.37639E+08-5.43414E+07 3.88640E+08 4.33338E+07-1.06130E+08
 -1       281 3.66561E+09 1.57100E+09 1.57100E+09 1.50348E+09-2.20222E+02 2.22501E+07
 -1       282 3.68315E+09 1.57852E+09 1.57852E+09 1.50213E+09 2.53313E+02-3.40589E+07
 -1       283 5.02927E+09-2.06719E+08-7.89319E+08 1.79749E+08-6.89498E+07 3.92072E+06
 -1       284 4.77170E+09 5.27447E+08 2.91112E+08 8.84285E+07-3.83585E+07-2.49384E+07
 -1       285 3.56326E+09 2.92594E+08 2.28247E+07 9.89416E+07-3.54626E+07-1.74535E+07
 -1       286 2.53803E+09 2.30289E+08 6.50820E+07 9.56315E+07-2.30124E+07-1.91798E+07
 -1       287 1.49852E+09 1.33021E+08 3.05728E+07 9.44716E+07-1.40011E+07-1.88006E+07
 -1       288 5.06983E+08 4.79796E+07 1.54170E+07 9.00446E+07-4.53692E+06-1.84157E+07
 -1       289-4.37047E+08-3.49861E+07-3.18490E+06 8.48705E+07 4.30399E+06-1.73663E+07
 -1       290-1.31702E+09-1.11797E+08-1.95395E+07 7.84026E+07 1.26022E+07-1.60023E+07
 -1       291-2.12127E+09-1.82011E+08-3.45865E+07 7.08002E+07 2.01905E+07-1.43708E+07
 -1       292-2.83804E+09-2.44535E+08-4.79124E+07 6.20700E+07 2.69548E+07-1.25434E+07
 -1       293-3.45706E+09-2.98531E+08-5.94302E+07 5.23112E+07 3.27933E+07-1.05390E+07
 -1       294-3.96969E+09-3.43271E+08-6.90059E+07 4.16899E+07 3.76247E+07-8.37976E+06
 -1       295-4.36937E+09-3.78199E+08-7.65465E+07 3.04237E+07 4.13871E+07-6.09852E+06
 -1       296-4.65186E+09-4.02958E+08-8.19905E+07 1.87655E+07 4.40408E+07-3.73944E+06
 -1       297-4.81553E+09-4.17412E+08-8.53200E+07 6.98925E+06 4.55704E+07-1.35475E+06
 -1       298-4.86151E+09-4.21664E+08-8.65646E+07-4.62004E+06 4.59864E+07 9.98804E+05
 -1       299-4.79380E+09-4.16069E+08-8.58047E+07-1.57744E+07 4.53262E+07 3.26254E+06
 -1       300-4.61929E+09-4.01228E+08-8.31726E+07-2.61897E+07 4.36548E+07 5.37723E+06
 -1       301-4.34775E+09-3.77996E+08-7.88532E+07-3.55903E+07 4.10644E+07 7.28375E+06
 -1       302-3.99167E+09-3.47465E+08-7.30837E+07-4.37124E+07 3.76732E+07 8.92371E+06
 -1       303-3.56616E+09-3.10961E+08-6.61523E+07-5.03047E+07 3.36235E+07 1.02420E+07
 -1       304-3.08869E+09-2.70016E+08-5.83943E+07-5.51300E+07 2.90787E+07 1.11937E+07
 -1       305-2.57884E+09-2.26347E+08-5.01793E+07-5.79739E+07 2.42203E+07 1.17548E+07
 -1       306-2.05799E+09-1.81809E+08-4.18926E+07-5.86694E+07 1.92459E+07 1.19281E+07
 -1       307-1.54893E+09-1.38340E+08-3.38988E+07-5.71382E+07 1.43785E+07 1.17059E+07
 -1       308-1.07563E+09-9.79600E+07-2.66279E+07-5.33862E+07 9.85960E+06 1.09962E+07
 -1       309-6.62729E+08-6.28387E+07-2.03472E+07-4.73580E+07 5.97484E+06 9.62490E+06
 -1       310-3.35655E+08-3.51021E+07-1.66395E+07-3.87113E+07 2.77091E+06 7.35452E+06
 -1       311-1.23807E+08-2.11439E+07-1.54469E+07-2.82202E+07 8.48349E+05 5.80401E+06
 -1       312-3.76217E+07-1.89601E+07-1.05645E+07-3.33005E+07-3.07189E+06-2.42499E+06
 -1       313 5.03400E+09-2.06647E+08-7.87879E+08 1.86694E+08 7.06003E+07-2.97947E+07
 -1       314 4.77984E+09 5.31880E+08 2.94885E+08 8.77281E+07 3.78347E+07 3.67535E+06
 -1       315 3.56863E+09 2.95181E+08 2.52112E+07 9.54598E+07 3.54358E+07-3.60991E+06
 -1       316 2.54015E+09 2.30746E+08 6.58529E+07 8.90369E+07 2.32906E+07-1.65421E+06
 -1       317 1.49853E+09 1.32983E+08 3.05647E+07 8.69872E+07 1.40150E+07-2.85097E+06
 -1       318 5.06132E+08 4.76782E+07 1.50710E+07 8.26646E+07 4.45556E+06-2.90816E+06
 -1       319-4.38234E+08-3.53234E+07-3.64237E+06 7.78233E+07-4.46097E+06-2.82292E+06
 -1       320-1.31856E+09-1.12233E+08-2.01314E+07 7.18308E+07-1.28040E+07-2.55464E+06
 -1       321-2.12334E+09-1.82660E+08-3.54006E+07 6.48826E+07-2.04178E+07-2.22689E+06
 -1       322-2.84077E+09-2.45455E+08-4.90068E+07 5.71115E+07-2.72089E+07-1.87694E+06
 -1       323-3.46047E+09-2.99732E+08-6.08158E+07 4.86840E+07-3.30748E+07-1.50354E+06
 -1       324-3.97374E+09-3.44726E+08-7.06561E+07 3.97672E+07-3.79319E+07-1.09793E+06
 -1       325-4.37393E+09-3.79862E+08-7.84142E+07 3.05364E+07-4.17150E+07-6.57591E+05
 -1       326-4.65681E+09-4.04777E+08-8.40202E+07 2.11808E+07-4.43824E+07-1.86853E+05
 -1       327-4.82072E+09-4.19335E+08-8.74552E+07 1.19045E+07-4.59175E+07 3.05044E+05
 -1       328-4.86681E+09-4.23644E+08-8.87510E+07 2.92401E+06-4.63303E+07 8.06499E+05
 -1       329-4.79910E+09-4.18059E+08-8.79922E+07-5.53568E+06-4.56584E+07 1.30493E+06
 -1       330-4.62447E+09-4.03189E+08-8.53153E+07-1.32472E+07-4.39667E+07 1.78709E+06
 -1       331-4.35270E+09-3.79889E+08-8.09078E+07-1.99874E+07-4.13473E+07 2.23863E+06
 -1       332-3.99629E+09-3.49254E+08-7.50057E+07-2.55448E+07-3.79180E+07 2.64382E+06
 -1       333-3.57032E+09-3.12600E+08-6.78907E+07-2.97287E+07-3.38217E+07 2.98714E+06
 -1       334-3.09224E+09-2.71448E+08-5.98897E+07-3.23753E+07-2.92243E+07 3.25951E+06
 -1       335-2.58167E+09-2.27511E+08-5.13761E+07-3.33466E+07-2.43136E+07 3.46845E+06
 -1       336-2.06006E+09-1.82679E+08-4.27749E+07-3.25122E+07-1.92956E+07 3.64372E+06
 -1       337-1.55040E+09-1.38977E+08-3.45310E+07-2.97211E+07-1.43851E+07 3.79780E+06
 -1       338-1.07675E+09-9.85531E+07-2.71429E+07-2.48245E+07-9.79502E+06 3.85763E+06
 -1       339-6.63413E+08-6.33992E+07-2.07205E+07-1.77366E+07-5.75322E+06 3.63127E+06
 -1       340-3.35051E+08-3.54489E+07-1.65623E+07-8.52586E+06-2.47790E+06 2.95953E+06
 -1       341-1.21845E+08-2.02337E+07-1.45853E+07 3.73812E+05-3.37800E+05 3.41960E+06
 -1       342-3.06768E+07-4.34863E+06-4.09756E+06-1.94940E+06-3.24820E+06-3.03976E+06
 -1       343-5.03400E+09 2.06647E+08 7.87879E+08 1.86694E+08-7.06003E+07-2.97947E+07
 -1       344-4.77984E+09-5.31880E+08-2.94885E+08 8.77281E+07-3.78347E+07 3.67535E+06
 -1       345-3.56863E+09-2.95181E+08-2.52112E+07 9.54598E+07-3.54358E+07-3.60991E+06
 -1       346-2.54015E+09-2.30746E+08-6.58529E+07 8.90369E+07-2.32906E+07-1.65421E+06
 -1       347-1.49853E+09-1.32983E+08-3.05647E+07 8.69872E+07-1.40150E+07-2.85097E+06
 -1       348-5.06132E+08-4.76782E+07-1.50710E+07 8.26646E+07-4.45556E+06-2.90816E+06
 -1       349 4.38234E+08 3.53234E+07 3.64237E+06 7.78233E+07 4.46097E+06-2.82292E+06
 -1       350 1.31856E+09 1.12233E+08 2.01314E+07 7.18308E+07 1.28040E+07-2.55464E+06
 -1       351 2.12334E+09 1.82660E+08 3.54006E+07 6.48826E+07 2.04178E+07-2.22689E+06
 -1       352 2.84077E+09 2.45455E+08 4.90068E+07 5.71115E+07 2.72089E+07-1.87694E+06
 -1       353 3.46047E+09 2.99732E+08 6.08158E+07 4.86840E+07 3.30748E+07-1.50354E+06
 -1       354 3.97374E+09 3.44726E+08 7.06561E+07 3.97672E+07 3.79319E+07-1.09793E+06
 -1       355 4.37393E+09 3.79862E+08 7.84142E+07 3.05364E+07 4.17150E+07-6.57591E+05
 -1       356 4.65681E+09 4.04777E+08 8.40202E+07 2.11808E+07 4.43824E+07-1.86853E+05
 -1       357 4.82072E+09 4.19335E+08 8.74552E+07 1.19045E+07 4.59175E+07 3.05044E+05
 -1       358 4.86681E+09 4.23644E+08 8.87510E+07 2.92401E+06 4.63303E+07 8.06499E+05
 -1       359 4.79910E+09 4.18059E+08 8.79922E+07-5.53568E+06 4.56584E+07 1.30493E+06
 -1       360 4.62447E+09 4.03189E+08 8.53153E+07-1.32472E+07 4.39667E+07 1.78709E+06
 -1       361 4.35270E+09 3.79889E+08 8.09078E+07-1.99874E+07 4.13473E+07 2.23863E+06
 -1       362 3.99629E+09 3.49254E+08 7.50057E+07-2.55448E+07 3.79180E+07 2.64382E+06
 -1       363 3.57032E+09 3.12600E+08 6.78907E+07-2.97287E+07 3.38217E+07 2.98714E+06
 -1       364 3.09224E+09 2.71448E+08 5.98897E+07-3.23753E+07 2.92243E+07 3.25951E+06
 -1       365 2.58167E+09 2.27511E+08 5.13761E+07-3.33466E+07 2.43136E+07 3.46845E+06
 -1       366 2.06006E+09 1.82679E+08 4.27749E+07-3.25122E+07 1.92956E+07 3.64372E+06
 -1       367 1.55040E+09 1.38977E+08 3.45310E+07-2.97211E+07 1.43851E+07 3.79780E+06
 -1       368 1.07675E+09 9.85531E+07 2.71429E+07-2.48245E+07 9.79502E+06 3.85763E+06
 -1       369 6.63413E+08 6.33992E+07 2.07205E+07-1.77366E+07 5.75322E+06 3.63127E+06
 -1       370 3.35051E+08 3.54489E+07 1.65623E+07-8.52586E+06 2.47790E+06 2.95953E+06
 -1       371 1.21845E+08 2.02337E+07 1.45853E+07 3.73812E+05 3.37800E+05 3.41960E+06
 -1       372-5.02927E+09 2.06719E+08 7.89319E+08 1.79749E+08 6.89498E+07 3.92072E+06
 -1       373-4.77170E+09-5.27447E+08-2.91112E+08 8.84285E+07 3.83585E+07-2.49384E+07
 -1       374-3.56326E+09-2.92594E+08-2.28247E+07 9.89416E+07 3.54626E+07-1.74535E+07
 -1       375-2.53803E+09-2.30289E+08-6.50820E+07 9.56315E+07 2.30124E+07-1.91798E+07
 -1       376-1.49852E+09-1.33021E+08-3.05728E+07 9.44716E+07 1.40011E+07-1.88006E+07
 -1       377-5.06983E+08-4.79796E+07-1.54170E+07 9.00446E+07 4.53692E+06-1.84157E+07
 -1       378 4.37047E+08 3.49861E+07 3.18490E+06 8.48705E+07-4.30399E+06-1.73663E+07
 -1       379 1.31702E+09 1.11797E+08 1.95395E+07 7.84026E+07-1.26022E+07-1.60023E+07
 -1       380 2.12127E+09 1.82011E+08 3.45865E+07 7.08002E+07-2.01905E+07-1.43708E+07
 -1       381 2.83804E+09 2.44535E+08 4.79124E+07 6.20700E+07-2.69548E+07-1.25434E+07
 -1       382 3.45706E+09 2.98531E+08 5.94302E+07 5.23112E+07-3.27933E+07-1.05390E+07
 -1       383 3.96969E+09 3.43271E+08 6.90059E+07 4.16899E+07-3.76247E+07-8.37976E+06
 -1       384 4.36937E+09 3.78199E+08 7.65465E+07 3.04237E+07-4.13871E+07-6.09852E+06
 -1       385 4.65186E+09 4.02958E+08 8.19905E+07 1.87655E+07-4.40408E+07-3.73944E+06
 -1       386 4.81553E+09 4.17412E+08 8.53200E+07 6.98925E+06-4.55704E+07-1.35475E+06
 -1       387 4.86151E+09 4.21664E+08 8.65646E+07-4.62004E+06-4.59864E+07 9.98804E+05
 -1       388 4.79380E+09 4.16069E+08 8.58047E+07-1.57744E+07-4.53262E+07 3.26254E+06
 -1       389 4.61929E+09 4.01228E+08 8.31726E+07-2.61897E+07-4.36548E+07 5.37723E+06
 -1       390 4.34775E+09 3.77996E+08 7.88532E+07-3.55903E+07-4.10644E+07 7.28375E+06
 -1       391 3.99167E+09 3.47465E+08 7.30837E+07-4.37124E+07-3.76732E+07 8.92371E+06
 -1       392 3.56616E+09 3.10961E+08 6.61523E+07-5.03047E+07-3.36235E+07 1.02420E+07
 -1       393 3.08869E+09 2.70016E+08 5.83943E+07-5.51300E+07-2.90787E+07 1.11937E+07
 -1       394 2.57884E+09 2.26347E+08 5.01793E+07-5.79739E+07-2.42203E+07 1.17548E+07
 -1       395 2.05799E+09 1.81809E+08 4.18926E+07-5.86694E+07-1.92459E+07 1.19281E+07
 -1       396 1.54893E+09 1.38340E+08 3.38988E+07-5.71382E+07-1.43785E+07 1.17059E+07
 -1       397 1.07563E+09 9.79600E+07 2.66279E+07-5.33862E+07-9.85960E+06 1.09962E+07
 -1       398 6.62729E+08 6.28387E+07 2.03472E+07-4.73580E+07-5.97484E+06 9.62490E+06
 -1       399 3.35655E+08 3.51021E+07 1.66395E+07-3.87113E+07-2.77091E+06 7.35452E+06
 -1       400 1.23807E+08 2.11439E+07 1.54469E+07-2.82202E+07-8.48349E+05 5.80401E+06
 -1       401-3.68315E+09-1.57852E+09-1.57852E+09 1.50213E+09-2.53313E+02-3.40589E+07
 -1       402-3.66561E+09-1.57100E+09-1.57100E+09 1.50348E+09 2.20222E+02 2.22501E+07
 -1       403 3.06768E+07 4.34863E+06 4.09756E+06-1.94940E+06 3.24820E+06-3.03976E+06
 -1       404-1.64865E+08 2.37639E+08 5.43414E+07 3.88640E+08-4.33338E+07-1.06130E+08
 -1       405-1.84474E+08 1.46756E+08-2.27496E+07 3.04714E+08-1.41948E+07-8.31813E+07
 -1       406-1.32012E+08 1.09848E+08 8.56583E+05 3.10441E+08-1.77661E+07-8.46581E+07
 -1       407-9.39309E+07 8.04286E+07-3.39408E+06 3.03676E+08-1.02424E+07-8.39116E+07
 -1       408-5.55142E+07 4.68831E+07 2.60237E+04 2.93362E+08-5.25782E+06-8.11938E+07
 -1       409-1.80445E+07 1.57972E+07 2.42332E+06 2.80615E+08 5.64378E+05-7.77189E+07
 -1       410 1.73068E+07-1.38551E+07 4.81255E+06 2.63946E+08 5.79457E+06-7.31778E+07
 -1       411 5.02599E+07-4.15545E+07 6.79518E+06 2.43735E+08 1.06817E+07-6.76127E+07
 -1       412 8.03486E+07-6.68546E+07 8.52717E+06 2.20119E+08 1.50766E+07-6.10702E+07
 -1       413 1.07158E+08-8.94148E+07 1.00231E+07 1.93472E+08 1.89804E+07-5.36130E+07
 -1       414 1.30311E+08-1.08897E+08 1.12967E+07 1.64250E+08 2.23305E+07-4.53579E+07
 -1       415 1.49480E+08-1.25031E+08 1.23201E+07 1.32999E+08 2.50747E+07-3.64545E+07
 -1       416 1.64414E+08-1.37608E+08 1.30636E+07 1.00345E+08 2.71624E+07-2.70840E+07
 -1       417 1.74950E+08-1.46495E+08 1.35010E+07 6.69792E+07 2.85582E+07-1.74508E+07
 -1       418 1.81021E+08-1.51640E+08 1.36150E+07 3.36528E+07 2.92422E+07-7.77591E+06
 -1       419 1.82669E+08-1.53079E+08 1.33978E+07 1.15527E+06 2.92126E+07 1.70922E+06
 -1       420 1.80040E+08-1.50938E+08 1.28500E+07-2.97028E+07 2.84850E+07 1.07687E+07
 -1       421 1.73392E+08-1.45433E+08 1.19802E+07-5.81095E+07 2.70926E+07 1.91677E+07
 -1       422 1.63089E+08-1.36873E+08 1.08047E+07-8.32716E+07 2.50854E+07 2.66781E+07
 -1       423 1.49596E+08-1.25649E+08 9.34824E+06-1.04434E+08 2.25304E+07 3.30824E+07
 -1       424 1.33480E+08-1.12238E+08 7.64883E+06-1.20901E+08 1.95133E+07 3.81774E+07
 -1       425 1.15400E+08-9.71865E+07 5.76408E+06-1.32047E+08 1.61394E+07 4.17779E+07
 -1       426 9.60972E+07-8.11104E+07 3.77050E+06-1.37336E+08 1.25343E+07 4.37187E+07
 -1       427 7.63835E+07-6.46798E+07 1.74206E+06-1.36312E+08 8.82374E+06 4.38620E+07
 -1       428 5.70963E+07-4.86254E+07-3.31356E+05-1.28596E+08 5.12352E+06 4.20968E+07
 -1       429 3.90863E+07-3.36839E+07-2.58135E+06-1.13866E+08 1.42189E+06 3.83992E+07
 -1       430 2.31924E+07-2.07082E+07-5.24457E+06-9.18908E+07-2.09856E+06 3.26522E+07
 -1       431 1.06472E+07-1.04300E+07-7.36837E+06-6.22879E+07-5.44818E+06 2.52811E+07
 -1       432 2.69267E+06-3.02462E+06-7.78748E+06-2.49648E+07-6.41753E+06 1.46877E+07
 -1       433 3.76217E+07 1.89601E+07 1.05645E+07-3.33005E+07 3.07189E+06-2.42499E+06
 -1       434-3.68315E+09-1.57852E+09-1.57852E+09 1.50213E+09 2.53313E+02 3.40589E+07
 -1       435-3.66561E+09-1.57100E+09-1.57100E+09 1.50348E+09-2.20222E+02-2.22501E+07
 -1       436 2.69267E+06-3.02462E+06-7.78748E+06-2.49648E+07 6.41753E+06-1.46877E+07
 -1       437 1.06472E+07-1.04300E+07-7.36837E+06-6.22879E+07 5.44818E+06-2.52811E+07
 -1       438 2.31924E+07-2.07082E+07-5.24457E+06-9.18908E+07 2.09856E+06-3.26522E+07
 -1       439 3.90863E+07-3.36839E+07-2.58135E+06-1.13866E+08-1.42189E+06-3.83992E+07
 -1       440 5.70963E+07-4.86254E+07-3.31356E+05-1.28596E+08-5.12352E+06-4.20968E+07
 -1       441 7.63835E+07-6.46798E+07 1.74206E+06-1.36312E+08-8.82374E+06-4.38620E+07
 -1       442 9.60972E+07-8.11104E+07 3.77050E+06-1.37336E+08-1.25343E+07-4.37187E+07
 -1       443 1.15400E+08-9.71865E+07 5.76408E+06-1.32047E+08-1.61394E+07-4.17779E+07
 -1       444 1.33480E+08-1.12238E+08 7.64883E+06-1.20901E+08-1.95133E+07-3.81774E+07
 -1       445 1.49596E+08-1.25649E+08 9.34824E+06-1.04434E+08-2.25304E+07-3.30824E+07
 -1       446 1.63089E+08-1.36873E+08 1.08047E+07-8.32716E+07-2.50854E+07-2.66781E+07
 -1       447 1.73392E+08-1.45433E+08 1.19802E+07-5.81095E+07-2.70926E+07-1.91677E+07
 -1       448 1.80040E+08-1.50938E+08 1.28500E+07-2.97028E+07-2.84850E+07-1.07687E+07
 -1       449 1.82669E+08-1.53079E+08 1.33978E+07 1.15527E+06-2.92126E+07-1.70922E+06
 -1       450 1.81021E+08-1.51640E+08 1.36150E+07 3.36528E+07-2.92422E+07 7.77591E+06
 -1       451 1.74950E+08-1.46495E+08 1.35010E+07 6.69792E+07-2.85582E+07 1.74508E+07
 -1       452 1.64414E+08-1.37608E+08 1.30636E+07 1.00345E+08-2.71624E+07 2.70840E+07
 -1       453 1.49480E+08-1.25031E+08 1.23201E+07 1.32999E+08-2.50747E+07 3.64545E+07
 -1       454 1.30311E+08-1.08897E+08 1.12967E+07 1.64250E+08-2.23305E+07 4.53579E+07
 -1       455 1.07158E+08-8.94148E+07 1.00231E+07 1.93472E+08-1.89804E+07 5.36130E+07
 -1       456 8.03486E+07-6.68546E+07 8.52717E+06 2.20119E+08-1.50766E+07 6.10702E+07
 -1       457 5.02599E+07-4.15545E+07 6.79518E+06 2.43735E+08-1.06817E+07 6.76127E+07
 -1       458 1.73068E+07-1.38551E+07 4.81255E+06 2.63946E+08-5.79457E+06 7.31778E+07
 -1       459-1.80445E+07 1.57972E+07 2.42332E+06 2.80615E+08-5.64378E+05 7.77189E+07
 -1       460-5.55142E+07 4.68831E+07 2.60237E+04 2.93362E+08 5.25782E+06 8.11938E+07
 -1       461-9.39309E+07 8.04286E+07-3.39408E+06 3.03676E+08 1.02424E+07 8.39116E+07
 -1       462-1.32012E+08 1.09848E+08 8.56583E+05 3.10441E+08 1.77661E+07 8.46581E+07
 -1       463-1.84474E+08 1.46756E+08-2.27496E+07 3.04714E+08 1.41948E+07 8.31813E+07
 -1       464-1.64865E+08 2.37639E+08 5.43414E+07 3.88640E+08 4.33338E+07 1.06130E+08
 -1       465 3.06768E+07 4.34863E+06 4.09756E+06-1.94940E+06-3.24820E+06 3.03976E+06
 -1       466-5.03400E+09 2.06647E+08 7.87879E+08 1.86694E+08 7.06003E+07 2.97947E+07
 -1       467-4.77984E+09-5.31880E+08-2.94885E+08 8.77281E+07 3.78347E+07-3.67535E+06
 -1       468-3.56863E+09-2.95181E+08-2.52112E+07 9.54598E+07 3.54358E+07 3.60991E+06
 -1       469-2.54015E+09-2.30746E+08-6.58529E+07 8.90369E+07 2.32906E+07 1.65421E+06
 -1       470-1.49853E+09-1.32983E+08-3.05647E+07 8.69872E+07 1.40150E+07 2.85097E+06
 -1       471-5.06132E+08-4.76782E+07-1.50710E+07 8.26646E+07 4.45556E+06 2.90816E+06
 -1       472 4.38234E+08 3.53234E+07 3.64237E+06 7.78233E+07-4.46097E+06 2.82292E+06
 -1       473 1.31856E+09 1.12233E+08 2.01314E+07 7.18308E+07-1.28040E+07 2.55464E+06
 -1       474 2.12334E+09 1.82660E+08 3.54006E+07 6.48826E+07-2.04178E+07 2.22689E+06
 -1       475 2.84077E+09 2.45455E+08 4.90068E+07 5.71115E+07-2.72089E+07 1.87694E+06
 -1       476 3.46047E+09 2.99732E+08 6.08158E+07 4.86840E+07-3.30748E+07 1.50354E+06
 -1       477 3.97374E+09 3.44726E+08 7.06561E+07 3.97672E+07-3.79319E+07 1.09793E+06
 -1       478 4.37393E+09 3.79862E+08 7.84142E+07 3.05364E+07-4.17150E+07 6.57591E+05
 -1       479 4.65681E+09 4.04777E+08 8.40202E+07 2.11808E+07-4.43824E+07 1.86853E+05
 -1       480 4.82072E+09 4.19335E+08 8.74552E+07 1.19045E+07-4.59175E+07-3.05044E+05
 -1       481 4.86681E+09 4.23644E+08 8.87510E+07 2.92401E+06-4.63303E+07-8.06499E+05
 -1       482 4.79910E+09 4.18059E+08 8.79922E+07-5.53568E+06-4.56584E+07-1.30493E+06
 -1       483 4.62447E+09 4.03189E+08 8.53153E+07-1.32472E+07-4.39667E+07-1.78709E+06
 -1       484 4.35270E+09 3.79889E+08 8.09078E+07-1.99874E+07-4.13473E+07-2.23863E+06
 -1       485 3.99629E+09 3.49254E+08 7.50057E+07-2.55448E+07-3.79180E+07-2.64382E+06
 -1       486 3.57032E+09 3.12600E+08 6.78907E+07-2.97287E+07-3.38217E+07-2.98714E+06
 -1       487 3.09224E+09 2.71448E+08 5.98897E+07-3.23753E+07-2.92243E+07-3.25951E+06
 -1       488 2.58167E+09 2.27511E+08 5.13761E+07-3.33466E+07-2.43136E+07-3.46845E+06
 -1       489 2.06006E+09 1.82679E+08 4.27749E+07-3.25122E+07-1.92956E+07-3.64372E+06
 -1       490 1.55040E+09 1.38977E+08 3.45310E+07-2.97211E+07-1.43851E+07-3.79780E+06
 -1       491 1.07675E+09 9.85531E+07 2.71429E+07-2.48245E+07-9.79502E+06-3.85763E+06
 -1       492 6.63413E+08 6.33992E+07 2.07205E+07-1.77366E+07-5.75322E+06-3.63127E+06
 -1       493 3.35051E+08 3.54489E+07 1.65623E+07-8.52586E+06-2.47790E+06-2.95953E+06
 -1       494 1.21845E+08 2.02337E+07 1.45853E+07 3.73812E+05-3.37800E+05-3.41960E+06
 -1       495-5.02927E+09 2.06719E+08 7.89319E+08 1.79749E+08-6.89498E+07-3.92072E+06
 -1       496-4.77170E+09-5.27447E+08-2.91112E+08 8.84285E+07-3.83585E+07 2.49384E+07
 -1       497-3.56326E+09-2.92594E+08-2.28247E+07 9.89416E+07-3.54626E+07 1.74535E+07
 -1       498-2.53803E+09-2.30289E+08-6.50820E+07 9.56315E+07-2.30124E+07 1.91798E+07
 -1       499-1.49852E+09-1.33021E+08-3.05728E+07 9.44716E+07-1.40011E+07 1.88006E+07
 -1       500-5.06983E+08-4.79796E+07-1.54170E+07 9.00446E+07-4.53692E+06 1.84157E+07
 -1       501 4.37047E+08 3.49861E+07 3.18490E+06 8.48705E+07 4.30399E+06 1.73663E+07
 -1       502 1.31702E+09 1.11797E+08 1.95395E+07 7.84026E+07 1.26022E+07 1.60023E+07
 -1       503 2.12127E+09 1.82011E+08 3.45865E+07 7.08002E+07 2.01905E+07 1.43708E+07
 -1       504 2.83804E+09 2.44535E+08 4.79124E+07 6.20700E+07 2.69548E+07 1.25434E+07
 -1       505 3.45706E+09 2.98531E+08 5.94302E+07 5.23112E+07 3.27933E+07 1.05390E+07
 -1       506 3.96969E+09 3.43271E+08 6.90059E+07 4.16899E+07 3.76247E+07 8.37976E+06
 -1       507 4.36937E+09 3.78199E+08 7.65465E+07 3.04237E+07 4.13871E+07 6.09852E+06
 -1       508 4.65186E+09 4.02958E+08 8.19905E+07 1.87655E+07 4.40408E+07 3.73944E+06
 -1       509 4.81553E+09 4.17412E+08 8.53200E+07 6.98925E+06 4.55704E+07 1.35475E+06
 -1       510 4.86151E+09 4.21664E+08 8.65646E+07-4.62004E+06 4.59864E+07-9.98804E+05
 -1       511 4.79380E+09 4.16069E+08 8.58047E+07-1.57744E+07 4.53262E+07-3.26254E+06
 -1       512 4.61929E+09 4.01228E+08 8.31726E+07-2.61897E+07 4.36548E+07-5.37723E+06
 -1       513 4.34775E+09 3.77996E+08 7.88532E+07-3.55903E+07 4.10644E+07-7.28375E+06
 -1       514 3.99167E+09 3.47465E+08 7.30837E+07-4.37124E+07 3.76732E+07-8.92371E+06
 -1       515 3.56616E+09 3.10961E+08 6.61523E+07-5.03047E+07 3.36235E+07-1.02420E+07
 -1       516 3.08869E+09 2.70016E+08 5.83943E+07-5.51300E+07 2.90787E+07-1.11937E+07
 -1       517 2.57884E+09 2.26347E+08 5.01793E+07-5.79739E+07 2.42203E+07-1.17548E+07
 -1       518 2.05799E+09 1.81809E+08 4.18926E+07-5.86694E+07 1.92459E+07-1.19281E+07
 -1       519 1.54893E+09 1.38340E+08 3.38988E+07-5.71382E+07 1.43785E+07-1.17059E+07
 -1       520 1.07563E+09 9.79600E+07 2.66279E+07-5.33862E+07 9.85960E+06-1.09962E+07
 -1       521 6.62729E+08 6.28387E+07 2.03472E+07-4.73580E+07 5.97484E+06-9.62490E+06
 -1       522 3.35655E+08 3.51021E+07 1.66395E+07-3.87113E+07 2.77091E+06-7.35452E+06
 -1       523 1.23807E+08 2.11439E+07 1.54469E+07-2.82202E+07 8.48349E+05-5.80401E+06
 -1       524 3.76217E+07 1.89601E+07 1.05645E+07-3.33005E+07-3.07189E+06 2.42499E+06
 -1       525 3.72726E+08 1.59673E+08 1.59516E+08-1.26426E+08 3.66074E+06 2.96200E+06
 -1       526 2.92854E+08 1.24917E+08 1.23538E+08-1.11250E+08 2.69430E+06 4.67827E+06
 -1       527 2.20774E+08 9.29941E+07 8.92062E+07-1.06943E+08-2.51853E+06 5.97725E+06
 -1       528 1.50996E+08 6.17983E+07 5.49986E+07-1.03731E+08-7.57018E+06 6.01558E+06
 -1       529 8.38328E+07 3.17847E+07 2.21162E+07-1.00207E+08-1.20726E+07 5.70677E+06
 -1       530 1.91785E+07 2.85952E+06-9.64677E+06-9.60215E+07-1.60433E+07 5.51006E+06
 -1       531-4.23511E+07-2.46796E+07-3.99143E+07-9.05200E+07-2.00139E+07 5.26892E+06
 -1       532-9.99132E+07-5.04628E+07-6.82961E+07-8.37692E+07-2.38799E+07 4.93924E+06
 -1       533-1.52636E+08-7.40896E+07-9.43290E+07-7.57179E+07-2.75144E+07 4.48386E+06
 -1       534-1.99661E+08-9.51577E+07-1.17531E+08-6.65203E+07-3.07626E+07 3.89409E+06
 -1       535-2.40233E+08-1.13307E+08-1.37457E+08-5.63278E+07-3.34828E+07 3.17628E+06
 -1       536-2.73714E+08-1.28228E+08-1.53714E+08-4.53384E+07-3.55576E+07 2.34586E+06
 -1       537-2.99612E+08-1.39681E+08-1.65991E+08-3.37814E+07-3.68905E+07 1.42361E+06
 -1       538-3.17603E+08-1.47500E+08-1.74064E+08-2.19114E+07-3.74060E+07 4.33670E+05
 -1       539-3.27543E+08-1.51607E+08-1.77813E+08-1.00019E+07-3.70502E+07-5.98146E+05
 -1       540-3.29478E+08-1.52009E+08-1.77220E+08 1.66188E+06-3.57920E+07-1.64570E+06
 -1       541-3.23653E+08-1.48809E+08-1.72375E+08 1.27899E+07-3.36223E+07-2.68345E+06
 -1       542-3.10506E+08-1.42195E+08-1.63476E+08 2.30939E+07-3.05539E+07-3.68711E+06
 -1       543-2.90668E+08-1.32446E+08-1.50820E+08 3.22944E+07-2.66193E+07-4.63392E+06
 -1       544-2.64951E+08-1.19926E+08-1.34801E+08 4.01263E+07-2.18691E+07-5.50281E+06
 -1       545-2.34339E+08-1.05074E+08-1.15906E+08 4.63457E+07-1.63680E+07-6.27402E+06
 -1       546-1.99972E+08-8.84030E+07-9.47050E+07 5.07350E+07-1.01920E+07-6.92767E+06
 -1       547-1.63124E+08-7.04919E+07-7.18487E+07 5.31041E+07-3.42961E+06-7.44007E+06
 -1       548-1.25201E+08-5.19803E+07-4.80667E+07 5.32810E+07 3.79717E+06-7.77871E+06
 -1       549-8.77494E+07-3.35777E+07-2.41763E+07 5.10648E+07 1.12912E+07-7.90642E+06
 -1       550-5.25541E+07-1.61012E+07-1.11666E+06 4.61008E+07 1.87677E+07-7.81186E+06
 -1       551-2.15515E+07-4.14936E+05 2.01684E+07 3.83073E+07 2.59195E+07-7.62516E+06
 -1       552 2.98134E+06 1.25149E+07 3.87351E+07 2.68241E+07 3.30986E+07-7.81316E+06
 -1       553 1.90170E+07 2.19466E+07 5.41384E+07 1.26717E+07 4.31580E+07-9.08476E+06
 -1       554 3.71130E+08 1.59442E+08 1.60343E+08-6.29689E+07 2.65219E-03-5.73341E-02
 -1       555 2.96302E+08 1.26722E+08 1.26105E+08-6.56970E+07 5.36387E-03-8.32970E-02
 -1       556 2.20818E+08 9.27120E+07 8.82222E+07-6.06456E+07 7.22600E-03-1.09861E-01
 -1       557 1.49374E+08 6.01907E+07 5.12616E+07-5.66177E+07 6.48845E-03-1.27468E-01
 -1       558 8.13618E+07 2.92719E+07 1.62113E+07-5.42753E+07 2.46461E-03-1.35890E-01
 -1       559 1.60416E+07-4.16629E+05-1.74303E+07-5.21720E+07 4.58651E-03-1.38939E-01
 -1       560-4.62610E+07-2.87652E+07-4.96231E+07-4.93751E+07 1.22970E-02-1.31997E-01
 -1       561-1.04641E+08-5.53645E+07-7.99076E+07-4.57534E+07 7.80245E-03-1.24030E-01
 -1       562-1.58144E+08-7.97637E+07-1.07735E+08-4.14106E+07 7.31625E-03-1.14617E-01
 -1       563-2.05883E+08-1.01529E+08-1.32547E+08-3.64050E+07 5.18166E-03-9.57581E-02
 -1       564-2.47059E+08-1.20265E+08-1.53824E+08-3.08477E+07 2.47525E-03-7.32073E-02
 -1       565-2.81009E+08-1.35638E+08-1.71117E+08-2.48525E+07 6.30699E-04-5.63149E-02
 -1       566-3.07221E+08-1.47385E+08-1.84063E+08-1.85477E+07-1.38956E-03-4.09283E-02
 -1       567-3.25354E+08-1.55328E+08-1.92405E+08-1.20748E+07-2.28112E-03-2.30921E-02
 -1       568-3.35252E+08-1.59374E+08-1.95993E+08-5.58395E+06-2.19396E-03 1.20123E-03
 -1       569-3.36959E+08-1.59527E+08-1.94797E+08 7.68845E+05-2.67943E-03 3.57355E-02
 -1       570-3.30716E+08-1.55886E+08-1.88903E+08 6.82568E+06-8.04394E-03 6.85396E-02
 -1       571-3.16965E+08-1.48644E+08-1.78513E+08 1.24301E+07-1.75170E-02 9.34200E-02
 -1       572-2.96345E+08-1.38086E+08-1.63942E+08 1.74307E+07-2.62510E-02 1.12629E-01
 -1       573-2.69679E+08-1.24587E+08-1.45610E+08 2.16850E+07-1.67765E-02 1.30836E-01
 -1       574-2.37964E+08-1.08599E+08-1.24034E+08 2.50643E+07-1.54307E-02 1.51730E-01
 -1       575-2.02350E+08-9.06510E+07-9.98196E+07 2.74594E+07-1.73247E-02 1.68536E-01
 -1       576-1.64124E+08-7.13343E+07-7.36574E+07 2.87816E+07-1.26587E-02 1.80522E-01
 -1       577-1.24701E+08-5.13097E+07-4.63311E+07 2.89315E+07 4.28371E-03 1.87455E-01
 -1       578-8.56767E+07-3.13303E+07-1.87578E+07 2.77351E+07 1.08648E-02 1.85953E-01
 -1       579-4.89139E+07-1.22812E+07 7.97664E+06 2.48688E+07 2.86620E-03 1.78062E-01
 -1       580-1.68291E+07 4.72858E+06 3.25910E+07 1.94128E+07-9.38070E-03 1.66790E-01
 -1       581 8.16760E+06 1.87243E+07 5.42469E+07 1.17782E+07-1.47087E-02 1.52692E-01
 -1       582 2.60491E+07 3.01347E+07 7.43997E+07 5.23053E+06-2.09705E-02 1.48933E-01
 -1       583 3.72726E+08 1.59673E+08 1.59516E+08-1.26426E+08-3.66074E+06-2.96200E+06
 -1       584 2.92854E+08 1.24917E+08 1.23538E+08-1.11250E+08-2.69430E+06-4.67827E+06
 -1       585 2.20774E+08 9.29941E+07 8.92062E+07-1.06943E+08 2.51853E+06-5.97725E+06
 -1       586 1.50996E+08 6.17983E+07 5.49986E+07-1.03731E+08 7.57018E+06-6.01558E+06
 -1       587 8.38328E+07 3.17847E+07 2.21162E+07-1.00207E+08 1.20726E+07-5.70677E+06
 -1       588 1.91785E+07 2.85952E+06-9.64677E+06-9.60215E+07 1.60433E+07-5.51006E+06
 -1       589-4.23511E+07-2.46796E+07-3.99143E+07-9.05200E+07 2.00139E+07-5.26892E+06
 -1       590-9.99132E+07-5.04628E+07-6.82961E+07-8.37692E+07 2.38799E+07-4.93924E+06
 -1       591-1.52636E+08-7.40896E+07-9.43290E+07-7.57179E+07 2.75144E+07-4.48386E+06
 -1       592-1.99661E+08-9.51577E+07-1.17531E+08-6.65203E+07 3.07626E+07-3.89409E+06
 -1       593-2.40233E+08-1.13307E+08-1.37457E+08-5.63278E+07 3.34828E+07-3.17628E+06
 -1       594-2.73714E+08-1.28228E+08-1.53714E+08-4.53384E+07 3.55576E+07-2.34586E+06
 -1       595-2.99612E+08-1.39681E+08-1.65991E+08-3.37814E+07 3.68905E+07-1.42361E+06
 -1       596-3.17603E+08-1.47500E+08-1.74064E+08-2.19114E+07 3.74060E+07-4.33670E+05
 -1       597-3.27543E+08-1.51607E+08-1.77813E+08-1.00019E+07 3.70502E+07 5.98146E+05
 -1       598-3.29478E+08-1.52009E+08-1.77220E+08 1.66188E+06 3.57920E+07 1.64570E+06
 -1       599-3.23653E+08-1.48809E+08-1.72375E+08 1.27899E+07 3.36223E+07 2.68345E+06
 -1       600-3.10506E+08-1.42195E+08-1.63476E+08 2.30939E+07 3.05539E+07 3.68711E+06
 -1       601-2.90668E+08-1.32446E+08-1.50820E+08 3.22944E+07 2.66193E+07 4.63392E+06
 -1       602-2.64951E+08-1.19926E+08-1.34801E+08 4.01263E+07 2.18691E+07 5.50281E+06
 -1       603-2.34339E+08-1.05074E+08-1.15906E+08 4.63457E+07 1.63680E+07 6.27402E+06
 -1       604-1.99972E+08-8.84030E+07-9.47050E+07 5.07350E+07 1.01920E+07 6.92767E+06
 -1       605-1.63124E+08-7.04919E+07-7.18487E+07 5.31041E+07 3.42961E+06 7.44007E+06
 -1       606-1.25201E+08-5.19803E+07-4.80667E+07 5.32810E+07-3.79717E+06 7.77871E+06
 -1       607-8.77494E+07-3.35777E+07-2.41763E+07 5.10648E+07-1.12912E+07 7.90642E+06
 -1       608-5.25541E+07-1.61012E+07-1.11666E+06 4.61008E+07-1.87677E+07 7.81186E+06
 -1       609-2.15515E+07-4.14936E+05 2.01684E+07 3.83073E+07-2.59195E+07 7.62516E+06
 -1       610 2.98134E+06 1.25149E+07 3.87351E+07 2.68241E+07-3.30986E+07 7.81316E+06
 -1       611 1.90170E+07 2.19466E+07 5.41384E+07 1.26717E+07-4.31580E+07 9.08476E+06
 -1       612-3.72726E+08-1.59673E+08-1.59516E+08-1.26426E+08-3.66074E+06 2.96200E+06
 -1       613-2.92854E+08-1.24917E+08-1.23538E+08-1.11250E+08-2.69430E+06 4.67827E+06
 -1       614-2.20774E+08-9.29941E+07-8.92062E+07-1.06943E+08 2.51853E+06 5.97725E+06
 -1       615-1.50996E+08-6.17983E+07-5.49986E+07-1.03731E+08 7.57018E+06 6.01558E+06
 -1       616-8.38328E+07-3.17847E+07-2.21162E+07-1.00207E+08 1.20726E+07 5.70677E+06
 -1       617-1.91785E+07-2.85952E+06 9.64677E+06-9.60215E+07 1.60433E+07 5.51006E+06
 -1       618 4.23511E+07 2.46796E+07 3.99143E+07-9.05200E+07 2.00139E+07 5.26892E+06
 -1       619 9.99132E+07 5.04628E+07 6.82961E+07-8.37692E+07 2.38799E+07 4.93924E+06
 -1       620 1.52636E+08 7.40896E+07 9.43290E+07-7.57179E+07 2.75144E+07 4.48386E+06
 -1       621 1.99661E+08 9.51577E+07 1.17531E+08-6.65203E+07 3.07626E+07 3.89409E+06
 -1       622 2.40233E+08 1.13307E+08 1.37457E+08-5.63278E+07 3.34828E+07 3.17628E+06
 -1       623 2.73714E+08 1.28228E+08 1.53714E+08-4.53384E+07 3.55576E+07 2.34586E+06
 -1       624 2.99612E+08 1.39681E+08 1.65991E+08-3.37814E+07 3.68905E+07 1.42361E+06
 -1       625 3.17603E+08 1.47500E+08 1.74064E+08-2.19114E+07 3.74060E+07 4.33670E+05
 -1       626 3.27543E+08 1.51607E+08 1.77813E+08-1.00019E+07 3.70502E+07-5.98146E+05
 -1       627 3.29478E+08 1.52009E+08 1.77220E+08 1.66188E+06 3.57920E+07-1.64570E+06
 -1       628 3.23653E+08 1.48809E+08 1.72375E+08 1.27899E+07 3.36223E+07-2.68345E+06
 -1       629 3.10506E+08 1.42195E+08 1.63476E+08 2.30939E+07 3.05539E+07-3.68711E+06
 -1       630 2.90668E+08 1.32446E+08 1.50820E+08 3.22944E+07 2.66193E+07-4.63392E+06
 -1       631 2.64951E+08 1.19926E+08 1.34801E+08 4.01263E+07 2.18691E+07-5.50281E+06
 -1       632 2.34339E+08 1.05074E+08 1.15906E+08 4.63457E+07 1.63680E+07-6.27402E+06
 -1       633 1.99972E+08 8.84030E+07 9.47050E+07 5.07350E+07 1.01920E+07-6.92767E+06
 -1       634 1.63124E+08 7.04919E+07 7.18487E+07 5.31041E+07 3.42961E+06-7.44007E+06
 -1       635 1.25201E+08 5.19803E+07 4.80667E+07 5.32810E+07-3.79717E+06-7.77871E+06
 -1       636 8.77494E+07 3.35777E+07 2.41763E+07 5.10648E+07-1.12912E+07-7.90642E+06
 -1       637 5.25541E+07 1.61012E+07 1.11666E+06 4.61008E+07-1.87677E+07-7.81186E+06
 -1       638 2.15515E+07 4.14936E+05-2.01684E+07 3.83073E+07-2.59195E+07-7.62516E+06
 -1       639-2.98134E+06-1.25149E+07-3.87351E+07 2.68241E+07-3.30986E+07-7.81316E+06
 -1       640-1.90170E+07-2.19466E+07-5.41384E+07 1.26717E+07-4.31580E+07-9.08476E+06
 -1       641-3.71130E+08-1.59442E+08-1.60343E+08-6.29689E+07 2.35818E-03-1.10153E-03
 -1       642-2.96302E+08-1.26722E+08-1.26105E+08-6.56970E+07 5.24287E-03 1.46063E-02
 -1       643-2.20818E+08-9.27120E+07-8.82222E+07-6.06456E+07 7.21043E-03 1.98675E-02
 -1       644-1.49374E+08-6.01907E+07-5.12616E+07-5.66177E+07 6.53519E-03 2.48776E-02
 -1       645-8.13618E+07-2.92719E+07-1.62113E+07-5.42753E+07 2.55869E-03 3.21539E-02
 -1       646-1.60416E+07 4.16629E+05 1.74303E+07-5.21720E+07 4.73458E-03 3.79274E-02
 -1       647 4.62610E+07 2.87652E+07 4.96231E+07-4.93751E+07 1.24186E-02 4.03771E-02
 -1       648 1.04641E+08 5.53645E+07 7.99076E+07-4.57534E+07 8.02836E-03 3.72490E-02
 -1       649 1.58144E+08 7.97637E+07 1.07735E+08-4.14106E+07 7.60004E-03 3.33781E-02
 -1       650 2.05883E+08 1.01529E+08 1.32547E+08-3.64050E+07 5.47152E-03 3.23719E-02
 -1       651 2.47059E+08 1.20265E+08 1.53824E+08-3.08477E+07 2.81742E-03 3.07867E-02
 -1       652 2.81009E+08 1.35638E+08 1.71117E+08-2.48525E+07 1.06335E-03 2.00980E-02
 -1       653 3.07221E+08 1.47385E+08 1.84063E+08-1.85477E+07-8.05393E-04 5.15954E-03
 -1       654 3.25354E+08 1.55328E+08 1.92405E+08-1.20748E+07-1.62529E-03-8.78726E-03
 -1       655 3.35252E+08 1.59374E+08 1.95993E+08-5.58395E+06-1.61170E-03-1.82275E-02
 -1       656 3.36959E+08 1.59527E+08 1.94797E+08 7.68845E+05-2.15334E-03-1.97471E-02
 -1       657 3.30716E+08 1.55886E+08 1.88903E+08 6.82568E+06-7.27282E-03-2.29393E-02
 -1       658 3.16965E+08 1.48644E+08 1.78513E+08 1.24301E+07-1.67970E-02-3.13628E-02
 -1       659 2.96345E+08 1.38086E+08 1.63942E+08 1.74307E+07-2.57100E-02-3.78810E-02
 -1       660 2.69679E+08 1.24587E+08 1.45610E+08 2.16850E+07-1.63259E-02-4.54649E-02
 -1       661 2.37964E+08 1.08599E+08 1.24034E+08 2.50643E+07-1.49634E-02-5.47526E-02
 -1       662 2.02350E+08 9.06510E+07 9.98196E+07 2.74594E+07-1.69355E-02-6.02030E-02
 -1       663 1.64124E+08 7.13343E+07 7.36574E+07 2.87816E+07-1.24860E-02-6.09390E-02
 -1       664 1.24701E+08 5.13097E+07 4.63311E+07 2.89315E+07 4.68092E-03-6.91844E-02
 -1       665 8.56767E+07 3.13303E+07 1.87578E+07 2.77351E+07 1.10107E-02-9.11833E-02
 -1       666 4.89139E+07 1.22812E+07-7.97664E+06 2.48688E+07 2.82631E-03-1.14449E-01
 -1       667 1.68291E+07-4.72858E+06-3.25910E+07 1.94128E+07-9.51897E-03-1.31429E-01
 -1       668-8.16760E+06-1.87243E+07-5.42469E+07 1.17782E+07-1.47391E-02-1.46904E-01
 -1       669-2.60491E+07-3.01347E+07-7.43997E+07 5.23053E+06-2.11162E-02-1.55688E-01
 -1       670-3.72726E+08-1.59673E+08-1.59516E+08-1.26426E+08 3.66074E+06-2.96200E+06
 -1       671-2.92854E+08-1.24917E+08-1.23538E+08-1.11250E+08 2.69430E+06-4.67827E+06
 -1       672-2.20774E+08-9.29941E+07-8.92062E+07-1.06943E+08-2.51853E+06-5.97725E+06
 -1       673-1.50996E+08-6.17983E+07-5.49986E+07-1.03731E+08-7.57018E+06-6.01558E+06
 -1       674-8.38328E+07-3.17847E+07-2.21162E+07-1.00207E+08-1.20726E+07-5.70677E+06
 -1       675-1.91785E+07-2.85952E+06 9.64677E+06-9.60215E+07-1.60433E+07-5.51006E+06
 -1       676 4.23511E+07 2.46796E+07 3.99143E+07-9.05200E+07-2.00139E+07-5.26892E+06
 -1       677 9.99132E+07 5.04628E+07 6.82961E+07-8.37692E+07-2.38799E+07-4.93924E+06
 -1       678 1.52636E+08 7.40896E+07 9.43290E+07-7.57179E+07-2.75144E+07-4.48386E+06
 -1       679 1.99661E+08 9.51577E+07 1.17531E+08-6.65203E+07-3.07626E+07-3.89409E+06
 -1       680 2.40233E+08 1.13307E+08 1.37457E+08-5.63278E+07-3.34828E+07-3.17628E+06
 -1       681 2.73714E+08 1.28228E+08 1.53714E+08-4.53384E+07-3.55576E+07-2.34586E+06
 -1       682 2.99612E+08 1.39681E+08 1.65991E+08-3.37814E+07-3.68905E+07-1.42361E+06
 -1       683 3.17603E+08 1.47500E+08 1.74064E+08-2.19114E+07-3.74060E+07-4.33670E+05
 -1       684 3.27543E+08 1.51607E+08 1.77813E+08-1.00019E+07-3.70502E+07 5.98146E+05
 -1       685 3.29478E+08 1.52009E+08 1.77220E+08 1.66188E+06-3.57920E+07 1.64570E+06
 -1       686 3.23653E+08 1.48809E+08 1.72375E+08 1.27899E+07-3.36223E+07 2.68345E+06
 -1       687 3.10506E+08 1.42195E+08 1.63476E+08 2.30939E+07-3.05539E+07 3.68711E+06
 -1       688 2.90668E+08 1.32446E+08 1.50820E+08 3.22944E+07-2.66193E+07 4.63392E+06
 -1       689 2.64951E+08 1.19926E+08 1.34801E+08 4.01263E+07-2.18691E+07 5.50281E+06
 -1       690 2.34339E+08 1.05074E+08 1.15906E+08 4.63457E+07-1.63680E+07 6.27402E+06
 -1       691 1.99972E+08 8.84030E+07 9.47050E+07 5.07350E+07-1.01920E+07 6.92767E+06
 -1       692 1.63124E+08 7.04919E+07 7.18487E+07 5.31041E+07-3.42961E+06 7.44007E+06
 -1       693 1.25201E+08 5.19803E+07 4.80667E+07 5.32810E+07 3.79717E+06 7.77871E+06
 -1       694 8.77494E+07 3.35777E+07 2.41763E+07 5.10648E+07 1.12912E+07 7.90642E+06
 -1       695 5.25541E+07 1.61012E+07 1.11666E+06 4.61008E+07 1.87677E+07 7.81186E+06
 -1       696 2.15515E+07 4.14936E+05-2.01684E+07 3.83073E+07 2.59195E+07 7.62516E+06
 -1       697-2.98134E+06-1.25149E+07-3.87351E+07 2.68241E+07 3.30986E+07 7.81316E+06
 -1       698-1.90170E+07-2.19466E+07-5.41384E+07 1.26717E+07 4.31580E+07 9.08476E+06
 -1       699 2.49109E+09-4.00928E+08-4.57396E+08 2.68257E+08-6.68052E+07-1.92744E+07
 -1       700 2.46023E+09 5.97162E+07 8.61314E+07 2.23839E+08-3.87490E+07-2.86681E+07
 -1       701 1.81137E+09 1.20870E+06-5.07276E+06 2.23522E+08-3.40019E+07-2.69793E+07
 -1       702 1.28913E+09 2.87474E+06 4.29870E+06 2.16716E+08-2.32558E+07-2.67382E+07
 -1       703 7.65661E+08 4.28504E+06 3.29657E+06 2.10124E+08-1.39271E+07-2.56763E+07
 -1       704 2.62703E+08 5.02278E+06 3.45577E+06 2.00586E+08-4.57447E+06-2.44529E+07
 -1       705-2.14413E+08 5.84345E+06 3.52170E+06 1.88779E+08 4.24373E+06-2.29856E+07
 -1       706-6.59507E+08 6.57353E+06 3.56095E+06 1.74322E+08 1.24393E+07-2.12774E+07
 -1       707-1.06637E+09 7.13945E+06 3.51000E+06 1.57449E+08 1.99057E+07-1.92566E+07
 -1       708-1.42910E+09 7.60609E+06 3.42797E+06 1.38419E+08 2.65497E+07-1.69300E+07
 -1       709-1.74246E+09 7.96709E+06 3.32463E+06 1.17580E+08 3.22845E+07-1.43297E+07
 -1       710-2.00206E+09 8.20856E+06 3.19938E+06 9.53266E+07 3.70320E+07-1.15089E+07
 -1       711-2.20459E+09 8.30845E+06 3.04350E+06 7.21034E+07 4.07309E+07-8.53099E+06
 -1       712-2.34791E+09 8.24490E+06 2.84546E+06 4.84012E+07 4.33407E+07-5.46493E+06
 -1       713-2.43122E+09 8.00034E+06 2.59461E+06 2.47507E+07 4.48451E+07-2.38309E+06
 -1       714-2.45511E+09 7.56216E+06 2.28187E+06 1.71095E+06 4.52538E+07 6.40129E+05
 -1       715-2.42162E+09 6.92283E+06 1.89982E+06-2.01430E+07 4.46031E+07 3.52973E+06
 -1       716-2.33424E+09 6.07954E+06 1.44268E+06-4.02345E+07 4.29564E+07 6.21191E+06
 -1       717-2.19792E+09 5.03426E+06 9.06520E+05-5.79999E+07 4.04038E+07 8.61577E+06
 -1       718-2.01897E+09 3.79485E+06 2.90419E+05-7.29037E+07 3.70612E+07 1.06746E+07
 -1       719-1.80503E+09 2.37774E+06-4.01264E+05-8.44536E+07 3.30704E+07 1.23260E+07
 -1       720-1.56491E+09 8.11227E+05-1.15618E+06-9.22128E+07 2.85976E+07 1.35092E+07
 -1       721-1.30851E+09-8.68284E+05-1.95875E+06-9.58035E+07 2.38298E+07 1.41619E+07
 -1       722-1.04666E+09-2.63489E+06-2.80279E+06-9.48953E+07 1.89694E+07 1.42247E+07
 -1       723-7.91009E+08-4.52000E+06-3.74562E+06-8.91845E+07 1.42074E+07 1.36526E+07
 -1       724-5.53745E+08-6.64092E+06-4.86685E+06-7.84120E+07 9.74594E+06 1.24724E+07
 -1       725-3.47494E+08-9.17392E+06-6.46241E+06-6.24368E+07 5.71283E+06 1.07719E+07
 -1       726-1.84291E+08-1.10559E+07-7.33210E+06-4.12866E+07 2.70897E+06 8.42617E+06
 -1       727-7.50952E+07-1.31520E+07-8.22433E+06-1.61769E+07 5.68332E+05 4.74446E+06
 -1       728 2.48359E+09-4.00656E+08-4.59564E+08 2.88717E+08 6.67045E+07-3.66654E+07
 -1       729 2.45512E+09 5.32851E+07 8.26689E+07 2.45919E+08 4.06259E+07-1.47629E+07
 -1       730 1.80815E+09-4.71456E+05-6.54242E+06 2.49553E+08 3.42463E+07-1.95397E+07
 -1       731 1.28881E+09 3.50307E+06 4.39385E+06 2.45354E+08 2.30796E+07-1.84002E+07
 -1       732 7.66293E+08 4.88998E+06 3.66770E+06 2.38871E+08 1.37178E+07-1.77204E+07
 -1       733 2.63856E+08 5.65262E+06 3.99071E+06 2.28360E+08 4.39106E+06-1.68257E+07
 -1       734-2.13005E+08 6.35617E+06 4.09783E+06 2.15032E+08-4.37203E+06-1.58121E+07
 -1       735-6.57755E+08 7.20914E+06 4.27748E+06 1.98661E+08-1.26012E+07-1.46521E+07
 -1       736-1.06414E+09 8.04133E+06 4.45045E+06 1.79420E+08-2.01357E+07-1.32739E+07
 -1       737-1.42633E+09 8.82100E+06 4.62489E+06 1.57467E+08-2.68625E+07-1.16754E+07
 -1       738-1.73916E+09 9.47763E+06 4.76855E+06 1.33116E+08-3.26733E+07-9.87771E+06
 -1       739-1.99830E+09 9.96770E+06 4.85547E+06 1.06800E+08-3.74836E+07-7.91941E+06
 -1       740-2.20047E+09 1.02584E+07 4.86463E+06 7.90548E+07-4.12297E+07-5.84673E+06
 -1       741-2.34355E+09 1.03266E+07 4.78025E+06 5.04906E+07-4.38713E+07-3.70900E+06
 -1       742-2.42672E+09 1.01562E+07 4.59127E+06 2.17662E+07-4.53928E+07-1.55745E+06
 -1       743-2.45059E+09 9.73783E+06 4.29029E+06-6.42925E+06-4.58048E+07 5.55674E+05
 -1       744-2.41719E+09 9.06819E+06 3.87284E+06-3.33948E+07-4.51447E+07 2.57806E+06
 -1       745-2.33000E+09 8.14955E+06 3.33672E+06-5.84347E+07-4.34774E+07 4.45849E+06
 -1       746-2.19396E+09 6.98887E+06 2.68123E+06-8.08722E+07-4.08942E+07 6.14811E+06
 -1       747-2.01539E+09 5.59629E+06 1.90657E+06-1.00062E+08-3.75121E+07 7.60129E+06
 -1       748-1.80192E+09 3.98263E+06 1.01358E+06-1.15398E+08-3.34713E+07 8.77511E+06
 -1       749-1.56239E+09 2.15792E+06 5.62544E+03-1.26322E+08-2.89321E+07 9.62674E+06
 -1       750-1.30668E+09 1.35081E+05-1.10877E+06-1.32335E+08-2.40745E+07 1.01095E+07
 -1       751-1.04559E+09-2.05859E+06-2.31017E+06-1.33030E+08-1.90970E+07 1.01761E+07
 -1       752-7.90645E+08-4.33827E+06-3.58180E+06-1.28132E+08-1.42334E+07 9.79102E+06
 -1       753-5.53862E+08-6.57749E+06-4.88285E+06-1.17530E+08-9.71780E+06 8.98371E+06
 -1       754-3.47948E+08-8.84106E+06-6.49871E+06-1.01112E+08-5.87975E+06 7.86475E+06
 -1       755-1.85306E+08-1.06469E+07-7.51392E+06-7.86442E+07-2.57156E+06 6.28977E+06
 -1       756-7.68093E+07-1.45809E+07-9.16723E+06-5.00597E+07-6.64692E+05 3.57973E+06
 -1       757 2.48359E+09-4.00656E+08-4.59564E+08 2.88717E+08-6.67045E+07 3.66654E+07
 -1       758 2.45512E+09 5.32851E+07 8.26689E+07 2.45919E+08-4.06259E+07 1.47629E+07
 -1       759 1.80815E+09-4.71456E+05-6.54242E+06 2.49553E+08-3.42463E+07 1.95397E+07
 -1       760 1.28881E+09 3.50307E+06 4.39385E+06 2.45354E+08-2.30796E+07 1.84002E+07
 -1       761 7.66293E+08 4.88998E+06 3.66770E+06 2.38871E+08-1.37178E+07 1.77204E+07
 -1       762 2.63856E+08 5.65262E+06 3.99071E+06 2.28360E+08-4.39106E+06 1.68257E+07
 -1       763-2.13005E+08 6.35617E+06 4.09783E+06 2.15032E+08 4.37203E+06 1.58121E+07
 -1       764-6.57755E+08 7.20914E+06 4.27748E+06 1.98661E+08 1.26012E+07 1.46521E+07
 -1       765-1.06414E+09 8.04133E+06 4.45045E+06 1.79420E+08 2.01357E+07 1.32739E+07
 -1       766-1.42633E+09 8.82100E+06 4.62489E+06 1.57467E+08 2.68625E+07 1.16754E+07
 -1       767-1.73916E+09 9.47763E+06 4.76855E+06 1.33116E+08 3.26733E+07 9.87771E+06
 -1       768-1.99830E+09 9.96770E+06 4.85547E+06 1.06800E+08 3.74836E+07 7.91941E+06
 -1       769-2.20047E+09 1.02584E+07 4.86463E+06 7.90548E+07 4.12297E+07 5.84673E+06
 -1       770-2.34355E+09 1.03266E+07 4.78025E+06 5.04906E+07 4.38713E+07 3.70900E+06
 -1       771-2.42672E+09 1.01562E+07 4.59127E+06 2.17662E+07 4.53928E+07 1.55745E+06
 -1       772-2.45059E+09 9.73783E+06 4.29029E+06-6.42925E+06 4.58048E+07-5.55674E+05
 -1       773-2.41719E+09 9.06819E+06 3.87284E+06-3.33948E+07 4.51447E+07-2.57806E+06
 -1       774-2.33000E+09 8.14955E+06 3.33672E+06-5.84347E+07 4.34774E+07-4.45849E+06
 -1       775-2.19396E+09 6.98887E+06 2.68123E+06-8.08722E+07 4.08942E+07-6.14811E+06
 -1       776-2.01539E+09 5.59629E+06 1.90657E+06-1.00062E+08 3.75121E+07-7.60129E+06
 -1       777-1.80192E+09 3.98263E+06 1.01358E+06-1.15398E+08 3.34713E+07-8.77511E+06
 -1       778-1.56239E+09 2.15792E+06 5.62546E+03-1.26322E+08 2.89321E+07-9.62674E+06
 -1       779-1.30668E+09 1.35081E+05-1.10877E+06-1.32335E+08 2.40745E+07-1.01095E+07
 -1       780-1.04559E+09-2.05859E+06-2.31017E+06-1.33030E+08 1.90970E+07-1.01761E+07
 -1       781-7.90645E+08-4.33827E+06-3.58180E+06-1.28132E+08 1.42334E+07-9.79102E+06
 -1       782-5.53862E+08-6.57749E+06-4.88285E+06-1.17530E+08 9.71780E+06-8.98371E+06
 -1       783-3.47948E+08-8.84106E+06-6.49871E+06-1.01112E+08 5.87975E+06-7.86475E+06
 -1       784-1.85306E+08-1.06469E+07-7.51392E+06-7.86442E+07 2.57156E+06-6.28977E+06
 -1       785-7.68093E+07-1.45809E+07-9.16723E+06-5.00597E+07 6.64692E+05-3.57973E+06
 -1       786 2.49109E+09-4.00928E+08-4.57396E+08 2.68257E+08 6.68052E+07 1.92744E+07
 -1       787 2.46023E+09 5.97162E+07 8.61314E+07 2.23839E+08 3.87490E+07 2.86681E+07
 -1       788 1.81137E+09 1.20870E+06-5.07276E+06 2.23522E+08 3.40019E+07 2.69793E+07
 -1       789 1.28913E+09 2.87474E+06 4.29870E+06 2.16716E+08 2.32558E+07 2.67382E+07
 -1       790 7.65661E+08 4.28504E+06 3.29657E+06 2.10124E+08 1.39271E+07 2.56763E+07
 -1       791 2.62703E+08 5.02278E+06 3.45577E+06 2.00586E+08 4.57447E+06 2.44529E+07
 -1       792-2.14413E+08 5.84345E+06 3.52170E+06 1.88779E+08-4.24373E+06 2.29856E+07
 -1       793-6.59507E+08 6.57353E+06 3.56095E+06 1.74322E+08-1.24393E+07 2.12774E+07
 -1       794-1.06637E+09 7.13945E+06 3.51000E+06 1.57449E+08-1.99057E+07 1.92566E+07
 -1       795-1.42910E+09 7.60609E+06 3.42797E+06 1.38419E+08-2.65497E+07 1.69300E+07
 -1       796-1.74246E+09 7.96709E+06 3.32463E+06 1.17580E+08-3.22845E+07 1.43297E+07
 -1       797-2.00206E+09 8.20856E+06 3.19938E+06 9.53266E+07-3.70320E+07 1.15089E+07
 -1       798-2.20459E+09 8.30845E+06 3.04350E+06 7.21034E+07-4.07309E+07 8.53099E+06
 -1       799-2.34791E+09 8.24490E+06 2.84546E+06 4.84012E+07-4.33407E+07 5.46493E+06
 -1       800-2.43122E+09 8.00034E+06 2.59461E+06 2.47507E+07-4.48451E+07 2.38309E+06
 -1       801-2.45511E+09 7.56216E+06 2.28187E+06 1.71095E+06-4.52538E+07-6.40129E+05
 -1       802-2.42162E+09 6.92283E+06 1.89982E+06-2.01430E+07-4.46031E+07-3.52973E+06
 -1       803-2.33424E+09 6.07954E+06 1.44268E+06-4.02345E+07-4.29564E+07-6.21191E+06
 -1       804-2.19792E+09 5.03426E+06 9.06520E+05-5.79999E+07-4.04038E+07-8.61577E+06
 -1       805-2.01897E+09 3.79485E+06 2.90419E+05-7.29037E+07-3.70612E+07-1.06746E+07
 -1       806-1.80503E+09 2.37774E+06-4.01264E+05-8.44536E+07-3.30704E+07-1.23260E+07
 -1       807-1.56491E+09 8.11227E+05-1.15618E+06-9.22128E+07-2.85976E+07-1.35092E+07
 -1       808-1.30851E+09-8.68284E+05-1.95875E+06-9.58035E+07-2.38298E+07-1.41619E+07
 -1       809-1.04666E+09-2.63489E+06-2.80279E+06-9.48953E+07-1.89694E+07-1.42247E+07
 -1       810-7.91009E+08-4.52001E+06-3.74562E+06-8.91845E+07-1.42074E+07-1.36526E+07
 -1       811-5.53745E+08-6.64092E+06-4.86685E+06-7.84120E+07-9.74594E+06-1.24724E+07
 -1       812-3.47494E+08-9.17392E+06-6.46241E+06-6.24368E+07-5.71283E+06-1.07719E+07
 -1       813-1.84291E+08-1.10559E+07-7.33210E+06-4.12866E+07-2.70897E+06-8.42617E+06
 -1       814-7.50952E+07-1.31520E+07-8.22433E+06-1.61769E+07-5.68332E+05-4.74446E+06
 -1       815-2.49109E+09 4.00928E+08 4.57396E+08 2.68257E+08-6.68052E+07 1.92744E+07
 -1       816-2.46023E+09-5.97162E+07-8.61314E+07 2.23839E+08-3.87490E+07 2.86681E+07
 -1       817-1.81137E+09-1.20870E+06 5.07276E+06 2.23522E+08-3.40019E+07 2.69793E+07
 -1       818-1.28913E+09-2.87474E+06-4.29870E+06 2.16716E+08-2.32558E+07 2.67382E+07
 -1       819-7.65661E+08-4.28504E+06-3.29657E+06 2.10124E+08-1.39271E+07 2.56763E+07
 -1       820-2.62703E+08-5.02278E+06-3.45577E+06 2.00586E+08-4.57447E+06 2.44529E+07
 -1       821 2.14413E+08-5.84345E+06-3.52170E+06 1.88779E+08 4.24373E+06 2.29856E+07
 -1       822 6.59507E+08-6.57353E+06-3.56095E+06 1.74322E+08 1.24393E+07 2.12774E+07
 -1       823 1.06637E+09-7.13945E+06-3.51000E+06 1.57449E+08 1.99057E+07 1.92566E+07
 -1       824 1.42910E+09-7.60609E+06-3.42797E+06 1.38419E+08 2.65497E+07 1.69300E+07
 -1       825 1.74246E+09-7.96709E+06-3.32463E+06 1.17580E+08 3.22845E+07 1.43297E+07
 -1       826 2.00206E+09-8.20856E+06-3.19938E+06 9.53266E+07 3.70320E+07 1.15089E+07
 -1       827 2.20459E+09-8.30845E+06-3.04350E+06 7.21034E+07 4.07309E+07 8.53099E+06
 -1       828 2.34791E+09-8.24490E+06-2.84546E+06 4.84012E+07 4.33407E+07 5.46493E+06
 -1       829 2.43122E+09-8.00034E+06-2.59461E+06 2.47507E+07 4.48451E+07 2.38309E+06
 -1       830 2.45511E+09-7.56216E+06-2.28187E+06 1.71095E+06 4.52538E+07-6.40129E+05
 -1       831 2.42162E+09-6.92283E+06-1.89982E+06-2.01430E+07 4.46031E+07-3.52973E+06
 -1       832 2.33424E+09-6.07954E+06-1.44268E+06-4.02345E+07 4.29564E+07-6.21191E+06
 -1       833 2.19792E+09-5.03426E+06-9.06520E+05-5.79999E+07 4.04038E+07-8.61577E+06
 -1       834 2.01897E+09-3.79485E+06-2.90419E+05-7.29037E+07 3.70612E+07-1.06746E+07
 -1       835 1.80503E+09-2.37774E+06 4.01264E+05-8.44536E+07 3.30704E+07-1.23260E+07
 -1       836 1.56491E+09-8.11227E+05 1.15618E+06-9.22128E+07 2.85976E+07-1.35092E+07
 -1       837 1.30851E+09 8.68284E+05 1.95875E+06-9.58035E+07 2.38298E+07-1.41619E+07
 -1       838 1.04666E+09 2.63489E+06 2.80279E+06-9.48953E+07 1.89694E+07-1.42247E+07
 -1       839 7.91009E+08 4.52000E+06 3.74562E+06-8.91845E+07 1.42074E+07-1.36526E+07
 -1       840 5.53745E+08 6.64092E+06 4.86685E+06-7.84120E+07 9.74594E+06-1.24724E+07
 -1       841 3.47494E+08 9.17392E+06 6.46241E+06-6.24368E+07 5.71283E+06-1.07719E+07
 -1       842 1.84291E+08 1.10559E+07 7.33210E+06-4.12866E+07 2.70897E+06-8.42617E+06
 -1       843 7.50952E+07 1.31520E+07 8.22433E+06-1.61769E+07 5.68332E+05-4.74446E+06
 -1       844-2.48359E+09 4.00656E+08 4.59564E+08 2.88717E+08 6.67045E+07 3.66654E+07
 -1       845-2.45512E+09-5.32851E+07-8.26689E+07 2.45919E+08 4.06259E+07 1.47629E+07
 -1       846-1.80815E+09 4.71456E+05 6.54242E+06 2.49553E+08 3.42463E+07 1.95397E+07
 -1       847-1.28881E+09-3.50307E+06-4.39385E+06 2.45354E+08 2.30796E+07 1.84002E+07
 -1       848-7.66293E+08-4.88998E+06-3.66770E+06 2.38871E+08 1.37178E+07 1.77204E+07
 -1       849-2.63856E+08-5.65262E+06-3.99071E+06 2.28360E+08 4.39106E+06 1.68257E+07
 -1       850 2.13005E+08-6.35617E+06-4.09783E+06 2.15032E+08-4.37203E+06 1.58121E+07
 -1       851 6.57755E+08-7.20914E+06-4.27748E+06 1.98661E+08-1.26012E+07 1.46521E+07
 -1       852 1.06414E+09-8.04133E+06-4.45045E+06 1.79420E+08-2.01357E+07 1.32739E+07
 -1       853 1.42633E+09-8.82100E+06-4.62489E+06 1.57467E+08-2.68625E+07 1.16754E+07
 -1       854 1.73916E+09-9.47763E+06-4.76855E+06 1.33116E+08-3.26733E+07 9.87771E+06
 -1       855 1.99830E+09-9.96770E+06-4.85547E+06 1.06800E+08-3.74836E+07 7.91941E+06
 -1       856 2.20047E+09-1.02584E+07-4.86463E+06 7.90548E+07-4.12297E+07 5.84673E+06
 -1       857 2.34355E+09-1.03266E+07-4.78025E+06 5.04906E+07-4.38713E+07 3.70900E+06
 -1       858 2.42672E+09-1.01562E+07-4.59127E+06 2.17662E+07-4.53928E+07 1.55745E+06
 -1       859 2.45059E+09-9.73783E+06-4.29029E+06-6.42925E+06-4.58048E+07-5.55674E+05
 -1       860 2.41719E+09-9.06819E+06-3.87284E+06-3.33948E+07-4.51447E+07-2.57806E+06
 -1       861 2.33000E+09-8.14955E+06-3.33672E+06-5.84347E+07-4.34774E+07-4.45849E+06
 -1       862 2.19396E+09-6.98887E+06-2.68123E+06-8.08722E+07-4.08942E+07-6.14811E+06
 -1       863 2.01539E+09-5.59629E+06-1.90657E+06-1.00062E+08-3.75121E+07-7.60129E+06
 -1       864 1.80192E+09-3.98263E+06-1.01358E+06-1.15398E+08-3.34713E+07-8.77511E+06
 -1       865 1.56239E+09-2.15792E+06-5.62544E+03-1.26322E+08-2.89321E+07-9.62674E+06
 -1       866 1.30668E+09-1.35081E+05 1.10877E+06-1.32335E+08-2.40745E+07-1.01095E+07
 -1       867 1.04559E+09 2.05859E+06 2.31017E+06-1.33030E+08-1.90970E+07-1.01761E+07
 -1       868 7.90645E+08 4.33827E+06 3.58180E+06-1.28132E+08-1.42334E+07-9.79102E+06
 -1       869 5.53862E+08 6.57749E+06 4.88285E+06-1.17530E+08-9.71780E+06-8.98371E+06
 -1       870 3.47948E+08 8.84106E+06 6.49871E+06-1.01112E+08-5.87975E+06-7.86475E+06
 -1       871 1.85306E+08 1.06469E+07 7.51392E+06-7.86442E+07-2.57156E+06-6.28977E+06
 -1       872 7.68093E+07 1.45809E+07 9.16723E+06-5.00597E+07-6.64692E+05-3.57973E+06
 -1       873 7.50952E+07 1.31520E+07 8.22433E+06-1.61769E+07-5.68332E+05 4.74446E+06
 -1       874 1.84291E+08 1.10559E+07 7.33210E+06-4.12866E+07-2.70897E+06 8.42617E+06
 -1       875 3.47494E+08 9.17392E+06 6.46241E+06-6.24368E+07-5.71283E+06 1.07719E+07
 -1       876 5.53745E+08 6.64092E+06 4.86685E+06-7.84120E+07-9.74594E+06 1.24724E+07
 -1       877 7.91009E+08 4.52000E+06 3.74562E+06-8.91845E+07-1.42074E+07 1.36526E+07
 -1       878 1.04666E+09 2.63489E+06 2.80279E+06-9.48953E+07-1.89694E+07 1.42247E+07
 -1       879 1.30851E+09 8.68284E+05 1.95875E+06-9.58035E+07-2.38298E+07 1.41619E+07
 -1       880 1.56491E+09-8.11227E+05 1.15618E+06-9.22128E+07-2.85976E+07 1.35092E+07
 -1       881 1.80503E+09-2.37774E+06 4.01264E+05-8.44536E+07-3.30704E+07 1.23260E+07
 -1       882 2.01897E+09-3.79485E+06-2.90419E+05-7.29037E+07-3.70612E+07 1.06746E+07
 -1       883 2.19792E+09-5.03426E+06-9.06520E+05-5.79999E+07-4.04038E+07 8.61577E+06
 -1       884 2.33424E+09-6.07954E+06-1.44268E+06-4.02345E+07-4.29564E+07 6.21191E+06
 -1       885 2.42162E+09-6.92283E+06-1.89982E+06-2.01430E+07-4.46031E+07 3.52973E+06
 -1       886 2.45511E+09-7.56216E+06-2.28187E+06 1.71095E+06-4.52538E+07 6.40129E+05
 -1       887 2.43122E+09-8.00034E+06-2.59461E+06 2.47507E+07-4.48451E+07-2.38309E+06
 -1       888 2.34791E+09-8.24490E+06-2.84546E+06 4.84012E+07-4.33407E+07-5.46493E+06
 -1       889 2.20459E+09-8.30845E+06-3.04350E+06 7.21034E+07-4.07309E+07-8.53099E+06
 -1       890 2.00206E+09-8.20856E+06-3.19938E+06 9.53266E+07-3.70320E+07-1.15089E+07
 -1       891 1.74246E+09-7.96709E+06-3.32463E+06 1.17580E+08-3.22845E+07-1.43297E+07
 -1       892 1.42910E+09-7.60609E+06-3.42797E+06 1.38419E+08-2.65497E+07-1.69300E+07
 -1       893 1.06637E+09-7.13945E+06-3.51000E+06 1.57449E+08-1.99057E+07-1.92566E+07
 -1       894 6.59507E+08-6.57353E+06-3.56095E+06 1.74322E+08-1.24393E+07-2.12774E+07
 -1       895 2.14413E+08-5.84345E+06-3.52170E+06 1.88779E+08-4.24373E+06-2.29856E+07
 -1       896-2.62703E+08-5.02278E+06-3.45577E+06 2.00586E+08 4.57447E+06-2.44529E+07
 -1       897-7.65661E+08-4.28504E+06-3.29657E+06 2.10124E+08 1.39271E+07-2.56763E+07
 -1       898-1.28913E+09-2.87474E+06-4.29870E+06 2.16716E+08 2.32558E+07-2.67382E+07
 -1       899-1.81137E+09-1.20870E+06 5.07276E+06 2.23522E+08 3.40019E+07-2.69793E+07
 -1       900-2.46023E+09-5.97162E+07-8.61314E+07 2.23839E+08 3.87490E+07-2.86681E+07
 -1       901-2.49109E+09 4.00928E+08 4.57396E+08 2.68257E+08 6.68052E+07-1.92744E+07
 -1       902-2.48359E+09 4.00656E+08 4.59564E+08 2.88717E+08-6.67045E+07-3.66654E+07
 -1       903-2.45512E+09-5.32851E+07-8.26689E+07 2.45919E+08-4.06259E+07-1.47629E+07
 -1       904-1.80815E+09 4.71456E+05 6.54242E+06 2.49553E+08-3.42463E+07-1.95397E+07
 -1       905-1.28881E+09-3.50307E+06-4.39385E+06 2.45354E+08-2.30796E+07-1.84002E+07
 -1       906-7.66293E+08-4.88998E+06-3.66770E+06 2.38871E+08-1.37178E+07-1.77204E+07
 -1       907-2.63856E+08-5.65262E+06-3.99071E+06 2.28360E+08-4.39106E+06-1.68257E+07
 -1       908 2.13005E+08-6.35617E+06-4.09783E+06 2.15032E+08 4.37203E+06-1.58121E+07
 -1       909 6.57755E+08-7.20914E+06-4.27748E+06 1.98661E+08 1.26012E+07-1.46521E+07
 -1       910 1.06414E+09-8.04133E+06-4.45045E+06 1.79420E+08 2.01357E+07-1.32739E+07
 -1       911 1.42633E+09-8.82100E+06-4.62489E+06 1.57467E+08 2.68625E+07-1.16754E+07
 -1       912 1.73916E+09-9.47763E+06-4.76855E+06 1.33116E+08 3.26733E+07-9.87771E+06
 -1       913 1.99830E+09-9.96770E+06-4.85547E+06 1.06800E+08 3.74836E+07-7.91941E+06
 -1       914 2.20047E+09-1.02584E+07-4.86463E+06 7.90548E+07 4.12297E+07-5.84673E+06
 -1       915 2.34355E+09-1.03266E+07-4.78025E+06 5.04906E+07 4.38713E+07-3.70900E+06
 -1       916 2.42672E+09-1.01562E+07-4.59127E+06 2.17662E+07 4.53928E+07-1.55745E+06
 -1       917 2.45059E+09-9.73783E+06-4.29029E+06-6.42925E+06 4.58048E+07 5.55674E+05
 -1       918 2.41719E+09-9.06819E+06-3.87284E+06-3.33948E+07 4.51447E+07 2.57806E+06
 -1       919 2.33000E+09-8.14955E+06-3.33672E+06-5.84347E+07 4.34774E+07 4.45849E+06
 -1       920 2.19396E+09-6.98887E+06-2.68123E+06-8.08722E+07 4.08942E+07 6.14811E+06
 -1       921 2.01539E+09-5.59629E+06-1.90657E+06-1.00062E+08 3.75121E+07 7.60129E+06
 -1       922 1.80192E+09-3.98263E+06-1.01358E+06-1.15398E+08 3.34713E+07 8.77511E+06
 -1       923 1.56239E+09-2.15792E+06-5.62545E+03-1.26322E+08 2.89321E+07 9.62674E+06
 -1       924 1.30668E+09-1.35081E+05 1.10877E+06-1.32335E+08 2.40745E+07 1.01095E+07
 -1       925 1.04559E+09 2.05859E+06 2.31017E+06-1.33030E+08 1.90970E+07 1.01761E+07
 -1       926 7.90645E+08 4.33827E+06 3.58180E+06-1.28132E+08 1.42334E+07 9.79102E+06
 -1       927 5.53862E+08 6.57749E+06 4.88285E+06-1.17530E+08 9.71780E+06 8.98371E+06
 -1       928 3.47948E+08 8.84106E+06 6.49871E+06-1.01112E+08 5.87975E+06 7.86475E+06
 -1       929 1.85306E+08 1.06469E+07 7.51392E+06-7.86442E+07 2.57156E+06 6.28977E+06
 -1       930 7.68093E+07 1.45809E+07 9.16723E+06-5.00597E+07 6.64692E+05 3.57973E+06
 -3
    1PSTEP                        15           1           1          
    1PGM                1.000000E+00                                  
    1PGK                3.079301E+05                                  
    1PHID                         -1                                  
    1PSUBC                         0                                  
    1PMODE                         4                                  
  100CL  104 88.31738313         930                     2    4MODAL      1
 -4  FORC        4    1
 -5  F1          1    2    1    0
 -5  F2          1    2    2    0
 -5  F3          1    2    3    0
 -5  ALL         1    2    0    0    1ALL
 -1         1-1.37441E+06 1.01759E+05 3.78809E+05
 -1         2 1.37441E+06 1.01759E+05-3.78809E+05
 -1         3-8.30935E+01-6.15957E+03-3.57820E+00
 -1         4 8.30935E+01-6.15957E+03 3.57821E+00
 -1         5-1.37441E+06 1.01759E+05-3.78809E+05
 -1         6 1.37441E+06 1.01759E+05 3.78809E+05
 -1         7-8.30935E+01-6.15957E+03 3.57820E+00
 -1         8 8.30935E+01-6.15957E+03-3.57821E+00
 -1         9-1.71445E+05 1.17966E+05-3.94568E+05
 -1        10-7.51640E+01-2.85424E+03-3.27017E+00
 -1        11-1.02649E+06-5.33374E+05-1.66753E+06
 -1        12-1.01947E+06-5.32866E+05 1.66738E+06
 -1        13-3.01633E+02-2.37717E+03-1.30544E+01
 -1        14-3.01546E+02-2.37794E+03-1.30503E+01
 -1        15-1.71445E+05 1.17966E+05 3.94568E+05
 -1        16-7.51640E+01-2.85424E+03 3.27018E+00
 -1        17-1.01947E+06-5.32866E+05-1.66738E+06
 -1        18-1.02649E+06-5.33374E+05 1.66753E+06
 -1        19-3.01546E+02-2.37794E+03 1.30503E+01
 -1        20-3.01633E+02-2.37717E+03 1.30544E+01
 -1        21 1.01947E+06-5.32866E+05-1.66738E+06
 -1        22 1.02649E+06-5.33374E+05 1.66753E+06
 -1        23 3.01633E+02-2.37717E+03 1.30544E+01
 -1        24 3.01546E+02-2.37794E+03 1.30503E+01
 -1        25 1.71445E+05 1.17966E+05 3.94568E+05
 -1        26 7.51640E+01-2.85424E+03 3.27018E+00
 -1        27 1.71445E+05 1.17966E+05-3.94568E+05
 -1        28 1.02649E+06-5.33374E+05-1.66753E+06
 -1        29 1.01947E+06-5.32866E+05 1.66738E+06
 -1        30 7.51640E+01-2.85424E+03-3.27018E+00
 -1        31 3.01633E+02-2.37717E+03-1.30544E+01
 -1        32 3.01546E+02-2.37794E+03-1.30503E+01
 -1        33-2.06859E+01 2.04717E+02-2.00261E-02
 -1        34-4.01833E+01 6.26188E+02-2.69311E-01
 -1        35-5.56336E+01 1.26460E+03-7.24270E-01
 -1        36-6.70377E+01 2.06875E+03-1.28655E+00
 -1        37-7.45593E+01 2.98935E+03-1.87957E+00
 -1        38-7.82917E+01 3.97819E+03-2.46776E+00
 -1        39-7.84044E+01 4.98879E+03-3.03307E+00
 -1        40-7.51094E+01 5.97707E+03-3.56576E+00
 -1        41-6.86664E+01 6.90185E+03-4.05541E+00
 -1        42-5.93801E+01 7.72548E+03-4.48821E+00
 -1        43-4.75965E+01 8.41439E+03-4.84827E+00
 -1        44-3.36972E+01 8.93959E+03-5.11963E+00
 -1        45-1.80923E+01 9.27710E+03-5.28795E+00
 -1        46-1.21227E+00 9.40823E+03-5.34160E+00
 -1        47 1.65013E+01 9.31983E+03-5.27212E+00
 -1        48 3.46059E+01 9.00434E+03-5.07435E+00
 -1        49 5.26686E+01 8.45976E+03-4.74635E+00
 -1        50 7.02769E+01 7.68943E+03-4.28925E+00
 -1        51 8.70493E+01 6.70175E+03-3.70699E+00
 -1        52 1.02646E+02 5.50972E+03-3.00626E+00
 -1        53 1.16779E+02 4.13033E+03-2.19643E+00
 -1        54 1.29220E+02 2.58386E+03-1.28975E+00
 -1        55 1.39812E+02 8.93100E+02-3.01683E-01
 -1        56 1.48472E+02-9.17620E+02 7.49414E-01
 -1        57 1.55202E+02-2.82339E+03 1.84369E+00
 -1        58 1.60090E+02-4.79981E+03 2.96300E+00
 -1        59 1.63317E+02-6.82414E+03 4.09451E+00
 -1        60 1.65159E+02-8.87651E+03 5.23099E+00
 -1        61 1.65979E+02-1.09411E+04 6.37677E+00
 -1        62 2.06859E+01 2.04717E+02 2.00218E-02
 -1        63 4.01833E+01 6.26188E+02 2.69310E-01
 -1        64 5.56336E+01 1.26460E+03 7.24264E-01
 -1        65 6.70377E+01 2.06875E+03 1.28654E+00
 -1        66 7.45593E+01 2.98935E+03 1.87957E+00
 -1        67 7.82917E+01 3.97819E+03 2.46776E+00
 -1        68 7.84044E+01 4.98879E+03 3.03307E+00
 -1        69 7.51094E+01 5.97707E+03 3.56576E+00
 -1        70 6.86664E+01 6.90185E+03 4.05541E+00
 -1        71 5.93801E+01 7.72548E+03 4.48820E+00
 -1        72 4.75965E+01 8.41439E+03 4.84826E+00
 -1        73 3.36972E+01 8.93959E+03 5.11962E+00
 -1        74 1.80923E+01 9.27710E+03 5.28795E+00
 -1        75 1.21227E+00 9.40823E+03 5.34160E+00
 -1        76-1.65013E+01 9.31983E+03 5.27212E+00
 -1        77-3.46059E+01 9.00434E+03 5.07435E+00
 -1        78-5.26686E+01 8.45976E+03 4.74635E+00
 -1        79-7.02769E+01 7.68943E+03 4.28924E+00
 -1        80-8.70493E+01 6.70175E+03 3.70698E+00
 -1        81-1.02646E+02 5.50972E+03 3.00625E+00
 -1        82-1.16779E+02 4.13033E+03 2.19641E+00
 -1        83-1.29220E+02 2.58386E+03 1.28975E+00
 -1        84-1.39812E+02 8.93100E+02 3.01690E-01
 -1        85-1.48472E+02-9.17620E+02-7.49406E-01
 -1        86-1.55202E+02-2.82339E+03-1.84369E+00
 -1        87-1.60090E+02-4.79981E+03-2.96299E+00
 -1        88-1.63317E+02-6.82414E+03-4.09451E+00
 -1        89-1.65159E+02-8.87651E+03-5.23098E+00
 -1        90-1.65979E+02-1.09411E+04-6.37676E+00
 -1        91-2.38981E+06-1.92052E+04-2.71244E+02
 -1        92-2.37520E+06-1.75885E+04 1.22133E-05
 -1        93-2.38981E+06-1.92052E+04 2.71244E+02
 -1        94 2.38981E+06-1.92052E+04-2.71244E+02
 -1        95 2.37520E+06-1.75885E+04 7.91696E-06
 -1        96 2.38981E+06-1.92052E+04 2.71244E+02
 -1        97 2.06859E+01 2.04717E+02-2.00217E-02
 -1        98 4.01833E+01 6.26188E+02-2.69299E-01
 -1        99 5.56336E+01 1.26460E+03-7.24256E-01
 -1       100 6.70377E+01 2.06875E+03-1.28654E+00
 -1       101 7.45593E+01 2.98935E+03-1.87957E+00
 -1       102 7.82917E+01 3.97819E+03-2.46776E+00
 -1       103 7.84044E+01 4.98879E+03-3.03307E+00
 -1       104 7.51094E+01 5.97707E+03-3.56577E+00
 -1       105 6.86664E+01 6.90185E+03-4.05542E+00
 -1       106 5.93801E+01 7.72548E+03-4.48821E+00
 -1       107 4.75965E+01 8.41439E+03-4.84827E+00
 -1       108 3.36972E+01 8.93959E+03-5.11962E+00
 -1       109 1.80923E+01 9.27710E+03-5.28795E+00
 -1       110 1.21227E+00 9.40823E+03-5.34160E+00
 -1       111-1.65013E+01 9.31983E+03-5.27213E+00
 -1       112-3.46059E+01 9.00434E+03-5.07436E+00
 -1       113-5.26686E+01 8.45976E+03-4.74636E+00
 -1       114-7.02769E+01 7.68943E+03-4.28925E+00
 -1       115-8.70493E+01 6.70175E+03-3.70698E+00
 -1       116-1.02646E+02 5.50972E+03-3.00625E+00
 -1       117-1.16779E+02 4.13033E+03-2.19642E+00
 -1       118-1.29220E+02 2.58386E+03-1.28975E+00
 -1       119-1.39812E+02 8.93100E+02-3.01695E-01
 -1       120-1.48472E+02-9.17620E+02 7.49406E-01
 -1       121-1.55202E+02-2.82339E+03 1.84370E+00
 -1       122-1.60090E+02-4.79981E+03 2.96300E+00
 -1       123-1.63317E+02-6.82414E+03 4.09451E+00
 -1       124-1.65159E+02-8.87651E+03 5.23099E+00
 -1       125-1.65979E+02-1.09411E+04 6.37676E+00
 -1       126-1.59687E+01-6.63173E+03-4.35775E-01
 -1       127-1.60138E+01-6.64667E+03-1.54091E-07
 -1       128-1.59687E+01-6.63173E+03 4.35768E-01
 -1       129-2.06859E+01 2.04717E+02 2.00265E-02
 -1       130-4.01833E+01 6.26188E+02 2.69309E-01
 -1       131-5.56336E+01 1.26460E+03 7.24264E-01
 -1       132-6.70377E+01 2.06875E+03 1.28655E+00
 -1       133-7.45593E+01 2.98935E+03 1.87958E+00
 -1       134-7.82917E+01 3.97819E+03 2.46776E+00
 -1       135-7.84044E+01 4.98879E+03 3.03307E+00
 -1       136-7.51094E+01 5.97707E+03 3.56576E+00
 -1       137-6.86664E+01 6.90185E+03 4.05540E+00
 -1       138-5.93801E+01 7.72548E+03 4.48820E+00
 -1       139-4.75965E+01 8.41439E+03 4.84826E+00
 -1       140-3.36972E+01 8.93959E+03 5.11962E+00
 -1       141-1.80923E+01 9.27710E+03 5.28795E+00
 -1       142-1.21227E+00 9.40823E+03 5.34160E+00
 -1       143 1.65013E+01 9.31983E+03 5.27212E+00
 -1       144 3.46059E+01 9.00434E+03 5.07435E+00
 -1       145 5.26686E+01 8.45976E+03 4.74636E+00
 -1       146 7.02769E+01 7.68943E+03 4.28925E+00
 -1       147 8.70493E+01 6.70175E+03 3.70700E+00
 -1       148 1.02646E+02 5.50972E+03 3.00625E+00
 -1       149 1.16779E+02 4.13033E+03 2.19641E+00
 -1       150 1.29220E+02 2.58386E+03 1.28974E+00
 -1       151 1.39812E+02 8.93100E+02 3.01687E-01
 -1       152 1.48472E+02-9.17620E+02-7.49411E-01
 -1       153 1.55202E+02-2.82339E+03-1.84370E+00
 -1       154 1.60090E+02-4.79981E+03-2.96300E+00
 -1       155 1.63317E+02-6.82414E+03-4.09451E+00
 -1       156 1.65159E+02-8.87651E+03-5.23099E+00
 -1       157 1.65979E+02-1.09411E+04-6.37676E+00
 -1       158 1.59687E+01-6.63173E+03-4.35781E-01
 -1       159 1.60138E+01-6.64667E+03-1.13450E-06
 -1       160 1.59687E+01-6.63173E+03 4.35775E-01
 -1       161 1.83788E+01 9.55247E+01 2.36682E-01
 -1       162 3.59994E+01 2.90838E+02 4.25522E-01
 -1       163 4.99902E+01 5.86401E+02 7.98630E-01
 -1       164 6.03150E+01 9.58787E+02 1.27200E+00
 -1       165 6.71313E+01 1.38522E+03 1.77728E+00
 -1       166 7.05227E+01 1.84335E+03 2.28090E+00
 -1       167 7.06427E+01 2.31160E+03 2.76511E+00
 -1       168 6.76838E+01 2.76954E+03 3.22124E+00
 -1       169 6.18807E+01 3.19806E+03 3.64035E+00
 -1       170 5.35087E+01 3.57972E+03 4.01045E+00
 -1       171 4.28803E+01 3.89895E+03 4.31749E+00
 -1       172 3.03400E+01 4.14232E+03 4.54717E+00
 -1       173 1.62583E+01 4.29871E+03 4.68660E+00
 -1       174 1.02379E+00 4.35948E+03 4.72525E+00
 -1       175-1.49648E+01 4.31852E+03 4.65542E+00
 -1       176-3.13080E+01 4.17234E+03 4.47233E+00
 -1       177-4.76152E+01 3.92000E+03 4.17404E+00
 -1       178-6.35139E+01 3.56305E+03 3.76132E+00
 -1       179-7.86600E+01 3.10540E+03 3.23745E+00
 -1       180-9.27469E+01 2.55305E+03 2.60805E+00
 -1       181-1.05514E+02 1.91389E+03 1.88119E+00
 -1       182-1.16757E+02 1.19732E+03 1.06753E+00
 -1       183-1.26333E+02 4.13874E+02 1.80574E-01
 -1       184-1.34169E+02-4.25163E+02-7.63632E-01
 -1       185-1.40266E+02-1.30826E+03-1.74796E+00
 -1       186-1.44705E+02-2.22413E+03-2.75721E+00
 -1       187-1.47649E+02-3.16224E+03-3.78079E+00
 -1       188-1.49346E+02-4.11335E+03-4.81075E+00
 -1       189-1.50122E+02-5.07005E+03-5.84419E+00
 -1       190-9.01504E+05 2.07003E+05-1.98430E+06
 -1       191-8.90409E+05 2.05348E+05 1.98309E+06
 -1       192-3.75598E+02-4.75430E+03-1.63024E+01
 -1       193 7.62202E+01 8.72508E+01 9.95004E-01
 -1       194 1.46140E+02 2.49322E+02 1.87947E+00
 -1       195 2.02119E+02 4.93661E+02 3.30941E+00
 -1       196 2.43582E+02 8.02266E+02 5.15661E+00
 -1       197 2.70869E+02 1.15590E+03 7.17699E+00
 -1       198 2.84411E+02 1.53597E+03 9.19828E+00
 -1       199 2.84807E+02 1.92456E+03 1.11401E+01
 -1       200 2.72830E+02 2.30464E+03 1.29649E+01
 -1       201 2.49424E+02 2.66035E+03 1.46385E+01
 -1       202 2.15695E+02 2.97714E+03 1.61150E+01
 -1       203 1.72898E+02 3.24210E+03 1.73392E+01
 -1       204 1.22419E+02 3.44403E+03 1.82540E+01
 -1       205 6.57482E+01 3.57369E+03 1.88076E+01
 -1       206 4.44792E+00 3.62388E+03 1.89574E+01
 -1       207-5.98783E+01 3.58953E+03 1.86723E+01
 -1       208-1.25623E+02 3.46771E+03 1.79330E+01
 -1       209-1.91215E+02 3.25765E+03 1.67314E+01
 -1       210-2.55156E+02 2.96063E+03 1.50706E+01
 -1       211-3.16060E+02 2.57988E+03 1.29634E+01
 -1       212-3.72694E+02 2.12039E+03 1.04324E+01
 -1       213-4.24009E+02 1.58870E+03 7.50981E+00
 -1       214-4.69180E+02 9.92608E+02 4.23889E+00
 -1       215-5.07633E+02 3.40877E+02 6.74382E-01
 -1       216-5.39069E+02-3.57138E+02-3.11925E+00
 -1       217-5.63494E+02-1.09187E+03-7.07574E+00
 -1       218-5.81231E+02-1.85394E+03-1.11397E+01
 -1       219-5.92932E+02-2.63463E+03-1.52706E+01
 -1       220-5.99585E+02-3.42627E+03-1.94175E+01
 -1       221-6.02524E+02-4.22273E+03-2.34836E+01
 -1       222 7.61898E+01 8.72761E+01-6.59788E-02
 -1       223 1.46083E+02 2.49410E+02 9.87102E-01
 -1       224 2.02039E+02 4.93839E+02 2.62487E+00
 -1       225 2.43490E+02 8.02558E+02 4.67306E+00
 -1       226 2.70774E+02 1.15631E+03 6.89086E+00
 -1       227 2.84318E+02 1.53651E+03 9.10178E+00
 -1       228 2.84718E+02 1.92522E+03 1.12238E+01
 -1       229 2.72748E+02 2.30542E+03 1.32166E+01
 -1       230 2.49350E+02 2.66123E+03 1.50437E+01
 -1       231 2.15631E+02 2.97812E+03 1.66572E+01
 -1       232 1.72847E+02 3.24315E+03 1.79996E+01
 -1       233 1.22384E+02 3.44514E+03 1.90123E+01
 -1       234 6.57307E+01 3.57483E+03 1.96422E+01
 -1       235 4.44958E+00 3.62503E+03 1.98460E+01
 -1       236-5.98563E+01 3.59066E+03 1.95921E+01
 -1       237-1.25581E+02 3.46880E+03 1.88616E+01
 -1       238-1.91152E+02 3.25867E+03 1.76471E+01
 -1       239-2.55072E+02 2.96155E+03 1.59530E+01
 -1       240-3.15956E+02 2.58067E+03 1.37939E+01
 -1       241-3.72571E+02 2.12103E+03 1.11948E+01
 -1       242-4.23870E+02 1.58916E+03 8.19093E+00
 -1       243-4.69026E+02 9.92877E+02 4.82878E+00
 -1       244-5.07467E+02 3.40932E+02 1.16685E+00
 -1       245-5.38895E+02-3.57312E+02-2.72632E+00
 -1       246-5.63314E+02-1.09228E+03-6.78008E+00
 -1       247-5.81048E+02-1.85460E+03-1.09345E+01
 -1       248-5.92747E+02-2.63554E+03-1.51443E+01
 -1       249-5.99401E+02-3.42742E+03-1.93538E+01
 -1       250-6.02347E+02-4.22413E+03-2.34607E+01
 -1       251-3.75486E+02-4.75585E+03-1.62955E+01
 -1       252-1.50122E+02-5.07005E+03 5.84419E+00
 -1       253-1.49346E+02-4.11335E+03 4.81075E+00
 -1       254-1.47649E+02-3.16224E+03 3.78079E+00
 -1       255-1.44705E+02-2.22413E+03 2.75721E+00
 -1       256-1.40266E+02-1.30826E+03 1.74796E+00
 -1       257-1.34169E+02-4.25163E+02 7.63629E-01
 -1       258-1.26333E+02 4.13874E+02-1.80574E-01
 -1       259-1.16757E+02 1.19732E+03-1.06753E+00
 -1       260-1.05514E+02 1.91389E+03-1.88119E+00
 -1       261-9.27469E+01 2.55305E+03-2.60805E+00
 -1       262-7.86600E+01 3.10540E+03-3.23745E+00
 -1       263-6.35139E+01 3.56305E+03-3.76133E+00
 -1       264-4.76152E+01 3.92000E+03-4.17405E+00
 -1       265-3.13080E+01 4.17234E+03-4.47233E+00
 -1       266-1.49648E+01 4.31852E+03-4.65543E+00
 -1       267 1.02379E+00 4.35948E+03-4.72525E+00
 -1       268 1.62583E+01 4.29871E+03-4.68660E+00
 -1       269 3.03400E+01 4.14232E+03-4.54716E+00
 -1       270 4.28803E+01 3.89895E+03-4.31749E+00
 -1       271 5.35087E+01 3.57972E+03-4.01046E+00
 -1       272 6.18807E+01 3.19806E+03-3.64035E+00
 -1       273 6.76838E+01 2.76954E+03-3.22123E+00
 -1       274 7.06427E+01 2.31160E+03-2.76511E+00
 -1       275 7.05226E+01 1.84335E+03-2.28090E+00
 -1       276 6.71313E+01 1.38522E+03-1.77727E+00
 -1       277 6.03150E+01 9.58787E+02-1.27200E+00
 -1       278 4.99902E+01 5.86401E+02-7.98625E-01
 -1       279 3.59994E+01 2.90838E+02-4.25518E-01
 -1       280 1.83788E+01 9.55247E+01-2.36682E-01
 -1       281-8.90409E+05 2.05348E+05-1.98309E+06
 -1       282-9.01504E+05 2.07003E+05 1.98430E+06
 -1       283 7.61898E+01 8.72761E+01 6.59805E-02
 -1       284 1.46083E+02 2.49410E+02-9.87099E-01
 -1       285 2.02039E+02 4.93839E+02-2.62487E+00
 -1       286 2.43490E+02 8.02558E+02-4.67306E+00
 -1       287 2.70774E+02 1.15631E+03-6.89086E+00
 -1       288 2.84318E+02 1.53651E+03-9.10178E+00
 -1       289 2.84718E+02 1.92522E+03-1.12238E+01
 -1       290 2.72748E+02 2.30542E+03-1.32166E+01
 -1       291 2.49350E+02 2.66123E+03-1.50437E+01
 -1       292 2.15631E+02 2.97812E+03-1.66572E+01
 -1       293 1.72847E+02 3.24315E+03-1.79996E+01
 -1       294 1.22384E+02 3.44514E+03-1.90123E+01
 -1       295 6.57307E+01 3.57483E+03-1.96422E+01
 -1       296 4.44958E+00 3.62503E+03-1.98460E+01
 -1       297-5.98563E+01 3.59066E+03-1.95921E+01
 -1       298-1.25581E+02 3.46880E+03-1.88616E+01
 -1       299-1.91152E+02 3.25867E+03-1.76471E+01
 -1       300-2.55072E+02 2.96155E+03-1.59530E+01
 -1       301-3.15956E+02 2.58067E+03-1.37939E+01
 -1       302-3.72571E+02 2.12103E+03-1.11948E+01
 -1       303-4.23870E+02 1.58916E+03-8.19094E+00
 -1       304-4.69026E+02 9.92877E+02-4.82878E+00
 -1       305-5.07467E+02 3.40932E+02-1.16685E+00
 -1       306-5.38895E+02-3.57312E+02 2.72632E+00
 -1       307-5.63314E+02-1.09228E+03 6.78008E+00
 -1       308-5.81048E+02-1.85460E+03 1.09345E+01
 -1       309-5.92747E+02-2.63554E+03 1.51442E+01
 -1       310-5.99401E+02-3.42742E+03 1.93538E+01
 -1       311-6.02347E+02-4.22413E+03 2.34607E+01
 -1       312-3.75486E+02-4.75585E+03 1.62955E+01
 -1       313 7.62202E+01 8.72508E+01-9.95005E-01
 -1       314 1.46140E+02 2.49322E+02-1.87946E+00
 -1       315 2.02119E+02 4.93661E+02-3.30941E+00
 -1       316 2.43582E+02 8.02266E+02-5.15661E+00
 -1       317 2.70869E+02 1.15590E+03-7.17699E+00
 -1       318 2.84411E+02 1.53597E+03-9.19828E+00
 -1       319 2.84807E+02 1.92456E+03-1.11401E+01
 -1       320 2.72830E+02 2.30464E+03-1.29649E+01
 -1       321 2.49424E+02 2.66035E+03-1.46385E+01
 -1       322 2.15695E+02 2.97714E+03-1.61150E+01
 -1       323 1.72898E+02 3.24210E+03-1.73392E+01
 -1       324 1.22419E+02 3.44403E+03-1.82540E+01
 -1       325 6.57482E+01 3.57369E+03-1.88076E+01
 -1       326 4.44793E+00 3.62388E+03-1.89574E+01
 -1       327-5.98783E+01 3.58953E+03-1.86723E+01
 -1       328-1.25623E+02 3.46771E+03-1.79330E+01
 -1       329-1.91215E+02 3.25765E+03-1.67314E+01
 -1       330-2.55156E+02 2.96063E+03-1.50706E+01
 -1       331-3.16060E+02 2.57988E+03-1.29634E+01
 -1       332-3.72694E+02 2.12039E+03-1.04324E+01
 -1       333-4.24009E+02 1.58870E+03-7.50981E+00
 -1       334-4.69180E+02 9.92608E+02-4.23889E+00
 -1       335-5.07633E+02 3.40877E+02-6.74378E-01
 -1       336-5.39069E+02-3.57138E+02 3.11925E+00
 -1       337-5.63494E+02-1.09187E+03 7.07574E+00
 -1       338-5.81231E+02-1.85394E+03 1.11397E+01
 -1       339-5.92932E+02-2.63463E+03 1.52706E+01
 -1       340-5.99585E+02-3.42627E+03 1.94175E+01
 -1       341-6.02524E+02-4.22273E+03 2.34836E+01
 -1       342-3.75598E+02-4.75430E+03 1.63024E+01
 -1       343-7.62202E+01 8.72508E+01-9.95008E-01
 -1       344-1.46140E+02 2.49322E+02-1.87947E+00
 -1       345-2.02119E+02 4.93661E+02-3.30941E+00
 -1       346-2.43582E+02 8.02266E+02-5.15660E+00
 -1       347-2.70869E+02 1.15590E+03-7.17699E+00
 -1       348-2.84411E+02 1.53597E+03-9.19828E+00
 -1       349-2.84807E+02 1.92456E+03-1.11401E+01
 -1       350-2.72830E+02 2.30464E+03-1.29649E+01
 -1       351-2.49424E+02 2.66035E+03-1.46385E+01
 -1       352-2.15695E+02 2.97714E+03-1.61150E+01
 -1       353-1.72898E+02 3.24210E+03-1.73392E+01
 -1       354-1.22419E+02 3.44403E+03-1.82540E+01
 -1       355-6.57482E+01 3.57369E+03-1.88076E+01
 -1       356-4.44792E+00 3.62388E+03-1.89574E+01
 -1       357 5.98783E+01 3.58953E+03-1.86723E+01
 -1       358 1.25623E+02 3.46771E+03-1.79330E+01
 -1       359 1.91215E+02 3.25765E+03-1.67314E+01
 -1       360 2.55156E+02 2.96063E+03-1.50706E+01
 -1       361 3.16060E+02 2.57988E+03-1.29634E+01
 -1       362 3.72694E+02 2.12039E+03-1.04324E+01
 -1       363 4.24009E+02 1.58870E+03-7.50981E+00
 -1       364 4.69180E+02 9.92608E+02-4.23889E+00
 -1       365 5.07633E+02 3.40877E+02-6.74379E-01
 -1       366 5.39069E+02-3.57138E+02 3.11925E+00
 -1       367 5.63494E+02-1.09187E+03 7.07574E+00
 -1       368 5.81231E+02-1.85394E+03 1.11397E+01
 -1       369 5.92932E+02-2.63463E+03 1.52706E+01
 -1       370 5.99585E+02-3.42627E+03 1.94175E+01
 -1       371 6.02524E+02-4.22273E+03 2.34836E+01
 -1       372-7.61898E+01 8.72761E+01 6.59771E-02
 -1       373-1.46083E+02 2.49410E+02-9.87104E-01
 -1       374-2.02039E+02 4.93839E+02-2.62487E+00
 -1       375-2.43490E+02 8.02558E+02-4.67306E+00
 -1       376-2.70774E+02 1.15631E+03-6.89086E+00
 -1       377-2.84318E+02 1.53651E+03-9.10179E+00
 -1       378-2.84718E+02 1.92522E+03-1.12238E+01
 -1       379-2.72748E+02 2.30542E+03-1.32166E+01
 -1       380-2.49350E+02 2.66123E+03-1.50437E+01
 -1       381-2.15631E+02 2.97812E+03-1.66572E+01
 -1       382-1.72847E+02 3.24315E+03-1.79996E+01
 -1       383-1.22384E+02 3.44514E+03-1.90123E+01
 -1       384-6.57307E+01 3.57483E+03-1.96422E+01
 -1       385-4.44958E+00 3.62503E+03-1.98460E+01
 -1       386 5.98563E+01 3.59066E+03-1.95921E+01
 -1       387 1.25581E+02 3.46880E+03-1.88616E+01
 -1       388 1.91152E+02 3.25867E+03-1.76471E+01
 -1       389 2.55072E+02 2.96155E+03-1.59530E+01
 -1       390 3.15956E+02 2.58067E+03-1.37939E+01
 -1       391 3.72571E+02 2.12103E+03-1.11948E+01
 -1       392 4.23870E+02 1.58916E+03-8.19093E+00
 -1       393 4.69026E+02 9.92877E+02-4.82878E+00
 -1       394 5.07467E+02 3.40932E+02-1.16685E+00
 -1       395 5.38895E+02-3.57312E+02 2.72632E+00
 -1       396 5.63314E+02-1.09228E+03 6.78008E+00
 -1       397 5.81048E+02-1.85460E+03 1.09345E+01
 -1       398 5.92747E+02-2.63554E+03 1.51442E+01
 -1       399 5.99401E+02-3.42742E+03 1.93538E+01
 -1       400 6.02347E+02-4.22413E+03 2.34607E+01
 -1       401 9.01504E+05 2.07003E+05 1.98430E+06
 -1       402 8.90409E+05 2.05348E+05-1.98309E+06
 -1       403 3.75598E+02-4.75430E+03 1.63024E+01
 -1       404-1.83788E+01 9.55247E+01-2.36684E-01
 -1       405-3.59994E+01 2.90838E+02-4.25525E-01
 -1       406-4.99902E+01 5.86401E+02-7.98632E-01
 -1       407-6.03150E+01 9.58787E+02-1.27200E+00
 -1       408-6.71313E+01 1.38522E+03-1.77727E+00
 -1       409-7.05226E+01 1.84335E+03-2.28090E+00
 -1       410-7.06427E+01 2.31160E+03-2.76511E+00
 -1       411-6.76838E+01 2.76954E+03-3.22123E+00
 -1       412-6.18807E+01 3.19806E+03-3.64035E+00
 -1       413-5.35087E+01 3.57972E+03-4.01045E+00
 -1       414-4.28803E+01 3.89895E+03-4.31749E+00
 -1       415-3.03400E+01 4.14232E+03-4.54716E+00
 -1       416-1.62583E+01 4.29871E+03-4.68659E+00
 -1       417-1.02379E+00 4.35948E+03-4.72525E+00
 -1       418 1.49648E+01 4.31852E+03-4.65542E+00
 -1       419 3.13080E+01 4.17234E+03-4.47233E+00
 -1       420 4.76152E+01 3.92000E+03-4.17405E+00
 -1       421 6.35139E+01 3.56305E+03-3.76133E+00
 -1       422 7.86600E+01 3.10540E+03-3.23744E+00
 -1       423 9.27469E+01 2.55305E+03-2.60805E+00
 -1       424 1.05514E+02 1.91389E+03-1.88119E+00
 -1       425 1.16757E+02 1.19732E+03-1.06753E+00
 -1       426 1.26333E+02 4.13874E+02-1.80570E-01
 -1       427 1.34169E+02-4.25163E+02 7.63630E-01
 -1       428 1.40266E+02-1.30826E+03 1.74795E+00
 -1       429 1.44705E+02-2.22413E+03 2.75721E+00
 -1       430 1.47649E+02-3.16224E+03 3.78079E+00
 -1       431 1.49346E+02-4.11335E+03 4.81075E+00
 -1       432 1.50122E+02-5.07005E+03 5.84419E+00
 -1       433 3.75486E+02-4.75585E+03 1.62955E+01
 -1       434 9.01504E+05 2.07003E+05-1.98430E+06
 -1       435 8.90409E+05 2.05348E+05 1.98309E+06
 -1       436 1.50122E+02-5.07005E+03-5.84419E+00
 -1       437 1.49346E+02-4.11335E+03-4.81075E+00
 -1       438 1.47649E+02-3.16224E+03-3.78079E+00
 -1       439 1.44705E+02-2.22413E+03-2.75721E+00
 -1       440 1.40266E+02-1.30826E+03-1.74796E+00
 -1       441 1.34169E+02-4.25163E+02-7.63633E-01
 -1       442 1.26333E+02 4.13874E+02 1.80575E-01
 -1       443 1.16757E+02 1.19732E+03 1.06753E+00
 -1       444 1.05514E+02 1.91389E+03 1.88119E+00
 -1       445 9.27469E+01 2.55305E+03 2.60805E+00
 -1       446 7.86600E+01 3.10540E+03 3.23745E+00
 -1       447 6.35139E+01 3.56305E+03 3.76133E+00
 -1       448 4.76152E+01 3.92000E+03 4.17405E+00
 -1       449 3.13080E+01 4.17234E+03 4.47233E+00
 -1       450 1.49648E+01 4.31852E+03 4.65542E+00
 -1       451-1.02379E+00 4.35948E+03 4.72525E+00
 -1       452-1.62583E+01 4.29871E+03 4.68659E+00
 -1       453-3.03400E+01 4.14232E+03 4.54717E+00
 -1       454-4.28803E+01 3.89895E+03 4.31749E+00
 -1       455-5.35087E+01 3.57972E+03 4.01045E+00
 -1       456-6.18807E+01 3.19806E+03 3.64035E+00
 -1       457-6.76838E+01 2.76954E+03 3.22123E+00
 -1       458-7.06427E+01 2.31160E+03 2.76510E+00
 -1       459-7.05227E+01 1.84335E+03 2.28089E+00
 -1       460-6.71313E+01 1.38522E+03 1.77728E+00
 -1       461-6.03150E+01 9.58787E+02 1.27200E+00
 -1       462-4.99902E+01 5.86401E+02 7.98629E-01
 -1       463-3.59994E+01 2.90838E+02 4.25522E-01
 -1       464-1.83788E+01 9.55247E+01 2.36683E-01
 -1       465 3.75598E+02-4.75430E+03-1.63024E+01
 -1       466-7.62202E+01 8.72508E+01 9.95007E-01
 -1       467-1.46140E+02 2.49322E+02 1.87947E+00
 -1       468-2.02119E+02 4.93661E+02 3.30941E+00
 -1       469-2.43582E+02 8.02266E+02 5.15661E+00
 -1       470-2.70869E+02 1.15590E+03 7.17699E+00
 -1       471-2.84411E+02 1.53597E+03 9.19828E+00
 -1       472-2.84807E+02 1.92456E+03 1.11401E+01
 -1       473-2.72830E+02 2.30464E+03 1.29649E+01
 -1       474-2.49424E+02 2.66035E+03 1.46385E+01
 -1       475-2.15695E+02 2.97714E+03 1.61150E+01
 -1       476-1.72898E+02 3.24210E+03 1.73392E+01
 -1       477-1.22419E+02 3.44403E+03 1.82540E+01
 -1       478-6.57482E+01 3.57369E+03 1.88076E+01
 -1       479-4.44792E+00 3.62388E+03 1.89574E+01
 -1       480 5.98783E+01 3.58953E+03 1.86723E+01
 -1       481 1.25623E+02 3.46771E+03 1.79330E+01
 -1       482 1.91215E+02 3.25765E+03 1.67314E+01
 -1       483 2.55156E+02 2.96063E+03 1.50706E+01
 -1       484 3.16060E+02 2.57988E+03 1.29634E+01
 -1       485 3.72694E+02 2.12039E+03 1.04324E+01
 -1       486 4.24009E+02 1.58870E+03 7.50981E+00
 -1       487 4.69180E+02 9.92608E+02 4.23889E+00
 -1       488 5.07633E+02 3.40877E+02 6.74379E-01
 -1       489 5.39069E+02-3.57138E+02-3.11925E+00
 -1       490 5.63494E+02-1.09187E+03-7.07574E+00
 -1       491 5.81231E+02-1.85394E+03-1.11397E+01
 -1       492 5.92932E+02-2.63463E+03-1.52706E+01
 -1       493 5.99585E+02-3.42627E+03-1.94175E+01
 -1       494 6.02524E+02-4.22273E+03-2.34836E+01
 -1       495-7.61897E+01 8.72761E+01-6.59779E-02
 -1       496-1.46083E+02 2.49410E+02 9.87101E-01
 -1       497-2.02039E+02 4.93839E+02 2.62487E+00
 -1       498-2.43490E+02 8.02558E+02 4.67306E+00
 -1       499-2.70774E+02 1.15631E+03 6.89086E+00
 -1       500-2.84318E+02 1.53651E+03 9.10179E+00
 -1       501-2.84718E+02 1.92522E+03 1.12238E+01
 -1       502-2.72748E+02 2.30542E+03 1.32166E+01
 -1       503-2.49350E+02 2.66123E+03 1.50437E+01
 -1       504-2.15631E+02 2.97812E+03 1.66572E+01
 -1       505-1.72847E+02 3.24315E+03 1.79996E+01
 -1       506-1.22384E+02 3.44514E+03 1.90123E+01
 -1       507-6.57307E+01 3.57483E+03 1.96422E+01
 -1       508-4.44957E+00 3.62503E+03 1.98460E+01
 -1       509 5.98563E+01 3.59066E+03 1.95921E+01
 -1       510 1.25581E+02 3.46880E+03 1.88616E+01
 -1       511 1.91152E+02 3.25867E+03 1.76471E+01
 -1       512 2.55072E+02 2.96155E+03 1.59530E+01
 -1       513 3.15956E+02 2.58067E+03 1.37939E+01
 -1       514 3.72571E+02 2.12103E+03 1.11948E+01
 -1       515 4.23870E+02 1.58916E+03 8.19093E+00
 -1       516 4.69026E+02 9.92877E+02 4.82878E+00
 -1       517 5.07467E+02 3.40932E+02 1.16685E+00
 -1       518 5.38895E+02-3.57312E+02-2.72632E+00
 -1       519 5.63314E+02-1.09228E+03-6.78008E+00
 -1       520 5.81048E+02-1.85460E+03-1.09345E+01
 -1       521 5.92747E+02-2.63554E+03-1.51443E+01
 -1       522 5.99401E+02-3.42742E+03-1.93538E+01
 -1       523 6.02347E+02-4.22413E+03-2.34607E+01
 -1       524 3.75486E+02-4.75585E+03-1.62955E+01
 -1       525 4.53236E+00 2.18133E+02-4.11225E-03
 -1       526 8.32289E+00 6.71765E+02 2.23605E-02
 -1       527 1.12770E+01 1.36031E+03 8.11703E-02
 -1       528 1.34443E+01 2.22728E+03 1.52504E-01
 -1       529 1.48565E+01 3.21897E+03 2.22096E-01
 -1       530 1.55402E+01 4.28360E+03 2.88952E-01
 -1       531 1.55267E+01 5.37141E+03 3.53586E-01
 -1       532 1.48554E+01 6.43506E+03 4.15296E-01
 -1       533 1.35755E+01 7.43033E+03 4.72545E-01
 -1       534 1.17452E+01 8.31672E+03 5.23344E-01
 -1       535 9.43117E+00 9.05812E+03 5.65662E-01
 -1       536 6.70752E+00 9.62332E+03 5.97556E-01
 -1       537 3.65394E+00 9.98650E+03 6.17364E-01
 -1       538 3.54318E-01 1.01275E+04 6.23748E-01
 -1       539-3.10525E+00 1.00323E+04 6.15722E-01
 -1       540-6.63841E+00 9.69256E+03 5.92721E-01
 -1       541-1.01606E+01 9.10622E+03 5.54524E-01
 -1       542-1.35912E+01 8.27688E+03 5.01262E-01
 -1       543-1.68555E+01 7.21357E+03 4.33403E-01
 -1       544-1.98870E+01 5.93027E+03 3.51743E-01
 -1       545-2.26289E+01 4.44526E+03 2.57341E-01
 -1       546-2.50363E+01 2.78039E+03 1.51544E-01
 -1       547-2.70775E+01 9.60183E+02 3.60323E-02
 -1       548-2.87353E+01-9.89113E+02-8.70668E-02
 -1       549-3.00086E+01-3.04062E+03-2.15053E-01
 -1       550-3.09141E+01-5.16797E+03-3.44884E-01
 -1       551-3.14887E+01-7.34666E+03-4.74547E-01
 -1       552-3.17926E+01-9.55557E+03-6.07277E-01
 -1       553-3.19110E+01-1.17786E+04-7.56469E-01
 -1       554 4.53597E+00 2.17938E+02-2.41381E-06
 -1       555 8.34508E+00 6.72436E+02 3.61276E-06
 -1       556 1.13113E+01 1.36302E+03 3.53676E-06
 -1       557 1.34800E+01 2.23246E+03 2.03482E-06
 -1       558 1.48903E+01 3.22655E+03-1.11284E-06
 -1       559 1.55727E+01 4.29347E+03-3.85485E-06
 -1       560 1.55581E+01 5.38349E+03-4.96245E-06
 -1       561 1.48851E+01 6.44927E+03-5.25789E-07
 -1       562 1.36025E+01 7.44650E+03-2.29710E-06
 -1       563 1.17685E+01 8.33464E+03-4.81585E-06
 -1       564 9.44979E+00 9.07750E+03-3.64767E-06
 -1       565 6.72054E+00 9.64380E+03-3.24961E-06
 -1       566 3.66063E+00 1.00077E+04 2.61544E-06
 -1       567 3.54105E-01 1.01489E+04 2.56481E-06
 -1       568-3.11274E+00 1.00534E+04-5.86607E-07
 -1       569-6.65338E+00 9.71288E+03-3.49726E-06
 -1       570-1.01831E+01 9.12524E+03-1.62050E-07
 -1       571-1.36210E+01 8.29408E+03 1.43247E-06
 -1       572-1.68923E+01 7.22845E+03-5.61424E-06
 -1       573-1.99303E+01 5.94235E+03-4.83879E-06
 -1       574-2.26782E+01 4.45411E+03 9.80808E-07
 -1       575-2.50909E+01 2.78561E+03-1.44713E-06
 -1       576-2.71363E+01 9.61454E+02-1.00981E-06
 -1       577-2.87972E+01-9.92057E+02 4.91562E-06
 -1       578-3.00722E+01-3.04794E+03 8.17903E-06
 -1       579-3.09777E+01-5.17973E+03 5.13391E-06
 -1       580-3.15522E+01-7.36285E+03 1.78261E-06
 -1       581-3.18608E+01-9.57630E+03 1.94974E-06
 -1       582-3.19921E+01-1.18045E+04 1.93793E-06
 -1       583 4.53236E+00 2.18133E+02 4.10944E-03
 -1       584 8.32290E+00 6.71765E+02-2.23541E-02
 -1       585 1.12770E+01 1.36031E+03-8.11661E-02
 -1       586 1.34443E+01 2.22728E+03-1.52506E-01
 -1       587 1.48565E+01 3.21897E+03-2.22101E-01
 -1       588 1.55402E+01 4.28360E+03-2.88954E-01
 -1       589 1.55266E+01 5.37141E+03-3.53590E-01
 -1       590 1.48554E+01 6.43506E+03-4.15295E-01
 -1       591 1.35755E+01 7.43033E+03-4.72546E-01
 -1       592 1.17452E+01 8.31672E+03-5.23354E-01
 -1       593 9.43118E+00 9.05812E+03-5.65667E-01
 -1       594 6.70752E+00 9.62332E+03-5.97560E-01
 -1       595 3.65394E+00 9.98650E+03-6.17367E-01
 -1       596 3.54315E-01 1.01275E+04-6.23746E-01
 -1       597-3.10526E+00 1.00323E+04-6.15731E-01
 -1       598-6.63841E+00 9.69256E+03-5.92727E-01
 -1       599-1.01606E+01 9.10622E+03-5.54524E-01
 -1       600-1.35912E+01 8.27688E+03-5.01255E-01
 -1       601-1.68555E+01 7.21357E+03-4.33402E-01
 -1       602-1.98870E+01 5.93027E+03-3.51747E-01
 -1       603-2.26289E+01 4.44526E+03-2.57349E-01
 -1       604-2.50363E+01 2.78039E+03-1.51552E-01
 -1       605-2.70775E+01 9.60183E+02-3.60387E-02
 -1       606-2.87353E+01-9.89113E+02 8.70632E-02
 -1       607-3.00086E+01-3.04062E+03 2.15068E-01
 -1       608-3.09141E+01-5.16797E+03 3.44895E-01
 -1       609-3.14887E+01-7.34666E+03 4.74559E-01
 -1       610-3.17926E+01-9.55557E+03 6.07278E-01
 -1       611-3.19110E+01-1.17786E+04 7.56463E-01
 -1       612-4.53236E+00 2.18133E+02-4.11403E-03
 -1       613-8.32289E+00 6.71765E+02 2.23601E-02
 -1       614-1.12770E+01 1.36031E+03 8.11808E-02
 -1       615-1.34443E+01 2.22728E+03 1.52512E-01
 -1       616-1.48565E+01 3.21897E+03 2.22096E-01
 -1       617-1.55401E+01 4.28360E+03 2.88952E-01
 -1       618-1.55266E+01 5.37141E+03 3.53588E-01
 -1       619-1.48554E+01 6.43506E+03 4.15300E-01
 -1       620-1.35755E+01 7.43033E+03 4.72533E-01
 -1       621-1.17452E+01 8.31672E+03 5.23337E-01
 -1       622-9.43117E+00 9.05812E+03 5.65652E-01
 -1       623-6.70751E+00 9.62332E+03 5.97554E-01
 -1       624-3.65395E+00 9.98650E+03 6.17366E-01
 -1       625-3.54325E-01 1.01275E+04 6.23743E-01
 -1       626 3.10525E+00 1.00323E+04 6.15732E-01
 -1       627 6.63841E+00 9.69256E+03 5.92726E-01
 -1       628 1.01606E+01 9.10622E+03 5.54520E-01
 -1       629 1.35912E+01 8.27688E+03 5.01257E-01
 -1       630 1.68555E+01 7.21357E+03 4.33408E-01
 -1       631 1.98870E+01 5.93027E+03 3.51745E-01
 -1       632 2.26289E+01 4.44526E+03 2.57341E-01
 -1       633 2.50363E+01 2.78039E+03 1.51549E-01
 -1       634 2.70775E+01 9.60183E+02 3.60409E-02
 -1       635 2.87353E+01-9.89113E+02-8.70632E-02
 -1       636 3.00086E+01-3.04062E+03-2.15052E-01
 -1       637 3.09141E+01-5.16797E+03-3.44881E-01
 -1       638 3.14887E+01-7.34666E+03-4.74549E-01
 -1       639 3.17926E+01-9.55557E+03-6.07276E-01
 -1       640 3.19110E+01-1.17786E+04-7.56479E-01
 -1       641-4.53597E+00 2.17938E+02-3.42167E-06
 -1       642-8.34509E+00 6.72436E+02 6.13787E-07
 -1       643-1.13113E+01 1.36302E+03 5.28207E-06
 -1       644-1.34800E+01 2.23246E+03 1.84694E-06
 -1       645-1.48903E+01 3.22655E+03-2.50181E-06
 -1       646-1.55727E+01 4.29347E+03-7.74845E-06
 -1       647-1.55581E+01 5.38349E+03-4.28166E-06
 -1       648-1.48851E+01 6.44927E+03-1.56588E-06
 -1       649-1.36025E+01 7.44650E+03-3.76164E-06
 -1       650-1.17685E+01 8.33464E+03-5.72387E-06
 -1       651-9.44977E+00 9.07750E+03 8.67936E-07
 -1       652-6.72052E+00 9.64380E+03 1.91556E-06
 -1       653-3.66063E+00 1.00077E+04-1.03548E-06
 -1       654-3.54101E-01 1.01489E+04-1.29175E-06
 -1       655 3.11276E+00 1.00534E+04-5.91136E-07
 -1       656 6.65339E+00 9.71288E+03-5.53085E-06
 -1       657 1.01831E+01 9.12524E+03-8.13278E-07
 -1       658 1.36210E+01 8.29408E+03-2.32827E-06
 -1       659 1.68923E+01 7.22845E+03-4.40397E-06
 -1       660 1.99303E+01 5.94235E+03-3.76490E-06
 -1       661 2.26782E+01 4.45411E+03-2.07886E-06
 -1       662 2.50909E+01 2.78561E+03 1.70924E-06
 -1       663 2.71363E+01 9.61454E+02-7.52299E-07
 -1       664 2.87972E+01-9.92057E+02 2.47941E-06
 -1       665 3.00722E+01-3.04794E+03 3.61011E-06
 -1       666 3.09777E+01-5.17973E+03 4.50040E-06
 -1       667 3.15522E+01-7.36285E+03 1.78431E-06
 -1       668 3.18608E+01-9.57630E+03 3.04362E-06
 -1       669 3.19921E+01-1.18045E+04-4.94792E-06
 -1       670-4.53236E+00 2.18133E+02 4.11139E-03
 -1       671-8.32290E+00 6.71765E+02-2.23570E-02
 -1       672-1.12770E+01 1.36031E+03-8.11778E-02
 -1       673-1.34443E+01 2.22728E+03-1.52514E-01
 -1       674-1.48565E+01 3.21897E+03-2.22100E-01
 -1       675-1.55401E+01 4.28360E+03-2.88960E-01
 -1       676-1.55266E+01 5.37141E+03-3.53593E-01
 -1       677-1.48554E+01 6.43506E+03-4.15296E-01
 -1       678-1.35755E+01 7.43033E+03-4.72537E-01
 -1       679-1.17452E+01 8.31672E+03-5.23350E-01
 -1       680-9.43117E+00 9.05812E+03-5.65656E-01
 -1       681-6.70751E+00 9.62332E+03-5.97555E-01
 -1       682-3.65395E+00 9.98650E+03-6.17367E-01
 -1       683-3.54317E-01 1.01275E+04-6.23744E-01
 -1       684 3.10526E+00 1.00323E+04-6.15735E-01
 -1       685 6.63841E+00 9.69256E+03-5.92732E-01
 -1       686 1.01606E+01 9.10622E+03-5.54527E-01
 -1       687 1.35912E+01 8.27688E+03-5.01261E-01
 -1       688 1.68555E+01 7.21357E+03-4.33405E-01
 -1       689 1.98870E+01 5.93027E+03-3.51747E-01
 -1       690 2.26289E+01 4.44526E+03-2.57350E-01
 -1       691 2.50363E+01 2.78039E+03-1.51553E-01
 -1       692 2.70775E+01 9.60183E+02-3.60389E-02
 -1       693 2.87353E+01-9.89113E+02 8.70658E-02
 -1       694 3.00086E+01-3.04062E+03 2.15066E-01
 -1       695 3.09141E+01-5.16797E+03 3.44888E-01
 -1       696 3.14887E+01-7.34666E+03 4.74561E-01
 -1       697 3.17926E+01-9.55557E+03 6.07282E-01
 -1       698 3.19110E+01-1.17786E+04 7.56470E-01
 -1       699 9.27103E+01 1.65263E+02 1.22954E+00
 -1       700 1.80310E+02 4.90243E+02 2.29000E+00
 -1       701 2.50138E+02 9.81039E+02 4.08852E+00
 -1       702 3.01765E+02 1.60008E+03 6.41220E+00
 -1       703 3.35806E+02 2.30915E+03 8.92967E+00
 -1       704 3.52738E+02 3.07104E+03 1.14457E+01
 -1       705 3.53318E+02 3.84988E+03 1.38637E+01
 -1       706 3.38508E+02 4.61161E+03 1.61377E+01
 -1       707 3.09482E+02 5.32443E+03 1.82246E+01
 -1       708 2.67615E+02 5.95929E+03 2.00664E+01
 -1       709 2.14470E+02 6.49028E+03 2.15936E+01
 -1       710 1.51769E+02 6.89504E+03 2.27351E+01
 -1       711 8.13637E+01 7.15507E+03 2.34263E+01
 -1       712 5.19749E+00 7.25595E+03 2.36144E+01
 -1       713-7.47370E+01 7.18753E+03 2.32607E+01
 -1       714-1.56443E+02 6.94397E+03 2.23411E+01
 -1       715-2.37966E+02 6.52373E+03 2.08458E+01
 -1       716-3.17445E+02 5.92939E+03 1.87784E+01
 -1       717-3.93160E+02 5.16740E+03 1.61552E+01
 -1       718-4.63577E+02 4.24780E+03 1.30041E+01
 -1       719-5.27395E+02 3.18367E+03 9.36543E+00
 -1       720-5.83589E+02 1.99065E+03 5.29283E+00
 -1       721-6.31447E+02 6.86291E+02 8.54193E-01
 -1       722-6.70600E+02-7.10657E+02-3.87020E+00
 -1       723-7.01057E+02-2.18101E+03-8.79681E+00
 -1       724-7.23222E+02-3.70600E+03-1.38544E+01
 -1       725-7.37906E+02-5.26810E+03-1.89916E+01
 -1       726-7.46345E+02-6.85195E+03-2.41528E+01
 -1       727-7.50184E+02-8.44527E+03-2.92548E+01
 -1       728 9.26786E+01 1.65318E+02-3.53082E-02
 -1       729 1.80245E+02 4.90416E+02 1.21585E+00
 -1       730 2.50042E+02 9.81394E+02 3.27226E+00
 -1       731 3.01653E+02 1.60066E+03 5.83345E+00
 -1       732 3.35691E+02 2.30999E+03 8.58632E+00
 -1       733 3.52626E+02 3.07213E+03 1.13284E+01
 -1       734 3.53212E+02 3.85122E+03 1.39609E+01
 -1       735 3.38409E+02 4.61317E+03 1.64351E+01
 -1       736 3.09392E+02 5.32620E+03 1.87050E+01
 -1       737 2.67538E+02 5.96124E+03 2.07098E+01
 -1       738 2.14409E+02 6.49238E+03 2.23779E+01
 -1       739 1.51727E+02 6.89726E+03 2.36361E+01
 -1       740 8.13433E+01 7.15735E+03 2.44183E+01
 -1       741 5.20076E+00 7.25826E+03 2.46708E+01
 -1       742-7.47086E+01 7.18980E+03 2.43545E+01
 -1       743-1.56388E+02 6.94616E+03 2.34455E+01
 -1       744-2.37886E+02 6.52578E+03 2.19350E+01
 -1       745-3.17340E+02 5.93123E+03 1.98283E+01
 -1       746-3.93030E+02 5.16900E+03 1.71435E+01
 -1       747-4.63423E+02 4.24909E+03 1.39118E+01
 -1       748-5.27221E+02 3.18460E+03 1.01768E+01
 -1       749-5.83397E+02 1.99119E+03 5.99608E+00
 -1       750-6.31240E+02 6.86401E+02 1.44197E+00
 -1       751-6.70382E+02-7.11005E+02-3.40036E+00
 -1       752-7.00832E+02-2.18184E+03-8.44215E+00
 -1       753-7.22992E+02-3.70731E+03-1.36067E+01
 -1       754-7.37674E+02-5.26991E+03-1.88371E+01
 -1       755-7.46114E+02-6.85426E+03-2.40720E+01
 -1       756-7.49957E+02-8.44806E+03-2.92227E+01
 -1       757 9.26786E+01 1.65318E+02 3.53117E-02
 -1       758 1.80245E+02 4.90416E+02-1.21584E+00
 -1       759 2.50042E+02 9.81394E+02-3.27225E+00
 -1       760 3.01653E+02 1.60066E+03-5.83345E+00
 -1       761 3.35691E+02 2.30999E+03-8.58632E+00
 -1       762 3.52626E+02 3.07213E+03-1.13284E+01
 -1       763 3.53212E+02 3.85122E+03-1.39609E+01
 -1       764 3.38409E+02 4.61317E+03-1.64351E+01
 -1       765 3.09392E+02 5.32620E+03-1.87050E+01
 -1       766 2.67538E+02 5.96124E+03-2.07098E+01
 -1       767 2.14409E+02 6.49238E+03-2.23779E+01
 -1       768 1.51727E+02 6.89726E+03-2.36361E+01
 -1       769 8.13433E+01 7.15735E+03-2.44183E+01
 -1       770 5.20076E+00 7.25826E+03-2.46708E+01
 -1       771-7.47086E+01 7.18980E+03-2.43545E+01
 -1       772-1.56388E+02 6.94616E+03-2.34455E+01
 -1       773-2.37886E+02 6.52578E+03-2.19350E+01
 -1       774-3.17340E+02 5.93123E+03-1.98283E+01
 -1       775-3.93030E+02 5.16900E+03-1.71436E+01
 -1       776-4.63423E+02 4.24909E+03-1.39118E+01
 -1       777-5.27221E+02 3.18460E+03-1.01768E+01
 -1       778-5.83397E+02 1.99119E+03-5.99608E+00
 -1       779-6.31240E+02 6.86401E+02-1.44197E+00
 -1       780-6.70382E+02-7.11005E+02 3.40036E+00
 -1       781-7.00832E+02-2.18184E+03 8.44215E+00
 -1       782-7.22992E+02-3.70731E+03 1.36067E+01
 -1       783-7.37674E+02-5.26991E+03 1.88371E+01
 -1       784-7.46114E+02-6.85426E+03 2.40720E+01
 -1       785-7.49957E+02-8.44806E+03 2.92227E+01
 -1       786 9.27103E+01 1.65263E+02-1.22954E+00
 -1       787 1.80310E+02 4.90243E+02-2.29000E+00
 -1       788 2.50138E+02 9.81039E+02-4.08852E+00
 -1       789 3.01765E+02 1.60008E+03-6.41220E+00
 -1       790 3.35806E+02 2.30915E+03-8.92967E+00
 -1       791 3.52738E+02 3.07104E+03-1.14457E+01
 -1       792 3.53318E+02 3.84988E+03-1.38637E+01
 -1       793 3.38508E+02 4.61161E+03-1.61377E+01
 -1       794 3.09482E+02 5.32443E+03-1.82246E+01
 -1       795 2.67615E+02 5.95929E+03-2.00664E+01
 -1       796 2.14470E+02 6.49028E+03-2.15936E+01
 -1       797 1.51769E+02 6.89504E+03-2.27351E+01
 -1       798 8.13637E+01 7.15507E+03-2.34263E+01
 -1       799 5.19748E+00 7.25595E+03-2.36144E+01
 -1       800-7.47370E+01 7.18753E+03-2.32607E+01
 -1       801-1.56443E+02 6.94397E+03-2.23411E+01
 -1       802-2.37966E+02 6.52373E+03-2.08458E+01
 -1       803-3.17445E+02 5.92939E+03-1.87784E+01
 -1       804-3.93160E+02 5.16740E+03-1.61552E+01
 -1       805-4.63577E+02 4.24780E+03-1.30041E+01
 -1       806-5.27395E+02 3.18367E+03-9.36542E+00
 -1       807-5.83589E+02 1.99065E+03-5.29283E+00
 -1       808-6.31447E+02 6.86291E+02-8.54196E-01
 -1       809-6.70600E+02-7.10657E+02 3.87020E+00
 -1       810-7.01057E+02-2.18101E+03 8.79681E+00
 -1       811-7.23222E+02-3.70600E+03 1.38544E+01
 -1       812-7.37906E+02-5.26810E+03 1.89916E+01
 -1       813-7.46345E+02-6.85195E+03 2.41528E+01
 -1       814-7.50184E+02-8.44527E+03 2.92548E+01
 -1       815-9.27103E+01 1.65263E+02-1.22955E+00
 -1       816-1.80310E+02 4.90243E+02-2.29001E+00
 -1       817-2.50138E+02 9.81039E+02-4.08852E+00
 -1       818-3.01765E+02 1.60008E+03-6.41220E+00
 -1       819-3.35806E+02 2.30915E+03-8.92967E+00
 -1       820-3.52738E+02 3.07104E+03-1.14457E+01
 -1       821-3.53318E+02 3.84988E+03-1.38637E+01
 -1       822-3.38508E+02 4.61161E+03-1.61377E+01
 -1       823-3.09482E+02 5.32443E+03-1.82246E+01
 -1       824-2.67615E+02 5.95929E+03-2.00664E+01
 -1       825-2.14470E+02 6.49028E+03-2.15936E+01
 -1       826-1.51769E+02 6.89504E+03-2.27351E+01
 -1       827-8.13637E+01 7.15507E+03-2.34263E+01
 -1       828-5.19748E+00 7.25595E+03-2.36144E+01
 -1       829 7.47370E+01 7.18753E+03-2.32607E+01
 -1       830 1.56443E+02 6.94397E+03-2.23411E+01
 -1       831 2.37966E+02 6.52373E+03-2.08458E+01
 -1       832 3.17445E+02 5.92939E+03-1.87784E+01
 -1       833 3.93160E+02 5.16740E+03-1.61552E+01
 -1       834 4.63577E+02 4.24780E+03-1.30041E+01
 -1       835 5.27395E+02 3.18367E+03-9.36543E+00
 -1       836 5.83589E+02 1.99065E+03-5.29282E+00
 -1       837 6.31447E+02 6.86291E+02-8.54189E-01
 -1       838 6.70600E+02-7.10657E+02 3.87020E+00
 -1       839 7.01057E+02-2.18101E+03 8.79681E+00
 -1       840 7.23222E+02-3.70600E+03 1.38544E+01
 -1       841 7.37906E+02-5.26810E+03 1.89916E+01
 -1       842 7.46345E+02-6.85195E+03 2.41528E+01
 -1       843 7.50184E+02-8.44527E+03 2.92548E+01
 -1       844-9.26786E+01 1.65318E+02 3.53032E-02
 -1       845-1.80245E+02 4.90416E+02-1.21586E+00
 -1       846-2.50042E+02 9.81394E+02-3.27225E+00
 -1       847-3.01653E+02 1.60066E+03-5.83344E+00
 -1       848-3.35691E+02 2.30999E+03-8.58632E+00
 -1       849-3.52626E+02 3.07213E+03-1.13284E+01
 -1       850-3.53212E+02 3.85122E+03-1.39609E+01
 -1       851-3.38409E+02 4.61317E+03-1.64351E+01
 -1       852-3.09392E+02 5.32620E+03-1.87050E+01
 -1       853-2.67538E+02 5.96124E+03-2.07098E+01
 -1       854-2.14409E+02 6.49238E+03-2.23779E+01
 -1       855-1.51727E+02 6.89726E+03-2.36361E+01
 -1       856-8.13433E+01 7.15735E+03-2.44183E+01
 -1       857-5.20076E+00 7.25826E+03-2.46708E+01
 -1       858 7.47086E+01 7.18980E+03-2.43545E+01
 -1       859 1.56388E+02 6.94616E+03-2.34455E+01
 -1       860 2.37886E+02 6.52578E+03-2.19350E+01
 -1       861 3.17340E+02 5.93123E+03-1.98283E+01
 -1       862 3.93030E+02 5.16900E+03-1.71435E+01
 -1       863 4.63423E+02 4.24909E+03-1.39118E+01
 -1       864 5.27221E+02 3.18460E+03-1.01768E+01
 -1       865 5.83397E+02 1.99119E+03-5.99607E+00
 -1       866 6.31240E+02 6.86401E+02-1.44197E+00
 -1       867 6.70382E+02-7.11005E+02 3.40036E+00
 -1       868 7.00832E+02-2.18184E+03 8.44216E+00
 -1       869 7.22992E+02-3.70731E+03 1.36067E+01
 -1       870 7.37674E+02-5.26991E+03 1.88371E+01
 -1       871 7.46114E+02-6.85426E+03 2.40720E+01
 -1       872 7.49957E+02-8.44806E+03 2.92227E+01
 -1       873 7.50184E+02-8.44527E+03-2.92548E+01
 -1       874 7.46345E+02-6.85195E+03-2.41528E+01
 -1       875 7.37906E+02-5.26810E+03-1.89916E+01
 -1       876 7.23222E+02-3.70600E+03-1.38543E+01
 -1       877 7.01057E+02-2.18101E+03-8.79681E+00
 -1       878 6.70600E+02-7.10657E+02-3.87021E+00
 -1       879 6.31447E+02 6.86291E+02 8.54193E-01
 -1       880 5.83589E+02 1.99065E+03 5.29282E+00
 -1       881 5.27395E+02 3.18367E+03 9.36543E+00
 -1       882 4.63577E+02 4.24780E+03 1.30041E+01
 -1       883 3.93160E+02 5.16740E+03 1.61552E+01
 -1       884 3.17445E+02 5.92939E+03 1.87784E+01
 -1       885 2.37966E+02 6.52373E+03 2.08458E+01
 -1       886 1.56443E+02 6.94397E+03 2.23411E+01
 -1       887 7.47370E+01 7.18753E+03 2.32607E+01
 -1       888-5.19748E+00 7.25595E+03 2.36144E+01
 -1       889-8.13637E+01 7.15507E+03 2.34263E+01
 -1       890-1.51769E+02 6.89504E+03 2.27351E+01
 -1       891-2.14470E+02 6.49028E+03 2.15936E+01
 -1       892-2.67615E+02 5.95929E+03 2.00664E+01
 -1       893-3.09482E+02 5.32443E+03 1.82246E+01
 -1       894-3.38508E+02 4.61161E+03 1.61377E+01
 -1       895-3.53318E+02 3.84988E+03 1.38637E+01
 -1       896-3.52738E+02 3.07104E+03 1.14457E+01
 -1       897-3.35806E+02 2.30915E+03 8.92967E+00
 -1       898-3.01765E+02 1.60008E+03 6.41219E+00
 -1       899-2.50138E+02 9.81039E+02 4.08852E+00
 -1       900-1.80310E+02 4.90243E+02 2.29001E+00
 -1       901-9.27103E+01 1.65263E+02 1.22955E+00
 -1       902-9.26786E+01 1.65318E+02-3.53063E-02
 -1       903-1.80245E+02 4.90416E+02 1.21585E+00
 -1       904-2.50042E+02 9.81394E+02 3.27226E+00
 -1       905-3.01653E+02 1.60066E+03 5.83344E+00
 -1       906-3.35691E+02 2.30999E+03 8.58633E+00
 -1       907-3.52626E+02 3.07213E+03 1.13284E+01
 -1       908-3.53212E+02 3.85122E+03 1.39609E+01
 -1       909-3.38409E+02 4.61317E+03 1.64351E+01
 -1       910-3.09392E+02 5.32620E+03 1.87050E+01
 -1       911-2.67538E+02 5.96124E+03 2.07098E+01
 -1       912-2.14409E+02 6.49238E+03 2.23779E+01
 -1       913-1.51727E+02 6.89726E+03 2.36361E+01
 -1       914-8.13433E+01 7.15735E+03 2.44183E+01
 -1       915-5.20075E+00 7.25826E+03 2.46708E+01
 -1       916 7.47086E+01 7.18980E+03 2.43545E+01
 -1       917 1.56388E+02 6.94616E+03 2.34455E+01
 -1       918 2.37886E+02 6.52578E+03 2.19350E+01
 -1       919 3.17340E+02 5.93123E+03 1.98283E+01
 -1       920 3.93030E+02 5.16900E+03 1.71435E+01
 -1       921 4.63423E+02 4.24909E+03 1.39118E+01
 -1       922 5.27221E+02 3.18460E+03 1.01768E+01
 -1       923 5.83397E+02 1.99119E+03 5.99607E+00
 -1       924 6.31240E+02 6.86401E+02 1.44198E+00
 -1       925 6.70382E+02-7.11005E+02-3.40036E+00
 -1       926 7.00832E+02-2.18184E+03-8.44216E+00
 -1       927 7.22992E+02-3.70731E+03-1.36067E+01
 -1       928 7.37674E+02-5.26991E+03-1.88371E+01
 -1       929 7.46114E+02-6.85426E+03-2.40720E+01
 -1       930 7.49957E+02-8.44806E+03-2.92227E+01
 -3
    1PSTEP                        16           1           1          
    1PGM                1.000000E+00                                  
    1PGK                3.079301E+05                                  
    1PHID                         -1                                  
    1PSUBC                         0                                  
    1PMODE                         4                                  
  100CL  104 88.31738313         930                     2    4MODAL      1
 -4  ERROR       1    1
 -5  STR(%)      1    1    0    0
 -1         1 5.61425E+01
 -1         2 5.61425E+01
 -1         3 6.89573E+01
 -1         4 6.89573E+01
 -1         5 5.61425E+01
 -1         6 5.61425E+01
 -1         7 6.89573E+01
 -1         8 6.89573E+01
 -1         9 5.61425E+01
 -1        10 4.46830E+01
 -1        11 3.46019E+01
 -1        12 3.46019E+01
 -1        13 3.60927E+01
 -1        14 3.60927E+01
 -1        15 5.61425E+01
 -1        16 4.46830E+01
 -1        17 3.46019E+01
 -1        18 3.46019E+01
 -1        19 3.60927E+01
 -1        20 3.60927E+01
 -1        21 3.46019E+01
 -1        22 3.46019E+01
 -1        23 3.60927E+01
 -1        24 3.60927E+01
 -1        25 5.61425E+01
 -1        26 4.46830E+01
 -1        27 5.61425E+01
 -1        28 3.46019E+01
 -1        29 3.46019E+01
 -1        30 4.46830E+01
 -1        31 3.60927E+01
 -1        32 3.60927E+01
 -1        33 6.79347E+01
 -1        34 7.21404E+01
 -1        35 7.85752E+01
 -1        36 7.85752E+01
 -1        37 7.58475E+01
 -1        38 7.58475E+01
 -1        39 7.75501E+01
 -1        40 7.75501E+01
 -1        41 7.59403E+01
 -1        42 7.59403E+01
 -1        43 6.43904E+01
 -1        44 5.48664E+01
 -1        45 4.95626E+01
 -1        46 4.74381E+01
 -1        47 4.55053E+01
 -1        48 4.41631E+01
 -1        49 4.58581E+01
 -1        50 4.75094E+01
 -1        51 4.91556E+01
 -1        52 5.08190E+01
 -1        53 5.42883E+01
 -1        54 6.00862E+01
 -1        55 6.61573E+01
 -1        56 7.22302E+01
 -1        57 7.63155E+01
 -1        58 7.63155E+01
 -1        59 7.52174E+01
 -1        60 6.72680E+01
 -1        61 6.89573E+01
 -1        62 6.79347E+01
 -1        63 7.21404E+01
 -1        64 7.85752E+01
 -1        65 7.85752E+01
 -1        66 7.58475E+01
 -1        67 7.58475E+01
 -1        68 7.75501E+01
 -1        69 7.75501E+01
 -1        70 7.59403E+01
 -1        71 7.59403E+01
 -1        72 6.43904E+01
 -1        73 5.48664E+01
 -1        74 4.95626E+01
 -1        75 4.74381E+01
 -1        76 4.55053E+01
 -1        77 4.41631E+01
 -1        78 4.58581E+01
 -1        79 4.75094E+01
 -1        80 4.91556E+01
 -1        81 5.08190E+01
 -1        82 5.42883E+01
 -1        83 6.00862E+01
 -1        84 6.61573E+01
 -1        85 7.22302E+01
 -1        86 7.63155E+01
 -1        87 7.63155E+01
 -1        88 7.52174E+01
 -1        89 6.72680E+01
 -1        90 6.89573E+01
 -1        91 3.59232E+01
 -1        92 2.83319E+01
 -1        93 3.59232E+01
 -1        94 3.59232E+01
 -1        95 2.83319E+01
 -1        96 3.59232E+01
 -1        97 6.79347E+01
 -1        98 7.21404E+01
 -1        99 7.85752E+01
 -1       100 7.85752E+01
 -1       101 7.58475E+01
 -1       102 7.58475E+01
 -1       103 7.75501E+01
 -1       104 7.75501E+01
 -1       105 7.59403E+01
 -1       106 7.59403E+01
 -1       107 6.43904E+01
 -1       108 5.48664E+01
 -1       109 4.95626E+01
 -1       110 4.74381E+01
 -1       111 4.55053E+01
 -1       112 4.41631E+01
 -1       113 4.58581E+01
 -1       114 4.75094E+01
 -1       115 4.91556E+01
 -1       116 5.08190E+01
 -1       117 5.42883E+01
 -1       118 6.00862E+01
 -1       119 6.61573E+01
 -1       120 7.22302E+01
 -1       121 7.63155E+01
 -1       122 7.63155E+01
 -1       123 7.52174E+01
 -1       124 6.72680E+01
 -1       125 6.89573E+01
 -1       126 6.89573E+01
 -1       127 3.73370E+01
 -1       128 6.89573E+01
 -1       129 6.79347E+01
 -1       130 7.21404E+01
 -1       131 7.85752E+01
 -1       132 7.85752E+01
 -1       133 7.58475E+01
 -1       134 7.58475E+01
 -1       135 7.75501E+01
 -1       136 7.75501E+01
 -1       137 7.59403E+01
 -1       138 7.59403E+01
 -1       139 6.43904E+01
 -1       140 5.48664E+01
 -1       141 4.95626E+01
 -1       142 4.74381E+01
 -1       143 4.55053E+01
 -1       144 4.41631E+01
 -1       145 4.58581E+01
 -1       146 4.75094E+01
 -1       147 4.91556E+01
 -1       148 5.08190E+01
 -1       149 5.42883E+01
 -1       150 6.00862E+01
 -1       151 6.61573E+01
 -1       152 7.22302E+01
 -1       153 7.63155E+01
 -1       154 7.63155E+01
 -1       155 7.52174E+01
 -1       156 6.72680E+01
 -1       157 6.89573E+01
 -1       158 6.89573E+01
 -1       159 3.73370E+01
 -1       160 6.89573E+01
 -1       161 6.79347E+01
 -1       162 7.21404E+01
 -1       163 7.85752E+01
 -1       164 7.85752E+01
 -1       165 7.44552E+01
 -1       166 6.60562E+01
 -1       167 6.61162E+01
 -1       168 7.40556E+01
 -1       169 7.59403E+01
 -1       170 7.59403E+01
 -1       171 6.43904E+01
 -1       172 5.48664E+01
 -1       173 4.95626E+01
 -1       174 4.74381E+01
 -1       175 4.55053E+01
 -1       176 4.41631E+01
 -1       177 4.58581E+01
 -1       178 4.75094E+01
 -1       179 4.91556E+01
 -1       180 5.08190E+01
 -1       181 5.42883E+01
 -1       182 6.00862E+01
 -1       183 6.61573E+01
 -1       184 7.22302E+01
 -1       185 7.63155E+01
 -1       186 7.63155E+01
 -1       187 7.52174E+01
 -1       188 6.72680E+01
 -1       189 5.01310E+01
 -1       190 5.61425E+01
 -1       191 5.61425E+01
 -1       192 4.43498E+01
 -1       193 3.46019E+01
 -1       194 2.28655E+01
 -1       195 2.08208E+01
 -1       196 2.05417E+01
 -1       197 2.03144E+01
 -1       198 4.97109E+01
 -1       199 4.97109E+01
 -1       200 2.08399E+01
 -1       201 2.08399E+01
 -1       202 2.07947E+01
 -1       203 2.06701E+01
 -1       204 2.05574E+01
 -1       205 2.04601E+01
 -1       206 2.03737E+01
 -1       207 2.02936E+01
 -1       208 2.02681E+01
 -1       209 2.03271E+01
 -1       210 2.03830E+01
 -1       211 2.04368E+01
 -1       212 2.04882E+01
 -1       213 2.05355E+01
 -1       214 2.05740E+01
 -1       215 2.05931E+01
 -1       216 2.05931E+01
 -1       217 2.05681E+01
 -1       218 2.04355E+01
 -1       219 2.01237E+01
 -1       220 2.16489E+01
 -1       221 3.60927E+01
 -1       222 3.46019E+01
 -1       223 2.28655E+01
 -1       224 2.08208E+01
 -1       225 2.05417E+01
 -1       226 2.03144E+01
 -1       227 4.97109E+01
 -1       228 4.97109E+01
 -1       229 2.08399E+01
 -1       230 2.08399E+01
 -1       231 2.07947E+01
 -1       232 2.06701E+01
 -1       233 2.05574E+01
 -1       234 2.04601E+01
 -1       235 2.03737E+01
 -1       236 2.02936E+01
 -1       237 2.02681E+01
 -1       238 2.03271E+01
 -1       239 2.03830E+01
 -1       240 2.04368E+01
 -1       241 2.04882E+01
 -1       242 2.05355E+01
 -1       243 2.05740E+01
 -1       244 2.05931E+01
 -1       245 2.05931E+01
 -1       246 2.05681E+01
 -1       247 2.04355E+01
 -1       248 2.01237E+01
 -1       249 2.16489E+01
 -1       250 3.60927E+01
 -1       251 4.43498E+01
 -1       252 5.01310E+01
 -1       253 6.72680E+01
 -1       254 7.52174E+01
 -1       255 7.63155E+01
 -1       256 7.63155E+01
 -1       257 7.22302E+01
 -1       258 6.61573E+01
 -1       259 6.00862E+01
 -1       260 5.42883E+01
 -1       261 5.08190E+01
 -1       262 4.91556E+01
 -1       263 4.75094E+01
 -1       264 4.58581E+01
 -1       265 4.41631E+01
 -1       266 4.55053E+01
 -1       267 4.74381E+01
 -1       268 4.95626E+01
 -1       269 5.48664E+01
 -1       270 6.43904E+01
 -1       271 7.59403E+01
 -1       272 7.59403E+01
 -1       273 7.40556E+01
 -1       274 6.61162E+01
 -1       275 6.60562E+01
 -1       276 7.44552E+01
 -1       277 7.85752E+01
 -1       278 7.85752E+01
 -1       279 7.21404E+01
 -1       280 6.79347E+01
 -1       281 5.61425E+01
 -1       282 5.61425E+01
 -1       283 3.46019E+01
 -1       284 2.28655E+01
 -1       285 2.08208E+01
 -1       286 2.05417E+01
 -1       287 2.03144E+01
 -1       288 4.97109E+01
 -1       289 4.97109E+01
 -1       290 2.08399E+01
 -1       291 2.08399E+01
 -1       292 2.07947E+01
 -1       293 2.06701E+01
 -1       294 2.05574E+01
 -1       295 2.04601E+01
 -1       296 2.03737E+01
 -1       297 2.02936E+01
 -1       298 2.02681E+01
 -1       299 2.03271E+01
 -1       300 2.03830E+01
 -1       301 2.04368E+01
 -1       302 2.04882E+01
 -1       303 2.05355E+01
 -1       304 2.05740E+01
 -1       305 2.05931E+01
 -1       306 2.05931E+01
 -1       307 2.05681E+01
 -1       308 2.04355E+01
 -1       309 2.01237E+01
 -1       310 2.16489E+01
 -1       311 3.60927E+01
 -1       312 4.43498E+01
 -1       313 3.46019E+01
 -1       314 2.28655E+01
 -1       315 2.08208E+01
 -1       316 2.05417E+01
 -1       317 2.03144E+01
 -1       318 4.97109E+01
 -1       319 4.97109E+01
 -1       320 2.08399E+01
 -1       321 2.08399E+01
 -1       322 2.07947E+01
 -1       323 2.06701E+01
 -1       324 2.05574E+01
 -1       325 2.04601E+01
 -1       326 2.03737E+01
 -1       327 2.02936E+01
 -1       328 2.02681E+01
 -1       329 2.03271E+01
 -1       330 2.03830E+01
 -1       331 2.04368E+01
 -1       332 2.04882E+01
 -1       333 2.05355E+01
 -1       334 2.05740E+01
 -1       335 2.05931E+01
 -1       336 2.05931E+01
 -1       337 2.05681E+01
 -1       338 2.04355E+01
 -1       339 2.01237E+01
 -1       340 2.16489E+01
 -1       341 3.60927E+01
 -1       342 4.43498E+01
 -1       343 3.46019E+01
 -1       344 2.28655E+01
 -1       345 2.08208E+01
 -1       346 2.05417E+01
 -1       347 2.03144E+01
 -1       348 4.97109E+01
 -1       349 4.97109E+01
 -1       350 2.08399E+01
 -1       351 2.08399E+01
 -1       352 2.07947E+01
 -1       353 2.06701E+01
 -1       354 2.05574E+01
 -1       355 2.04601E+01
 -1       356 2.03737E+01
 -1       357 2.02936E+01
 -1       358 2.02681E+01
 -1       359 2.03271E+01
 -1       360 2.03830E+01
 -1       361 2.04368E+01
 -1       362 2.04882E+01
 -1       363 2.05355E+01
 -1       364 2.05740E+01
 -1       365 2.05931E+01
 -1       366 2.05931E+01
 -1       367 2.05681E+01
 -1       368 2.04355E+01
 -1       369 2.01237E+01
 -1       370 2.16489E+01
 -1       371 3.60927E+01
 -1       372 3.46019E+01
 -1       373 2.28655E+01
 -1       374 2.08208E+01
 -1       375 2.05417E+01
 -1       376 2.03144E+01
 -1       377 4.97109E+01
 -1       378 4.97109E+01
 -1       379 2.08399E+01
 -1       380 2.08399E+01
 -1       381 2.07947E+01
 -1       382 2.06701E+01
 -1       383 2.05574E+01
 -1       384 2.04601E+01
 -1       385 2.03737E+01
 -1       386 2.02936E+01
 -1       387 2.02681E+01
 -1       388 2.03271E+01
 -1       389 2.03830E+01
 -1       390 2.04368E+01
 -1       391 2.04882E+01
 -1       392 2.05355E+01
 -1       393 2.05740E+01
 -1       394 2.05931E+01
 -1       395 2.05931E+01
 -1       396 2.05681E+01
 -1       397 2.04355E+01
 -1       398 2.01237E+01
 -1       399 2.16489E+01
 -1       400 3.60927E+01
 -1       401 5.61425E+01
 -1       402 5.61425E+01
 -1       403 4.43498E+01
 -1       404 6.79347E+01
 -1       405 7.21404E+01
 -1       406 7.85752E+01
 -1       407 7.85752E+01
 -1       408 7.44552E+01
 -1       409 6.60562E+01
 -1       410 6.61162E+01
 -1       411 7.40556E+01
 -1       412 7.59403E+01
 -1       413 7.59403E+01
 -1       414 6.43904E+01
 -1       415 5.48664E+01
 -1       416 4.95626E+01
 -1       417 4.74381E+01
 -1       418 4.55053E+01
 -1       419 4.41631E+01
 -1       420 4.58581E+01
 -1       421 4.75094E+01
 -1       422 4.91556E+01
 -1       423 5.08190E+01
 -1       424 5.42883E+01
 -1       425 6.00862E+01
 -1       426 6.61573E+01
 -1       427 7.22302E+01
 -1       428 7.63155E+01
 -1       429 7.63155E+01
 -1       430 7.52174E+01
 -1       431 6.72680E+01
 -1       432 5.01310E+01
 -1       433 4.43498E+01
 -1       434 5.61425E+01
 -1       435 5.61425E+01
 -1       436 5.01310E+01
 -1       437 6.72680E+01
 -1       438 7.52174E+01
 -1       439 7.63155E+01
 -1       440 7.63155E+01
 -1       441 7.22302E+01
 -1       442 6.61573E+01
 -1       443 6.00862E+01
 -1       444 5.42883E+01
 -1       445 5.08190E+01
 -1       446 4.91556E+01
 -1       447 4.75094E+01
 -1       448 4.58581E+01
 -1       449 4.41631E+01
 -1       450 4.55053E+01
 -1       451 4.74381E+01
 -1       452 4.95626E+01
 -1       453 5.48664E+01
 -1       454 6.43904E+01
 -1       455 7.59403E+01
 -1       456 7.59403E+01
 -1       457 7.40556E+01
 -1       458 6.61162E+01
 -1       459 6.60562E+01
 -1       460 7.44552E+01
 -1       461 7.85752E+01
 -1       462 7.85752E+01
 -1       463 7.21404E+01
 -1       464 6.79347E+01
 -1       465 4.43498E+01
 -1       466 3.46019E+01
 -1       467 2.28655E+01
 -1       468 2.08208E+01
 -1       469 2.05417E+01
 -1       470 2.03144E+01
 -1       471 4.97109E+01
 -1       472 4.97109E+01
 -1       473 2.08399E+01
 -1       474 2.08399E+01
 -1       475 2.07947E+01
 -1       476 2.06701E+01
 -1       477 2.05574E+01
 -1       478 2.04601E+01
 -1       479 2.03737E+01
 -1       480 2.02936E+01
 -1       481 2.02681E+01
 -1       482 2.03271E+01
 -1       483 2.03830E+01
 -1       484 2.04368E+01
 -1       485 2.04882E+01
 -1       486 2.05355E+01
 -1       487 2.05740E+01
 -1       488 2.05931E+01
 -1       489 2.05931E+01
 -1       490 2.05681E+01
 -1       491 2.04355E+01
 -1       492 2.01237E+01
 -1       493 2.16489E+01
 -1       494 3.60927E+01
 -1       495 3.46019E+01
 -1       496 2.28655E+01
 -1       497 2.08208E+01
 -1       498 2.05417E+01
 -1       499 2.03144E+01
 -1       500 4.97109E+01
 -1       501 4.97109E+01
 -1       502 2.08399E+01
 -1       503 2.08399E+01
 -1       504 2.07947E+01
 -1       505 2.06701E+01
 -1       506 2.05574E+01
 -1       507 2.04601E+01
 -1       508 2.03737E+01
 -1       509 2.02936E+01
 -1       510 2.02681E+01
 -1       511 2.03271E+01
 -1       512 2.03830E+01
 -1       513 2.04368E+01
 -1       514 2.04882E+01
 -1       515 2.05355E+01
 -1       516 2.05740E+01
 -1       517 2.05931E+01
 -1       518 2.05931E+01
 -1       519 2.05681E+01
 -1       520 2.04355E+01
 -1       521 2.01237E+01
 -1       522 2.16489E+01
 -1       523 3.60927E+01
 -1       524 4.43498E+01
 -1       525 4.22919E+01
 -1       526 4.49539E+01
 -1       527 5.09689E+01
 -1       528 6.13758E+01
 -1       529 7.58475E+01
 -1       530 7.58475E+01
 -1       531 7.75501E+01
 -1       532 7.75501E+01
 -1       533 5.89549E+01
 -1       534 4.79799E+01
 -1       535 4.11062E+01
 -1       536 3.62329E+01
 -1       537 3.24455E+01
 -1       538 2.92810E+01
 -1       539 2.64724E+01
 -1       540 2.47455E+01
 -1       541 2.68244E+01
 -1       542 2.90887E+01
 -1       543 3.14014E+01
 -1       544 3.38435E+01
 -1       545 3.65070E+01
 -1       546 3.95084E+01
 -1       547 4.30070E+01
 -1       548 4.72306E+01
 -1       549 5.24391E+01
 -1       550 5.80183E+01
 -1       551 5.80183E+01
 -1       552 6.10891E+01
 -1       553 6.89573E+01
 -1       554 3.01361E+01
 -1       555 3.14622E+01
 -1       556 3.34350E+01
 -1       557 3.66739E+01
 -1       558 3.90203E+01
 -1       559 4.09647E+01
 -1       560 4.58036E+01
 -1       561 4.58036E+01
 -1       562 3.81052E+01
 -1       563 3.36123E+01
 -1       564 3.08065E+01
 -1       565 2.88484E+01
 -1       566 2.73538E+01
 -1       567 2.61270E+01
 -1       568 2.50938E+01
 -1       569 2.45371E+01
 -1       570 2.51792E+01
 -1       571 2.59760E+01
 -1       572 2.67933E+01
 -1       573 2.76465E+01
 -1       574 2.85365E+01
 -1       575 2.94164E+01
 -1       576 3.00681E+01
 -1       577 3.00681E+01
 -1       578 2.96135E+01
 -1       579 2.46782E+01
 -1       580 2.19713E+01
 -1       581 3.49902E+01
 -1       582 3.73370E+01
 -1       583 4.22919E+01
 -1       584 4.49539E+01
 -1       585 5.09689E+01
 -1       586 6.13758E+01
 -1       587 7.58475E+01
 -1       588 7.58475E+01
 -1       589 7.75501E+01
 -1       590 7.75501E+01
 -1       591 5.89549E+01
 -1       592 4.79799E+01
 -1       593 4.11062E+01
 -1       594 3.62329E+01
 -1       595 3.24455E+01
 -1       596 2.92810E+01
 -1       597 2.64724E+01
 -1       598 2.47455E+01
 -1       599 2.68244E+01
 -1       600 2.90887E+01
 -1       601 3.14014E+01
 -1       602 3.38435E+01
 -1       603 3.65070E+01
 -1       604 3.95084E+01
 -1       605 4.30070E+01
 -1       606 4.72306E+01
 -1       607 5.24391E+01
 -1       608 5.80183E+01
 -1       609 5.80183E+01
 -1       610 6.10891E+01
 -1       611 6.89573E+01
 -1       612 4.22919E+01
 -1       613 4.49539E+01
 -1       614 5.09689E+01
 -1       615 6.13758E+01
 -1       616 7.58475E+01
 -1       617 7.58475E+01
 -1       618 7.75501E+01
 -1       619 7.75501E+01
 -1       620 5.89549E+01
 -1       621 4.79799E+01
 -1       622 4.11062E+01
 -1       623 3.62329E+01
 -1       624 3.24455E+01
 -1       625 2.92810E+01
 -1       626 2.64724E+01
 -1       627 2.47455E+01
 -1       628 2.68244E+01
 -1       629 2.90887E+01
 -1       630 3.14014E+01
 -1       631 3.38435E+01
 -1       632 3.65070E+01
 -1       633 3.95084E+01
 -1       634 4.30070E+01
 -1       635 4.72306E+01
 -1       636 5.24391E+01
 -1       637 5.80183E+01
 -1       638 5.80183E+01
 -1       639 6.10891E+01
 -1       640 6.89573E+01
 -1       641 3.01361E+01
 -1       642 3.14622E+01
 -1       643 3.34350E+01
 -1       644 3.66739E+01
 -1       645 3.90203E+01
 -1       646 4.09647E+01
 -1       647 4.58036E+01
 -1       648 4.58036E+01
 -1       649 3.81052E+01
 -1       650 3.36123E+01
 -1       651 3.08065E+01
 -1       652 2.88484E+01
 -1       653 2.73538E+01
 -1       654 2.61270E+01
 -1       655 2.50938E+01
 -1       656 2.45371E+01
 -1       657 2.51792E+01
 -1       658 2.59760E+01
 -1       659 2.67933E+01
 -1       660 2.76465E+01
 -1       661 2.85365E+01
 -1       662 2.94164E+01
 -1       663 3.00681E+01
 -1       664 3.00681E+01
 -1       665 2.96135E+01
 -1       666 2.46782E+01
 -1       667 2.19713E+01
 -1       668 3.49902E+01
 -1       669 3.73370E+01
 -1       670 4.22919E+01
 -1       671 4.49539E+01
 -1       672 5.09689E+01
 -1       673 6.13758E+01
 -1       674 7.58475E+01
 -1       675 7.58475E+01
 -1       676 7.75501E+01
 -1       677 7.75501E+01
 -1       678 5.89549E+01
 -1       679 4.79799E+01
 -1       680 4.11062E+01
 -1       681 3.62329E+01
 -1       682 3.24455E+01
 -1       683 2.92810E+01
 -1       684 2.64724E+01
 -1       685 2.47455E+01
 -1       686 2.68244E+01
 -1       687 2.90887E+01
 -1       688 3.14014E+01
 -1       689 3.38435E+01
 -1       690 3.65070E+01
 -1       691 3.95084E+01
 -1       692 4.30070E+01
 -1       693 4.72306E+01
 -1       694 5.24391E+01
 -1       695 5.80183E+01
 -1       696 5.80183E+01
 -1       697 6.10891E+01
 -1       698 6.89573E+01
 -1       699 5.61425E+01
 -1       700 5.57878E+01
 -1       701 5.59660E+01
 -1       702 5.59660E+01
 -1       703 5.17161E+01
 -1       704 4.97109E+01
 -1       705 4.97109E+01
 -1       706 5.30768E+01
 -1       707 5.58772E+01
 -1       708 5.58772E+01
 -1       709 5.43281E+01
 -1       710 5.19059E+01
 -1       711 4.95626E+01
 -1       712 4.74381E+01
 -1       713 4.55053E+01
 -1       714 4.41631E+01
 -1       715 4.58581E+01
 -1       716 4.75094E+01
 -1       717 4.91556E+01
 -1       718 5.08190E+01
 -1       719 5.24934E+01
 -1       720 5.41109E+01
 -1       721 5.54612E+01
 -1       722 5.60947E+01
 -1       723 5.61991E+01
 -1       724 5.61991E+01
 -1       725 5.41715E+01
 -1       726 4.92554E+01
 -1       727 4.43498E+01
 -1       728 5.61425E+01
 -1       729 5.57878E+01
 -1       730 5.59660E+01
 -1       731 5.59660E+01
 -1       732 5.17161E+01
 -1       733 4.97109E+01
 -1       734 4.97109E+01
 -1       735 5.30768E+01
 -1       736 5.58772E+01
 -1       737 5.58772E+01
 -1       738 5.43281E+01
 -1       739 5.19059E+01
 -1       740 4.95626E+01
 -1       741 4.74381E+01
 -1       742 4.55053E+01
 -1       743 4.41631E+01
 -1       744 4.58581E+01
 -1       745 4.75094E+01
 -1       746 4.91556E+01
 -1       747 5.08190E+01
 -1       748 5.24934E+01
 -1       749 5.41109E+01
 -1       750 5.54612E+01
 -1       751 5.60947E+01
 -1       752 5.61991E+01
 -1       753 5.61991E+01
 -1       754 5.41715E+01
 -1       755 4.92554E+01
 -1       756 4.43498E+01
 -1       757 5.61425E+01
 -1       758 5.57878E+01
 -1       759 5.59660E+01
 -1       760 5.59660E+01
 -1       761 5.17161E+01
 -1       762 4.97109E+01
 -1       763 4.97109E+01
 -1       764 5.30768E+01
 -1       765 5.58772E+01
 -1       766 5.58772E+01
 -1       767 5.43281E+01
 -1       768 5.19059E+01
 -1       769 4.95626E+01
 -1       770 4.74381E+01
 -1       771 4.55053E+01
 -1       772 4.41631E+01
 -1       773 4.58581E+01
 -1       774 4.75094E+01
 -1       775 4.91556E+01
 -1       776 5.08190E+01
 -1       777 5.24934E+01
 -1       778 5.41109E+01
 -1       779 5.54612E+01
 -1       780 5.60947E+01
 -1       781 5.61991E+01
 -1       782 5.61991E+01
 -1       783 5.41715E+01
 -1       784 4.92554E+01
 -1       785 4.43498E+01
 -1       786 5.61425E+01
 -1       787 5.57878E+01
 -1       788 5.59660E+01
 -1       789 5.59660E+01
 -1       790 5.17161E+01
 -1       791 4.97109E+01
 -1       792 4.97109E+01
 -1       793 5.30768E+01
 -1       794 5.58772E+01
 -1       795 5.58772E+01
 -1       796 5.43281E+01
 -1       797 5.19059E+01
 -1       798 4.95626E+01
 -1       799 4.74381E+01
 -1       800 4.55053E+01
 -1       801 4.41631E+01
 -1       802 4.58581E+01
 -1       803 4.75094E+01
 -1       804 4.91556E+01
 -1       805 5.08190E+01
 -1       806 5.24934E+01
 -1       807 5.41109E+01
 -1       808 5.54612E+01
 -1       809 5.60947E+01
 -1       810 5.61991E+01
 -1       811 5.61991E+01
 -1       812 5.41715E+01
 -1       813 4.92554E+01
 -1       814 4.43498E+01
 -1       815 5.61425E+01
 -1       816 5.57878E+01
 -1       817 5.59660E+01
 -1       818 5.59660E+01
 -1       819 5.17161E+01
 -1       820 4.97109E+01
 -1       821 4.97109E+01
 -1       822 5.30768E+01
 -1       823 5.58772E+01
 -1       824 5.58772E+01
 -1       825 5.43281E+01
 -1       826 5.19059E+01
 -1       827 4.95626E+01
 -1       828 4.74381E+01
 -1       829 4.55053E+01
 -1       830 4.41631E+01
 -1       831 4.58581E+01
 -1       832 4.75094E+01
 -1       833 4.91556E+01
 -1       834 5.08190E+01
 -1       835 5.24934E+01
 -1       836 5.41109E+01
 -1       837 5.54612E+01
 -1       838 5.60947E+01
 -1       839 5.61991E+01
 -1       840 5.61991E+01
 -1       841 5.41715E+01
 -1       842 4.92554E+01
 -1       843 4.43498E+01
 -1       844 5.61425E+01
 -1       845 5.57878E+01
 -1       846 5.59660E+01
 -1       847 5.59660E+01
 -1       848 5.17161E+01
 -1       849 4.97109E+01
 -1       850 4.97109E+01
 -1       851 5.30768E+01
 -1       852 5.58772E+01
 -1       853 5.58772E+01
 -1       854 5.43281E+01
 -1       855 5.19059E+01
 -1       856 4.95626E+01
 -1       857 4.74381E+01
 -1       858 4.55053E+01
 -1       859 4.41631E+01
 -1       860 4.58581E+01
 -1       861 4.75094E+01
 -1       862 4.91556E+01
 -1       863 5.08190E+01
 -1       864 5.24934E+01
 -1       865 5.41109E+01
 -1       866 5.54612E+01
 -1       867 5.60947E+01
 -1       868 5.61991E+01
 -1       869 5.61991E+01
 -1       870 5.41715E+01
 -1       871 4.92554E+01
 -1       872 4.43498E+01
 -1       873 4.43498E+01
 -1       874 4.92554E+01
 -1       875 5.41715E+01
 -1       876 5.61991E+01
 -1       877 5.61991E+01
 -1       878 5.60947E+01
 -1       879 5.54612E+01
 -1       880 5.41109E+01
 -1       881 5.24934E+01
 -1       882 5.08190E+01
 -1       883 4.91556E+01
 -1       884 4.75094E+01
 -1       885 4.58581E+01
 -1       886 4.41631E+01
 -1       887 4.55053E+01
 -1       888 4.74381E+01
 -1       889 4.95626E+01
 -1       890 5.19059E+01
 -1       891 5.43281E+01
 -1       892 5.58772E+01
 -1       893 5.58772E+01
 -1       894 5.30768E+01
 -1       895 4.97109E+01
 -1       896 4.97109E+01
 -1       897 5.17161E+01
 -1       898 5.59660E+01
 -1       899 5.59660E+01
 -1       900 5.57878E+01
 -1       901 5.61425E+01
 -1       902 5.61425E+01
 -1       903 5.57878E+01
 -1       904 5.59660E+01
 -1       905 5.59660E+01
 -1       906 5.17161E+01
 -1       907 4.97109E+01
 -1       908 4.97109E+01
 -1       909 5.30768E+01
 -1       910 5.58772E+01
 -1       911 5.58772E+01
 -1       912 5.43281E+01
 -1       913 5.19059E+01
 -1       914 4.95626E+01
 -1       915 4.74381E+01
 -1       916 4.55053E+01
 -1       917 4.41631E+01
 -1       918 4.58581E+01
 -1       919 4.75094E+01
 -1       920 4.91556E+01
 -1       921 5.08190E+01
 -1       922 5.24934E+01
 -1       923 5.41109E+01
 -1       924 5.54612E+01
 -1       925 5.60947E+01
 -1       926 5.61991E+01
 -1       927 5.61991E+01
 -1       928 5.41715E+01
 -1       929 4.92554E+01
 -1       930 4.43498E+01
 -3
    1PSTEP                        17           1           1          
    1PGM                1.000000E+00                                  
    1PGK                4.427982E+05                                  
    1PHID                         -1                                  
    1PSUBC                         0                                  
    1PMODE                         5                                  
  100CL  105 105.9066076         930                     2    5MODAL      1
 -4  DISP        4    1
 -5  D1          1    2    1    0
 -5  D2          1    2    2    0
 -5  D3          1    2    3    0
 -5  ALL         1    2    0    0    1ALL
 -1         1 0.00000E+00 0.00000E+00 0.00000E+00
 -1         2 0.00000E+00 0.00000E+00 0.00000E+00
 -1         3-1.07241E-03-1.60478E-01 3.61757E-03
 -1         4 1.07241E-03-1.60478E-01-3.61757E-03
 -1         5 0.00000E+00 0.00000E+00 0.00000E+00
 -1         6 0.00000E+00 0.00000E+00 0.00000E+00
 -1         7 1.07241E-03 1.60478E-01 3.61757E-03
 -1         8-1.07241E-03 1.60478E-01-3.61757E-03
 -1         9 0.00000E+00 0.00000E+00 0.00000E+00
 -1        10-1.04631E-03-1.71574E-01 3.58738E-03
 -1        11 0.00000E+00 0.00000E+00 0.00000E+00
 -1        12 0.00000E+00 0.00000E+00 0.00000E+00
 -1        13-2.21586E-02-1.71467E-01 7.32742E-02
 -1        14-2.33649E-02-1.60578E-01 7.32770E-02
 -1        15 0.00000E+00 0.00000E+00 0.00000E+00
 -1        16 1.04631E-03 1.71574E-01 3.58738E-03
 -1        17 0.00000E+00 0.00000E+00 0.00000E+00
 -1        18 0.00000E+00 0.00000E+00 0.00000E+00
 -1        19 2.33649E-02 1.60578E-01 7.32770E-02
 -1        20 2.21586E-02 1.71467E-01 7.32742E-02
 -1        21 0.00000E+00 0.00000E+00 0.00000E+00
 -1        22 0.00000E+00 0.00000E+00 0.00000E+00
 -1        23 2.21586E-02-1.71467E-01-7.32742E-02
 -1        24 2.33649E-02-1.60578E-01-7.32770E-02
 -1        25 0.00000E+00 0.00000E+00 0.00000E+00
 -1        26 1.04631E-03-1.71574E-01-3.58738E-03
 -1        27 0.00000E+00 0.00000E+00 0.00000E+00
 -1        28 0.00000E+00 0.00000E+00 0.00000E+00
 -1        29 0.00000E+00 0.00000E+00 0.00000E+00
 -1        30-1.04631E-03 1.71574E-01-3.58738E-03
 -1        31-2.21586E-02 1.71467E-01-7.32742E-02
 -1        32-2.33649E-02 1.60578E-01-7.32770E-02
 -1        33-1.59084E-04 2.01021E-03 4.86583E-05
 -1        34-2.92480E-04 7.42351E-03 1.75914E-04
 -1        35-3.94427E-04 1.55091E-02 3.63345E-04
 -1        36-4.68717E-04 2.56106E-02 5.95654E-04
 -1        37-5.16052E-04 3.71022E-02 8.59311E-04
 -1        38-5.37092E-04 4.93668E-02 1.14048E-03
 -1        39-5.33414E-04 6.18189E-02 1.42608E-03
 -1        40-5.06594E-04 7.39074E-02 1.70348E-03
 -1        41-4.58602E-04 8.51224E-02 1.96092E-03
 -1        42-3.91674E-04 9.50021E-02 2.18773E-03
 -1        43-3.08318E-04 1.03140E-01 2.37452E-03
 -1        44-2.11270E-04 1.09188E-01 2.51329E-03
 -1        45-1.03445E-04 1.12866E-01 2.59755E-03
 -1        46 1.21234E-05 1.13961E-01 2.62239E-03
 -1        47 1.32350E-04 1.12331E-01 2.58453E-03
 -1        48 2.54167E-04 1.07904E-01 2.48232E-03
 -1        49 3.74600E-04 1.00679E-01 2.31573E-03
 -1        50 4.90846E-04 9.07210E-02 2.08627E-03
 -1        51 6.00344E-04 7.81585E-02 1.79686E-03
 -1        52 7.00849E-04 6.31741E-02 1.45171E-03
 -1        53 7.90501E-04 4.59984E-02 1.05609E-03
 -1        54 8.67883E-04 2.69002E-02 6.16076E-04
 -1        55 9.32087E-04 6.17546E-03 1.38254E-04
 -1        56 9.82771E-04-1.58649E-02-3.70537E-04
 -1        57 1.02025E-03-3.89094E-02-9.03270E-04
 -1        58 1.04556E-03-6.26632E-02-1.45225E-03
 -1        59 1.06056E-03-8.68669E-02-2.00830E-03
 -1        60 1.06796E-03-1.11319E-01-2.55943E-03
 -1        61 1.06981E-03-1.35880E-01-3.09707E-03
 -1        62 1.59084E-04 2.01021E-03-4.86583E-05
 -1        63 2.92480E-04 7.42351E-03-1.75914E-04
 -1        64 3.94427E-04 1.55091E-02-3.63345E-04
 -1        65 4.68717E-04 2.56106E-02-5.95654E-04
 -1        66 5.16052E-04 3.71022E-02-8.59311E-04
 -1        67 5.37092E-04 4.93668E-02-1.14048E-03
 -1        68 5.33414E-04 6.18189E-02-1.42608E-03
 -1        69 5.06594E-04 7.39074E-02-1.70348E-03
 -1        70 4.58602E-04 8.51224E-02-1.96092E-03
 -1        71 3.91674E-04 9.50021E-02-2.18773E-03
 -1        72 3.08318E-04 1.03140E-01-2.37452E-03
 -1        73 2.11270E-04 1.09188E-01-2.51329E-03
 -1        74 1.03445E-04 1.12866E-01-2.59755E-03
 -1        75-1.21234E-05 1.13961E-01-2.62239E-03
 -1        76-1.32350E-04 1.12331E-01-2.58453E-03
 -1        77-2.54167E-04 1.07904E-01-2.48232E-03
 -1        78-3.74600E-04 1.00679E-01-2.31573E-03
 -1        79-4.90846E-04 9.07210E-02-2.08627E-03
 -1        80-6.00344E-04 7.81585E-02-1.79686E-03
 -1        81-7.00849E-04 6.31741E-02-1.45171E-03
 -1        82-7.90501E-04 4.59984E-02-1.05609E-03
 -1        83-8.67883E-04 2.69002E-02-6.16076E-04
 -1        84-9.32087E-04 6.17546E-03-1.38254E-04
 -1        85-9.82771E-04-1.58649E-02 3.70537E-04
 -1        86-1.02025E-03-3.89094E-02 9.03270E-04
 -1        87-1.04556E-03-6.26632E-02 1.45225E-03
 -1        88-1.06056E-03-8.68669E-02 2.00830E-03
 -1        89-1.06796E-03-1.11319E-01 2.55943E-03
 -1        90-1.06981E-03-1.35880E-01 3.09707E-03
 -1        91 0.00000E+00 0.00000E+00 0.00000E+00
 -1        92 0.00000E+00 0.00000E+00 0.00000E+00
 -1        93 0.00000E+00 0.00000E+00 0.00000E+00
 -1        94 0.00000E+00 0.00000E+00 0.00000E+00
 -1        95 0.00000E+00 0.00000E+00 0.00000E+00
 -1        96 0.00000E+00 0.00000E+00 0.00000E+00
 -1        97-1.59084E-04-2.01021E-03-4.86583E-05
 -1        98-2.92480E-04-7.42351E-03-1.75914E-04
 -1        99-3.94427E-04-1.55091E-02-3.63345E-04
 -1       100-4.68717E-04-2.56106E-02-5.95654E-04
 -1       101-5.16052E-04-3.71022E-02-8.59311E-04
 -1       102-5.37092E-04-4.93668E-02-1.14048E-03
 -1       103-5.33414E-04-6.18189E-02-1.42608E-03
 -1       104-5.06594E-04-7.39074E-02-1.70348E-03
 -1       105-4.58602E-04-8.51224E-02-1.96092E-03
 -1       106-3.91674E-04-9.50021E-02-2.18773E-03
 -1       107-3.08318E-04-1.03140E-01-2.37452E-03
 -1       108-2.11270E-04-1.09188E-01-2.51329E-03
 -1       109-1.03445E-04-1.12866E-01-2.59755E-03
 -1       110 1.21234E-05-1.13961E-01-2.62239E-03
 -1       111 1.32350E-04-1.12331E-01-2.58453E-03
 -1       112 2.54167E-04-1.07904E-01-2.48232E-03
 -1       113 3.74600E-04-1.00679E-01-2.31573E-03
 -1       114 4.90846E-04-9.07210E-02-2.08627E-03
 -1       115 6.00344E-04-7.81585E-02-1.79686E-03
 -1       116 7.00849E-04-6.31741E-02-1.45171E-03
 -1       117 7.90501E-04-4.59984E-02-1.05609E-03
 -1       118 8.67883E-04-2.69002E-02-6.16076E-04
 -1       119 9.32087E-04-6.17546E-03-1.38254E-04
 -1       120 9.82771E-04 1.58649E-02 3.70537E-04
 -1       121 1.02025E-03 3.89094E-02 9.03270E-04
 -1       122 1.04556E-03 6.26632E-02 1.45225E-03
 -1       123 1.06056E-03 8.68669E-02 2.00830E-03
 -1       124 1.06796E-03 1.11319E-01 2.55943E-03
 -1       125 1.06981E-03 1.35880E-01 3.09707E-03
 -1       126-5.40734E-04-8.08971E-02 3.70729E-03
 -1       127-7.36793E-13 2.70479E-11 3.73798E-03
 -1       128 5.40734E-04 8.08971E-02 3.70729E-03
 -1       129 1.59084E-04-2.01021E-03 4.86583E-05
 -1       130 2.92480E-04-7.42351E-03 1.75914E-04
 -1       131 3.94427E-04-1.55091E-02 3.63345E-04
 -1       132 4.68717E-04-2.56106E-02 5.95654E-04
 -1       133 5.16052E-04-3.71022E-02 8.59311E-04
 -1       134 5.37092E-04-4.93668E-02 1.14048E-03
 -1       135 5.33414E-04-6.18189E-02 1.42608E-03
 -1       136 5.06594E-04-7.39074E-02 1.70348E-03
 -1       137 4.58602E-04-8.51224E-02 1.96092E-03
 -1       138 3.91674E-04-9.50021E-02 2.18773E-03
 -1       139 3.08318E-04-1.03140E-01 2.37452E-03
 -1       140 2.11270E-04-1.09188E-01 2.51329E-03
 -1       141 1.03445E-04-1.12866E-01 2.59755E-03
 -1       142-1.21234E-05-1.13961E-01 2.62239E-03
 -1       143-1.32350E-04-1.12331E-01 2.58453E-03
 -1       144-2.54167E-04-1.07904E-01 2.48232E-03
 -1       145-3.74600E-04-1.00679E-01 2.31573E-03
 -1       146-4.90846E-04-9.07210E-02 2.08627E-03
 -1       147-6.00344E-04-7.81585E-02 1.79686E-03
 -1       148-7.00849E-04-6.31741E-02 1.45171E-03
 -1       149-7.90501E-04-4.59984E-02 1.05609E-03
 -1       150-8.67883E-04-2.69002E-02 6.16076E-04
 -1       151-9.32087E-04-6.17546E-03 1.38254E-04
 -1       152-9.82771E-04 1.58649E-02-3.70537E-04
 -1       153-1.02025E-03 3.89094E-02-9.03270E-04
 -1       154-1.04556E-03 6.26632E-02-1.45225E-03
 -1       155-1.06056E-03 8.68669E-02-2.00830E-03
 -1       156-1.06796E-03 1.11319E-01-2.55943E-03
 -1       157-1.06981E-03 1.35880E-01-3.09707E-03
 -1       158-5.40734E-04 8.08971E-02-3.70729E-03
 -1       159-1.13495E-12 2.70469E-11-3.73798E-03
 -1       160 5.40734E-04-8.08971E-02-3.70729E-03
 -1       161 1.32589E-04 2.17085E-03-4.74661E-05
 -1       162 2.67413E-04 7.99433E-03-1.79217E-04
 -1       163 3.66836E-04 1.66712E-02-3.65558E-04
 -1       164 4.39467E-04 2.75006E-02-5.98145E-04
 -1       165 4.86279E-04 3.98155E-02-8.61182E-04
 -1       166 5.07568E-04 5.29580E-02-1.14181E-03
 -1       167 5.04992E-04 6.63023E-02-1.42687E-03
 -1       168 4.80080E-04 7.92578E-02-1.70382E-03
 -1       169 4.34741E-04 9.12776E-02-1.96087E-03
 -1       170 3.71138E-04 1.01867E-01-2.18735E-03
 -1       171 2.91687E-04 1.10588E-01-2.37386E-03
 -1       172 1.99019E-04 1.17070E-01-2.51238E-03
 -1       173 9.59352E-05 1.21011E-01-2.59643E-03
 -1       174-1.46536E-05 1.22183E-01-2.62111E-03
 -1       175-1.29787E-04 1.20432E-01-2.58312E-03
 -1       176-2.46526E-04 1.15683E-01-2.48083E-03
 -1       177-3.62022E-04 1.07935E-01-2.31418E-03
 -1       178-4.73593E-04 9.72569E-02-2.08469E-03
 -1       179-5.78790E-04 8.37859E-02-1.79528E-03
 -1       180-6.75472E-04 6.77182E-02-1.45015E-03
 -1       181-7.61863E-04 4.93008E-02-1.05456E-03
 -1       182-8.36618E-04 2.88212E-02-6.14531E-04
 -1       183-8.98881E-04 6.59534E-03-1.36570E-04
 -1       184-9.48350E-04-1.70453E-02 3.72604E-04
 -1       185-9.85378E-04-4.17676E-02 9.06002E-04
 -1       186-1.01108E-03-6.72497E-02 1.45558E-03
 -1       187-1.02735E-03-9.31949E-02 2.01114E-03
 -1       188-1.03704E-03-1.19342E-01 2.55807E-03
 -1       189-1.04106E-03-1.45501E-01 3.08438E-03
 -1       190 0.00000E+00 0.00000E+00 0.00000E+00
 -1       191 0.00000E+00 0.00000E+00 0.00000E+00
 -1       192-1.15587E-02-1.71491E-01 3.86252E-02
 -1       193 2.99806E-03 2.65218E-03-9.91063E-04
 -1       194 5.72519E-03 8.33086E-03-3.78288E-03
 -1       195 7.84041E-03 1.69286E-02-7.75004E-03
 -1       196 9.38696E-03 2.76819E-02-1.26166E-02
 -1       197 1.03710E-02 3.99194E-02-1.81090E-02
 -1       198 1.08196E-02 5.29884E-02-2.39651E-02
 -1       199 1.07601E-02 6.62636E-02-2.99161E-02
 -1       200 1.02271E-02 7.91553E-02-3.56997E-02
 -1       201 9.26051E-03 9.11174E-02-4.10695E-02
 -1       202 7.90642E-03 1.01655E-01-4.58012E-02
 -1       203 6.21604E-03 1.10333E-01-4.96973E-02
 -1       204 4.24524E-03 1.16780E-01-5.25900E-02
 -1       205 2.05351E-03 1.20695E-01-5.43433E-02
 -1       206-2.97322E-04 1.21848E-01-5.48542E-02
 -1       207-2.74435E-03 1.20088E-01-5.40541E-02
 -1       208-5.22512E-03 1.15339E-01-5.19082E-02
 -1       209-7.67911E-03 1.07598E-01-4.84156E-02
 -1       210-1.00493E-02 9.69349E-02-4.36078E-02
 -1       211-1.22836E-02 8.34858E-02-3.75461E-02
 -1       212-1.43364E-02 6.74457E-02-3.03184E-02
 -1       213-1.61701E-02 4.90606E-02-2.20339E-02
 -1       214-1.77557E-02 2.86164E-02-1.28167E-02
 -1       215-1.90750E-02 6.42730E-03-2.79819E-03
 -1       216-2.01215E-02-1.71773E-02 7.88699E-03
 -1       217-2.09027E-02-4.18662E-02 1.90941E-02
 -1       218-2.14431E-02-6.73188E-02 3.06391E-02
 -1       219-2.17857E-02-9.32365E-02 4.22418E-02
 -1       220-2.19873E-02-1.19355E-01 5.34817E-02
 -1       221-2.21087E-02-1.45474E-01 6.38767E-02
 -1       222 3.26455E-03 2.49342E-03-1.15985E-03
 -1       223 6.17507E-03 7.75527E-03-3.87921E-03
 -1       224 8.42562E-03 1.57572E-02-7.83318E-03
 -1       225 1.00714E-02 2.57823E-02-1.26713E-02
 -1       226 1.11205E-02 3.71980E-02-1.81404E-02
 -1       227 1.15992E-02 4.93907E-02-2.39733E-02
 -1       228 1.15346E-02 6.17753E-02-2.99025E-02
 -1       229 1.09631E-02 7.38011E-02-3.56661E-02
 -1       230 9.92704E-03 8.49593E-02-4.10177E-02
 -1       231 8.47576E-03 9.47889E-02-4.57333E-02
 -1       232 6.66421E-03 1.02884E-01-4.96157E-02
 -1       233 4.55230E-03 1.08898E-01-5.24973E-02
 -1       234 2.20377E-03 1.12550E-01-5.42422E-02
 -1       235-3.15109E-04 1.13627E-01-5.47475E-02
 -1       236-2.93697E-03 1.11988E-01-5.39445E-02
 -1       237-5.59486E-03 1.07560E-01-5.17985E-02
 -1       238-8.22394E-03 1.00343E-01-4.83084E-02
 -1       239-1.07631E-02 9.04012E-02-4.35056E-02
 -1       240-1.31564E-02 7.78611E-02-3.74510E-02
 -1       241-1.53553E-02 6.29048E-02-3.02322E-02
 -1       242-1.73196E-02 4.57618E-02-2.19581E-02
 -1       243-1.90189E-02 2.66997E-02-1.27523E-02
 -1       244-2.04345E-02 6.01307E-03-2.74590E-03
 -1       245-2.15592E-02-1.59886E-02 7.92721E-03
 -1       246-2.23981E-02-3.89956E-02 1.91228E-02
 -1       247-2.29672E-02-6.27154E-02 3.06574E-02
 -1       248-2.32924E-02-8.68935E-02 4.22517E-02
 -1       249-2.34146E-02-1.11334E-01 5.34857E-02
 -1       250-2.33970E-02-1.35905E-01 6.38787E-02
 -1       251-1.22570E-02-1.60542E-01 3.86177E-02
 -1       252 1.04106E-03 1.45501E-01 3.08438E-03
 -1       253 1.03704E-03 1.19342E-01 2.55807E-03
 -1       254 1.02735E-03 9.31949E-02 2.01114E-03
 -1       255 1.01108E-03 6.72497E-02 1.45558E-03
 -1       256 9.85378E-04 4.17676E-02 9.06002E-04
 -1       257 9.48350E-04 1.70453E-02 3.72604E-04
 -1       258 8.98881E-04-6.59534E-03-1.36570E-04
 -1       259 8.36618E-04-2.88212E-02-6.14531E-04
 -1       260 7.61863E-04-4.93008E-02-1.05456E-03
 -1       261 6.75472E-04-6.77182E-02-1.45015E-03
 -1       262 5.78790E-04-8.37859E-02-1.79528E-03
 -1       263 4.73593E-04-9.72569E-02-2.08469E-03
 -1       264 3.62022E-04-1.07935E-01-2.31418E-03
 -1       265 2.46526E-04-1.15683E-01-2.48083E-03
 -1       266 1.29787E-04-1.20432E-01-2.58312E-03
 -1       267 1.46536E-05-1.22183E-01-2.62111E-03
 -1       268-9.59352E-05-1.21011E-01-2.59643E-03
 -1       269-1.99019E-04-1.17070E-01-2.51238E-03
 -1       270-2.91687E-04-1.10588E-01-2.37386E-03
 -1       271-3.71138E-04-1.01867E-01-2.18735E-03
 -1       272-4.34741E-04-9.12776E-02-1.96087E-03
 -1       273-4.80080E-04-7.92578E-02-1.70382E-03
 -1       274-5.04992E-04-6.63023E-02-1.42687E-03
 -1       275-5.07568E-04-5.29580E-02-1.14181E-03
 -1       276-4.86279E-04-3.98155E-02-8.61182E-04
 -1       277-4.39467E-04-2.75006E-02-5.98145E-04
 -1       278-3.66836E-04-1.66712E-02-3.65558E-04
 -1       279-2.67413E-04-7.99433E-03-1.79217E-04
 -1       280-1.32589E-04-2.17085E-03-4.74661E-05
 -1       281 0.00000E+00 0.00000E+00 0.00000E+00
 -1       282 0.00000E+00 0.00000E+00 0.00000E+00
 -1       283-3.26455E-03-2.49342E-03-1.15985E-03
 -1       284-6.17507E-03-7.75527E-03-3.87921E-03
 -1       285-8.42562E-03-1.57572E-02-7.83318E-03
 -1       286-1.00714E-02-2.57823E-02-1.26713E-02
 -1       287-1.11205E-02-3.71980E-02-1.81404E-02
 -1       288-1.15992E-02-4.93907E-02-2.39733E-02
 -1       289-1.15346E-02-6.17753E-02-2.99025E-02
 -1       290-1.09631E-02-7.38011E-02-3.56661E-02
 -1       291-9.92704E-03-8.49593E-02-4.10177E-02
 -1       292-8.47576E-03-9.47889E-02-4.57333E-02
 -1       293-6.66421E-03-1.02884E-01-4.96157E-02
 -1       294-4.55230E-03-1.08898E-01-5.24973E-02
 -1       295-2.20377E-03-1.12550E-01-5.42422E-02
 -1       296 3.15109E-04-1.13627E-01-5.47475E-02
 -1       297 2.93697E-03-1.11988E-01-5.39445E-02
 -1       298 5.59486E-03-1.07560E-01-5.17985E-02
 -1       299 8.22394E-03-1.00343E-01-4.83084E-02
 -1       300 1.07631E-02-9.04012E-02-4.35056E-02
 -1       301 1.31564E-02-7.78611E-02-3.74510E-02
 -1       302 1.53553E-02-6.29048E-02-3.02322E-02
 -1       303 1.73196E-02-4.57618E-02-2.19581E-02
 -1       304 1.90189E-02-2.66997E-02-1.27523E-02
 -1       305 2.04345E-02-6.01307E-03-2.74590E-03
 -1       306 2.15592E-02 1.59886E-02 7.92721E-03
 -1       307 2.23981E-02 3.89956E-02 1.91228E-02
 -1       308 2.29672E-02 6.27154E-02 3.06574E-02
 -1       309 2.32924E-02 8.68935E-02 4.22517E-02
 -1       310 2.34146E-02 1.11334E-01 5.34857E-02
 -1       311 2.33970E-02 1.35905E-01 6.38787E-02
 -1       312 1.22570E-02 1.60542E-01 3.86177E-02
 -1       313-2.99806E-03-2.65218E-03-9.91063E-04
 -1       314-5.72519E-03-8.33086E-03-3.78288E-03
 -1       315-7.84041E-03-1.69286E-02-7.75004E-03
 -1       316-9.38696E-03-2.76819E-02-1.26166E-02
 -1       317-1.03710E-02-3.99194E-02-1.81090E-02
 -1       318-1.08196E-02-5.29884E-02-2.39651E-02
 -1       319-1.07601E-02-6.62636E-02-2.99161E-02
 -1       320-1.02271E-02-7.91553E-02-3.56997E-02
 -1       321-9.26051E-03-9.11174E-02-4.10695E-02
 -1       322-7.90642E-03-1.01655E-01-4.58012E-02
 -1       323-6.21604E-03-1.10333E-01-4.96973E-02
 -1       324-4.24524E-03-1.16780E-01-5.25900E-02
 -1       325-2.05351E-03-1.20695E-01-5.43433E-02
 -1       326 2.97322E-04-1.21848E-01-5.48542E-02
 -1       327 2.74435E-03-1.20088E-01-5.40541E-02
 -1       328 5.22512E-03-1.15339E-01-5.19082E-02
 -1       329 7.67911E-03-1.07598E-01-4.84156E-02
 -1       330 1.00493E-02-9.69349E-02-4.36078E-02
 -1       331 1.22836E-02-8.34858E-02-3.75461E-02
 -1       332 1.43364E-02-6.74457E-02-3.03184E-02
 -1       333 1.61701E-02-4.90606E-02-2.20339E-02
 -1       334 1.77557E-02-2.86164E-02-1.28167E-02
 -1       335 1.90750E-02-6.42730E-03-2.79819E-03
 -1       336 2.01215E-02 1.71773E-02 7.88699E-03
 -1       337 2.09027E-02 4.18662E-02 1.90941E-02
 -1       338 2.14431E-02 6.73188E-02 3.06391E-02
 -1       339 2.17857E-02 9.32365E-02 4.22418E-02
 -1       340 2.19873E-02 1.19355E-01 5.34817E-02
 -1       341 2.21087E-02 1.45474E-01 6.38767E-02
 -1       342 1.15587E-02 1.71491E-01 3.86252E-02
 -1       343-2.99806E-03 2.65218E-03 9.91063E-04
 -1       344-5.72519E-03 8.33086E-03 3.78288E-03
 -1       345-7.84041E-03 1.69286E-02 7.75004E-03
 -1       346-9.38696E-03 2.76819E-02 1.26166E-02
 -1       347-1.03710E-02 3.99194E-02 1.81090E-02
 -1       348-1.08196E-02 5.29884E-02 2.39651E-02
 -1       349-1.07601E-02 6.62636E-02 2.99161E-02
 -1       350-1.02271E-02 7.91553E-02 3.56997E-02
 -1       351-9.26051E-03 9.11174E-02 4.10695E-02
 -1       352-7.90642E-03 1.01655E-01 4.58012E-02
 -1       353-6.21604E-03 1.10333E-01 4.96973E-02
 -1       354-4.24524E-03 1.16780E-01 5.25900E-02
 -1       355-2.05351E-03 1.20695E-01 5.43433E-02
 -1       356 2.97322E-04 1.21848E-01 5.48542E-02
 -1       357 2.74435E-03 1.20088E-01 5.40541E-02
 -1       358 5.22512E-03 1.15339E-01 5.19082E-02
 -1       359 7.67911E-03 1.07598E-01 4.84156E-02
 -1       360 1.00493E-02 9.69349E-02 4.36078E-02
 -1       361 1.22836E-02 8.34858E-02 3.75461E-02
 -1       362 1.43364E-02 6.74457E-02 3.03184E-02
 -1       363 1.61701E-02 4.90606E-02 2.20339E-02
 -1       364 1.77557E-02 2.86164E-02 1.28167E-02
 -1       365 1.90750E-02 6.42730E-03 2.79819E-03
 -1       366 2.01215E-02-1.71773E-02-7.88699E-03
 -1       367 2.09027E-02-4.18662E-02-1.90941E-02
 -1       368 2.14431E-02-6.73188E-02-3.06391E-02
 -1       369 2.17857E-02-9.32365E-02-4.22418E-02
 -1       370 2.19873E-02-1.19355E-01-5.34817E-02
 -1       371 2.21087E-02-1.45474E-01-6.38767E-02
 -1       372-3.26455E-03 2.49342E-03 1.15985E-03
 -1       373-6.17507E-03 7.75527E-03 3.87921E-03
 -1       374-8.42562E-03 1.57572E-02 7.83318E-03
 -1       375-1.00714E-02 2.57823E-02 1.26713E-02
 -1       376-1.11205E-02 3.71980E-02 1.81404E-02
 -1       377-1.15992E-02 4.93907E-02 2.39733E-02
 -1       378-1.15346E-02 6.17753E-02 2.99025E-02
 -1       379-1.09631E-02 7.38011E-02 3.56661E-02
 -1       380-9.92704E-03 8.49593E-02 4.10177E-02
 -1       381-8.47576E-03 9.47889E-02 4.57333E-02
 -1       382-6.66421E-03 1.02884E-01 4.96157E-02
 -1       383-4.55230E-03 1.08898E-01 5.24973E-02
 -1       384-2.20377E-03 1.12550E-01 5.42422E-02
 -1       385 3.15109E-04 1.13627E-01 5.47475E-02
 -1       386 2.93697E-03 1.11988E-01 5.39445E-02
 -1       387 5.59486E-03 1.07560E-01 5.17985E-02
 -1       388 8.22394E-03 1.00343E-01 4.83084E-02
 -1       389 1.07631E-02 9.04012E-02 4.35056E-02
 -1       390 1.31564E-02 7.78611E-02 3.74510E-02
 -1       391 1.53553E-02 6.29048E-02 3.02322E-02
 -1       392 1.73196E-02 4.57618E-02 2.19581E-02
 -1       393 1.90189E-02 2.66997E-02 1.27523E-02
 -1       394 2.04345E-02 6.01307E-03 2.74590E-03
 -1       395 2.15592E-02-1.59886E-02-7.92721E-03
 -1       396 2.23981E-02-3.89956E-02-1.91228E-02
 -1       397 2.29672E-02-6.27154E-02-3.06574E-02
 -1       398 2.32924E-02-8.68935E-02-4.22517E-02
 -1       399 2.34146E-02-1.11334E-01-5.34857E-02
 -1       400 2.33970E-02-1.35905E-01-6.38787E-02
 -1       401 0.00000E+00 0.00000E+00 0.00000E+00
 -1       402 0.00000E+00 0.00000E+00 0.00000E+00
 -1       403 1.15587E-02-1.71491E-01-3.86252E-02
 -1       404-1.32589E-04 2.17085E-03 4.74661E-05
 -1       405-2.67413E-04 7.99433E-03 1.79217E-04
 -1       406-3.66836E-04 1.66712E-02 3.65558E-04
 -1       407-4.39467E-04 2.75006E-02 5.98145E-04
 -1       408-4.86279E-04 3.98155E-02 8.61182E-04
 -1       409-5.07568E-04 5.29580E-02 1.14181E-03
 -1       410-5.04992E-04 6.63023E-02 1.42687E-03
 -1       411-4.80080E-04 7.92578E-02 1.70382E-03
 -1       412-4.34741E-04 9.12776E-02 1.96087E-03
 -1       413-3.71138E-04 1.01867E-01 2.18735E-03
 -1       414-2.91687E-04 1.10588E-01 2.37386E-03
 -1       415-1.99019E-04 1.17070E-01 2.51238E-03
 -1       416-9.59352E-05 1.21011E-01 2.59643E-03
 -1       417 1.46536E-05 1.22183E-01 2.62111E-03
 -1       418 1.29787E-04 1.20432E-01 2.58312E-03
 -1       419 2.46526E-04 1.15683E-01 2.48083E-03
 -1       420 3.62022E-04 1.07935E-01 2.31418E-03
 -1       421 4.73593E-04 9.72569E-02 2.08469E-03
 -1       422 5.78790E-04 8.37859E-02 1.79528E-03
 -1       423 6.75472E-04 6.77182E-02 1.45015E-03
 -1       424 7.61863E-04 4.93008E-02 1.05456E-03
 -1       425 8.36618E-04 2.88212E-02 6.14531E-04
 -1       426 8.98881E-04 6.59534E-03 1.36570E-04
 -1       427 9.48350E-04-1.70453E-02-3.72604E-04
 -1       428 9.85378E-04-4.17676E-02-9.06002E-04
 -1       429 1.01108E-03-6.72497E-02-1.45558E-03
 -1       430 1.02735E-03-9.31949E-02-2.01114E-03
 -1       431 1.03704E-03-1.19342E-01-2.55807E-03
 -1       432 1.04106E-03-1.45501E-01-3.08438E-03
 -1       433 1.22570E-02-1.60542E-01-3.86177E-02
 -1       434 0.00000E+00 0.00000E+00 0.00000E+00
 -1       435 0.00000E+00 0.00000E+00 0.00000E+00
 -1       436-1.04106E-03 1.45501E-01-3.08438E-03
 -1       437-1.03704E-03 1.19342E-01-2.55807E-03
 -1       438-1.02735E-03 9.31949E-02-2.01114E-03
 -1       439-1.01108E-03 6.72497E-02-1.45558E-03
 -1       440-9.85378E-04 4.17676E-02-9.06002E-04
 -1       441-9.48350E-04 1.70453E-02-3.72604E-04
 -1       442-8.98881E-04-6.59534E-03 1.36570E-04
 -1       443-8.36618E-04-2.88212E-02 6.14531E-04
 -1       444-7.61863E-04-4.93008E-02 1.05456E-03
 -1       445-6.75472E-04-6.77182E-02 1.45015E-03
 -1       446-5.78790E-04-8.37859E-02 1.79528E-03
 -1       447-4.73593E-04-9.72569E-02 2.08469E-03
 -1       448-3.62022E-04-1.07935E-01 2.31418E-03
 -1       449-2.46526E-04-1.15683E-01 2.48083E-03
 -1       450-1.29787E-04-1.20432E-01 2.58312E-03
 -1       451-1.46536E-05-1.22183E-01 2.62111E-03
 -1       452 9.59352E-05-1.21011E-01 2.59643E-03
 -1       453 1.99019E-04-1.17070E-01 2.51238E-03
 -1       454 2.91687E-04-1.10588E-01 2.37386E-03
 -1       455 3.71138E-04-1.01867E-01 2.18735E-03
 -1       456 4.34741E-04-9.12776E-02 1.96087E-03
 -1       457 4.80080E-04-7.92578E-02 1.70382E-03
 -1       458 5.04992E-04-6.63023E-02 1.42687E-03
 -1       459 5.07568E-04-5.29580E-02 1.14181E-03
 -1       460 4.86279E-04-3.98155E-02 8.61182E-04
 -1       461 4.39467E-04-2.75006E-02 5.98145E-04
 -1       462 3.66836E-04-1.66712E-02 3.65558E-04
 -1       463 2.67413E-04-7.99433E-03 1.79217E-04
 -1       464 1.32589E-04-2.17085E-03 4.74661E-05
 -1       465-1.15587E-02 1.71491E-01-3.86252E-02
 -1       466 2.99806E-03-2.65218E-03 9.91063E-04
 -1       467 5.72519E-03-8.33086E-03 3.78288E-03
 -1       468 7.84041E-03-1.69286E-02 7.75004E-03
 -1       469 9.38696E-03-2.76819E-02 1.26166E-02
 -1       470 1.03710E-02-3.99194E-02 1.81090E-02
 -1       471 1.08196E-02-5.29884E-02 2.39651E-02
 -1       472 1.07601E-02-6.62636E-02 2.99161E-02
 -1       473 1.02271E-02-7.91553E-02 3.56997E-02
 -1       474 9.26051E-03-9.11174E-02 4.10695E-02
 -1       475 7.90642E-03-1.01655E-01 4.58012E-02
 -1       476 6.21604E-03-1.10333E-01 4.96973E-02
 -1       477 4.24524E-03-1.16780E-01 5.25900E-02
 -1       478 2.05351E-03-1.20695E-01 5.43433E-02
 -1       479-2.97322E-04-1.21848E-01 5.48542E-02
 -1       480-2.74435E-03-1.20088E-01 5.40541E-02
 -1       481-5.22512E-03-1.15339E-01 5.19082E-02
 -1       482-7.67911E-03-1.07598E-01 4.84156E-02
 -1       483-1.00493E-02-9.69349E-02 4.36078E-02
 -1       484-1.22836E-02-8.34858E-02 3.75461E-02
 -1       485-1.43364E-02-6.74457E-02 3.03184E-02
 -1       486-1.61701E-02-4.90606E-02 2.20339E-02
 -1       487-1.77557E-02-2.86164E-02 1.28167E-02
 -1       488-1.90750E-02-6.42730E-03 2.79819E-03
 -1       489-2.01215E-02 1.71773E-02-7.88699E-03
 -1       490-2.09027E-02 4.18662E-02-1.90941E-02
 -1       491-2.14431E-02 6.73188E-02-3.06391E-02
 -1       492-2.17857E-02 9.32365E-02-4.22418E-02
 -1       493-2.19873E-02 1.19355E-01-5.34817E-02
 -1       494-2.21087E-02 1.45474E-01-6.38767E-02
 -1       495 3.26455E-03-2.49342E-03 1.15985E-03
 -1       496 6.17507E-03-7.75527E-03 3.87921E-03
 -1       497 8.42562E-03-1.57572E-02 7.83318E-03
 -1       498 1.00714E-02-2.57823E-02 1.26713E-02
 -1       499 1.11205E-02-3.71980E-02 1.81404E-02
 -1       500 1.15992E-02-4.93907E-02 2.39733E-02
 -1       501 1.15346E-02-6.17753E-02 2.99025E-02
 -1       502 1.09631E-02-7.38011E-02 3.56661E-02
 -1       503 9.92704E-03-8.49593E-02 4.10177E-02
 -1       504 8.47576E-03-9.47889E-02 4.57333E-02
 -1       505 6.66421E-03-1.02884E-01 4.96157E-02
 -1       506 4.55230E-03-1.08898E-01 5.24973E-02
 -1       507 2.20377E-03-1.12550E-01 5.42422E-02
 -1       508-3.15109E-04-1.13627E-01 5.47475E-02
 -1       509-2.93697E-03-1.11988E-01 5.39445E-02
 -1       510-5.59486E-03-1.07560E-01 5.17985E-02
 -1       511-8.22394E-03-1.00343E-01 4.83084E-02
 -1       512-1.07631E-02-9.04012E-02 4.35056E-02
 -1       513-1.31564E-02-7.78611E-02 3.74510E-02
 -1       514-1.53553E-02-6.29048E-02 3.02322E-02
 -1       515-1.73196E-02-4.57618E-02 2.19581E-02
 -1       516-1.90189E-02-2.66997E-02 1.27523E-02
 -1       517-2.04345E-02-6.01307E-03 2.74590E-03
 -1       518-2.15592E-02 1.59886E-02-7.92721E-03
 -1       519-2.23981E-02 3.89956E-02-1.91228E-02
 -1       520-2.29672E-02 6.27154E-02-3.06574E-02
 -1       521-2.32924E-02 8.68935E-02-4.22517E-02
 -1       522-2.34146E-02 1.11334E-01-5.34857E-02
 -1       523-2.33970E-02 1.35905E-01-6.38787E-02
 -1       524-1.22570E-02 1.60542E-01-3.86177E-02
 -1       525 8.32582E-05 9.82508E-04-4.64212E-05
 -1       526 1.47712E-04 3.67346E-03-1.70724E-04
 -1       527 1.98070E-04 7.71106E-03-3.56947E-04
 -1       528 2.34710E-04 1.27678E-02-5.89853E-04
 -1       529 2.57832E-04 1.85249E-02-8.54916E-04
 -1       530 2.67935E-04 2.46718E-02-1.13782E-03
 -1       531 2.65750E-04 3.09118E-02-1.42504E-03
 -1       532 2.52193E-04 3.69683E-02-1.70385E-03
 -1       533 2.28236E-04 4.25864E-02-1.96251E-03
 -1       534 1.94976E-04 4.75354E-02-2.19037E-03
 -1       535 1.53643E-04 5.16119E-02-2.37805E-03
 -1       536 1.05580E-04 5.46425E-02-2.51756E-03
 -1       537 5.22242E-05 5.64865E-02-2.60241E-03
 -1       538-4.92854E-06 5.70374E-02-2.62769E-03
 -1       539-6.43544E-05 5.62240E-02-2.59013E-03
 -1       540-1.24539E-04 5.40109E-02-2.48809E-03
 -1       541-1.84012E-04 5.03975E-02-2.32153E-03
 -1       542-2.41390E-04 4.54164E-02-2.09196E-03
 -1       543-2.95405E-04 3.91316E-02-1.80234E-03
 -1       544-3.44940E-04 3.16346E-02-1.45686E-03
 -1       545-3.89053E-04 2.30412E-02-1.06087E-03
 -1       546-4.27000E-04 1.34869E-02-6.20562E-04
 -1       547-4.58276E-04 3.12173E-03-1.42796E-04
 -1       548-4.82691E-04-7.89605E-03 3.65224E-04
 -1       549-5.00570E-04-1.94092E-02 8.96313E-04
 -1       550-5.13142E-04-3.12772E-02 1.44376E-03
 -1       551-5.22783E-04-4.34015E-02 2.00199E-03
 -1       552-5.31450E-04-5.57388E-02 2.56687E-03
 -1       553-5.38305E-04-6.82620E-02 3.13754E-03
 -1       554-6.88969E-14-3.14160E-13-4.50978E-05
 -1       555-1.23305E-13-1.08998E-12-1.68916E-04
 -1       556-1.80604E-13-2.11752E-12-3.55064E-04
 -1       557-2.52521E-13-3.31392E-12-5.88324E-04
 -1       558-3.21961E-13-4.68614E-12-8.53952E-04
 -1       559-3.83239E-13-6.22374E-12-1.13762E-03
 -1       560-4.31134E-13-7.89247E-12-1.42558E-03
 -1       561-4.72221E-13-9.54602E-12-1.70506E-03
 -1       562-5.30159E-13-1.10991E-11-1.96429E-03
 -1       563-5.92131E-13-1.26209E-11-2.19264E-03
 -1       564-6.39187E-13-1.41115E-11-2.38074E-03
 -1       565-6.66255E-13-1.55053E-11-2.52059E-03
 -1       566-6.80359E-13-1.67631E-11-2.60569E-03
 -1       567-6.92564E-13-1.77783E-11-2.63114E-03
 -1       568-6.99274E-13-1.82937E-11-2.59366E-03
 -1       569-6.96665E-13-1.81646E-11-2.49160E-03
 -1       570-6.93740E-13-1.74905E-11-2.32495E-03
 -1       571-6.91523E-13-1.63266E-11-2.09520E-03
 -1       572-6.89136E-13-1.47642E-11-1.80532E-03
 -1       573-6.88533E-13-1.27833E-11-1.45952E-03
 -1       574-7.01855E-13-1.03022E-11-1.06314E-03
 -1       575-7.17534E-13-7.25809E-12-6.22460E-04
 -1       576-7.36147E-13-3.75702E-12-1.44419E-04
 -1       577-7.51697E-13 5.71314E-14 3.63633E-04
 -1       578-7.55174E-13 4.15148E-12 8.94426E-04
 -1       579-7.45178E-13 8.53450E-12 1.44157E-03
 -1       580-7.25899E-13 1.31105E-11 2.00115E-03
 -1       581-7.16670E-13 1.77739E-11 2.57169E-03
 -1       582-7.24473E-13 2.24169E-11 3.15372E-03
 -1       583-8.32582E-05-9.82508E-04-4.64212E-05
 -1       584-1.47712E-04-3.67346E-03-1.70724E-04
 -1       585-1.98070E-04-7.71106E-03-3.56947E-04
 -1       586-2.34710E-04-1.27678E-02-5.89853E-04
 -1       587-2.57832E-04-1.85249E-02-8.54916E-04
 -1       588-2.67935E-04-2.46718E-02-1.13782E-03
 -1       589-2.65750E-04-3.09118E-02-1.42504E-03
 -1       590-2.52193E-04-3.69683E-02-1.70385E-03
 -1       591-2.28236E-04-4.25864E-02-1.96251E-03
 -1       592-1.94976E-04-4.75354E-02-2.19037E-03
 -1       593-1.53643E-04-5.16119E-02-2.37805E-03
 -1       594-1.05580E-04-5.46425E-02-2.51756E-03
 -1       595-5.22242E-05-5.64865E-02-2.60241E-03
 -1       596 4.92854E-06-5.70374E-02-2.62769E-03
 -1       597 6.43544E-05-5.62240E-02-2.59013E-03
 -1       598 1.24539E-04-5.40109E-02-2.48809E-03
 -1       599 1.84012E-04-5.03975E-02-2.32153E-03
 -1       600 2.41390E-04-4.54164E-02-2.09196E-03
 -1       601 2.95405E-04-3.91316E-02-1.80234E-03
 -1       602 3.44940E-04-3.16346E-02-1.45686E-03
 -1       603 3.89053E-04-2.30412E-02-1.06087E-03
 -1       604 4.27000E-04-1.34869E-02-6.20562E-04
 -1       605 4.58276E-04-3.12173E-03-1.42796E-04
 -1       606 4.82691E-04 7.89605E-03 3.65224E-04
 -1       607 5.00570E-04 1.94092E-02 8.96313E-04
 -1       608 5.13142E-04 3.12772E-02 1.44376E-03
 -1       609 5.22783E-04 4.34015E-02 2.00199E-03
 -1       610 5.31450E-04 5.57388E-02 2.56687E-03
 -1       611 5.38305E-04 6.82620E-02 3.13754E-03
 -1       612 8.32582E-05-9.82508E-04 4.64212E-05
 -1       613 1.47712E-04-3.67346E-03 1.70724E-04
 -1       614 1.98070E-04-7.71106E-03 3.56947E-04
 -1       615 2.34710E-04-1.27678E-02 5.89853E-04
 -1       616 2.57832E-04-1.85249E-02 8.54916E-04
 -1       617 2.67935E-04-2.46718E-02 1.13782E-03
 -1       618 2.65750E-04-3.09118E-02 1.42504E-03
 -1       619 2.52193E-04-3.69683E-02 1.70385E-03
 -1       620 2.28236E-04-4.25864E-02 1.96251E-03
 -1       621 1.94976E-04-4.75354E-02 2.19037E-03
 -1       622 1.53643E-04-5.16119E-02 2.37805E-03
 -1       623 1.05580E-04-5.46425E-02 2.51756E-03
 -1       624 5.22242E-05-5.64865E-02 2.60241E-03
 -1       625-4.92854E-06-5.70374E-02 2.62769E-03
 -1       626-6.43544E-05-5.62240E-02 2.59013E-03
 -1       627-1.24539E-04-5.40109E-02 2.48809E-03
 -1       628-1.84012E-04-5.03975E-02 2.32153E-03
 -1       629-2.41390E-04-4.54164E-02 2.09196E-03
 -1       630-2.95405E-04-3.91316E-02 1.80234E-03
 -1       631-3.44940E-04-3.16346E-02 1.45686E-03
 -1       632-3.89053E-04-2.30412E-02 1.06087E-03
 -1       633-4.27000E-04-1.34869E-02 6.20562E-04
 -1       634-4.58276E-04-3.12173E-03 1.42796E-04
 -1       635-4.82691E-04 7.89605E-03-3.65224E-04
 -1       636-5.00570E-04 1.94092E-02-8.96313E-04
 -1       637-5.13142E-04 3.12772E-02-1.44376E-03
 -1       638-5.22783E-04 4.34015E-02-2.00199E-03
 -1       639-5.31450E-04 5.57388E-02-2.56687E-03
 -1       640-5.38305E-04 6.82620E-02-3.13754E-03
 -1       641-1.90217E-14-3.12244E-13 4.50978E-05
 -1       642-4.38616E-14-1.08849E-12 1.68916E-04
 -1       643-8.49329E-14-2.11518E-12 3.55064E-04
 -1       644-1.42287E-13-3.31169E-12 5.88324E-04
 -1       645-1.96933E-13-4.68453E-12 8.53952E-04
 -1       646-2.44138E-13-6.22223E-12 1.13762E-03
 -1       647-2.86229E-13-7.89124E-12 1.42558E-03
 -1       648-3.34640E-13-9.54471E-12 1.70506E-03
 -1       649-3.98966E-13-1.10979E-11 1.96429E-03
 -1       650-4.61967E-13-1.26197E-11 2.19264E-03
 -1       651-5.14526E-13-1.41108E-11 2.38074E-03
 -1       652-5.51816E-13-1.55045E-11 2.52059E-03
 -1       653-5.80078E-13-1.67624E-11 2.60569E-03
 -1       654-6.23536E-13-1.77777E-11 2.63114E-03
 -1       655-6.82853E-13-1.82930E-11 2.59366E-03
 -1       656-7.32667E-13-1.81639E-11 2.49160E-03
 -1       657-7.73815E-13-1.74898E-11 2.32495E-03
 -1       658-8.09540E-13-1.63259E-11 2.09520E-03
 -1       659-8.40581E-13-1.47637E-11 1.80532E-03
 -1       660-8.78946E-13-1.27827E-11 1.45952E-03
 -1       661-9.39610E-13-1.03016E-11 1.06314E-03
 -1       662-1.00113E-12-7.25768E-12 6.22460E-04
 -1       663-1.05186E-12-3.75640E-12 1.44419E-04
 -1       664-1.09136E-12 5.74575E-14-3.63633E-04
 -1       665-1.12006E-12 4.15169E-12-8.94426E-04
 -1       666-1.13166E-12 8.53460E-12-1.44157E-03
 -1       667-1.12461E-12 1.31101E-11-2.00115E-03
 -1       668-1.11744E-12 1.77739E-11-2.57169E-03
 -1       669-1.12269E-12 2.24168E-11-3.15372E-03
 -1       670-8.32582E-05 9.82508E-04 4.64212E-05
 -1       671-1.47712E-04 3.67346E-03 1.70724E-04
 -1       672-1.98070E-04 7.71106E-03 3.56947E-04
 -1       673-2.34710E-04 1.27678E-02 5.89853E-04
 -1       674-2.57832E-04 1.85249E-02 8.54916E-04
 -1       675-2.67935E-04 2.46718E-02 1.13782E-03
 -1       676-2.65750E-04 3.09118E-02 1.42504E-03
 -1       677-2.52193E-04 3.69683E-02 1.70385E-03
 -1       678-2.28236E-04 4.25864E-02 1.96251E-03
 -1       679-1.94976E-04 4.75354E-02 2.19037E-03
 -1       680-1.53643E-04 5.16119E-02 2.37805E-03
 -1       681-1.05580E-04 5.46425E-02 2.51756E-03
 -1       682-5.22242E-05 5.64865E-02 2.60241E-03
 -1       683 4.92854E-06 5.70374E-02 2.62769E-03
 -1       684 6.43544E-05 5.62240E-02 2.59013E-03
 -1       685 1.24539E-04 5.40109E-02 2.48809E-03
 -1       686 1.84012E-04 5.03975E-02 2.32153E-03
 -1       687 2.41390E-04 4.54164E-02 2.09196E-03
 -1       688 2.95405E-04 3.91316E-02 1.80234E-03
 -1       689 3.44940E-04 3.16346E-02 1.45686E-03
 -1       690 3.89053E-04 2.30412E-02 1.06087E-03
 -1       691 4.27000E-04 1.34869E-02 6.20562E-04
 -1       692 4.58276E-04 3.12173E-03 1.42796E-04
 -1       693 4.82691E-04-7.89605E-03-3.65224E-04
 -1       694 5.00570E-04-1.94092E-02-8.96313E-04
 -1       695 5.13142E-04-3.12772E-02-1.44376E-03
 -1       696 5.22783E-04-4.34015E-02-2.00199E-03
 -1       697 5.31450E-04-5.57388E-02-2.56687E-03
 -1       698 5.38305E-04-6.82620E-02-3.13754E-03
 -1       699 1.45484E-03 2.30159E-03-5.20408E-04
 -1       700 2.93536E-03 8.09797E-03-1.97498E-03
 -1       701 4.03178E-03 1.67467E-02-4.05042E-03
 -1       702 4.84081E-03 2.75564E-02-6.59908E-03
 -1       703 5.35739E-03 3.98481E-02-9.47842E-03
 -1       704 5.59441E-03 5.29688E-02-1.25482E-02
 -1       705 5.56696E-03 6.62928E-02-1.56676E-02
 -1       706 5.29293E-03 7.92294E-02-1.86990E-02
 -1       707 4.79322E-03 9.12323E-02-2.15134E-02
 -1       708 4.09177E-03 1.01806E-01-2.39932E-02
 -1       709 3.21526E-03 1.10515E-01-2.60352E-02
 -1       710 2.19273E-03 1.16987E-01-2.75514E-02
 -1       711 1.05511E-03 1.20920E-01-2.84706E-02
 -1       712-1.65452E-04 1.22086E-01-2.87389E-02
 -1       713-1.43628E-03 1.20333E-01-2.83202E-02
 -1       714-2.72493E-03 1.15584E-01-2.71965E-02
 -1       715-3.99997E-03 1.07837E-01-2.53672E-02
 -1       716-5.23178E-03 9.71632E-02-2.28489E-02
 -1       717-6.39335E-03 8.36984E-02-1.96736E-02
 -1       718-7.46105E-03 6.76385E-02-1.58875E-02
 -1       719-8.41527E-03 4.92303E-02-1.15477E-02
 -1       720-9.24114E-03 2.87607E-02-6.71957E-03
 -1       721-9.92917E-03 6.54497E-03-1.47237E-03
 -1       722-1.04761E-02-1.70862E-02 4.12283E-03
 -1       723-1.08860E-02-4.18001E-02 9.99001E-03
 -1       724-1.11718E-02-6.72749E-02 1.60339E-02
 -1       725-1.13558E-02-9.32113E-02 2.21150E-02
 -1       726-1.14693E-02-1.19344E-01 2.80233E-02
 -1       727-1.15372E-02-1.45472E-01 3.35162E-02
 -1       728 1.59478E-03 2.13649E-03-6.02332E-04
 -1       729 3.17836E-03 7.52041E-03-2.02539E-03
 -1       730 4.35015E-03 1.55745E-02-4.09135E-03
 -1       731 5.21478E-03 2.56568E-02-6.62720E-03
 -1       732 5.76771E-03 3.71272E-02-9.49454E-03
 -1       733 6.02158E-03 4.93721E-02-1.25528E-02
 -1       734 5.99166E-03 6.18058E-02-1.56613E-02
 -1       735 5.69663E-03 7.38771E-02-1.86828E-02
 -1       736 5.15885E-03 8.50764E-02-2.14880E-02
 -1       737 4.40404E-03 9.49424E-02-2.39599E-02
 -1       738 3.46093E-03 1.03068E-01-2.59951E-02
 -1       739 2.36079E-03 1.09107E-01-2.75057E-02
 -1       740 1.13691E-03 1.12778E-01-2.84207E-02
 -1       741-1.76150E-04 1.13868E-01-2.86862E-02
 -1       742-1.54323E-03 1.12235E-01-2.82661E-02
 -1       743-2.92942E-03 1.07808E-01-2.71422E-02
 -1       744-4.30090E-03 1.00586E-01-2.53142E-02
 -1       745-5.62580E-03 9.06325E-02-2.27982E-02
 -1       746-6.87506E-03 7.80763E-02-1.96264E-02
 -1       747-8.02329E-03 6.30998E-02-1.58446E-02
 -1       748-9.04956E-03 4.59333E-02-1.15100E-02
 -1       749-9.93818E-03 2.68453E-02-6.68745E-03
 -1       750-1.06793E-02 6.13145E-03-1.44607E-03
 -1       751-1.12695E-02-1.58976E-02 4.14334E-03
 -1       752-1.17114E-02-3.89309E-02 1.00051E-02
 -1       753-1.20136E-02-6.26746E-02 1.60442E-02
 -1       754-1.21904E-02-8.68718E-02 2.21210E-02
 -1       755-1.22617E-02-1.11324E-01 2.80254E-02
 -1       756-1.22643E-02-1.35899E-01 3.35141E-02
 -1       757-1.59478E-03-2.13649E-03-6.02332E-04
 -1       758-3.17836E-03-7.52041E-03-2.02539E-03
 -1       759-4.35015E-03-1.55745E-02-4.09135E-03
 -1       760-5.21478E-03-2.56568E-02-6.62720E-03
 -1       761-5.76771E-03-3.71272E-02-9.49454E-03
 -1       762-6.02158E-03-4.93721E-02-1.25528E-02
 -1       763-5.99166E-03-6.18058E-02-1.56613E-02
 -1       764-5.69663E-03-7.38771E-02-1.86828E-02
 -1       765-5.15885E-03-8.50764E-02-2.14880E-02
 -1       766-4.40404E-03-9.49424E-02-2.39599E-02
 -1       767-3.46093E-03-1.03068E-01-2.59951E-02
 -1       768-2.36079E-03-1.09107E-01-2.75057E-02
 -1       769-1.13691E-03-1.12778E-01-2.84207E-02
 -1       770 1.76150E-04-1.13868E-01-2.86862E-02
 -1       771 1.54323E-03-1.12235E-01-2.82661E-02
 -1       772 2.92942E-03-1.07808E-01-2.71422E-02
 -1       773 4.30090E-03-1.00586E-01-2.53142E-02
 -1       774 5.62580E-03-9.06325E-02-2.27982E-02
 -1       775 6.87506E-03-7.80763E-02-1.96264E-02
 -1       776 8.02329E-03-6.30998E-02-1.58446E-02
 -1       777 9.04956E-03-4.59333E-02-1.15100E-02
 -1       778 9.93818E-03-2.68453E-02-6.68745E-03
 -1       779 1.06793E-02-6.13145E-03-1.44607E-03
 -1       780 1.12695E-02 1.58976E-02 4.14334E-03
 -1       781 1.17114E-02 3.89309E-02 1.00051E-02
 -1       782 1.20136E-02 6.26746E-02 1.60442E-02
 -1       783 1.21904E-02 8.68718E-02 2.21210E-02
 -1       784 1.22617E-02 1.11324E-01 2.80254E-02
 -1       785 1.22643E-02 1.35899E-01 3.35141E-02
 -1       786-1.45484E-03-2.30159E-03-5.20408E-04
 -1       787-2.93536E-03-8.09797E-03-1.97498E-03
 -1       788-4.03178E-03-1.67467E-02-4.05042E-03
 -1       789-4.84081E-03-2.75564E-02-6.59908E-03
 -1       790-5.35739E-03-3.98481E-02-9.47842E-03
 -1       791-5.59441E-03-5.29688E-02-1.25482E-02
 -1       792-5.56696E-03-6.62928E-02-1.56676E-02
 -1       793-5.29293E-03-7.92294E-02-1.86990E-02
 -1       794-4.79322E-03-9.12323E-02-2.15134E-02
 -1       795-4.09177E-03-1.01806E-01-2.39932E-02
 -1       796-3.21526E-03-1.10515E-01-2.60352E-02
 -1       797-2.19273E-03-1.16987E-01-2.75514E-02
 -1       798-1.05511E-03-1.20920E-01-2.84706E-02
 -1       799 1.65452E-04-1.22086E-01-2.87389E-02
 -1       800 1.43628E-03-1.20333E-01-2.83202E-02
 -1       801 2.72493E-03-1.15584E-01-2.71965E-02
 -1       802 3.99997E-03-1.07837E-01-2.53672E-02
 -1       803 5.23178E-03-9.71632E-02-2.28489E-02
 -1       804 6.39335E-03-8.36984E-02-1.96736E-02
 -1       805 7.46105E-03-6.76385E-02-1.58875E-02
 -1       806 8.41527E-03-4.92303E-02-1.15477E-02
 -1       807 9.24114E-03-2.87607E-02-6.71957E-03
 -1       808 9.92917E-03-6.54497E-03-1.47237E-03
 -1       809 1.04761E-02 1.70862E-02 4.12283E-03
 -1       810 1.08860E-02 4.18001E-02 9.99001E-03
 -1       811 1.11718E-02 6.72749E-02 1.60339E-02
 -1       812 1.13558E-02 9.32113E-02 2.21150E-02
 -1       813 1.14693E-02 1.19344E-01 2.80233E-02
 -1       814 1.15372E-02 1.45472E-01 3.35162E-02
 -1       815-1.45484E-03 2.30159E-03 5.20408E-04
 -1       816-2.93536E-03 8.09797E-03 1.97498E-03
 -1       817-4.03178E-03 1.67467E-02 4.05042E-03
 -1       818-4.84081E-03 2.75564E-02 6.59908E-03
 -1       819-5.35739E-03 3.98481E-02 9.47842E-03
 -1       820-5.59441E-03 5.29688E-02 1.25482E-02
 -1       821-5.56696E-03 6.62928E-02 1.56676E-02
 -1       822-5.29293E-03 7.92294E-02 1.86990E-02
 -1       823-4.79322E-03 9.12323E-02 2.15134E-02
 -1       824-4.09177E-03 1.01806E-01 2.39932E-02
 -1       825-3.21526E-03 1.10515E-01 2.60352E-02
 -1       826-2.19273E-03 1.16987E-01 2.75514E-02
 -1       827-1.05511E-03 1.20920E-01 2.84706E-02
 -1       828 1.65452E-04 1.22086E-01 2.87389E-02
 -1       829 1.43628E-03 1.20333E-01 2.83202E-02
 -1       830 2.72493E-03 1.15584E-01 2.71965E-02
 -1       831 3.99997E-03 1.07837E-01 2.53672E-02
 -1       832 5.23178E-03 9.71632E-02 2.28489E-02
 -1       833 6.39335E-03 8.36984E-02 1.96736E-02
 -1       834 7.46105E-03 6.76385E-02 1.58875E-02
 -1       835 8.41527E-03 4.92303E-02 1.15477E-02
 -1       836 9.24114E-03 2.87607E-02 6.71957E-03
 -1       837 9.92917E-03 6.54497E-03 1.47237E-03
 -1       838 1.04761E-02-1.70862E-02-4.12283E-03
 -1       839 1.08860E-02-4.18001E-02-9.99001E-03
 -1       840 1.11718E-02-6.72749E-02-1.60339E-02
 -1       841 1.13558E-02-9.32113E-02-2.21150E-02
 -1       842 1.14693E-02-1.19344E-01-2.80233E-02
 -1       843 1.15372E-02-1.45472E-01-3.35162E-02
 -1       844-1.59478E-03 2.13649E-03 6.02332E-04
 -1       845-3.17836E-03 7.52041E-03 2.02539E-03
 -1       846-4.35015E-03 1.55745E-02 4.09135E-03
 -1       847-5.21478E-03 2.56568E-02 6.62720E-03
 -1       848-5.76771E-03 3.71272E-02 9.49454E-03
 -1       849-6.02158E-03 4.93721E-02 1.25528E-02
 -1       850-5.99166E-03 6.18058E-02 1.56613E-02
 -1       851-5.69663E-03 7.38771E-02 1.86828E-02
 -1       852-5.15885E-03 8.50764E-02 2.14880E-02
 -1       853-4.40404E-03 9.49424E-02 2.39599E-02
 -1       854-3.46093E-03 1.03068E-01 2.59951E-02
 -1       855-2.36079E-03 1.09107E-01 2.75057E-02
 -1       856-1.13691E-03 1.12778E-01 2.84207E-02
 -1       857 1.76150E-04 1.13868E-01 2.86862E-02
 -1       858 1.54323E-03 1.12235E-01 2.82661E-02
 -1       859 2.92942E-03 1.07808E-01 2.71422E-02
 -1       860 4.30090E-03 1.00586E-01 2.53142E-02
 -1       861 5.62580E-03 9.06325E-02 2.27982E-02
 -1       862 6.87506E-03 7.80763E-02 1.96264E-02
 -1       863 8.02329E-03 6.30998E-02 1.58446E-02
 -1       864 9.04956E-03 4.59333E-02 1.15100E-02
 -1       865 9.93818E-03 2.68453E-02 6.68745E-03
 -1       866 1.06793E-02 6.13145E-03 1.44607E-03
 -1       867 1.12695E-02-1.58976E-02-4.14334E-03
 -1       868 1.17114E-02-3.89309E-02-1.00051E-02
 -1       869 1.20136E-02-6.26746E-02-1.60442E-02
 -1       870 1.21904E-02-8.68718E-02-2.21210E-02
 -1       871 1.22617E-02-1.11324E-01-2.80254E-02
 -1       872 1.22643E-02-1.35899E-01-3.35141E-02
 -1       873-1.15372E-02 1.45472E-01-3.35162E-02
 -1       874-1.14693E-02 1.19344E-01-2.80233E-02
 -1       875-1.13558E-02 9.32113E-02-2.21150E-02
 -1       876-1.11718E-02 6.72749E-02-1.60339E-02
 -1       877-1.08860E-02 4.18001E-02-9.99001E-03
 -1       878-1.04761E-02 1.70862E-02-4.12283E-03
 -1       879-9.92917E-03-6.54497E-03 1.47237E-03
 -1       880-9.24114E-03-2.87607E-02 6.71957E-03
 -1       881-8.41527E-03-4.92303E-02 1.15477E-02
 -1       882-7.46105E-03-6.76385E-02 1.58875E-02
 -1       883-6.39335E-03-8.36984E-02 1.96736E-02
 -1       884-5.23178E-03-9.71632E-02 2.28489E-02
 -1       885-3.99997E-03-1.07837E-01 2.53672E-02
 -1       886-2.72493E-03-1.15584E-01 2.71965E-02
 -1       887-1.43628E-03-1.20333E-01 2.83202E-02
 -1       888-1.65452E-04-1.22086E-01 2.87389E-02
 -1       889 1.05511E-03-1.20920E-01 2.84706E-02
 -1       890 2.19273E-03-1.16987E-01 2.75514E-02
 -1       891 3.21526E-03-1.10515E-01 2.60352E-02
 -1       892 4.09177E-03-1.01806E-01 2.39932E-02
 -1       893 4.79322E-03-9.12323E-02 2.15134E-02
 -1       894 5.29293E-03-7.92294E-02 1.86990E-02
 -1       895 5.56696E-03-6.62928E-02 1.56676E-02
 -1       896 5.59441E-03-5.29688E-02 1.25482E-02
 -1       897 5.35739E-03-3.98481E-02 9.47842E-03
 -1       898 4.84081E-03-2.75564E-02 6.59908E-03
 -1       899 4.03178E-03-1.67467E-02 4.05042E-03
 -1       900 2.93536E-03-8.09797E-03 1.97498E-03
 -1       901 1.45484E-03-2.30159E-03 5.20408E-04
 -1       902 1.59478E-03-2.13649E-03 6.02332E-04
 -1       903 3.17836E-03-7.52041E-03 2.02539E-03
 -1       904 4.35015E-03-1.55745E-02 4.09135E-03
 -1       905 5.21478E-03-2.56568E-02 6.62720E-03
 -1       906 5.76771E-03-3.71272E-02 9.49454E-03
 -1       907 6.02158E-03-4.93721E-02 1.25528E-02
 -1       908 5.99166E-03-6.18058E-02 1.56613E-02
 -1       909 5.69663E-03-7.38771E-02 1.86828E-02
 -1       910 5.15885E-03-8.50764E-02 2.14880E-02
 -1       911 4.40404E-03-9.49424E-02 2.39599E-02
 -1       912 3.46093E-03-1.03068E-01 2.59951E-02
 -1       913 2.36079E-03-1.09107E-01 2.75057E-02
 -1       914 1.13691E-03-1.12778E-01 2.84207E-02
 -1       915-1.76150E-04-1.13868E-01 2.86862E-02
 -1       916-1.54323E-03-1.12235E-01 2.82661E-02
 -1       917-2.92942E-03-1.07808E-01 2.71422E-02
 -1       918-4.30090E-03-1.00586E-01 2.53142E-02
 -1       919-5.62580E-03-9.06325E-02 2.27982E-02
 -1       920-6.87506E-03-7.80763E-02 1.96264E-02
 -1       921-8.02329E-03-6.30998E-02 1.58446E-02
 -1       922-9.04956E-03-4.59333E-02 1.15100E-02
 -1       923-9.93818E-03-2.68453E-02 6.68745E-03
 -1       924-1.06793E-02-6.13145E-03 1.44607E-03
 -1       925-1.12695E-02 1.58976E-02-4.14334E-03
 -1       926-1.17114E-02 3.89309E-02-1.00051E-02
 -1       927-1.20136E-02 6.26746E-02-1.60442E-02
 -1       928-1.21904E-02 8.68718E-02-2.21210E-02
 -1       929-1.22617E-02 1.11324E-01-2.80254E-02
 -1       930-1.22643E-02 1.35899E-01-3.35141E-02
 -3
    1PSTEP                        18           1           1          
    1PGM                1.000000E+00                                  
    1PGK                4.427982E+05                                  
    1PHID                         -1                                  
    1PSUBC                         0                                  
    1PMODE                         5                                  
  100CL  105 105.9066076         930                     2    5MODAL      1
 -4  STRESS      6    1
 -5  SXX         1    4    1    1
 -5  SYY         1    4    2    2
 -5  SZZ         1    4    3    3
 -5  SXY         1    4    1    2
 -5  SYZ         1    4    2    3
 -5  SZX         1    4    3    1
 -1         1 4.49695E+08 1.92732E+08 1.92732E+08 1.62361E+09 4.94893E+02-3.93011E+07
 -1         2-4.49695E+08-1.92732E+08-1.92732E+08 1.62361E+09 4.94893E+02 3.93011E+07
 -1         3 2.72996E+08 3.58427E+08 5.69800E+08 5.89444E+08-5.62633E+07 4.69809E+08
 -1         4-2.72996E+08-3.58427E+08-5.69800E+08 5.89444E+08-5.62633E+07-4.69809E+08
 -1         5-4.49695E+08-1.92732E+08-1.92732E+08-1.62361E+09 4.94893E+02-3.93011E+07
 -1         6 4.49695E+08 1.92732E+08 1.92732E+08-1.62361E+09 4.94893E+02 3.93011E+07
 -1         7-2.72996E+08-3.58427E+08-5.69800E+08-5.89444E+08-5.62633E+07 4.69809E+08
 -1         8 2.72996E+08 3.58427E+08 5.69800E+08-5.89444E+08-5.62633E+07-4.69809E+08
 -1         9 3.74783E+08 1.60629E+08 1.60630E+08 1.75335E+09 4.19263E+02-3.83381E+07
 -1        10 1.38826E+08-8.96490E+06 5.08493E+08-1.32493E+09-3.25750E+08 2.50122E+08
 -1        11 8.47504E+09 3.63220E+09 3.63220E+09 2.14212E+09-2.26900E+02-8.00466E+08
 -1        12 9.22839E+09 3.95507E+09 3.95507E+09 2.01389E+09 3.53843E+02-9.36795E+08
 -1        13-1.85249E+08-1.95934E+08-7.20912E+07-1.01450E+09-1.65840E+08 3.73272E+08
 -1        14 2.16709E+08 3.00427E+08 1.97405E+08 1.00929E+09-1.85046E+08 3.73883E+08
 -1        15-3.74783E+08-1.60629E+08-1.60630E+08-1.75335E+09 4.19263E+02-3.83381E+07
 -1        16-1.38826E+08 8.96490E+06-5.08493E+08 1.32493E+09-3.25750E+08 2.50122E+08
 -1        17-9.22839E+09-3.95507E+09-3.95507E+09-2.01389E+09 3.53843E+02-9.36795E+08
 -1        18-8.47504E+09-3.63220E+09-3.63220E+09-2.14212E+09-2.26900E+02-8.00466E+08
 -1        19-2.16709E+08-3.00427E+08-1.97405E+08-1.00929E+09-1.85046E+08 3.73883E+08
 -1        20 1.85249E+08 1.95934E+08 7.20912E+07 1.01450E+09-1.65840E+08 3.73272E+08
 -1        21-9.22839E+09-3.95507E+09-3.95507E+09 2.01389E+09 3.53843E+02 9.36795E+08
 -1        22-8.47504E+09-3.63220E+09-3.63220E+09 2.14212E+09-2.26900E+02 8.00466E+08
 -1        23 1.85249E+08 1.95934E+08 7.20912E+07-1.01450E+09-1.65840E+08-3.73272E+08
 -1        24-2.16709E+08-3.00427E+08-1.97405E+08 1.00929E+09-1.85046E+08-3.73883E+08
 -1        25-3.74783E+08-1.60629E+08-1.60630E+08 1.75335E+09 4.19263E+02 3.83381E+07
 -1        26-1.38826E+08 8.96490E+06-5.08493E+08-1.32493E+09-3.25750E+08-2.50122E+08
 -1        27 3.74783E+08 1.60629E+08 1.60630E+08-1.75335E+09 4.19263E+02 3.83381E+07
 -1        28 8.47504E+09 3.63220E+09 3.63220E+09-2.14212E+09-2.26900E+02 8.00466E+08
 -1        29 9.22839E+09 3.95507E+09 3.95507E+09-2.01389E+09 3.53843E+02 9.36795E+08
 -1        30 1.38826E+08-8.96490E+06 5.08493E+08 1.32493E+09-3.25750E+08-2.50122E+08
 -1        31-1.85249E+08-1.95934E+08-7.20912E+07 1.01450E+09-1.65840E+08-3.73272E+08
 -1        32 2.16709E+08 3.00427E+08 1.97405E+08-1.00929E+09-1.85046E+08-3.73883E+08
 -1        33-2.88207E+08 1.06692E+08-4.37743E+07 1.03770E+08 1.97431E+07-1.27452E+07
 -1        34-2.63308E+08 4.85253E+07-1.02585E+08-2.42931E+07 5.41387E+06 6.88969E+07
 -1        35-2.03495E+08 2.09807E+07-8.25140E+07-7.98127E+07 5.64549E+06 1.16153E+08
 -1        36-1.45709E+08 1.06667E+07-7.07060E+07-1.31178E+08 2.08582E+06 1.51189E+08
 -1        37-8.61785E+07 4.50107E+05-4.84198E+07-1.68031E+08 1.75185E+05 1.75824E+08
 -1        38-2.85635E+07-7.80173E+06-2.66474E+07-1.89874E+08-1.85895E+06 1.88839E+08
 -1        39 2.54902E+07-1.56747E+07-6.09081E+06-1.98424E+08-3.84718E+06 1.91277E+08
 -1        40 7.52513E+07-2.33117E+07 1.23252E+07-1.93712E+08-5.66343E+06 1.83685E+08
 -1        41 1.20103E+08-3.04468E+07 2.85961E+07-1.77008E+08-7.34116E+06 1.66903E+08
 -1        42 1.59562E+08-3.68440E+07 4.27623E+07-1.49540E+08-8.82409E+06 1.41913E+08
 -1        43 1.93187E+08-4.22735E+07 5.48628E+07-1.12735E+08-1.00789E+07 1.09798E+08
 -1        44 2.20586E+08-4.65851E+07 6.48718E+07-6.80847E+07-1.10724E+07 7.17177E+07
 -1        45 2.41469E+08-4.96790E+07 7.27532E+07-1.71274E+07-1.17819E+07 2.88909E+07
 -1        46 2.55666E+08-5.14950E+07 7.84911E+07 3.85739E+07-1.21921E+07-1.74283E+07
 -1        47 2.63158E+08-5.20057E+07 8.21106E+07 9.74582E+07-1.22955E+07-6.59747E+07
 -1        48 2.64084E+08-5.12176E+07 8.36817E+07 1.57996E+08-1.20925E+07-1.15500E+08
 -1        49 2.58736E+08-4.91769E+07 8.33129E+07 2.18723E+08-1.15917E+07-1.64800E+08
 -1        50 2.47563E+08-4.59756E+07 8.11406E+07 2.78281E+08-1.08097E+07-2.12751E+08
 -1        51 2.31162E+08-4.17489E+07 7.73324E+07 3.35467E+08-9.76998E+06-2.58336E+08
 -1        52 2.10300E+08-3.66413E+07 7.21407E+07 3.89300E+08-8.49902E+06-3.00692E+08
 -1        53 1.85978E+08-3.07113E+07 6.60622E+07 4.39104E+08-7.01934E+06-3.39145E+08
 -1        54 1.59568E+08-2.37563E+07 6.01324E+07 4.84575E+08-5.34003E+06-3.73248E+08
 -1        55 1.32950E+08-1.51304E+07 5.62211E+07 5.25734E+08-3.44957E+06-4.02787E+08
 -1        56 1.08430E+08-3.89685E+06 5.67885E+07 5.62534E+08-1.38816E+06-4.27704E+08
 -1        57 8.77956E+07 1.00080E+07 6.28924E+07 5.93966E+08 7.08636E+05-4.47798E+08
 -1        58 6.98651E+07 2.29537E+07 6.88467E+07 6.16765E+08 1.98763E+06-4.62428E+08
 -1        59 4.67332E+07 2.24256E+07 5.49529E+07 6.24230E+08 3.59711E+06-4.69934E+08
 -1        60-3.20724E+06-1.72456E+07-2.57950E+07 6.12587E+08-1.60727E+06-4.71234E+08
 -1        61-1.04866E+08-1.32104E+08-2.33016E+08 5.77500E+08 1.50668E+05-4.66120E+08
 -1        62 2.88207E+08-1.06692E+08 4.37743E+07 1.03770E+08 1.97431E+07 1.27452E+07
 -1        63 2.63308E+08-4.85253E+07 1.02585E+08-2.42931E+07 5.41387E+06-6.88969E+07
 -1        64 2.03495E+08-2.09807E+07 8.25140E+07-7.98127E+07 5.64549E+06-1.16153E+08
 -1        65 1.45709E+08-1.06667E+07 7.07060E+07-1.31178E+08 2.08582E+06-1.51189E+08
 -1        66 8.61785E+07-4.50107E+05 4.84198E+07-1.68031E+08 1.75185E+05-1.75824E+08
 -1        67 2.85635E+07 7.80173E+06 2.66474E+07-1.89874E+08-1.85895E+06-1.88839E+08
 -1        68-2.54902E+07 1.56747E+07 6.09081E+06-1.98424E+08-3.84718E+06-1.91277E+08
 -1        69-7.52513E+07 2.33117E+07-1.23252E+07-1.93712E+08-5.66343E+06-1.83685E+08
 -1        70-1.20103E+08 3.04468E+07-2.85961E+07-1.77008E+08-7.34116E+06-1.66903E+08
 -1        71-1.59562E+08 3.68440E+07-4.27623E+07-1.49540E+08-8.82409E+06-1.41913E+08
 -1        72-1.93187E+08 4.22735E+07-5.48628E+07-1.12735E+08-1.00789E+07-1.09798E+08
 -1        73-2.20586E+08 4.65851E+07-6.48718E+07-6.80847E+07-1.10724E+07-7.17177E+07
 -1        74-2.41469E+08 4.96790E+07-7.27532E+07-1.71274E+07-1.17819E+07-2.88909E+07
 -1        75-2.55666E+08 5.14950E+07-7.84911E+07 3.85739E+07-1.21921E+07 1.74283E+07
 -1        76-2.63158E+08 5.20057E+07-8.21106E+07 9.74582E+07-1.22955E+07 6.59747E+07
 -1        77-2.64084E+08 5.12176E+07-8.36817E+07 1.57996E+08-1.20925E+07 1.15500E+08
 -1        78-2.58736E+08 4.91769E+07-8.33129E+07 2.18723E+08-1.15917E+07 1.64800E+08
 -1        79-2.47563E+08 4.59756E+07-8.11406E+07 2.78281E+08-1.08097E+07 2.12751E+08
 -1        80-2.31162E+08 4.17489E+07-7.73324E+07 3.35467E+08-9.76998E+06 2.58336E+08
 -1        81-2.10300E+08 3.66413E+07-7.21407E+07 3.89300E+08-8.49902E+06 3.00692E+08
 -1        82-1.85978E+08 3.07113E+07-6.60622E+07 4.39104E+08-7.01934E+06 3.39145E+08
 -1        83-1.59568E+08 2.37563E+07-6.01324E+07 4.84575E+08-5.34003E+06 3.73248E+08
 -1        84-1.32950E+08 1.51304E+07-5.62211E+07 5.25734E+08-3.44957E+06 4.02787E+08
 -1        85-1.08430E+08 3.89685E+06-5.67885E+07 5.62534E+08-1.38816E+06 4.27704E+08
 -1        86-8.77956E+07-1.00080E+07-6.28924E+07 5.93966E+08 7.08636E+05 4.47798E+08
 -1        87-6.98651E+07-2.29537E+07-6.88467E+07 6.16765E+08 1.98763E+06 4.62428E+08
 -1        88-4.67332E+07-2.24256E+07-5.49529E+07 6.24230E+08 3.59711E+06 4.69934E+08
 -1        89 3.20724E+06 1.72456E+07 2.57950E+07 6.12587E+08-1.60727E+06 4.71234E+08
 -1        90 1.04866E+08 1.32104E+08 2.33016E+08 5.77500E+08 1.50668E+05 4.66120E+08
 -1        91 2.35363E+08 1.00870E+08 1.00870E+08 7.93558E+08-1.10872E+02-3.74940E+07
 -1        92-1.94761E-01-8.34701E-02-8.34694E-02-2.53743E-01-1.87868E+02-3.64252E+07
 -1        93-2.35363E+08-1.00870E+08-1.00870E+08-7.93558E+08-1.10872E+02-3.74940E+07
 -1        94 2.35363E+08 1.00870E+08 1.00870E+08-7.93558E+08-1.10872E+02 3.74940E+07
 -1        95-5.37688E-02-2.30446E-02-2.30440E-02-2.52195E-01-1.87868E+02 3.64252E+07
 -1        96-2.35363E+08-1.00870E+08-1.00870E+08 7.93558E+08-1.10872E+02 3.74940E+07
 -1        97-2.88207E+08 1.06692E+08-4.37743E+07-1.03770E+08 1.97431E+07 1.27452E+07
 -1        98-2.63308E+08 4.85253E+07-1.02585E+08 2.42931E+07 5.41387E+06-6.88969E+07
 -1        99-2.03495E+08 2.09807E+07-8.25140E+07 7.98127E+07 5.64549E+06-1.16153E+08
 -1       100-1.45709E+08 1.06667E+07-7.07060E+07 1.31178E+08 2.08582E+06-1.51189E+08
 -1       101-8.61785E+07 4.50107E+05-4.84198E+07 1.68031E+08 1.75185E+05-1.75824E+08
 -1       102-2.85635E+07-7.80173E+06-2.66474E+07 1.89874E+08-1.85895E+06-1.88839E+08
 -1       103 2.54902E+07-1.56747E+07-6.09081E+06 1.98424E+08-3.84718E+06-1.91277E+08
 -1       104 7.52513E+07-2.33117E+07 1.23252E+07 1.93712E+08-5.66343E+06-1.83685E+08
 -1       105 1.20103E+08-3.04468E+07 2.85961E+07 1.77008E+08-7.34116E+06-1.66903E+08
 -1       106 1.59562E+08-3.68440E+07 4.27623E+07 1.49540E+08-8.82409E+06-1.41913E+08
 -1       107 1.93187E+08-4.22735E+07 5.48628E+07 1.12735E+08-1.00789E+07-1.09798E+08
 -1       108 2.20586E+08-4.65851E+07 6.48718E+07 6.80847E+07-1.10724E+07-7.17177E+07
 -1       109 2.41469E+08-4.96790E+07 7.27532E+07 1.71274E+07-1.17819E+07-2.88909E+07
 -1       110 2.55666E+08-5.14950E+07 7.84911E+07-3.85739E+07-1.21921E+07 1.74283E+07
 -1       111 2.63158E+08-5.20057E+07 8.21106E+07-9.74582E+07-1.22955E+07 6.59747E+07
 -1       112 2.64084E+08-5.12176E+07 8.36817E+07-1.57996E+08-1.20925E+07 1.15500E+08
 -1       113 2.58736E+08-4.91769E+07 8.33129E+07-2.18723E+08-1.15917E+07 1.64800E+08
 -1       114 2.47563E+08-4.59756E+07 8.11406E+07-2.78281E+08-1.08097E+07 2.12751E+08
 -1       115 2.31162E+08-4.17489E+07 7.73324E+07-3.35467E+08-9.76998E+06 2.58336E+08
 -1       116 2.10300E+08-3.66413E+07 7.21407E+07-3.89300E+08-8.49902E+06 3.00692E+08
 -1       117 1.85978E+08-3.07113E+07 6.60622E+07-4.39104E+08-7.01934E+06 3.39145E+08
 -1       118 1.59568E+08-2.37563E+07 6.01324E+07-4.84575E+08-5.34004E+06 3.73248E+08
 -1       119 1.32950E+08-1.51304E+07 5.62211E+07-5.25734E+08-3.44957E+06 4.02787E+08
 -1       120 1.08430E+08-3.89685E+06 5.67885E+07-5.62534E+08-1.38816E+06 4.27704E+08
 -1       121 8.77956E+07 1.00080E+07 6.28924E+07-5.93966E+08 7.08636E+05 4.47798E+08
 -1       122 6.98651E+07 2.29537E+07 6.88467E+07-6.16765E+08 1.98763E+06 4.62428E+08
 -1       123 4.67332E+07 2.24256E+07 5.49529E+07-6.24230E+08 3.59711E+06 4.69934E+08
 -1       124-3.20724E+06-1.72456E+07-2.57950E+07-6.12587E+08-1.60727E+06 4.71234E+08
 -1       125-1.04866E+08-1.32104E+08-2.33016E+08-5.77500E+08 1.50668E+05 4.66120E+08
 -1       126 7.13572E+07 7.52804E+07 1.79577E+08-4.83960E+07-1.36476E+08 9.24618E+08
 -1       127-2.08654E-02-2.12312E-02 3.79214E-02 1.14225E-03-1.42893E+08 9.40257E+08
 -1       128-7.13572E+07-7.52804E+07-1.79577E+08 4.83960E+07-1.36476E+08 9.24618E+08
 -1       129 2.88207E+08-1.06692E+08 4.37743E+07-1.03770E+08 1.97431E+07-1.27452E+07
 -1       130 2.63308E+08-4.85253E+07 1.02585E+08 2.42931E+07 5.41387E+06 6.88969E+07
 -1       131 2.03495E+08-2.09807E+07 8.25140E+07 7.98127E+07 5.64549E+06 1.16153E+08
 -1       132 1.45709E+08-1.06667E+07 7.07060E+07 1.31178E+08 2.08582E+06 1.51189E+08
 -1       133 8.61785E+07-4.50107E+05 4.84198E+07 1.68031E+08 1.75185E+05 1.75824E+08
 -1       134 2.85635E+07 7.80173E+06 2.66474E+07 1.89874E+08-1.85895E+06 1.88839E+08
 -1       135-2.54902E+07 1.56747E+07 6.09081E+06 1.98424E+08-3.84718E+06 1.91277E+08
 -1       136-7.52513E+07 2.33117E+07-1.23252E+07 1.93712E+08-5.66343E+06 1.83685E+08
 -1       137-1.20103E+08 3.04468E+07-2.85961E+07 1.77008E+08-7.34116E+06 1.66903E+08
 -1       138-1.59562E+08 3.68440E+07-4.27623E+07 1.49540E+08-8.82409E+06 1.41913E+08
 -1       139-1.93187E+08 4.22735E+07-5.48628E+07 1.12735E+08-1.00789E+07 1.09798E+08
 -1       140-2.20586E+08 4.65851E+07-6.48718E+07 6.80847E+07-1.10724E+07 7.17177E+07
 -1       141-2.41469E+08 4.96790E+07-7.27532E+07 1.71274E+07-1.17819E+07 2.88909E+07
 -1       142-2.55666E+08 5.14950E+07-7.84911E+07-3.85739E+07-1.21921E+07-1.74283E+07
 -1       143-2.63158E+08 5.20057E+07-8.21106E+07-9.74582E+07-1.22955E+07-6.59747E+07
 -1       144-2.64084E+08 5.12176E+07-8.36817E+07-1.57996E+08-1.20925E+07-1.15500E+08
 -1       145-2.58736E+08 4.91769E+07-8.33129E+07-2.18723E+08-1.15917E+07-1.64800E+08
 -1       146-2.47563E+08 4.59756E+07-8.11406E+07-2.78281E+08-1.08097E+07-2.12751E+08
 -1       147-2.31162E+08 4.17489E+07-7.73324E+07-3.35467E+08-9.76998E+06-2.58336E+08
 -1       148-2.10300E+08 3.66413E+07-7.21407E+07-3.89300E+08-8.49902E+06-3.00692E+08
 -1       149-1.85978E+08 3.07113E+07-6.60622E+07-4.39104E+08-7.01934E+06-3.39145E+08
 -1       150-1.59568E+08 2.37563E+07-6.01324E+07-4.84575E+08-5.34003E+06-3.73248E+08
 -1       151-1.32950E+08 1.51304E+07-5.62211E+07-5.25734E+08-3.44957E+06-4.02787E+08
 -1       152-1.08430E+08 3.89685E+06-5.67885E+07-5.62534E+08-1.38816E+06-4.27704E+08
 -1       153-8.77956E+07-1.00080E+07-6.28924E+07-5.93966E+08 7.08636E+05-4.47798E+08
 -1       154-6.98651E+07-2.29537E+07-6.88467E+07-6.16765E+08 1.98763E+06-4.62428E+08
 -1       155-4.67332E+07-2.24256E+07-5.49529E+07-6.24230E+08 3.59711E+06-4.69934E+08
 -1       156 3.20724E+06 1.72456E+07 2.57950E+07-6.12587E+08-1.60727E+06-4.71234E+08
 -1       157 1.04866E+08 1.32104E+08 2.33016E+08-5.77500E+08 1.50668E+05-4.66120E+08
 -1       158 7.13572E+07 7.52804E+07 1.79577E+08 4.83960E+07-1.36476E+08-9.24618E+08
 -1       159 3.12841E-03 2.58271E-03 9.36414E-02 2.06558E-04-1.42893E+08-9.40257E+08
 -1       160-7.13572E+07-7.52804E+07-1.79577E+08-4.83960E+07-1.36476E+08-9.24618E+08
 -1       161 1.82421E+08-2.79966E+08-4.78027E+07 7.37043E+08-6.95808E+07 8.61436E+07
 -1       162 2.14193E+08-1.70336E+08 6.45382E+07 8.29977E+08-3.95575E+07 2.15170E+07
 -1       163 1.56334E+08-1.24883E+08 4.38706E+07 9.78196E+08-4.66729E+07-4.10976E+06
 -1       164 1.12378E+08-8.91380E+07 4.57297E+07 1.07122E+09-3.46468E+07-2.51560E+07
 -1       165 6.70525E+07-4.92593E+07 3.44413E+07 1.12296E+09-2.41105E+07-4.14234E+07
 -1       166 2.29720E+07-1.26272E+07 2.37113E+07 1.13542E+09-1.21882E+07-5.18166E+07
 -1       167-1.81936E+07 2.20242E+07 1.35301E+07 1.10756E+09-1.32118E+06-5.69177E+07
 -1       168-5.61002E+07 5.41332E+07 4.71676E+06 1.04142E+09 8.61198E+06-5.70157E+07
 -1       169-9.02796E+07 8.32009E+07-2.88094E+06 9.39730E+08 1.73866E+07-5.25142E+07
 -1       170-1.20359E+08 1.08843E+08-9.40723E+06 8.06169E+08 2.50530E+07-4.39186E+07
 -1       171-1.46003E+08 1.30683E+08-1.50096E+07 6.45049E+08 3.15906E+07-3.17593E+07
 -1       172-1.66913E+08 1.48426E+08-1.97494E+07 4.61160E+08 3.69784E+07-1.65909E+07
 -1       173-1.82871E+08 1.61857E+08-2.36572E+07 2.59660E+08 4.11874E+07 1.02255E+06
 -1       174-1.93753E+08 1.70853E+08-2.67570E+07 4.59601E+07 4.42037E+07 2.05132E+07
 -1       175-1.99547E+08 1.75388E+08-2.90836E+07-1.74381E+08 4.60366E+07 4.13194E+07
 -1       176-2.00361E+08 1.75546E+08-3.06852E+07-3.95789E+08 4.67206E+07 6.28954E+07
 -1       177-1.96423E+08 1.71517E+08-3.16157E+07-6.12799E+08 4.63132E+07 8.47243E+07
 -1       178-1.88077E+08 1.63604E+08-3.19258E+07-8.20205E+08 4.48901E+07 1.06331E+08
 -1       179-1.75784E+08 1.52216E+08-3.16657E+07-1.01321E+09 4.25483E+07 1.27302E+08
 -1       180-1.60126E+08 1.37868E+08-3.09377E+07-1.18763E+09 3.94311E+07 1.47305E+08
 -1       181-1.41851E+08 1.21161E+08-3.00486E+07-1.34007E+09 3.58026E+07 1.66122E+08
 -1       182-1.21962E+08 1.02761E+08-2.97921E+07-1.46810E+09 3.21732E+07 1.83667E+08
 -1       183-1.01811E+08 8.33768E+07-3.17280E+07-1.57016E+09 2.94362E+07 1.99977E+08
 -1       184-8.30762E+07 6.37466E+07-3.79599E+07-1.64492E+09 2.86464E+07 2.15100E+08
 -1       185-6.72470E+07 4.46353E+07-4.92764E+07-1.68937E+09 3.03797E+07 2.28729E+08
 -1       186-5.36912E+07 2.76691E+07-5.97508E+07-1.69674E+09 3.09692E+07 2.39978E+08
 -1       187-3.90214E+07 1.28344E+07-5.20560E+07-1.65452E+09 2.46305E+07 2.46540E+08
 -1       188-5.16838E+06 8.60192E+06 2.21437E+07-1.55179E+09-2.20021E+07 2.48383E+08
 -1       189 5.98633E+07 1.28718E+07 2.19142E+08-1.42392E+09-9.18246E+07 2.43697E+08
 -1       190 4.11255E+09 1.76255E+09 1.76255E+09 1.85895E+09-2.81196E+02-4.20326E+08
 -1       191 4.50816E+09 1.93210E+09 1.93210E+09 1.72560E+09 2.79037E+02-4.86495E+08
 -1       192-2.79449E+08-4.46574E+08-3.34044E+08-1.11802E+09-1.72148E+08-5.13271E+07
 -1       193 5.58609E+09-3.59601E+08-1.05761E+09 4.55507E+08-6.26641E+07 6.67096E+07
 -1       194 5.32138E+09 5.32455E+08 2.57803E+08 5.06818E+08-3.59606E+07-3.80118E+07
 -1       195 3.91535E+09 2.72403E+08-3.69832E+07 6.35833E+08-3.47882E+07-6.61992E+07
 -1       196 2.73018E+09 2.12918E+08 3.08835E+07 7.15594E+08-2.29792E+07-8.83060E+07
 -1       197 1.54146E+09 1.15443E+08 8.57626E+06 7.69604E+08-1.38578E+07-9.86262E+07
 -1       198 4.21580E+08 3.35967E+07 9.80800E+06 7.89822E+08-4.58338E+06-1.04447E+08
 -1       199-6.33668E+08-4.52134E+07 6.92320E+06 7.78637E+08 3.92104E+06-1.05121E+08
 -1       200-1.60798E+09-1.17225E+08 5.74217E+06 7.36592E+08 1.17464E+07-1.00843E+08
 -1       201-2.48996E+09-1.82475E+08 4.59261E+06 6.66069E+08 1.87880E+07-9.16829E+07
 -1       202-3.26751E+09-2.39999E+08 3.62618E+06 5.70015E+08 2.49886E+07-7.79776E+07
 -1       203-3.93000E+09-2.89049E+08 2.72703E+06 4.51872E+08 3.02756E+07-6.02543E+07
 -1       204-4.46863E+09-3.28962E+08 1.89547E+06 3.15411E+08 3.45872E+07-3.91545E+07
 -1       205-4.87698E+09-3.59260E+08 1.11967E+06 1.64639E+08 3.78757E+07-1.53722E+07
 -1       206-5.15137E+09-3.79672E+08 3.87799E+05 3.72689E+06 4.01146E+07 1.03784E+07
 -1       207-5.29116E+09-3.90154E+08-3.19022E+05-1.63071E+08 4.13011E+07 3.73818E+07
 -1       208-5.29890E+09-3.90903E+08-1.02368E+06-3.31510E+08 4.14575E+07 6.49357E+07
 -1       209-5.18042E+09-3.82360E+08-1.74941E+06-4.97446E+08 4.06311E+07 9.23720E+07
 -1       210-4.94484E+09-3.65203E+08-2.50998E+06-6.56953E+08 3.88926E+07 1.19088E+08
 -1       211-4.60446E+09-3.40325E+08-3.29117E+06-8.06447E+08 3.63339E+07 1.44591E+08
 -1       212-4.17453E+09-3.08795E+08-4.02802E+06-9.42859E+08 3.30667E+07 1.68529E+08
 -1       213-3.67307E+09-2.71826E+08-4.60705E+06-1.06384E+09 2.92323E+07 1.90668E+08
 -1       214-3.12085E+09-2.30813E+08-4.96721E+06-1.16790E+09 2.50201E+07 2.10683E+08
 -1       215-2.54187E+09-1.87564E+08-5.40856E+06-1.25432E+09 2.07448E+07 2.27626E+08
 -1       216-1.96464E+09-1.44854E+08-7.18132E+06-1.32224E+09 1.67986E+07 2.39246E+08
 -1       217-1.42380E+09-1.07348E+08-1.31312E+07-1.36864E+09 1.39061E+07 2.41471E+08
 -1       218-9.59609E+08-8.12272E+07-2.73313E+07-1.38505E+09 1.19670E+07 2.29797E+08
 -1       219-6.09762E+08-7.53099E+07-5.24643E+07-1.35512E+09 1.20262E+07 2.10306E+08
 -1       220-3.88789E+08-8.59916E+07-7.92469E+07-1.27009E+09 2.53829E+06 1.98159E+08
 -1       221-2.19254E+08-7.38405E+07-5.74395E+07-1.11863E+09 1.93402E+07 2.85540E+08
 -1       222 6.20403E+09-1.28932E+08-8.03031E+08-1.54816E+07 1.01072E+08 2.78092E+07
 -1       223 5.76630E+09 7.12536E+08 4.45304E+08-2.92077E+08 5.05961E+07-3.42418E+06
 -1       224 4.24461E+09 4.09075E+08 1.02794E+08-4.01845E+08 4.47794E+07-4.94196E+07
 -1       225 2.96291E+09 3.13526E+08 1.30886E+08-4.95629E+08 2.72703E+07-6.74114E+07
 -1       226 1.67731E+09 1.76505E+08 6.76488E+07-5.55541E+08 1.49549E+07-7.97958E+07
 -1       227 4.59600E+08 5.50815E+07 2.76597E+07-5.87905E+08 2.13084E+06-8.62972E+07
 -1       228-6.91243E+08-6.23932E+07-1.55033E+07-5.90086E+08-9.81584E+06-8.82445E+07
 -1       229-1.75544E+09-1.70562E+08-5.44973E+07-5.64070E+08-2.10042E+07-8.53767E+07
 -1       230-2.71915E+09-2.68565E+08-8.99937E+07-5.11838E+08-3.11771E+07-7.78562E+07
 -1       231-3.56869E+09-3.54891E+08-1.21196E+08-4.36177E+08-4.01626E+07-6.59800E+07
 -1       232-4.29237E+09-4.28436E+08-1.47800E+08-3.40216E+08-4.78071E+07-5.02512E+07
 -1       233-4.88065E+09-4.88287E+08-1.69507E+08-2.27328E+08-5.39944E+07-3.12737E+07
 -1       234-5.32659E+09-5.33781E+08-1.86121E+08-1.01047E+08-5.86416E+07-9.69877E+06
 -1       235-5.62623E+09-5.64544E+08-1.97531E+08 3.49851E+07-6.16998E+07 1.38076E+07
 -1       236-5.77885E+09-5.80520E+08-2.03734E+08 1.77089E+08-6.31560E+07 3.85816E+07
 -1       237-5.78720E+09-5.81999E+08-2.04844E+08 3.21617E+08-6.30351E+07 6.39753E+07
 -1       238-5.65765E+09-5.69628E+08-2.01099E+08 4.65038E+08-6.14022E+07 8.93756E+07
 -1       239-5.40015E+09-5.44417E+08-1.92866E+08 6.04028E+08-5.83652E+07 1.14235E+08
 -1       240-5.02827E+09-5.07756E+08-1.80666E+08 7.35592E+08-5.40752E+07 1.38112E+08
 -1       241-4.55912E+09-4.61434E+08-1.65199E+08 8.57218E+08-4.87234E+07 1.60707E+08
 -1       242-4.01316E+09-4.07672E+08-1.47386E+08 9.67075E+08-4.25219E+07 1.81830E+08
 -1       243-3.41379E+09-3.49095E+08-1.28335E+08 1.06417E+09-3.56709E+07 2.01196E+08
 -1       244-2.78653E+09-2.88520E+08-1.09096E+08 1.14825E+09-2.82664E+07 2.17894E+08
 -1       245-2.15726E+09-2.28273E+08-8.99927E+07 1.21886E+09-2.03532E+07 2.29712E+08
 -1       246-1.54976E+09-1.68875E+08-6.93793E+07 1.27333E+09-1.17335E+07 2.32625E+08
 -1       247-9.84215E+08-1.08164E+08-4.27943E+07 1.30334E+09-3.28333E+06 2.22186E+08
 -1       248-4.82911E+08-4.00012E+07-3.81634E+06 1.29206E+09 4.82125E+06 2.04549E+08
 -1       249-8.45130E+07 3.58491E+07 4.85880E+07 1.22923E+09-1.12738E+06 1.94976E+08
 -1       250 1.04731E+08 8.72195E+07 8.80738E+07 1.09718E+09 1.15326E+07 2.84997E+08
 -1       251 9.55744E+07 2.73497E+08-5.51518E+06 1.10580E+09-1.46261E+08-5.55999E+07
 -1       252-5.98633E+07-1.28718E+07-2.19142E+08 1.42392E+09-9.18246E+07 2.43697E+08
 -1       253 5.16838E+06-8.60192E+06-2.21437E+07 1.55179E+09-2.20021E+07 2.48383E+08
 -1       254 3.90214E+07-1.28344E+07 5.20560E+07 1.65452E+09 2.46305E+07 2.46540E+08
 -1       255 5.36912E+07-2.76691E+07 5.97508E+07 1.69674E+09 3.09692E+07 2.39978E+08
 -1       256 6.72470E+07-4.46353E+07 4.92764E+07 1.68937E+09 3.03797E+07 2.28729E+08
 -1       257 8.30762E+07-6.37466E+07 3.79599E+07 1.64492E+09 2.86464E+07 2.15100E+08
 -1       258 1.01811E+08-8.33768E+07 3.17280E+07 1.57016E+09 2.94362E+07 1.99977E+08
 -1       259 1.21962E+08-1.02761E+08 2.97921E+07 1.46810E+09 3.21732E+07 1.83667E+08
 -1       260 1.41851E+08-1.21161E+08 3.00486E+07 1.34007E+09 3.58026E+07 1.66122E+08
 -1       261 1.60126E+08-1.37868E+08 3.09377E+07 1.18763E+09 3.94311E+07 1.47305E+08
 -1       262 1.75784E+08-1.52216E+08 3.16657E+07 1.01321E+09 4.25483E+07 1.27302E+08
 -1       263 1.88077E+08-1.63604E+08 3.19258E+07 8.20205E+08 4.48901E+07 1.06331E+08
 -1       264 1.96423E+08-1.71517E+08 3.16157E+07 6.12799E+08 4.63132E+07 8.47243E+07
 -1       265 2.00361E+08-1.75546E+08 3.06852E+07 3.95789E+08 4.67206E+07 6.28954E+07
 -1       266 1.99547E+08-1.75388E+08 2.90836E+07 1.74381E+08 4.60366E+07 4.13194E+07
 -1       267 1.93753E+08-1.70853E+08 2.67570E+07-4.59601E+07 4.42037E+07 2.05132E+07
 -1       268 1.82871E+08-1.61857E+08 2.36572E+07-2.59660E+08 4.11874E+07 1.02255E+06
 -1       269 1.66913E+08-1.48426E+08 1.97494E+07-4.61160E+08 3.69784E+07-1.65909E+07
 -1       270 1.46003E+08-1.30683E+08 1.50096E+07-6.45049E+08 3.15906E+07-3.17593E+07
 -1       271 1.20359E+08-1.08843E+08 9.40723E+06-8.06169E+08 2.50530E+07-4.39186E+07
 -1       272 9.02796E+07-8.32009E+07 2.88094E+06-9.39730E+08 1.73866E+07-5.25142E+07
 -1       273 5.61002E+07-5.41332E+07-4.71676E+06-1.04142E+09 8.61198E+06-5.70157E+07
 -1       274 1.81936E+07-2.20242E+07-1.35301E+07-1.10756E+09-1.32118E+06-5.69177E+07
 -1       275-2.29720E+07 1.26272E+07-2.37113E+07-1.13542E+09-1.21882E+07-5.18166E+07
 -1       276-6.70525E+07 4.92593E+07-3.44413E+07-1.12296E+09-2.41105E+07-4.14234E+07
 -1       277-1.12378E+08 8.91380E+07-4.57297E+07-1.07122E+09-3.46468E+07-2.51560E+07
 -1       278-1.56334E+08 1.24883E+08-4.38706E+07-9.78196E+08-4.66729E+07-4.10976E+06
 -1       279-2.14193E+08 1.70336E+08-6.45382E+07-8.29977E+08-3.95575E+07 2.15170E+07
 -1       280-1.82421E+08 2.79966E+08 4.78027E+07-7.37043E+08-6.95808E+07 8.61436E+07
 -1       281-4.50816E+09-1.93210E+09-1.93210E+09-1.72560E+09 2.79037E+02-4.86495E+08
 -1       282-4.11256E+09-1.76255E+09-1.76255E+09-1.85895E+09-2.81196E+02-4.20326E+08
 -1       283-6.20403E+09 1.28932E+08 8.03031E+08 1.54816E+07 1.01072E+08 2.78092E+07
 -1       284-5.76630E+09-7.12536E+08-4.45304E+08 2.92077E+08 5.05961E+07-3.42418E+06
 -1       285-4.24461E+09-4.09075E+08-1.02794E+08 4.01845E+08 4.47794E+07-4.94196E+07
 -1       286-2.96291E+09-3.13526E+08-1.30886E+08 4.95629E+08 2.72703E+07-6.74114E+07
 -1       287-1.67731E+09-1.76505E+08-6.76488E+07 5.55541E+08 1.49549E+07-7.97958E+07
 -1       288-4.59600E+08-5.50815E+07-2.76597E+07 5.87905E+08 2.13084E+06-8.62972E+07
 -1       289 6.91243E+08 6.23932E+07 1.55033E+07 5.90086E+08-9.81584E+06-8.82445E+07
 -1       290 1.75544E+09 1.70562E+08 5.44973E+07 5.64070E+08-2.10042E+07-8.53767E+07
 -1       291 2.71915E+09 2.68565E+08 8.99937E+07 5.11838E+08-3.11771E+07-7.78562E+07
 -1       292 3.56869E+09 3.54891E+08 1.21196E+08 4.36177E+08-4.01626E+07-6.59800E+07
 -1       293 4.29237E+09 4.28436E+08 1.47800E+08 3.40216E+08-4.78071E+07-5.02512E+07
 -1       294 4.88065E+09 4.88287E+08 1.69507E+08 2.27328E+08-5.39944E+07-3.12737E+07
 -1       295 5.32659E+09 5.33781E+08 1.86121E+08 1.01047E+08-5.86416E+07-9.69877E+06
 -1       296 5.62623E+09 5.64544E+08 1.97531E+08-3.49851E+07-6.16998E+07 1.38076E+07
 -1       297 5.77885E+09 5.80520E+08 2.03734E+08-1.77089E+08-6.31560E+07 3.85816E+07
 -1       298 5.78720E+09 5.81999E+08 2.04844E+08-3.21617E+08-6.30351E+07 6.39753E+07
 -1       299 5.65765E+09 5.69628E+08 2.01099E+08-4.65038E+08-6.14022E+07 8.93756E+07
 -1       300 5.40015E+09 5.44417E+08 1.92866E+08-6.04028E+08-5.83652E+07 1.14235E+08
 -1       301 5.02827E+09 5.07756E+08 1.80666E+08-7.35592E+08-5.40752E+07 1.38112E+08
 -1       302 4.55912E+09 4.61434E+08 1.65199E+08-8.57218E+08-4.87234E+07 1.60707E+08
 -1       303 4.01316E+09 4.07672E+08 1.47386E+08-9.67075E+08-4.25219E+07 1.81830E+08
 -1       304 3.41379E+09 3.49095E+08 1.28335E+08-1.06417E+09-3.56709E+07 2.01196E+08
 -1       305 2.78653E+09 2.88520E+08 1.09096E+08-1.14825E+09-2.82664E+07 2.17894E+08
 -1       306 2.15726E+09 2.28273E+08 8.99927E+07-1.21886E+09-2.03532E+07 2.29712E+08
 -1       307 1.54976E+09 1.68875E+08 6.93793E+07-1.27333E+09-1.17335E+07 2.32625E+08
 -1       308 9.84215E+08 1.08164E+08 4.27943E+07-1.30334E+09-3.28333E+06 2.22186E+08
 -1       309 4.82911E+08 4.00012E+07 3.81634E+06-1.29206E+09 4.82125E+06 2.04549E+08
 -1       310 8.45130E+07-3.58491E+07-4.85880E+07-1.22923E+09-1.12738E+06 1.94976E+08
 -1       311-1.04731E+08-8.72195E+07-8.80738E+07-1.09718E+09 1.15326E+07 2.84997E+08
 -1       312-9.55744E+07-2.73497E+08 5.51518E+06-1.10580E+09-1.46261E+08-5.55999E+07
 -1       313-5.58609E+09 3.59601E+08 1.05761E+09-4.55507E+08-6.26641E+07 6.67096E+07
 -1       314-5.32138E+09-5.32455E+08-2.57803E+08-5.06818E+08-3.59606E+07-3.80118E+07
 -1       315-3.91535E+09-2.72403E+08 3.69832E+07-6.35833E+08-3.47882E+07-6.61992E+07
 -1       316-2.73018E+09-2.12918E+08-3.08835E+07-7.15594E+08-2.29792E+07-8.83060E+07
 -1       317-1.54146E+09-1.15443E+08-8.57626E+06-7.69604E+08-1.38578E+07-9.86262E+07
 -1       318-4.21580E+08-3.35967E+07-9.80800E+06-7.89822E+08-4.58338E+06-1.04447E+08
 -1       319 6.33668E+08 4.52134E+07-6.92320E+06-7.78637E+08 3.92104E+06-1.05121E+08
 -1       320 1.60798E+09 1.17225E+08-5.74217E+06-7.36592E+08 1.17464E+07-1.00843E+08
 -1       321 2.48996E+09 1.82475E+08-4.59261E+06-6.66069E+08 1.87880E+07-9.16829E+07
 -1       322 3.26751E+09 2.39999E+08-3.62618E+06-5.70015E+08 2.49886E+07-7.79776E+07
 -1       323 3.93000E+09 2.89049E+08-2.72703E+06-4.51872E+08 3.02756E+07-6.02543E+07
 -1       324 4.46863E+09 3.28962E+08-1.89547E+06-3.15411E+08 3.45872E+07-3.91545E+07
 -1       325 4.87698E+09 3.59260E+08-1.11967E+06-1.64639E+08 3.78757E+07-1.53722E+07
 -1       326 5.15137E+09 3.79672E+08-3.87799E+05-3.72689E+06 4.01146E+07 1.03784E+07
 -1       327 5.29116E+09 3.90154E+08 3.19022E+05 1.63071E+08 4.13011E+07 3.73818E+07
 -1       328 5.29890E+09 3.90903E+08 1.02368E+06 3.31510E+08 4.14575E+07 6.49357E+07
 -1       329 5.18042E+09 3.82360E+08 1.74941E+06 4.97446E+08 4.06311E+07 9.23720E+07
 -1       330 4.94484E+09 3.65203E+08 2.50998E+06 6.56953E+08 3.88926E+07 1.19088E+08
 -1       331 4.60446E+09 3.40325E+08 3.29117E+06 8.06447E+08 3.63339E+07 1.44591E+08
 -1       332 4.17453E+09 3.08795E+08 4.02802E+06 9.42859E+08 3.30667E+07 1.68529E+08
 -1       333 3.67307E+09 2.71826E+08 4.60705E+06 1.06384E+09 2.92323E+07 1.90668E+08
 -1       334 3.12085E+09 2.30813E+08 4.96721E+06 1.16790E+09 2.50201E+07 2.10683E+08
 -1       335 2.54187E+09 1.87564E+08 5.40856E+06 1.25432E+09 2.07448E+07 2.27626E+08
 -1       336 1.96464E+09 1.44854E+08 7.18132E+06 1.32224E+09 1.67986E+07 2.39246E+08
 -1       337 1.42380E+09 1.07348E+08 1.31312E+07 1.36864E+09 1.39061E+07 2.41471E+08
 -1       338 9.59609E+08 8.12272E+07 2.73313E+07 1.38505E+09 1.19670E+07 2.29797E+08
 -1       339 6.09762E+08 7.53099E+07 5.24643E+07 1.35512E+09 1.20262E+07 2.10306E+08
 -1       340 3.88789E+08 8.59916E+07 7.92469E+07 1.27009E+09 2.53829E+06 1.98159E+08
 -1       341 2.19254E+08 7.38405E+07 5.74395E+07 1.11863E+09 1.93402E+07 2.85540E+08
 -1       342 2.79449E+08 4.46574E+08 3.34044E+08 1.11802E+09-1.72148E+08-5.13271E+07
 -1       343-5.58609E+09 3.59601E+08 1.05761E+09 4.55507E+08-6.26641E+07-6.67096E+07
 -1       344-5.32138E+09-5.32455E+08-2.57803E+08 5.06818E+08-3.59606E+07 3.80118E+07
 -1       345-3.91535E+09-2.72403E+08 3.69832E+07 6.35833E+08-3.47882E+07 6.61992E+07
 -1       346-2.73018E+09-2.12918E+08-3.08835E+07 7.15594E+08-2.29792E+07 8.83060E+07
 -1       347-1.54146E+09-1.15443E+08-8.57626E+06 7.69604E+08-1.38578E+07 9.86262E+07
 -1       348-4.21580E+08-3.35967E+07-9.80800E+06 7.89822E+08-4.58338E+06 1.04447E+08
 -1       349 6.33668E+08 4.52134E+07-6.92320E+06 7.78637E+08 3.92104E+06 1.05121E+08
 -1       350 1.60798E+09 1.17225E+08-5.74217E+06 7.36592E+08 1.17464E+07 1.00843E+08
 -1       351 2.48996E+09 1.82475E+08-4.59261E+06 6.66069E+08 1.87880E+07 9.16829E+07
 -1       352 3.26751E+09 2.39999E+08-3.62618E+06 5.70015E+08 2.49886E+07 7.79776E+07
 -1       353 3.93000E+09 2.89049E+08-2.72703E+06 4.51872E+08 3.02756E+07 6.02543E+07
 -1       354 4.46863E+09 3.28962E+08-1.89547E+06 3.15411E+08 3.45872E+07 3.91545E+07
 -1       355 4.87698E+09 3.59260E+08-1.11967E+06 1.64639E+08 3.78757E+07 1.53722E+07
 -1       356 5.15137E+09 3.79672E+08-3.87799E+05 3.72689E+06 4.01146E+07-1.03784E+07
 -1       357 5.29116E+09 3.90154E+08 3.19022E+05-1.63071E+08 4.13011E+07-3.73818E+07
 -1       358 5.29890E+09 3.90903E+08 1.02368E+06-3.31510E+08 4.14575E+07-6.49357E+07
 -1       359 5.18042E+09 3.82360E+08 1.74941E+06-4.97446E+08 4.06311E+07-9.23720E+07
 -1       360 4.94484E+09 3.65203E+08 2.50998E+06-6.56953E+08 3.88926E+07-1.19088E+08
 -1       361 4.60446E+09 3.40325E+08 3.29117E+06-8.06447E+08 3.63339E+07-1.44591E+08
 -1       362 4.17453E+09 3.08795E+08 4.02802E+06-9.42859E+08 3.30667E+07-1.68529E+08
 -1       363 3.67307E+09 2.71826E+08 4.60705E+06-1.06384E+09 2.92323E+07-1.90668E+08
 -1       364 3.12085E+09 2.30813E+08 4.96721E+06-1.16790E+09 2.50201E+07-2.10683E+08
 -1       365 2.54187E+09 1.87564E+08 5.40856E+06-1.25432E+09 2.07448E+07-2.27626E+08
 -1       366 1.96464E+09 1.44854E+08 7.18132E+06-1.32224E+09 1.67986E+07-2.39246E+08
 -1       367 1.42380E+09 1.07348E+08 1.31312E+07-1.36864E+09 1.39061E+07-2.41471E+08
 -1       368 9.59609E+08 8.12272E+07 2.73313E+07-1.38505E+09 1.19670E+07-2.29797E+08
 -1       369 6.09762E+08 7.53099E+07 5.24643E+07-1.35512E+09 1.20262E+07-2.10306E+08
 -1       370 3.88789E+08 8.59916E+07 7.92469E+07-1.27009E+09 2.53829E+06-1.98159E+08
 -1       371 2.19254E+08 7.38405E+07 5.74395E+07-1.11863E+09 1.93402E+07-2.85540E+08
 -1       372-6.20403E+09 1.28932E+08 8.03031E+08-1.54816E+07 1.01072E+08-2.78092E+07
 -1       373-5.76630E+09-7.12536E+08-4.45304E+08-2.92077E+08 5.05961E+07 3.42418E+06
 -1       374-4.24461E+09-4.09075E+08-1.02794E+08-4.01845E+08 4.47794E+07 4.94196E+07
 -1       375-2.96291E+09-3.13526E+08-1.30886E+08-4.95629E+08 2.72703E+07 6.74114E+07
 -1       376-1.67731E+09-1.76505E+08-6.76488E+07-5.55541E+08 1.49549E+07 7.97958E+07
 -1       377-4.59600E+08-5.50815E+07-2.76597E+07-5.87905E+08 2.13084E+06 8.62972E+07
 -1       378 6.91243E+08 6.23932E+07 1.55033E+07-5.90086E+08-9.81584E+06 8.82445E+07
 -1       379 1.75544E+09 1.70562E+08 5.44973E+07-5.64070E+08-2.10042E+07 8.53767E+07
 -1       380 2.71915E+09 2.68565E+08 8.99937E+07-5.11838E+08-3.11771E+07 7.78562E+07
 -1       381 3.56869E+09 3.54891E+08 1.21196E+08-4.36177E+08-4.01626E+07 6.59800E+07
 -1       382 4.29237E+09 4.28436E+08 1.47800E+08-3.40216E+08-4.78071E+07 5.02512E+07
 -1       383 4.88065E+09 4.88287E+08 1.69507E+08-2.27328E+08-5.39944E+07 3.12737E+07
 -1       384 5.32659E+09 5.33781E+08 1.86121E+08-1.01047E+08-5.86416E+07 9.69877E+06
 -1       385 5.62623E+09 5.64544E+08 1.97531E+08 3.49851E+07-6.16998E+07-1.38076E+07
 -1       386 5.77885E+09 5.80520E+08 2.03734E+08 1.77089E+08-6.31560E+07-3.85816E+07
 -1       387 5.78720E+09 5.81999E+08 2.04844E+08 3.21617E+08-6.30351E+07-6.39753E+07
 -1       388 5.65765E+09 5.69628E+08 2.01099E+08 4.65038E+08-6.14022E+07-8.93756E+07
 -1       389 5.40015E+09 5.44417E+08 1.92866E+08 6.04028E+08-5.83652E+07-1.14235E+08
 -1       390 5.02827E+09 5.07756E+08 1.80666E+08 7.35592E+08-5.40752E+07-1.38112E+08
 -1       391 4.55912E+09 4.61434E+08 1.65199E+08 8.57218E+08-4.87234E+07-1.60707E+08
 -1       392 4.01316E+09 4.07672E+08 1.47386E+08 9.67075E+08-4.25219E+07-1.81830E+08
 -1       393 3.41379E+09 3.49095E+08 1.28335E+08 1.06417E+09-3.56709E+07-2.01196E+08
 -1       394 2.78653E+09 2.88520E+08 1.09096E+08 1.14825E+09-2.82664E+07-2.17894E+08
 -1       395 2.15726E+09 2.28273E+08 8.99927E+07 1.21886E+09-2.03532E+07-2.29712E+08
 -1       396 1.54976E+09 1.68875E+08 6.93793E+07 1.27333E+09-1.17335E+07-2.32625E+08
 -1       397 9.84215E+08 1.08164E+08 4.27943E+07 1.30334E+09-3.28333E+06-2.22186E+08
 -1       398 4.82911E+08 4.00012E+07 3.81634E+06 1.29206E+09 4.82125E+06-2.04549E+08
 -1       399 8.45130E+07-3.58491E+07-4.85880E+07 1.22923E+09-1.12738E+06-1.94976E+08
 -1       400-1.04731E+08-8.72195E+07-8.80738E+07 1.09718E+09 1.15326E+07-2.84997E+08
 -1       401-4.11255E+09-1.76255E+09-1.76255E+09 1.85895E+09-2.81196E+02 4.20326E+08
 -1       402-4.50816E+09-1.93210E+09-1.93210E+09 1.72560E+09 2.79037E+02 4.86495E+08
 -1       403 2.79449E+08 4.46574E+08 3.34044E+08-1.11802E+09-1.72148E+08 5.13271E+07
 -1       404-1.82421E+08 2.79966E+08 4.78027E+07 7.37043E+08-6.95808E+07-8.61436E+07
 -1       405-2.14193E+08 1.70336E+08-6.45382E+07 8.29977E+08-3.95575E+07-2.15170E+07
 -1       406-1.56334E+08 1.24883E+08-4.38706E+07 9.78196E+08-4.66729E+07 4.10976E+06
 -1       407-1.12378E+08 8.91380E+07-4.57297E+07 1.07122E+09-3.46468E+07 2.51560E+07
 -1       408-6.70525E+07 4.92593E+07-3.44413E+07 1.12296E+09-2.41105E+07 4.14234E+07
 -1       409-2.29720E+07 1.26272E+07-2.37113E+07 1.13542E+09-1.21882E+07 5.18166E+07
 -1       410 1.81936E+07-2.20242E+07-1.35301E+07 1.10756E+09-1.32118E+06 5.69177E+07
 -1       411 5.61002E+07-5.41332E+07-4.71676E+06 1.04142E+09 8.61198E+06 5.70157E+07
 -1       412 9.02796E+07-8.32009E+07 2.88094E+06 9.39730E+08 1.73866E+07 5.25142E+07
 -1       413 1.20359E+08-1.08843E+08 9.40723E+06 8.06169E+08 2.50530E+07 4.39186E+07
 -1       414 1.46003E+08-1.30683E+08 1.50096E+07 6.45049E+08 3.15906E+07 3.17593E+07
 -1       415 1.66913E+08-1.48426E+08 1.97494E+07 4.61160E+08 3.69784E+07 1.65909E+07
 -1       416 1.82871E+08-1.61857E+08 2.36572E+07 2.59660E+08 4.11874E+07-1.02255E+06
 -1       417 1.93753E+08-1.70853E+08 2.67570E+07 4.59601E+07 4.42037E+07-2.05132E+07
 -1       418 1.99547E+08-1.75388E+08 2.90836E+07-1.74381E+08 4.60366E+07-4.13194E+07
 -1       419 2.00361E+08-1.75546E+08 3.06852E+07-3.95789E+08 4.67206E+07-6.28954E+07
 -1       420 1.96423E+08-1.71517E+08 3.16157E+07-6.12799E+08 4.63132E+07-8.47243E+07
 -1       421 1.88077E+08-1.63604E+08 3.19258E+07-8.20205E+08 4.48901E+07-1.06331E+08
 -1       422 1.75784E+08-1.52216E+08 3.16657E+07-1.01321E+09 4.25483E+07-1.27302E+08
 -1       423 1.60126E+08-1.37868E+08 3.09377E+07-1.18763E+09 3.94311E+07-1.47305E+08
 -1       424 1.41851E+08-1.21161E+08 3.00486E+07-1.34007E+09 3.58026E+07-1.66122E+08
 -1       425 1.21962E+08-1.02761E+08 2.97921E+07-1.46810E+09 3.21732E+07-1.83667E+08
 -1       426 1.01811E+08-8.33768E+07 3.17280E+07-1.57016E+09 2.94362E+07-1.99977E+08
 -1       427 8.30762E+07-6.37466E+07 3.79599E+07-1.64492E+09 2.86464E+07-2.15100E+08
 -1       428 6.72470E+07-4.46353E+07 4.92764E+07-1.68937E+09 3.03797E+07-2.28729E+08
 -1       429 5.36912E+07-2.76691E+07 5.97508E+07-1.69674E+09 3.09692E+07-2.39978E+08
 -1       430 3.90214E+07-1.28344E+07 5.20560E+07-1.65452E+09 2.46305E+07-2.46540E+08
 -1       431 5.16838E+06-8.60192E+06-2.21437E+07-1.55179E+09-2.20021E+07-2.48383E+08
 -1       432-5.98633E+07-1.28718E+07-2.19142E+08-1.42392E+09-9.18246E+07-2.43697E+08
 -1       433-9.55744E+07-2.73497E+08 5.51518E+06 1.10580E+09-1.46261E+08 5.55999E+07
 -1       434 4.11256E+09 1.76255E+09 1.76255E+09-1.85895E+09-2.81196E+02 4.20326E+08
 -1       435 4.50816E+09 1.93210E+09 1.93210E+09-1.72560E+09 2.79037E+02 4.86495E+08
 -1       436 5.98633E+07 1.28718E+07 2.19142E+08 1.42392E+09-9.18246E+07-2.43697E+08
 -1       437-5.16838E+06 8.60192E+06 2.21437E+07 1.55179E+09-2.20021E+07-2.48383E+08
 -1       438-3.90214E+07 1.28344E+07-5.20560E+07 1.65452E+09 2.46305E+07-2.46540E+08
 -1       439-5.36912E+07 2.76691E+07-5.97508E+07 1.69674E+09 3.09692E+07-2.39978E+08
 -1       440-6.72470E+07 4.46353E+07-4.92764E+07 1.68937E+09 3.03797E+07-2.28729E+08
 -1       441-8.30762E+07 6.37466E+07-3.79599E+07 1.64492E+09 2.86464E+07-2.15100E+08
 -1       442-1.01811E+08 8.33768E+07-3.17280E+07 1.57016E+09 2.94362E+07-1.99977E+08
 -1       443-1.21962E+08 1.02761E+08-2.97921E+07 1.46810E+09 3.21732E+07-1.83667E+08
 -1       444-1.41851E+08 1.21161E+08-3.00486E+07 1.34007E+09 3.58026E+07-1.66122E+08
 -1       445-1.60126E+08 1.37868E+08-3.09377E+07 1.18763E+09 3.94311E+07-1.47305E+08
 -1       446-1.75784E+08 1.52216E+08-3.16657E+07 1.01321E+09 4.25483E+07-1.27302E+08
 -1       447-1.88077E+08 1.63604E+08-3.19258E+07 8.20205E+08 4.48901E+07-1.06331E+08
 -1       448-1.96423E+08 1.71517E+08-3.16157E+07 6.12799E+08 4.63132E+07-8.47243E+07
 -1       449-2.00361E+08 1.75546E+08-3.06852E+07 3.95789E+08 4.67206E+07-6.28954E+07
 -1       450-1.99547E+08 1.75388E+08-2.90836E+07 1.74381E+08 4.60366E+07-4.13194E+07
 -1       451-1.93753E+08 1.70853E+08-2.67570E+07-4.59601E+07 4.42037E+07-2.05132E+07
 -1       452-1.82871E+08 1.61857E+08-2.36572E+07-2.59660E+08 4.11874E+07-1.02255E+06
 -1       453-1.66913E+08 1.48426E+08-1.97494E+07-4.61160E+08 3.69784E+07 1.65909E+07
 -1       454-1.46003E+08 1.30683E+08-1.50096E+07-6.45049E+08 3.15906E+07 3.17593E+07
 -1       455-1.20359E+08 1.08843E+08-9.40723E+06-8.06169E+08 2.50530E+07 4.39186E+07
 -1       456-9.02796E+07 8.32009E+07-2.88094E+06-9.39730E+08 1.73866E+07 5.25142E+07
 -1       457-5.61002E+07 5.41332E+07 4.71676E+06-1.04142E+09 8.61198E+06 5.70157E+07
 -1       458-1.81936E+07 2.20242E+07 1.35301E+07-1.10756E+09-1.32118E+06 5.69177E+07
 -1       459 2.29720E+07-1.26272E+07 2.37113E+07-1.13542E+09-1.21882E+07 5.18166E+07
 -1       460 6.70525E+07-4.92593E+07 3.44413E+07-1.12296E+09-2.41105E+07 4.14234E+07
 -1       461 1.12378E+08-8.91380E+07 4.57297E+07-1.07122E+09-3.46468E+07 2.51560E+07
 -1       462 1.56334E+08-1.24883E+08 4.38706E+07-9.78196E+08-4.66729E+07 4.10976E+06
 -1       463 2.14193E+08-1.70336E+08 6.45382E+07-8.29977E+08-3.95575E+07-2.15170E+07
 -1       464 1.82421E+08-2.79966E+08-4.78027E+07-7.37043E+08-6.95808E+07-8.61436E+07
 -1       465-2.79449E+08-4.46574E+08-3.34044E+08 1.11802E+09-1.72148E+08 5.13271E+07
 -1       466 5.58609E+09-3.59601E+08-1.05761E+09-4.55507E+08-6.26641E+07-6.67096E+07
 -1       467 5.32138E+09 5.32455E+08 2.57803E+08-5.06818E+08-3.59606E+07 3.80118E+07
 -1       468 3.91535E+09 2.72403E+08-3.69832E+07-6.35833E+08-3.47882E+07 6.61992E+07
 -1       469 2.73018E+09 2.12918E+08 3.08835E+07-7.15594E+08-2.29792E+07 8.83060E+07
 -1       470 1.54146E+09 1.15443E+08 8.57626E+06-7.69604E+08-1.38578E+07 9.86262E+07
 -1       471 4.21580E+08 3.35967E+07 9.80800E+06-7.89822E+08-4.58338E+06 1.04447E+08
 -1       472-6.33668E+08-4.52134E+07 6.92320E+06-7.78637E+08 3.92104E+06 1.05121E+08
 -1       473-1.60798E+09-1.17225E+08 5.74217E+06-7.36592E+08 1.17464E+07 1.00843E+08
 -1       474-2.48996E+09-1.82475E+08 4.59261E+06-6.66069E+08 1.87880E+07 9.16829E+07
 -1       475-3.26751E+09-2.39999E+08 3.62618E+06-5.70015E+08 2.49886E+07 7.79776E+07
 -1       476-3.93000E+09-2.89049E+08 2.72703E+06-4.51872E+08 3.02756E+07 6.02543E+07
 -1       477-4.46863E+09-3.28962E+08 1.89547E+06-3.15411E+08 3.45872E+07 3.91545E+07
 -1       478-4.87698E+09-3.59260E+08 1.11967E+06-1.64639E+08 3.78757E+07 1.53722E+07
 -1       479-5.15137E+09-3.79672E+08 3.87799E+05-3.72689E+06 4.01146E+07-1.03784E+07
 -1       480-5.29116E+09-3.90154E+08-3.19022E+05 1.63071E+08 4.13011E+07-3.73818E+07
 -1       481-5.29890E+09-3.90903E+08-1.02368E+06 3.31510E+08 4.14575E+07-6.49357E+07
 -1       482-5.18042E+09-3.82360E+08-1.74941E+06 4.97446E+08 4.06311E+07-9.23720E+07
 -1       483-4.94484E+09-3.65203E+08-2.50998E+06 6.56953E+08 3.88926E+07-1.19088E+08
 -1       484-4.60446E+09-3.40325E+08-3.29117E+06 8.06447E+08 3.63339E+07-1.44591E+08
 -1       485-4.17453E+09-3.08795E+08-4.02802E+06 9.42859E+08 3.30667E+07-1.68529E+08
 -1       486-3.67307E+09-2.71826E+08-4.60705E+06 1.06384E+09 2.92323E+07-1.90668E+08
 -1       487-3.12085E+09-2.30813E+08-4.96721E+06 1.16790E+09 2.50201E+07-2.10683E+08
 -1       488-2.54187E+09-1.87564E+08-5.40856E+06 1.25432E+09 2.07448E+07-2.27626E+08
 -1       489-1.96464E+09-1.44854E+08-7.18132E+06 1.32224E+09 1.67986E+07-2.39246E+08
 -1       490-1.42380E+09-1.07348E+08-1.31312E+07 1.36864E+09 1.39061E+07-2.41471E+08
 -1       491-9.59609E+08-8.12272E+07-2.73313E+07 1.38505E+09 1.19670E+07-2.29797E+08
 -1       492-6.09762E+08-7.53099E+07-5.24643E+07 1.35512E+09 1.20262E+07-2.10306E+08
 -1       493-3.88789E+08-8.59916E+07-7.92469E+07 1.27009E+09 2.53829E+06-1.98159E+08
 -1       494-2.19254E+08-7.38405E+07-5.74395E+07 1.11863E+09 1.93402E+07-2.85540E+08
 -1       495 6.20403E+09-1.28932E+08-8.03031E+08 1.54816E+07 1.01072E+08-2.78092E+07
 -1       496 5.76630E+09 7.12536E+08 4.45304E+08 2.92077E+08 5.05961E+07 3.42418E+06
 -1       497 4.24461E+09 4.09075E+08 1.02794E+08 4.01845E+08 4.47794E+07 4.94196E+07
 -1       498 2.96291E+09 3.13526E+08 1.30886E+08 4.95629E+08 2.72703E+07 6.74114E+07
 -1       499 1.67731E+09 1.76505E+08 6.76488E+07 5.55541E+08 1.49549E+07 7.97958E+07
 -1       500 4.59600E+08 5.50815E+07 2.76597E+07 5.87905E+08 2.13084E+06 8.62972E+07
 -1       501-6.91243E+08-6.23932E+07-1.55033E+07 5.90086E+08-9.81584E+06 8.82445E+07
 -1       502-1.75544E+09-1.70562E+08-5.44973E+07 5.64070E+08-2.10042E+07 8.53767E+07
 -1       503-2.71915E+09-2.68565E+08-8.99937E+07 5.11838E+08-3.11771E+07 7.78562E+07
 -1       504-3.56869E+09-3.54891E+08-1.21196E+08 4.36177E+08-4.01626E+07 6.59800E+07
 -1       505-4.29237E+09-4.28436E+08-1.47800E+08 3.40216E+08-4.78071E+07 5.02512E+07
 -1       506-4.88065E+09-4.88287E+08-1.69507E+08 2.27328E+08-5.39944E+07 3.12737E+07
 -1       507-5.32659E+09-5.33781E+08-1.86121E+08 1.01047E+08-5.86416E+07 9.69877E+06
 -1       508-5.62623E+09-5.64544E+08-1.97531E+08-3.49851E+07-6.16998E+07-1.38076E+07
 -1       509-5.77885E+09-5.80520E+08-2.03734E+08-1.77089E+08-6.31560E+07-3.85816E+07
 -1       510-5.78720E+09-5.81999E+08-2.04844E+08-3.21617E+08-6.30351E+07-6.39753E+07
 -1       511-5.65765E+09-5.69628E+08-2.01099E+08-4.65038E+08-6.14022E+07-8.93756E+07
 -1       512-5.40015E+09-5.44417E+08-1.92866E+08-6.04028E+08-5.83652E+07-1.14235E+08
 -1       513-5.02827E+09-5.07756E+08-1.80666E+08-7.35592E+08-5.40752E+07-1.38112E+08
 -1       514-4.55912E+09-4.61434E+08-1.65199E+08-8.57218E+08-4.87234E+07-1.60707E+08
 -1       515-4.01316E+09-4.07672E+08-1.47386E+08-9.67075E+08-4.25219E+07-1.81830E+08
 -1       516-3.41379E+09-3.49095E+08-1.28335E+08-1.06417E+09-3.56709E+07-2.01196E+08
 -1       517-2.78653E+09-2.88520E+08-1.09096E+08-1.14825E+09-2.82664E+07-2.17894E+08
 -1       518-2.15726E+09-2.28273E+08-8.99927E+07-1.21886E+09-2.03532E+07-2.29712E+08
 -1       519-1.54976E+09-1.68875E+08-6.93793E+07-1.27333E+09-1.17335E+07-2.32625E+08
 -1       520-9.84215E+08-1.08164E+08-4.27943E+07-1.30334E+09-3.28333E+06-2.22186E+08
 -1       521-4.82911E+08-4.00012E+07-3.81634E+06-1.29206E+09 4.82125E+06-2.04549E+08
 -1       522-8.45130E+07 3.58491E+07 4.85880E+07-1.22923E+09-1.12738E+06-1.94976E+08
 -1       523 1.04731E+08 8.72195E+07 8.80738E+07-1.09718E+09 1.15326E+07-2.84997E+08
 -1       524 9.55744E+07 2.73497E+08-5.51518E+06-1.10580E+09-1.46261E+08 5.55999E+07
 -1       525 2.11097E+08 9.17918E+07 9.48758E+07-8.03721E+07 1.37548E+06-1.37842E+08
 -1       526 1.66828E+08 7.40955E+07 8.01570E+07-5.72569E+07-8.15664E+06-2.52070E+08
 -1       527 1.28348E+08 5.80802E+07 6.52530E+07-4.77380E+07-1.19560E+07-3.40079E+08
 -1       528 8.92313E+07 4.09628E+07 4.73112E+07-4.15781E+07-1.18792E+07-4.04092E+08
 -1       529 5.04423E+07 2.36074E+07 2.82491E+07-3.56383E+07-9.83954E+06-4.44783E+08
 -1       530 1.30476E+07 6.65269E+06 9.12799E+06-3.03513E+07-7.43027E+06-4.62842E+08
 -1       531-2.19282E+07-9.21417E+06-8.78575E+06-2.58152E+07-5.22859E+06-4.59598E+08
 -1       532-5.40480E+07-2.37488E+07-2.51148E+07-2.23392E+07-3.36547E+06-4.36449E+08
 -1       533-8.30612E+07-3.68475E+07-3.97639E+07-1.95841E+07-1.81647E+06-3.95087E+08
 -1       534-1.08622E+08-4.83738E+07-5.26241E+07-1.74251E+07-5.06305E+05-3.37437E+08
 -1       535-1.30394E+08-5.81902E+07-6.35732E+07-1.57765E+07 6.22433E+05-2.65658E+08
 -1       536-1.48088E+08-6.61735E+07-7.24906E+07-1.45839E+07 1.60198E+06-1.82102E+08
 -1       537-1.61486E+08-7.22298E+07-7.92798E+07-1.38078E+07 2.44942E+06-8.92764E+07
 -1       538-1.70463E+08-7.63039E+07-8.38833E+07-1.34210E+07 3.17692E+06 1.02084E+07
 -1       539-1.74993E+08-7.83857E+07-8.62924E+07-1.34064E+07 3.79682E+06 1.13696E+08
 -1       540-1.75158E+08-7.85124E+07-8.65496E+07-1.37555E+07 4.32222E+06 2.18547E+08
 -1       541-1.71148E+08-7.67684E+07-8.47470E+07-1.44674E+07 4.76449E+06 3.22202E+08
 -1       542-1.63253E+08-7.32821E+07-8.10210E+07-1.55457E+07 5.13000E+06 4.22247E+08
 -1       543-1.51859E+08-6.82225E+07-7.55493E+07-1.69949E+07 5.42149E+06 5.16477E+08
 -1       544-1.37439E+08-6.18009E+07-6.85637E+07-1.88234E+07 5.65624E+06 6.02958E+08
 -1       545-1.20570E+08-5.42913E+07-6.04009E+07-2.10651E+07 5.91726E+06 6.80082E+08
 -1       546-1.01990E+08-4.60796E+07-5.16091E+07-2.38284E+07 6.45285E+06 7.46617E+08
 -1       547-8.27216E+07-3.77408E+07-4.30810E+07-2.73898E+07 7.75850E+06 8.01768E+08
 -1       548-6.42656E+07-3.01052E+07-3.60850E+07-3.23619E+07 1.05408E+07 8.45252E+08
 -1       549-4.87861E+07-2.41916E+07-3.18525E+07-3.99267E+07 1.48994E+07 8.77404E+08
 -1       550-3.83332E+07-2.03921E+07-2.96403E+07-5.05937E+07 1.92235E+07 8.99329E+08
 -1       551-3.05250E+07-1.57377E+07-2.19340E+07-5.90056E+07 1.57695E+07 9.12865E+08
 -1       552-1.39770E+07-1.43991E+06 9.17726E+06-5.72946E+07-4.93674E+06 9.21093E+08
 -1       553 2.36817E+07 3.11798E+07 8.02510E+07-4.88113E+07-8.70804E+07 9.23859E+08
 -1       554-1.47202E-01-1.16180E-02-4.74997E-02 2.82332E-02-3.91122E+06-1.40330E+08
 -1       555-1.38338E-01-2.01473E-02-5.00203E-02 1.78315E-02-8.95729E+06-2.53119E+08
 -1       556-1.49962E-01-1.66590E-03-4.59688E-02 3.84618E-04-9.64192E+06-3.40935E+08
 -1       557-1.59908E-01-3.75797E-03-3.45364E-02-2.04346E-03-8.14513E+06-4.04768E+08
 -1       558-1.49448E-01-1.35988E-02-2.70693E-02-8.94100E-04-5.21769E+06-4.45153E+08
 -1       559-1.30146E-01-1.36056E-02-3.81260E-02 1.15173E-02-1.02911E+06-4.62922E+08
 -1       560-1.04712E-01-9.67307E-03-2.79408E-02 1.91992E-02 3.02906E+06-4.59333E+08
 -1       561-1.09221E-01-4.52488E-03-1.29748E-02-2.87498E-03 6.60096E+06-4.35990E+08
 -1       562-1.26457E-01-7.08208E-03 5.22194E-03-9.68537E-03 9.70998E+06-3.94596E+08
 -1       563-1.21560E-01-1.08941E-02-1.27275E-02 5.84793E-03 1.23886E+07-3.37061E+08
 -1       564-8.53262E-02-1.09557E-02-1.40408E-02 5.90435E-03 1.46447E+07-2.65516E+08
 -1       565-5.07040E-02-2.91175E-03-2.20078E-02 3.91093E-03 1.64646E+07-1.82293E+08
 -1       566-2.57541E-02 8.41302E-03-2.18613E-03 2.37949E-02 1.78286E+07-8.98801E+07
 -1       567 5.78357E-03 3.28750E-02 5.25999E-02 3.01123E-02 1.87201E+07 9.12858E+06
 -1       568 2.98384E-02 4.78439E-02 6.59641E-02-1.81597E-03 1.91322E+07 1.12092E+08
 -1       569 3.33535E-02 4.15515E-02 5.02545E-02-1.37946E-02 1.90683E+07 2.16386E+08
 -1       570 2.02831E-02 2.84222E-02 2.11895E-02-9.84757E-03 1.85389E+07 3.19465E+08
 -1       571 1.23312E-02 2.22177E-02 2.77063E-03-7.41672E-03 1.75572E+07 4.18929E+08
 -1       572 1.53004E-02 2.14272E-02 1.91044E-02 8.58485E-03 1.61398E+07 5.12585E+08
 -1       573 1.75069E-02 3.89754E-02 6.38930E-02 1.36095E-02 1.43270E+07 5.98494E+08
 -1       574 6.06952E-03 4.05307E-02 8.11988E-02-1.62272E-03 1.22420E+07 6.75019E+08
 -1       575-3.51766E-03 3.18160E-02 7.64744E-02-2.02909E-02 1.01992E+07 7.40868E+08
 -1       576-1.00515E-02 2.92525E-02 5.68101E-02-1.08884E-02 8.79327E+06 7.95164E+08
 -1       577-1.37331E-03 2.01973E-02 4.18155E-02 3.75611E-03 8.91469E+06 8.37615E+08
 -1       578 2.17013E-02 2.03209E-02 2.92018E-02-3.31900E-03 1.09258E+07 8.68887E+08
 -1       579 3.89931E-02 1.73327E-02 1.01863E-02-1.16124E-02 1.32687E+07 8.91402E+08
 -1       580 3.19827E-02 1.31488E-03 5.52039E-03-1.32437E-02 3.91079E+06 9.09202E+08
 -1       581 1.10790E-03-6.85935E-04-6.08153E-04-5.51995E-03-2.68083E+07 9.25777E+08
 -1       582-1.80810E-02-3.99652E-03 1.41580E-02 5.38261E-03-1.12438E+08 9.37255E+08
 -1       583-2.11097E+08-9.17918E+07-9.48758E+07 8.03721E+07 1.37548E+06-1.37842E+08
 -1       584-1.66828E+08-7.40955E+07-8.01570E+07 5.72569E+07-8.15664E+06-2.52070E+08
 -1       585-1.28348E+08-5.80802E+07-6.52530E+07 4.77380E+07-1.19560E+07-3.40079E+08
 -1       586-8.92313E+07-4.09628E+07-4.73112E+07 4.15781E+07-1.18792E+07-4.04092E+08
 -1       587-5.04423E+07-2.36074E+07-2.82491E+07 3.56383E+07-9.83954E+06-4.44783E+08
 -1       588-1.30476E+07-6.65269E+06-9.12799E+06 3.03513E+07-7.43027E+06-4.62842E+08
 -1       589 2.19282E+07 9.21417E+06 8.78575E+06 2.58152E+07-5.22859E+06-4.59598E+08
 -1       590 5.40480E+07 2.37488E+07 2.51148E+07 2.23392E+07-3.36547E+06-4.36449E+08
 -1       591 8.30612E+07 3.68475E+07 3.97639E+07 1.95841E+07-1.81647E+06-3.95087E+08
 -1       592 1.08622E+08 4.83738E+07 5.26241E+07 1.74251E+07-5.06305E+05-3.37437E+08
 -1       593 1.30394E+08 5.81902E+07 6.35732E+07 1.57765E+07 6.22433E+05-2.65658E+08
 -1       594 1.48088E+08 6.61735E+07 7.24906E+07 1.45839E+07 1.60198E+06-1.82102E+08
 -1       595 1.61486E+08 7.22298E+07 7.92798E+07 1.38078E+07 2.44942E+06-8.92764E+07
 -1       596 1.70463E+08 7.63039E+07 8.38833E+07 1.34210E+07 3.17692E+06 1.02084E+07
 -1       597 1.74993E+08 7.83857E+07 8.62924E+07 1.34064E+07 3.79682E+06 1.13696E+08
 -1       598 1.75158E+08 7.85124E+07 8.65496E+07 1.37555E+07 4.32222E+06 2.18547E+08
 -1       599 1.71148E+08 7.67684E+07 8.47470E+07 1.44674E+07 4.76449E+06 3.22202E+08
 -1       600 1.63253E+08 7.32821E+07 8.10210E+07 1.55457E+07 5.13000E+06 4.22247E+08
 -1       601 1.51859E+08 6.82225E+07 7.55493E+07 1.69949E+07 5.42149E+06 5.16477E+08
 -1       602 1.37439E+08 6.18009E+07 6.85637E+07 1.88234E+07 5.65624E+06 6.02958E+08
 -1       603 1.20570E+08 5.42913E+07 6.04009E+07 2.10651E+07 5.91726E+06 6.80082E+08
 -1       604 1.01990E+08 4.60796E+07 5.16091E+07 2.38284E+07 6.45285E+06 7.46617E+08
 -1       605 8.27216E+07 3.77408E+07 4.30810E+07 2.73898E+07 7.75850E+06 8.01768E+08
 -1       606 6.42656E+07 3.01052E+07 3.60850E+07 3.23619E+07 1.05408E+07 8.45252E+08
 -1       607 4.87861E+07 2.41916E+07 3.18525E+07 3.99267E+07 1.48994E+07 8.77404E+08
 -1       608 3.83332E+07 2.03921E+07 2.96403E+07 5.05937E+07 1.92235E+07 8.99329E+08
 -1       609 3.05250E+07 1.57377E+07 2.19340E+07 5.90056E+07 1.57695E+07 9.12865E+08
 -1       610 1.39770E+07 1.43991E+06-9.17726E+06 5.72946E+07-4.93674E+06 9.21093E+08
 -1       611-2.36817E+07-3.11798E+07-8.02510E+07 4.88113E+07-8.70804E+07 9.23859E+08
 -1       612 2.11097E+08 9.17918E+07 9.48758E+07 8.03721E+07 1.37548E+06 1.37842E+08
 -1       613 1.66828E+08 7.40955E+07 8.01570E+07 5.72569E+07-8.15664E+06 2.52070E+08
 -1       614 1.28348E+08 5.80802E+07 6.52530E+07 4.77380E+07-1.19560E+07 3.40079E+08
 -1       615 8.92313E+07 4.09628E+07 4.73112E+07 4.15781E+07-1.18792E+07 4.04092E+08
 -1       616 5.04423E+07 2.36074E+07 2.82491E+07 3.56383E+07-9.83954E+06 4.44783E+08
 -1       617 1.30476E+07 6.65269E+06 9.12799E+06 3.03513E+07-7.43027E+06 4.62842E+08
 -1       618-2.19282E+07-9.21417E+06-8.78575E+06 2.58152E+07-5.22859E+06 4.59598E+08
 -1       619-5.40480E+07-2.37488E+07-2.51148E+07 2.23392E+07-3.36547E+06 4.36449E+08
 -1       620-8.30612E+07-3.68475E+07-3.97639E+07 1.95841E+07-1.81647E+06 3.95087E+08
 -1       621-1.08622E+08-4.83738E+07-5.26241E+07 1.74251E+07-5.06305E+05 3.37437E+08
 -1       622-1.30394E+08-5.81902E+07-6.35732E+07 1.57765E+07 6.22433E+05 2.65658E+08
 -1       623-1.48088E+08-6.61735E+07-7.24906E+07 1.45839E+07 1.60198E+06 1.82102E+08
 -1       624-1.61486E+08-7.22298E+07-7.92798E+07 1.38078E+07 2.44942E+06 8.92764E+07
 -1       625-1.70463E+08-7.63039E+07-8.38833E+07 1.34210E+07 3.17692E+06-1.02084E+07
 -1       626-1.74993E+08-7.83857E+07-8.62924E+07 1.34064E+07 3.79682E+06-1.13696E+08
 -1       627-1.75158E+08-7.85124E+07-8.65496E+07 1.37555E+07 4.32222E+06-2.18547E+08
 -1       628-1.71148E+08-7.67684E+07-8.47470E+07 1.44674E+07 4.76449E+06-3.22202E+08
 -1       629-1.63253E+08-7.32821E+07-8.10210E+07 1.55457E+07 5.13000E+06-4.22247E+08
 -1       630-1.51859E+08-6.82225E+07-7.55493E+07 1.69949E+07 5.42149E+06-5.16477E+08
 -1       631-1.37439E+08-6.18009E+07-6.85637E+07 1.88234E+07 5.65624E+06-6.02958E+08
 -1       632-1.20570E+08-5.42913E+07-6.04009E+07 2.10651E+07 5.91726E+06-6.80082E+08
 -1       633-1.01990E+08-4.60796E+07-5.16091E+07 2.38284E+07 6.45285E+06-7.46617E+08
 -1       634-8.27216E+07-3.77408E+07-4.30810E+07 2.73898E+07 7.75850E+06-8.01768E+08
 -1       635-6.42656E+07-3.01052E+07-3.60850E+07 3.23619E+07 1.05408E+07-8.45252E+08
 -1       636-4.87861E+07-2.41916E+07-3.18525E+07 3.99267E+07 1.48994E+07-8.77404E+08
 -1       637-3.83332E+07-2.03921E+07-2.96403E+07 5.05937E+07 1.92235E+07-8.99329E+08
 -1       638-3.05250E+07-1.57377E+07-2.19340E+07 5.90056E+07 1.57695E+07-9.12865E+08
 -1       639-1.39770E+07-1.43991E+06 9.17726E+06 5.72946E+07-4.93674E+06-9.21093E+08
 -1       640 2.36817E+07 3.11798E+07 8.02510E+07 4.88113E+07-8.70804E+07-9.23859E+08
 -1       641-3.90930E-02 3.23254E-02-9.13012E-03 2.88368E-02-3.91122E+06 1.40330E+08
 -1       642-8.22705E-02-1.06760E-03-4.24890E-02 1.80100E-02-8.95729E+06 2.53119E+08
 -1       643-1.12919E-01 1.05095E-02-4.24288E-02 7.02565E-04-9.64192E+06 3.40935E+08
 -1       644-1.16899E-01 1.55304E-02-1.32104E-02-2.30661E-03-8.14513E+06 4.04768E+08
 -1       645-9.89523E-02 1.35764E-02 1.30461E-02-1.14561E-03-5.21769E+06 4.45153E+08
 -1       646-8.79896E-02 1.24949E-02 6.73242E-03 1.14197E-02-1.02911E+06 4.62922E+08
 -1       647-9.42561E-02 2.01862E-03 5.41317E-04 1.91904E-02 3.02906E+06 4.59333E+08
 -1       648-1.14143E-01 1.62340E-03 1.24656E-02-2.80472E-03 6.60096E+06 4.35990E+08
 -1       649-1.14867E-01 1.04798E-02 5.22596E-02-9.63197E-03 9.70998E+06 3.94596E+08
 -1       650-1.05549E-01 1.03936E-02 4.22233E-02 5.78595E-03 1.23886E+07 3.37061E+08
 -1       651-8.52454E-02 1.87650E-03 2.84304E-02 5.84561E-03 1.46447E+07 2.65516E+08
 -1       652-7.07969E-02-3.28699E-03-3.27863E-03 4.00229E-03 1.64646E+07 1.82293E+08
 -1       653-8.89309E-02-1.80231E-02-2.73989E-02 2.38648E-02 1.78286E+07 8.98801E+07
 -1       654-1.28345E-01-3.35222E-02-3.45907E-02 3.02753E-02 1.87201E+07-9.12858E+06
 -1       655-1.43336E-01-4.04738E-02-5.53622E-02-1.66508E-03 1.91322E+07-1.12092E+08
 -1       656-1.21036E-01-3.48943E-02-5.02020E-02-1.37233E-02 1.90683E+07-2.16386E+08
 -1       657-1.02330E-01-2.79291E-02-4.41246E-02-9.71609E-03 1.85389E+07-3.19465E+08
 -1       658-8.61133E-02-1.86213E-02-3.47488E-02-7.39801E-03 1.75572E+07-4.18929E+08
 -1       659-8.66638E-02-2.20900E-02-2.38756E-02 8.62006E-03 1.61398E+07-5.12585E+08
 -1       660-1.12719E-01-2.15325E-02-7.61009E-03 1.37359E-02 1.43270E+07-5.98494E+08
 -1       661-1.40526E-01-3.07952E-02-9.98408E-03-1.64721E-03 1.22420E+07-6.75019E+08
 -1       662-1.27609E-01-2.93092E-02-3.19062E-03-2.02505E-02 1.01992E+07-7.40868E+08
 -1       663-9.93706E-02-1.47821E-02-6.61228E-04-1.09178E-02 8.79327E+06-7.95164E+08
 -1       664-8.17259E-02-2.04419E-02-1.33040E-02 3.56098E-03 8.91469E+06-8.37615E+08
 -1       665-5.85762E-02-2.21495E-02-3.20820E-02-3.47421E-03 1.09258E+07-8.68887E+08
 -1       666-2.15536E-02-1.58984E-02-4.00185E-02-1.19531E-02 1.32687E+07-8.91402E+08
 -1       667 5.87677E-03-1.32067E-02-1.69809E-02-1.34097E-02 3.91079E+06-9.09202E+08
 -1       668 7.46046E-03 5.17168E-03 1.29777E-02-5.55212E-03-2.68083E+07-9.25777E+08
 -1       669 8.54397E-04 1.29041E-02 5.12241E-02 4.80497E-03-1.12438E+08-9.37255E+08
 -1       670-2.11097E+08-9.17918E+07-9.48758E+07-8.03721E+07 1.37548E+06 1.37842E+08
 -1       671-1.66828E+08-7.40955E+07-8.01570E+07-5.72569E+07-8.15664E+06 2.52070E+08
 -1       672-1.28348E+08-5.80802E+07-6.52530E+07-4.77380E+07-1.19560E+07 3.40079E+08
 -1       673-8.92313E+07-4.09628E+07-4.73112E+07-4.15781E+07-1.18792E+07 4.04092E+08
 -1       674-5.04423E+07-2.36074E+07-2.82491E+07-3.56383E+07-9.83954E+06 4.44783E+08
 -1       675-1.30476E+07-6.65269E+06-9.12799E+06-3.03513E+07-7.43027E+06 4.62842E+08
 -1       676 2.19282E+07 9.21417E+06 8.78575E+06-2.58152E+07-5.22859E+06 4.59598E+08
 -1       677 5.40480E+07 2.37488E+07 2.51148E+07-2.23392E+07-3.36547E+06 4.36449E+08
 -1       678 8.30612E+07 3.68475E+07 3.97639E+07-1.95841E+07-1.81647E+06 3.95087E+08
 -1       679 1.08622E+08 4.83738E+07 5.26241E+07-1.74251E+07-5.06305E+05 3.37437E+08
 -1       680 1.30394E+08 5.81902E+07 6.35732E+07-1.57765E+07 6.22433E+05 2.65658E+08
 -1       681 1.48088E+08 6.61735E+07 7.24906E+07-1.45839E+07 1.60198E+06 1.82102E+08
 -1       682 1.61486E+08 7.22298E+07 7.92798E+07-1.38078E+07 2.44942E+06 8.92764E+07
 -1       683 1.70463E+08 7.63039E+07 8.38833E+07-1.34210E+07 3.17692E+06-1.02084E+07
 -1       684 1.74993E+08 7.83857E+07 8.62924E+07-1.34064E+07 3.79682E+06-1.13696E+08
 -1       685 1.75158E+08 7.85124E+07 8.65496E+07-1.37555E+07 4.32222E+06-2.18547E+08
 -1       686 1.71148E+08 7.67684E+07 8.47470E+07-1.44674E+07 4.76449E+06-3.22202E+08
 -1       687 1.63253E+08 7.32821E+07 8.10210E+07-1.55457E+07 5.13000E+06-4.22247E+08
 -1       688 1.51859E+08 6.82225E+07 7.55493E+07-1.69949E+07 5.42149E+06-5.16477E+08
 -1       689 1.37439E+08 6.18009E+07 6.85637E+07-1.88234E+07 5.65624E+06-6.02958E+08
 -1       690 1.20570E+08 5.42913E+07 6.04009E+07-2.10651E+07 5.91726E+06-6.80082E+08
 -1       691 1.01990E+08 4.60796E+07 5.16091E+07-2.38284E+07 6.45285E+06-7.46617E+08
 -1       692 8.27216E+07 3.77408E+07 4.30810E+07-2.73898E+07 7.75850E+06-8.01768E+08
 -1       693 6.42656E+07 3.01052E+07 3.60850E+07-3.23619E+07 1.05408E+07-8.45252E+08
 -1       694 4.87861E+07 2.41916E+07 3.18525E+07-3.99267E+07 1.48994E+07-8.77404E+08
 -1       695 3.83332E+07 2.03921E+07 2.96403E+07-5.05937E+07 1.92235E+07-8.99329E+08
 -1       696 3.05250E+07 1.57377E+07 2.19340E+07-5.90056E+07 1.57695E+07-9.12865E+08
 -1       697 1.39770E+07 1.43991E+06-9.17726E+06-5.72946E+07-4.93674E+06-9.21093E+08
 -1       698-2.36817E+07-3.11798E+07-8.02510E+07-4.88113E+07-8.70804E+07-9.23859E+08
 -1       699 2.73322E+09-5.44795E+08-6.17799E+08 5.69714E+08-9.84617E+07 3.96741E+07
 -1       700 2.71419E+09-1.41226E+06 2.97876E+07 6.89830E+08-5.91677E+07 2.82567E+07
 -1       701 1.96211E+09-6.18478E+07-6.66042E+07 8.14591E+08-5.36297E+07 3.73869E+07
 -1       702 1.36499E+09-4.73975E+07-4.20843E+07 8.96681E+08-3.76229E+07 4.53387E+07
 -1       703 7.73668E+08-3.07449E+07-2.78437E+07 9.46715E+08-2.32324E+07 5.23565E+07
 -1       704 2.12048E+08-1.45541E+07-1.20884E+07 9.60808E+08-8.69058E+06 5.62622E+07
 -1       705-3.15317E+08 1.12303E+06 2.96618E+06 9.40116E+08 4.94332E+06 5.69233E+07
 -1       706-8.02661E+08 1.55412E+07 1.68947E+07 8.85528E+08 1.75076E+07 5.45287E+07
 -1       707-1.24385E+09 2.83650E+07 2.93427E+07 7.99572E+08 2.88187E+07 4.94817E+07
 -1       708-1.63286E+09 3.95688E+07 4.02340E+07 6.85474E+08 3.87606E+07 4.21475E+07
 -1       709-1.96433E+09 4.91028E+07 4.94992E+07 5.47045E+08 4.72336E+07 3.28716E+07
 -1       710-2.23386E+09 5.69194E+07 5.70762E+07 3.88496E+08 5.41508E+07 2.19850E+07
 -1       711-2.43822E+09 6.29715E+07 6.29115E+07 2.14339E+08 5.94458E+07 9.82214E+06
 -1       712-2.57559E+09 6.72321E+07 6.69737E+07 2.92957E+07 6.30819E+07-3.27352E+06
 -1       713-2.64565E+09 6.97073E+07 6.92651E+07-1.61799E+08 6.50572E+07-1.69532E+07
 -1       714-2.64968E+09 7.04404E+07 6.98250E+07-3.54100E+08 6.54082E+07-3.08690E+07
 -1       715-2.59061E+09 6.95100E+07 6.87294E+07-5.42864E+08 6.42094E+07-4.46795E+07
 -1       716-2.47302E+09 6.70280E+07 6.60911E+07-7.23577E+08 6.15728E+07-5.80516E+07
 -1       717-2.30307E+09 6.31507E+07 6.20704E+07-8.92097E+08 5.76501E+07-7.06620E+07
 -1       718-2.08841E+09 5.81235E+07 5.69133E+07-1.04484E+09 5.26424E+07-8.22094E+07
 -1       719-1.83800E+09 5.23796E+07 5.10290E+07-1.17898E+09 4.68274E+07-9.24675E+07
 -1       720-1.56200E+09 4.66769E+07 4.50843E+07-1.29262E+09 4.05921E+07-1.01421E+08
 -1       721-1.27201E+09 4.21458E+07 4.00000E+07-1.38467E+09 3.44771E+07-1.09480E+08
 -1       722-9.81755E+08 3.98248E+07 3.64938E+07-1.45395E+09 2.89702E+07-1.17767E+08
 -1       723-7.08685E+08 3.89638E+07 3.37060E+07-1.49712E+09 2.44699E+07-1.27782E+08
 -1       724-4.74685E+08 3.48596E+07 2.71200E+07-1.50573E+09 1.89855E+07-1.39525E+08
 -1       725-3.07755E+08 1.08702E+07 4.53397E+06-1.46385E+09 1.24813E+07-1.51319E+08
 -1       726-2.19615E+08-4.95055E+07-4.78000E+07-1.36026E+09-1.34839E+07-1.36017E+08
 -1       727-1.84173E+08-1.62920E+08-1.38074E+08-1.20396E+09-2.32294E+07-6.84608E+07
 -1       728 3.07402E+09-4.03819E+08-4.73266E+08 1.10281E+08 5.94919E+07 1.93183E+07
 -1       729 2.97314E+09 1.22416E+08 1.44622E+08-1.17252E+08 3.47280E+07 4.48112E+07
 -1       730 2.16035E+09 4.81148E+07 2.58582E+07-2.44800E+08 2.68160E+07 4.63876E+07
 -1       731 1.50855E+09 4.00379E+07 2.72144E+07-3.46247E+08 1.63493E+07 5.53591E+07
 -1       732 8.60267E+08 2.80798E+07 1.57835E+07-4.17050E+08 8.12799E+06 6.18594E+07
 -1       733 2.41509E+08 1.54912E+07 5.76361E+06-4.59264E+08 2.37277E+05 6.52957E+07
 -1       734-3.41434E+08 3.36840E+06-4.19530E+06-4.72031E+08-7.06568E+06 6.53446E+07
 -1       735-8.80770E+08-7.69717E+06-1.35095E+07-4.57091E+08-1.38769E+07 6.22334E+07
 -1       736-1.36907E+09-1.76572E+07-2.20319E+07-4.16531E+08-2.00809E+07 5.63666E+07
 -1       737-1.79953E+09-2.63753E+07-2.95513E+07-3.53100E+08-2.55739E+07 4.81210E+07
 -1       738-2.16626E+09-3.38273E+07-3.59586E+07-2.69825E+08-3.02500E+07 3.78548E+07
 -1       739-2.46447E+09-3.99821E+07-4.11786E+07-1.69923E+08-3.40280E+07 2.59162E+07
 -1       740-2.69068E+09-4.48180E+07-4.51626E+07-5.67239E+07-3.68498E+07 1.26604E+07
 -1       741-2.84290E+09-4.83288E+07-4.78852E+07 6.63745E+07-3.86815E+07-1.54543E+06
 -1       742-2.92078E+09-5.05313E+07-4.93455E+07 1.95965E+08-3.95128E+07-1.63271E+07
 -1       743-2.92575E+09-5.14687E+07-4.95701E+07 3.28694E+08-3.93584E+07-3.13101E+07
 -1       744-2.86104E+09-5.12119E+07-4.86167E+07 4.61340E+08-3.82592E+07-4.61258E+07
 -1       745-2.73170E+09-4.98614E+07-4.65810E+07 5.90897E+08-3.62825E+07-6.04145E+07
 -1       746-2.54462E+09-4.75579E+07-4.36056E+07 7.14685E+08-3.35194E+07-7.38265E+07
 -1       747-2.30845E+09-4.45096E+07-3.98879E+07 8.30498E+08-3.00745E+07-8.60345E+07
 -1       748-2.03357E+09-4.10397E+07-3.56679E+07 9.36801E+08-2.60424E+07-9.67855E+07
 -1       749-1.73183E+09-3.76252E+07-3.11551E+07 1.03288E+09-2.14845E+07-1.06036E+08
 -1       750-1.41619E+09-3.48557E+07-2.63547E+07 1.11876E+09-1.63940E+07-1.14169E+08
 -1       751-1.09973E+09-3.29975E+07-2.07452E+07 1.19432E+09-1.08864E+07-1.22293E+08
 -1       752-7.94483E+08-3.10220E+07-1.30291E+07 1.25720E+09-5.13992E+06-1.31936E+08
 -1       753-5.11466E+08-2.61455E+07-2.21580E+06 1.29958E+09-1.42450E+06-1.43186E+08
 -1       754-2.59051E+08-8.59478E+06 1.33057E+07 1.30570E+09 5.29814E+05-1.54594E+08
 -1       755-6.45351E+07 2.29041E+07 2.04468E+07 1.26134E+09-1.60331E+07-1.39328E+08
 -1       756 2.20325E+07 6.50627E+07-7.81722E+06 1.16602E+09-1.31214E+07-7.23336E+07
 -1       757-3.07402E+09 4.03819E+08 4.73266E+08-1.10281E+08 5.94919E+07 1.93183E+07
 -1       758-2.97314E+09-1.22416E+08-1.44622E+08 1.17252E+08 3.47280E+07 4.48112E+07
 -1       759-2.16035E+09-4.81148E+07-2.58582E+07 2.44800E+08 2.68160E+07 4.63876E+07
 -1       760-1.50855E+09-4.00379E+07-2.72144E+07 3.46247E+08 1.63493E+07 5.53591E+07
 -1       761-8.60267E+08-2.80798E+07-1.57835E+07 4.17050E+08 8.12799E+06 6.18594E+07
 -1       762-2.41509E+08-1.54912E+07-5.76361E+06 4.59264E+08 2.37277E+05 6.52957E+07
 -1       763 3.41434E+08-3.36840E+06 4.19530E+06 4.72031E+08-7.06568E+06 6.53446E+07
 -1       764 8.80770E+08 7.69717E+06 1.35095E+07 4.57091E+08-1.38769E+07 6.22334E+07
 -1       765 1.36907E+09 1.76572E+07 2.20319E+07 4.16531E+08-2.00809E+07 5.63666E+07
 -1       766 1.79953E+09 2.63753E+07 2.95513E+07 3.53100E+08-2.55739E+07 4.81210E+07
 -1       767 2.16626E+09 3.38273E+07 3.59586E+07 2.69825E+08-3.02500E+07 3.78548E+07
 -1       768 2.46447E+09 3.99821E+07 4.11786E+07 1.69923E+08-3.40280E+07 2.59162E+07
 -1       769 2.69068E+09 4.48180E+07 4.51626E+07 5.67239E+07-3.68498E+07 1.26604E+07
 -1       770 2.84290E+09 4.83288E+07 4.78852E+07-6.63745E+07-3.86815E+07-1.54543E+06
 -1       771 2.92078E+09 5.05313E+07 4.93455E+07-1.95965E+08-3.95128E+07-1.63271E+07
 -1       772 2.92575E+09 5.14687E+07 4.95701E+07-3.28694E+08-3.93584E+07-3.13101E+07
 -1       773 2.86104E+09 5.12119E+07 4.86167E+07-4.61340E+08-3.82592E+07-4.61258E+07
 -1       774 2.73170E+09 4.98614E+07 4.65810E+07-5.90897E+08-3.62825E+07-6.04145E+07
 -1       775 2.54462E+09 4.75579E+07 4.36056E+07-7.14685E+08-3.35194E+07-7.38265E+07
 -1       776 2.30845E+09 4.45096E+07 3.98879E+07-8.30498E+08-3.00745E+07-8.60345E+07
 -1       777 2.03357E+09 4.10397E+07 3.56679E+07-9.36801E+08-2.60424E+07-9.67855E+07
 -1       778 1.73183E+09 3.76252E+07 3.11551E+07-1.03288E+09-2.14845E+07-1.06036E+08
 -1       779 1.41619E+09 3.48557E+07 2.63547E+07-1.11876E+09-1.63940E+07-1.14169E+08
 -1       780 1.09973E+09 3.29975E+07 2.07452E+07-1.19432E+09-1.08864E+07-1.22293E+08
 -1       781 7.94483E+08 3.10220E+07 1.30291E+07-1.25720E+09-5.13992E+06-1.31936E+08
 -1       782 5.11466E+08 2.61455E+07 2.21580E+06-1.29958E+09-1.42450E+06-1.43186E+08
 -1       783 2.59051E+08 8.59478E+06-1.33057E+07-1.30570E+09 5.29814E+05-1.54594E+08
 -1       784 6.45351E+07-2.29041E+07-2.04468E+07-1.26134E+09-1.60331E+07-1.39328E+08
 -1       785-2.20325E+07-6.50627E+07 7.81722E+06-1.16602E+09-1.31214E+07-7.23336E+07
 -1       786-2.73322E+09 5.44795E+08 6.17799E+08-5.69714E+08-9.84617E+07 3.96741E+07
 -1       787-2.71419E+09 1.41226E+06-2.97876E+07-6.89830E+08-5.91677E+07 2.82567E+07
 -1       788-1.96211E+09 6.18478E+07 6.66042E+07-8.14591E+08-5.36297E+07 3.73869E+07
 -1       789-1.36499E+09 4.73975E+07 4.20843E+07-8.96681E+08-3.76229E+07 4.53387E+07
 -1       790-7.73668E+08 3.07449E+07 2.78437E+07-9.46715E+08-2.32324E+07 5.23565E+07
 -1       791-2.12048E+08 1.45541E+07 1.20884E+07-9.60808E+08-8.69058E+06 5.62622E+07
 -1       792 3.15317E+08-1.12303E+06-2.96618E+06-9.40116E+08 4.94332E+06 5.69233E+07
 -1       793 8.02661E+08-1.55412E+07-1.68947E+07-8.85528E+08 1.75076E+07 5.45287E+07
 -1       794 1.24385E+09-2.83650E+07-2.93427E+07-7.99572E+08 2.88187E+07 4.94817E+07
 -1       795 1.63286E+09-3.95688E+07-4.02340E+07-6.85474E+08 3.87606E+07 4.21475E+07
 -1       796 1.96433E+09-4.91028E+07-4.94992E+07-5.47045E+08 4.72336E+07 3.28716E+07
 -1       797 2.23386E+09-5.69194E+07-5.70762E+07-3.88496E+08 5.41508E+07 2.19850E+07
 -1       798 2.43822E+09-6.29715E+07-6.29115E+07-2.14339E+08 5.94458E+07 9.82214E+06
 -1       799 2.57559E+09-6.72321E+07-6.69737E+07-2.92957E+07 6.30819E+07-3.27352E+06
 -1       800 2.64565E+09-6.97073E+07-6.92651E+07 1.61799E+08 6.50572E+07-1.69532E+07
 -1       801 2.64968E+09-7.04404E+07-6.98250E+07 3.54100E+08 6.54082E+07-3.08690E+07
 -1       802 2.59061E+09-6.95100E+07-6.87294E+07 5.42864E+08 6.42094E+07-4.46795E+07
 -1       803 2.47302E+09-6.70280E+07-6.60911E+07 7.23577E+08 6.15728E+07-5.80516E+07
 -1       804 2.30307E+09-6.31507E+07-6.20704E+07 8.92097E+08 5.76501E+07-7.06620E+07
 -1       805 2.08841E+09-5.81235E+07-5.69133E+07 1.04484E+09 5.26424E+07-8.22094E+07
 -1       806 1.83800E+09-5.23796E+07-5.10290E+07 1.17898E+09 4.68274E+07-9.24675E+07
 -1       807 1.56200E+09-4.66769E+07-4.50843E+07 1.29262E+09 4.05921E+07-1.01421E+08
 -1       808 1.27201E+09-4.21458E+07-4.00000E+07 1.38467E+09 3.44771E+07-1.09480E+08
 -1       809 9.81755E+08-3.98248E+07-3.64938E+07 1.45395E+09 2.89702E+07-1.17767E+08
 -1       810 7.08685E+08-3.89638E+07-3.37060E+07 1.49712E+09 2.44699E+07-1.27782E+08
 -1       811 4.74685E+08-3.48596E+07-2.71200E+07 1.50573E+09 1.89855E+07-1.39525E+08
 -1       812 3.07755E+08-1.08702E+07-4.53397E+06 1.46385E+09 1.24813E+07-1.51319E+08
 -1       813 2.19615E+08 4.95055E+07 4.78000E+07 1.36026E+09-1.34839E+07-1.36017E+08
 -1       814 1.84173E+08 1.62920E+08 1.38074E+08 1.20396E+09-2.32294E+07-6.84608E+07
 -1       815-2.73322E+09 5.44795E+08 6.17799E+08 5.69714E+08-9.84617E+07-3.96741E+07
 -1       816-2.71419E+09 1.41226E+06-2.97876E+07 6.89830E+08-5.91677E+07-2.82567E+07
 -1       817-1.96211E+09 6.18478E+07 6.66042E+07 8.14591E+08-5.36297E+07-3.73869E+07
 -1       818-1.36499E+09 4.73975E+07 4.20843E+07 8.96681E+08-3.76229E+07-4.53387E+07
 -1       819-7.73668E+08 3.07449E+07 2.78437E+07 9.46715E+08-2.32324E+07-5.23565E+07
 -1       820-2.12048E+08 1.45541E+07 1.20884E+07 9.60808E+08-8.69058E+06-5.62622E+07
 -1       821 3.15317E+08-1.12303E+06-2.96618E+06 9.40116E+08 4.94332E+06-5.69233E+07
 -1       822 8.02661E+08-1.55412E+07-1.68947E+07 8.85528E+08 1.75076E+07-5.45287E+07
 -1       823 1.24385E+09-2.83650E+07-2.93427E+07 7.99572E+08 2.88187E+07-4.94817E+07
 -1       824 1.63286E+09-3.95688E+07-4.02340E+07 6.85474E+08 3.87606E+07-4.21475E+07
 -1       825 1.96433E+09-4.91028E+07-4.94992E+07 5.47045E+08 4.72336E+07-3.28716E+07
 -1       826 2.23386E+09-5.69194E+07-5.70762E+07 3.88496E+08 5.41508E+07-2.19850E+07
 -1       827 2.43822E+09-6.29715E+07-6.29115E+07 2.14339E+08 5.94458E+07-9.82214E+06
 -1       828 2.57559E+09-6.72321E+07-6.69737E+07 2.92957E+07 6.30819E+07 3.27352E+06
 -1       829 2.64565E+09-6.97073E+07-6.92651E+07-1.61799E+08 6.50572E+07 1.69532E+07
 -1       830 2.64968E+09-7.04404E+07-6.98250E+07-3.54100E+08 6.54082E+07 3.08690E+07
 -1       831 2.59061E+09-6.95100E+07-6.87294E+07-5.42864E+08 6.42094E+07 4.46795E+07
 -1       832 2.47302E+09-6.70280E+07-6.60911E+07-7.23577E+08 6.15728E+07 5.80516E+07
 -1       833 2.30307E+09-6.31507E+07-6.20704E+07-8.92097E+08 5.76501E+07 7.06620E+07
 -1       834 2.08841E+09-5.81235E+07-5.69133E+07-1.04484E+09 5.26424E+07 8.22094E+07
 -1       835 1.83800E+09-5.23796E+07-5.10290E+07-1.17898E+09 4.68274E+07 9.24675E+07
 -1       836 1.56200E+09-4.66769E+07-4.50843E+07-1.29262E+09 4.05921E+07 1.01421E+08
 -1       837 1.27201E+09-4.21458E+07-4.00000E+07-1.38467E+09 3.44771E+07 1.09480E+08
 -1       838 9.81755E+08-3.98248E+07-3.64938E+07-1.45395E+09 2.89702E+07 1.17767E+08
 -1       839 7.08685E+08-3.89638E+07-3.37060E+07-1.49712E+09 2.44699E+07 1.27782E+08
 -1       840 4.74685E+08-3.48596E+07-2.71200E+07-1.50573E+09 1.89855E+07 1.39525E+08
 -1       841 3.07755E+08-1.08702E+07-4.53397E+06-1.46385E+09 1.24813E+07 1.51319E+08
 -1       842 2.19615E+08 4.95055E+07 4.78000E+07-1.36026E+09-1.34839E+07 1.36017E+08
 -1       843 1.84173E+08 1.62920E+08 1.38074E+08-1.20396E+09-2.32294E+07 6.84608E+07
 -1       844-3.07402E+09 4.03819E+08 4.73266E+08 1.10281E+08 5.94919E+07-1.93183E+07
 -1       845-2.97314E+09-1.22416E+08-1.44622E+08-1.17252E+08 3.47280E+07-4.48112E+07
 -1       846-2.16035E+09-4.81148E+07-2.58582E+07-2.44800E+08 2.68160E+07-4.63876E+07
 -1       847-1.50855E+09-4.00379E+07-2.72144E+07-3.46247E+08 1.63493E+07-5.53591E+07
 -1       848-8.60267E+08-2.80798E+07-1.57835E+07-4.17050E+08 8.12799E+06-6.18594E+07
 -1       849-2.41509E+08-1.54912E+07-5.76361E+06-4.59264E+08 2.37277E+05-6.52957E+07
 -1       850 3.41434E+08-3.36840E+06 4.19530E+06-4.72031E+08-7.06568E+06-6.53446E+07
 -1       851 8.80770E+08 7.69717E+06 1.35095E+07-4.57091E+08-1.38769E+07-6.22334E+07
 -1       852 1.36907E+09 1.76572E+07 2.20319E+07-4.16531E+08-2.00809E+07-5.63666E+07
 -1       853 1.79953E+09 2.63753E+07 2.95513E+07-3.53100E+08-2.55739E+07-4.81210E+07
 -1       854 2.16626E+09 3.38273E+07 3.59586E+07-2.69825E+08-3.02500E+07-3.78548E+07
 -1       855 2.46447E+09 3.99821E+07 4.11786E+07-1.69923E+08-3.40280E+07-2.59162E+07
 -1       856 2.69068E+09 4.48180E+07 4.51626E+07-5.67239E+07-3.68498E+07-1.26604E+07
 -1       857 2.84290E+09 4.83288E+07 4.78852E+07 6.63745E+07-3.86815E+07 1.54543E+06
 -1       858 2.92078E+09 5.05313E+07 4.93455E+07 1.95965E+08-3.95128E+07 1.63271E+07
 -1       859 2.92575E+09 5.14687E+07 4.95701E+07 3.28694E+08-3.93584E+07 3.13101E+07
 -1       860 2.86104E+09 5.12119E+07 4.86167E+07 4.61340E+08-3.82592E+07 4.61258E+07
 -1       861 2.73170E+09 4.98614E+07 4.65810E+07 5.90897E+08-3.62825E+07 6.04145E+07
 -1       862 2.54462E+09 4.75579E+07 4.36056E+07 7.14685E+08-3.35194E+07 7.38265E+07
 -1       863 2.30845E+09 4.45096E+07 3.98879E+07 8.30498E+08-3.00745E+07 8.60345E+07
 -1       864 2.03357E+09 4.10397E+07 3.56679E+07 9.36801E+08-2.60424E+07 9.67855E+07
 -1       865 1.73183E+09 3.76252E+07 3.11551E+07 1.03288E+09-2.14845E+07 1.06036E+08
 -1       866 1.41619E+09 3.48557E+07 2.63547E+07 1.11876E+09-1.63940E+07 1.14169E+08
 -1       867 1.09973E+09 3.29975E+07 2.07452E+07 1.19432E+09-1.08864E+07 1.22293E+08
 -1       868 7.94483E+08 3.10220E+07 1.30291E+07 1.25720E+09-5.13992E+06 1.31936E+08
 -1       869 5.11466E+08 2.61455E+07 2.21580E+06 1.29958E+09-1.42450E+06 1.43186E+08
 -1       870 2.59051E+08 8.59478E+06-1.33057E+07 1.30570E+09 5.29814E+05 1.54594E+08
 -1       871 6.45351E+07-2.29041E+07-2.04468E+07 1.26134E+09-1.60331E+07 1.39328E+08
 -1       872-2.20325E+07-6.50627E+07 7.81722E+06 1.16602E+09-1.31214E+07 7.23336E+07
 -1       873-1.84173E+08-1.62920E+08-1.38074E+08 1.20396E+09-2.32294E+07 6.84608E+07
 -1       874-2.19615E+08-4.95055E+07-4.78000E+07 1.36026E+09-1.34839E+07 1.36017E+08
 -1       875-3.07755E+08 1.08702E+07 4.53397E+06 1.46385E+09 1.24813E+07 1.51319E+08
 -1       876-4.74685E+08 3.48596E+07 2.71200E+07 1.50573E+09 1.89855E+07 1.39525E+08
 -1       877-7.08685E+08 3.89638E+07 3.37060E+07 1.49712E+09 2.44699E+07 1.27782E+08
 -1       878-9.81755E+08 3.98248E+07 3.64938E+07 1.45395E+09 2.89702E+07 1.17767E+08
 -1       879-1.27201E+09 4.21458E+07 4.00000E+07 1.38467E+09 3.44771E+07 1.09480E+08
 -1       880-1.56200E+09 4.66769E+07 4.50843E+07 1.29262E+09 4.05921E+07 1.01421E+08
 -1       881-1.83800E+09 5.23796E+07 5.10290E+07 1.17898E+09 4.68274E+07 9.24675E+07
 -1       882-2.08841E+09 5.81235E+07 5.69133E+07 1.04484E+09 5.26424E+07 8.22094E+07
 -1       883-2.30307E+09 6.31507E+07 6.20704E+07 8.92097E+08 5.76501E+07 7.06620E+07
 -1       884-2.47302E+09 6.70280E+07 6.60911E+07 7.23577E+08 6.15728E+07 5.80516E+07
 -1       885-2.59061E+09 6.95100E+07 6.87294E+07 5.42864E+08 6.42094E+07 4.46795E+07
 -1       886-2.64968E+09 7.04404E+07 6.98250E+07 3.54100E+08 6.54082E+07 3.08690E+07
 -1       887-2.64565E+09 6.97073E+07 6.92651E+07 1.61799E+08 6.50572E+07 1.69532E+07
 -1       888-2.57559E+09 6.72321E+07 6.69737E+07-2.92957E+07 6.30819E+07 3.27352E+06
 -1       889-2.43822E+09 6.29715E+07 6.29115E+07-2.14339E+08 5.94458E+07-9.82214E+06
 -1       890-2.23386E+09 5.69194E+07 5.70762E+07-3.88496E+08 5.41508E+07-2.19850E+07
 -1       891-1.96433E+09 4.91028E+07 4.94992E+07-5.47045E+08 4.72336E+07-3.28716E+07
 -1       892-1.63286E+09 3.95688E+07 4.02340E+07-6.85474E+08 3.87606E+07-4.21475E+07
 -1       893-1.24385E+09 2.83650E+07 2.93427E+07-7.99572E+08 2.88187E+07-4.94817E+07
 -1       894-8.02661E+08 1.55412E+07 1.68947E+07-8.85528E+08 1.75076E+07-5.45287E+07
 -1       895-3.15317E+08 1.12303E+06 2.96618E+06-9.40116E+08 4.94332E+06-5.69233E+07
 -1       896 2.12048E+08-1.45541E+07-1.20884E+07-9.60808E+08-8.69058E+06-5.62622E+07
 -1       897 7.73668E+08-3.07449E+07-2.78437E+07-9.46715E+08-2.32324E+07-5.23565E+07
 -1       898 1.36499E+09-4.73975E+07-4.20843E+07-8.96681E+08-3.76229E+07-4.53387E+07
 -1       899 1.96211E+09-6.18478E+07-6.66042E+07-8.14591E+08-5.36297E+07-3.73869E+07
 -1       900 2.71419E+09-1.41226E+06 2.97876E+07-6.89830E+08-5.91677E+07-2.82567E+07
 -1       901 2.73322E+09-5.44795E+08-6.17799E+08-5.69714E+08-9.84617E+07-3.96741E+07
 -1       902 3.07402E+09-4.03819E+08-4.73266E+08-1.10281E+08 5.94919E+07-1.93183E+07
 -1       903 2.97314E+09 1.22416E+08 1.44622E+08 1.17252E+08 3.47280E+07-4.48112E+07
 -1       904 2.16035E+09 4.81148E+07 2.58582E+07 2.44800E+08 2.68160E+07-4.63876E+07
 -1       905 1.50855E+09 4.00379E+07 2.72144E+07 3.46247E+08 1.63493E+07-5.53591E+07
 -1       906 8.60267E+08 2.80798E+07 1.57835E+07 4.17050E+08 8.12799E+06-6.18594E+07
 -1       907 2.41509E+08 1.54912E+07 5.76361E+06 4.59264E+08 2.37277E+05-6.52957E+07
 -1       908-3.41434E+08 3.36840E+06-4.19530E+06 4.72031E+08-7.06568E+06-6.53446E+07
 -1       909-8.80770E+08-7.69717E+06-1.35095E+07 4.57091E+08-1.38769E+07-6.22334E+07
 -1       910-1.36907E+09-1.76572E+07-2.20319E+07 4.16531E+08-2.00809E+07-5.63666E+07
 -1       911-1.79953E+09-2.63753E+07-2.95513E+07 3.53100E+08-2.55739E+07-4.81210E+07
 -1       912-2.16626E+09-3.38273E+07-3.59586E+07 2.69825E+08-3.02500E+07-3.78548E+07
 -1       913-2.46447E+09-3.99821E+07-4.11786E+07 1.69923E+08-3.40280E+07-2.59162E+07
 -1       914-2.69068E+09-4.48180E+07-4.51626E+07 5.67239E+07-3.68498E+07-1.26604E+07
 -1       915-2.84290E+09-4.83288E+07-4.78852E+07-6.63745E+07-3.86815E+07 1.54543E+06
 -1       916-2.92078E+09-5.05313E+07-4.93455E+07-1.95965E+08-3.95128E+07 1.63271E+07
 -1       917-2.92575E+09-5.14687E+07-4.95701E+07-3.28694E+08-3.93584E+07 3.13101E+07
 -1       918-2.86104E+09-5.12119E+07-4.86167E+07-4.61340E+08-3.82592E+07 4.61258E+07
 -1       919-2.73170E+09-4.98614E+07-4.65810E+07-5.90897E+08-3.62825E+07 6.04145E+07
 -1       920-2.54462E+09-4.75579E+07-4.36056E+07-7.14685E+08-3.35194E+07 7.38265E+07
 -1       921-2.30845E+09-4.45096E+07-3.98879E+07-8.30498E+08-3.00745E+07 8.60345E+07
 -1       922-2.03357E+09-4.10397E+07-3.56679E+07-9.36801E+08-2.60424E+07 9.67855E+07
 -1       923-1.73183E+09-3.76252E+07-3.11551E+07-1.03288E+09-2.14845E+07 1.06036E+08
 -1       924-1.41619E+09-3.48557E+07-2.63547E+07-1.11876E+09-1.63940E+07 1.14169E+08
 -1       925-1.09973E+09-3.29975E+07-2.07452E+07-1.19432E+09-1.08864E+07 1.22293E+08
 -1       926-7.94483E+08-3.10220E+07-1.30291E+07-1.25720E+09-5.13992E+06 1.31936E+08
 -1       927-5.11466E+08-2.61455E+07-2.21580E+06-1.29958E+09-1.42450E+06 1.43186E+08
 -1       928-2.59051E+08-8.59478E+06 1.33057E+07-1.30570E+09 5.29814E+05 1.54594E+08
 -1       929-6.45351E+07 2.29041E+07 2.04468E+07-1.26134E+09-1.60331E+07 1.39328E+08
 -1       930 2.20325E+07 6.50627E+07-7.81722E+06-1.16602E+09-1.31214E+07 7.23336E+07
 -3
    1PSTEP                        19           1           1          
    1PGM                1.000000E+00                                  
    1PGK                4.427982E+05                                  
    1PHID                         -1                                  
    1PSUBC                         0                                  
    1PMODE                         5                                  
  100CL  105 105.9066076         930                     2    5MODAL      1
 -4  FORC        4    1
 -5  F1          1    2    1    0
 -5  F2          1    2    2    0
 -5  F3          1    2    3    0
 -5  ALL         1    2    0    0    1ALL
 -1         1-1.43234E+06 1.24168E+05 4.50656E+05
 -1         2 1.43234E+06 1.24168E+05-4.50656E+05
 -1         3-1.30713E+02-9.13044E+03 4.12946E+02
 -1         4 1.30713E+02-9.13044E+03-4.12946E+02
 -1         5 1.43234E+06-1.24168E+05 4.50656E+05
 -1         6-1.43234E+06-1.24168E+05-4.50656E+05
 -1         7 1.30713E+02 9.13044E+03 4.12946E+02
 -1         8-1.30713E+02 9.13044E+03-4.12946E+02
 -1         9-1.23030E+05 1.24991E+05-4.57842E+05
 -1        10-1.18183E+02-4.80874E+03 3.72526E+02
 -1        11-9.04335E+05-6.25873E+05-1.95734E+06
 -1        12-1.51690E+06-6.35309E+05 1.97442E+06
 -1        13-4.76667E+02-4.00443E+03 1.48466E+03
 -1        14-4.85534E+02-3.91678E+03 1.48465E+03
 -1        15 1.23030E+05-1.24991E+05-4.57842E+05
 -1        16 1.18183E+02 4.80874E+03 3.72526E+02
 -1        17 1.51690E+06 6.35309E+05 1.97442E+06
 -1        18 9.04335E+05 6.25873E+05-1.95734E+06
 -1        19 4.85534E+02 3.91678E+03 1.48465E+03
 -1        20 4.76667E+02 4.00443E+03 1.48466E+03
 -1        21 1.51690E+06-6.35309E+05-1.97442E+06
 -1        22 9.04335E+05-6.25873E+05 1.95734E+06
 -1        23 4.76667E+02-4.00443E+03-1.48466E+03
 -1        24 4.85534E+02-3.91678E+03-1.48465E+03
 -1        25 1.23030E+05 1.24991E+05 4.57842E+05
 -1        26 1.18183E+02-4.80874E+03-3.72526E+02
 -1        27-1.23030E+05-1.24991E+05 4.57842E+05
 -1        28-9.04335E+05 6.25873E+05 1.95734E+06
 -1        29-1.51690E+06 6.35309E+05-1.97442E+06
 -1        30-1.18183E+02 4.80874E+03-3.72526E+02
 -1        31-4.76667E+02 4.00443E+03-1.48466E+03
 -1        32-4.85534E+02 3.91678E+03-1.48465E+03
 -1        33-3.44018E+01 3.10520E+02 1.57237E+01
 -1        34-6.66259E+01 9.44828E+02 4.65989E+01
 -1        35-9.18652E+01 1.90062E+03 9.19140E+01
 -1        36-1.10190E+02 3.09887E+03 1.47916E+02
 -1        37-1.21944E+02 4.46399E+03 2.11351E+02
 -1        38-1.27344E+02 5.92246E+03 2.79042E+02
 -1        39-1.26727E+02 7.40413E+03 3.47852E+02
 -1        40-1.20494E+02 8.84304E+03 4.14736E+02
 -1        41-1.09121E+02 1.01782E+04 4.76836E+02
 -1        42-9.31514E+01 1.13544E+04 5.31554E+02
 -1        43-7.31942E+01 1.23229E+04 5.76599E+02
 -1        44-4.99113E+01 1.30423E+04 6.10023E+02
 -1        45-2.40070E+01 1.34790E+04 6.30245E+02
 -1        46 3.78667E+00 1.36073E+04 6.36070E+02
 -1        47 3.27255E+01 1.34104E+04 6.26696E+02
 -1        48 6.20705E+01 1.28796E+04 6.01721E+02
 -1        49 9.11059E+01 1.20147E+04 5.61131E+02
 -1        50 1.19157E+02 1.08235E+04 5.05285E+02
 -1        51 1.45609E+02 9.32110E+03 4.34891E+02
 -1        52 1.69924E+02 7.52930E+03 3.50963E+02
 -1        53 1.91658E+02 5.47556E+03 2.54763E+02
 -1        54 2.10475E+02 3.19190E+03 1.47733E+02
 -1        55 2.26165E+02 7.13555E+02 3.14202E+01
 -1        56 2.38653E+02-1.92246E+03-9.25676E+01
 -1        57 2.48013E+02-4.67916E+03-2.22493E+02
 -1        58 2.54479E+02-7.52166E+03-3.56225E+02
 -1        59 2.58450E+02-1.04196E+04-4.90805E+02
 -1        60 2.60469E+02-1.33494E+04-6.22182E+02
 -1        61 2.61215E+02-1.62944E+04-7.46655E+02
 -1        62 3.44018E+01 3.10520E+02-1.57237E+01
 -1        63 6.66259E+01 9.44828E+02-4.65989E+01
 -1        64 9.18652E+01 1.90062E+03-9.19140E+01
 -1        65 1.10190E+02 3.09887E+03-1.47916E+02
 -1        66 1.21944E+02 4.46399E+03-2.11351E+02
 -1        67 1.27344E+02 5.92246E+03-2.79042E+02
 -1        68 1.26727E+02 7.40413E+03-3.47852E+02
 -1        69 1.20494E+02 8.84304E+03-4.14736E+02
 -1        70 1.09121E+02 1.01782E+04-4.76836E+02
 -1        71 9.31514E+01 1.13544E+04-5.31554E+02
 -1        72 7.31942E+01 1.23229E+04-5.76599E+02
 -1        73 4.99113E+01 1.30423E+04-6.10023E+02
 -1        74 2.40070E+01 1.34790E+04-6.30245E+02
 -1        75-3.78668E+00 1.36073E+04-6.36070E+02
 -1        76-3.27255E+01 1.34104E+04-6.26696E+02
 -1        77-6.20705E+01 1.28796E+04-6.01721E+02
 -1        78-9.11058E+01 1.20147E+04-5.61131E+02
 -1        79-1.19157E+02 1.08235E+04-5.05285E+02
 -1        80-1.45609E+02 9.32110E+03-4.34891E+02
 -1        81-1.69924E+02 7.52930E+03-3.50963E+02
 -1        82-1.91658E+02 5.47556E+03-2.54763E+02
 -1        83-2.10475E+02 3.19190E+03-1.47733E+02
 -1        84-2.26165E+02 7.13555E+02-3.14203E+01
 -1        85-2.38653E+02-1.92246E+03 9.25676E+01
 -1        86-2.48013E+02-4.67916E+03 2.22493E+02
 -1        87-2.54479E+02-7.52166E+03 3.56225E+02
 -1        88-2.58450E+02-1.04196E+04 4.90805E+02
 -1        89-2.60469E+02-1.33494E+04 6.22182E+02
 -1        90-2.61216E+02-1.62944E+04 7.46655E+02
 -1        91-1.36507E+06-1.21727E+04 1.00208E+04
 -1        92 4.86958E-04 1.48630E-04 1.03568E+04
 -1        93 1.36507E+06 1.21727E+04 1.00208E+04
 -1        94-1.36507E+06 1.21727E+04-1.00208E+04
 -1        95-4.00218E-04-1.36178E-04-1.03568E+04
 -1        96 1.36507E+06-1.21727E+04-1.00208E+04
 -1        97-3.44018E+01-3.10520E+02-1.57237E+01
 -1        98-6.66259E+01-9.44828E+02-4.65989E+01
 -1        99-9.18652E+01-1.90062E+03-9.19140E+01
 -1       100-1.10190E+02-3.09887E+03-1.47916E+02
 -1       101-1.21944E+02-4.46399E+03-2.11351E+02
 -1       102-1.27344E+02-5.92246E+03-2.79042E+02
 -1       103-1.26727E+02-7.40413E+03-3.47852E+02
 -1       104-1.20494E+02-8.84304E+03-4.14736E+02
 -1       105-1.09121E+02-1.01782E+04-4.76836E+02
 -1       106-9.31514E+01-1.13544E+04-5.31554E+02
 -1       107-7.31942E+01-1.23229E+04-5.76599E+02
 -1       108-4.99113E+01-1.30423E+04-6.10023E+02
 -1       109-2.40070E+01-1.34790E+04-6.30245E+02
 -1       110 3.78667E+00-1.36073E+04-6.36070E+02
 -1       111 3.27255E+01-1.34104E+04-6.26696E+02
 -1       112 6.20705E+01-1.28796E+04-6.01721E+02
 -1       113 9.11058E+01-1.20147E+04-5.61131E+02
 -1       114 1.19157E+02-1.08235E+04-5.05285E+02
 -1       115 1.45609E+02-9.32110E+03-4.34891E+02
 -1       116 1.69924E+02-7.52930E+03-3.50963E+02
 -1       117 1.91658E+02-5.47556E+03-2.54763E+02
 -1       118 2.10475E+02-3.19190E+03-1.47733E+02
 -1       119 2.26165E+02-7.13555E+02-3.14202E+01
 -1       120 2.38653E+02 1.92246E+03 9.25676E+01
 -1       121 2.48013E+02 4.67916E+03 2.22493E+02
 -1       122 2.54479E+02 7.52166E+03 3.56225E+02
 -1       123 2.58450E+02 1.04196E+04 4.90805E+02
 -1       124 2.60469E+02 1.33494E+04 6.22182E+02
 -1       125 2.61215E+02 1.62944E+04 7.46655E+02
 -1       126-1.25101E+01-5.33143E+03 8.15234E+01
 -1       127-1.79446E-06 2.86781E-06 8.21076E+01
 -1       128 1.25101E+01 5.33143E+03 8.15234E+01
 -1       129 3.44018E+01-3.10520E+02 1.57237E+01
 -1       130 6.66259E+01-9.44828E+02 4.65989E+01
 -1       131 9.18652E+01-1.90062E+03 9.19140E+01
 -1       132 1.10190E+02-3.09887E+03 1.47916E+02
 -1       133 1.21944E+02-4.46399E+03 2.11351E+02
 -1       134 1.27344E+02-5.92246E+03 2.79042E+02
 -1       135 1.26727E+02-7.40413E+03 3.47852E+02
 -1       136 1.20494E+02-8.84304E+03 4.14736E+02
 -1       137 1.09121E+02-1.01782E+04 4.76836E+02
 -1       138 9.31514E+01-1.13544E+04 5.31554E+02
 -1       139 7.31942E+01-1.23229E+04 5.76599E+02
 -1       140 4.99113E+01-1.30423E+04 6.10023E+02
 -1       141 2.40070E+01-1.34790E+04 6.30245E+02
 -1       142-3.78667E+00-1.36073E+04 6.36070E+02
 -1       143-3.27255E+01-1.34104E+04 6.26696E+02
 -1       144-6.20705E+01-1.28796E+04 6.01721E+02
 -1       145-9.11058E+01-1.20147E+04 5.61131E+02
 -1       146-1.19157E+02-1.08235E+04 5.05285E+02
 -1       147-1.45609E+02-9.32110E+03 4.34891E+02
 -1       148-1.69924E+02-7.52930E+03 3.50963E+02
 -1       149-1.91658E+02-5.47556E+03 2.54763E+02
 -1       150-2.10475E+02-3.19190E+03 1.47733E+02
 -1       151-2.26165E+02-7.13555E+02 3.14203E+01
 -1       152-2.38653E+02 1.92246E+03-9.25676E+01
 -1       153-2.48013E+02 4.67916E+03-2.22493E+02
 -1       154-2.54479E+02 7.52166E+03-3.56225E+02
 -1       155-2.58450E+02 1.04196E+04-4.90805E+02
 -1       156-2.60469E+02 1.33494E+04-6.22182E+02
 -1       157-2.61216E+02 1.62944E+04-7.46655E+02
 -1       158-1.25101E+01 5.33143E+03-8.15234E+01
 -1       159-2.56945E-06-8.67157E-06-8.21076E+01
 -1       160 1.25101E+01-5.33143E+03-8.15234E+01
 -1       161 3.03683E+01 1.65431E+02-1.39523E+01
 -1       162 5.94043E+01 5.00829E+02-4.20445E+01
 -1       163 8.22151E+01 1.00529E+03-8.31516E+01
 -1       164 9.87725E+01 1.63735E+03-1.33873E+02
 -1       165 1.09403E+02 2.35724E+03-1.91288E+02
 -1       166 1.14303E+02 3.12632E+03-2.52543E+02
 -1       167 1.13780E+02 3.90767E+03-3.14809E+02
 -1       168 1.08201E+02 4.66651E+03-3.75334E+02
 -1       169 9.79924E+01 5.37066E+03-4.31531E+02
 -1       170 8.36458E+01 5.99098E+03-4.81049E+02
 -1       171 6.57084E+01 6.50178E+03-5.21814E+02
 -1       172 4.47761E+01 6.88116E+03-5.52061E+02
 -1       173 2.14826E+01 7.11137E+03-5.70361E+02
 -1       174-3.51343E+00 7.17896E+03-5.75632E+02
 -1       175-2.95425E+01 7.07492E+03-5.67149E+02
 -1       176-5.59398E+01 6.79475E+03-5.44546E+02
 -1       177-8.20615E+01 6.33833E+03-5.07812E+02
 -1       178-1.07301E+02 5.70973E+03-4.57272E+02
 -1       179-1.31106E+02 4.91696E+03-3.93568E+02
 -1       180-1.52991E+02 3.97150E+03-3.17615E+02
 -1       181-1.72558E+02 2.88783E+03-2.30556E+02
 -1       182-1.89504E+02 1.68279E+03-1.33693E+02
 -1       183-2.03638E+02 3.74924E+02-2.84182E+01
 -1       184-2.14895E+02-1.01633E+03 8.38209E+01
 -1       185-2.23352E+02-2.47146E+03 2.01450E+02
 -1       186-2.29242E+02-3.97174E+03 3.22505E+02
 -1       187-2.32964E+02-5.50014E+03 4.44200E+02
 -1       188-2.35047E+02-7.04231E+03 5.62655E+02
 -1       189-2.36036E+02-8.58789E+03 6.74288E+02
 -1       190-6.69920E+05 2.25898E+05-2.32350E+06
 -1       191-1.43814E+06 2.50753E+05 2.34150E+06
 -1       192-5.92812E+02-8.00914E+03 1.85368E+03
 -1       193 1.26979E+02 1.50706E+02-5.63885E+01
 -1       194 2.42829E+02 4.28993E+02-1.69655E+02
 -1       195 3.34562E+02 8.46007E+02-3.35065E+02
 -1       196 4.01391E+02 1.36977E+03-5.38589E+02
 -1       197 4.44140E+02 1.96672E+03-7.68708E+02
 -1       198 4.63770E+02 2.60475E+03-1.01419E+03
 -1       199 4.61493E+02 3.25314E+03-1.26374E+03
 -1       200 4.38778E+02 3.88296E+03-1.50634E+03
 -1       201 3.97355E+02 4.46745E+03-1.73162E+03
 -1       202 3.39208E+02 4.98235E+03-1.93013E+03
 -1       203 2.66549E+02 5.40629E+03-2.09354E+03
 -1       204 1.81788E+02 5.72106E+03-2.21478E+03
 -1       205 8.74867E+01 5.91188E+03-2.28809E+03
 -1       206-1.36887E+01 5.96755E+03-2.30915E+03
 -1       207-1.19030E+02 5.88059E+03-2.27503E+03
 -1       208-2.25848E+02 5.64723E+03-2.18428E+03
 -1       209-3.31536E+02 5.26735E+03-2.03684E+03
 -1       210-4.33639E+02 4.74435E+03-1.83402E+03
 -1       211-5.29919E+02 4.08484E+03-1.57839E+03
 -1       212-6.18416E+02 3.29837E+03-1.27362E+03
 -1       213-6.97511E+02 2.39694E+03-9.24282E+02
 -1       214-7.65979E+02 1.39454E+03-5.35573E+02
 -1       215-8.23047E+02 3.06550E+02-1.13020E+02
 -1       216-8.68445E+02-8.50901E+02 3.37638E+02
 -1       217-9.02470E+02-2.06162E+03 8.10078E+02
 -1       218-9.26044E+02-3.31006E+03 1.29616E+03
 -1       219-9.40738E+02-4.58205E+03 1.78384E+03
 -1       220-9.48699E+02-5.86562E+03 2.25607E+03
 -1       221-9.52307E+02-7.15201E+03 2.69566E+03
 -1       222 1.30548E+02 1.47299E+02-5.81768E+01
 -1       223 2.49097E+02 4.18834E+02-1.71143E+02
 -1       224 3.42792E+02 8.26004E+02-3.36191E+02
 -1       225 4.11044E+02 1.33768E+03-5.39368E+02
 -1       226 4.54722E+02 1.92097E+03-7.69150E+02
 -1       227 4.74781E+02 2.54443E+03-1.01431E+03
 -1       228 4.72437E+02 3.17801E+03-1.26355E+03
 -1       229 4.49181E+02 3.79343E+03-1.50588E+03
 -1       230 4.06777E+02 4.36454E+03-1.73090E+03
 -1       231 3.47255E+02 4.86766E+03-1.92919E+03
 -1       232 2.72880E+02 5.28189E+03-2.09241E+03
 -1       233 1.86119E+02 5.58947E+03-2.21349E+03
 -1       234 8.95954E+01 5.77594E+03-2.28669E+03
 -1       235-1.39632E+01 5.83036E+03-2.30767E+03
 -1       236-1.21785E+02 5.74544E+03-2.27351E+03
 -1       237-2.31115E+02 5.51747E+03-2.18276E+03
 -1       238-3.39288E+02 5.14636E+03-2.03535E+03
 -1       239-4.43790E+02 4.63541E+03-1.83260E+03
 -1       240-5.42329E+02 3.99110E+03-1.57706E+03
 -1       241-6.32902E+02 3.22273E+03-1.27242E+03
 -1       242-7.13854E+02 2.34206E+03-9.23227E+02
 -1       243-7.83942E+02 1.36277E+03-5.34676E+02
 -1       244-8.42380E+02 2.99893E+02-1.12289E+02
 -1       245-8.88888E+02-8.30763E+02 3.38203E+02
 -1       246-9.23717E+02-2.01338E+03 8.10486E+02
 -1       247-9.47663E+02-3.23292E+03 1.29642E+03
 -1       248-9.62083E+02-4.47596E+03 1.78399E+03
 -1       249-9.68936E+02-5.73159E+03 2.25613E+03
 -1       250-9.70899E+02-6.99225E+03 2.69567E+03
 -1       251-6.04241E+02-7.83316E+03 1.85369E+03
 -1       252 2.36036E+02 8.58789E+03 6.74288E+02
 -1       253 2.35047E+02 7.04231E+03 5.62655E+02
 -1       254 2.32964E+02 5.50014E+03 4.44200E+02
 -1       255 2.29242E+02 3.97174E+03 3.22505E+02
 -1       256 2.23352E+02 2.47146E+03 2.01450E+02
 -1       257 2.14895E+02 1.01633E+03 8.38209E+01
 -1       258 2.03638E+02-3.74924E+02-2.84182E+01
 -1       259 1.89504E+02-1.68279E+03-1.33693E+02
 -1       260 1.72558E+02-2.88783E+03-2.30556E+02
 -1       261 1.52991E+02-3.97150E+03-3.17615E+02
 -1       262 1.31106E+02-4.91696E+03-3.93568E+02
 -1       263 1.07301E+02-5.70973E+03-4.57272E+02
 -1       264 8.20615E+01-6.33833E+03-5.07812E+02
 -1       265 5.59398E+01-6.79475E+03-5.44546E+02
 -1       266 2.95425E+01-7.07492E+03-5.67149E+02
 -1       267 3.51343E+00-7.17896E+03-5.75632E+02
 -1       268-2.14826E+01-7.11137E+03-5.70361E+02
 -1       269-4.47761E+01-6.88116E+03-5.52061E+02
 -1       270-6.57084E+01-6.50178E+03-5.21814E+02
 -1       271-8.36458E+01-5.99098E+03-4.81049E+02
 -1       272-9.79924E+01-5.37066E+03-4.31531E+02
 -1       273-1.08201E+02-4.66651E+03-3.75334E+02
 -1       274-1.13780E+02-3.90767E+03-3.14809E+02
 -1       275-1.14303E+02-3.12632E+03-2.52543E+02
 -1       276-1.09403E+02-2.35724E+03-1.91288E+02
 -1       277-9.87725E+01-1.63735E+03-1.33873E+02
 -1       278-8.22151E+01-1.00529E+03-8.31516E+01
 -1       279-5.94043E+01-5.00829E+02-4.20445E+01
 -1       280-3.03683E+01-1.65431E+02-1.39523E+01
 -1       281 1.43814E+06-2.50753E+05 2.34150E+06
 -1       282 6.69920E+05-2.25898E+05-2.32350E+06
 -1       283-1.30548E+02-1.47299E+02-5.81768E+01
 -1       284-2.49097E+02-4.18834E+02-1.71143E+02
 -1       285-3.42792E+02-8.26004E+02-3.36191E+02
 -1       286-4.11044E+02-1.33768E+03-5.39368E+02
 -1       287-4.54722E+02-1.92097E+03-7.69150E+02
 -1       288-4.74781E+02-2.54443E+03-1.01431E+03
 -1       289-4.72437E+02-3.17801E+03-1.26355E+03
 -1       290-4.49181E+02-3.79343E+03-1.50588E+03
 -1       291-4.06777E+02-4.36454E+03-1.73090E+03
 -1       292-3.47255E+02-4.86766E+03-1.92919E+03
 -1       293-2.72880E+02-5.28189E+03-2.09241E+03
 -1       294-1.86119E+02-5.58947E+03-2.21349E+03
 -1       295-8.95954E+01-5.77594E+03-2.28669E+03
 -1       296 1.39632E+01-5.83036E+03-2.30767E+03
 -1       297 1.21785E+02-5.74544E+03-2.27351E+03
 -1       298 2.31115E+02-5.51747E+03-2.18276E+03
 -1       299 3.39288E+02-5.14636E+03-2.03535E+03
 -1       300 4.43790E+02-4.63541E+03-1.83260E+03
 -1       301 5.42329E+02-3.99110E+03-1.57706E+03
 -1       302 6.32902E+02-3.22273E+03-1.27242E+03
 -1       303 7.13854E+02-2.34206E+03-9.23227E+02
 -1       304 7.83942E+02-1.36277E+03-5.34676E+02
 -1       305 8.42380E+02-2.99893E+02-1.12289E+02
 -1       306 8.88888E+02 8.30763E+02 3.38203E+02
 -1       307 9.23717E+02 2.01338E+03 8.10486E+02
 -1       308 9.47663E+02 3.23292E+03 1.29642E+03
 -1       309 9.62083E+02 4.47596E+03 1.78399E+03
 -1       310 9.68936E+02 5.73159E+03 2.25613E+03
 -1       311 9.70899E+02 6.99225E+03 2.69567E+03
 -1       312 6.04241E+02 7.83316E+03 1.85369E+03
 -1       313-1.26979E+02-1.50706E+02-5.63885E+01
 -1       314-2.42829E+02-4.28993E+02-1.69655E+02
 -1       315-3.34562E+02-8.46007E+02-3.35065E+02
 -1       316-4.01391E+02-1.36977E+03-5.38589E+02
 -1       317-4.44140E+02-1.96672E+03-7.68708E+02
 -1       318-4.63770E+02-2.60475E+03-1.01419E+03
 -1       319-4.61493E+02-3.25314E+03-1.26374E+03
 -1       320-4.38778E+02-3.88296E+03-1.50634E+03
 -1       321-3.97355E+02-4.46745E+03-1.73162E+03
 -1       322-3.39208E+02-4.98235E+03-1.93013E+03
 -1       323-2.66549E+02-5.40629E+03-2.09354E+03
 -1       324-1.81788E+02-5.72106E+03-2.21478E+03
 -1       325-8.74867E+01-5.91188E+03-2.28809E+03
 -1       326 1.36887E+01-5.96755E+03-2.30915E+03
 -1       327 1.19030E+02-5.88059E+03-2.27503E+03
 -1       328 2.25848E+02-5.64723E+03-2.18428E+03
 -1       329 3.31536E+02-5.26735E+03-2.03684E+03
 -1       330 4.33639E+02-4.74435E+03-1.83402E+03
 -1       331 5.29919E+02-4.08484E+03-1.57839E+03
 -1       332 6.18416E+02-3.29837E+03-1.27362E+03
 -1       333 6.97511E+02-2.39694E+03-9.24282E+02
 -1       334 7.65979E+02-1.39454E+03-5.35573E+02
 -1       335 8.23047E+02-3.06550E+02-1.13020E+02
 -1       336 8.68445E+02 8.50901E+02 3.37638E+02
 -1       337 9.02470E+02 2.06162E+03 8.10078E+02
 -1       338 9.26044E+02 3.31006E+03 1.29616E+03
 -1       339 9.40738E+02 4.58205E+03 1.78384E+03
 -1       340 9.48699E+02 5.86562E+03 2.25607E+03
 -1       341 9.52307E+02 7.15201E+03 2.69566E+03
 -1       342 5.92812E+02 8.00914E+03 1.85368E+03
 -1       343-1.26979E+02 1.50706E+02 5.63885E+01
 -1       344-2.42829E+02 4.28993E+02 1.69655E+02
 -1       345-3.34562E+02 8.46007E+02 3.35065E+02
 -1       346-4.01391E+02 1.36977E+03 5.38589E+02
 -1       347-4.44140E+02 1.96672E+03 7.68708E+02
 -1       348-4.63770E+02 2.60475E+03 1.01419E+03
 -1       349-4.61493E+02 3.25314E+03 1.26374E+03
 -1       350-4.38778E+02 3.88296E+03 1.50634E+03
 -1       351-3.97355E+02 4.46745E+03 1.73162E+03
 -1       352-3.39208E+02 4.98235E+03 1.93013E+03
 -1       353-2.66549E+02 5.40629E+03 2.09354E+03
 -1       354-1.81788E+02 5.72106E+03 2.21478E+03
 -1       355-8.74867E+01 5.91188E+03 2.28809E+03
 -1       356 1.36887E+01 5.96755E+03 2.30915E+03
 -1       357 1.19030E+02 5.88059E+03 2.27503E+03
 -1       358 2.25848E+02 5.64723E+03 2.18428E+03
 -1       359 3.31536E+02 5.26735E+03 2.03684E+03
 -1       360 4.33639E+02 4.74435E+03 1.83402E+03
 -1       361 5.29919E+02 4.08484E+03 1.57839E+03
 -1       362 6.18416E+02 3.29837E+03 1.27362E+03
 -1       363 6.97511E+02 2.39694E+03 9.24282E+02
 -1       364 7.65979E+02 1.39454E+03 5.35573E+02
 -1       365 8.23047E+02 3.06550E+02 1.13020E+02
 -1       366 8.68445E+02-8.50901E+02-3.37638E+02
 -1       367 9.02470E+02-2.06162E+03-8.10078E+02
 -1       368 9.26044E+02-3.31006E+03-1.29616E+03
 -1       369 9.40738E+02-4.58205E+03-1.78384E+03
 -1       370 9.48699E+02-5.86562E+03-2.25607E+03
 -1       371 9.52307E+02-7.15201E+03-2.69566E+03
 -1       372-1.30548E+02 1.47299E+02 5.81768E+01
 -1       373-2.49097E+02 4.18834E+02 1.71143E+02
 -1       374-3.42792E+02 8.26004E+02 3.36191E+02
 -1       375-4.11044E+02 1.33768E+03 5.39368E+02
 -1       376-4.54722E+02 1.92097E+03 7.69150E+02
 -1       377-4.74781E+02 2.54443E+03 1.01431E+03
 -1       378-4.72437E+02 3.17801E+03 1.26355E+03
 -1       379-4.49181E+02 3.79343E+03 1.50588E+03
 -1       380-4.06777E+02 4.36454E+03 1.73090E+03
 -1       381-3.47255E+02 4.86766E+03 1.92919E+03
 -1       382-2.72880E+02 5.28189E+03 2.09241E+03
 -1       383-1.86119E+02 5.58947E+03 2.21349E+03
 -1       384-8.95954E+01 5.77594E+03 2.28669E+03
 -1       385 1.39632E+01 5.83036E+03 2.30767E+03
 -1       386 1.21785E+02 5.74544E+03 2.27351E+03
 -1       387 2.31115E+02 5.51747E+03 2.18276E+03
 -1       388 3.39288E+02 5.14636E+03 2.03535E+03
 -1       389 4.43790E+02 4.63541E+03 1.83260E+03
 -1       390 5.42329E+02 3.99110E+03 1.57706E+03
 -1       391 6.32902E+02 3.22273E+03 1.27242E+03
 -1       392 7.13854E+02 2.34206E+03 9.23227E+02
 -1       393 7.83942E+02 1.36277E+03 5.34676E+02
 -1       394 8.42380E+02 2.99893E+02 1.12289E+02
 -1       395 8.88888E+02-8.30763E+02-3.38203E+02
 -1       396 9.23717E+02-2.01338E+03-8.10486E+02
 -1       397 9.47663E+02-3.23292E+03-1.29642E+03
 -1       398 9.62083E+02-4.47596E+03-1.78399E+03
 -1       399 9.68936E+02-5.73159E+03-2.25613E+03
 -1       400 9.70899E+02-6.99225E+03-2.69567E+03
 -1       401 6.69920E+05 2.25898E+05 2.32350E+06
 -1       402 1.43814E+06 2.50753E+05-2.34150E+06
 -1       403 5.92812E+02-8.00914E+03-1.85368E+03
 -1       404-3.03683E+01 1.65431E+02 1.39523E+01
 -1       405-5.94043E+01 5.00829E+02 4.20445E+01
 -1       406-8.22151E+01 1.00529E+03 8.31516E+01
 -1       407-9.87725E+01 1.63735E+03 1.33873E+02
 -1       408-1.09403E+02 2.35724E+03 1.91288E+02
 -1       409-1.14303E+02 3.12632E+03 2.52543E+02
 -1       410-1.13780E+02 3.90767E+03 3.14809E+02
 -1       411-1.08201E+02 4.66651E+03 3.75334E+02
 -1       412-9.79924E+01 5.37066E+03 4.31531E+02
 -1       413-8.36458E+01 5.99098E+03 4.81049E+02
 -1       414-6.57084E+01 6.50178E+03 5.21814E+02
 -1       415-4.47761E+01 6.88116E+03 5.52061E+02
 -1       416-2.14826E+01 7.11137E+03 5.70361E+02
 -1       417 3.51342E+00 7.17896E+03 5.75632E+02
 -1       418 2.95425E+01 7.07492E+03 5.67149E+02
 -1       419 5.59398E+01 6.79475E+03 5.44546E+02
 -1       420 8.20615E+01 6.33833E+03 5.07812E+02
 -1       421 1.07301E+02 5.70973E+03 4.57272E+02
 -1       422 1.31106E+02 4.91696E+03 3.93568E+02
 -1       423 1.52991E+02 3.97150E+03 3.17615E+02
 -1       424 1.72558E+02 2.88783E+03 2.30556E+02
 -1       425 1.89504E+02 1.68279E+03 1.33693E+02
 -1       426 2.03638E+02 3.74924E+02 2.84182E+01
 -1       427 2.14895E+02-1.01633E+03-8.38209E+01
 -1       428 2.23352E+02-2.47146E+03-2.01450E+02
 -1       429 2.29242E+02-3.97174E+03-3.22505E+02
 -1       430 2.32964E+02-5.50014E+03-4.44200E+02
 -1       431 2.35047E+02-7.04231E+03-5.62655E+02
 -1       432 2.36036E+02-8.58789E+03-6.74288E+02
 -1       433 6.04241E+02-7.83316E+03-1.85369E+03
 -1       434-6.69920E+05-2.25898E+05 2.32350E+06
 -1       435-1.43814E+06-2.50753E+05-2.34150E+06
 -1       436-2.36036E+02 8.58789E+03-6.74288E+02
 -1       437-2.35047E+02 7.04231E+03-5.62655E+02
 -1       438-2.32964E+02 5.50014E+03-4.44200E+02
 -1       439-2.29242E+02 3.97174E+03-3.22505E+02
 -1       440-2.23352E+02 2.47146E+03-2.01450E+02
 -1       441-2.14895E+02 1.01633E+03-8.38208E+01
 -1       442-2.03638E+02-3.74924E+02 2.84182E+01
 -1       443-1.89504E+02-1.68279E+03 1.33693E+02
 -1       444-1.72558E+02-2.88783E+03 2.30556E+02
 -1       445-1.52991E+02-3.97150E+03 3.17615E+02
 -1       446-1.31106E+02-4.91696E+03 3.93568E+02
 -1       447-1.07301E+02-5.70973E+03 4.57272E+02
 -1       448-8.20615E+01-6.33833E+03 5.07812E+02
 -1       449-5.59398E+01-6.79475E+03 5.44546E+02
 -1       450-2.95425E+01-7.07492E+03 5.67149E+02
 -1       451-3.51343E+00-7.17896E+03 5.75632E+02
 -1       452 2.14826E+01-7.11137E+03 5.70361E+02
 -1       453 4.47761E+01-6.88116E+03 5.52061E+02
 -1       454 6.57084E+01-6.50178E+03 5.21814E+02
 -1       455 8.36458E+01-5.99098E+03 4.81049E+02
 -1       456 9.79924E+01-5.37066E+03 4.31531E+02
 -1       457 1.08201E+02-4.66651E+03 3.75334E+02
 -1       458 1.13780E+02-3.90767E+03 3.14809E+02
 -1       459 1.14303E+02-3.12632E+03 2.52543E+02
 -1       460 1.09403E+02-2.35724E+03 1.91288E+02
 -1       461 9.87725E+01-1.63735E+03 1.33873E+02
 -1       462 8.22151E+01-1.00529E+03 8.31516E+01
 -1       463 5.94043E+01-5.00829E+02 4.20445E+01
 -1       464 3.03683E+01-1.65431E+02 1.39523E+01
 -1       465-5.92812E+02 8.00914E+03-1.85368E+03
 -1       466 1.26979E+02-1.50706E+02 5.63885E+01
 -1       467 2.42829E+02-4.28993E+02 1.69655E+02
 -1       468 3.34562E+02-8.46007E+02 3.35065E+02
 -1       469 4.01391E+02-1.36977E+03 5.38589E+02
 -1       470 4.44140E+02-1.96672E+03 7.68708E+02
 -1       471 4.63770E+02-2.60475E+03 1.01419E+03
 -1       472 4.61493E+02-3.25314E+03 1.26374E+03
 -1       473 4.38778E+02-3.88296E+03 1.50634E+03
 -1       474 3.97355E+02-4.46745E+03 1.73162E+03
 -1       475 3.39208E+02-4.98235E+03 1.93013E+03
 -1       476 2.66549E+02-5.40629E+03 2.09354E+03
 -1       477 1.81788E+02-5.72106E+03 2.21478E+03
 -1       478 8.74867E+01-5.91188E+03 2.28809E+03
 -1       479-1.36887E+01-5.96755E+03 2.30915E+03
 -1       480-1.19030E+02-5.88059E+03 2.27503E+03
 -1       481-2.25848E+02-5.64723E+03 2.18428E+03
 -1       482-3.31536E+02-5.26735E+03 2.03684E+03
 -1       483-4.33639E+02-4.74435E+03 1.83402E+03
 -1       484-5.29919E+02-4.08484E+03 1.57839E+03
 -1       485-6.18416E+02-3.29837E+03 1.27362E+03
 -1       486-6.97511E+02-2.39694E+03 9.24282E+02
 -1       487-7.65979E+02-1.39454E+03 5.35573E+02
 -1       488-8.23047E+02-3.06550E+02 1.13020E+02
 -1       489-8.68445E+02 8.50901E+02-3.37638E+02
 -1       490-9.02470E+02 2.06162E+03-8.10078E+02
 -1       491-9.26044E+02 3.31006E+03-1.29616E+03
 -1       492-9.40738E+02 4.58205E+03-1.78384E+03
 -1       493-9.48699E+02 5.86562E+03-2.25607E+03
 -1       494-9.52307E+02 7.15201E+03-2.69566E+03
 -1       495 1.30548E+02-1.47299E+02 5.81768E+01
 -1       496 2.49097E+02-4.18834E+02 1.71143E+02
 -1       497 3.42792E+02-8.26004E+02 3.36191E+02
 -1       498 4.11044E+02-1.33768E+03 5.39368E+02
 -1       499 4.54722E+02-1.92097E+03 7.69150E+02
 -1       500 4.74781E+02-2.54443E+03 1.01431E+03
 -1       501 4.72437E+02-3.17801E+03 1.26355E+03
 -1       502 4.49181E+02-3.79343E+03 1.50588E+03
 -1       503 4.06777E+02-4.36454E+03 1.73090E+03
 -1       504 3.47255E+02-4.86766E+03 1.92919E+03
 -1       505 2.72880E+02-5.28189E+03 2.09241E+03
 -1       506 1.86119E+02-5.58947E+03 2.21349E+03
 -1       507 8.95954E+01-5.77594E+03 2.28669E+03
 -1       508-1.39632E+01-5.83036E+03 2.30767E+03
 -1       509-1.21785E+02-5.74544E+03 2.27351E+03
 -1       510-2.31115E+02-5.51747E+03 2.18276E+03
 -1       511-3.39288E+02-5.14636E+03 2.03535E+03
 -1       512-4.43790E+02-4.63541E+03 1.83260E+03
 -1       513-5.42329E+02-3.99110E+03 1.57706E+03
 -1       514-6.32902E+02-3.22273E+03 1.27242E+03
 -1       515-7.13854E+02-2.34206E+03 9.23227E+02
 -1       516-7.83942E+02-1.36277E+03 5.34676E+02
 -1       517-8.42380E+02-2.99893E+02 1.12289E+02
 -1       518-8.88888E+02 8.30763E+02-3.38203E+02
 -1       519-9.23717E+02 2.01338E+03-8.10486E+02
 -1       520-9.47663E+02 3.23292E+03-1.29642E+03
 -1       521-9.62083E+02 4.47596E+03-1.78399E+03
 -1       522-9.68936E+02 5.73159E+03-2.25613E+03
 -1       523-9.70899E+02 6.99225E+03-2.69567E+03
 -1       524-6.04241E+02 7.83316E+03-1.85369E+03
 -1       525 3.68034E+00 1.77622E+02-2.76882E+00
 -1       526 6.72645E+00 5.44978E+02-8.43563E+00
 -1       527 9.08242E+00 1.10036E+03-1.69781E+01
 -1       528 1.07944E+01 1.79752E+03-2.76854E+01
 -1       529 1.18805E+01 2.59220E+03-3.98832E+01
 -1       530 1.23621E+01 3.44140E+03-5.29148E+01
 -1       531 1.22728E+01 4.30405E+03-6.61535E+01
 -1       532 1.16528E+01 5.14170E+03-7.90101E+01
 -1       533 1.05477E+01 5.91889E+03-9.09397E+01
 -1       534 9.00888E+00 6.60352E+03-1.01449E+02
 -1       535 7.09370E+00 7.16730E+03-1.10103E+02
 -1       536 4.86478E+00 7.58614E+03-1.16531E+02
 -1       537 2.38894E+00 7.84044E+03-1.20432E+02
 -1       538-2.64268E-01 7.91541E+03-1.21579E+02
 -1       539-3.02403E+00 7.80114E+03-1.19820E+02
 -1       540-5.81991E+00 7.49265E+03-1.15078E+02
 -1       541-8.58374E+00 6.98981E+03-1.07350E+02
 -1       542-1.12512E+01 6.29716E+03-9.67069E+01
 -1       543-1.37634E+01 5.42348E+03-8.32833E+01
 -1       544-1.60686E+01 4.38148E+03-6.72741E+01
 -1       545-1.81234E+01 3.18715E+03-4.89244E+01
 -1       546-1.98941E+01 1.85921E+03-2.85204E+01
 -1       547-2.13586E+01 4.18319E+02-6.37670E+00
 -1       548-2.25093E+01-1.11378E+03 1.71762E+01
 -1       549-2.33609E+01-2.71556E+03 4.18077E+01
 -1       550-2.39610E+01-4.36758E+03 6.72054E+01
 -1       551-2.43893E+01-6.05494E+03 9.30952E+01
 -1       552-2.47134E+01-7.76836E+03 1.19262E+02
 -1       553-2.49347E+01-9.50111E+03 1.45555E+02
 -1       554-1.88191E-06-7.31307E-07-2.72308E+00
 -1       555 1.17584E-05-2.20348E-06-8.35728E+00
 -1       556 1.01657E-05 1.78900E-07-1.68888E+01
 -1       557-6.31607E-06 4.71281E-06-2.76068E+01
 -1       558-5.27104E-06 6.12293E-07-3.98280E+01
 -1       559-6.37500E-06 1.45611E-06-5.28894E+01
 -1       560-3.17873E-06-3.23397E-06-6.61575E+01
 -1       561 9.07967E-06 2.52410E-07-7.90403E+01
 -1       562-1.98386E-06 3.59362E-06-9.09928E+01
 -1       563-1.48846E-05 1.16534E-05-1.01522E+02
 -1       564-1.99569E-05 5.74318E-06-1.10192E+02
 -1       565-1.60078E-05-6.79881E-06-1.16634E+02
 -1       566-2.38357E-06 9.69601E-06-1.20546E+02
 -1       567-1.83197E-07-2.09505E-06-1.21700E+02
 -1       568-9.89266E-06-1.15432E-05-1.19945E+02
 -1       569-2.46514E-06-9.31024E-06-1.15203E+02
 -1       570-4.19485E-07-1.52506E-05-1.07474E+02
 -1       571-1.55496E-06-1.44194E-06-9.68258E+01
 -1       572-1.61841E-06-2.21230E-06-8.33946E+01
 -1       573 5.54227E-06-8.81278E-06-6.73753E+01
 -1       574-7.40283E-09-4.98776E-06-4.90144E+01
 -1       575-1.46368E-06 8.36917E-06-2.86000E+01
 -1       576-8.81166E-06-8.94852E-06-6.45144E+00
 -1       577-7.68858E-06-1.57277E-06 1.70956E+01
 -1       578-9.64128E-06 1.81407E-06 4.17101E+01
 -1       579-1.13533E-05-5.81627E-06 6.71000E+01
 -1       580 4.97922E-06-6.42525E-06 9.30585E+01
 -1       581 1.38915E-05-1.44175E-05 1.19478E+02
 -1       582 1.21846E-06-2.38368E-05 1.46278E+02
 -1       583-3.68034E+00-1.77622E+02-2.76882E+00
 -1       584-6.72644E+00-5.44978E+02-8.43564E+00
 -1       585-9.08241E+00-1.10036E+03-1.69781E+01
 -1       586-1.07944E+01-1.79752E+03-2.76854E+01
 -1       587-1.18805E+01-2.59220E+03-3.98832E+01
 -1       588-1.23622E+01-3.44140E+03-5.29148E+01
 -1       589-1.22728E+01-4.30405E+03-6.61535E+01
 -1       590-1.16528E+01-5.14170E+03-7.90101E+01
 -1       591-1.05477E+01-5.91889E+03-9.09397E+01
 -1       592-9.00889E+00-6.60352E+03-1.01449E+02
 -1       593-7.09372E+00-7.16730E+03-1.10103E+02
 -1       594-4.86480E+00-7.58614E+03-1.16531E+02
 -1       595-2.38893E+00-7.84044E+03-1.20432E+02
 -1       596 2.64279E-01-7.91541E+03-1.21579E+02
 -1       597 3.02403E+00-7.80114E+03-1.19820E+02
 -1       598 5.81992E+00-7.49265E+03-1.15078E+02
 -1       599 8.58374E+00-6.98981E+03-1.07350E+02
 -1       600 1.12512E+01-6.29716E+03-9.67069E+01
 -1       601 1.37634E+01-5.42348E+03-8.32833E+01
 -1       602 1.60686E+01-4.38148E+03-6.72741E+01
 -1       603 1.81234E+01-3.18715E+03-4.89244E+01
 -1       604 1.98941E+01-1.85921E+03-2.85204E+01
 -1       605 2.13585E+01-4.18319E+02-6.37671E+00
 -1       606 2.25093E+01 1.11378E+03 1.71762E+01
 -1       607 2.33609E+01 2.71556E+03 4.18077E+01
 -1       608 2.39610E+01 4.36758E+03 6.72054E+01
 -1       609 2.43893E+01 6.05494E+03 9.30952E+01
 -1       610 2.47134E+01 7.76836E+03 1.19262E+02
 -1       611 2.49347E+01 9.50111E+03 1.45555E+02
 -1       612 3.68034E+00-1.77622E+02 2.76883E+00
 -1       613 6.72643E+00-5.44978E+02 8.43563E+00
 -1       614 9.08242E+00-1.10036E+03 1.69781E+01
 -1       615 1.07944E+01-1.79752E+03 2.76854E+01
 -1       616 1.18805E+01-2.59220E+03 3.98833E+01
 -1       617 1.23622E+01-3.44140E+03 5.29148E+01
 -1       618 1.22728E+01-4.30405E+03 6.61535E+01
 -1       619 1.16528E+01-5.14170E+03 7.90101E+01
 -1       620 1.05477E+01-5.91889E+03 9.09397E+01
 -1       621 9.00889E+00-6.60352E+03 1.01449E+02
 -1       622 7.09369E+00-7.16730E+03 1.10103E+02
 -1       623 4.86478E+00-7.58614E+03 1.16531E+02
 -1       624 2.38894E+00-7.84044E+03 1.20432E+02
 -1       625-2.64258E-01-7.91541E+03 1.21579E+02
 -1       626-3.02401E+00-7.80114E+03 1.19820E+02
 -1       627-5.81992E+00-7.49265E+03 1.15078E+02
 -1       628-8.58375E+00-6.98981E+03 1.07350E+02
 -1       629-1.12512E+01-6.29716E+03 9.67069E+01
 -1       630-1.37634E+01-5.42348E+03 8.32833E+01
 -1       631-1.60686E+01-4.38148E+03 6.72741E+01
 -1       632-1.81234E+01-3.18715E+03 4.89244E+01
 -1       633-1.98941E+01-1.85921E+03 2.85204E+01
 -1       634-2.13586E+01-4.18319E+02 6.37671E+00
 -1       635-2.25093E+01 1.11378E+03-1.71762E+01
 -1       636-2.33609E+01 2.71556E+03-4.18077E+01
 -1       637-2.39610E+01 4.36758E+03-6.72054E+01
 -1       638-2.43893E+01 6.05494E+03-9.30953E+01
 -1       639-2.47134E+01 7.76836E+03-1.19262E+02
 -1       640-2.49347E+01 9.50111E+03-1.45555E+02
 -1       641-9.48092E-06 8.15883E-07 2.72309E+00
 -1       642 4.80912E-06-5.37199E-06 8.35727E+00
 -1       643 8.11290E-06-1.92887E-06 1.68888E+01
 -1       644-1.12710E-05 4.17062E-06 2.76068E+01
 -1       645-1.51880E-05 3.68013E-06 3.98280E+01
 -1       646-6.74410E-06 5.44740E-06 5.28894E+01
 -1       647-3.87970E-07-8.55855E-06 6.61575E+01
 -1       648 7.37423E-06-1.40259E-05 7.90404E+01
 -1       649-3.73130E-06 1.16323E-05 9.09928E+01
 -1       650-1.05715E-05 7.30084E-06 1.01522E+02
 -1       651-1.38941E-05 4.80745E-06 1.10192E+02
 -1       652-1.07680E-05 2.05975E-05 1.16634E+02
 -1       653-1.43064E-06 6.41803E-06 1.20546E+02
 -1       654-6.79601E-06-9.04770E-06 1.21700E+02
 -1       655-1.19360E-05-1.57491E-05 1.19945E+02
 -1       656-8.02765E-06 9.86432E-06 1.15203E+02
 -1       657-6.18446E-06 9.12443E-06 1.07474E+02
 -1       658-8.93776E-06 1.43147E-05 9.68258E+01
 -1       659-3.88286E-06 1.76057E-06 8.33946E+01
 -1       660 9.34456E-06 4.49233E-06 6.73754E+01
 -1       661-4.22586E-06-3.17806E-06 4.90144E+01
 -1       662-7.76707E-06-6.33314E-06 2.86000E+01
 -1       663-6.21112E-06 1.57176E-05 6.45145E+00
 -1       664-1.04342E-05 7.50730E-07-1.70957E+01
 -1       665-1.23094E-05-1.83880E-05-4.17101E+01
 -1       666-8.60004E-06-9.28599E-06-6.71000E+01
 -1       667 5.86541E-06-1.06949E-05-9.30585E+01
 -1       668 1.51618E-05 1.84089E-05-1.19478E+02
 -1       669 6.62655E-06 1.82870E-05-1.46278E+02
 -1       670-3.68034E+00 1.77622E+02 2.76883E+00
 -1       671-6.72644E+00 5.44978E+02 8.43563E+00
 -1       672-9.08241E+00 1.10036E+03 1.69781E+01
 -1       673-1.07944E+01 1.79752E+03 2.76854E+01
 -1       674-1.18805E+01 2.59220E+03 3.98832E+01
 -1       675-1.23622E+01 3.44140E+03 5.29148E+01
 -1       676-1.22728E+01 4.30405E+03 6.61535E+01
 -1       677-1.16528E+01 5.14170E+03 7.90101E+01
 -1       678-1.05477E+01 5.91889E+03 9.09397E+01
 -1       679-9.00890E+00 6.60352E+03 1.01449E+02
 -1       680-7.09371E+00 7.16730E+03 1.10103E+02
 -1       681-4.86479E+00 7.58614E+03 1.16531E+02
 -1       682-2.38893E+00 7.84044E+03 1.20432E+02
 -1       683 2.64266E-01 7.91541E+03 1.21579E+02
 -1       684 3.02400E+00 7.80114E+03 1.19820E+02
 -1       685 5.81992E+00 7.49265E+03 1.15078E+02
 -1       686 8.58375E+00 6.98981E+03 1.07350E+02
 -1       687 1.12512E+01 6.29716E+03 9.67069E+01
 -1       688 1.37634E+01 5.42348E+03 8.32833E+01
 -1       689 1.60686E+01 4.38148E+03 6.72741E+01
 -1       690 1.81234E+01 3.18715E+03 4.89244E+01
 -1       691 1.98941E+01 1.85921E+03 2.85204E+01
 -1       692 2.13585E+01 4.18319E+02 6.37672E+00
 -1       693 2.25093E+01-1.11378E+03-1.71762E+01
 -1       694 2.33609E+01-2.71556E+03-4.18077E+01
 -1       695 2.39610E+01-4.36758E+03-6.72054E+01
 -1       696 2.43893E+01-6.05494E+03-9.30953E+01
 -1       697 2.47134E+01-7.76836E+03-1.19262E+02
 -1       698 2.49347E+01-9.50111E+03-1.45555E+02
 -1       699 1.54028E+02 2.85908E+02-7.01098E+01
 -1       700 2.98997E+02 8.43983E+02-2.10923E+02
 -1       701 4.13309E+02 1.68167E+03-4.16734E+02
 -1       702 4.96439E+02 2.73235E+03-6.70191E+02
 -1       703 5.49734E+02 3.92934E+03-9.56884E+02
 -1       704 5.74287E+02 5.20834E+03-1.26272E+03
 -1       705 5.71622E+02 6.50791E+03-1.57363E+03
 -1       706 5.43569E+02 7.77013E+03-1.87587E+03
 -1       707 4.92279E+02 8.94143E+03-2.15652E+03
 -1       708 4.20214E+02 9.97328E+03-2.40381E+03
 -1       709 3.30123E+02 1.08229E+04-2.60739E+03
 -1       710 2.24997E+02 1.14539E+04-2.75843E+03
 -1       711 1.08019E+02 1.18366E+04-2.84978E+03
 -1       712-1.75046E+01 1.19487E+04-2.87604E+03
 -1       713-1.48212E+02 1.17751E+04-2.83358E+03
 -1       714-2.80764E+02 1.13084E+04-2.72058E+03
 -1       715-4.11929E+02 1.05483E+04-2.53698E+03
 -1       716-5.38661E+02 9.50172E+03-2.28440E+03
 -1       717-6.58182E+02 8.18181E+03-1.96604E+03
 -1       718-7.68063E+02 6.60774E+03-1.58648E+03
 -1       719-8.66295E+02 4.80356E+03-1.15143E+03
 -1       720-9.51362E+02 2.79732E+03-6.67347E+02
 -1       721-1.02231E+03 6.19835E+02-1.41155E+02
 -1       722-1.07880E+03-1.69657E+03 4.19971E+02
 -1       723-1.12121E+03-4.11943E+03 1.00816E+03
 -1       724-1.15071E+03-6.61759E+03 1.61338E+03
 -1       725-1.16925E+03-9.16265E+03 2.22100E+03
 -1       726-1.17950E+03-1.17306E+04 2.81032E+03
 -1       727-1.18426E+03-1.43041E+04 3.36136E+03
 -1       728 1.58550E+02 2.79041E+02-7.22372E+01
 -1       729 3.06934E+02 8.23663E+02-2.12711E+02
 -1       730 4.23737E+02 1.64170E+03-4.18073E+02
 -1       731 5.08676E+02 2.66822E+03-6.71120E+02
 -1       732 5.63148E+02 3.83789E+03-9.57411E+02
 -1       733 5.88244E+02 5.08775E+03-1.26287E+03
 -1       734 5.85494E+02 6.35769E+03-1.57342E+03
 -1       735 5.56755E+02 7.59111E+03-1.87532E+03
 -1       736 5.04220E+02 8.73566E+03-2.15567E+03
 -1       737 4.30413E+02 9.74394E+03-2.40270E+03
 -1       738 3.38148E+02 1.05742E+04-2.60605E+03
 -1       739 2.30488E+02 1.11907E+04-2.75690E+03
 -1       740 1.10694E+02 1.15647E+04-2.84811E+03
 -1       741-1.78492E+01 1.16743E+04-2.87428E+03
 -1       742-1.51698E+02 1.15048E+04-2.83178E+03
 -1       743-2.87434E+02 1.10489E+04-2.71877E+03
 -1       744-4.21747E+02 1.03064E+04-2.53521E+03
 -1       745-5.51518E+02 9.28387E+03-2.28271E+03
 -1       746-6.73901E+02 7.99434E+03-1.96447E+03
 -1       747-7.86410E+02 6.45647E+03-1.58506E+03
 -1       748-8.86995E+02 4.69381E+03-1.15017E+03
 -1       749-9.74112E+02 2.73377E+03-6.66280E+02
 -1       750-1.04679E+03 6.06497E+02-1.40285E+02
 -1       751-1.10468E+03-1.65634E+03 4.20644E+02
 -1       752-1.14812E+03-4.02305E+03 1.00865E+03
 -1       753-1.17809E+03-6.46343E+03 1.61370E+03
 -1       754-1.19631E+03-8.95056E+03 2.22118E+03
 -1       755-1.20520E+03-1.14625E+04 2.81041E+03
 -1       756-1.20805E+03-1.39840E+04 3.36139E+03
 -1       757-1.58550E+02-2.79041E+02-7.22372E+01
 -1       758-3.06934E+02-8.23663E+02-2.12711E+02
 -1       759-4.23737E+02-1.64170E+03-4.18073E+02
 -1       760-5.08676E+02-2.66822E+03-6.71120E+02
 -1       761-5.63148E+02-3.83789E+03-9.57411E+02
 -1       762-5.88244E+02-5.08775E+03-1.26287E+03
 -1       763-5.85494E+02-6.35769E+03-1.57342E+03
 -1       764-5.56754E+02-7.59111E+03-1.87532E+03
 -1       765-5.04220E+02-8.73566E+03-2.15567E+03
 -1       766-4.30413E+02-9.74394E+03-2.40270E+03
 -1       767-3.38148E+02-1.05742E+04-2.60605E+03
 -1       768-2.30488E+02-1.11907E+04-2.75690E+03
 -1       769-1.10694E+02-1.15647E+04-2.84811E+03
 -1       770 1.78492E+01-1.16743E+04-2.87428E+03
 -1       771 1.51698E+02-1.15048E+04-2.83178E+03
 -1       772 2.87434E+02-1.10489E+04-2.71877E+03
 -1       773 4.21747E+02-1.03064E+04-2.53521E+03
 -1       774 5.51518E+02-9.28387E+03-2.28271E+03
 -1       775 6.73901E+02-7.99434E+03-1.96447E+03
 -1       776 7.86410E+02-6.45647E+03-1.58506E+03
 -1       777 8.86995E+02-4.69381E+03-1.15017E+03
 -1       778 9.74112E+02-2.73377E+03-6.66280E+02
 -1       779 1.04679E+03-6.06497E+02-1.40285E+02
 -1       780 1.10468E+03 1.65634E+03 4.20644E+02
 -1       781 1.14812E+03 4.02305E+03 1.00865E+03
 -1       782 1.17809E+03 6.46343E+03 1.61370E+03
 -1       783 1.19631E+03 8.95056E+03 2.22118E+03
 -1       784 1.20520E+03 1.14625E+04 2.81041E+03
 -1       785 1.20805E+03 1.39840E+04 3.36139E+03
 -1       786-1.54028E+02-2.85908E+02-7.01098E+01
 -1       787-2.98997E+02-8.43983E+02-2.10923E+02
 -1       788-4.13309E+02-1.68167E+03-4.16734E+02
 -1       789-4.96439E+02-2.73235E+03-6.70191E+02
 -1       790-5.49734E+02-3.92934E+03-9.56884E+02
 -1       791-5.74287E+02-5.20834E+03-1.26272E+03
 -1       792-5.71622E+02-6.50791E+03-1.57363E+03
 -1       793-5.43569E+02-7.77013E+03-1.87587E+03
 -1       794-4.92279E+02-8.94143E+03-2.15652E+03
 -1       795-4.20214E+02-9.97328E+03-2.40381E+03
 -1       796-3.30123E+02-1.08229E+04-2.60739E+03
 -1       797-2.24997E+02-1.14539E+04-2.75843E+03
 -1       798-1.08019E+02-1.18366E+04-2.84978E+03
 -1       799 1.75046E+01-1.19487E+04-2.87604E+03
 -1       800 1.48212E+02-1.17751E+04-2.83358E+03
 -1       801 2.80764E+02-1.13084E+04-2.72058E+03
 -1       802 4.11929E+02-1.05483E+04-2.53698E+03
 -1       803 5.38661E+02-9.50172E+03-2.28440E+03
 -1       804 6.58182E+02-8.18181E+03-1.96604E+03
 -1       805 7.68063E+02-6.60774E+03-1.58648E+03
 -1       806 8.66295E+02-4.80356E+03-1.15143E+03
 -1       807 9.51362E+02-2.79732E+03-6.67347E+02
 -1       808 1.02231E+03-6.19836E+02-1.41155E+02
 -1       809 1.07880E+03 1.69657E+03 4.19971E+02
 -1       810 1.12121E+03 4.11943E+03 1.00816E+03
 -1       811 1.15071E+03 6.61759E+03 1.61338E+03
 -1       812 1.16925E+03 9.16265E+03 2.22100E+03
 -1       813 1.17950E+03 1.17306E+04 2.81032E+03
 -1       814 1.18426E+03 1.43041E+04 3.36136E+03
 -1       815-1.54028E+02 2.85908E+02 7.01098E+01
 -1       816-2.98997E+02 8.43983E+02 2.10923E+02
 -1       817-4.13309E+02 1.68167E+03 4.16734E+02
 -1       818-4.96439E+02 2.73235E+03 6.70191E+02
 -1       819-5.49734E+02 3.92934E+03 9.56884E+02
 -1       820-5.74287E+02 5.20834E+03 1.26272E+03
 -1       821-5.71622E+02 6.50791E+03 1.57363E+03
 -1       822-5.43569E+02 7.77013E+03 1.87587E+03
 -1       823-4.92279E+02 8.94143E+03 2.15652E+03
 -1       824-4.20214E+02 9.97328E+03 2.40381E+03
 -1       825-3.30123E+02 1.08229E+04 2.60739E+03
 -1       826-2.24997E+02 1.14539E+04 2.75843E+03
 -1       827-1.08019E+02 1.18366E+04 2.84978E+03
 -1       828 1.75046E+01 1.19487E+04 2.87604E+03
 -1       829 1.48212E+02 1.17751E+04 2.83358E+03
 -1       830 2.80764E+02 1.13084E+04 2.72058E+03
 -1       831 4.11929E+02 1.05483E+04 2.53698E+03
 -1       832 5.38661E+02 9.50172E+03 2.28440E+03
 -1       833 6.58182E+02 8.18181E+03 1.96604E+03
 -1       834 7.68063E+02 6.60774E+03 1.58648E+03
 -1       835 8.66295E+02 4.80356E+03 1.15143E+03
 -1       836 9.51362E+02 2.79732E+03 6.67347E+02
 -1       837 1.02231E+03 6.19836E+02 1.41155E+02
 -1       838 1.07880E+03-1.69657E+03-4.19971E+02
 -1       839 1.12121E+03-4.11943E+03-1.00816E+03
 -1       840 1.15071E+03-6.61759E+03-1.61338E+03
 -1       841 1.16925E+03-9.16265E+03-2.22100E+03
 -1       842 1.17950E+03-1.17306E+04-2.81032E+03
 -1       843 1.18426E+03-1.43041E+04-3.36136E+03
 -1       844-1.58550E+02 2.79041E+02 7.22372E+01
 -1       845-3.06934E+02 8.23663E+02 2.12711E+02
 -1       846-4.23737E+02 1.64170E+03 4.18073E+02
 -1       847-5.08676E+02 2.66822E+03 6.71120E+02
 -1       848-5.63148E+02 3.83789E+03 9.57411E+02
 -1       849-5.88244E+02 5.08775E+03 1.26287E+03
 -1       850-5.85494E+02 6.35769E+03 1.57342E+03
 -1       851-5.56754E+02 7.59111E+03 1.87532E+03
 -1       852-5.04220E+02 8.73566E+03 2.15567E+03
 -1       853-4.30413E+02 9.74394E+03 2.40270E+03
 -1       854-3.38148E+02 1.05742E+04 2.60605E+03
 -1       855-2.30488E+02 1.11907E+04 2.75690E+03
 -1       856-1.10694E+02 1.15647E+04 2.84811E+03
 -1       857 1.78492E+01 1.16743E+04 2.87428E+03
 -1       858 1.51698E+02 1.15048E+04 2.83178E+03
 -1       859 2.87434E+02 1.10489E+04 2.71877E+03
 -1       860 4.21747E+02 1.03064E+04 2.53521E+03
 -1       861 5.51518E+02 9.28387E+03 2.28271E+03
 -1       862 6.73901E+02 7.99434E+03 1.96447E+03
 -1       863 7.86410E+02 6.45647E+03 1.58506E+03
 -1       864 8.86995E+02 4.69381E+03 1.15017E+03
 -1       865 9.74112E+02 2.73377E+03 6.66280E+02
 -1       866 1.04679E+03 6.06497E+02 1.40285E+02
 -1       867 1.10468E+03-1.65634E+03-4.20644E+02
 -1       868 1.14812E+03-4.02305E+03-1.00865E+03
 -1       869 1.17809E+03-6.46343E+03-1.61370E+03
 -1       870 1.19631E+03-8.95056E+03-2.22118E+03
 -1       871 1.20520E+03-1.14625E+04-2.81041E+03
 -1       872 1.20805E+03-1.39840E+04-3.36139E+03
 -1       873-1.18426E+03 1.43041E+04-3.36136E+03
 -1       874-1.17950E+03 1.17306E+04-2.81032E+03
 -1       875-1.16925E+03 9.16265E+03-2.22100E+03
 -1       876-1.15071E+03 6.61759E+03-1.61338E+03
 -1       877-1.12121E+03 4.11943E+03-1.00816E+03
 -1       878-1.07880E+03 1.69657E+03-4.19971E+02
 -1       879-1.02231E+03-6.19835E+02 1.41155E+02
 -1       880-9.51362E+02-2.79732E+03 6.67347E+02
 -1       881-8.66295E+02-4.80356E+03 1.15143E+03
 -1       882-7.68063E+02-6.60774E+03 1.58648E+03
 -1       883-6.58182E+02-8.18181E+03 1.96604E+03
 -1       884-5.38661E+02-9.50172E+03 2.28440E+03
 -1       885-4.11929E+02-1.05483E+04 2.53698E+03
 -1       886-2.80764E+02-1.13084E+04 2.72058E+03
 -1       887-1.48212E+02-1.17751E+04 2.83358E+03
 -1       888-1.75046E+01-1.19487E+04 2.87604E+03
 -1       889 1.08019E+02-1.18366E+04 2.84978E+03
 -1       890 2.24997E+02-1.14539E+04 2.75843E+03
 -1       891 3.30123E+02-1.08229E+04 2.60739E+03
 -1       892 4.20214E+02-9.97328E+03 2.40381E+03
 -1       893 4.92279E+02-8.94143E+03 2.15652E+03
 -1       894 5.43569E+02-7.77013E+03 1.87587E+03
 -1       895 5.71622E+02-6.50791E+03 1.57363E+03
 -1       896 5.74287E+02-5.20834E+03 1.26272E+03
 -1       897 5.49734E+02-3.92934E+03 9.56884E+02
 -1       898 4.96439E+02-2.73235E+03 6.70191E+02
 -1       899 4.13309E+02-1.68167E+03 4.16734E+02
 -1       900 2.98997E+02-8.43983E+02 2.10923E+02
 -1       901 1.54028E+02-2.85908E+02 7.01098E+01
 -1       902 1.58550E+02-2.79041E+02 7.22372E+01
 -1       903 3.06934E+02-8.23663E+02 2.12711E+02
 -1       904 4.23737E+02-1.64170E+03 4.18073E+02
 -1       905 5.08676E+02-2.66822E+03 6.71120E+02
 -1       906 5.63148E+02-3.83789E+03 9.57411E+02
 -1       907 5.88244E+02-5.08775E+03 1.26287E+03
 -1       908 5.85494E+02-6.35769E+03 1.57342E+03
 -1       909 5.56754E+02-7.59111E+03 1.87532E+03
 -1       910 5.04220E+02-8.73566E+03 2.15567E+03
 -1       911 4.30413E+02-9.74394E+03 2.40270E+03
 -1       912 3.38148E+02-1.05742E+04 2.60605E+03
 -1       913 2.30488E+02-1.11907E+04 2.75690E+03
 -1       914 1.10694E+02-1.15647E+04 2.84811E+03
 -1       915-1.78492E+01-1.16743E+04 2.87428E+03
 -1       916-1.51698E+02-1.15048E+04 2.83178E+03
 -1       917-2.87434E+02-1.10489E+04 2.71877E+03
 -1       918-4.21747E+02-1.03064E+04 2.53521E+03
 -1       919-5.51518E+02-9.28387E+03 2.28271E+03
 -1       920-6.73901E+02-7.99434E+03 1.96447E+03
 -1       921-7.86410E+02-6.45647E+03 1.58506E+03
 -1       922-8.86995E+02-4.69381E+03 1.15017E+03
 -1       923-9.74112E+02-2.73377E+03 6.66280E+02
 -1       924-1.04679E+03-6.06497E+02 1.40285E+02
 -1       925-1.10468E+03 1.65634E+03-4.20644E+02
 -1       926-1.14812E+03 4.02305E+03-1.00865E+03
 -1       927-1.17809E+03 6.46343E+03-1.61370E+03
 -1       928-1.19631E+03 8.95056E+03-2.22118E+03
 -1       929-1.20520E+03 1.14625E+04-2.81041E+03
 -1       930-1.20805E+03 1.39840E+04-3.36139E+03
 -3
    1PSTEP                        20           1           1          
    1PGM                1.000000E+00                                  
    1PGK                4.427982E+05                                  
    1PHID                         -1                                  
    1PSUBC                         0                                  
    1PMODE                         5                                  
  100CL  105 105.9066076         930                     2    5MODAL      1
 -4  ERROR       1    1
 -5  STR(%)      1    1    0    0
 -1         1 6.59942E+01
 -1         2 6.59942E+01
 -1         3 4.60347E+01
 -1         4 4.60347E+01
 -1         5 6.59942E+01
 -1         6 6.59942E+01
 -1         7 4.60347E+01
 -1         8 4.60347E+01
 -1         9 6.59942E+01
 -1        10 4.60347E+01
 -1        11 3.72455E+01
 -1        12 3.72455E+01
 -1        13 1.46244E+01
 -1        14 1.46244E+01
 -1        15 6.59942E+01
 -1        16 4.60347E+01
 -1        17 3.72455E+01
 -1        18 3.72455E+01
 -1        19 1.46244E+01
 -1        20 1.46244E+01
 -1        21 3.72455E+01
 -1        22 3.72455E+01
 -1        23 1.46244E+01
 -1        24 1.46244E+01
 -1        25 6.59942E+01
 -1        26 4.60347E+01
 -1        27 6.59942E+01
 -1        28 3.72455E+01
 -1        29 3.72455E+01
 -1        30 4.60347E+01
 -1        31 1.46244E+01
 -1        32 1.46244E+01
 -1        33 7.88618E+01
 -1        34 7.88618E+01
 -1        35 7.22433E+01
 -1        36 7.42502E+01
 -1        37 7.42502E+01
 -1        38 7.27244E+01
 -1        39 7.27244E+01
 -1        40 7.78475E+01
 -1        41 7.78475E+01
 -1        42 7.08678E+01
 -1        43 7.98724E+01
 -1        44 7.98724E+01
 -1        45 6.70115E+01
 -1        46 4.91393E+01
 -1        47 5.33411E+01
 -1        48 6.94134E+01
 -1        49 7.81283E+01
 -1        50 7.81283E+01
 -1        51 7.32200E+01
 -1        52 6.50342E+01
 -1        53 6.80616E+01
 -1        54 7.02416E+01
 -1        55 7.13686E+01
 -1        56 7.14606E+01
 -1        57 7.14606E+01
 -1        58 7.11687E+01
 -1        59 7.11687E+01
 -1        60 6.71428E+01
 -1        61 6.71428E+01
 -1        62 7.88618E+01
 -1        63 7.88618E+01
 -1        64 7.22433E+01
 -1        65 7.42502E+01
 -1        66 7.42502E+01
 -1        67 7.27244E+01
 -1        68 7.27244E+01
 -1        69 7.78475E+01
 -1        70 7.78475E+01
 -1        71 7.08678E+01
 -1        72 7.98724E+01
 -1        73 7.98724E+01
 -1        74 6.70115E+01
 -1        75 4.91393E+01
 -1        76 5.33411E+01
 -1        77 6.94134E+01
 -1        78 7.81283E+01
 -1        79 7.81283E+01
 -1        80 7.32200E+01
 -1        81 6.50342E+01
 -1        82 6.80616E+01
 -1        83 7.02416E+01
 -1        84 7.13686E+01
 -1        85 7.14606E+01
 -1        86 7.14606E+01
 -1        87 7.11687E+01
 -1        88 7.11687E+01
 -1        89 6.71428E+01
 -1        90 6.71428E+01
 -1        91 6.11753E+01
 -1        92 6.11753E+01
 -1        93 6.11753E+01
 -1        94 6.11753E+01
 -1        95 6.11753E+01
 -1        96 6.11753E+01
 -1        97 7.88618E+01
 -1        98 7.88618E+01
 -1        99 7.22433E+01
 -1       100 7.42502E+01
 -1       101 7.42502E+01
 -1       102 7.27244E+01
 -1       103 7.27244E+01
 -1       104 7.78475E+01
 -1       105 7.78475E+01
 -1       106 7.08678E+01
 -1       107 7.98724E+01
 -1       108 7.98724E+01
 -1       109 6.70115E+01
 -1       110 4.91393E+01
 -1       111 5.33411E+01
 -1       112 6.94134E+01
 -1       113 7.81283E+01
 -1       114 7.81283E+01
 -1       115 7.32200E+01
 -1       116 6.50342E+01
 -1       117 6.80616E+01
 -1       118 7.02416E+01
 -1       119 7.13686E+01
 -1       120 7.14606E+01
 -1       121 7.14606E+01
 -1       122 7.11687E+01
 -1       123 7.11687E+01
 -1       124 6.71428E+01
 -1       125 6.71428E+01
 -1       126 3.38886E+01
 -1       127 6.85336E+00
 -1       128 3.38886E+01
 -1       129 7.88618E+01
 -1       130 7.88618E+01
 -1       131 7.22433E+01
 -1       132 7.42502E+01
 -1       133 7.42502E+01
 -1       134 7.27244E+01
 -1       135 7.27244E+01
 -1       136 7.78475E+01
 -1       137 7.78475E+01
 -1       138 7.08678E+01
 -1       139 7.98724E+01
 -1       140 7.98724E+01
 -1       141 6.70115E+01
 -1       142 4.91393E+01
 -1       143 5.33411E+01
 -1       144 6.94134E+01
 -1       145 7.81283E+01
 -1       146 7.81283E+01
 -1       147 7.32200E+01
 -1       148 6.50342E+01
 -1       149 6.80616E+01
 -1       150 7.02416E+01
 -1       151 7.13686E+01
 -1       152 7.14606E+01
 -1       153 7.14606E+01
 -1       154 7.11687E+01
 -1       155 7.11687E+01
 -1       156 6.71428E+01
 -1       157 6.71428E+01
 -1       158 3.38886E+01
 -1       159 6.85336E+00
 -1       160 3.38886E+01
 -1       161 7.88618E+01
 -1       162 7.88618E+01
 -1       163 7.22433E+01
 -1       164 7.42502E+01
 -1       165 7.42502E+01
 -1       166 7.27244E+01
 -1       167 7.27244E+01
 -1       168 7.78475E+01
 -1       169 7.78475E+01
 -1       170 7.08678E+01
 -1       171 7.98724E+01
 -1       172 7.98724E+01
 -1       173 6.70115E+01
 -1       174 4.91393E+01
 -1       175 5.33411E+01
 -1       176 6.94134E+01
 -1       177 7.81283E+01
 -1       178 7.81283E+01
 -1       179 7.32200E+01
 -1       180 6.50342E+01
 -1       181 6.80616E+01
 -1       182 7.02416E+01
 -1       183 7.13686E+01
 -1       184 7.14606E+01
 -1       185 7.14606E+01
 -1       186 7.11687E+01
 -1       187 7.11687E+01
 -1       188 6.71428E+01
 -1       189 6.71428E+01
 -1       190 5.84169E+01
 -1       191 5.84169E+01
 -1       192 3.68552E+01
 -1       193 3.72455E+01
 -1       194 2.46249E+01
 -1       195 2.48022E+01
 -1       196 2.78116E+01
 -1       197 4.02451E+01
 -1       198 6.75433E+01
 -1       199 6.75433E+01
 -1       200 3.62699E+01
 -1       201 2.78217E+01
 -1       202 2.53674E+01
 -1       203 2.53674E+01
 -1       204 2.49120E+01
 -1       205 2.42869E+01
 -1       206 2.35772E+01
 -1       207 2.43025E+01
 -1       208 2.49682E+01
 -1       209 2.55609E+01
 -1       210 2.60748E+01
 -1       211 2.64784E+01
 -1       212 2.66987E+01
 -1       213 2.68330E+01
 -1       214 2.80303E+01
 -1       215 2.90294E+01
 -1       216 2.96288E+01
 -1       217 2.96288E+01
 -1       218 2.88416E+01
 -1       219 2.53210E+01
 -1       220 2.18886E+01
 -1       221 2.18886E+01
 -1       222 3.72455E+01
 -1       223 2.46249E+01
 -1       224 2.48022E+01
 -1       225 2.78116E+01
 -1       226 4.02451E+01
 -1       227 6.75433E+01
 -1       228 6.75433E+01
 -1       229 3.62699E+01
 -1       230 2.78217E+01
 -1       231 2.53674E+01
 -1       232 2.53674E+01
 -1       233 2.49120E+01
 -1       234 2.42869E+01
 -1       235 2.35772E+01
 -1       236 2.43025E+01
 -1       237 2.49682E+01
 -1       238 2.55609E+01
 -1       239 2.60748E+01
 -1       240 2.64784E+01
 -1       241 2.66987E+01
 -1       242 2.68330E+01
 -1       243 2.80303E+01
 -1       244 2.90294E+01
 -1       245 2.96288E+01
 -1       246 2.96288E+01
 -1       247 2.88416E+01
 -1       248 2.53210E+01
 -1       249 2.18886E+01
 -1       250 2.18886E+01
 -1       251 3.68552E+01
 -1       252 6.71428E+01
 -1       253 6.71428E+01
 -1       254 7.11687E+01
 -1       255 7.11687E+01
 -1       256 7.14606E+01
 -1       257 7.14606E+01
 -1       258 7.13686E+01
 -1       259 7.02416E+01
 -1       260 6.80616E+01
 -1       261 6.50342E+01
 -1       262 7.32200E+01
 -1       263 7.81283E+01
 -1       264 7.81283E+01
 -1       265 6.94134E+01
 -1       266 5.33411E+01
 -1       267 4.91393E+01
 -1       268 6.70115E+01
 -1       269 7.98724E+01
 -1       270 7.98724E+01
 -1       271 7.08678E+01
 -1       272 7.78475E+01
 -1       273 7.78475E+01
 -1       274 7.27244E+01
 -1       275 7.27244E+01
 -1       276 7.42502E+01
 -1       277 7.42502E+01
 -1       278 7.22433E+01
 -1       279 7.88618E+01
 -1       280 7.88618E+01
 -1       281 5.84169E+01
 -1       282 5.84169E+01
 -1       283 3.72455E+01
 -1       284 2.46249E+01
 -1       285 2.48022E+01
 -1       286 2.78116E+01
 -1       287 4.02451E+01
 -1       288 6.75433E+01
 -1       289 6.75433E+01
 -1       290 3.62699E+01
 -1       291 2.78217E+01
 -1       292 2.53674E+01
 -1       293 2.53674E+01
 -1       294 2.49120E+01
 -1       295 2.42869E+01
 -1       296 2.35772E+01
 -1       297 2.43025E+01
 -1       298 2.49682E+01
 -1       299 2.55609E+01
 -1       300 2.60748E+01
 -1       301 2.64784E+01
 -1       302 2.66987E+01
 -1       303 2.68330E+01
 -1       304 2.80303E+01
 -1       305 2.90294E+01
 -1       306 2.96288E+01
 -1       307 2.96288E+01
 -1       308 2.88416E+01
 -1       309 2.53210E+01
 -1       310 2.18886E+01
 -1       311 2.18886E+01
 -1       312 3.68552E+01
 -1       313 3.72455E+01
 -1       314 2.46249E+01
 -1       315 2.48022E+01
 -1       316 2.78116E+01
 -1       317 4.02451E+01
 -1       318 6.75433E+01
 -1       319 6.75433E+01
 -1       320 3.62699E+01
 -1       321 2.78217E+01
 -1       322 2.53674E+01
 -1       323 2.53674E+01
 -1       324 2.49120E+01
 -1       325 2.42869E+01
 -1       326 2.35772E+01
 -1       327 2.43025E+01
 -1       328 2.49682E+01
 -1       329 2.55609E+01
 -1       330 2.60748E+01
 -1       331 2.64784E+01
 -1       332 2.66987E+01
 -1       333 2.68330E+01
 -1       334 2.80303E+01
 -1       335 2.90294E+01
 -1       336 2.96288E+01
 -1       337 2.96288E+01
 -1       338 2.88416E+01
 -1       339 2.53210E+01
 -1       340 2.18886E+01
 -1       341 2.18886E+01
 -1       342 3.68552E+01
 -1       343 3.72455E+01
 -1       344 2.46249E+01
 -1       345 2.48022E+01
 -1       346 2.78116E+01
 -1       347 4.02451E+01
 -1       348 6.75433E+01
 -1       349 6.75433E+01
 -1       350 3.62699E+01
 -1       351 2.78217E+01
 -1       352 2.53674E+01
 -1       353 2.53674E+01
 -1       354 2.49120E+01
 -1       355 2.42869E+01
 -1       356 2.35772E+01
 -1       357 2.43025E+01
 -1       358 2.49682E+01
 -1       359 2.55609E+01
 -1       360 2.60748E+01
 -1       361 2.64784E+01
 -1       362 2.66987E+01
 -1       363 2.68330E+01
 -1       364 2.80303E+01
 -1       365 2.90294E+01
 -1       366 2.96288E+01
 -1       367 2.96288E+01
 -1       368 2.88416E+01
 -1       369 2.53210E+01
 -1       370 2.18886E+01
 -1       371 2.18886E+01
 -1       372 3.72455E+01
 -1       373 2.46249E+01
 -1       374 2.48022E+01
 -1       375 2.78116E+01
 -1       376 4.02451E+01
 -1       377 6.75433E+01
 -1       378 6.75433E+01
 -1       379 3.62699E+01
 -1       380 2.78217E+01
 -1       381 2.53674E+01
 -1       382 2.53674E+01
 -1       383 2.49120E+01
 -1       384 2.42869E+01
 -1       385 2.35772E+01
 -1       386 2.43025E+01
 -1       387 2.49682E+01
 -1       388 2.55609E+01
 -1       389 2.60748E+01
 -1       390 2.64784E+01
 -1       391 2.66987E+01
 -1       392 2.68330E+01
 -1       393 2.80303E+01
 -1       394 2.90294E+01
 -1       395 2.96288E+01
 -1       396 2.96288E+01
 -1       397 2.88416E+01
 -1       398 2.53210E+01
 -1       399 2.18886E+01
 -1       400 2.18886E+01
 -1       401 5.84169E+01
 -1       402 5.84169E+01
 -1       403 3.68552E+01
 -1       404 7.88618E+01
 -1       405 7.88618E+01
 -1       406 7.22433E+01
 -1       407 7.42502E+01
 -1       408 7.42502E+01
 -1       409 7.27244E+01
 -1       410 7.27244E+01
 -1       411 7.78475E+01
 -1       412 7.78475E+01
 -1       413 7.08678E+01
 -1       414 7.98724E+01
 -1       415 7.98724E+01
 -1       416 6.70115E+01
 -1       417 4.91393E+01
 -1       418 5.33411E+01
 -1       419 6.94134E+01
 -1       420 7.81283E+01
 -1       421 7.81283E+01
 -1       422 7.32200E+01
 -1       423 6.50342E+01
 -1       424 6.80616E+01
 -1       425 7.02416E+01
 -1       426 7.13686E+01
 -1       427 7.14606E+01
 -1       428 7.14606E+01
 -1       429 7.11687E+01
 -1       430 7.11687E+01
 -1       431 6.71428E+01
 -1       432 6.71428E+01
 -1       433 3.68552E+01
 -1       434 5.84169E+01
 -1       435 5.84169E+01
 -1       436 6.71428E+01
 -1       437 6.71428E+01
 -1       438 7.11687E+01
 -1       439 7.11687E+01
 -1       440 7.14606E+01
 -1       441 7.14606E+01
 -1       442 7.13686E+01
 -1       443 7.02416E+01
 -1       444 6.80616E+01
 -1       445 6.50342E+01
 -1       446 7.32200E+01
 -1       447 7.81283E+01
 -1       448 7.81283E+01
 -1       449 6.94134E+01
 -1       450 5.33411E+01
 -1       451 4.91393E+01
 -1       452 6.70115E+01
 -1       453 7.98724E+01
 -1       454 7.98724E+01
 -1       455 7.08678E+01
 -1       456 7.78475E+01
 -1       457 7.78475E+01
 -1       458 7.27244E+01
 -1       459 7.27244E+01
 -1       460 7.42502E+01
 -1       461 7.42502E+01
 -1       462 7.22433E+01
 -1       463 7.88618E+01
 -1       464 7.88618E+01
 -1       465 3.68552E+01
 -1       466 3.72455E+01
 -1       467 2.46249E+01
 -1       468 2.48022E+01
 -1       469 2.78116E+01
 -1       470 4.02451E+01
 -1       471 6.75433E+01
 -1       472 6.75433E+01
 -1       473 3.62699E+01
 -1       474 2.78217E+01
 -1       475 2.53674E+01
 -1       476 2.53674E+01
 -1       477 2.49120E+01
 -1       478 2.42869E+01
 -1       479 2.35772E+01
 -1       480 2.43025E+01
 -1       481 2.49682E+01
 -1       482 2.55609E+01
 -1       483 2.60748E+01
 -1       484 2.64784E+01
 -1       485 2.66987E+01
 -1       486 2.68330E+01
 -1       487 2.80303E+01
 -1       488 2.90294E+01
 -1       489 2.96288E+01
 -1       490 2.96288E+01
 -1       491 2.88416E+01
 -1       492 2.53210E+01
 -1       493 2.18886E+01
 -1       494 2.18886E+01
 -1       495 3.72455E+01
 -1       496 2.46249E+01
 -1       497 2.48022E+01
 -1       498 2.78116E+01
 -1       499 4.02451E+01
 -1       500 6.75433E+01
 -1       501 6.75433E+01
 -1       502 3.62699E+01
 -1       503 2.78217E+01
 -1       504 2.53674E+01
 -1       505 2.53674E+01
 -1       506 2.49120E+01
 -1       507 2.42869E+01
 -1       508 2.35772E+01
 -1       509 2.43025E+01
 -1       510 2.49682E+01
 -1       511 2.55609E+01
 -1       512 2.60748E+01
 -1       513 2.64784E+01
 -1       514 2.66987E+01
 -1       515 2.68330E+01
 -1       516 2.80303E+01
 -1       517 2.90294E+01
 -1       518 2.96288E+01
 -1       519 2.96288E+01
 -1       520 2.88416E+01
 -1       521 2.53210E+01
 -1       522 2.18886E+01
 -1       523 2.18886E+01
 -1       524 3.68552E+01
 -1       525 6.11753E+01
 -1       526 5.07091E+01
 -1       527 4.09616E+01
 -1       528 3.40665E+01
 -1       529 2.30977E+01
 -1       530 9.38699E+00
 -1       531 9.51552E+00
 -1       532 2.16013E+01
 -1       533 2.98966E+01
 -1       534 3.51055E+01
 -1       535 4.27678E+01
 -1       536 5.53286E+01
 -1       537 6.30432E+01
 -1       538 6.30432E+01
 -1       539 6.20692E+01
 -1       540 5.39691E+01
 -1       541 4.33072E+01
 -1       542 4.10437E+01
 -1       543 3.90902E+01
 -1       544 3.63660E+01
 -1       545 3.28974E+01
 -1       546 2.87940E+01
 -1       547 2.58727E+01
 -1       548 2.22748E+01
 -1       549 1.81203E+01
 -1       550 1.37741E+01
 -1       551 8.63058E+00
 -1       552 1.56815E+01
 -1       553 3.38886E+01
 -1       554 6.11753E+01
 -1       555 5.07091E+01
 -1       556 3.51754E+01
 -1       557 1.97183E+01
 -1       558 6.78592E+00
 -1       559 2.58547E+00
 -1       560 3.49789E+00
 -1       561 7.96857E+00
 -1       562 1.80793E+01
 -1       563 2.99257E+01
 -1       564 4.27678E+01
 -1       565 5.53286E+01
 -1       566 6.30432E+01
 -1       567 6.30432E+01
 -1       568 6.20692E+01
 -1       569 5.39691E+01
 -1       570 4.33072E+01
 -1       571 3.32545E+01
 -1       572 2.44855E+01
 -1       573 1.71764E+01
 -1       574 1.15831E+01
 -1       575 7.89653E+00
 -1       576 4.85951E+00
 -1       577 3.73360E+00
 -1       578 2.72785E+00
 -1       579 1.92190E+00
 -1       580 1.41143E+00
 -1       581 1.83455E+00
 -1       582 6.85336E+00
 -1       583 6.11753E+01
 -1       584 5.07091E+01
 -1       585 4.09616E+01
 -1       586 3.40665E+01
 -1       587 2.30977E+01
 -1       588 9.38699E+00
 -1       589 9.51552E+00
 -1       590 2.16013E+01
 -1       591 2.98966E+01
 -1       592 3.51055E+01
 -1       593 4.27678E+01
 -1       594 5.53286E+01
 -1       595 6.30432E+01
 -1       596 6.30432E+01
 -1       597 6.20692E+01
 -1       598 5.39691E+01
 -1       599 4.33072E+01
 -1       600 4.10437E+01
 -1       601 3.90902E+01
 -1       602 3.63660E+01
 -1       603 3.28974E+01
 -1       604 2.87940E+01
 -1       605 2.58727E+01
 -1       606 2.22748E+01
 -1       607 1.81203E+01
 -1       608 1.37741E+01
 -1       609 8.63058E+00
 -1       610 1.56815E+01
 -1       611 3.38886E+01
 -1       612 6.11753E+01
 -1       613 5.07091E+01
 -1       614 4.09616E+01
 -1       615 3.40665E+01
 -1       616 2.30977E+01
 -1       617 9.38699E+00
 -1       618 9.51552E+00
 -1       619 2.16013E+01
 -1       620 2.98966E+01
 -1       621 3.51055E+01
 -1       622 4.27678E+01
 -1       623 5.53286E+01
 -1       624 6.30432E+01
 -1       625 6.30432E+01
 -1       626 6.20692E+01
 -1       627 5.39691E+01
 -1       628 4.33072E+01
 -1       629 4.10437E+01
 -1       630 3.90902E+01
 -1       631 3.63660E+01
 -1       632 3.28974E+01
 -1       633 2.87940E+01
 -1       634 2.58727E+01
 -1       635 2.22748E+01
 -1       636 1.81203E+01
 -1       637 1.37741E+01
 -1       638 8.63058E+00
 -1       639 1.56815E+01
 -1       640 3.38886E+01
 -1       641 6.11753E+01
 -1       642 5.07091E+01
 -1       643 3.51754E+01
 -1       644 1.97183E+01
 -1       645 6.78592E+00
 -1       646 2.58547E+00
 -1       647 3.49789E+00
 -1       648 7.96857E+00
 -1       649 1.80793E+01
 -1       650 2.99257E+01
 -1       651 4.27678E+01
 -1       652 5.53286E+01
 -1       653 6.30432E+01
 -1       654 6.30432E+01
 -1       655 6.20692E+01
 -1       656 5.39691E+01
 -1       657 4.33072E+01
 -1       658 3.32545E+01
 -1       659 2.44855E+01
 -1       660 1.71764E+01
 -1       661 1.15831E+01
 -1       662 7.89653E+00
 -1       663 4.85951E+00
 -1       664 3.73360E+00
 -1       665 2.72785E+00
 -1       666 1.92190E+00
 -1       667 1.41143E+00
 -1       668 1.83455E+00
 -1       669 6.85336E+00
 -1       670 6.11753E+01
 -1       671 5.07091E+01
 -1       672 4.09616E+01
 -1       673 3.40665E+01
 -1       674 2.30977E+01
 -1       675 9.38699E+00
 -1       676 9.51552E+00
 -1       677 2.16013E+01
 -1       678 2.98966E+01
 -1       679 3.51055E+01
 -1       680 4.27678E+01
 -1       681 5.53286E+01
 -1       682 6.30432E+01
 -1       683 6.30432E+01
 -1       684 6.20692E+01
 -1       685 5.39691E+01
 -1       686 4.33072E+01
 -1       687 4.10437E+01
 -1       688 3.90902E+01
 -1       689 3.63660E+01
 -1       690 3.28974E+01
 -1       691 2.87940E+01
 -1       692 2.58727E+01
 -1       693 2.22748E+01
 -1       694 1.81203E+01
 -1       695 1.37741E+01
 -1       696 8.63058E+00
 -1       697 1.56815E+01
 -1       698 3.38886E+01
 -1       699 5.84169E+01
 -1       700 5.59815E+01
 -1       701 5.52727E+01
 -1       702 5.85776E+01
 -1       703 6.45589E+01
 -1       704 7.27244E+01
 -1       705 7.27244E+01
 -1       706 6.15902E+01
 -1       707 5.49795E+01
 -1       708 5.66051E+01
 -1       709 5.66051E+01
 -1       710 5.62602E+01
 -1       711 5.27576E+01
 -1       712 4.91393E+01
 -1       713 4.96788E+01
 -1       714 5.30335E+01
 -1       715 5.55620E+01
 -1       716 5.70988E+01
 -1       717 5.70988E+01
 -1       718 5.68084E+01
 -1       719 5.83977E+01
 -1       720 5.86036E+01
 -1       721 5.86036E+01
 -1       722 5.64362E+01
 -1       723 5.13015E+01
 -1       724 4.31326E+01
 -1       725 3.25614E+01
 -1       726 2.22351E+01
 -1       727 3.68552E+01
 -1       728 5.84169E+01
 -1       729 5.59815E+01
 -1       730 5.52727E+01
 -1       731 5.85776E+01
 -1       732 6.45589E+01
 -1       733 7.27244E+01
 -1       734 7.27244E+01
 -1       735 6.15902E+01
 -1       736 5.49795E+01
 -1       737 5.66051E+01
 -1       738 5.66051E+01
 -1       739 5.62602E+01
 -1       740 5.27576E+01
 -1       741 4.91393E+01
 -1       742 4.96788E+01
 -1       743 5.30335E+01
 -1       744 5.55620E+01
 -1       745 5.70988E+01
 -1       746 5.70988E+01
 -1       747 5.68084E+01
 -1       748 5.83977E+01
 -1       749 5.86036E+01
 -1       750 5.86036E+01
 -1       751 5.64362E+01
 -1       752 5.13015E+01
 -1       753 4.31326E+01
 -1       754 3.25614E+01
 -1       755 2.22351E+01
 -1       756 3.68552E+01
 -1       757 5.84169E+01
 -1       758 5.59815E+01
 -1       759 5.52727E+01
 -1       760 5.85776E+01
 -1       761 6.45589E+01
 -1       762 7.27244E+01
 -1       763 7.27244E+01
 -1       764 6.15902E+01
 -1       765 5.49795E+01
 -1       766 5.66051E+01
 -1       767 5.66051E+01
 -1       768 5.62602E+01
 -1       769 5.27576E+01
 -1       770 4.91393E+01
 -1       771 4.96788E+01
 -1       772 5.30335E+01
 -1       773 5.55620E+01
 -1       774 5.70988E+01
 -1       775 5.70988E+01
 -1       776 5.68084E+01
 -1       777 5.83977E+01
 -1       778 5.86036E+01
 -1       779 5.86036E+01
 -1       780 5.64362E+01
 -1       781 5.13015E+01
 -1       782 4.31326E+01
 -1       783 3.25614E+01
 -1       784 2.22351E+01
 -1       785 3.68552E+01
 -1       786 5.84169E+01
 -1       787 5.59815E+01
 -1       788 5.52727E+01
 -1       789 5.85776E+01
 -1       790 6.45589E+01
 -1       791 7.27244E+01
 -1       792 7.27244E+01
 -1       793 6.15902E+01
 -1       794 5.49795E+01
 -1       795 5.66051E+01
 -1       796 5.66051E+01
 -1       797 5.62602E+01
 -1       798 5.27576E+01
 -1       799 4.91393E+01
 -1       800 4.96788E+01
 -1       801 5.30335E+01
 -1       802 5.55620E+01
 -1       803 5.70988E+01
 -1       804 5.70988E+01
 -1       805 5.68084E+01
 -1       806 5.83977E+01
 -1       807 5.86036E+01
 -1       808 5.86036E+01
 -1       809 5.64362E+01
 -1       810 5.13015E+01
 -1       811 4.31326E+01
 -1       812 3.25614E+01
 -1       813 2.22351E+01
 -1       814 3.68552E+01
 -1       815 5.84169E+01
 -1       816 5.59815E+01
 -1       817 5.52727E+01
 -1       818 5.85776E+01
 -1       819 6.45589E+01
 -1       820 7.27244E+01
 -1       821 7.27244E+01
 -1       822 6.15902E+01
 -1       823 5.49795E+01
 -1       824 5.66051E+01
 -1       825 5.66051E+01
 -1       826 5.62602E+01
 -1       827 5.27576E+01
 -1       828 4.91393E+01
 -1       829 4.96788E+01
 -1       830 5.30335E+01
 -1       831 5.55620E+01
 -1       832 5.70988E+01
 -1       833 5.70988E+01
 -1       834 5.68084E+01
 -1       835 5.83977E+01
 -1       836 5.86036E+01
 -1       837 5.86036E+01
 -1       838 5.64362E+01
 -1       839 5.13015E+01
 -1       840 4.31326E+01
 -1       841 3.25614E+01
 -1       842 2.22351E+01
 -1       843 3.68552E+01
 -1       844 5.84169E+01
 -1       845 5.59815E+01
 -1       846 5.52727E+01
 -1       847 5.85776E+01
 -1       848 6.45589E+01
 -1       849 7.27244E+01
 -1       850 7.27244E+01
 -1       851 6.15902E+01
 -1       852 5.49795E+01
 -1       853 5.66051E+01
 -1       854 5.66051E+01
 -1       855 5.62602E+01
 -1       856 5.27576E+01
 -1       857 4.91393E+01
 -1       858 4.96788E+01
 -1       859 5.30335E+01
 -1       860 5.55620E+01
 -1       861 5.70988E+01
 -1       862 5.70988E+01
 -1       863 5.68084E+01
 -1       864 5.83977E+01
 -1       865 5.86036E+01
 -1       866 5.86036E+01
 -1       867 5.64362E+01
 -1       868 5.13015E+01
 -1       869 4.31326E+01
 -1       870 3.25614E+01
 -1       871 2.22351E+01
 -1       872 3.68552E+01
 -1       873 3.68552E+01
 -1       874 2.22351E+01
 -1       875 3.25614E+01
 -1       876 4.31326E+01
 -1       877 5.13015E+01
 -1       878 5.64362E+01
 -1       879 5.86036E+01
 -1       880 5.86036E+01
 -1       881 5.83977E+01
 -1       882 5.68084E+01
 -1       883 5.70988E+01
 -1       884 5.70988E+01
 -1       885 5.55620E+01
 -1       886 5.30335E+01
 -1       887 4.96788E+01
 -1       888 4.91393E+01
 -1       889 5.27576E+01
 -1       890 5.62602E+01
 -1       891 5.66051E+01
 -1       892 5.66051E+01
 -1       893 5.49795E+01
 -1       894 6.15902E+01
 -1       895 7.27244E+01
 -1       896 7.27244E+01
 -1       897 6.45589E+01
 -1       898 5.85776E+01
 -1       899 5.52727E+01
 -1       900 5.59815E+01
 -1       901 5.84169E+01
 -1       902 5.84169E+01
 -1       903 5.59815E+01
 -1       904 5.52727E+01
 -1       905 5.85776E+01
 -1       906 6.45589E+01
 -1       907 7.27244E+01
 -1       908 7.27244E+01
 -1       909 6.15902E+01
 -1       910 5.49795E+01
 -1       911 5.66051E+01
 -1       912 5.66051E+01
 -1       913 5.62602E+01
 -1       914 5.27576E+01
 -1       915 4.91393E+01
 -1       916 4.96788E+01
 -1       917 5.30335E+01
 -1       918 5.55620E+01
 -1       919 5.70988E+01
 -1       920 5.70988E+01
 -1       921 5.68084E+01
 -1       922 5.83977E+01
 -1       923 5.86036E+01
 -1       924 5.86036E+01
 -1       925 5.64362E+01
 -1       926 5.13015E+01
 -1       927 4.31326E+01
 -1       928 3.25614E+01
 -1       929 2.22351E+01
 -1       930 3.68552E+01
 -3
    1PSTEP                        21           1           1          
    1PGM                1.000000E+00                                  
    1PGK                2.304062E+06                                  
    1PHID                         -1                                  
    1PSUBC                         0                                  
    1PMODE                         6                                  
  100CL  106 241.5834526         930                     2    6MODAL      1
 -4  DISP        4    1
 -5  D1          1    2    1    0
 -5  D2          1    2    2    0
 -5  D3          1    2    3    0
 -5  ALL         1    2    0    0    1ALL
 -1         1 0.00000E+00 0.00000E+00 0.00000E+00
 -1         2 0.00000E+00 0.00000E+00 0.00000E+00
 -1         3 1.55755E-03 1.40373E-01 3.33351E-04
 -1         4-1.55755E-03 1.40373E-01-3.33351E-04
 -1         5 0.00000E+00 0.00000E+00 0.00000E+00
 -1         6 0.00000E+00 0.00000E+00 0.00000E+00
 -1         7 1.55755E-03 1.40373E-01-3.33351E-04
 -1         8-1.55755E-03 1.40373E-01 3.33351E-04
 -1         9 0.00000E+00 0.00000E+00 0.00000E+00
 -1        10 1.55682E-03 1.39335E-01 3.32763E-04
 -1        11 0.00000E+00 0.00000E+00 0.00000E+00
 -1        12 0.00000E+00 0.00000E+00 0.00000E+00
 -1        13 3.25644E-02 1.39356E-01 6.77349E-03
 -1        14 3.23646E-02 1.40356E-01 6.77204E-03
 -1        15 0.00000E+00 0.00000E+00 0.00000E+00
 -1        16 1.55682E-03 1.39335E-01-3.32763E-04
 -1        17 0.00000E+00 0.00000E+00 0.00000E+00
 -1        18 0.00000E+00 0.00000E+00 0.00000E+00
 -1        19 3.23646E-02 1.40356E-01-6.77204E-03
 -1        20 3.25644E-02 1.39356E-01-6.77349E-03
 -1        21 0.00000E+00 0.00000E+00 0.00000E+00
 -1        22 0.00000E+00 0.00000E+00 0.00000E+00
 -1        23-3.25644E-02 1.39356E-01-6.77349E-03
 -1        24-3.23646E-02 1.40356E-01-6.77204E-03
 -1        25 0.00000E+00 0.00000E+00 0.00000E+00
 -1        26-1.55682E-03 1.39335E-01-3.32763E-04
 -1        27 0.00000E+00 0.00000E+00 0.00000E+00
 -1        28 0.00000E+00 0.00000E+00 0.00000E+00
 -1        29 0.00000E+00 0.00000E+00 0.00000E+00
 -1        30-1.55682E-03 1.39335E-01 3.32763E-04
 -1        31-3.25644E-02 1.39356E-01 6.77349E-03
 -1        32-3.23646E-02 1.40356E-01 6.77204E-03
 -1        33-3.70621E-04 5.18704E-03 1.42767E-06
 -1        34-6.13560E-04 1.74745E-02-3.07300E-05
 -1        35-7.53230E-04 3.41919E-02-7.73375E-05
 -1        36-7.92388E-04 5.29317E-02-1.28549E-04
 -1        37-7.41200E-04 7.14608E-02-1.76133E-04
 -1        38-6.10291E-04 8.77567E-02-2.16176E-04
 -1        39-4.15810E-04 1.00131E-01-2.45483E-04
 -1        40-1.75936E-04 1.07297E-01-2.61744E-04
 -1        41 8.89899E-05 1.08422E-01-2.63431E-04
 -1        42 3.57848E-04 1.03169E-01-2.49962E-04
 -1        43 6.09896E-04 9.16951E-02-2.21800E-04
 -1        44 8.26022E-04 7.46317E-02-1.80459E-04
 -1        45 9.89914E-04 5.30310E-02-1.28428E-04
 -1        46 1.08905E-03 2.82878E-02-6.90087E-05
 -1        47 1.11547E-03 2.04001E-03-6.09518E-06
 -1        48 1.06623E-03-2.39450E-02 5.60942E-05
 -1        49 9.43503E-04-4.78913E-02 1.13304E-04
 -1        50 7.54399E-04-6.81345E-02 1.61529E-04
 -1        51 5.10370E-04-8.32313E-02 1.97277E-04
 -1        52 2.26350E-04-9.20540E-02 2.17799E-04
 -1        53-8.03611E-05-9.38591E-02 2.21269E-04
 -1        54-3.91405E-04-8.83295E-02 2.06914E-04
 -1        55-6.88773E-04-7.55823E-02 1.75090E-04
 -1        56-9.56236E-04-5.61443E-02 1.27310E-04
 -1        57-1.18071E-03-3.08942E-02 6.62035E-05
 -1        58-1.35350E-03-9.72598E-04-4.64546E-06
 -1        59-1.47111E-03 3.23320E-02-8.14121E-05
 -1        60-1.53675E-03 6.77183E-02-1.60905E-04
 -1        61-1.55754E-03 1.04020E-01-2.42925E-04
 -1        62 3.70621E-04 5.18704E-03-1.42767E-06
 -1        63 6.13560E-04 1.74745E-02 3.07300E-05
 -1        64 7.53230E-04 3.41919E-02 7.73375E-05
 -1        65 7.92388E-04 5.29317E-02 1.28549E-04
 -1        66 7.41200E-04 7.14608E-02 1.76133E-04
 -1        67 6.10291E-04 8.77567E-02 2.16176E-04
 -1        68 4.15810E-04 1.00131E-01 2.45483E-04
 -1        69 1.75936E-04 1.07297E-01 2.61744E-04
 -1        70-8.89899E-05 1.08422E-01 2.63431E-04
 -1        71-3.57848E-04 1.03169E-01 2.49962E-04
 -1        72-6.09896E-04 9.16951E-02 2.21800E-04
 -1        73-8.26022E-04 7.46317E-02 1.80459E-04
 -1        74-9.89914E-04 5.30310E-02 1.28428E-04
 -1        75-1.08905E-03 2.82878E-02 6.90087E-05
 -1        76-1.11547E-03 2.04001E-03 6.09515E-06
 -1        77-1.06623E-03-2.39450E-02-5.60943E-05
 -1        78-9.43503E-04-4.78913E-02-1.13304E-04
 -1        79-7.54399E-04-6.81345E-02-1.61529E-04
 -1        80-5.10370E-04-8.32313E-02-1.97277E-04
 -1        81-2.26350E-04-9.20540E-02-2.17799E-04
 -1        82 8.03611E-05-9.38591E-02-2.21269E-04
 -1        83 3.91405E-04-8.83295E-02-2.06914E-04
 -1        84 6.88773E-04-7.55823E-02-1.75090E-04
 -1        85 9.56236E-04-5.61443E-02-1.27310E-04
 -1        86 1.18071E-03-3.08942E-02-6.62035E-05
 -1        87 1.35350E-03-9.72598E-04 4.64548E-06
 -1        88 1.47111E-03 3.23320E-02 8.14121E-05
 -1        89 1.53675E-03 6.77183E-02 1.60905E-04
 -1        90 1.55754E-03 1.04020E-01 2.42925E-04
 -1        91 0.00000E+00 0.00000E+00 0.00000E+00
 -1        92 0.00000E+00 0.00000E+00 0.00000E+00
 -1        93 0.00000E+00 0.00000E+00 0.00000E+00
 -1        94 0.00000E+00 0.00000E+00 0.00000E+00
 -1        95 0.00000E+00 0.00000E+00 0.00000E+00
 -1        96 0.00000E+00 0.00000E+00 0.00000E+00
 -1        97 3.70621E-04 5.18704E-03 1.42767E-06
 -1        98 6.13560E-04 1.74745E-02-3.07300E-05
 -1        99 7.53230E-04 3.41919E-02-7.73375E-05
 -1       100 7.92388E-04 5.29317E-02-1.28549E-04
 -1       101 7.41200E-04 7.14608E-02-1.76133E-04
 -1       102 6.10291E-04 8.77567E-02-2.16176E-04
 -1       103 4.15810E-04 1.00131E-01-2.45483E-04
 -1       104 1.75936E-04 1.07297E-01-2.61744E-04
 -1       105-8.89899E-05 1.08422E-01-2.63431E-04
 -1       106-3.57848E-04 1.03169E-01-2.49962E-04
 -1       107-6.09896E-04 9.16951E-02-2.21800E-04
 -1       108-8.26022E-04 7.46317E-02-1.80459E-04
 -1       109-9.89914E-04 5.30310E-02-1.28428E-04
 -1       110-1.08905E-03 2.82878E-02-6.90087E-05
 -1       111-1.11547E-03 2.04001E-03-6.09518E-06
 -1       112-1.06623E-03-2.39450E-02 5.60942E-05
 -1       113-9.43503E-04-4.78913E-02 1.13304E-04
 -1       114-7.54399E-04-6.81345E-02 1.61529E-04
 -1       115-5.10370E-04-8.32313E-02 1.97277E-04
 -1       116-2.26350E-04-9.20540E-02 2.17799E-04
 -1       117 8.03611E-05-9.38591E-02 2.21269E-04
 -1       118 3.91405E-04-8.83295E-02 2.06914E-04
 -1       119 6.88773E-04-7.55823E-02 1.75090E-04
 -1       120 9.56236E-04-5.61443E-02 1.27310E-04
 -1       121 1.18071E-03-3.08942E-02 6.62035E-05
 -1       122 1.35350E-03-9.72598E-04-4.64546E-06
 -1       123 1.47111E-03 3.23320E-02-8.14121E-05
 -1       124 1.53675E-03 6.77183E-02-1.60905E-04
 -1       125 1.55754E-03 1.04020E-01-2.42925E-04
 -1       126 1.64721E-03 1.46939E-01 2.35284E-04
 -1       127 1.67917E-03 1.49612E-01 1.86786E-11
 -1       128 1.64721E-03 1.46939E-01-2.35284E-04
 -1       129-3.70621E-04 5.18704E-03-1.42767E-06
 -1       130-6.13560E-04 1.74745E-02 3.07300E-05
 -1       131-7.53230E-04 3.41919E-02 7.73375E-05
 -1       132-7.92388E-04 5.29317E-02 1.28549E-04
 -1       133-7.41200E-04 7.14608E-02 1.76133E-04
 -1       134-6.10291E-04 8.77567E-02 2.16176E-04
 -1       135-4.15810E-04 1.00131E-01 2.45483E-04
 -1       136-1.75936E-04 1.07297E-01 2.61744E-04
 -1       137 8.89899E-05 1.08422E-01 2.63431E-04
 -1       138 3.57848E-04 1.03169E-01 2.49962E-04
 -1       139 6.09896E-04 9.16951E-02 2.21800E-04
 -1       140 8.26022E-04 7.46317E-02 1.80459E-04
 -1       141 9.89914E-04 5.30310E-02 1.28428E-04
 -1       142 1.08905E-03 2.82878E-02 6.90087E-05
 -1       143 1.11547E-03 2.04001E-03 6.09515E-06
 -1       144 1.06623E-03-2.39450E-02-5.60943E-05
 -1       145 9.43503E-04-4.78913E-02-1.13304E-04
 -1       146 7.54399E-04-6.81345E-02-1.61529E-04
 -1       147 5.10370E-04-8.32313E-02-1.97277E-04
 -1       148 2.26350E-04-9.20540E-02-2.17799E-04
 -1       149-8.03611E-05-9.38591E-02-2.21269E-04
 -1       150-3.91405E-04-8.83295E-02-2.06914E-04
 -1       151-6.88773E-04-7.55823E-02-1.75090E-04
 -1       152-9.56236E-04-5.61443E-02-1.27310E-04
 -1       153-1.18071E-03-3.08942E-02-6.62035E-05
 -1       154-1.35350E-03-9.72598E-04 4.64548E-06
 -1       155-1.47111E-03 3.23320E-02 8.14121E-05
 -1       156-1.53675E-03 6.77183E-02 1.60905E-04
 -1       157-1.55754E-03 1.04020E-01 2.42925E-04
 -1       158-1.64721E-03 1.46939E-01 2.35284E-04
 -1       159-1.67917E-03 1.49612E-01 1.88792E-11
 -1       160-1.64721E-03 1.46939E-01-2.35284E-04
 -1       161 2.96088E-04 5.16393E-03 7.77058E-06
 -1       162 5.56942E-04 1.73598E-02 3.02549E-05
 -1       163 6.98123E-04 3.39355E-02 7.99590E-05
 -1       164 7.41958E-04 5.25140E-02 1.30109E-04
 -1       165 6.97561E-04 7.08879E-02 1.78609E-04
 -1       166 5.75171E-04 8.70521E-02 2.19288E-04
 -1       167 3.90677E-04 9.93307E-02 2.49077E-04
 -1       168 1.61782E-04 1.06443E-01 2.65543E-04
 -1       169-9.17673E-05 1.07563E-01 2.67201E-04
 -1       170-3.49490E-04 1.02354E-01 2.53495E-04
 -1       171-5.91297E-04 9.09724E-02 2.24911E-04
 -1       172-7.98685E-04 7.40437E-02 1.82986E-04
 -1       173-9.55863E-04 5.26125E-02 1.30239E-04
 -1       174-1.05071E-03 2.80627E-02 7.00143E-05
 -1       175-1.07549E-03 2.01967E-03 6.25549E-06
 -1       176-1.02732E-03-2.37630E-02-5.67632E-05
 -1       177-9.08265E-04-4.75232E-02-1.14729E-04
 -1       178-7.25117E-04-6.76095E-02-1.63582E-04
 -1       179-4.88866E-04-8.25903E-02-1.99780E-04
 -1       180-2.13848E-04-9.13464E-02-2.20536E-04
 -1       181 8.33361E-05-9.31406E-02-2.24000E-04
 -1       182 3.85080E-04-8.76581E-02-2.09394E-04
 -1       183 6.74137E-04-7.50147E-02-1.77090E-04
 -1       184 9.35002E-04-5.57324E-02-1.28633E-04
 -1       185 1.15524E-03-3.06813E-02-6.66641E-05
 -1       186 1.32665E-03-9.91162E-04 5.25633E-06
 -1       187 1.44630E-03 3.20617E-02 8.33356E-05
 -1       188 1.51731E-03 6.71889E-02 1.63865E-04
 -1       189 1.54925E-03 1.03235E-01 2.46079E-04
 -1       190 0.00000E+00 0.00000E+00 0.00000E+00
 -1       191 0.00000E+00 0.00000E+00 0.00000E+00
 -1       192 1.70451E-02 1.39343E-01 3.58690E-03
 -1       193 6.69867E-03 6.12846E-03 3.82112E-04
 -1       194 1.18589E-02 1.78929E-02 8.81769E-04
 -1       195 1.48141E-02 3.41861E-02 1.76196E-03
 -1       196 1.57355E-02 5.25056E-02 2.77772E-03
 -1       197 1.47701E-02 7.06403E-02 3.77782E-03
 -1       198 1.21780E-02 8.66049E-02 4.62770E-03
 -1       199 8.27665E-03 9.87312E-02 5.24693E-03
 -1       200 3.44323E-03 1.05745E-01 5.58452E-03
 -1       201-1.90756E-03 1.06825E-01 5.61165E-03
 -1       202-7.34456E-03 1.01634E-01 5.31873E-03
 -1       203-1.24449E-02 9.03246E-02 4.71658E-03
 -1       204-1.68191E-02 7.35179E-02 3.83729E-03
 -1       205-2.01346E-02 5.22487E-02 2.73322E-03
 -1       206-2.21363E-02 2.78893E-02 1.47398E-03
 -1       207-2.26615E-02 2.05185E-03 1.41796E-04
 -1       208-2.16496E-02-2.35241E-02-1.17413E-03
 -1       209-1.91441E-02-4.70906E-02-2.38370E-03
 -1       210-1.52886E-02-6.70088E-02-3.40196E-03
 -1       211-1.03149E-02-8.18579E-02-4.15474E-03
 -1       212-4.52513E-03-9.05270E-02-4.58354E-03
 -1       213 1.73038E-03-9.22836E-02-4.64955E-03
 -1       214 8.08028E-03-8.68136E-02-4.33662E-03
 -1       215 1.41607E-02-7.42301E-02-3.65300E-03
 -1       216 1.96443E-02-5.50480E-02-2.63122E-03
 -1       217 2.42687E-02-3.01270E-02-1.32501E-03
 -1       218 2.78604E-02-5.83710E-04 1.96689E-04
 -1       219 3.03558E-02 3.23216E-02 1.85526E-03
 -1       220 3.18144E-02 6.73196E-02 3.56320E-03
 -1       221 3.24284E-02 1.03270E-01 5.22469E-03
 -1       222 6.65384E-03 6.16247E-03 3.42280E-05
 -1       223 1.17644E-02 1.80181E-02 7.33443E-04
 -1       224 1.46880E-02 3.44450E-02 1.67420E-03
 -1       225 1.56010E-02 5.29232E-02 2.78186E-03
 -1       226 1.46477E-02 7.12141E-02 3.85533E-03
 -1       227 1.20812E-02 8.73116E-02 4.76867E-03
 -1       228 8.21369E-03 9.95349E-02 5.43594E-03
 -1       229 3.41924E-03 1.06602E-01 5.80467E-03
 -1       230-1.89008E-03 1.07687E-01 5.84471E-03
 -1       231-7.28565E-03 1.02451E-01 5.54631E-03
 -1       232-1.23473E-02 9.10496E-02 4.92118E-03
 -1       233-1.66884E-02 7.41077E-02 4.00335E-03
 -1       234-1.99789E-02 5.26685E-02 2.84809E-03
 -1       235-2.19655E-02 2.81152E-02 1.52867E-03
 -1       236-2.24870E-02 2.07247E-03 1.31497E-04
 -1       237-2.14831E-02-2.37064E-02-1.24977E-03
 -1       238-1.89972E-02-4.74594E-02-2.52063E-03
 -1       239-1.51718E-02-6.75347E-02-3.59208E-03
 -1       240-1.02369E-02-8.25001E-02-4.38651E-03
 -1       241-4.49239E-03-9.12358E-02-4.84288E-03
 -1       242 1.71423E-03-9.30031E-02-4.92087E-03
 -1       243 8.01469E-03-8.74858E-02-4.60405E-03
 -1       244 1.40483E-02-7.47980E-02-3.90161E-03
 -1       245 1.94910E-02-5.54598E-02-2.84825E-03
 -1       246 2.40824E-02-3.03392E-02-1.50101E-03
 -1       247 2.76509E-02-5.63397E-04 6.69057E-05
 -1       248 3.01338E-02 3.25952E-02 1.77177E-03
 -1       249 3.15919E-02 6.78531E-02 3.52098E-03
 -1       250 3.22187E-02 1.04054E-01 5.21154E-03
 -1       251 1.69261E-02 1.40352E-01 3.58369E-03
 -1       252 1.54925E-03 1.03235E-01-2.46079E-04
 -1       253 1.51731E-03 6.71889E-02-1.63865E-04
 -1       254 1.44630E-03 3.20617E-02-8.33356E-05
 -1       255 1.32665E-03-9.91162E-04-5.25632E-06
 -1       256 1.15524E-03-3.06813E-02 6.66642E-05
 -1       257 9.35002E-04-5.57324E-02 1.28633E-04
 -1       258 6.74137E-04-7.50147E-02 1.77090E-04
 -1       259 3.85080E-04-8.76581E-02 2.09394E-04
 -1       260 8.33360E-05-9.31406E-02 2.24000E-04
 -1       261-2.13848E-04-9.13464E-02 2.20536E-04
 -1       262-4.88866E-04-8.25903E-02 1.99780E-04
 -1       263-7.25117E-04-6.76095E-02 1.63582E-04
 -1       264-9.08265E-04-4.75232E-02 1.14729E-04
 -1       265-1.02732E-03-2.37630E-02 5.67632E-05
 -1       266-1.07549E-03 2.01967E-03-6.25552E-06
 -1       267-1.05071E-03 2.80627E-02-7.00143E-05
 -1       268-9.55863E-04 5.26125E-02-1.30239E-04
 -1       269-7.98685E-04 7.40437E-02-1.82986E-04
 -1       270-5.91297E-04 9.09724E-02-2.24911E-04
 -1       271-3.49490E-04 1.02354E-01-2.53495E-04
 -1       272-9.17673E-05 1.07563E-01-2.67201E-04
 -1       273 1.61782E-04 1.06443E-01-2.65543E-04
 -1       274 3.90677E-04 9.93307E-02-2.49077E-04
 -1       275 5.75171E-04 8.70521E-02-2.19288E-04
 -1       276 6.97561E-04 7.08879E-02-1.78609E-04
 -1       277 7.41958E-04 5.25140E-02-1.30109E-04
 -1       278 6.98123E-04 3.39355E-02-7.99590E-05
 -1       279 5.56942E-04 1.73598E-02-3.02549E-05
 -1       280 2.96088E-04 5.16393E-03-7.77058E-06
 -1       281 0.00000E+00 0.00000E+00 0.00000E+00
 -1       282 0.00000E+00 0.00000E+00 0.00000E+00
 -1       283 6.65384E-03 6.16247E-03-3.42280E-05
 -1       284 1.17644E-02 1.80181E-02-7.33443E-04
 -1       285 1.46880E-02 3.44450E-02-1.67420E-03
 -1       286 1.56010E-02 5.29232E-02-2.78186E-03
 -1       287 1.46477E-02 7.12141E-02-3.85533E-03
 -1       288 1.20812E-02 8.73116E-02-4.76867E-03
 -1       289 8.21369E-03 9.95349E-02-5.43594E-03
 -1       290 3.41924E-03 1.06602E-01-5.80467E-03
 -1       291-1.89008E-03 1.07687E-01-5.84471E-03
 -1       292-7.28565E-03 1.02451E-01-5.54631E-03
 -1       293-1.23473E-02 9.10496E-02-4.92118E-03
 -1       294-1.66884E-02 7.41077E-02-4.00335E-03
 -1       295-1.99789E-02 5.26685E-02-2.84809E-03
 -1       296-2.19655E-02 2.81152E-02-1.52867E-03
 -1       297-2.24870E-02 2.07247E-03-1.31497E-04
 -1       298-2.14831E-02-2.37064E-02 1.24977E-03
 -1       299-1.89972E-02-4.74594E-02 2.52063E-03
 -1       300-1.51718E-02-6.75347E-02 3.59208E-03
 -1       301-1.02369E-02-8.25001E-02 4.38651E-03
 -1       302-4.49239E-03-9.12358E-02 4.84288E-03
 -1       303 1.71423E-03-9.30031E-02 4.92087E-03
 -1       304 8.01469E-03-8.74858E-02 4.60405E-03
 -1       305 1.40483E-02-7.47980E-02 3.90161E-03
 -1       306 1.94910E-02-5.54598E-02 2.84825E-03
 -1       307 2.40824E-02-3.03392E-02 1.50101E-03
 -1       308 2.76509E-02-5.63397E-04-6.69057E-05
 -1       309 3.01338E-02 3.25952E-02-1.77177E-03
 -1       310 3.15919E-02 6.78531E-02-3.52098E-03
 -1       311 3.22187E-02 1.04054E-01-5.21154E-03
 -1       312 1.69261E-02 1.40352E-01-3.58369E-03
 -1       313 6.69867E-03 6.12846E-03-3.82112E-04
 -1       314 1.18589E-02 1.78929E-02-8.81769E-04
 -1       315 1.48141E-02 3.41861E-02-1.76196E-03
 -1       316 1.57355E-02 5.25056E-02-2.77772E-03
 -1       317 1.47701E-02 7.06403E-02-3.77782E-03
 -1       318 1.21780E-02 8.66049E-02-4.62770E-03
 -1       319 8.27665E-03 9.87312E-02-5.24693E-03
 -1       320 3.44323E-03 1.05745E-01-5.58452E-03
 -1       321-1.90756E-03 1.06825E-01-5.61165E-03
 -1       322-7.34456E-03 1.01634E-01-5.31873E-03
 -1       323-1.24449E-02 9.03246E-02-4.71658E-03
 -1       324-1.68191E-02 7.35179E-02-3.83729E-03
 -1       325-2.01346E-02 5.22487E-02-2.73322E-03
 -1       326-2.21363E-02 2.78893E-02-1.47398E-03
 -1       327-2.26615E-02 2.05185E-03-1.41796E-04
 -1       328-2.16496E-02-2.35241E-02 1.17413E-03
 -1       329-1.91441E-02-4.70906E-02 2.38370E-03
 -1       330-1.52886E-02-6.70088E-02 3.40196E-03
 -1       331-1.03149E-02-8.18579E-02 4.15474E-03
 -1       332-4.52513E-03-9.05270E-02 4.58354E-03
 -1       333 1.73038E-03-9.22836E-02 4.64955E-03
 -1       334 8.08028E-03-8.68136E-02 4.33662E-03
 -1       335 1.41607E-02-7.42301E-02 3.65300E-03
 -1       336 1.96443E-02-5.50480E-02 2.63122E-03
 -1       337 2.42687E-02-3.01270E-02 1.32501E-03
 -1       338 2.78604E-02-5.83710E-04-1.96689E-04
 -1       339 3.03558E-02 3.23216E-02-1.85526E-03
 -1       340 3.18144E-02 6.73196E-02-3.56320E-03
 -1       341 3.24284E-02 1.03270E-01-5.22469E-03
 -1       342 1.70451E-02 1.39343E-01-3.58689E-03
 -1       343-6.69867E-03 6.12846E-03-3.82112E-04
 -1       344-1.18589E-02 1.78929E-02-8.81769E-04
 -1       345-1.48141E-02 3.41861E-02-1.76196E-03
 -1       346-1.57355E-02 5.25056E-02-2.77772E-03
 -1       347-1.47701E-02 7.06403E-02-3.77782E-03
 -1       348-1.21780E-02 8.66049E-02-4.62770E-03
 -1       349-8.27665E-03 9.87312E-02-5.24693E-03
 -1       350-3.44323E-03 1.05745E-01-5.58452E-03
 -1       351 1.90756E-03 1.06825E-01-5.61165E-03
 -1       352 7.34456E-03 1.01634E-01-5.31873E-03
 -1       353 1.24449E-02 9.03246E-02-4.71658E-03
 -1       354 1.68191E-02 7.35179E-02-3.83729E-03
 -1       355 2.01346E-02 5.22487E-02-2.73322E-03
 -1       356 2.21363E-02 2.78893E-02-1.47398E-03
 -1       357 2.26615E-02 2.05185E-03-1.41796E-04
 -1       358 2.16496E-02-2.35241E-02 1.17413E-03
 -1       359 1.91441E-02-4.70906E-02 2.38370E-03
 -1       360 1.52886E-02-6.70088E-02 3.40196E-03
 -1       361 1.03149E-02-8.18579E-02 4.15474E-03
 -1       362 4.52513E-03-9.05270E-02 4.58354E-03
 -1       363-1.73038E-03-9.22836E-02 4.64955E-03
 -1       364-8.08028E-03-8.68136E-02 4.33662E-03
 -1       365-1.41607E-02-7.42301E-02 3.65300E-03
 -1       366-1.96443E-02-5.50480E-02 2.63122E-03
 -1       367-2.42687E-02-3.01270E-02 1.32501E-03
 -1       368-2.78604E-02-5.83710E-04-1.96689E-04
 -1       369-3.03558E-02 3.23216E-02-1.85526E-03
 -1       370-3.18144E-02 6.73196E-02-3.56320E-03
 -1       371-3.24284E-02 1.03270E-01-5.22469E-03
 -1       372-6.65384E-03 6.16247E-03-3.42280E-05
 -1       373-1.17644E-02 1.80181E-02-7.33443E-04
 -1       374-1.46880E-02 3.44450E-02-1.67420E-03
 -1       375-1.56010E-02 5.29232E-02-2.78186E-03
 -1       376-1.46477E-02 7.12141E-02-3.85533E-03
 -1       377-1.20812E-02 8.73116E-02-4.76867E-03
 -1       378-8.21369E-03 9.95349E-02-5.43594E-03
 -1       379-3.41924E-03 1.06602E-01-5.80467E-03
 -1       380 1.89008E-03 1.07687E-01-5.84471E-03
 -1       381 7.28565E-03 1.02451E-01-5.54631E-03
 -1       382 1.23473E-02 9.10496E-02-4.92118E-03
 -1       383 1.66884E-02 7.41077E-02-4.00335E-03
 -1       384 1.99789E-02 5.26685E-02-2.84809E-03
 -1       385 2.19655E-02 2.81152E-02-1.52867E-03
 -1       386 2.24870E-02 2.07247E-03-1.31497E-04
 -1       387 2.14831E-02-2.37064E-02 1.24977E-03
 -1       388 1.89972E-02-4.74594E-02 2.52063E-03
 -1       389 1.51718E-02-6.75347E-02 3.59208E-03
 -1       390 1.02369E-02-8.25001E-02 4.38651E-03
 -1       391 4.49239E-03-9.12358E-02 4.84288E-03
 -1       392-1.71423E-03-9.30031E-02 4.92087E-03
 -1       393-8.01469E-03-8.74858E-02 4.60405E-03
 -1       394-1.40483E-02-7.47980E-02 3.90161E-03
 -1       395-1.94910E-02-5.54598E-02 2.84825E-03
 -1       396-2.40824E-02-3.03392E-02 1.50101E-03
 -1       397-2.76509E-02-5.63397E-04-6.69057E-05
 -1       398-3.01338E-02 3.25952E-02-1.77177E-03
 -1       399-3.15919E-02 6.78531E-02-3.52098E-03
 -1       400-3.22187E-02 1.04054E-01-5.21154E-03
 -1       401 0.00000E+00 0.00000E+00 0.00000E+00
 -1       402 0.00000E+00 0.00000E+00 0.00000E+00
 -1       403-1.70451E-02 1.39343E-01-3.58689E-03
 -1       404-2.96088E-04 5.16393E-03-7.77058E-06
 -1       405-5.56942E-04 1.73598E-02-3.02549E-05
 -1       406-6.98123E-04 3.39355E-02-7.99590E-05
 -1       407-7.41958E-04 5.25140E-02-1.30109E-04
 -1       408-6.97561E-04 7.08879E-02-1.78609E-04
 -1       409-5.75171E-04 8.70521E-02-2.19288E-04
 -1       410-3.90677E-04 9.93307E-02-2.49077E-04
 -1       411-1.61782E-04 1.06443E-01-2.65543E-04
 -1       412 9.17673E-05 1.07563E-01-2.67201E-04
 -1       413 3.49490E-04 1.02354E-01-2.53495E-04
 -1       414 5.91297E-04 9.09724E-02-2.24911E-04
 -1       415 7.98685E-04 7.40437E-02-1.82986E-04
 -1       416 9.55863E-04 5.26125E-02-1.30239E-04
 -1       417 1.05071E-03 2.80627E-02-7.00143E-05
 -1       418 1.07549E-03 2.01967E-03-6.25552E-06
 -1       419 1.02732E-03-2.37630E-02 5.67632E-05
 -1       420 9.08265E-04-4.75232E-02 1.14729E-04
 -1       421 7.25117E-04-6.76095E-02 1.63582E-04
 -1       422 4.88866E-04-8.25903E-02 1.99780E-04
 -1       423 2.13848E-04-9.13464E-02 2.20536E-04
 -1       424-8.33360E-05-9.31406E-02 2.24000E-04
 -1       425-3.85080E-04-8.76581E-02 2.09394E-04
 -1       426-6.74137E-04-7.50147E-02 1.77090E-04
 -1       427-9.35002E-04-5.57324E-02 1.28633E-04
 -1       428-1.15524E-03-3.06813E-02 6.66642E-05
 -1       429-1.32665E-03-9.91162E-04-5.25632E-06
 -1       430-1.44630E-03 3.20617E-02-8.33356E-05
 -1       431-1.51731E-03 6.71889E-02-1.63865E-04
 -1       432-1.54925E-03 1.03235E-01-2.46079E-04
 -1       433-1.69261E-02 1.40352E-01-3.58369E-03
 -1       434 0.00000E+00 0.00000E+00 0.00000E+00
 -1       435 0.00000E+00 0.00000E+00 0.00000E+00
 -1       436-1.54925E-03 1.03235E-01 2.46079E-04
 -1       437-1.51731E-03 6.71889E-02 1.63865E-04
 -1       438-1.44630E-03 3.20617E-02 8.33356E-05
 -1       439-1.32665E-03-9.91162E-04 5.25633E-06
 -1       440-1.15524E-03-3.06813E-02-6.66641E-05
 -1       441-9.35002E-04-5.57324E-02-1.28633E-04
 -1       442-6.74137E-04-7.50147E-02-1.77090E-04
 -1       443-3.85080E-04-8.76581E-02-2.09394E-04
 -1       444-8.33360E-05-9.31406E-02-2.24000E-04
 -1       445 2.13848E-04-9.13464E-02-2.20536E-04
 -1       446 4.88866E-04-8.25903E-02-1.99780E-04
 -1       447 7.25117E-04-6.76095E-02-1.63582E-04
 -1       448 9.08265E-04-4.75232E-02-1.14729E-04
 -1       449 1.02732E-03-2.37630E-02-5.67632E-05
 -1       450 1.07549E-03 2.01967E-03 6.25549E-06
 -1       451 1.05071E-03 2.80627E-02 7.00143E-05
 -1       452 9.55863E-04 5.26125E-02 1.30239E-04
 -1       453 7.98685E-04 7.40437E-02 1.82986E-04
 -1       454 5.91297E-04 9.09724E-02 2.24911E-04
 -1       455 3.49490E-04 1.02354E-01 2.53495E-04
 -1       456 9.17673E-05 1.07563E-01 2.67201E-04
 -1       457-1.61782E-04 1.06443E-01 2.65543E-04
 -1       458-3.90677E-04 9.93307E-02 2.49077E-04
 -1       459-5.75171E-04 8.70521E-02 2.19288E-04
 -1       460-6.97561E-04 7.08879E-02 1.78609E-04
 -1       461-7.41958E-04 5.25140E-02 1.30109E-04
 -1       462-6.98123E-04 3.39355E-02 7.99590E-05
 -1       463-5.56942E-04 1.73598E-02 3.02549E-05
 -1       464-2.96088E-04 5.16393E-03 7.77058E-06
 -1       465-1.70451E-02 1.39343E-01 3.58690E-03
 -1       466-6.69867E-03 6.12846E-03 3.82112E-04
 -1       467-1.18589E-02 1.78929E-02 8.81769E-04
 -1       468-1.48141E-02 3.41861E-02 1.76196E-03
 -1       469-1.57355E-02 5.25056E-02 2.77772E-03
 -1       470-1.47701E-02 7.06403E-02 3.77782E-03
 -1       471-1.21780E-02 8.66049E-02 4.62770E-03
 -1       472-8.27665E-03 9.87312E-02 5.24693E-03
 -1       473-3.44323E-03 1.05745E-01 5.58452E-03
 -1       474 1.90756E-03 1.06825E-01 5.61165E-03
 -1       475 7.34456E-03 1.01634E-01 5.31873E-03
 -1       476 1.24449E-02 9.03246E-02 4.71658E-03
 -1       477 1.68191E-02 7.35179E-02 3.83729E-03
 -1       478 2.01346E-02 5.22487E-02 2.73322E-03
 -1       479 2.21363E-02 2.78893E-02 1.47398E-03
 -1       480 2.26615E-02 2.05185E-03 1.41796E-04
 -1       481 2.16496E-02-2.35241E-02-1.17413E-03
 -1       482 1.91441E-02-4.70906E-02-2.38370E-03
 -1       483 1.52886E-02-6.70088E-02-3.40196E-03
 -1       484 1.03149E-02-8.18579E-02-4.15474E-03
 -1       485 4.52513E-03-9.05270E-02-4.58354E-03
 -1       486-1.73038E-03-9.22836E-02-4.64955E-03
 -1       487-8.08028E-03-8.68136E-02-4.33662E-03
 -1       488-1.41607E-02-7.42301E-02-3.65300E-03
 -1       489-1.96443E-02-5.50480E-02-2.63122E-03
 -1       490-2.42687E-02-3.01270E-02-1.32501E-03
 -1       491-2.78604E-02-5.83710E-04 1.96689E-04
 -1       492-3.03558E-02 3.23216E-02 1.85526E-03
 -1       493-3.18144E-02 6.73196E-02 3.56320E-03
 -1       494-3.24284E-02 1.03270E-01 5.22469E-03
 -1       495-6.65384E-03 6.16247E-03 3.42280E-05
 -1       496-1.17644E-02 1.80181E-02 7.33443E-04
 -1       497-1.46880E-02 3.44450E-02 1.67420E-03
 -1       498-1.56010E-02 5.29232E-02 2.78186E-03
 -1       499-1.46477E-02 7.12141E-02 3.85533E-03
 -1       500-1.20812E-02 8.73116E-02 4.76867E-03
 -1       501-8.21369E-03 9.95349E-02 5.43594E-03
 -1       502-3.41924E-03 1.06602E-01 5.80467E-03
 -1       503 1.89008E-03 1.07687E-01 5.84471E-03
 -1       504 7.28565E-03 1.02451E-01 5.54631E-03
 -1       505 1.23473E-02 9.10496E-02 4.92118E-03
 -1       506 1.66884E-02 7.41077E-02 4.00335E-03
 -1       507 1.99789E-02 5.26685E-02 2.84809E-03
 -1       508 2.19655E-02 2.81152E-02 1.52867E-03
 -1       509 2.24870E-02 2.07247E-03 1.31497E-04
 -1       510 2.14831E-02-2.37064E-02-1.24977E-03
 -1       511 1.89972E-02-4.74594E-02-2.52063E-03
 -1       512 1.51718E-02-6.75347E-02-3.59208E-03
 -1       513 1.02369E-02-8.25001E-02-4.38651E-03
 -1       514 4.49239E-03-9.12358E-02-4.84288E-03
 -1       515-1.71423E-03-9.30031E-02-4.92087E-03
 -1       516-8.01469E-03-8.74858E-02-4.60405E-03
 -1       517-1.40483E-02-7.47980E-02-3.90161E-03
 -1       518-1.94910E-02-5.54598E-02-2.84825E-03
 -1       519-2.40824E-02-3.03392E-02-1.50101E-03
 -1       520-2.76509E-02-5.63397E-04 6.69057E-05
 -1       521-3.01338E-02 3.25952E-02 1.77177E-03
 -1       522-3.15919E-02 6.78531E-02 3.52098E-03
 -1       523-3.22187E-02 1.04054E-01 5.21154E-03
 -1       524-1.69261E-02 1.40352E-01 3.58369E-03
 -1       525 4.19649E-04 5.06921E-03-4.60765E-06
 -1       526 6.85354E-04 1.79978E-02 1.62611E-05
 -1       527 8.29272E-04 3.56604E-02 5.14527E-05
 -1       528 8.65393E-04 5.54088E-02 8.77957E-05
 -1       529 8.04570E-04 7.48593E-02 1.20579E-04
 -1       530 6.60820E-04 9.19265E-02 1.47901E-04
 -1       531 4.50200E-04 1.04867E-01 1.67969E-04
 -1       532 1.91915E-04 1.12348E-01 1.79197E-04
 -1       533-9.26614E-05 1.13508E-01 1.80469E-04
 -1       534-3.81122E-04 1.07996E-01 1.71330E-04
 -1       535-6.51403E-04 9.59789E-02 1.52072E-04
 -1       536-8.83131E-04 7.81171E-02 1.23733E-04
 -1       537-1.05890E-03 5.55110E-02 8.80273E-05
 -1       538-1.16533E-03 2.96192E-02 4.72279E-05
 -1       539-1.19392E-03 2.15497E-03 4.01358E-06
 -1       540-1.14152E-03-2.50327E-02-3.87165E-05
 -1       541-1.01050E-03-5.00856E-02-7.80394E-05
 -1       542-8.08457E-04-7.12618E-02-1.11205E-04
 -1       543-5.47674E-04-8.70509E-02-1.35820E-04
 -1       544-2.44165E-04-9.62717E-02-1.50000E-04
 -1       545 8.35010E-05-9.81458E-02-1.52492E-04
 -1       546 4.15581E-04-9.23407E-02-1.42756E-04
 -1       547 7.32622E-04-7.89802E-02-1.21017E-04
 -1       548 1.01695E-03-5.86203E-02-8.83063E-05
 -1       549 1.25413E-03-3.21909E-02-4.64735E-05
 -1       550 1.43444E-03-9.04063E-04 1.90903E-06
 -1       551 1.55465E-03 3.38749E-02 5.40127E-05
 -1       552 1.61907E-03 7.07946E-02 1.08246E-04
 -1       553 1.64224E-03 1.08713E-01 1.67267E-04
 -1       554 4.07704E-04 5.03999E-03-7.61877E-13
 -1       555 6.88820E-04 1.81660E-02-1.84042E-12
 -1       556 8.37030E-04 3.62415E-02-3.16146E-12
 -1       557 8.72209E-04 5.64050E-02-4.61876E-12
 -1       558 8.10559E-04 7.62281E-02-6.13392E-12
 -1       559 6.65407E-04 9.36052E-02-7.64591E-12
 -1       560 4.52916E-04 1.06773E-01-9.09606E-12
 -1       561 1.92285E-04 1.14382E-01-1.04372E-11
 -1       562-9.49375E-05 1.15556E-01-1.16379E-11
 -1       563-3.86134E-04 1.09941E-01-1.26444E-11
 -1       564-6.59005E-04 9.77053E-02-1.34102E-11
 -1       565-8.92961E-04 7.95218E-02-1.39189E-11
 -1       566-1.07040E-03 5.65103E-02-1.41466E-11
 -1       567-1.17779E-03 3.01552E-02-1.40773E-11
 -1       568-1.20654E-03 2.20029E-03-1.36950E-11
 -1       569-1.15345E-03-2.54726E-02-1.29900E-11
 -1       570-1.02088E-03-5.09721E-02-1.19566E-11
 -1       571-8.16528E-04-7.25250E-02-1.06128E-11
 -1       572-5.52775E-04-8.85936E-02-8.98105E-12
 -1       573-2.45794E-04-9.79756E-02-7.08418E-12
 -1       574 8.56652E-05-9.98781E-02-4.94645E-12
 -1       575 4.21655E-04-9.39626E-02-2.59802E-12
 -1       576 7.42503E-04-8.03554E-02-7.94764E-14
 -1       577 1.03029E-03-5.96242E-02 2.56804E-12
 -1       578 1.27031E-03-3.27200E-02 5.29759E-12
 -1       579 1.45269E-03-8.84174E-04 8.05664E-12
 -1       580 1.57419E-03 3.44848E-02 1.07998E-11
 -1       581 1.64135E-03 7.20179E-02 1.34961E-11
 -1       582 1.67029E-03 1.10619E-01 1.61233E-11
 -1       583 4.19649E-04 5.06921E-03 4.60765E-06
 -1       584 6.85354E-04 1.79978E-02-1.62611E-05
 -1       585 8.29272E-04 3.56604E-02-5.14528E-05
 -1       586 8.65393E-04 5.54088E-02-8.77957E-05
 -1       587 8.04570E-04 7.48593E-02-1.20579E-04
 -1       588 6.60820E-04 9.19265E-02-1.47901E-04
 -1       589 4.50200E-04 1.04867E-01-1.67969E-04
 -1       590 1.91915E-04 1.12348E-01-1.79197E-04
 -1       591-9.26614E-05 1.13508E-01-1.80469E-04
 -1       592-3.81122E-04 1.07996E-01-1.71330E-04
 -1       593-6.51403E-04 9.59789E-02-1.52072E-04
 -1       594-8.83131E-04 7.81171E-02-1.23733E-04
 -1       595-1.05890E-03 5.55110E-02-8.80273E-05
 -1       596-1.16533E-03 2.96192E-02-4.72280E-05
 -1       597-1.19392E-03 2.15497E-03-4.01361E-06
 -1       598-1.14152E-03-2.50327E-02 3.87164E-05
 -1       599-1.01050E-03-5.00856E-02 7.80393E-05
 -1       600-8.08457E-04-7.12618E-02 1.11205E-04
 -1       601-5.47674E-04-8.70509E-02 1.35820E-04
 -1       602-2.44165E-04-9.62717E-02 1.50000E-04
 -1       603 8.35010E-05-9.81458E-02 1.52492E-04
 -1       604 4.15581E-04-9.23407E-02 1.42756E-04
 -1       605 7.32622E-04-7.89802E-02 1.21017E-04
 -1       606 1.01695E-03-5.86203E-02 8.83063E-05
 -1       607 1.25413E-03-3.21909E-02 4.64735E-05
 -1       608 1.43444E-03-9.04063E-04-1.90901E-06
 -1       609 1.55465E-03 3.38749E-02-5.40127E-05
 -1       610 1.61907E-03 7.07946E-02-1.08245E-04
 -1       611 1.64224E-03 1.08713E-01-1.67267E-04
 -1       612-4.19649E-04 5.06921E-03-4.60765E-06
 -1       613-6.85354E-04 1.79978E-02 1.62611E-05
 -1       614-8.29272E-04 3.56604E-02 5.14527E-05
 -1       615-8.65393E-04 5.54088E-02 8.77957E-05
 -1       616-8.04570E-04 7.48593E-02 1.20579E-04
 -1       617-6.60820E-04 9.19265E-02 1.47901E-04
 -1       618-4.50200E-04 1.04867E-01 1.67969E-04
 -1       619-1.91915E-04 1.12348E-01 1.79197E-04
 -1       620 9.26614E-05 1.13508E-01 1.80469E-04
 -1       621 3.81122E-04 1.07996E-01 1.71330E-04
 -1       622 6.51403E-04 9.59789E-02 1.52072E-04
 -1       623 8.83131E-04 7.81171E-02 1.23733E-04
 -1       624 1.05890E-03 5.55110E-02 8.80273E-05
 -1       625 1.16533E-03 2.96192E-02 4.72279E-05
 -1       626 1.19392E-03 2.15497E-03 4.01358E-06
 -1       627 1.14152E-03-2.50327E-02-3.87165E-05
 -1       628 1.01050E-03-5.00856E-02-7.80394E-05
 -1       629 8.08457E-04-7.12618E-02-1.11205E-04
 -1       630 5.47674E-04-8.70509E-02-1.35820E-04
 -1       631 2.44165E-04-9.62717E-02-1.50000E-04
 -1       632-8.35010E-05-9.81458E-02-1.52492E-04
 -1       633-4.15581E-04-9.23407E-02-1.42756E-04
 -1       634-7.32622E-04-7.89802E-02-1.21017E-04
 -1       635-1.01695E-03-5.86203E-02-8.83063E-05
 -1       636-1.25413E-03-3.21909E-02-4.64735E-05
 -1       637-1.43444E-03-9.04063E-04 1.90903E-06
 -1       638-1.55465E-03 3.38749E-02 5.40127E-05
 -1       639-1.61907E-03 7.07946E-02 1.08246E-04
 -1       640-1.64224E-03 1.08713E-01 1.67267E-04
 -1       641-4.07704E-04 5.03999E-03-7.58062E-13
 -1       642-6.88820E-04 1.81660E-02-1.83022E-12
 -1       643-8.37030E-04 3.62415E-02-3.14593E-12
 -1       644-8.72209E-04 5.64050E-02-4.59981E-12
 -1       645-8.10559E-04 7.62281E-02-6.11413E-12
 -1       646-6.65407E-04 9.36052E-02-7.62545E-12
 -1       647-4.52916E-04 1.06773E-01-9.07734E-12
 -1       648-1.92285E-04 1.14382E-01-1.04297E-11
 -1       649 9.49375E-05 1.15556E-01-1.16426E-11
 -1       650 3.86134E-04 1.09941E-01-1.26647E-11
 -1       651 6.59005E-04 9.77053E-02-1.34484E-11
 -1       652 8.92961E-04 7.95218E-02-1.39756E-11
 -1       653 1.07040E-03 5.65103E-02-1.42203E-11
 -1       654 1.17779E-03 3.01552E-02-1.41650E-11
 -1       655 1.20654E-03 2.20029E-03-1.37932E-11
 -1       656 1.15345E-03-2.54726E-02-1.30980E-11
 -1       657 1.02088E-03-5.09721E-02-1.20704E-11
 -1       658 8.16528E-04-7.25250E-02-1.07263E-11
 -1       659 5.52775E-04-8.85936E-02-9.08802E-12
 -1       660 2.45794E-04-9.79756E-02-7.17491E-12
 -1       661-8.56652E-05-9.98781E-02-5.01681E-12
 -1       662-4.21655E-04-9.39626E-02-2.64644E-12
 -1       663-7.42503E-04-8.03554E-02-9.95063E-14
 -1       664-1.03029E-03-5.96242E-02 2.58546E-12
 -1       665-1.27031E-03-3.27200E-02 5.35040E-12
 -1       666-1.45269E-03-8.84174E-04 8.13798E-12
 -1       667-1.57419E-03 3.44848E-02 1.09087E-11
 -1       668-1.64135E-03 7.20179E-02 1.36370E-11
 -1       669-1.67029E-03 1.10619E-01 1.62954E-11
 -1       670-4.19649E-04 5.06921E-03 4.60765E-06
 -1       671-6.85354E-04 1.79978E-02-1.62611E-05
 -1       672-8.29272E-04 3.56604E-02-5.14528E-05
 -1       673-8.65393E-04 5.54088E-02-8.77957E-05
 -1       674-8.04570E-04 7.48593E-02-1.20579E-04
 -1       675-6.60820E-04 9.19265E-02-1.47901E-04
 -1       676-4.50200E-04 1.04867E-01-1.67969E-04
 -1       677-1.91915E-04 1.12348E-01-1.79197E-04
 -1       678 9.26614E-05 1.13508E-01-1.80469E-04
 -1       679 3.81122E-04 1.07996E-01-1.71330E-04
 -1       680 6.51403E-04 9.59789E-02-1.52072E-04
 -1       681 8.83131E-04 7.81171E-02-1.23733E-04
 -1       682 1.05890E-03 5.55110E-02-8.80273E-05
 -1       683 1.16533E-03 2.96192E-02-4.72280E-05
 -1       684 1.19392E-03 2.15497E-03-4.01361E-06
 -1       685 1.14152E-03-2.50327E-02 3.87164E-05
 -1       686 1.01050E-03-5.00856E-02 7.80393E-05
 -1       687 8.08457E-04-7.12618E-02 1.11205E-04
 -1       688 5.47674E-04-8.70509E-02 1.35820E-04
 -1       689 2.44165E-04-9.62717E-02 1.50000E-04
 -1       690-8.35010E-05-9.81458E-02 1.52492E-04
 -1       691-4.15581E-04-9.23407E-02 1.42756E-04
 -1       692-7.32622E-04-7.89802E-02 1.21017E-04
 -1       693-1.01695E-03-5.86203E-02 8.83063E-05
 -1       694-1.25413E-03-3.21909E-02 4.64735E-05
 -1       695-1.43444E-03-9.04063E-04-1.90901E-06
 -1       696-1.55465E-03 3.38749E-02-5.40127E-05
 -1       697-1.61907E-03 7.07946E-02-1.08245E-04
 -1       698-1.64224E-03 1.08713E-01-1.67267E-04
 -1       699 3.18011E-03 5.41358E-03 1.80232E-04
 -1       700 6.01873E-03 1.75185E-02 4.50939E-04
 -1       701 7.55824E-03 3.40002E-02 9.17052E-04
 -1       702 8.05736E-03 5.25097E-02 1.45457E-03
 -1       703 7.57742E-03 7.08139E-02 1.97783E-03
 -1       704 6.25059E-03 8.69205E-02 2.42259E-03
 -1       705 4.24374E-03 9.91551E-02 2.74664E-03
 -1       706 1.75226E-03 1.06239E-01 2.92366E-03
 -1       707-1.00874E-03 1.07348E-01 2.93824E-03
 -1       708-3.81576E-03 1.02145E-01 2.78515E-03
 -1       709-6.44971E-03 9.07839E-02 2.46998E-03
 -1       710-8.70882E-03 7.38907E-02 2.00954E-03
 -1       711-1.04209E-02 5.25065E-02 1.43126E-03
 -1       712-1.14536E-02 2.80120E-02 7.71644E-04
 -1       713-1.17227E-02 2.02855E-03 7.37616E-05
 -1       714-1.11967E-02-2.36942E-02-6.15645E-04
 -1       715-9.89798E-03-4.73983E-02-1.24937E-03
 -1       716-7.90052E-03-6.74360E-02-1.78293E-03
 -1       717-5.32403E-03-8.23787E-02-2.17747E-03
 -1       718-2.32468E-03-9.11098E-02-2.40236E-03
 -1       719 9.16671E-04-9.28934E-02-2.43728E-03
 -1       720 4.20827E-03-8.74148E-02-2.27374E-03
 -1       721 7.36231E-03-7.47892E-02-1.91600E-03
 -1       722 1.02101E-02-5.55363E-02-1.38104E-03
 -1       723 1.26164E-02-3.05234E-02-6.97165E-04
 -1       724 1.44925E-02-8.76605E-04 9.90413E-05
 -1       725 1.58064E-02 3.21325E-02 9.66384E-04
 -1       726 1.65909E-02 6.72214E-02 1.86041E-03
 -1       727 1.69498E-02 1.03240E-01 2.73587E-03
 -1       728 3.13210E-03 5.44812E-03 1.64953E-05
 -1       729 5.94646E-03 1.76420E-02 3.71642E-04
 -1       730 7.46872E-03 3.42589E-02 8.75548E-04
 -1       731 7.96570E-03 5.29271E-02 1.45480E-03
 -1       732 7.49492E-03 7.13869E-02 2.01484E-03
 -1       733 6.18512E-03 8.76260E-02 2.49051E-03
 -1       734 4.20040E-03 9.99573E-02 2.83814E-03
 -1       735 1.73421E-03 1.07094E-01 3.03041E-03
 -1       736-9.99915E-04 1.08208E-01 3.05134E-03
 -1       737-3.78015E-03 1.02960E-01 2.89563E-03
 -1       738-6.38916E-03 9.15075E-02 2.56932E-03
 -1       739-8.62692E-03 7.44794E-02 2.09016E-03
 -1       740-1.03228E-02 5.29256E-02 1.48701E-03
 -1       741-1.13457E-02 2.82374E-02 7.98127E-04
 -1       742-1.16122E-02 2.04915E-03 6.86413E-05
 -1       743-1.10910E-02-2.38761E-02-6.52547E-04
 -1       744-9.80439E-03-4.77664E-02-1.31610E-03
 -1       745-7.82568E-03-6.79609E-02-1.87554E-03
 -1       746-5.27341E-03-8.30197E-02-2.29036E-03
 -1       747-2.30228E-03-9.18172E-02-2.52870E-03
 -1       748 9.08652E-04-9.36115E-02-2.56950E-03
 -1       749 4.16959E-03-8.80856E-02-2.40413E-03
 -1       750 7.29479E-03-7.53559E-02-2.03734E-03
 -1       751 1.01175E-02-5.59472E-02-1.48716E-03
 -1       752 1.25040E-02-3.07351E-02-7.83500E-04
 -1       753 1.43668E-02-8.56283E-04 3.49688E-05
 -1       754 1.56744E-02 3.24056E-02 9.24680E-04
 -1       755 1.64603E-02 6.77538E-02 1.83810E-03
 -1       756 1.68269E-02 1.04024E-01 2.72756E-03
 -1       757 3.13210E-03 5.44812E-03-1.64953E-05
 -1       758 5.94646E-03 1.76420E-02-3.71642E-04
 -1       759 7.46872E-03 3.42589E-02-8.75548E-04
 -1       760 7.96570E-03 5.29271E-02-1.45480E-03
 -1       761 7.49492E-03 7.13869E-02-2.01484E-03
 -1       762 6.18512E-03 8.76260E-02-2.49051E-03
 -1       763 4.20040E-03 9.99573E-02-2.83814E-03
 -1       764 1.73421E-03 1.07094E-01-3.03041E-03
 -1       765-9.99915E-04 1.08208E-01-3.05134E-03
 -1       766-3.78015E-03 1.02960E-01-2.89563E-03
 -1       767-6.38916E-03 9.15075E-02-2.56932E-03
 -1       768-8.62692E-03 7.44794E-02-2.09016E-03
 -1       769-1.03228E-02 5.29256E-02-1.48701E-03
 -1       770-1.13457E-02 2.82374E-02-7.98127E-04
 -1       771-1.16122E-02 2.04915E-03-6.86414E-05
 -1       772-1.10910E-02-2.38761E-02 6.52547E-04
 -1       773-9.80439E-03-4.77664E-02 1.31610E-03
 -1       774-7.82568E-03-6.79609E-02 1.87554E-03
 -1       775-5.27341E-03-8.30197E-02 2.29036E-03
 -1       776-2.30228E-03-9.18172E-02 2.52870E-03
 -1       777 9.08652E-04-9.36115E-02 2.56950E-03
 -1       778 4.16959E-03-8.80856E-02 2.40413E-03
 -1       779 7.29479E-03-7.53559E-02 2.03734E-03
 -1       780 1.01175E-02-5.59472E-02 1.48716E-03
 -1       781 1.25040E-02-3.07351E-02 7.83500E-04
 -1       782 1.43668E-02-8.56283E-04-3.49688E-05
 -1       783 1.56744E-02 3.24056E-02-9.24680E-04
 -1       784 1.64603E-02 6.77538E-02-1.83810E-03
 -1       785 1.68269E-02 1.04024E-01-2.72756E-03
 -1       786 3.18011E-03 5.41358E-03-1.80232E-04
 -1       787 6.01873E-03 1.75185E-02-4.50939E-04
 -1       788 7.55824E-03 3.40002E-02-9.17052E-04
 -1       789 8.05736E-03 5.25097E-02-1.45457E-03
 -1       790 7.57742E-03 7.08139E-02-1.97783E-03
 -1       791 6.25059E-03 8.69205E-02-2.42259E-03
 -1       792 4.24374E-03 9.91551E-02-2.74664E-03
 -1       793 1.75226E-03 1.06239E-01-2.92366E-03
 -1       794-1.00874E-03 1.07348E-01-2.93824E-03
 -1       795-3.81576E-03 1.02145E-01-2.78515E-03
 -1       796-6.44971E-03 9.07839E-02-2.46998E-03
 -1       797-8.70882E-03 7.38907E-02-2.00954E-03
 -1       798-1.04209E-02 5.25065E-02-1.43126E-03
 -1       799-1.14536E-02 2.80120E-02-7.71644E-04
 -1       800-1.17227E-02 2.02855E-03-7.37617E-05
 -1       801-1.11967E-02-2.36942E-02 6.15645E-04
 -1       802-9.89798E-03-4.73983E-02 1.24937E-03
 -1       803-7.90052E-03-6.74360E-02 1.78293E-03
 -1       804-5.32403E-03-8.23787E-02 2.17747E-03
 -1       805-2.32468E-03-9.11098E-02 2.40236E-03
 -1       806 9.16671E-04-9.28934E-02 2.43728E-03
 -1       807 4.20827E-03-8.74148E-02 2.27374E-03
 -1       808 7.36231E-03-7.47892E-02 1.91600E-03
 -1       809 1.02101E-02-5.55363E-02 1.38104E-03
 -1       810 1.26164E-02-3.05234E-02 6.97165E-04
 -1       811 1.44925E-02-8.76605E-04-9.90413E-05
 -1       812 1.58064E-02 3.21325E-02-9.66384E-04
 -1       813 1.65909E-02 6.72214E-02-1.86041E-03
 -1       814 1.69498E-02 1.03240E-01-2.73587E-03
 -1       815-3.18011E-03 5.41358E-03-1.80232E-04
 -1       816-6.01873E-03 1.75185E-02-4.50939E-04
 -1       817-7.55824E-03 3.40002E-02-9.17052E-04
 -1       818-8.05736E-03 5.25097E-02-1.45457E-03
 -1       819-7.57742E-03 7.08139E-02-1.97783E-03
 -1       820-6.25059E-03 8.69205E-02-2.42259E-03
 -1       821-4.24374E-03 9.91551E-02-2.74664E-03
 -1       822-1.75226E-03 1.06239E-01-2.92366E-03
 -1       823 1.00874E-03 1.07348E-01-2.93824E-03
 -1       824 3.81576E-03 1.02145E-01-2.78515E-03
 -1       825 6.44971E-03 9.07839E-02-2.46998E-03
 -1       826 8.70882E-03 7.38907E-02-2.00954E-03
 -1       827 1.04209E-02 5.25065E-02-1.43126E-03
 -1       828 1.14536E-02 2.80120E-02-7.71644E-04
 -1       829 1.17227E-02 2.02855E-03-7.37617E-05
 -1       830 1.11967E-02-2.36942E-02 6.15645E-04
 -1       831 9.89798E-03-4.73983E-02 1.24937E-03
 -1       832 7.90052E-03-6.74360E-02 1.78293E-03
 -1       833 5.32403E-03-8.23787E-02 2.17747E-03
 -1       834 2.32468E-03-9.11098E-02 2.40236E-03
 -1       835-9.16671E-04-9.28934E-02 2.43728E-03
 -1       836-4.20827E-03-8.74148E-02 2.27374E-03
 -1       837-7.36231E-03-7.47892E-02 1.91600E-03
 -1       838-1.02101E-02-5.55363E-02 1.38104E-03
 -1       839-1.26164E-02-3.05234E-02 6.97165E-04
 -1       840-1.44925E-02-8.76605E-04-9.90412E-05
 -1       841-1.58064E-02 3.21325E-02-9.66384E-04
 -1       842-1.65909E-02 6.72214E-02-1.86041E-03
 -1       843-1.69498E-02 1.03240E-01-2.73587E-03
 -1       844-3.13210E-03 5.44812E-03-1.64953E-05
 -1       845-5.94646E-03 1.76420E-02-3.71642E-04
 -1       846-7.46872E-03 3.42589E-02-8.75548E-04
 -1       847-7.96570E-03 5.29271E-02-1.45480E-03
 -1       848-7.49492E-03 7.13869E-02-2.01484E-03
 -1       849-6.18512E-03 8.76260E-02-2.49051E-03
 -1       850-4.20040E-03 9.99573E-02-2.83814E-03
 -1       851-1.73421E-03 1.07094E-01-3.03041E-03
 -1       852 9.99915E-04 1.08208E-01-3.05134E-03
 -1       853 3.78015E-03 1.02960E-01-2.89563E-03
 -1       854 6.38916E-03 9.15075E-02-2.56932E-03
 -1       855 8.62692E-03 7.44794E-02-2.09016E-03
 -1       856 1.03228E-02 5.29256E-02-1.48701E-03
 -1       857 1.13457E-02 2.82374E-02-7.98127E-04
 -1       858 1.16122E-02 2.04915E-03-6.86414E-05
 -1       859 1.10910E-02-2.38761E-02 6.52547E-04
 -1       860 9.80439E-03-4.77664E-02 1.31610E-03
 -1       861 7.82568E-03-6.79609E-02 1.87554E-03
 -1       862 5.27341E-03-8.30197E-02 2.29036E-03
 -1       863 2.30228E-03-9.18172E-02 2.52870E-03
 -1       864-9.08652E-04-9.36115E-02 2.56950E-03
 -1       865-4.16959E-03-8.80856E-02 2.40413E-03
 -1       866-7.29479E-03-7.53559E-02 2.03734E-03
 -1       867-1.01175E-02-5.59472E-02 1.48716E-03
 -1       868-1.25040E-02-3.07351E-02 7.83500E-04
 -1       869-1.43668E-02-8.56283E-04-3.49688E-05
 -1       870-1.56744E-02 3.24056E-02-9.24680E-04
 -1       871-1.64603E-02 6.77538E-02-1.83810E-03
 -1       872-1.68269E-02 1.04024E-01-2.72756E-03
 -1       873-1.69498E-02 1.03240E-01 2.73587E-03
 -1       874-1.65909E-02 6.72214E-02 1.86041E-03
 -1       875-1.58064E-02 3.21325E-02 9.66384E-04
 -1       876-1.44925E-02-8.76605E-04 9.90413E-05
 -1       877-1.26164E-02-3.05234E-02-6.97165E-04
 -1       878-1.02101E-02-5.55363E-02-1.38104E-03
 -1       879-7.36231E-03-7.47892E-02-1.91600E-03
 -1       880-4.20827E-03-8.74148E-02-2.27374E-03
 -1       881-9.16671E-04-9.28934E-02-2.43728E-03
 -1       882 2.32468E-03-9.11098E-02-2.40236E-03
 -1       883 5.32403E-03-8.23787E-02-2.17747E-03
 -1       884 7.90052E-03-6.74360E-02-1.78293E-03
 -1       885 9.89798E-03-4.73983E-02-1.24937E-03
 -1       886 1.11967E-02-2.36942E-02-6.15645E-04
 -1       887 1.17227E-02 2.02855E-03 7.37616E-05
 -1       888 1.14536E-02 2.80120E-02 7.71644E-04
 -1       889 1.04209E-02 5.25065E-02 1.43126E-03
 -1       890 8.70882E-03 7.38907E-02 2.00954E-03
 -1       891 6.44971E-03 9.07839E-02 2.46998E-03
 -1       892 3.81576E-03 1.02145E-01 2.78515E-03
 -1       893 1.00874E-03 1.07348E-01 2.93824E-03
 -1       894-1.75226E-03 1.06239E-01 2.92366E-03
 -1       895-4.24374E-03 9.91551E-02 2.74664E-03
 -1       896-6.25059E-03 8.69205E-02 2.42259E-03
 -1       897-7.57742E-03 7.08139E-02 1.97783E-03
 -1       898-8.05736E-03 5.25097E-02 1.45457E-03
 -1       899-7.55824E-03 3.40002E-02 9.17052E-04
 -1       900-6.01873E-03 1.75185E-02 4.50939E-04
 -1       901-3.18011E-03 5.41358E-03 1.80232E-04
 -1       902-3.13210E-03 5.44812E-03 1.64953E-05
 -1       903-5.94646E-03 1.76420E-02 3.71642E-04
 -1       904-7.46872E-03 3.42589E-02 8.75548E-04
 -1       905-7.96570E-03 5.29271E-02 1.45480E-03
 -1       906-7.49492E-03 7.13869E-02 2.01484E-03
 -1       907-6.18512E-03 8.76260E-02 2.49051E-03
 -1       908-4.20040E-03 9.99573E-02 2.83814E-03
 -1       909-1.73421E-03 1.07094E-01 3.03041E-03
 -1       910 9.99915E-04 1.08208E-01 3.05134E-03
 -1       911 3.78015E-03 1.02960E-01 2.89563E-03
 -1       912 6.38916E-03 9.15075E-02 2.56932E-03
 -1       913 8.62692E-03 7.44794E-02 2.09016E-03
 -1       914 1.03228E-02 5.29256E-02 1.48701E-03
 -1       915 1.13457E-02 2.82374E-02 7.98127E-04
 -1       916 1.16122E-02 2.04915E-03 6.86413E-05
 -1       917 1.10910E-02-2.38761E-02-6.52547E-04
 -1       918 9.80439E-03-4.77664E-02-1.31610E-03
 -1       919 7.82568E-03-6.79609E-02-1.87554E-03
 -1       920 5.27341E-03-8.30197E-02-2.29036E-03
 -1       921 2.30228E-03-9.18172E-02-2.52870E-03
 -1       922-9.08652E-04-9.36115E-02-2.56950E-03
 -1       923-4.16959E-03-8.80856E-02-2.40413E-03
 -1       924-7.29479E-03-7.53559E-02-2.03734E-03
 -1       925-1.01175E-02-5.59472E-02-1.48716E-03
 -1       926-1.25040E-02-3.07351E-02-7.83500E-04
 -1       927-1.43668E-02-8.56283E-04 3.49688E-05
 -1       928-1.56744E-02 3.24056E-02 9.24680E-04
 -1       929-1.64603E-02 6.77538E-02 1.83810E-03
 -1       930-1.68269E-02 1.04024E-01 2.72756E-03
 -3
    1PSTEP                        22           1           1          
    1PGM                1.000000E+00                                  
    1PGK                2.304062E+06                                  
    1PHID                         -1                                  
    1PSUBC                         0                                  
    1PMODE                         6                                  
  100CL  106 241.5834526         930                     2    6MODAL      1
 -4  STRESS      6    1
 -5  SXX         1    4    1    1
 -5  SYY         1    4    2    2
 -5  SZZ         1    4    3    3
 -5  SXY         1    4    1    2
 -5  SYZ         1    4    2    3
 -5  SZX         1    4    3    1
 -1         1 1.04766E+09 4.49009E+08 4.49011E+08 4.18947E+09 5.01748E+01-1.15308E+06
 -1         2-1.04766E+09-4.49009E+08-4.49011E+08 4.18947E+09 5.01748E+01 1.15307E+06
 -1         3-1.95434E+07 6.24381E+06-7.15093E+07 2.01180E+08-1.81275E+08 1.01827E+08
 -1         4 1.95434E+07-6.24381E+06 7.15093E+07 2.01180E+08-1.81275E+08-1.01827E+08
 -1         5 1.04766E+09 4.49009E+08 4.49011E+08 4.18947E+09-5.01748E+01 1.15307E+06
 -1         6-1.04766E+09-4.49009E+08-4.49011E+08 4.18947E+09-5.01748E+01-1.15308E+06
 -1         7-1.95434E+07 6.24381E+06-7.15093E+07 2.01180E+08 1.81275E+08-1.01827E+08
 -1         8 1.95434E+07-6.24381E+06 7.15093E+07 2.01180E+08 1.81275E+08 1.01827E+08
 -1         9 8.36943E+08 3.58706E+08 3.58708E+08 4.17079E+09-1.07772E+03 6.27638E+06
 -1        10 1.55405E+07-1.15760E+07 1.03334E+07-6.07331E+07 1.72667E+07 7.43750E+07
 -1        11 1.89361E+10 8.11556E+09 8.11556E+09 4.94984E+09-5.88897E+02 3.08627E+08
 -1        12 1.88094E+10 8.06124E+09 8.06125E+09 4.97730E+09 6.42207E+02 2.76464E+07
 -1        13 3.33770E+08 6.37516E+07 9.65731E+07-1.06511E+08-2.71969E+07 5.53257E+07
 -1        14 3.90053E+08 1.41849E+08 1.36887E+08 2.19813E+08-3.04967E+07 6.47653E+07
 -1        15 8.36943E+08 3.58706E+08 3.58708E+08 4.17079E+09 1.07772E+03-6.27638E+06
 -1        16 1.55405E+07-1.15760E+07 1.03334E+07-6.07331E+07-1.72667E+07-7.43750E+07
 -1        17 1.88094E+10 8.06124E+09 8.06125E+09 4.97730E+09-6.42207E+02-2.76464E+07
 -1        18 1.89361E+10 8.11556E+09 8.11556E+09 4.94984E+09 5.88897E+02-3.08627E+08
 -1        19 3.90053E+08 1.41849E+08 1.36887E+08 2.19813E+08 3.04967E+07-6.47653E+07
 -1        20 3.33770E+08 6.37516E+07 9.65731E+07-1.06511E+08 2.71969E+07-5.53257E+07
 -1        21-1.88094E+10-8.06124E+09-8.06125E+09 4.97730E+09 6.42207E+02-2.76464E+07
 -1        22-1.89361E+10-8.11556E+09-8.11556E+09 4.94984E+09-5.88897E+02-3.08627E+08
 -1        23-3.33770E+08-6.37516E+07-9.65731E+07-1.06511E+08-2.71969E+07-5.53257E+07
 -1        24-3.90053E+08-1.41849E+08-1.36887E+08 2.19813E+08-3.04967E+07-6.47653E+07
 -1        25-8.36943E+08-3.58706E+08-3.58708E+08 4.17079E+09-1.07772E+03-6.27638E+06
 -1        26-1.55405E+07 1.15760E+07-1.03334E+07-6.07331E+07 1.72667E+07-7.43750E+07
 -1        27-8.36943E+08-3.58706E+08-3.58708E+08 4.17079E+09 1.07772E+03 6.27638E+06
 -1        28-1.89361E+10-8.11556E+09-8.11556E+09 4.94984E+09 5.88897E+02 3.08627E+08
 -1        29-1.88094E+10-8.06124E+09-8.06125E+09 4.97730E+09-6.42207E+02 2.76464E+07
 -1        30-1.55405E+07 1.15760E+07-1.03334E+07-6.07331E+07-1.72667E+07 7.43750E+07
 -1        31-3.33770E+08-6.37516E+07-9.65731E+07-1.06511E+08 2.71969E+07 5.53257E+07
 -1        32-3.90053E+08-1.41849E+08-1.36887E+08 2.19813E+08 3.04967E+07 6.47653E+07
 -1        33-5.64725E+08 2.58885E+08 6.01540E+06 6.80859E+08 6.47849E+07-3.23845E+08
 -1        34-3.79460E+08 1.40057E+08-6.58945E+07 6.79541E+08 9.41410E+06-2.78358E+08
 -1        35-1.62739E+08 6.58459E+07 1.75454E+07 6.67584E+08-2.33726E+07-2.81254E+08
 -1        36 3.96670E+07 2.41877E+07 6.59297E+07 6.21209E+08-6.17537E+07-2.62120E+08
 -1        37 2.26640E+08-1.32318E+07 1.31398E+08 5.38914E+08-9.48404E+07-2.27741E+08
 -1        38 3.84868E+08-4.22185E+07 1.86326E+08 4.33507E+08-1.21639E+08-1.82673E+08
 -1        39 5.04853E+08-6.47754E+07 2.27485E+08 3.06323E+08-1.41839E+08-1.28576E+08
 -1        40 5.81287E+08-8.06183E+07 2.51565E+08 1.66001E+08-1.53694E+08-6.83154E+07
 -1        41 6.11319E+08-8.85858E+07 2.58204E+08 1.97703E+07-1.56353E+08-5.25947E+06
 -1        42 5.94668E+08-8.83783E+07 2.47564E+08-1.23823E+08-1.49330E+08 5.68678E+07
 -1        43 5.33661E+08-8.02611E+07 2.20637E+08-2.56196E+08-1.32928E+08 1.14236E+08
 -1        44 4.33229E+08-6.51062E+07 1.79231E+08-3.69204E+08-1.08113E+08 1.63232E+08
 -1        45 3.00718E+08-4.42126E+07 1.26067E+08-4.55811E+08-7.64656E+07 2.00737E+08
 -1        46 1.45469E+08-1.91959E+07 6.46623E+07-5.10647E+08-4.00591E+07 2.24366E+08
 -1        47-2.17867E+07 8.12854E+06-8.72589E+05-5.30422E+08-1.32048E+06 2.32646E+08
 -1        48-1.89632E+08 3.58639E+07-6.61153E+07-5.14193E+08 3.71378E+07 2.25139E+08
 -1        49-3.46738E+08 6.21583E+07-1.26629E+08-4.63458E+08 7.26947E+07 2.02472E+08
 -1        50-4.82637E+08 8.53329E+07-1.78264E+08-3.82083E+08 1.02898E+08 1.66312E+08
 -1        51-5.88444E+08 1.04001E+08-2.17438E+08-2.76076E+08 1.25627E+08 1.19262E+08
 -1        52-6.57494E+08 1.17162E+08-2.41396E+08-1.53223E+08 1.39233E+08 6.46972E+07
 -1        53-6.85850E+08 1.24260E+08-2.48441E+08-2.26226E+07 1.42640E+08 6.56377E+06
 -1        54-6.72665E+08 1.25199E+08-2.38124E+08 1.05852E+08 1.35416E+08-5.08559E+07
 -1        55-6.20323E+08 1.20355E+08-2.11328E+08 2.22153E+08 1.17809E+08-1.03182E+08
 -1        56-5.34335E+08 1.10642E+08-1.70111E+08 3.16680E+08 9.08199E+07-1.46198E+08
 -1        57-4.22859E+08 9.78844E+07-1.17087E+08 3.81067E+08 5.61466E+07-1.76085E+08
 -1        58-2.95982E+08 8.47116E+07-5.49979E+07 4.08165E+08 1.66062E+07-1.90063E+08
 -1        59-1.66253E+08 7.42434E+07 1.29079E+07 3.94783E+08-2.59609E+07-1.86177E+08
 -1        60-4.81917E+07 6.62118E+07 7.56272E+07 3.30756E+08-6.88045E+07-1.66538E+08
 -1        61 2.54326E+07 4.64982E+07 1.11074E+08 2.43382E+08-1.15638E+08-1.27161E+08
 -1        62 5.64725E+08-2.58885E+08-6.01540E+06 6.80859E+08 6.47849E+07 3.23845E+08
 -1        63 3.79460E+08-1.40057E+08 6.58945E+07 6.79541E+08 9.41410E+06 2.78358E+08
 -1        64 1.62739E+08-6.58459E+07-1.75454E+07 6.67584E+08-2.33726E+07 2.81254E+08
 -1        65-3.96670E+07-2.41877E+07-6.59297E+07 6.21209E+08-6.17537E+07 2.62120E+08
 -1        66-2.26640E+08 1.32318E+07-1.31398E+08 5.38914E+08-9.48404E+07 2.27741E+08
 -1        67-3.84868E+08 4.22185E+07-1.86326E+08 4.33507E+08-1.21639E+08 1.82673E+08
 -1        68-5.04853E+08 6.47754E+07-2.27485E+08 3.06323E+08-1.41839E+08 1.28576E+08
 -1        69-5.81287E+08 8.06183E+07-2.51565E+08 1.66001E+08-1.53694E+08 6.83154E+07
 -1        70-6.11319E+08 8.85858E+07-2.58204E+08 1.97703E+07-1.56353E+08 5.25947E+06
 -1        71-5.94668E+08 8.83783E+07-2.47564E+08-1.23823E+08-1.49330E+08-5.68678E+07
 -1        72-5.33661E+08 8.02611E+07-2.20637E+08-2.56196E+08-1.32928E+08-1.14236E+08
 -1        73-4.33229E+08 6.51062E+07-1.79231E+08-3.69204E+08-1.08113E+08-1.63232E+08
 -1        74-3.00718E+08 4.42126E+07-1.26067E+08-4.55811E+08-7.64656E+07-2.00737E+08
 -1        75-1.45469E+08 1.91959E+07-6.46623E+07-5.10647E+08-4.00591E+07-2.24366E+08
 -1        76 2.17867E+07-8.12854E+06 8.72589E+05-5.30422E+08-1.32048E+06-2.32646E+08
 -1        77 1.89632E+08-3.58639E+07 6.61153E+07-5.14193E+08 3.71378E+07-2.25139E+08
 -1        78 3.46738E+08-6.21583E+07 1.26629E+08-4.63458E+08 7.26947E+07-2.02472E+08
 -1        79 4.82637E+08-8.53329E+07 1.78264E+08-3.82083E+08 1.02898E+08-1.66312E+08
 -1        80 5.88444E+08-1.04001E+08 2.17438E+08-2.76076E+08 1.25627E+08-1.19262E+08
 -1        81 6.57494E+08-1.17162E+08 2.41396E+08-1.53223E+08 1.39233E+08-6.46972E+07
 -1        82 6.85850E+08-1.24260E+08 2.48441E+08-2.26226E+07 1.42640E+08-6.56377E+06
 -1        83 6.72665E+08-1.25199E+08 2.38124E+08 1.05852E+08 1.35416E+08 5.08559E+07
 -1        84 6.20323E+08-1.20355E+08 2.11328E+08 2.22153E+08 1.17809E+08 1.03182E+08
 -1        85 5.34335E+08-1.10642E+08 1.70111E+08 3.16680E+08 9.08199E+07 1.46198E+08
 -1        86 4.22859E+08-9.78844E+07 1.17087E+08 3.81067E+08 5.61466E+07 1.76085E+08
 -1        87 2.95982E+08-8.47116E+07 5.49979E+07 4.08165E+08 1.66062E+07 1.90063E+08
 -1        88 1.66253E+08-7.42434E+07-1.29079E+07 3.94783E+08-2.59609E+07 1.86177E+08
 -1        89 4.81917E+07-6.62118E+07-7.56272E+07 3.30756E+08-6.88045E+07 1.66538E+08
 -1        90-2.54326E+07-4.64982E+07-1.11074E+08 2.43382E+08-1.15638E+08 1.27161E+08
 -1        91 1.18631E+09 5.08418E+08 5.08418E+08 4.09433E+09 3.61052E+02-3.72148E+06
 -1        92 1.15254E+09 4.93946E+08 4.93947E+08 4.07073E+09 1.35042E-07-6.15340E-01
 -1        93 1.18631E+09 5.08418E+08 5.08418E+08 4.09433E+09-3.61052E+02 3.72147E+06
 -1        94-1.18631E+09-5.08418E+08-5.08418E+08 4.09433E+09-3.61052E+02-3.72148E+06
 -1        95-1.15254E+09-4.93946E+08-4.93947E+08 4.07073E+09 1.86963E-07-6.12259E-01
 -1        96-1.18631E+09-5.08418E+08-5.08418E+08 4.09433E+09 3.61052E+02 3.72147E+06
 -1        97 5.64725E+08-2.58885E+08-6.01540E+06 6.80859E+08-6.47849E+07-3.23845E+08
 -1        98 3.79460E+08-1.40057E+08 6.58945E+07 6.79541E+08-9.41410E+06-2.78358E+08
 -1        99 1.62739E+08-6.58459E+07-1.75454E+07 6.67584E+08 2.33726E+07-2.81254E+08
 -1       100-3.96670E+07-2.41877E+07-6.59297E+07 6.21209E+08 6.17537E+07-2.62120E+08
 -1       101-2.26640E+08 1.32318E+07-1.31398E+08 5.38914E+08 9.48404E+07-2.27741E+08
 -1       102-3.84868E+08 4.22185E+07-1.86326E+08 4.33507E+08 1.21639E+08-1.82673E+08
 -1       103-5.04853E+08 6.47754E+07-2.27485E+08 3.06323E+08 1.41839E+08-1.28576E+08
 -1       104-5.81287E+08 8.06183E+07-2.51565E+08 1.66001E+08 1.53694E+08-6.83154E+07
 -1       105-6.11319E+08 8.85858E+07-2.58204E+08 1.97703E+07 1.56353E+08-5.25947E+06
 -1       106-5.94668E+08 8.83783E+07-2.47564E+08-1.23823E+08 1.49330E+08 5.68678E+07
 -1       107-5.33661E+08 8.02611E+07-2.20637E+08-2.56196E+08 1.32928E+08 1.14236E+08
 -1       108-4.33229E+08 6.51062E+07-1.79231E+08-3.69204E+08 1.08113E+08 1.63232E+08
 -1       109-3.00718E+08 4.42126E+07-1.26067E+08-4.55811E+08 7.64656E+07 2.00737E+08
 -1       110-1.45469E+08 1.91959E+07-6.46623E+07-5.10647E+08 4.00591E+07 2.24366E+08
 -1       111 2.17867E+07-8.12854E+06 8.72589E+05-5.30422E+08 1.32048E+06 2.32646E+08
 -1       112 1.89632E+08-3.58639E+07 6.61153E+07-5.14193E+08-3.71378E+07 2.25139E+08
 -1       113 3.46738E+08-6.21583E+07 1.26629E+08-4.63458E+08-7.26947E+07 2.02472E+08
 -1       114 4.82637E+08-8.53329E+07 1.78264E+08-3.82083E+08-1.02898E+08 1.66312E+08
 -1       115 5.88444E+08-1.04001E+08 2.17438E+08-2.76076E+08-1.25627E+08 1.19262E+08
 -1       116 6.57494E+08-1.17162E+08 2.41396E+08-1.53223E+08-1.39233E+08 6.46972E+07
 -1       117 6.85850E+08-1.24260E+08 2.48441E+08-2.26226E+07-1.42640E+08 6.56377E+06
 -1       118 6.72665E+08-1.25199E+08 2.38124E+08 1.05852E+08-1.35416E+08-5.08559E+07
 -1       119 6.20323E+08-1.20355E+08 2.11328E+08 2.22153E+08-1.17809E+08-1.03182E+08
 -1       120 5.34335E+08-1.10642E+08 1.70111E+08 3.16680E+08-9.08199E+07-1.46198E+08
 -1       121 4.22859E+08-9.78844E+07 1.17087E+08 3.81067E+08-5.61466E+07-1.76085E+08
 -1       122 2.95982E+08-8.47116E+07 5.49979E+07 4.08165E+08-1.66062E+07-1.90063E+08
 -1       123 1.66253E+08-7.42434E+07-1.29079E+07 3.94783E+08 2.59609E+07-1.86177E+08
 -1       124 4.81917E+07-6.62118E+07-7.56272E+07 3.30756E+08 6.88045E+07-1.66538E+08
 -1       125-2.54326E+07-4.64982E+07-1.11074E+08 2.43382E+08 1.15638E+08-1.27161E+08
 -1       126-2.02519E+08-2.10536E+08-4.99269E+08-6.52583E+07-4.18210E+08 1.07607E+08
 -1       127-2.80568E+08-2.94922E+08-7.02505E+08-4.64433E+07-8.15821E-03 1.04650E-02
 -1       128-2.02519E+08-2.10536E+08-4.99269E+08-6.52583E+07 4.18210E+08-1.07607E+08
 -1       129-5.64725E+08 2.58885E+08 6.01540E+06 6.80859E+08-6.47849E+07 3.23845E+08
 -1       130-3.79460E+08 1.40057E+08-6.58945E+07 6.79541E+08-9.41410E+06 2.78358E+08
 -1       131-1.62739E+08 6.58459E+07 1.75454E+07 6.67584E+08 2.33726E+07 2.81254E+08
 -1       132 3.96670E+07 2.41877E+07 6.59297E+07 6.21209E+08 6.17537E+07 2.62120E+08
 -1       133 2.26640E+08-1.32318E+07 1.31398E+08 5.38914E+08 9.48404E+07 2.27741E+08
 -1       134 3.84868E+08-4.22185E+07 1.86326E+08 4.33507E+08 1.21639E+08 1.82673E+08
 -1       135 5.04853E+08-6.47754E+07 2.27485E+08 3.06323E+08 1.41839E+08 1.28576E+08
 -1       136 5.81287E+08-8.06183E+07 2.51565E+08 1.66001E+08 1.53694E+08 6.83154E+07
 -1       137 6.11319E+08-8.85858E+07 2.58204E+08 1.97703E+07 1.56353E+08 5.25947E+06
 -1       138 5.94668E+08-8.83783E+07 2.47564E+08-1.23823E+08 1.49330E+08-5.68678E+07
 -1       139 5.33661E+08-8.02611E+07 2.20637E+08-2.56196E+08 1.32928E+08-1.14236E+08
 -1       140 4.33229E+08-6.51062E+07 1.79231E+08-3.69204E+08 1.08113E+08-1.63232E+08
 -1       141 3.00718E+08-4.42126E+07 1.26067E+08-4.55811E+08 7.64656E+07-2.00737E+08
 -1       142 1.45469E+08-1.91959E+07 6.46623E+07-5.10647E+08 4.00591E+07-2.24366E+08
 -1       143-2.17867E+07 8.12854E+06-8.72589E+05-5.30422E+08 1.32048E+06-2.32646E+08
 -1       144-1.89632E+08 3.58639E+07-6.61153E+07-5.14193E+08-3.71378E+07-2.25139E+08
 -1       145-3.46738E+08 6.21583E+07-1.26629E+08-4.63458E+08-7.26947E+07-2.02472E+08
 -1       146-4.82637E+08 8.53329E+07-1.78264E+08-3.82083E+08-1.02898E+08-1.66312E+08
 -1       147-5.88444E+08 1.04001E+08-2.17438E+08-2.76076E+08-1.25627E+08-1.19262E+08
 -1       148-6.57494E+08 1.17162E+08-2.41396E+08-1.53223E+08-1.39233E+08-6.46972E+07
 -1       149-6.85850E+08 1.24260E+08-2.48441E+08-2.26226E+07-1.42640E+08-6.56377E+06
 -1       150-6.72665E+08 1.25199E+08-2.38124E+08 1.05852E+08-1.35416E+08 5.08559E+07
 -1       151-6.20323E+08 1.20355E+08-2.11328E+08 2.22153E+08-1.17809E+08 1.03182E+08
 -1       152-5.34335E+08 1.10642E+08-1.70111E+08 3.16680E+08-9.08199E+07 1.46198E+08
 -1       153-4.22859E+08 9.78844E+07-1.17087E+08 3.81067E+08-5.61466E+07 1.76085E+08
 -1       154-2.95982E+08 8.47116E+07-5.49979E+07 4.08165E+08-1.66062E+07 1.90063E+08
 -1       155-1.66253E+08 7.42434E+07 1.29079E+07 3.94783E+08 2.59609E+07 1.86177E+08
 -1       156-4.81917E+07 6.62118E+07 7.56272E+07 3.30756E+08 6.88045E+07 1.66538E+08
 -1       157 2.54326E+07 4.64982E+07 1.11074E+08 2.43382E+08 1.15638E+08 1.27161E+08
 -1       158 2.02519E+08 2.10536E+08 4.99269E+08-6.52583E+07 4.18210E+08 1.07607E+08
 -1       159 2.80568E+08 2.94922E+08 7.02505E+08-4.64433E+07-9.09805E-03 5.65895E-02
 -1       160 2.02519E+08 2.10536E+08 4.99269E+08-6.52583E+07-4.18210E+08-1.07607E+08
 -1       161 3.51665E+08-5.68695E+08-2.08179E+08 1.51177E+09-9.72358E+07 4.58138E+08
 -1       162 3.48204E+08-2.75507E+08 2.92114E+07 1.24103E+09 5.36129E+06 3.67885E+08
 -1       163 1.46555E+08-1.24740E+08-3.42292E+07 1.17477E+09-5.94109E+06 3.70019E+08
 -1       164-8.76946E+06-2.75732E+05-2.69856E+07 1.06023E+09 2.89376E+07 3.41555E+08
 -1       165-1.53254E+08 1.21025E+08-4.81782E+07 9.12683E+08 5.40808E+07 2.97100E+08
 -1       166-2.75579E+08 2.20365E+08-6.49830E+07 7.35692E+08 7.96651E+07 2.38575E+08
 -1       167-3.68349E+08 2.96381E+08-7.75028E+07 5.30386E+08 9.77950E+07 1.69047E+08
 -1       168-4.27923E+08 3.45724E+08-8.37582E+07 3.06345E+08 1.08776E+08 9.20002E+07
 -1       169-4.52230E+08 3.66278E+08-8.44461E+07 7.49049E+07 1.11902E+08 1.17514E+07
 -1       170-4.41088E+08 3.57829E+08-7.99538E+07-1.51026E+08 1.07447E+08-6.70821E+07
 -1       171-3.96310E+08 3.21759E+08-7.07776E+07-3.58467E+08 9.58141E+07-1.39750E+08
 -1       172-3.21648E+08 2.61154E+08-5.74668E+07-5.35381E+08 7.78244E+07-2.01787E+08
 -1       173-2.22664E+08 1.80579E+08-4.08068E+07-6.71547E+08 5.46710E+07-2.49342E+08
 -1       174-1.06400E+08 8.58082E+07-2.18230E+07-7.59304E+08 2.78969E+07-2.79481E+08
 -1       175 1.90666E+07-1.65480E+07-1.73787E+06-7.94122E+08-7.01471E+05-2.90413E+08
 -1       176 1.45157E+08-1.19483E+08 1.81121E+07-7.74982E+08-2.91922E+07-2.81630E+08
 -1       177 2.63372E+08-2.16063E+08 3.63672E+07-7.04526E+08-5.56390E+07-2.53962E+08
 -1       178 3.65872E+08-2.99901E+08 5.17358E+07-5.88960E+08-7.82325E+07-2.09537E+08
 -1       179 4.46019E+08-3.65604E+08 6.30819E+07-4.37720E+08-9.54138E+07-1.51652E+08
 -1       180 4.98857E+08-4.09154E+08 6.95144E+07-2.62909E+08-1.05988E+08-8.45777E+07
 -1       181 5.21490E+08-4.28211E+08 7.04857E+07-7.85567E+07-1.09229E+08-1.32989E+07
 -1       182 5.13351E+08-4.22310E+08 6.58967E+07 1.00261E+08-1.04958E+08 5.67848E+07
 -1       183 4.76311E+08-3.92948E+08 5.61296E+07 2.58320E+08-9.35922E+07 1.20177E+08
 -1       184 4.14611E+08-3.43537E+08 4.19090E+07 3.81116E+08-7.60081E+07 1.71638E+08
 -1       185 3.34491E+08-2.79377E+08 2.37103E+07 4.55572E+08-5.34405E+07 2.06465E+08
 -1       186 2.43942E+08-2.07044E+08 1.57574E+06 4.70490E+08-2.66895E+07 2.21197E+08
 -1       187 1.52184E+08-1.35141E+08-2.48015E+07 4.17073E+08 1.87395E+06 2.12482E+08
 -1       188 7.29169E+07-7.15883E+07-4.56383E+07 2.86539E+08 2.96923E+07 1.82039E+08
 -1       189 2.02555E+07-2.13794E+07-4.93876E+07 7.12959E+07 4.15616E+07 1.17805E+08
 -1       190 8.98960E+09 3.85275E+09 3.85275E+09 4.37243E+09-4.27700E+02 1.45570E+08
 -1       191 8.85387E+09 3.79458E+09 3.79458E+09 4.40033E+09 7.04433E+02 1.33213E+07
 -1       192 2.10446E+08 1.65772E+07 1.81908E+07-6.36286E+07-3.08797E+07-2.46625E+07
 -1       193 1.16184E+10-6.54559E+08-2.12224E+09 5.93710E+08-1.77066E+08 8.78832E+07
 -1       194 9.08086E+09 1.11483E+09 7.51506E+08 3.22592E+08-6.32839E+07-8.10546E+06
 -1       195 4.16595E+09 3.34085E+08-1.50410E+07 3.01326E+08-4.39402E+07 1.11596E+07
 -1       196-1.33889E+07 3.77878E+07 7.17539E+07 2.49150E+08 4.22313E+06 9.61139E+06
 -1       197-3.84190E+09-3.14402E+08-4.12296E+07 2.13169E+08 4.01398E+07 1.50440E+07
 -1       198-7.02055E+09-5.86288E+08-8.92488E+07 1.71581E+08 7.19664E+07 1.39166E+07
 -1       199-9.45109E+09-7.98138E+08-1.34697E+08 1.28010E+08 9.57501E+07 9.77024E+06
 -1       200-1.10222E+10-9.34460E+08-1.62516E+08 8.13182E+07 1.11078E+08 3.74673E+06
 -1       201-1.16772E+10-9.92300E+08-1.75593E+08 3.37835E+07 1.17290E+08-2.75911E+06
 -1       202-1.14070E+10-9.70598E+08-1.73305E+08-1.21223E+07 1.14369E+08-9.03208E+06
 -1       203-1.02569E+10-8.73262E+08-1.56560E+08-5.39408E+07 1.02750E+08-1.46688E+07
 -1       204-8.32462E+09-7.08647E+08-1.26888E+08-8.95294E+07 8.33955E+07-1.93657E+07
 -1       205-5.75567E+09-4.89218E+08-8.66387E+07-1.17166E+08 5.77395E+07-2.28439E+07
 -1       206-2.73402E+09-2.30754E+08-3.87771E+07-1.35629E+08 2.76047E+07-2.48617E+07
 -1       207 5.29651E+08 4.86827E+07 1.33026E+07-1.44273E+08-4.91569E+06-2.52461E+07
 -1       208 3.81194E+09 3.29948E+08 6.60157E+07-1.43090E+08-3.75985E+07-2.39206E+07
 -1       209 6.89175E+09 5.94110E+08 1.15831E+08-1.32738E+08-6.82406E+07-2.09206E+07
 -1       210 9.56542E+09 8.23743E+08 1.59514E+08-1.14532E+08-9.48095E+07-1.63992E+07
 -1       211 1.16609E+10 1.00414E+09 1.94347E+08-9.03843E+07-1.15584E+08-1.06270E+07
 -1       212 1.30499E+10 1.12434E+09 2.18321E+08-6.26878E+07-1.29275E+08-3.98281E+06
 -1       213 1.36577E+10 1.17798E+09 2.30288E+08-3.41587E+07-1.35126E+08 3.07541E+06
 -1       214 1.34695E+10 1.16380E+09 2.30079E+08-7.65188E+06-1.32977E+08 1.00781E+07
 -1       215 1.25332E+10 1.08597E+09 2.18599E+08 1.39902E+07-1.23300E+08 1.66444E+07
 -1       216 1.09586E+10 9.54049E+08 1.97883E+08 2.79758E+07-1.07188E+08 2.25635E+07
 -1       217 8.91262E+09 7.82537E+08 1.70861E+08 3.15096E+07-8.62464E+07 2.75489E+07
 -1       218 6.61088E+09 5.90368E+08 1.41585E+08 2.20663E+07-6.25298E+07 3.08495E+07
 -1       219 4.30473E+09 3.98300E+08 1.12172E+08-2.18432E+06-3.84453E+07 3.16373E+07
 -1       220 2.27322E+09 2.29368E+08 9.41508E+07-4.29711E+07-1.73276E+07 2.95977E+07
 -1       221 8.56875E+08 1.37472E+08 9.38260E+07-8.42247E+07-5.63382E+05 4.16876E+07
 -1       222 1.14864E+10-7.08270E+08-2.17797E+09 6.38252E+08 1.70034E+08 2.79829E+07
 -1       223 8.96141E+09 1.05493E+09 6.97699E+08 4.55280E+08 6.68282E+07 9.69454E+07
 -1       224 4.10905E+09 3.08921E+08-3.96612E+07 4.88384E+08 4.32418E+07 7.27327E+07
 -1       225-8.57734E+06 3.89131E+07 7.35349E+07 4.57031E+08-3.14120E+06 7.63525E+07
 -1       226-3.79087E+09-2.96635E+08-2.05910E+07 4.05093E+08-3.62066E+07 7.03011E+07
 -1       227-6.94010E+09-5.58511E+08-5.67803E+07 3.23559E+08-6.57370E+07 5.89456E+07
 -1       228-9.35253E+09-7.64301E+08-9.49795E+07 2.25593E+08-8.80579E+07 4.17470E+07
 -1       229-1.09133E+10-8.96917E+08-1.18585E+08 1.16001E+08-1.02685E+08 2.15355E+07
 -1       230-1.15648E+10-9.53237E+08-1.30156E+08 1.49567E+06-1.08827E+08 2.39787E+05
 -1       231-1.12983E+10-9.32573E+08-1.29293E+08-1.11321E+08-1.06348E+08-2.05273E+07
 -1       232-1.01594E+10-8.39029E+08-1.17058E+08-2.15563E+08-9.56477E+07-3.95117E+07
 -1       233-8.24561E+09-6.80870E+08-9.48518E+07-3.04614E+08-7.76464E+07-5.55998E+07
 -1       234-5.70121E+09-4.70168E+08-6.45849E+07-3.72680E+08-5.37089E+07-6.78217E+07
 -1       235-2.70859E+09-2.22103E+08-2.85539E+07-4.15287E+08-2.55564E+07-7.54107E+07
 -1       236 5.23544E+08 4.59899E+07 1.06627E+07-4.29640E+08 4.84524E+06-7.78767E+07
 -1       237 3.77395E+09 3.15747E+08 5.03597E+07-4.14849E+08 3.54136E+07-7.50590E+07
 -1       238 6.82368E+09 5.69006E+08 8.78793E+07-3.71996E+08 6.40895E+07-6.71510E+07
 -1       239 9.47105E+09 7.89051E+08 1.20796E+08-3.04077E+08 8.89777E+07-5.46993E+07
 -1       240 1.15457E+10 9.61782E+08 1.47094E+08-2.15817E+08 1.08479E+08-3.85807E+07
 -1       241 1.29209E+10 1.07675E+09 1.65341E+08-1.13381E+08 1.21406E+08-1.99565E+07
 -1       242 1.35229E+10 1.12797E+09 1.74823E+08-4.02340E+06 1.27068E+08-1.95257E+05
 -1       243 1.33374E+10 1.11445E+09 1.75637E+08 1.04334E+08 1.25320E+08 1.92494E+07
 -1       244 1.24124E+10 1.04041E+09 1.68686E+08 2.03596E+08 1.16592E+08 3.69988E+07
 -1       245 1.08566E+10 9.15057E+08 1.55575E+08 2.86104E+08 1.01870E+08 5.18872E+07
 -1       246 8.83476E+09 7.52014E+08 1.38346E+08 3.45346E+08 8.27634E+07 6.27829E+07
 -1       247 6.56048E+09 5.68824E+08 1.20004E+08 3.76273E+08 6.13299E+07 6.82077E+07
 -1       248 4.28492E+09 3.86998E+08 1.02836E+08 3.74613E+08 4.03229E+07 6.70019E+07
 -1       249 2.28714E+09 2.28926E+08 9.81928E+07 3.36414E+08 2.01885E+07 5.80070E+07
 -1       250 8.87930E+08 1.48962E+08 1.06590E+08 2.67474E+08 8.56416E+06 5.81461E+07
 -1       251 2.75936E+08 1.48201E+08 7.73250E+07 3.07733E+08-2.89512E+07-2.05481E+07
 -1       252 2.02555E+07-2.13794E+07-4.93876E+07 7.12959E+07-4.15616E+07-1.17805E+08
 -1       253 7.29169E+07-7.15883E+07-4.56383E+07 2.86539E+08-2.96923E+07-1.82039E+08
 -1       254 1.52184E+08-1.35141E+08-2.48015E+07 4.17073E+08-1.87395E+06-2.12482E+08
 -1       255 2.43942E+08-2.07044E+08 1.57574E+06 4.70490E+08 2.66895E+07-2.21197E+08
 -1       256 3.34491E+08-2.79377E+08 2.37103E+07 4.55572E+08 5.34405E+07-2.06465E+08
 -1       257 4.14611E+08-3.43537E+08 4.19090E+07 3.81116E+08 7.60081E+07-1.71638E+08
 -1       258 4.76311E+08-3.92948E+08 5.61296E+07 2.58320E+08 9.35922E+07-1.20177E+08
 -1       259 5.13351E+08-4.22310E+08 6.58967E+07 1.00261E+08 1.04958E+08-5.67848E+07
 -1       260 5.21490E+08-4.28211E+08 7.04857E+07-7.85567E+07 1.09229E+08 1.32989E+07
 -1       261 4.98857E+08-4.09154E+08 6.95144E+07-2.62909E+08 1.05988E+08 8.45777E+07
 -1       262 4.46019E+08-3.65604E+08 6.30819E+07-4.37720E+08 9.54138E+07 1.51652E+08
 -1       263 3.65872E+08-2.99901E+08 5.17358E+07-5.88960E+08 7.82325E+07 2.09537E+08
 -1       264 2.63372E+08-2.16063E+08 3.63672E+07-7.04526E+08 5.56390E+07 2.53962E+08
 -1       265 1.45157E+08-1.19483E+08 1.81121E+07-7.74982E+08 2.91922E+07 2.81630E+08
 -1       266 1.90666E+07-1.65480E+07-1.73787E+06-7.94122E+08 7.01471E+05 2.90413E+08
 -1       267-1.06400E+08 8.58082E+07-2.18230E+07-7.59304E+08-2.78969E+07 2.79481E+08
 -1       268-2.22664E+08 1.80579E+08-4.08068E+07-6.71547E+08-5.46710E+07 2.49342E+08
 -1       269-3.21648E+08 2.61154E+08-5.74668E+07-5.35381E+08-7.78244E+07 2.01787E+08
 -1       270-3.96310E+08 3.21759E+08-7.07776E+07-3.58467E+08-9.58141E+07 1.39750E+08
 -1       271-4.41088E+08 3.57829E+08-7.99538E+07-1.51026E+08-1.07447E+08 6.70821E+07
 -1       272-4.52230E+08 3.66278E+08-8.44461E+07 7.49049E+07-1.11902E+08-1.17514E+07
 -1       273-4.27923E+08 3.45724E+08-8.37582E+07 3.06345E+08-1.08776E+08-9.20002E+07
 -1       274-3.68349E+08 2.96381E+08-7.75028E+07 5.30386E+08-9.77950E+07-1.69047E+08
 -1       275-2.75579E+08 2.20365E+08-6.49830E+07 7.35692E+08-7.96651E+07-2.38575E+08
 -1       276-1.53254E+08 1.21025E+08-4.81782E+07 9.12683E+08-5.40808E+07-2.97100E+08
 -1       277-8.76946E+06-2.75732E+05-2.69856E+07 1.06023E+09-2.89376E+07-3.41555E+08
 -1       278 1.46555E+08-1.24740E+08-3.42292E+07 1.17477E+09 5.94109E+06-3.70019E+08
 -1       279 3.48204E+08-2.75507E+08 2.92114E+07 1.24103E+09-5.36129E+06-3.67885E+08
 -1       280 3.51665E+08-5.68695E+08-2.08179E+08 1.51177E+09 9.72358E+07-4.58138E+08
 -1       281 8.85387E+09 3.79458E+09 3.79458E+09 4.40033E+09-7.04433E+02-1.33213E+07
 -1       282 8.98960E+09 3.85275E+09 3.85275E+09 4.37243E+09 4.27700E+02-1.45570E+08
 -1       283 1.14864E+10-7.08270E+08-2.17797E+09 6.38252E+08-1.70034E+08-2.79829E+07
 -1       284 8.96141E+09 1.05493E+09 6.97699E+08 4.55280E+08-6.68282E+07-9.69454E+07
 -1       285 4.10905E+09 3.08921E+08-3.96612E+07 4.88384E+08-4.32418E+07-7.27327E+07
 -1       286-8.57734E+06 3.89131E+07 7.35349E+07 4.57031E+08 3.14120E+06-7.63525E+07
 -1       287-3.79087E+09-2.96635E+08-2.05910E+07 4.05093E+08 3.62066E+07-7.03011E+07
 -1       288-6.94010E+09-5.58511E+08-5.67803E+07 3.23559E+08 6.57370E+07-5.89456E+07
 -1       289-9.35253E+09-7.64301E+08-9.49795E+07 2.25593E+08 8.80579E+07-4.17470E+07
 -1       290-1.09133E+10-8.96917E+08-1.18585E+08 1.16001E+08 1.02685E+08-2.15355E+07
 -1       291-1.15648E+10-9.53237E+08-1.30156E+08 1.49567E+06 1.08827E+08-2.39787E+05
 -1       292-1.12983E+10-9.32573E+08-1.29293E+08-1.11321E+08 1.06348E+08 2.05273E+07
 -1       293-1.01594E+10-8.39029E+08-1.17058E+08-2.15563E+08 9.56477E+07 3.95117E+07
 -1       294-8.24561E+09-6.80870E+08-9.48518E+07-3.04614E+08 7.76464E+07 5.55998E+07
 -1       295-5.70121E+09-4.70168E+08-6.45849E+07-3.72680E+08 5.37089E+07 6.78217E+07
 -1       296-2.70859E+09-2.22103E+08-2.85539E+07-4.15287E+08 2.55564E+07 7.54107E+07
 -1       297 5.23544E+08 4.59899E+07 1.06627E+07-4.29640E+08-4.84524E+06 7.78767E+07
 -1       298 3.77395E+09 3.15747E+08 5.03597E+07-4.14849E+08-3.54136E+07 7.50590E+07
 -1       299 6.82368E+09 5.69006E+08 8.78793E+07-3.71996E+08-6.40895E+07 6.71510E+07
 -1       300 9.47105E+09 7.89051E+08 1.20796E+08-3.04077E+08-8.89777E+07 5.46993E+07
 -1       301 1.15457E+10 9.61782E+08 1.47094E+08-2.15817E+08-1.08479E+08 3.85807E+07
 -1       302 1.29209E+10 1.07675E+09 1.65341E+08-1.13381E+08-1.21406E+08 1.99565E+07
 -1       303 1.35229E+10 1.12797E+09 1.74823E+08-4.02340E+06-1.27068E+08 1.95257E+05
 -1       304 1.33374E+10 1.11445E+09 1.75637E+08 1.04334E+08-1.25320E+08-1.92494E+07
 -1       305 1.24124E+10 1.04041E+09 1.68686E+08 2.03596E+08-1.16592E+08-3.69988E+07
 -1       306 1.08566E+10 9.15057E+08 1.55575E+08 2.86104E+08-1.01870E+08-5.18872E+07
 -1       307 8.83476E+09 7.52014E+08 1.38346E+08 3.45346E+08-8.27634E+07-6.27829E+07
 -1       308 6.56048E+09 5.68824E+08 1.20004E+08 3.76273E+08-6.13299E+07-6.82077E+07
 -1       309 4.28492E+09 3.86998E+08 1.02836E+08 3.74613E+08-4.03229E+07-6.70019E+07
 -1       310 2.28714E+09 2.28926E+08 9.81928E+07 3.36414E+08-2.01885E+07-5.80070E+07
 -1       311 8.87930E+08 1.48962E+08 1.06590E+08 2.67474E+08-8.56416E+06-5.81461E+07
 -1       312 2.75936E+08 1.48201E+08 7.73250E+07 3.07733E+08 2.89512E+07 2.05481E+07
 -1       313 1.16184E+10-6.54559E+08-2.12224E+09 5.93710E+08 1.77066E+08-8.78832E+07
 -1       314 9.08086E+09 1.11483E+09 7.51506E+08 3.22592E+08 6.32839E+07 8.10546E+06
 -1       315 4.16595E+09 3.34085E+08-1.50410E+07 3.01326E+08 4.39402E+07-1.11596E+07
 -1       316-1.33889E+07 3.77878E+07 7.17539E+07 2.49150E+08-4.22313E+06-9.61139E+06
 -1       317-3.84190E+09-3.14402E+08-4.12296E+07 2.13169E+08-4.01398E+07-1.50440E+07
 -1       318-7.02055E+09-5.86288E+08-8.92488E+07 1.71581E+08-7.19664E+07-1.39166E+07
 -1       319-9.45109E+09-7.98138E+08-1.34697E+08 1.28010E+08-9.57501E+07-9.77024E+06
 -1       320-1.10222E+10-9.34460E+08-1.62516E+08 8.13182E+07-1.11078E+08-3.74673E+06
 -1       321-1.16772E+10-9.92300E+08-1.75593E+08 3.37835E+07-1.17290E+08 2.75911E+06
 -1       322-1.14070E+10-9.70598E+08-1.73305E+08-1.21223E+07-1.14369E+08 9.03208E+06
 -1       323-1.02569E+10-8.73262E+08-1.56560E+08-5.39408E+07-1.02750E+08 1.46688E+07
 -1       324-8.32462E+09-7.08647E+08-1.26888E+08-8.95294E+07-8.33955E+07 1.93657E+07
 -1       325-5.75567E+09-4.89218E+08-8.66387E+07-1.17166E+08-5.77395E+07 2.28439E+07
 -1       326-2.73402E+09-2.30754E+08-3.87771E+07-1.35629E+08-2.76047E+07 2.48617E+07
 -1       327 5.29651E+08 4.86827E+07 1.33026E+07-1.44273E+08 4.91569E+06 2.52461E+07
 -1       328 3.81194E+09 3.29948E+08 6.60157E+07-1.43090E+08 3.75985E+07 2.39206E+07
 -1       329 6.89175E+09 5.94110E+08 1.15831E+08-1.32738E+08 6.82406E+07 2.09206E+07
 -1       330 9.56542E+09 8.23743E+08 1.59514E+08-1.14532E+08 9.48095E+07 1.63992E+07
 -1       331 1.16609E+10 1.00414E+09 1.94347E+08-9.03843E+07 1.15584E+08 1.06270E+07
 -1       332 1.30499E+10 1.12434E+09 2.18321E+08-6.26878E+07 1.29275E+08 3.98281E+06
 -1       333 1.36577E+10 1.17798E+09 2.30288E+08-3.41587E+07 1.35126E+08-3.07541E+06
 -1       334 1.34695E+10 1.16380E+09 2.30079E+08-7.65188E+06 1.32977E+08-1.00781E+07
 -1       335 1.25332E+10 1.08597E+09 2.18599E+08 1.39902E+07 1.23300E+08-1.66444E+07
 -1       336 1.09586E+10 9.54049E+08 1.97883E+08 2.79758E+07 1.07188E+08-2.25635E+07
 -1       337 8.91262E+09 7.82537E+08 1.70861E+08 3.15096E+07 8.62464E+07-2.75489E+07
 -1       338 6.61088E+09 5.90368E+08 1.41585E+08 2.20663E+07 6.25298E+07-3.08495E+07
 -1       339 4.30473E+09 3.98300E+08 1.12172E+08-2.18432E+06 3.84453E+07-3.16373E+07
 -1       340 2.27322E+09 2.29368E+08 9.41508E+07-4.29711E+07 1.73276E+07-2.95977E+07
 -1       341 8.56875E+08 1.37472E+08 9.38260E+07-8.42247E+07 5.63382E+05-4.16876E+07
 -1       342 2.10446E+08 1.65772E+07 1.81908E+07-6.36286E+07 3.08797E+07 2.46625E+07
 -1       343-1.16184E+10 6.54559E+08 2.12224E+09 5.93710E+08-1.77066E+08-8.78832E+07
 -1       344-9.08086E+09-1.11483E+09-7.51506E+08 3.22592E+08-6.32839E+07 8.10546E+06
 -1       345-4.16595E+09-3.34085E+08 1.50410E+07 3.01326E+08-4.39402E+07-1.11596E+07
 -1       346 1.33889E+07-3.77878E+07-7.17539E+07 2.49150E+08 4.22313E+06-9.61139E+06
 -1       347 3.84190E+09 3.14402E+08 4.12296E+07 2.13169E+08 4.01398E+07-1.50440E+07
 -1       348 7.02055E+09 5.86288E+08 8.92488E+07 1.71581E+08 7.19664E+07-1.39166E+07
 -1       349 9.45109E+09 7.98138E+08 1.34697E+08 1.28010E+08 9.57501E+07-9.77024E+06
 -1       350 1.10222E+10 9.34460E+08 1.62516E+08 8.13182E+07 1.11078E+08-3.74673E+06
 -1       351 1.16772E+10 9.92300E+08 1.75593E+08 3.37835E+07 1.17290E+08 2.75911E+06
 -1       352 1.14070E+10 9.70598E+08 1.73305E+08-1.21223E+07 1.14369E+08 9.03208E+06
 -1       353 1.02569E+10 8.73262E+08 1.56560E+08-5.39408E+07 1.02750E+08 1.46688E+07
 -1       354 8.32462E+09 7.08647E+08 1.26888E+08-8.95294E+07 8.33955E+07 1.93657E+07
 -1       355 5.75567E+09 4.89218E+08 8.66387E+07-1.17166E+08 5.77395E+07 2.28439E+07
 -1       356 2.73402E+09 2.30754E+08 3.87771E+07-1.35629E+08 2.76047E+07 2.48617E+07
 -1       357-5.29651E+08-4.86827E+07-1.33026E+07-1.44273E+08-4.91569E+06 2.52461E+07
 -1       358-3.81194E+09-3.29948E+08-6.60157E+07-1.43090E+08-3.75985E+07 2.39206E+07
 -1       359-6.89175E+09-5.94110E+08-1.15831E+08-1.32738E+08-6.82406E+07 2.09206E+07
 -1       360-9.56542E+09-8.23743E+08-1.59514E+08-1.14532E+08-9.48095E+07 1.63992E+07
 -1       361-1.16609E+10-1.00414E+09-1.94347E+08-9.03843E+07-1.15584E+08 1.06270E+07
 -1       362-1.30499E+10-1.12434E+09-2.18321E+08-6.26878E+07-1.29275E+08 3.98281E+06
 -1       363-1.36577E+10-1.17798E+09-2.30288E+08-3.41587E+07-1.35126E+08-3.07541E+06
 -1       364-1.34695E+10-1.16380E+09-2.30079E+08-7.65188E+06-1.32977E+08-1.00781E+07
 -1       365-1.25332E+10-1.08597E+09-2.18599E+08 1.39902E+07-1.23300E+08-1.66444E+07
 -1       366-1.09586E+10-9.54049E+08-1.97883E+08 2.79758E+07-1.07188E+08-2.25635E+07
 -1       367-8.91262E+09-7.82537E+08-1.70861E+08 3.15096E+07-8.62464E+07-2.75489E+07
 -1       368-6.61088E+09-5.90368E+08-1.41585E+08 2.20663E+07-6.25298E+07-3.08495E+07
 -1       369-4.30473E+09-3.98300E+08-1.12172E+08-2.18432E+06-3.84453E+07-3.16373E+07
 -1       370-2.27322E+09-2.29368E+08-9.41508E+07-4.29711E+07-1.73276E+07-2.95977E+07
 -1       371-8.56875E+08-1.37472E+08-9.38260E+07-8.42247E+07-5.63382E+05-4.16876E+07
 -1       372-1.14864E+10 7.08270E+08 2.17797E+09 6.38252E+08 1.70034E+08-2.79829E+07
 -1       373-8.96141E+09-1.05493E+09-6.97699E+08 4.55280E+08 6.68282E+07-9.69454E+07
 -1       374-4.10905E+09-3.08921E+08 3.96612E+07 4.88384E+08 4.32418E+07-7.27327E+07
 -1       375 8.57734E+06-3.89131E+07-7.35349E+07 4.57031E+08-3.14120E+06-7.63525E+07
 -1       376 3.79087E+09 2.96635E+08 2.05910E+07 4.05093E+08-3.62066E+07-7.03011E+07
 -1       377 6.94010E+09 5.58511E+08 5.67803E+07 3.23559E+08-6.57370E+07-5.89456E+07
 -1       378 9.35253E+09 7.64301E+08 9.49795E+07 2.25593E+08-8.80579E+07-4.17470E+07
 -1       379 1.09133E+10 8.96917E+08 1.18585E+08 1.16001E+08-1.02685E+08-2.15355E+07
 -1       380 1.15648E+10 9.53237E+08 1.30156E+08 1.49567E+06-1.08827E+08-2.39787E+05
 -1       381 1.12983E+10 9.32573E+08 1.29293E+08-1.11321E+08-1.06348E+08 2.05273E+07
 -1       382 1.01594E+10 8.39029E+08 1.17058E+08-2.15563E+08-9.56477E+07 3.95117E+07
 -1       383 8.24561E+09 6.80870E+08 9.48518E+07-3.04614E+08-7.76464E+07 5.55998E+07
 -1       384 5.70121E+09 4.70168E+08 6.45849E+07-3.72680E+08-5.37089E+07 6.78217E+07
 -1       385 2.70859E+09 2.22103E+08 2.85539E+07-4.15287E+08-2.55564E+07 7.54107E+07
 -1       386-5.23544E+08-4.59899E+07-1.06627E+07-4.29640E+08 4.84524E+06 7.78767E+07
 -1       387-3.77395E+09-3.15747E+08-5.03597E+07-4.14849E+08 3.54136E+07 7.50590E+07
 -1       388-6.82368E+09-5.69006E+08-8.78793E+07-3.71996E+08 6.40895E+07 6.71510E+07
 -1       389-9.47105E+09-7.89051E+08-1.20796E+08-3.04077E+08 8.89777E+07 5.46993E+07
 -1       390-1.15457E+10-9.61782E+08-1.47094E+08-2.15817E+08 1.08479E+08 3.85807E+07
 -1       391-1.29209E+10-1.07675E+09-1.65341E+08-1.13381E+08 1.21406E+08 1.99565E+07
 -1       392-1.35229E+10-1.12797E+09-1.74823E+08-4.02340E+06 1.27068E+08 1.95257E+05
 -1       393-1.33374E+10-1.11445E+09-1.75637E+08 1.04334E+08 1.25320E+08-1.92494E+07
 -1       394-1.24124E+10-1.04041E+09-1.68686E+08 2.03596E+08 1.16592E+08-3.69988E+07
 -1       395-1.08566E+10-9.15057E+08-1.55575E+08 2.86104E+08 1.01870E+08-5.18872E+07
 -1       396-8.83476E+09-7.52014E+08-1.38346E+08 3.45346E+08 8.27634E+07-6.27829E+07
 -1       397-6.56048E+09-5.68824E+08-1.20004E+08 3.76273E+08 6.13299E+07-6.82077E+07
 -1       398-4.28492E+09-3.86998E+08-1.02836E+08 3.74613E+08 4.03229E+07-6.70019E+07
 -1       399-2.28714E+09-2.28926E+08-9.81928E+07 3.36414E+08 2.01885E+07-5.80070E+07
 -1       400-8.87930E+08-1.48962E+08-1.06590E+08 2.67474E+08 8.56416E+06-5.81461E+07
 -1       401-8.98960E+09-3.85275E+09-3.85275E+09 4.37243E+09-4.27700E+02-1.45570E+08
 -1       402-8.85387E+09-3.79458E+09-3.79458E+09 4.40033E+09 7.04433E+02-1.33213E+07
 -1       403-2.10446E+08-1.65772E+07-1.81908E+07-6.36286E+07-3.08797E+07 2.46625E+07
 -1       404-3.51665E+08 5.68695E+08 2.08179E+08 1.51177E+09-9.72358E+07-4.58138E+08
 -1       405-3.48204E+08 2.75507E+08-2.92114E+07 1.24103E+09 5.36129E+06-3.67885E+08
 -1       406-1.46555E+08 1.24740E+08 3.42292E+07 1.17477E+09-5.94109E+06-3.70019E+08
 -1       407 8.76946E+06 2.75732E+05 2.69856E+07 1.06023E+09 2.89376E+07-3.41555E+08
 -1       408 1.53254E+08-1.21025E+08 4.81782E+07 9.12683E+08 5.40808E+07-2.97100E+08
 -1       409 2.75579E+08-2.20365E+08 6.49830E+07 7.35692E+08 7.96651E+07-2.38575E+08
 -1       410 3.68349E+08-2.96381E+08 7.75028E+07 5.30386E+08 9.77950E+07-1.69047E+08
 -1       411 4.27923E+08-3.45724E+08 8.37582E+07 3.06345E+08 1.08776E+08-9.20002E+07
 -1       412 4.52230E+08-3.66278E+08 8.44461E+07 7.49049E+07 1.11902E+08-1.17514E+07
 -1       413 4.41088E+08-3.57829E+08 7.99538E+07-1.51026E+08 1.07447E+08 6.70821E+07
 -1       414 3.96310E+08-3.21759E+08 7.07776E+07-3.58467E+08 9.58141E+07 1.39750E+08
 -1       415 3.21648E+08-2.61154E+08 5.74668E+07-5.35381E+08 7.78244E+07 2.01787E+08
 -1       416 2.22664E+08-1.80579E+08 4.08068E+07-6.71547E+08 5.46710E+07 2.49342E+08
 -1       417 1.06400E+08-8.58082E+07 2.18230E+07-7.59304E+08 2.78969E+07 2.79481E+08
 -1       418-1.90666E+07 1.65480E+07 1.73787E+06-7.94122E+08-7.01471E+05 2.90413E+08
 -1       419-1.45157E+08 1.19483E+08-1.81121E+07-7.74982E+08-2.91922E+07 2.81630E+08
 -1       420-2.63372E+08 2.16063E+08-3.63672E+07-7.04526E+08-5.56390E+07 2.53962E+08
 -1       421-3.65872E+08 2.99901E+08-5.17358E+07-5.88960E+08-7.82325E+07 2.09537E+08
 -1       422-4.46019E+08 3.65604E+08-6.30819E+07-4.37720E+08-9.54138E+07 1.51652E+08
 -1       423-4.98857E+08 4.09154E+08-6.95144E+07-2.62909E+08-1.05988E+08 8.45777E+07
 -1       424-5.21490E+08 4.28211E+08-7.04857E+07-7.85567E+07-1.09229E+08 1.32989E+07
 -1       425-5.13351E+08 4.22310E+08-6.58967E+07 1.00261E+08-1.04958E+08-5.67848E+07
 -1       426-4.76311E+08 3.92948E+08-5.61296E+07 2.58320E+08-9.35922E+07-1.20177E+08
 -1       427-4.14611E+08 3.43537E+08-4.19090E+07 3.81116E+08-7.60081E+07-1.71638E+08
 -1       428-3.34491E+08 2.79377E+08-2.37103E+07 4.55572E+08-5.34405E+07-2.06465E+08
 -1       429-2.43942E+08 2.07044E+08-1.57574E+06 4.70490E+08-2.66895E+07-2.21197E+08
 -1       430-1.52184E+08 1.35141E+08 2.48015E+07 4.17073E+08 1.87395E+06-2.12482E+08
 -1       431-7.29169E+07 7.15883E+07 4.56383E+07 2.86539E+08 2.96923E+07-1.82039E+08
 -1       432-2.02555E+07 2.13794E+07 4.93876E+07 7.12959E+07 4.15616E+07-1.17805E+08
 -1       433-2.75936E+08-1.48201E+08-7.73250E+07 3.07733E+08-2.89512E+07 2.05481E+07
 -1       434-8.98960E+09-3.85275E+09-3.85275E+09 4.37243E+09 4.27700E+02 1.45570E+08
 -1       435-8.85387E+09-3.79458E+09-3.79458E+09 4.40033E+09-7.04433E+02 1.33213E+07
 -1       436-2.02555E+07 2.13794E+07 4.93876E+07 7.12959E+07-4.15616E+07 1.17805E+08
 -1       437-7.29169E+07 7.15883E+07 4.56383E+07 2.86539E+08-2.96923E+07 1.82039E+08
 -1       438-1.52184E+08 1.35141E+08 2.48015E+07 4.17073E+08-1.87395E+06 2.12482E+08
 -1       439-2.43942E+08 2.07044E+08-1.57574E+06 4.70490E+08 2.66895E+07 2.21197E+08
 -1       440-3.34491E+08 2.79377E+08-2.37103E+07 4.55572E+08 5.34405E+07 2.06465E+08
 -1       441-4.14611E+08 3.43537E+08-4.19090E+07 3.81116E+08 7.60081E+07 1.71638E+08
 -1       442-4.76311E+08 3.92948E+08-5.61296E+07 2.58320E+08 9.35922E+07 1.20177E+08
 -1       443-5.13351E+08 4.22310E+08-6.58967E+07 1.00261E+08 1.04958E+08 5.67848E+07
 -1       444-5.21490E+08 4.28211E+08-7.04857E+07-7.85567E+07 1.09229E+08-1.32989E+07
 -1       445-4.98857E+08 4.09154E+08-6.95144E+07-2.62909E+08 1.05988E+08-8.45777E+07
 -1       446-4.46019E+08 3.65604E+08-6.30819E+07-4.37720E+08 9.54138E+07-1.51652E+08
 -1       447-3.65872E+08 2.99901E+08-5.17358E+07-5.88960E+08 7.82325E+07-2.09537E+08
 -1       448-2.63372E+08 2.16063E+08-3.63672E+07-7.04526E+08 5.56390E+07-2.53962E+08
 -1       449-1.45157E+08 1.19483E+08-1.81121E+07-7.74982E+08 2.91922E+07-2.81630E+08
 -1       450-1.90666E+07 1.65480E+07 1.73787E+06-7.94122E+08 7.01471E+05-2.90413E+08
 -1       451 1.06400E+08-8.58082E+07 2.18230E+07-7.59304E+08-2.78969E+07-2.79481E+08
 -1       452 2.22664E+08-1.80579E+08 4.08068E+07-6.71547E+08-5.46710E+07-2.49342E+08
 -1       453 3.21648E+08-2.61154E+08 5.74668E+07-5.35381E+08-7.78244E+07-2.01787E+08
 -1       454 3.96310E+08-3.21759E+08 7.07776E+07-3.58467E+08-9.58141E+07-1.39750E+08
 -1       455 4.41088E+08-3.57829E+08 7.99538E+07-1.51026E+08-1.07447E+08-6.70821E+07
 -1       456 4.52230E+08-3.66278E+08 8.44461E+07 7.49049E+07-1.11902E+08 1.17514E+07
 -1       457 4.27923E+08-3.45724E+08 8.37582E+07 3.06345E+08-1.08776E+08 9.20002E+07
 -1       458 3.68349E+08-2.96381E+08 7.75028E+07 5.30386E+08-9.77950E+07 1.69047E+08
 -1       459 2.75579E+08-2.20365E+08 6.49830E+07 7.35692E+08-7.96651E+07 2.38575E+08
 -1       460 1.53254E+08-1.21025E+08 4.81782E+07 9.12683E+08-5.40808E+07 2.97100E+08
 -1       461 8.76946E+06 2.75732E+05 2.69856E+07 1.06023E+09-2.89376E+07 3.41555E+08
 -1       462-1.46555E+08 1.24740E+08 3.42292E+07 1.17477E+09 5.94109E+06 3.70019E+08
 -1       463-3.48204E+08 2.75507E+08-2.92114E+07 1.24103E+09-5.36129E+06 3.67885E+08
 -1       464-3.51665E+08 5.68695E+08 2.08179E+08 1.51177E+09 9.72358E+07 4.58138E+08
 -1       465-2.10446E+08-1.65772E+07-1.81908E+07-6.36286E+07 3.08797E+07-2.46625E+07
 -1       466-1.16184E+10 6.54559E+08 2.12224E+09 5.93710E+08 1.77066E+08 8.78832E+07
 -1       467-9.08086E+09-1.11483E+09-7.51506E+08 3.22592E+08 6.32839E+07-8.10546E+06
 -1       468-4.16595E+09-3.34085E+08 1.50410E+07 3.01326E+08 4.39402E+07 1.11596E+07
 -1       469 1.33889E+07-3.77878E+07-7.17539E+07 2.49150E+08-4.22313E+06 9.61139E+06
 -1       470 3.84190E+09 3.14402E+08 4.12296E+07 2.13169E+08-4.01398E+07 1.50440E+07
 -1       471 7.02055E+09 5.86288E+08 8.92488E+07 1.71581E+08-7.19664E+07 1.39166E+07
 -1       472 9.45109E+09 7.98138E+08 1.34697E+08 1.28010E+08-9.57501E+07 9.77024E+06
 -1       473 1.10222E+10 9.34460E+08 1.62516E+08 8.13182E+07-1.11078E+08 3.74673E+06
 -1       474 1.16772E+10 9.92300E+08 1.75593E+08 3.37835E+07-1.17290E+08-2.75911E+06
 -1       475 1.14070E+10 9.70598E+08 1.73305E+08-1.21223E+07-1.14369E+08-9.03208E+06
 -1       476 1.02569E+10 8.73262E+08 1.56560E+08-5.39408E+07-1.02750E+08-1.46688E+07
 -1       477 8.32462E+09 7.08647E+08 1.26888E+08-8.95294E+07-8.33955E+07-1.93657E+07
 -1       478 5.75567E+09 4.89218E+08 8.66387E+07-1.17166E+08-5.77395E+07-2.28439E+07
 -1       479 2.73402E+09 2.30754E+08 3.87771E+07-1.35629E+08-2.76047E+07-2.48617E+07
 -1       480-5.29651E+08-4.86827E+07-1.33026E+07-1.44273E+08 4.91569E+06-2.52461E+07
 -1       481-3.81194E+09-3.29948E+08-6.60157E+07-1.43090E+08 3.75985E+07-2.39206E+07
 -1       482-6.89175E+09-5.94110E+08-1.15831E+08-1.32738E+08 6.82406E+07-2.09206E+07
 -1       483-9.56542E+09-8.23743E+08-1.59514E+08-1.14532E+08 9.48095E+07-1.63992E+07
 -1       484-1.16609E+10-1.00414E+09-1.94347E+08-9.03843E+07 1.15584E+08-1.06270E+07
 -1       485-1.30499E+10-1.12434E+09-2.18321E+08-6.26878E+07 1.29275E+08-3.98281E+06
 -1       486-1.36577E+10-1.17798E+09-2.30288E+08-3.41587E+07 1.35126E+08 3.07541E+06
 -1       487-1.34695E+10-1.16380E+09-2.30079E+08-7.65188E+06 1.32977E+08 1.00781E+07
 -1       488-1.25332E+10-1.08597E+09-2.18599E+08 1.39902E+07 1.23300E+08 1.66444E+07
 -1       489-1.09586E+10-9.54049E+08-1.97883E+08 2.79758E+07 1.07188E+08 2.25635E+07
 -1       490-8.91262E+09-7.82537E+08-1.70861E+08 3.15096E+07 8.62464E+07 2.75489E+07
 -1       491-6.61088E+09-5.90368E+08-1.41585E+08 2.20663E+07 6.25298E+07 3.08495E+07
 -1       492-4.30473E+09-3.98300E+08-1.12172E+08-2.18432E+06 3.84453E+07 3.16373E+07
 -1       493-2.27322E+09-2.29368E+08-9.41508E+07-4.29711E+07 1.73276E+07 2.95977E+07
 -1       494-8.56875E+08-1.37472E+08-9.38260E+07-8.42247E+07 5.63382E+05 4.16876E+07
 -1       495-1.14864E+10 7.08270E+08 2.17797E+09 6.38252E+08-1.70034E+08 2.79829E+07
 -1       496-8.96141E+09-1.05493E+09-6.97699E+08 4.55280E+08-6.68282E+07 9.69454E+07
 -1       497-4.10905E+09-3.08921E+08 3.96612E+07 4.88384E+08-4.32418E+07 7.27327E+07
 -1       498 8.57734E+06-3.89131E+07-7.35349E+07 4.57031E+08 3.14120E+06 7.63525E+07
 -1       499 3.79087E+09 2.96635E+08 2.05910E+07 4.05093E+08 3.62066E+07 7.03010E+07
 -1       500 6.94010E+09 5.58511E+08 5.67803E+07 3.23559E+08 6.57370E+07 5.89456E+07
 -1       501 9.35253E+09 7.64301E+08 9.49795E+07 2.25593E+08 8.80579E+07 4.17470E+07
 -1       502 1.09133E+10 8.96917E+08 1.18585E+08 1.16001E+08 1.02685E+08 2.15355E+07
 -1       503 1.15648E+10 9.53237E+08 1.30156E+08 1.49567E+06 1.08827E+08 2.39787E+05
 -1       504 1.12983E+10 9.32573E+08 1.29293E+08-1.11321E+08 1.06348E+08-2.05273E+07
 -1       505 1.01594E+10 8.39029E+08 1.17058E+08-2.15563E+08 9.56477E+07-3.95117E+07
 -1       506 8.24561E+09 6.80870E+08 9.48518E+07-3.04614E+08 7.76464E+07-5.55998E+07
 -1       507 5.70121E+09 4.70168E+08 6.45849E+07-3.72680E+08 5.37089E+07-6.78217E+07
 -1       508 2.70859E+09 2.22103E+08 2.85539E+07-4.15287E+08 2.55564E+07-7.54107E+07
 -1       509-5.23544E+08-4.59899E+07-1.06627E+07-4.29640E+08-4.84524E+06-7.78767E+07
 -1       510-3.77395E+09-3.15747E+08-5.03597E+07-4.14849E+08-3.54136E+07-7.50590E+07
 -1       511-6.82368E+09-5.69006E+08-8.78793E+07-3.71996E+08-6.40895E+07-6.71510E+07
 -1       512-9.47105E+09-7.89051E+08-1.20796E+08-3.04077E+08-8.89777E+07-5.46993E+07
 -1       513-1.15457E+10-9.61782E+08-1.47094E+08-2.15817E+08-1.08479E+08-3.85807E+07
 -1       514-1.29209E+10-1.07675E+09-1.65341E+08-1.13381E+08-1.21406E+08-1.99565E+07
 -1       515-1.35229E+10-1.12797E+09-1.74823E+08-4.02340E+06-1.27068E+08-1.95257E+05
 -1       516-1.33374E+10-1.11445E+09-1.75637E+08 1.04334E+08-1.25320E+08 1.92494E+07
 -1       517-1.24124E+10-1.04041E+09-1.68686E+08 2.03596E+08-1.16592E+08 3.69988E+07
 -1       518-1.08566E+10-9.15057E+08-1.55575E+08 2.86104E+08-1.01870E+08 5.18872E+07
 -1       519-8.83476E+09-7.52014E+08-1.38346E+08 3.45346E+08-8.27634E+07 6.27829E+07
 -1       520-6.56048E+09-5.68824E+08-1.20004E+08 3.76273E+08-6.13299E+07 6.82077E+07
 -1       521-4.28492E+09-3.86998E+08-1.02836E+08 3.74613E+08-4.03229E+07 6.70019E+07
 -1       522-2.28714E+09-2.28926E+08-9.81928E+07 3.36414E+08-2.01885E+07 5.80070E+07
 -1       523-8.87930E+08-1.48962E+08-1.06590E+08 2.67474E+08-8.56416E+06 5.81461E+07
 -1       524-2.75936E+08-1.48201E+08-7.73250E+07 3.07733E+08 2.89512E+07-2.05481E+07
 -1       525 9.69643E+08 4.16091E+08 4.17328E+08-6.14141E+08 2.28645E+07 2.26269E+07
 -1       526 5.59020E+08 2.28173E+08 2.01556E+08-5.19254E+08-5.99033E+06 5.52331E+07
 -1       527 2.04237E+08 5.88219E+07-8.16419E+06-4.68413E+08-7.88572E+07 6.51804E+07
 -1       528-1.18423E+08-9.84709E+07-2.09814E+08-4.24819E+08-1.44925E+08 6.24845E+07
 -1       529-4.03573E+08-2.38342E+08-3.90900E+08-3.65120E+08-2.00291E+08 5.43110E+07
 -1       530-6.41316E+08-3.55096E+08-5.42337E+08-2.94080E+08-2.45244E+08 4.30076E+07
 -1       531-8.22244E+08-4.43516E+08-6.56141E+08-2.09374E+08-2.78570E+08 2.87085E+07
 -1       532-9.37341E+08-4.98879E+08-7.25590E+08-1.15298E+08-2.97629E+08 1.21285E+07
 -1       533-9.81089E+08-5.18254E+08-7.46426E+08-1.68989E+07-3.00258E+08-5.75282E+06
 -1       534-9.52133E+08-5.00845E+08-7.17350E+08 7.98986E+07-2.85439E+08-2.37180E+07
 -1       535-8.53650E+08-4.48184E+08-6.40296E+08 1.69210E+08-2.53554E+08-4.04898E+07
 -1       536-6.93201E+08-3.64074E+08-5.20379E+08 2.45517E+08-2.06329E+08-5.48535E+07
 -1       537-4.82299E+08-2.54373E+08-3.65611E+08 3.04089E+08-1.46658E+08-6.57514E+07
 -1       538-2.35676E+08-1.26621E+08-1.86393E+08 3.41335E+08-7.83720E+07-7.23595E+07
 -1       539 2.96843E+07 1.04593E+07 5.17992E+06 3.55075E+08-5.97535E+06-7.41463E+07
 -1       540 2.95693E+08 1.47548E+08 1.96135E+08 3.44708E+08 6.56665E+07-7.09091E+07
 -1       541 5.44379E+08 2.75365E+08 3.73503E+08 3.11272E+08 1.31657E+08-6.27857E+07
 -1       542 7.59113E+08 3.85295E+08 5.25204E+08 2.57393E+08 1.87399E+08-5.02409E+07
 -1       543 9.25753E+08 4.69982E+08 6.40853E+08 1.87117E+08 2.28898E+08-3.40316E+07
 -1       544 1.03362E+09 5.23829E+08 7.12476E+08 1.05664E+08 2.53017E+08-1.51533E+07
 -1       545 1.07626E+09 5.43391E+08 7.35044E+08 1.90841E+07 2.57661E+08 5.22274E+06
 -1       546 1.05192E+09 5.27629E+08 7.06849E+08-6.61216E+07 2.41890E+08 2.58113E+07
 -1       547 9.63751E+08 4.78031E+08 6.29686E+08-1.43372E+08 2.06000E+08 4.52582E+07
 -1       548 8.19833E+08 3.98616E+08 5.08886E+08-2.06281E+08 1.51673E+08 6.21735E+07
 -1       549 6.33105E+08 2.95906E+08 3.53249E+08-2.48586E+08 8.22053E+07 7.52378E+07
 -1       550 4.21745E+08 1.79023E+08 1.75000E+08-2.63432E+08 2.43631E+06 8.35362E+07
 -1       551 2.08086E+08 5.89587E+07-1.15567E+07-2.46557E+08-8.22109E+07 8.75861E+07
 -1       552 1.92856E+07-5.14642E+07-1.90833E+08-1.89076E+08-1.71163E+08 9.10365E+07
 -1       553-1.18045E+08-1.40767E+08-3.51177E+08-9.65621E+07-2.84165E+08 1.00133E+08
 -1       554 9.79601E+08 4.23250E+08 4.31231E+08-3.21886E+08 7.33310E-03-6.03500E-01
 -1       555 5.85704E+08 2.38944E+08 2.10774E+08-3.37888E+08 1.09742E-02-6.79732E-01
 -1       556 1.92362E+08 4.42417E+07-4.48902E+07-2.79716E+08 1.32100E-02-7.04255E-01
 -1       557-1.51481E+08-1.30102E+08-2.82190E+08-2.34734E+08 1.06786E-02-6.92305E-01
 -1       558-4.48964E+08-2.81933E+08-4.90813E+08-2.01996E+08 5.32055E-03-6.64057E-01
 -1       559-6.97668E+08-4.08805E+08-6.65014E+08-1.63102E+08 7.40832E-03-6.27986E-01
 -1       560-8.86965E+08-5.04831E+08-7.95804E+08-1.16901E+08 1.66606E-02-5.78021E-01
 -1       561-1.00718E+09-5.64688E+08-8.75112E+08-6.48461E+07 8.71646E-03-5.25686E-01
 -1       562-1.05204E+09-5.84857E+08-8.97484E+08-1.01034E+07 9.61375E-03-4.69598E-01
 -1       563-1.01988E+09-5.64289E+08-8.61084E+08 4.39219E+07 5.46217E-03-3.99479E-01
 -1       564-9.13952E+08-5.04594E+08-7.68029E+08 9.38305E+07-8.60691E-05-3.24149E-01
 -1       565-7.42240E+08-4.09964E+08-6.24308E+08 1.36514E+08-5.15449E-03-2.56126E-01
 -1       566-5.16963E+08-2.86909E+08-4.39399E+08 1.69318E+08-9.53308E-03-1.90891E-01
 -1       567-2.53791E+08-1.43830E+08-2.25643E+08 1.90228E+08-9.45719E-03-1.23783E-01
 -1       568 2.91955E+07 9.53259E+06 2.57982E+06 1.98026E+08-8.63736E-03-4.97808E-02
 -1       569 3.12718E+08 1.62766E+08 2.29834E+08 1.92378E+08-1.46749E-02 3.29849E-02
 -1       570 5.77611E+08 3.05485E+08 4.40673E+08 1.73872E+08-2.31369E-02 1.07373E-01
 -1       571 8.06130E+08 4.28045E+08 6.20687E+08 1.43976E+08-2.87267E-02 1.67372E-01
 -1       572 9.83168E+08 5.22193E+08 7.57475E+08 1.04950E+08-3.50350E-02 2.16754E-01
 -1       573 1.09729E+09 5.81629E+08 8.41475E+08 5.96907E+07-2.78299E-02 2.57272E-01
 -1       574 1.14153E+09 6.02439E+08 8.66601E+08 1.15296E+07-2.36207E-02 2.92735E-01
 -1       575 1.11388E+09 5.83362E+08 8.30658E+08-3.60052E+07-2.47635E-02 3.17224E-01
 -1       576 1.01750E+09 5.25917E+08 7.35556E+08-7.93940E+07-2.11341E-02 3.27166E-01
 -1       577 8.60761E+08 4.34458E+08 5.87431E+08-1.15068E+08-8.72701E-04 3.20536E-01
 -1       578 6.57424E+08 3.16256E+08 3.96762E+08-1.39020E+08 9.36738E-03 2.93586E-01
 -1       579 4.27038E+08 1.81599E+08 1.78292E+08-1.46250E+08 6.69595E-04 2.48093E-01
 -1       580 1.96492E+08 4.41108E+07-4.94556E+07-1.27612E+08-8.47620E-03 1.87904E-01
 -1       581-4.80666E+06-8.24232E+07-2.69937E+08-8.38527E+07-3.15422E-03 1.16363E-01
 -1       582-1.63860E+08-1.94407E+08-4.84165E+08-3.77996E+07-1.15430E-03 4.69151E-02
 -1       583 9.69643E+08 4.16091E+08 4.17328E+08-6.14141E+08-2.28645E+07-2.26269E+07
 -1       584 5.59020E+08 2.28173E+08 2.01556E+08-5.19254E+08 5.99033E+06-5.52331E+07
 -1       585 2.04237E+08 5.88219E+07-8.16419E+06-4.68413E+08 7.88572E+07-6.51804E+07
 -1       586-1.18423E+08-9.84709E+07-2.09814E+08-4.24819E+08 1.44925E+08-6.24845E+07
 -1       587-4.03573E+08-2.38342E+08-3.90900E+08-3.65120E+08 2.00291E+08-5.43110E+07
 -1       588-6.41316E+08-3.55096E+08-5.42337E+08-2.94080E+08 2.45244E+08-4.30076E+07
 -1       589-8.22244E+08-4.43516E+08-6.56141E+08-2.09374E+08 2.78570E+08-2.87085E+07
 -1       590-9.37341E+08-4.98879E+08-7.25590E+08-1.15298E+08 2.97629E+08-1.21285E+07
 -1       591-9.81089E+08-5.18254E+08-7.46426E+08-1.68989E+07 3.00258E+08 5.75282E+06
 -1       592-9.52133E+08-5.00845E+08-7.17350E+08 7.98986E+07 2.85439E+08 2.37180E+07
 -1       593-8.53650E+08-4.48184E+08-6.40296E+08 1.69210E+08 2.53554E+08 4.04898E+07
 -1       594-6.93201E+08-3.64074E+08-5.20379E+08 2.45517E+08 2.06329E+08 5.48535E+07
 -1       595-4.82299E+08-2.54373E+08-3.65611E+08 3.04089E+08 1.46658E+08 6.57514E+07
 -1       596-2.35676E+08-1.26621E+08-1.86393E+08 3.41335E+08 7.83720E+07 7.23595E+07
 -1       597 2.96843E+07 1.04593E+07 5.17992E+06 3.55075E+08 5.97535E+06 7.41463E+07
 -1       598 2.95693E+08 1.47548E+08 1.96135E+08 3.44708E+08-6.56665E+07 7.09091E+07
 -1       599 5.44379E+08 2.75365E+08 3.73503E+08 3.11272E+08-1.31657E+08 6.27857E+07
 -1       600 7.59113E+08 3.85295E+08 5.25204E+08 2.57393E+08-1.87399E+08 5.02409E+07
 -1       601 9.25753E+08 4.69982E+08 6.40853E+08 1.87117E+08-2.28898E+08 3.40316E+07
 -1       602 1.03362E+09 5.23829E+08 7.12476E+08 1.05664E+08-2.53017E+08 1.51533E+07
 -1       603 1.07626E+09 5.43391E+08 7.35044E+08 1.90841E+07-2.57661E+08-5.22274E+06
 -1       604 1.05192E+09 5.27629E+08 7.06849E+08-6.61216E+07-2.41890E+08-2.58113E+07
 -1       605 9.63751E+08 4.78031E+08 6.29686E+08-1.43372E+08-2.06000E+08-4.52582E+07
 -1       606 8.19833E+08 3.98616E+08 5.08886E+08-2.06281E+08-1.51673E+08-6.21735E+07
 -1       607 6.33105E+08 2.95906E+08 3.53249E+08-2.48586E+08-8.22053E+07-7.52378E+07
 -1       608 4.21745E+08 1.79023E+08 1.75000E+08-2.63432E+08-2.43631E+06-8.35362E+07
 -1       609 2.08086E+08 5.89587E+07-1.15567E+07-2.46557E+08 8.22109E+07-8.75861E+07
 -1       610 1.92856E+07-5.14642E+07-1.90833E+08-1.89076E+08 1.71163E+08-9.10365E+07
 -1       611-1.18045E+08-1.40767E+08-3.51177E+08-9.65621E+07 2.84165E+08-1.00133E+08
 -1       612-9.69643E+08-4.16091E+08-4.17328E+08-6.14141E+08-2.28645E+07 2.26269E+07
 -1       613-5.59020E+08-2.28173E+08-2.01556E+08-5.19254E+08 5.99033E+06 5.52331E+07
 -1       614-2.04237E+08-5.88219E+07 8.16419E+06-4.68413E+08 7.88572E+07 6.51804E+07
 -1       615 1.18423E+08 9.84709E+07 2.09814E+08-4.24819E+08 1.44925E+08 6.24845E+07
 -1       616 4.03573E+08 2.38342E+08 3.90900E+08-3.65120E+08 2.00291E+08 5.43110E+07
 -1       617 6.41316E+08 3.55096E+08 5.42337E+08-2.94080E+08 2.45244E+08 4.30076E+07
 -1       618 8.22244E+08 4.43516E+08 6.56141E+08-2.09374E+08 2.78570E+08 2.87085E+07
 -1       619 9.37341E+08 4.98879E+08 7.25590E+08-1.15298E+08 2.97629E+08 1.21285E+07
 -1       620 9.81089E+08 5.18254E+08 7.46426E+08-1.68989E+07 3.00258E+08-5.75282E+06
 -1       621 9.52133E+08 5.00845E+08 7.17350E+08 7.98986E+07 2.85439E+08-2.37180E+07
 -1       622 8.53650E+08 4.48184E+08 6.40296E+08 1.69210E+08 2.53554E+08-4.04898E+07
 -1       623 6.93201E+08 3.64074E+08 5.20379E+08 2.45517E+08 2.06329E+08-5.48535E+07
 -1       624 4.82299E+08 2.54373E+08 3.65611E+08 3.04089E+08 1.46658E+08-6.57514E+07
 -1       625 2.35676E+08 1.26621E+08 1.86393E+08 3.41335E+08 7.83720E+07-7.23595E+07
 -1       626-2.96843E+07-1.04593E+07-5.17992E+06 3.55075E+08 5.97535E+06-7.41463E+07
 -1       627-2.95693E+08-1.47548E+08-1.96135E+08 3.44708E+08-6.56665E+07-7.09091E+07
 -1       628-5.44379E+08-2.75365E+08-3.73503E+08 3.11272E+08-1.31657E+08-6.27857E+07
 -1       629-7.59113E+08-3.85295E+08-5.25204E+08 2.57393E+08-1.87399E+08-5.02409E+07
 -1       630-9.25753E+08-4.69982E+08-6.40853E+08 1.87117E+08-2.28898E+08-3.40316E+07
 -1       631-1.03362E+09-5.23829E+08-7.12476E+08 1.05664E+08-2.53017E+08-1.51533E+07
 -1       632-1.07626E+09-5.43391E+08-7.35044E+08 1.90841E+07-2.57661E+08 5.22274E+06
 -1       633-1.05192E+09-5.27629E+08-7.06849E+08-6.61216E+07-2.41890E+08 2.58113E+07
 -1       634-9.63751E+08-4.78031E+08-6.29686E+08-1.43372E+08-2.06000E+08 4.52582E+07
 -1       635-8.19833E+08-3.98616E+08-5.08886E+08-2.06281E+08-1.51673E+08 6.21735E+07
 -1       636-6.33105E+08-2.95906E+08-3.53249E+08-2.48586E+08-8.22053E+07 7.52378E+07
 -1       637-4.21745E+08-1.79023E+08-1.75000E+08-2.63432E+08-2.43631E+06 8.35362E+07
 -1       638-2.08086E+08-5.89587E+07 1.15567E+07-2.46557E+08 8.22109E+07 8.75861E+07
 -1       639-1.92856E+07 5.14642E+07 1.90833E+08-1.89076E+08 1.71163E+08 9.10365E+07
 -1       640 1.18045E+08 1.40767E+08 3.51177E+08-9.65621E+07 2.84165E+08 1.00133E+08
 -1       641-9.79601E+08-4.23250E+08-4.31231E+08-3.21886E+08-3.61058E-04-5.94777E-01
 -1       642-5.85704E+08-2.38944E+08-2.10774E+08-3.37888E+08 7.22905E-03-6.70373E-01
 -1       643-1.92362E+08-4.42417E+07 4.48902E+07-2.79716E+08 1.04562E-02-6.97016E-01
 -1       644 1.51481E+08 1.30102E+08 2.82190E+08-2.34734E+08 9.26894E-03-6.88515E-01
 -1       645 4.48964E+08 2.81933E+08 4.90813E+08-2.01996E+08 4.87483E-03-6.62664E-01
 -1       646 6.97668E+08 4.08805E+08 6.65014E+08-1.63102E+08 7.94190E-03-6.28538E-01
 -1       647 8.86965E+08 5.04831E+08 7.95804E+08-1.16901E+08 1.79810E-02-5.88709E-01
 -1       648 1.00718E+09 5.64688E+08 8.75112E+08-6.48461E+07 1.09552E-02-5.44881E-01
 -1       649 1.05204E+09 5.84857E+08 8.97484E+08-1.01034E+07 1.25982E-02-4.91824E-01
 -1       650 1.01988E+09 5.64289E+08 8.61084E+08 4.39219E+07 9.06354E-03-4.26437E-01
 -1       651 9.13952E+08 5.04594E+08 7.68029E+08 9.38305E+07 4.15188E-03-3.53399E-01
 -1       652 7.42240E+08 4.09964E+08 6.24308E+08 1.36514E+08-4.63009E-04-2.84643E-01
 -1       653 5.16963E+08 2.86909E+08 4.39399E+08 1.69318E+08-4.33221E-03-2.15919E-01
 -1       654 2.53791E+08 1.43830E+08 2.25643E+08 1.90228E+08-3.96091E-03-1.43536E-01
 -1       655-2.91955E+07-9.53259E+06-2.57982E+06 1.98026E+08-3.14062E-03-6.60790E-02
 -1       656-3.12718E+08-1.62766E+08-2.29834E+08 1.92378E+08-9.26253E-03 2.06036E-02
 -1       657-5.77611E+08-3.05485E+08-4.40673E+08 1.73872E+08-1.75418E-02 1.03322E-01
 -1       658-8.06130E+08-4.28045E+08-6.20687E+08 1.43976E+08-2.34544E-02 1.73136E-01
 -1       659-9.83168E+08-5.22193E+08-7.57475E+08 1.04950E+08-3.03080E-02 2.35236E-01
 -1       660-1.09729E+09-5.81629E+08-8.41475E+08 5.96907E+07-2.35957E-02 2.86995E-01
 -1       661-1.14153E+09-6.02439E+08-8.66601E+08 1.15296E+07-1.98034E-02 3.26608E-01
 -1       662-1.11388E+09-5.83362E+08-8.30658E+08-3.60052E+07-2.15528E-02 3.57056E-01
 -1       663-1.01750E+09-5.25917E+08-7.35556E+08-7.93940E+07-1.87036E-02 3.79913E-01
 -1       664-8.60761E+08-4.34458E+08-5.87431E+08-1.15068E+08 1.20887E-03 3.79162E-01
 -1       665-6.57424E+08-3.16256E+08-3.96762E+08-1.39020E+08 1.06117E-02 3.44993E-01
 -1       666-4.27038E+08-1.81599E+08-1.78292E+08-1.46250E+08 1.17481E-03 2.93249E-01
 -1       667-1.96492E+08-4.41108E+07 4.94556E+07-1.27612E+08-8.58293E-03 2.36114E-01
 -1       668 4.80666E+06 8.24232E+07 2.69937E+08-8.38527E+07-3.44807E-03 1.67370E-01
 -1       669 1.63860E+08 1.94407E+08 4.84165E+08-3.77996E+07-1.89239E-03 9.51471E-02
 -1       670-9.69643E+08-4.16091E+08-4.17328E+08-6.14141E+08 2.28645E+07-2.26269E+07
 -1       671-5.59020E+08-2.28173E+08-2.01556E+08-5.19254E+08-5.99033E+06-5.52331E+07
 -1       672-2.04237E+08-5.88219E+07 8.16419E+06-4.68413E+08-7.88572E+07-6.51804E+07
 -1       673 1.18423E+08 9.84709E+07 2.09814E+08-4.24819E+08-1.44925E+08-6.24845E+07
 -1       674 4.03573E+08 2.38342E+08 3.90900E+08-3.65120E+08-2.00291E+08-5.43110E+07
 -1       675 6.41316E+08 3.55096E+08 5.42337E+08-2.94080E+08-2.45244E+08-4.30076E+07
 -1       676 8.22244E+08 4.43516E+08 6.56141E+08-2.09374E+08-2.78570E+08-2.87085E+07
 -1       677 9.37341E+08 4.98879E+08 7.25590E+08-1.15298E+08-2.97629E+08-1.21285E+07
 -1       678 9.81089E+08 5.18254E+08 7.46426E+08-1.68989E+07-3.00258E+08 5.75282E+06
 -1       679 9.52133E+08 5.00845E+08 7.17350E+08 7.98986E+07-2.85439E+08 2.37180E+07
 -1       680 8.53650E+08 4.48184E+08 6.40296E+08 1.69210E+08-2.53554E+08 4.04898E+07
 -1       681 6.93201E+08 3.64074E+08 5.20379E+08 2.45517E+08-2.06329E+08 5.48535E+07
 -1       682 4.82299E+08 2.54373E+08 3.65611E+08 3.04089E+08-1.46658E+08 6.57514E+07
 -1       683 2.35676E+08 1.26621E+08 1.86393E+08 3.41335E+08-7.83720E+07 7.23595E+07
 -1       684-2.96843E+07-1.04593E+07-5.17992E+06 3.55075E+08-5.97535E+06 7.41463E+07
 -1       685-2.95693E+08-1.47548E+08-1.96135E+08 3.44708E+08 6.56665E+07 7.09091E+07
 -1       686-5.44379E+08-2.75365E+08-3.73503E+08 3.11272E+08 1.31657E+08 6.27857E+07
 -1       687-7.59113E+08-3.85295E+08-5.25204E+08 2.57393E+08 1.87399E+08 5.02409E+07
 -1       688-9.25753E+08-4.69982E+08-6.40853E+08 1.87117E+08 2.28898E+08 3.40316E+07
 -1       689-1.03362E+09-5.23829E+08-7.12476E+08 1.05664E+08 2.53017E+08 1.51533E+07
 -1       690-1.07626E+09-5.43391E+08-7.35044E+08 1.90841E+07 2.57661E+08-5.22274E+06
 -1       691-1.05192E+09-5.27629E+08-7.06849E+08-6.61216E+07 2.41890E+08-2.58113E+07
 -1       692-9.63751E+08-4.78031E+08-6.29686E+08-1.43372E+08 2.06000E+08-4.52582E+07
 -1       693-8.19833E+08-3.98616E+08-5.08886E+08-2.06281E+08 1.51673E+08-6.21735E+07
 -1       694-6.33105E+08-2.95906E+08-3.53249E+08-2.48586E+08 8.22053E+07-7.52378E+07
 -1       695-4.21745E+08-1.79023E+08-1.75000E+08-2.63432E+08 2.43631E+06-8.35362E+07
 -1       696-2.08086E+08-5.89587E+07 1.15567E+07-2.46557E+08-8.22109E+07-8.75861E+07
 -1       697-1.92856E+07 5.14642E+07 1.90833E+08-1.89076E+08-1.71163E+08-9.10365E+07
 -1       698 1.18045E+08 1.40767E+08 3.51177E+08-9.65621E+07-2.84165E+08-1.00133E+08
 -1       699 5.67398E+09-1.00515E+09-1.14630E+09 1.04051E+09-1.46140E+08-1.05155E+08
 -1       700 4.72290E+09 1.82111E+08 2.38039E+08 8.92817E+08-6.33921E+07-1.34836E+08
 -1       701 2.15470E+09 3.58515E+07 1.15802E+07 8.27183E+08-3.74390E+07-1.30287E+08
 -1       702 4.10917E+07 4.14434E+07 2.84200E+07 7.36159E+08 1.95075E+06-1.19984E+08
 -1       703-1.87157E+09 5.43901E+07 3.04611E+07 6.33749E+08 3.63024E+07-1.02638E+08
 -1       704-3.47014E+09 6.53073E+07 3.49626E+07 5.10191E+08 6.62261E+07-8.12336E+07
 -1       705-4.68943E+09 7.36463E+07 3.84683E+07 3.69543E+08 8.89840E+07-5.69734E+07
 -1       706-5.47959E+09 7.77842E+07 3.98654E+07 2.16075E+08 1.03519E+08-3.06100E+07
 -1       707-5.81124E+09 7.73961E+07 3.90752E+07 5.76945E+07 1.09407E+08-3.14868E+06
 -1       708-5.68006E+09 7.27751E+07 3.63396E+07-9.68169E+07 1.06680E+08 2.39527E+07
 -1       709-5.10867E+09 6.42342E+07 3.18846E+07-2.38593E+08 9.58228E+07 4.90566E+07
 -1       710-4.14607E+09 5.22556E+07 2.59550E+07-3.59483E+08 7.77632E+07 7.05584E+07
 -1       711-2.86498E+09 3.75220E+07 1.88665E+07-4.52614E+08 5.38484E+07 8.70680E+07
 -1       712-1.35734E+09 2.09207E+07 1.10192E+07-5.12862E+08 2.57776E+07 9.75308E+07
 -1       713 2.71621E+08 3.50572E+06 2.89229E+06-5.37223E+08-4.50166E+06 1.01304E+08
 -1       714 1.91036E+09-1.35690E+07-4.98316E+06-5.25074E+08-3.49206E+07 9.82026E+07
 -1       715 3.44853E+09-2.91259E+07-1.20582E+07-4.78263E+08-6.34281E+07 8.85079E+07
 -1       716 4.78450E+09-4.20428E+07-1.78024E+07-4.01057E+08-8.81306E+07 7.29512E+07
 -1       717 5.83247E+09-5.13305E+07-2.17421E+07-2.99907E+08-1.07425E+08 5.26630E+07
 -1       718 6.52856E+09-5.62104E+07-2.35030E+07-1.83066E+08-1.20117E+08 2.91012E+07
 -1       719 6.83561E+09-5.61924E+07-2.28569E+07-6.00694E+07-1.25518E+08 3.96758E+06
 -1       720 6.74638E+09-5.11452E+07-1.97678E+07 5.88599E+07-1.23516E+08-2.08733E+07
 -1       721 6.28495E+09-4.12969E+07-1.43737E+07 1.63407E+08-1.14598E+08-4.34693E+07
 -1       722 5.50637E+09-2.71071E+07-6.90194E+06 2.43661E+08-9.98196E+07-6.19134E+07
 -1       723 4.49452E+09-8.91459E+06 2.74076E+06 2.90509E+08-8.05785E+07-7.45004E+07
 -1       724 3.35774E+09 1.33438E+07 1.46836E+07 2.96173E+08-5.88299E+07-8.01512E+07
 -1       725 2.22421E+09 3.96579E+07 3.04537E+07 2.54928E+08-3.60686E+07-7.85150E+07
 -1       726 1.23125E+09 6.14132E+07 4.07729E+07 1.62606E+08-1.85590E+07-6.65728E+07
 -1       727 5.17583E+08 8.41783E+07 5.13740E+07 2.34993E+07-3.49626E+06-3.83379E+07
 -1       728 5.55643E+09-1.08486E+09-1.20548E+09 1.20290E+09 1.73056E+08-1.37178E+08
 -1       729 4.64939E+09 1.22339E+08 1.98055E+08 1.12576E+09 7.68467E+07-8.54727E+07
 -1       730 2.12382E+09 1.60029E+07-3.63648E+06 1.11665E+09 4.27966E+07-9.81678E+07
 -1       731 5.12281E+07 4.61832E+07 3.28828E+07 1.03736E+09-3.42368E+06-8.82786E+07
 -1       732-1.83592E+09 6.70796E+07 4.49635E+07 9.06550E+08-3.90796E+07-7.53062E+07
 -1       733-3.41781E+09 8.19991E+07 5.56686E+07 7.27088E+08-6.95656E+07-5.92281E+07
 -1       734-4.62658E+09 9.26240E+07 6.30172E+07 5.13003E+08-9.25374E+07-4.12923E+07
 -1       735-5.41027E+09 9.90609E+07 6.70420E+07 2.75453E+08-1.07545E+08-2.18859E+07
 -1       736-5.73959E+09 1.00129E+08 6.73921E+07 2.79101E+07-1.13794E+08-1.63977E+06
 -1       737-5.61067E+09 9.54153E+07 6.39490E+07-2.15379E+08-1.11132E+08 1.83964E+07
 -1       738-5.04640E+09 8.48962E+07 5.67651E+07-4.39764E+08-9.99314E+07 3.69990E+07
 -1       739-4.09552E+09 6.90960E+07 4.61728E+07-6.31354E+08-8.11240E+07 5.29530E+07
 -1       740-2.83004E+09 4.89797E+07 3.27859E+07-7.78117E+08-5.61198E+07 6.52037E+07
 -1       741-1.34085E+09 2.58534E+07 1.74475E+07-8.70847E+08-2.67101E+07 7.29508E+07
 -1       742 2.68110E+08 1.25679E+06 1.16429E+06-9.03887E+08 5.05336E+06 7.57062E+07
 -1       743 1.88665E+09-2.31505E+07-1.49704E+07-8.75579E+08 3.69953E+07 7.33246E+07
 -1       744 3.40579E+09-4.57042E+07-2.98544E+07-7.88426E+08 6.69641E+07 6.60110E+07
 -1       745 4.72515E+09-6.48477E+07-4.24504E+07-6.48963E+08 9.29786E+07 5.43048E+07
 -1       746 5.76001E+09-7.92312E+07-5.18510E+07-4.67370E+08 1.13365E+08 3.90414E+07
 -1       747 6.44737E+09-8.77890E+07-5.73325E+07-2.56857E+08 1.26874E+08 2.12970E+07
 -1       748 6.75074E+09-8.97863E+07-5.83961E+07-3.28787E+07 1.32766E+08 2.32856E+06
 -1       749 6.66328E+09-8.48459E+07-5.48080E+07 1.87779E+08 1.30864E+08-1.64801E+07
 -1       750 6.20912E+09-7.29866E+07-4.66279E+07 3.88021E+08 1.21593E+08-3.36644E+07
 -1       751 5.44281E+09-5.46925E+07-3.42442E+07 5.51586E+08 1.05969E+08-4.77762E+07
 -1       752 4.44682E+09-3.11922E+07-1.82529E+07 6.64226E+08 8.57281E+07-5.75201E+07
 -1       753 3.32748E+09-4.33270E+06 3.03444E+05 7.14709E+08 6.29098E+07-6.21273E+07
 -1       754 2.21253E+09 2.55385E+07 2.27129E+07 6.94281E+08 4.08074E+07-6.16494E+07
 -1       755 1.23823E+09 5.32920E+07 4.04318E+07 5.96810E+08 1.84357E+07-5.30840E+07
 -1       756 5.35932E+08 9.58800E+07 6.03892E+07 4.21622E+08 5.92101E+06-3.06242E+07
 -1       757 5.55643E+09-1.08486E+09-1.20548E+09 1.20290E+09-1.73056E+08 1.37178E+08
 -1       758 4.64939E+09 1.22339E+08 1.98055E+08 1.12576E+09-7.68467E+07 8.54727E+07
 -1       759 2.12382E+09 1.60029E+07-3.63648E+06 1.11665E+09-4.27966E+07 9.81678E+07
 -1       760 5.12281E+07 4.61832E+07 3.28828E+07 1.03736E+09 3.42368E+06 8.82786E+07
 -1       761-1.83592E+09 6.70796E+07 4.49635E+07 9.06550E+08 3.90796E+07 7.53062E+07
 -1       762-3.41781E+09 8.19991E+07 5.56686E+07 7.27088E+08 6.95656E+07 5.92281E+07
 -1       763-4.62658E+09 9.26240E+07 6.30172E+07 5.13003E+08 9.25374E+07 4.12923E+07
 -1       764-5.41027E+09 9.90609E+07 6.70420E+07 2.75453E+08 1.07545E+08 2.18859E+07
 -1       765-5.73959E+09 1.00129E+08 6.73921E+07 2.79101E+07 1.13794E+08 1.63977E+06
 -1       766-5.61067E+09 9.54153E+07 6.39490E+07-2.15379E+08 1.11132E+08-1.83964E+07
 -1       767-5.04640E+09 8.48962E+07 5.67651E+07-4.39764E+08 9.99314E+07-3.69990E+07
 -1       768-4.09552E+09 6.90960E+07 4.61728E+07-6.31354E+08 8.11240E+07-5.29530E+07
 -1       769-2.83004E+09 4.89797E+07 3.27859E+07-7.78117E+08 5.61198E+07-6.52037E+07
 -1       770-1.34085E+09 2.58534E+07 1.74475E+07-8.70847E+08 2.67101E+07-7.29508E+07
 -1       771 2.68110E+08 1.25679E+06 1.16429E+06-9.03887E+08-5.05336E+06-7.57062E+07
 -1       772 1.88665E+09-2.31505E+07-1.49704E+07-8.75579E+08-3.69953E+07-7.33246E+07
 -1       773 3.40579E+09-4.57042E+07-2.98544E+07-7.88426E+08-6.69641E+07-6.60110E+07
 -1       774 4.72515E+09-6.48477E+07-4.24504E+07-6.48963E+08-9.29786E+07-5.43048E+07
 -1       775 5.76001E+09-7.92312E+07-5.18510E+07-4.67370E+08-1.13365E+08-3.90414E+07
 -1       776 6.44737E+09-8.77890E+07-5.73325E+07-2.56857E+08-1.26874E+08-2.12970E+07
 -1       777 6.75074E+09-8.97863E+07-5.83961E+07-3.28787E+07-1.32766E+08-2.32856E+06
 -1       778 6.66328E+09-8.48459E+07-5.48080E+07 1.87779E+08-1.30864E+08 1.64801E+07
 -1       779 6.20912E+09-7.29866E+07-4.66279E+07 3.88021E+08-1.21593E+08 3.36644E+07
 -1       780 5.44281E+09-5.46925E+07-3.42442E+07 5.51586E+08-1.05969E+08 4.77762E+07
 -1       781 4.44682E+09-3.11922E+07-1.82529E+07 6.64226E+08-8.57281E+07 5.75201E+07
 -1       782 3.32748E+09-4.33270E+06 3.03444E+05 7.14709E+08-6.29098E+07 6.21273E+07
 -1       783 2.21253E+09 2.55385E+07 2.27129E+07 6.94281E+08-4.08074E+07 6.16494E+07
 -1       784 1.23823E+09 5.32920E+07 4.04318E+07 5.96810E+08-1.84357E+07 5.30840E+07
 -1       785 5.35932E+08 9.58800E+07 6.03892E+07 4.21622E+08-5.92101E+06 3.06242E+07
 -1       786 5.67398E+09-1.00515E+09-1.14630E+09 1.04051E+09 1.46140E+08 1.05155E+08
 -1       787 4.72290E+09 1.82111E+08 2.38039E+08 8.92817E+08 6.33921E+07 1.34836E+08
 -1       788 2.15470E+09 3.58515E+07 1.15802E+07 8.27183E+08 3.74390E+07 1.30287E+08
 -1       789 4.10917E+07 4.14434E+07 2.84200E+07 7.36159E+08-1.95075E+06 1.19984E+08
 -1       790-1.87157E+09 5.43901E+07 3.04611E+07 6.33749E+08-3.63024E+07 1.02638E+08
 -1       791-3.47014E+09 6.53073E+07 3.49626E+07 5.10191E+08-6.62261E+07 8.12336E+07
 -1       792-4.68943E+09 7.36463E+07 3.84683E+07 3.69543E+08-8.89840E+07 5.69734E+07
 -1       793-5.47959E+09 7.77842E+07 3.98654E+07 2.16075E+08-1.03519E+08 3.06100E+07
 -1       794-5.81124E+09 7.73961E+07 3.90752E+07 5.76945E+07-1.09407E+08 3.14868E+06
 -1       795-5.68006E+09 7.27751E+07 3.63396E+07-9.68169E+07-1.06680E+08-2.39527E+07
 -1       796-5.10867E+09 6.42342E+07 3.18846E+07-2.38593E+08-9.58228E+07-4.90566E+07
 -1       797-4.14607E+09 5.22556E+07 2.59550E+07-3.59483E+08-7.77632E+07-7.05584E+07
 -1       798-2.86498E+09 3.75220E+07 1.88665E+07-4.52614E+08-5.38484E+07-8.70680E+07
 -1       799-1.35734E+09 2.09207E+07 1.10192E+07-5.12862E+08-2.57776E+07-9.75308E+07
 -1       800 2.71621E+08 3.50572E+06 2.89229E+06-5.37223E+08 4.50166E+06-1.01304E+08
 -1       801 1.91036E+09-1.35690E+07-4.98316E+06-5.25074E+08 3.49206E+07-9.82026E+07
 -1       802 3.44853E+09-2.91259E+07-1.20582E+07-4.78263E+08 6.34281E+07-8.85079E+07
 -1       803 4.78450E+09-4.20428E+07-1.78024E+07-4.01057E+08 8.81306E+07-7.29512E+07
 -1       804 5.83247E+09-5.13305E+07-2.17421E+07-2.99907E+08 1.07425E+08-5.26630E+07
 -1       805 6.52856E+09-5.62104E+07-2.35030E+07-1.83066E+08 1.20117E+08-2.91012E+07
 -1       806 6.83561E+09-5.61924E+07-2.28569E+07-6.00694E+07 1.25518E+08-3.96758E+06
 -1       807 6.74638E+09-5.11452E+07-1.97678E+07 5.88599E+07 1.23516E+08 2.08733E+07
 -1       808 6.28495E+09-4.12969E+07-1.43737E+07 1.63407E+08 1.14598E+08 4.34693E+07
 -1       809 5.50637E+09-2.71071E+07-6.90194E+06 2.43661E+08 9.98196E+07 6.19134E+07
 -1       810 4.49452E+09-8.91459E+06 2.74076E+06 2.90509E+08 8.05785E+07 7.45004E+07
 -1       811 3.35774E+09 1.33438E+07 1.46836E+07 2.96173E+08 5.88299E+07 8.01512E+07
 -1       812 2.22421E+09 3.96579E+07 3.04537E+07 2.54928E+08 3.60686E+07 7.85150E+07
 -1       813 1.23125E+09 6.14132E+07 4.07729E+07 1.62606E+08 1.85590E+07 6.65728E+07
 -1       814 5.17583E+08 8.41783E+07 5.13740E+07 2.34993E+07 3.49626E+06 3.83379E+07
 -1       815-5.67398E+09 1.00515E+09 1.14630E+09 1.04051E+09-1.46140E+08 1.05155E+08
 -1       816-4.72290E+09-1.82111E+08-2.38039E+08 8.92817E+08-6.33921E+07 1.34836E+08
 -1       817-2.15470E+09-3.58515E+07-1.15802E+07 8.27183E+08-3.74390E+07 1.30287E+08
 -1       818-4.10917E+07-4.14434E+07-2.84200E+07 7.36159E+08 1.95075E+06 1.19984E+08
 -1       819 1.87157E+09-5.43901E+07-3.04611E+07 6.33749E+08 3.63024E+07 1.02638E+08
 -1       820 3.47014E+09-6.53073E+07-3.49626E+07 5.10191E+08 6.62261E+07 8.12336E+07
 -1       821 4.68943E+09-7.36463E+07-3.84683E+07 3.69543E+08 8.89840E+07 5.69734E+07
 -1       822 5.47959E+09-7.77842E+07-3.98654E+07 2.16075E+08 1.03519E+08 3.06100E+07
 -1       823 5.81124E+09-7.73961E+07-3.90752E+07 5.76945E+07 1.09407E+08 3.14868E+06
 -1       824 5.68006E+09-7.27751E+07-3.63396E+07-9.68169E+07 1.06680E+08-2.39527E+07
 -1       825 5.10867E+09-6.42342E+07-3.18846E+07-2.38593E+08 9.58228E+07-4.90566E+07
 -1       826 4.14607E+09-5.22556E+07-2.59550E+07-3.59483E+08 7.77632E+07-7.05584E+07
 -1       827 2.86498E+09-3.75220E+07-1.88665E+07-4.52614E+08 5.38484E+07-8.70680E+07
 -1       828 1.35734E+09-2.09207E+07-1.10192E+07-5.12862E+08 2.57776E+07-9.75308E+07
 -1       829-2.71621E+08-3.50572E+06-2.89229E+06-5.37223E+08-4.50166E+06-1.01304E+08
 -1       830-1.91036E+09 1.35690E+07 4.98316E+06-5.25074E+08-3.49206E+07-9.82026E+07
 -1       831-3.44853E+09 2.91259E+07 1.20582E+07-4.78263E+08-6.34281E+07-8.85079E+07
 -1       832-4.78450E+09 4.20428E+07 1.78024E+07-4.01057E+08-8.81306E+07-7.29512E+07
 -1       833-5.83247E+09 5.13305E+07 2.17421E+07-2.99907E+08-1.07425E+08-5.26630E+07
 -1       834-6.52856E+09 5.62104E+07 2.35030E+07-1.83066E+08-1.20117E+08-2.91012E+07
 -1       835-6.83561E+09 5.61924E+07 2.28569E+07-6.00694E+07-1.25518E+08-3.96758E+06
 -1       836-6.74638E+09 5.11452E+07 1.97678E+07 5.88599E+07-1.23516E+08 2.08733E+07
 -1       837-6.28495E+09 4.12969E+07 1.43737E+07 1.63407E+08-1.14598E+08 4.34693E+07
 -1       838-5.50637E+09 2.71071E+07 6.90194E+06 2.43661E+08-9.98196E+07 6.19134E+07
 -1       839-4.49452E+09 8.91459E+06-2.74076E+06 2.90509E+08-8.05785E+07 7.45004E+07
 -1       840-3.35774E+09-1.33438E+07-1.46836E+07 2.96173E+08-5.88299E+07 8.01512E+07
 -1       841-2.22421E+09-3.96579E+07-3.04537E+07 2.54928E+08-3.60686E+07 7.85150E+07
 -1       842-1.23125E+09-6.14132E+07-4.07729E+07 1.62606E+08-1.85590E+07 6.65728E+07
 -1       843-5.17583E+08-8.41783E+07-5.13740E+07 2.34993E+07-3.49626E+06 3.83379E+07
 -1       844-5.55643E+09 1.08486E+09 1.20548E+09 1.20290E+09 1.73056E+08 1.37178E+08
 -1       845-4.64939E+09-1.22339E+08-1.98055E+08 1.12576E+09 7.68467E+07 8.54727E+07
 -1       846-2.12382E+09-1.60029E+07 3.63648E+06 1.11665E+09 4.27966E+07 9.81678E+07
 -1       847-5.12281E+07-4.61832E+07-3.28828E+07 1.03736E+09-3.42368E+06 8.82786E+07
 -1       848 1.83592E+09-6.70796E+07-4.49635E+07 9.06550E+08-3.90796E+07 7.53062E+07
 -1       849 3.41781E+09-8.19991E+07-5.56686E+07 7.27088E+08-6.95656E+07 5.92281E+07
 -1       850 4.62658E+09-9.26240E+07-6.30172E+07 5.13003E+08-9.25374E+07 4.12923E+07
 -1       851 5.41027E+09-9.90609E+07-6.70420E+07 2.75453E+08-1.07545E+08 2.18859E+07
 -1       852 5.73959E+09-1.00129E+08-6.73921E+07 2.79101E+07-1.13794E+08 1.63977E+06
 -1       853 5.61067E+09-9.54153E+07-6.39490E+07-2.15379E+08-1.11132E+08-1.83964E+07
 -1       854 5.04640E+09-8.48962E+07-5.67651E+07-4.39764E+08-9.99314E+07-3.69990E+07
 -1       855 4.09552E+09-6.90960E+07-4.61728E+07-6.31354E+08-8.11240E+07-5.29530E+07
 -1       856 2.83004E+09-4.89797E+07-3.27859E+07-7.78117E+08-5.61198E+07-6.52037E+07
 -1       857 1.34085E+09-2.58534E+07-1.74475E+07-8.70847E+08-2.67101E+07-7.29508E+07
 -1       858-2.68110E+08-1.25679E+06-1.16429E+06-9.03887E+08 5.05336E+06-7.57062E+07
 -1       859-1.88665E+09 2.31505E+07 1.49704E+07-8.75579E+08 3.69953E+07-7.33246E+07
 -1       860-3.40579E+09 4.57042E+07 2.98544E+07-7.88426E+08 6.69641E+07-6.60110E+07
 -1       861-4.72515E+09 6.48477E+07 4.24504E+07-6.48963E+08 9.29786E+07-5.43048E+07
 -1       862-5.76001E+09 7.92312E+07 5.18510E+07-4.67370E+08 1.13365E+08-3.90414E+07
 -1       863-6.44737E+09 8.77890E+07 5.73325E+07-2.56857E+08 1.26874E+08-2.12970E+07
 -1       864-6.75074E+09 8.97863E+07 5.83961E+07-3.28787E+07 1.32766E+08-2.32856E+06
 -1       865-6.66328E+09 8.48459E+07 5.48080E+07 1.87779E+08 1.30864E+08 1.64801E+07
 -1       866-6.20912E+09 7.29866E+07 4.66279E+07 3.88021E+08 1.21593E+08 3.36644E+07
 -1       867-5.44281E+09 5.46925E+07 3.42442E+07 5.51586E+08 1.05969E+08 4.77762E+07
 -1       868-4.44682E+09 3.11922E+07 1.82529E+07 6.64226E+08 8.57281E+07 5.75201E+07
 -1       869-3.32748E+09 4.33270E+06-3.03444E+05 7.14709E+08 6.29098E+07 6.21273E+07
 -1       870-2.21253E+09-2.55385E+07-2.27129E+07 6.94281E+08 4.08074E+07 6.16494E+07
 -1       871-1.23823E+09-5.32920E+07-4.04318E+07 5.96810E+08 1.84357E+07 5.30840E+07
 -1       872-5.35932E+08-9.58800E+07-6.03892E+07 4.21622E+08 5.92101E+06 3.06242E+07
 -1       873-5.17583E+08-8.41783E+07-5.13740E+07 2.34993E+07 3.49626E+06-3.83379E+07
 -1       874-1.23125E+09-6.14132E+07-4.07729E+07 1.62606E+08 1.85590E+07-6.65728E+07
 -1       875-2.22421E+09-3.96579E+07-3.04537E+07 2.54928E+08 3.60686E+07-7.85150E+07
 -1       876-3.35774E+09-1.33438E+07-1.46836E+07 2.96173E+08 5.88299E+07-8.01512E+07
 -1       877-4.49452E+09 8.91459E+06-2.74076E+06 2.90509E+08 8.05785E+07-7.45004E+07
 -1       878-5.50637E+09 2.71071E+07 6.90194E+06 2.43661E+08 9.98196E+07-6.19134E+07
 -1       879-6.28495E+09 4.12969E+07 1.43737E+07 1.63407E+08 1.14598E+08-4.34693E+07
 -1       880-6.74638E+09 5.11452E+07 1.97678E+07 5.88599E+07 1.23516E+08-2.08733E+07
 -1       881-6.83561E+09 5.61924E+07 2.28569E+07-6.00694E+07 1.25518E+08 3.96758E+06
 -1       882-6.52856E+09 5.62104E+07 2.35030E+07-1.83066E+08 1.20117E+08 2.91012E+07
 -1       883-5.83247E+09 5.13305E+07 2.17421E+07-2.99907E+08 1.07425E+08 5.26630E+07
 -1       884-4.78450E+09 4.20428E+07 1.78024E+07-4.01057E+08 8.81306E+07 7.29512E+07
 -1       885-3.44853E+09 2.91259E+07 1.20582E+07-4.78263E+08 6.34281E+07 8.85079E+07
 -1       886-1.91036E+09 1.35690E+07 4.98316E+06-5.25074E+08 3.49206E+07 9.82026E+07
 -1       887-2.71621E+08-3.50572E+06-2.89229E+06-5.37223E+08 4.50166E+06 1.01304E+08
 -1       888 1.35734E+09-2.09207E+07-1.10192E+07-5.12862E+08-2.57776E+07 9.75308E+07
 -1       889 2.86498E+09-3.75220E+07-1.88665E+07-4.52614E+08-5.38484E+07 8.70680E+07
 -1       890 4.14607E+09-5.22556E+07-2.59550E+07-3.59483E+08-7.77632E+07 7.05584E+07
 -1       891 5.10867E+09-6.42342E+07-3.18846E+07-2.38593E+08-9.58228E+07 4.90566E+07
 -1       892 5.68006E+09-7.27751E+07-3.63396E+07-9.68169E+07-1.06680E+08 2.39527E+07
 -1       893 5.81124E+09-7.73961E+07-3.90752E+07 5.76945E+07-1.09407E+08-3.14868E+06
 -1       894 5.47959E+09-7.77842E+07-3.98654E+07 2.16075E+08-1.03519E+08-3.06100E+07
 -1       895 4.68943E+09-7.36463E+07-3.84683E+07 3.69543E+08-8.89840E+07-5.69734E+07
 -1       896 3.47014E+09-6.53073E+07-3.49626E+07 5.10191E+08-6.62261E+07-8.12336E+07
 -1       897 1.87157E+09-5.43901E+07-3.04611E+07 6.33749E+08-3.63024E+07-1.02638E+08
 -1       898-4.10917E+07-4.14434E+07-2.84200E+07 7.36159E+08-1.95075E+06-1.19984E+08
 -1       899-2.15470E+09-3.58515E+07-1.15802E+07 8.27183E+08 3.74390E+07-1.30287E+08
 -1       900-4.72290E+09-1.82111E+08-2.38039E+08 8.92817E+08 6.33921E+07-1.34836E+08
 -1       901-5.67398E+09 1.00515E+09 1.14630E+09 1.04051E+09 1.46140E+08-1.05155E+08
 -1       902-5.55643E+09 1.08486E+09 1.20548E+09 1.20290E+09-1.73056E+08-1.37178E+08
 -1       903-4.64939E+09-1.22339E+08-1.98055E+08 1.12576E+09-7.68467E+07-8.54727E+07
 -1       904-2.12382E+09-1.60029E+07 3.63648E+06 1.11665E+09-4.27966E+07-9.81678E+07
 -1       905-5.12281E+07-4.61832E+07-3.28828E+07 1.03736E+09 3.42368E+06-8.82786E+07
 -1       906 1.83592E+09-6.70796E+07-4.49635E+07 9.06550E+08 3.90796E+07-7.53062E+07
 -1       907 3.41781E+09-8.19991E+07-5.56686E+07 7.27088E+08 6.95656E+07-5.92281E+07
 -1       908 4.62658E+09-9.26240E+07-6.30172E+07 5.13003E+08 9.25374E+07-4.12923E+07
 -1       909 5.41027E+09-9.90609E+07-6.70420E+07 2.75453E+08 1.07545E+08-2.18859E+07
 -1       910 5.73959E+09-1.00129E+08-6.73921E+07 2.79101E+07 1.13794E+08-1.63977E+06
 -1       911 5.61067E+09-9.54153E+07-6.39490E+07-2.15379E+08 1.11132E+08 1.83964E+07
 -1       912 5.04640E+09-8.48962E+07-5.67651E+07-4.39764E+08 9.99314E+07 3.69990E+07
 -1       913 4.09552E+09-6.90960E+07-4.61728E+07-6.31354E+08 8.11240E+07 5.29530E+07
 -1       914 2.83004E+09-4.89797E+07-3.27859E+07-7.78117E+08 5.61198E+07 6.52037E+07
 -1       915 1.34085E+09-2.58534E+07-1.74475E+07-8.70847E+08 2.67101E+07 7.29508E+07
 -1       916-2.68110E+08-1.25679E+06-1.16429E+06-9.03887E+08-5.05336E+06 7.57062E+07
 -1       917-1.88665E+09 2.31505E+07 1.49704E+07-8.75579E+08-3.69953E+07 7.33246E+07
 -1       918-3.40579E+09 4.57042E+07 2.98544E+07-7.88426E+08-6.69641E+07 6.60110E+07
 -1       919-4.72515E+09 6.48477E+07 4.24504E+07-6.48963E+08-9.29786E+07 5.43048E+07
 -1       920-5.76001E+09 7.92312E+07 5.18510E+07-4.67370E+08-1.13365E+08 3.90414E+07
 -1       921-6.44737E+09 8.77890E+07 5.73325E+07-2.56857E+08-1.26874E+08 2.12970E+07
 -1       922-6.75074E+09 8.97863E+07 5.83961E+07-3.28787E+07-1.32766E+08 2.32856E+06
 -1       923-6.66328E+09 8.48459E+07 5.48080E+07 1.87779E+08-1.30864E+08-1.64801E+07
 -1       924-6.20912E+09 7.29866E+07 4.66279E+07 3.88021E+08-1.21593E+08-3.36644E+07
 -1       925-5.44281E+09 5.46925E+07 3.42442E+07 5.51586E+08-1.05969E+08-4.77762E+07
 -1       926-4.44682E+09 3.11922E+07 1.82529E+07 6.64226E+08-8.57281E+07-5.75201E+07
 -1       927-3.32748E+09 4.33270E+06-3.03444E+05 7.14709E+08-6.29098E+07-6.21273E+07
 -1       928-2.21253E+09-2.55385E+07-2.27129E+07 6.94281E+08-4.08074E+07-6.16494E+07
 -1       929-1.23823E+09-5.32920E+07-4.04318E+07 5.96810E+08-1.84357E+07-5.30840E+07
 -1       930-5.35932E+08-9.58800E+07-6.03892E+07 4.21622E+08-5.92101E+06-3.06242E+07
 -3
    1PSTEP                        23           1           1          
    1PGM                1.000000E+00                                  
    1PGK                2.304062E+06                                  
    1PHID                         -1                                  
    1PSUBC                         0                                  
    1PMODE                         6                                  
  100CL  106 241.5834526         930                     2    6MODAL      1
 -4  FORC        4    1
 -5  F1          1    2    1    0
 -5  F2          1    2    2    0
 -5  F3          1    2    3    0
 -5  ALL         1    2    0    0    1ALL
 -1         1-4.27425E+06 7.32298E+04 9.46962E+05
 -1         2 4.27425E+06 7.32298E+04-9.46962E+05
 -1         3 9.83432E+02 4.37033E+04 1.89472E+02
 -1         4-9.83432E+02 4.37033E+04-1.89472E+02
 -1         5-4.27425E+06 7.32298E+04-9.46962E+05
 -1         6 4.27425E+06 7.32298E+04 9.46962E+05
 -1         7 9.83432E+02 4.37033E+04-1.89472E+02
 -1         8-9.83432E+02 4.37033E+04 1.89472E+02
 -1         9-4.39002E+05 1.77811E+05-1.00027E+06
 -1        10 8.89171E+02 2.00406E+04 1.73065E+02
 -1        11-2.80113E+06-1.43340E+06-4.27723E+06
 -1        12-2.69699E+06-1.43014E+06 4.27728E+06
 -1        13 3.56939E+03 1.66923E+04 6.89345E+02
 -1        14 3.56173E+03 1.67328E+04 6.89118E+02
 -1        15-4.39002E+05 1.77811E+05 1.00027E+06
 -1        16 8.89171E+02 2.00406E+04-1.73065E+02
 -1        17-2.69699E+06-1.43014E+06-4.27728E+06
 -1        18-2.80113E+06-1.43340E+06 4.27723E+06
 -1        19 3.56173E+03 1.67328E+04-6.89118E+02
 -1        20 3.56939E+03 1.66923E+04-6.89345E+02
 -1        21 2.69699E+06-1.43014E+06-4.27728E+06
 -1        22 2.80113E+06-1.43340E+06 4.27723E+06
 -1        23-3.56939E+03 1.66923E+04-6.89345E+02
 -1        24-3.56173E+03 1.67328E+04-6.89118E+02
 -1        25 4.39002E+05 1.77811E+05 1.00027E+06
 -1        26-8.89171E+02 2.00406E+04-1.73065E+02
 -1        27 4.39002E+05 1.77811E+05-1.00027E+06
 -1        28 2.80113E+06-1.43340E+06-4.27723E+06
 -1        29 2.69699E+06-1.43014E+06 4.27728E+06
 -1        30-8.89171E+02 2.00406E+04 1.73065E+02
 -1        31-3.56939E+03 1.66923E+04 6.89345E+02
 -1        32-3.56173E+03 1.67328E+04 6.89118E+02
 -1        33-3.77025E+02 4.32558E+03-1.14247E+01
 -1        34-6.87244E+02 1.23952E+04-4.69818E+01
 -1        35-8.68687E+02 2.35231E+04-1.02106E+02
 -1        36-9.25882E+02 3.60481E+04-1.65077E+02
 -1        37-8.71065E+02 4.84467E+04-2.26025E+02
 -1        38-7.18691E+02 5.93571E+04-2.77868E+02
 -1        39-4.87934E+02 6.76394E+04-3.15808E+02
 -1        40-2.01282E+02 7.24240E+04-3.36719E+02
 -1        41 1.16473E+02 7.31498E+04-3.38763E+02
 -1        42 4.39575E+02 6.95868E+04-3.21319E+02
 -1        43 7.42774E+02 6.18401E+04-2.85045E+02
 -1        44 1.00283E+03 5.03336E+04-2.31905E+02
 -1        45 1.19990E+03 3.57754E+04-1.65091E+02
 -1        46 1.31877E+03 1.91041E+04-8.88345E+01
 -1        47 1.34972E+03 1.42288E+03-8.12408E+00
 -1        48 1.28911E+03-1.60781E+04 7.16315E+01
 -1        49 1.13954E+03-3.22027E+04 1.44973E+02
 -1        50 9.09512E+02-4.58292E+04 2.06759E+02
 -1        51 6.12811E+02-5.59852E+04 2.52503E+02
 -1        52 2.67414E+02-6.19099E+04 2.78677E+02
 -1        53-1.05865E+02-6.31016E+04 2.82945E+02
 -1        54-4.84961E+02-5.93451E+04 2.64345E+02
 -1        55-8.48268E+02-5.07174E+04 2.23383E+02
 -1        56-1.17638E+03-3.75713E+04 1.62035E+02
 -1        57-1.45375E+03-2.04963E+04 8.35992E+01
 -1        58-1.67018E+03-2.58330E+02-7.62382E+00
 -1        59-1.82204E+03 2.22791E+04-1.06810E+02
 -1        60-1.91329E+03 4.62486E+04-2.09119E+02
 -1        61-1.95575E+03 7.08857E+04-3.11145E+02
 -1        62 3.77025E+02 4.32558E+03 1.14247E+01
 -1        63 6.87244E+02 1.23952E+04 4.69818E+01
 -1        64 8.68687E+02 2.35231E+04 1.02106E+02
 -1        65 9.25882E+02 3.60481E+04 1.65077E+02
 -1        66 8.71065E+02 4.84467E+04 2.26025E+02
 -1        67 7.18691E+02 5.93571E+04 2.77868E+02
 -1        68 4.87934E+02 6.76394E+04 3.15808E+02
 -1        69 2.01282E+02 7.24240E+04 3.36719E+02
 -1        70-1.16473E+02 7.31498E+04 3.38763E+02
 -1        71-4.39575E+02 6.95868E+04 3.21319E+02
 -1        72-7.42774E+02 6.18401E+04 2.85045E+02
 -1        73-1.00283E+03 5.03336E+04 2.31905E+02
 -1        74-1.19990E+03 3.57754E+04 1.65091E+02
 -1        75-1.31877E+03 1.91041E+04 8.88345E+01
 -1        76-1.34972E+03 1.42288E+03 8.12405E+00
 -1        77-1.28911E+03-1.60781E+04-7.16315E+01
 -1        78-1.13954E+03-3.22027E+04-1.44973E+02
 -1        79-9.09512E+02-4.58292E+04-2.06759E+02
 -1        80-6.12811E+02-5.59852E+04-2.52503E+02
 -1        81-2.67414E+02-6.19099E+04-2.78677E+02
 -1        82 1.05865E+02-6.31016E+04-2.82945E+02
 -1        83 4.84961E+02-5.93451E+04-2.64345E+02
 -1        84 8.48268E+02-5.07174E+04-2.23383E+02
 -1        85 1.17638E+03-3.75713E+04-1.62035E+02
 -1        86 1.45375E+03-2.04963E+04-8.35992E+01
 -1        87 1.67018E+03-2.58330E+02 7.62383E+00
 -1        88 1.82204E+03 2.22791E+04 1.06810E+02
 -1        89 1.91329E+03 4.62486E+04 2.09119E+02
 -1        90 1.95575E+03 7.08857E+04 3.11145E+02
 -1        91-7.34509E+06-1.08986E+05-5.34836E+02
 -1        92-7.15507E+06-8.24992E+04 1.81125E-04
 -1        93-7.34509E+06-1.08986E+05 5.34836E+02
 -1        94 7.34509E+06-1.08986E+05-5.34836E+02
 -1        95 7.15507E+06-8.24992E+04 1.80242E-04
 -1        96 7.34509E+06-1.08986E+05 5.34836E+02
 -1        97 3.77025E+02 4.32558E+03-1.14247E+01
 -1        98 6.87244E+02 1.23952E+04-4.69818E+01
 -1        99 8.68687E+02 2.35231E+04-1.02106E+02
 -1       100 9.25882E+02 3.60481E+04-1.65077E+02
 -1       101 8.71065E+02 4.84467E+04-2.26025E+02
 -1       102 7.18691E+02 5.93571E+04-2.77868E+02
 -1       103 4.87934E+02 6.76394E+04-3.15808E+02
 -1       104 2.01282E+02 7.24240E+04-3.36719E+02
 -1       105-1.16473E+02 7.31498E+04-3.38763E+02
 -1       106-4.39575E+02 6.95868E+04-3.21319E+02
 -1       107-7.42774E+02 6.18401E+04-2.85045E+02
 -1       108-1.00283E+03 5.03336E+04-2.31905E+02
 -1       109-1.19990E+03 3.57754E+04-1.65091E+02
 -1       110-1.31877E+03 1.91041E+04-8.88345E+01
 -1       111-1.34972E+03 1.42288E+03-8.12408E+00
 -1       112-1.28911E+03-1.60781E+04 7.16315E+01
 -1       113-1.13954E+03-3.22027E+04 1.44973E+02
 -1       114-9.09512E+02-4.58292E+04 2.06759E+02
 -1       115-6.12811E+02-5.59852E+04 2.52503E+02
 -1       116-2.67414E+02-6.19099E+04 2.78677E+02
 -1       117 1.05865E+02-6.31016E+04 2.82945E+02
 -1       118 4.84961E+02-5.93451E+04 2.64345E+02
 -1       119 8.48268E+02-5.07174E+04 2.23383E+02
 -1       120 1.17638E+03-3.75713E+04 1.62035E+02
 -1       121 1.45375E+03-2.04963E+04 8.35992E+01
 -1       122 1.67018E+03-2.58330E+02-7.62381E+00
 -1       123 1.82204E+03 2.22791E+04-1.06810E+02
 -1       124 1.91329E+03 4.62486E+04-2.09119E+02
 -1       125 1.95575E+03 7.08857E+04-3.11145E+02
 -1       126 1.97748E+02 4.84494E+04 2.32410E+01
 -1       127 2.01374E+02 4.92468E+04 5.87494E-06
 -1       128 1.97748E+02 4.84494E+04-2.32410E+01
 -1       129-3.77025E+02 4.32558E+03 1.14247E+01
 -1       130-6.87244E+02 1.23952E+04 4.69818E+01
 -1       131-8.68687E+02 2.35231E+04 1.02106E+02
 -1       132-9.25882E+02 3.60481E+04 1.65077E+02
 -1       133-8.71065E+02 4.84467E+04 2.26025E+02
 -1       134-7.18691E+02 5.93571E+04 2.77868E+02
 -1       135-4.87934E+02 6.76394E+04 3.15808E+02
 -1       136-2.01282E+02 7.24240E+04 3.36719E+02
 -1       137 1.16473E+02 7.31498E+04 3.38763E+02
 -1       138 4.39575E+02 6.95868E+04 3.21319E+02
 -1       139 7.42774E+02 6.18401E+04 2.85045E+02
 -1       140 1.00283E+03 5.03336E+04 2.31905E+02
 -1       141 1.19990E+03 3.57754E+04 1.65091E+02
 -1       142 1.31877E+03 1.91041E+04 8.88344E+01
 -1       143 1.34972E+03 1.42288E+03 8.12405E+00
 -1       144 1.28911E+03-1.60781E+04-7.16315E+01
 -1       145 1.13954E+03-3.22027E+04-1.44973E+02
 -1       146 9.09512E+02-4.58292E+04-2.06759E+02
 -1       147 6.12811E+02-5.59852E+04-2.52503E+02
 -1       148 2.67414E+02-6.19099E+04-2.78677E+02
 -1       149-1.05865E+02-6.31016E+04-2.82945E+02
 -1       150-4.84961E+02-5.93451E+04-2.64345E+02
 -1       151-8.48268E+02-5.07174E+04-2.23383E+02
 -1       152-1.17638E+03-3.75713E+04-1.62035E+02
 -1       153-1.45375E+03-2.04963E+04-8.35992E+01
 -1       154-1.67018E+03-2.58330E+02 7.62382E+00
 -1       155-1.82204E+03 2.22791E+04 1.06810E+02
 -1       156-1.91329E+03 4.62486E+04 2.09119E+02
 -1       157-1.95575E+03 7.08857E+04 3.11145E+02
 -1       158-1.97748E+02 4.84494E+04 2.32410E+01
 -1       159-2.01374E+02 4.92468E+04 4.45529E-06
 -1       160-1.97748E+02 4.84494E+04-2.32410E+01
 -1       161 3.30499E+02 2.01060E+03 1.50470E+01
 -1       162 6.10664E+02 5.70833E+03 4.61964E+01
 -1       163 7.75690E+02 1.07962E+04 9.50417E+01
 -1       164 8.28433E+02 1.65255E+04 1.51391E+02
 -1       165 7.80135E+02 2.22012E+04 2.06220E+02
 -1       166 6.43838E+02 2.71987E+04 2.52941E+02
 -1       167 4.36865E+02 3.09941E+04 2.87102E+02
 -1       168 1.79501E+02 3.31877E+04 3.05851E+02
 -1       169-1.05926E+02 3.35214E+04 3.07533E+02
 -1       170-3.96232E+02 3.18895E+04 2.91593E+02
 -1       171-6.68692E+02 2.83398E+04 2.58629E+02
 -1       172-9.02390E+02 2.30668E+04 2.10418E+02
 -1       173-1.07947E+03 1.63949E+04 1.49845E+02
 -1       174-1.18623E+03 8.75443E+03 8.07394E+01
 -1       175-1.21393E+03 6.50900E+02 7.61831E+00
 -1       176-1.15929E+03-7.37014E+03-6.46201E+01
 -1       177-1.02462E+03-1.47604E+04-1.31030E+02
 -1       178-8.17574E+02-2.10060E+04-1.86952E+02
 -1       179-5.50532E+02-2.56611E+04-2.28318E+02
 -1       180-2.39650E+02-2.83772E+04-2.51927E+02
 -1       181 9.63642E+01-2.89244E+04-2.55659E+02
 -1       182 4.37682E+02-2.72040E+04-2.38636E+02
 -1       183 7.64895E+02-2.32512E+04-2.01315E+02
 -1       184 1.06058E+03-1.72271E+04-1.45479E+02
 -1       185 1.31079E+03-9.40115E+03-7.40968E+01
 -1       186 1.50640E+03-1.22937E+02 8.97139E+00
 -1       187 1.64418E+03 1.02129E+04 9.93690E+01
 -1       188 1.72768E+03 2.12084E+04 1.92581E+02
 -1       189 1.76749E+03 3.25085E+04 2.85102E+02
 -1       190-2.33277E+06 3.68358E+05-4.99950E+06
 -1       191-2.21541E+06 3.57409E+05 5.00036E+06
 -1       192 4.44232E+03 3.33823E+04 8.61674E+02
 -1       193 1.39178E+03 1.80553E+03 6.86038E+01
 -1       194 2.50239E+03 4.85433E+03 1.94481E+02
 -1       195 3.15843E+03 9.03714E+03 3.86202E+02
 -1       196 3.36719E+03 1.37623E+04 6.10585E+02
 -1       197 3.16736E+03 1.84472E+04 8.31175E+02
 -1       198 2.61323E+03 2.25740E+04 1.01973E+03
 -1       199 1.77431E+03 2.57081E+04 1.15756E+03
 -1       200 7.32370E+02 2.75175E+04 1.23304E+03
 -1       201-4.22495E+02 2.77883E+04 1.23962E+03
 -1       202-1.59672E+03 2.64321E+04 1.17520E+03
 -1       203-2.69858E+03 2.34886E+04 1.04226E+03
 -1       204-3.64365E+03 1.91185E+04 8.47957E+02
 -1       205-4.35984E+03 1.35904E+04 6.03909E+02
 -1       206-4.79185E+03 7.26063E+03 3.25528E+02
 -1       207-4.90439E+03 5.47891E+02 3.10016E+01
 -1       208-4.68426E+03-6.09595E+03-2.59944E+02
 -1       209-4.14085E+03-1.22167E+04-5.27389E+02
 -1       210-3.30511E+03-1.73886E+04-7.52556E+02
 -1       211-2.22713E+03-2.12424E+04-9.19060E+02
 -1       212-9.72220E+02-2.34891E+04-1.01399E+03
 -1       213 3.83964E+02-2.39381E+04-1.02882E+03
 -1       214 1.76123E+03-2.25074E+04-9.60027E+02
 -1       215 3.08105E+03-1.92258E+04-8.09488E+02
 -1       216 4.27291E+03-1.42263E+04-5.84401E+02
 -1       217 5.28031E+03-7.73122E+03-2.96623E+02
 -1       218 6.06618E+03-2.95746E+01 3.85412E+01
 -1       219 6.61720E+03 8.55286E+03 4.03474E+02
 -1       220 6.94706E+03 1.76878E+04 7.78694E+02
 -1       221 7.09919E+03 2.70829E+04 1.14478E+03
 -1       222 1.38785E+03 1.80933E+03 5.01293E+01
 -1       223 2.49500E+03 4.86583E+03 1.81982E+02
 -1       224 3.14880E+03 9.06006E+03 3.80217E+02
 -1       225 3.35696E+03 1.37986E+04 6.10629E+02
 -1       226 3.15802E+03 1.84969E+04 8.36631E+02
 -1       227 2.60581E+03 2.26351E+04 1.02971E+03
 -1       228 1.76946E+03 2.57775E+04 1.17100E+03
 -1       229 7.30483E+02 2.75915E+04 1.24872E+03
 -1       230-4.21223E+02 2.78626E+04 1.25623E+03
 -1       231-1.59230E+03 2.65027E+04 1.19143E+03
 -1       232-2.69122E+03 2.35512E+04 1.05685E+03
 -1       233-3.63378E+03 1.91694E+04 8.59800E+02
 -1       234-4.34807E+03 1.36266E+04 6.12097E+02
 -1       235-4.77893E+03 7.28015E+03 3.29418E+02
 -1       236-4.89118E+03 5.49723E+02 3.02499E+01
 -1       237-4.67166E+03-6.11159E+03-2.65364E+02
 -1       238-4.12972E+03-1.22484E+04-5.37190E+02
 -1       239-3.29626E+03-1.74339E+04-7.66160E+02
 -1       240-2.22120E+03-2.12976E+04-9.35644E+02
 -1       241-9.69712E+02-2.35500E+04-1.03255E+03
 -1       242 3.82785E+02-2.40000E+04-1.04824E+03
 -1       243 1.75632E+03-2.25652E+04-9.79182E+02
 -1       244 3.07263E+03-1.92745E+04-8.27312E+02
 -1       245 4.26141E+03-1.42615E+04-5.99987E+02
 -1       246 5.26635E+03-7.74923E+03-3.09300E+02
 -1       247 6.05049E+03-2.75015E+01 2.91364E+01
 -1       248 6.60061E+03 8.57680E+03 3.97346E+02
 -1       249 6.93049E+03 1.77342E+04 7.75447E+02
 -1       250 7.08339E+03 2.71507E+04 1.14356E+03
 -1       251 4.43242E+03 3.34640E+04 8.61302E+02
 -1       252 1.76749E+03 3.25085E+04-2.85102E+02
 -1       253 1.72768E+03 2.12084E+04-1.92581E+02
 -1       254 1.64418E+03 1.02129E+04-9.93690E+01
 -1       255 1.50640E+03-1.22937E+02-8.97139E+00
 -1       256 1.31079E+03-9.40115E+03 7.40968E+01
 -1       257 1.06058E+03-1.72271E+04 1.45479E+02
 -1       258 7.64895E+02-2.32512E+04 2.01315E+02
 -1       259 4.37682E+02-2.72040E+04 2.38636E+02
 -1       260 9.63642E+01-2.89244E+04 2.55659E+02
 -1       261-2.39650E+02-2.83772E+04 2.51927E+02
 -1       262-5.50532E+02-2.56611E+04 2.28318E+02
 -1       263-8.17574E+02-2.10060E+04 1.86952E+02
 -1       264-1.02462E+03-1.47604E+04 1.31030E+02
 -1       265-1.15929E+03-7.37014E+03 6.46201E+01
 -1       266-1.21393E+03 6.50900E+02-7.61833E+00
 -1       267-1.18623E+03 8.75443E+03-8.07394E+01
 -1       268-1.07947E+03 1.63949E+04-1.49845E+02
 -1       269-9.02390E+02 2.30668E+04-2.10418E+02
 -1       270-6.68692E+02 2.83398E+04-2.58629E+02
 -1       271-3.96232E+02 3.18895E+04-2.91593E+02
 -1       272-1.05926E+02 3.35214E+04-3.07533E+02
 -1       273 1.79501E+02 3.31877E+04-3.05851E+02
 -1       274 4.36865E+02 3.09941E+04-2.87102E+02
 -1       275 6.43837E+02 2.71987E+04-2.52941E+02
 -1       276 7.80135E+02 2.22012E+04-2.06220E+02
 -1       277 8.28433E+02 1.65255E+04-1.51391E+02
 -1       278 7.75690E+02 1.07962E+04-9.50417E+01
 -1       279 6.10664E+02 5.70833E+03-4.61964E+01
 -1       280 3.30499E+02 2.01060E+03-1.50470E+01
 -1       281-2.21541E+06 3.57409E+05-5.00036E+06
 -1       282-2.33277E+06 3.68358E+05 4.99950E+06
 -1       283 1.38785E+03 1.80933E+03-5.01293E+01
 -1       284 2.49500E+03 4.86583E+03-1.81982E+02
 -1       285 3.14880E+03 9.06006E+03-3.80217E+02
 -1       286 3.35696E+03 1.37986E+04-6.10629E+02
 -1       287 3.15802E+03 1.84969E+04-8.36631E+02
 -1       288 2.60581E+03 2.26351E+04-1.02971E+03
 -1       289 1.76946E+03 2.57775E+04-1.17100E+03
 -1       290 7.30483E+02 2.75915E+04-1.24872E+03
 -1       291-4.21223E+02 2.78626E+04-1.25623E+03
 -1       292-1.59230E+03 2.65027E+04-1.19143E+03
 -1       293-2.69122E+03 2.35512E+04-1.05685E+03
 -1       294-3.63378E+03 1.91694E+04-8.59800E+02
 -1       295-4.34807E+03 1.36266E+04-6.12097E+02
 -1       296-4.77893E+03 7.28015E+03-3.29418E+02
 -1       297-4.89118E+03 5.49723E+02-3.02499E+01
 -1       298-4.67166E+03-6.11159E+03 2.65364E+02
 -1       299-4.12972E+03-1.22484E+04 5.37190E+02
 -1       300-3.29626E+03-1.74339E+04 7.66160E+02
 -1       301-2.22120E+03-2.12976E+04 9.35644E+02
 -1       302-9.69712E+02-2.35500E+04 1.03255E+03
 -1       303 3.82785E+02-2.40000E+04 1.04824E+03
 -1       304 1.75632E+03-2.25652E+04 9.79182E+02
 -1       305 3.07263E+03-1.92745E+04 8.27312E+02
 -1       306 4.26141E+03-1.42615E+04 5.99987E+02
 -1       307 5.26635E+03-7.74923E+03 3.09300E+02
 -1       308 6.05049E+03-2.75015E+01-2.91364E+01
 -1       309 6.60061E+03 8.57680E+03-3.97346E+02
 -1       310 6.93049E+03 1.77342E+04-7.75447E+02
 -1       311 7.08339E+03 2.71507E+04-1.14356E+03
 -1       312 4.43242E+03 3.34640E+04-8.61302E+02
 -1       313 1.39178E+03 1.80553E+03-6.86038E+01
 -1       314 2.50239E+03 4.85433E+03-1.94481E+02
 -1       315 3.15843E+03 9.03714E+03-3.86202E+02
 -1       316 3.36719E+03 1.37623E+04-6.10585E+02
 -1       317 3.16736E+03 1.84472E+04-8.31175E+02
 -1       318 2.61323E+03 2.25740E+04-1.01973E+03
 -1       319 1.77431E+03 2.57081E+04-1.15756E+03
 -1       320 7.32370E+02 2.75175E+04-1.23304E+03
 -1       321-4.22495E+02 2.77883E+04-1.23962E+03
 -1       322-1.59672E+03 2.64321E+04-1.17520E+03
 -1       323-2.69858E+03 2.34886E+04-1.04226E+03
 -1       324-3.64365E+03 1.91185E+04-8.47957E+02
 -1       325-4.35984E+03 1.35904E+04-6.03909E+02
 -1       326-4.79185E+03 7.26063E+03-3.25528E+02
 -1       327-4.90439E+03 5.47891E+02-3.10016E+01
 -1       328-4.68426E+03-6.09595E+03 2.59944E+02
 -1       329-4.14085E+03-1.22167E+04 5.27389E+02
 -1       330-3.30511E+03-1.73886E+04 7.52556E+02
 -1       331-2.22713E+03-2.12424E+04 9.19060E+02
 -1       332-9.72220E+02-2.34891E+04 1.01399E+03
 -1       333 3.83964E+02-2.39381E+04 1.02882E+03
 -1       334 1.76123E+03-2.25074E+04 9.60027E+02
 -1       335 3.08105E+03-1.92258E+04 8.09488E+02
 -1       336 4.27291E+03-1.42263E+04 5.84401E+02
 -1       337 5.28031E+03-7.73122E+03 2.96623E+02
 -1       338 6.06618E+03-2.95746E+01-3.85412E+01
 -1       339 6.61720E+03 8.55286E+03-4.03474E+02
 -1       340 6.94706E+03 1.76878E+04-7.78694E+02
 -1       341 7.09919E+03 2.70829E+04-1.14478E+03
 -1       342 4.44232E+03 3.33823E+04-8.61674E+02
 -1       343-1.39178E+03 1.80553E+03-6.86038E+01
 -1       344-2.50239E+03 4.85433E+03-1.94481E+02
 -1       345-3.15843E+03 9.03714E+03-3.86202E+02
 -1       346-3.36719E+03 1.37623E+04-6.10585E+02
 -1       347-3.16736E+03 1.84472E+04-8.31175E+02
 -1       348-2.61323E+03 2.25740E+04-1.01973E+03
 -1       349-1.77431E+03 2.57081E+04-1.15756E+03
 -1       350-7.32370E+02 2.75175E+04-1.23304E+03
 -1       351 4.22495E+02 2.77883E+04-1.23962E+03
 -1       352 1.59672E+03 2.64321E+04-1.17520E+03
 -1       353 2.69858E+03 2.34886E+04-1.04226E+03
 -1       354 3.64365E+03 1.91185E+04-8.47957E+02
 -1       355 4.35984E+03 1.35904E+04-6.03909E+02
 -1       356 4.79185E+03 7.26063E+03-3.25528E+02
 -1       357 4.90439E+03 5.47891E+02-3.10016E+01
 -1       358 4.68426E+03-6.09595E+03 2.59944E+02
 -1       359 4.14085E+03-1.22167E+04 5.27389E+02
 -1       360 3.30511E+03-1.73886E+04 7.52556E+02
 -1       361 2.22713E+03-2.12424E+04 9.19060E+02
 -1       362 9.72220E+02-2.34891E+04 1.01399E+03
 -1       363-3.83964E+02-2.39381E+04 1.02882E+03
 -1       364-1.76123E+03-2.25074E+04 9.60027E+02
 -1       365-3.08105E+03-1.92258E+04 8.09488E+02
 -1       366-4.27291E+03-1.42263E+04 5.84401E+02
 -1       367-5.28031E+03-7.73122E+03 2.96623E+02
 -1       368-6.06618E+03-2.95746E+01-3.85412E+01
 -1       369-6.61720E+03 8.55286E+03-4.03474E+02
 -1       370-6.94706E+03 1.76878E+04-7.78694E+02
 -1       371-7.09919E+03 2.70829E+04-1.14478E+03
 -1       372-1.38785E+03 1.80933E+03-5.01293E+01
 -1       373-2.49500E+03 4.86583E+03-1.81982E+02
 -1       374-3.14880E+03 9.06006E+03-3.80217E+02
 -1       375-3.35696E+03 1.37986E+04-6.10629E+02
 -1       376-3.15802E+03 1.84969E+04-8.36631E+02
 -1       377-2.60581E+03 2.26351E+04-1.02971E+03
 -1       378-1.76946E+03 2.57775E+04-1.17100E+03
 -1       379-7.30483E+02 2.75915E+04-1.24872E+03
 -1       380 4.21223E+02 2.78626E+04-1.25623E+03
 -1       381 1.59230E+03 2.65027E+04-1.19143E+03
 -1       382 2.69122E+03 2.35512E+04-1.05685E+03
 -1       383 3.63378E+03 1.91694E+04-8.59800E+02
 -1       384 4.34807E+03 1.36266E+04-6.12097E+02
 -1       385 4.77893E+03 7.28015E+03-3.29418E+02
 -1       386 4.89118E+03 5.49723E+02-3.02499E+01
 -1       387 4.67166E+03-6.11159E+03 2.65364E+02
 -1       388 4.12972E+03-1.22484E+04 5.37190E+02
 -1       389 3.29626E+03-1.74339E+04 7.66160E+02
 -1       390 2.22120E+03-2.12976E+04 9.35644E+02
 -1       391 9.69712E+02-2.35500E+04 1.03255E+03
 -1       392-3.82785E+02-2.40000E+04 1.04824E+03
 -1       393-1.75632E+03-2.25652E+04 9.79182E+02
 -1       394-3.07263E+03-1.92745E+04 8.27312E+02
 -1       395-4.26141E+03-1.42615E+04 5.99987E+02
 -1       396-5.26635E+03-7.74923E+03 3.09300E+02
 -1       397-6.05049E+03-2.75015E+01-2.91364E+01
 -1       398-6.60061E+03 8.57680E+03-3.97346E+02
 -1       399-6.93049E+03 1.77342E+04-7.75447E+02
 -1       400-7.08339E+03 2.71507E+04-1.14356E+03
 -1       401 2.33277E+06 3.68358E+05 4.99950E+06
 -1       402 2.21541E+06 3.57409E+05-5.00036E+06
 -1       403-4.44232E+03 3.33823E+04-8.61674E+02
 -1       404-3.30499E+02 2.01060E+03-1.50470E+01
 -1       405-6.10664E+02 5.70833E+03-4.61965E+01
 -1       406-7.75690E+02 1.07962E+04-9.50417E+01
 -1       407-8.28433E+02 1.65255E+04-1.51391E+02
 -1       408-7.80135E+02 2.22012E+04-2.06220E+02
 -1       409-6.43837E+02 2.71987E+04-2.52941E+02
 -1       410-4.36865E+02 3.09941E+04-2.87102E+02
 -1       411-1.79501E+02 3.31877E+04-3.05851E+02
 -1       412 1.05926E+02 3.35214E+04-3.07533E+02
 -1       413 3.96232E+02 3.18895E+04-2.91593E+02
 -1       414 6.68692E+02 2.83398E+04-2.58629E+02
 -1       415 9.02390E+02 2.30668E+04-2.10418E+02
 -1       416 1.07947E+03 1.63949E+04-1.49845E+02
 -1       417 1.18623E+03 8.75443E+03-8.07394E+01
 -1       418 1.21393E+03 6.50900E+02-7.61832E+00
 -1       419 1.15929E+03-7.37014E+03 6.46201E+01
 -1       420 1.02462E+03-1.47604E+04 1.31030E+02
 -1       421 8.17574E+02-2.10060E+04 1.86952E+02
 -1       422 5.50532E+02-2.56611E+04 2.28318E+02
 -1       423 2.39650E+02-2.83772E+04 2.51927E+02
 -1       424-9.63642E+01-2.89244E+04 2.55659E+02
 -1       425-4.37682E+02-2.72040E+04 2.38636E+02
 -1       426-7.64895E+02-2.32512E+04 2.01315E+02
 -1       427-1.06058E+03-1.72271E+04 1.45479E+02
 -1       428-1.31079E+03-9.40115E+03 7.40968E+01
 -1       429-1.50640E+03-1.22937E+02-8.97139E+00
 -1       430-1.64418E+03 1.02129E+04-9.93690E+01
 -1       431-1.72768E+03 2.12084E+04-1.92581E+02
 -1       432-1.76749E+03 3.25085E+04-2.85102E+02
 -1       433-4.43242E+03 3.34640E+04-8.61302E+02
 -1       434 2.33277E+06 3.68358E+05-4.99950E+06
 -1       435 2.21541E+06 3.57409E+05 5.00036E+06
 -1       436-1.76749E+03 3.25085E+04 2.85102E+02
 -1       437-1.72768E+03 2.12084E+04 1.92581E+02
 -1       438-1.64418E+03 1.02129E+04 9.93690E+01
 -1       439-1.50640E+03-1.22937E+02 8.97139E+00
 -1       440-1.31079E+03-9.40115E+03-7.40968E+01
 -1       441-1.06058E+03-1.72271E+04-1.45479E+02
 -1       442-7.64895E+02-2.32512E+04-2.01315E+02
 -1       443-4.37682E+02-2.72040E+04-2.38636E+02
 -1       444-9.63642E+01-2.89244E+04-2.55659E+02
 -1       445 2.39650E+02-2.83772E+04-2.51927E+02
 -1       446 5.50532E+02-2.56611E+04-2.28318E+02
 -1       447 8.17574E+02-2.10060E+04-1.86952E+02
 -1       448 1.02462E+03-1.47604E+04-1.31030E+02
 -1       449 1.15929E+03-7.37014E+03-6.46201E+01
 -1       450 1.21393E+03 6.50900E+02 7.61831E+00
 -1       451 1.18623E+03 8.75443E+03 8.07394E+01
 -1       452 1.07947E+03 1.63949E+04 1.49845E+02
 -1       453 9.02390E+02 2.30668E+04 2.10418E+02
 -1       454 6.68692E+02 2.83398E+04 2.58629E+02
 -1       455 3.96232E+02 3.18895E+04 2.91593E+02
 -1       456 1.05926E+02 3.35214E+04 3.07533E+02
 -1       457-1.79501E+02 3.31877E+04 3.05851E+02
 -1       458-4.36865E+02 3.09941E+04 2.87102E+02
 -1       459-6.43838E+02 2.71987E+04 2.52941E+02
 -1       460-7.80135E+02 2.22012E+04 2.06220E+02
 -1       461-8.28433E+02 1.65255E+04 1.51391E+02
 -1       462-7.75690E+02 1.07962E+04 9.50417E+01
 -1       463-6.10664E+02 5.70833E+03 4.61964E+01
 -1       464-3.30499E+02 2.01060E+03 1.50470E+01
 -1       465-4.44232E+03 3.33823E+04 8.61674E+02
 -1       466-1.39178E+03 1.80553E+03 6.86038E+01
 -1       467-2.50239E+03 4.85433E+03 1.94481E+02
 -1       468-3.15843E+03 9.03714E+03 3.86202E+02
 -1       469-3.36719E+03 1.37623E+04 6.10585E+02
 -1       470-3.16736E+03 1.84472E+04 8.31175E+02
 -1       471-2.61323E+03 2.25740E+04 1.01973E+03
 -1       472-1.77431E+03 2.57081E+04 1.15756E+03
 -1       473-7.32370E+02 2.75175E+04 1.23304E+03
 -1       474 4.22495E+02 2.77883E+04 1.23962E+03
 -1       475 1.59672E+03 2.64321E+04 1.17520E+03
 -1       476 2.69858E+03 2.34886E+04 1.04226E+03
 -1       477 3.64365E+03 1.91185E+04 8.47957E+02
 -1       478 4.35984E+03 1.35904E+04 6.03909E+02
 -1       479 4.79185E+03 7.26063E+03 3.25528E+02
 -1       480 4.90439E+03 5.47891E+02 3.10016E+01
 -1       481 4.68426E+03-6.09595E+03-2.59944E+02
 -1       482 4.14085E+03-1.22167E+04-5.27389E+02
 -1       483 3.30511E+03-1.73886E+04-7.52556E+02
 -1       484 2.22713E+03-2.12424E+04-9.19060E+02
 -1       485 9.72220E+02-2.34891E+04-1.01399E+03
 -1       486-3.83964E+02-2.39381E+04-1.02882E+03
 -1       487-1.76123E+03-2.25074E+04-9.60027E+02
 -1       488-3.08105E+03-1.92258E+04-8.09488E+02
 -1       489-4.27291E+03-1.42263E+04-5.84401E+02
 -1       490-5.28031E+03-7.73122E+03-2.96623E+02
 -1       491-6.06618E+03-2.95746E+01 3.85412E+01
 -1       492-6.61720E+03 8.55286E+03 4.03474E+02
 -1       493-6.94706E+03 1.76878E+04 7.78694E+02
 -1       494-7.09919E+03 2.70829E+04 1.14478E+03
 -1       495-1.38785E+03 1.80933E+03 5.01293E+01
 -1       496-2.49500E+03 4.86583E+03 1.81982E+02
 -1       497-3.14880E+03 9.06006E+03 3.80217E+02
 -1       498-3.35696E+03 1.37986E+04 6.10629E+02
 -1       499-3.15802E+03 1.84969E+04 8.36631E+02
 -1       500-2.60581E+03 2.26351E+04 1.02971E+03
 -1       501-1.76946E+03 2.57775E+04 1.17100E+03
 -1       502-7.30483E+02 2.75915E+04 1.24872E+03
 -1       503 4.21223E+02 2.78626E+04 1.25623E+03
 -1       504 1.59230E+03 2.65027E+04 1.19143E+03
 -1       505 2.69122E+03 2.35512E+04 1.05685E+03
 -1       506 3.63378E+03 1.91694E+04 8.59800E+02
 -1       507 4.34807E+03 1.36266E+04 6.12097E+02
 -1       508 4.77893E+03 7.28015E+03 3.29418E+02
 -1       509 4.89118E+03 5.49723E+02 3.02499E+01
 -1       510 4.67166E+03-6.11159E+03-2.65364E+02
 -1       511 4.12972E+03-1.22484E+04-5.37190E+02
 -1       512 3.29626E+03-1.74339E+04-7.66160E+02
 -1       513 2.22120E+03-2.12976E+04-9.35644E+02
 -1       514 9.69712E+02-2.35500E+04-1.03255E+03
 -1       515-3.82785E+02-2.40000E+04-1.04824E+03
 -1       516-1.75632E+03-2.25652E+04-9.79182E+02
 -1       517-3.07263E+03-1.92745E+04-8.27312E+02
 -1       518-4.26141E+03-1.42615E+04-5.99987E+02
 -1       519-5.26635E+03-7.74923E+03-3.09300E+02
 -1       520-6.05049E+03-2.75015E+01 2.91364E+01
 -1       521-6.60061E+03 8.57680E+03 3.97346E+02
 -1       522-6.93049E+03 1.77342E+04 7.75447E+02
 -1       523-7.08339E+03 2.71507E+04 1.14356E+03
 -1       524-4.43242E+03 3.34640E+04 8.61302E+02
 -1       525 9.31494E+01 4.62637E+03 1.09732E-01
 -1       526 1.58072E+02 1.35802E+04 4.34060E+00
 -1       527 1.93393E+02 2.60059E+04 1.14702E+01
 -1       528 2.02678E+02 3.99705E+04 1.92089E+01
 -1       529 1.88866E+02 5.37592E+04 2.63323E+01
 -1       530 1.55224E+02 6.58712E+04 3.22793E+01
 -1       531 1.05650E+02 7.50547E+04 3.66362E+01
 -1       532 4.47128E+01 8.03536E+04 3.90607E+01
 -1       533-2.25018E+01 8.11502E+04 3.93176E+01
 -1       534-9.06748E+01 7.71916E+04 3.73130E+01
 -1       535-1.54570E+02 6.85951E+04 3.31127E+01
 -1       536-2.09355E+02 5.58311E+04 2.69426E+01
 -1       537-2.50901E+02 3.96843E+04 1.91749E+01
 -1       538-2.76035E+02 2.11956E+04 1.03035E+01
 -1       539-2.82740E+02 1.58771E+03 9.10280E-01
 -1       540-2.70267E+02-1.78195E+04-8.37486E+00
 -1       541-2.39168E+02-3.56994E+04-1.69166E+01
 -1       542-1.91243E+02-5.08083E+04-2.41170E+01
 -1       543-1.29394E+02-6.20671E+04-2.94553E+01
 -1       544-5.74082E+01-6.86321E+04-3.25215E+01
 -1       545 2.03248E+01-6.99463E+04-3.30432E+01
 -1       546 9.91383E+01-6.57711E+04-3.09042E+01
 -1       547 1.74439E+02-5.61927E+04-2.61563E+01
 -1       548 2.42059E+02-4.16052E+04-1.90268E+01
 -1       549 2.98614E+02-2.26684E+04-9.91591E+00
 -1       550 3.41851E+02-2.40805E+02 6.34536E-01
 -1       551 3.71039E+02 2.47127E+04 1.20606E+01
 -1       552 3.87320E+02 5.12394E+04 2.40739E+01
 -1       553 3.93960E+02 7.85396E+04 3.70432E+01
 -1       554 9.40558E+01 4.63051E+03-3.68868E-06
 -1       555 1.61035E+02 1.37236E+04 3.20300E-06
 -1       556 1.97240E+02 2.63955E+04 2.43771E-06
 -1       557 2.06401E+02 4.06268E+04-2.08383E-07
 -1       558 1.92110E+02 5.46595E+04-6.00264E-06
 -1       559 1.57783E+02 6.69749E+04-9.89897E-06
 -1       560 1.07339E+02 7.63073E+04-1.22279E-05
 -1       561 4.53870E+01 8.16892E+04-8.72531E-06
 -1       562-2.29263E+01 8.24947E+04-1.13199E-05
 -1       563-9.22062E+01 7.84677E+04-1.44792E-05
 -1       564-1.57136E+02 6.97276E+04-1.48903E-05
 -1       565-2.12808E+02 5.67525E+04-1.52596E-05
 -1       566-2.55025E+02 4.03401E+04-7.85069E-06
 -1       567-2.80564E+02 2.15479E+04-8.02985E-06
 -1       568-2.87373E+02 1.61865E+03-1.01604E-05
 -1       569-2.74690E+02-1.81062E+04-1.36624E-05
 -1       570-2.43076E+02-3.62784E+04-7.63115E-06
 -1       571-1.94358E+02-5.16336E+04-6.36326E-06
 -1       572-1.31485E+02-6.30751E+04-1.45574E-05
 -1       573-5.83066E+01-6.97451E+04-1.22877E-05
 -1       574 2.07158E+01-7.10773E+04-4.11915E-06
 -1       575 1.00835E+02-6.68290E+04-4.16678E-06
 -1       576 1.77374E+02-5.70883E+04-1.61045E-06
 -1       577 2.46077E+02-4.22571E+04 8.08017E-06
 -1       578 3.03477E+02-2.30088E+04 1.24660E-05
 -1       579 3.47269E+02-2.20635E+02 1.20402E-05
 -1       580 3.76771E+02 2.51229E+04 8.56346E-06
 -1       581 3.93415E+02 5.20607E+04 9.75894E-06
 -1       582 4.00743E+02 7.98084E+04 1.19339E-05
 -1       583 9.31494E+01 4.62637E+03-1.09736E-01
 -1       584 1.58072E+02 1.35802E+04-4.34060E+00
 -1       585 1.93393E+02 2.60059E+04-1.14702E+01
 -1       586 2.02678E+02 3.99705E+04-1.92089E+01
 -1       587 1.88866E+02 5.37592E+04-2.63323E+01
 -1       588 1.55224E+02 6.58712E+04-3.22793E+01
 -1       589 1.05650E+02 7.50547E+04-3.66363E+01
 -1       590 4.47128E+01 8.03536E+04-3.90608E+01
 -1       591-2.25018E+01 8.11502E+04-3.93176E+01
 -1       592-9.06748E+01 7.71916E+04-3.73130E+01
 -1       593-1.54570E+02 6.85951E+04-3.31127E+01
 -1       594-2.09355E+02 5.58311E+04-2.69426E+01
 -1       595-2.50901E+02 3.96843E+04-1.91749E+01
 -1       596-2.76035E+02 2.11956E+04-1.03036E+01
 -1       597-2.82740E+02 1.58771E+03-9.10311E-01
 -1       598-2.70267E+02-1.78195E+04 8.37484E+00
 -1       599-2.39168E+02-3.56994E+04 1.69166E+01
 -1       600-1.91243E+02-5.08083E+04 2.41170E+01
 -1       601-1.29394E+02-6.20671E+04 2.94553E+01
 -1       602-5.74082E+01-6.86321E+04 3.25215E+01
 -1       603 2.03248E+01-6.99463E+04 3.30432E+01
 -1       604 9.91383E+01-6.57711E+04 3.09042E+01
 -1       605 1.74439E+02-5.61927E+04 2.61563E+01
 -1       606 2.42059E+02-4.16052E+04 1.90268E+01
 -1       607 2.98614E+02-2.26684E+04 9.91594E+00
 -1       608 3.41851E+02-2.40805E+02-6.34514E-01
 -1       609 3.71039E+02 2.47127E+04-1.20606E+01
 -1       610 3.87320E+02 5.12394E+04-2.40739E+01
 -1       611 3.93960E+02 7.85396E+04-3.70432E+01
 -1       612-9.31494E+01 4.62637E+03 1.09729E-01
 -1       613-1.58072E+02 1.35802E+04 4.34060E+00
 -1       614-1.93393E+02 2.60059E+04 1.14702E+01
 -1       615-2.02678E+02 3.99705E+04 1.92089E+01
 -1       616-1.88866E+02 5.37592E+04 2.63323E+01
 -1       617-1.55224E+02 6.58712E+04 3.22793E+01
 -1       618-1.05650E+02 7.50547E+04 3.66363E+01
 -1       619-4.47128E+01 8.03536E+04 3.90607E+01
 -1       620 2.25018E+01 8.11502E+04 3.93176E+01
 -1       621 9.06748E+01 7.71916E+04 3.73129E+01
 -1       622 1.54570E+02 6.85951E+04 3.31126E+01
 -1       623 2.09355E+02 5.58311E+04 2.69426E+01
 -1       624 2.50901E+02 3.96843E+04 1.91749E+01
 -1       625 2.76035E+02 2.11956E+04 1.03035E+01
 -1       626 2.82740E+02 1.58771E+03 9.10292E-01
 -1       627 2.70267E+02-1.78195E+04-8.37486E+00
 -1       628 2.39168E+02-3.56994E+04-1.69166E+01
 -1       629 1.91243E+02-5.08083E+04-2.41170E+01
 -1       630 1.29394E+02-6.20671E+04-2.94553E+01
 -1       631 5.74082E+01-6.86321E+04-3.25215E+01
 -1       632-2.03248E+01-6.99463E+04-3.30432E+01
 -1       633-9.91383E+01-6.57711E+04-3.09042E+01
 -1       634-1.74438E+02-5.61927E+04-2.61563E+01
 -1       635-2.42059E+02-4.16052E+04-1.90268E+01
 -1       636-2.98614E+02-2.26684E+04-9.91591E+00
 -1       637-3.41851E+02-2.40805E+02 6.34543E-01
 -1       638-3.71039E+02 2.47127E+04 1.20606E+01
 -1       639-3.87320E+02 5.12394E+04 2.40739E+01
 -1       640-3.93960E+02 7.85396E+04 3.70432E+01
 -1       641-9.40557E+01 4.63051E+03-4.92186E-06
 -1       642-1.61035E+02 1.37236E+04-5.04523E-07
 -1       643-1.97240E+02 2.63955E+04 4.24389E-06
 -1       644-2.06401E+02 4.06268E+04-1.41145E-06
 -1       645-1.92110E+02 5.46595E+04-7.54316E-06
 -1       646-1.57783E+02 6.69749E+04-1.60107E-05
 -1       647-1.07339E+02 7.63073E+04-1.27490E-05
 -1       648-4.53870E+01 8.16892E+04-9.86821E-06
 -1       649 2.29263E+01 8.24947E+04-1.41748E-05
 -1       650 9.22062E+01 7.84677E+04-1.74978E-05
 -1       651 1.57136E+02 6.97276E+04-8.60483E-06
 -1       652 2.12808E+02 5.67525E+04-7.63547E-06
 -1       653 2.55025E+02 4.03401E+04-1.16173E-05
 -1       654 2.80564E+02 2.15479E+04-1.08908E-05
 -1       655 2.87373E+02 1.61865E+03-1.13464E-05
 -1       656 2.74690E+02-1.81062E+04-1.68715E-05
 -1       657 2.43076E+02-3.62784E+04-1.13022E-05
 -1       658 1.94358E+02-5.16336E+04-1.06995E-05
 -1       659 1.31485E+02-6.30751E+04-1.25215E-05
 -1       660 5.83065E+01-6.97451E+04-1.07161E-05
 -1       661-2.07158E+01-7.10773E+04-5.96120E-06
 -1       662-1.00835E+02-6.68290E+04-1.14041E-06
 -1       663-1.77374E+02-5.70883E+04-1.88158E-06
 -1       664-2.46077E+02-4.22571E+04 4.27762E-06
 -1       665-3.03477E+02-2.30088E+04 9.10257E-06
 -1       666-3.47269E+02-2.20635E+02 1.09127E-05
 -1       667-3.76771E+02 2.51229E+04 1.02300E-05
 -1       668-3.93415E+02 5.20607E+04 1.50817E-05
 -1       669-4.00743E+02 7.98084E+04 6.29383E-06
 -1       670-9.31494E+01 4.62637E+03-1.09734E-01
 -1       671-1.58072E+02 1.35802E+04-4.34060E+00
 -1       672-1.93393E+02 2.60059E+04-1.14702E+01
 -1       673-2.02678E+02 3.99705E+04-1.92089E+01
 -1       674-1.88866E+02 5.37592E+04-2.63323E+01
 -1       675-1.55224E+02 6.58712E+04-3.22793E+01
 -1       676-1.05650E+02 7.50547E+04-3.66363E+01
 -1       677-4.47128E+01 8.03536E+04-3.90608E+01
 -1       678 2.25018E+01 8.11502E+04-3.93176E+01
 -1       679 9.06748E+01 7.71916E+04-3.73130E+01
 -1       680 1.54570E+02 6.85951E+04-3.31127E+01
 -1       681 2.09355E+02 5.58311E+04-2.69426E+01
 -1       682 2.50901E+02 3.96843E+04-1.91749E+01
 -1       683 2.76035E+02 2.11956E+04-1.03036E+01
 -1       684 2.82740E+02 1.58771E+03-9.10317E-01
 -1       685 2.70267E+02-1.78195E+04 8.37483E+00
 -1       686 2.39168E+02-3.56994E+04 1.69166E+01
 -1       687 1.91243E+02-5.08083E+04 2.41170E+01
 -1       688 1.29394E+02-6.20671E+04 2.94553E+01
 -1       689 5.74082E+01-6.86321E+04 3.25215E+01
 -1       690-2.03248E+01-6.99463E+04 3.30432E+01
 -1       691-9.91383E+01-6.57711E+04 3.09042E+01
 -1       692-1.74439E+02-5.61927E+04 2.61563E+01
 -1       693-2.42059E+02-4.16052E+04 1.90268E+01
 -1       694-2.98614E+02-2.26684E+04 9.91594E+00
 -1       695-3.41851E+02-2.40805E+02-6.34521E-01
 -1       696-3.71039E+02 2.47127E+04-1.20606E+01
 -1       697-3.87320E+02 5.12394E+04-2.40739E+01
 -1       698-3.93960E+02 7.85396E+04-3.70432E+01
 -1       699 1.67152E+03 3.45300E+03 8.21715E+01
 -1       700 3.06314E+03 9.58999E+03 2.38918E+02
 -1       701 3.88500E+03 1.80196E+04 4.79352E+02
 -1       702 4.14836E+03 2.75251E+04 7.59656E+02
 -1       703 3.90566E+03 3.69448E+04 1.03421E+03
 -1       704 3.22318E+03 4.52403E+04 1.26867E+03
 -1       705 2.18734E+03 5.15403E+04 1.44007E+03
 -1       706 8.99553E+02 5.51799E+04 1.53399E+03
 -1       707-5.28504E+02 5.57299E+04 1.54225E+03
 -1       708-1.98088E+03 5.30141E+04 1.46217E+03
 -1       709-3.34395E+03 4.71120E+04 1.29680E+03
 -1       710-4.51308E+03 3.83464E+04 1.05505E+03
 -1       711-5.39900E+03 2.72564E+04 7.51380E+02
 -1       712-5.93317E+03 1.45572E+04 4.04975E+02
 -1       713-6.07187E+03 1.08886E+03 3.84689E+01
 -1       714-5.79871E+03-1.22419E+04-3.23591E+02
 -1       715-5.12527E+03-2.45239E+04-6.56415E+02
 -1       716-4.08984E+03-3.49028E+04-9.36641E+02
 -1       717-2.75436E+03-4.26377E+04-1.14388E+03
 -1       718-1.19966E+03-4.71494E+04-1.26207E+03
 -1       719 4.80699E+02-4.80554E+04-1.28060E+03
 -1       720 2.18750E+03-4.51915E+04-1.19507E+03
 -1       721 3.82365E+03-3.86160E+04-1.00781E+03
 -1       722 5.30197E+03-2.85962E+04-7.27772E+02
 -1       723 6.55270E+03-1.55793E+04-3.69745E+02
 -1       724 7.53012E+03-1.45783E+02 4.71257E+01
 -1       725 8.21803E+03 1.70493E+04 5.00956E+02
 -1       726 8.63393E+03 3.53458E+04 9.68004E+02
 -1       727 8.83110E+03 5.41550E+04 1.42649E+03
 -1       728 1.66679E+03 3.46034E+03 6.03102E+01
 -1       729 3.05394E+03 9.61266E+03 2.23764E+02
 -1       730 3.87292E+03 1.80653E+04 4.72149E+02
 -1       731 4.13557E+03 2.75978E+04 7.59563E+02
 -1       732 3.89399E+03 3.70441E+04 1.04054E+03
 -1       733 3.21391E+03 4.53623E+04 1.28036E+03
 -1       734 2.18128E+03 5.16789E+04 1.45585E+03
 -1       735 8.97210E+02 5.53276E+04 1.55243E+03
 -1       736-5.26891E+02 5.58784E+04 1.56180E+03
 -1       737-1.97532E+03 5.31550E+04 1.48128E+03
 -1       738-3.33470E+03 4.72369E+04 1.31398E+03
 -1       739-4.50068E+03 3.84480E+04 1.06899E+03
 -1       740-5.38422E+03 2.73288E+04 7.61018E+02
 -1       741-5.91695E+03 1.45962E+04 4.09546E+02
 -1       742-6.05529E+03 1.09252E+03 3.75645E+01
 -1       743-5.78290E+03-1.22731E+04-3.30002E+02
 -1       744-5.11132E+03-2.45872E+04-6.67995E+02
 -1       745-4.07874E+03-3.49931E+04-9.52709E+02
 -1       746-2.74694E+03-4.27481E+04-1.16347E+03
 -1       747-1.19652E+03-4.72711E+04-1.28400E+03
 -1       748 4.79202E+02-4.81790E+04-1.30355E+03
 -1       749 2.18133E+03-4.53069E+04-1.21772E+03
 -1       750 3.81305E+03-3.87133E+04-1.02891E+03
 -1       751 5.28750E+03-2.86667E+04-7.46245E+02
 -1       752 6.53512E+03-1.56153E+04-3.84811E+02
 -1       753 7.51037E+03-1.41690E+02 3.58886E+01
 -1       754 8.19715E+03 1.70971E+04 4.93544E+02
 -1       755 8.61301E+03 3.54384E+04 9.63938E+02
 -1       756 8.81088E+03 5.42910E+04 1.42481E+03
 -1       757 1.66679E+03 3.46034E+03-6.03102E+01
 -1       758 3.05394E+03 9.61266E+03-2.23764E+02
 -1       759 3.87292E+03 1.80653E+04-4.72149E+02
 -1       760 4.13557E+03 2.75978E+04-7.59563E+02
 -1       761 3.89399E+03 3.70441E+04-1.04054E+03
 -1       762 3.21391E+03 4.53623E+04-1.28036E+03
 -1       763 2.18128E+03 5.16789E+04-1.45585E+03
 -1       764 8.97210E+02 5.53276E+04-1.55243E+03
 -1       765-5.26891E+02 5.58784E+04-1.56180E+03
 -1       766-1.97532E+03 5.31550E+04-1.48128E+03
 -1       767-3.33470E+03 4.72369E+04-1.31398E+03
 -1       768-4.50068E+03 3.84480E+04-1.06899E+03
 -1       769-5.38422E+03 2.73288E+04-7.61018E+02
 -1       770-5.91695E+03 1.45962E+04-4.09546E+02
 -1       771-6.05529E+03 1.09252E+03-3.75645E+01
 -1       772-5.78290E+03-1.22731E+04 3.30002E+02
 -1       773-5.11132E+03-2.45872E+04 6.67995E+02
 -1       774-4.07874E+03-3.49931E+04 9.52709E+02
 -1       775-2.74694E+03-4.27481E+04 1.16347E+03
 -1       776-1.19652E+03-4.72711E+04 1.28400E+03
 -1       777 4.79202E+02-4.81790E+04 1.30355E+03
 -1       778 2.18133E+03-4.53069E+04 1.21772E+03
 -1       779 3.81305E+03-3.87133E+04 1.02891E+03
 -1       780 5.28750E+03-2.86667E+04 7.46245E+02
 -1       781 6.53512E+03-1.56153E+04 3.84811E+02
 -1       782 7.51037E+03-1.41690E+02-3.58886E+01
 -1       783 8.19715E+03 1.70971E+04-4.93544E+02
 -1       784 8.61301E+03 3.54384E+04-9.63938E+02
 -1       785 8.81088E+03 5.42910E+04-1.42481E+03
 -1       786 1.67152E+03 3.45300E+03-8.21715E+01
 -1       787 3.06314E+03 9.58999E+03-2.38918E+02
 -1       788 3.88500E+03 1.80196E+04-4.79352E+02
 -1       789 4.14836E+03 2.75251E+04-7.59656E+02
 -1       790 3.90566E+03 3.69448E+04-1.03421E+03
 -1       791 3.22318E+03 4.52403E+04-1.26867E+03
 -1       792 2.18734E+03 5.15403E+04-1.44007E+03
 -1       793 8.99553E+02 5.51799E+04-1.53399E+03
 -1       794-5.28504E+02 5.57299E+04-1.54225E+03
 -1       795-1.98088E+03 5.30141E+04-1.46217E+03
 -1       796-3.34395E+03 4.71120E+04-1.29680E+03
 -1       797-4.51308E+03 3.83464E+04-1.05505E+03
 -1       798-5.39900E+03 2.72564E+04-7.51380E+02
 -1       799-5.93317E+03 1.45572E+04-4.04975E+02
 -1       800-6.07187E+03 1.08886E+03-3.84690E+01
 -1       801-5.79871E+03-1.22419E+04 3.23591E+02
 -1       802-5.12527E+03-2.45239E+04 6.56415E+02
 -1       803-4.08984E+03-3.49028E+04 9.36641E+02
 -1       804-2.75436E+03-4.26377E+04 1.14388E+03
 -1       805-1.19966E+03-4.71494E+04 1.26207E+03
 -1       806 4.80699E+02-4.80554E+04 1.28060E+03
 -1       807 2.18750E+03-4.51915E+04 1.19507E+03
 -1       808 3.82365E+03-3.86160E+04 1.00781E+03
 -1       809 5.30197E+03-2.85962E+04 7.27772E+02
 -1       810 6.55270E+03-1.55793E+04 3.69745E+02
 -1       811 7.53012E+03-1.45783E+02-4.71257E+01
 -1       812 8.21803E+03 1.70493E+04-5.00956E+02
 -1       813 8.63393E+03 3.53458E+04-9.68004E+02
 -1       814 8.83110E+03 5.41550E+04-1.42649E+03
 -1       815-1.67152E+03 3.45300E+03-8.21715E+01
 -1       816-3.06314E+03 9.58999E+03-2.38918E+02
 -1       817-3.88500E+03 1.80196E+04-4.79352E+02
 -1       818-4.14836E+03 2.75251E+04-7.59656E+02
 -1       819-3.90566E+03 3.69448E+04-1.03421E+03
 -1       820-3.22318E+03 4.52403E+04-1.26867E+03
 -1       821-2.18734E+03 5.15403E+04-1.44007E+03
 -1       822-8.99553E+02 5.51799E+04-1.53399E+03
 -1       823 5.28504E+02 5.57299E+04-1.54225E+03
 -1       824 1.98088E+03 5.30141E+04-1.46217E+03
 -1       825 3.34395E+03 4.71120E+04-1.29680E+03
 -1       826 4.51308E+03 3.83464E+04-1.05505E+03
 -1       827 5.39900E+03 2.72564E+04-7.51380E+02
 -1       828 5.93317E+03 1.45572E+04-4.04975E+02
 -1       829 6.07187E+03 1.08886E+03-3.84690E+01
 -1       830 5.79871E+03-1.22419E+04 3.23591E+02
 -1       831 5.12527E+03-2.45239E+04 6.56415E+02
 -1       832 4.08984E+03-3.49028E+04 9.36641E+02
 -1       833 2.75436E+03-4.26377E+04 1.14388E+03
 -1       834 1.19966E+03-4.71494E+04 1.26207E+03
 -1       835-4.80699E+02-4.80554E+04 1.28060E+03
 -1       836-2.18750E+03-4.51915E+04 1.19507E+03
 -1       837-3.82365E+03-3.86160E+04 1.00781E+03
 -1       838-5.30197E+03-2.85962E+04 7.27772E+02
 -1       839-6.55270E+03-1.55793E+04 3.69745E+02
 -1       840-7.53012E+03-1.45783E+02-4.71257E+01
 -1       841-8.21803E+03 1.70493E+04-5.00956E+02
 -1       842-8.63393E+03 3.53458E+04-9.68004E+02
 -1       843-8.83110E+03 5.41550E+04-1.42649E+03
 -1       844-1.66679E+03 3.46034E+03-6.03102E+01
 -1       845-3.05394E+03 9.61266E+03-2.23764E+02
 -1       846-3.87292E+03 1.80653E+04-4.72149E+02
 -1       847-4.13557E+03 2.75978E+04-7.59563E+02
 -1       848-3.89399E+03 3.70441E+04-1.04054E+03
 -1       849-3.21391E+03 4.53623E+04-1.28036E+03
 -1       850-2.18128E+03 5.16789E+04-1.45585E+03
 -1       851-8.97210E+02 5.53276E+04-1.55243E+03
 -1       852 5.26891E+02 5.58784E+04-1.56180E+03
 -1       853 1.97532E+03 5.31550E+04-1.48128E+03
 -1       854 3.33470E+03 4.72369E+04-1.31398E+03
 -1       855 4.50068E+03 3.84480E+04-1.06899E+03
 -1       856 5.38422E+03 2.73288E+04-7.61018E+02
 -1       857 5.91695E+03 1.45962E+04-4.09546E+02
 -1       858 6.05529E+03 1.09252E+03-3.75645E+01
 -1       859 5.78290E+03-1.22731E+04 3.30002E+02
 -1       860 5.11132E+03-2.45872E+04 6.67995E+02
 -1       861 4.07874E+03-3.49931E+04 9.52709E+02
 -1       862 2.74694E+03-4.27481E+04 1.16347E+03
 -1       863 1.19652E+03-4.72711E+04 1.28400E+03
 -1       864-4.79202E+02-4.81790E+04 1.30355E+03
 -1       865-2.18133E+03-4.53069E+04 1.21772E+03
 -1       866-3.81305E+03-3.87133E+04 1.02891E+03
 -1       867-5.28750E+03-2.86667E+04 7.46245E+02
 -1       868-6.53512E+03-1.56153E+04 3.84811E+02
 -1       869-7.51037E+03-1.41690E+02-3.58886E+01
 -1       870-8.19715E+03 1.70971E+04-4.93544E+02
 -1       871-8.61301E+03 3.54384E+04-9.63938E+02
 -1       872-8.81088E+03 5.42910E+04-1.42481E+03
 -1       873-8.83110E+03 5.41550E+04 1.42649E+03
 -1       874-8.63393E+03 3.53458E+04 9.68004E+02
 -1       875-8.21803E+03 1.70493E+04 5.00956E+02
 -1       876-7.53012E+03-1.45783E+02 4.71257E+01
 -1       877-6.55270E+03-1.55793E+04-3.69745E+02
 -1       878-5.30197E+03-2.85962E+04-7.27772E+02
 -1       879-3.82365E+03-3.86160E+04-1.00781E+03
 -1       880-2.18750E+03-4.51915E+04-1.19507E+03
 -1       881-4.80699E+02-4.80554E+04-1.28060E+03
 -1       882 1.19966E+03-4.71494E+04-1.26207E+03
 -1       883 2.75436E+03-4.26377E+04-1.14388E+03
 -1       884 4.08984E+03-3.49028E+04-9.36641E+02
 -1       885 5.12527E+03-2.45239E+04-6.56415E+02
 -1       886 5.79871E+03-1.22419E+04-3.23591E+02
 -1       887 6.07187E+03 1.08886E+03 3.84689E+01
 -1       888 5.93317E+03 1.45572E+04 4.04975E+02
 -1       889 5.39900E+03 2.72564E+04 7.51380E+02
 -1       890 4.51308E+03 3.83464E+04 1.05505E+03
 -1       891 3.34395E+03 4.71120E+04 1.29680E+03
 -1       892 1.98088E+03 5.30141E+04 1.46217E+03
 -1       893 5.28504E+02 5.57299E+04 1.54225E+03
 -1       894-8.99553E+02 5.51799E+04 1.53399E+03
 -1       895-2.18734E+03 5.15403E+04 1.44007E+03
 -1       896-3.22318E+03 4.52403E+04 1.26867E+03
 -1       897-3.90566E+03 3.69448E+04 1.03421E+03
 -1       898-4.14836E+03 2.75251E+04 7.59656E+02
 -1       899-3.88500E+03 1.80196E+04 4.79352E+02
 -1       900-3.06314E+03 9.58999E+03 2.38918E+02
 -1       901-1.67152E+03 3.45300E+03 8.21715E+01
 -1       902-1.66679E+03 3.46034E+03 6.03102E+01
 -1       903-3.05394E+03 9.61266E+03 2.23764E+02
 -1       904-3.87292E+03 1.80653E+04 4.72149E+02
 -1       905-4.13557E+03 2.75978E+04 7.59563E+02
 -1       906-3.89399E+03 3.70441E+04 1.04054E+03
 -1       907-3.21391E+03 4.53623E+04 1.28036E+03
 -1       908-2.18128E+03 5.16789E+04 1.45585E+03
 -1       909-8.97210E+02 5.53276E+04 1.55243E+03
 -1       910 5.26891E+02 5.58784E+04 1.56180E+03
 -1       911 1.97532E+03 5.31550E+04 1.48128E+03
 -1       912 3.33470E+03 4.72369E+04 1.31398E+03
 -1       913 4.50068E+03 3.84480E+04 1.06899E+03
 -1       914 5.38422E+03 2.73288E+04 7.61018E+02
 -1       915 5.91695E+03 1.45962E+04 4.09546E+02
 -1       916 6.05529E+03 1.09252E+03 3.75645E+01
 -1       917 5.78290E+03-1.22731E+04-3.30002E+02
 -1       918 5.11132E+03-2.45872E+04-6.67995E+02
 -1       919 4.07874E+03-3.49931E+04-9.52709E+02
 -1       920 2.74694E+03-4.27481E+04-1.16347E+03
 -1       921 1.19652E+03-4.72711E+04-1.28400E+03
 -1       922-4.79202E+02-4.81790E+04-1.30355E+03
 -1       923-2.18133E+03-4.53069E+04-1.21772E+03
 -1       924-3.81305E+03-3.87133E+04-1.02891E+03
 -1       925-5.28750E+03-2.86667E+04-7.46245E+02
 -1       926-6.53512E+03-1.56153E+04-3.84811E+02
 -1       927-7.51037E+03-1.41690E+02 3.58886E+01
 -1       928-8.19715E+03 1.70971E+04 4.93544E+02
 -1       929-8.61301E+03 3.54384E+04 9.63938E+02
 -1       930-8.81088E+03 5.42910E+04 1.42481E+03
 -3
    1PSTEP                        24           1           1          
    1PGM                1.000000E+00                                  
    1PGK                2.304062E+06                                  
    1PHID                         -1                                  
    1PSUBC                         0                                  
    1PMODE                         6                                  
  100CL  106 241.5834526         930                     2    6MODAL      1
 -4  ERROR       1    1
 -5  STR(%)      1    1    0    0
 -1         1 7.16376E+01
 -1         2 7.16376E+01
 -1         3 6.98701E+01
 -1         4 6.98701E+01
 -1         5 7.16376E+01
 -1         6 7.16376E+01
 -1         7 6.98701E+01
 -1         8 6.98701E+01
 -1         9 7.16376E+01
 -1        10 5.27642E+01
 -1        11 3.62885E+01
 -1        12 3.62885E+01
 -1        13 4.30556E+01
 -1        14 4.30556E+01
 -1        15 7.16376E+01
 -1        16 5.27642E+01
 -1        17 3.62885E+01
 -1        18 3.62885E+01
 -1        19 4.30556E+01
 -1        20 4.30556E+01
 -1        21 3.62885E+01
 -1        22 3.62885E+01
 -1        23 4.30556E+01
 -1        24 4.30556E+01
 -1        25 7.16376E+01
 -1        26 5.27642E+01
 -1        27 7.16376E+01
 -1        28 3.62885E+01
 -1        29 3.62885E+01
 -1        30 5.27642E+01
 -1        31 4.30556E+01
 -1        32 4.30556E+01
 -1        33 7.76377E+01
 -1        34 7.76377E+01
 -1        35 7.40567E+01
 -1        36 6.86318E+01
 -1        37 7.60398E+01
 -1        38 7.60398E+01
 -1        39 7.47966E+01
 -1        40 5.64510E+01
 -1        41 4.69762E+01
 -1        42 5.04299E+01
 -1        43 6.22766E+01
 -1        44 7.91582E+01
 -1        45 7.91582E+01
 -1        46 7.30717E+01
 -1        47 7.22310E+01
 -1        48 7.59132E+01
 -1        49 7.61142E+01
 -1        50 7.61142E+01
 -1        51 6.16727E+01
 -1        52 5.06787E+01
 -1        53 4.63378E+01
 -1        54 4.85497E+01
 -1        55 5.23591E+01
 -1        56 5.96662E+01
 -1        57 6.90287E+01
 -1        58 7.37322E+01
 -1        59 7.37322E+01
 -1        60 7.09086E+01
 -1        61 6.98701E+01
 -1        62 7.76377E+01
 -1        63 7.76377E+01
 -1        64 7.40567E+01
 -1        65 6.86318E+01
 -1        66 7.60398E+01
 -1        67 7.60398E+01
 -1        68 7.47966E+01
 -1        69 5.64510E+01
 -1        70 4.69762E+01
 -1        71 5.04299E+01
 -1        72 6.22766E+01
 -1        73 7.91582E+01
 -1        74 7.91582E+01
 -1        75 7.30717E+01
 -1        76 7.22310E+01
 -1        77 7.59132E+01
 -1        78 7.61142E+01
 -1        79 7.61142E+01
 -1        80 6.16727E+01
 -1        81 5.06787E+01
 -1        82 4.63378E+01
 -1        83 4.85497E+01
 -1        84 5.23591E+01
 -1        85 5.96662E+01
 -1        86 6.90287E+01
 -1        87 7.37322E+01
 -1        88 7.37322E+01
 -1        89 7.09086E+01
 -1        90 6.98701E+01
 -1        91 4.82731E+01
 -1        92 3.24426E+01
 -1        93 4.82731E+01
 -1        94 4.82731E+01
 -1        95 3.24426E+01
 -1        96 4.82731E+01
 -1        97 7.76377E+01
 -1        98 7.76377E+01
 -1        99 7.40567E+01
 -1       100 6.86318E+01
 -1       101 7.60398E+01
 -1       102 7.60398E+01
 -1       103 7.47966E+01
 -1       104 5.64510E+01
 -1       105 4.69762E+01
 -1       106 5.04299E+01
 -1       107 6.22766E+01
 -1       108 7.91582E+01
 -1       109 7.91582E+01
 -1       110 7.30717E+01
 -1       111 7.22310E+01
 -1       112 7.59132E+01
 -1       113 7.61142E+01
 -1       114 7.61142E+01
 -1       115 6.16727E+01
 -1       116 5.06787E+01
 -1       117 4.63378E+01
 -1       118 4.85497E+01
 -1       119 5.23591E+01
 -1       120 5.96662E+01
 -1       121 6.90287E+01
 -1       122 7.37322E+01
 -1       123 7.37322E+01
 -1       124 7.09086E+01
 -1       125 6.98701E+01
 -1       126 6.98701E+01
 -1       127 4.00273E+01
 -1       128 6.98701E+01
 -1       129 7.76377E+01
 -1       130 7.76377E+01
 -1       131 7.40567E+01
 -1       132 6.86318E+01
 -1       133 7.60398E+01
 -1       134 7.60398E+01
 -1       135 7.47966E+01
 -1       136 5.64510E+01
 -1       137 4.69762E+01
 -1       138 5.04299E+01
 -1       139 6.22766E+01
 -1       140 7.91582E+01
 -1       141 7.91582E+01
 -1       142 7.30717E+01
 -1       143 7.22310E+01
 -1       144 7.59132E+01
 -1       145 7.61142E+01
 -1       146 7.61142E+01
 -1       147 6.16727E+01
 -1       148 5.06787E+01
 -1       149 4.63378E+01
 -1       150 4.85497E+01
 -1       151 5.23591E+01
 -1       152 5.96662E+01
 -1       153 6.90287E+01
 -1       154 7.37322E+01
 -1       155 7.37322E+01
 -1       156 7.09086E+01
 -1       157 6.98701E+01
 -1       158 6.98701E+01
 -1       159 4.00273E+01
 -1       160 6.98701E+01
 -1       161 7.76377E+01
 -1       162 7.76377E+01
 -1       163 7.40567E+01
 -1       164 5.03745E+01
 -1       165 7.60398E+01
 -1       166 7.60398E+01
 -1       167 7.47966E+01
 -1       168 5.64510E+01
 -1       169 4.69762E+01
 -1       170 5.04299E+01
 -1       171 6.22766E+01
 -1       172 7.91582E+01
 -1       173 7.91582E+01
 -1       174 7.30717E+01
 -1       175 5.46352E+01
 -1       176 7.59132E+01
 -1       177 7.61142E+01
 -1       178 7.61142E+01
 -1       179 6.16727E+01
 -1       180 5.06787E+01
 -1       181 4.63378E+01
 -1       182 4.85497E+01
 -1       183 5.23591E+01
 -1       184 5.96662E+01
 -1       185 6.90287E+01
 -1       186 7.37322E+01
 -1       187 7.37322E+01
 -1       188 7.09086E+01
 -1       189 5.56463E+01
 -1       190 5.92961E+01
 -1       191 5.92961E+01
 -1       192 5.27642E+01
 -1       193 3.62885E+01
 -1       194 2.35822E+01
 -1       195 2.37833E+01
 -1       196 2.37833E+01
 -1       197 2.28999E+01
 -1       198 2.15962E+01
 -1       199 2.15962E+01
 -1       200 2.12975E+01
 -1       201 2.09885E+01
 -1       202 2.12084E+01
 -1       203 2.14229E+01
 -1       204 2.15221E+01
 -1       205 2.15221E+01
 -1       206 2.91007E+01
 -1       207 2.91007E+01
 -1       208 2.30199E+01
 -1       209 2.14026E+01
 -1       210 2.14026E+01
 -1       211 2.12755E+01
 -1       212 2.10718E+01
 -1       213 2.08430E+01
 -1       214 2.10075E+01
 -1       215 2.11555E+01
 -1       216 2.12424E+01
 -1       217 2.12424E+01
 -1       218 2.11989E+01
 -1       219 2.12458E+01
 -1       220 2.46892E+01
 -1       221 4.30556E+01
 -1       222 3.62885E+01
 -1       223 2.35822E+01
 -1       224 2.37833E+01
 -1       225 2.37833E+01
 -1       226 2.28999E+01
 -1       227 2.15962E+01
 -1       228 2.15962E+01
 -1       229 2.12975E+01
 -1       230 2.09885E+01
 -1       231 2.12084E+01
 -1       232 2.14229E+01
 -1       233 2.15221E+01
 -1       234 2.15221E+01
 -1       235 2.91007E+01
 -1       236 2.91007E+01
 -1       237 2.30199E+01
 -1       238 2.14026E+01
 -1       239 2.14026E+01
 -1       240 2.12755E+01
 -1       241 2.10718E+01
 -1       242 2.08430E+01
 -1       243 2.10075E+01
 -1       244 2.11555E+01
 -1       245 2.12424E+01
 -1       246 2.12424E+01
 -1       247 2.11989E+01
 -1       248 2.12458E+01
 -1       249 2.46892E+01
 -1       250 4.30556E+01
 -1       251 5.27642E+01
 -1       252 5.56463E+01
 -1       253 7.09086E+01
 -1       254 7.37322E+01
 -1       255 7.37322E+01
 -1       256 6.90287E+01
 -1       257 5.96662E+01
 -1       258 5.23591E+01
 -1       259 4.85497E+01
 -1       260 4.63378E+01
 -1       261 5.06787E+01
 -1       262 6.16727E+01
 -1       263 7.61142E+01
 -1       264 7.61142E+01
 -1       265 7.59132E+01
 -1       266 5.46352E+01
 -1       267 7.30717E+01
 -1       268 7.91582E+01
 -1       269 7.91582E+01
 -1       270 6.22766E+01
 -1       271 5.04299E+01
 -1       272 4.69762E+01
 -1       273 5.64510E+01
 -1       274 7.47966E+01
 -1       275 7.60398E+01
 -1       276 7.60398E+01
 -1       277 5.03745E+01
 -1       278 7.40567E+01
 -1       279 7.76377E+01
 -1       280 7.76377E+01
 -1       281 5.92961E+01
 -1       282 5.92961E+01
 -1       283 3.62885E+01
 -1       284 2.35822E+01
 -1       285 2.37833E+01
 -1       286 2.37833E+01
 -1       287 2.28999E+01
 -1       288 2.15962E+01
 -1       289 2.15962E+01
 -1       290 2.12975E+01
 -1       291 2.09885E+01
 -1       292 2.12084E+01
 -1       293 2.14229E+01
 -1       294 2.15221E+01
 -1       295 2.15221E+01
 -1       296 2.91007E+01
 -1       297 2.91007E+01
 -1       298 2.30199E+01
 -1       299 2.14026E+01
 -1       300 2.14026E+01
 -1       301 2.12755E+01
 -1       302 2.10718E+01
 -1       303 2.08430E+01
 -1       304 2.10075E+01
 -1       305 2.11555E+01
 -1       306 2.12424E+01
 -1       307 2.12424E+01
 -1       308 2.11989E+01
 -1       309 2.12458E+01
 -1       310 2.46892E+01
 -1       311 4.30556E+01
 -1       312 5.27642E+01
 -1       313 3.62885E+01
 -1       314 2.35822E+01
 -1       315 2.37833E+01
 -1       316 2.37833E+01
 -1       317 2.28999E+01
 -1       318 2.15962E+01
 -1       319 2.15962E+01
 -1       320 2.12975E+01
 -1       321 2.09885E+01
 -1       322 2.12084E+01
 -1       323 2.14229E+01
 -1       324 2.15221E+01
 -1       325 2.15221E+01
 -1       326 2.91007E+01
 -1       327 2.91007E+01
 -1       328 2.30199E+01
 -1       329 2.14026E+01
 -1       330 2.14026E+01
 -1       331 2.12755E+01
 -1       332 2.10718E+01
 -1       333 2.08430E+01
 -1       334 2.10075E+01
 -1       335 2.11555E+01
 -1       336 2.12424E+01
 -1       337 2.12424E+01
 -1       338 2.11989E+01
 -1       339 2.12458E+01
 -1       340 2.46892E+01
 -1       341 4.30556E+01
 -1       342 5.27642E+01
 -1       343 3.62885E+01
 -1       344 2.35822E+01
 -1       345 2.37833E+01
 -1       346 2.37833E+01
 -1       347 2.28999E+01
 -1       348 2.15962E+01
 -1       349 2.15962E+01
 -1       350 2.12975E+01
 -1       351 2.09885E+01
 -1       352 2.12084E+01
 -1       353 2.14229E+01
 -1       354 2.15221E+01
 -1       355 2.15221E+01
 -1       356 2.91007E+01
 -1       357 2.91007E+01
 -1       358 2.30199E+01
 -1       359 2.14026E+01
 -1       360 2.14026E+01
 -1       361 2.12755E+01
 -1       362 2.10718E+01
 -1       363 2.08430E+01
 -1       364 2.10075E+01
 -1       365 2.11555E+01
 -1       366 2.12424E+01
 -1       367 2.12424E+01
 -1       368 2.11989E+01
 -1       369 2.12458E+01
 -1       370 2.46892E+01
 -1       371 4.30556E+01
 -1       372 3.62885E+01
 -1       373 2.35822E+01
 -1       374 2.37833E+01
 -1       375 2.37833E+01
 -1       376 2.28999E+01
 -1       377 2.15962E+01
 -1       378 2.15962E+01
 -1       379 2.12975E+01
 -1       380 2.09885E+01
 -1       381 2.12084E+01
 -1       382 2.14229E+01
 -1       383 2.15221E+01
 -1       384 2.15221E+01
 -1       385 2.91007E+01
 -1       386 2.91007E+01
 -1       387 2.30199E+01
 -1       388 2.14026E+01
 -1       389 2.14026E+01
 -1       390 2.12755E+01
 -1       391 2.10718E+01
 -1       392 2.08430E+01
 -1       393 2.10075E+01
 -1       394 2.11555E+01
 -1       395 2.12424E+01
 -1       396 2.12424E+01
 -1       397 2.11989E+01
 -1       398 2.12458E+01
 -1       399 2.46892E+01
 -1       400 4.30556E+01
 -1       401 5.92961E+01
 -1       402 5.92961E+01
 -1       403 5.27642E+01
 -1       404 7.76377E+01
 -1       405 7.76377E+01
 -1       406 7.40567E+01
 -1       407 5.03745E+01
 -1       408 7.60398E+01
 -1       409 7.60398E+01
 -1       410 7.47966E+01
 -1       411 5.64510E+01
 -1       412 4.69762E+01
 -1       413 5.04299E+01
 -1       414 6.22766E+01
 -1       415 7.91582E+01
 -1       416 7.91582E+01
 -1       417 7.30717E+01
 -1       418 5.46352E+01
 -1       419 7.59132E+01
 -1       420 7.61142E+01
 -1       421 7.61142E+01
 -1       422 6.16727E+01
 -1       423 5.06787E+01
 -1       424 4.63378E+01
 -1       425 4.85497E+01
 -1       426 5.23591E+01
 -1       427 5.96662E+01
 -1       428 6.90287E+01
 -1       429 7.37322E+01
 -1       430 7.37322E+01
 -1       431 7.09086E+01
 -1       432 5.56463E+01
 -1       433 5.27642E+01
 -1       434 5.92961E+01
 -1       435 5.92961E+01
 -1       436 5.56463E+01
 -1       437 7.09086E+01
 -1       438 7.37322E+01
 -1       439 7.37322E+01
 -1       440 6.90287E+01
 -1       441 5.96662E+01
 -1       442 5.23591E+01
 -1       443 4.85497E+01
 -1       444 4.63378E+01
 -1       445 5.06787E+01
 -1       446 6.16727E+01
 -1       447 7.61142E+01
 -1       448 7.61142E+01
 -1       449 7.59132E+01
 -1       450 5.46352E+01
 -1       451 7.30717E+01
 -1       452 7.91582E+01
 -1       453 7.91582E+01
 -1       454 6.22766E+01
 -1       455 5.04299E+01
 -1       456 4.69762E+01
 -1       457 5.64510E+01
 -1       458 7.47966E+01
 -1       459 7.60398E+01
 -1       460 7.60398E+01
 -1       461 5.03745E+01
 -1       462 7.40567E+01
 -1       463 7.76377E+01
 -1       464 7.76377E+01
 -1       465 5.27642E+01
 -1       466 3.62885E+01
 -1       467 2.35822E+01
 -1       468 2.37833E+01
 -1       469 2.37833E+01
 -1       470 2.28999E+01
 -1       471 2.15962E+01
 -1       472 2.15962E+01
 -1       473 2.12975E+01
 -1       474 2.09885E+01
 -1       475 2.12084E+01
 -1       476 2.14229E+01
 -1       477 2.15221E+01
 -1       478 2.15221E+01
 -1       479 2.91007E+01
 -1       480 2.91007E+01
 -1       481 2.30199E+01
 -1       482 2.14026E+01
 -1       483 2.14026E+01
 -1       484 2.12755E+01
 -1       485 2.10718E+01
 -1       486 2.08430E+01
 -1       487 2.10075E+01
 -1       488 2.11555E+01
 -1       489 2.12424E+01
 -1       490 2.12424E+01
 -1       491 2.11989E+01
 -1       492 2.12458E+01
 -1       493 2.46892E+01
 -1       494 4.30556E+01
 -1       495 3.62885E+01
 -1       496 2.35822E+01
 -1       497 2.37833E+01
 -1       498 2.37833E+01
 -1       499 2.28999E+01
 -1       500 2.15962E+01
 -1       501 2.15962E+01
 -1       502 2.12975E+01
 -1       503 2.09885E+01
 -1       504 2.12084E+01
 -1       505 2.14229E+01
 -1       506 2.15221E+01
 -1       507 2.15221E+01
 -1       508 2.91007E+01
 -1       509 2.91007E+01
 -1       510 2.30199E+01
 -1       511 2.14026E+01
 -1       512 2.14026E+01
 -1       513 2.12755E+01
 -1       514 2.10718E+01
 -1       515 2.08430E+01
 -1       516 2.10075E+01
 -1       517 2.11555E+01
 -1       518 2.12424E+01
 -1       519 2.12424E+01
 -1       520 2.11989E+01
 -1       521 2.12458E+01
 -1       522 2.46892E+01
 -1       523 4.30556E+01
 -1       524 5.27642E+01
 -1       525 5.65378E+01
 -1       526 7.12726E+01
 -1       527 7.12726E+01
 -1       528 6.86318E+01
 -1       529 6.86318E+01
 -1       530 6.34455E+01
 -1       531 4.92242E+01
 -1       532 4.04261E+01
 -1       533 3.42548E+01
 -1       534 3.71539E+01
 -1       535 4.37812E+01
 -1       536 5.40776E+01
 -1       537 6.98643E+01
 -1       538 7.22310E+01
 -1       539 7.22310E+01
 -1       540 6.73407E+01
 -1       541 6.52231E+01
 -1       542 5.15091E+01
 -1       543 4.25006E+01
 -1       544 3.59922E+01
 -1       545 3.13963E+01
 -1       546 3.30522E+01
 -1       547 3.76367E+01
 -1       548 4.34979E+01
 -1       549 5.02955E+01
 -1       550 5.88576E+01
 -1       551 5.88576E+01
 -1       552 6.14763E+01
 -1       553 6.98701E+01
 -1       554 3.82215E+01
 -1       555 3.97561E+01
 -1       556 3.97561E+01
 -1       557 4.35740E+01
 -1       558 4.35740E+01
 -1       559 3.72183E+01
 -1       560 3.34466E+01
 -1       561 3.09920E+01
 -1       562 2.90894E+01
 -1       563 3.03023E+01
 -1       564 3.22234E+01
 -1       565 3.64245E+01
 -1       566 4.50812E+01
 -1       567 6.89921E+01
 -1       568 6.89921E+01
 -1       569 6.55875E+01
 -1       570 4.33099E+01
 -1       571 3.57380E+01
 -1       572 3.15614E+01
 -1       573 2.95042E+01
 -1       574 2.79545E+01
 -1       575 2.86551E+01
 -1       576 3.03525E+01
 -1       577 3.31354E+01
 -1       578 3.55713E+01
 -1       579 3.55713E+01
 -1       580 2.87547E+01
 -1       581 3.90030E+01
 -1       582 4.00273E+01
 -1       583 5.65378E+01
 -1       584 7.12726E+01
 -1       585 7.12726E+01
 -1       586 6.86318E+01
 -1       587 6.86318E+01
 -1       588 6.34455E+01
 -1       589 4.92242E+01
 -1       590 4.04261E+01
 -1       591 3.42548E+01
 -1       592 3.71539E+01
 -1       593 4.37812E+01
 -1       594 5.40776E+01
 -1       595 6.98643E+01
 -1       596 7.22310E+01
 -1       597 7.22310E+01
 -1       598 6.73407E+01
 -1       599 6.52231E+01
 -1       600 5.15091E+01
 -1       601 4.25006E+01
 -1       602 3.59922E+01
 -1       603 3.13963E+01
 -1       604 3.30522E+01
 -1       605 3.76367E+01
 -1       606 4.34979E+01
 -1       607 5.02955E+01
 -1       608 5.88576E+01
 -1       609 5.88576E+01
 -1       610 6.14763E+01
 -1       611 6.98701E+01
 -1       612 5.65378E+01
 -1       613 7.12726E+01
 -1       614 7.12726E+01
 -1       615 6.86318E+01
 -1       616 6.86318E+01
 -1       617 6.34455E+01
 -1       618 4.92242E+01
 -1       619 4.04261E+01
 -1       620 3.42548E+01
 -1       621 3.71539E+01
 -1       622 4.37812E+01
 -1       623 5.40776E+01
 -1       624 6.98643E+01
 -1       625 7.22310E+01
 -1       626 7.22310E+01
 -1       627 6.73407E+01
 -1       628 6.52231E+01
 -1       629 5.15091E+01
 -1       630 4.25006E+01
 -1       631 3.59922E+01
 -1       632 3.13963E+01
 -1       633 3.30522E+01
 -1       634 3.76367E+01
 -1       635 4.34979E+01
 -1       636 5.02955E+01
 -1       637 5.88576E+01
 -1       638 5.88576E+01
 -1       639 6.14763E+01
 -1       640 6.98701E+01
 -1       641 3.82215E+01
 -1       642 3.97561E+01
 -1       643 3.97561E+01
 -1       644 4.35740E+01
 -1       645 4.35740E+01
 -1       646 3.72183E+01
 -1       647 3.34466E+01
 -1       648 3.09920E+01
 -1       649 2.90894E+01
 -1       650 3.03023E+01
 -1       651 3.22234E+01
 -1       652 3.64245E+01
 -1       653 4.50812E+01
 -1       654 6.89921E+01
 -1       655 6.89921E+01
 -1       656 6.55875E+01
 -1       657 4.33099E+01
 -1       658 3.57380E+01
 -1       659 3.15614E+01
 -1       660 2.95042E+01
 -1       661 2.79545E+01
 -1       662 2.86551E+01
 -1       663 3.03525E+01
 -1       664 3.31354E+01
 -1       665 3.55713E+01
 -1       666 3.55713E+01
 -1       667 2.87547E+01
 -1       668 3.90030E+01
 -1       669 4.00273E+01
 -1       670 5.65378E+01
 -1       671 7.12726E+01
 -1       672 7.12726E+01
 -1       673 6.86318E+01
 -1       674 6.86318E+01
 -1       675 6.34455E+01
 -1       676 4.92242E+01
 -1       677 4.04261E+01
 -1       678 3.42548E+01
 -1       679 3.71539E+01
 -1       680 4.37812E+01
 -1       681 5.40776E+01
 -1       682 6.98643E+01
 -1       683 7.22310E+01
 -1       684 7.22310E+01
 -1       685 6.73407E+01
 -1       686 6.52231E+01
 -1       687 5.15091E+01
 -1       688 4.25006E+01
 -1       689 3.59922E+01
 -1       690 3.13963E+01
 -1       691 3.30522E+01
 -1       692 3.76367E+01
 -1       693 4.34979E+01
 -1       694 5.02955E+01
 -1       695 5.88576E+01
 -1       696 5.88576E+01
 -1       697 6.14763E+01
 -1       698 6.98701E+01
 -1       699 5.92961E+01
 -1       700 5.41605E+01
 -1       701 4.56447E+01
 -1       702 2.37833E+01
 -1       703 5.00878E+01
 -1       704 5.56481E+01
 -1       705 5.56481E+01
 -1       706 5.25009E+01
 -1       707 4.69762E+01
 -1       708 5.04299E+01
 -1       709 5.47771E+01
 -1       710 5.58942E+01
 -1       711 5.58942E+01
 -1       712 4.72423E+01
 -1       713 2.91007E+01
 -1       714 5.12151E+01
 -1       715 5.60271E+01
 -1       716 5.60271E+01
 -1       717 5.45266E+01
 -1       718 5.06787E+01
 -1       719 4.63378E+01
 -1       720 4.85497E+01
 -1       721 5.23591E+01
 -1       722 5.52001E+01
 -1       723 5.61421E+01
 -1       724 5.62638E+01
 -1       725 5.62638E+01
 -1       726 5.28817E+01
 -1       727 5.27642E+01
 -1       728 5.92961E+01
 -1       729 5.41605E+01
 -1       730 4.56447E+01
 -1       731 2.37833E+01
 -1       732 5.00878E+01
 -1       733 5.56481E+01
 -1       734 5.56481E+01
 -1       735 5.25009E+01
 -1       736 4.69762E+01
 -1       737 5.04299E+01
 -1       738 5.47771E+01
 -1       739 5.58942E+01
 -1       740 5.58942E+01
 -1       741 4.72423E+01
 -1       742 2.91007E+01
 -1       743 5.12151E+01
 -1       744 5.60271E+01
 -1       745 5.60271E+01
 -1       746 5.45266E+01
 -1       747 5.06787E+01
 -1       748 4.63378E+01
 -1       749 4.85497E+01
 -1       750 5.23591E+01
 -1       751 5.52001E+01
 -1       752 5.61421E+01
 -1       753 5.62638E+01
 -1       754 5.62638E+01
 -1       755 5.28817E+01
 -1       756 5.27642E+01
 -1       757 5.92961E+01
 -1       758 5.41605E+01
 -1       759 4.56447E+01
 -1       760 2.37833E+01
 -1       761 5.00878E+01
 -1       762 5.56481E+01
 -1       763 5.56481E+01
 -1       764 5.25009E+01
 -1       765 4.69762E+01
 -1       766 5.04299E+01
 -1       767 5.47771E+01
 -1       768 5.58942E+01
 -1       769 5.58942E+01
 -1       770 4.72423E+01
 -1       771 2.91007E+01
 -1       772 5.12151E+01
 -1       773 5.60271E+01
 -1       774 5.60271E+01
 -1       775 5.45266E+01
 -1       776 5.06787E+01
 -1       777 4.63378E+01
 -1       778 4.85497E+01
 -1       779 5.23591E+01
 -1       780 5.52001E+01
 -1       781 5.61421E+01
 -1       782 5.62638E+01
 -1       783 5.62638E+01
 -1       784 5.28817E+01
 -1       785 5.27642E+01
 -1       786 5.92961E+01
 -1       787 5.41605E+01
 -1       788 4.56447E+01
 -1       789 2.37833E+01
 -1       790 5.00878E+01
 -1       791 5.56481E+01
 -1       792 5.56481E+01
 -1       793 5.25009E+01
 -1       794 4.69762E+01
 -1       795 5.04299E+01
 -1       796 5.47771E+01
 -1       797 5.58942E+01
 -1       798 5.58942E+01
 -1       799 4.72423E+01
 -1       800 2.91007E+01
 -1       801 5.12151E+01
 -1       802 5.60271E+01
 -1       803 5.60271E+01
 -1       804 5.45266E+01
 -1       805 5.06787E+01
 -1       806 4.63378E+01
 -1       807 4.85497E+01
 -1       808 5.23591E+01
 -1       809 5.52001E+01
 -1       810 5.61421E+01
 -1       811 5.62638E+01
 -1       812 5.62638E+01
 -1       813 5.28817E+01
 -1       814 5.27642E+01
 -1       815 5.92961E+01
 -1       816 5.41605E+01
 -1       817 4.56447E+01
 -1       818 2.37833E+01
 -1       819 5.00878E+01
 -1       820 5.56481E+01
 -1       821 5.56481E+01
 -1       822 5.25009E+01
 -1       823 4.69762E+01
 -1       824 5.04299E+01
 -1       825 5.47771E+01
 -1       826 5.58942E+01
 -1       827 5.58942E+01
 -1       828 4.72423E+01
 -1       829 2.91007E+01
 -1       830 5.12151E+01
 -1       831 5.60271E+01
 -1       832 5.60271E+01
 -1       833 5.45266E+01
 -1       834 5.06787E+01
 -1       835 4.63378E+01
 -1       836 4.85497E+01
 -1       837 5.23591E+01
 -1       838 5.52001E+01
 -1       839 5.61421E+01
 -1       840 5.62638E+01
 -1       841 5.62638E+01
 -1       842 5.28817E+01
 -1       843 5.27642E+01
 -1       844 5.92961E+01
 -1       845 5.41605E+01
 -1       846 4.56447E+01
 -1       847 2.37833E+01
 -1       848 5.00878E+01
 -1       849 5.56481E+01
 -1       850 5.56481E+01
 -1       851 5.25009E+01
 -1       852 4.69762E+01
 -1       853 5.04299E+01
 -1       854 5.47771E+01
 -1       855 5.58942E+01
 -1       856 5.58942E+01
 -1       857 4.72423E+01
 -1       858 2.91007E+01
 -1       859 5.12151E+01
 -1       860 5.60271E+01
 -1       861 5.60271E+01
 -1       862 5.45266E+01
 -1       863 5.06787E+01
 -1       864 4.63378E+01
 -1       865 4.85497E+01
 -1       866 5.23591E+01
 -1       867 5.52001E+01
 -1       868 5.61421E+01
 -1       869 5.62638E+01
 -1       870 5.62638E+01
 -1       871 5.28817E+01
 -1       872 5.27642E+01
 -1       873 5.27642E+01
 -1       874 5.28817E+01
 -1       875 5.62638E+01
 -1       876 5.62638E+01
 -1       877 5.61421E+01
 -1       878 5.52001E+01
 -1       879 5.23591E+01
 -1       880 4.85497E+01
 -1       881 4.63378E+01
 -1       882 5.06787E+01
 -1       883 5.45266E+01
 -1       884 5.60271E+01
 -1       885 5.60271E+01
 -1       886 5.12151E+01
 -1       887 2.91007E+01
 -1       888 4.72423E+01
 -1       889 5.58942E+01
 -1       890 5.58942E+01
 -1       891 5.47771E+01
 -1       892 5.04299E+01
 -1       893 4.69762E+01
 -1       894 5.25009E+01
 -1       895 5.56481E+01
 -1       896 5.56481E+01
 -1       897 5.00878E+01
 -1       898 2.37833E+01
 -1       899 4.56447E+01
 -1       900 5.41605E+01
 -1       901 5.92961E+01
 -1       902 5.92961E+01
 -1       903 5.41605E+01
 -1       904 4.56447E+01
 -1       905 2.37833E+01
 -1       906 5.00878E+01
 -1       907 5.56481E+01
 -1       908 5.56481E+01
 -1       909 5.25009E+01
 -1       910 4.69762E+01
 -1       911 5.04299E+01
 -1       912 5.47771E+01
 -1       913 5.58942E+01
 -1       914 5.58942E+01
 -1       915 4.72423E+01
 -1       916 2.91007E+01
 -1       917 5.12151E+01
 -1       918 5.60271E+01
 -1       919 5.60271E+01
 -1       920 5.45266E+01
 -1       921 5.06787E+01
 -1       922 4.63378E+01
 -1       923 4.85497E+01
 -1       924 5.23591E+01
 -1       925 5.52001E+01
 -1       926 5.61421E+01
 -1       927 5.62638E+01
 -1       928 5.62638E+01
 -1       929 5.28817E+01
 -1       930 5.27642E+01
 -3
    1PSTEP                        25           1           1          
    1PGM                1.000000E+00                                  
    1PGK                2.621869E+06                                  
    1PHID                         -1                                  
    1PSUBC                         0                                  
    1PMODE                         7                                  
  100CL  107 257.7066322         930                     2    7MODAL      1
 -4  DISP        4    1
 -5  D1          1    2    1    0
 -5  D2          1    2    2    0
 -5  D3          1    2    3    0
 -5  ALL         1    2    0    0    1ALL
 -1         1 0.00000E+00 0.00000E+00 0.00000E+00
 -1         2 0.00000E+00 0.00000E+00 0.00000E+00
 -1         3-3.26844E-02-3.88678E-06-1.26419E-01
 -1         4-3.26844E-02 3.88684E-06-1.26419E-01
 -1         5 0.00000E+00 0.00000E+00 0.00000E+00
 -1         6 0.00000E+00 0.00000E+00 0.00000E+00
 -1         7 3.26844E-02 3.88682E-06-1.26419E-01
 -1         8 3.26844E-02-3.88680E-06-1.26419E-01
 -1         9 0.00000E+00 0.00000E+00 0.00000E+00
 -1        10-3.50850E-02 4.62094E-05-1.26436E-01
 -1        11 0.00000E+00 0.00000E+00 0.00000E+00
 -1        12 0.00000E+00 0.00000E+00 0.00000E+00
 -1        13-3.50406E-02 2.09356E-04-1.28121E-01
 -1        14-3.25454E-02-1.26227E-04-1.28118E-01
 -1        15 0.00000E+00 0.00000E+00 0.00000E+00
 -1        16 3.50850E-02-4.62094E-05-1.26436E-01
 -1        17 0.00000E+00 0.00000E+00 0.00000E+00
 -1        18 0.00000E+00 0.00000E+00 0.00000E+00
 -1        19 3.25454E-02 1.26227E-04-1.28118E-01
 -1        20 3.50406E-02-2.09356E-04-1.28121E-01
 -1        21 0.00000E+00 0.00000E+00 0.00000E+00
 -1        22 0.00000E+00 0.00000E+00 0.00000E+00
 -1        23-3.50406E-02-2.09356E-04-1.28121E-01
 -1        24-3.25454E-02 1.26227E-04-1.28118E-01
 -1        25 0.00000E+00 0.00000E+00 0.00000E+00
 -1        26-3.50850E-02-4.62094E-05-1.26436E-01
 -1        27 0.00000E+00 0.00000E+00 0.00000E+00
 -1        28 0.00000E+00 0.00000E+00 0.00000E+00
 -1        29 0.00000E+00 0.00000E+00 0.00000E+00
 -1        30 3.50850E-02 4.62094E-05-1.26436E-01
 -1        31 3.50406E-02 2.09356E-04-1.28121E-01
 -1        32 3.25454E-02-1.26227E-04-1.28118E-01
 -1        33 2.84111E-03-5.31601E-05 5.65341E-03
 -1        34 5.70591E-03-2.83111E-05 1.42312E-02
 -1        35 7.76642E-03-2.38480E-05 2.38251E-02
 -1        36 9.17138E-03-1.57488E-05 3.41940E-02
 -1        37 9.94701E-03-7.60220E-06 4.49072E-02
 -1        38 1.01172E-02 3.83267E-07 5.55865E-02
 -1        39 9.71549E-03 7.71352E-06 6.58663E-02
 -1        40 8.78345E-03 1.44252E-05 7.53910E-02
 -1        41 7.36875E-03 2.04588E-05 8.38296E-02
 -1        42 5.52554E-03 2.57487E-05 9.08857E-02
 -1        43 3.31354E-03 3.02298E-05 9.63024E-02
 -1        44 7.96950E-04 3.38519E-05 9.98664E-02
 -1        45-1.95675E-03 3.65826E-05 1.01411E-01
 -1        46-4.87817E-03 3.84083E-05 1.00818E-01
 -1        47-7.89749E-03 3.93345E-05 9.80198E-02
 -1        48-1.09459E-02 3.93863E-05 9.29997E-02
 -1        49-1.39572E-02 3.86085E-05 8.57901E-02
 -1        50-1.68692E-02 3.70656E-05 7.64715E-02
 -1        51-1.96254E-02 3.48407E-05 6.51687E-02
 -1        52-2.21763E-02 3.20348E-05 5.20474E-02
 -1        53-2.44806E-02 2.87649E-05 3.73083E-02
 -1        54-2.65065E-02 2.51626E-05 2.11817E-02
 -1        55-2.82330E-02 2.13731E-05 3.92038E-03
 -1        56-2.96499E-02 1.75528E-05-1.42075E-02
 -1        57-3.07597E-02 1.38666E-05-3.29262E-02
 -1        58-3.15770E-02 1.04561E-05-5.19599E-02
 -1        59-3.21292E-02 7.43212E-06-7.10432E-02
 -1        60-3.24564E-02 4.94163E-06-8.99328E-02
 -1        61-3.26145E-02 3.86313E-06-1.08428E-01
 -1        62 2.84111E-03 5.31601E-05 5.65341E-03
 -1        63 5.70591E-03 2.83111E-05 1.42312E-02
 -1        64 7.76642E-03 2.38481E-05 2.38251E-02
 -1        65 9.17138E-03 1.57489E-05 3.41940E-02
 -1        66 9.94701E-03 7.60223E-06 4.49072E-02
 -1        67 1.01172E-02-3.83235E-07 5.55865E-02
 -1        68 9.71549E-03-7.71349E-06 6.58663E-02
 -1        69 8.78345E-03-1.44252E-05 7.53910E-02
 -1        70 7.36875E-03-2.04588E-05 8.38296E-02
 -1        71 5.52554E-03-2.57487E-05 9.08857E-02
 -1        72 3.31354E-03-3.02298E-05 9.63024E-02
 -1        73 7.96950E-04-3.38519E-05 9.98664E-02
 -1        74-1.95675E-03-3.65826E-05 1.01411E-01
 -1        75-4.87817E-03-3.84083E-05 1.00818E-01
 -1        76-7.89749E-03-3.93345E-05 9.80198E-02
 -1        77-1.09459E-02-3.93863E-05 9.29997E-02
 -1        78-1.39572E-02-3.86085E-05 8.57901E-02
 -1        79-1.68692E-02-3.70656E-05 7.64715E-02
 -1        80-1.96254E-02-3.48407E-05 6.51687E-02
 -1        81-2.21763E-02-3.20348E-05 5.20474E-02
 -1        82-2.44806E-02-2.87649E-05 3.73083E-02
 -1        83-2.65065E-02-2.51627E-05 2.11817E-02
 -1        84-2.82330E-02-2.13732E-05 3.92038E-03
 -1        85-2.96499E-02-1.75528E-05-1.42075E-02
 -1        86-3.07597E-02-1.38666E-05-3.29262E-02
 -1        87-3.15770E-02-1.04561E-05-5.19599E-02
 -1        88-3.21292E-02-7.43211E-06-7.10432E-02
 -1        89-3.24564E-02-4.94160E-06-8.99328E-02
 -1        90-3.26145E-02-3.86309E-06-1.08428E-01
 -1        91 0.00000E+00 0.00000E+00 0.00000E+00
 -1        92 0.00000E+00 0.00000E+00 0.00000E+00
 -1        93 0.00000E+00 0.00000E+00 0.00000E+00
 -1        94 0.00000E+00 0.00000E+00 0.00000E+00
 -1        95 0.00000E+00 0.00000E+00 0.00000E+00
 -1        96 0.00000E+00 0.00000E+00 0.00000E+00
 -1        97-2.84111E-03-5.31601E-05 5.65341E-03
 -1        98-5.70591E-03-2.83111E-05 1.42312E-02
 -1        99-7.76642E-03-2.38481E-05 2.38251E-02
 -1       100-9.17138E-03-1.57488E-05 3.41940E-02
 -1       101-9.94701E-03-7.60221E-06 4.49072E-02
 -1       102-1.01172E-02 3.83263E-07 5.55865E-02
 -1       103-9.71549E-03 7.71352E-06 6.58663E-02
 -1       104-8.78345E-03 1.44252E-05 7.53910E-02
 -1       105-7.36875E-03 2.04588E-05 8.38296E-02
 -1       106-5.52554E-03 2.57487E-05 9.08857E-02
 -1       107-3.31354E-03 3.02298E-05 9.63024E-02
 -1       108-7.96950E-04 3.38519E-05 9.98664E-02
 -1       109 1.95675E-03 3.65826E-05 1.01411E-01
 -1       110 4.87817E-03 3.84083E-05 1.00818E-01
 -1       111 7.89749E-03 3.93345E-05 9.80198E-02
 -1       112 1.09459E-02 3.93863E-05 9.29997E-02
 -1       113 1.39572E-02 3.86085E-05 8.57901E-02
 -1       114 1.68692E-02 3.70656E-05 7.64715E-02
 -1       115 1.96254E-02 3.48407E-05 6.51687E-02
 -1       116 2.21763E-02 3.20348E-05 5.20474E-02
 -1       117 2.44806E-02 2.87649E-05 3.73083E-02
 -1       118 2.65065E-02 2.51626E-05 2.11817E-02
 -1       119 2.82330E-02 2.13731E-05 3.92038E-03
 -1       120 2.96499E-02 1.75528E-05-1.42075E-02
 -1       121 3.07597E-02 1.38666E-05-3.29262E-02
 -1       122 3.15770E-02 1.04561E-05-5.19599E-02
 -1       123 3.21292E-02 7.43211E-06-7.10432E-02
 -1       124 3.24564E-02 4.94162E-06-8.99328E-02
 -1       125 3.26145E-02 3.86312E-06-1.08428E-01
 -1       126-1.63232E-02 4.84724E-06-1.26168E-01
 -1       127 2.27324E-12 1.93485E-11-1.26059E-01
 -1       128 1.63232E-02-4.84720E-06-1.26168E-01
 -1       129-2.84111E-03 5.31601E-05 5.65341E-03
 -1       130-5.70591E-03 2.83111E-05 1.42312E-02
 -1       131-7.76642E-03 2.38481E-05 2.38251E-02
 -1       132-9.17138E-03 1.57489E-05 3.41940E-02
 -1       133-9.94701E-03 7.60222E-06 4.49072E-02
 -1       134-1.01172E-02-3.83240E-07 5.55865E-02
 -1       135-9.71549E-03-7.71349E-06 6.58663E-02
 -1       136-8.78345E-03-1.44252E-05 7.53910E-02
 -1       137-7.36875E-03-2.04588E-05 8.38296E-02
 -1       138-5.52554E-03-2.57487E-05 9.08857E-02
 -1       139-3.31354E-03-3.02298E-05 9.63024E-02
 -1       140-7.96950E-04-3.38519E-05 9.98664E-02
 -1       141 1.95675E-03-3.65826E-05 1.01411E-01
 -1       142 4.87817E-03-3.84083E-05 1.00818E-01
 -1       143 7.89749E-03-3.93345E-05 9.80198E-02
 -1       144 1.09459E-02-3.93863E-05 9.29997E-02
 -1       145 1.39572E-02-3.86085E-05 8.57901E-02
 -1       146 1.68692E-02-3.70656E-05 7.64715E-02
 -1       147 1.96254E-02-3.48407E-05 6.51687E-02
 -1       148 2.21763E-02-3.20348E-05 5.20474E-02
 -1       149 2.44806E-02-2.87649E-05 3.73083E-02
 -1       150 2.65065E-02-2.51627E-05 2.11817E-02
 -1       151 2.82330E-02-2.13731E-05 3.92038E-03
 -1       152 2.96499E-02-1.75528E-05-1.42075E-02
 -1       153 3.07597E-02-1.38666E-05-3.29262E-02
 -1       154 3.15770E-02-1.04561E-05-5.19599E-02
 -1       155 3.21292E-02-7.43211E-06-7.10432E-02
 -1       156 3.24564E-02-4.94161E-06-8.99328E-02
 -1       157 3.26145E-02-3.86311E-06-1.08428E-01
 -1       158 1.63232E-02 4.84723E-06-1.26168E-01
 -1       159 1.83148E-12 1.93502E-11-1.26059E-01
 -1       160-1.63232E-02-4.84719E-06-1.26168E-01
 -1       161 3.86702E-03 1.02015E-04 5.80431E-03
 -1       162 6.85056E-03 5.51609E-05 1.43158E-02
 -1       163 9.04225E-03 1.93929E-05 2.39010E-02
 -1       164 1.05216E-02 1.64070E-06 3.42421E-02
 -1       165 1.13209E-02-8.50549E-06 4.49307E-02
 -1       166 1.14662E-02-1.83978E-05 5.55856E-02
 -1       167 1.09916E-02-2.85275E-05 6.58430E-02
 -1       168 9.94074E-03-3.82470E-05 7.53471E-02
 -1       169 8.36550E-03-4.69970E-05 8.37673E-02
 -1       170 6.32498E-03-5.45233E-05 9.08071E-02
 -1       171 3.88439E-03-6.06967E-05 9.62101E-02
 -1       172 1.11388E-03-6.54221E-05 9.97630E-02
 -1       173-1.91279E-03-6.86211E-05 1.01299E-01
 -1       174-5.11968E-03-7.02426E-05 1.00701E-01
 -1       175-8.43032E-03-7.02691E-05 9.78996E-02
 -1       176-1.17693E-02-6.87198E-05 9.28793E-02
 -1       177-1.50640E-02-6.56494E-05 8.56721E-02
 -1       178-1.82462E-02-6.11474E-05 7.63581E-02
 -1       179-2.12539E-02-5.53365E-05 6.50622E-02
 -1       180-2.40323E-02-4.83701E-05 5.19494E-02
 -1       181-2.65362E-02-4.04297E-05 3.72203E-02
 -1       182-2.87304E-02-3.17180E-05 2.11046E-02
 -1       183-3.05911E-02-2.24475E-05 3.85482E-03
 -1       184-3.21070E-02-1.28312E-05-1.42615E-02
 -1       185-3.32799E-02-3.12054E-06-3.29689E-02
 -1       186-3.41251E-02 6.27260E-06-5.19922E-02
 -1       187-3.46722E-02 1.45415E-05-7.10665E-02
 -1       188-3.49652E-02 2.13745E-05-8.99487E-02
 -1       189-3.50679E-02 2.65618E-05-1.08438E-01
 -1       190 0.00000E+00 0.00000E+00 0.00000E+00
 -1       191 0.00000E+00 0.00000E+00 0.00000E+00
 -1       192-3.50530E-02 1.89248E-04-1.27088E-01
 -1       193 3.39533E-03 1.14262E-03 3.89386E-03
 -1       194 6.25510E-03 8.26697E-04 1.32801E-02
 -1       195 8.39576E-03 4.63205E-04 2.40290E-02
 -1       196 9.87097E-03 2.45193E-04 3.47316E-02
 -1       197 1.06928E-02 6.18038E-05 4.55010E-02
 -1       198 1.08760E-02-1.13859E-04 5.62351E-02
 -1       199 1.04454E-02-2.82707E-04 6.66047E-02
 -1       200 9.44406E-03-4.40002E-04 7.62286E-02
 -1       201 7.92397E-03-5.81529E-04 8.47570E-02
 -1       202 5.94390E-03-7.04725E-04 9.18865E-02
 -1       203 3.56808E-03-8.07886E-04 9.73581E-02
 -1       204 8.65409E-04-8.89713E-04 1.00957E-01
 -1       205-2.09170E-03-9.49268E-04 1.02514E-01
 -1       206-5.22876E-03-9.86046E-04 1.01912E-01
 -1       207-8.47079E-03-1.00003E-03 9.90800E-02
 -1       208-1.17439E-02-9.91692E-04 9.40022E-02
 -1       209-1.49770E-02-9.62040E-04 8.67111E-02
 -1       210-1.81034E-02-9.12554E-04 7.72881E-02
 -1       211-2.10623E-02-8.45198E-04 6.58593E-02
 -1       212-2.38006E-02-7.62380E-04 5.25920E-02
 -1       213-2.62740E-02-6.66914E-04 3.76892E-02
 -1       214-2.84483E-02-5.61956E-04 2.13836E-02
 -1       215-3.03008E-02-4.50912E-04 3.93013E-03
 -1       216-3.18209E-02-3.37358E-04-1.44013E-02
 -1       217-3.30107E-02-2.25188E-04-3.33321E-02
 -1       218-3.38851E-02-1.19205E-04-5.25764E-02
 -1       219-3.44728E-02-2.56435E-05-7.18440E-02
 -1       220-3.48220E-02 4.74693E-05-9.08758E-02
 -1       221-3.49912E-02 1.11467E-04-1.09583E-01
 -1       222 2.42419E-03 7.75500E-04 3.74598E-03
 -1       223 4.84021E-03 5.93346E-04 1.31946E-02
 -1       224 6.95562E-03 4.86549E-04 2.39521E-02
 -1       225 8.43234E-03 3.44383E-04 3.46859E-02
 -1       226 9.24371E-03 1.77959E-04 4.54801E-02
 -1       227 9.45084E-03 1.99669E-05 5.62390E-02
 -1       228 9.09494E-03-1.24582E-04 6.66314E-02
 -1       229 8.21821E-03-2.55986E-04 7.62764E-02
 -1       230 6.86675E-03-3.74148E-04 8.48238E-02
 -1       231 5.09314E-03-4.77965E-04 9.19698E-02
 -1       232 2.95573E-03-5.66219E-04 9.74554E-02
 -1       233 5.17371E-04-6.37958E-04 1.01066E-01
 -1       234-2.15599E-03-6.92599E-04 1.02632E-01
 -1       235-4.99663E-03-7.29923E-04 1.02034E-01
 -1       236-7.93645E-03-7.50075E-04 9.92054E-02
 -1       237-1.09084E-02-7.53573E-04 9.41275E-02
 -1       238-1.38481E-02-7.41313E-04 8.68338E-02
 -1       239-1.66950E-02-7.14561E-04 7.74055E-02
 -1       240-1.93943E-02-6.74944E-04 6.59694E-02
 -1       241-2.18980E-02-6.24426E-04 5.26929E-02
 -1       242-2.41661E-02-5.65282E-04 3.77794E-02
 -1       243-2.61682E-02-5.00072E-04 2.14619E-02
 -1       244-2.78839E-02-4.31632E-04 3.99601E-03
 -1       245-2.93041E-02-3.63058E-04-1.43480E-02
 -1       246-3.04319E-02-2.97525E-04-3.32910E-02
 -1       247-3.12832E-02-2.37687E-04-5.25467E-02
 -1       248-3.18864E-02-1.84384E-04-7.18241E-02
 -1       249-3.22782E-02-1.41381E-04-9.08641E-02
 -1       250-3.24837E-02-1.27090E-04-1.09578E-01
 -1       251-3.25996E-02-1.03992E-04-1.27089E-01
 -1       252 3.50679E-02-2.65618E-05-1.08438E-01
 -1       253 3.49652E-02-2.13745E-05-8.99487E-02
 -1       254 3.46722E-02-1.45415E-05-7.10665E-02
 -1       255 3.41251E-02-6.27260E-06-5.19922E-02
 -1       256 3.32799E-02 3.12053E-06-3.29689E-02
 -1       257 3.21070E-02 1.28312E-05-1.42615E-02
 -1       258 3.05911E-02 2.24475E-05 3.85482E-03
 -1       259 2.87304E-02 3.17180E-05 2.11046E-02
 -1       260 2.65362E-02 4.04297E-05 3.72203E-02
 -1       261 2.40323E-02 4.83701E-05 5.19494E-02
 -1       262 2.12539E-02 5.53365E-05 6.50622E-02
 -1       263 1.82462E-02 6.11474E-05 7.63581E-02
 -1       264 1.50640E-02 6.56494E-05 8.56721E-02
 -1       265 1.17693E-02 6.87198E-05 9.28793E-02
 -1       266 8.43032E-03 7.02691E-05 9.78996E-02
 -1       267 5.11968E-03 7.02426E-05 1.00701E-01
 -1       268 1.91279E-03 6.86212E-05 1.01299E-01
 -1       269-1.11388E-03 6.54221E-05 9.97630E-02
 -1       270-3.88439E-03 6.06968E-05 9.62101E-02
 -1       271-6.32498E-03 5.45233E-05 9.08071E-02
 -1       272-8.36550E-03 4.69971E-05 8.37673E-02
 -1       273-9.94074E-03 3.82470E-05 7.53471E-02
 -1       274-1.09916E-02 2.85276E-05 6.58430E-02
 -1       275-1.14662E-02 1.83978E-05 5.55856E-02
 -1       276-1.13209E-02 8.50551E-06 4.49307E-02
 -1       277-1.05216E-02-1.64069E-06 3.42421E-02
 -1       278-9.04225E-03-1.93929E-05 2.39010E-02
 -1       279-6.85056E-03-5.51609E-05 1.43158E-02
 -1       280-3.86702E-03-1.02015E-04 5.80431E-03
 -1       281 0.00000E+00 0.00000E+00 0.00000E+00
 -1       282 0.00000E+00 0.00000E+00 0.00000E+00
 -1       283-2.42419E-03-7.75500E-04 3.74598E-03
 -1       284-4.84021E-03-5.93346E-04 1.31946E-02
 -1       285-6.95562E-03-4.86549E-04 2.39521E-02
 -1       286-8.43234E-03-3.44383E-04 3.46859E-02
 -1       287-9.24371E-03-1.77959E-04 4.54801E-02
 -1       288-9.45084E-03-1.99668E-05 5.62390E-02
 -1       289-9.09494E-03 1.24582E-04 6.66314E-02
 -1       290-8.21821E-03 2.55986E-04 7.62764E-02
 -1       291-6.86675E-03 3.74148E-04 8.48238E-02
 -1       292-5.09314E-03 4.77965E-04 9.19698E-02
 -1       293-2.95573E-03 5.66219E-04 9.74554E-02
 -1       294-5.17371E-04 6.37958E-04 1.01066E-01
 -1       295 2.15599E-03 6.92599E-04 1.02632E-01
 -1       296 4.99663E-03 7.29923E-04 1.02034E-01
 -1       297 7.93645E-03 7.50075E-04 9.92054E-02
 -1       298 1.09084E-02 7.53573E-04 9.41275E-02
 -1       299 1.38481E-02 7.41313E-04 8.68338E-02
 -1       300 1.66950E-02 7.14561E-04 7.74055E-02
 -1       301 1.93943E-02 6.74944E-04 6.59694E-02
 -1       302 2.18980E-02 6.24426E-04 5.26929E-02
 -1       303 2.41661E-02 5.65282E-04 3.77794E-02
 -1       304 2.61682E-02 5.00072E-04 2.14619E-02
 -1       305 2.78839E-02 4.31632E-04 3.99601E-03
 -1       306 2.93041E-02 3.63058E-04-1.43480E-02
 -1       307 3.04319E-02 2.97525E-04-3.32910E-02
 -1       308 3.12832E-02 2.37687E-04-5.25467E-02
 -1       309 3.18864E-02 1.84384E-04-7.18241E-02
 -1       310 3.22782E-02 1.41381E-04-9.08641E-02
 -1       311 3.24837E-02 1.27090E-04-1.09578E-01
 -1       312 3.25996E-02 1.03992E-04-1.27089E-01
 -1       313-3.39533E-03-1.14262E-03 3.89386E-03
 -1       314-6.25510E-03-8.26697E-04 1.32801E-02
 -1       315-8.39576E-03-4.63205E-04 2.40290E-02
 -1       316-9.87097E-03-2.45193E-04 3.47316E-02
 -1       317-1.06928E-02-6.18037E-05 4.55010E-02
 -1       318-1.08760E-02 1.13859E-04 5.62351E-02
 -1       319-1.04454E-02 2.82707E-04 6.66047E-02
 -1       320-9.44406E-03 4.40002E-04 7.62286E-02
 -1       321-7.92397E-03 5.81529E-04 8.47570E-02
 -1       322-5.94390E-03 7.04725E-04 9.18865E-02
 -1       323-3.56808E-03 8.07886E-04 9.73581E-02
 -1       324-8.65409E-04 8.89713E-04 1.00957E-01
 -1       325 2.09170E-03 9.49268E-04 1.02514E-01
 -1       326 5.22876E-03 9.86046E-04 1.01912E-01
 -1       327 8.47079E-03 1.00003E-03 9.90800E-02
 -1       328 1.17439E-02 9.91692E-04 9.40022E-02
 -1       329 1.49770E-02 9.62040E-04 8.67111E-02
 -1       330 1.81034E-02 9.12554E-04 7.72881E-02
 -1       331 2.10623E-02 8.45198E-04 6.58593E-02
 -1       332 2.38006E-02 7.62380E-04 5.25920E-02
 -1       333 2.62740E-02 6.66914E-04 3.76892E-02
 -1       334 2.84483E-02 5.61956E-04 2.13836E-02
 -1       335 3.03008E-02 4.50912E-04 3.93013E-03
 -1       336 3.18209E-02 3.37358E-04-1.44013E-02
 -1       337 3.30107E-02 2.25188E-04-3.33321E-02
 -1       338 3.38851E-02 1.19205E-04-5.25764E-02
 -1       339 3.44728E-02 2.56435E-05-7.18440E-02
 -1       340 3.48220E-02-4.74692E-05-9.08758E-02
 -1       341 3.49912E-02-1.11467E-04-1.09583E-01
 -1       342 3.50530E-02-1.89248E-04-1.27088E-01
 -1       343 3.39533E-03-1.14262E-03 3.89386E-03
 -1       344 6.25510E-03-8.26697E-04 1.32801E-02
 -1       345 8.39576E-03-4.63205E-04 2.40290E-02
 -1       346 9.87097E-03-2.45193E-04 3.47316E-02
 -1       347 1.06928E-02-6.18037E-05 4.55010E-02
 -1       348 1.08760E-02 1.13859E-04 5.62351E-02
 -1       349 1.04454E-02 2.82707E-04 6.66047E-02
 -1       350 9.44406E-03 4.40002E-04 7.62286E-02
 -1       351 7.92397E-03 5.81529E-04 8.47570E-02
 -1       352 5.94390E-03 7.04725E-04 9.18865E-02
 -1       353 3.56808E-03 8.07886E-04 9.73581E-02
 -1       354 8.65409E-04 8.89713E-04 1.00957E-01
 -1       355-2.09170E-03 9.49268E-04 1.02514E-01
 -1       356-5.22876E-03 9.86046E-04 1.01912E-01
 -1       357-8.47079E-03 1.00003E-03 9.90800E-02
 -1       358-1.17439E-02 9.91692E-04 9.40022E-02
 -1       359-1.49770E-02 9.62040E-04 8.67111E-02
 -1       360-1.81034E-02 9.12554E-04 7.72881E-02
 -1       361-2.10623E-02 8.45198E-04 6.58593E-02
 -1       362-2.38006E-02 7.62380E-04 5.25920E-02
 -1       363-2.62740E-02 6.66914E-04 3.76892E-02
 -1       364-2.84483E-02 5.61956E-04 2.13836E-02
 -1       365-3.03008E-02 4.50912E-04 3.93013E-03
 -1       366-3.18209E-02 3.37358E-04-1.44013E-02
 -1       367-3.30107E-02 2.25188E-04-3.33321E-02
 -1       368-3.38851E-02 1.19205E-04-5.25764E-02
 -1       369-3.44728E-02 2.56435E-05-7.18440E-02
 -1       370-3.48220E-02-4.74692E-05-9.08758E-02
 -1       371-3.49912E-02-1.11467E-04-1.09583E-01
 -1       372 2.42419E-03-7.75500E-04 3.74598E-03
 -1       373 4.84021E-03-5.93346E-04 1.31946E-02
 -1       374 6.95562E-03-4.86549E-04 2.39521E-02
 -1       375 8.43234E-03-3.44383E-04 3.46859E-02
 -1       376 9.24371E-03-1.77959E-04 4.54801E-02
 -1       377 9.45084E-03-1.99668E-05 5.62390E-02
 -1       378 9.09494E-03 1.24582E-04 6.66314E-02
 -1       379 8.21821E-03 2.55986E-04 7.62764E-02
 -1       380 6.86675E-03 3.74148E-04 8.48238E-02
 -1       381 5.09314E-03 4.77965E-04 9.19698E-02
 -1       382 2.95573E-03 5.66219E-04 9.74554E-02
 -1       383 5.17371E-04 6.37958E-04 1.01066E-01
 -1       384-2.15599E-03 6.92599E-04 1.02632E-01
 -1       385-4.99663E-03 7.29923E-04 1.02034E-01
 -1       386-7.93645E-03 7.50075E-04 9.92054E-02
 -1       387-1.09084E-02 7.53573E-04 9.41275E-02
 -1       388-1.38481E-02 7.41313E-04 8.68338E-02
 -1       389-1.66950E-02 7.14561E-04 7.74055E-02
 -1       390-1.93943E-02 6.74944E-04 6.59694E-02
 -1       391-2.18980E-02 6.24426E-04 5.26929E-02
 -1       392-2.41661E-02 5.65282E-04 3.77794E-02
 -1       393-2.61682E-02 5.00072E-04 2.14619E-02
 -1       394-2.78839E-02 4.31632E-04 3.99601E-03
 -1       395-2.93041E-02 3.63058E-04-1.43480E-02
 -1       396-3.04319E-02 2.97525E-04-3.32910E-02
 -1       397-3.12832E-02 2.37687E-04-5.25467E-02
 -1       398-3.18864E-02 1.84384E-04-7.18241E-02
 -1       399-3.22782E-02 1.41381E-04-9.08641E-02
 -1       400-3.24837E-02 1.27090E-04-1.09578E-01
 -1       401 0.00000E+00 0.00000E+00 0.00000E+00
 -1       402 0.00000E+00 0.00000E+00 0.00000E+00
 -1       403-3.50530E-02-1.89248E-04-1.27088E-01
 -1       404 3.86702E-03-1.02015E-04 5.80431E-03
 -1       405 6.85056E-03-5.51609E-05 1.43158E-02
 -1       406 9.04225E-03-1.93929E-05 2.39010E-02
 -1       407 1.05216E-02-1.64068E-06 3.42421E-02
 -1       408 1.13209E-02 8.50551E-06 4.49307E-02
 -1       409 1.14662E-02 1.83978E-05 5.55856E-02
 -1       410 1.09916E-02 2.85276E-05 6.58430E-02
 -1       411 9.94074E-03 3.82470E-05 7.53471E-02
 -1       412 8.36550E-03 4.69971E-05 8.37673E-02
 -1       413 6.32498E-03 5.45233E-05 9.08071E-02
 -1       414 3.88439E-03 6.06968E-05 9.62101E-02
 -1       415 1.11388E-03 6.54221E-05 9.97630E-02
 -1       416-1.91279E-03 6.86212E-05 1.01299E-01
 -1       417-5.11968E-03 7.02426E-05 1.00701E-01
 -1       418-8.43032E-03 7.02691E-05 9.78996E-02
 -1       419-1.17693E-02 6.87198E-05 9.28793E-02
 -1       420-1.50640E-02 6.56494E-05 8.56721E-02
 -1       421-1.82462E-02 6.11474E-05 7.63581E-02
 -1       422-2.12539E-02 5.53365E-05 6.50622E-02
 -1       423-2.40323E-02 4.83701E-05 5.19494E-02
 -1       424-2.65362E-02 4.04296E-05 3.72203E-02
 -1       425-2.87304E-02 3.17180E-05 2.11046E-02
 -1       426-3.05911E-02 2.24475E-05 3.85482E-03
 -1       427-3.21070E-02 1.28312E-05-1.42615E-02
 -1       428-3.32799E-02 3.12054E-06-3.29689E-02
 -1       429-3.41251E-02-6.27260E-06-5.19922E-02
 -1       430-3.46722E-02-1.45415E-05-7.10665E-02
 -1       431-3.49652E-02-2.13745E-05-8.99487E-02
 -1       432-3.50679E-02-2.65618E-05-1.08438E-01
 -1       433-3.25996E-02 1.03992E-04-1.27089E-01
 -1       434 0.00000E+00 0.00000E+00 0.00000E+00
 -1       435 0.00000E+00 0.00000E+00 0.00000E+00
 -1       436 3.50679E-02 2.65618E-05-1.08438E-01
 -1       437 3.49652E-02 2.13745E-05-8.99487E-02
 -1       438 3.46722E-02 1.45415E-05-7.10665E-02
 -1       439 3.41251E-02 6.27260E-06-5.19922E-02
 -1       440 3.32799E-02-3.12055E-06-3.29689E-02
 -1       441 3.21070E-02-1.28312E-05-1.42615E-02
 -1       442 3.05911E-02-2.24475E-05 3.85482E-03
 -1       443 2.87304E-02-3.17180E-05 2.11046E-02
 -1       444 2.65362E-02-4.04297E-05 3.72203E-02
 -1       445 2.40323E-02-4.83701E-05 5.19494E-02
 -1       446 2.12539E-02-5.53365E-05 6.50622E-02
 -1       447 1.82462E-02-6.11474E-05 7.63581E-02
 -1       448 1.50640E-02-6.56494E-05 8.56721E-02
 -1       449 1.17693E-02-6.87198E-05 9.28793E-02
 -1       450 8.43032E-03-7.02691E-05 9.78996E-02
 -1       451 5.11968E-03-7.02426E-05 1.00701E-01
 -1       452 1.91279E-03-6.86211E-05 1.01299E-01
 -1       453-1.11388E-03-6.54221E-05 9.97630E-02
 -1       454-3.88439E-03-6.06967E-05 9.62101E-02
 -1       455-6.32498E-03-5.45233E-05 9.08071E-02
 -1       456-8.36550E-03-4.69971E-05 8.37673E-02
 -1       457-9.94074E-03-3.82470E-05 7.53471E-02
 -1       458-1.09916E-02-2.85275E-05 6.58430E-02
 -1       459-1.14662E-02-1.83978E-05 5.55856E-02
 -1       460-1.13209E-02-8.50549E-06 4.49307E-02
 -1       461-1.05216E-02 1.64070E-06 3.42421E-02
 -1       462-9.04225E-03 1.93929E-05 2.39010E-02
 -1       463-6.85056E-03 5.51609E-05 1.43158E-02
 -1       464-3.86702E-03 1.02015E-04 5.80431E-03
 -1       465 3.50530E-02 1.89248E-04-1.27088E-01
 -1       466-3.39533E-03 1.14262E-03 3.89386E-03
 -1       467-6.25510E-03 8.26697E-04 1.32801E-02
 -1       468-8.39576E-03 4.63205E-04 2.40290E-02
 -1       469-9.87097E-03 2.45193E-04 3.47316E-02
 -1       470-1.06928E-02 6.18038E-05 4.55010E-02
 -1       471-1.08760E-02-1.13859E-04 5.62351E-02
 -1       472-1.04454E-02-2.82707E-04 6.66047E-02
 -1       473-9.44406E-03-4.40002E-04 7.62286E-02
 -1       474-7.92397E-03-5.81529E-04 8.47570E-02
 -1       475-5.94390E-03-7.04725E-04 9.18865E-02
 -1       476-3.56808E-03-8.07886E-04 9.73581E-02
 -1       477-8.65409E-04-8.89713E-04 1.00957E-01
 -1       478 2.09170E-03-9.49268E-04 1.02514E-01
 -1       479 5.22876E-03-9.86046E-04 1.01912E-01
 -1       480 8.47079E-03-1.00003E-03 9.90800E-02
 -1       481 1.17439E-02-9.91692E-04 9.40022E-02
 -1       482 1.49770E-02-9.62040E-04 8.67111E-02
 -1       483 1.81034E-02-9.12554E-04 7.72881E-02
 -1       484 2.10623E-02-8.45198E-04 6.58593E-02
 -1       485 2.38006E-02-7.62380E-04 5.25920E-02
 -1       486 2.62740E-02-6.66914E-04 3.76892E-02
 -1       487 2.84483E-02-5.61956E-04 2.13836E-02
 -1       488 3.03008E-02-4.50912E-04 3.93013E-03
 -1       489 3.18209E-02-3.37358E-04-1.44013E-02
 -1       490 3.30107E-02-2.25188E-04-3.33321E-02
 -1       491 3.38851E-02-1.19205E-04-5.25764E-02
 -1       492 3.44728E-02-2.56435E-05-7.18440E-02
 -1       493 3.48220E-02 4.74692E-05-9.08758E-02
 -1       494 3.49912E-02 1.11467E-04-1.09583E-01
 -1       495-2.42419E-03 7.75500E-04 3.74598E-03
 -1       496-4.84021E-03 5.93346E-04 1.31946E-02
 -1       497-6.95562E-03 4.86549E-04 2.39521E-02
 -1       498-8.43234E-03 3.44383E-04 3.46859E-02
 -1       499-9.24371E-03 1.77959E-04 4.54801E-02
 -1       500-9.45084E-03 1.99669E-05 5.62390E-02
 -1       501-9.09494E-03-1.24582E-04 6.66314E-02
 -1       502-8.21821E-03-2.55986E-04 7.62764E-02
 -1       503-6.86675E-03-3.74148E-04 8.48238E-02
 -1       504-5.09314E-03-4.77965E-04 9.19698E-02
 -1       505-2.95573E-03-5.66219E-04 9.74554E-02
 -1       506-5.17371E-04-6.37958E-04 1.01066E-01
 -1       507 2.15599E-03-6.92599E-04 1.02632E-01
 -1       508 4.99663E-03-7.29923E-04 1.02034E-01
 -1       509 7.93645E-03-7.50075E-04 9.92054E-02
 -1       510 1.09084E-02-7.53573E-04 9.41275E-02
 -1       511 1.38481E-02-7.41313E-04 8.68338E-02
 -1       512 1.66950E-02-7.14561E-04 7.74055E-02
 -1       513 1.93943E-02-6.74944E-04 6.59694E-02
 -1       514 2.18980E-02-6.24426E-04 5.26929E-02
 -1       515 2.41661E-02-5.65282E-04 3.77794E-02
 -1       516 2.61682E-02-5.00072E-04 2.14619E-02
 -1       517 2.78839E-02-4.31632E-04 3.99601E-03
 -1       518 2.93041E-02-3.63058E-04-1.43480E-02
 -1       519 3.04319E-02-2.97525E-04-3.32910E-02
 -1       520 3.12832E-02-2.37687E-04-5.25467E-02
 -1       521 3.18864E-02-1.84384E-04-7.18241E-02
 -1       522 3.22782E-02-1.41381E-04-9.08641E-02
 -1       523 3.24837E-02-1.27090E-04-1.09578E-01
 -1       524 3.25996E-02-1.03992E-04-1.27089E-01
 -1       525 1.18715E-03 3.20066E-05 5.60341E-03
 -1       526 2.42964E-03 1.53224E-05 1.37468E-02
 -1       527 3.50864E-03 1.13712E-05 2.34269E-02
 -1       528 4.25508E-03 5.53215E-06 3.39009E-02
 -1       529 4.66645E-03 1.36417E-06 4.47340E-02
 -1       530 4.77087E-03-2.62586E-06 5.55257E-02
 -1       531 4.59037E-03-6.39049E-06 6.59062E-02
 -1       532 4.14798E-03-9.89082E-06 7.55214E-02
 -1       533 3.46779E-03-1.30401E-05 8.40414E-02
 -1       534 2.57625E-03-1.57840E-05 9.11694E-02
 -1       535 1.50256E-03-1.80816E-05 9.66478E-02
 -1       536 2.78165E-04-1.99028E-05 1.00263E-01
 -1       537-1.06386E-03-2.12264E-05 1.01847E-01
 -1       538-2.48954E-03-2.20412E-05 1.01282E-01
 -1       539-3.96470E-03-2.23466E-05 9.85015E-02
 -1       540-5.45573E-03-2.21533E-05 9.34880E-02
 -1       541-6.93026E-03-2.14834E-05 8.62752E-02
 -1       542-8.35799E-03-2.03701E-05 7.69441E-02
 -1       543-9.71135E-03-1.88571E-05 6.56209E-02
 -1       544-1.09662E-02-1.69980E-05 5.24724E-02
 -1       545-1.21026E-02-1.48555E-05 3.77011E-02
 -1       546-1.31051E-02-1.25000E-05 2.15388E-02
 -1       547-1.39635E-02-1.00078E-05 4.24029E-03
 -1       548-1.46733E-02-7.46018E-06-1.39241E-02
 -1       549-1.52361E-02-4.94543E-06-3.26764E-02
 -1       550-1.56596E-02-2.57076E-06-5.17394E-02
 -1       551-1.59574E-02-4.67730E-07-7.08472E-02
 -1       552-1.61473E-02 1.29786E-06-8.97564E-02
 -1       553-1.62532E-02 2.67058E-06-1.08262E-01
 -1       554 1.65858E-13 9.02681E-13 5.64430E-03
 -1       555 2.98314E-13 3.11107E-12 1.36256E-02
 -1       556 4.20421E-13 5.92137E-12 2.32742E-02
 -1       557 5.53328E-13 8.87636E-12 3.37907E-02
 -1       558 6.70974E-13 1.17221E-11 4.46638E-02
 -1       559 7.66737E-13 1.42105E-11 5.54932E-02
 -1       560 8.35582E-13 1.61367E-11 6.59065E-02
 -1       561 8.90135E-13 1.71733E-11 7.55507E-02
 -1       562 9.68982E-13 1.71279E-11 8.40967E-02
 -1       563 1.05661E-12 1.61008E-11 9.12478E-02
 -1       564 1.12921E-12 1.42492E-11 9.67461E-02
 -1       565 1.18094E-12 1.17272E-11 1.00378E-01
 -1       566 1.22317E-12 8.75948E-12 1.01975E-01
 -1       567 1.27314E-12 5.45797E-12 1.01420E-01
 -1       568 1.32882E-12 1.73096E-12 9.86459E-02
 -1       569 1.38320E-12-2.27572E-12 9.36358E-02
 -1       570 1.44900E-12-6.11776E-12 8.64233E-02
 -1       571 1.52742E-12-9.39392E-12 7.70899E-02
 -1       572 1.61213E-12-1.17167E-11 6.57620E-02
 -1       573 1.70346E-12-1.29652E-11 5.26069E-02
 -1       574 1.81755E-12-1.31873E-11 3.78275E-02
 -1       575 1.93136E-12-1.24888E-11 2.16563E-02
 -1       576 2.04234E-12-1.08132E-11 4.34869E-03
 -1       577 2.13861E-12-8.09623E-12-1.38244E-02
 -1       578 2.20304E-12-4.51656E-12-3.25843E-02
 -1       579 2.23252E-12-3.58897E-13-5.16535E-02
 -1       580 2.23294E-12 4.23741E-12-7.07662E-02
 -1       581 2.23424E-12 9.13010E-12-8.96806E-02
 -1       582 2.25210E-12 1.42159E-11-1.08182E-01
 -1       583-1.18715E-03-3.20066E-05 5.60341E-03
 -1       584-2.42964E-03-1.53224E-05 1.37468E-02
 -1       585-3.50864E-03-1.13712E-05 2.34269E-02
 -1       586-4.25508E-03-5.53213E-06 3.39009E-02
 -1       587-4.66645E-03-1.36414E-06 4.47340E-02
 -1       588-4.77087E-03 2.62589E-06 5.55257E-02
 -1       589-4.59037E-03 6.39052E-06 6.59062E-02
 -1       590-4.14798E-03 9.89086E-06 7.55214E-02
 -1       591-3.46779E-03 1.30401E-05 8.40414E-02
 -1       592-2.57625E-03 1.57840E-05 9.11694E-02
 -1       593-1.50256E-03 1.80816E-05 9.66478E-02
 -1       594-2.78165E-04 1.99028E-05 1.00263E-01
 -1       595 1.06386E-03 2.12265E-05 1.01847E-01
 -1       596 2.48954E-03 2.20412E-05 1.01282E-01
 -1       597 3.96470E-03 2.23466E-05 9.85015E-02
 -1       598 5.45573E-03 2.21533E-05 9.34880E-02
 -1       599 6.93026E-03 2.14834E-05 8.62752E-02
 -1       600 8.35799E-03 2.03701E-05 7.69441E-02
 -1       601 9.71135E-03 1.88571E-05 6.56209E-02
 -1       602 1.09662E-02 1.69980E-05 5.24724E-02
 -1       603 1.21026E-02 1.48555E-05 3.77011E-02
 -1       604 1.31051E-02 1.25000E-05 2.15388E-02
 -1       605 1.39635E-02 1.00078E-05 4.24029E-03
 -1       606 1.46733E-02 7.46016E-06-1.39241E-02
 -1       607 1.52361E-02 4.94542E-06-3.26764E-02
 -1       608 1.56596E-02 2.57076E-06-5.17394E-02
 -1       609 1.59574E-02 4.67738E-07-7.08472E-02
 -1       610 1.61473E-02-1.29784E-06-8.97564E-02
 -1       611 1.62532E-02-2.67055E-06-1.08262E-01
 -1       612-1.18715E-03 3.20066E-05 5.60341E-03
 -1       613-2.42964E-03 1.53224E-05 1.37468E-02
 -1       614-3.50864E-03 1.13712E-05 2.34269E-02
 -1       615-4.25508E-03 5.53215E-06 3.39009E-02
 -1       616-4.66645E-03 1.36417E-06 4.47340E-02
 -1       617-4.77087E-03-2.62586E-06 5.55257E-02
 -1       618-4.59037E-03-6.39049E-06 6.59062E-02
 -1       619-4.14798E-03-9.89083E-06 7.55214E-02
 -1       620-3.46779E-03-1.30401E-05 8.40414E-02
 -1       621-2.57625E-03-1.57840E-05 9.11694E-02
 -1       622-1.50256E-03-1.80816E-05 9.66478E-02
 -1       623-2.78165E-04-1.99028E-05 1.00263E-01
 -1       624 1.06386E-03-2.12264E-05 1.01847E-01
 -1       625 2.48954E-03-2.20412E-05 1.01282E-01
 -1       626 3.96470E-03-2.23466E-05 9.85015E-02
 -1       627 5.45573E-03-2.21533E-05 9.34880E-02
 -1       628 6.93026E-03-2.14834E-05 8.62752E-02
 -1       629 8.35799E-03-2.03701E-05 7.69441E-02
 -1       630 9.71135E-03-1.88571E-05 6.56209E-02
 -1       631 1.09662E-02-1.69980E-05 5.24724E-02
 -1       632 1.21026E-02-1.48555E-05 3.77011E-02
 -1       633 1.31051E-02-1.25000E-05 2.15388E-02
 -1       634 1.39635E-02-1.00078E-05 4.24029E-03
 -1       635 1.46733E-02-7.46018E-06-1.39241E-02
 -1       636 1.52361E-02-4.94543E-06-3.26764E-02
 -1       637 1.56596E-02-2.57076E-06-5.17394E-02
 -1       638 1.59574E-02-4.67734E-07-7.08472E-02
 -1       639 1.61473E-02 1.29785E-06-8.97564E-02
 -1       640 1.62532E-02 2.67057E-06-1.08262E-01
 -1       641 2.32028E-14 8.98583E-13 5.64430E-03
 -1       642 7.52436E-14 3.10795E-12 1.36256E-02
 -1       643 1.69177E-13 5.91691E-12 2.32742E-02
 -1       644 3.01432E-13 8.87210E-12 3.37907E-02
 -1       645 4.39610E-13 1.17188E-11 4.46638E-02
 -1       646 5.73708E-13 1.42074E-11 5.54932E-02
 -1       647 7.04110E-13 1.61340E-11 6.59065E-02
 -1       648 8.47281E-13 1.71705E-11 7.55507E-02
 -1       649 1.01738E-12 1.71254E-11 8.40967E-02
 -1       650 1.18204E-12 1.60982E-11 9.12478E-02
 -1       651 1.31951E-12 1.42473E-11 9.67461E-02
 -1       652 1.41942E-12 1.17254E-11 1.00378E-01
 -1       653 1.49176E-12 8.75784E-12 1.01975E-01
 -1       654 1.57436E-12 5.45631E-12 1.01420E-01
 -1       655 1.66532E-12 1.72913E-12 9.86459E-02
 -1       656 1.72619E-12-2.27727E-12 9.36358E-02
 -1       657 1.76012E-12-6.11926E-12 8.64233E-02
 -1       658 1.77156E-12-9.39545E-12 7.70899E-02
 -1       659 1.76553E-12-1.17178E-11 6.57620E-02
 -1       660 1.76491E-12-1.29666E-11 5.26069E-02
 -1       661 1.79659E-12-1.31886E-11 3.78275E-02
 -1       662 1.83113E-12-1.24898E-11 2.16563E-02
 -1       663 1.85317E-12-1.08144E-11 4.34869E-03
 -1       664 1.86444E-12-8.09697E-12-1.38244E-02
 -1       665 1.86785E-12-4.51709E-12-3.25843E-02
 -1       666 1.85474E-12-3.59214E-13-5.16535E-02
 -1       667 1.82372E-12 4.23791E-12-7.07662E-02
 -1       668 1.80386E-12 9.13005E-12-8.96806E-02
 -1       669 1.81144E-12 1.42161E-11-1.08182E-01
 -1       670 1.18715E-03-3.20066E-05 5.60341E-03
 -1       671 2.42964E-03-1.53224E-05 1.37468E-02
 -1       672 3.50864E-03-1.13712E-05 2.34269E-02
 -1       673 4.25508E-03-5.53213E-06 3.39009E-02
 -1       674 4.66645E-03-1.36414E-06 4.47340E-02
 -1       675 4.77087E-03 2.62589E-06 5.55257E-02
 -1       676 4.59037E-03 6.39052E-06 6.59062E-02
 -1       677 4.14798E-03 9.89086E-06 7.55214E-02
 -1       678 3.46779E-03 1.30401E-05 8.40414E-02
 -1       679 2.57625E-03 1.57840E-05 9.11694E-02
 -1       680 1.50256E-03 1.80816E-05 9.66478E-02
 -1       681 2.78165E-04 1.99028E-05 1.00263E-01
 -1       682-1.06386E-03 2.12265E-05 1.01847E-01
 -1       683-2.48954E-03 2.20412E-05 1.01282E-01
 -1       684-3.96470E-03 2.23466E-05 9.85015E-02
 -1       685-5.45573E-03 2.21533E-05 9.34880E-02
 -1       686-6.93026E-03 2.14834E-05 8.62752E-02
 -1       687-8.35799E-03 2.03701E-05 7.69441E-02
 -1       688-9.71135E-03 1.88571E-05 6.56209E-02
 -1       689-1.09662E-02 1.69980E-05 5.24724E-02
 -1       690-1.21026E-02 1.48555E-05 3.77011E-02
 -1       691-1.31051E-02 1.25000E-05 2.15388E-02
 -1       692-1.39635E-02 1.00078E-05 4.24029E-03
 -1       693-1.46733E-02 7.46016E-06-1.39241E-02
 -1       694-1.52361E-02 4.94542E-06-3.26764E-02
 -1       695-1.56596E-02 2.57076E-06-5.17394E-02
 -1       696-1.59574E-02 4.67742E-07-7.08472E-02
 -1       697-1.61473E-02-1.29784E-06-8.97564E-02
 -1       698-1.62532E-02-2.67054E-06-1.08262E-01
 -1       699 3.45216E-03 6.96319E-04 5.00788E-03
 -1       700 6.46202E-03 4.77807E-04 1.39736E-02
 -1       701 8.60728E-03 2.34684E-04 2.39511E-02
 -1       702 1.00923E-02 1.06446E-04 3.44281E-02
 -1       703 1.09080E-02 6.85963E-06 4.51465E-02
 -1       704 1.10775E-02-8.85474E-05 5.58298E-02
 -1       705 1.06315E-02-1.81581E-04 6.61281E-02
 -1       706 9.61320E-03-2.68863E-04 7.56760E-02
 -1       707 8.07436E-03-3.47419E-04 8.41356E-02
 -1       708 6.07375E-03-4.15601E-04 9.12081E-02
 -1       709 3.67592E-03-4.72409E-04 9.66359E-02
 -1       710 9.50188E-04-5.17086E-04 1.00205E-01
 -1       711-2.03055E-03-5.49067E-04 1.01749E-01
 -1       712-5.19134E-03-5.68026E-04 1.01148E-01
 -1       713-8.45667E-03-5.73918E-04 9.83357E-02
 -1       714-1.17522E-02-5.66987E-04 9.32938E-02
 -1       715-1.50062E-02-5.47769E-04 8.60552E-02
 -1       716-1.81515E-02-5.17084E-04 7.67005E-02
 -1       717-2.11269E-02-4.76024E-04 6.53550E-02
 -1       718-2.38789E-02-4.25937E-04 5.21846E-02
 -1       719-2.63625E-02-3.68401E-04 3.73908E-02
 -1       720-2.85436E-02-3.05185E-04 2.12044E-02
 -1       721-3.03988E-02-2.38183E-04 3.87873E-03
 -1       722-3.19174E-02-1.69364E-04-1.43177E-02
 -1       723-3.31013E-02-1.00919E-04-3.31084E-02
 -1       724-3.39660E-02-3.57816E-05-5.22142E-02
 -1       725-3.45406E-02 2.17857E-05-7.13608E-02
 -1       726-3.48693E-02 6.74072E-05-9.03012E-02
 -1       727-3.50166E-02 1.05057E-04-1.08862E-01
 -1       728 2.35037E-03 3.62705E-04 4.84274E-03
 -1       729 5.13478E-03 3.02915E-04 1.38820E-02
 -1       730 7.19646E-03 2.55724E-04 2.38776E-02
 -1       731 8.63295E-03 1.91401E-04 3.43831E-02
 -1       732 9.43481E-03 1.05966E-04 4.51272E-02
 -1       733 9.63261E-03 2.41441E-05 5.58353E-02
 -1       734 9.26498E-03-4.96439E-05 6.61568E-02
 -1       735 8.37325E-03-1.16334E-04 7.57260E-02
 -1       736 7.00434E-03-1.76271E-04 8.42049E-02
 -1       737 5.21145E-03-2.29049E-04 9.12942E-02
 -1       738 3.05336E-03-2.74074E-04 9.67363E-02
 -1       739 5.93283E-04-3.10881E-04 1.00317E-01
 -1       740-2.10241E-03-3.39196E-04 1.01869E-01
 -1       741-4.96555E-03-3.58933E-04 1.01274E-01
 -1       742-7.92752E-03-3.70186E-04 9.84642E-02
 -1       743-1.09208E-02-3.73230E-04 9.34220E-02
 -1       744-1.38805E-02-3.68529E-04 8.61805E-02
 -1       745-1.67457E-02-3.56727E-04 7.68203E-02
 -1       746-1.94610E-02-3.38649E-04 6.54671E-02
 -1       747-2.19780E-02-3.15285E-04 5.22871E-02
 -1       748-2.42564E-02-2.87780E-04 3.74821E-02
 -1       749-2.62653E-02-2.57424E-04 2.12834E-02
 -1       750-2.79843E-02-2.25657E-04 3.94477E-03
 -1       751-2.94040E-02-1.94059E-04-1.42648E-02
 -1       752-3.05271E-02-1.64244E-04-3.30683E-02
 -1       753-3.13691E-02-1.37312E-04-5.21860E-02
 -1       754-3.19574E-02-1.13200E-04-7.13431E-02
 -1       755-3.23303E-02-9.36304E-05-9.02919E-02
 -1       756-3.25343E-02-9.41419E-05-1.08859E-01
 -1       757-2.35037E-03-3.62705E-04 4.84274E-03
 -1       758-5.13478E-03-3.02915E-04 1.38820E-02
 -1       759-7.19646E-03-2.55724E-04 2.38776E-02
 -1       760-8.63295E-03-1.91401E-04 3.43831E-02
 -1       761-9.43481E-03-1.05966E-04 4.51272E-02
 -1       762-9.63261E-03-2.41441E-05 5.58353E-02
 -1       763-9.26498E-03 4.96440E-05 6.61568E-02
 -1       764-8.37325E-03 1.16334E-04 7.57260E-02
 -1       765-7.00434E-03 1.76271E-04 8.42049E-02
 -1       766-5.21145E-03 2.29049E-04 9.12942E-02
 -1       767-3.05336E-03 2.74074E-04 9.67363E-02
 -1       768-5.93283E-04 3.10881E-04 1.00317E-01
 -1       769 2.10241E-03 3.39196E-04 1.01869E-01
 -1       770 4.96555E-03 3.58933E-04 1.01274E-01
 -1       771 7.92752E-03 3.70186E-04 9.84642E-02
 -1       772 1.09208E-02 3.73230E-04 9.34220E-02
 -1       773 1.38805E-02 3.68529E-04 8.61805E-02
 -1       774 1.67457E-02 3.56727E-04 7.68203E-02
 -1       775 1.94610E-02 3.38649E-04 6.54671E-02
 -1       776 2.19780E-02 3.15285E-04 5.22871E-02
 -1       777 2.42564E-02 2.87780E-04 3.74821E-02
 -1       778 2.62653E-02 2.57424E-04 2.12834E-02
 -1       779 2.79843E-02 2.25657E-04 3.94477E-03
 -1       780 2.94040E-02 1.94059E-04-1.42648E-02
 -1       781 3.05271E-02 1.64244E-04-3.30683E-02
 -1       782 3.13691E-02 1.37312E-04-5.21860E-02
 -1       783 3.19574E-02 1.13200E-04-7.13431E-02
 -1       784 3.23303E-02 9.36305E-05-9.02919E-02
 -1       785 3.25343E-02 9.41419E-05-1.08859E-01
 -1       786-3.45216E-03-6.96319E-04 5.00788E-03
 -1       787-6.46202E-03-4.77807E-04 1.39736E-02
 -1       788-8.60728E-03-2.34684E-04 2.39511E-02
 -1       789-1.00923E-02-1.06446E-04 3.44281E-02
 -1       790-1.09080E-02-6.85961E-06 4.51465E-02
 -1       791-1.10775E-02 8.85474E-05 5.58298E-02
 -1       792-1.06315E-02 1.81581E-04 6.61281E-02
 -1       793-9.61320E-03 2.68863E-04 7.56760E-02
 -1       794-8.07436E-03 3.47419E-04 8.41356E-02
 -1       795-6.07375E-03 4.15601E-04 9.12081E-02
 -1       796-3.67592E-03 4.72409E-04 9.66359E-02
 -1       797-9.50188E-04 5.17086E-04 1.00205E-01
 -1       798 2.03055E-03 5.49067E-04 1.01749E-01
 -1       799 5.19134E-03 5.68026E-04 1.01148E-01
 -1       800 8.45667E-03 5.73918E-04 9.83357E-02
 -1       801 1.17522E-02 5.66987E-04 9.32938E-02
 -1       802 1.50062E-02 5.47768E-04 8.60552E-02
 -1       803 1.81515E-02 5.17084E-04 7.67005E-02
 -1       804 2.11269E-02 4.76024E-04 6.53550E-02
 -1       805 2.38789E-02 4.25937E-04 5.21846E-02
 -1       806 2.63625E-02 3.68401E-04 3.73908E-02
 -1       807 2.85436E-02 3.05185E-04 2.12044E-02
 -1       808 3.03988E-02 2.38183E-04 3.87873E-03
 -1       809 3.19174E-02 1.69364E-04-1.43177E-02
 -1       810 3.31013E-02 1.00919E-04-3.31084E-02
 -1       811 3.39660E-02 3.57816E-05-5.22142E-02
 -1       812 3.45406E-02-2.17857E-05-7.13608E-02
 -1       813 3.48693E-02-6.74072E-05-9.03012E-02
 -1       814 3.50166E-02-1.05057E-04-1.08862E-01
 -1       815 3.45216E-03-6.96319E-04 5.00788E-03
 -1       816 6.46202E-03-4.77807E-04 1.39736E-02
 -1       817 8.60728E-03-2.34684E-04 2.39511E-02
 -1       818 1.00923E-02-1.06446E-04 3.44281E-02
 -1       819 1.09080E-02-6.85960E-06 4.51465E-02
 -1       820 1.10775E-02 8.85474E-05 5.58298E-02
 -1       821 1.06315E-02 1.81581E-04 6.61281E-02
 -1       822 9.61320E-03 2.68863E-04 7.56760E-02
 -1       823 8.07436E-03 3.47419E-04 8.41356E-02
 -1       824 6.07375E-03 4.15601E-04 9.12081E-02
 -1       825 3.67592E-03 4.72409E-04 9.66359E-02
 -1       826 9.50188E-04 5.17086E-04 1.00205E-01
 -1       827-2.03055E-03 5.49067E-04 1.01749E-01
 -1       828-5.19134E-03 5.68026E-04 1.01148E-01
 -1       829-8.45667E-03 5.73918E-04 9.83357E-02
 -1       830-1.17522E-02 5.66987E-04 9.32938E-02
 -1       831-1.50062E-02 5.47768E-04 8.60552E-02
 -1       832-1.81515E-02 5.17084E-04 7.67005E-02
 -1       833-2.11269E-02 4.76024E-04 6.53550E-02
 -1       834-2.38789E-02 4.25937E-04 5.21846E-02
 -1       835-2.63625E-02 3.68401E-04 3.73908E-02
 -1       836-2.85436E-02 3.05185E-04 2.12044E-02
 -1       837-3.03988E-02 2.38183E-04 3.87873E-03
 -1       838-3.19174E-02 1.69364E-04-1.43177E-02
 -1       839-3.31013E-02 1.00919E-04-3.31084E-02
 -1       840-3.39660E-02 3.57816E-05-5.22142E-02
 -1       841-3.45406E-02-2.17857E-05-7.13608E-02
 -1       842-3.48693E-02-6.74072E-05-9.03012E-02
 -1       843-3.50166E-02-1.05057E-04-1.08862E-01
 -1       844 2.35037E-03-3.62705E-04 4.84274E-03
 -1       845 5.13478E-03-3.02915E-04 1.38820E-02
 -1       846 7.19646E-03-2.55724E-04 2.38776E-02
 -1       847 8.63295E-03-1.91401E-04 3.43831E-02
 -1       848 9.43481E-03-1.05966E-04 4.51272E-02
 -1       849 9.63261E-03-2.41441E-05 5.58353E-02
 -1       850 9.26498E-03 4.96440E-05 6.61568E-02
 -1       851 8.37325E-03 1.16334E-04 7.57260E-02
 -1       852 7.00434E-03 1.76271E-04 8.42049E-02
 -1       853 5.21145E-03 2.29049E-04 9.12942E-02
 -1       854 3.05336E-03 2.74074E-04 9.67363E-02
 -1       855 5.93283E-04 3.10881E-04 1.00317E-01
 -1       856-2.10241E-03 3.39196E-04 1.01869E-01
 -1       857-4.96555E-03 3.58933E-04 1.01274E-01
 -1       858-7.92752E-03 3.70186E-04 9.84642E-02
 -1       859-1.09208E-02 3.73230E-04 9.34220E-02
 -1       860-1.38805E-02 3.68529E-04 8.61805E-02
 -1       861-1.67457E-02 3.56727E-04 7.68203E-02
 -1       862-1.94610E-02 3.38649E-04 6.54671E-02
 -1       863-2.19780E-02 3.15285E-04 5.22871E-02
 -1       864-2.42564E-02 2.87780E-04 3.74821E-02
 -1       865-2.62653E-02 2.57424E-04 2.12834E-02
 -1       866-2.79843E-02 2.25657E-04 3.94477E-03
 -1       867-2.94040E-02 1.94059E-04-1.42648E-02
 -1       868-3.05271E-02 1.64244E-04-3.30683E-02
 -1       869-3.13691E-02 1.37312E-04-5.21860E-02
 -1       870-3.19574E-02 1.13200E-04-7.13431E-02
 -1       871-3.23303E-02 9.36305E-05-9.02919E-02
 -1       872-3.25343E-02 9.41419E-05-1.08859E-01
 -1       873 3.50166E-02 1.05057E-04-1.08862E-01
 -1       874 3.48693E-02 6.74072E-05-9.03012E-02
 -1       875 3.45406E-02 2.17857E-05-7.13608E-02
 -1       876 3.39660E-02-3.57816E-05-5.22142E-02
 -1       877 3.31013E-02-1.00919E-04-3.31084E-02
 -1       878 3.19174E-02-1.69364E-04-1.43177E-02
 -1       879 3.03988E-02-2.38183E-04 3.87873E-03
 -1       880 2.85436E-02-3.05185E-04 2.12044E-02
 -1       881 2.63625E-02-3.68401E-04 3.73908E-02
 -1       882 2.38789E-02-4.25937E-04 5.21846E-02
 -1       883 2.11269E-02-4.76024E-04 6.53550E-02
 -1       884 1.81515E-02-5.17084E-04 7.67005E-02
 -1       885 1.50062E-02-5.47768E-04 8.60552E-02
 -1       886 1.17522E-02-5.66987E-04 9.32938E-02
 -1       887 8.45667E-03-5.73918E-04 9.83357E-02
 -1       888 5.19134E-03-5.68026E-04 1.01148E-01
 -1       889 2.03055E-03-5.49067E-04 1.01749E-01
 -1       890-9.50188E-04-5.17086E-04 1.00205E-01
 -1       891-3.67592E-03-4.72409E-04 9.66359E-02
 -1       892-6.07375E-03-4.15601E-04 9.12081E-02
 -1       893-8.07436E-03-3.47419E-04 8.41356E-02
 -1       894-9.61320E-03-2.68863E-04 7.56760E-02
 -1       895-1.06315E-02-1.81581E-04 6.61281E-02
 -1       896-1.10775E-02-8.85474E-05 5.58298E-02
 -1       897-1.09080E-02 6.85962E-06 4.51465E-02
 -1       898-1.00923E-02 1.06446E-04 3.44281E-02
 -1       899-8.60728E-03 2.34684E-04 2.39511E-02
 -1       900-6.46202E-03 4.77807E-04 1.39736E-02
 -1       901-3.45216E-03 6.96319E-04 5.00788E-03
 -1       902-2.35037E-03 3.62705E-04 4.84274E-03
 -1       903-5.13478E-03 3.02915E-04 1.38820E-02
 -1       904-7.19646E-03 2.55724E-04 2.38776E-02
 -1       905-8.63295E-03 1.91401E-04 3.43831E-02
 -1       906-9.43481E-03 1.05966E-04 4.51272E-02
 -1       907-9.63261E-03 2.41441E-05 5.58353E-02
 -1       908-9.26498E-03-4.96439E-05 6.61568E-02
 -1       909-8.37325E-03-1.16334E-04 7.57260E-02
 -1       910-7.00434E-03-1.76271E-04 8.42049E-02
 -1       911-5.21145E-03-2.29049E-04 9.12942E-02
 -1       912-3.05336E-03-2.74074E-04 9.67363E-02
 -1       913-5.93283E-04-3.10881E-04 1.00317E-01
 -1       914 2.10241E-03-3.39196E-04 1.01869E-01
 -1       915 4.96555E-03-3.58933E-04 1.01274E-01
 -1       916 7.92752E-03-3.70186E-04 9.84642E-02
 -1       917 1.09208E-02-3.73230E-04 9.34220E-02
 -1       918 1.38805E-02-3.68529E-04 8.61805E-02
 -1       919 1.67457E-02-3.56727E-04 7.68203E-02
 -1       920 1.94610E-02-3.38649E-04 6.54671E-02
 -1       921 2.19780E-02-3.15285E-04 5.22871E-02
 -1       922 2.42564E-02-2.87780E-04 3.74821E-02
 -1       923 2.62653E-02-2.57424E-04 2.12834E-02
 -1       924 2.79843E-02-2.25657E-04 3.94477E-03
 -1       925 2.94040E-02-1.94059E-04-1.42648E-02
 -1       926 3.05271E-02-1.64244E-04-3.30683E-02
 -1       927 3.13691E-02-1.37312E-04-5.21860E-02
 -1       928 3.19574E-02-1.13200E-04-7.13431E-02
 -1       929 3.23303E-02-9.36305E-05-9.02919E-02
 -1       930 3.25343E-02-9.41419E-05-1.08859E-01
 -3
    1PSTEP                        26           1           1          
    1PGM                1.000000E+00                                  
    1PGK                2.621869E+06                                  
    1PHID                         -1                                  
    1PSUBC                         0                                  
    1PMODE                         7                                  
  100CL  107 257.7066322         930                     2    7MODAL      1
 -4  STRESS      6    1
 -5  SXX         1    4    1    1
 -5  SYY         1    4    2    2
 -5  SZZ         1    4    3    3
 -5  SXY         1    4    1    2
 -5  SYZ         1    4    2    3
 -5  SZX         1    4    3    1
 -1         1 8.03134E+09 3.44206E+09 3.44205E+09 4.29291E+07-1.42894E+03 4.56611E+09
 -1         2 8.03134E+09 3.44206E+09 3.44205E+09-4.29291E+07 1.42894E+03 4.56611E+09
 -1         3 1.83120E+08 5.19131E+08 5.80363E+08-5.32818E+07 2.23405E+08-2.32908E+08
 -1         4 1.83120E+08 5.19131E+08 5.80363E+08 5.32818E+07-2.23405E+08-2.32908E+08
 -1         5-8.03134E+09-3.44206E+09-3.44205E+09-4.29291E+07-1.42894E+03 4.56611E+09
 -1         6-8.03134E+09-3.44206E+09-3.44205E+09 4.29291E+07 1.42894E+03 4.56611E+09
 -1         7-1.83120E+08-5.19131E+08-5.80363E+08 5.32818E+07 2.23405E+08-2.32908E+08
 -1         8-1.83120E+08-5.19131E+08-5.80363E+08-5.32818E+07-2.23405E+08-2.32908E+08
 -1         9 1.09314E+10 4.68496E+09 4.68496E+09 8.23852E+07-2.15854E+03 4.68802E+09
 -1        10-7.44470E+08-1.85451E+09-5.07748E+08-1.42609E+07 3.14423E+08-1.74870E+08
 -1        11 9.59805E+09 4.11350E+09 4.11351E+09 9.22858E+08-8.45636E+01 3.14501E+09
 -1        12 6.85272E+09 2.93693E+09 2.93694E+09 6.26341E+08-2.00004E+02 3.02557E+09
 -1        13-1.73849E+08-1.69962E+08-6.42085E+07 5.56896E+07-6.17145E+07-4.39494E+07
 -1        14-8.90564E+07 9.44164E+07 4.05426E+07-1.01516E+08-6.72842E+07-4.60282E+07
 -1        15-1.09314E+10-4.68496E+09-4.68496E+09-8.23852E+07-2.15854E+03 4.68802E+09
 -1        16 7.44470E+08 1.85451E+09 5.07748E+08 1.42609E+07 3.14423E+08-1.74870E+08
 -1        17-6.85272E+09-2.93693E+09-2.93694E+09-6.26341E+08-2.00004E+02 3.02557E+09
 -1        18-9.59805E+09-4.11350E+09-4.11351E+09-9.22858E+08-8.45636E+01 3.14501E+09
 -1        19 8.90564E+07-9.44164E+07-4.05426E+07 1.01516E+08-6.72842E+07-4.60282E+07
 -1        20 1.73849E+08 1.69962E+08 6.42085E+07-5.56896E+07-6.17145E+07-4.39494E+07
 -1        21 6.85272E+09 2.93693E+09 2.93694E+09-6.26341E+08 2.00004E+02 3.02557E+09
 -1        22 9.59805E+09 4.11350E+09 4.11351E+09-9.22858E+08 8.45636E+01 3.14501E+09
 -1        23-1.73849E+08-1.69962E+08-6.42085E+07-5.56896E+07 6.17145E+07-4.39494E+07
 -1        24-8.90564E+07 9.44164E+07 4.05426E+07 1.01516E+08 6.72842E+07-4.60282E+07
 -1        25 1.09314E+10 4.68496E+09 4.68496E+09-8.23852E+07 2.15854E+03 4.68802E+09
 -1        26-7.44470E+08-1.85451E+09-5.07748E+08 1.42609E+07-3.14423E+08-1.74870E+08
 -1        27-1.09314E+10-4.68496E+09-4.68496E+09 8.23852E+07 2.15854E+03 4.68802E+09
 -1        28-9.59805E+09-4.11350E+09-4.11351E+09 9.22858E+08 8.45636E+01 3.14501E+09
 -1        29-6.85272E+09-2.93693E+09-2.93694E+09 6.26341E+08 2.00004E+02 3.02557E+09
 -1        30 7.44470E+08 1.85451E+09 5.07748E+08-1.42609E+07-3.14423E+08-1.74870E+08
 -1        31 1.73849E+08 1.69962E+08 6.42085E+07 5.56896E+07 6.17145E+07-4.39494E+07
 -1        32 8.90564E+07-9.44164E+07-4.05426E+07-1.01516E+08 6.72842E+07-4.60282E+07
 -1        33 5.85008E+09-4.78665E+08 9.02357E+06-3.19766E+08-3.08376E+08 1.17770E+09
 -1        34 5.45503E+09 4.22983E+08 5.22526E+08-3.46996E+08-1.08564E+08 1.82703E+09
 -1        35 3.60480E+09-8.27412E+07-2.99374E+07-3.53029E+08 1.88448E+07 1.74375E+09
 -1        36 2.20570E+09-1.70611E+08-1.08818E+08-3.31724E+08 6.54946E+07 1.70908E+09
 -1        37 8.85651E+08-1.92262E+08-1.65879E+08-3.15293E+08 7.57696E+07 1.63482E+09
 -1        38-3.64179E+08-1.98415E+08-2.05216E+08-2.98288E+08 8.51255E+07 1.54000E+09
 -1        39-1.54412E+09-2.21032E+08-2.58033E+08-2.77379E+08 9.91712E+07 1.42838E+09
 -1        40-2.63109E+09-2.46419E+08-3.10642E+08-2.52576E+08 1.14213E+08 1.30003E+09
 -1        41-3.60905E+09-2.69621E+08-3.58320E+08-2.24382E+08 1.27817E+08 1.15550E+09
 -1        42-4.46383E+09-2.88295E+08-3.98434E+08-1.93394E+08 1.39041E+08 9.96896E+08
 -1        43-5.18443E+09-3.01859E+08-4.30123E+08-1.60194E+08 1.47592E+08 8.27032E+08
 -1        44-5.76237E+09-3.09890E+08-4.52725E+08-1.25396E+08 1.53254E+08 6.49122E+08
 -1        45-6.19192E+09-3.11931E+08-4.65636E+08-8.96815E+07 1.55807E+08 4.66680E+08
 -1        46-6.47033E+09-3.07582E+08-4.68392E+08-5.37849E+07 1.55072E+08 2.83466E+08
 -1        47-6.59806E+09-2.96585E+08-4.60748E+08-1.84779E+07 1.50943E+08 1.03407E+08
 -1        48-6.57888E+09-2.78843E+08-4.42705E+08 1.54529E+07 1.43392E+08-6.94916E+07
 -1        49-6.41988E+09-2.54413E+08-4.14501E+08 4.72240E+07 1.32474E+08-2.31233E+08
 -1        50-6.13144E+09-2.23500E+08-3.76600E+08 7.60722E+07 1.18315E+08-3.77922E+08
 -1        51-5.72707E+09-1.86443E+08-3.29680E+08 1.01271E+08 1.01110E+08-5.05851E+08
 -1        52-5.22325E+09-1.43709E+08-2.74620E+08 1.22145E+08 8.11222E+07-6.11571E+08
 -1        53-4.63913E+09-9.58764E+07-2.12478E+08 1.38086E+08 5.86690E+07-6.91970E+08
 -1        54-3.99625E+09-4.35767E+07-1.44424E+08 1.48567E+08 3.41033E+07-7.44319E+08
 -1        55-3.31811E+09 1.26316E+07-7.16228E+07 1.53151E+08 7.75676E+06-7.66299E+08
 -1        56-2.62981E+09 7.23086E+07 4.84084E+06 1.51480E+08-2.00871E+07-7.55999E+08
 -1        57-1.95783E+09 1.34833E+08 8.35885E+07 1.43239E+08-4.90307E+07-7.12106E+08
 -1        58-1.33063E+09 1.96754E+08 1.60976E+08 1.28014E+08-7.76586E+07-6.34166E+08
 -1        59-7.79493E+08 2.49816E+08 2.29701E+08 1.05744E+08-1.02823E+08-5.23023E+08
 -1        60-3.37910E+08 2.89290E+08 2.82969E+08 7.77979E+07-1.22456E+08-3.82242E+08
 -1        61-2.97366E+07 3.64613E+08 3.34243E+08 4.99937E+07-1.51880E+08-2.25446E+08
 -1        62 5.85008E+09-4.78665E+08 9.02357E+06 3.19766E+08 3.08376E+08 1.17770E+09
 -1        63 5.45503E+09 4.22983E+08 5.22526E+08 3.46996E+08 1.08564E+08 1.82703E+09
 -1        64 3.60480E+09-8.27412E+07-2.99374E+07 3.53029E+08-1.88448E+07 1.74375E+09
 -1        65 2.20570E+09-1.70611E+08-1.08818E+08 3.31724E+08-6.54946E+07 1.70908E+09
 -1        66 8.85651E+08-1.92262E+08-1.65879E+08 3.15293E+08-7.57696E+07 1.63482E+09
 -1        67-3.64179E+08-1.98415E+08-2.05216E+08 2.98288E+08-8.51255E+07 1.54000E+09
 -1        68-1.54412E+09-2.21032E+08-2.58033E+08 2.77379E+08-9.91712E+07 1.42838E+09
 -1        69-2.63109E+09-2.46419E+08-3.10642E+08 2.52576E+08-1.14213E+08 1.30003E+09
 -1        70-3.60905E+09-2.69621E+08-3.58320E+08 2.24382E+08-1.27817E+08 1.15550E+09
 -1        71-4.46383E+09-2.88295E+08-3.98434E+08 1.93394E+08-1.39041E+08 9.96896E+08
 -1        72-5.18443E+09-3.01859E+08-4.30123E+08 1.60194E+08-1.47592E+08 8.27032E+08
 -1        73-5.76237E+09-3.09890E+08-4.52725E+08 1.25396E+08-1.53254E+08 6.49122E+08
 -1        74-6.19192E+09-3.11931E+08-4.65636E+08 8.96815E+07-1.55807E+08 4.66680E+08
 -1        75-6.47033E+09-3.07582E+08-4.68392E+08 5.37849E+07-1.55072E+08 2.83466E+08
 -1        76-6.59806E+09-2.96585E+08-4.60748E+08 1.84779E+07-1.50943E+08 1.03407E+08
 -1        77-6.57888E+09-2.78843E+08-4.42705E+08-1.54529E+07-1.43392E+08-6.94916E+07
 -1        78-6.41988E+09-2.54413E+08-4.14501E+08-4.72240E+07-1.32474E+08-2.31233E+08
 -1        79-6.13144E+09-2.23500E+08-3.76600E+08-7.60722E+07-1.18315E+08-3.77922E+08
 -1        80-5.72707E+09-1.86443E+08-3.29680E+08-1.01271E+08-1.01110E+08-5.05851E+08
 -1        81-5.22325E+09-1.43709E+08-2.74620E+08-1.22145E+08-8.11222E+07-6.11571E+08
 -1        82-4.63913E+09-9.58764E+07-2.12478E+08-1.38086E+08-5.86690E+07-6.91970E+08
 -1        83-3.99625E+09-4.35767E+07-1.44424E+08-1.48567E+08-3.41033E+07-7.44319E+08
 -1        84-3.31811E+09 1.26316E+07-7.16228E+07-1.53151E+08-7.75676E+06-7.66299E+08
 -1        85-2.62981E+09 7.23086E+07 4.84084E+06-1.51480E+08 2.00871E+07-7.55999E+08
 -1        86-1.95783E+09 1.34833E+08 8.35885E+07-1.43239E+08 4.90307E+07-7.12106E+08
 -1        87-1.33063E+09 1.96754E+08 1.60976E+08-1.28014E+08 7.76586E+07-6.34166E+08
 -1        88-7.79493E+08 2.49816E+08 2.29701E+08-1.05744E+08 1.02823E+08-5.23023E+08
 -1        89-3.37910E+08 2.89290E+08 2.82969E+08-7.77979E+07 1.22456E+08-3.82242E+08
 -1        90-2.97366E+07 3.64613E+08 3.34243E+08-4.99937E+07 1.51880E+08-2.25446E+08
 -1        91 3.35585E+09 1.43825E+09 1.43823E+09 2.58513E+07-8.16560E+01 4.52567E+09
 -1        92 4.68856E-01 2.00939E-01 2.00939E-01 7.29082E-01-9.83268E+01 4.55869E+09
 -1        93-3.35585E+09-1.43825E+09-1.43823E+09-2.58513E+07-8.16560E+01 4.52567E+09
 -1        94-3.35585E+09-1.43825E+09-1.43823E+09 2.58513E+07 8.16560E+01 4.52567E+09
 -1        95 6.55839E-02 2.81084E-02 2.81077E-02 7.25773E-01 9.83268E+01 4.55869E+09
 -1        96 3.35585E+09 1.43825E+09 1.43823E+09-2.58513E+07 8.16560E+01 4.52567E+09
 -1        97-5.85008E+09 4.78665E+08-9.02357E+06-3.19766E+08 3.08376E+08 1.17770E+09
 -1        98-5.45503E+09-4.22983E+08-5.22526E+08-3.46996E+08 1.08564E+08 1.82703E+09
 -1        99-3.60480E+09 8.27412E+07 2.99374E+07-3.53029E+08-1.88448E+07 1.74375E+09
 -1       100-2.20570E+09 1.70611E+08 1.08818E+08-3.31724E+08-6.54946E+07 1.70908E+09
 -1       101-8.85651E+08 1.92262E+08 1.65879E+08-3.15293E+08-7.57696E+07 1.63482E+09
 -1       102 3.64179E+08 1.98415E+08 2.05216E+08-2.98288E+08-8.51255E+07 1.54000E+09
 -1       103 1.54412E+09 2.21032E+08 2.58033E+08-2.77379E+08-9.91712E+07 1.42838E+09
 -1       104 2.63109E+09 2.46419E+08 3.10642E+08-2.52576E+08-1.14213E+08 1.30003E+09
 -1       105 3.60905E+09 2.69621E+08 3.58320E+08-2.24382E+08-1.27817E+08 1.15550E+09
 -1       106 4.46383E+09 2.88295E+08 3.98434E+08-1.93394E+08-1.39041E+08 9.96896E+08
 -1       107 5.18443E+09 3.01859E+08 4.30123E+08-1.60194E+08-1.47592E+08 8.27032E+08
 -1       108 5.76237E+09 3.09890E+08 4.52725E+08-1.25396E+08-1.53254E+08 6.49122E+08
 -1       109 6.19192E+09 3.11931E+08 4.65636E+08-8.96815E+07-1.55807E+08 4.66680E+08
 -1       110 6.47033E+09 3.07582E+08 4.68392E+08-5.37849E+07-1.55072E+08 2.83466E+08
 -1       111 6.59806E+09 2.96585E+08 4.60748E+08-1.84779E+07-1.50943E+08 1.03407E+08
 -1       112 6.57888E+09 2.78843E+08 4.42705E+08 1.54529E+07-1.43392E+08-6.94916E+07
 -1       113 6.41988E+09 2.54413E+08 4.14501E+08 4.72240E+07-1.32474E+08-2.31233E+08
 -1       114 6.13144E+09 2.23500E+08 3.76600E+08 7.60722E+07-1.18315E+08-3.77922E+08
 -1       115 5.72707E+09 1.86443E+08 3.29680E+08 1.01271E+08-1.01110E+08-5.05851E+08
 -1       116 5.22325E+09 1.43709E+08 2.74620E+08 1.22145E+08-8.11222E+07-6.11571E+08
 -1       117 4.63913E+09 9.58764E+07 2.12478E+08 1.38086E+08-5.86690E+07-6.91970E+08
 -1       118 3.99625E+09 4.35767E+07 1.44424E+08 1.48567E+08-3.41033E+07-7.44319E+08
 -1       119 3.31811E+09-1.26316E+07 7.16228E+07 1.53151E+08-7.75676E+06-7.66299E+08
 -1       120 2.62981E+09-7.23086E+07-4.84084E+06 1.51480E+08 2.00871E+07-7.55999E+08
 -1       121 1.95783E+09-1.34833E+08-8.35885E+07 1.43239E+08 4.90307E+07-7.12106E+08
 -1       122 1.33063E+09-1.96754E+08-1.60976E+08 1.28014E+08 7.76586E+07-6.34166E+08
 -1       123 7.79493E+08-2.49816E+08-2.29701E+08 1.05744E+08 1.02823E+08-5.23023E+08
 -1       124 3.37910E+08-2.89290E+08-2.82969E+08 7.77979E+07 1.22456E+08-3.82242E+08
 -1       125 2.97366E+07-3.64613E+08-3.34243E+08 4.99937E+07 1.51880E+08-2.25446E+08
 -1       126-1.00978E+08-1.69885E+08 3.23764E+08 1.75805E+06 1.68328E+06-3.07297E+08
 -1       127-2.35011E-02-2.66525E-02-1.99760E-01-3.29362E-03-4.19842E+06-3.01122E+08
 -1       128 1.00978E+08 1.69885E+08-3.23764E+08-1.75805E+06 1.68328E+06-3.07297E+08
 -1       129-5.85008E+09 4.78665E+08-9.02357E+06 3.19766E+08-3.08376E+08 1.17770E+09
 -1       130-5.45503E+09-4.22983E+08-5.22526E+08 3.46996E+08-1.08564E+08 1.82703E+09
 -1       131-3.60480E+09 8.27412E+07 2.99374E+07 3.53029E+08 1.88448E+07 1.74375E+09
 -1       132-2.20570E+09 1.70611E+08 1.08818E+08 3.31724E+08 6.54946E+07 1.70908E+09
 -1       133-8.85651E+08 1.92262E+08 1.65879E+08 3.15293E+08 7.57696E+07 1.63482E+09
 -1       134 3.64179E+08 1.98415E+08 2.05216E+08 2.98288E+08 8.51255E+07 1.54000E+09
 -1       135 1.54412E+09 2.21032E+08 2.58033E+08 2.77379E+08 9.91712E+07 1.42838E+09
 -1       136 2.63109E+09 2.46419E+08 3.10642E+08 2.52576E+08 1.14213E+08 1.30003E+09
 -1       137 3.60905E+09 2.69621E+08 3.58320E+08 2.24382E+08 1.27817E+08 1.15550E+09
 -1       138 4.46383E+09 2.88295E+08 3.98434E+08 1.93394E+08 1.39041E+08 9.96896E+08
 -1       139 5.18443E+09 3.01859E+08 4.30123E+08 1.60194E+08 1.47592E+08 8.27032E+08
 -1       140 5.76237E+09 3.09890E+08 4.52725E+08 1.25396E+08 1.53254E+08 6.49122E+08
 -1       141 6.19192E+09 3.11931E+08 4.65636E+08 8.96815E+07 1.55807E+08 4.66680E+08
 -1       142 6.47033E+09 3.07582E+08 4.68392E+08 5.37849E+07 1.55072E+08 2.83466E+08
 -1       143 6.59806E+09 2.96585E+08 4.60748E+08 1.84779E+07 1.50943E+08 1.03407E+08
 -1       144 6.57888E+09 2.78843E+08 4.42705E+08-1.54529E+07 1.43392E+08-6.94916E+07
 -1       145 6.41988E+09 2.54413E+08 4.14501E+08-4.72240E+07 1.32474E+08-2.31233E+08
 -1       146 6.13144E+09 2.23500E+08 3.76600E+08-7.60722E+07 1.18315E+08-3.77922E+08
 -1       147 5.72707E+09 1.86443E+08 3.29680E+08-1.01271E+08 1.01110E+08-5.05851E+08
 -1       148 5.22325E+09 1.43709E+08 2.74620E+08-1.22145E+08 8.11222E+07-6.11571E+08
 -1       149 4.63913E+09 9.58764E+07 2.12478E+08-1.38086E+08 5.86690E+07-6.91970E+08
 -1       150 3.99625E+09 4.35767E+07 1.44424E+08-1.48567E+08 3.41033E+07-7.44319E+08
 -1       151 3.31811E+09-1.26316E+07 7.16228E+07-1.53151E+08 7.75676E+06-7.66299E+08
 -1       152 2.62981E+09-7.23086E+07-4.84084E+06-1.51480E+08-2.00871E+07-7.55999E+08
 -1       153 1.95783E+09-1.34833E+08-8.35885E+07-1.43239E+08-4.90307E+07-7.12106E+08
 -1       154 1.33063E+09-1.96754E+08-1.60976E+08-1.28014E+08-7.76586E+07-6.34166E+08
 -1       155 7.79493E+08-2.49816E+08-2.29701E+08-1.05744E+08-1.02823E+08-5.23023E+08
 -1       156 3.37910E+08-2.89290E+08-2.82969E+08-7.77979E+07-1.22456E+08-3.82242E+08
 -1       157 2.97366E+07-3.64613E+08-3.34243E+08-4.99937E+07-1.51880E+08-2.25446E+08
 -1       158 1.00978E+08 1.69885E+08-3.23764E+08 1.75805E+06-1.68328E+06-3.07297E+08
 -1       159 5.22925E-02 5.09838E-02-1.67661E-02-2.11721E-03 4.19842E+06-3.01122E+08
 -1       160-1.00978E+08-1.69885E+08 3.23764E+08-1.75805E+06-1.68328E+06-3.07297E+08
 -1       161 6.05115E+09-2.51815E+09-1.28741E+09 4.13250E+08 4.58301E+08-3.56509E+08
 -1       162 5.18102E+09-8.31519E+08-1.10004E+07 3.32797E+08 1.61882E+08 4.59975E+08
 -1       163 3.92944E+09 1.94466E+08 5.56313E+07 3.88307E+08-2.05607E+07 4.14018E+08
 -1       164 2.61722E+09 5.48506E+08 2.00662E+08 3.93306E+08-9.09068E+07 4.14698E+08
 -1       165 1.22218E+09 5.90041E+08 1.77803E+08 3.81034E+08-1.06962E+08 3.99749E+08
 -1       166-9.91116E+07 6.44653E+08 1.77516E+08 3.58196E+08-1.22377E+08 3.74441E+08
 -1       167-1.32881E+09 7.27568E+08 1.81985E+08 3.31295E+08-1.44228E+08 3.45893E+08
 -1       168-2.45340E+09 8.20646E+08 1.92232E+08 3.01228E+08-1.67399E+08 3.14673E+08
 -1       169-3.46454E+09 9.04771E+08 2.01438E+08 2.67805E+08-1.88342E+08 2.79999E+08
 -1       170-4.35054E+09 9.73380E+08 2.08135E+08 2.31230E+08-2.05694E+08 2.42044E+08
 -1       171-5.10063E+09 1.02426E+09 2.11793E+08 1.92067E+08-2.19017E+08 2.01454E+08
 -1       172-5.70638E+09 1.05592E+09 2.12144E+08 1.51063E+08-2.27991E+08 1.59018E+08
 -1       173-6.16230E+09 1.06679E+09 2.08837E+08 1.09040E+08-2.32292E+08 1.15588E+08
 -1       174-6.46602E+09 1.05556E+09 2.01543E+08 6.68672E+07-2.31661E+08 7.20557E+07
 -1       175-6.61842E+09 1.02140E+09 1.90023E+08 2.54468E+07-2.25945E+08 2.93478E+07
 -1       176-6.62365E+09 9.64049E+08 1.74143E+08-1.43002E+07-2.15113E+08-1.15865E+07
 -1       177-6.48923E+09 8.83755E+08 1.53872E+08-5.14548E+07-1.99250E+08-4.97995E+07
 -1       178-6.22592E+09 7.81281E+08 1.29268E+08-8.51207E+07-1.78554E+08-8.43657E+07
 -1       179-5.84768E+09 6.57854E+08 1.00479E+08-1.14444E+08-1.53325E+08-1.14403E+08
 -1       180-5.37142E+09 5.15142E+08 6.77305E+07-1.38631E+08-1.23963E+08-1.39091E+08
 -1       181-4.81679E+09 3.55194E+08 3.13156E+07-1.56963E+08-9.09531E+07-1.57687E+08
 -1       182-4.20587E+09 1.80264E+08-8.45106E+06-1.68801E+08-5.48315E+07-1.69530E+08
 -1       183-3.56297E+09-7.56096E+06-5.13421E+07-1.73589E+08-1.61085E+07-1.74032E+08
 -1       184-2.91428E+09-2.06609E+08-9.72732E+07-1.70893E+08 2.47732E+07-1.70680E+08
 -1       185-2.28692E+09-4.13988E+08-1.45795E+08-1.60536E+08 6.72015E+07-1.59335E+08
 -1       186-1.70638E+09-6.20398E+08-1.94523E+08-1.42859E+08 1.09128E+08-1.40218E+08
 -1       187-1.19342E+09-8.01747E+08-2.36288E+08-1.17953E+08 1.45934E+08-1.13988E+08
 -1       188-7.82523E+08-9.51186E+08-2.72347E+08-8.55344E+07 1.74717E+08-8.26082E+07
 -1       189-5.59427E+08-1.10957E+09-3.36049E+08-3.83366E+07 2.17373E+08-5.71710E+07
 -1       190 9.75868E+09 4.18234E+09 4.18235E+09 5.62386E+08-4.34827E+03 4.04478E+09
 -1       191 6.64402E+09 2.84749E+09 2.84749E+09 2.92931E+08-4.35838E+03 3.91139E+09
 -1       192-3.37576E+08-5.86303E+08-2.84195E+08 2.61833E+07-1.67254E+08-4.29945E+07
 -1       193 6.25210E+09-4.82348E+08-5.69362E+08 4.40957E+08-9.65829E+07-4.47138E+08
 -1       194 5.31423E+09-3.96343E+07 2.52931E+08 1.15652E+08-8.89640E+07-3.33626E+08
 -1       195 3.77400E+09-7.85724E+06-6.72157E+07 1.63854E+08-7.17582E+06 4.68847E+07
 -1       196 2.44396E+09 6.56643E+07 4.13946E+07 2.55027E+08 2.14017E+07 6.41175E+07
 -1       197 1.07793E+09 5.91068E+07 1.66255E+07 2.60497E+08 2.67965E+07 1.40885E+07
 -1       198-2.43726E+08 5.15107E+07 1.94649E+06 2.40813E+08 3.66927E+07-3.78187E+06
 -1       199-1.49816E+09 3.95600E+07-2.19246E+07 2.19036E+08 4.78218E+07-5.63923E+06
 -1       200-2.65103E+09 3.06145E+07-4.25548E+07 1.98118E+08 5.91854E+07-3.41385E+06
 -1       201-3.68620E+09 2.32681E+07-6.05163E+07 1.76563E+08 6.93208E+07-1.86630E+06
 -1       202-4.59125E+09 1.67523E+07-7.58731E+07 1.53343E+08 7.78792E+07-1.13231E+06
 -1       203-5.35566E+09 1.06967E+07-8.88589E+07 1.28556E+08 8.47114E+07-5.65399E+05
 -1       204-5.97083E+09 5.04902E+06-9.93754E+07 1.02701E+08 8.96999E+07 1.09939E+05
 -1       205-6.43089E+09-2.16762E+05-1.07307E+08 7.63433E+07 9.27266E+07 9.10536E+05
 -1       206-6.73311E+09-5.15245E+06-1.12592E+08 5.00338E+07 9.37030E+07 1.78626E+06
 -1       207-6.87817E+09-9.82857E+06-1.15240E+08 2.43294E+07 9.25865E+07 2.69786E+06
 -1       208-6.87017E+09-1.43226E+07-1.15324E+08-2.02996E+05 8.93837E+07 3.62087E+06
 -1       209-6.71671E+09-1.87159E+07-1.12977E+08-2.29936E+07 8.41490E+07 4.53699E+06
 -1       210-6.42878E+09-2.30941E+07-1.08384E+08-4.34838E+07 7.69823E+07 5.42998E+06
 -1       211-6.02066E+09-2.75478E+07-1.01788E+08-6.11406E+07 6.80264E+07 6.28373E+06
 -1       212-5.50971E+09-3.21754E+07-9.34831E+07-7.54677E+07 5.74652E+07 7.07591E+06
 -1       213-4.91615E+09-3.70901E+07-8.38209E+07-8.60054E+07 4.55192E+07 7.76928E+06
 -1       214-4.26272E+09-4.24384E+07-7.32136E+07-9.23128E+07 3.24349E+07 8.32996E+06
 -1       215-3.57426E+09-4.83954E+07-6.20912E+07-9.39538E+07 1.84578E+07 8.85100E+06
 -1       216-2.87703E+09-5.50669E+07-5.07867E+07-9.06402E+07 3.79847E+06 9.79281E+06
 -1       217-2.19767E+09-6.20540E+07-3.91543E+07-8.27271E+07-1.12766E+07 1.18008E+07
 -1       218-1.56408E+09-6.87048E+07-2.76892E+07-7.18727E+07-2.61837E+07 1.42262E+07
 -1       219-1.01179E+09-7.63062E+07-1.73348E+07-6.04001E+07-3.90182E+07 7.19822E+06
 -1       220-5.71590E+08-7.77228E+07-1.31729E+07-3.37561E+07-4.67175E+07-2.14757E+07
 -1       221-2.81514E+08-1.29142E+08-4.42272E+07 1.76152E+07-6.74530E+07-3.88577E+07
 -1       222 4.34695E+09-1.11840E+09-1.33172E+09 1.00455E+08-1.29130E+08-4.81654E+08
 -1       223 4.81661E+09 6.19337E+07 1.34115E+08 4.38548E+08-1.00494E+08-3.04984E+08
 -1       224 3.73391E+09-3.74495E+07-8.81199E+07 3.53406E+08-6.89387E+05 6.29285E+07
 -1       225 2.39100E+09-3.36965E+07-4.30185E+06 2.53518E+08 2.26710E+07 8.67715E+07
 -1       226 1.04881E+09-4.51886E+07-2.33975E+07 2.29180E+08 2.97636E+07 3.41083E+07
 -1       227-1.64072E+08-2.81704E+07 1.93841E+06 2.20432E+08 3.98284E+07 1.54339E+07
 -1       228-1.29053E+09-1.24940E+07 2.47467E+07 2.09049E+08 5.15681E+07 1.21180E+07
 -1       229-2.32551E+09 5.52909E+05 4.60832E+07 1.91449E+08 6.34987E+07 1.27532E+07
 -1       230-3.25847E+09 1.14522E+07 6.42599E+07 1.69692E+08 7.41523E+07 1.24885E+07
 -1       231-4.07612E+09 2.09855E+07 7.99347E+07 1.45432E+08 8.31347E+07 1.12327E+07
 -1       232-4.76761E+09 2.93517E+07 9.31538E+07 1.19401E+08 9.02911E+07 9.66077E+06
 -1       233-5.32498E+09 3.65320E+07 1.03825E+08 9.20456E+07 9.54950E+07 8.09064E+06
 -1       234-5.74317E+09 4.24849E+07 1.11819E+08 6.38496E+07 9.86196E+07 6.58406E+06
 -1       235-6.01994E+09 4.72145E+07 1.17071E+08 3.53842E+07 9.95694E+07 5.13891E+06
 -1       236-6.15600E+09 5.07636E+07 1.19588E+08 7.26726E+06 9.82978E+07 3.76584E+06
 -1       237-6.15514E+09 5.32030E+07 1.19443E+08-1.98704E+07 9.48105E+07 2.49130E+06
 -1       238-6.02424E+09 5.46283E+07 1.16768E+08-4.54043E+07 8.91639E+07 1.34762E+06
 -1       239-5.77323E+09 5.51592E+07 1.11755E+08-6.87286E+07 8.14626E+07 3.67906E+05
 -1       240-5.41502E+09 5.49395E+07 1.04651E+08-8.92670E+07 7.18571E+07-4.17030E+05
 -1       241-4.96523E+09 5.41375E+07 9.57561E+07-1.06485E+08 6.05410E+07-9.86018E+05
 -1       242-4.44202E+09 5.29513E+07 8.54306E+07-1.19909E+08 4.77467E+07-1.33706E+06
 -1       243-3.86575E+09 5.16223E+07 7.40927E+07-1.29165E+08 3.37348E+07-1.46947E+06
 -1       244-3.25879E+09 5.04264E+07 6.21958E+07-1.33998E+08 1.87631E+07-1.26115E+06
 -1       245-2.64545E+09 4.95884E+07 5.00823E+07-1.34150E+08 3.05566E+06-2.27160E+05
 -1       246-2.05191E+09 4.89519E+07 3.78763E+07-1.28833E+08-1.31227E+07 2.28055E+06
 -1       247-1.50538E+09 4.77406E+07 2.48550E+07-1.16290E+08-2.90604E+07 5.66717E+06
 -1       248-1.02676E+09 4.52050E+07 1.46267E+07-9.48206E+07-4.31432E+07-8.49127E+04
 -1       249-6.04458E+08 5.79752E+07 1.76761E+07-7.50955E+07-5.12313E+07-2.74502E+07
 -1       250-2.38999E+08 1.01046E+08 3.75835E+07-8.91973E+07-7.23054E+07-4.25622E+07
 -1       251-1.58335E+07 3.20327E+08 8.43170E+07-1.38956E+08-1.53137E+08-4.53807E+07
 -1       252 5.59427E+08 1.10957E+09 3.36049E+08 3.83366E+07 2.17373E+08-5.71710E+07
 -1       253 7.82523E+08 9.51186E+08 2.72347E+08 8.55344E+07 1.74717E+08-8.26082E+07
 -1       254 1.19342E+09 8.01747E+08 2.36288E+08 1.17953E+08 1.45934E+08-1.13988E+08
 -1       255 1.70638E+09 6.20398E+08 1.94523E+08 1.42859E+08 1.09128E+08-1.40218E+08
 -1       256 2.28692E+09 4.13988E+08 1.45795E+08 1.60536E+08 6.72015E+07-1.59335E+08
 -1       257 2.91428E+09 2.06609E+08 9.72732E+07 1.70893E+08 2.47732E+07-1.70680E+08
 -1       258 3.56297E+09 7.56096E+06 5.13421E+07 1.73589E+08-1.61085E+07-1.74032E+08
 -1       259 4.20587E+09-1.80264E+08 8.45106E+06 1.68801E+08-5.48315E+07-1.69530E+08
 -1       260 4.81679E+09-3.55194E+08-3.13156E+07 1.56963E+08-9.09531E+07-1.57687E+08
 -1       261 5.37142E+09-5.15142E+08-6.77305E+07 1.38631E+08-1.23963E+08-1.39091E+08
 -1       262 5.84768E+09-6.57854E+08-1.00479E+08 1.14444E+08-1.53325E+08-1.14403E+08
 -1       263 6.22592E+09-7.81281E+08-1.29268E+08 8.51207E+07-1.78554E+08-8.43657E+07
 -1       264 6.48923E+09-8.83755E+08-1.53872E+08 5.14548E+07-1.99250E+08-4.97995E+07
 -1       265 6.62365E+09-9.64049E+08-1.74143E+08 1.43002E+07-2.15113E+08-1.15865E+07
 -1       266 6.61842E+09-1.02140E+09-1.90023E+08-2.54468E+07-2.25945E+08 2.93478E+07
 -1       267 6.46602E+09-1.05556E+09-2.01543E+08-6.68672E+07-2.31661E+08 7.20557E+07
 -1       268 6.16230E+09-1.06679E+09-2.08837E+08-1.09040E+08-2.32292E+08 1.15588E+08
 -1       269 5.70638E+09-1.05592E+09-2.12144E+08-1.51063E+08-2.27991E+08 1.59018E+08
 -1       270 5.10063E+09-1.02426E+09-2.11793E+08-1.92067E+08-2.19017E+08 2.01454E+08
 -1       271 4.35054E+09-9.73380E+08-2.08135E+08-2.31230E+08-2.05694E+08 2.42044E+08
 -1       272 3.46454E+09-9.04771E+08-2.01438E+08-2.67805E+08-1.88342E+08 2.79999E+08
 -1       273 2.45340E+09-8.20646E+08-1.92232E+08-3.01228E+08-1.67399E+08 3.14673E+08
 -1       274 1.32881E+09-7.27568E+08-1.81985E+08-3.31295E+08-1.44228E+08 3.45893E+08
 -1       275 9.91116E+07-6.44653E+08-1.77516E+08-3.58196E+08-1.22377E+08 3.74441E+08
 -1       276-1.22218E+09-5.90041E+08-1.77803E+08-3.81034E+08-1.06962E+08 3.99749E+08
 -1       277-2.61722E+09-5.48506E+08-2.00662E+08-3.93306E+08-9.09068E+07 4.14698E+08
 -1       278-3.92944E+09-1.94466E+08-5.56313E+07-3.88307E+08-2.05607E+07 4.14018E+08
 -1       279-5.18102E+09 8.31519E+08 1.10004E+07-3.32797E+08 1.61882E+08 4.59975E+08
 -1       280-6.05115E+09 2.51815E+09 1.28741E+09-4.13250E+08 4.58301E+08-3.56509E+08
 -1       281-6.64402E+09-2.84749E+09-2.84749E+09-2.92931E+08-4.35838E+03 3.91139E+09
 -1       282-9.75868E+09-4.18234E+09-4.18235E+09-5.62386E+08-4.34827E+03 4.04478E+09
 -1       283-4.34695E+09 1.11840E+09 1.33172E+09-1.00455E+08-1.29130E+08-4.81654E+08
 -1       284-4.81661E+09-6.19337E+07-1.34115E+08-4.38548E+08-1.00494E+08-3.04984E+08
 -1       285-3.73391E+09 3.74495E+07 8.81199E+07-3.53406E+08-6.89387E+05 6.29285E+07
 -1       286-2.39100E+09 3.36965E+07 4.30185E+06-2.53518E+08 2.26710E+07 8.67715E+07
 -1       287-1.04881E+09 4.51886E+07 2.33975E+07-2.29180E+08 2.97636E+07 3.41083E+07
 -1       288 1.64072E+08 2.81704E+07-1.93841E+06-2.20432E+08 3.98284E+07 1.54339E+07
 -1       289 1.29053E+09 1.24940E+07-2.47467E+07-2.09049E+08 5.15681E+07 1.21180E+07
 -1       290 2.32551E+09-5.52909E+05-4.60832E+07-1.91449E+08 6.34987E+07 1.27532E+07
 -1       291 3.25847E+09-1.14522E+07-6.42599E+07-1.69692E+08 7.41523E+07 1.24885E+07
 -1       292 4.07612E+09-2.09855E+07-7.99347E+07-1.45432E+08 8.31347E+07 1.12327E+07
 -1       293 4.76761E+09-2.93517E+07-9.31538E+07-1.19401E+08 9.02911E+07 9.66077E+06
 -1       294 5.32498E+09-3.65320E+07-1.03825E+08-9.20456E+07 9.54950E+07 8.09064E+06
 -1       295 5.74317E+09-4.24849E+07-1.11819E+08-6.38496E+07 9.86196E+07 6.58406E+06
 -1       296 6.01994E+09-4.72145E+07-1.17071E+08-3.53842E+07 9.95694E+07 5.13891E+06
 -1       297 6.15600E+09-5.07636E+07-1.19588E+08-7.26726E+06 9.82978E+07 3.76584E+06
 -1       298 6.15514E+09-5.32030E+07-1.19443E+08 1.98704E+07 9.48105E+07 2.49130E+06
 -1       299 6.02424E+09-5.46283E+07-1.16768E+08 4.54043E+07 8.91639E+07 1.34762E+06
 -1       300 5.77323E+09-5.51592E+07-1.11755E+08 6.87286E+07 8.14626E+07 3.67906E+05
 -1       301 5.41502E+09-5.49395E+07-1.04651E+08 8.92670E+07 7.18571E+07-4.17030E+05
 -1       302 4.96523E+09-5.41375E+07-9.57561E+07 1.06485E+08 6.05410E+07-9.86018E+05
 -1       303 4.44202E+09-5.29513E+07-8.54306E+07 1.19909E+08 4.77467E+07-1.33706E+06
 -1       304 3.86575E+09-5.16223E+07-7.40927E+07 1.29165E+08 3.37348E+07-1.46947E+06
 -1       305 3.25879E+09-5.04264E+07-6.21958E+07 1.33998E+08 1.87631E+07-1.26115E+06
 -1       306 2.64545E+09-4.95884E+07-5.00823E+07 1.34150E+08 3.05566E+06-2.27160E+05
 -1       307 2.05191E+09-4.89519E+07-3.78763E+07 1.28833E+08-1.31227E+07 2.28055E+06
 -1       308 1.50538E+09-4.77406E+07-2.48550E+07 1.16290E+08-2.90604E+07 5.66717E+06
 -1       309 1.02676E+09-4.52050E+07-1.46267E+07 9.48206E+07-4.31432E+07-8.49127E+04
 -1       310 6.04458E+08-5.79752E+07-1.76761E+07 7.50955E+07-5.12313E+07-2.74502E+07
 -1       311 2.38999E+08-1.01046E+08-3.75835E+07 8.91973E+07-7.23054E+07-4.25622E+07
 -1       312 1.58335E+07-3.20327E+08-8.43170E+07 1.38956E+08-1.53137E+08-4.53807E+07
 -1       313-6.25210E+09 4.82348E+08 5.69362E+08-4.40957E+08-9.65829E+07-4.47138E+08
 -1       314-5.31423E+09 3.96343E+07-2.52931E+08-1.15652E+08-8.89640E+07-3.33626E+08
 -1       315-3.77400E+09 7.85724E+06 6.72157E+07-1.63854E+08-7.17582E+06 4.68847E+07
 -1       316-2.44396E+09-6.56643E+07-4.13946E+07-2.55027E+08 2.14017E+07 6.41175E+07
 -1       317-1.07793E+09-5.91068E+07-1.66255E+07-2.60497E+08 2.67965E+07 1.40885E+07
 -1       318 2.43726E+08-5.15107E+07-1.94649E+06-2.40813E+08 3.66927E+07-3.78187E+06
 -1       319 1.49816E+09-3.95600E+07 2.19246E+07-2.19036E+08 4.78218E+07-5.63923E+06
 -1       320 2.65103E+09-3.06145E+07 4.25548E+07-1.98118E+08 5.91854E+07-3.41385E+06
 -1       321 3.68620E+09-2.32681E+07 6.05163E+07-1.76563E+08 6.93208E+07-1.86630E+06
 -1       322 4.59125E+09-1.67523E+07 7.58731E+07-1.53343E+08 7.78792E+07-1.13231E+06
 -1       323 5.35566E+09-1.06967E+07 8.88589E+07-1.28556E+08 8.47114E+07-5.65399E+05
 -1       324 5.97083E+09-5.04902E+06 9.93754E+07-1.02701E+08 8.96999E+07 1.09939E+05
 -1       325 6.43089E+09 2.16762E+05 1.07307E+08-7.63433E+07 9.27266E+07 9.10536E+05
 -1       326 6.73311E+09 5.15245E+06 1.12592E+08-5.00338E+07 9.37030E+07 1.78626E+06
 -1       327 6.87817E+09 9.82857E+06 1.15240E+08-2.43294E+07 9.25865E+07 2.69786E+06
 -1       328 6.87017E+09 1.43226E+07 1.15324E+08 2.02996E+05 8.93837E+07 3.62087E+06
 -1       329 6.71671E+09 1.87159E+07 1.12977E+08 2.29936E+07 8.41490E+07 4.53699E+06
 -1       330 6.42878E+09 2.30941E+07 1.08384E+08 4.34838E+07 7.69823E+07 5.42998E+06
 -1       331 6.02066E+09 2.75478E+07 1.01788E+08 6.11406E+07 6.80264E+07 6.28373E+06
 -1       332 5.50971E+09 3.21754E+07 9.34831E+07 7.54677E+07 5.74652E+07 7.07591E+06
 -1       333 4.91615E+09 3.70901E+07 8.38209E+07 8.60054E+07 4.55192E+07 7.76929E+06
 -1       334 4.26272E+09 4.24384E+07 7.32136E+07 9.23128E+07 3.24349E+07 8.32996E+06
 -1       335 3.57426E+09 4.83954E+07 6.20912E+07 9.39538E+07 1.84578E+07 8.85100E+06
 -1       336 2.87703E+09 5.50669E+07 5.07867E+07 9.06402E+07 3.79847E+06 9.79281E+06
 -1       337 2.19767E+09 6.20540E+07 3.91543E+07 8.27271E+07-1.12766E+07 1.18008E+07
 -1       338 1.56408E+09 6.87048E+07 2.76892E+07 7.18727E+07-2.61837E+07 1.42262E+07
 -1       339 1.01179E+09 7.63062E+07 1.73348E+07 6.04001E+07-3.90182E+07 7.19822E+06
 -1       340 5.71590E+08 7.77228E+07 1.31729E+07 3.37561E+07-4.67175E+07-2.14757E+07
 -1       341 2.81514E+08 1.29142E+08 4.42272E+07-1.76152E+07-6.74530E+07-3.88577E+07
 -1       342 3.37576E+08 5.86303E+08 2.84195E+08-2.61833E+07-1.67254E+08-4.29945E+07
 -1       343 6.25210E+09-4.82348E+08-5.69362E+08-4.40957E+08 9.65829E+07-4.47138E+08
 -1       344 5.31423E+09-3.96343E+07 2.52931E+08-1.15652E+08 8.89640E+07-3.33626E+08
 -1       345 3.77400E+09-7.85724E+06-6.72157E+07-1.63854E+08 7.17582E+06 4.68847E+07
 -1       346 2.44396E+09 6.56643E+07 4.13946E+07-2.55027E+08-2.14017E+07 6.41175E+07
 -1       347 1.07793E+09 5.91068E+07 1.66255E+07-2.60497E+08-2.67965E+07 1.40885E+07
 -1       348-2.43726E+08 5.15107E+07 1.94649E+06-2.40813E+08-3.66927E+07-3.78187E+06
 -1       349-1.49816E+09 3.95600E+07-2.19246E+07-2.19036E+08-4.78218E+07-5.63923E+06
 -1       350-2.65103E+09 3.06145E+07-4.25548E+07-1.98118E+08-5.91854E+07-3.41385E+06
 -1       351-3.68620E+09 2.32681E+07-6.05163E+07-1.76563E+08-6.93208E+07-1.86630E+06
 -1       352-4.59125E+09 1.67523E+07-7.58731E+07-1.53343E+08-7.78792E+07-1.13231E+06
 -1       353-5.35566E+09 1.06967E+07-8.88589E+07-1.28556E+08-8.47114E+07-5.65399E+05
 -1       354-5.97083E+09 5.04902E+06-9.93754E+07-1.02701E+08-8.96999E+07 1.09939E+05
 -1       355-6.43089E+09-2.16762E+05-1.07307E+08-7.63433E+07-9.27266E+07 9.10536E+05
 -1       356-6.73311E+09-5.15245E+06-1.12592E+08-5.00338E+07-9.37030E+07 1.78626E+06
 -1       357-6.87817E+09-9.82857E+06-1.15240E+08-2.43294E+07-9.25865E+07 2.69786E+06
 -1       358-6.87017E+09-1.43226E+07-1.15324E+08 2.02996E+05-8.93837E+07 3.62087E+06
 -1       359-6.71671E+09-1.87159E+07-1.12977E+08 2.29936E+07-8.41490E+07 4.53699E+06
 -1       360-6.42878E+09-2.30941E+07-1.08384E+08 4.34838E+07-7.69823E+07 5.42998E+06
 -1       361-6.02066E+09-2.75478E+07-1.01788E+08 6.11406E+07-6.80264E+07 6.28373E+06
 -1       362-5.50971E+09-3.21754E+07-9.34831E+07 7.54677E+07-5.74652E+07 7.07591E+06
 -1       363-4.91615E+09-3.70901E+07-8.38209E+07 8.60054E+07-4.55192E+07 7.76929E+06
 -1       364-4.26272E+09-4.24384E+07-7.32136E+07 9.23128E+07-3.24349E+07 8.32996E+06
 -1       365-3.57426E+09-4.83954E+07-6.20912E+07 9.39538E+07-1.84578E+07 8.85100E+06
 -1       366-2.87703E+09-5.50669E+07-5.07867E+07 9.06402E+07-3.79847E+06 9.79281E+06
 -1       367-2.19767E+09-6.20540E+07-3.91543E+07 8.27271E+07 1.12766E+07 1.18008E+07
 -1       368-1.56408E+09-6.87048E+07-2.76892E+07 7.18727E+07 2.61837E+07 1.42262E+07
 -1       369-1.01179E+09-7.63062E+07-1.73348E+07 6.04001E+07 3.90182E+07 7.19822E+06
 -1       370-5.71590E+08-7.77228E+07-1.31729E+07 3.37561E+07 4.67175E+07-2.14757E+07
 -1       371-2.81514E+08-1.29142E+08-4.42272E+07-1.76152E+07 6.74530E+07-3.88577E+07
 -1       372 4.34695E+09-1.11840E+09-1.33172E+09-1.00455E+08 1.29130E+08-4.81654E+08
 -1       373 4.81661E+09 6.19337E+07 1.34115E+08-4.38548E+08 1.00494E+08-3.04984E+08
 -1       374 3.73391E+09-3.74495E+07-8.81199E+07-3.53406E+08 6.89387E+05 6.29285E+07
 -1       375 2.39100E+09-3.36965E+07-4.30185E+06-2.53518E+08-2.26710E+07 8.67715E+07
 -1       376 1.04881E+09-4.51886E+07-2.33975E+07-2.29180E+08-2.97636E+07 3.41083E+07
 -1       377-1.64072E+08-2.81704E+07 1.93841E+06-2.20432E+08-3.98284E+07 1.54339E+07
 -1       378-1.29053E+09-1.24940E+07 2.47467E+07-2.09049E+08-5.15681E+07 1.21180E+07
 -1       379-2.32551E+09 5.52909E+05 4.60832E+07-1.91449E+08-6.34987E+07 1.27532E+07
 -1       380-3.25847E+09 1.14522E+07 6.42599E+07-1.69692E+08-7.41523E+07 1.24885E+07
 -1       381-4.07612E+09 2.09855E+07 7.99347E+07-1.45432E+08-8.31347E+07 1.12327E+07
 -1       382-4.76761E+09 2.93517E+07 9.31538E+07-1.19401E+08-9.02911E+07 9.66077E+06
 -1       383-5.32498E+09 3.65320E+07 1.03825E+08-9.20456E+07-9.54950E+07 8.09064E+06
 -1       384-5.74317E+09 4.24849E+07 1.11819E+08-6.38496E+07-9.86196E+07 6.58406E+06
 -1       385-6.01994E+09 4.72145E+07 1.17071E+08-3.53842E+07-9.95694E+07 5.13891E+06
 -1       386-6.15600E+09 5.07636E+07 1.19588E+08-7.26726E+06-9.82978E+07 3.76584E+06
 -1       387-6.15514E+09 5.32030E+07 1.19443E+08 1.98704E+07-9.48105E+07 2.49130E+06
 -1       388-6.02424E+09 5.46283E+07 1.16768E+08 4.54043E+07-8.91639E+07 1.34762E+06
 -1       389-5.77323E+09 5.51592E+07 1.11755E+08 6.87286E+07-8.14626E+07 3.67906E+05
 -1       390-5.41502E+09 5.49395E+07 1.04651E+08 8.92670E+07-7.18571E+07-4.17030E+05
 -1       391-4.96523E+09 5.41375E+07 9.57561E+07 1.06485E+08-6.05410E+07-9.86018E+05
 -1       392-4.44202E+09 5.29513E+07 8.54306E+07 1.19909E+08-4.77467E+07-1.33706E+06
 -1       393-3.86575E+09 5.16223E+07 7.40927E+07 1.29165E+08-3.37348E+07-1.46947E+06
 -1       394-3.25879E+09 5.04264E+07 6.21958E+07 1.33998E+08-1.87631E+07-1.26115E+06
 -1       395-2.64545E+09 4.95884E+07 5.00823E+07 1.34150E+08-3.05566E+06-2.27160E+05
 -1       396-2.05191E+09 4.89519E+07 3.78763E+07 1.28833E+08 1.31227E+07 2.28055E+06
 -1       397-1.50538E+09 4.77406E+07 2.48550E+07 1.16290E+08 2.90604E+07 5.66717E+06
 -1       398-1.02676E+09 4.52050E+07 1.46267E+07 9.48206E+07 4.31432E+07-8.49127E+04
 -1       399-6.04458E+08 5.79752E+07 1.76761E+07 7.50955E+07 5.12313E+07-2.74502E+07
 -1       400-2.38999E+08 1.01046E+08 3.75835E+07 8.91973E+07 7.23054E+07-4.25622E+07
 -1       401 9.75868E+09 4.18234E+09 4.18235E+09-5.62386E+08 4.34827E+03 4.04478E+09
 -1       402 6.64402E+09 2.84749E+09 2.84749E+09-2.92931E+08 4.35838E+03 3.91139E+09
 -1       403-3.37576E+08-5.86303E+08-2.84195E+08-2.61833E+07 1.67254E+08-4.29945E+07
 -1       404 6.05115E+09-2.51815E+09-1.28741E+09-4.13250E+08-4.58301E+08-3.56509E+08
 -1       405 5.18102E+09-8.31519E+08-1.10004E+07-3.32797E+08-1.61882E+08 4.59975E+08
 -1       406 3.92944E+09 1.94466E+08 5.56313E+07-3.88307E+08 2.05607E+07 4.14018E+08
 -1       407 2.61722E+09 5.48506E+08 2.00662E+08-3.93306E+08 9.09068E+07 4.14698E+08
 -1       408 1.22218E+09 5.90041E+08 1.77803E+08-3.81034E+08 1.06962E+08 3.99749E+08
 -1       409-9.91116E+07 6.44653E+08 1.77516E+08-3.58196E+08 1.22377E+08 3.74441E+08
 -1       410-1.32881E+09 7.27568E+08 1.81985E+08-3.31295E+08 1.44228E+08 3.45893E+08
 -1       411-2.45340E+09 8.20646E+08 1.92232E+08-3.01228E+08 1.67399E+08 3.14673E+08
 -1       412-3.46454E+09 9.04771E+08 2.01438E+08-2.67805E+08 1.88342E+08 2.79999E+08
 -1       413-4.35054E+09 9.73380E+08 2.08135E+08-2.31230E+08 2.05694E+08 2.42044E+08
 -1       414-5.10063E+09 1.02426E+09 2.11793E+08-1.92067E+08 2.19017E+08 2.01454E+08
 -1       415-5.70638E+09 1.05592E+09 2.12144E+08-1.51063E+08 2.27991E+08 1.59018E+08
 -1       416-6.16230E+09 1.06679E+09 2.08837E+08-1.09040E+08 2.32292E+08 1.15588E+08
 -1       417-6.46602E+09 1.05556E+09 2.01543E+08-6.68672E+07 2.31661E+08 7.20557E+07
 -1       418-6.61842E+09 1.02140E+09 1.90023E+08-2.54468E+07 2.25945E+08 2.93478E+07
 -1       419-6.62365E+09 9.64049E+08 1.74143E+08 1.43002E+07 2.15113E+08-1.15865E+07
 -1       420-6.48923E+09 8.83755E+08 1.53872E+08 5.14548E+07 1.99250E+08-4.97995E+07
 -1       421-6.22592E+09 7.81281E+08 1.29268E+08 8.51207E+07 1.78554E+08-8.43657E+07
 -1       422-5.84768E+09 6.57854E+08 1.00479E+08 1.14444E+08 1.53325E+08-1.14403E+08
 -1       423-5.37142E+09 5.15142E+08 6.77305E+07 1.38631E+08 1.23963E+08-1.39091E+08
 -1       424-4.81679E+09 3.55194E+08 3.13156E+07 1.56963E+08 9.09531E+07-1.57687E+08
 -1       425-4.20587E+09 1.80264E+08-8.45106E+06 1.68801E+08 5.48315E+07-1.69530E+08
 -1       426-3.56297E+09-7.56096E+06-5.13421E+07 1.73589E+08 1.61085E+07-1.74032E+08
 -1       427-2.91428E+09-2.06609E+08-9.72732E+07 1.70893E+08-2.47732E+07-1.70680E+08
 -1       428-2.28692E+09-4.13988E+08-1.45795E+08 1.60536E+08-6.72015E+07-1.59335E+08
 -1       429-1.70638E+09-6.20398E+08-1.94523E+08 1.42859E+08-1.09128E+08-1.40218E+08
 -1       430-1.19342E+09-8.01747E+08-2.36288E+08 1.17953E+08-1.45934E+08-1.13988E+08
 -1       431-7.82523E+08-9.51186E+08-2.72347E+08 8.55344E+07-1.74717E+08-8.26082E+07
 -1       432-5.59427E+08-1.10957E+09-3.36049E+08 3.83366E+07-2.17373E+08-5.71710E+07
 -1       433-1.58335E+07 3.20327E+08 8.43170E+07 1.38956E+08 1.53137E+08-4.53807E+07
 -1       434-9.75868E+09-4.18234E+09-4.18235E+09 5.62386E+08 4.34827E+03 4.04478E+09
 -1       435-6.64402E+09-2.84749E+09-2.84749E+09 2.92931E+08 4.35838E+03 3.91139E+09
 -1       436 5.59427E+08 1.10957E+09 3.36049E+08-3.83366E+07-2.17373E+08-5.71710E+07
 -1       437 7.82523E+08 9.51186E+08 2.72347E+08-8.55344E+07-1.74717E+08-8.26082E+07
 -1       438 1.19342E+09 8.01747E+08 2.36288E+08-1.17953E+08-1.45934E+08-1.13988E+08
 -1       439 1.70638E+09 6.20398E+08 1.94523E+08-1.42859E+08-1.09128E+08-1.40218E+08
 -1       440 2.28692E+09 4.13988E+08 1.45795E+08-1.60536E+08-6.72015E+07-1.59335E+08
 -1       441 2.91428E+09 2.06609E+08 9.72732E+07-1.70893E+08-2.47732E+07-1.70680E+08
 -1       442 3.56297E+09 7.56096E+06 5.13421E+07-1.73589E+08 1.61085E+07-1.74032E+08
 -1       443 4.20587E+09-1.80264E+08 8.45106E+06-1.68801E+08 5.48315E+07-1.69530E+08
 -1       444 4.81679E+09-3.55194E+08-3.13156E+07-1.56963E+08 9.09531E+07-1.57687E+08
 -1       445 5.37142E+09-5.15142E+08-6.77305E+07-1.38631E+08 1.23963E+08-1.39091E+08
 -1       446 5.84768E+09-6.57854E+08-1.00479E+08-1.14444E+08 1.53325E+08-1.14403E+08
 -1       447 6.22592E+09-7.81281E+08-1.29268E+08-8.51207E+07 1.78554E+08-8.43657E+07
 -1       448 6.48923E+09-8.83755E+08-1.53872E+08-5.14548E+07 1.99250E+08-4.97995E+07
 -1       449 6.62365E+09-9.64049E+08-1.74143E+08-1.43002E+07 2.15113E+08-1.15865E+07
 -1       450 6.61842E+09-1.02140E+09-1.90023E+08 2.54468E+07 2.25945E+08 2.93478E+07
 -1       451 6.46602E+09-1.05556E+09-2.01543E+08 6.68672E+07 2.31661E+08 7.20557E+07
 -1       452 6.16230E+09-1.06679E+09-2.08837E+08 1.09040E+08 2.32292E+08 1.15588E+08
 -1       453 5.70638E+09-1.05592E+09-2.12144E+08 1.51063E+08 2.27991E+08 1.59018E+08
 -1       454 5.10063E+09-1.02426E+09-2.11793E+08 1.92067E+08 2.19017E+08 2.01454E+08
 -1       455 4.35054E+09-9.73380E+08-2.08135E+08 2.31230E+08 2.05694E+08 2.42044E+08
 -1       456 3.46454E+09-9.04771E+08-2.01438E+08 2.67805E+08 1.88342E+08 2.79999E+08
 -1       457 2.45340E+09-8.20646E+08-1.92232E+08 3.01228E+08 1.67399E+08 3.14673E+08
 -1       458 1.32881E+09-7.27568E+08-1.81985E+08 3.31295E+08 1.44228E+08 3.45893E+08
 -1       459 9.91116E+07-6.44653E+08-1.77516E+08 3.58196E+08 1.22377E+08 3.74441E+08
 -1       460-1.22218E+09-5.90041E+08-1.77803E+08 3.81034E+08 1.06962E+08 3.99749E+08
 -1       461-2.61722E+09-5.48506E+08-2.00662E+08 3.93306E+08 9.09068E+07 4.14698E+08
 -1       462-3.92944E+09-1.94466E+08-5.56313E+07 3.88307E+08 2.05607E+07 4.14018E+08
 -1       463-5.18102E+09 8.31519E+08 1.10004E+07 3.32797E+08-1.61882E+08 4.59975E+08
 -1       464-6.05115E+09 2.51815E+09 1.28741E+09 4.13250E+08-4.58301E+08-3.56509E+08
 -1       465 3.37576E+08 5.86303E+08 2.84195E+08 2.61833E+07 1.67254E+08-4.29945E+07
 -1       466-6.25210E+09 4.82348E+08 5.69362E+08 4.40957E+08 9.65829E+07-4.47138E+08
 -1       467-5.31423E+09 3.96343E+07-2.52931E+08 1.15652E+08 8.89640E+07-3.33626E+08
 -1       468-3.77400E+09 7.85724E+06 6.72157E+07 1.63854E+08 7.17582E+06 4.68847E+07
 -1       469-2.44396E+09-6.56643E+07-4.13946E+07 2.55027E+08-2.14017E+07 6.41175E+07
 -1       470-1.07793E+09-5.91068E+07-1.66255E+07 2.60497E+08-2.67965E+07 1.40885E+07
 -1       471 2.43726E+08-5.15107E+07-1.94649E+06 2.40813E+08-3.66927E+07-3.78187E+06
 -1       472 1.49816E+09-3.95600E+07 2.19246E+07 2.19036E+08-4.78218E+07-5.63923E+06
 -1       473 2.65103E+09-3.06145E+07 4.25548E+07 1.98118E+08-5.91854E+07-3.41385E+06
 -1       474 3.68620E+09-2.32681E+07 6.05163E+07 1.76563E+08-6.93208E+07-1.86630E+06
 -1       475 4.59125E+09-1.67523E+07 7.58731E+07 1.53343E+08-7.78792E+07-1.13231E+06
 -1       476 5.35566E+09-1.06967E+07 8.88589E+07 1.28556E+08-8.47114E+07-5.65399E+05
 -1       477 5.97083E+09-5.04902E+06 9.93754E+07 1.02701E+08-8.96999E+07 1.09939E+05
 -1       478 6.43089E+09 2.16762E+05 1.07307E+08 7.63433E+07-9.27266E+07 9.10536E+05
 -1       479 6.73311E+09 5.15245E+06 1.12592E+08 5.00338E+07-9.37030E+07 1.78626E+06
 -1       480 6.87817E+09 9.82857E+06 1.15240E+08 2.43294E+07-9.25865E+07 2.69786E+06
 -1       481 6.87017E+09 1.43226E+07 1.15324E+08-2.02996E+05-8.93837E+07 3.62087E+06
 -1       482 6.71671E+09 1.87159E+07 1.12977E+08-2.29936E+07-8.41490E+07 4.53699E+06
 -1       483 6.42878E+09 2.30941E+07 1.08384E+08-4.34838E+07-7.69823E+07 5.42998E+06
 -1       484 6.02066E+09 2.75478E+07 1.01788E+08-6.11406E+07-6.80264E+07 6.28373E+06
 -1       485 5.50971E+09 3.21754E+07 9.34831E+07-7.54677E+07-5.74652E+07 7.07591E+06
 -1       486 4.91615E+09 3.70901E+07 8.38209E+07-8.60054E+07-4.55192E+07 7.76929E+06
 -1       487 4.26272E+09 4.24384E+07 7.32136E+07-9.23128E+07-3.24349E+07 8.32996E+06
 -1       488 3.57426E+09 4.83954E+07 6.20912E+07-9.39538E+07-1.84578E+07 8.85100E+06
 -1       489 2.87703E+09 5.50669E+07 5.07867E+07-9.06402E+07-3.79847E+06 9.79281E+06
 -1       490 2.19767E+09 6.20540E+07 3.91543E+07-8.27271E+07 1.12766E+07 1.18008E+07
 -1       491 1.56408E+09 6.87048E+07 2.76892E+07-7.18727E+07 2.61837E+07 1.42262E+07
 -1       492 1.01179E+09 7.63062E+07 1.73348E+07-6.04001E+07 3.90182E+07 7.19822E+06
 -1       493 5.71590E+08 7.77228E+07 1.31729E+07-3.37561E+07 4.67175E+07-2.14757E+07
 -1       494 2.81514E+08 1.29142E+08 4.42272E+07 1.76152E+07 6.74530E+07-3.88577E+07
 -1       495-4.34695E+09 1.11840E+09 1.33172E+09 1.00455E+08 1.29130E+08-4.81654E+08
 -1       496-4.81661E+09-6.19337E+07-1.34115E+08 4.38548E+08 1.00494E+08-3.04984E+08
 -1       497-3.73391E+09 3.74495E+07 8.81199E+07 3.53406E+08 6.89387E+05 6.29285E+07
 -1       498-2.39100E+09 3.36965E+07 4.30185E+06 2.53518E+08-2.26710E+07 8.67715E+07
 -1       499-1.04881E+09 4.51886E+07 2.33975E+07 2.29180E+08-2.97636E+07 3.41083E+07
 -1       500 1.64072E+08 2.81704E+07-1.93841E+06 2.20432E+08-3.98284E+07 1.54339E+07
 -1       501 1.29053E+09 1.24940E+07-2.47467E+07 2.09049E+08-5.15681E+07 1.21180E+07
 -1       502 2.32551E+09-5.52909E+05-4.60832E+07 1.91449E+08-6.34987E+07 1.27532E+07
 -1       503 3.25847E+09-1.14522E+07-6.42599E+07 1.69692E+08-7.41523E+07 1.24885E+07
 -1       504 4.07612E+09-2.09855E+07-7.99347E+07 1.45432E+08-8.31347E+07 1.12327E+07
 -1       505 4.76761E+09-2.93517E+07-9.31538E+07 1.19401E+08-9.02911E+07 9.66077E+06
 -1       506 5.32498E+09-3.65320E+07-1.03825E+08 9.20456E+07-9.54950E+07 8.09064E+06
 -1       507 5.74317E+09-4.24849E+07-1.11819E+08 6.38496E+07-9.86196E+07 6.58406E+06
 -1       508 6.01994E+09-4.72145E+07-1.17071E+08 3.53842E+07-9.95694E+07 5.13891E+06
 -1       509 6.15600E+09-5.07636E+07-1.19588E+08 7.26726E+06-9.82978E+07 3.76584E+06
 -1       510 6.15514E+09-5.32030E+07-1.19443E+08-1.98704E+07-9.48105E+07 2.49130E+06
 -1       511 6.02424E+09-5.46283E+07-1.16768E+08-4.54043E+07-8.91639E+07 1.34762E+06
 -1       512 5.77323E+09-5.51592E+07-1.11755E+08-6.87286E+07-8.14626E+07 3.67906E+05
 -1       513 5.41502E+09-5.49395E+07-1.04651E+08-8.92670E+07-7.18571E+07-4.17030E+05
 -1       514 4.96523E+09-5.41375E+07-9.57561E+07-1.06485E+08-6.05410E+07-9.86018E+05
 -1       515 4.44202E+09-5.29513E+07-8.54306E+07-1.19909E+08-4.77467E+07-1.33706E+06
 -1       516 3.86575E+09-5.16223E+07-7.40927E+07-1.29165E+08-3.37348E+07-1.46947E+06
 -1       517 3.25879E+09-5.04264E+07-6.21958E+07-1.33998E+08-1.87631E+07-1.26115E+06
 -1       518 2.64545E+09-4.95884E+07-5.00823E+07-1.34150E+08-3.05566E+06-2.27160E+05
 -1       519 2.05191E+09-4.89519E+07-3.78763E+07-1.28833E+08 1.31227E+07 2.28055E+06
 -1       520 1.50538E+09-4.77406E+07-2.48550E+07-1.16290E+08 2.90604E+07 5.66717E+06
 -1       521 1.02676E+09-4.52050E+07-1.46267E+07-9.48206E+07 4.31432E+07-8.49127E+04
 -1       522 6.04458E+08-5.79752E+07-1.76761E+07-7.50955E+07 5.12313E+07-2.74502E+07
 -1       523 2.38999E+08-1.01046E+08-3.75835E+07-8.91973E+07 7.23054E+07-4.25622E+07
 -1       524 1.58335E+07-3.20327E+08-8.43170E+07-1.38956E+08 1.53137E+08-4.53807E+07
 -1       525 2.52636E+09-6.38313E+08 5.56164E+08 6.18786E+06-2.30223E+07 4.32098E+09
 -1       526 2.45614E+09 5.57394E+06 5.66754E+07-8.33347E+06-1.22609E+07 4.72665E+09
 -1       527 1.90184E+09 3.43670E+05-4.96507E+07-3.95374E+06-1.03280E+07 4.77550E+09
 -1       528 1.21862E+09 7.56891E+07-6.57895E+07-4.04127E+06-6.82046E+06 4.63268E+09
 -1       529 5.32482E+08 6.46489E+07-9.49299E+07-3.29456E+06-3.29234E+06 4.42506E+09
 -1       530-9.41617E+07 6.59294E+07-1.13532E+08-3.13167E+06 1.65976E+05 4.16855E+09
 -1       531-6.74238E+08 6.89106E+07-1.36340E+08-2.93391E+06 3.34053E+06 3.86746E+09
 -1       532-1.20424E+09 7.39837E+07-1.59228E+08-2.68540E+06 6.24721E+06 3.51980E+09
 -1       533-1.68055E+09 7.87373E+07-1.79725E+08-2.37991E+06 8.86022E+06 3.12802E+09
 -1       534-2.09771E+09 8.24654E+07-1.96801E+08-2.03597E+06 1.11511E+07 2.69792E+09
 -1       535-2.45044E+09 8.48805E+07-2.10031E+08-1.66335E+06 1.30918E+07 2.23713E+09
 -1       536-2.73458E+09 8.58686E+07-2.19059E+08-1.27004E+06 1.46604E+07 1.75434E+09
 -1       537-2.94745E+09 8.52986E+07-2.23561E+08-8.63578E+05 1.58431E+07 1.25911E+09
 -1       538-3.08784E+09 8.30516E+07-2.23291E+08-4.52349E+05 1.66337E+07 7.61639E+08
 -1       539-3.15609E+09 7.90412E+07-2.18108E+08-4.52610E+04 1.70348E+07 2.72610E+08
 -1       540-3.15414E+09 7.32244E+07-2.07989E+08 3.48574E+05 1.70573E+07-1.97096E+08
 -1       541-3.08548E+09 6.55995E+07-1.93023E+08 7.20123E+05 1.67204E+07-6.36629E+08
 -1       542-2.95518E+09 5.62039E+07-1.73405E+08 1.06063E+06 1.60522E+07-1.03541E+09
 -1       543-2.76984E+09 4.51112E+07-1.49430E+08 1.36180E+06 1.50887E+07-1.38338E+09
 -1       544-2.53743E+09 3.24283E+07-1.21487E+08 1.61599E+06 1.38735E+07-1.67117E+09
 -1       545-2.26724E+09 1.82891E+07-9.00485E+07 1.81647E+06 1.24574E+07-1.89035E+09
 -1       546-1.96972E+09 2.83359E+06-5.56436E+07 1.95772E+06 1.08973E+07-2.03350E+09
 -1       547-1.65639E+09-1.38270E+07-1.88055E+07 2.03531E+06 9.25620E+06-2.09436E+09
 -1       548-1.33970E+09-3.15947E+07 1.99917E+07 2.04441E+06 7.60170E+06-2.06782E+09
 -1       549-1.03260E+09-5.02438E+07 6.00861E+07 1.97455E+06 6.00528E+06-1.95013E+09
 -1       550-7.47964E+08-6.88873E+07 9.98679E+07 1.80828E+06 4.52828E+06-1.73974E+09
 -1       551-4.96155E+08-8.47057E+07 1.37672E+08 1.56231E+06 3.21867E+06-1.43849E+09
 -1       552-2.90804E+08-1.00666E+08 1.66532E+08 1.26738E+06 2.14010E+06-1.05374E+09
 -1       553-1.64135E+08-1.22367E+08 1.90983E+08 1.43338E+06 1.67302E+06-5.79985E+08
 -1       554 3.59139E-01 4.12413E-02 1.11828E-01-8.33921E-02-2.77225E+07 4.47423E+09
 -1       555 3.05178E-01 4.10623E-02 8.52741E-02-6.82516E-02-1.32716E+07 5.01510E+09
 -1       556 2.76564E-01-1.33282E-02 4.27203E-02-3.13277E-02-9.84917E+06 5.10432E+09
 -1       557 2.52276E-01-3.02310E-02-5.71239E-03-2.31534E-02-4.79168E+06 4.95236E+09
 -1       558 2.00451E-01-3.38082E-02-4.48803E-02-1.87499E-02-1.18157E+06 4.72241E+09
 -1       559 1.45189E-01-4.56795E-02-4.64137E-02-3.00936E-02 2.27441E+06 4.44625E+09
 -1       560 8.80347E-02-6.14369E-02-7.69404E-02-3.82262E-02 5.53515E+06 4.12398E+09
 -1       561 8.29359E-02-7.74748E-02-1.12911E-01-2.16711E-03 8.56698E+06 3.75311E+09
 -1       562 1.11030E-01-7.00725E-02-1.42415E-01 2.14072E-02 1.12947E+07 3.33544E+09
 -1       563 1.21499E-01-5.69138E-02-9.88552E-02 1.54839E-02 1.36714E+07 2.87685E+09
 -1       564 1.02259E-01-3.28220E-02-6.14354E-02 2.09174E-02 1.56614E+07 2.38546E+09
 -1       565 8.93666E-02-1.90974E-02-1.18294E-02 2.27859E-02 1.72389E+07 1.87059E+09
 -1       566 8.97882E-02-1.54416E-02-7.97205E-03-9.25081E-03 1.83853E+07 1.34245E+09
 -1       567 8.47474E-02-3.18032E-02-5.54922E-02-9.47546E-03 1.90910E+07 8.11926E+08
 -1       568 9.62516E-02-2.69876E-02-3.73889E-02 3.71273E-02 1.93555E+07 2.90394E+08
 -1       569 1.35049E-01 8.87790E-03 2.06315E-02 5.16002E-02 1.91881E+07-2.10536E+08
 -1       570 1.96385E-01 5.18282E-02 9.79815E-02 4.73077E-02 1.86079E+07-6.79292E+08
 -1       571 2.43284E-01 8.29075E-02 1.57045E-01 3.17830E-02 1.76436E+07-1.10460E+09
 -1       572 2.57760E-01 9.40790E-02 1.48921E-01-1.51033E-03 1.63331E+07-1.47571E+09
 -1       573 2.62666E-01 7.17101E-02 8.48072E-02-1.67606E-02 1.47229E+07-1.78266E+09
 -1       574 2.75161E-01 6.66962E-02 5.27753E-02-4.41289E-03 1.28672E+07-2.01644E+09
 -1       575 2.71077E-01 7.17681E-02 4.49611E-02 1.74993E-02 1.08269E+07-2.16915E+09
 -1       576 2.51424E-01 6.06122E-02 5.19961E-02-2.68725E-03 8.66828E+06-2.23408E+09
 -1       577 1.98188E-01 5.44959E-02 4.35530E-02-3.20766E-02 6.46164E+06-2.20573E+09
 -1       578 1.15111E-01 2.93106E-02 2.55851E-02-2.33226E-02 4.28349E+06-2.08015E+09
 -1       579 3.70999E-02 6.97798E-03 1.19284E-02-1.27710E-02 2.22667E+06-1.85581E+09
 -1       580-5.88201E-03 2.13797E-03-2.79032E-02-1.11414E-02 4.05131E+05-1.53542E+09
 -1       581-5.39471E-03-2.17859E-02-6.34126E-02-1.22353E-02-1.12413E+06-1.12395E+09
 -1       582-7.38654E-03-3.52659E-02-1.25980E-01-1.19110E-02-2.31312E+06-6.13572E+08
 -1       583-2.52636E+09 6.38313E+08-5.56164E+08-6.18786E+06-2.30223E+07 4.32098E+09
 -1       584-2.45614E+09-5.57394E+06-5.66754E+07 8.33347E+06-1.22609E+07 4.72665E+09
 -1       585-1.90184E+09-3.43670E+05 4.96507E+07 3.95374E+06-1.03280E+07 4.77550E+09
 -1       586-1.21862E+09-7.56891E+07 6.57895E+07 4.04127E+06-6.82046E+06 4.63268E+09
 -1       587-5.32482E+08-6.46489E+07 9.49299E+07 3.29456E+06-3.29234E+06 4.42506E+09
 -1       588 9.41617E+07-6.59294E+07 1.13532E+08 3.13167E+06 1.65977E+05 4.16855E+09
 -1       589 6.74238E+08-6.89106E+07 1.36340E+08 2.93391E+06 3.34053E+06 3.86746E+09
 -1       590 1.20424E+09-7.39837E+07 1.59228E+08 2.68540E+06 6.24721E+06 3.51980E+09
 -1       591 1.68055E+09-7.87373E+07 1.79725E+08 2.37991E+06 8.86022E+06 3.12802E+09
 -1       592 2.09771E+09-8.24654E+07 1.96801E+08 2.03597E+06 1.11511E+07 2.69792E+09
 -1       593 2.45044E+09-8.48805E+07 2.10031E+08 1.66335E+06 1.30918E+07 2.23713E+09
 -1       594 2.73458E+09-8.58686E+07 2.19059E+08 1.27004E+06 1.46604E+07 1.75434E+09
 -1       595 2.94745E+09-8.52986E+07 2.23561E+08 8.63578E+05 1.58431E+07 1.25911E+09
 -1       596 3.08784E+09-8.30516E+07 2.23291E+08 4.52349E+05 1.66337E+07 7.61639E+08
 -1       597 3.15609E+09-7.90412E+07 2.18108E+08 4.52611E+04 1.70348E+07 2.72610E+08
 -1       598 3.15414E+09-7.32244E+07 2.07989E+08-3.48574E+05 1.70573E+07-1.97096E+08
 -1       599 3.08548E+09-6.55995E+07 1.93023E+08-7.20123E+05 1.67204E+07-6.36629E+08
 -1       600 2.95518E+09-5.62039E+07 1.73405E+08-1.06063E+06 1.60522E+07-1.03541E+09
 -1       601 2.76984E+09-4.51112E+07 1.49430E+08-1.36180E+06 1.50887E+07-1.38338E+09
 -1       602 2.53743E+09-3.24283E+07 1.21487E+08-1.61599E+06 1.38735E+07-1.67117E+09
 -1       603 2.26724E+09-1.82891E+07 9.00485E+07-1.81647E+06 1.24574E+07-1.89035E+09
 -1       604 1.96972E+09-2.83359E+06 5.56436E+07-1.95772E+06 1.08973E+07-2.03350E+09
 -1       605 1.65639E+09 1.38270E+07 1.88055E+07-2.03531E+06 9.25620E+06-2.09436E+09
 -1       606 1.33970E+09 3.15947E+07-1.99917E+07-2.04441E+06 7.60170E+06-2.06782E+09
 -1       607 1.03260E+09 5.02438E+07-6.00861E+07-1.97455E+06 6.00528E+06-1.95013E+09
 -1       608 7.47964E+08 6.88873E+07-9.98679E+07-1.80828E+06 4.52828E+06-1.73974E+09
 -1       609 4.96155E+08 8.47057E+07-1.37672E+08-1.56231E+06 3.21867E+06-1.43849E+09
 -1       610 2.90804E+08 1.00666E+08-1.66532E+08-1.26738E+06 2.14010E+06-1.05374E+09
 -1       611 1.64135E+08 1.22367E+08-1.90983E+08-1.43338E+06 1.67302E+06-5.79985E+08
 -1       612-2.52636E+09 6.38313E+08-5.56164E+08 6.18786E+06 2.30223E+07 4.32098E+09
 -1       613-2.45614E+09-5.57394E+06-5.66754E+07-8.33347E+06 1.22609E+07 4.72665E+09
 -1       614-1.90184E+09-3.43670E+05 4.96507E+07-3.95374E+06 1.03280E+07 4.77550E+09
 -1       615-1.21862E+09-7.56891E+07 6.57895E+07-4.04127E+06 6.82046E+06 4.63268E+09
 -1       616-5.32482E+08-6.46489E+07 9.49299E+07-3.29456E+06 3.29234E+06 4.42506E+09
 -1       617 9.41617E+07-6.59294E+07 1.13532E+08-3.13167E+06-1.65976E+05 4.16855E+09
 -1       618 6.74238E+08-6.89106E+07 1.36340E+08-2.93391E+06-3.34053E+06 3.86746E+09
 -1       619 1.20424E+09-7.39837E+07 1.59228E+08-2.68540E+06-6.24721E+06 3.51980E+09
 -1       620 1.68055E+09-7.87373E+07 1.79725E+08-2.37991E+06-8.86022E+06 3.12802E+09
 -1       621 2.09771E+09-8.24654E+07 1.96801E+08-2.03597E+06-1.11511E+07 2.69792E+09
 -1       622 2.45044E+09-8.48805E+07 2.10031E+08-1.66335E+06-1.30918E+07 2.23713E+09
 -1       623 2.73458E+09-8.58686E+07 2.19059E+08-1.27004E+06-1.46604E+07 1.75434E+09
 -1       624 2.94745E+09-8.52986E+07 2.23561E+08-8.63578E+05-1.58431E+07 1.25911E+09
 -1       625 3.08784E+09-8.30516E+07 2.23291E+08-4.52349E+05-1.66337E+07 7.61639E+08
 -1       626 3.15609E+09-7.90412E+07 2.18108E+08-4.52610E+04-1.70348E+07 2.72610E+08
 -1       627 3.15414E+09-7.32244E+07 2.07989E+08 3.48574E+05-1.70573E+07-1.97096E+08
 -1       628 3.08548E+09-6.55995E+07 1.93023E+08 7.20123E+05-1.67204E+07-6.36629E+08
 -1       629 2.95518E+09-5.62039E+07 1.73405E+08 1.06063E+06-1.60522E+07-1.03541E+09
 -1       630 2.76984E+09-4.51112E+07 1.49430E+08 1.36180E+06-1.50887E+07-1.38338E+09
 -1       631 2.53743E+09-3.24283E+07 1.21487E+08 1.61599E+06-1.38735E+07-1.67117E+09
 -1       632 2.26724E+09-1.82891E+07 9.00485E+07 1.81647E+06-1.24574E+07-1.89035E+09
 -1       633 1.96972E+09-2.83359E+06 5.56436E+07 1.95772E+06-1.08973E+07-2.03350E+09
 -1       634 1.65639E+09 1.38270E+07 1.88055E+07 2.03531E+06-9.25620E+06-2.09436E+09
 -1       635 1.33970E+09 3.15947E+07-1.99917E+07 2.04441E+06-7.60170E+06-2.06782E+09
 -1       636 1.03260E+09 5.02438E+07-6.00861E+07 1.97455E+06-6.00528E+06-1.95013E+09
 -1       637 7.47964E+08 6.88873E+07-9.98679E+07 1.80828E+06-4.52828E+06-1.73974E+09
 -1       638 4.96155E+08 8.47057E+07-1.37672E+08 1.56231E+06-3.21867E+06-1.43849E+09
 -1       639 2.90804E+08 1.00666E+08-1.66532E+08 1.26738E+06-2.14010E+06-1.05374E+09
 -1       640 1.64135E+08 1.22367E+08-1.90983E+08 1.43338E+06-1.67302E+06-5.79985E+08
 -1       641 4.86356E-02-8.90964E-02-1.21275E-02-8.46503E-02 2.77225E+07 4.47423E+09
 -1       642 1.71728E-01-4.69261E-03 6.62074E-02-6.84024E-02 1.32716E+07 5.01510E+09
 -1       643 2.65769E-01-8.57122E-04 9.50856E-02-3.17922E-02 9.84917E+06 5.10432E+09
 -1       644 3.11381E-01 1.27979E-02 7.86121E-02-2.26791E-02 4.79168E+06 4.95236E+09
 -1       645 3.14518E-01 3.26925E-02 6.27215E-02-1.82719E-02 1.18157E+06 4.72241E+09
 -1       646 3.20435E-01 4.88618E-02 9.34784E-02-2.98324E-02-2.27441E+06 4.44625E+09
 -1       647 3.44796E-01 7.40088E-02 1.17784E-01-3.81155E-02-5.53515E+06 4.12398E+09
 -1       648 3.84257E-01 7.85488E-02 1.05847E-01-2.09789E-03-8.56698E+06 3.75311E+09
 -1       649 3.85182E-01 6.81391E-02 4.41377E-02 2.14861E-02-1.12947E+07 3.33544E+09
 -1       650 3.45004E-01 5.19748E-02 4.06019E-02 1.57409E-02-1.36714E+07 2.87685E+09
 -1       651 2.74495E-01 4.80990E-02 3.60660E-02 2.12712E-02-1.56614E+07 2.38546E+09
 -1       652 2.08036E-01 3.63318E-02 5.42647E-02 2.28701E-02-1.72389E+07 1.87059E+09
 -1       653 1.90456E-01 3.45621E-02 5.80395E-02-9.22136E-03-1.83853E+07 1.34245E+09
 -1       654 2.01417E-01 3.00286E-02 3.39450E-02-9.55255E-03-1.90910E+07 8.11926E+08
 -1       655 1.71747E-01 1.47873E-02 2.63647E-02 3.71727E-02-1.93555E+07 2.90394E+08
 -1       656 8.99763E-02-1.56726E-02-1.61297E-02 5.17353E-02-1.91881E+07-2.10536E+08
 -1       657 1.40515E-02-5.06327E-02-6.12212E-02 4.73154E-02-1.86079E+07-6.79292E+08
 -1       658-4.94860E-02-8.24413E-02-1.01348E-01 3.19248E-02-1.76436E+07-1.10460E+09
 -1       659-7.57713E-02-9.18554E-02-1.37329E-01-1.43589E-03-1.63331E+07-1.47571E+09
 -1       660-4.87345E-02-9.88130E-02-1.72202E-01-1.68154E-02-1.47229E+07-1.78266E+09
 -1       661-5.38491E-03-8.32115E-02-1.66370E-01-4.25688E-03-1.28672E+07-2.01644E+09
 -1       662-1.18789E-02-7.52646E-02-1.62192E-01 1.75210E-02-1.08269E+07-2.16915E+09
 -1       663-3.28526E-02-8.31084E-02-1.42796E-01-2.60845E-03-8.66828E+06-2.23408E+09
 -1       664-2.80894E-02-5.37728E-02-9.10656E-02-3.17851E-02-6.46164E+06-2.20573E+09
 -1       665-2.53233E-02-2.73664E-02-2.29039E-02-2.31573E-02-4.28349E+06-2.08015E+09
 -1       666-3.95726E-02-9.83243E-03 3.25664E-02-1.23489E-02-2.22667E+06-1.85581E+09
 -1       667-3.60917E-02 1.44837E-02 4.34590E-02-1.10339E-02-4.05132E+05-1.53542E+09
 -1       668 3.27887E-03 1.23626E-02 4.17423E-02-1.23635E-02 1.12413E+06-1.12395E+09
 -1       669 4.10966E-02 2.24837E-02 1.80360E-02-1.12263E-02 2.31312E+06-6.13572E+08
 -1       670 2.52636E+09-6.38313E+08 5.56164E+08-6.18786E+06 2.30223E+07 4.32098E+09
 -1       671 2.45614E+09 5.57394E+06 5.66754E+07 8.33347E+06 1.22609E+07 4.72665E+09
 -1       672 1.90184E+09 3.43670E+05-4.96507E+07 3.95374E+06 1.03280E+07 4.77550E+09
 -1       673 1.21862E+09 7.56891E+07-6.57895E+07 4.04127E+06 6.82046E+06 4.63268E+09
 -1       674 5.32482E+08 6.46489E+07-9.49299E+07 3.29456E+06 3.29234E+06 4.42506E+09
 -1       675-9.41617E+07 6.59294E+07-1.13532E+08 3.13167E+06-1.65977E+05 4.16855E+09
 -1       676-6.74238E+08 6.89106E+07-1.36340E+08 2.93391E+06-3.34053E+06 3.86746E+09
 -1       677-1.20424E+09 7.39837E+07-1.59228E+08 2.68540E+06-6.24721E+06 3.51980E+09
 -1       678-1.68055E+09 7.87373E+07-1.79725E+08 2.37991E+06-8.86022E+06 3.12802E+09
 -1       679-2.09771E+09 8.24654E+07-1.96801E+08 2.03597E+06-1.11511E+07 2.69792E+09
 -1       680-2.45044E+09 8.48805E+07-2.10031E+08 1.66335E+06-1.30918E+07 2.23713E+09
 -1       681-2.73458E+09 8.58686E+07-2.19059E+08 1.27004E+06-1.46604E+07 1.75434E+09
 -1       682-2.94745E+09 8.52986E+07-2.23561E+08 8.63578E+05-1.58431E+07 1.25911E+09
 -1       683-3.08784E+09 8.30516E+07-2.23291E+08 4.52349E+05-1.66337E+07 7.61639E+08
 -1       684-3.15609E+09 7.90412E+07-2.18108E+08 4.52611E+04-1.70348E+07 2.72610E+08
 -1       685-3.15414E+09 7.32244E+07-2.07989E+08-3.48574E+05-1.70573E+07-1.97096E+08
 -1       686-3.08548E+09 6.55995E+07-1.93023E+08-7.20123E+05-1.67204E+07-6.36629E+08
 -1       687-2.95518E+09 5.62039E+07-1.73405E+08-1.06063E+06-1.60522E+07-1.03541E+09
 -1       688-2.76984E+09 4.51112E+07-1.49430E+08-1.36180E+06-1.50887E+07-1.38338E+09
 -1       689-2.53743E+09 3.24283E+07-1.21487E+08-1.61599E+06-1.38735E+07-1.67117E+09
 -1       690-2.26724E+09 1.82891E+07-9.00485E+07-1.81647E+06-1.24574E+07-1.89035E+09
 -1       691-1.96972E+09 2.83359E+06-5.56436E+07-1.95772E+06-1.08973E+07-2.03350E+09
 -1       692-1.65639E+09-1.38270E+07-1.88055E+07-2.03531E+06-9.25620E+06-2.09436E+09
 -1       693-1.33970E+09-3.15947E+07 1.99917E+07-2.04441E+06-7.60170E+06-2.06782E+09
 -1       694-1.03260E+09-5.02438E+07 6.00861E+07-1.97455E+06-6.00528E+06-1.95013E+09
 -1       695-7.47964E+08-6.88873E+07 9.98679E+07-1.80828E+06-4.52828E+06-1.73974E+09
 -1       696-4.96155E+08-8.47057E+07 1.37672E+08-1.56231E+06-3.21867E+06-1.43849E+09
 -1       697-2.90804E+08-1.00666E+08 1.66532E+08-1.26738E+06-2.14010E+06-1.05374E+09
 -1       698-1.64135E+08-1.22367E+08 1.90983E+08-1.43338E+06-1.67302E+06-5.79985E+08
 -1       699 6.18037E+09-1.00017E+09-1.01483E+09 6.37483E+08-1.95450E+08-9.48750E+08
 -1       700 5.37372E+09-2.44111E+08 1.14282E+08 3.74750E+08-7.02591E+07-2.90587E+08
 -1       701 3.84391E+09 7.53741E+07 3.22567E+07 4.59294E+08 5.24130E+06-1.80342E+08
 -1       702 2.50309E+09 1.85852E+08 1.05665E+08 5.21132E+08 4.69404E+07-1.71334E+08
 -1       703 1.12012E+09 1.91837E+08 9.35885E+07 5.13128E+08 5.55352E+07-1.70836E+08
 -1       704-2.06466E+08 1.96747E+08 8.25736E+07 4.80152E+08 6.20779E+07-1.71565E+08
 -1       705-1.45276E+09 2.09030E+08 7.34510E+07 4.41864E+08 7.14950E+07-1.61190E+08
 -1       706-2.59686E+09 2.25721E+08 6.78250E+07 4.01111E+08 8.17621E+07-1.46256E+08
 -1       707-3.62498E+09 2.41216E+08 6.31088E+07 3.56854E+08 9.11331E+07-1.29256E+08
 -1       708-4.52465E+09 2.53346E+08 5.84555E+07 3.08664E+08 9.88741E+07-1.10847E+08
 -1       709-5.28503E+09 2.61425E+08 5.35963E+07 2.57116E+08 1.04737E+08-9.11702E+07
 -1       710-5.89751E+09 2.65061E+08 4.84507E+07 2.03205E+08 1.08566E+08-7.04545E+07
 -1       711-6.35633E+09 2.63843E+08 4.29121E+07 1.48038E+08 1.10206E+08-4.90859E+07
 -1       712-6.65889E+09 2.57402E+08 3.68564E+07 9.27625E+07 1.09531E+08-2.75190E+07
 -1       713-6.80590E+09 2.45480E+08 3.01667E+07 3.85565E+07 1.06462E+08-6.22913E+06
 -1       714-6.80150E+09 2.27951E+08 2.27443E+07-1.33772E+07 1.00980E+08 1.43063E+07
 -1       715-6.65325E+09 2.04820E+08 1.45079E+07-6.18364E+07 9.31190E+07 3.36156E+07
 -1       716-6.37208E+09 1.76210E+08 5.39105E+06-1.05647E+08 8.29654E+07 5.12414E+07
 -1       717-5.97219E+09 1.42359E+08-4.66056E+06-1.43689E+08 7.06555E+07 6.67482E+07
 -1       718-5.47080E+09 1.03606E+08-1.56905E+07-1.74922E+08 5.63712E+07 7.97292E+07
 -1       719-4.88795E+09 6.03771E+07-2.77387E+07-1.98396E+08 4.03338E+07 8.98124E+07
 -1       720-4.24621E+09 1.31294E+07-4.08626E+07-2.13247E+08 2.27860E+07 9.66839E+07
 -1       721-3.57024E+09-3.77530E+07-5.51749E+07-2.18694E+08 3.95423E+06 1.00151E+08
 -1       722-2.88639E+09-9.19671E+07-7.07978E+07-2.14164E+08-1.59496E+07 1.00199E+08
 -1       723-2.22188E+09-1.48729E+08-8.76546E+07-1.99718E+08-3.66181E+07 9.68954E+07
 -1       724-1.60393E+09-2.05006E+08-1.04274E+08-1.76667E+08-5.68932E+07 8.88071E+07
 -1       725-1.06123E+09-2.55939E+08-1.20100E+08-1.46235E+08-7.48525E+07 7.39492E+07
 -1       726-6.26391E+08-2.91131E+08-1.30887E+08-1.01324E+08-8.97299E+07 4.58435E+07
 -1       727-3.57214E+08-3.68890E+08-1.78907E+08-2.30423E+07-1.12475E+08-4.92903E+06
 -1       728 4.75431E+09-7.54346E+08-1.36890E+09 5.15247E+08-1.98299E+08-9.85736E+08
 -1       729 5.22885E+09 2.49855E+08 2.19009E+08 7.72666E+08-6.94352E+07-2.53582E+08
 -1       730 3.63051E+09-6.69465E+07-7.44596E+07 7.19094E+08 6.18144E+06-1.61556E+08
 -1       731 2.29469E+09-1.32566E+08-5.23811E+07 6.36019E+08 4.46646E+07-1.49434E+08
 -1       732 9.99017E+08-1.29467E+08-3.91332E+07 5.95262E+08 5.30281E+07-1.50417E+08
 -1       733-2.19493E+08-1.20686E+08-1.65643E+07 5.65173E+08 5.93055E+07-1.52183E+08
 -1       734-1.35714E+09-1.19728E+08 3.51236E+06 5.28089E+08 6.82658E+07-1.43181E+08
 -1       735-2.40419E+09-1.23066E+08 2.09903E+07 4.81565E+08 7.80353E+07-1.29856E+08
 -1       736-3.34685E+09-1.26549E+08 3.62177E+07 4.27581E+08 8.69527E+07-1.14699E+08
 -1       737-4.17207E+09-1.28672E+08 4.96245E+07 3.68013E+08 9.43182E+07-9.83215E+07
 -1       738-4.86925E+09-1.29091E+08 6.11759E+07 3.04159E+08 9.98948E+07-8.08284E+07
 -1       739-5.43040E+09-1.27649E+08 7.07704E+07 2.37185E+08 1.03532E+08-6.24067E+07
 -1       740-5.85027E+09-1.24145E+08 7.83336E+07 1.68371E+08 1.05084E+08-4.33971E+07
 -1       741-6.12647E+09-1.18368E+08 8.38514E+07 9.91271E+07 1.04429E+08-2.42053E+07
 -1       742-6.25962E+09-1.10154E+08 8.73593E+07 3.09446E+07 1.01492E+08-5.25533E+06
 -1       743-6.25351E+09-9.94005E+07 8.89369E+07-3.46544E+07 9.62544E+07 1.30275E+07
 -1       744-6.11504E+09-8.60636E+07 8.87070E+07-9.61566E+07 8.87483E+07 3.02235E+07
 -1       745-5.85424E+09-7.01547E+07 8.68354E+07-1.52090E+08 7.90564E+07 4.59256E+07
 -1       746-5.48413E+09-5.17342E+07 8.35293E+07-2.01051E+08 6.73082E+07 5.97465E+07
 -1       747-5.02053E+09-3.09095E+07 7.90357E+07-2.41741E+08 5.36770E+07 7.13238E+07
 -1       748-4.48182E+09-7.82362E+06 7.36415E+07-2.72990E+08 3.83733E+07 8.03256E+07
 -1       749-3.88865E+09 1.73829E+07 6.76812E+07-2.93809E+08 2.16287E+07 8.64727E+07
 -1       750-3.26360E+09 4.46417E+07 6.15366E+07-3.03411E+08 3.65818E+06 8.96008E+07
 -1       751-2.63097E+09 7.39879E+07 5.56147E+07-3.01119E+08-1.53344E+07 8.97182E+07
 -1       752-2.01679E+09 1.05018E+08 4.99973E+07-2.85972E+08-3.50602E+07 8.69180E+07
 -1       753-1.44733E+09 1.36101E+08 4.50372E+07-2.56295E+08-5.43870E+07 7.97598E+07
 -1       754-9.49704E+08 1.60135E+08 3.81797E+07-2.11173E+08-7.16310E+07 6.63153E+07
 -1       755-5.39283E+08 1.83864E+08 3.77436E+07-1.60279E+08-8.57223E+07 3.97131E+07
 -1       756-1.84039E+08 2.65775E+08 6.34449E+07-1.27472E+08-1.07284E+08-8.85970E+06
 -1       757-4.75431E+09 7.54346E+08 1.36890E+09-5.15247E+08-1.98299E+08-9.85736E+08
 -1       758-5.22885E+09-2.49855E+08-2.19009E+08-7.72666E+08-6.94352E+07-2.53582E+08
 -1       759-3.63051E+09 6.69465E+07 7.44596E+07-7.19094E+08 6.18144E+06-1.61556E+08
 -1       760-2.29469E+09 1.32566E+08 5.23811E+07-6.36019E+08 4.46646E+07-1.49434E+08
 -1       761-9.99017E+08 1.29467E+08 3.91332E+07-5.95262E+08 5.30281E+07-1.50417E+08
 -1       762 2.19493E+08 1.20686E+08 1.65643E+07-5.65173E+08 5.93055E+07-1.52183E+08
 -1       763 1.35714E+09 1.19728E+08-3.51236E+06-5.28089E+08 6.82658E+07-1.43181E+08
 -1       764 2.40419E+09 1.23066E+08-2.09903E+07-4.81565E+08 7.80353E+07-1.29856E+08
 -1       765 3.34685E+09 1.26549E+08-3.62177E+07-4.27581E+08 8.69527E+07-1.14699E+08
 -1       766 4.17207E+09 1.28672E+08-4.96245E+07-3.68013E+08 9.43182E+07-9.83215E+07
 -1       767 4.86925E+09 1.29091E+08-6.11759E+07-3.04159E+08 9.98948E+07-8.08284E+07
 -1       768 5.43040E+09 1.27649E+08-7.07704E+07-2.37185E+08 1.03532E+08-6.24067E+07
 -1       769 5.85027E+09 1.24145E+08-7.83336E+07-1.68371E+08 1.05084E+08-4.33971E+07
 -1       770 6.12647E+09 1.18368E+08-8.38514E+07-9.91271E+07 1.04429E+08-2.42053E+07
 -1       771 6.25962E+09 1.10154E+08-8.73593E+07-3.09446E+07 1.01492E+08-5.25533E+06
 -1       772 6.25351E+09 9.94005E+07-8.89369E+07 3.46544E+07 9.62544E+07 1.30275E+07
 -1       773 6.11504E+09 8.60636E+07-8.87070E+07 9.61566E+07 8.87483E+07 3.02235E+07
 -1       774 5.85424E+09 7.01547E+07-8.68354E+07 1.52090E+08 7.90564E+07 4.59256E+07
 -1       775 5.48413E+09 5.17342E+07-8.35293E+07 2.01051E+08 6.73082E+07 5.97465E+07
 -1       776 5.02053E+09 3.09095E+07-7.90357E+07 2.41741E+08 5.36770E+07 7.13238E+07
 -1       777 4.48182E+09 7.82362E+06-7.36415E+07 2.72990E+08 3.83733E+07 8.03256E+07
 -1       778 3.88865E+09-1.73829E+07-6.76812E+07 2.93809E+08 2.16287E+07 8.64727E+07
 -1       779 3.26360E+09-4.46417E+07-6.15366E+07 3.03411E+08 3.65818E+06 8.96008E+07
 -1       780 2.63097E+09-7.39879E+07-5.56147E+07 3.01119E+08-1.53344E+07 8.97182E+07
 -1       781 2.01679E+09-1.05018E+08-4.99973E+07 2.85972E+08-3.50602E+07 8.69180E+07
 -1       782 1.44733E+09-1.36101E+08-4.50372E+07 2.56295E+08-5.43870E+07 7.97598E+07
 -1       783 9.49704E+08-1.60135E+08-3.81797E+07 2.11173E+08-7.16310E+07 6.63153E+07
 -1       784 5.39283E+08-1.83864E+08-3.77436E+07 1.60279E+08-8.57223E+07 3.97131E+07
 -1       785 1.84039E+08-2.65775E+08-6.34449E+07 1.27472E+08-1.07284E+08-8.85970E+06
 -1       786-6.18037E+09 1.00017E+09 1.01483E+09-6.37483E+08-1.95450E+08-9.48750E+08
 -1       787-5.37372E+09 2.44111E+08-1.14282E+08-3.74750E+08-7.02591E+07-2.90587E+08
 -1       788-3.84391E+09-7.53741E+07-3.22567E+07-4.59294E+08 5.24130E+06-1.80342E+08
 -1       789-2.50309E+09-1.85852E+08-1.05665E+08-5.21132E+08 4.69404E+07-1.71334E+08
 -1       790-1.12012E+09-1.91837E+08-9.35885E+07-5.13128E+08 5.55352E+07-1.70836E+08
 -1       791 2.06466E+08-1.96747E+08-8.25736E+07-4.80152E+08 6.20779E+07-1.71565E+08
 -1       792 1.45276E+09-2.09030E+08-7.34510E+07-4.41864E+08 7.14950E+07-1.61190E+08
 -1       793 2.59686E+09-2.25721E+08-6.78250E+07-4.01111E+08 8.17621E+07-1.46256E+08
 -1       794 3.62498E+09-2.41216E+08-6.31088E+07-3.56854E+08 9.11331E+07-1.29256E+08
 -1       795 4.52465E+09-2.53346E+08-5.84555E+07-3.08664E+08 9.88741E+07-1.10847E+08
 -1       796 5.28503E+09-2.61425E+08-5.35963E+07-2.57116E+08 1.04737E+08-9.11702E+07
 -1       797 5.89751E+09-2.65061E+08-4.84507E+07-2.03205E+08 1.08566E+08-7.04545E+07
 -1       798 6.35633E+09-2.63843E+08-4.29121E+07-1.48038E+08 1.10206E+08-4.90859E+07
 -1       799 6.65889E+09-2.57402E+08-3.68564E+07-9.27625E+07 1.09531E+08-2.75190E+07
 -1       800 6.80590E+09-2.45480E+08-3.01667E+07-3.85565E+07 1.06462E+08-6.22913E+06
 -1       801 6.80150E+09-2.27951E+08-2.27443E+07 1.33772E+07 1.00980E+08 1.43063E+07
 -1       802 6.65325E+09-2.04820E+08-1.45079E+07 6.18364E+07 9.31190E+07 3.36156E+07
 -1       803 6.37208E+09-1.76210E+08-5.39105E+06 1.05647E+08 8.29654E+07 5.12414E+07
 -1       804 5.97219E+09-1.42359E+08 4.66056E+06 1.43689E+08 7.06555E+07 6.67482E+07
 -1       805 5.47080E+09-1.03606E+08 1.56905E+07 1.74922E+08 5.63712E+07 7.97292E+07
 -1       806 4.88795E+09-6.03771E+07 2.77387E+07 1.98396E+08 4.03338E+07 8.98124E+07
 -1       807 4.24621E+09-1.31294E+07 4.08626E+07 2.13247E+08 2.27860E+07 9.66839E+07
 -1       808 3.57024E+09 3.77530E+07 5.51749E+07 2.18694E+08 3.95423E+06 1.00151E+08
 -1       809 2.88639E+09 9.19671E+07 7.07978E+07 2.14164E+08-1.59496E+07 1.00199E+08
 -1       810 2.22188E+09 1.48729E+08 8.76546E+07 1.99718E+08-3.66181E+07 9.68954E+07
 -1       811 1.60393E+09 2.05006E+08 1.04274E+08 1.76667E+08-5.68932E+07 8.88071E+07
 -1       812 1.06123E+09 2.55939E+08 1.20100E+08 1.46235E+08-7.48525E+07 7.39492E+07
 -1       813 6.26391E+08 2.91131E+08 1.30887E+08 1.01324E+08-8.97299E+07 4.58435E+07
 -1       814 3.57214E+08 3.68890E+08 1.78907E+08 2.30423E+07-1.12475E+08-4.92903E+06
 -1       815 6.18037E+09-1.00017E+09-1.01483E+09-6.37483E+08 1.95450E+08-9.48750E+08
 -1       816 5.37372E+09-2.44111E+08 1.14282E+08-3.74750E+08 7.02591E+07-2.90587E+08
 -1       817 3.84391E+09 7.53741E+07 3.22567E+07-4.59294E+08-5.24130E+06-1.80342E+08
 -1       818 2.50309E+09 1.85852E+08 1.05665E+08-5.21132E+08-4.69404E+07-1.71334E+08
 -1       819 1.12012E+09 1.91837E+08 9.35885E+07-5.13128E+08-5.55352E+07-1.70836E+08
 -1       820-2.06466E+08 1.96747E+08 8.25736E+07-4.80152E+08-6.20779E+07-1.71565E+08
 -1       821-1.45276E+09 2.09030E+08 7.34510E+07-4.41864E+08-7.14950E+07-1.61190E+08
 -1       822-2.59686E+09 2.25721E+08 6.78250E+07-4.01111E+08-8.17621E+07-1.46256E+08
 -1       823-3.62498E+09 2.41216E+08 6.31088E+07-3.56854E+08-9.11331E+07-1.29256E+08
 -1       824-4.52465E+09 2.53346E+08 5.84555E+07-3.08664E+08-9.88741E+07-1.10847E+08
 -1       825-5.28503E+09 2.61425E+08 5.35963E+07-2.57116E+08-1.04737E+08-9.11702E+07
 -1       826-5.89751E+09 2.65061E+08 4.84507E+07-2.03205E+08-1.08566E+08-7.04545E+07
 -1       827-6.35633E+09 2.63843E+08 4.29121E+07-1.48038E+08-1.10206E+08-4.90859E+07
 -1       828-6.65889E+09 2.57402E+08 3.68564E+07-9.27625E+07-1.09531E+08-2.75190E+07
 -1       829-6.80590E+09 2.45480E+08 3.01667E+07-3.85565E+07-1.06462E+08-6.22913E+06
 -1       830-6.80150E+09 2.27951E+08 2.27443E+07 1.33772E+07-1.00980E+08 1.43063E+07
 -1       831-6.65325E+09 2.04820E+08 1.45079E+07 6.18364E+07-9.31190E+07 3.36156E+07
 -1       832-6.37208E+09 1.76210E+08 5.39105E+06 1.05647E+08-8.29654E+07 5.12414E+07
 -1       833-5.97219E+09 1.42359E+08-4.66056E+06 1.43689E+08-7.06555E+07 6.67482E+07
 -1       834-5.47080E+09 1.03606E+08-1.56905E+07 1.74922E+08-5.63712E+07 7.97292E+07
 -1       835-4.88795E+09 6.03771E+07-2.77387E+07 1.98396E+08-4.03338E+07 8.98124E+07
 -1       836-4.24621E+09 1.31294E+07-4.08626E+07 2.13247E+08-2.27860E+07 9.66839E+07
 -1       837-3.57024E+09-3.77530E+07-5.51749E+07 2.18694E+08-3.95423E+06 1.00151E+08
 -1       838-2.88639E+09-9.19671E+07-7.07978E+07 2.14164E+08 1.59496E+07 1.00199E+08
 -1       839-2.22188E+09-1.48729E+08-8.76546E+07 1.99718E+08 3.66181E+07 9.68954E+07
 -1       840-1.60393E+09-2.05006E+08-1.04274E+08 1.76667E+08 5.68932E+07 8.88071E+07
 -1       841-1.06123E+09-2.55939E+08-1.20100E+08 1.46235E+08 7.48525E+07 7.39492E+07
 -1       842-6.26391E+08-2.91131E+08-1.30887E+08 1.01324E+08 8.97299E+07 4.58435E+07
 -1       843-3.57214E+08-3.68890E+08-1.78907E+08 2.30423E+07 1.12475E+08-4.92903E+06
 -1       844 4.75431E+09-7.54346E+08-1.36890E+09-5.15247E+08 1.98299E+08-9.85736E+08
 -1       845 5.22885E+09 2.49855E+08 2.19009E+08-7.72666E+08 6.94352E+07-2.53582E+08
 -1       846 3.63051E+09-6.69465E+07-7.44596E+07-7.19094E+08-6.18144E+06-1.61556E+08
 -1       847 2.29469E+09-1.32566E+08-5.23811E+07-6.36019E+08-4.46646E+07-1.49434E+08
 -1       848 9.99017E+08-1.29467E+08-3.91332E+07-5.95262E+08-5.30281E+07-1.50417E+08
 -1       849-2.19493E+08-1.20686E+08-1.65643E+07-5.65173E+08-5.93055E+07-1.52183E+08
 -1       850-1.35714E+09-1.19728E+08 3.51236E+06-5.28089E+08-6.82658E+07-1.43181E+08
 -1       851-2.40419E+09-1.23066E+08 2.09903E+07-4.81565E+08-7.80353E+07-1.29856E+08
 -1       852-3.34685E+09-1.26549E+08 3.62177E+07-4.27581E+08-8.69527E+07-1.14699E+08
 -1       853-4.17207E+09-1.28672E+08 4.96245E+07-3.68013E+08-9.43182E+07-9.83215E+07
 -1       854-4.86925E+09-1.29091E+08 6.11759E+07-3.04159E+08-9.98948E+07-8.08284E+07
 -1       855-5.43040E+09-1.27649E+08 7.07704E+07-2.37185E+08-1.03532E+08-6.24067E+07
 -1       856-5.85027E+09-1.24145E+08 7.83336E+07-1.68371E+08-1.05084E+08-4.33971E+07
 -1       857-6.12647E+09-1.18368E+08 8.38514E+07-9.91271E+07-1.04429E+08-2.42053E+07
 -1       858-6.25962E+09-1.10154E+08 8.73593E+07-3.09446E+07-1.01492E+08-5.25533E+06
 -1       859-6.25351E+09-9.94005E+07 8.89369E+07 3.46544E+07-9.62544E+07 1.30275E+07
 -1       860-6.11504E+09-8.60636E+07 8.87070E+07 9.61566E+07-8.87483E+07 3.02235E+07
 -1       861-5.85424E+09-7.01547E+07 8.68354E+07 1.52090E+08-7.90564E+07 4.59256E+07
 -1       862-5.48413E+09-5.17342E+07 8.35293E+07 2.01051E+08-6.73082E+07 5.97465E+07
 -1       863-5.02053E+09-3.09095E+07 7.90357E+07 2.41741E+08-5.36770E+07 7.13238E+07
 -1       864-4.48182E+09-7.82362E+06 7.36415E+07 2.72990E+08-3.83733E+07 8.03256E+07
 -1       865-3.88865E+09 1.73829E+07 6.76812E+07 2.93809E+08-2.16287E+07 8.64727E+07
 -1       866-3.26360E+09 4.46417E+07 6.15366E+07 3.03411E+08-3.65818E+06 8.96008E+07
 -1       867-2.63097E+09 7.39879E+07 5.56147E+07 3.01119E+08 1.53344E+07 8.97182E+07
 -1       868-2.01679E+09 1.05018E+08 4.99973E+07 2.85972E+08 3.50602E+07 8.69180E+07
 -1       869-1.44733E+09 1.36101E+08 4.50372E+07 2.56295E+08 5.43870E+07 7.97598E+07
 -1       870-9.49704E+08 1.60135E+08 3.81797E+07 2.11173E+08 7.16310E+07 6.63153E+07
 -1       871-5.39283E+08 1.83864E+08 3.77436E+07 1.60279E+08 8.57223E+07 3.97131E+07
 -1       872-1.84039E+08 2.65775E+08 6.34449E+07 1.27472E+08 1.07284E+08-8.85970E+06
 -1       873 3.57214E+08 3.68890E+08 1.78907E+08-2.30423E+07 1.12475E+08-4.92903E+06
 -1       874 6.26391E+08 2.91131E+08 1.30887E+08-1.01324E+08 8.97299E+07 4.58435E+07
 -1       875 1.06123E+09 2.55939E+08 1.20100E+08-1.46235E+08 7.48525E+07 7.39492E+07
 -1       876 1.60393E+09 2.05006E+08 1.04274E+08-1.76667E+08 5.68932E+07 8.88071E+07
 -1       877 2.22188E+09 1.48729E+08 8.76546E+07-1.99718E+08 3.66181E+07 9.68954E+07
 -1       878 2.88639E+09 9.19671E+07 7.07978E+07-2.14164E+08 1.59496E+07 1.00199E+08
 -1       879 3.57024E+09 3.77530E+07 5.51749E+07-2.18694E+08-3.95423E+06 1.00151E+08
 -1       880 4.24621E+09-1.31294E+07 4.08626E+07-2.13247E+08-2.27860E+07 9.66839E+07
 -1       881 4.88795E+09-6.03771E+07 2.77387E+07-1.98396E+08-4.03338E+07 8.98124E+07
 -1       882 5.47080E+09-1.03606E+08 1.56905E+07-1.74922E+08-5.63712E+07 7.97292E+07
 -1       883 5.97219E+09-1.42359E+08 4.66056E+06-1.43689E+08-7.06555E+07 6.67482E+07
 -1       884 6.37208E+09-1.76210E+08-5.39105E+06-1.05647E+08-8.29654E+07 5.12414E+07
 -1       885 6.65325E+09-2.04820E+08-1.45079E+07-6.18364E+07-9.31190E+07 3.36156E+07
 -1       886 6.80150E+09-2.27951E+08-2.27443E+07-1.33772E+07-1.00980E+08 1.43063E+07
 -1       887 6.80590E+09-2.45480E+08-3.01667E+07 3.85565E+07-1.06462E+08-6.22913E+06
 -1       888 6.65889E+09-2.57402E+08-3.68564E+07 9.27625E+07-1.09531E+08-2.75190E+07
 -1       889 6.35633E+09-2.63843E+08-4.29121E+07 1.48038E+08-1.10206E+08-4.90859E+07
 -1       890 5.89751E+09-2.65061E+08-4.84507E+07 2.03205E+08-1.08566E+08-7.04545E+07
 -1       891 5.28503E+09-2.61425E+08-5.35963E+07 2.57116E+08-1.04737E+08-9.11702E+07
 -1       892 4.52465E+09-2.53346E+08-5.84555E+07 3.08664E+08-9.88741E+07-1.10847E+08
 -1       893 3.62498E+09-2.41216E+08-6.31088E+07 3.56854E+08-9.11331E+07-1.29256E+08
 -1       894 2.59686E+09-2.25721E+08-6.78250E+07 4.01111E+08-8.17621E+07-1.46256E+08
 -1       895 1.45276E+09-2.09030E+08-7.34510E+07 4.41864E+08-7.14950E+07-1.61190E+08
 -1       896 2.06466E+08-1.96747E+08-8.25736E+07 4.80152E+08-6.20779E+07-1.71565E+08
 -1       897-1.12012E+09-1.91837E+08-9.35885E+07 5.13128E+08-5.55352E+07-1.70836E+08
 -1       898-2.50309E+09-1.85852E+08-1.05665E+08 5.21132E+08-4.69404E+07-1.71334E+08
 -1       899-3.84391E+09-7.53741E+07-3.22567E+07 4.59294E+08-5.24130E+06-1.80342E+08
 -1       900-5.37372E+09 2.44111E+08-1.14282E+08 3.74750E+08 7.02591E+07-2.90587E+08
 -1       901-6.18037E+09 1.00017E+09 1.01483E+09 6.37483E+08 1.95450E+08-9.48750E+08
 -1       902-4.75431E+09 7.54346E+08 1.36890E+09 5.15247E+08 1.98299E+08-9.85736E+08
 -1       903-5.22885E+09-2.49855E+08-2.19009E+08 7.72666E+08 6.94352E+07-2.53582E+08
 -1       904-3.63051E+09 6.69465E+07 7.44596E+07 7.19094E+08-6.18144E+06-1.61556E+08
 -1       905-2.29469E+09 1.32566E+08 5.23811E+07 6.36019E+08-4.46646E+07-1.49434E+08
 -1       906-9.99017E+08 1.29467E+08 3.91332E+07 5.95262E+08-5.30281E+07-1.50417E+08
 -1       907 2.19493E+08 1.20686E+08 1.65643E+07 5.65173E+08-5.93055E+07-1.52183E+08
 -1       908 1.35714E+09 1.19728E+08-3.51236E+06 5.28089E+08-6.82658E+07-1.43181E+08
 -1       909 2.40419E+09 1.23066E+08-2.09903E+07 4.81565E+08-7.80353E+07-1.29856E+08
 -1       910 3.34685E+09 1.26549E+08-3.62177E+07 4.27581E+08-8.69527E+07-1.14699E+08
 -1       911 4.17207E+09 1.28672E+08-4.96245E+07 3.68013E+08-9.43182E+07-9.83215E+07
 -1       912 4.86925E+09 1.29091E+08-6.11759E+07 3.04159E+08-9.98948E+07-8.08284E+07
 -1       913 5.43040E+09 1.27649E+08-7.07704E+07 2.37185E+08-1.03532E+08-6.24067E+07
 -1       914 5.85027E+09 1.24145E+08-7.83336E+07 1.68371E+08-1.05084E+08-4.33971E+07
 -1       915 6.12647E+09 1.18368E+08-8.38514E+07 9.91271E+07-1.04429E+08-2.42053E+07
 -1       916 6.25962E+09 1.10154E+08-8.73593E+07 3.09446E+07-1.01492E+08-5.25533E+06
 -1       917 6.25351E+09 9.94005E+07-8.89369E+07-3.46544E+07-9.62544E+07 1.30275E+07
 -1       918 6.11504E+09 8.60636E+07-8.87070E+07-9.61566E+07-8.87483E+07 3.02235E+07
 -1       919 5.85424E+09 7.01547E+07-8.68354E+07-1.52090E+08-7.90564E+07 4.59256E+07
 -1       920 5.48413E+09 5.17342E+07-8.35293E+07-2.01051E+08-6.73082E+07 5.97465E+07
 -1       921 5.02053E+09 3.09095E+07-7.90357E+07-2.41741E+08-5.36770E+07 7.13238E+07
 -1       922 4.48182E+09 7.82362E+06-7.36415E+07-2.72990E+08-3.83733E+07 8.03256E+07
 -1       923 3.88865E+09-1.73829E+07-6.76812E+07-2.93809E+08-2.16287E+07 8.64727E+07
 -1       924 3.26360E+09-4.46417E+07-6.15366E+07-3.03411E+08-3.65818E+06 8.96008E+07
 -1       925 2.63097E+09-7.39879E+07-5.56147E+07-3.01119E+08 1.53344E+07 8.97182E+07
 -1       926 2.01679E+09-1.05018E+08-4.99973E+07-2.85972E+08 3.50602E+07 8.69180E+07
 -1       927 1.44733E+09-1.36101E+08-4.50372E+07-2.56295E+08 5.43870E+07 7.97598E+07
 -1       928 9.49704E+08-1.60135E+08-3.81797E+07-2.11173E+08 7.16310E+07 6.63153E+07
 -1       929 5.39283E+08-1.83864E+08-3.77436E+07-1.60279E+08 8.57223E+07 3.97131E+07
 -1       930 1.84039E+08-2.65775E+08-6.34449E+07-1.27472E+08 1.07284E+08-8.85970E+06
 -3
    1PSTEP                        27           1           1          
    1PGM                1.000000E+00                                  
    1PGK                2.621869E+06                                  
    1PHID                         -1                                  
    1PSUBC                         0                                  
    1PMODE                         7                                  
  100CL  107 257.7066322         930                     2    7MODAL      1
 -4  FORC        4    1
 -5  F1          1    2    1    0
 -5  F2          1    2    2    0
 -5  F3          1    2    3    0
 -5  ALL         1    2    0    0    1ALL
 -1         1-9.60508E+04-3.81334E+06 1.64812E+06
 -1         2-9.60508E+04 3.81334E+06 1.64812E+06
 -1         3-1.15904E+04 4.12325E-01-4.63786E+04
 -1         4-1.15904E+04-4.12309E-01-4.63786E+04
 -1         5 9.60508E+04 3.81334E+06 1.64812E+06
 -1         6 9.60508E+04-3.81334E+06 1.64812E+06
 -1         7 1.15904E+04-4.12302E-01-4.63786E+04
 -1         8 1.15904E+04 4.12319E-01-4.63786E+04
 -1         9-4.26207E+06-1.50582E+05-3.21841E+06
 -1        10-6.12177E+03 6.41078E+00-2.15493E+04
 -1        11-2.74671E+06-8.65312E+05-2.24276E+06
 -1        12 3.42714E+05-7.45417E+05 2.14508E+06
 -1        13-5.08990E+03 1.11707E+01-1.81017E+04
 -1        14-4.96652E+03-3.18881E+00-1.81016E+04
 -1        15 4.26207E+06 1.50582E+05-3.21841E+06
 -1        16 6.12177E+03-6.41077E+00-2.15493E+04
 -1        17-3.42714E+05 7.45417E+05 2.14508E+06
 -1        18 2.74671E+06 8.65312E+05-2.24276E+06
 -1        19 4.96652E+03 3.18882E+00-1.81016E+04
 -1        20 5.08990E+03-1.11707E+01-1.81017E+04
 -1        21 3.42714E+05 7.45417E+05 2.14508E+06
 -1        22-2.74671E+06 8.65312E+05-2.24276E+06
 -1        23-5.08990E+03-1.11707E+01-1.81017E+04
 -1        24-4.96652E+03 3.18882E+00-1.81016E+04
 -1        25-4.26207E+06 1.50582E+05-3.21841E+06
 -1        26-6.12177E+03-6.41078E+00-2.15493E+04
 -1        27 4.26207E+06-1.50582E+05-3.21841E+06
 -1        28 2.74671E+06-8.65312E+05-2.24276E+06
 -1        29-3.42714E+05-7.45417E+05 2.14508E+06
 -1        30 6.12177E+03 6.41078E+00-2.15493E+04
 -1        31 5.08990E+03 1.11707E+01-1.81017E+04
 -1        32 4.96652E+03-3.18881E+00-1.81016E+04
 -1        33 2.02898E+03-5.35620E+01 4.66750E+03
 -1        34 3.94100E+03-4.83137E+01 1.10099E+04
 -1        35 5.41737E+03-3.27719E+01 1.84005E+04
 -1        36 6.42198E+03-2.03185E+01 2.63571E+04
 -1        37 6.97750E+03-8.55679E+00 3.45758E+04
 -1        38 7.10326E+03 2.75544E+00 4.27678E+04
 -1        39 6.82381E+03 1.33469E+01 5.06529E+04
 -1        40 6.16871E+03 2.30827E+01 5.79590E+04
 -1        41 5.17189E+03 3.18383E+01 6.44318E+04
 -1        42 3.87168E+03 3.94963E+01 6.98434E+04
 -1        43 2.31029E+03 4.59584E+01 7.39964E+04
 -1        44 5.33139E+02 5.11488E+01 7.67266E+04
 -1        45-1.41206E+03 5.50168E+01 7.79060E+04
 -1        46-3.47627E+03 5.75386E+01 7.74437E+04
 -1        47-5.61011E+03 5.87192E+01 7.52879E+04
 -1        48-7.76494E+03 5.85926E+01 7.14252E+04
 -1        49-9.89399E+03 5.72228E+01 6.58806E+04
 -1        50-1.19533E+04 5.47028E+01 5.87159E+04
 -1        51-1.39031E+04 5.11537E+01 5.00268E+04
 -1        52-1.57082E+04 4.67223E+01 3.99404E+04
 -1        53-1.73395E+04 4.15804E+01 2.86108E+04
 -1        54-1.87748E+04 3.59203E+01 1.62147E+04
 -1        55-1.99989E+04 2.99527E+01 2.94611E+03
 -1        56-2.10051E+04 2.39038E+01-1.09891E+04
 -1        57-2.17949E+04 1.80112E+01-2.53791E+04
 -1        58-2.23789E+04 1.25118E+01-4.00123E+04
 -1        59-2.27765E+04 7.65051E+00-5.46852E+04
 -1        60-2.30162E+04 3.86523E+00-6.92129E+04
 -1        61-2.31381E+04 1.32187E+00-8.34491E+04
 -1        62 2.02898E+03 5.35620E+01 4.66750E+03
 -1        63 3.94100E+03 4.83137E+01 1.10099E+04
 -1        64 5.41737E+03 3.27719E+01 1.84005E+04
 -1        65 6.42198E+03 2.03185E+01 2.63571E+04
 -1        66 6.97750E+03 8.55682E+00 3.45758E+04
 -1        67 7.10326E+03-2.75538E+00 4.27678E+04
 -1        68 6.82381E+03-1.33469E+01 5.06529E+04
 -1        69 6.16871E+03-2.30826E+01 5.79590E+04
 -1        70 5.17189E+03-3.18383E+01 6.44318E+04
 -1        71 3.87168E+03-3.94962E+01 6.98434E+04
 -1        72 2.31029E+03-4.59583E+01 7.39964E+04
 -1        73 5.33139E+02-5.11488E+01 7.67266E+04
 -1        74-1.41206E+03-5.50168E+01 7.79060E+04
 -1        75-3.47627E+03-5.75386E+01 7.74437E+04
 -1        76-5.61011E+03-5.87191E+01 7.52879E+04
 -1        77-7.76494E+03-5.85926E+01 7.14252E+04
 -1        78-9.89399E+03-5.72229E+01 6.58806E+04
 -1        79-1.19533E+04-5.47029E+01 5.87159E+04
 -1        80-1.39031E+04-5.11536E+01 5.00268E+04
 -1        81-1.57082E+04-4.67224E+01 3.99404E+04
 -1        82-1.73395E+04-4.15804E+01 2.86108E+04
 -1        83-1.87748E+04-3.59204E+01 1.62147E+04
 -1        84-1.99989E+04-2.99528E+01 2.94611E+03
 -1        85-2.10051E+04-2.39038E+01-1.09891E+04
 -1        86-2.17949E+04-1.80111E+01-2.53791E+04
 -1        87-2.23789E+04-1.25118E+01-4.00123E+04
 -1        88-2.27765E+04-7.65056E+00-5.46852E+04
 -1        89-2.30162E+04-3.86523E+00-6.92129E+04
 -1        90-2.31381E+04-1.32185E+00-8.34491E+04
 -1        91-1.29028E+06-4.05386E+06-1.27635E+06
 -1        92-1.39454E-03-3.22702E-04-1.35505E+06
 -1        93 1.29028E+06 4.05386E+06-1.27635E+06
 -1        94 1.29028E+06-4.05386E+06-1.27635E+06
 -1        95 1.21025E-03 2.83750E-04-1.35505E+06
 -1        96-1.29028E+06 4.05386E+06-1.27635E+06
 -1        97-2.02898E+03-5.35620E+01 4.66750E+03
 -1        98-3.94100E+03-4.83137E+01 1.10099E+04
 -1        99-5.41737E+03-3.27719E+01 1.84005E+04
 -1       100-6.42198E+03-2.03185E+01 2.63571E+04
 -1       101-6.97750E+03-8.55680E+00 3.45758E+04
 -1       102-7.10326E+03 2.75542E+00 4.27678E+04
 -1       103-6.82381E+03 1.33469E+01 5.06529E+04
 -1       104-6.16871E+03 2.30826E+01 5.79590E+04
 -1       105-5.17189E+03 3.18383E+01 6.44318E+04
 -1       106-3.87168E+03 3.94963E+01 6.98434E+04
 -1       107-2.31029E+03 4.59583E+01 7.39964E+04
 -1       108-5.33139E+02 5.11488E+01 7.67266E+04
 -1       109 1.41206E+03 5.50168E+01 7.79060E+04
 -1       110 3.47627E+03 5.75386E+01 7.74437E+04
 -1       111 5.61011E+03 5.87191E+01 7.52879E+04
 -1       112 7.76494E+03 5.85926E+01 7.14252E+04
 -1       113 9.89399E+03 5.72229E+01 6.58806E+04
 -1       114 1.19533E+04 5.47029E+01 5.87159E+04
 -1       115 1.39031E+04 5.11536E+01 5.00268E+04
 -1       116 1.57082E+04 4.67224E+01 3.99404E+04
 -1       117 1.73395E+04 4.15804E+01 2.86108E+04
 -1       118 1.87748E+04 3.59203E+01 1.62147E+04
 -1       119 1.99989E+04 2.99528E+01 2.94611E+03
 -1       120 2.10051E+04 2.39038E+01-1.09891E+04
 -1       121 2.17949E+04 1.80111E+01-2.53791E+04
 -1       122 2.23789E+04 1.25117E+01-4.00123E+04
 -1       123 2.27765E+04 7.65046E+00-5.46852E+04
 -1       124 2.30162E+04 3.86520E+00-6.92129E+04
 -1       125 2.31381E+04 1.32184E+00-8.34491E+04
 -1       126-6.73015E+03 2.89008E-01-4.96072E+04
 -1       127 3.45423E-06 3.76484E-06-4.95714E+04
 -1       128 6.73015E+03-2.89022E-01-4.96072E+04
 -1       129-2.02898E+03 5.35620E+01 4.66750E+03
 -1       130-3.94100E+03 4.83137E+01 1.10099E+04
 -1       131-5.41737E+03 3.27719E+01 1.84005E+04
 -1       132-6.42198E+03 2.03185E+01 2.63571E+04
 -1       133-6.97750E+03 8.55683E+00 3.45758E+04
 -1       134-7.10326E+03-2.75540E+00 4.27678E+04
 -1       135-6.82381E+03-1.33469E+01 5.06529E+04
 -1       136-6.16871E+03-2.30826E+01 5.79590E+04
 -1       137-5.17189E+03-3.18382E+01 6.44318E+04
 -1       138-3.87168E+03-3.94963E+01 6.98434E+04
 -1       139-2.31029E+03-4.59584E+01 7.39964E+04
 -1       140-5.33139E+02-5.11488E+01 7.67266E+04
 -1       141 1.41206E+03-5.50168E+01 7.79060E+04
 -1       142 3.47627E+03-5.75386E+01 7.74437E+04
 -1       143 5.61011E+03-5.87191E+01 7.52879E+04
 -1       144 7.76494E+03-5.85926E+01 7.14252E+04
 -1       145 9.89399E+03-5.72229E+01 6.58806E+04
 -1       146 1.19533E+04-5.47029E+01 5.87159E+04
 -1       147 1.39031E+04-5.11536E+01 5.00268E+04
 -1       148 1.57082E+04-4.67224E+01 3.99404E+04
 -1       149 1.73395E+04-4.15804E+01 2.86108E+04
 -1       150 1.87748E+04-3.59204E+01 1.62147E+04
 -1       151 1.99989E+04-2.99528E+01 2.94611E+03
 -1       152 2.10051E+04-2.39038E+01-1.09891E+04
 -1       153 2.17949E+04-1.80111E+01-2.53791E+04
 -1       154 2.23789E+04-1.25118E+01-4.00123E+04
 -1       155 2.27765E+04-7.65051E+00-5.46852E+04
 -1       156 2.30162E+04-3.86521E+00-6.92129E+04
 -1       157 2.31381E+04-1.32179E+00-8.34491E+04
 -1       158 6.73015E+03 2.89026E-01-4.96072E+04
 -1       159 4.66985E-06 1.84232E-05-4.95714E+04
 -1       160-6.73015E+03-2.89018E-01-4.96072E+04
 -1       161 1.18865E+03 5.98000E+01 2.16329E+03
 -1       162 2.21959E+03 5.20266E+01 5.13383E+03
 -1       163 2.99142E+03 3.01040E+01 8.57905E+03
 -1       164 3.51382E+03 1.51394E+01 1.22694E+04
 -1       165 3.80013E+03 3.34758E+00 1.60744E+04
 -1       166 3.85955E+03-7.69171E+00 1.98666E+04
 -1       167 3.70419E+03-1.82464E+01 2.35179E+04
 -1       168 3.34927E+03-2.80833E+01 2.69015E+04
 -1       169 2.81276E+03-3.69470E+01 2.98992E+04
 -1       170 2.11507E+03-4.46647E+01 3.24051E+04
 -1       171 1.27872E+03-5.11222E+01 3.43274E+04
 -1       172 3.27909E+02-5.62361E+01 3.55902E+04
 -1       173-7.11934E+02-5.99468E+01 3.61339E+04
 -1       174-1.81465E+03-6.22222E+01 3.59164E+04
 -1       175-2.95389E+03-6.30603E+01 3.49136E+04
 -1       176-4.10371E+03-6.24911E+01 3.31192E+04
 -1       177-5.23911E+03-6.05765E+01 3.05448E+04
 -1       178-6.33664E+03-5.74095E+01 2.72189E+04
 -1       179-7.37496E+03-5.31132E+01 2.31860E+04
 -1       180-8.33536E+03-4.78388E+01 1.85048E+04
 -1       181-9.20224E+03-4.17628E+01 1.32469E+04
 -1       182-9.96358E+03-3.50829E+01 7.49403E+03
 -1       183-1.06113E+04-2.80127E+01 1.33618E+03
 -1       184-1.11417E+04-2.07790E+01-5.13132E+03
 -1       185-1.15554E+04-1.36340E+01-1.18103E+04
 -1       186-1.18580E+04-6.88686E+00-1.86025E+04
 -1       187-1.20597E+04-9.25016E-01-2.54132E+04
 -1       188-1.21759E+04 3.85812E+00-3.21567E+04
 -1       189-1.22288E+04 8.21978E+00-3.87687E+04
 -1       190-6.02057E+06-2.77805E+05-4.71285E+06
 -1       191 1.97051E+06-2.34376E+05 4.19596E+06
 -1       192-1.01867E+04 1.96617E+01-3.60366E+04
 -1       193 9.01201E+02 2.05374E+02 1.50502E+03
 -1       194 1.71219E+03 1.89811E+02 4.07384E+03
 -1       195 2.34563E+03 1.21429E+02 7.14401E+03
 -1       196 2.78401E+03 6.92816E+01 1.03093E+04
 -1       197 3.02830E+03 2.42345E+01 1.35044E+04
 -1       198 3.08554E+03-1.84311E+01 1.66801E+04
 -1       199 2.96550E+03-5.87895E+01 1.97432E+04
 -1       200 2.68067E+03-9.61435E+01 2.25851E+04
 -1       201 2.24595E+03-1.29771E+02 2.51037E+04
 -1       202 1.67816E+03-1.59125E+02 2.72090E+04
 -1       203 9.95840E+02-1.83806E+02 2.88240E+04
 -1       204 2.18865E+02-2.03514E+02 2.98850E+04
 -1       205-6.31875E+02-2.18041E+02 3.03422E+04
 -1       206-1.53491E+03-2.27283E+02 3.01602E+04
 -1       207-2.46863E+03-2.31247E+02 2.93186E+04
 -1       208-3.41175E+03-2.30059E+02 2.78124E+04
 -1       209-4.34380E+03-2.23958E+02 2.56512E+04
 -1       210-5.24557E+03-2.13300E+02 2.28589E+04
 -1       211-6.09960E+03-1.98550E+02 1.94729E+04
 -1       212-6.89058E+03-1.80278E+02 1.55427E+04
 -1       213-7.60580E+03-1.59146E+02 1.11281E+04
 -1       214-8.23547E+03-1.35898E+02 6.29802E+03
 -1       215-8.77308E+03-1.11342E+02 1.12780E+03
 -1       216-9.21562E+03-8.63413E+01-4.30262E+03
 -1       217-9.56383E+03-6.18281E+01-9.91061E+03
 -1       218-9.82227E+03-3.88440E+01-1.56119E+04
 -1       219-9.99954E+03-1.86122E+01-2.13232E+04
 -1       220-1.01083E+04-2.42591E+00-2.69740E+04
 -1       221-1.01635E+04 1.12358E+01-3.25342E+04
 -1       222 8.11171E+02 1.78294E+02 1.49341E+03
 -1       223 1.58011E+03 1.70153E+02 4.06426E+03
 -1       224 2.20420E+03 1.20948E+02 7.13680E+03
 -1       225 2.64065E+03 7.77287E+01 1.03047E+04
 -1       226 2.88434E+03 3.51999E+01 1.35024E+04
 -1       227 2.94432E+03-5.74801E+00 1.66805E+04
 -1       228 2.83179E+03-4.39421E+01 1.97459E+04
 -1       229 2.55930E+03-7.89661E+01 2.25899E+04
 -1       230 2.14126E+03-1.10455E+02 2.51104E+04
 -1       231 1.59390E+03-1.38026E+02 2.72173E+04
 -1       232 9.35176E+02-1.61337E+02 2.88337E+04
 -1       233 1.84362E+02-1.80122E+02 2.98959E+04
 -1       234-6.38295E+02-1.94207E+02 3.03539E+04
 -1       235-1.51199E+03-2.03514E+02 3.01724E+04
 -1       236-2.41580E+03-2.08064E+02 2.93311E+04
 -1       237-3.32912E+03-2.07987E+02 2.78249E+04
 -1       238-4.23213E+03-2.03513E+02 2.56634E+04
 -1       239-5.10625E+03-1.94978E+02 2.28706E+04
 -1       240-5.93458E+03-1.82817E+02 1.94839E+04
 -1       241-6.70235E+03-1.67556E+02 1.55527E+04
 -1       242-7.39726E+03-1.49811E+02 1.11371E+04
 -1       243-8.00989E+03-1.30270E+02 6.30581E+03
 -1       244-8.53397E+03-1.09690E+02 1.13434E+03
 -1       245-8.96666E+03-8.88840E+01-4.29734E+03
 -1       246-9.30876E+03-6.86993E+01-9.90655E+03
 -1       247-9.56491E+03-4.99476E+01-1.56090E+04
 -1       248-9.74350E+03-3.34236E+01-2.13213E+04
 -1       249-9.85603E+03-2.05260E+01-2.69729E+04
 -1       250-9.91510E+03-1.19610E+01-3.25337E+04
 -1       251-9.94251E+03-3.39537E+00-3.60362E+04
 -1       252 1.22288E+04-8.21976E+00-3.87687E+04
 -1       253 1.21759E+04-3.85811E+00-3.21567E+04
 -1       254 1.20597E+04 9.25015E-01-2.54132E+04
 -1       255 1.18580E+04 6.88687E+00-1.86025E+04
 -1       256 1.15554E+04 1.36340E+01-1.18103E+04
 -1       257 1.11417E+04 2.07790E+01-5.13132E+03
 -1       258 1.06113E+04 2.80127E+01 1.33618E+03
 -1       259 9.96358E+03 3.50828E+01 7.49403E+03
 -1       260 9.20224E+03 4.17627E+01 1.32469E+04
 -1       261 8.33536E+03 4.78388E+01 1.85048E+04
 -1       262 7.37496E+03 5.31132E+01 2.31860E+04
 -1       263 6.33664E+03 5.74095E+01 2.72189E+04
 -1       264 5.23911E+03 6.05765E+01 3.05448E+04
 -1       265 4.10371E+03 6.24911E+01 3.31192E+04
 -1       266 2.95389E+03 6.30603E+01 3.49136E+04
 -1       267 1.81465E+03 6.22222E+01 3.59164E+04
 -1       268 7.11934E+02 5.99468E+01 3.61339E+04
 -1       269-3.27909E+02 5.62361E+01 3.55902E+04
 -1       270-1.27872E+03 5.11222E+01 3.43274E+04
 -1       271-2.11507E+03 4.46647E+01 3.24051E+04
 -1       272-2.81276E+03 3.69471E+01 2.98992E+04
 -1       273-3.34927E+03 2.80833E+01 2.69015E+04
 -1       274-3.70419E+03 1.82464E+01 2.35179E+04
 -1       275-3.85955E+03 7.69173E+00 1.98666E+04
 -1       276-3.80013E+03-3.34756E+00 1.60744E+04
 -1       277-3.51382E+03-1.51394E+01 1.22694E+04
 -1       278-2.99142E+03-3.01040E+01 8.57905E+03
 -1       279-2.21959E+03-5.20266E+01 5.13383E+03
 -1       280-1.18865E+03-5.98000E+01 2.16329E+03
 -1       281-1.97051E+06 2.34376E+05 4.19596E+06
 -1       282 6.02057E+06 2.77805E+05-4.71285E+06
 -1       283-8.11171E+02-1.78294E+02 1.49341E+03
 -1       284-1.58011E+03-1.70153E+02 4.06426E+03
 -1       285-2.20420E+03-1.20948E+02 7.13680E+03
 -1       286-2.64065E+03-7.77287E+01 1.03047E+04
 -1       287-2.88434E+03-3.51999E+01 1.35024E+04
 -1       288-2.94432E+03 5.74802E+00 1.66805E+04
 -1       289-2.83179E+03 4.39421E+01 1.97459E+04
 -1       290-2.55930E+03 7.89661E+01 2.25899E+04
 -1       291-2.14126E+03 1.10455E+02 2.51104E+04
 -1       292-1.59390E+03 1.38026E+02 2.72173E+04
 -1       293-9.35176E+02 1.61337E+02 2.88337E+04
 -1       294-1.84362E+02 1.80122E+02 2.98959E+04
 -1       295 6.38295E+02 1.94207E+02 3.03539E+04
 -1       296 1.51199E+03 2.03514E+02 3.01724E+04
 -1       297 2.41580E+03 2.08064E+02 2.93311E+04
 -1       298 3.32912E+03 2.07987E+02 2.78249E+04
 -1       299 4.23213E+03 2.03513E+02 2.56634E+04
 -1       300 5.10625E+03 1.94978E+02 2.28706E+04
 -1       301 5.93458E+03 1.82817E+02 1.94839E+04
 -1       302 6.70235E+03 1.67556E+02 1.55527E+04
 -1       303 7.39726E+03 1.49811E+02 1.11371E+04
 -1       304 8.00989E+03 1.30270E+02 6.30581E+03
 -1       305 8.53397E+03 1.09690E+02 1.13434E+03
 -1       306 8.96666E+03 8.88840E+01-4.29734E+03
 -1       307 9.30876E+03 6.86993E+01-9.90655E+03
 -1       308 9.56491E+03 4.99476E+01-1.56090E+04
 -1       309 9.74350E+03 3.34236E+01-2.13213E+04
 -1       310 9.85603E+03 2.05260E+01-2.69729E+04
 -1       311 9.91510E+03 1.19610E+01-3.25337E+04
 -1       312 9.94251E+03 3.39539E+00-3.60362E+04
 -1       313-9.01201E+02-2.05374E+02 1.50502E+03
 -1       314-1.71219E+03-1.89811E+02 4.07384E+03
 -1       315-2.34563E+03-1.21429E+02 7.14401E+03
 -1       316-2.78401E+03-6.92816E+01 1.03093E+04
 -1       317-3.02830E+03-2.42345E+01 1.35044E+04
 -1       318-3.08554E+03 1.84311E+01 1.66801E+04
 -1       319-2.96550E+03 5.87896E+01 1.97432E+04
 -1       320-2.68067E+03 9.61435E+01 2.25851E+04
 -1       321-2.24595E+03 1.29771E+02 2.51037E+04
 -1       322-1.67816E+03 1.59125E+02 2.72090E+04
 -1       323-9.95840E+02 1.83806E+02 2.88240E+04
 -1       324-2.18865E+02 2.03514E+02 2.98850E+04
 -1       325 6.31875E+02 2.18041E+02 3.03422E+04
 -1       326 1.53491E+03 2.27283E+02 3.01602E+04
 -1       327 2.46863E+03 2.31247E+02 2.93186E+04
 -1       328 3.41175E+03 2.30059E+02 2.78124E+04
 -1       329 4.34380E+03 2.23958E+02 2.56512E+04
 -1       330 5.24557E+03 2.13300E+02 2.28589E+04
 -1       331 6.09960E+03 1.98550E+02 1.94729E+04
 -1       332 6.89058E+03 1.80278E+02 1.55427E+04
 -1       333 7.60580E+03 1.59146E+02 1.11281E+04
 -1       334 8.23547E+03 1.35898E+02 6.29802E+03
 -1       335 8.77308E+03 1.11342E+02 1.12780E+03
 -1       336 9.21562E+03 8.63413E+01-4.30262E+03
 -1       337 9.56383E+03 6.18281E+01-9.91061E+03
 -1       338 9.82227E+03 3.88440E+01-1.56119E+04
 -1       339 9.99954E+03 1.86122E+01-2.13232E+04
 -1       340 1.01083E+04 2.42593E+00-2.69740E+04
 -1       341 1.01635E+04-1.12358E+01-3.25342E+04
 -1       342 1.01867E+04-1.96617E+01-3.60366E+04
 -1       343 9.01201E+02-2.05374E+02 1.50502E+03
 -1       344 1.71219E+03-1.89811E+02 4.07384E+03
 -1       345 2.34563E+03-1.21429E+02 7.14401E+03
 -1       346 2.78401E+03-6.92816E+01 1.03093E+04
 -1       347 3.02830E+03-2.42345E+01 1.35044E+04
 -1       348 3.08554E+03 1.84311E+01 1.66801E+04
 -1       349 2.96550E+03 5.87896E+01 1.97432E+04
 -1       350 2.68067E+03 9.61435E+01 2.25851E+04
 -1       351 2.24595E+03 1.29771E+02 2.51037E+04
 -1       352 1.67816E+03 1.59125E+02 2.72090E+04
 -1       353 9.95840E+02 1.83806E+02 2.88240E+04
 -1       354 2.18865E+02 2.03514E+02 2.98850E+04
 -1       355-6.31875E+02 2.18041E+02 3.03422E+04
 -1       356-1.53491E+03 2.27283E+02 3.01602E+04
 -1       357-2.46863E+03 2.31247E+02 2.93186E+04
 -1       358-3.41175E+03 2.30059E+02 2.78124E+04
 -1       359-4.34380E+03 2.23958E+02 2.56512E+04
 -1       360-5.24557E+03 2.13300E+02 2.28589E+04
 -1       361-6.09960E+03 1.98550E+02 1.94729E+04
 -1       362-6.89058E+03 1.80278E+02 1.55427E+04
 -1       363-7.60580E+03 1.59146E+02 1.11281E+04
 -1       364-8.23547E+03 1.35898E+02 6.29802E+03
 -1       365-8.77308E+03 1.11342E+02 1.12780E+03
 -1       366-9.21562E+03 8.63413E+01-4.30262E+03
 -1       367-9.56383E+03 6.18281E+01-9.91061E+03
 -1       368-9.82227E+03 3.88440E+01-1.56119E+04
 -1       369-9.99954E+03 1.86122E+01-2.13232E+04
 -1       370-1.01083E+04 2.42592E+00-2.69740E+04
 -1       371-1.01635E+04-1.12358E+01-3.25342E+04
 -1       372 8.11171E+02-1.78294E+02 1.49341E+03
 -1       373 1.58011E+03-1.70153E+02 4.06426E+03
 -1       374 2.20420E+03-1.20948E+02 7.13680E+03
 -1       375 2.64065E+03-7.77287E+01 1.03047E+04
 -1       376 2.88434E+03-3.51998E+01 1.35024E+04
 -1       377 2.94432E+03 5.74802E+00 1.66805E+04
 -1       378 2.83179E+03 4.39421E+01 1.97459E+04
 -1       379 2.55930E+03 7.89661E+01 2.25899E+04
 -1       380 2.14126E+03 1.10455E+02 2.51104E+04
 -1       381 1.59390E+03 1.38026E+02 2.72173E+04
 -1       382 9.35176E+02 1.61337E+02 2.88337E+04
 -1       383 1.84362E+02 1.80122E+02 2.98959E+04
 -1       384-6.38295E+02 1.94207E+02 3.03539E+04
 -1       385-1.51199E+03 2.03514E+02 3.01724E+04
 -1       386-2.41580E+03 2.08064E+02 2.93311E+04
 -1       387-3.32912E+03 2.07987E+02 2.78249E+04
 -1       388-4.23213E+03 2.03513E+02 2.56634E+04
 -1       389-5.10625E+03 1.94978E+02 2.28706E+04
 -1       390-5.93458E+03 1.82817E+02 1.94839E+04
 -1       391-6.70235E+03 1.67556E+02 1.55527E+04
 -1       392-7.39726E+03 1.49811E+02 1.11371E+04
 -1       393-8.00989E+03 1.30270E+02 6.30581E+03
 -1       394-8.53397E+03 1.09690E+02 1.13434E+03
 -1       395-8.96666E+03 8.88840E+01-4.29734E+03
 -1       396-9.30876E+03 6.86993E+01-9.90655E+03
 -1       397-9.56491E+03 4.99476E+01-1.56090E+04
 -1       398-9.74350E+03 3.34236E+01-2.13213E+04
 -1       399-9.85603E+03 2.05260E+01-2.69729E+04
 -1       400-9.91510E+03 1.19610E+01-3.25337E+04
 -1       401-6.02057E+06 2.77805E+05-4.71285E+06
 -1       402 1.97051E+06 2.34376E+05 4.19596E+06
 -1       403-1.01867E+04-1.96617E+01-3.60366E+04
 -1       404 1.18865E+03-5.97999E+01 2.16329E+03
 -1       405 2.21959E+03-5.20266E+01 5.13383E+03
 -1       406 2.99142E+03-3.01040E+01 8.57905E+03
 -1       407 3.51382E+03-1.51394E+01 1.22694E+04
 -1       408 3.80013E+03-3.34757E+00 1.60744E+04
 -1       409 3.85955E+03 7.69174E+00 1.98666E+04
 -1       410 3.70419E+03 1.82464E+01 2.35179E+04
 -1       411 3.34927E+03 2.80833E+01 2.69015E+04
 -1       412 2.81276E+03 3.69471E+01 2.98992E+04
 -1       413 2.11507E+03 4.46647E+01 3.24051E+04
 -1       414 1.27872E+03 5.11222E+01 3.43274E+04
 -1       415 3.27909E+02 5.62361E+01 3.55902E+04
 -1       416-7.11934E+02 5.99468E+01 3.61339E+04
 -1       417-1.81465E+03 6.22222E+01 3.59164E+04
 -1       418-2.95389E+03 6.30603E+01 3.49136E+04
 -1       419-4.10371E+03 6.24911E+01 3.31192E+04
 -1       420-5.23911E+03 6.05764E+01 3.05448E+04
 -1       421-6.33664E+03 5.74095E+01 2.72189E+04
 -1       422-7.37496E+03 5.31132E+01 2.31860E+04
 -1       423-8.33536E+03 4.78388E+01 1.85048E+04
 -1       424-9.20224E+03 4.17627E+01 1.32469E+04
 -1       425-9.96358E+03 3.50828E+01 7.49403E+03
 -1       426-1.06113E+04 2.80127E+01 1.33618E+03
 -1       427-1.11417E+04 2.07790E+01-5.13132E+03
 -1       428-1.15554E+04 1.36340E+01-1.18103E+04
 -1       429-1.18580E+04 6.88688E+00-1.86025E+04
 -1       430-1.20597E+04 9.25028E-01-2.54132E+04
 -1       431-1.21759E+04-3.85812E+00-3.21567E+04
 -1       432-1.22288E+04-8.21976E+00-3.87687E+04
 -1       433-9.94251E+03 3.39539E+00-3.60362E+04
 -1       434 6.02057E+06-2.77805E+05-4.71285E+06
 -1       435-1.97051E+06-2.34376E+05 4.19596E+06
 -1       436 1.22288E+04 8.21977E+00-3.87687E+04
 -1       437 1.21759E+04 3.85811E+00-3.21567E+04
 -1       438 1.20597E+04-9.25027E-01-2.54132E+04
 -1       439 1.18580E+04-6.88687E+00-1.86025E+04
 -1       440 1.15554E+04-1.36340E+01-1.18103E+04
 -1       441 1.11417E+04-2.07790E+01-5.13132E+03
 -1       442 1.06113E+04-2.80127E+01 1.33618E+03
 -1       443 9.96358E+03-3.50829E+01 7.49403E+03
 -1       444 9.20224E+03-4.17627E+01 1.32469E+04
 -1       445 8.33536E+03-4.78388E+01 1.85048E+04
 -1       446 7.37496E+03-5.31132E+01 2.31860E+04
 -1       447 6.33664E+03-5.74095E+01 2.72189E+04
 -1       448 5.23911E+03-6.05765E+01 3.05448E+04
 -1       449 4.10371E+03-6.24911E+01 3.31192E+04
 -1       450 2.95389E+03-6.30603E+01 3.49136E+04
 -1       451 1.81465E+03-6.22222E+01 3.59164E+04
 -1       452 7.11934E+02-5.99468E+01 3.61339E+04
 -1       453-3.27909E+02-5.62361E+01 3.55902E+04
 -1       454-1.27872E+03-5.11222E+01 3.43274E+04
 -1       455-2.11507E+03-4.46647E+01 3.24051E+04
 -1       456-2.81276E+03-3.69470E+01 2.98992E+04
 -1       457-3.34927E+03-2.80833E+01 2.69015E+04
 -1       458-3.70419E+03-1.82464E+01 2.35179E+04
 -1       459-3.85955E+03-7.69172E+00 1.98666E+04
 -1       460-3.80013E+03 3.34757E+00 1.60744E+04
 -1       461-3.51382E+03 1.51394E+01 1.22694E+04
 -1       462-2.99142E+03 3.01040E+01 8.57905E+03
 -1       463-2.21959E+03 5.20266E+01 5.13383E+03
 -1       464-1.18865E+03 5.97999E+01 2.16329E+03
 -1       465 1.01867E+04 1.96617E+01-3.60366E+04
 -1       466-9.01201E+02 2.05374E+02 1.50502E+03
 -1       467-1.71219E+03 1.89811E+02 4.07384E+03
 -1       468-2.34563E+03 1.21429E+02 7.14401E+03
 -1       469-2.78401E+03 6.92816E+01 1.03093E+04
 -1       470-3.02830E+03 2.42345E+01 1.35044E+04
 -1       471-3.08554E+03-1.84311E+01 1.66801E+04
 -1       472-2.96550E+03-5.87896E+01 1.97432E+04
 -1       473-2.68067E+03-9.61434E+01 2.25851E+04
 -1       474-2.24595E+03-1.29771E+02 2.51037E+04
 -1       475-1.67816E+03-1.59125E+02 2.72090E+04
 -1       476-9.95840E+02-1.83806E+02 2.88240E+04
 -1       477-2.18865E+02-2.03514E+02 2.98850E+04
 -1       478 6.31875E+02-2.18041E+02 3.03422E+04
 -1       479 1.53491E+03-2.27283E+02 3.01602E+04
 -1       480 2.46863E+03-2.31247E+02 2.93186E+04
 -1       481 3.41175E+03-2.30059E+02 2.78124E+04
 -1       482 4.34380E+03-2.23958E+02 2.56512E+04
 -1       483 5.24557E+03-2.13300E+02 2.28589E+04
 -1       484 6.09960E+03-1.98550E+02 1.94729E+04
 -1       485 6.89058E+03-1.80278E+02 1.55427E+04
 -1       486 7.60580E+03-1.59146E+02 1.11281E+04
 -1       487 8.23547E+03-1.35898E+02 6.29802E+03
 -1       488 8.77308E+03-1.11342E+02 1.12780E+03
 -1       489 9.21562E+03-8.63413E+01-4.30262E+03
 -1       490 9.56383E+03-6.18281E+01-9.91061E+03
 -1       491 9.82227E+03-3.88440E+01-1.56119E+04
 -1       492 9.99954E+03-1.86122E+01-2.13232E+04
 -1       493 1.01083E+04-2.42592E+00-2.69740E+04
 -1       494 1.01635E+04 1.12358E+01-3.25342E+04
 -1       495-8.11171E+02 1.78294E+02 1.49341E+03
 -1       496-1.58011E+03 1.70153E+02 4.06426E+03
 -1       497-2.20420E+03 1.20948E+02 7.13680E+03
 -1       498-2.64065E+03 7.77287E+01 1.03047E+04
 -1       499-2.88434E+03 3.51999E+01 1.35024E+04
 -1       500-2.94432E+03-5.74802E+00 1.66805E+04
 -1       501-2.83179E+03-4.39421E+01 1.97459E+04
 -1       502-2.55930E+03-7.89661E+01 2.25899E+04
 -1       503-2.14126E+03-1.10455E+02 2.51104E+04
 -1       504-1.59390E+03-1.38026E+02 2.72173E+04
 -1       505-9.35176E+02-1.61337E+02 2.88337E+04
 -1       506-1.84362E+02-1.80122E+02 2.98959E+04
 -1       507 6.38295E+02-1.94207E+02 3.03539E+04
 -1       508 1.51199E+03-2.03514E+02 3.01724E+04
 -1       509 2.41580E+03-2.08064E+02 2.93311E+04
 -1       510 3.32912E+03-2.07987E+02 2.78249E+04
 -1       511 4.23213E+03-2.03513E+02 2.56634E+04
 -1       512 5.10625E+03-1.94978E+02 2.28706E+04
 -1       513 5.93458E+03-1.82817E+02 1.94839E+04
 -1       514 6.70235E+03-1.67556E+02 1.55527E+04
 -1       515 7.39726E+03-1.49811E+02 1.11371E+04
 -1       516 8.00989E+03-1.30270E+02 6.30581E+03
 -1       517 8.53397E+03-1.09690E+02 1.13434E+03
 -1       518 8.96666E+03-8.88840E+01-4.29734E+03
 -1       519 9.30876E+03-6.86993E+01-9.90655E+03
 -1       520 9.56491E+03-4.99476E+01-1.56090E+04
 -1       521 9.74350E+03-3.34236E+01-2.13213E+04
 -1       522 9.85603E+03-2.05260E+01-2.69729E+04
 -1       523 9.91510E+03-1.19610E+01-3.25337E+04
 -1       524 9.94251E+03-3.39538E+00-3.60362E+04
 -1       525 1.04955E+03 6.22278E+00 4.99037E+03
 -1       526 2.08814E+03 4.65305E+00 1.15972E+04
 -1       527 2.95311E+03 3.09334E+00 1.94778E+04
 -1       528 3.55740E+03 1.78737E+00 2.80517E+04
 -1       529 3.89354E+03 6.05408E-01 3.69264E+04
 -1       530 3.97719E+03-4.87224E-01 4.57714E+04
 -1       531 3.82569E+03-1.51280E+00 5.42800E+04
 -1       532 3.45740E+03-2.45937E+00 6.21614E+04
 -1       533 2.89225E+03-3.31139E+00 6.91443E+04
 -1       534 2.15226E+03-4.05540E+00 7.49847E+04
 -1       535 1.26164E+03-4.68090E+00 7.94707E+04
 -1       536 2.46437E+02-5.18010E+00 8.24262E+04
 -1       537-8.65973E+02-5.54761E+00 8.37137E+04
 -1       538-2.04745E+03-5.78077E+00 8.32359E+04
 -1       539-3.26970E+03-5.87972E+00 8.09373E+04
 -1       540-4.50484E+03-5.84768E+00 7.68040E+04
 -1       541-5.72609E+03-5.69067E+00 7.08631E+04
 -1       542-6.90831E+03-5.41776E+00 6.31811E+04
 -1       543-8.02866E+03-5.04069E+00 5.38615E+04
 -1       544-9.06715E+03-4.57390E+00 4.30410E+04
 -1       545-1.00072E+04-4.03421E+00 3.08858E+04
 -1       546-1.08360E+04-3.44051E+00 1.75862E+04
 -1       547-1.15451E+04-2.81338E+00 3.35120E+03
 -1       548-1.21307E+04-2.17492E+00-1.15974E+04
 -1       549-1.25940E+04-1.54911E+00-2.70315E+04
 -1       550-1.29413E+04-9.62140E-01-4.27239E+04
 -1       551-1.31836E+04-4.40952E-01-5.84569E+04
 -1       552-1.33366E+04-1.13431E-02-7.40319E+04
 -1       553-1.34229E+04 3.28781E-01-8.92768E+04
 -1       554 3.08505E-06 1.75633E-06 4.97760E+03
 -1       555-1.85457E-05 4.88141E-06 1.15015E+04
 -1       556-1.61039E-05 1.15413E-06 1.93656E+04
 -1       557 1.01017E-05-4.68356E-06 2.79660E+04
 -1       558 8.54077E-06 8.28298E-06 3.68733E+04
 -1       559 1.05197E-05 8.00388E-06 4.57490E+04
 -1       560 5.32158E-06 1.77508E-05 5.42852E+04
 -1       561-1.42829E-05 1.46278E-05 6.21910E+04
 -1       562 4.05998E-06 1.00461E-05 6.91959E+04
 -1       563 2.37539E-05 2.45426E-06 7.50556E+04
 -1       564 3.08800E-05-5.33121E-06 7.95583E+04
 -1       565 2.62536E-05-6.98246E-06 8.25277E+04
 -1       566 5.42531E-06-2.46496E-05 8.38260E+04
 -1       567 9.11129E-07 4.89997E-06 8.33562E+04
 -1       568 1.54128E-05 8.40613E-06 8.10627E+04
 -1       569 4.04688E-06 3.92075E-06 7.69317E+04
 -1       570 8.29637E-07 3.27395E-06 7.09905E+04
 -1       571 3.21811E-06-2.49697E-05 6.33059E+04
 -1       572 2.96864E-06-1.91074E-05 5.39816E+04
 -1       573-7.91343E-06-2.36064E-06 4.31548E+04
 -1       574 2.00732E-06-7.64346E-06 3.09919E+04
 -1       575 2.86653E-06-2.31531E-05 1.76838E+04
 -1       576 1.40136E-05 2.46172E-06 3.43998E+03
 -1       577 1.25735E-05-4.41951E-06-1.15171E+04
 -1       578 1.62426E-05-2.69488E-06-2.69589E+04
 -1       579 1.94144E-05 9.26337E-06-4.26579E+04
 -1       580-7.28300E-06 1.95655E-05-5.83965E+04
 -1       581-2.19035E-05 3.88362E-05-7.39755E+04
 -1       582-6.02020E-07 5.21420E-05-8.92170E+04
 -1       583-1.04955E+03-6.22276E+00 4.99037E+03
 -1       584-2.08814E+03-4.65302E+00 1.15972E+04
 -1       585-2.95311E+03-3.09331E+00 1.94778E+04
 -1       586-3.55740E+03-1.78735E+00 2.80517E+04
 -1       587-3.89354E+03-6.05392E-01 3.69264E+04
 -1       588-3.97719E+03 4.87241E-01 4.57714E+04
 -1       589-3.82569E+03 1.51281E+00 5.42800E+04
 -1       590-3.45740E+03 2.45938E+00 6.21614E+04
 -1       591-2.89225E+03 3.31141E+00 6.91443E+04
 -1       592-2.15226E+03 4.05540E+00 7.49847E+04
 -1       593-1.26164E+03 4.68092E+00 7.94707E+04
 -1       594-2.46437E+02 5.18010E+00 8.24262E+04
 -1       595 8.65973E+02 5.54758E+00 8.37137E+04
 -1       596 2.04745E+03 5.78076E+00 8.32359E+04
 -1       597 3.26970E+03 5.87973E+00 8.09373E+04
 -1       598 4.50484E+03 5.84769E+00 7.68040E+04
 -1       599 5.72609E+03 5.69068E+00 7.08631E+04
 -1       600 6.90831E+03 5.41774E+00 6.31811E+04
 -1       601 8.02866E+03 5.04067E+00 5.38615E+04
 -1       602 9.06715E+03 4.57388E+00 4.30410E+04
 -1       603 1.00072E+04 4.03421E+00 3.08858E+04
 -1       604 1.08360E+04 3.44052E+00 1.75862E+04
 -1       605 1.15451E+04 2.81339E+00 3.35120E+03
 -1       606 1.21307E+04 2.17495E+00-1.15974E+04
 -1       607 1.25940E+04 1.54911E+00-2.70315E+04
 -1       608 1.29413E+04 9.62095E-01-4.27239E+04
 -1       609 1.31836E+04 4.40938E-01-5.84569E+04
 -1       610 1.33366E+04 1.13738E-02-7.40319E+04
 -1       611 1.34229E+04-3.28776E-01-8.92768E+04
 -1       612-1.04955E+03 6.22276E+00 4.99037E+03
 -1       613-2.08814E+03 4.65304E+00 1.15972E+04
 -1       614-2.95311E+03 3.09333E+00 1.94778E+04
 -1       615-3.55740E+03 1.78734E+00 2.80517E+04
 -1       616-3.89354E+03 6.05403E-01 3.69264E+04
 -1       617-3.97719E+03-4.87249E-01 4.57714E+04
 -1       618-3.82569E+03-1.51284E+00 5.42800E+04
 -1       619-3.45740E+03-2.45937E+00 6.21614E+04
 -1       620-2.89225E+03-3.31141E+00 6.91443E+04
 -1       621-2.15226E+03-4.05541E+00 7.49847E+04
 -1       622-1.26164E+03-4.68090E+00 7.94707E+04
 -1       623-2.46437E+02-5.18009E+00 8.24262E+04
 -1       624 8.65973E+02-5.54758E+00 8.37137E+04
 -1       625 2.04745E+03-5.78073E+00 8.32359E+04
 -1       626 3.26970E+03-5.87973E+00 8.09373E+04
 -1       627 4.50484E+03-5.84770E+00 7.68040E+04
 -1       628 5.72609E+03-5.69067E+00 7.08631E+04
 -1       629 6.90831E+03-5.41772E+00 6.31811E+04
 -1       630 8.02866E+03-5.04064E+00 5.38615E+04
 -1       631 9.06715E+03-4.57385E+00 4.30410E+04
 -1       632 1.00072E+04-4.03417E+00 3.08858E+04
 -1       633 1.08360E+04-3.44047E+00 1.75862E+04
 -1       634 1.15451E+04-2.81337E+00 3.35120E+03
 -1       635 1.21307E+04-2.17496E+00-1.15974E+04
 -1       636 1.25940E+04-1.54911E+00-2.70315E+04
 -1       637 1.29413E+04-9.62100E-01-4.27239E+04
 -1       638 1.31836E+04-4.40926E-01-5.84569E+04
 -1       639 1.33366E+04-1.13579E-02-7.40319E+04
 -1       640 1.34229E+04 3.28796E-01-8.92768E+04
 -1       641 1.49899E-05-2.90271E-07 4.97760E+03
 -1       642-7.40142E-06 1.16593E-05 1.15015E+04
 -1       643-1.24673E-05 9.20659E-06 1.93656E+04
 -1       644 1.83143E-05 8.49032E-07 2.79660E+04
 -1       645 2.45119E-05 3.05595E-06 3.68733E+04
 -1       646 1.08416E-05-9.91900E-07 4.57490E+04
 -1       647 1.22601E-06 2.06089E-05 5.42852E+04
 -1       648-1.08968E-05 3.18519E-05 6.21910E+04
 -1       649 6.17564E-06 5.41815E-06 6.91959E+04
 -1       650 1.78033E-05-4.11444E-06 7.50556E+04
 -1       651 2.32079E-05 3.13711E-06 7.95583E+04
 -1       652 1.75772E-05-1.27390E-05 8.25277E+04
 -1       653 2.76218E-06-2.03065E-09 8.38260E+04
 -1       654 1.18557E-05 1.37939E-05 8.33562E+04
 -1       655 2.09671E-05 1.87675E-05 8.10627E+04
 -1       656 1.41769E-05-1.03631E-05 7.69317E+04
 -1       657 1.13581E-05-9.30643E-06 7.09905E+04
 -1       658 1.56342E-05-1.67745E-05 6.33059E+04
 -1       659 8.00233E-06-5.91649E-06 5.39816E+04
 -1       660-1.33662E-05-2.32190E-05 4.31548E+04
 -1       661 6.98211E-06-1.01444E-05 3.09919E+04
 -1       662 1.41541E-05-2.58330E-06 1.76838E+04
 -1       663 1.21507E-05-3.38648E-05 3.43998E+03
 -1       664 1.90071E-05-8.41560E-06-1.15171E+04
 -1       665 2.08579E-05 2.31025E-05-2.69589E+04
 -1       666 1.43319E-05 1.49048E-05-4.26579E+04
 -1       667-7.11005E-06 1.96191E-05-5.83965E+04
 -1       668-2.17144E-05-1.93811E-05-7.39755E+04
 -1       669-9.22539E-06-1.33479E-05-8.92170E+04
 -1       670 1.04955E+03-6.22276E+00 4.99037E+03
 -1       671 2.08814E+03-4.65301E+00 1.15972E+04
 -1       672 2.95311E+03-3.09330E+00 1.94778E+04
 -1       673 3.55740E+03-1.78732E+00 2.80517E+04
 -1       674 3.89354E+03-6.05379E-01 3.69264E+04
 -1       675 3.97719E+03 4.87246E-01 4.57714E+04
 -1       676 3.82569E+03 1.51283E+00 5.42800E+04
 -1       677 3.45740E+03 2.45941E+00 6.21614E+04
 -1       678 2.89225E+03 3.31143E+00 6.91443E+04
 -1       679 2.15226E+03 4.05541E+00 7.49847E+04
 -1       680 1.26164E+03 4.68092E+00 7.94707E+04
 -1       681 2.46437E+02 5.18007E+00 8.24262E+04
 -1       682-8.65973E+02 5.54758E+00 8.37137E+04
 -1       683-2.04745E+03 5.78076E+00 8.32359E+04
 -1       684-3.26970E+03 5.87975E+00 8.09373E+04
 -1       685-4.50484E+03 5.84765E+00 7.68040E+04
 -1       686-5.72609E+03 5.69065E+00 7.08631E+04
 -1       687-6.90831E+03 5.41771E+00 6.31811E+04
 -1       688-8.02866E+03 5.04061E+00 5.38615E+04
 -1       689-9.06715E+03 4.57384E+00 4.30410E+04
 -1       690-1.00072E+04 4.03419E+00 3.08858E+04
 -1       691-1.08360E+04 3.44047E+00 1.75862E+04
 -1       692-1.15451E+04 2.81331E+00 3.35120E+03
 -1       693-1.21307E+04 2.17493E+00-1.15974E+04
 -1       694-1.25940E+04 1.54915E+00-2.70315E+04
 -1       695-1.29413E+04 9.62142E-01-4.27239E+04
 -1       696-1.31836E+04 4.40918E-01-5.84569E+04
 -1       697-1.33366E+04 1.13326E-02-7.40319E+04
 -1       698-1.34229E+04-3.28777E-01-8.92768E+04
 -1       699 1.85330E+03 2.68858E+02 3.32294E+03
 -1       700 3.52782E+03 2.44697E+02 8.37125E+03
 -1       701 4.80440E+03 1.50998E+02 1.42913E+04
 -1       702 5.67793E+03 8.28500E+01 2.05203E+04
 -1       703 6.16216E+03 2.58947E+01 2.68819E+04
 -1       704 6.27065E+03-2.79020E+01 3.32142E+04
 -1       705 6.02332E+03-7.89533E+01 3.93160E+04
 -1       706 5.44535E+03-1.26306E+02 4.49736E+04
 -1       707 4.56654E+03-1.68948E+02 4.99866E+04
 -1       708 3.42071E+03-2.06140E+02 5.41770E+04
 -1       709 2.04507E+03-2.37360E+02 5.73916E+04
 -1       710 4.79598E+02-2.62222E+02 5.95034E+04
 -1       711-1.23370E+03-2.80453E+02 6.04129E+04
 -1       712-3.05164E+03-2.91916E+02 6.00497E+04
 -1       713-4.93075E+03-2.96612E+02 5.83735E+04
 -1       714-6.82821E+03-2.94695E+02 5.53738E+04
 -1       715-8.70280E+03-2.86468E+02 5.10700E+04
 -1       716-1.05159E+04-2.72380E+02 4.55098E+04
 -1       717-1.22322E+04-2.53023E+02 3.87675E+04
 -1       718-1.38211E+04-2.29119E+02 3.09415E+04
 -1       719-1.52567E+04-2.01512E+02 2.21511E+04
 -1       720-1.65195E+04-1.71148E+02 1.25333E+04
 -1       721-1.75962E+04-1.39053E+02 2.23836E+03
 -1       722-1.84806E+04-1.06320E+02-8.57448E+03
 -1       723-1.91742E+04-7.41422E+01-1.97409E+04
 -1       724-1.96862E+04-4.38918E+01-3.10951E+04
 -1       725-2.00335E+04-1.72171E+01-4.24752E+04
 -1       726-2.02417E+04 4.08363E+00-5.37391E+04
 -1       727-2.03440E+04 2.24401E+01-6.48009E+04
 -1       728 1.66872E+03 2.24975E+02 3.29884E+03
 -1       729 3.27296E+03 2.14504E+02 8.35167E+03
 -1       730 4.52917E+03 1.50674E+02 1.42770E+04
 -1       731 5.39363E+03 9.63717E+01 2.05111E+04
 -1       732 5.87530E+03 4.33704E+01 2.68779E+04
 -1       733 5.98941E+03-7.80621E+00 3.32150E+04
 -1       734 5.75727E+03-5.55420E+01 3.93214E+04
 -1       735 5.20393E+03-9.93139E+01 4.49832E+04
 -1       736 4.35831E+03-1.38666E+02 5.00000E+04
 -1       737 3.25312E+03-1.73117E+02 5.41937E+04
 -1       738 1.92444E+03-2.02239E+02 5.74111E+04
 -1       739 4.11031E+02-2.25698E+02 5.95251E+04
 -1       740-1.24637E+03-2.43273E+02 6.04363E+04
 -1       741-3.00592E+03-2.54868E+02 6.00742E+04
 -1       742-4.82550E+03-2.60508E+02 5.83985E+04
 -1       743-6.66362E+03-2.60353E+02 5.53988E+04
 -1       744-8.48041E+03-2.54692E+02 5.10945E+04
 -1       745-1.02384E+04-2.43944E+02 4.55333E+04
 -1       746-1.19036E+04-2.28652E+02 3.87895E+04
 -1       747-1.34462E+04-2.09476E+02 3.09616E+04
 -1       748-1.48415E+04-1.87184E+02 2.21690E+04
 -1       749-1.60703E+04-1.62637E+02 1.25489E+04
 -1       750-1.71200E+04-1.36781E+02 2.25144E+03
 -1       751-1.79849E+04-1.10634E+02-8.56393E+03
 -1       752-1.86663E+04-8.52549E+01-1.97328E+04
 -1       753-1.91735E+04-6.16536E+01-3.10893E+04
 -1       754-1.95231E+04-4.08267E+01-4.24714E+04
 -1       755-1.97391E+04-2.47096E+01-5.37369E+04
 -1       756-1.98508E+04-1.43862E+01-6.47998E+04
 -1       757-1.66872E+03-2.24975E+02 3.29884E+03
 -1       758-3.27296E+03-2.14504E+02 8.35167E+03
 -1       759-4.52917E+03-1.50674E+02 1.42770E+04
 -1       760-5.39363E+03-9.63717E+01 2.05111E+04
 -1       761-5.87530E+03-4.33704E+01 2.68779E+04
 -1       762-5.98941E+03 7.80623E+00 3.32150E+04
 -1       763-5.75727E+03 5.55421E+01 3.93214E+04
 -1       764-5.20393E+03 9.93139E+01 4.49832E+04
 -1       765-4.35831E+03 1.38666E+02 5.00000E+04
 -1       766-3.25312E+03 1.73117E+02 5.41937E+04
 -1       767-1.92444E+03 2.02239E+02 5.74111E+04
 -1       768-4.11031E+02 2.25698E+02 5.95251E+04
 -1       769 1.24637E+03 2.43273E+02 6.04363E+04
 -1       770 3.00592E+03 2.54868E+02 6.00742E+04
 -1       771 4.82550E+03 2.60508E+02 5.83985E+04
 -1       772 6.66362E+03 2.60353E+02 5.53988E+04
 -1       773 8.48041E+03 2.54692E+02 5.10945E+04
 -1       774 1.02384E+04 2.43944E+02 4.55333E+04
 -1       775 1.19036E+04 2.28652E+02 3.87895E+04
 -1       776 1.34462E+04 2.09476E+02 3.09616E+04
 -1       777 1.48415E+04 1.87184E+02 2.21690E+04
 -1       778 1.60703E+04 1.62637E+02 1.25489E+04
 -1       779 1.71200E+04 1.36781E+02 2.25144E+03
 -1       780 1.79849E+04 1.10634E+02-8.56393E+03
 -1       781 1.86663E+04 8.52549E+01-1.97328E+04
 -1       782 1.91735E+04 6.16536E+01-3.10893E+04
 -1       783 1.95231E+04 4.08267E+01-4.24714E+04
 -1       784 1.97391E+04 2.47096E+01-5.37369E+04
 -1       785 1.98508E+04 1.43862E+01-6.47998E+04
 -1       786-1.85330E+03-2.68858E+02 3.32294E+03
 -1       787-3.52782E+03-2.44697E+02 8.37125E+03
 -1       788-4.80440E+03-1.50998E+02 1.42913E+04
 -1       789-5.67793E+03-8.28500E+01 2.05203E+04
 -1       790-6.16216E+03-2.58946E+01 2.68819E+04
 -1       791-6.27065E+03 2.79020E+01 3.32142E+04
 -1       792-6.02332E+03 7.89533E+01 3.93160E+04
 -1       793-5.44535E+03 1.26306E+02 4.49736E+04
 -1       794-4.56654E+03 1.68948E+02 4.99866E+04
 -1       795-3.42071E+03 2.06140E+02 5.41770E+04
 -1       796-2.04507E+03 2.37360E+02 5.73916E+04
 -1       797-4.79598E+02 2.62222E+02 5.95034E+04
 -1       798 1.23370E+03 2.80453E+02 6.04129E+04
 -1       799 3.05164E+03 2.91916E+02 6.00497E+04
 -1       800 4.93075E+03 2.96612E+02 5.83735E+04
 -1       801 6.82821E+03 2.94695E+02 5.53738E+04
 -1       802 8.70280E+03 2.86468E+02 5.10700E+04
 -1       803 1.05159E+04 2.72380E+02 4.55098E+04
 -1       804 1.22322E+04 2.53023E+02 3.87675E+04
 -1       805 1.38211E+04 2.29119E+02 3.09415E+04
 -1       806 1.52567E+04 2.01512E+02 2.21511E+04
 -1       807 1.65195E+04 1.71148E+02 1.25333E+04
 -1       808 1.75962E+04 1.39053E+02 2.23836E+03
 -1       809 1.84806E+04 1.06320E+02-8.57448E+03
 -1       810 1.91742E+04 7.41422E+01-1.97409E+04
 -1       811 1.96862E+04 4.38918E+01-3.10951E+04
 -1       812 2.00335E+04 1.72171E+01-4.24752E+04
 -1       813 2.02417E+04-4.08363E+00-5.37391E+04
 -1       814 2.03440E+04-2.24400E+01-6.48009E+04
 -1       815 1.85330E+03-2.68858E+02 3.32294E+03
 -1       816 3.52782E+03-2.44697E+02 8.37125E+03
 -1       817 4.80440E+03-1.50998E+02 1.42913E+04
 -1       818 5.67793E+03-8.28500E+01 2.05203E+04
 -1       819 6.16216E+03-2.58946E+01 2.68819E+04
 -1       820 6.27065E+03 2.79020E+01 3.32142E+04
 -1       821 6.02332E+03 7.89533E+01 3.93160E+04
 -1       822 5.44535E+03 1.26306E+02 4.49736E+04
 -1       823 4.56654E+03 1.68948E+02 4.99866E+04
 -1       824 3.42071E+03 2.06140E+02 5.41770E+04
 -1       825 2.04507E+03 2.37360E+02 5.73916E+04
 -1       826 4.79598E+02 2.62222E+02 5.95034E+04
 -1       827-1.23370E+03 2.80453E+02 6.04129E+04
 -1       828-3.05164E+03 2.91916E+02 6.00497E+04
 -1       829-4.93075E+03 2.96612E+02 5.83735E+04
 -1       830-6.82821E+03 2.94695E+02 5.53738E+04
 -1       831-8.70280E+03 2.86468E+02 5.10700E+04
 -1       832-1.05159E+04 2.72380E+02 4.55098E+04
 -1       833-1.22322E+04 2.53023E+02 3.87675E+04
 -1       834-1.38211E+04 2.29119E+02 3.09415E+04
 -1       835-1.52567E+04 2.01512E+02 2.21511E+04
 -1       836-1.65195E+04 1.71148E+02 1.25333E+04
 -1       837-1.75962E+04 1.39053E+02 2.23836E+03
 -1       838-1.84806E+04 1.06320E+02-8.57448E+03
 -1       839-1.91742E+04 7.41422E+01-1.97409E+04
 -1       840-1.96862E+04 4.38918E+01-3.10951E+04
 -1       841-2.00335E+04 1.72171E+01-4.24752E+04
 -1       842-2.02417E+04-4.08364E+00-5.37391E+04
 -1       843-2.03440E+04-2.24400E+01-6.48009E+04
 -1       844 1.66872E+03-2.24975E+02 3.29884E+03
 -1       845 3.27296E+03-2.14504E+02 8.35167E+03
 -1       846 4.52917E+03-1.50674E+02 1.42770E+04
 -1       847 5.39363E+03-9.63717E+01 2.05111E+04
 -1       848 5.87530E+03-4.33704E+01 2.68779E+04
 -1       849 5.98941E+03 7.80625E+00 3.32150E+04
 -1       850 5.75727E+03 5.55421E+01 3.93214E+04
 -1       851 5.20393E+03 9.93139E+01 4.49832E+04
 -1       852 4.35831E+03 1.38666E+02 5.00000E+04
 -1       853 3.25312E+03 1.73117E+02 5.41937E+04
 -1       854 1.92444E+03 2.02239E+02 5.74111E+04
 -1       855 4.11031E+02 2.25698E+02 5.95251E+04
 -1       856-1.24637E+03 2.43273E+02 6.04363E+04
 -1       857-3.00592E+03 2.54868E+02 6.00742E+04
 -1       858-4.82550E+03 2.60508E+02 5.83985E+04
 -1       859-6.66362E+03 2.60353E+02 5.53988E+04
 -1       860-8.48041E+03 2.54692E+02 5.10945E+04
 -1       861-1.02384E+04 2.43944E+02 4.55333E+04
 -1       862-1.19036E+04 2.28652E+02 3.87895E+04
 -1       863-1.34462E+04 2.09476E+02 3.09616E+04
 -1       864-1.48415E+04 1.87184E+02 2.21690E+04
 -1       865-1.60703E+04 1.62637E+02 1.25489E+04
 -1       866-1.71200E+04 1.36781E+02 2.25144E+03
 -1       867-1.79849E+04 1.10634E+02-8.56393E+03
 -1       868-1.86663E+04 8.52549E+01-1.97328E+04
 -1       869-1.91735E+04 6.16536E+01-3.10893E+04
 -1       870-1.95231E+04 4.08267E+01-4.24714E+04
 -1       871-1.97391E+04 2.47096E+01-5.37369E+04
 -1       872-1.98508E+04 1.43862E+01-6.47998E+04
 -1       873 2.03440E+04 2.24400E+01-6.48009E+04
 -1       874 2.02417E+04 4.08363E+00-5.37391E+04
 -1       875 2.00335E+04-1.72171E+01-4.24752E+04
 -1       876 1.96862E+04-4.38918E+01-3.10951E+04
 -1       877 1.91742E+04-7.41422E+01-1.97409E+04
 -1       878 1.84806E+04-1.06320E+02-8.57448E+03
 -1       879 1.75962E+04-1.39053E+02 2.23836E+03
 -1       880 1.65195E+04-1.71148E+02 1.25333E+04
 -1       881 1.52567E+04-2.01512E+02 2.21511E+04
 -1       882 1.38211E+04-2.29119E+02 3.09415E+04
 -1       883 1.22322E+04-2.53023E+02 3.87675E+04
 -1       884 1.05159E+04-2.72380E+02 4.55098E+04
 -1       885 8.70280E+03-2.86468E+02 5.10700E+04
 -1       886 6.82821E+03-2.94695E+02 5.53738E+04
 -1       887 4.93075E+03-2.96612E+02 5.83735E+04
 -1       888 3.05164E+03-2.91916E+02 6.00497E+04
 -1       889 1.23370E+03-2.80453E+02 6.04129E+04
 -1       890-4.79598E+02-2.62222E+02 5.95034E+04
 -1       891-2.04507E+03-2.37360E+02 5.73916E+04
 -1       892-3.42071E+03-2.06140E+02 5.41770E+04
 -1       893-4.56654E+03-1.68948E+02 4.99866E+04
 -1       894-5.44535E+03-1.26306E+02 4.49736E+04
 -1       895-6.02332E+03-7.89533E+01 3.93160E+04
 -1       896-6.27065E+03-2.79020E+01 3.32142E+04
 -1       897-6.16216E+03 2.58946E+01 2.68819E+04
 -1       898-5.67793E+03 8.28500E+01 2.05203E+04
 -1       899-4.80440E+03 1.50998E+02 1.42913E+04
 -1       900-3.52782E+03 2.44697E+02 8.37125E+03
 -1       901-1.85330E+03 2.68858E+02 3.32294E+03
 -1       902-1.66872E+03 2.24975E+02 3.29884E+03
 -1       903-3.27296E+03 2.14504E+02 8.35167E+03
 -1       904-4.52917E+03 1.50674E+02 1.42770E+04
 -1       905-5.39363E+03 9.63717E+01 2.05111E+04
 -1       906-5.87530E+03 4.33704E+01 2.68779E+04
 -1       907-5.98941E+03-7.80623E+00 3.32150E+04
 -1       908-5.75727E+03-5.55421E+01 3.93214E+04
 -1       909-5.20393E+03-9.93139E+01 4.49832E+04
 -1       910-4.35831E+03-1.38666E+02 5.00000E+04
 -1       911-3.25312E+03-1.73117E+02 5.41937E+04
 -1       912-1.92444E+03-2.02239E+02 5.74111E+04
 -1       913-4.11031E+02-2.25698E+02 5.95251E+04
 -1       914 1.24637E+03-2.43273E+02 6.04363E+04
 -1       915 3.00592E+03-2.54868E+02 6.00742E+04
 -1       916 4.82550E+03-2.60508E+02 5.83985E+04
 -1       917 6.66362E+03-2.60353E+02 5.53988E+04
 -1       918 8.48041E+03-2.54692E+02 5.10945E+04
 -1       919 1.02384E+04-2.43944E+02 4.55333E+04
 -1       920 1.19036E+04-2.28652E+02 3.87895E+04
 -1       921 1.34462E+04-2.09476E+02 3.09616E+04
 -1       922 1.48415E+04-1.87184E+02 2.21690E+04
 -1       923 1.60703E+04-1.62637E+02 1.25489E+04
 -1       924 1.71200E+04-1.36781E+02 2.25144E+03
 -1       925 1.79849E+04-1.10634E+02-8.56393E+03
 -1       926 1.86663E+04-8.52549E+01-1.97328E+04
 -1       927 1.91735E+04-6.16536E+01-3.10893E+04
 -1       928 1.95231E+04-4.08267E+01-4.24714E+04
 -1       929 1.97391E+04-2.47096E+01-5.37369E+04
 -1       930 1.98508E+04-1.43862E+01-6.47998E+04
 -3
    1PSTEP                        28           1           1          
    1PGM                1.000000E+00                                  
    1PGK                2.621869E+06                                  
    1PHID                         -1                                  
    1PSUBC                         0                                  
    1PMODE                         7                                  
  100CL  107 257.7066322         930                     2    7MODAL      1
 -4  ERROR       1    1
 -5  STR(%)      1    1    0    0
 -1         1 2.99743E+01
 -1         2 2.99743E+01
 -1         3 8.64817E+01
 -1         4 8.64817E+01
 -1         5 2.99743E+01
 -1         6 2.99743E+01
 -1         7 8.64817E+01
 -1         8 8.64817E+01
 -1         9 2.99743E+01
 -1        10 8.64817E+01
 -1        11 2.69710E+01
 -1        12 2.69710E+01
 -1        13 3.97827E+01
 -1        14 3.97827E+01
 -1        15 2.99743E+01
 -1        16 8.64817E+01
 -1        17 2.69710E+01
 -1        18 2.69710E+01
 -1        19 3.97827E+01
 -1        20 3.97827E+01
 -1        21 2.69710E+01
 -1        22 2.69710E+01
 -1        23 3.97827E+01
 -1        24 3.97827E+01
 -1        25 2.99743E+01
 -1        26 8.64817E+01
 -1        27 2.99743E+01
 -1        28 2.69710E+01
 -1        29 2.69710E+01
 -1        30 8.64817E+01
 -1        31 3.97827E+01
 -1        32 3.97827E+01
 -1        33 2.99743E+01
 -1        34 1.93339E+01
 -1        35 7.77831E+00
 -1        36 1.20344E+01
 -1        37 4.01053E+01
 -1        38 4.01053E+01
 -1        39 2.55256E+01
 -1        40 8.38398E+00
 -1        41 1.37606E+01
 -1        42 1.81188E+01
 -1        43 2.14536E+01
 -1        44 2.36780E+01
 -1        45 2.46949E+01
 -1        46 2.46949E+01
 -1        47 2.45092E+01
 -1        48 2.43445E+01
 -1        49 2.46564E+01
 -1        50 2.46564E+01
 -1        51 2.41561E+01
 -1        52 2.29861E+01
 -1        53 2.12898E+01
 -1        54 1.91763E+01
 -1        55 1.67103E+01
 -1        56 1.39106E+01
 -1        57 1.07395E+01
 -1        58 1.58079E+01
 -1        59 2.94169E+01
 -1        60 8.64235E+01
 -1        61 8.64817E+01
 -1        62 2.99743E+01
 -1        63 1.93339E+01
 -1        64 7.77831E+00
 -1        65 1.20344E+01
 -1        66 4.01053E+01
 -1        67 4.01053E+01
 -1        68 2.55256E+01
 -1        69 8.38398E+00
 -1        70 1.37606E+01
 -1        71 1.81188E+01
 -1        72 2.14536E+01
 -1        73 2.36780E+01
 -1        74 2.46949E+01
 -1        75 2.46949E+01
 -1        76 2.45092E+01
 -1        77 2.43445E+01
 -1        78 2.46564E+01
 -1        79 2.46564E+01
 -1        80 2.41561E+01
 -1        81 2.29861E+01
 -1        82 2.12898E+01
 -1        83 1.91763E+01
 -1        84 1.67103E+01
 -1        85 1.39106E+01
 -1        86 1.07395E+01
 -1        87 1.58079E+01
 -1        88 2.94169E+01
 -1        89 8.64235E+01
 -1        90 8.64817E+01
 -1        91 2.40591E+01
 -1        92 1.89549E+01
 -1        93 2.40591E+01
 -1        94 2.40591E+01
 -1        95 1.89549E+01
 -1        96 2.40591E+01
 -1        97 2.99743E+01
 -1        98 1.93339E+01
 -1        99 7.77831E+00
 -1       100 1.20344E+01
 -1       101 4.01053E+01
 -1       102 4.01053E+01
 -1       103 2.55256E+01
 -1       104 8.38398E+00
 -1       105 1.37606E+01
 -1       106 1.81188E+01
 -1       107 2.14536E+01
 -1       108 2.36780E+01
 -1       109 2.46949E+01
 -1       110 2.46949E+01
 -1       111 2.45092E+01
 -1       112 2.43445E+01
 -1       113 2.46564E+01
 -1       114 2.46564E+01
 -1       115 2.41561E+01
 -1       116 2.29861E+01
 -1       117 2.12898E+01
 -1       118 1.91763E+01
 -1       119 1.67103E+01
 -1       120 1.39106E+01
 -1       121 1.07395E+01
 -1       122 1.58079E+01
 -1       123 2.94169E+01
 -1       124 8.64235E+01
 -1       125 8.64817E+01
 -1       126 1.87369E+01
 -1       127 1.39983E+01
 -1       128 1.87369E+01
 -1       129 2.99743E+01
 -1       130 1.93339E+01
 -1       131 7.77831E+00
 -1       132 1.20344E+01
 -1       133 4.01053E+01
 -1       134 4.01053E+01
 -1       135 2.55256E+01
 -1       136 8.38398E+00
 -1       137 1.37606E+01
 -1       138 1.81188E+01
 -1       139 2.14536E+01
 -1       140 2.36780E+01
 -1       141 2.46949E+01
 -1       142 2.46949E+01
 -1       143 2.45092E+01
 -1       144 2.43445E+01
 -1       145 2.46564E+01
 -1       146 2.46564E+01
 -1       147 2.41561E+01
 -1       148 2.29861E+01
 -1       149 2.12898E+01
 -1       150 1.91763E+01
 -1       151 1.67103E+01
 -1       152 1.39106E+01
 -1       153 1.07395E+01
 -1       154 1.58079E+01
 -1       155 2.94169E+01
 -1       156 8.64235E+01
 -1       157 8.64817E+01
 -1       158 1.87369E+01
 -1       159 1.39983E+01
 -1       160 1.87369E+01
 -1       161 2.99743E+01
 -1       162 9.63326E+00
 -1       163 4.99961E+00
 -1       164 1.20344E+01
 -1       165 4.01053E+01
 -1       166 4.01053E+01
 -1       167 2.55256E+01
 -1       168 6.71119E+00
 -1       169 2.92335E+00
 -1       170 2.45078E+00
 -1       171 2.19261E+00
 -1       172 2.00431E+00
 -1       173 1.85488E+00
 -1       174 1.72834E+00
 -1       175 1.61540E+00
 -1       176 1.63707E+00
 -1       177 1.74576E+00
 -1       178 1.85694E+00
 -1       179 1.97492E+00
 -1       180 2.10476E+00
 -1       181 2.25324E+00
 -1       182 2.43045E+00
 -1       183 2.99956E+00
 -1       184 4.22971E+00
 -1       185 8.00288E+00
 -1       186 1.58079E+01
 -1       187 2.94169E+01
 -1       188 8.64235E+01
 -1       189 8.64817E+01
 -1       190 2.99743E+01
 -1       191 2.99743E+01
 -1       192 8.64817E+01
 -1       193 2.69710E+01
 -1       194 7.79022E+00
 -1       195 3.49429E+00
 -1       196 6.18579E+00
 -1       197 3.06914E+01
 -1       198 3.06914E+01
 -1       199 1.93768E+01
 -1       200 6.89054E+00
 -1       201 4.25236E+00
 -1       202 3.53068E+00
 -1       203 3.08867E+00
 -1       204 2.78152E+00
 -1       205 2.54727E+00
 -1       206 2.35486E+00
 -1       207 2.18675E+00
 -1       208 2.14124E+00
 -1       209 2.24156E+00
 -1       210 2.33994E+00
 -1       211 2.43793E+00
 -1       212 2.53634E+00
 -1       213 2.63551E+00
 -1       214 2.75743E+00
 -1       215 2.87692E+00
 -1       216 2.97235E+00
 -1       217 3.04011E+00
 -1       218 3.04011E+00
 -1       219 4.89950E+00
 -1       220 7.97075E+00
 -1       221 3.97827E+01
 -1       222 2.69710E+01
 -1       223 7.79022E+00
 -1       224 3.49429E+00
 -1       225 6.18579E+00
 -1       226 3.06914E+01
 -1       227 3.06914E+01
 -1       228 1.93768E+01
 -1       229 6.89054E+00
 -1       230 4.25236E+00
 -1       231 3.53068E+00
 -1       232 3.08867E+00
 -1       233 2.78152E+00
 -1       234 2.54727E+00
 -1       235 2.35486E+00
 -1       236 2.18675E+00
 -1       237 2.14124E+00
 -1       238 2.24156E+00
 -1       239 2.33994E+00
 -1       240 2.43793E+00
 -1       241 2.53634E+00
 -1       242 2.63551E+00
 -1       243 2.75743E+00
 -1       244 2.87692E+00
 -1       245 2.97235E+00
 -1       246 3.04011E+00
 -1       247 3.04011E+00
 -1       248 4.89950E+00
 -1       249 7.97075E+00
 -1       250 3.97827E+01
 -1       251 8.64817E+01
 -1       252 8.64817E+01
 -1       253 8.64235E+01
 -1       254 2.94169E+01
 -1       255 1.58079E+01
 -1       256 8.00288E+00
 -1       257 4.22971E+00
 -1       258 2.99956E+00
 -1       259 2.43045E+00
 -1       260 2.25324E+00
 -1       261 2.10476E+00
 -1       262 1.97492E+00
 -1       263 1.85694E+00
 -1       264 1.74576E+00
 -1       265 1.63707E+00
 -1       266 1.61540E+00
 -1       267 1.72834E+00
 -1       268 1.85488E+00
 -1       269 2.00431E+00
 -1       270 2.19261E+00
 -1       271 2.45078E+00
 -1       272 2.92335E+00
 -1       273 6.71119E+00
 -1       274 2.55256E+01
 -1       275 4.01053E+01
 -1       276 4.01053E+01
 -1       277 1.20344E+01
 -1       278 4.99961E+00
 -1       279 9.63326E+00
 -1       280 2.99743E+01
 -1       281 2.99743E+01
 -1       282 2.99743E+01
 -1       283 2.69710E+01
 -1       284 7.79022E+00
 -1       285 3.49429E+00
 -1       286 6.18579E+00
 -1       287 3.06914E+01
 -1       288 3.06914E+01
 -1       289 1.93768E+01
 -1       290 6.89054E+00
 -1       291 4.25236E+00
 -1       292 3.53068E+00
 -1       293 3.08867E+00
 -1       294 2.78152E+00
 -1       295 2.54727E+00
 -1       296 2.35486E+00
 -1       297 2.18675E+00
 -1       298 2.14124E+00
 -1       299 2.24156E+00
 -1       300 2.33994E+00
 -1       301 2.43793E+00
 -1       302 2.53634E+00
 -1       303 2.63551E+00
 -1       304 2.75743E+00
 -1       305 2.87692E+00
 -1       306 2.97235E+00
 -1       307 3.04011E+00
 -1       308 3.04011E+00
 -1       309 4.89950E+00
 -1       310 7.97075E+00
 -1       311 3.97827E+01
 -1       312 8.64817E+01
 -1       313 2.69710E+01
 -1       314 7.79022E+00
 -1       315 3.49429E+00
 -1       316 6.18579E+00
 -1       317 3.06914E+01
 -1       318 3.06914E+01
 -1       319 1.93768E+01
 -1       320 6.89054E+00
 -1       321 4.25236E+00
 -1       322 3.53068E+00
 -1       323 3.08867E+00
 -1       324 2.78152E+00
 -1       325 2.54727E+00
 -1       326 2.35486E+00
 -1       327 2.18675E+00
 -1       328 2.14124E+00
 -1       329 2.24156E+00
 -1       330 2.33994E+00
 -1       331 2.43793E+00
 -1       332 2.53634E+00
 -1       333 2.63551E+00
 -1       334 2.75743E+00
 -1       335 2.87692E+00
 -1       336 2.97235E+00
 -1       337 3.04011E+00
 -1       338 3.04011E+00
 -1       339 4.89950E+00
 -1       340 7.97075E+00
 -1       341 3.97827E+01
 -1       342 8.64817E+01
 -1       343 2.69710E+01
 -1       344 7.79022E+00
 -1       345 3.49429E+00
 -1       346 6.18579E+00
 -1       347 3.06914E+01
 -1       348 3.06914E+01
 -1       349 1.93768E+01
 -1       350 6.89054E+00
 -1       351 4.25236E+00
 -1       352 3.53068E+00
 -1       353 3.08867E+00
 -1       354 2.78152E+00
 -1       355 2.54727E+00
 -1       356 2.35486E+00
 -1       357 2.18675E+00
 -1       358 2.14124E+00
 -1       359 2.24156E+00
 -1       360 2.33994E+00
 -1       361 2.43793E+00
 -1       362 2.53634E+00
 -1       363 2.63551E+00
 -1       364 2.75743E+00
 -1       365 2.87692E+00
 -1       366 2.97235E+00
 -1       367 3.04011E+00
 -1       368 3.04011E+00
 -1       369 4.89950E+00
 -1       370 7.97075E+00
 -1       371 3.97827E+01
 -1       372 2.69710E+01
 -1       373 7.79022E+00
 -1       374 3.49429E+00
 -1       375 6.18579E+00
 -1       376 3.06914E+01
 -1       377 3.06914E+01
 -1       378 1.93768E+01
 -1       379 6.89054E+00
 -1       380 4.25236E+00
 -1       381 3.53068E+00
 -1       382 3.08867E+00
 -1       383 2.78152E+00
 -1       384 2.54727E+00
 -1       385 2.35486E+00
 -1       386 2.18675E+00
 -1       387 2.14124E+00
 -1       388 2.24156E+00
 -1       389 2.33994E+00
 -1       390 2.43793E+00
 -1       391 2.53634E+00
 -1       392 2.63551E+00
 -1       393 2.75743E+00
 -1       394 2.87692E+00
 -1       395 2.97235E+00
 -1       396 3.04011E+00
 -1       397 3.04011E+00
 -1       398 4.89950E+00
 -1       399 7.97075E+00
 -1       400 3.97827E+01
 -1       401 2.99743E+01
 -1       402 2.99743E+01
 -1       403 8.64817E+01
 -1       404 2.99743E+01
 -1       405 9.63326E+00
 -1       406 4.99961E+00
 -1       407 1.20344E+01
 -1       408 4.01053E+01
 -1       409 4.01053E+01
 -1       410 2.55256E+01
 -1       411 6.71119E+00
 -1       412 2.92335E+00
 -1       413 2.45078E+00
 -1       414 2.19261E+00
 -1       415 2.00431E+00
 -1       416 1.85488E+00
 -1       417 1.72834E+00
 -1       418 1.61540E+00
 -1       419 1.63707E+00
 -1       420 1.74576E+00
 -1       421 1.85694E+00
 -1       422 1.97492E+00
 -1       423 2.10476E+00
 -1       424 2.25324E+00
 -1       425 2.43045E+00
 -1       426 2.99956E+00
 -1       427 4.22971E+00
 -1       428 8.00288E+00
 -1       429 1.58079E+01
 -1       430 2.94169E+01
 -1       431 8.64235E+01
 -1       432 8.64817E+01
 -1       433 8.64817E+01
 -1       434 2.99743E+01
 -1       435 2.99743E+01
 -1       436 8.64817E+01
 -1       437 8.64235E+01
 -1       438 2.94169E+01
 -1       439 1.58079E+01
 -1       440 8.00288E+00
 -1       441 4.22971E+00
 -1       442 2.99956E+00
 -1       443 2.43045E+00
 -1       444 2.25324E+00
 -1       445 2.10476E+00
 -1       446 1.97492E+00
 -1       447 1.85694E+00
 -1       448 1.74576E+00
 -1       449 1.63707E+00
 -1       450 1.61540E+00
 -1       451 1.72834E+00
 -1       452 1.85488E+00
 -1       453 2.00431E+00
 -1       454 2.19261E+00
 -1       455 2.45078E+00
 -1       456 2.92335E+00
 -1       457 6.71119E+00
 -1       458 2.55256E+01
 -1       459 4.01053E+01
 -1       460 4.01053E+01
 -1       461 1.20344E+01
 -1       462 4.99961E+00
 -1       463 9.63326E+00
 -1       464 2.99743E+01
 -1       465 8.64817E+01
 -1       466 2.69710E+01
 -1       467 7.79022E+00
 -1       468 3.49429E+00
 -1       469 6.18579E+00
 -1       470 3.06914E+01
 -1       471 3.06914E+01
 -1       472 1.93768E+01
 -1       473 6.89054E+00
 -1       474 4.25236E+00
 -1       475 3.53068E+00
 -1       476 3.08867E+00
 -1       477 2.78152E+00
 -1       478 2.54727E+00
 -1       479 2.35486E+00
 -1       480 2.18675E+00
 -1       481 2.14124E+00
 -1       482 2.24156E+00
 -1       483 2.33994E+00
 -1       484 2.43793E+00
 -1       485 2.53634E+00
 -1       486 2.63551E+00
 -1       487 2.75743E+00
 -1       488 2.87692E+00
 -1       489 2.97235E+00
 -1       490 3.04011E+00
 -1       491 3.04011E+00
 -1       492 4.89950E+00
 -1       493 7.97075E+00
 -1       494 3.97827E+01
 -1       495 2.69710E+01
 -1       496 7.79022E+00
 -1       497 3.49429E+00
 -1       498 6.18579E+00
 -1       499 3.06914E+01
 -1       500 3.06914E+01
 -1       501 1.93768E+01
 -1       502 6.89054E+00
 -1       503 4.25236E+00
 -1       504 3.53068E+00
 -1       505 3.08867E+00
 -1       506 2.78152E+00
 -1       507 2.54727E+00
 -1       508 2.35486E+00
 -1       509 2.18675E+00
 -1       510 2.14124E+00
 -1       511 2.24156E+00
 -1       512 2.33994E+00
 -1       513 2.43793E+00
 -1       514 2.53634E+00
 -1       515 2.63551E+00
 -1       516 2.75743E+00
 -1       517 2.87692E+00
 -1       518 2.97235E+00
 -1       519 3.04011E+00
 -1       520 3.04011E+00
 -1       521 4.89950E+00
 -1       522 7.97075E+00
 -1       523 3.97827E+01
 -1       524 8.64817E+01
 -1       525 2.40591E+01
 -1       526 1.93339E+01
 -1       527 1.26574E+01
 -1       528 6.07857E+00
 -1       529 3.20251E+00
 -1       530 2.48866E+00
 -1       531 3.83414E+00
 -1       532 8.77657E+00
 -1       533 1.59458E+01
 -1       534 2.34204E+01
 -1       535 3.14839E+01
 -1       536 4.04387E+01
 -1       537 5.03909E+01
 -1       538 5.92323E+01
 -1       539 5.92323E+01
 -1       540 6.00785E+01
 -1       541 6.00785E+01
 -1       542 5.39484E+01
 -1       543 4.60985E+01
 -1       544 3.92192E+01
 -1       545 3.33334E+01
 -1       546 2.82308E+01
 -1       547 2.37355E+01
 -1       548 1.97359E+01
 -1       549 1.61826E+01
 -1       550 1.30799E+01
 -1       551 1.05106E+01
 -1       552 8.52542E+00
 -1       553 1.87369E+01
 -1       554 1.89549E+01
 -1       555 1.54550E+01
 -1       556 1.26574E+01
 -1       557 6.07857E+00
 -1       558 3.20251E+00
 -1       559 1.87447E+00
 -1       560 3.74788E+00
 -1       561 8.77657E+00
 -1       562 1.59458E+01
 -1       563 2.34204E+01
 -1       564 3.14839E+01
 -1       565 4.04387E+01
 -1       566 5.03909E+01
 -1       567 5.92323E+01
 -1       568 5.92323E+01
 -1       569 6.00785E+01
 -1       570 6.00785E+01
 -1       571 5.39484E+01
 -1       572 4.60985E+01
 -1       573 3.92192E+01
 -1       574 3.33334E+01
 -1       575 2.82308E+01
 -1       576 2.37355E+01
 -1       577 1.97359E+01
 -1       578 1.61826E+01
 -1       579 1.30799E+01
 -1       580 1.05106E+01
 -1       581 8.52542E+00
 -1       582 1.39983E+01
 -1       583 2.40591E+01
 -1       584 1.93339E+01
 -1       585 1.26574E+01
 -1       586 6.07857E+00
 -1       587 3.20251E+00
 -1       588 2.48866E+00
 -1       589 3.83414E+00
 -1       590 8.77657E+00
 -1       591 1.59458E+01
 -1       592 2.34204E+01
 -1       593 3.14839E+01
 -1       594 4.04387E+01
 -1       595 5.03909E+01
 -1       596 5.92323E+01
 -1       597 5.92323E+01
 -1       598 6.00785E+01
 -1       599 6.00785E+01
 -1       600 5.39484E+01
 -1       601 4.60985E+01
 -1       602 3.92192E+01
 -1       603 3.33334E+01
 -1       604 2.82308E+01
 -1       605 2.37355E+01
 -1       606 1.97359E+01
 -1       607 1.61826E+01
 -1       608 1.30799E+01
 -1       609 1.05106E+01
 -1       610 8.52542E+00
 -1       611 1.87369E+01
 -1       612 2.40591E+01
 -1       613 1.93339E+01
 -1       614 1.26574E+01
 -1       615 6.07857E+00
 -1       616 3.20251E+00
 -1       617 2.48866E+00
 -1       618 3.83414E+00
 -1       619 8.77657E+00
 -1       620 1.59458E+01
 -1       621 2.34204E+01
 -1       622 3.14839E+01
 -1       623 4.04387E+01
 -1       624 5.03909E+01
 -1       625 5.92323E+01
 -1       626 5.92323E+01
 -1       627 6.00785E+01
 -1       628 6.00785E+01
 -1       629 5.39484E+01
 -1       630 4.60985E+01
 -1       631 3.92192E+01
 -1       632 3.33334E+01
 -1       633 2.82308E+01
 -1       634 2.37355E+01
 -1       635 1.97359E+01
 -1       636 1.61826E+01
 -1       637 1.30799E+01
 -1       638 1.05106E+01
 -1       639 8.52542E+00
 -1       640 1.87369E+01
 -1       641 1.89549E+01
 -1       642 1.54550E+01
 -1       643 1.26574E+01
 -1       644 6.07857E+00
 -1       645 3.20251E+00
 -1       646 1.87447E+00
 -1       647 3.74788E+00
 -1       648 8.77657E+00
 -1       649 1.59458E+01
 -1       650 2.34204E+01
 -1       651 3.14839E+01
 -1       652 4.04387E+01
 -1       653 5.03909E+01
 -1       654 5.92323E+01
 -1       655 5.92323E+01
 -1       656 6.00785E+01
 -1       657 6.00785E+01
 -1       658 5.39484E+01
 -1       659 4.60985E+01
 -1       660 3.92192E+01
 -1       661 3.33334E+01
 -1       662 2.82308E+01
 -1       663 2.37355E+01
 -1       664 1.97359E+01
 -1       665 1.61826E+01
 -1       666 1.30799E+01
 -1       667 1.05106E+01
 -1       668 8.52542E+00
 -1       669 1.39983E+01
 -1       670 2.40591E+01
 -1       671 1.93339E+01
 -1       672 1.26574E+01
 -1       673 6.07857E+00
 -1       674 3.20251E+00
 -1       675 2.48866E+00
 -1       676 3.83414E+00
 -1       677 8.77657E+00
 -1       678 1.59458E+01
 -1       679 2.34204E+01
 -1       680 3.14839E+01
 -1       681 4.04387E+01
 -1       682 5.03909E+01
 -1       683 5.92323E+01
 -1       684 5.92323E+01
 -1       685 6.00785E+01
 -1       686 6.00785E+01
 -1       687 5.39484E+01
 -1       688 4.60985E+01
 -1       689 3.92192E+01
 -1       690 3.33334E+01
 -1       691 2.82308E+01
 -1       692 2.37355E+01
 -1       693 1.97359E+01
 -1       694 1.61826E+01
 -1       695 1.30799E+01
 -1       696 1.05106E+01
 -1       697 8.52542E+00
 -1       698 1.87369E+01
 -1       699 2.99743E+01
 -1       700 7.79022E+00
 -1       701 3.49429E+00
 -1       702 6.18579E+00
 -1       703 3.06914E+01
 -1       704 3.06914E+01
 -1       705 2.55256E+01
 -1       706 6.89054E+00
 -1       707 4.25236E+00
 -1       708 3.53068E+00
 -1       709 3.08867E+00
 -1       710 2.78152E+00
 -1       711 2.54727E+00
 -1       712 2.35486E+00
 -1       713 2.18675E+00
 -1       714 2.14124E+00
 -1       715 2.24156E+00
 -1       716 2.33994E+00
 -1       717 2.43793E+00
 -1       718 2.53634E+00
 -1       719 2.63551E+00
 -1       720 2.75743E+00
 -1       721 2.87692E+00
 -1       722 3.25314E+00
 -1       723 4.50591E+00
 -1       724 9.53034E+00
 -1       725 2.00464E+01
 -1       726 8.64235E+01
 -1       727 8.64817E+01
 -1       728 2.99743E+01
 -1       729 7.79022E+00
 -1       730 3.49429E+00
 -1       731 6.18579E+00
 -1       732 3.06914E+01
 -1       733 3.06914E+01
 -1       734 2.55256E+01
 -1       735 6.89054E+00
 -1       736 4.25236E+00
 -1       737 3.53068E+00
 -1       738 3.08867E+00
 -1       739 2.78152E+00
 -1       740 2.54727E+00
 -1       741 2.35486E+00
 -1       742 2.18675E+00
 -1       743 2.14124E+00
 -1       744 2.24156E+00
 -1       745 2.33994E+00
 -1       746 2.43793E+00
 -1       747 2.53634E+00
 -1       748 2.63551E+00
 -1       749 2.75743E+00
 -1       750 2.87692E+00
 -1       751 3.25314E+00
 -1       752 4.50591E+00
 -1       753 9.53034E+00
 -1       754 2.00464E+01
 -1       755 8.64235E+01
 -1       756 8.64817E+01
 -1       757 2.99743E+01
 -1       758 7.79022E+00
 -1       759 3.49429E+00
 -1       760 6.18579E+00
 -1       761 3.06914E+01
 -1       762 3.06914E+01
 -1       763 2.55256E+01
 -1       764 6.89054E+00
 -1       765 4.25236E+00
 -1       766 3.53068E+00
 -1       767 3.08867E+00
 -1       768 2.78152E+00
 -1       769 2.54727E+00
 -1       770 2.35486E+00
 -1       771 2.18675E+00
 -1       772 2.14124E+00
 -1       773 2.24156E+00
 -1       774 2.33994E+00
 -1       775 2.43793E+00
 -1       776 2.53634E+00
 -1       777 2.63551E+00
 -1       778 2.75743E+00
 -1       779 2.87692E+00
 -1       780 3.25314E+00
 -1       781 4.50591E+00
 -1       782 9.53034E+00
 -1       783 2.00464E+01
 -1       784 8.64235E+01
 -1       785 8.64817E+01
 -1       786 2.99743E+01
 -1       787 7.79022E+00
 -1       788 3.49429E+00
 -1       789 6.18579E+00
 -1       790 3.06914E+01
 -1       791 3.06914E+01
 -1       792 2.55256E+01
 -1       793 6.89054E+00
 -1       794 4.25236E+00
 -1       795 3.53068E+00
 -1       796 3.08867E+00
 -1       797 2.78152E+00
 -1       798 2.54727E+00
 -1       799 2.35486E+00
 -1       800 2.18675E+00
 -1       801 2.14124E+00
 -1       802 2.24156E+00
 -1       803 2.33994E+00
 -1       804 2.43793E+00
 -1       805 2.53634E+00
 -1       806 2.63551E+00
 -1       807 2.75743E+00
 -1       808 2.87692E+00
 -1       809 3.25314E+00
 -1       810 4.50591E+00
 -1       811 9.53034E+00
 -1       812 2.00464E+01
 -1       813 8.64235E+01
 -1       814 8.64817E+01
 -1       815 2.99743E+01
 -1       816 7.79022E+00
 -1       817 3.49429E+00
 -1       818 6.18579E+00
 -1       819 3.06914E+01
 -1       820 3.06914E+01
 -1       821 2.55256E+01
 -1       822 6.89054E+00
 -1       823 4.25236E+00
 -1       824 3.53068E+00
 -1       825 3.08867E+00
 -1       826 2.78152E+00
 -1       827 2.54727E+00
 -1       828 2.35486E+00
 -1       829 2.18675E+00
 -1       830 2.14124E+00
 -1       831 2.24156E+00
 -1       832 2.33994E+00
 -1       833 2.43793E+00
 -1       834 2.53634E+00
 -1       835 2.63551E+00
 -1       836 2.75743E+00
 -1       837 2.87692E+00
 -1       838 3.25314E+00
 -1       839 4.50591E+00
 -1       840 9.53034E+00
 -1       841 2.00464E+01
 -1       842 8.64235E+01
 -1       843 8.64817E+01
 -1       844 2.99743E+01
 -1       845 7.79022E+00
 -1       846 3.49429E+00
 -1       847 6.18579E+00
 -1       848 3.06914E+01
 -1       849 3.06914E+01
 -1       850 2.55256E+01
 -1       851 6.89054E+00
 -1       852 4.25236E+00
 -1       853 3.53068E+00
 -1       854 3.08867E+00
 -1       855 2.78152E+00
 -1       856 2.54727E+00
 -1       857 2.35486E+00
 -1       858 2.18675E+00
 -1       859 2.14124E+00
 -1       860 2.24156E+00
 -1       861 2.33994E+00
 -1       862 2.43793E+00
 -1       863 2.53634E+00
 -1       864 2.63551E+00
 -1       865 2.75743E+00
 -1       866 2.87692E+00
 -1       867 3.25314E+00
 -1       868 4.50591E+00
 -1       869 9.53034E+00
 -1       870 2.00464E+01
 -1       871 8.64235E+01
 -1       872 8.64817E+01
 -1       873 8.64817E+01
 -1       874 8.64235E+01
 -1       875 2.00464E+01
 -1       876 9.53034E+00
 -1       877 4.50591E+00
 -1       878 3.25314E+00
 -1       879 2.87692E+00
 -1       880 2.75743E+00
 -1       881 2.63551E+00
 -1       882 2.53634E+00
 -1       883 2.43793E+00
 -1       884 2.33994E+00
 -1       885 2.24156E+00
 -1       886 2.14124E+00
 -1       887 2.18675E+00
 -1       888 2.35486E+00
 -1       889 2.54727E+00
 -1       890 2.78152E+00
 -1       891 3.08867E+00
 -1       892 3.53068E+00
 -1       893 4.25236E+00
 -1       894 6.89054E+00
 -1       895 2.55256E+01
 -1       896 3.06914E+01
 -1       897 3.06914E+01
 -1       898 6.18579E+00
 -1       899 3.49429E+00
 -1       900 7.79022E+00
 -1       901 2.99743E+01
 -1       902 2.99743E+01
 -1       903 7.79022E+00
 -1       904 3.49429E+00
 -1       905 6.18579E+00
 -1       906 3.06914E+01
 -1       907 3.06914E+01
 -1       908 2.55256E+01
 -1       909 6.89054E+00
 -1       910 4.25236E+00
 -1       911 3.53068E+00
 -1       912 3.08867E+00
 -1       913 2.78152E+00
 -1       914 2.54727E+00
 -1       915 2.35486E+00
 -1       916 2.18675E+00
 -1       917 2.14124E+00
 -1       918 2.24156E+00
 -1       919 2.33994E+00
 -1       920 2.43793E+00
 -1       921 2.53634E+00
 -1       922 2.63551E+00
 -1       923 2.75743E+00
 -1       924 2.87692E+00
 -1       925 3.25314E+00
 -1       926 4.50591E+00
 -1       927 9.53034E+00
 -1       928 2.00464E+01
 -1       929 8.64235E+01
 -1       930 8.64817E+01
 -3
    1PSTEP                        29           1           1          
    1PGM                1.000000E+00                                  
    1PGK                3.031914E+06                                  
    1PHID                         -1                                  
    1PSUBC                         0                                  
    1PMODE                         8                                  
  100CL  108 277.1268126         930                     2    8MODAL      1
 -4  DISP        4    1
 -5  D1          1    2    1    0
 -5  D2          1    2    2    0
 -5  D3          1    2    3    0
 -5  ALL         1    2    0    0    1ALL
 -1         1 0.00000E+00 0.00000E+00 0.00000E+00
 -1         2 0.00000E+00 0.00000E+00 0.00000E+00
 -1         3 1.75799E-03 1.57586E-01-3.51280E-03
 -1         4-1.75799E-03 1.57586E-01 3.51280E-03
 -1         5 0.00000E+00 0.00000E+00 0.00000E+00
 -1         6 0.00000E+00 0.00000E+00 0.00000E+00
 -1         7-1.75799E-03-1.57586E-01-3.51280E-03
 -1         8 1.75799E-03-1.57586E-01 3.51280E-03
 -1         9 0.00000E+00 0.00000E+00 0.00000E+00
 -1        10 1.71005E-03 1.68297E-01-3.47755E-03
 -1        11 0.00000E+00 0.00000E+00 0.00000E+00
 -1        12 0.00000E+00 0.00000E+00 0.00000E+00
 -1        13 3.62597E-02 1.68177E-01-7.05791E-02
 -1        14 3.82838E-02 1.57733E-01-7.05837E-02
 -1        15 0.00000E+00 0.00000E+00 0.00000E+00
 -1        16-1.71005E-03-1.68297E-01-3.47755E-03
 -1        17 0.00000E+00 0.00000E+00 0.00000E+00
 -1        18 0.00000E+00 0.00000E+00 0.00000E+00
 -1        19-3.82838E-02-1.57733E-01-7.05837E-02
 -1        20-3.62597E-02-1.68177E-01-7.05791E-02
 -1        21 0.00000E+00 0.00000E+00 0.00000E+00
 -1        22 0.00000E+00 0.00000E+00 0.00000E+00
 -1        23-3.62597E-02 1.68177E-01 7.05791E-02
 -1        24-3.82838E-02 1.57733E-01 7.05837E-02
 -1        25 0.00000E+00 0.00000E+00 0.00000E+00
 -1        26-1.71005E-03 1.68297E-01 3.47755E-03
 -1        27 0.00000E+00 0.00000E+00 0.00000E+00
 -1        28 0.00000E+00 0.00000E+00 0.00000E+00
 -1        29 0.00000E+00 0.00000E+00 0.00000E+00
 -1        30 1.71005E-03-1.68297E-01 3.47755E-03
 -1        31 3.62597E-02-1.68177E-01 7.05791E-02
 -1        32 3.82838E-02-1.57733E-01 7.05837E-02
 -1        33-4.24573E-04 5.87342E-03 1.44085E-04
 -1        34-6.99045E-04 1.96787E-02 4.63159E-04
 -1        35-8.55051E-04 3.83839E-02 8.96300E-04
 -1        36-8.95834E-04 5.92700E-02 1.37778E-03
 -1        37-8.34012E-04 7.98351E-02 1.84983E-03
 -1        38-6.81999E-04 9.78232E-02 2.26171E-03
 -1        39-4.58508E-04 1.11360E-01 2.57144E-03
 -1        40-1.84477E-04 1.19027E-01 2.74653E-03
 -1        41 1.16790E-04 1.19922E-01 2.76608E-03
 -1        42 4.21213E-04 1.13695E-01 2.62191E-03
 -1        43 7.05247E-04 1.00555E-01 2.31868E-03
 -1        44 9.47300E-04 8.12353E-02 1.87324E-03
 -1        45 1.12905E-03 5.69374E-02 1.31324E-03
 -1        46 1.23658E-03 2.92389E-02 6.75011E-04
 -1        47 1.26120E-03-1.80058E-05 9.70539E-07
 -1        48 1.19994E-03-2.88557E-02-6.63320E-04
 -1        49 1.05572E-03-5.52966E-02-1.27230E-03
 -1        50 8.37002E-04-7.74969E-02-1.78350E-03
 -1        51 5.57144E-04-9.38693E-02-2.16036E-03
 -1        52 2.33399E-04-1.03186E-01-2.37456E-03
 -1        53-1.14393E-04-1.04655E-01-2.40779E-03
 -1        54-4.65300E-04-9.79640E-02-2.25260E-03
 -1        55-7.98921E-04-8.32854E-02-1.91257E-03
 -1        56-1.09703E-03-6.12479E-02-1.40159E-03
 -1        57-1.34520E-03-3.28648E-02-7.42775E-04
 -1        58-1.53428E-03 5.72786E-04 3.25036E-05
 -1        59-1.66146E-03 3.76338E-02 8.85894E-04
 -1        60-1.73191E-03 7.69146E-02 1.77337E-03
 -1        61-1.75420E-03 1.17192E-01 2.65798E-03
 -1        62 4.24573E-04 5.87342E-03-1.44085E-04
 -1        63 6.99045E-04 1.96787E-02-4.63159E-04
 -1        64 8.55051E-04 3.83839E-02-8.96300E-04
 -1        65 8.95834E-04 5.92700E-02-1.37778E-03
 -1        66 8.34012E-04 7.98351E-02-1.84983E-03
 -1        67 6.81999E-04 9.78232E-02-2.26171E-03
 -1        68 4.58508E-04 1.11360E-01-2.57144E-03
 -1        69 1.84477E-04 1.19027E-01-2.74653E-03
 -1        70-1.16790E-04 1.19922E-01-2.76608E-03
 -1        71-4.21213E-04 1.13695E-01-2.62191E-03
 -1        72-7.05247E-04 1.00555E-01-2.31868E-03
 -1        73-9.47300E-04 8.12353E-02-1.87324E-03
 -1        74-1.12905E-03 5.69374E-02-1.31324E-03
 -1        75-1.23658E-03 2.92389E-02-6.75011E-04
 -1        76-1.26120E-03-1.80058E-05-9.70544E-07
 -1        77-1.19994E-03-2.88557E-02 6.63320E-04
 -1        78-1.05572E-03-5.52966E-02 1.27230E-03
 -1        79-8.37002E-04-7.74969E-02 1.78350E-03
 -1        80-5.57144E-04-9.38693E-02 2.16036E-03
 -1        81-2.33399E-04-1.03186E-01 2.37456E-03
 -1        82 1.14393E-04-1.04655E-01 2.40779E-03
 -1        83 4.65300E-04-9.79640E-02 2.25260E-03
 -1        84 7.98921E-04-8.32854E-02 1.91257E-03
 -1        85 1.09703E-03-6.12479E-02 1.40159E-03
 -1        86 1.34520E-03-3.28648E-02 7.42775E-04
 -1        87 1.53428E-03 5.72786E-04-3.25036E-05
 -1        88 1.66146E-03 3.76338E-02-8.85894E-04
 -1        89 1.73191E-03 7.69146E-02-1.77337E-03
 -1        90 1.75420E-03 1.17192E-01-2.65798E-03
 -1        91 0.00000E+00 0.00000E+00 0.00000E+00
 -1        92 0.00000E+00 0.00000E+00 0.00000E+00
 -1        93 0.00000E+00 0.00000E+00 0.00000E+00
 -1        94 0.00000E+00 0.00000E+00 0.00000E+00
 -1        95 0.00000E+00 0.00000E+00 0.00000E+00
 -1        96 0.00000E+00 0.00000E+00 0.00000E+00
 -1        97-4.24573E-04-5.87342E-03-1.44085E-04
 -1        98-6.99045E-04-1.96787E-02-4.63159E-04
 -1        99-8.55051E-04-3.83839E-02-8.96300E-04
 -1       100-8.95834E-04-5.92700E-02-1.37778E-03
 -1       101-8.34012E-04-7.98351E-02-1.84983E-03
 -1       102-6.81999E-04-9.78232E-02-2.26171E-03
 -1       103-4.58508E-04-1.11360E-01-2.57144E-03
 -1       104-1.84477E-04-1.19027E-01-2.74653E-03
 -1       105 1.16790E-04-1.19922E-01-2.76608E-03
 -1       106 4.21213E-04-1.13695E-01-2.62191E-03
 -1       107 7.05247E-04-1.00555E-01-2.31868E-03
 -1       108 9.47300E-04-8.12353E-02-1.87324E-03
 -1       109 1.12905E-03-5.69374E-02-1.31324E-03
 -1       110 1.23658E-03-2.92389E-02-6.75011E-04
 -1       111 1.26120E-03 1.80058E-05-9.70544E-07
 -1       112 1.19994E-03 2.88557E-02 6.63320E-04
 -1       113 1.05572E-03 5.52966E-02 1.27230E-03
 -1       114 8.37002E-04 7.74969E-02 1.78350E-03
 -1       115 5.57144E-04 9.38693E-02 2.16036E-03
 -1       116 2.33399E-04 1.03186E-01 2.37456E-03
 -1       117-1.14393E-04 1.04655E-01 2.40779E-03
 -1       118-4.65300E-04 9.79640E-02 2.25260E-03
 -1       119-7.98921E-04 8.32854E-02 1.91257E-03
 -1       120-1.09703E-03 6.12479E-02 1.40159E-03
 -1       121-1.34520E-03 3.28648E-02 7.42775E-04
 -1       122-1.53428E-03-5.72786E-04-3.25036E-05
 -1       123-1.66146E-03-3.76338E-02-8.85894E-04
 -1       124-1.73191E-03-7.69146E-02-1.77337E-03
 -1       125-1.75420E-03-1.17192E-01-2.65798E-03
 -1       126 8.92257E-04 7.98940E-02-3.64077E-03
 -1       127-2.88908E-13-1.34739E-12-3.69925E-03
 -1       128-8.92257E-04-7.98940E-02-3.64077E-03
 -1       129 4.24573E-04-5.87342E-03 1.44085E-04
 -1       130 6.99045E-04-1.96787E-02 4.63159E-04
 -1       131 8.55051E-04-3.83839E-02 8.96300E-04
 -1       132 8.95834E-04-5.92700E-02 1.37778E-03
 -1       133 8.34012E-04-7.98351E-02 1.84983E-03
 -1       134 6.81999E-04-9.78232E-02 2.26171E-03
 -1       135 4.58508E-04-1.11360E-01 2.57144E-03
 -1       136 1.84477E-04-1.19027E-01 2.74653E-03
 -1       137-1.16790E-04-1.19922E-01 2.76608E-03
 -1       138-4.21213E-04-1.13695E-01 2.62191E-03
 -1       139-7.05247E-04-1.00555E-01 2.31868E-03
 -1       140-9.47300E-04-8.12353E-02 1.87324E-03
 -1       141-1.12905E-03-5.69374E-02 1.31324E-03
 -1       142-1.23658E-03-2.92389E-02 6.75011E-04
 -1       143-1.26120E-03 1.80058E-05 9.70539E-07
 -1       144-1.19994E-03 2.88557E-02-6.63320E-04
 -1       145-1.05572E-03 5.52966E-02-1.27230E-03
 -1       146-8.37002E-04 7.74969E-02-1.78350E-03
 -1       147-5.57144E-04 9.38693E-02-2.16036E-03
 -1       148-2.33399E-04 1.03186E-01-2.37456E-03
 -1       149 1.14393E-04 1.04655E-01-2.40779E-03
 -1       150 4.65300E-04 9.79640E-02-2.25260E-03
 -1       151 7.98921E-04 8.32854E-02-1.91257E-03
 -1       152 1.09703E-03 6.12479E-02-1.40159E-03
 -1       153 1.34520E-03 3.28648E-02-7.42775E-04
 -1       154 1.53428E-03-5.72786E-04 3.25036E-05
 -1       155 1.66146E-03-3.76338E-02 8.85894E-04
 -1       156 1.73191E-03-7.69146E-02 1.77337E-03
 -1       157 1.75420E-03-1.17192E-01 2.65798E-03
 -1       158 8.92257E-04-7.98940E-02 3.64077E-03
 -1       159-2.56531E-13-1.34743E-12 3.69925E-03
 -1       160-8.92257E-04 7.98940E-02 3.64077E-03
 -1       161 3.22334E-04 6.32508E-03-1.37286E-04
 -1       162 6.09895E-04 2.11729E-02-4.71404E-04
 -1       163 7.63519E-04 4.12573E-02-9.02612E-04
 -1       164 8.09352E-04 6.36592E-02-1.38604E-03
 -1       165 7.57952E-04 8.57046E-02-1.85774E-03
 -1       166 6.20820E-04 1.04983E-01-2.26947E-03
 -1       167 4.15934E-04 1.19490E-01-2.57896E-03
 -1       168 1.63096E-04 1.27704E-01-2.75376E-03
 -1       169-1.15766E-04 1.28656E-01-2.77291E-03
 -1       170-3.98034E-04 1.21973E-01-2.62815E-03
 -1       171-6.61626E-04 1.07874E-01-2.32411E-03
 -1       172-8.86309E-04 8.71487E-02-1.87765E-03
 -1       173-1.05491E-03 6.10840E-02-1.31646E-03
 -1       174-1.15439E-03 3.13725E-02-6.76925E-04
 -1       175-1.17657E-03-1.00821E-05-1.55308E-06
 -1       176-1.11865E-03-3.09424E-02 6.64010E-04
 -1       177-9.83273E-04-5.93031E-02 1.27412E-03
 -1       178-7.78291E-04-8.31146E-02 1.78622E-03
 -1       179-5.16103E-04-1.00674E-01 2.16367E-03
 -1       180-2.12727E-04-1.10665E-01 2.37811E-03
 -1       181 1.13417E-04-1.12237E-01 2.41113E-03
 -1       182 4.42913E-04-1.05052E-01 2.25521E-03
 -1       183 7.56871E-04-8.92952E-02 1.91375E-03
 -1       184 1.03849E-03-6.56357E-02 1.40049E-03
 -1       185 1.27460E-03-3.51594E-02 7.38510E-04
 -1       186 1.45712E-03 7.38735E-04-4.01933E-05
 -1       187 1.58407E-03 4.04925E-02-8.95410E-04
 -1       188 1.66067E-03 8.25218E-02-1.77867E-03
 -1       189 1.69563E-03 1.25447E-01-2.64696E-03
 -1       190 0.00000E+00 0.00000E+00 0.00000E+00
 -1       191 0.00000E+00 0.00000E+00 0.00000E+00
 -1       192 1.88955E-02 1.68201E-01-3.72910E-02
 -1       193 7.43987E-03 7.44259E-03-2.74712E-03
 -1       194 1.31934E-02 2.18019E-02-9.94361E-03
 -1       195 1.64558E-02 4.15633E-02-1.92581E-02
 -1       196 1.74281E-02 6.36696E-02-2.94486E-02
 -1       197 1.62886E-02 8.54435E-02-3.93714E-02
 -1       198 1.33399E-02 1.04497E-01-4.80207E-02
 -1       199 8.94395E-03 1.18833E-01-5.45183E-02
 -1       200 3.52802E-03 1.26937E-01-5.81823E-02
 -1       201-2.44118E-03 1.27845E-01-5.85694E-02
 -1       202-8.48087E-03 1.21183E-01-5.55030E-02
 -1       203-1.41198E-02 1.07168E-01-4.90790E-02
 -1       204-1.89261E-02 8.65795E-02-3.96519E-02
 -1       205-2.25334E-02 6.06965E-02-2.78054E-02
 -1       206-2.46629E-02 3.11976E-02-1.43072E-02
 -1       207-2.51405E-02 4.37410E-05-5.41931E-05
 -1       208-2.39066E-02-3.06595E-02 1.39904E-02
 -1       209-2.10179E-02-5.88063E-02 2.68634E-02
 -1       210-1.66424E-02-8.24331E-02 3.76668E-02
 -1       211-1.10453E-02-9.98493E-02 4.56274E-02
 -1       212-4.56924E-03-1.09746E-01 5.01464E-02
 -1       213 2.39161E-03-1.11279E-01 5.08340E-02
 -1       214 9.42173E-03-1.04111E-01 4.75271E-02
 -1       215 1.61166E-02-8.84212E-02 4.02894E-02
 -1       216 2.21164E-02-6.48709E-02 2.93998E-02
 -1       217 2.71390E-02-3.45336E-02 1.53432E-02
 -1       218 3.10114E-02 1.21070E-03-1.17855E-03
 -1       219 3.36950E-02 4.08077E-02-1.92050E-02
 -1       220 3.52938E-02 8.26891E-02-3.75106E-02
 -1       221 3.60464E-02 1.25473E-01-5.48236E-02
 -1       222 8.15749E-03 7.01137E-03-3.15249E-03
 -1       223 1.43065E-02 2.02948E-02-1.01133E-02
 -1       224 1.77610E-02 3.86552E-02-1.93562E-02
 -1       225 1.87694E-02 5.92367E-02-2.94394E-02
 -1       226 1.75267E-02 7.95264E-02-3.92772E-02
 -1       227 1.43498E-02 9.72858E-02-4.78532E-02
 -1       228 9.62236E-03 1.10650E-01-5.42959E-02
 -1       229 3.80039E-03 1.18206E-01-5.79247E-02
 -1       230-2.61580E-03 1.19058E-01-5.82980E-02
 -1       231-9.10768E-03 1.12857E-01-5.52392E-02
 -1       232-1.51688E-02 9.98052E-02-4.88431E-02
 -1       233-2.03350E-02 8.06313E-02-3.94619E-02
 -1       234-2.42125E-02 5.65250E-02-2.76758E-02
 -1       235-2.65018E-02 2.90503E-02-1.42481E-02
 -1       236-2.70160E-02 3.37641E-05-7.08817E-05
 -1       237-2.56909E-02-2.85635E-02 1.38979E-02
 -1       238-2.25878E-02-5.47802E-02 2.67001E-02
 -1       239-1.78871E-02-7.67874E-02 3.74426E-02
 -1       240-1.18739E-02-9.30104E-02 4.53560E-02
 -1       241-4.91652E-03-1.02231E-01 4.98444E-02
 -1       242 2.56212E-03-1.03661E-01 5.05197E-02
 -1       243 1.01164E-02-9.69902E-02 4.72189E-02
 -1       244 1.73126E-02-8.23876E-02 4.00047E-02
 -1       245 2.37636E-02-6.04735E-02 2.91533E-02
 -1       246 2.91603E-02-3.22488E-02 1.51455E-02
 -1       247 3.32988E-02 1.01238E-03-1.32199E-03
 -1       248 3.61034E-02 3.79032E-02-1.92950E-02
 -1       249 3.76526E-02 7.70482E-02-3.75546E-02
 -1       250 3.82030E-02 1.17251E-01-5.48377E-02
 -1       251 2.00606E-02 1.57671E-01-3.72839E-02
 -1       252-1.69563E-03-1.25447E-01-2.64696E-03
 -1       253-1.66067E-03-8.25218E-02-1.77867E-03
 -1       254-1.58407E-03-4.04925E-02-8.95410E-04
 -1       255-1.45712E-03-7.38735E-04-4.01933E-05
 -1       256-1.27460E-03 3.51594E-02 7.38510E-04
 -1       257-1.03849E-03 6.56357E-02 1.40049E-03
 -1       258-7.56871E-04 8.92952E-02 1.91375E-03
 -1       259-4.42913E-04 1.05052E-01 2.25521E-03
 -1       260-1.13417E-04 1.12237E-01 2.41113E-03
 -1       261 2.12727E-04 1.10665E-01 2.37811E-03
 -1       262 5.16103E-04 1.00674E-01 2.16367E-03
 -1       263 7.78291E-04 8.31146E-02 1.78622E-03
 -1       264 9.83273E-04 5.93031E-02 1.27412E-03
 -1       265 1.11865E-03 3.09424E-02 6.64010E-04
 -1       266 1.17657E-03 1.00821E-05-1.55308E-06
 -1       267 1.15439E-03-3.13725E-02-6.76925E-04
 -1       268 1.05491E-03-6.10840E-02-1.31646E-03
 -1       269 8.86309E-04-8.71487E-02-1.87765E-03
 -1       270 6.61626E-04-1.07874E-01-2.32411E-03
 -1       271 3.98034E-04-1.21973E-01-2.62815E-03
 -1       272 1.15766E-04-1.28656E-01-2.77291E-03
 -1       273-1.63096E-04-1.27704E-01-2.75376E-03
 -1       274-4.15934E-04-1.19490E-01-2.57896E-03
 -1       275-6.20820E-04-1.04983E-01-2.26947E-03
 -1       276-7.57952E-04-8.57046E-02-1.85774E-03
 -1       277-8.09352E-04-6.36592E-02-1.38604E-03
 -1       278-7.63519E-04-4.12573E-02-9.02612E-04
 -1       279-6.09895E-04-2.11729E-02-4.71404E-04
 -1       280-3.22334E-04-6.32508E-03-1.37286E-04
 -1       281 0.00000E+00 0.00000E+00 0.00000E+00
 -1       282 0.00000E+00 0.00000E+00 0.00000E+00
 -1       283-8.15749E-03-7.01137E-03-3.15249E-03
 -1       284-1.43065E-02-2.02948E-02-1.01133E-02
 -1       285-1.77610E-02-3.86552E-02-1.93562E-02
 -1       286-1.87694E-02-5.92367E-02-2.94394E-02
 -1       287-1.75267E-02-7.95264E-02-3.92772E-02
 -1       288-1.43498E-02-9.72858E-02-4.78532E-02
 -1       289-9.62236E-03-1.10650E-01-5.42959E-02
 -1       290-3.80039E-03-1.18206E-01-5.79247E-02
 -1       291 2.61580E-03-1.19058E-01-5.82980E-02
 -1       292 9.10768E-03-1.12857E-01-5.52392E-02
 -1       293 1.51688E-02-9.98052E-02-4.88431E-02
 -1       294 2.03350E-02-8.06313E-02-3.94619E-02
 -1       295 2.42125E-02-5.65250E-02-2.76758E-02
 -1       296 2.65018E-02-2.90503E-02-1.42481E-02
 -1       297 2.70160E-02-3.37641E-05-7.08817E-05
 -1       298 2.56909E-02 2.85635E-02 1.38979E-02
 -1       299 2.25878E-02 5.47802E-02 2.67001E-02
 -1       300 1.78871E-02 7.67874E-02 3.74426E-02
 -1       301 1.18739E-02 9.30104E-02 4.53560E-02
 -1       302 4.91652E-03 1.02231E-01 4.98444E-02
 -1       303-2.56212E-03 1.03661E-01 5.05197E-02
 -1       304-1.01164E-02 9.69902E-02 4.72189E-02
 -1       305-1.73126E-02 8.23876E-02 4.00047E-02
 -1       306-2.37636E-02 6.04735E-02 2.91533E-02
 -1       307-2.91603E-02 3.22488E-02 1.51455E-02
 -1       308-3.32988E-02-1.01238E-03-1.32199E-03
 -1       309-3.61034E-02-3.79032E-02-1.92950E-02
 -1       310-3.76526E-02-7.70482E-02-3.75546E-02
 -1       311-3.82030E-02-1.17251E-01-5.48377E-02
 -1       312-2.00606E-02-1.57671E-01-3.72839E-02
 -1       313-7.43987E-03-7.44259E-03-2.74712E-03
 -1       314-1.31934E-02-2.18019E-02-9.94361E-03
 -1       315-1.64558E-02-4.15633E-02-1.92581E-02
 -1       316-1.74281E-02-6.36696E-02-2.94486E-02
 -1       317-1.62886E-02-8.54435E-02-3.93714E-02
 -1       318-1.33399E-02-1.04497E-01-4.80207E-02
 -1       319-8.94395E-03-1.18833E-01-5.45183E-02
 -1       320-3.52802E-03-1.26937E-01-5.81823E-02
 -1       321 2.44118E-03-1.27845E-01-5.85694E-02
 -1       322 8.48087E-03-1.21183E-01-5.55030E-02
 -1       323 1.41198E-02-1.07168E-01-4.90790E-02
 -1       324 1.89261E-02-8.65795E-02-3.96519E-02
 -1       325 2.25334E-02-6.06965E-02-2.78054E-02
 -1       326 2.46629E-02-3.11976E-02-1.43072E-02
 -1       327 2.51405E-02-4.37410E-05-5.41931E-05
 -1       328 2.39066E-02 3.06595E-02 1.39904E-02
 -1       329 2.10179E-02 5.88063E-02 2.68634E-02
 -1       330 1.66424E-02 8.24331E-02 3.76668E-02
 -1       331 1.10453E-02 9.98493E-02 4.56274E-02
 -1       332 4.56924E-03 1.09746E-01 5.01464E-02
 -1       333-2.39161E-03 1.11279E-01 5.08340E-02
 -1       334-9.42173E-03 1.04111E-01 4.75271E-02
 -1       335-1.61166E-02 8.84212E-02 4.02894E-02
 -1       336-2.21164E-02 6.48709E-02 2.93998E-02
 -1       337-2.71390E-02 3.45336E-02 1.53432E-02
 -1       338-3.10114E-02-1.21070E-03-1.17855E-03
 -1       339-3.36950E-02-4.08077E-02-1.92050E-02
 -1       340-3.52938E-02-8.26891E-02-3.75106E-02
 -1       341-3.60464E-02-1.25473E-01-5.48236E-02
 -1       342-1.88955E-02-1.68201E-01-3.72910E-02
 -1       343-7.43987E-03 7.44259E-03 2.74712E-03
 -1       344-1.31934E-02 2.18019E-02 9.94361E-03
 -1       345-1.64558E-02 4.15633E-02 1.92581E-02
 -1       346-1.74281E-02 6.36696E-02 2.94486E-02
 -1       347-1.62886E-02 8.54435E-02 3.93714E-02
 -1       348-1.33399E-02 1.04497E-01 4.80207E-02
 -1       349-8.94395E-03 1.18833E-01 5.45183E-02
 -1       350-3.52802E-03 1.26937E-01 5.81823E-02
 -1       351 2.44118E-03 1.27845E-01 5.85694E-02
 -1       352 8.48087E-03 1.21183E-01 5.55030E-02
 -1       353 1.41198E-02 1.07168E-01 4.90790E-02
 -1       354 1.89261E-02 8.65795E-02 3.96519E-02
 -1       355 2.25334E-02 6.06965E-02 2.78054E-02
 -1       356 2.46629E-02 3.11976E-02 1.43072E-02
 -1       357 2.51405E-02 4.37410E-05 5.41931E-05
 -1       358 2.39066E-02-3.06595E-02-1.39904E-02
 -1       359 2.10179E-02-5.88063E-02-2.68634E-02
 -1       360 1.66424E-02-8.24331E-02-3.76668E-02
 -1       361 1.10453E-02-9.98493E-02-4.56274E-02
 -1       362 4.56924E-03-1.09746E-01-5.01464E-02
 -1       363-2.39161E-03-1.11279E-01-5.08340E-02
 -1       364-9.42173E-03-1.04111E-01-4.75271E-02
 -1       365-1.61166E-02-8.84212E-02-4.02894E-02
 -1       366-2.21164E-02-6.48709E-02-2.93998E-02
 -1       367-2.71390E-02-3.45336E-02-1.53432E-02
 -1       368-3.10114E-02 1.21070E-03 1.17855E-03
 -1       369-3.36950E-02 4.08077E-02 1.92050E-02
 -1       370-3.52938E-02 8.26891E-02 3.75106E-02
 -1       371-3.60464E-02 1.25473E-01 5.48236E-02
 -1       372-8.15749E-03 7.01137E-03 3.15249E-03
 -1       373-1.43065E-02 2.02948E-02 1.01133E-02
 -1       374-1.77610E-02 3.86552E-02 1.93562E-02
 -1       375-1.87694E-02 5.92367E-02 2.94394E-02
 -1       376-1.75267E-02 7.95264E-02 3.92772E-02
 -1       377-1.43498E-02 9.72858E-02 4.78532E-02
 -1       378-9.62236E-03 1.10650E-01 5.42959E-02
 -1       379-3.80039E-03 1.18206E-01 5.79247E-02
 -1       380 2.61580E-03 1.19058E-01 5.82980E-02
 -1       381 9.10768E-03 1.12857E-01 5.52392E-02
 -1       382 1.51688E-02 9.98052E-02 4.88431E-02
 -1       383 2.03350E-02 8.06313E-02 3.94619E-02
 -1       384 2.42125E-02 5.65250E-02 2.76758E-02
 -1       385 2.65018E-02 2.90503E-02 1.42481E-02
 -1       386 2.70160E-02 3.37641E-05 7.08817E-05
 -1       387 2.56909E-02-2.85635E-02-1.38979E-02
 -1       388 2.25878E-02-5.47802E-02-2.67001E-02
 -1       389 1.78871E-02-7.67874E-02-3.74426E-02
 -1       390 1.18739E-02-9.30104E-02-4.53560E-02
 -1       391 4.91652E-03-1.02231E-01-4.98444E-02
 -1       392-2.56212E-03-1.03661E-01-5.05197E-02
 -1       393-1.01164E-02-9.69902E-02-4.72189E-02
 -1       394-1.73126E-02-8.23876E-02-4.00047E-02
 -1       395-2.37636E-02-6.04735E-02-2.91533E-02
 -1       396-2.91603E-02-3.22488E-02-1.51455E-02
 -1       397-3.32988E-02 1.01238E-03 1.32199E-03
 -1       398-3.61034E-02 3.79032E-02 1.92950E-02
 -1       399-3.76526E-02 7.70482E-02 3.75546E-02
 -1       400-3.82030E-02 1.17251E-01 5.48377E-02
 -1       401 0.00000E+00 0.00000E+00 0.00000E+00
 -1       402 0.00000E+00 0.00000E+00 0.00000E+00
 -1       403-1.88955E-02 1.68201E-01 3.72910E-02
 -1       404-3.22334E-04 6.32508E-03 1.37286E-04
 -1       405-6.09895E-04 2.11729E-02 4.71404E-04
 -1       406-7.63519E-04 4.12573E-02 9.02612E-04
 -1       407-8.09352E-04 6.36592E-02 1.38604E-03
 -1       408-7.57952E-04 8.57046E-02 1.85774E-03
 -1       409-6.20820E-04 1.04983E-01 2.26947E-03
 -1       410-4.15934E-04 1.19490E-01 2.57896E-03
 -1       411-1.63096E-04 1.27704E-01 2.75376E-03
 -1       412 1.15766E-04 1.28656E-01 2.77291E-03
 -1       413 3.98034E-04 1.21973E-01 2.62815E-03
 -1       414 6.61626E-04 1.07874E-01 2.32411E-03
 -1       415 8.86309E-04 8.71487E-02 1.87765E-03
 -1       416 1.05491E-03 6.10840E-02 1.31646E-03
 -1       417 1.15439E-03 3.13725E-02 6.76925E-04
 -1       418 1.17657E-03-1.00821E-05 1.55307E-06
 -1       419 1.11865E-03-3.09424E-02-6.64010E-04
 -1       420 9.83273E-04-5.93031E-02-1.27412E-03
 -1       421 7.78291E-04-8.31146E-02-1.78622E-03
 -1       422 5.16103E-04-1.00674E-01-2.16367E-03
 -1       423 2.12727E-04-1.10665E-01-2.37811E-03
 -1       424-1.13417E-04-1.12237E-01-2.41113E-03
 -1       425-4.42913E-04-1.05052E-01-2.25521E-03
 -1       426-7.56871E-04-8.92952E-02-1.91375E-03
 -1       427-1.03849E-03-6.56357E-02-1.40049E-03
 -1       428-1.27460E-03-3.51594E-02-7.38510E-04
 -1       429-1.45712E-03 7.38735E-04 4.01933E-05
 -1       430-1.58407E-03 4.04925E-02 8.95410E-04
 -1       431-1.66067E-03 8.25218E-02 1.77867E-03
 -1       432-1.69563E-03 1.25447E-01 2.64696E-03
 -1       433-2.00606E-02 1.57671E-01 3.72839E-02
 -1       434 0.00000E+00 0.00000E+00 0.00000E+00
 -1       435 0.00000E+00 0.00000E+00 0.00000E+00
 -1       436 1.69563E-03-1.25447E-01 2.64696E-03
 -1       437 1.66067E-03-8.25218E-02 1.77867E-03
 -1       438 1.58407E-03-4.04925E-02 8.95410E-04
 -1       439 1.45712E-03-7.38735E-04 4.01933E-05
 -1       440 1.27460E-03 3.51594E-02-7.38510E-04
 -1       441 1.03849E-03 6.56357E-02-1.40049E-03
 -1       442 7.56871E-04 8.92952E-02-1.91375E-03
 -1       443 4.42913E-04 1.05052E-01-2.25521E-03
 -1       444 1.13417E-04 1.12237E-01-2.41113E-03
 -1       445-2.12727E-04 1.10665E-01-2.37811E-03
 -1       446-5.16103E-04 1.00674E-01-2.16367E-03
 -1       447-7.78291E-04 8.31146E-02-1.78622E-03
 -1       448-9.83273E-04 5.93031E-02-1.27412E-03
 -1       449-1.11865E-03 3.09424E-02-6.64010E-04
 -1       450-1.17657E-03 1.00821E-05 1.55307E-06
 -1       451-1.15439E-03-3.13725E-02 6.76925E-04
 -1       452-1.05491E-03-6.10840E-02 1.31646E-03
 -1       453-8.86309E-04-8.71487E-02 1.87765E-03
 -1       454-6.61626E-04-1.07874E-01 2.32411E-03
 -1       455-3.98034E-04-1.21973E-01 2.62815E-03
 -1       456-1.15766E-04-1.28656E-01 2.77291E-03
 -1       457 1.63096E-04-1.27704E-01 2.75376E-03
 -1       458 4.15934E-04-1.19490E-01 2.57896E-03
 -1       459 6.20820E-04-1.04983E-01 2.26947E-03
 -1       460 7.57952E-04-8.57046E-02 1.85774E-03
 -1       461 8.09352E-04-6.36592E-02 1.38604E-03
 -1       462 7.63519E-04-4.12573E-02 9.02612E-04
 -1       463 6.09895E-04-2.11729E-02 4.71404E-04
 -1       464 3.22334E-04-6.32508E-03 1.37286E-04
 -1       465 1.88955E-02-1.68201E-01 3.72910E-02
 -1       466 7.43987E-03-7.44259E-03 2.74712E-03
 -1       467 1.31934E-02-2.18019E-02 9.94361E-03
 -1       468 1.64558E-02-4.15633E-02 1.92581E-02
 -1       469 1.74281E-02-6.36696E-02 2.94486E-02
 -1       470 1.62886E-02-8.54435E-02 3.93714E-02
 -1       471 1.33399E-02-1.04497E-01 4.80207E-02
 -1       472 8.94395E-03-1.18833E-01 5.45183E-02
 -1       473 3.52802E-03-1.26937E-01 5.81823E-02
 -1       474-2.44118E-03-1.27845E-01 5.85694E-02
 -1       475-8.48087E-03-1.21183E-01 5.55030E-02
 -1       476-1.41198E-02-1.07168E-01 4.90790E-02
 -1       477-1.89261E-02-8.65795E-02 3.96519E-02
 -1       478-2.25334E-02-6.06965E-02 2.78054E-02
 -1       479-2.46629E-02-3.11976E-02 1.43072E-02
 -1       480-2.51405E-02-4.37410E-05 5.41931E-05
 -1       481-2.39066E-02 3.06595E-02-1.39904E-02
 -1       482-2.10179E-02 5.88063E-02-2.68634E-02
 -1       483-1.66424E-02 8.24331E-02-3.76668E-02
 -1       484-1.10453E-02 9.98493E-02-4.56274E-02
 -1       485-4.56924E-03 1.09746E-01-5.01464E-02
 -1       486 2.39161E-03 1.11279E-01-5.08340E-02
 -1       487 9.42173E-03 1.04111E-01-4.75271E-02
 -1       488 1.61166E-02 8.84212E-02-4.02894E-02
 -1       489 2.21164E-02 6.48709E-02-2.93998E-02
 -1       490 2.71390E-02 3.45336E-02-1.53432E-02
 -1       491 3.10114E-02-1.21070E-03 1.17855E-03
 -1       492 3.36950E-02-4.08077E-02 1.92050E-02
 -1       493 3.52938E-02-8.26891E-02 3.75106E-02
 -1       494 3.60464E-02-1.25473E-01 5.48236E-02
 -1       495 8.15749E-03-7.01137E-03 3.15249E-03
 -1       496 1.43065E-02-2.02948E-02 1.01133E-02
 -1       497 1.77610E-02-3.86552E-02 1.93562E-02
 -1       498 1.87694E-02-5.92367E-02 2.94394E-02
 -1       499 1.75267E-02-7.95264E-02 3.92772E-02
 -1       500 1.43498E-02-9.72858E-02 4.78532E-02
 -1       501 9.62236E-03-1.10650E-01 5.42959E-02
 -1       502 3.80039E-03-1.18206E-01 5.79247E-02
 -1       503-2.61580E-03-1.19058E-01 5.82980E-02
 -1       504-9.10768E-03-1.12857E-01 5.52392E-02
 -1       505-1.51688E-02-9.98052E-02 4.88431E-02
 -1       506-2.03350E-02-8.06313E-02 3.94619E-02
 -1       507-2.42125E-02-5.65250E-02 2.76758E-02
 -1       508-2.65018E-02-2.90503E-02 1.42481E-02
 -1       509-2.70160E-02-3.37641E-05 7.08817E-05
 -1       510-2.56909E-02 2.85635E-02-1.38979E-02
 -1       511-2.25878E-02 5.47802E-02-2.67001E-02
 -1       512-1.78871E-02 7.67874E-02-3.74426E-02
 -1       513-1.18739E-02 9.30104E-02-4.53560E-02
 -1       514-4.91652E-03 1.02231E-01-4.98444E-02
 -1       515 2.56212E-03 1.03661E-01-5.05197E-02
 -1       516 1.01164E-02 9.69902E-02-4.72189E-02
 -1       517 1.73126E-02 8.23876E-02-4.00047E-02
 -1       518 2.37636E-02 6.04735E-02-2.91533E-02
 -1       519 2.91603E-02 3.22488E-02-1.51455E-02
 -1       520 3.32988E-02-1.01238E-03 1.32199E-03
 -1       521 3.61034E-02-3.79032E-02 1.92950E-02
 -1       522 3.76526E-02-7.70482E-02 3.75546E-02
 -1       523 3.82030E-02-1.17251E-01 5.48377E-02
 -1       524 2.00606E-02-1.57671E-01 3.72839E-02
 -1       525 2.31849E-04 2.78979E-03-1.36503E-04
 -1       526 3.66872E-04 9.77407E-03-4.52610E-04
 -1       527 4.38689E-04 1.91459E-02-8.82886E-04
 -1       528 4.58132E-04 2.96028E-02-1.36402E-03
 -1       529 4.25875E-04 3.99175E-02-1.83801E-03
 -1       530 3.48252E-04 4.89520E-02-2.25265E-03
 -1       531 2.34611E-04 5.57528E-02-2.56472E-03
 -1       532 9.59001E-05 5.96069E-02-2.74150E-03
 -1       533-5.62389E-05 6.00637E-02-2.76223E-03
 -1       534-2.09770E-04 5.69496E-02-2.61887E-03
 -1       535-3.52922E-04 5.03693E-02-2.31622E-03
 -1       536-4.74893E-04 4.06914E-02-1.87120E-03
 -1       537-5.66514E-04 2.85180E-02-1.31148E-03
 -1       538-6.20815E-04 1.46398E-02-6.73415E-04
 -1       539-6.33453E-04-2.01065E-05 5.61102E-07
 -1       540-6.02962E-04-1.44707E-02 6.64890E-04
 -1       541-5.30814E-04-2.77210E-02 1.27401E-03
 -1       542-4.21278E-04-3.88470E-02 1.78546E-03
 -1       543-2.81089E-04-4.70535E-02 2.16265E-03
 -1       544-1.18949E-04-5.17255E-02 2.37733E-03
 -1       545 5.51100E-05-5.24666E-02 2.41124E-03
 -1       546 2.30468E-04-4.91220E-02 2.25720E-03
 -1       547 3.96742E-04-4.17820E-02 1.91927E-03
 -1       548 5.44707E-04-3.07666E-02 1.41196E-03
 -1       549 6.67387E-04-1.65855E-02 7.58648E-04
 -1       550 7.61332E-04 1.27676E-04-1.10799E-05
 -1       551 8.27279E-04 1.87079E-02-8.64959E-04
 -1       552 8.67827E-04 3.85374E-02-1.77154E-03
 -1       553 8.87218E-04 5.90699E-02-2.70656E-03
 -1       554-1.79171E-14-7.11766E-14-1.25677E-04
 -1       555-3.48385E-14-2.41907E-13-4.50050E-04
 -1       556-5.01682E-14-4.53536E-13-8.83040E-04
 -1       557-6.49411E-14-6.63471E-13-1.36555E-03
 -1       558-7.87113E-14-8.49841E-13-1.84183E-03
 -1       559-9.15934E-14-1.00065E-12-2.25925E-03
 -1       560-1.03355E-13-1.10930E-12-2.57350E-03
 -1       561-1.14041E-13-1.15997E-12-2.75161E-03
 -1       562-1.24692E-13-1.13735E-12-2.77281E-03
 -1       563-1.35628E-13-1.03920E-12-2.62911E-03
 -1       564-1.46626E-13-8.88643E-13-2.32535E-03
 -1       565-1.57305E-13-7.10595E-13-1.87856E-03
 -1       566-1.67359E-13-5.25986E-13-1.31653E-03
 -1       567-1.76720E-13-3.30708E-13-6.75776E-04
 -1       568-1.85671E-13-1.10932E-13 1.07531E-06
 -1       569-1.94497E-13 1.26090E-13 6.68272E-04
 -1       570-2.03587E-13 3.59704E-13 1.28006E-03
 -1       571-2.13329E-13 5.65799E-13 1.79378E-03
 -1       572-2.23557E-13 7.11296E-13 2.17271E-03
 -1       573-2.33646E-13 7.83490E-13 2.38846E-03
 -1       574-2.43680E-13 7.88194E-13 2.42274E-03
 -1       575-2.52950E-13 7.39056E-13 2.26843E-03
 -1       576-2.61693E-13 6.34917E-13 1.92976E-03
 -1       577-2.69534E-13 4.73511E-13 1.42157E-03
 -1       578-2.75779E-13 2.57583E-13 7.67427E-04
 -1       579-2.80165E-13 1.23794E-15-3.59267E-06
 -1       580-2.83065E-13-2.91205E-13-8.61850E-04
 -1       581-2.85438E-13-6.17211E-13-1.77943E-03
 -1       582-2.87576E-13-9.73929E-13-2.73399E-03
 -1       583-2.31849E-04-2.78979E-03-1.36503E-04
 -1       584-3.66872E-04-9.77407E-03-4.52610E-04
 -1       585-4.38689E-04-1.91459E-02-8.82886E-04
 -1       586-4.58132E-04-2.96028E-02-1.36402E-03
 -1       587-4.25875E-04-3.99175E-02-1.83801E-03
 -1       588-3.48252E-04-4.89520E-02-2.25265E-03
 -1       589-2.34611E-04-5.57528E-02-2.56472E-03
 -1       590-9.59001E-05-5.96069E-02-2.74150E-03
 -1       591 5.62389E-05-6.00637E-02-2.76223E-03
 -1       592 2.09770E-04-5.69496E-02-2.61887E-03
 -1       593 3.52922E-04-5.03693E-02-2.31622E-03
 -1       594 4.74893E-04-4.06914E-02-1.87120E-03
 -1       595 5.66514E-04-2.85180E-02-1.31148E-03
 -1       596 6.20815E-04-1.46398E-02-6.73415E-04
 -1       597 6.33453E-04 2.01065E-05 5.61102E-07
 -1       598 6.02962E-04 1.44707E-02 6.64890E-04
 -1       599 5.30814E-04 2.77210E-02 1.27401E-03
 -1       600 4.21278E-04 3.88470E-02 1.78546E-03
 -1       601 2.81089E-04 4.70535E-02 2.16265E-03
 -1       602 1.18949E-04 5.17255E-02 2.37733E-03
 -1       603-5.51100E-05 5.24666E-02 2.41124E-03
 -1       604-2.30468E-04 4.91220E-02 2.25720E-03
 -1       605-3.96742E-04 4.17820E-02 1.91927E-03
 -1       606-5.44707E-04 3.07666E-02 1.41196E-03
 -1       607-6.67387E-04 1.65855E-02 7.58648E-04
 -1       608-7.61332E-04-1.27676E-04-1.10799E-05
 -1       609-8.27279E-04-1.87079E-02-8.64959E-04
 -1       610-8.67827E-04-3.85374E-02-1.77154E-03
 -1       611-8.87218E-04-5.90699E-02-2.70656E-03
 -1       612 2.31849E-04-2.78979E-03 1.36503E-04
 -1       613 3.66872E-04-9.77407E-03 4.52610E-04
 -1       614 4.38689E-04-1.91459E-02 8.82886E-04
 -1       615 4.58132E-04-2.96028E-02 1.36402E-03
 -1       616 4.25875E-04-3.99175E-02 1.83801E-03
 -1       617 3.48252E-04-4.89520E-02 2.25265E-03
 -1       618 2.34611E-04-5.57528E-02 2.56472E-03
 -1       619 9.59001E-05-5.96069E-02 2.74150E-03
 -1       620-5.62389E-05-6.00637E-02 2.76223E-03
 -1       621-2.09770E-04-5.69496E-02 2.61887E-03
 -1       622-3.52922E-04-5.03693E-02 2.31622E-03
 -1       623-4.74893E-04-4.06914E-02 1.87120E-03
 -1       624-5.66514E-04-2.85180E-02 1.31148E-03
 -1       625-6.20815E-04-1.46398E-02 6.73415E-04
 -1       626-6.33453E-04 2.01065E-05-5.61107E-07
 -1       627-6.02962E-04 1.44707E-02-6.64890E-04
 -1       628-5.30814E-04 2.77210E-02-1.27401E-03
 -1       629-4.21278E-04 3.88470E-02-1.78546E-03
 -1       630-2.81089E-04 4.70535E-02-2.16265E-03
 -1       631-1.18949E-04 5.17255E-02-2.37733E-03
 -1       632 5.51100E-05 5.24666E-02-2.41124E-03
 -1       633 2.30468E-04 4.91220E-02-2.25720E-03
 -1       634 3.96742E-04 4.17820E-02-1.91927E-03
 -1       635 5.44707E-04 3.07666E-02-1.41196E-03
 -1       636 6.67387E-04 1.65855E-02-7.58648E-04
 -1       637 7.61332E-04-1.27676E-04 1.10800E-05
 -1       638 8.27279E-04-1.87079E-02 8.64959E-04
 -1       639 8.67827E-04-3.85374E-02 1.77154E-03
 -1       640 8.87218E-04-5.90699E-02 2.70656E-03
 -1       641-6.77149E-15-7.06423E-14 1.25677E-04
 -1       642-1.77497E-14-2.41519E-13 4.50050E-04
 -1       643-3.16917E-14-4.53095E-13 8.83040E-04
 -1       644-4.77431E-14-6.63056E-13 1.36555E-03
 -1       645-6.41640E-14-8.49456E-13 1.84183E-03
 -1       646-8.03281E-14-1.00028E-12 2.25925E-03
 -1       647-9.62633E-14-1.10893E-12 2.57350E-03
 -1       648-1.12667E-13-1.15963E-12 2.75161E-03
 -1       649-1.30042E-13-1.13701E-12 2.77281E-03
 -1       650-1.46654E-13-1.03887E-12 2.62911E-03
 -1       651-1.61073E-13-8.88338E-13 2.32535E-03
 -1       652-1.73014E-13-7.10307E-13 1.87856E-03
 -1       653-1.83478E-13-5.25721E-13 1.31653E-03
 -1       654-1.94469E-13-3.30444E-13 6.75776E-04
 -1       655-2.05516E-13-1.10703E-13-1.07532E-06
 -1       656-2.14981E-13 1.26323E-13-6.68272E-04
 -1       657-2.22863E-13 3.59912E-13-1.28006E-03
 -1       658-2.28789E-13 5.65993E-13-1.79378E-03
 -1       659-2.32897E-13 7.11460E-13-2.17271E-03
 -1       660-2.36741E-13 7.83674E-13-2.38846E-03
 -1       661-2.41682E-13 7.88355E-13-2.42274E-03
 -1       662-2.46442E-13 7.39187E-13-2.26843E-03
 -1       663-2.50300E-13 6.35048E-13-1.92976E-03
 -1       664-2.53214E-13 4.73607E-13-1.42157E-03
 -1       665-2.55351E-13 2.57653E-13-7.67427E-04
 -1       666-2.56586E-13 1.31882E-15 3.59267E-06
 -1       667-2.56503E-13-2.91175E-13 8.61850E-04
 -1       668-2.56017E-13-6.17163E-13 1.77943E-03
 -1       669-2.55990E-13-9.73905E-13 2.73399E-03
 -1       670-2.31849E-04 2.78979E-03 1.36503E-04
 -1       671-3.66872E-04 9.77407E-03 4.52610E-04
 -1       672-4.38689E-04 1.91459E-02 8.82886E-04
 -1       673-4.58132E-04 2.96028E-02 1.36402E-03
 -1       674-4.25875E-04 3.99175E-02 1.83801E-03
 -1       675-3.48252E-04 4.89520E-02 2.25265E-03
 -1       676-2.34611E-04 5.57528E-02 2.56472E-03
 -1       677-9.59001E-05 5.96069E-02 2.74150E-03
 -1       678 5.62389E-05 6.00637E-02 2.76223E-03
 -1       679 2.09770E-04 5.69496E-02 2.61887E-03
 -1       680 3.52922E-04 5.03693E-02 2.31622E-03
 -1       681 4.74893E-04 4.06914E-02 1.87120E-03
 -1       682 5.66514E-04 2.85180E-02 1.31148E-03
 -1       683 6.20815E-04 1.46398E-02 6.73415E-04
 -1       684 6.33453E-04-2.01065E-05-5.61107E-07
 -1       685 6.02962E-04-1.44707E-02-6.64890E-04
 -1       686 5.30814E-04-2.77210E-02-1.27401E-03
 -1       687 4.21278E-04-3.88470E-02-1.78546E-03
 -1       688 2.81089E-04-4.70535E-02-2.16265E-03
 -1       689 1.18949E-04-5.17255E-02-2.37733E-03
 -1       690-5.51100E-05-5.24666E-02-2.41124E-03
 -1       691-2.30468E-04-4.91220E-02-2.25720E-03
 -1       692-3.96742E-04-4.17820E-02-1.91927E-03
 -1       693-5.44707E-04-3.07666E-02-1.41196E-03
 -1       694-6.67387E-04-1.65855E-02-7.58648E-04
 -1       695-7.61332E-04 1.27676E-04 1.10800E-05
 -1       696-8.27279E-04 1.87079E-02 8.64959E-04
 -1       697-8.67827E-04 3.85374E-02 1.77154E-03
 -1       698-8.87218E-04 5.90699E-02 2.70656E-03
 -1       699 3.49002E-03 6.62016E-03-1.45825E-03
 -1       700 6.65234E-03 2.13722E-02-5.19193E-03
 -1       701 8.34642E-03 4.13521E-02-1.00537E-02
 -1       702 8.87523E-03 6.36769E-02-1.53822E-02
 -1       703 8.31252E-03 8.56444E-02-2.05776E-02
 -1       704 6.81124E-03 1.04859E-01-2.51058E-02
 -1       705 4.56131E-03 1.19317E-01-2.85081E-02
 -1       706 1.78315E-03 1.27499E-01-3.04273E-02
 -1       707-1.28215E-03 1.28439E-01-3.06315E-02
 -1       708-4.38546E-03 1.21760E-01-2.90288E-02
 -1       709-7.28372E-03 1.07684E-01-2.56692E-02
 -1       710-9.75421E-03 8.69955E-02-2.07386E-02
 -1       711-1.16080E-02 6.09800E-02-1.45422E-02
 -1       712-1.27013E-02 3.13264E-02-7.48163E-03
 -1       713-1.29444E-02 6.12839E-06-2.60865E-05
 -1       714-1.23061E-02-3.08636E-02 7.32059E-03
 -1       715-1.08157E-02-5.91659E-02 1.40546E-02
 -1       716-8.55940E-03-8.29267E-02 1.97061E-02
 -1       717-5.67346E-03-1.00447E-01 2.38707E-02
 -1       718-2.33407E-03-1.10412E-01 2.62353E-02
 -1       719 1.25620E-03-1.11972E-01 2.65959E-02
 -1       720 4.88381E-03-1.04791E-01 2.48678E-02
 -1       721 8.34103E-03-8.90503E-02 2.10851E-02
 -1       722 1.14433E-02-6.54177E-02 1.53946E-02
 -1       723 1.40465E-02-3.49754E-02 8.05033E-03
 -1       724 1.60628E-02 8.85194E-04-5.82593E-04
 -1       725 1.74735E-02 4.05976E-02-1.00138E-02
 -1       726 1.83373E-02 8.25787E-02-1.96202E-02
 -1       727 1.87686E-02 1.25436E-01-2.87516E-02
 -1       728 3.85761E-03 6.17111E-03-1.64945E-03
 -1       729 7.24242E-03 1.98619E-02-5.28484E-03
 -1       730 9.04555E-03 3.84480E-02-1.01024E-02
 -1       731 9.59766E-03 5.92530E-02-1.53822E-02
 -1       732 8.98073E-03 7.97396E-02-2.05350E-02
 -1       733 7.35660E-03 9.76634E-02-2.50276E-02
 -1       734 4.92726E-03 1.11152E-01-2.84030E-02
 -1       735 1.92881E-03 1.18788E-01-3.03049E-02
 -1       736-1.37924E-03 1.19671E-01-3.05022E-02
 -1       737-4.72826E-03 1.13452E-01-2.89029E-02
 -1       738-7.85599E-03 1.00338E-01-2.55566E-02
 -1       739-1.05221E-02 8.10603E-02-2.06479E-02
 -1       740-1.25227E-02 5.68177E-02-1.44804E-02
 -1       741-1.37028E-02 2.91837E-02-7.45367E-03
 -1       742-1.39655E-02-4.02086E-06-3.44985E-05
 -1       743-1.32775E-02-2.87726E-02 7.27576E-03
 -1       744-1.16700E-02-5.51491E-02 1.39757E-02
 -1       745-9.23636E-03-7.72939E-02 1.95979E-02
 -1       746-6.12356E-03-9.36236E-02 2.37398E-02
 -1       747-2.52165E-03-1.02913E-01 2.60895E-02
 -1       748 1.35104E-03-1.04371E-01 2.64440E-02
 -1       749 5.26461E-03-9.76866E-02 2.47186E-02
 -1       750 8.99549E-03-8.30310E-02 2.09467E-02
 -1       751 1.23443E-02-6.10306E-02 1.52739E-02
 -1       752 1.51523E-02-3.26953E-02 7.95220E-03
 -1       753 1.73157E-02 6.88993E-04-6.55705E-04
 -1       754 1.87975E-02 3.77005E-02-1.00619E-02
 -1       755 1.96381E-02 7.69463E-02-1.96456E-02
 -1       756 1.99797E-02 1.17217E-01-2.87578E-02
 -1       757-3.85761E-03-6.17111E-03-1.64945E-03
 -1       758-7.24242E-03-1.98619E-02-5.28484E-03
 -1       759-9.04555E-03-3.84480E-02-1.01024E-02
 -1       760-9.59766E-03-5.92530E-02-1.53822E-02
 -1       761-8.98073E-03-7.97396E-02-2.05350E-02
 -1       762-7.35660E-03-9.76634E-02-2.50276E-02
 -1       763-4.92726E-03-1.11152E-01-2.84030E-02
 -1       764-1.92881E-03-1.18788E-01-3.03049E-02
 -1       765 1.37924E-03-1.19671E-01-3.05022E-02
 -1       766 4.72826E-03-1.13452E-01-2.89029E-02
 -1       767 7.85599E-03-1.00338E-01-2.55566E-02
 -1       768 1.05221E-02-8.10603E-02-2.06479E-02
 -1       769 1.25227E-02-5.68177E-02-1.44804E-02
 -1       770 1.37028E-02-2.91837E-02-7.45367E-03
 -1       771 1.39655E-02 4.02086E-06-3.44985E-05
 -1       772 1.32775E-02 2.87726E-02 7.27576E-03
 -1       773 1.16700E-02 5.51491E-02 1.39757E-02
 -1       774 9.23636E-03 7.72939E-02 1.95979E-02
 -1       775 6.12356E-03 9.36236E-02 2.37398E-02
 -1       776 2.52165E-03 1.02913E-01 2.60895E-02
 -1       777-1.35104E-03 1.04371E-01 2.64440E-02
 -1       778-5.26461E-03 9.76866E-02 2.47186E-02
 -1       779-8.99549E-03 8.30310E-02 2.09467E-02
 -1       780-1.23443E-02 6.10306E-02 1.52739E-02
 -1       781-1.51523E-02 3.26953E-02 7.95220E-03
 -1       782-1.73157E-02-6.88993E-04-6.55705E-04
 -1       783-1.87975E-02-3.77005E-02-1.00619E-02
 -1       784-1.96381E-02-7.69463E-02-1.96456E-02
 -1       785-1.99797E-02-1.17217E-01-2.87578E-02
 -1       786-3.49002E-03-6.62016E-03-1.45825E-03
 -1       787-6.65234E-03-2.13722E-02-5.19193E-03
 -1       788-8.34642E-03-4.13521E-02-1.00537E-02
 -1       789-8.87523E-03-6.36769E-02-1.53822E-02
 -1       790-8.31252E-03-8.56444E-02-2.05776E-02
 -1       791-6.81124E-03-1.04859E-01-2.51058E-02
 -1       792-4.56131E-03-1.19317E-01-2.85081E-02
 -1       793-1.78315E-03-1.27499E-01-3.04273E-02
 -1       794 1.28215E-03-1.28439E-01-3.06315E-02
 -1       795 4.38546E-03-1.21760E-01-2.90288E-02
 -1       796 7.28372E-03-1.07684E-01-2.56692E-02
 -1       797 9.75421E-03-8.69955E-02-2.07386E-02
 -1       798 1.16080E-02-6.09800E-02-1.45422E-02
 -1       799 1.27013E-02-3.13264E-02-7.48163E-03
 -1       800 1.29444E-02-6.12839E-06-2.60865E-05
 -1       801 1.23061E-02 3.08636E-02 7.32059E-03
 -1       802 1.08157E-02 5.91659E-02 1.40546E-02
 -1       803 8.55940E-03 8.29267E-02 1.97061E-02
 -1       804 5.67346E-03 1.00447E-01 2.38707E-02
 -1       805 2.33407E-03 1.10412E-01 2.62353E-02
 -1       806-1.25620E-03 1.11972E-01 2.65959E-02
 -1       807-4.88381E-03 1.04791E-01 2.48678E-02
 -1       808-8.34103E-03 8.90503E-02 2.10851E-02
 -1       809-1.14433E-02 6.54177E-02 1.53946E-02
 -1       810-1.40465E-02 3.49754E-02 8.05033E-03
 -1       811-1.60628E-02-8.85194E-04-5.82593E-04
 -1       812-1.74735E-02-4.05976E-02-1.00138E-02
 -1       813-1.83373E-02-8.25787E-02-1.96202E-02
 -1       814-1.87686E-02-1.25436E-01-2.87516E-02
 -1       815-3.49002E-03 6.62016E-03 1.45825E-03
 -1       816-6.65234E-03 2.13722E-02 5.19193E-03
 -1       817-8.34642E-03 4.13521E-02 1.00537E-02
 -1       818-8.87523E-03 6.36769E-02 1.53822E-02
 -1       819-8.31252E-03 8.56444E-02 2.05776E-02
 -1       820-6.81124E-03 1.04859E-01 2.51058E-02
 -1       821-4.56131E-03 1.19317E-01 2.85081E-02
 -1       822-1.78315E-03 1.27499E-01 3.04273E-02
 -1       823 1.28215E-03 1.28439E-01 3.06315E-02
 -1       824 4.38546E-03 1.21760E-01 2.90288E-02
 -1       825 7.28372E-03 1.07684E-01 2.56692E-02
 -1       826 9.75421E-03 8.69955E-02 2.07386E-02
 -1       827 1.16080E-02 6.09800E-02 1.45422E-02
 -1       828 1.27013E-02 3.13264E-02 7.48163E-03
 -1       829 1.29444E-02 6.12839E-06 2.60865E-05
 -1       830 1.23061E-02-3.08636E-02-7.32059E-03
 -1       831 1.08157E-02-5.91659E-02-1.40546E-02
 -1       832 8.55940E-03-8.29267E-02-1.97061E-02
 -1       833 5.67346E-03-1.00447E-01-2.38707E-02
 -1       834 2.33407E-03-1.10412E-01-2.62353E-02
 -1       835-1.25620E-03-1.11972E-01-2.65959E-02
 -1       836-4.88381E-03-1.04791E-01-2.48678E-02
 -1       837-8.34103E-03-8.90503E-02-2.10851E-02
 -1       838-1.14433E-02-6.54177E-02-1.53946E-02
 -1       839-1.40465E-02-3.49754E-02-8.05033E-03
 -1       840-1.60628E-02 8.85194E-04 5.82593E-04
 -1       841-1.74735E-02 4.05976E-02 1.00138E-02
 -1       842-1.83373E-02 8.25787E-02 1.96202E-02
 -1       843-1.87686E-02 1.25436E-01 2.87516E-02
 -1       844-3.85761E-03 6.17111E-03 1.64945E-03
 -1       845-7.24242E-03 1.98619E-02 5.28484E-03
 -1       846-9.04555E-03 3.84480E-02 1.01024E-02
 -1       847-9.59766E-03 5.92530E-02 1.53822E-02
 -1       848-8.98073E-03 7.97396E-02 2.05350E-02
 -1       849-7.35660E-03 9.76634E-02 2.50276E-02
 -1       850-4.92726E-03 1.11152E-01 2.84030E-02
 -1       851-1.92881E-03 1.18788E-01 3.03049E-02
 -1       852 1.37924E-03 1.19671E-01 3.05022E-02
 -1       853 4.72826E-03 1.13452E-01 2.89029E-02
 -1       854 7.85599E-03 1.00338E-01 2.55566E-02
 -1       855 1.05221E-02 8.10603E-02 2.06479E-02
 -1       856 1.25227E-02 5.68177E-02 1.44804E-02
 -1       857 1.37028E-02 2.91837E-02 7.45367E-03
 -1       858 1.39655E-02-4.02086E-06 3.44985E-05
 -1       859 1.32775E-02-2.87726E-02-7.27576E-03
 -1       860 1.16700E-02-5.51491E-02-1.39757E-02
 -1       861 9.23636E-03-7.72939E-02-1.95979E-02
 -1       862 6.12356E-03-9.36236E-02-2.37398E-02
 -1       863 2.52165E-03-1.02913E-01-2.60895E-02
 -1       864-1.35104E-03-1.04371E-01-2.64440E-02
 -1       865-5.26461E-03-9.76866E-02-2.47186E-02
 -1       866-8.99549E-03-8.30310E-02-2.09467E-02
 -1       867-1.23443E-02-6.10306E-02-1.52739E-02
 -1       868-1.51523E-02-3.26953E-02-7.95220E-03
 -1       869-1.73157E-02 6.88993E-04 6.55705E-04
 -1       870-1.87975E-02 3.77005E-02 1.00619E-02
 -1       871-1.96381E-02 7.69463E-02 1.96456E-02
 -1       872-1.99797E-02 1.17217E-01 2.87578E-02
 -1       873 1.87686E-02-1.25436E-01 2.87516E-02
 -1       874 1.83373E-02-8.25787E-02 1.96202E-02
 -1       875 1.74735E-02-4.05976E-02 1.00138E-02
 -1       876 1.60628E-02-8.85194E-04 5.82593E-04
 -1       877 1.40465E-02 3.49754E-02-8.05033E-03
 -1       878 1.14433E-02 6.54177E-02-1.53946E-02
 -1       879 8.34103E-03 8.90503E-02-2.10851E-02
 -1       880 4.88381E-03 1.04791E-01-2.48678E-02
 -1       881 1.25620E-03 1.11972E-01-2.65959E-02
 -1       882-2.33407E-03 1.10412E-01-2.62353E-02
 -1       883-5.67346E-03 1.00447E-01-2.38707E-02
 -1       884-8.55940E-03 8.29267E-02-1.97061E-02
 -1       885-1.08157E-02 5.91659E-02-1.40546E-02
 -1       886-1.23061E-02 3.08636E-02-7.32059E-03
 -1       887-1.29444E-02-6.12839E-06 2.60865E-05
 -1       888-1.27013E-02-3.13264E-02 7.48163E-03
 -1       889-1.16080E-02-6.09800E-02 1.45422E-02
 -1       890-9.75421E-03-8.69955E-02 2.07386E-02
 -1       891-7.28372E-03-1.07684E-01 2.56692E-02
 -1       892-4.38546E-03-1.21760E-01 2.90288E-02
 -1       893-1.28215E-03-1.28439E-01 3.06315E-02
 -1       894 1.78315E-03-1.27499E-01 3.04273E-02
 -1       895 4.56131E-03-1.19317E-01 2.85081E-02
 -1       896 6.81124E-03-1.04859E-01 2.51058E-02
 -1       897 8.31252E-03-8.56444E-02 2.05776E-02
 -1       898 8.87523E-03-6.36769E-02 1.53822E-02
 -1       899 8.34642E-03-4.13521E-02 1.00537E-02
 -1       900 6.65234E-03-2.13722E-02 5.19193E-03
 -1       901 3.49002E-03-6.62016E-03 1.45825E-03
 -1       902 3.85761E-03-6.17111E-03 1.64945E-03
 -1       903 7.24242E-03-1.98619E-02 5.28484E-03
 -1       904 9.04555E-03-3.84480E-02 1.01024E-02
 -1       905 9.59766E-03-5.92530E-02 1.53822E-02
 -1       906 8.98073E-03-7.97396E-02 2.05350E-02
 -1       907 7.35660E-03-9.76634E-02 2.50276E-02
 -1       908 4.92726E-03-1.11152E-01 2.84030E-02
 -1       909 1.92881E-03-1.18788E-01 3.03049E-02
 -1       910-1.37924E-03-1.19671E-01 3.05022E-02
 -1       911-4.72826E-03-1.13452E-01 2.89029E-02
 -1       912-7.85599E-03-1.00338E-01 2.55566E-02
 -1       913-1.05221E-02-8.10603E-02 2.06479E-02
 -1       914-1.25227E-02-5.68177E-02 1.44804E-02
 -1       915-1.37028E-02-2.91837E-02 7.45367E-03
 -1       916-1.39655E-02 4.02086E-06 3.44985E-05
 -1       917-1.32775E-02 2.87726E-02-7.27576E-03
 -1       918-1.16700E-02 5.51491E-02-1.39757E-02
 -1       919-9.23636E-03 7.72939E-02-1.95979E-02
 -1       920-6.12356E-03 9.36236E-02-2.37398E-02
 -1       921-2.52165E-03 1.02913E-01-2.60895E-02
 -1       922 1.35104E-03 1.04371E-01-2.64440E-02
 -1       923 5.26461E-03 9.76866E-02-2.47186E-02
 -1       924 8.99549E-03 8.30310E-02-2.09467E-02
 -1       925 1.23443E-02 6.10306E-02-1.52739E-02
 -1       926 1.51523E-02 3.26953E-02-7.95220E-03
 -1       927 1.73157E-02-6.88993E-04 6.55705E-04
 -1       928 1.87975E-02-3.77005E-02 1.00619E-02
 -1       929 1.96381E-02-7.69463E-02 1.96456E-02
 -1       930 1.99797E-02-1.17217E-01 2.87578E-02
 -3
    1PSTEP                        30           1           1          
    1PGM                1.000000E+00                                  
    1PGK                3.031914E+06                                  
    1PHID                         -1                                  
    1PSUBC                         0                                  
    1PMODE                         8                                  
  100CL  108 277.1268126         930                     2    8MODAL      1
 -4  STRESS      6    1
 -5  SXX         1    4    1    1
 -5  SYY         1    4    2    2
 -5  SZZ         1    4    3    3
 -5  SXY         1    4    1    2
 -5  SYZ         1    4    2    3
 -5  SZX         1    4    3    1
 -1         1 1.20017E+09 5.14372E+08 5.14374E+08 4.74384E+09 1.06534E+03-1.16376E+08
 -1         2-1.20017E+09-5.14372E+08-5.14374E+08 4.74384E+09 1.06534E+03 1.16376E+08
 -1         3-3.35742E+08-4.48723E+08-6.96978E+08-8.88317E+08 5.10271E+07-7.49157E+08
 -1         4 3.35742E+08 4.48723E+08 6.96978E+08-8.88317E+08 5.10271E+07 7.49157E+08
 -1         5-1.20017E+09-5.14372E+08-5.14374E+08-4.74384E+09 1.06534E+03-1.16376E+08
 -1         6 1.20017E+09 5.14372E+08 5.14374E+08-4.74384E+09 1.06534E+03 1.16376E+08
 -1         7 3.35742E+08 4.48723E+08 6.96978E+08 8.88317E+08 5.10271E+07-7.49157E+08
 -1         8-3.35742E+08-4.48723E+08-6.96978E+08 8.88317E+08 5.10271E+07 7.49157E+08
 -1         9 9.11128E+08 3.90502E+08 3.90504E+08 5.10863E+09 3.27649E+02-1.10885E+08
 -1        10-1.39272E+08 1.92368E+07-5.84376E+08 2.35289E+09 4.40539E+08-3.84022E+08
 -1        11 2.10314E+10 9.01353E+09 9.01354E+09 6.01123E+09-4.92915E+02-2.21880E+09
 -1        12 2.30600E+10 9.88295E+09 9.88295E+09 5.66294E+09 9.38968E+02-2.54621E+09
 -1        13 6.28902E+08 3.74243E+08 2.28789E+08 1.76131E+09 2.59455E+08-6.15557E+08
 -1        14 1.05785E+07-3.55024E+08-1.75489E+08-1.65216E+09 2.81611E+08-6.07881E+08
 -1        15-9.11128E+08-3.90502E+08-3.90504E+08-5.10863E+09 3.27649E+02-1.10885E+08
 -1        16 1.39272E+08-1.92368E+07 5.84376E+08-2.35289E+09 4.40539E+08-3.84022E+08
 -1        17-2.30600E+10-9.88295E+09-9.88295E+09-5.66294E+09 9.38968E+02-2.54621E+09
 -1        18-2.10314E+10-9.01353E+09-9.01354E+09-6.01123E+09-4.92915E+02-2.21880E+09
 -1        19-1.05785E+07 3.55024E+08 1.75489E+08 1.65216E+09 2.81611E+08-6.07881E+08
 -1        20-6.28902E+08-3.74243E+08-2.28789E+08-1.76131E+09 2.59455E+08-6.15557E+08
 -1        21-2.30600E+10-9.88295E+09-9.88295E+09 5.66294E+09 9.38968E+02 2.54621E+09
 -1        22-2.10314E+10-9.01353E+09-9.01354E+09 6.01123E+09-4.92915E+02 2.21880E+09
 -1        23-6.28902E+08-3.74243E+08-2.28789E+08 1.76131E+09 2.59455E+08 6.15557E+08
 -1        24-1.05785E+07 3.55024E+08 1.75489E+08-1.65216E+09 2.81611E+08 6.07881E+08
 -1        25-9.11128E+08-3.90502E+08-3.90504E+08 5.10863E+09 3.27649E+02 1.10885E+08
 -1        26 1.39272E+08-1.92368E+07 5.84376E+08 2.35289E+09 4.40539E+08 3.84022E+08
 -1        27 9.11128E+08 3.90502E+08 3.90504E+08-5.10863E+09 3.27649E+02 1.10885E+08
 -1        28 2.10314E+10 9.01353E+09 9.01354E+09-6.01123E+09-4.92915E+02 2.21880E+09
 -1        29 2.30600E+10 9.88295E+09 9.88295E+09-5.66294E+09 9.38968E+02 2.54621E+09
 -1        30-1.39272E+08 1.92368E+07-5.84376E+08-2.35289E+09 4.40539E+08 3.84022E+08
 -1        31 6.28902E+08 3.74243E+08 2.28789E+08-1.76131E+09 2.59455E+08 6.15557E+08
 -1        32 1.05785E+07-3.55024E+08-1.75489E+08 1.65216E+09 2.81611E+08 6.07881E+08
 -1        33-6.70057E+08 2.68602E+08-5.56325E+07 4.73446E+08 5.83078E+07-1.65098E+08
 -1        34-4.89621E+08 8.83152E+07-2.13827E+08 2.64198E+08 9.79351E+06 4.41004E+07
 -1        35-2.61294E+08-2.18127E+07-1.60461E+08 1.35330E+08-7.27409E+06 1.24493E+08
 -1        36-4.16492E+07-8.00313E+07-1.32434E+08 5.44638E+07-2.00716E+07 1.66508E+08
 -1        37 1.59890E+08-1.32735E+08-8.26706E+07 7.04148E+06-3.20417E+07 1.71430E+08
 -1        38 3.29820E+08-1.74171E+08-4.05989E+07-2.65144E+06-4.21946E+07 1.43760E+08
 -1        39 4.59045E+08-2.04479E+08-6.57273E+06 1.36988E+07-5.01293E+07 9.06259E+07
 -1        40 5.42380E+08-2.22653E+08 1.71869E+07 5.14097E+07-5.46384E+07 1.88958E+07
 -1        41 5.77256E+08-2.26997E+08 3.14196E+07 1.02505E+08-5.57266E+07-6.37283E+07
 -1        42 5.63935E+08-2.16848E+08 3.71811E+07 1.59585E+08-5.32052E+07-1.49279E+08
 -1        43 5.05318E+08-1.92496E+08 3.57134E+07 2.15430E+08-4.72105E+07-2.30083E+08
 -1        44 4.06796E+08-1.55405E+08 2.81724E+07 2.63591E+08-3.81081E+07-2.99159E+08
 -1        45 2.76044E+08-1.08011E+08 1.57453E+07 2.98648E+08-2.64984E+07-3.50601E+08
 -1        46 1.22592E+08-5.35057E+07-3.15201E+05 3.16426E+08-1.31589E+07-3.79899E+08
 -1        47-4.27532E+07 4.41069E+06-1.86942E+07 3.14151E+08 1.00867E+06-3.84170E+08
 -1        48-2.08610E+08 6.17988E+07-3.80632E+07 2.90525E+08 1.50420E+07-3.62301E+08
 -1        49-3.63776E+08 1.14759E+08-5.71459E+07 2.45714E+08 2.79846E+07-3.14957E+08
 -1        50-4.97997E+08 1.59707E+08-7.47954E+07 1.81232E+08 3.89507E+07-2.44489E+08
 -1        51-6.02685E+08 1.93608E+08-9.00986E+07 9.97111E+07 4.71833E+07-1.54702E+08
 -1        52-6.71595E+08 2.14125E+08-1.02565E+08 4.55449E+06 5.20999E+07-5.05134E+07
 -1        53-7.01445E+08 2.19608E+08-1.12487E+08-1.00522E+08 5.33175E+07 6.24795E+07
 -1        54-6.92479E+08 2.08904E+08-1.21495E+08-2.11968E+08 5.06644E+07 1.78500E+08
 -1        55-6.48846E+08 1.81117E+08-1.33043E+08-3.26727E+08 4.41753E+07 2.92073E+08
 -1        56-5.78361E+08 1.35896E+08-1.51915E+08-4.42022E+08 3.42460E+07 3.98375E+08
 -1        57-4.90673E+08 7.54190E+07-1.80721E+08-5.54255E+08 2.15122E+07 4.93255E+08
 -1        58-3.92755E+08 8.68567E+06-2.11054E+08-6.57859E+08 8.17321E+06 5.73103E+08
 -1        59-2.82505E+08-3.91334E+07-2.10897E+08-7.41804E+08-7.60921E+06 6.35185E+08
 -1        60-1.33741E+08-1.90365E+07-1.02218E+08-8.09017E+08-9.10677E+06 6.80966E+08
 -1        61 7.37088E+07 1.26199E+08 2.10761E+08-8.39270E+08-2.40213E+07 7.19187E+08
 -1        62 6.70057E+08-2.68602E+08 5.56325E+07 4.73446E+08 5.83078E+07 1.65098E+08
 -1        63 4.89621E+08-8.83152E+07 2.13827E+08 2.64198E+08 9.79351E+06-4.41004E+07
 -1        64 2.61294E+08 2.18127E+07 1.60461E+08 1.35330E+08-7.27409E+06-1.24493E+08
 -1        65 4.16492E+07 8.00313E+07 1.32434E+08 5.44638E+07-2.00716E+07-1.66508E+08
 -1        66-1.59890E+08 1.32735E+08 8.26706E+07 7.04148E+06-3.20417E+07-1.71430E+08
 -1        67-3.29820E+08 1.74171E+08 4.05989E+07-2.65144E+06-4.21946E+07-1.43760E+08
 -1        68-4.59045E+08 2.04479E+08 6.57273E+06 1.36988E+07-5.01293E+07-9.06259E+07
 -1        69-5.42380E+08 2.22653E+08-1.71869E+07 5.14097E+07-5.46384E+07-1.88958E+07
 -1        70-5.77256E+08 2.26997E+08-3.14196E+07 1.02505E+08-5.57266E+07 6.37283E+07
 -1        71-5.63935E+08 2.16848E+08-3.71811E+07 1.59585E+08-5.32052E+07 1.49279E+08
 -1        72-5.05318E+08 1.92496E+08-3.57134E+07 2.15430E+08-4.72105E+07 2.30083E+08
 -1        73-4.06796E+08 1.55405E+08-2.81724E+07 2.63591E+08-3.81081E+07 2.99159E+08
 -1        74-2.76044E+08 1.08011E+08-1.57453E+07 2.98648E+08-2.64984E+07 3.50601E+08
 -1        75-1.22592E+08 5.35057E+07 3.15202E+05 3.16426E+08-1.31589E+07 3.79899E+08
 -1        76 4.27532E+07-4.41069E+06 1.86942E+07 3.14151E+08 1.00867E+06 3.84170E+08
 -1        77 2.08610E+08-6.17988E+07 3.80632E+07 2.90525E+08 1.50420E+07 3.62301E+08
 -1        78 3.63776E+08-1.14759E+08 5.71459E+07 2.45714E+08 2.79846E+07 3.14957E+08
 -1        79 4.97997E+08-1.59707E+08 7.47954E+07 1.81232E+08 3.89507E+07 2.44489E+08
 -1        80 6.02685E+08-1.93608E+08 9.00986E+07 9.97111E+07 4.71833E+07 1.54702E+08
 -1        81 6.71595E+08-2.14125E+08 1.02565E+08 4.55449E+06 5.20999E+07 5.05134E+07
 -1        82 7.01445E+08-2.19608E+08 1.12487E+08-1.00522E+08 5.33175E+07-6.24795E+07
 -1        83 6.92479E+08-2.08904E+08 1.21495E+08-2.11968E+08 5.06644E+07-1.78500E+08
 -1        84 6.48846E+08-1.81117E+08 1.33043E+08-3.26727E+08 4.41753E+07-2.92073E+08
 -1        85 5.78361E+08-1.35896E+08 1.51915E+08-4.42022E+08 3.42460E+07-3.98375E+08
 -1        86 4.90673E+08-7.54190E+07 1.80721E+08-5.54255E+08 2.15122E+07-4.93255E+08
 -1        87 3.92755E+08-8.68567E+06 2.11054E+08-6.57859E+08 8.17321E+06-5.73103E+08
 -1        88 2.82505E+08 3.91334E+07 2.10897E+08-7.41804E+08-7.60921E+06-6.35185E+08
 -1        89 1.33741E+08 1.90365E+07 1.02218E+08-8.09017E+08-9.10677E+06-6.80966E+08
 -1        90-7.37088E+07-1.26199E+08-2.10761E+08-8.39270E+08-2.40213E+07-7.19187E+08
 -1        91 6.55416E+08 2.80892E+08 2.80892E+08 2.25327E+09-3.23930E+01-1.10252E+08
 -1        92-5.06484E-02-2.17057E-02-2.17063E-02-5.74904E-02-1.13589E+03-1.01509E+08
 -1        93-6.55416E+08-2.80892E+08-2.80892E+08-2.25327E+09-3.23930E+01-1.10252E+08
 -1        94 6.55416E+08 2.80892E+08 2.80892E+08-2.25327E+09-3.23930E+01 1.10252E+08
 -1        95-1.91412E-02-8.20333E-03-8.20342E-03-5.70589E-02-1.13589E+03 1.01509E+08
 -1        96-6.55416E+08-2.80892E+08-2.80892E+08 2.25327E+09-3.23930E+01 1.10252E+08
 -1        97-6.70057E+08 2.68602E+08-5.56325E+07-4.73446E+08 5.83078E+07 1.65098E+08
 -1        98-4.89621E+08 8.83152E+07-2.13827E+08-2.64198E+08 9.79351E+06-4.41004E+07
 -1        99-2.61294E+08-2.18127E+07-1.60461E+08-1.35330E+08-7.27409E+06-1.24493E+08
 -1       100-4.16492E+07-8.00313E+07-1.32434E+08-5.44638E+07-2.00716E+07-1.66508E+08
 -1       101 1.59890E+08-1.32735E+08-8.26706E+07-7.04148E+06-3.20417E+07-1.71430E+08
 -1       102 3.29820E+08-1.74171E+08-4.05989E+07 2.65144E+06-4.21946E+07-1.43760E+08
 -1       103 4.59045E+08-2.04479E+08-6.57273E+06-1.36988E+07-5.01293E+07-9.06259E+07
 -1       104 5.42380E+08-2.22653E+08 1.71869E+07-5.14097E+07-5.46384E+07-1.88958E+07
 -1       105 5.77256E+08-2.26997E+08 3.14196E+07-1.02505E+08-5.57266E+07 6.37283E+07
 -1       106 5.63935E+08-2.16848E+08 3.71811E+07-1.59585E+08-5.32052E+07 1.49279E+08
 -1       107 5.05318E+08-1.92496E+08 3.57134E+07-2.15430E+08-4.72105E+07 2.30083E+08
 -1       108 4.06796E+08-1.55405E+08 2.81724E+07-2.63591E+08-3.81081E+07 2.99159E+08
 -1       109 2.76044E+08-1.08011E+08 1.57453E+07-2.98648E+08-2.64984E+07 3.50601E+08
 -1       110 1.22592E+08-5.35057E+07-3.15202E+05-3.16426E+08-1.31589E+07 3.79899E+08
 -1       111-4.27532E+07 4.41069E+06-1.86942E+07-3.14151E+08 1.00867E+06 3.84170E+08
 -1       112-2.08610E+08 6.17988E+07-3.80632E+07-2.90525E+08 1.50420E+07 3.62301E+08
 -1       113-3.63776E+08 1.14759E+08-5.71459E+07-2.45714E+08 2.79846E+07 3.14957E+08
 -1       114-4.97997E+08 1.59707E+08-7.47954E+07-1.81232E+08 3.89507E+07 2.44489E+08
 -1       115-6.02685E+08 1.93608E+08-9.00986E+07-9.97111E+07 4.71833E+07 1.54702E+08
 -1       116-6.71595E+08 2.14125E+08-1.02565E+08-4.55449E+06 5.20999E+07 5.05134E+07
 -1       117-7.01445E+08 2.19608E+08-1.12487E+08 1.00522E+08 5.33175E+07-6.24795E+07
 -1       118-6.92479E+08 2.08904E+08-1.21495E+08 2.11968E+08 5.06644E+07-1.78500E+08
 -1       119-6.48846E+08 1.81117E+08-1.33043E+08 3.26727E+08 4.41753E+07-2.92073E+08
 -1       120-5.78361E+08 1.35896E+08-1.51915E+08 4.42022E+08 3.42460E+07-3.98375E+08
 -1       121-4.90673E+08 7.54190E+07-1.80721E+08 5.54255E+08 2.15122E+07-4.93255E+08
 -1       122-3.92755E+08 8.68567E+06-2.11054E+08 6.57859E+08 8.17321E+06-5.73103E+08
 -1       123-2.82505E+08-3.91334E+07-2.10897E+08 7.41804E+08-7.60921E+06-6.35185E+08
 -1       124-1.33741E+08-1.90365E+07-1.02218E+08 8.09017E+08-9.10677E+06-6.80966E+08
 -1       125 7.37088E+07 1.26199E+08 2.10761E+08 8.39270E+08-2.40213E+07-7.19187E+08
 -1       126-1.06874E+08-1.15015E+08-2.76508E+08 5.97182E+07 1.39594E+08-1.51590E+09
 -1       127 3.27944E-03 4.61992E-03 1.56304E-02 2.42770E-03 2.84228E+08-1.55246E+09
 -1       128 1.06874E+08 1.15015E+08 2.76508E+08-5.97182E+07 1.39594E+08-1.51590E+09
 -1       129 6.70057E+08-2.68602E+08 5.56325E+07-4.73446E+08 5.83078E+07-1.65098E+08
 -1       130 4.89621E+08-8.83152E+07 2.13827E+08-2.64198E+08 9.79351E+06 4.41004E+07
 -1       131 2.61294E+08 2.18127E+07 1.60461E+08-1.35330E+08-7.27409E+06 1.24493E+08
 -1       132 4.16492E+07 8.00313E+07 1.32434E+08-5.44638E+07-2.00716E+07 1.66508E+08
 -1       133-1.59890E+08 1.32735E+08 8.26706E+07-7.04148E+06-3.20417E+07 1.71430E+08
 -1       134-3.29820E+08 1.74171E+08 4.05989E+07 2.65144E+06-4.21946E+07 1.43760E+08
 -1       135-4.59045E+08 2.04479E+08 6.57273E+06-1.36988E+07-5.01293E+07 9.06259E+07
 -1       136-5.42380E+08 2.22653E+08-1.71869E+07-5.14097E+07-5.46384E+07 1.88958E+07
 -1       137-5.77256E+08 2.26997E+08-3.14196E+07-1.02505E+08-5.57266E+07-6.37283E+07
 -1       138-5.63935E+08 2.16848E+08-3.71811E+07-1.59585E+08-5.32052E+07-1.49279E+08
 -1       139-5.05318E+08 1.92496E+08-3.57134E+07-2.15430E+08-4.72105E+07-2.30083E+08
 -1       140-4.06796E+08 1.55405E+08-2.81724E+07-2.63591E+08-3.81081E+07-2.99159E+08
 -1       141-2.76044E+08 1.08011E+08-1.57453E+07-2.98648E+08-2.64984E+07-3.50601E+08
 -1       142-1.22592E+08 5.35057E+07 3.15201E+05-3.16426E+08-1.31589E+07-3.79899E+08
 -1       143 4.27532E+07-4.41069E+06 1.86942E+07-3.14151E+08 1.00867E+06-3.84170E+08
 -1       144 2.08610E+08-6.17988E+07 3.80632E+07-2.90525E+08 1.50420E+07-3.62301E+08
 -1       145 3.63776E+08-1.14759E+08 5.71459E+07-2.45714E+08 2.79846E+07-3.14957E+08
 -1       146 4.97997E+08-1.59707E+08 7.47954E+07-1.81232E+08 3.89507E+07-2.44489E+08
 -1       147 6.02685E+08-1.93608E+08 9.00986E+07-9.97111E+07 4.71833E+07-1.54702E+08
 -1       148 6.71595E+08-2.14125E+08 1.02565E+08-4.55449E+06 5.20999E+07-5.05134E+07
 -1       149 7.01445E+08-2.19608E+08 1.12487E+08 1.00522E+08 5.33175E+07 6.24795E+07
 -1       150 6.92479E+08-2.08904E+08 1.21495E+08 2.11968E+08 5.06644E+07 1.78500E+08
 -1       151 6.48846E+08-1.81117E+08 1.33043E+08 3.26727E+08 4.41753E+07 2.92073E+08
 -1       152 5.78361E+08-1.35896E+08 1.51915E+08 4.42022E+08 3.42460E+07 3.98375E+08
 -1       153 4.90673E+08-7.54190E+07 1.80721E+08 5.54255E+08 2.15122E+07 4.93255E+08
 -1       154 3.92755E+08-8.68567E+06 2.11054E+08 6.57859E+08 8.17321E+06 5.73103E+08
 -1       155 2.82505E+08 3.91334E+07 2.10897E+08 7.41804E+08-7.60921E+06 6.35185E+08
 -1       156 1.33741E+08 1.90365E+07 1.02218E+08 8.09017E+08-9.10677E+06 6.80966E+08
 -1       157-7.37088E+07-1.26199E+08-2.10761E+08 8.39270E+08-2.40213E+07 7.19187E+08
 -1       158-1.06874E+08-1.15015E+08-2.76508E+08-5.97182E+07 1.39594E+08 1.51590E+09
 -1       159-5.27360E-03-5.24811E-03-8.53564E-03 2.49649E-03 2.84228E+08 1.55246E+09
 -1       160 1.06874E+08 1.15015E+08 2.76508E+08 5.97182E+07 1.39594E+08 1.51590E+09
 -1       161 3.83820E+08-6.64921E+08-1.90074E+08 2.53780E+09-1.67933E+08 4.21304E+08
 -1       162 4.15879E+08-3.15960E+08 1.58251E+08 2.68437E+09-6.36062E+07 2.24300E+08
 -1       163 2.04528E+08-1.35234E+08 1.18977E+08 2.84043E+09-8.97810E+07 1.78257E+08
 -1       164 4.12735E+07 1.25254E+07 1.44536E+08 2.74676E+09-5.19766E+07 1.31693E+08
 -1       165-1.10389E+08 1.55408E+08 1.36415E+08 2.44999E+09-2.69196E+07 9.82919E+07
 -1       166-2.38317E+08 2.71759E+08 1.30778E+08 1.97914E+09-3.71633E+05 7.47627E+07
 -1       167-3.35284E+08 3.59984E+08 1.24259E+08 1.36228E+09 1.93919E+07 5.91376E+07
 -1       168-3.97951E+08 4.16300E+08 1.17941E+08 6.43132E+08 3.32921E+07 4.95968E+07
 -1       169-4.24542E+08 4.38315E+08 1.10279E+08-1.27894E+08 4.07860E+07 4.46061E+07
 -1       170-4.15269E+08 4.25884E+08 1.00182E+08-8.96425E+08 4.25164E+07 4.25703E+07
 -1       171-3.72312E+08 3.80763E+08 8.69665E+07-1.60850E+09 3.90757E+07 4.21079E+07
 -1       172-2.99680E+08 3.06739E+08 7.06793E+07-2.21431E+09 3.12220E+07 4.20254E+07
 -1       173-2.03076E+08 2.09359E+08 5.18936E+07-2.67154E+09 1.98106E+07 4.13374E+07
 -1       174-8.95696E+07 9.55991E+07 3.15734E+07-2.94821E+09 5.81703E+06 3.92609E+07
 -1       175 3.28276E+07-2.65927E+07 1.09331E+07-3.02476E+09-9.69823E+06 3.52091E+07
 -1       176 1.55684E+08-1.48827E+08-8.68087E+06-2.89531E+09-2.56407E+07 2.87804E+07
 -1       177 2.70709E+08-2.62838E+08-2.59034E+07-2.56804E+09-4.09457E+07 1.97381E+07
 -1       178 3.70321E+08-3.61055E+08-3.94548E+07-2.06455E+09-5.46464E+07 7.97966E+06
 -1       179 4.48177E+08-4.37126E+08-4.82050E+07-1.41832E+09-6.59548E+07-6.51307E+06
 -1       180 4.99670E+08-4.86373E+08-5.11355E+07-6.72264E+08-7.43755E+07-2.37444E+07
 -1       181 5.22373E+08-5.06131E+08-4.71082E+07 1.24403E+08-7.98929E+07-4.37964E+07
 -1       182 5.16444E+08-4.95952E+08-3.44028E+07 9.19671E+08-8.32202E+07-6.69241E+07
 -1       183 4.84892E+08-4.57676E+08-1.02926E+07 1.66207E+09-8.60414E+07-9.35934E+07
 -1       184 4.33504E+08-3.95372E+08 2.85205E+07 2.30305E+09-9.05460E+07-1.24361E+08
 -1       185 3.69738E+08-3.15263E+08 8.26867E+07 2.79715E+09-9.84572E+07-1.59424E+08
 -1       186 2.99337E+08-2.26640E+08 1.41435E+08 3.10144E+09-1.04169E+08-1.98165E+08
 -1       187 2.24644E+08-1.37677E+08 1.74127E+08 3.17531E+09-1.00023E+08-2.39032E+08
 -1       188 1.24903E+08-7.23797E+07 9.82773E+07 2.99468E+09-2.74688E+07-2.81116E+08
 -1       189-1.38139E+07-3.32471E+07-1.85605E+08 2.62439E+09 7.32573E+07-3.35704E+08
 -1       190 9.86564E+09 4.22820E+09 4.22821E+09 5.34696E+09-4.70652E+02-1.17781E+09
 -1       191 1.09048E+10 4.67355E+09 4.67355E+09 4.98427E+09 8.61669E+02-1.33224E+09
 -1       192 5.92436E+08 6.14346E+08 4.72722E+08 1.97896E+09 2.38798E+08 7.39402E+07
 -1       193 1.26846E+10-1.07164E+09-2.82177E+09 1.35938E+09-1.50559E+08 2.77743E+08
 -1       194 1.00054E+10 1.10346E+09 6.93308E+08 1.45007E+09-6.03497E+07-8.17639E+06
 -1       195 4.50739E+09 2.91118E+08-8.75813E+07 1.62246E+09-4.93324E+07-6.79670E+07
 -1       196-1.33485E+08 2.89285E+07 1.11170E+08 1.59926E+09-7.31759E+06-9.80987E+07
 -1       197-4.36458E+09-3.05328E+08 6.50451E+07 1.45345E+09 2.33559E+07-9.27729E+07
 -1       198-7.85415E+09-5.56494E+08 8.15325E+07 1.17803E+09 5.03907E+07-7.48883E+07
 -1       199-1.05022E+10-7.51181E+08 8.41178E+07 8.01327E+08 7.04754E+07-4.48821E+07
 -1       200-1.21899E+10-8.73981E+08 8.75402E+07 3.50722E+08 8.34474E+07-6.42504E+06
 -1       201-1.28599E+10-9.23230E+08 8.65973E+07-1.39021E+08 8.88701E+07 3.72785E+07
 -1       202-1.25073E+10-8.98485E+08 8.13974E+07-6.31054E+08 8.68505E+07 8.25184E+07
 -1       203-1.11868E+10-8.03845E+08 7.17181E+07-1.08882E+09 7.78329E+07 1.25378E+08
 -1       204-9.01075E+09-6.47404E+08 5.80509E+07-1.47869E+09 6.26514E+07 1.62103E+08
 -1       205-6.14334E+09-4.40997E+08 4.11908E+07-1.77216E+09 4.24871E+07 1.89453E+08
 -1       206-2.79061E+09-1.99480E+08 2.22051E+07-1.94763E+09 1.88102E+07 2.04943E+08
 -1       207 8.12864E+08 6.02357E+07 2.33774E+06-1.99176E+09-6.71172E+06 2.06987E+08
 -1       208 4.41956E+09 3.20309E+08-1.70695E+07-1.90028E+09-3.23220E+07 1.94965E+08
 -1       209 7.78571E+09 5.63176E+08-3.46704E+07-1.67815E+09-5.62926E+07 1.69211E+08
 -1       210 1.06880E+10 7.72747E+08-4.92179E+07-1.33917E+09-7.70406E+07 1.30928E+08
 -1       211 1.29391E+10 9.35500E+08-5.96771E+07-9.04864E+08-9.32368E+07 8.20224E+07
 -1       212 1.44011E+10 1.04141E+09-6.53276E+07-4.02799E+08-1.03903E+08 2.49008E+07
 -1       213 1.49957E+10 1.08467E+09-6.57998E+07 1.35594E+08-1.08509E+08-3.76614E+07
 -1       214 1.47118E+10 1.06432E+09-6.09134E+07 6.77456E+08-1.07056E+08-1.02399E+08
 -1       215 1.36093E+10 9.84838E+08-5.01556E+07 1.19059E+09-1.00231E+08-1.64929E+08
 -1       216 1.18208E+10 8.57089E+08-3.16754E+07 1.64429E+09-8.93105E+07-2.18959E+08
 -1       217 9.54892E+09 6.99412E+08-1.26905E+06 2.00827E+09-7.65644E+07-2.55772E+08
 -1       218 7.05875E+09 5.36664E+08 4.73717E+07 2.24923E+09-6.31918E+07-2.66764E+08
 -1       219 4.65129E+09 4.00373E+08 1.16056E+08 2.32835E+09-5.27045E+07-2.62948E+08
 -1       220 2.61680E+09 3.01554E+08 1.91423E+08 2.23004E+09-2.65616E+07-2.71888E+08
 -1       221 1.13393E+09 2.14544E+08 1.84550E+08 1.95669E+09-4.99780E+07-4.51773E+08
 -1       222 1.42075E+10-5.14908E+08-2.19786E+09 9.09739E+07 2.53149E+08 2.09219E+08
 -1       223 1.08272E+10 1.43895E+09 1.04049E+09-5.36088E+08 8.43509E+07 1.15883E+08
 -1       224 4.84102E+09 4.55396E+08 6.17911E+07-7.01541E+08 4.39385E+07 4.25743E+06
 -1       225-2.02883E+08 4.76892E+07 9.59787E+07-7.82345E+08-2.45950E+07-2.03902E+07
 -1       226-4.79797E+09-4.24475E+08-1.00716E+08-7.42694E+08-7.39966E+07-2.88492E+07
 -1       227-8.60174E+09-7.93972E+08-2.13986E+08-6.12545E+08-1.17891E+08-2.31166E+07
 -1       228-1.14948E+10-1.08164E+09-3.12802E+08-4.01211E+08-1.50629E+08-8.48346E+06
 -1       229-1.33421E+10-1.26573E+09-3.75628E+08-1.32129E+08-1.71372E+08 1.33425E+07
 -1       230-1.40766E+10-1.34138E+09-4.03865E+08 1.70292E+08-1.78936E+08 3.97817E+07
 -1       231-1.36916E+10-1.30774E+09-3.96661E+08 4.79652E+08-1.73105E+08 6.81710E+07
 -1       232-1.22465E+10-1.17088E+09-3.56291E+08 7.70123E+08-1.54483E+08 9.55834E+07
 -1       233-9.86444E+09-9.42902E+08-2.86706E+08 1.01809E+09-1.24520E+08 1.19203E+08
 -1       234-6.72544E+09-6.41335E+08-1.93542E+08 1.20360E+09-8.53965E+07 1.36587E+08
 -1       235-3.05516E+09-2.88034E+08-8.37257E+07 1.31146E+09-3.98741E+07 1.45851E+08
 -1       236 8.89557E+08 9.21755E+07 3.49275E+07 1.33212E+09 8.88898E+06 1.45762E+08
 -1       237 4.83769E+09 4.73135E+08 1.54218E+08 1.26211E+09 5.75514E+07 1.35778E+08
 -1       238 8.52236E+09 8.29109E+08 2.66104E+08 1.10418E+09 1.02817E+08 1.16030E+08
 -1       239 1.16992E+10 1.13656E+09 3.63270E+08 8.66912E+08 1.41663E+08 8.72413E+07
 -1       240 1.41633E+10 1.37583E+09 4.39674E+08 5.63978E+08 1.71551E+08 5.05918E+07
 -1       241 1.57645E+10 1.53265E+09 4.91070E+08 2.12900E+08 1.90605E+08 7.56210E+06
 -1       242 1.64185E+10 1.59930E+09 5.15421E+08-1.66534E+08 1.97717E+08-4.01452E+07
 -1       243 1.61141E+10 1.57535E+09 5.13086E+08-5.54017E+08 1.92584E+08-9.04170E+07
 -1       244 1.49154E+10 1.46763E+09 4.86504E+08-9.30096E+08 1.75598E+08-1.40038E+08
 -1       245 1.29581E+10 1.28895E+09 4.39073E+08-1.27628E+09 1.47935E+08-1.83842E+08
 -1       246 1.04402E+10 1.05557E+09 3.72958E+08-1.57321E+09 1.11165E+08-2.14134E+08
 -1       247 7.61199E+09 7.85174E+08 2.87898E+08-1.79655E+09 6.93752E+07-2.23243E+08
 -1       248 4.77330E+09 4.92857E+08 1.80404E+08-1.91373E+09 2.62143E+07-2.22780E+08
 -1       249 2.28476E+09 2.04869E+08 6.28053E+07-1.91194E+09 8.44206E+06-2.41267E+08
 -1       250 6.69950E+08 3.30550E+07-9.09084E+06-1.76540E+09-3.50463E+07-4.35886E+08
 -1       251 8.43663E+07-3.24205E+08 3.87354E+07-1.75019E+09 2.09946E+08 8.47119E+07
 -1       252 1.38139E+07 3.32471E+07 1.85605E+08-2.62439E+09 7.32573E+07-3.35704E+08
 -1       253-1.24903E+08 7.23797E+07-9.82773E+07-2.99468E+09-2.74688E+07-2.81116E+08
 -1       254-2.24644E+08 1.37677E+08-1.74127E+08-3.17531E+09-1.00023E+08-2.39032E+08
 -1       255-2.99337E+08 2.26640E+08-1.41435E+08-3.10144E+09-1.04169E+08-1.98165E+08
 -1       256-3.69738E+08 3.15263E+08-8.26867E+07-2.79715E+09-9.84572E+07-1.59424E+08
 -1       257-4.33504E+08 3.95372E+08-2.85205E+07-2.30305E+09-9.05460E+07-1.24361E+08
 -1       258-4.84892E+08 4.57676E+08 1.02926E+07-1.66207E+09-8.60414E+07-9.35934E+07
 -1       259-5.16444E+08 4.95952E+08 3.44028E+07-9.19671E+08-8.32202E+07-6.69241E+07
 -1       260-5.22373E+08 5.06131E+08 4.71082E+07-1.24403E+08-7.98929E+07-4.37964E+07
 -1       261-4.99670E+08 4.86373E+08 5.11355E+07 6.72264E+08-7.43755E+07-2.37444E+07
 -1       262-4.48177E+08 4.37126E+08 4.82050E+07 1.41832E+09-6.59548E+07-6.51307E+06
 -1       263-3.70321E+08 3.61055E+08 3.94548E+07 2.06455E+09-5.46464E+07 7.97966E+06
 -1       264-2.70709E+08 2.62838E+08 2.59034E+07 2.56804E+09-4.09457E+07 1.97381E+07
 -1       265-1.55684E+08 1.48827E+08 8.68087E+06 2.89531E+09-2.56407E+07 2.87804E+07
 -1       266-3.28276E+07 2.65927E+07-1.09331E+07 3.02476E+09-9.69823E+06 3.52091E+07
 -1       267 8.95696E+07-9.55991E+07-3.15734E+07 2.94821E+09 5.81703E+06 3.92609E+07
 -1       268 2.03076E+08-2.09359E+08-5.18936E+07 2.67154E+09 1.98106E+07 4.13374E+07
 -1       269 2.99680E+08-3.06739E+08-7.06793E+07 2.21431E+09 3.12220E+07 4.20254E+07
 -1       270 3.72312E+08-3.80763E+08-8.69665E+07 1.60850E+09 3.90757E+07 4.21079E+07
 -1       271 4.15269E+08-4.25884E+08-1.00182E+08 8.96425E+08 4.25164E+07 4.25703E+07
 -1       272 4.24542E+08-4.38315E+08-1.10279E+08 1.27894E+08 4.07860E+07 4.46061E+07
 -1       273 3.97951E+08-4.16300E+08-1.17941E+08-6.43132E+08 3.32921E+07 4.95968E+07
 -1       274 3.35284E+08-3.59984E+08-1.24259E+08-1.36228E+09 1.93919E+07 5.91376E+07
 -1       275 2.38317E+08-2.71759E+08-1.30778E+08-1.97914E+09-3.71633E+05 7.47627E+07
 -1       276 1.10389E+08-1.55408E+08-1.36415E+08-2.44999E+09-2.69196E+07 9.82919E+07
 -1       277-4.12735E+07-1.25254E+07-1.44536E+08-2.74676E+09-5.19766E+07 1.31693E+08
 -1       278-2.04528E+08 1.35234E+08-1.18977E+08-2.84043E+09-8.97810E+07 1.78257E+08
 -1       279-4.15879E+08 3.15960E+08-1.58251E+08-2.68437E+09-6.36062E+07 2.24300E+08
 -1       280-3.83820E+08 6.64921E+08 1.90074E+08-2.53780E+09-1.67933E+08 4.21304E+08
 -1       281-1.09048E+10-4.67355E+09-4.67355E+09-4.98427E+09 8.61669E+02-1.33224E+09
 -1       282-9.86564E+09-4.22820E+09-4.22821E+09-5.34696E+09-4.70652E+02-1.17781E+09
 -1       283-1.42075E+10 5.14908E+08 2.19786E+09-9.09739E+07 2.53149E+08 2.09219E+08
 -1       284-1.08272E+10-1.43895E+09-1.04049E+09 5.36088E+08 8.43509E+07 1.15883E+08
 -1       285-4.84102E+09-4.55396E+08-6.17911E+07 7.01541E+08 4.39385E+07 4.25743E+06
 -1       286 2.02883E+08-4.76892E+07-9.59787E+07 7.82345E+08-2.45950E+07-2.03902E+07
 -1       287 4.79797E+09 4.24475E+08 1.00716E+08 7.42694E+08-7.39966E+07-2.88492E+07
 -1       288 8.60174E+09 7.93972E+08 2.13986E+08 6.12545E+08-1.17891E+08-2.31166E+07
 -1       289 1.14948E+10 1.08164E+09 3.12802E+08 4.01211E+08-1.50629E+08-8.48346E+06
 -1       290 1.33421E+10 1.26573E+09 3.75628E+08 1.32129E+08-1.71372E+08 1.33425E+07
 -1       291 1.40766E+10 1.34138E+09 4.03865E+08-1.70292E+08-1.78936E+08 3.97817E+07
 -1       292 1.36916E+10 1.30774E+09 3.96661E+08-4.79652E+08-1.73105E+08 6.81710E+07
 -1       293 1.22465E+10 1.17088E+09 3.56291E+08-7.70123E+08-1.54483E+08 9.55834E+07
 -1       294 9.86444E+09 9.42902E+08 2.86706E+08-1.01809E+09-1.24520E+08 1.19203E+08
 -1       295 6.72544E+09 6.41335E+08 1.93542E+08-1.20360E+09-8.53965E+07 1.36587E+08
 -1       296 3.05516E+09 2.88034E+08 8.37257E+07-1.31146E+09-3.98741E+07 1.45851E+08
 -1       297-8.89557E+08-9.21755E+07-3.49275E+07-1.33212E+09 8.88898E+06 1.45762E+08
 -1       298-4.83769E+09-4.73135E+08-1.54218E+08-1.26211E+09 5.75514E+07 1.35778E+08
 -1       299-8.52236E+09-8.29109E+08-2.66104E+08-1.10418E+09 1.02817E+08 1.16030E+08
 -1       300-1.16992E+10-1.13656E+09-3.63270E+08-8.66912E+08 1.41663E+08 8.72413E+07
 -1       301-1.41633E+10-1.37583E+09-4.39674E+08-5.63978E+08 1.71551E+08 5.05918E+07
 -1       302-1.57645E+10-1.53265E+09-4.91070E+08-2.12900E+08 1.90605E+08 7.56210E+06
 -1       303-1.64185E+10-1.59930E+09-5.15421E+08 1.66534E+08 1.97717E+08-4.01452E+07
 -1       304-1.61141E+10-1.57535E+09-5.13086E+08 5.54017E+08 1.92584E+08-9.04170E+07
 -1       305-1.49154E+10-1.46763E+09-4.86504E+08 9.30096E+08 1.75598E+08-1.40038E+08
 -1       306-1.29581E+10-1.28895E+09-4.39073E+08 1.27628E+09 1.47935E+08-1.83842E+08
 -1       307-1.04402E+10-1.05557E+09-3.72958E+08 1.57321E+09 1.11165E+08-2.14134E+08
 -1       308-7.61199E+09-7.85174E+08-2.87898E+08 1.79655E+09 6.93752E+07-2.23243E+08
 -1       309-4.77330E+09-4.92857E+08-1.80404E+08 1.91373E+09 2.62143E+07-2.22780E+08
 -1       310-2.28476E+09-2.04869E+08-6.28053E+07 1.91194E+09 8.44206E+06-2.41267E+08
 -1       311-6.69950E+08-3.30550E+07 9.09084E+06 1.76540E+09-3.50463E+07-4.35886E+08
 -1       312-8.43663E+07 3.24205E+08-3.87354E+07 1.75019E+09 2.09946E+08 8.47119E+07
 -1       313-1.26846E+10 1.07164E+09 2.82177E+09-1.35938E+09-1.50559E+08 2.77743E+08
 -1       314-1.00054E+10-1.10346E+09-6.93308E+08-1.45007E+09-6.03497E+07-8.17639E+06
 -1       315-4.50739E+09-2.91118E+08 8.75813E+07-1.62246E+09-4.93324E+07-6.79670E+07
 -1       316 1.33485E+08-2.89285E+07-1.11170E+08-1.59926E+09-7.31759E+06-9.80987E+07
 -1       317 4.36458E+09 3.05328E+08-6.50451E+07-1.45345E+09 2.33559E+07-9.27729E+07
 -1       318 7.85415E+09 5.56494E+08-8.15325E+07-1.17803E+09 5.03907E+07-7.48883E+07
 -1       319 1.05022E+10 7.51181E+08-8.41178E+07-8.01327E+08 7.04754E+07-4.48821E+07
 -1       320 1.21899E+10 8.73981E+08-8.75402E+07-3.50722E+08 8.34474E+07-6.42504E+06
 -1       321 1.28599E+10 9.23230E+08-8.65973E+07 1.39021E+08 8.88701E+07 3.72785E+07
 -1       322 1.25073E+10 8.98485E+08-8.13974E+07 6.31054E+08 8.68505E+07 8.25184E+07
 -1       323 1.11868E+10 8.03845E+08-7.17181E+07 1.08882E+09 7.78329E+07 1.25378E+08
 -1       324 9.01075E+09 6.47404E+08-5.80509E+07 1.47869E+09 6.26514E+07 1.62103E+08
 -1       325 6.14334E+09 4.40997E+08-4.11908E+07 1.77216E+09 4.24871E+07 1.89453E+08
 -1       326 2.79061E+09 1.99480E+08-2.22051E+07 1.94763E+09 1.88102E+07 2.04943E+08
 -1       327-8.12864E+08-6.02357E+07-2.33774E+06 1.99176E+09-6.71172E+06 2.06987E+08
 -1       328-4.41956E+09-3.20309E+08 1.70695E+07 1.90028E+09-3.23220E+07 1.94965E+08
 -1       329-7.78571E+09-5.63176E+08 3.46704E+07 1.67815E+09-5.62926E+07 1.69211E+08
 -1       330-1.06880E+10-7.72747E+08 4.92179E+07 1.33917E+09-7.70406E+07 1.30928E+08
 -1       331-1.29391E+10-9.35500E+08 5.96771E+07 9.04864E+08-9.32368E+07 8.20224E+07
 -1       332-1.44011E+10-1.04141E+09 6.53276E+07 4.02799E+08-1.03903E+08 2.49008E+07
 -1       333-1.49957E+10-1.08467E+09 6.57998E+07-1.35594E+08-1.08509E+08-3.76614E+07
 -1       334-1.47118E+10-1.06432E+09 6.09134E+07-6.77456E+08-1.07056E+08-1.02399E+08
 -1       335-1.36093E+10-9.84838E+08 5.01556E+07-1.19059E+09-1.00231E+08-1.64929E+08
 -1       336-1.18208E+10-8.57089E+08 3.16754E+07-1.64429E+09-8.93105E+07-2.18959E+08
 -1       337-9.54892E+09-6.99412E+08 1.26905E+06-2.00827E+09-7.65644E+07-2.55772E+08
 -1       338-7.05875E+09-5.36664E+08-4.73717E+07-2.24923E+09-6.31918E+07-2.66764E+08
 -1       339-4.65129E+09-4.00373E+08-1.16056E+08-2.32835E+09-5.27045E+07-2.62948E+08
 -1       340-2.61680E+09-3.01554E+08-1.91423E+08-2.23004E+09-2.65616E+07-2.71888E+08
 -1       341-1.13393E+09-2.14544E+08-1.84550E+08-1.95669E+09-4.99780E+07-4.51773E+08
 -1       342-5.92436E+08-6.14346E+08-4.72722E+08-1.97896E+09 2.38798E+08 7.39402E+07
 -1       343-1.26846E+10 1.07164E+09 2.82177E+09 1.35938E+09-1.50559E+08-2.77743E+08
 -1       344-1.00054E+10-1.10346E+09-6.93308E+08 1.45007E+09-6.03497E+07 8.17639E+06
 -1       345-4.50739E+09-2.91118E+08 8.75813E+07 1.62246E+09-4.93324E+07 6.79670E+07
 -1       346 1.33485E+08-2.89285E+07-1.11170E+08 1.59926E+09-7.31759E+06 9.80987E+07
 -1       347 4.36458E+09 3.05328E+08-6.50451E+07 1.45345E+09 2.33559E+07 9.27729E+07
 -1       348 7.85415E+09 5.56494E+08-8.15325E+07 1.17803E+09 5.03907E+07 7.48883E+07
 -1       349 1.05022E+10 7.51181E+08-8.41178E+07 8.01327E+08 7.04754E+07 4.48821E+07
 -1       350 1.21899E+10 8.73981E+08-8.75402E+07 3.50722E+08 8.34474E+07 6.42504E+06
 -1       351 1.28599E+10 9.23230E+08-8.65973E+07-1.39021E+08 8.88701E+07-3.72785E+07
 -1       352 1.25073E+10 8.98485E+08-8.13974E+07-6.31054E+08 8.68505E+07-8.25184E+07
 -1       353 1.11868E+10 8.03845E+08-7.17181E+07-1.08882E+09 7.78329E+07-1.25378E+08
 -1       354 9.01075E+09 6.47404E+08-5.80509E+07-1.47869E+09 6.26514E+07-1.62103E+08
 -1       355 6.14334E+09 4.40997E+08-4.11908E+07-1.77216E+09 4.24871E+07-1.89453E+08
 -1       356 2.79061E+09 1.99480E+08-2.22051E+07-1.94763E+09 1.88102E+07-2.04943E+08
 -1       357-8.12864E+08-6.02357E+07-2.33774E+06-1.99176E+09-6.71172E+06-2.06987E+08
 -1       358-4.41956E+09-3.20309E+08 1.70695E+07-1.90028E+09-3.23220E+07-1.94965E+08
 -1       359-7.78571E+09-5.63176E+08 3.46704E+07-1.67815E+09-5.62926E+07-1.69211E+08
 -1       360-1.06880E+10-7.72747E+08 4.92179E+07-1.33917E+09-7.70406E+07-1.30928E+08
 -1       361-1.29391E+10-9.35500E+08 5.96771E+07-9.04864E+08-9.32368E+07-8.20224E+07
 -1       362-1.44011E+10-1.04141E+09 6.53276E+07-4.02799E+08-1.03903E+08-2.49008E+07
 -1       363-1.49957E+10-1.08467E+09 6.57998E+07 1.35594E+08-1.08509E+08 3.76614E+07
 -1       364-1.47118E+10-1.06432E+09 6.09134E+07 6.77456E+08-1.07056E+08 1.02399E+08
 -1       365-1.36093E+10-9.84838E+08 5.01556E+07 1.19059E+09-1.00231E+08 1.64929E+08
 -1       366-1.18208E+10-8.57089E+08 3.16754E+07 1.64429E+09-8.93105E+07 2.18959E+08
 -1       367-9.54892E+09-6.99412E+08 1.26905E+06 2.00827E+09-7.65644E+07 2.55772E+08
 -1       368-7.05875E+09-5.36664E+08-4.73717E+07 2.24923E+09-6.31918E+07 2.66764E+08
 -1       369-4.65129E+09-4.00373E+08-1.16056E+08 2.32835E+09-5.27045E+07 2.62948E+08
 -1       370-2.61680E+09-3.01554E+08-1.91423E+08 2.23004E+09-2.65616E+07 2.71888E+08
 -1       371-1.13393E+09-2.14544E+08-1.84550E+08 1.95669E+09-4.99780E+07 4.51773E+08
 -1       372-1.42075E+10 5.14908E+08 2.19786E+09 9.09739E+07 2.53149E+08-2.09219E+08
 -1       373-1.08272E+10-1.43895E+09-1.04049E+09-5.36088E+08 8.43509E+07-1.15883E+08
 -1       374-4.84102E+09-4.55396E+08-6.17911E+07-7.01541E+08 4.39385E+07-4.25743E+06
 -1       375 2.02883E+08-4.76892E+07-9.59787E+07-7.82345E+08-2.45950E+07 2.03902E+07
 -1       376 4.79797E+09 4.24475E+08 1.00716E+08-7.42694E+08-7.39966E+07 2.88492E+07
 -1       377 8.60174E+09 7.93972E+08 2.13986E+08-6.12545E+08-1.17891E+08 2.31166E+07
 -1       378 1.14948E+10 1.08164E+09 3.12802E+08-4.01211E+08-1.50629E+08 8.48346E+06
 -1       379 1.33421E+10 1.26573E+09 3.75628E+08-1.32129E+08-1.71372E+08-1.33425E+07
 -1       380 1.40766E+10 1.34138E+09 4.03865E+08 1.70292E+08-1.78936E+08-3.97817E+07
 -1       381 1.36916E+10 1.30774E+09 3.96661E+08 4.79652E+08-1.73105E+08-6.81710E+07
 -1       382 1.22465E+10 1.17088E+09 3.56291E+08 7.70123E+08-1.54483E+08-9.55834E+07
 -1       383 9.86444E+09 9.42902E+08 2.86706E+08 1.01809E+09-1.24520E+08-1.19203E+08
 -1       384 6.72544E+09 6.41335E+08 1.93542E+08 1.20360E+09-8.53965E+07-1.36587E+08
 -1       385 3.05516E+09 2.88034E+08 8.37257E+07 1.31146E+09-3.98741E+07-1.45851E+08
 -1       386-8.89557E+08-9.21755E+07-3.49275E+07 1.33212E+09 8.88898E+06-1.45762E+08
 -1       387-4.83769E+09-4.73135E+08-1.54218E+08 1.26211E+09 5.75514E+07-1.35778E+08
 -1       388-8.52236E+09-8.29109E+08-2.66104E+08 1.10418E+09 1.02817E+08-1.16030E+08
 -1       389-1.16992E+10-1.13656E+09-3.63270E+08 8.66912E+08 1.41663E+08-8.72413E+07
 -1       390-1.41633E+10-1.37583E+09-4.39674E+08 5.63978E+08 1.71551E+08-5.05918E+07
 -1       391-1.57645E+10-1.53265E+09-4.91070E+08 2.12900E+08 1.90605E+08-7.56210E+06
 -1       392-1.64185E+10-1.59930E+09-5.15421E+08-1.66534E+08 1.97717E+08 4.01452E+07
 -1       393-1.61141E+10-1.57535E+09-5.13086E+08-5.54017E+08 1.92584E+08 9.04170E+07
 -1       394-1.49154E+10-1.46763E+09-4.86504E+08-9.30096E+08 1.75598E+08 1.40038E+08
 -1       395-1.29581E+10-1.28895E+09-4.39073E+08-1.27628E+09 1.47935E+08 1.83842E+08
 -1       396-1.04402E+10-1.05557E+09-3.72958E+08-1.57321E+09 1.11165E+08 2.14134E+08
 -1       397-7.61199E+09-7.85174E+08-2.87898E+08-1.79655E+09 6.93752E+07 2.23243E+08
 -1       398-4.77330E+09-4.92857E+08-1.80404E+08-1.91373E+09 2.62143E+07 2.22780E+08
 -1       399-2.28476E+09-2.04869E+08-6.28053E+07-1.91194E+09 8.44206E+06 2.41267E+08
 -1       400-6.69950E+08-3.30550E+07 9.09084E+06-1.76540E+09-3.50463E+07 4.35886E+08
 -1       401-9.86564E+09-4.22820E+09-4.22821E+09 5.34696E+09-4.70652E+02 1.17781E+09
 -1       402-1.09048E+10-4.67355E+09-4.67355E+09 4.98427E+09 8.61669E+02 1.33224E+09
 -1       403-5.92436E+08-6.14346E+08-4.72722E+08 1.97896E+09 2.38798E+08-7.39402E+07
 -1       404-3.83820E+08 6.64921E+08 1.90074E+08 2.53780E+09-1.67933E+08-4.21304E+08
 -1       405-4.15879E+08 3.15960E+08-1.58251E+08 2.68437E+09-6.36062E+07-2.24300E+08
 -1       406-2.04528E+08 1.35234E+08-1.18977E+08 2.84043E+09-8.97810E+07-1.78257E+08
 -1       407-4.12735E+07-1.25254E+07-1.44536E+08 2.74676E+09-5.19766E+07-1.31693E+08
 -1       408 1.10389E+08-1.55408E+08-1.36415E+08 2.44999E+09-2.69196E+07-9.82919E+07
 -1       409 2.38317E+08-2.71759E+08-1.30778E+08 1.97914E+09-3.71633E+05-7.47627E+07
 -1       410 3.35284E+08-3.59984E+08-1.24259E+08 1.36228E+09 1.93919E+07-5.91376E+07
 -1       411 3.97951E+08-4.16300E+08-1.17941E+08 6.43132E+08 3.32921E+07-4.95968E+07
 -1       412 4.24542E+08-4.38315E+08-1.10279E+08-1.27894E+08 4.07860E+07-4.46061E+07
 -1       413 4.15269E+08-4.25884E+08-1.00182E+08-8.96425E+08 4.25164E+07-4.25703E+07
 -1       414 3.72312E+08-3.80763E+08-8.69665E+07-1.60850E+09 3.90757E+07-4.21079E+07
 -1       415 2.99680E+08-3.06739E+08-7.06793E+07-2.21431E+09 3.12220E+07-4.20254E+07
 -1       416 2.03076E+08-2.09359E+08-5.18936E+07-2.67154E+09 1.98106E+07-4.13374E+07
 -1       417 8.95696E+07-9.55991E+07-3.15734E+07-2.94821E+09 5.81703E+06-3.92609E+07
 -1       418-3.28276E+07 2.65927E+07-1.09331E+07-3.02476E+09-9.69823E+06-3.52091E+07
 -1       419-1.55684E+08 1.48827E+08 8.68087E+06-2.89531E+09-2.56407E+07-2.87804E+07
 -1       420-2.70709E+08 2.62838E+08 2.59034E+07-2.56804E+09-4.09457E+07-1.97381E+07
 -1       421-3.70321E+08 3.61055E+08 3.94548E+07-2.06455E+09-5.46464E+07-7.97966E+06
 -1       422-4.48177E+08 4.37126E+08 4.82050E+07-1.41832E+09-6.59548E+07 6.51307E+06
 -1       423-4.99670E+08 4.86373E+08 5.11355E+07-6.72264E+08-7.43755E+07 2.37444E+07
 -1       424-5.22373E+08 5.06131E+08 4.71082E+07 1.24403E+08-7.98929E+07 4.37964E+07
 -1       425-5.16444E+08 4.95952E+08 3.44028E+07 9.19671E+08-8.32202E+07 6.69241E+07
 -1       426-4.84892E+08 4.57676E+08 1.02926E+07 1.66207E+09-8.60414E+07 9.35934E+07
 -1       427-4.33504E+08 3.95372E+08-2.85205E+07 2.30305E+09-9.05460E+07 1.24361E+08
 -1       428-3.69738E+08 3.15263E+08-8.26867E+07 2.79715E+09-9.84572E+07 1.59424E+08
 -1       429-2.99337E+08 2.26640E+08-1.41435E+08 3.10144E+09-1.04169E+08 1.98165E+08
 -1       430-2.24644E+08 1.37677E+08-1.74127E+08 3.17531E+09-1.00023E+08 2.39032E+08
 -1       431-1.24903E+08 7.23797E+07-9.82773E+07 2.99468E+09-2.74688E+07 2.81116E+08
 -1       432 1.38139E+07 3.32471E+07 1.85605E+08 2.62439E+09 7.32573E+07 3.35704E+08
 -1       433-8.43663E+07 3.24205E+08-3.87354E+07-1.75019E+09 2.09946E+08-8.47119E+07
 -1       434 9.86564E+09 4.22820E+09 4.22821E+09-5.34696E+09-4.70652E+02 1.17781E+09
 -1       435 1.09048E+10 4.67355E+09 4.67355E+09-4.98427E+09 8.61669E+02 1.33224E+09
 -1       436-1.38139E+07-3.32471E+07-1.85605E+08-2.62439E+09 7.32573E+07 3.35704E+08
 -1       437 1.24903E+08-7.23797E+07 9.82773E+07-2.99468E+09-2.74688E+07 2.81116E+08
 -1       438 2.24644E+08-1.37677E+08 1.74127E+08-3.17531E+09-1.00023E+08 2.39032E+08
 -1       439 2.99337E+08-2.26640E+08 1.41435E+08-3.10144E+09-1.04169E+08 1.98165E+08
 -1       440 3.69738E+08-3.15263E+08 8.26867E+07-2.79715E+09-9.84572E+07 1.59424E+08
 -1       441 4.33504E+08-3.95372E+08 2.85205E+07-2.30305E+09-9.05460E+07 1.24361E+08
 -1       442 4.84892E+08-4.57676E+08-1.02926E+07-1.66207E+09-8.60414E+07 9.35934E+07
 -1       443 5.16444E+08-4.95952E+08-3.44028E+07-9.19671E+08-8.32202E+07 6.69241E+07
 -1       444 5.22373E+08-5.06131E+08-4.71082E+07-1.24403E+08-7.98929E+07 4.37964E+07
 -1       445 4.99670E+08-4.86373E+08-5.11355E+07 6.72264E+08-7.43755E+07 2.37444E+07
 -1       446 4.48177E+08-4.37126E+08-4.82050E+07 1.41832E+09-6.59548E+07 6.51307E+06
 -1       447 3.70321E+08-3.61055E+08-3.94548E+07 2.06455E+09-5.46464E+07-7.97966E+06
 -1       448 2.70709E+08-2.62838E+08-2.59034E+07 2.56804E+09-4.09457E+07-1.97381E+07
 -1       449 1.55684E+08-1.48827E+08-8.68087E+06 2.89531E+09-2.56407E+07-2.87804E+07
 -1       450 3.28276E+07-2.65927E+07 1.09331E+07 3.02476E+09-9.69823E+06-3.52091E+07
 -1       451-8.95696E+07 9.55991E+07 3.15734E+07 2.94821E+09 5.81703E+06-3.92609E+07
 -1       452-2.03076E+08 2.09359E+08 5.18936E+07 2.67154E+09 1.98106E+07-4.13374E+07
 -1       453-2.99680E+08 3.06739E+08 7.06793E+07 2.21431E+09 3.12220E+07-4.20254E+07
 -1       454-3.72312E+08 3.80763E+08 8.69665E+07 1.60850E+09 3.90757E+07-4.21079E+07
 -1       455-4.15269E+08 4.25884E+08 1.00182E+08 8.96425E+08 4.25164E+07-4.25703E+07
 -1       456-4.24542E+08 4.38315E+08 1.10279E+08 1.27894E+08 4.07860E+07-4.46061E+07
 -1       457-3.97951E+08 4.16300E+08 1.17941E+08-6.43132E+08 3.32921E+07-4.95968E+07
 -1       458-3.35284E+08 3.59984E+08 1.24259E+08-1.36228E+09 1.93919E+07-5.91376E+07
 -1       459-2.38317E+08 2.71759E+08 1.30778E+08-1.97914E+09-3.71633E+05-7.47627E+07
 -1       460-1.10389E+08 1.55408E+08 1.36415E+08-2.44999E+09-2.69196E+07-9.82919E+07
 -1       461 4.12735E+07 1.25254E+07 1.44536E+08-2.74676E+09-5.19766E+07-1.31693E+08
 -1       462 2.04528E+08-1.35234E+08 1.18977E+08-2.84043E+09-8.97810E+07-1.78257E+08
 -1       463 4.15879E+08-3.15960E+08 1.58251E+08-2.68437E+09-6.36062E+07-2.24300E+08
 -1       464 3.83820E+08-6.64921E+08-1.90074E+08-2.53780E+09-1.67933E+08-4.21304E+08
 -1       465 5.92436E+08 6.14346E+08 4.72722E+08-1.97896E+09 2.38798E+08-7.39402E+07
 -1       466 1.26846E+10-1.07164E+09-2.82177E+09-1.35938E+09-1.50559E+08-2.77743E+08
 -1       467 1.00054E+10 1.10346E+09 6.93308E+08-1.45007E+09-6.03497E+07 8.17639E+06
 -1       468 4.50739E+09 2.91118E+08-8.75813E+07-1.62246E+09-4.93324E+07 6.79670E+07
 -1       469-1.33485E+08 2.89285E+07 1.11170E+08-1.59926E+09-7.31759E+06 9.80987E+07
 -1       470-4.36458E+09-3.05328E+08 6.50451E+07-1.45345E+09 2.33559E+07 9.27729E+07
 -1       471-7.85415E+09-5.56494E+08 8.15325E+07-1.17803E+09 5.03907E+07 7.48883E+07
 -1       472-1.05022E+10-7.51181E+08 8.41178E+07-8.01327E+08 7.04754E+07 4.48821E+07
 -1       473-1.21899E+10-8.73981E+08 8.75402E+07-3.50722E+08 8.34474E+07 6.42504E+06
 -1       474-1.28599E+10-9.23230E+08 8.65973E+07 1.39021E+08 8.88701E+07-3.72785E+07
 -1       475-1.25073E+10-8.98485E+08 8.13974E+07 6.31054E+08 8.68505E+07-8.25184E+07
 -1       476-1.11868E+10-8.03845E+08 7.17181E+07 1.08882E+09 7.78329E+07-1.25378E+08
 -1       477-9.01075E+09-6.47404E+08 5.80509E+07 1.47869E+09 6.26514E+07-1.62103E+08
 -1       478-6.14334E+09-4.40997E+08 4.11908E+07 1.77216E+09 4.24871E+07-1.89453E+08
 -1       479-2.79061E+09-1.99480E+08 2.22051E+07 1.94763E+09 1.88102E+07-2.04943E+08
 -1       480 8.12864E+08 6.02357E+07 2.33774E+06 1.99176E+09-6.71172E+06-2.06987E+08
 -1       481 4.41956E+09 3.20309E+08-1.70695E+07 1.90028E+09-3.23220E+07-1.94965E+08
 -1       482 7.78571E+09 5.63176E+08-3.46704E+07 1.67815E+09-5.62926E+07-1.69211E+08
 -1       483 1.06880E+10 7.72747E+08-4.92179E+07 1.33917E+09-7.70406E+07-1.30928E+08
 -1       484 1.29391E+10 9.35500E+08-5.96771E+07 9.04864E+08-9.32368E+07-8.20224E+07
 -1       485 1.44011E+10 1.04141E+09-6.53276E+07 4.02799E+08-1.03903E+08-2.49008E+07
 -1       486 1.49957E+10 1.08467E+09-6.57998E+07-1.35594E+08-1.08509E+08 3.76614E+07
 -1       487 1.47118E+10 1.06432E+09-6.09134E+07-6.77456E+08-1.07056E+08 1.02399E+08
 -1       488 1.36093E+10 9.84838E+08-5.01556E+07-1.19059E+09-1.00231E+08 1.64929E+08
 -1       489 1.18208E+10 8.57089E+08-3.16754E+07-1.64429E+09-8.93105E+07 2.18959E+08
 -1       490 9.54892E+09 6.99412E+08-1.26905E+06-2.00827E+09-7.65644E+07 2.55772E+08
 -1       491 7.05875E+09 5.36664E+08 4.73717E+07-2.24923E+09-6.31918E+07 2.66764E+08
 -1       492 4.65129E+09 4.00373E+08 1.16056E+08-2.32835E+09-5.27045E+07 2.62948E+08
 -1       493 2.61680E+09 3.01554E+08 1.91423E+08-2.23004E+09-2.65616E+07 2.71888E+08
 -1       494 1.13393E+09 2.14544E+08 1.84550E+08-1.95669E+09-4.99780E+07 4.51773E+08
 -1       495 1.42075E+10-5.14908E+08-2.19786E+09-9.09739E+07 2.53149E+08-2.09219E+08
 -1       496 1.08272E+10 1.43895E+09 1.04049E+09 5.36088E+08 8.43509E+07-1.15883E+08
 -1       497 4.84102E+09 4.55396E+08 6.17911E+07 7.01541E+08 4.39385E+07-4.25743E+06
 -1       498-2.02883E+08 4.76892E+07 9.59787E+07 7.82345E+08-2.45950E+07 2.03902E+07
 -1       499-4.79797E+09-4.24475E+08-1.00716E+08 7.42694E+08-7.39966E+07 2.88492E+07
 -1       500-8.60174E+09-7.93972E+08-2.13986E+08 6.12545E+08-1.17891E+08 2.31166E+07
 -1       501-1.14948E+10-1.08164E+09-3.12802E+08 4.01211E+08-1.50629E+08 8.48346E+06
 -1       502-1.33421E+10-1.26573E+09-3.75628E+08 1.32129E+08-1.71372E+08-1.33425E+07
 -1       503-1.40766E+10-1.34138E+09-4.03865E+08-1.70292E+08-1.78936E+08-3.97817E+07
 -1       504-1.36916E+10-1.30774E+09-3.96661E+08-4.79652E+08-1.73105E+08-6.81710E+07
 -1       505-1.22465E+10-1.17088E+09-3.56291E+08-7.70123E+08-1.54483E+08-9.55834E+07
 -1       506-9.86444E+09-9.42902E+08-2.86706E+08-1.01809E+09-1.24520E+08-1.19203E+08
 -1       507-6.72544E+09-6.41335E+08-1.93542E+08-1.20360E+09-8.53965E+07-1.36587E+08
 -1       508-3.05516E+09-2.88034E+08-8.37257E+07-1.31146E+09-3.98741E+07-1.45851E+08
 -1       509 8.89557E+08 9.21755E+07 3.49275E+07-1.33212E+09 8.88898E+06-1.45762E+08
 -1       510 4.83769E+09 4.73135E+08 1.54218E+08-1.26211E+09 5.75514E+07-1.35778E+08
 -1       511 8.52236E+09 8.29109E+08 2.66104E+08-1.10418E+09 1.02817E+08-1.16030E+08
 -1       512 1.16992E+10 1.13656E+09 3.63270E+08-8.66912E+08 1.41663E+08-8.72413E+07
 -1       513 1.41633E+10 1.37583E+09 4.39674E+08-5.63978E+08 1.71551E+08-5.05918E+07
 -1       514 1.57645E+10 1.53265E+09 4.91070E+08-2.12900E+08 1.90605E+08-7.56210E+06
 -1       515 1.64185E+10 1.59930E+09 5.15421E+08 1.66534E+08 1.97717E+08 4.01452E+07
 -1       516 1.61141E+10 1.57535E+09 5.13086E+08 5.54017E+08 1.92584E+08 9.04170E+07
 -1       517 1.49154E+10 1.46763E+09 4.86504E+08 9.30096E+08 1.75598E+08 1.40038E+08
 -1       518 1.29581E+10 1.28895E+09 4.39073E+08 1.27628E+09 1.47935E+08 1.83842E+08
 -1       519 1.04402E+10 1.05557E+09 3.72958E+08 1.57321E+09 1.11165E+08 2.14134E+08
 -1       520 7.61199E+09 7.85174E+08 2.87898E+08 1.79655E+09 6.93752E+07 2.23243E+08
 -1       521 4.77330E+09 4.92857E+08 1.80404E+08 1.91373E+09 2.62143E+07 2.22780E+08
 -1       522 2.28476E+09 2.04869E+08 6.28053E+07 1.91194E+09 8.44206E+06 2.41267E+08
 -1       523 6.69950E+08 3.30550E+07-9.09084E+06 1.76540E+09-3.50463E+07 4.35886E+08
 -1       524 8.43663E+07-3.24205E+08 3.87354E+07 1.75019E+09 2.09946E+08-8.47119E+07
 -1       525 5.30513E+08 2.34196E+08 2.50140E+08-4.07733E+08 2.03497E+07-3.66656E+08
 -1       526 3.00874E+08 1.33812E+08 1.45166E+08-2.85786E+08-2.08039E+07-6.04162E+08
 -1       527 1.37607E+08 6.38967E+07 7.53824E+07-2.32368E+08-3.95200E+07-7.38369E+08
 -1       528-1.01648E+07 1.85215E+05 1.07822E+07-2.16822E+08-4.74714E+07-7.73685E+08
 -1       529-1.50109E+08-6.13606E+07-5.44260E+07-1.85376E+08-5.05782E+07-7.20060E+08
 -1       530-2.68743E+08-1.14262E+08-1.12129E+08-1.46374E+08-5.23583E+07-5.88837E+08
 -1       531-3.58022E+08-1.54201E+08-1.55980E+08-1.03892E+08-5.31959E+07-3.95988E+08
 -1       532-4.14402E+08-1.79486E+08-1.83884E+08-6.04262E+07-5.29342E+07-1.59654E+08
 -1       533-4.36424E+08-1.89538E+08-1.95369E+08-1.67595E+07-5.11261E+07 1.00103E+08
 -1       534-4.24029E+08-1.84401E+08-1.90643E+08 2.51925E+07-4.73605E+07 3.62536E+08
 -1       535-3.79076E+08-1.64939E+08-1.70722E+08 6.33155E+07-4.14808E+07 6.07369E+08
 -1       536-3.05353E+08-1.32837E+08-1.37438E+08 9.55915E+07-3.36222E+07 8.16011E+08
 -1       537-2.08386E+08-9.05266E+07-9.33690E+07 1.20292E+08-2.41595E+07 9.72683E+08
 -1       538-9.51124E+07-4.10465E+07-4.17093E+07 1.36124E+08-1.36438E+07 1.06539E+09
 -1       539 2.65642E+07 1.21441E+07 1.39161E+07 1.42354E+08-2.74165E+06 1.08666E+09
 -1       540 1.48293E+08 6.53928E+07 6.96825E+07 1.38882E+08 7.82174E+06 1.03394E+09
 -1       541 2.61842E+08 1.15098E+08 1.21817E+08 1.26266E+08 1.73195E+07 9.09742E+08
 -1       542 3.59650E+08 1.57951E+08 1.66853E+08 1.05700E+08 2.50763E+07 7.21358E+08
 -1       543 4.35353E+08 1.91166E+08 2.01867E+08 7.89472E+07 3.05069E+07 4.80309E+08
 -1       544 4.84230E+08 2.12686E+08 2.24724E+08 4.82522E+07 3.31172E+07 2.01468E+08
 -1       545 5.03601E+08 2.21381E+08 2.34335E+08 1.62505E+07 3.24386E+07-9.80522E+07
 -1       546 4.93166E+08 2.17234E+08 2.30948E+08-1.40941E+07 2.78730E+07-4.00191E+08
 -1       547 4.55332E+08 2.01525E+08 2.16419E+08-3.94587E+07 1.85738E+07-6.87339E+08
 -1       548 3.95526E+08 1.76929E+08 1.94237E+08-5.59970E+07 3.53157E+06-9.43806E+08
 -1       549 3.22203E+08 1.47238E+08 1.68590E+08-5.93779E+07-1.70401E+07-1.15726E+09
 -1       550 2.44781E+08 1.15638E+08 1.40679E+08-4.74120E+07-3.99415E+07-1.32015E+09
 -1       551 1.66145E+08 8.01303E+07 1.00956E+08-2.76230E+07-5.14267E+07-1.43049E+09
 -1       552 8.07810E+07 3.23696E+07 2.71177E+07-8.24106E+05-3.42860E+07-1.49377E+09
 -1       553-1.48500E+07-3.45815E+07-1.00422E+08 3.66349E+07 8.53261E+07-1.51458E+09
 -1       554-3.95466E-02-1.37574E-03-8.51724E-03 6.98325E-03-5.57428E+07-3.82566E+08
 -1       555-3.59112E-02-2.59429E-03-4.23770E-03 6.07607E-03-1.23560E+07-6.23623E+08
 -1       556-3.08639E-02 1.73920E-03 7.33212E-04 3.27095E-03 3.20686E+06-7.49691E+08
 -1       557-2.85274E-02 2.23306E-03 2.56902E-03 1.45451E-03 9.12273E+06-7.84013E+08
 -1       558-2.62531E-02 2.41470E-03 3.35069E-03 4.27959E-04 2.11916E+07-7.29786E+08
 -1       559-2.42376E-02 2.56020E-03 2.89369E-03 9.75123E-04 3.65016E+07-5.97119E+08
 -1       560-2.13149E-02 3.66479E-03 3.84562E-03 2.21587E-03 4.86317E+07-4.02047E+08
 -1       561-1.96062E-02 4.08033E-03 5.24117E-03 1.52281E-03 5.60108E+07-1.63557E+08
 -1       562-1.94961E-02 4.18199E-03 6.38196E-03-1.52919E-03 5.86544E+07 9.81803E+07
 -1       563-2.12287E-02 2.72881E-03 3.27519E-03-3.17051E-03 5.67324E+07 3.62398E+08
 -1       564-2.28463E-02 3.12516E-04-5.97608E-04-3.02987E-03 5.05845E+07 6.08793E+08
 -1       565-2.29956E-02-8.83829E-04-3.20075E-03-1.12863E-03 4.07504E+07 8.18738E+08
 -1       566-2.11815E-02-5.91434E-04-2.05979E-03 1.99640E-03 2.79607E+07 9.76422E+08
 -1       567-1.82633E-02 1.45231E-03 1.76272E-03 8.96653E-04 1.31099E+07 1.06983E+09
 -1       568-1.79403E-02 7.49836E-04 1.67194E-03-1.92035E-03-2.78286E+06 1.09145E+09
 -1       569-1.89766E-02-1.74172E-04-3.72486E-04-2.31725E-03-1.86318E+07 1.03877E+09
 -1       570-2.21377E-02-3.00219E-03-4.87605E-03-3.44433E-03-3.33512E+07 9.14296E+08
 -1       571-2.56084E-02-5.84450E-03-9.62077E-03-3.17612E-03-4.59236E+07 7.25383E+08
 -1       572-2.67924E-02-7.30226E-03-1.08963E-02 2.31726E-04-5.54745E+07 4.83624E+08
 -1       573-2.48743E-02-5.09038E-03-7.39560E-03 2.03508E-03-6.13712E+07 2.04001E+08
 -1       574-2.31749E-02-4.48356E-03-5.20451E-03 8.73435E-04-6.33731E+07-9.62066E+07
 -1       575-2.13245E-02-4.21387E-03-3.82454E-03-7.22511E-04-6.18408E+07-3.98709E+08
 -1       576-1.94165E-02-3.48812E-03-3.19436E-03-1.88371E-04-5.78956E+07-6.85639E+08
 -1       577-1.66224E-02-3.48040E-03-2.63232E-03 9.26415E-04-5.34038E+07-9.41201E+08
 -1       578-1.22616E-02-2.31152E-03-1.36009E-03 1.15117E-03-4.93490E+07-1.15360E+09
 -1       579-7.96741E-03-4.97224E-04-5.66505E-04-1.81147E-04-4.31048E+07-1.31740E+09
 -1       580-5.45089E-03-5.07904E-04 7.89643E-04-3.05417E-04-1.54041E+07-1.43371E+09
 -1       581-3.34871E-03 1.22317E-03 3.39406E-03 5.62844E-04 4.45565E+07-1.50772E+09
 -1       582-1.49354E-04 2.85607E-03 8.78239E-03 1.72696E-03 1.90216E+08-1.54377E+09
 -1       583-5.30513E+08-2.34196E+08-2.50140E+08 4.07733E+08 2.03497E+07-3.66656E+08
 -1       584-3.00874E+08-1.33812E+08-1.45166E+08 2.85786E+08-2.08039E+07-6.04162E+08
 -1       585-1.37607E+08-6.38967E+07-7.53824E+07 2.32368E+08-3.95200E+07-7.38369E+08
 -1       586 1.01648E+07-1.85215E+05-1.07822E+07 2.16822E+08-4.74714E+07-7.73685E+08
 -1       587 1.50109E+08 6.13606E+07 5.44260E+07 1.85376E+08-5.05782E+07-7.20060E+08
 -1       588 2.68743E+08 1.14262E+08 1.12129E+08 1.46374E+08-5.23583E+07-5.88837E+08
 -1       589 3.58022E+08 1.54201E+08 1.55980E+08 1.03892E+08-5.31959E+07-3.95988E+08
 -1       590 4.14402E+08 1.79486E+08 1.83884E+08 6.04262E+07-5.29342E+07-1.59654E+08
 -1       591 4.36424E+08 1.89538E+08 1.95369E+08 1.67595E+07-5.11261E+07 1.00103E+08
 -1       592 4.24029E+08 1.84401E+08 1.90643E+08-2.51925E+07-4.73605E+07 3.62536E+08
 -1       593 3.79076E+08 1.64939E+08 1.70722E+08-6.33155E+07-4.14808E+07 6.07369E+08
 -1       594 3.05353E+08 1.32837E+08 1.37438E+08-9.55915E+07-3.36222E+07 8.16011E+08
 -1       595 2.08386E+08 9.05266E+07 9.33690E+07-1.20292E+08-2.41595E+07 9.72683E+08
 -1       596 9.51124E+07 4.10465E+07 4.17093E+07-1.36124E+08-1.36438E+07 1.06539E+09
 -1       597-2.65642E+07-1.21441E+07-1.39161E+07-1.42354E+08-2.74165E+06 1.08666E+09
 -1       598-1.48293E+08-6.53928E+07-6.96825E+07-1.38882E+08 7.82174E+06 1.03394E+09
 -1       599-2.61842E+08-1.15098E+08-1.21817E+08-1.26266E+08 1.73195E+07 9.09742E+08
 -1       600-3.59650E+08-1.57951E+08-1.66853E+08-1.05700E+08 2.50763E+07 7.21358E+08
 -1       601-4.35353E+08-1.91166E+08-2.01867E+08-7.89472E+07 3.05069E+07 4.80309E+08
 -1       602-4.84230E+08-2.12686E+08-2.24724E+08-4.82522E+07 3.31172E+07 2.01468E+08
 -1       603-5.03601E+08-2.21381E+08-2.34335E+08-1.62505E+07 3.24386E+07-9.80522E+07
 -1       604-4.93166E+08-2.17234E+08-2.30948E+08 1.40941E+07 2.78730E+07-4.00191E+08
 -1       605-4.55332E+08-2.01525E+08-2.16419E+08 3.94587E+07 1.85738E+07-6.87339E+08
 -1       606-3.95526E+08-1.76929E+08-1.94237E+08 5.59970E+07 3.53157E+06-9.43806E+08
 -1       607-3.22203E+08-1.47238E+08-1.68590E+08 5.93779E+07-1.70401E+07-1.15726E+09
 -1       608-2.44781E+08-1.15638E+08-1.40679E+08 4.74120E+07-3.99415E+07-1.32015E+09
 -1       609-1.66145E+08-8.01303E+07-1.00956E+08 2.76230E+07-5.14267E+07-1.43049E+09
 -1       610-8.07810E+07-3.23696E+07-2.71177E+07 8.24106E+05-3.42860E+07-1.49377E+09
 -1       611 1.48500E+07 3.45815E+07 1.00422E+08-3.66349E+07 8.53261E+07-1.51458E+09
 -1       612 5.30513E+08 2.34196E+08 2.50140E+08 4.07733E+08 2.03497E+07 3.66656E+08
 -1       613 3.00874E+08 1.33812E+08 1.45166E+08 2.85786E+08-2.08039E+07 6.04162E+08
 -1       614 1.37607E+08 6.38967E+07 7.53824E+07 2.32368E+08-3.95200E+07 7.38369E+08
 -1       615-1.01648E+07 1.85215E+05 1.07822E+07 2.16822E+08-4.74714E+07 7.73685E+08
 -1       616-1.50109E+08-6.13606E+07-5.44260E+07 1.85376E+08-5.05782E+07 7.20060E+08
 -1       617-2.68743E+08-1.14262E+08-1.12129E+08 1.46374E+08-5.23583E+07 5.88837E+08
 -1       618-3.58022E+08-1.54201E+08-1.55980E+08 1.03892E+08-5.31959E+07 3.95988E+08
 -1       619-4.14402E+08-1.79486E+08-1.83884E+08 6.04262E+07-5.29342E+07 1.59654E+08
 -1       620-4.36424E+08-1.89538E+08-1.95369E+08 1.67595E+07-5.11261E+07-1.00103E+08
 -1       621-4.24029E+08-1.84401E+08-1.90643E+08-2.51925E+07-4.73605E+07-3.62536E+08
 -1       622-3.79076E+08-1.64939E+08-1.70722E+08-6.33155E+07-4.14808E+07-6.07369E+08
 -1       623-3.05353E+08-1.32837E+08-1.37438E+08-9.55915E+07-3.36222E+07-8.16011E+08
 -1       624-2.08386E+08-9.05266E+07-9.33690E+07-1.20292E+08-2.41595E+07-9.72683E+08
 -1       625-9.51124E+07-4.10465E+07-4.17093E+07-1.36124E+08-1.36438E+07-1.06539E+09
 -1       626 2.65642E+07 1.21441E+07 1.39161E+07-1.42354E+08-2.74165E+06-1.08666E+09
 -1       627 1.48293E+08 6.53928E+07 6.96825E+07-1.38882E+08 7.82174E+06-1.03394E+09
 -1       628 2.61842E+08 1.15098E+08 1.21817E+08-1.26266E+08 1.73195E+07-9.09742E+08
 -1       629 3.59650E+08 1.57951E+08 1.66853E+08-1.05700E+08 2.50763E+07-7.21358E+08
 -1       630 4.35353E+08 1.91166E+08 2.01867E+08-7.89472E+07 3.05069E+07-4.80309E+08
 -1       631 4.84230E+08 2.12686E+08 2.24724E+08-4.82522E+07 3.31172E+07-2.01468E+08
 -1       632 5.03601E+08 2.21381E+08 2.34335E+08-1.62505E+07 3.24386E+07 9.80522E+07
 -1       633 4.93166E+08 2.17234E+08 2.30948E+08 1.40941E+07 2.78730E+07 4.00191E+08
 -1       634 4.55332E+08 2.01525E+08 2.16419E+08 3.94587E+07 1.85738E+07 6.87339E+08
 -1       635 3.95526E+08 1.76929E+08 1.94237E+08 5.59970E+07 3.53157E+06 9.43806E+08
 -1       636 3.22203E+08 1.47238E+08 1.68590E+08 5.93779E+07-1.70401E+07 1.15726E+09
 -1       637 2.44781E+08 1.15638E+08 1.40679E+08 4.74120E+07-3.99415E+07 1.32015E+09
 -1       638 1.66145E+08 8.01303E+07 1.00956E+08 2.76230E+07-5.14267E+07 1.43049E+09
 -1       639 8.07810E+07 3.23696E+07 2.71177E+07 8.24106E+05-3.42860E+07 1.49377E+09
 -1       640-1.48500E+07-3.45815E+07-1.00422E+08-3.66349E+07 8.53261E+07 1.51458E+09
 -1       641-1.57175E-02 8.65104E-03 1.07940E-03 7.14629E-03-5.57428E+07 3.82566E+08
 -1       642-2.72019E-02 1.93596E-04-3.64711E-03 6.06039E-03-1.23560E+07 6.23623E+08
 -1       643-3.33117E-02-7.88203E-04-5.27529E-03 3.32288E-03 3.20686E+06 7.49691E+08
 -1       644-3.65273E-02-2.59588E-03-5.51007E-03 1.49853E-03 9.12273E+06 7.84013E+08
 -1       645-3.64219E-02-2.92250E-03-4.43726E-03 5.01763E-04 2.11916E+07 7.29786E+08
 -1       646-3.59554E-02-3.12588E-03-4.37945E-03 1.08353E-03 3.65016E+07 5.97119E+08
 -1       647-3.64678E-02-3.36917E-03-5.00699E-03 2.32996E-03 4.86317E+07 4.02047E+08
 -1       648-3.86565E-02-5.00730E-03-5.62621E-03 1.64849E-03 5.60108E+07 1.63557E+08
 -1       649-3.80638E-02-4.35465E-03-3.57554E-03-1.39594E-03 5.86544E+07-9.81803E+07
 -1       650-3.37484E-02-2.43067E-03-1.46183E-03-3.05624E-03 5.67324E+07-3.62398E+08
 -1       651-2.78203E-02-8.78378E-04 4.00827E-04-2.92999E-03 5.05845E+07-6.08793E+08
 -1       652-2.32161E-02 2.62731E-04 7.63335E-04-1.05737E-03 4.07504E+07-8.18738E+08
 -1       653-2.29527E-02-7.04435E-04-7.18783E-04 2.04660E-03 2.79607E+07-9.76422E+08
 -1       654-2.38983E-02-1.19329E-03-1.34237E-03 9.04181E-04 1.31099E+07-1.06983E+09
 -1       655-2.24883E-02-1.58829E-03-1.59016E-03-1.93166E-03-2.78286E+06-1.09145E+09
 -1       656-1.76888E-02 6.44093E-04 1.10191E-03-2.34907E-03-1.86318E+07-1.03877E+09
 -1       657-1.24440E-02 2.60099E-03 4.24242E-03-3.52760E-03-3.33512E+07-9.14296E+08
 -1       658-6.64618E-03 5.07918E-03 7.87975E-03-3.28800E-03-4.59236E+07-7.25383E+08
 -1       659-3.36243E-03 6.17446E-03 1.04456E-02 1.25784E-04-5.54745E+07-4.83624E+08
 -1       660-3.53767E-03 7.09906E-03 1.18521E-02 1.91619E-03-6.13712E+07-2.04001E+08
 -1       661-5.54899E-03 5.39710E-03 1.00569E-02 7.32407E-04-6.33731E+07 9.62066E+07
 -1       662-5.17118E-03 4.31749E-03 8.60867E-03-8.45265E-04-6.18408E+07 3.98709E+08
 -1       663-3.64267E-03 4.34750E-03 7.21515E-03-2.95095E-04-5.78956E+07 6.85639E+08
 -1       664-2.85954E-03 3.00593E-03 5.14562E-03 8.42843E-04-5.34038E+07 9.41201E+08
 -1       665-2.52441E-03 1.55346E-03 1.83960E-03 1.13552E-03-4.93490E+07 1.15360E+09
 -1       666-9.36994E-04 1.58161E-03-6.68069E-04-1.62899E-04-4.31048E+07 1.31740E+09
 -1       667 1.06710E-04 3.44232E-04-1.97435E-03-2.58845E-04-1.54041E+07 1.43371E+09
 -1       668-4.78975E-04 5.16078E-05-3.43961E-03 6.78993E-04 4.45565E+07 1.50772E+09
 -1       669-3.01830E-03-2.33169E-03-5.92562E-03 1.82219E-03 1.90216E+08 1.54377E+09
 -1       670-5.30513E+08-2.34196E+08-2.50140E+08-4.07733E+08 2.03497E+07 3.66656E+08
 -1       671-3.00874E+08-1.33812E+08-1.45166E+08-2.85786E+08-2.08039E+07 6.04162E+08
 -1       672-1.37607E+08-6.38967E+07-7.53824E+07-2.32368E+08-3.95200E+07 7.38369E+08
 -1       673 1.01648E+07-1.85215E+05-1.07822E+07-2.16822E+08-4.74714E+07 7.73685E+08
 -1       674 1.50109E+08 6.13606E+07 5.44260E+07-1.85376E+08-5.05782E+07 7.20060E+08
 -1       675 2.68743E+08 1.14262E+08 1.12129E+08-1.46374E+08-5.23583E+07 5.88837E+08
 -1       676 3.58022E+08 1.54201E+08 1.55980E+08-1.03892E+08-5.31959E+07 3.95988E+08
 -1       677 4.14402E+08 1.79486E+08 1.83884E+08-6.04262E+07-5.29342E+07 1.59654E+08
 -1       678 4.36424E+08 1.89538E+08 1.95369E+08-1.67595E+07-5.11261E+07-1.00103E+08
 -1       679 4.24029E+08 1.84401E+08 1.90643E+08 2.51925E+07-4.73605E+07-3.62536E+08
 -1       680 3.79076E+08 1.64939E+08 1.70722E+08 6.33155E+07-4.14808E+07-6.07369E+08
 -1       681 3.05353E+08 1.32837E+08 1.37438E+08 9.55915E+07-3.36222E+07-8.16011E+08
 -1       682 2.08386E+08 9.05266E+07 9.33690E+07 1.20292E+08-2.41595E+07-9.72683E+08
 -1       683 9.51124E+07 4.10465E+07 4.17093E+07 1.36124E+08-1.36438E+07-1.06539E+09
 -1       684-2.65642E+07-1.21441E+07-1.39161E+07 1.42354E+08-2.74165E+06-1.08666E+09
 -1       685-1.48293E+08-6.53928E+07-6.96825E+07 1.38882E+08 7.82174E+06-1.03394E+09
 -1       686-2.61842E+08-1.15098E+08-1.21817E+08 1.26266E+08 1.73195E+07-9.09742E+08
 -1       687-3.59650E+08-1.57951E+08-1.66853E+08 1.05700E+08 2.50763E+07-7.21358E+08
 -1       688-4.35353E+08-1.91166E+08-2.01867E+08 7.89472E+07 3.05069E+07-4.80309E+08
 -1       689-4.84230E+08-2.12686E+08-2.24724E+08 4.82522E+07 3.31172E+07-2.01468E+08
 -1       690-5.03601E+08-2.21381E+08-2.34335E+08 1.62505E+07 3.24386E+07 9.80522E+07
 -1       691-4.93166E+08-2.17234E+08-2.30948E+08-1.40941E+07 2.78730E+07 4.00191E+08
 -1       692-4.55332E+08-2.01525E+08-2.16419E+08-3.94587E+07 1.85738E+07 6.87339E+08
 -1       693-3.95526E+08-1.76929E+08-1.94237E+08-5.59970E+07 3.53157E+06 9.43806E+08
 -1       694-3.22203E+08-1.47238E+08-1.68590E+08-5.93779E+07-1.70401E+07 1.15726E+09
 -1       695-2.44781E+08-1.15638E+08-1.40679E+08-4.74120E+07-3.99415E+07 1.32015E+09
 -1       696-1.66145E+08-8.01303E+07-1.00956E+08-2.76230E+07-5.14267E+07 1.43049E+09
 -1       697-8.07810E+07-3.23696E+07-2.71177E+07-8.24106E+05-3.42860E+07 1.49377E+09
 -1       698 1.48500E+07 3.45815E+07 1.00422E+08 3.66349E+07 8.53261E+07 1.51458E+09
 -1       699 6.10686E+09-1.37233E+09-1.55367E+09 1.92296E+09-2.26913E+08 1.02529E+08
 -1       700 5.14107E+09 3.31504E+07 1.07030E+08 2.16681E+09-1.08280E+08 5.91396E+07
 -1       701 2.27235E+09-9.96764E+07-1.05617E+08 2.29511E+09-7.58047E+07 6.74871E+07
 -1       702-6.26013E+07-5.47633E+07-3.52571E+07 2.22463E+09-1.96263E+07 7.22569E+07
 -1       703-2.16582E+09-6.61153E+06 1.08900E+07 1.99408E+09 2.75782E+07 7.09813E+07
 -1       704-3.91294E+09 3.34240E+07 5.21333E+07 1.61131E+09 6.84129E+07 6.01440E+07
 -1       705-5.23408E+09 6.56871E+07 8.49701E+07 1.10581E+09 9.96041E+07 4.03646E+07
 -1       706-6.07695E+09 8.77017E+07 1.07052E+08 5.12401E+08 1.19995E+08 1.39696E+07
 -1       707-6.41193E+09 9.86456E+07 1.17494E+08-1.26114E+08 1.28966E+08-1.60988E+07
 -1       708-6.23673E+09 9.89975E+07 1.16543E+08-7.63980E+08 1.26626E+08-4.69469E+07
 -1       709-5.57853E+09 8.96702E+07 1.05076E+08-1.35568E+09 1.13704E+08-7.58881E+07
 -1       710-4.49336E+09 7.19688E+07 8.44504E+07-1.85924E+09 9.14853E+07-1.00563E+08
 -1       711-3.06314E+09 4.75309E+07 5.64531E+07-2.23902E+09 6.17609E+07-1.19013E+08
 -1       712-1.39068E+09 1.82827E+07 2.32242E+07-2.46810E+09 2.67334E+07-1.29752E+08
 -1       713 4.06986E+08-1.36411E+07-1.28449E+07-2.52994E+09-1.11107E+07-1.31846E+08
 -1       714 2.20636E+09-4.60140E+07-4.92506E+07-2.41949E+09-4.91588E+07-1.24958E+08
 -1       715 3.88585E+09-7.66545E+07-8.35349E+07-2.14346E+09-8.48446E+07-1.09369E+08
 -1       716 5.33407E+09-1.03574E+08-1.13455E+08-1.71977E+09-1.15824E+08-8.59572E+07
 -1       717 6.45763E+09-1.25145E+08-1.37166E+08-1.17623E+09-1.40145E+08-5.61404E+07
 -1       718 7.18771E+09-1.40309E+08-1.53434E+08-5.48480E+08-1.56416E+08-2.17561E+07
 -1       719 7.48523E+09-1.48855E+08-1.61878E+08 1.22745E+08-1.63966E+08 1.51595E+07
 -1       720 7.34428E+09-1.51717E+08-1.63209E+08 7.94564E+08-1.62981E+08 5.27500E+07
 -1       721 6.79411E+09-1.51047E+08-1.59218E+08 1.42466E+09-1.54604E+08 8.98503E+07
 -1       722 5.90007E+09-1.49370E+08-1.51970E+08 1.97275E+09-1.40573E+08 1.26581E+08
 -1       723 4.76386E+09-1.46692E+08-1.41391E+08 2.39985E+09-1.23086E+08 1.63902E+08
 -1       724 3.52048E+09-1.36975E+08-1.22200E+08 2.66592E+09-1.00992E+08 2.00474E+08
 -1       725 2.33766E+09-9.33946E+07-7.48918E+07 2.72816E+09-7.66095E+07 2.33026E+08
 -1       726 1.36615E+09 4.88224E+06 1.60914E+07 2.56369E+09-2.19316E+07 2.14984E+08
 -1       727 6.96181E+08 1.96219E+08 1.70953E+08 2.20384E+09 1.14789E+05 1.09233E+08
 -1       728 6.91202E+09-1.08230E+09-1.22512E+09 7.33101E+08 1.48724E+08 6.50075E+07
 -1       729 5.62789E+09 2.76483E+08 3.26076E+08 2.10281E+08 5.94073E+07 1.16687E+08
 -1       730 2.50841E+09 9.47919E+07 2.35415E+07-2.54045E+07 2.26705E+07 1.05008E+08
 -1       731-4.45730E+07 7.05406E+07 7.74258E+06-1.69729E+08-2.04830E+07 1.09125E+08
 -1       732-2.34885E+09 4.30215E+07-2.91312E+07-2.20444E+08-5.37985E+07 1.02553E+08
 -1       733-4.26799E+09 1.87470E+07-5.87836E+07-1.95669E+08-8.20872E+07 8.54020E+07
 -1       734-5.72390E+09-1.11380E+06-8.20161E+07-1.05581E+08-1.02960E+08 5.82226E+07
 -1       735-6.65534E+09-1.52301E+07-9.73432E+07 3.24611E+07-1.15953E+08 2.37312E+07
 -1       736-7.02804E+09-2.38568E+07-1.04091E+08 2.00393E+08-1.20379E+08-1.46960E+07
 -1       737-6.83908E+09-2.71892E+07-1.02020E+08 3.79080E+08-1.16099E+08-5.36905E+07
 -1       738-6.11851E+09-2.58398E+07-9.15703E+07 5.50106E+08-1.03474E+08-9.00894E+07
 -1       739-4.92814E+09-2.04964E+07-7.37245E+07 6.96812E+08-8.34290E+07-1.21089E+08
 -1       740-3.35821E+09-1.19331E+07-4.99072E+07 8.05166E+08-5.73849E+07-1.44350E+08
 -1       741-1.52176E+09-9.95830E+05-2.18852E+07 8.64429E+08-2.71579E+07-1.58102E+08
 -1       742 4.52568E+08 1.14229E+07 8.34907E+06 8.67627E+08 5.16668E+06-1.61243E+08
 -1       743 2.42911E+09 2.44243E+07 3.87053E+07 8.11818E+08 3.73790E+07-1.53399E+08
 -1       744 4.27428E+09 3.71553E+07 6.71374E+07 6.98098E+08 6.72969E+07-1.34949E+08
 -1       745 5.86579E+09 4.88713E+07 9.17923E+07 5.31334E+08 9.29156E+07-1.07003E+08
 -1       746 7.10122E+09 5.90159E+07 1.11157E+08 3.19584E+08 1.12541E+08-7.13297E+07
 -1       747 7.90547E+09 6.73248E+07 1.24184E+08 7.32102E+07 1.24893E+08-3.02167E+07
 -1       748 8.23655E+09 7.39556E+07 1.30361E+08-1.96290E+08 1.29156E+08 1.37751E+07
 -1       749 8.08913E+09 7.95844E+07 1.29634E+08-4.77548E+08 1.25007E+08 5.82191E+07
 -1       750 7.49565E+09 8.53416E+07 1.22160E+08-7.60211E+08 1.12588E+08 1.01372E+08
 -1       751 6.52438E+09 9.20772E+07 1.07759E+08-1.03464E+09 9.28204E+07 1.42824E+08
 -1       752 5.27500E+09 9.87319E+07 8.55808E+07-1.28955E+09 6.72896E+07 1.83113E+08
 -1       753 3.87456E+09 1.01938E+08 5.56985E+07-1.50789E+09 4.14433E+07 2.20683E+08
 -1       754 2.47012E+09 8.67453E+07 1.88891E+07-1.66415E+09 1.71495E+07 2.52291E+08
 -1       755 1.25407E+09 4.74660E+07-4.75835E+06-1.74155E+09 2.45156E+07 2.31895E+08
 -1       756 4.58437E+08 6.45214E+06 4.26993E+07-1.75148E+09 3.05386E+06 1.22368E+08
 -1       757-6.91202E+09 1.08230E+09 1.22512E+09-7.33101E+08 1.48724E+08 6.50075E+07
 -1       758-5.62789E+09-2.76483E+08-3.26076E+08-2.10281E+08 5.94073E+07 1.16687E+08
 -1       759-2.50841E+09-9.47919E+07-2.35415E+07 2.54045E+07 2.26705E+07 1.05008E+08
 -1       760 4.45730E+07-7.05406E+07-7.74258E+06 1.69729E+08-2.04830E+07 1.09125E+08
 -1       761 2.34885E+09-4.30215E+07 2.91312E+07 2.20444E+08-5.37985E+07 1.02553E+08
 -1       762 4.26799E+09-1.87470E+07 5.87836E+07 1.95669E+08-8.20872E+07 8.54020E+07
 -1       763 5.72390E+09 1.11380E+06 8.20161E+07 1.05581E+08-1.02960E+08 5.82226E+07
 -1       764 6.65534E+09 1.52301E+07 9.73432E+07-3.24611E+07-1.15953E+08 2.37312E+07
 -1       765 7.02804E+09 2.38568E+07 1.04091E+08-2.00393E+08-1.20379E+08-1.46960E+07
 -1       766 6.83908E+09 2.71892E+07 1.02020E+08-3.79080E+08-1.16099E+08-5.36905E+07
 -1       767 6.11851E+09 2.58398E+07 9.15703E+07-5.50106E+08-1.03474E+08-9.00894E+07
 -1       768 4.92814E+09 2.04964E+07 7.37245E+07-6.96812E+08-8.34290E+07-1.21089E+08
 -1       769 3.35821E+09 1.19331E+07 4.99072E+07-8.05166E+08-5.73849E+07-1.44350E+08
 -1       770 1.52176E+09 9.95830E+05 2.18852E+07-8.64429E+08-2.71579E+07-1.58102E+08
 -1       771-4.52568E+08-1.14229E+07-8.34907E+06-8.67627E+08 5.16668E+06-1.61243E+08
 -1       772-2.42911E+09-2.44243E+07-3.87053E+07-8.11818E+08 3.73790E+07-1.53399E+08
 -1       773-4.27428E+09-3.71553E+07-6.71374E+07-6.98098E+08 6.72969E+07-1.34949E+08
 -1       774-5.86579E+09-4.88713E+07-9.17923E+07-5.31334E+08 9.29156E+07-1.07003E+08
 -1       775-7.10122E+09-5.90159E+07-1.11157E+08-3.19584E+08 1.12541E+08-7.13297E+07
 -1       776-7.90547E+09-6.73248E+07-1.24184E+08-7.32102E+07 1.24893E+08-3.02167E+07
 -1       777-8.23655E+09-7.39556E+07-1.30361E+08 1.96290E+08 1.29156E+08 1.37751E+07
 -1       778-8.08913E+09-7.95844E+07-1.29634E+08 4.77548E+08 1.25007E+08 5.82191E+07
 -1       779-7.49565E+09-8.53416E+07-1.22160E+08 7.60211E+08 1.12588E+08 1.01372E+08
 -1       780-6.52438E+09-9.20772E+07-1.07759E+08 1.03464E+09 9.28204E+07 1.42824E+08
 -1       781-5.27500E+09-9.87319E+07-8.55808E+07 1.28955E+09 6.72896E+07 1.83113E+08
 -1       782-3.87456E+09-1.01938E+08-5.56985E+07 1.50789E+09 4.14433E+07 2.20683E+08
 -1       783-2.47012E+09-8.67453E+07-1.88891E+07 1.66415E+09 1.71495E+07 2.52291E+08
 -1       784-1.25407E+09-4.74660E+07 4.75835E+06 1.74155E+09 2.45156E+07 2.31895E+08
 -1       785-4.58437E+08-6.45214E+06-4.26993E+07 1.75148E+09 3.05386E+06 1.22368E+08
 -1       786-6.10686E+09 1.37233E+09 1.55367E+09-1.92296E+09-2.26913E+08 1.02529E+08
 -1       787-5.14107E+09-3.31504E+07-1.07030E+08-2.16681E+09-1.08280E+08 5.91396E+07
 -1       788-2.27235E+09 9.96764E+07 1.05617E+08-2.29511E+09-7.58047E+07 6.74871E+07
 -1       789 6.26013E+07 5.47633E+07 3.52571E+07-2.22463E+09-1.96263E+07 7.22569E+07
 -1       790 2.16582E+09 6.61153E+06-1.08900E+07-1.99408E+09 2.75782E+07 7.09813E+07
 -1       791 3.91294E+09-3.34240E+07-5.21333E+07-1.61131E+09 6.84129E+07 6.01440E+07
 -1       792 5.23408E+09-6.56871E+07-8.49701E+07-1.10581E+09 9.96041E+07 4.03646E+07
 -1       793 6.07695E+09-8.77017E+07-1.07052E+08-5.12401E+08 1.19995E+08 1.39696E+07
 -1       794 6.41193E+09-9.86456E+07-1.17494E+08 1.26114E+08 1.28966E+08-1.60988E+07
 -1       795 6.23673E+09-9.89975E+07-1.16543E+08 7.63980E+08 1.26626E+08-4.69469E+07
 -1       796 5.57853E+09-8.96702E+07-1.05076E+08 1.35568E+09 1.13704E+08-7.58881E+07
 -1       797 4.49336E+09-7.19688E+07-8.44504E+07 1.85924E+09 9.14853E+07-1.00563E+08
 -1       798 3.06314E+09-4.75309E+07-5.64531E+07 2.23902E+09 6.17609E+07-1.19013E+08
 -1       799 1.39068E+09-1.82827E+07-2.32242E+07 2.46810E+09 2.67334E+07-1.29752E+08
 -1       800-4.06986E+08 1.36411E+07 1.28449E+07 2.52994E+09-1.11107E+07-1.31846E+08
 -1       801-2.20636E+09 4.60140E+07 4.92506E+07 2.41949E+09-4.91588E+07-1.24958E+08
 -1       802-3.88585E+09 7.66545E+07 8.35349E+07 2.14346E+09-8.48446E+07-1.09369E+08
 -1       803-5.33407E+09 1.03574E+08 1.13455E+08 1.71977E+09-1.15824E+08-8.59572E+07
 -1       804-6.45763E+09 1.25145E+08 1.37166E+08 1.17623E+09-1.40145E+08-5.61404E+07
 -1       805-7.18771E+09 1.40309E+08 1.53434E+08 5.48480E+08-1.56416E+08-2.17561E+07
 -1       806-7.48523E+09 1.48855E+08 1.61878E+08-1.22745E+08-1.63966E+08 1.51595E+07
 -1       807-7.34428E+09 1.51717E+08 1.63209E+08-7.94564E+08-1.62981E+08 5.27500E+07
 -1       808-6.79411E+09 1.51047E+08 1.59218E+08-1.42466E+09-1.54604E+08 8.98503E+07
 -1       809-5.90007E+09 1.49370E+08 1.51970E+08-1.97275E+09-1.40573E+08 1.26581E+08
 -1       810-4.76386E+09 1.46692E+08 1.41391E+08-2.39985E+09-1.23086E+08 1.63902E+08
 -1       811-3.52048E+09 1.36975E+08 1.22200E+08-2.66592E+09-1.00992E+08 2.00474E+08
 -1       812-2.33766E+09 9.33946E+07 7.48918E+07-2.72816E+09-7.66095E+07 2.33026E+08
 -1       813-1.36615E+09-4.88224E+06-1.60914E+07-2.56369E+09-2.19316E+07 2.14984E+08
 -1       814-6.96181E+08-1.96219E+08-1.70953E+08-2.20384E+09 1.14789E+05 1.09233E+08
 -1       815-6.10686E+09 1.37233E+09 1.55367E+09 1.92296E+09-2.26913E+08-1.02529E+08
 -1       816-5.14107E+09-3.31504E+07-1.07030E+08 2.16681E+09-1.08280E+08-5.91396E+07
 -1       817-2.27235E+09 9.96764E+07 1.05617E+08 2.29511E+09-7.58047E+07-6.74871E+07
 -1       818 6.26013E+07 5.47633E+07 3.52571E+07 2.22463E+09-1.96263E+07-7.22569E+07
 -1       819 2.16582E+09 6.61153E+06-1.08900E+07 1.99408E+09 2.75782E+07-7.09813E+07
 -1       820 3.91294E+09-3.34240E+07-5.21333E+07 1.61131E+09 6.84129E+07-6.01440E+07
 -1       821 5.23408E+09-6.56871E+07-8.49701E+07 1.10581E+09 9.96041E+07-4.03646E+07
 -1       822 6.07695E+09-8.77017E+07-1.07052E+08 5.12401E+08 1.19995E+08-1.39696E+07
 -1       823 6.41193E+09-9.86456E+07-1.17494E+08-1.26114E+08 1.28966E+08 1.60988E+07
 -1       824 6.23673E+09-9.89975E+07-1.16543E+08-7.63980E+08 1.26626E+08 4.69469E+07
 -1       825 5.57853E+09-8.96702E+07-1.05076E+08-1.35568E+09 1.13704E+08 7.58881E+07
 -1       826 4.49336E+09-7.19688E+07-8.44504E+07-1.85924E+09 9.14853E+07 1.00563E+08
 -1       827 3.06314E+09-4.75309E+07-5.64531E+07-2.23902E+09 6.17609E+07 1.19013E+08
 -1       828 1.39068E+09-1.82827E+07-2.32242E+07-2.46810E+09 2.67334E+07 1.29752E+08
 -1       829-4.06986E+08 1.36411E+07 1.28449E+07-2.52994E+09-1.11107E+07 1.31846E+08
 -1       830-2.20636E+09 4.60140E+07 4.92506E+07-2.41949E+09-4.91588E+07 1.24958E+08
 -1       831-3.88585E+09 7.66545E+07 8.35349E+07-2.14346E+09-8.48446E+07 1.09369E+08
 -1       832-5.33407E+09 1.03574E+08 1.13455E+08-1.71977E+09-1.15824E+08 8.59572E+07
 -1       833-6.45763E+09 1.25145E+08 1.37166E+08-1.17623E+09-1.40145E+08 5.61404E+07
 -1       834-7.18771E+09 1.40309E+08 1.53434E+08-5.48480E+08-1.56416E+08 2.17561E+07
 -1       835-7.48523E+09 1.48855E+08 1.61878E+08 1.22745E+08-1.63966E+08-1.51595E+07
 -1       836-7.34428E+09 1.51717E+08 1.63209E+08 7.94564E+08-1.62981E+08-5.27500E+07
 -1       837-6.79411E+09 1.51047E+08 1.59218E+08 1.42466E+09-1.54604E+08-8.98503E+07
 -1       838-5.90007E+09 1.49370E+08 1.51970E+08 1.97275E+09-1.40573E+08-1.26581E+08
 -1       839-4.76386E+09 1.46692E+08 1.41391E+08 2.39985E+09-1.23086E+08-1.63902E+08
 -1       840-3.52048E+09 1.36975E+08 1.22200E+08 2.66592E+09-1.00992E+08-2.00474E+08
 -1       841-2.33766E+09 9.33946E+07 7.48918E+07 2.72816E+09-7.66095E+07-2.33026E+08
 -1       842-1.36615E+09-4.88224E+06-1.60914E+07 2.56369E+09-2.19316E+07-2.14984E+08
 -1       843-6.96181E+08-1.96219E+08-1.70953E+08 2.20384E+09 1.14789E+05-1.09233E+08
 -1       844-6.91202E+09 1.08230E+09 1.22512E+09 7.33101E+08 1.48724E+08-6.50075E+07
 -1       845-5.62789E+09-2.76483E+08-3.26076E+08 2.10281E+08 5.94073E+07-1.16687E+08
 -1       846-2.50841E+09-9.47919E+07-2.35415E+07-2.54045E+07 2.26705E+07-1.05008E+08
 -1       847 4.45730E+07-7.05406E+07-7.74258E+06-1.69729E+08-2.04830E+07-1.09125E+08
 -1       848 2.34885E+09-4.30215E+07 2.91312E+07-2.20444E+08-5.37985E+07-1.02553E+08
 -1       849 4.26799E+09-1.87470E+07 5.87836E+07-1.95669E+08-8.20872E+07-8.54020E+07
 -1       850 5.72390E+09 1.11380E+06 8.20161E+07-1.05581E+08-1.02960E+08-5.82226E+07
 -1       851 6.65534E+09 1.52301E+07 9.73432E+07 3.24611E+07-1.15953E+08-2.37312E+07
 -1       852 7.02804E+09 2.38568E+07 1.04091E+08 2.00393E+08-1.20379E+08 1.46960E+07
 -1       853 6.83908E+09 2.71892E+07 1.02020E+08 3.79080E+08-1.16099E+08 5.36905E+07
 -1       854 6.11851E+09 2.58398E+07 9.15703E+07 5.50106E+08-1.03474E+08 9.00894E+07
 -1       855 4.92814E+09 2.04964E+07 7.37245E+07 6.96812E+08-8.34290E+07 1.21089E+08
 -1       856 3.35821E+09 1.19331E+07 4.99072E+07 8.05166E+08-5.73849E+07 1.44350E+08
 -1       857 1.52176E+09 9.95830E+05 2.18852E+07 8.64429E+08-2.71579E+07 1.58102E+08
 -1       858-4.52568E+08-1.14229E+07-8.34907E+06 8.67627E+08 5.16668E+06 1.61243E+08
 -1       859-2.42911E+09-2.44243E+07-3.87053E+07 8.11818E+08 3.73790E+07 1.53399E+08
 -1       860-4.27428E+09-3.71553E+07-6.71374E+07 6.98098E+08 6.72969E+07 1.34949E+08
 -1       861-5.86579E+09-4.88713E+07-9.17923E+07 5.31334E+08 9.29156E+07 1.07003E+08
 -1       862-7.10122E+09-5.90159E+07-1.11157E+08 3.19584E+08 1.12541E+08 7.13297E+07
 -1       863-7.90547E+09-6.73248E+07-1.24184E+08 7.32102E+07 1.24893E+08 3.02167E+07
 -1       864-8.23655E+09-7.39556E+07-1.30361E+08-1.96290E+08 1.29156E+08-1.37751E+07
 -1       865-8.08913E+09-7.95844E+07-1.29634E+08-4.77548E+08 1.25007E+08-5.82191E+07
 -1       866-7.49565E+09-8.53416E+07-1.22160E+08-7.60211E+08 1.12588E+08-1.01372E+08
 -1       867-6.52438E+09-9.20772E+07-1.07759E+08-1.03464E+09 9.28204E+07-1.42824E+08
 -1       868-5.27500E+09-9.87319E+07-8.55808E+07-1.28955E+09 6.72896E+07-1.83113E+08
 -1       869-3.87456E+09-1.01938E+08-5.56985E+07-1.50789E+09 4.14433E+07-2.20683E+08
 -1       870-2.47012E+09-8.67453E+07-1.88891E+07-1.66415E+09 1.71495E+07-2.52291E+08
 -1       871-1.25407E+09-4.74660E+07 4.75835E+06-1.74155E+09 2.45156E+07-2.31895E+08
 -1       872-4.58437E+08-6.45214E+06-4.26993E+07-1.75148E+09 3.05386E+06-1.22368E+08
 -1       873 6.96181E+08 1.96219E+08 1.70953E+08-2.20384E+09 1.14789E+05-1.09233E+08
 -1       874 1.36615E+09 4.88224E+06 1.60914E+07-2.56369E+09-2.19316E+07-2.14984E+08
 -1       875 2.33766E+09-9.33946E+07-7.48918E+07-2.72816E+09-7.66095E+07-2.33026E+08
 -1       876 3.52048E+09-1.36975E+08-1.22200E+08-2.66592E+09-1.00992E+08-2.00474E+08
 -1       877 4.76386E+09-1.46692E+08-1.41391E+08-2.39985E+09-1.23086E+08-1.63902E+08
 -1       878 5.90007E+09-1.49370E+08-1.51970E+08-1.97275E+09-1.40573E+08-1.26581E+08
 -1       879 6.79411E+09-1.51047E+08-1.59218E+08-1.42466E+09-1.54604E+08-8.98503E+07
 -1       880 7.34428E+09-1.51717E+08-1.63209E+08-7.94564E+08-1.62981E+08-5.27500E+07
 -1       881 7.48523E+09-1.48855E+08-1.61878E+08-1.22745E+08-1.63966E+08-1.51595E+07
 -1       882 7.18771E+09-1.40309E+08-1.53434E+08 5.48480E+08-1.56416E+08 2.17561E+07
 -1       883 6.45763E+09-1.25145E+08-1.37166E+08 1.17623E+09-1.40145E+08 5.61404E+07
 -1       884 5.33407E+09-1.03574E+08-1.13455E+08 1.71977E+09-1.15824E+08 8.59572E+07
 -1       885 3.88585E+09-7.66545E+07-8.35349E+07 2.14346E+09-8.48446E+07 1.09369E+08
 -1       886 2.20636E+09-4.60140E+07-4.92506E+07 2.41949E+09-4.91588E+07 1.24958E+08
 -1       887 4.06986E+08-1.36411E+07-1.28449E+07 2.52994E+09-1.11107E+07 1.31846E+08
 -1       888-1.39068E+09 1.82827E+07 2.32242E+07 2.46810E+09 2.67334E+07 1.29752E+08
 -1       889-3.06314E+09 4.75309E+07 5.64531E+07 2.23902E+09 6.17609E+07 1.19013E+08
 -1       890-4.49336E+09 7.19688E+07 8.44504E+07 1.85924E+09 9.14853E+07 1.00563E+08
 -1       891-5.57853E+09 8.96702E+07 1.05076E+08 1.35568E+09 1.13704E+08 7.58881E+07
 -1       892-6.23673E+09 9.89975E+07 1.16543E+08 7.63980E+08 1.26626E+08 4.69469E+07
 -1       893-6.41193E+09 9.86456E+07 1.17494E+08 1.26114E+08 1.28966E+08 1.60988E+07
 -1       894-6.07695E+09 8.77017E+07 1.07052E+08-5.12401E+08 1.19995E+08-1.39696E+07
 -1       895-5.23408E+09 6.56871E+07 8.49701E+07-1.10581E+09 9.96041E+07-4.03646E+07
 -1       896-3.91294E+09 3.34240E+07 5.21333E+07-1.61131E+09 6.84129E+07-6.01440E+07
 -1       897-2.16582E+09-6.61153E+06 1.08900E+07-1.99408E+09 2.75782E+07-7.09813E+07
 -1       898-6.26013E+07-5.47633E+07-3.52571E+07-2.22463E+09-1.96263E+07-7.22569E+07
 -1       899 2.27235E+09-9.96764E+07-1.05617E+08-2.29511E+09-7.58047E+07-6.74871E+07
 -1       900 5.14107E+09 3.31504E+07 1.07030E+08-2.16681E+09-1.08280E+08-5.91396E+07
 -1       901 6.10686E+09-1.37233E+09-1.55367E+09-1.92296E+09-2.26913E+08-1.02529E+08
 -1       902 6.91202E+09-1.08230E+09-1.22512E+09-7.33101E+08 1.48724E+08-6.50075E+07
 -1       903 5.62789E+09 2.76483E+08 3.26076E+08-2.10281E+08 5.94073E+07-1.16687E+08
 -1       904 2.50841E+09 9.47919E+07 2.35415E+07 2.54045E+07 2.26705E+07-1.05008E+08
 -1       905-4.45730E+07 7.05406E+07 7.74258E+06 1.69729E+08-2.04830E+07-1.09125E+08
 -1       906-2.34885E+09 4.30215E+07-2.91312E+07 2.20444E+08-5.37985E+07-1.02553E+08
 -1       907-4.26799E+09 1.87470E+07-5.87836E+07 1.95669E+08-8.20872E+07-8.54020E+07
 -1       908-5.72390E+09-1.11380E+06-8.20161E+07 1.05581E+08-1.02960E+08-5.82226E+07
 -1       909-6.65534E+09-1.52301E+07-9.73432E+07-3.24611E+07-1.15953E+08-2.37312E+07
 -1       910-7.02804E+09-2.38568E+07-1.04091E+08-2.00393E+08-1.20379E+08 1.46960E+07
 -1       911-6.83908E+09-2.71892E+07-1.02020E+08-3.79080E+08-1.16099E+08 5.36905E+07
 -1       912-6.11851E+09-2.58398E+07-9.15703E+07-5.50106E+08-1.03474E+08 9.00894E+07
 -1       913-4.92814E+09-2.04964E+07-7.37245E+07-6.96812E+08-8.34290E+07 1.21089E+08
 -1       914-3.35821E+09-1.19331E+07-4.99072E+07-8.05166E+08-5.73849E+07 1.44350E+08
 -1       915-1.52176E+09-9.95830E+05-2.18852E+07-8.64429E+08-2.71579E+07 1.58102E+08
 -1       916 4.52568E+08 1.14229E+07 8.34907E+06-8.67627E+08 5.16668E+06 1.61243E+08
 -1       917 2.42911E+09 2.44243E+07 3.87053E+07-8.11818E+08 3.73790E+07 1.53399E+08
 -1       918 4.27428E+09 3.71553E+07 6.71374E+07-6.98098E+08 6.72969E+07 1.34949E+08
 -1       919 5.86579E+09 4.88713E+07 9.17923E+07-5.31334E+08 9.29156E+07 1.07003E+08
 -1       920 7.10122E+09 5.90159E+07 1.11157E+08-3.19584E+08 1.12541E+08 7.13297E+07
 -1       921 7.90547E+09 6.73248E+07 1.24184E+08-7.32102E+07 1.24893E+08 3.02167E+07
 -1       922 8.23655E+09 7.39556E+07 1.30361E+08 1.96290E+08 1.29156E+08-1.37751E+07
 -1       923 8.08913E+09 7.95844E+07 1.29634E+08 4.77548E+08 1.25007E+08-5.82191E+07
 -1       924 7.49565E+09 8.53416E+07 1.22160E+08 7.60211E+08 1.12588E+08-1.01372E+08
 -1       925 6.52438E+09 9.20772E+07 1.07759E+08 1.03464E+09 9.28204E+07-1.42824E+08
 -1       926 5.27500E+09 9.87319E+07 8.55808E+07 1.28955E+09 6.72896E+07-1.83113E+08
 -1       927 3.87456E+09 1.01938E+08 5.56985E+07 1.50789E+09 4.14433E+07-2.20683E+08
 -1       928 2.47012E+09 8.67453E+07 1.88891E+07 1.66415E+09 1.71495E+07-2.52291E+08
 -1       929 1.25407E+09 4.74660E+07-4.75835E+06 1.74155E+09 2.45156E+07-2.31895E+08
 -1       930 4.58437E+08 6.45214E+06 4.26993E+07 1.75148E+09 3.05386E+06-1.22368E+08
 -3
    1PSTEP                        31           1           1          
    1PGM                1.000000E+00                                  
    1PGK                3.031914E+06                                  
    1PHID                         -1                                  
    1PSUBC                         0                                  
    1PMODE                         8                                  
  100CL  108 277.1268126         930                     2    8MODAL      1
 -4  FORC        4    1
 -5  F1          1    2    1    0
 -5  F2          1    2    2    0
 -5  F3          1    2    3    0
 -5  ALL         1    2    0    0    1ALL
 -1         1-4.40047E+06 1.09310E+05 1.12113E+06
 -1         2 4.40047E+06 1.09310E+05-1.12113E+06
 -1         3 1.46305E+03 5.91892E+04-2.64163E+03
 -1         4-1.46305E+03 5.91892E+04 2.64163E+03
 -1         5 4.40047E+06-1.09310E+05 1.12113E+06
 -1         6-4.40047E+06-1.09310E+05-1.12113E+06
 -1         7-1.46305E+03-5.91892E+04-2.64163E+03
 -1         8 1.46305E+03-5.91892E+04 2.64163E+03
 -1         9-2.75631E+05 1.71475E+05-1.14695E+06
 -1        10 1.32157E+03 3.11428E+04-2.38114E+03
 -1        11-2.34773E+06-1.66425E+06-4.96895E+06
 -1        12-4.09533E+06-1.68962E+06 5.02986E+06
 -1        13 5.33526E+03 2.59360E+04-9.47143E+03
 -1        14 5.43693E+03 2.53782E+04-9.47168E+03
 -1        15 2.75631E+05-1.71475E+05-1.14695E+06
 -1        16-1.32157E+03-3.11428E+04-2.38114E+03
 -1        17 4.09533E+06 1.68962E+06 5.02986E+06
 -1        18 2.34773E+06 1.66425E+06-4.96895E+06
 -1        19-5.43693E+03-2.53782E+04-9.47168E+03
 -1        20-5.33526E+03-2.59360E+04-9.47143E+03
 -1        21 4.09533E+06-1.68962E+06-5.02986E+06
 -1        22 2.34773E+06-1.66425E+06 4.96895E+06
 -1        23-5.33526E+03 2.59360E+04 9.47143E+03
 -1        24-5.43693E+03 2.53782E+04 9.47168E+03
 -1        25 2.75631E+05 1.71475E+05 1.14695E+06
 -1        26-1.32157E+03 3.11428E+04 2.38114E+03
 -1        27-2.75631E+05-1.71475E+05 1.14695E+06
 -1        28-2.34773E+06 1.66425E+06 4.96895E+06
 -1        29-4.09533E+06 1.68962E+06-5.02986E+06
 -1        30 1.32157E+03-3.11428E+04 2.38114E+03
 -1        31 5.33526E+03-2.59360E+04 9.47143E+03
 -1        32 5.43693E+03-2.53782E+04 9.47168E+03
 -1        33-5.68125E+02 5.91970E+03 2.92429E+02
 -1        34-1.03358E+03 1.68432E+04 8.23391E+02
 -1        35-1.30259E+03 3.18218E+04 1.53818E+03
 -1        36-1.38337E+03 4.86187E+04 2.32872E+03
 -1        37-1.29548E+03 6.51870E+04 3.10223E+03
 -1        38-1.06145E+03 7.96941E+04 3.77704E+03
 -1        39-7.10743E+02 9.06105E+04 4.28387E+03
 -1        40-2.77648E+02 9.67794E+04 4.56901E+03
 -1        41 2.00269E+02 9.74653E+04 4.59766E+03
 -1        42 6.84154E+02 9.23821E+04 4.35597E+03
 -1        43 1.13609E+03 8.16961E+04 3.85139E+03
 -1        44 1.52132E+03 6.60017E+04 3.11169E+03
 -1        45 1.81039E+03 4.62726E+04 2.18256E+03
 -1        46 1.98086E+03 2.37885E+04 1.12415E+03
 -1        47 2.01873E+03 4.37779E+01 6.75470E+00
 -1        48 1.91916E+03-2.33568E+04-1.09414E+03
 -1        49 1.68670E+03-4.48081E+04-2.10301E+03
 -1        50 1.33478E+03-6.28136E+04-2.94944E+03
 -1        51 8.84661E+02-7.60844E+04-3.57277E+03
 -1        52 3.63816E+02-8.36232E+04-3.92598E+03
 -1        53-1.96195E+02-8.47857E+04-3.97846E+03
 -1        54-7.62119E+02-7.93161E+04-3.71741E+03
 -1        55-1.30162E+03-6.73526E+04-3.14803E+03
 -1        56-1.78590E+03-4.94015E+04-2.29263E+03
 -1        57-2.19226E+03-2.62797E+04-1.18971E+03
 -1        58-2.50632E+03 9.73139E+02 1.05978E+02
 -1        59-2.72391E+03 3.12089E+04 1.52268E+03
 -1        60-2.85226E+03 6.32997E+04 2.97409E+03
 -1        61-2.91054E+03 9.62661E+04 4.38164E+03
 -1        62 5.68125E+02 5.91970E+03-2.92429E+02
 -1        63 1.03358E+03 1.68432E+04-8.23391E+02
 -1        64 1.30259E+03 3.18218E+04-1.53818E+03
 -1        65 1.38337E+03 4.86187E+04-2.32872E+03
 -1        66 1.29548E+03 6.51870E+04-3.10223E+03
 -1        67 1.06145E+03 7.96941E+04-3.77704E+03
 -1        68 7.10743E+02 9.06105E+04-4.28387E+03
 -1        69 2.77648E+02 9.67794E+04-4.56901E+03
 -1        70-2.00269E+02 9.74653E+04-4.59766E+03
 -1        71-6.84154E+02 9.23821E+04-4.35597E+03
 -1        72-1.13609E+03 8.16961E+04-3.85139E+03
 -1        73-1.52132E+03 6.60017E+04-3.11169E+03
 -1        74-1.81039E+03 4.62726E+04-2.18256E+03
 -1        75-1.98086E+03 2.37885E+04-1.12415E+03
 -1        76-2.01873E+03 4.37779E+01-6.75471E+00
 -1        77-1.91916E+03-2.33568E+04 1.09414E+03
 -1        78-1.68670E+03-4.48081E+04 2.10301E+03
 -1        79-1.33478E+03-6.28136E+04 2.94944E+03
 -1        80-8.84661E+02-7.60844E+04 3.57277E+03
 -1        81-3.63816E+02-8.36232E+04 3.92598E+03
 -1        82 1.96195E+02-8.47857E+04 3.97846E+03
 -1        83 7.62119E+02-7.93161E+04 3.71741E+03
 -1        84 1.30162E+03-6.73526E+04 3.14803E+03
 -1        85 1.78590E+03-4.94015E+04 2.29263E+03
 -1        86 2.19226E+03-2.62797E+04 1.18971E+03
 -1        87 2.50632E+03 9.73139E+02-1.05978E+02
 -1        88 2.72391E+03 3.12089E+04-1.52268E+03
 -1        89 2.85226E+03 6.32997E+04-2.97409E+03
 -1        90 2.91054E+03 9.62661E+04-4.38164E+03
 -1        91-4.19812E+06-7.66688E+04 2.93165E+04
 -1        92 1.15632E-04 4.04473E-05 3.03668E+04
 -1        93 4.19812E+06 7.66688E+04 2.93165E+04
 -1        94-4.19812E+06 7.66688E+04-2.93165E+04
 -1        95-9.21117E-05-3.70644E-05-3.03668E+04
 -1        96 4.19812E+06-7.66688E+04-2.93165E+04
 -1        97-5.68125E+02-5.91970E+03-2.92429E+02
 -1        98-1.03358E+03-1.68432E+04-8.23391E+02
 -1        99-1.30259E+03-3.18218E+04-1.53818E+03
 -1       100-1.38337E+03-4.86187E+04-2.32872E+03
 -1       101-1.29548E+03-6.51870E+04-3.10223E+03
 -1       102-1.06145E+03-7.96941E+04-3.77704E+03
 -1       103-7.10743E+02-9.06105E+04-4.28387E+03
 -1       104-2.77648E+02-9.67794E+04-4.56901E+03
 -1       105 2.00269E+02-9.74653E+04-4.59766E+03
 -1       106 6.84154E+02-9.23821E+04-4.35597E+03
 -1       107 1.13609E+03-8.16961E+04-3.85139E+03
 -1       108 1.52132E+03-6.60017E+04-3.11169E+03
 -1       109 1.81039E+03-4.62726E+04-2.18256E+03
 -1       110 1.98086E+03-2.37885E+04-1.12415E+03
 -1       111 2.01873E+03-4.37779E+01-6.75471E+00
 -1       112 1.91916E+03 2.33568E+04 1.09414E+03
 -1       113 1.68670E+03 4.48081E+04 2.10301E+03
 -1       114 1.33478E+03 6.28136E+04 2.94944E+03
 -1       115 8.84661E+02 7.60844E+04 3.57277E+03
 -1       116 3.63816E+02 8.36232E+04 3.92598E+03
 -1       117-1.96195E+02 8.47857E+04 3.97846E+03
 -1       118-7.62119E+02 7.93161E+04 3.71741E+03
 -1       119-1.30162E+03 6.73526E+04 3.14803E+03
 -1       120-1.78590E+03 4.94015E+04 2.29263E+03
 -1       121-2.19226E+03 2.62797E+04 1.18971E+03
 -1       122-2.50632E+03-9.73139E+02-1.05978E+02
 -1       123-2.72391E+03-3.12089E+04-1.52268E+03
 -1       124-2.85226E+03-6.32997E+04-2.97409E+03
 -1       125-2.91054E+03-9.62661E+04-4.38164E+03
 -1       126 1.41005E+02 3.46690E+04-5.28144E+02
 -1       127-7.43314E-07-5.64643E-07-5.34663E+02
 -1       128-1.41005E+02-3.46690E+04-5.28144E+02
 -1       129 5.68125E+02-5.91970E+03 2.92429E+02
 -1       130 1.03358E+03-1.68432E+04 8.23391E+02
 -1       131 1.30259E+03-3.18218E+04 1.53818E+03
 -1       132 1.38337E+03-4.86187E+04 2.32872E+03
 -1       133 1.29548E+03-6.51870E+04 3.10223E+03
 -1       134 1.06145E+03-7.96941E+04 3.77704E+03
 -1       135 7.10743E+02-9.06105E+04 4.28387E+03
 -1       136 2.77648E+02-9.67794E+04 4.56901E+03
 -1       137-2.00269E+02-9.74653E+04 4.59766E+03
 -1       138-6.84154E+02-9.23821E+04 4.35597E+03
 -1       139-1.13609E+03-8.16961E+04 3.85139E+03
 -1       140-1.52132E+03-6.60017E+04 3.11169E+03
 -1       141-1.81039E+03-4.62726E+04 2.18256E+03
 -1       142-1.98086E+03-2.37885E+04 1.12415E+03
 -1       143-2.01873E+03-4.37779E+01 6.75470E+00
 -1       144-1.91916E+03 2.33568E+04-1.09414E+03
 -1       145-1.68670E+03 4.48081E+04-2.10301E+03
 -1       146-1.33478E+03 6.28136E+04-2.94944E+03
 -1       147-8.84661E+02 7.60844E+04-3.57277E+03
 -1       148-3.63816E+02 8.36232E+04-3.92598E+03
 -1       149 1.96195E+02 8.47857E+04-3.97846E+03
 -1       150 7.62119E+02 7.93161E+04-3.71741E+03
 -1       151 1.30162E+03 6.73526E+04-3.14803E+03
 -1       152 1.78590E+03 4.94015E+04-2.29263E+03
 -1       153 2.19226E+03 2.62797E+04-1.18971E+03
 -1       154 2.50632E+03-9.73139E+02 1.05978E+02
 -1       155 2.72391E+03-3.12089E+04 1.52268E+03
 -1       156 2.85226E+03-6.32997E+04 2.97409E+03
 -1       157 2.91054E+03-9.62661E+04 4.38164E+03
 -1       158 1.41005E+02-3.46690E+04 5.28144E+02
 -1       159-2.75759E-09-1.45471E-06 5.34663E+02
 -1       160-1.41005E+02 3.46690E+04 5.28144E+02
 -1       161 4.94200E+02 3.15164E+03-2.59501E+02
 -1       162 9.13092E+02 8.91959E+03-7.43815E+02
 -1       163 1.15737E+03 1.68218E+04-1.39377E+03
 -1       164 1.23202E+03 2.56815E+04-2.11116E+03
 -1       165 1.15500E+03 3.44173E+04-2.81247E+03
 -1       166 9.46656E+02 4.20646E+04-3.42408E+03
 -1       167 6.33518E+02 4.78184E+04-3.88338E+03
 -1       168 2.46392E+02 5.10689E+04-4.14177E+03
 -1       169-1.81021E+02 5.14279E+04-4.16770E+03
 -1       170-6.13887E+02 4.87442E+04-3.94859E+03
 -1       171-1.01822E+03 4.31053E+04-3.49120E+03
 -1       172-1.36290E+03 3.48246E+04-2.82068E+03
 -1       173-1.62150E+03 2.44157E+04-1.97845E+03
 -1       174-1.77394E+03 1.25537E+04-1.01904E+03
 -1       175-1.80766E+03 2.68207E+01-6.15181E+00
 -1       176-1.71831E+03-1.23182E+04 9.91770E+02
 -1       177-1.50994E+03-2.36347E+04 1.90628E+03
 -1       178-1.19458E+03-3.31330E+04 2.67354E+03
 -1       179-7.91246E+02-4.01332E+04 3.23857E+03
 -1       180-3.24521E+02-4.41091E+04 3.55875E+03
 -1       181 1.77349E+02-4.47206E+04 3.60632E+03
 -1       182 6.84601E+02-4.18323E+04 3.36963E+03
 -1       183 1.16830E+03-3.55160E+04 2.85333E+03
 -1       184 1.60274E+03-2.60380E+04 2.07753E+03
 -1       185 1.96774E+03-1.38291E+04 1.07718E+03
 -1       186 2.25077E+03 5.58312E+02-9.76485E+01
 -1       187 2.44864E+03 1.65070E+04-1.38068E+03
 -1       188 2.56842E+03 3.34018E+04-2.69120E+03
 -1       189 2.62639E+03 5.07072E+04-3.95552E+03
 -1       190-1.54540E+06 3.83569E+05-5.79423E+06
 -1       191-3.75910E+06 4.50283E+05 5.86482E+06
 -1       192 6.63085E+03 5.18707E+04-1.18356E+04
 -1       193 2.10078E+03 2.82513E+03-1.03966E+03
 -1       194 3.77173E+03 7.58218E+03-2.99896E+03
 -1       195 4.74784E+03 1.40805E+04-5.62390E+03
 -1       196 5.04377E+03 2.13889E+04-8.50916E+03
 -1       197 4.72251E+03 2.86012E+04-1.13253E+04
 -1       198 3.86930E+03 3.49174E+04-1.37803E+04
 -1       199 2.59124E+03 3.96694E+04-1.56235E+04
 -1       200 1.01324E+03 4.23510E+04-1.66598E+04
 -1       201-7.27853E+02 4.26397E+04-1.67622E+04
 -1       202-2.49056E+03 4.04097E+04-1.58800E+04
 -1       203-4.13680E+03 3.57330E+04-1.40402E+04
 -1       204-5.54008E+03 2.88690E+04-1.13437E+04
 -1       205-6.59305E+03 2.02429E+04-7.95708E+03
 -1       206-7.21411E+03 1.04138E+04-4.09949E+03
 -1       207-7.35219E+03 3.48377E+01-2.70798E+01
 -1       208-6.98974E+03-1.01926E+04 3.98501E+03
 -1       209-6.14329E+03-1.95670E+04 7.66158E+03
 -1       210-4.86179E+03-2.74342E+04 1.07460E+04
 -1       211-3.22271E+03-3.32305E+04 1.30172E+04
 -1       212-1.32609E+03-3.65198E+04 1.43038E+04
 -1       213 7.13059E+02-3.70200E+04 1.44939E+04
 -1       214 2.77356E+03-3.46184E+04 1.35404E+04
 -1       215 4.73755E+03-2.93740E+04 1.14613E+04
 -1       216 6.50019E+03-2.15065E+04 8.33650E+03
 -1       217 7.97904E+03-1.13719E+04 4.30669E+03
 -1       218 9.12252E+03 5.73427E+02-4.23871E+02
 -1       219 9.91681E+03 1.38191E+04-5.57869E+03
 -1       220 1.03898E+04 2.78563E+04-1.08161E+04
 -1       221 1.06108E+04 4.22419E+04-1.58097E+04
 -1       222 2.16470E+03 2.76285E+03-1.06796E+03
 -1       223 3.87612E+03 7.40288E+03-3.01793E+03
 -1       224 4.87188E+03 1.37446E+04-5.63279E+03
 -1       225 5.17172E+03 2.08814E+04-8.50878E+03
 -1       226 4.84073E+03 2.79265E+04-1.13166E+04
 -1       227 3.96573E+03 3.40968E+04-1.37648E+04
 -1       228 2.65591E+03 3.87394E+04-1.56028E+04
 -1       229 1.03898E+03 4.13594E+04-1.66357E+04
 -1       230-7.45008E+02 4.16421E+04-1.67368E+04
 -1       231-2.55113E+03 3.94648E+04-1.58553E+04
 -1       232-4.23792E+03 3.48976E+04-1.40181E+04
 -1       233-5.67575E+03 2.81940E+04-1.13259E+04
 -1       234-6.75468E+03 1.97694E+04-7.94497E+03
 -1       235-7.39107E+03 1.01698E+04-4.09399E+03
 -1       236-7.53263E+03 3.30868E+01-2.86788E+01
 -1       237-7.16137E+03-9.95570E+03 3.97630E+03
 -1       238-6.29424E+03-1.91114E+04 7.64623E+03
 -1       239-4.98141E+03-2.67950E+04 1.07249E+04
 -1       240-3.30225E+03-3.24563E+04 1.29917E+04
 -1       241-1.35924E+03-3.56691E+04 1.42754E+04
 -1       242 7.29832E+02-3.61580E+04 1.44643E+04
 -1       243 2.84089E+03-3.38133E+04 1.35114E+04
 -1       244 4.85325E+03-2.86928E+04 1.14344E+04
 -1       245 6.65940E+03-2.10115E+04 8.31320E+03
 -1       246 8.17420E+03-1.11170E+04 4.28790E+03
 -1       247 9.34307E+03 5.46479E+02-4.37649E+02
 -1       248 1.01489E+04 1.34855E+04-5.58752E+03
 -1       249 1.06176E+04 2.72123E+04-1.08206E+04
 -1       250 1.08233E+04 4.13050E+04-1.58113E+04
 -1       251 6.76168E+03 5.07494E+04-1.18360E+04
 -1       252-2.62639E+03-5.07072E+04-3.95552E+03
 -1       253-2.56842E+03-3.34018E+04-2.69120E+03
 -1       254-2.44864E+03-1.65070E+04-1.38068E+03
 -1       255-2.25077E+03-5.58312E+02-9.76485E+01
 -1       256-1.96774E+03 1.38291E+04 1.07718E+03
 -1       257-1.60274E+03 2.60380E+04 2.07753E+03
 -1       258-1.16830E+03 3.55160E+04 2.85333E+03
 -1       259-6.84601E+02 4.18323E+04 3.36963E+03
 -1       260-1.77349E+02 4.47206E+04 3.60632E+03
 -1       261 3.24521E+02 4.41091E+04 3.55875E+03
 -1       262 7.91246E+02 4.01332E+04 3.23857E+03
 -1       263 1.19458E+03 3.31330E+04 2.67354E+03
 -1       264 1.50994E+03 2.36347E+04 1.90628E+03
 -1       265 1.71831E+03 1.23182E+04 9.91770E+02
 -1       266 1.80766E+03-2.68207E+01-6.15181E+00
 -1       267 1.77394E+03-1.25537E+04-1.01904E+03
 -1       268 1.62150E+03-2.44157E+04-1.97845E+03
 -1       269 1.36290E+03-3.48246E+04-2.82068E+03
 -1       270 1.01822E+03-4.31053E+04-3.49120E+03
 -1       271 6.13887E+02-4.87442E+04-3.94859E+03
 -1       272 1.81021E+02-5.14279E+04-4.16770E+03
 -1       273-2.46392E+02-5.10689E+04-4.14177E+03
 -1       274-6.33518E+02-4.78184E+04-3.88338E+03
 -1       275-9.46656E+02-4.20646E+04-3.42408E+03
 -1       276-1.15500E+03-3.44173E+04-2.81247E+03
 -1       277-1.23202E+03-2.56815E+04-2.11116E+03
 -1       278-1.15737E+03-1.68218E+04-1.39377E+03
 -1       279-9.13092E+02-8.91959E+03-7.43815E+02
 -1       280-4.94200E+02-3.15164E+03-2.59501E+02
 -1       281 3.75910E+06-4.50283E+05 5.86482E+06
 -1       282 1.54540E+06-3.83569E+05-5.79423E+06
 -1       283-2.16470E+03-2.76285E+03-1.06796E+03
 -1       284-3.87612E+03-7.40288E+03-3.01793E+03
 -1       285-4.87188E+03-1.37446E+04-5.63279E+03
 -1       286-5.17172E+03-2.08814E+04-8.50878E+03
 -1       287-4.84073E+03-2.79265E+04-1.13166E+04
 -1       288-3.96573E+03-3.40968E+04-1.37648E+04
 -1       289-2.65591E+03-3.87394E+04-1.56028E+04
 -1       290-1.03898E+03-4.13594E+04-1.66357E+04
 -1       291 7.45008E+02-4.16421E+04-1.67368E+04
 -1       292 2.55113E+03-3.94648E+04-1.58553E+04
 -1       293 4.23792E+03-3.48976E+04-1.40181E+04
 -1       294 5.67575E+03-2.81940E+04-1.13259E+04
 -1       295 6.75468E+03-1.97694E+04-7.94497E+03
 -1       296 7.39107E+03-1.01698E+04-4.09399E+03
 -1       297 7.53263E+03-3.30868E+01-2.86788E+01
 -1       298 7.16137E+03 9.95570E+03 3.97630E+03
 -1       299 6.29424E+03 1.91114E+04 7.64623E+03
 -1       300 4.98141E+03 2.67950E+04 1.07249E+04
 -1       301 3.30225E+03 3.24563E+04 1.29917E+04
 -1       302 1.35924E+03 3.56691E+04 1.42754E+04
 -1       303-7.29832E+02 3.61580E+04 1.44643E+04
 -1       304-2.84089E+03 3.38133E+04 1.35114E+04
 -1       305-4.85325E+03 2.86928E+04 1.14344E+04
 -1       306-6.65940E+03 2.10115E+04 8.31320E+03
 -1       307-8.17420E+03 1.11170E+04 4.28790E+03
 -1       308-9.34307E+03-5.46479E+02-4.37649E+02
 -1       309-1.01489E+04-1.34855E+04-5.58752E+03
 -1       310-1.06176E+04-2.72123E+04-1.08206E+04
 -1       311-1.08233E+04-4.13050E+04-1.58113E+04
 -1       312-6.76168E+03-5.07494E+04-1.18360E+04
 -1       313-2.10078E+03-2.82513E+03-1.03966E+03
 -1       314-3.77173E+03-7.58218E+03-2.99896E+03
 -1       315-4.74784E+03-1.40805E+04-5.62390E+03
 -1       316-5.04377E+03-2.13889E+04-8.50916E+03
 -1       317-4.72251E+03-2.86012E+04-1.13253E+04
 -1       318-3.86930E+03-3.49174E+04-1.37803E+04
 -1       319-2.59124E+03-3.96694E+04-1.56235E+04
 -1       320-1.01324E+03-4.23510E+04-1.66598E+04
 -1       321 7.27853E+02-4.26397E+04-1.67622E+04
 -1       322 2.49056E+03-4.04097E+04-1.58800E+04
 -1       323 4.13680E+03-3.57330E+04-1.40402E+04
 -1       324 5.54008E+03-2.88690E+04-1.13437E+04
 -1       325 6.59305E+03-2.02429E+04-7.95708E+03
 -1       326 7.21411E+03-1.04138E+04-4.09949E+03
 -1       327 7.35219E+03-3.48377E+01-2.70798E+01
 -1       328 6.98974E+03 1.01926E+04 3.98501E+03
 -1       329 6.14329E+03 1.95670E+04 7.66158E+03
 -1       330 4.86179E+03 2.74342E+04 1.07460E+04
 -1       331 3.22271E+03 3.32305E+04 1.30172E+04
 -1       332 1.32609E+03 3.65198E+04 1.43038E+04
 -1       333-7.13059E+02 3.70200E+04 1.44939E+04
 -1       334-2.77356E+03 3.46184E+04 1.35404E+04
 -1       335-4.73755E+03 2.93740E+04 1.14613E+04
 -1       336-6.50019E+03 2.15065E+04 8.33650E+03
 -1       337-7.97904E+03 1.13719E+04 4.30669E+03
 -1       338-9.12252E+03-5.73427E+02-4.23871E+02
 -1       339-9.91681E+03-1.38191E+04-5.57869E+03
 -1       340-1.03898E+04-2.78563E+04-1.08161E+04
 -1       341-1.06108E+04-4.22419E+04-1.58097E+04
 -1       342-6.63085E+03-5.18707E+04-1.18356E+04
 -1       343-2.10078E+03 2.82513E+03 1.03966E+03
 -1       344-3.77173E+03 7.58218E+03 2.99896E+03
 -1       345-4.74784E+03 1.40805E+04 5.62390E+03
 -1       346-5.04377E+03 2.13889E+04 8.50916E+03
 -1       347-4.72251E+03 2.86012E+04 1.13253E+04
 -1       348-3.86930E+03 3.49174E+04 1.37803E+04
 -1       349-2.59124E+03 3.96694E+04 1.56235E+04
 -1       350-1.01324E+03 4.23510E+04 1.66598E+04
 -1       351 7.27853E+02 4.26397E+04 1.67622E+04
 -1       352 2.49056E+03 4.04097E+04 1.58800E+04
 -1       353 4.13680E+03 3.57330E+04 1.40402E+04
 -1       354 5.54008E+03 2.88690E+04 1.13437E+04
 -1       355 6.59305E+03 2.02429E+04 7.95708E+03
 -1       356 7.21411E+03 1.04138E+04 4.09949E+03
 -1       357 7.35219E+03 3.48377E+01 2.70798E+01
 -1       358 6.98974E+03-1.01926E+04-3.98501E+03
 -1       359 6.14329E+03-1.95670E+04-7.66158E+03
 -1       360 4.86179E+03-2.74342E+04-1.07460E+04
 -1       361 3.22271E+03-3.32305E+04-1.30172E+04
 -1       362 1.32609E+03-3.65198E+04-1.43038E+04
 -1       363-7.13059E+02-3.70200E+04-1.44939E+04
 -1       364-2.77356E+03-3.46184E+04-1.35404E+04
 -1       365-4.73755E+03-2.93740E+04-1.14613E+04
 -1       366-6.50019E+03-2.15065E+04-8.33650E+03
 -1       367-7.97904E+03-1.13719E+04-4.30669E+03
 -1       368-9.12252E+03 5.73427E+02 4.23871E+02
 -1       369-9.91681E+03 1.38191E+04 5.57869E+03
 -1       370-1.03898E+04 2.78563E+04 1.08161E+04
 -1       371-1.06108E+04 4.22419E+04 1.58097E+04
 -1       372-2.16470E+03 2.76285E+03 1.06796E+03
 -1       373-3.87612E+03 7.40288E+03 3.01793E+03
 -1       374-4.87188E+03 1.37446E+04 5.63279E+03
 -1       375-5.17172E+03 2.08814E+04 8.50878E+03
 -1       376-4.84073E+03 2.79265E+04 1.13166E+04
 -1       377-3.96573E+03 3.40968E+04 1.37648E+04
 -1       378-2.65591E+03 3.87394E+04 1.56028E+04
 -1       379-1.03898E+03 4.13594E+04 1.66357E+04
 -1       380 7.45008E+02 4.16421E+04 1.67368E+04
 -1       381 2.55113E+03 3.94648E+04 1.58553E+04
 -1       382 4.23792E+03 3.48976E+04 1.40181E+04
 -1       383 5.67575E+03 2.81940E+04 1.13259E+04
 -1       384 6.75468E+03 1.97694E+04 7.94497E+03
 -1       385 7.39107E+03 1.01698E+04 4.09399E+03
 -1       386 7.53263E+03 3.30868E+01 2.86788E+01
 -1       387 7.16137E+03-9.95570E+03-3.97630E+03
 -1       388 6.29424E+03-1.91114E+04-7.64623E+03
 -1       389 4.98141E+03-2.67950E+04-1.07249E+04
 -1       390 3.30225E+03-3.24563E+04-1.29917E+04
 -1       391 1.35924E+03-3.56691E+04-1.42754E+04
 -1       392-7.29832E+02-3.61580E+04-1.44643E+04
 -1       393-2.84089E+03-3.38133E+04-1.35114E+04
 -1       394-4.85325E+03-2.86928E+04-1.14344E+04
 -1       395-6.65940E+03-2.10115E+04-8.31320E+03
 -1       396-8.17420E+03-1.11170E+04-4.28790E+03
 -1       397-9.34307E+03 5.46479E+02 4.37649E+02
 -1       398-1.01489E+04 1.34855E+04 5.58752E+03
 -1       399-1.06176E+04 2.72123E+04 1.08206E+04
 -1       400-1.08233E+04 4.13050E+04 1.58113E+04
 -1       401 1.54540E+06 3.83569E+05 5.79423E+06
 -1       402 3.75910E+06 4.50283E+05-5.86482E+06
 -1       403-6.63085E+03 5.18707E+04 1.18356E+04
 -1       404-4.94200E+02 3.15164E+03 2.59501E+02
 -1       405-9.13092E+02 8.91959E+03 7.43815E+02
 -1       406-1.15737E+03 1.68218E+04 1.39377E+03
 -1       407-1.23202E+03 2.56815E+04 2.11116E+03
 -1       408-1.15500E+03 3.44173E+04 2.81247E+03
 -1       409-9.46656E+02 4.20646E+04 3.42408E+03
 -1       410-6.33518E+02 4.78184E+04 3.88338E+03
 -1       411-2.46392E+02 5.10689E+04 4.14177E+03
 -1       412 1.81021E+02 5.14279E+04 4.16770E+03
 -1       413 6.13887E+02 4.87442E+04 3.94859E+03
 -1       414 1.01822E+03 4.31053E+04 3.49120E+03
 -1       415 1.36290E+03 3.48246E+04 2.82068E+03
 -1       416 1.62150E+03 2.44157E+04 1.97845E+03
 -1       417 1.77394E+03 1.25537E+04 1.01904E+03
 -1       418 1.80766E+03 2.68207E+01 6.15181E+00
 -1       419 1.71831E+03-1.23182E+04-9.91770E+02
 -1       420 1.50994E+03-2.36347E+04-1.90628E+03
 -1       421 1.19458E+03-3.31330E+04-2.67354E+03
 -1       422 7.91246E+02-4.01332E+04-3.23857E+03
 -1       423 3.24521E+02-4.41091E+04-3.55875E+03
 -1       424-1.77349E+02-4.47206E+04-3.60632E+03
 -1       425-6.84601E+02-4.18323E+04-3.36963E+03
 -1       426-1.16830E+03-3.55160E+04-2.85333E+03
 -1       427-1.60274E+03-2.60380E+04-2.07753E+03
 -1       428-1.96774E+03-1.38291E+04-1.07718E+03
 -1       429-2.25077E+03 5.58312E+02 9.76485E+01
 -1       430-2.44864E+03 1.65070E+04 1.38068E+03
 -1       431-2.56842E+03 3.34018E+04 2.69120E+03
 -1       432-2.62639E+03 5.07072E+04 3.95552E+03
 -1       433-6.76168E+03 5.07494E+04 1.18360E+04
 -1       434-1.54540E+06-3.83569E+05 5.79423E+06
 -1       435-3.75910E+06-4.50283E+05-5.86482E+06
 -1       436 2.62639E+03-5.07072E+04 3.95552E+03
 -1       437 2.56842E+03-3.34018E+04 2.69120E+03
 -1       438 2.44864E+03-1.65070E+04 1.38068E+03
 -1       439 2.25077E+03-5.58312E+02 9.76485E+01
 -1       440 1.96774E+03 1.38291E+04-1.07718E+03
 -1       441 1.60274E+03 2.60380E+04-2.07753E+03
 -1       442 1.16830E+03 3.55160E+04-2.85333E+03
 -1       443 6.84601E+02 4.18323E+04-3.36963E+03
 -1       444 1.77349E+02 4.47206E+04-3.60632E+03
 -1       445-3.24521E+02 4.41091E+04-3.55875E+03
 -1       446-7.91246E+02 4.01332E+04-3.23857E+03
 -1       447-1.19458E+03 3.31330E+04-2.67354E+03
 -1       448-1.50994E+03 2.36347E+04-1.90628E+03
 -1       449-1.71831E+03 1.23182E+04-9.91770E+02
 -1       450-1.80766E+03-2.68207E+01 6.15181E+00
 -1       451-1.77394E+03-1.25537E+04 1.01904E+03
 -1       452-1.62150E+03-2.44157E+04 1.97845E+03
 -1       453-1.36290E+03-3.48246E+04 2.82068E+03
 -1       454-1.01822E+03-4.31053E+04 3.49120E+03
 -1       455-6.13887E+02-4.87442E+04 3.94859E+03
 -1       456-1.81021E+02-5.14279E+04 4.16770E+03
 -1       457 2.46392E+02-5.10689E+04 4.14177E+03
 -1       458 6.33518E+02-4.78184E+04 3.88338E+03
 -1       459 9.46656E+02-4.20646E+04 3.42408E+03
 -1       460 1.15500E+03-3.44173E+04 2.81247E+03
 -1       461 1.23202E+03-2.56815E+04 2.11116E+03
 -1       462 1.15737E+03-1.68218E+04 1.39377E+03
 -1       463 9.13092E+02-8.91959E+03 7.43815E+02
 -1       464 4.94200E+02-3.15164E+03 2.59501E+02
 -1       465 6.63085E+03-5.18707E+04 1.18356E+04
 -1       466 2.10078E+03-2.82513E+03 1.03966E+03
 -1       467 3.77173E+03-7.58218E+03 2.99896E+03
 -1       468 4.74784E+03-1.40805E+04 5.62390E+03
 -1       469 5.04377E+03-2.13889E+04 8.50916E+03
 -1       470 4.72251E+03-2.86012E+04 1.13253E+04
 -1       471 3.86930E+03-3.49174E+04 1.37803E+04
 -1       472 2.59124E+03-3.96694E+04 1.56235E+04
 -1       473 1.01324E+03-4.23510E+04 1.66598E+04
 -1       474-7.27853E+02-4.26397E+04 1.67622E+04
 -1       475-2.49056E+03-4.04097E+04 1.58800E+04
 -1       476-4.13680E+03-3.57330E+04 1.40402E+04
 -1       477-5.54008E+03-2.88690E+04 1.13437E+04
 -1       478-6.59305E+03-2.02429E+04 7.95708E+03
 -1       479-7.21411E+03-1.04138E+04 4.09949E+03
 -1       480-7.35219E+03-3.48377E+01 2.70798E+01
 -1       481-6.98974E+03 1.01926E+04-3.98501E+03
 -1       482-6.14329E+03 1.95670E+04-7.66158E+03
 -1       483-4.86179E+03 2.74342E+04-1.07460E+04
 -1       484-3.22271E+03 3.32305E+04-1.30172E+04
 -1       485-1.32609E+03 3.65198E+04-1.43038E+04
 -1       486 7.13059E+02 3.70200E+04-1.44939E+04
 -1       487 2.77356E+03 3.46184E+04-1.35404E+04
 -1       488 4.73755E+03 2.93740E+04-1.14613E+04
 -1       489 6.50019E+03 2.15065E+04-8.33650E+03
 -1       490 7.97904E+03 1.13719E+04-4.30669E+03
 -1       491 9.12252E+03-5.73427E+02 4.23871E+02
 -1       492 9.91681E+03-1.38191E+04 5.57869E+03
 -1       493 1.03898E+04-2.78563E+04 1.08161E+04
 -1       494 1.06108E+04-4.22419E+04 1.58097E+04
 -1       495 2.16470E+03-2.76285E+03 1.06796E+03
 -1       496 3.87612E+03-7.40288E+03 3.01793E+03
 -1       497 4.87188E+03-1.37446E+04 5.63279E+03
 -1       498 5.17172E+03-2.08814E+04 8.50878E+03
 -1       499 4.84073E+03-2.79265E+04 1.13166E+04
 -1       500 3.96573E+03-3.40968E+04 1.37648E+04
 -1       501 2.65591E+03-3.87394E+04 1.56028E+04
 -1       502 1.03898E+03-4.13594E+04 1.66357E+04
 -1       503-7.45008E+02-4.16421E+04 1.67368E+04
 -1       504-2.55113E+03-3.94648E+04 1.58553E+04
 -1       505-4.23792E+03-3.48976E+04 1.40181E+04
 -1       506-5.67575E+03-2.81940E+04 1.13259E+04
 -1       507-6.75468E+03-1.97694E+04 7.94497E+03
 -1       508-7.39107E+03-1.01698E+04 4.09399E+03
 -1       509-7.53263E+03-3.30868E+01 2.86788E+01
 -1       510-7.16137E+03 9.95570E+03-3.97630E+03
 -1       511-6.29424E+03 1.91114E+04-7.64623E+03
 -1       512-4.98141E+03 2.67950E+04-1.07249E+04
 -1       513-3.30225E+03 3.24563E+04-1.29917E+04
 -1       514-1.35924E+03 3.56691E+04-1.42754E+04
 -1       515 7.29832E+02 3.61580E+04-1.44643E+04
 -1       516 2.84089E+03 3.38133E+04-1.35114E+04
 -1       517 4.85325E+03 2.86928E+04-1.14344E+04
 -1       518 6.65940E+03 2.10115E+04-8.31320E+03
 -1       519 8.17420E+03 1.11170E+04-4.28790E+03
 -1       520 9.34307E+03-5.46479E+02 4.37649E+02
 -1       521 1.01489E+04-1.34855E+04 5.58752E+03
 -1       522 1.06176E+04-2.72123E+04 1.08206E+04
 -1       523 1.08233E+04-4.13050E+04 1.58113E+04
 -1       524 6.76168E+03-5.07494E+04 1.18360E+04
 -1       525 6.69312E+01 3.36419E+03-5.29018E+01
 -1       526 1.11586E+02 9.73163E+03-1.50408E+02
 -1       527 1.35500E+02 1.84593E+04-2.84240E+02
 -1       528 1.41921E+02 2.82379E+04-4.34333E+02
 -1       529 1.32136E+02 3.78909E+04-5.82376E+02
 -1       530 1.08110E+02 4.63492E+04-7.11990E+02
 -1       531 7.27323E+01 5.27160E+04-8.09521E+02
 -1       532 2.94036E+01 5.63158E+04-8.64636E+02
 -1       533-1.81961E+01 5.67211E+04-8.70765E+02
 -1       534-6.62724E+01 5.37661E+04-8.25353E+02
 -1       535-1.11118E+02 4.75480E+04-7.29883E+02
 -1       536-1.49333E+02 3.84134E+04-5.89668E+02
 -1       537-1.78030E+02 2.69293E+04-4.13405E+02
 -1       538-1.95017E+02 1.38407E+04-2.12528E+02
 -1       539-1.98924E+02 1.76522E+01-3.87914E-01
 -1       540-1.89288E+02-1.36055E+04 2.08677E+02
 -1       541-1.66566E+02-2.60945E+04 4.00328E+02
 -1       542-1.32096E+02-3.65779E+04 5.61193E+02
 -1       543-8.79877E+01-4.43055E+04 6.79758E+02
 -1       544-3.69670E+01-4.86968E+04 7.47113E+02
 -1       545 1.78259E+01-4.93773E+04 7.57501E+02
 -1       546 7.30726E+01-4.61992E+04 7.08636E+02
 -1       547 1.25536E+02-3.92452E+04 6.01751E+02
 -1       548 1.72348E+02-2.88125E+04 4.41367E+02
 -1       549 2.11320E+02-1.53770E+04 2.34784E+02
 -1       550 2.41270E+02 4.66375E+02-8.69912E+00
 -1       551 2.62136E+02 1.80797E+04-2.78789E+02
 -1       552 2.74696E+02 3.68533E+04-5.65373E+02
 -1       553 2.80493E+02 5.62561E+04-8.59675E+02
 -1       554-1.59314E-07-2.54923E-07-5.13248E+01
 -1       555 3.50640E-07-8.08954E-08-1.49295E+02
 -1       556 2.26140E-07-2.07900E-07-2.83540E+02
 -1       557-6.39222E-07 1.21024E-06-4.33892E+02
 -1       558-4.87467E-07 1.34744E-06-5.82377E+02
 -1       559-4.40309E-07-2.83076E-08-7.12539E+02
 -1       560-7.00335E-07-2.10720E-06-8.10532E+02
 -1       561-9.80014E-08 9.69642E-08-8.65949E+02
 -1       562-5.56788E-07-1.79362E-06-8.72220E+02
 -1       563-1.53153E-06-1.45697E-06-8.26799E+02
 -1       564-1.36717E-06-5.38813E-07-7.31186E+02
 -1       565-6.59918E-07 1.71215E-07-5.90714E+02
 -1       566 1.97971E-07 2.07420E-06-4.14103E+02
 -1       567 1.07367E-07-1.84384E-07-2.12813E+02
 -1       568-6.54724E-07 2.22333E-06-2.24200E-01
 -1       569-1.13423E-06-8.15830E-07 2.09294E+02
 -1       570-1.35476E-06 5.44155E-07 4.01371E+02
 -1       571-3.07977E-07 3.20053E-06 5.62607E+02
 -1       572-1.19646E-06 1.51106E-06 6.81464E+02
 -1       573-7.83162E-07 1.24388E-07 7.49013E+02
 -1       574-4.90458E-07-7.24260E-07 7.59501E+02
 -1       575-2.47537E-07 1.06949E-06 7.10663E+02
 -1       576-9.74232E-07-8.30236E-07 6.03786E+02
 -1       577 3.13692E-07 9.21281E-07 4.43463E+02
 -1       578-3.24816E-07 8.58138E-07 2.37010E+02
 -1       579 2.98610E-08-5.80695E-07-6.50755E+00
 -1       580 7.23595E-07-7.63042E-07-2.77524E+02
 -1       581 1.04052E-06-3.94093E-06-5.67035E+02
 -1       582 5.94091E-08-5.07700E-06-8.67176E+02
 -1       583-6.69312E+01-3.36419E+03-5.29018E+01
 -1       584-1.11586E+02-9.73163E+03-1.50408E+02
 -1       585-1.35500E+02-1.84593E+04-2.84240E+02
 -1       586-1.41921E+02-2.82379E+04-4.34333E+02
 -1       587-1.32136E+02-3.78909E+04-5.82376E+02
 -1       588-1.08110E+02-4.63492E+04-7.11990E+02
 -1       589-7.27323E+01-5.27160E+04-8.09521E+02
 -1       590-2.94036E+01-5.63158E+04-8.64636E+02
 -1       591 1.81961E+01-5.67211E+04-8.70765E+02
 -1       592 6.62724E+01-5.37661E+04-8.25353E+02
 -1       593 1.11118E+02-4.75480E+04-7.29883E+02
 -1       594 1.49333E+02-3.84134E+04-5.89668E+02
 -1       595 1.78030E+02-2.69293E+04-4.13405E+02
 -1       596 1.95017E+02-1.38407E+04-2.12528E+02
 -1       597 1.98924E+02-1.76522E+01-3.87915E-01
 -1       598 1.89288E+02 1.36055E+04 2.08677E+02
 -1       599 1.66566E+02 2.60945E+04 4.00328E+02
 -1       600 1.32096E+02 3.65779E+04 5.61193E+02
 -1       601 8.79877E+01 4.43055E+04 6.79758E+02
 -1       602 3.69670E+01 4.86968E+04 7.47113E+02
 -1       603-1.78259E+01 4.93773E+04 7.57501E+02
 -1       604-7.30726E+01 4.61992E+04 7.08636E+02
 -1       605-1.25536E+02 3.92452E+04 6.01751E+02
 -1       606-1.72348E+02 2.88125E+04 4.41367E+02
 -1       607-2.11320E+02 1.53770E+04 2.34784E+02
 -1       608-2.41270E+02-4.66375E+02-8.69912E+00
 -1       609-2.62136E+02-1.80797E+04-2.78789E+02
 -1       610-2.74696E+02-3.68533E+04-5.65373E+02
 -1       611-2.80493E+02-5.62561E+04-8.59675E+02
 -1       612 6.69312E+01-3.36419E+03 5.29018E+01
 -1       613 1.11586E+02-9.73163E+03 1.50408E+02
 -1       614 1.35500E+02-1.84593E+04 2.84240E+02
 -1       615 1.41921E+02-2.82379E+04 4.34333E+02
 -1       616 1.32136E+02-3.78909E+04 5.82376E+02
 -1       617 1.08110E+02-4.63492E+04 7.11990E+02
 -1       618 7.27323E+01-5.27160E+04 8.09521E+02
 -1       619 2.94036E+01-5.63158E+04 8.64636E+02
 -1       620-1.81961E+01-5.67211E+04 8.70765E+02
 -1       621-6.62724E+01-5.37661E+04 8.25353E+02
 -1       622-1.11118E+02-4.75480E+04 7.29883E+02
 -1       623-1.49333E+02-3.84134E+04 5.89668E+02
 -1       624-1.78030E+02-2.69293E+04 4.13405E+02
 -1       625-1.95017E+02-1.38407E+04 2.12528E+02
 -1       626-1.98924E+02-1.76522E+01 3.87911E-01
 -1       627-1.89288E+02 1.36055E+04-2.08677E+02
 -1       628-1.66566E+02 2.60945E+04-4.00328E+02
 -1       629-1.32096E+02 3.65779E+04-5.61193E+02
 -1       630-8.79877E+01 4.43055E+04-6.79758E+02
 -1       631-3.69670E+01 4.86968E+04-7.47113E+02
 -1       632 1.78259E+01 4.93773E+04-7.57501E+02
 -1       633 7.30726E+01 4.61992E+04-7.08636E+02
 -1       634 1.25536E+02 3.92452E+04-6.01751E+02
 -1       635 1.72348E+02 2.88125E+04-4.41367E+02
 -1       636 2.11320E+02 1.53770E+04-2.34784E+02
 -1       637 2.41270E+02-4.66375E+02 8.69912E+00
 -1       638 2.62136E+02-1.80797E+04 2.78789E+02
 -1       639 2.74696E+02-3.68533E+04 5.65373E+02
 -1       640 2.80493E+02-5.62561E+04 8.59675E+02
 -1       641-3.87683E-07-1.62619E-07 5.13248E+01
 -1       642 3.30005E-07-1.20642E-06 1.49295E+02
 -1       643 4.99229E-07-1.24629E-06 2.83540E+02
 -1       644-3.37472E-07-1.85626E-06 4.33892E+02
 -1       645-7.90232E-07-1.97530E-06 5.82377E+02
 -1       646-6.26477E-07-1.47462E-06 7.12539E+02
 -1       647 5.67957E-08-4.41627E-08 8.10532E+02
 -1       648 3.18977E-07-1.66520E-06 8.65949E+02
 -1       649-3.87477E-07 6.10865E-08 8.72220E+02
 -1       650-3.41722E-07 1.67192E-06 8.26799E+02
 -1       651-1.03069E-06 1.23889E-06 7.31186E+02
 -1       652-1.42120E-06 2.37304E-06 5.90714E+02
 -1       653-1.12078E-06-8.98563E-07 4.14103E+02
 -1       654-1.22820E-06-1.58020E-06 2.12813E+02
 -1       655-1.19406E-06-3.45311E-06 2.24195E-01
 -1       656-1.80895E-07 5.22539E-07-2.09294E+02
 -1       657 3.56602E-07-1.31585E-06-4.01371E+02
 -1       658-1.00449E-06-4.89351E-07-5.62607E+02
 -1       659 1.17303E-07 7.33448E-07-6.81464E+02
 -1       660 8.06635E-07 2.63355E-06-7.49013E+02
 -1       661-5.55783E-07 1.94898E-06-7.59501E+02
 -1       662-1.08379E-06 6.06821E-07-7.10663E+02
 -1       663-7.52194E-07 1.75075E-06-6.03786E+02
 -1       664-2.18463E-06 4.71782E-07-4.43463E+02
 -1       665-1.66177E-06-1.77504E-06-2.37010E+02
 -1       666-2.01074E-06 3.95462E-08 6.50756E+00
 -1       667-1.29352E-06-1.74164E-07 2.77524E+02
 -1       668-7.15920E-07 3.05300E-06 5.67035E+02
 -1       669-4.45574E-07 2.24192E-06 8.67176E+02
 -1       670-6.69312E+01 3.36419E+03 5.29018E+01
 -1       671-1.11586E+02 9.73163E+03 1.50408E+02
 -1       672-1.35500E+02 1.84593E+04 2.84240E+02
 -1       673-1.41921E+02 2.82379E+04 4.34333E+02
 -1       674-1.32136E+02 3.78909E+04 5.82376E+02
 -1       675-1.08110E+02 4.63492E+04 7.11990E+02
 -1       676-7.27323E+01 5.27160E+04 8.09521E+02
 -1       677-2.94036E+01 5.63158E+04 8.64636E+02
 -1       678 1.81961E+01 5.67211E+04 8.70765E+02
 -1       679 6.62724E+01 5.37661E+04 8.25353E+02
 -1       680 1.11118E+02 4.75480E+04 7.29883E+02
 -1       681 1.49333E+02 3.84134E+04 5.89668E+02
 -1       682 1.78030E+02 2.69293E+04 4.13405E+02
 -1       683 1.95017E+02 1.38407E+04 2.12528E+02
 -1       684 1.98924E+02 1.76522E+01 3.87911E-01
 -1       685 1.89288E+02-1.36055E+04-2.08677E+02
 -1       686 1.66566E+02-2.60945E+04-4.00328E+02
 -1       687 1.32096E+02-3.65779E+04-5.61193E+02
 -1       688 8.79877E+01-4.43055E+04-6.79758E+02
 -1       689 3.69670E+01-4.86968E+04-7.47113E+02
 -1       690-1.78259E+01-4.93773E+04-7.57501E+02
 -1       691-7.30726E+01-4.61992E+04-7.08636E+02
 -1       692-1.25536E+02-3.92452E+04-6.01751E+02
 -1       693-1.72348E+02-2.88125E+04-4.41367E+02
 -1       694-2.11320E+02-1.53770E+04-2.34784E+02
 -1       695-2.41270E+02 4.66375E+02 8.69912E+00
 -1       696-2.62136E+02 1.80797E+04 2.78789E+02
 -1       697-2.74696E+02 3.68533E+04 5.65373E+02
 -1       698-2.80493E+02 5.62561E+04 8.59675E+02
 -1       699 2.51539E+03 5.40912E+03-1.29648E+03
 -1       700 4.60634E+03 1.49838E+04-3.72927E+03
 -1       701 5.82824E+03 2.80784E+04-6.99114E+03
 -1       702 6.20208E+03 4.27791E+04-1.05813E+04
 -1       703 5.81258E+03 5.72792E+04-1.40874E+04
 -1       704 4.76370E+03 6.99743E+04-1.71443E+04
 -1       705 3.18842E+03 7.95259E+04-1.94396E+04
 -1       706 1.24148E+03 8.49194E+04-2.07302E+04
 -1       707-9.07787E+02 8.55090E+04-2.08584E+04
 -1       708-3.08432E+03 8.10429E+04-1.97610E+04
 -1       709-5.11733E+03 7.16660E+04-1.74717E+04
 -1       710-6.85035E+03 5.78990E+04-1.41162E+04
 -1       711-8.15063E+03 4.05955E+04-9.90163E+03
 -1       712-8.91721E+03 2.08773E+04-5.10091E+03
 -1       713-9.08694E+03 5.49247E+01-3.27717E+01
 -1       714-8.63803E+03-2.04646E+04 4.96036E+03
 -1       715-7.59085E+03-3.92737E+04 9.53598E+03
 -1       716-6.00586E+03-5.50599E+04 1.33747E+04
 -1       717-3.97871E+03-6.66928E+04 1.62015E+04
 -1       718-1.63296E+03-7.32977E+04 1.78029E+04
 -1       719 8.89363E+02-7.43088E+04 1.80400E+04
 -1       720 3.43861E+03-6.95008E+04 1.68541E+04
 -1       721 5.86931E+03-5.89926E+04 1.42679E+04
 -1       722 8.05211E+03-4.32259E+04 1.03814E+04
 -1       723 9.88546E+03-2.29162E+04 5.36943E+03
 -1       724 1.13061E+04 1.01936E+03-5.14893E+02
 -1       725 1.22974E+04 2.75551E+04-6.93173E+03
 -1       726 1.28947E+04 5.56684E+04-1.34622E+04
 -1       727 1.31814E+04 8.44688E+04-1.97153E+04
 -1       728 2.59649E+03 5.28317E+03-1.32988E+03
 -1       729 4.73850E+03 1.46253E+04-3.75219E+03
 -1       730 5.98538E+03 2.74082E+04-7.00174E+03
 -1       731 6.36430E+03 4.17665E+04-1.05809E+04
 -1       732 5.96249E+03 5.59324E+04-1.40772E+04
 -1       733 4.88597E+03 6.83362E+04-1.71260E+04
 -1       734 3.27045E+03 7.76691E+04-1.94151E+04
 -1       735 1.27415E+03 8.29398E+04-2.07018E+04
 -1       736-9.29464E+02 8.35174E+04-2.08284E+04
 -1       737-3.16100E+03 7.91562E+04-1.97318E+04
 -1       738-5.24539E+03 6.99978E+04-1.74456E+04
 -1       739-7.02219E+03 5.65513E+04-1.40951E+04
 -1       740-8.35535E+03 3.96501E+04-9.88729E+03
 -1       741-9.14136E+03 2.03902E+04-5.09440E+03
 -1       742-9.31550E+03 5.14909E+01-3.46755E+01
 -1       743-8.85544E+03-1.99914E+04 4.95003E+03
 -1       744-7.78208E+03-3.83638E+04 9.51779E+03
 -1       745-6.15740E+03-5.37837E+04 1.33498E+04
 -1       746-4.07949E+03-6.51469E+04 1.61712E+04
 -1       747-1.67498E+03-7.15990E+04 1.77693E+04
 -1       748 9.10559E+02-7.25877E+04 1.80049E+04
 -1       749 3.52382E+03-6.78931E+04 1.68197E+04
 -1       750 6.01574E+03-5.76321E+04 1.42361E+04
 -1       751 8.25360E+03-4.22369E+04 1.03537E+04
 -1       752 1.01324E+04-2.24063E+04 5.34712E+03
 -1       753 1.15852E+04 9.66783E+02-5.31285E+02
 -1       754 1.25915E+04 2.68901E+04-6.94231E+03
 -1       755 1.31839E+04 5.43820E+04-1.34678E+04
 -1       756 1.34529E+04 8.25918E+04-1.97176E+04
 -1       757-2.59649E+03-5.28317E+03-1.32988E+03
 -1       758-4.73850E+03-1.46253E+04-3.75219E+03
 -1       759-5.98538E+03-2.74082E+04-7.00174E+03
 -1       760-6.36430E+03-4.17665E+04-1.05809E+04
 -1       761-5.96249E+03-5.59324E+04-1.40772E+04
 -1       762-4.88597E+03-6.83362E+04-1.71260E+04
 -1       763-3.27045E+03-7.76691E+04-1.94151E+04
 -1       764-1.27415E+03-8.29398E+04-2.07018E+04
 -1       765 9.29464E+02-8.35174E+04-2.08284E+04
 -1       766 3.16100E+03-7.91562E+04-1.97318E+04
 -1       767 5.24539E+03-6.99978E+04-1.74456E+04
 -1       768 7.02219E+03-5.65513E+04-1.40951E+04
 -1       769 8.35535E+03-3.96501E+04-9.88729E+03
 -1       770 9.14136E+03-2.03902E+04-5.09440E+03
 -1       771 9.31550E+03-5.14909E+01-3.46755E+01
 -1       772 8.85544E+03 1.99914E+04 4.95003E+03
 -1       773 7.78208E+03 3.83638E+04 9.51779E+03
 -1       774 6.15740E+03 5.37837E+04 1.33498E+04
 -1       775 4.07949E+03 6.51469E+04 1.61712E+04
 -1       776 1.67498E+03 7.15990E+04 1.77693E+04
 -1       777-9.10559E+02 7.25877E+04 1.80049E+04
 -1       778-3.52382E+03 6.78931E+04 1.68197E+04
 -1       779-6.01574E+03 5.76321E+04 1.42361E+04
 -1       780-8.25360E+03 4.22369E+04 1.03537E+04
 -1       781-1.01324E+04 2.24063E+04 5.34712E+03
 -1       782-1.15852E+04-9.66783E+02-5.31285E+02
 -1       783-1.25915E+04-2.68901E+04-6.94231E+03
 -1       784-1.31839E+04-5.43820E+04-1.34678E+04
 -1       785-1.34529E+04-8.25918E+04-1.97176E+04
 -1       786-2.51539E+03-5.40912E+03-1.29648E+03
 -1       787-4.60634E+03-1.49838E+04-3.72927E+03
 -1       788-5.82824E+03-2.80784E+04-6.99114E+03
 -1       789-6.20208E+03-4.27791E+04-1.05813E+04
 -1       790-5.81258E+03-5.72792E+04-1.40874E+04
 -1       791-4.76370E+03-6.99743E+04-1.71443E+04
 -1       792-3.18842E+03-7.95259E+04-1.94396E+04
 -1       793-1.24148E+03-8.49194E+04-2.07302E+04
 -1       794 9.07787E+02-8.55090E+04-2.08584E+04
 -1       795 3.08432E+03-8.10429E+04-1.97610E+04
 -1       796 5.11733E+03-7.16660E+04-1.74717E+04
 -1       797 6.85035E+03-5.78990E+04-1.41162E+04
 -1       798 8.15063E+03-4.05955E+04-9.90163E+03
 -1       799 8.91721E+03-2.08773E+04-5.10091E+03
 -1       800 9.08694E+03-5.49247E+01-3.27717E+01
 -1       801 8.63803E+03 2.04646E+04 4.96036E+03
 -1       802 7.59085E+03 3.92737E+04 9.53598E+03
 -1       803 6.00586E+03 5.50599E+04 1.33747E+04
 -1       804 3.97871E+03 6.66928E+04 1.62015E+04
 -1       805 1.63296E+03 7.32977E+04 1.78029E+04
 -1       806-8.89363E+02 7.43088E+04 1.80400E+04
 -1       807-3.43861E+03 6.95008E+04 1.68541E+04
 -1       808-5.86931E+03 5.89926E+04 1.42679E+04
 -1       809-8.05211E+03 4.32259E+04 1.03814E+04
 -1       810-9.88546E+03 2.29162E+04 5.36943E+03
 -1       811-1.13061E+04-1.01936E+03-5.14893E+02
 -1       812-1.22974E+04-2.75551E+04-6.93173E+03
 -1       813-1.28947E+04-5.56684E+04-1.34622E+04
 -1       814-1.31814E+04-8.44688E+04-1.97153E+04
 -1       815-2.51539E+03 5.40912E+03 1.29648E+03
 -1       816-4.60634E+03 1.49838E+04 3.72927E+03
 -1       817-5.82824E+03 2.80784E+04 6.99114E+03
 -1       818-6.20208E+03 4.27791E+04 1.05813E+04
 -1       819-5.81258E+03 5.72792E+04 1.40874E+04
 -1       820-4.76370E+03 6.99743E+04 1.71443E+04
 -1       821-3.18842E+03 7.95259E+04 1.94396E+04
 -1       822-1.24148E+03 8.49194E+04 2.07302E+04
 -1       823 9.07787E+02 8.55090E+04 2.08584E+04
 -1       824 3.08432E+03 8.10429E+04 1.97610E+04
 -1       825 5.11733E+03 7.16660E+04 1.74717E+04
 -1       826 6.85035E+03 5.78990E+04 1.41162E+04
 -1       827 8.15063E+03 4.05955E+04 9.90163E+03
 -1       828 8.91721E+03 2.08773E+04 5.10091E+03
 -1       829 9.08694E+03 5.49247E+01 3.27717E+01
 -1       830 8.63803E+03-2.04646E+04-4.96036E+03
 -1       831 7.59085E+03-3.92737E+04-9.53598E+03
 -1       832 6.00586E+03-5.50599E+04-1.33747E+04
 -1       833 3.97871E+03-6.66928E+04-1.62015E+04
 -1       834 1.63296E+03-7.32977E+04-1.78029E+04
 -1       835-8.89363E+02-7.43088E+04-1.80400E+04
 -1       836-3.43861E+03-6.95008E+04-1.68541E+04
 -1       837-5.86931E+03-5.89926E+04-1.42679E+04
 -1       838-8.05211E+03-4.32259E+04-1.03814E+04
 -1       839-9.88546E+03-2.29162E+04-5.36943E+03
 -1       840-1.13061E+04 1.01936E+03 5.14893E+02
 -1       841-1.22974E+04 2.75551E+04 6.93173E+03
 -1       842-1.28947E+04 5.56684E+04 1.34622E+04
 -1       843-1.31814E+04 8.44688E+04 1.97153E+04
 -1       844-2.59649E+03 5.28317E+03 1.32988E+03
 -1       845-4.73850E+03 1.46253E+04 3.75219E+03
 -1       846-5.98538E+03 2.74082E+04 7.00174E+03
 -1       847-6.36430E+03 4.17665E+04 1.05809E+04
 -1       848-5.96249E+03 5.59324E+04 1.40772E+04
 -1       849-4.88597E+03 6.83362E+04 1.71260E+04
 -1       850-3.27045E+03 7.76691E+04 1.94151E+04
 -1       851-1.27415E+03 8.29398E+04 2.07018E+04
 -1       852 9.29464E+02 8.35174E+04 2.08284E+04
 -1       853 3.16100E+03 7.91562E+04 1.97318E+04
 -1       854 5.24539E+03 6.99978E+04 1.74456E+04
 -1       855 7.02219E+03 5.65513E+04 1.40951E+04
 -1       856 8.35535E+03 3.96501E+04 9.88729E+03
 -1       857 9.14136E+03 2.03902E+04 5.09440E+03
 -1       858 9.31550E+03 5.14909E+01 3.46755E+01
 -1       859 8.85544E+03-1.99914E+04-4.95003E+03
 -1       860 7.78208E+03-3.83638E+04-9.51779E+03
 -1       861 6.15740E+03-5.37837E+04-1.33498E+04
 -1       862 4.07949E+03-6.51469E+04-1.61712E+04
 -1       863 1.67498E+03-7.15990E+04-1.77693E+04
 -1       864-9.10559E+02-7.25877E+04-1.80049E+04
 -1       865-3.52382E+03-6.78931E+04-1.68197E+04
 -1       866-6.01574E+03-5.76321E+04-1.42361E+04
 -1       867-8.25360E+03-4.22369E+04-1.03537E+04
 -1       868-1.01324E+04-2.24063E+04-5.34712E+03
 -1       869-1.15852E+04 9.66783E+02 5.31285E+02
 -1       870-1.25915E+04 2.68901E+04 6.94231E+03
 -1       871-1.31839E+04 5.43820E+04 1.34678E+04
 -1       872-1.34529E+04 8.25918E+04 1.97176E+04
 -1       873 1.31814E+04-8.44688E+04 1.97153E+04
 -1       874 1.28947E+04-5.56684E+04 1.34622E+04
 -1       875 1.22974E+04-2.75551E+04 6.93173E+03
 -1       876 1.13061E+04-1.01936E+03 5.14893E+02
 -1       877 9.88546E+03 2.29162E+04-5.36943E+03
 -1       878 8.05211E+03 4.32259E+04-1.03814E+04
 -1       879 5.86931E+03 5.89926E+04-1.42679E+04
 -1       880 3.43861E+03 6.95008E+04-1.68541E+04
 -1       881 8.89363E+02 7.43088E+04-1.80400E+04
 -1       882-1.63296E+03 7.32977E+04-1.78029E+04
 -1       883-3.97871E+03 6.66928E+04-1.62015E+04
 -1       884-6.00586E+03 5.50599E+04-1.33747E+04
 -1       885-7.59085E+03 3.92737E+04-9.53598E+03
 -1       886-8.63803E+03 2.04646E+04-4.96036E+03
 -1       887-9.08694E+03-5.49247E+01 3.27717E+01
 -1       888-8.91721E+03-2.08773E+04 5.10091E+03
 -1       889-8.15063E+03-4.05955E+04 9.90163E+03
 -1       890-6.85035E+03-5.78990E+04 1.41162E+04
 -1       891-5.11733E+03-7.16660E+04 1.74717E+04
 -1       892-3.08432E+03-8.10429E+04 1.97610E+04
 -1       893-9.07787E+02-8.55090E+04 2.08584E+04
 -1       894 1.24148E+03-8.49194E+04 2.07302E+04
 -1       895 3.18842E+03-7.95259E+04 1.94396E+04
 -1       896 4.76370E+03-6.99743E+04 1.71443E+04
 -1       897 5.81258E+03-5.72792E+04 1.40874E+04
 -1       898 6.20208E+03-4.27791E+04 1.05813E+04
 -1       899 5.82824E+03-2.80784E+04 6.99114E+03
 -1       900 4.60634E+03-1.49838E+04 3.72927E+03
 -1       901 2.51539E+03-5.40912E+03 1.29648E+03
 -1       902 2.59649E+03-5.28317E+03 1.32988E+03
 -1       903 4.73850E+03-1.46253E+04 3.75219E+03
 -1       904 5.98538E+03-2.74082E+04 7.00174E+03
 -1       905 6.36430E+03-4.17665E+04 1.05809E+04
 -1       906 5.96249E+03-5.59324E+04 1.40772E+04
 -1       907 4.88597E+03-6.83362E+04 1.71260E+04
 -1       908 3.27045E+03-7.76691E+04 1.94151E+04
 -1       909 1.27415E+03-8.29398E+04 2.07018E+04
 -1       910-9.29464E+02-8.35174E+04 2.08284E+04
 -1       911-3.16100E+03-7.91562E+04 1.97318E+04
 -1       912-5.24539E+03-6.99978E+04 1.74456E+04
 -1       913-7.02219E+03-5.65513E+04 1.40951E+04
 -1       914-8.35535E+03-3.96501E+04 9.88729E+03
 -1       915-9.14136E+03-2.03902E+04 5.09440E+03
 -1       916-9.31550E+03-5.14909E+01 3.46755E+01
 -1       917-8.85544E+03 1.99914E+04-4.95003E+03
 -1       918-7.78208E+03 3.83638E+04-9.51779E+03
 -1       919-6.15740E+03 5.37837E+04-1.33498E+04
 -1       920-4.07949E+03 6.51469E+04-1.61712E+04
 -1       921-1.67498E+03 7.15990E+04-1.77693E+04
 -1       922 9.10559E+02 7.25877E+04-1.80049E+04
 -1       923 3.52382E+03 6.78931E+04-1.68197E+04
 -1       924 6.01574E+03 5.76321E+04-1.42361E+04
 -1       925 8.25360E+03 4.22369E+04-1.03537E+04
 -1       926 1.01324E+04 2.24063E+04-5.34712E+03
 -1       927 1.15852E+04-9.66783E+02 5.31285E+02
 -1       928 1.25915E+04-2.68901E+04 6.94231E+03
 -1       929 1.31839E+04-5.43820E+04 1.34678E+04
 -1       930 1.34529E+04-8.25918E+04 1.97176E+04
 -3
    1PSTEP                        32           1           1          
    1PGM                1.000000E+00                                  
    1PGK                3.031914E+06                                  
    1PHID                         -1                                  
    1PSUBC                         0                                  
    1PMODE                         8                                  
  100CL  108 277.1268126         930                     2    8MODAL      1
 -4  ERROR       1    1
 -5  STR(%)      1    1    0    0
 -1         1 7.82469E+01
 -1         2 7.82469E+01
 -1         3 5.53927E+01
 -1         4 5.53927E+01
 -1         5 7.82469E+01
 -1         6 7.82469E+01
 -1         7 5.53927E+01
 -1         8 5.53927E+01
 -1         9 7.82469E+01
 -1        10 5.53927E+01
 -1        11 3.87049E+01
 -1        12 3.87049E+01
 -1        13 2.38953E+01
 -1        14 2.38953E+01
 -1        15 7.82469E+01
 -1        16 5.53927E+01
 -1        17 3.87049E+01
 -1        18 3.87049E+01
 -1        19 2.38953E+01
 -1        20 2.38953E+01
 -1        21 3.87049E+01
 -1        22 3.87049E+01
 -1        23 2.38953E+01
 -1        24 2.38953E+01
 -1        25 7.82469E+01
 -1        26 5.53927E+01
 -1        27 7.82469E+01
 -1        28 3.87049E+01
 -1        29 3.87049E+01
 -1        30 5.53927E+01
 -1        31 2.38953E+01
 -1        32 2.38953E+01
 -1        33 7.82469E+01
 -1        34 7.63598E+01
 -1        35 7.08102E+01
 -1        36 5.69721E+01
 -1        37 6.82430E+01
 -1        38 6.82430E+01
 -1        39 6.75029E+01
 -1        40 6.75029E+01
 -1        41 4.88417E+01
 -1        42 7.31550E+01
 -1        43 7.31550E+01
 -1        44 7.32091E+01
 -1        45 7.32091E+01
 -1        46 7.27244E+01
 -1        47 6.42429E+01
 -1        48 7.83057E+01
 -1        49 7.83057E+01
 -1        50 7.80004E+01
 -1        51 7.80004E+01
 -1        52 6.64651E+01
 -1        53 4.83435E+01
 -1        54 7.07640E+01
 -1        55 7.86162E+01
 -1        56 7.86162E+01
 -1        57 7.03981E+01
 -1        58 7.09135E+01
 -1        59 7.23168E+01
 -1        60 7.23168E+01
 -1        61 6.44884E+01
 -1        62 7.82469E+01
 -1        63 7.63598E+01
 -1        64 7.08102E+01
 -1        65 5.69721E+01
 -1        66 6.82430E+01
 -1        67 6.82430E+01
 -1        68 6.75029E+01
 -1        69 6.75029E+01
 -1        70 4.88417E+01
 -1        71 7.31550E+01
 -1        72 7.31550E+01
 -1        73 7.32091E+01
 -1        74 7.32091E+01
 -1        75 7.27244E+01
 -1        76 6.42429E+01
 -1        77 7.83057E+01
 -1        78 7.83057E+01
 -1        79 7.80004E+01
 -1        80 7.80004E+01
 -1        81 6.64651E+01
 -1        82 4.83435E+01
 -1        83 7.07640E+01
 -1        84 7.86162E+01
 -1        85 7.86162E+01
 -1        86 7.03981E+01
 -1        87 7.09135E+01
 -1        88 7.23168E+01
 -1        89 7.23168E+01
 -1        90 6.44884E+01
 -1        91 6.13099E+01
 -1        92 6.13099E+01
 -1        93 6.13099E+01
 -1        94 6.13099E+01
 -1        95 6.13099E+01
 -1        96 6.13099E+01
 -1        97 7.82469E+01
 -1        98 7.63598E+01
 -1        99 7.08102E+01
 -1       100 5.69721E+01
 -1       101 6.82430E+01
 -1       102 6.82430E+01
 -1       103 6.75029E+01
 -1       104 6.75029E+01
 -1       105 4.88417E+01
 -1       106 7.31550E+01
 -1       107 7.31550E+01
 -1       108 7.32091E+01
 -1       109 7.32091E+01
 -1       110 7.27244E+01
 -1       111 6.42429E+01
 -1       112 7.83057E+01
 -1       113 7.83057E+01
 -1       114 7.80004E+01
 -1       115 7.80004E+01
 -1       116 6.64651E+01
 -1       117 4.83435E+01
 -1       118 7.07640E+01
 -1       119 7.86162E+01
 -1       120 7.86162E+01
 -1       121 7.03981E+01
 -1       122 7.09135E+01
 -1       123 7.23168E+01
 -1       124 7.23168E+01
 -1       125 6.44884E+01
 -1       126 2.85696E+01
 -1       127 9.69731E+00
 -1       128 2.85696E+01
 -1       129 7.82469E+01
 -1       130 7.63598E+01
 -1       131 7.08102E+01
 -1       132 5.69721E+01
 -1       133 6.82430E+01
 -1       134 6.82430E+01
 -1       135 6.75029E+01
 -1       136 6.75029E+01
 -1       137 4.88417E+01
 -1       138 7.31550E+01
 -1       139 7.31550E+01
 -1       140 7.32091E+01
 -1       141 7.32091E+01
 -1       142 7.27244E+01
 -1       143 6.42429E+01
 -1       144 7.83057E+01
 -1       145 7.83057E+01
 -1       146 7.80004E+01
 -1       147 7.80004E+01
 -1       148 6.64651E+01
 -1       149 4.83435E+01
 -1       150 7.07640E+01
 -1       151 7.86162E+01
 -1       152 7.86162E+01
 -1       153 7.03981E+01
 -1       154 7.09135E+01
 -1       155 7.23168E+01
 -1       156 7.23168E+01
 -1       157 6.44884E+01
 -1       158 2.85696E+01
 -1       159 9.69731E+00
 -1       160 2.85696E+01
 -1       161 7.82469E+01
 -1       162 7.63598E+01
 -1       163 7.08102E+01
 -1       164 5.69721E+01
 -1       165 6.82430E+01
 -1       166 6.82430E+01
 -1       167 6.75029E+01
 -1       168 6.75029E+01
 -1       169 4.88417E+01
 -1       170 7.31550E+01
 -1       171 7.31550E+01
 -1       172 7.32091E+01
 -1       173 7.32091E+01
 -1       174 7.27244E+01
 -1       175 6.42429E+01
 -1       176 7.83057E+01
 -1       177 7.83057E+01
 -1       178 7.80004E+01
 -1       179 7.80004E+01
 -1       180 6.64651E+01
 -1       181 4.83435E+01
 -1       182 7.07640E+01
 -1       183 7.86162E+01
 -1       184 7.86162E+01
 -1       185 7.03981E+01
 -1       186 7.09135E+01
 -1       187 7.23168E+01
 -1       188 7.23168E+01
 -1       189 6.44884E+01
 -1       190 5.99627E+01
 -1       191 5.99627E+01
 -1       192 4.68185E+01
 -1       193 3.87049E+01
 -1       194 2.49301E+01
 -1       195 4.48836E+01
 -1       196 4.48836E+01
 -1       197 3.86258E+01
 -1       198 2.48356E+01
 -1       199 2.48356E+01
 -1       200 2.44088E+01
 -1       201 2.41030E+01
 -1       202 2.48533E+01
 -1       203 2.52804E+01
 -1       204 2.52804E+01
 -1       205 2.97134E+01
 -1       206 6.39025E+01
 -1       207 6.39025E+01
 -1       208 4.09684E+01
 -1       209 2.67149E+01
 -1       210 2.49559E+01
 -1       211 2.49371E+01
 -1       212 2.43538E+01
 -1       213 2.39984E+01
 -1       214 2.47693E+01
 -1       215 2.53666E+01
 -1       216 2.56234E+01
 -1       217 2.60445E+01
 -1       218 2.91397E+01
 -1       219 3.62111E+01
 -1       220 4.10360E+01
 -1       221 4.10360E+01
 -1       222 3.87049E+01
 -1       223 2.49301E+01
 -1       224 4.48836E+01
 -1       225 4.48836E+01
 -1       226 3.86258E+01
 -1       227 2.48356E+01
 -1       228 2.48356E+01
 -1       229 2.44088E+01
 -1       230 2.41030E+01
 -1       231 2.48533E+01
 -1       232 2.52804E+01
 -1       233 2.52804E+01
 -1       234 2.97134E+01
 -1       235 6.39025E+01
 -1       236 6.39025E+01
 -1       237 4.09684E+01
 -1       238 2.67149E+01
 -1       239 2.49559E+01
 -1       240 2.49371E+01
 -1       241 2.43538E+01
 -1       242 2.39984E+01
 -1       243 2.47693E+01
 -1       244 2.53666E+01
 -1       245 2.56234E+01
 -1       246 2.60445E+01
 -1       247 2.91397E+01
 -1       248 3.62111E+01
 -1       249 4.10360E+01
 -1       250 4.10360E+01
 -1       251 4.68185E+01
 -1       252 6.44884E+01
 -1       253 7.23168E+01
 -1       254 7.23168E+01
 -1       255 7.09135E+01
 -1       256 7.03981E+01
 -1       257 7.86162E+01
 -1       258 7.86162E+01
 -1       259 7.07640E+01
 -1       260 4.83435E+01
 -1       261 6.64651E+01
 -1       262 7.80004E+01
 -1       263 7.80004E+01
 -1       264 7.83057E+01
 -1       265 7.83057E+01
 -1       266 6.42429E+01
 -1       267 7.27244E+01
 -1       268 7.32091E+01
 -1       269 7.32091E+01
 -1       270 7.31550E+01
 -1       271 7.31550E+01
 -1       272 4.88417E+01
 -1       273 6.75029E+01
 -1       274 6.75029E+01
 -1       275 6.82430E+01
 -1       276 6.82430E+01
 -1       277 5.69721E+01
 -1       278 7.08102E+01
 -1       279 7.63598E+01
 -1       280 7.82469E+01
 -1       281 5.99627E+01
 -1       282 5.99627E+01
 -1       283 3.87049E+01
 -1       284 2.49301E+01
 -1       285 4.48836E+01
 -1       286 4.48836E+01
 -1       287 3.86258E+01
 -1       288 2.48356E+01
 -1       289 2.48356E+01
 -1       290 2.44088E+01
 -1       291 2.41030E+01
 -1       292 2.48533E+01
 -1       293 2.52804E+01
 -1       294 2.52804E+01
 -1       295 2.97134E+01
 -1       296 6.39025E+01
 -1       297 6.39025E+01
 -1       298 4.09684E+01
 -1       299 2.67149E+01
 -1       300 2.49559E+01
 -1       301 2.49371E+01
 -1       302 2.43538E+01
 -1       303 2.39984E+01
 -1       304 2.47693E+01
 -1       305 2.53666E+01
 -1       306 2.56234E+01
 -1       307 2.60445E+01
 -1       308 2.91397E+01
 -1       309 3.62111E+01
 -1       310 4.10360E+01
 -1       311 4.10360E+01
 -1       312 4.68185E+01
 -1       313 3.87049E+01
 -1       314 2.49301E+01
 -1       315 4.48836E+01
 -1       316 4.48836E+01
 -1       317 3.86258E+01
 -1       318 2.48356E+01
 -1       319 2.48356E+01
 -1       320 2.44088E+01
 -1       321 2.41030E+01
 -1       322 2.48533E+01
 -1       323 2.52804E+01
 -1       324 2.52804E+01
 -1       325 2.97134E+01
 -1       326 6.39025E+01
 -1       327 6.39025E+01
 -1       328 4.09684E+01
 -1       329 2.67149E+01
 -1       330 2.49559E+01
 -1       331 2.49371E+01
 -1       332 2.43538E+01
 -1       333 2.39984E+01
 -1       334 2.47693E+01
 -1       335 2.53666E+01
 -1       336 2.56234E+01
 -1       337 2.60445E+01
 -1       338 2.91397E+01
 -1       339 3.62111E+01
 -1       340 4.10360E+01
 -1       341 4.10360E+01
 -1       342 4.68185E+01
 -1       343 3.87049E+01
 -1       344 2.49301E+01
 -1       345 4.48836E+01
 -1       346 4.48836E+01
 -1       347 3.86258E+01
 -1       348 2.48356E+01
 -1       349 2.48356E+01
 -1       350 2.44088E+01
 -1       351 2.41030E+01
 -1       352 2.48533E+01
 -1       353 2.52804E+01
 -1       354 2.52804E+01
 -1       355 2.97134E+01
 -1       356 6.39025E+01
 -1       357 6.39025E+01
 -1       358 4.09684E+01
 -1       359 2.67149E+01
 -1       360 2.49559E+01
 -1       361 2.49371E+01
 -1       362 2.43538E+01
 -1       363 2.39984E+01
 -1       364 2.47693E+01
 -1       365 2.53666E+01
 -1       366 2.56234E+01
 -1       367 2.60445E+01
 -1       368 2.91397E+01
 -1       369 3.62111E+01
 -1       370 4.10360E+01
 -1       371 4.10360E+01
 -1       372 3.87049E+01
 -1       373 2.49301E+01
 -1       374 4.48836E+01
 -1       375 4.48836E+01
 -1       376 3.86258E+01
 -1       377 2.48356E+01
 -1       378 2.48356E+01
 -1       379 2.44088E+01
 -1       380 2.41030E+01
 -1       381 2.48533E+01
 -1       382 2.52804E+01
 -1       383 2.52804E+01
 -1       384 2.97134E+01
 -1       385 6.39025E+01
 -1       386 6.39025E+01
 -1       387 4.09684E+01
 -1       388 2.67149E+01
 -1       389 2.49559E+01
 -1       390 2.49371E+01
 -1       391 2.43538E+01
 -1       392 2.39984E+01
 -1       393 2.47693E+01
 -1       394 2.53666E+01
 -1       395 2.56234E+01
 -1       396 2.60445E+01
 -1       397 2.91397E+01
 -1       398 3.62111E+01
 -1       399 4.10360E+01
 -1       400 4.10360E+01
 -1       401 5.99627E+01
 -1       402 5.99627E+01
 -1       403 4.68185E+01
 -1       404 7.82469E+01
 -1       405 7.63598E+01
 -1       406 7.08102E+01
 -1       407 5.69721E+01
 -1       408 6.82430E+01
 -1       409 6.82430E+01
 -1       410 6.75029E+01
 -1       411 6.75029E+01
 -1       412 4.88417E+01
 -1       413 7.31550E+01
 -1       414 7.31550E+01
 -1       415 7.32091E+01
 -1       416 7.32091E+01
 -1       417 7.27244E+01
 -1       418 6.42429E+01
 -1       419 7.83057E+01
 -1       420 7.83057E+01
 -1       421 7.80004E+01
 -1       422 7.80004E+01
 -1       423 6.64651E+01
 -1       424 4.83435E+01
 -1       425 7.07640E+01
 -1       426 7.86162E+01
 -1       427 7.86162E+01
 -1       428 7.03981E+01
 -1       429 7.09135E+01
 -1       430 7.23168E+01
 -1       431 7.23168E+01
 -1       432 6.44884E+01
 -1       433 4.68185E+01
 -1       434 5.99627E+01
 -1       435 5.99627E+01
 -1       436 6.44884E+01
 -1       437 7.23168E+01
 -1       438 7.23168E+01
 -1       439 7.09135E+01
 -1       440 7.03981E+01
 -1       441 7.86162E+01
 -1       442 7.86162E+01
 -1       443 7.07640E+01
 -1       444 4.83435E+01
 -1       445 6.64651E+01
 -1       446 7.80004E+01
 -1       447 7.80004E+01
 -1       448 7.83057E+01
 -1       449 7.83057E+01
 -1       450 6.42429E+01
 -1       451 7.27244E+01
 -1       452 7.32091E+01
 -1       453 7.32091E+01
 -1       454 7.31550E+01
 -1       455 7.31550E+01
 -1       456 4.88417E+01
 -1       457 6.75029E+01
 -1       458 6.75029E+01
 -1       459 6.82430E+01
 -1       460 6.82430E+01
 -1       461 5.69721E+01
 -1       462 7.08102E+01
 -1       463 7.63598E+01
 -1       464 7.82469E+01
 -1       465 4.68185E+01
 -1       466 3.87049E+01
 -1       467 2.49301E+01
 -1       468 4.48836E+01
 -1       469 4.48836E+01
 -1       470 3.86258E+01
 -1       471 2.48356E+01
 -1       472 2.48356E+01
 -1       473 2.44088E+01
 -1       474 2.41030E+01
 -1       475 2.48533E+01
 -1       476 2.52804E+01
 -1       477 2.52804E+01
 -1       478 2.97134E+01
 -1       479 6.39025E+01
 -1       480 6.39025E+01
 -1       481 4.09684E+01
 -1       482 2.67149E+01
 -1       483 2.49559E+01
 -1       484 2.49371E+01
 -1       485 2.43538E+01
 -1       486 2.39984E+01
 -1       487 2.47693E+01
 -1       488 2.53666E+01
 -1       489 2.56234E+01
 -1       490 2.60445E+01
 -1       491 2.91397E+01
 -1       492 3.62111E+01
 -1       493 4.10360E+01
 -1       494 4.10360E+01
 -1       495 3.87049E+01
 -1       496 2.49301E+01
 -1       497 4.48836E+01
 -1       498 4.48836E+01
 -1       499 3.86258E+01
 -1       500 2.48356E+01
 -1       501 2.48356E+01
 -1       502 2.44088E+01
 -1       503 2.41030E+01
 -1       504 2.48533E+01
 -1       505 2.52804E+01
 -1       506 2.52804E+01
 -1       507 2.97134E+01
 -1       508 6.39025E+01
 -1       509 6.39025E+01
 -1       510 4.09684E+01
 -1       511 2.67149E+01
 -1       512 2.49559E+01
 -1       513 2.49371E+01
 -1       514 2.43538E+01
 -1       515 2.39984E+01
 -1       516 2.47693E+01
 -1       517 2.53666E+01
 -1       518 2.56234E+01
 -1       519 2.60445E+01
 -1       520 2.91397E+01
 -1       521 3.62111E+01
 -1       522 4.10360E+01
 -1       523 4.10360E+01
 -1       524 4.68185E+01
 -1       525 6.13099E+01
 -1       526 5.81723E+01
 -1       527 5.81723E+01
 -1       528 3.54075E+01
 -1       529 4.37448E+01
 -1       530 4.49551E+01
 -1       531 5.87578E+01
 -1       532 6.33353E+01
 -1       533 6.33353E+01
 -1       534 6.09332E+01
 -1       535 5.06021E+01
 -1       536 3.84425E+01
 -1       537 3.55363E+01
 -1       538 2.68852E+01
 -1       539 1.80309E+01
 -1       540 3.26598E+01
 -1       541 3.86032E+01
 -1       542 4.51256E+01
 -1       543 5.80693E+01
 -1       544 6.32947E+01
 -1       545 6.32947E+01
 -1       546 6.11345E+01
 -1       547 5.11815E+01
 -1       548 3.84948E+01
 -1       549 3.44075E+01
 -1       550 3.12350E+01
 -1       551 2.54812E+01
 -1       552 1.26320E+01
 -1       553 2.85696E+01
 -1       554 6.13099E+01
 -1       555 4.74270E+01
 -1       556 2.11128E+01
 -1       557 4.66329E+00
 -1       558 2.58737E+01
 -1       559 4.49551E+01
 -1       560 5.87578E+01
 -1       561 6.33353E+01
 -1       562 6.33353E+01
 -1       563 6.09332E+01
 -1       564 5.06021E+01
 -1       565 3.68280E+01
 -1       566 2.16056E+01
 -1       567 6.66351E+00
 -1       568 3.18341E+00
 -1       569 1.30804E+01
 -1       570 2.94896E+01
 -1       571 4.51256E+01
 -1       572 5.80693E+01
 -1       573 6.32947E+01
 -1       574 6.32947E+01
 -1       575 6.11345E+01
 -1       576 5.11815E+01
 -1       577 3.84948E+01
 -1       578 2.58545E+01
 -1       579 1.45561E+01
 -1       580 5.71470E+00
 -1       581 2.70968E+00
 -1       582 9.69731E+00
 -1       583 6.13099E+01
 -1       584 5.81723E+01
 -1       585 5.81723E+01
 -1       586 3.54075E+01
 -1       587 4.37448E+01
 -1       588 4.49551E+01
 -1       589 5.87578E+01
 -1       590 6.33353E+01
 -1       591 6.33353E+01
 -1       592 6.09332E+01
 -1       593 5.06021E+01
 -1       594 3.84425E+01
 -1       595 3.55363E+01
 -1       596 2.68852E+01
 -1       597 1.80309E+01
 -1       598 3.26598E+01
 -1       599 3.86032E+01
 -1       600 4.51256E+01
 -1       601 5.80693E+01
 -1       602 6.32947E+01
 -1       603 6.32947E+01
 -1       604 6.11345E+01
 -1       605 5.11815E+01
 -1       606 3.84948E+01
 -1       607 3.44075E+01
 -1       608 3.12350E+01
 -1       609 2.54812E+01
 -1       610 1.26320E+01
 -1       611 2.85696E+01
 -1       612 6.13099E+01
 -1       613 5.81723E+01
 -1       614 5.81723E+01
 -1       615 3.54075E+01
 -1       616 4.37448E+01
 -1       617 4.49551E+01
 -1       618 5.87578E+01
 -1       619 6.33353E+01
 -1       620 6.33353E+01
 -1       621 6.09332E+01
 -1       622 5.06021E+01
 -1       623 3.84425E+01
 -1       624 3.55363E+01
 -1       625 2.68852E+01
 -1       626 1.80309E+01
 -1       627 3.26598E+01
 -1       628 3.86032E+01
 -1       629 4.51256E+01
 -1       630 5.80693E+01
 -1       631 6.32947E+01
 -1       632 6.32947E+01
 -1       633 6.11345E+01
 -1       634 5.11815E+01
 -1       635 3.84948E+01
 -1       636 3.44075E+01
 -1       637 3.12350E+01
 -1       638 2.54812E+01
 -1       639 1.26320E+01
 -1       640 2.85696E+01
 -1       641 6.13099E+01
 -1       642 4.74270E+01
 -1       643 2.11128E+01
 -1       644 4.66329E+00
 -1       645 2.58737E+01
 -1       646 4.49551E+01
 -1       647 5.87578E+01
 -1       648 6.33353E+01
 -1       649 6.33353E+01
 -1       650 6.09332E+01
 -1       651 5.06021E+01
 -1       652 3.68280E+01
 -1       653 2.16056E+01
 -1       654 6.66351E+00
 -1       655 3.18341E+00
 -1       656 1.30804E+01
 -1       657 2.94896E+01
 -1       658 4.51256E+01
 -1       659 5.80693E+01
 -1       660 6.32947E+01
 -1       661 6.32947E+01
 -1       662 6.11345E+01
 -1       663 5.11815E+01
 -1       664 3.84948E+01
 -1       665 2.58545E+01
 -1       666 1.45561E+01
 -1       667 5.71470E+00
 -1       668 2.70968E+00
 -1       669 9.69731E+00
 -1       670 6.13099E+01
 -1       671 5.81723E+01
 -1       672 5.81723E+01
 -1       673 3.54075E+01
 -1       674 4.37448E+01
 -1       675 4.49551E+01
 -1       676 5.87578E+01
 -1       677 6.33353E+01
 -1       678 6.33353E+01
 -1       679 6.09332E+01
 -1       680 5.06021E+01
 -1       681 3.84425E+01
 -1       682 3.55363E+01
 -1       683 2.68852E+01
 -1       684 1.80309E+01
 -1       685 3.26598E+01
 -1       686 3.86032E+01
 -1       687 4.51256E+01
 -1       688 5.80693E+01
 -1       689 6.32947E+01
 -1       690 6.32947E+01
 -1       691 6.11345E+01
 -1       692 5.11815E+01
 -1       693 3.84948E+01
 -1       694 3.44075E+01
 -1       695 3.12350E+01
 -1       696 2.54812E+01
 -1       697 1.26320E+01
 -1       698 2.85696E+01
 -1       699 5.99627E+01
 -1       700 5.59611E+01
 -1       701 5.32126E+01
 -1       702 4.86880E+01
 -1       703 6.02143E+01
 -1       704 6.02143E+01
 -1       705 5.58568E+01
 -1       706 5.49881E+01
 -1       707 4.88417E+01
 -1       708 5.52329E+01
 -1       709 5.65984E+01
 -1       710 5.66277E+01
 -1       711 6.31862E+01
 -1       712 6.39025E+01
 -1       713 6.39025E+01
 -1       714 6.21771E+01
 -1       715 6.05084E+01
 -1       716 5.69387E+01
 -1       717 5.69387E+01
 -1       718 5.33643E+01
 -1       719 4.83435E+01
 -1       720 5.36019E+01
 -1       721 5.69854E+01
 -1       722 5.69854E+01
 -1       723 5.51224E+01
 -1       724 5.76461E+01
 -1       725 6.41617E+01
 -1       726 6.41617E+01
 -1       727 5.96446E+01
 -1       728 5.99627E+01
 -1       729 5.59611E+01
 -1       730 5.32126E+01
 -1       731 4.86880E+01
 -1       732 6.02143E+01
 -1       733 6.02143E+01
 -1       734 5.58568E+01
 -1       735 5.49881E+01
 -1       736 4.88417E+01
 -1       737 5.52329E+01
 -1       738 5.65984E+01
 -1       739 5.66277E+01
 -1       740 6.31862E+01
 -1       741 6.39025E+01
 -1       742 6.39025E+01
 -1       743 6.21771E+01
 -1       744 6.05084E+01
 -1       745 5.69387E+01
 -1       746 5.69387E+01
 -1       747 5.33643E+01
 -1       748 4.83435E+01
 -1       749 5.36019E+01
 -1       750 5.69854E+01
 -1       751 5.69854E+01
 -1       752 5.51224E+01
 -1       753 5.76461E+01
 -1       754 6.41617E+01
 -1       755 6.41617E+01
 -1       756 5.96446E+01
 -1       757 5.99627E+01
 -1       758 5.59611E+01
 -1       759 5.32126E+01
 -1       760 4.86880E+01
 -1       761 6.02143E+01
 -1       762 6.02143E+01
 -1       763 5.58568E+01
 -1       764 5.49881E+01
 -1       765 4.88417E+01
 -1       766 5.52329E+01
 -1       767 5.65984E+01
 -1       768 5.66277E+01
 -1       769 6.31862E+01
 -1       770 6.39025E+01
 -1       771 6.39025E+01
 -1       772 6.21771E+01
 -1       773 6.05084E+01
 -1       774 5.69387E+01
 -1       775 5.69387E+01
 -1       776 5.33643E+01
 -1       777 4.83435E+01
 -1       778 5.36019E+01
 -1       779 5.69854E+01
 -1       780 5.69854E+01
 -1       781 5.51224E+01
 -1       782 5.76461E+01
 -1       783 6.41617E+01
 -1       784 6.41617E+01
 -1       785 5.96446E+01
 -1       786 5.99627E+01
 -1       787 5.59611E+01
 -1       788 5.32126E+01
 -1       789 4.86880E+01
 -1       790 6.02143E+01
 -1       791 6.02143E+01
 -1       792 5.58568E+01
 -1       793 5.49881E+01
 -1       794 4.88417E+01
 -1       795 5.52329E+01
 -1       796 5.65984E+01
 -1       797 5.66277E+01
 -1       798 6.31862E+01
 -1       799 6.39025E+01
 -1       800 6.39025E+01
 -1       801 6.21771E+01
 -1       802 6.05084E+01
 -1       803 5.69387E+01
 -1       804 5.69387E+01
 -1       805 5.33643E+01
 -1       806 4.83435E+01
 -1       807 5.36019E+01
 -1       808 5.69854E+01
 -1       809 5.69854E+01
 -1       810 5.51224E+01
 -1       811 5.76461E+01
 -1       812 6.41617E+01
 -1       813 6.41617E+01
 -1       814 5.96446E+01
 -1       815 5.99627E+01
 -1       816 5.59611E+01
 -1       817 5.32126E+01
 -1       818 4.86880E+01
 -1       819 6.02143E+01
 -1       820 6.02143E+01
 -1       821 5.58568E+01
 -1       822 5.49881E+01
 -1       823 4.88417E+01
 -1       824 5.52329E+01
 -1       825 5.65984E+01
 -1       826 5.66277E+01
 -1       827 6.31862E+01
 -1       828 6.39025E+01
 -1       829 6.39025E+01
 -1       830 6.21771E+01
 -1       831 6.05084E+01
 -1       832 5.69387E+01
 -1       833 5.69387E+01
 -1       834 5.33643E+01
 -1       835 4.83435E+01
 -1       836 5.36019E+01
 -1       837 5.69854E+01
 -1       838 5.69854E+01
 -1       839 5.51224E+01
 -1       840 5.76461E+01
 -1       841 6.41617E+01
 -1       842 6.41617E+01
 -1       843 5.96446E+01
 -1       844 5.99627E+01
 -1       845 5.59611E+01
 -1       846 5.32126E+01
 -1       847 4.86880E+01
 -1       848 6.02143E+01
 -1       849 6.02143E+01
 -1       850 5.58568E+01
 -1       851 5.49881E+01
 -1       852 4.88417E+01
 -1       853 5.52329E+01
 -1       854 5.65984E+01
 -1       855 5.66277E+01
 -1       856 6.31862E+01
 -1       857 6.39025E+01
 -1       858 6.39025E+01
 -1       859 6.21771E+01
 -1       860 6.05084E+01
 -1       861 5.69387E+01
 -1       862 5.69387E+01
 -1       863 5.33643E+01
 -1       864 4.83435E+01
 -1       865 5.36019E+01
 -1       866 5.69854E+01
 -1       867 5.69854E+01
 -1       868 5.51224E+01
 -1       869 5.76461E+01
 -1       870 6.41617E+01
 -1       871 6.41617E+01
 -1       872 5.96446E+01
 -1       873 5.96446E+01
 -1       874 6.41617E+01
 -1       875 6.41617E+01
 -1       876 5.76461E+01
 -1       877 5.51224E+01
 -1       878 5.69854E+01
 -1       879 5.69854E+01
 -1       880 5.36019E+01
 -1       881 4.83435E+01
 -1       882 5.33643E+01
 -1       883 5.69387E+01
 -1       884 5.69387E+01
 -1       885 6.05084E+01
 -1       886 6.21771E+01
 -1       887 6.39025E+01
 -1       888 6.39025E+01
 -1       889 6.31862E+01
 -1       890 5.66277E+01
 -1       891 5.65984E+01
 -1       892 5.52329E+01
 -1       893 4.88417E+01
 -1       894 5.49881E+01
 -1       895 5.58568E+01
 -1       896 6.02143E+01
 -1       897 6.02143E+01
 -1       898 4.86880E+01
 -1       899 5.32126E+01
 -1       900 5.59611E+01
 -1       901 5.99627E+01
 -1       902 5.99627E+01
 -1       903 5.59611E+01
 -1       904 5.32126E+01
 -1       905 4.86880E+01
 -1       906 6.02143E+01
 -1       907 6.02143E+01
 -1       908 5.58568E+01
 -1       909 5.49881E+01
 -1       910 4.88417E+01
 -1       911 5.52329E+01
 -1       912 5.65984E+01
 -1       913 5.66277E+01
 -1       914 6.31862E+01
 -1       915 6.39025E+01
 -1       916 6.39025E+01
 -1       917 6.21771E+01
 -1       918 6.05084E+01
 -1       919 5.69387E+01
 -1       920 5.69387E+01
 -1       921 5.33643E+01
 -1       922 4.83435E+01
 -1       923 5.36019E+01
 -1       924 5.69854E+01
 -1       925 5.69854E+01
 -1       926 5.51224E+01
 -1       927 5.76461E+01
 -1       928 6.41617E+01
 -1       929 6.41617E+01
 -1       930 5.96446E+01
 -3
    1PSTEP                        33           1           1          
    1PGM                1.000000E+00                                  
    1PGK                7.388285E+06                                  
    1PHID                         -1                                  
    1PSUBC                         0                                  
    1PMODE                         9                                  
  100CL  109 432.6054182         930                     2    9MODAL      1
 -4  DISP        4    1
 -5  D1          1    2    1    0
 -5  D2          1    2    2    0
 -5  D3          1    2    3    0
 -5  ALL         1    2    0    0    1ALL
 -1         1 0.00000E+00 0.00000E+00 0.00000E+00
 -1         2 0.00000E+00 0.00000E+00 0.00000E+00
 -1         3 1.02771E-01 1.21056E-06 3.13689E-05
 -1         4 1.02771E-01-1.21055E-06 3.13689E-05
 -1         5 0.00000E+00 0.00000E+00 0.00000E+00
 -1         6 0.00000E+00 0.00000E+00 0.00000E+00
 -1         7 1.02771E-01 1.21056E-06-3.13689E-05
 -1         8 1.02771E-01-1.21055E-06-3.13689E-05
 -1         9 0.00000E+00 0.00000E+00 0.00000E+00
 -1        10 1.02752E-01 1.11441E-06 3.53426E-05
 -1        11 0.00000E+00 0.00000E+00 0.00000E+00
 -1        12 0.00000E+00 0.00000E+00 0.00000E+00
 -1        13 1.02726E-01 2.39334E-05 2.78517E-05
 -1        14 1.02747E-01 2.26469E-05 2.37831E-05
 -1        15 0.00000E+00 0.00000E+00 0.00000E+00
 -1        16 1.02752E-01 1.11440E-06-3.53426E-05
 -1        17 0.00000E+00 0.00000E+00 0.00000E+00
 -1        18 0.00000E+00 0.00000E+00 0.00000E+00
 -1        19 1.02747E-01 2.26469E-05-2.37831E-05
 -1        20 1.02726E-01 2.39334E-05-2.78517E-05
 -1        21 0.00000E+00 0.00000E+00 0.00000E+00
 -1        22 0.00000E+00 0.00000E+00 0.00000E+00
 -1        23 1.02726E-01-2.39334E-05 2.78517E-05
 -1        24 1.02747E-01-2.26469E-05 2.37831E-05
 -1        25 0.00000E+00 0.00000E+00 0.00000E+00
 -1        26 1.02752E-01-1.11440E-06 3.53426E-05
 -1        27 0.00000E+00 0.00000E+00 0.00000E+00
 -1        28 0.00000E+00 0.00000E+00 0.00000E+00
 -1        29 0.00000E+00 0.00000E+00 0.00000E+00
 -1        30 1.02752E-01-1.11440E-06-3.53426E-05
 -1        31 1.02726E-01-2.39334E-05-2.78517E-05
 -1        32 1.02747E-01-2.26469E-05-2.37831E-05
 -1        33 4.73446E-03-8.65856E-05 1.71587E-03
 -1        34 1.02585E-02-6.57869E-05 2.78553E-03
 -1        35 1.55787E-02-6.89686E-05 3.07038E-03
 -1        36 2.08592E-02-6.78744E-05 3.10593E-03
 -1        37 2.61004E-02-6.73903E-05 3.04208E-03
 -1        38 3.12800E-02-6.63522E-05 2.96196E-03
 -1        39 3.63772E-02-6.52214E-05 2.88811E-03
 -1        40 4.13758E-02-6.38742E-05 2.81837E-03
 -1        41 4.62606E-02-6.23311E-05 2.74662E-03
 -1        42 5.10179E-02-6.06013E-05 2.66936E-03
 -1        43 5.56342E-02-5.86984E-05 2.58527E-03
 -1        44 6.00968E-02-5.66317E-05 2.49418E-03
 -1        45 6.43935E-02-5.44084E-05 2.39623E-03
 -1        46 6.85123E-02-5.20347E-05 2.29168E-03
 -1        47 7.24418E-02-4.95174E-05 2.18081E-03
 -1        48 7.61712E-02-4.68633E-05 2.06392E-03
 -1        49 7.96902E-02-4.40797E-05 1.94133E-03
 -1        50 8.29890E-02-4.11743E-05 1.81338E-03
 -1        51 8.60587E-02-3.81552E-05 1.68041E-03
 -1        52 8.88906E-02-3.50308E-05 1.54280E-03
 -1        53 9.14769E-02-3.18096E-05 1.40092E-03
 -1        54 9.38106E-02-2.85007E-05 1.25516E-03
 -1        55 9.58851E-02-2.51132E-05 1.10587E-03
 -1        56 9.76948E-02-2.16572E-05 9.53402E-04
 -1        57 9.92347E-02-1.81404E-05 7.98084E-04
 -1        58 1.00501E-01-1.45808E-05 6.40360E-04
 -1        59 1.01489E-01-1.09642E-05 4.81209E-04
 -1        60 1.02197E-01-7.38529E-06 3.22134E-04
 -1        61 1.02621E-01-3.37665E-06 1.69195E-04
 -1        62 4.73446E-03 8.65856E-05 1.71587E-03
 -1        63 1.02585E-02 6.57869E-05 2.78553E-03
 -1        64 1.55787E-02 6.89686E-05 3.07038E-03
 -1        65 2.08592E-02 6.78744E-05 3.10593E-03
 -1        66 2.61004E-02 6.73903E-05 3.04208E-03
 -1        67 3.12800E-02 6.63522E-05 2.96196E-03
 -1        68 3.63772E-02 6.52214E-05 2.88811E-03
 -1        69 4.13758E-02 6.38742E-05 2.81837E-03
 -1        70 4.62606E-02 6.23311E-05 2.74662E-03
 -1        71 5.10179E-02 6.06013E-05 2.66936E-03
 -1        72 5.56342E-02 5.86984E-05 2.58527E-03
 -1        73 6.00968E-02 5.66317E-05 2.49418E-03
 -1        74 6.43935E-02 5.44084E-05 2.39623E-03
 -1        75 6.85123E-02 5.20348E-05 2.29168E-03
 -1        76 7.24418E-02 4.95174E-05 2.18081E-03
 -1        77 7.61712E-02 4.68633E-05 2.06392E-03
 -1        78 7.96902E-02 4.40797E-05 1.94133E-03
 -1        79 8.29890E-02 4.11743E-05 1.81338E-03
 -1        80 8.60587E-02 3.81552E-05 1.68041E-03
 -1        81 8.88906E-02 3.50308E-05 1.54280E-03
 -1        82 9.14769E-02 3.18096E-05 1.40092E-03
 -1        83 9.38106E-02 2.85006E-05 1.25516E-03
 -1        84 9.58851E-02 2.51132E-05 1.10587E-03
 -1        85 9.76948E-02 2.16571E-05 9.53402E-04
 -1        86 9.92347E-02 1.81404E-05 7.98084E-04
 -1        87 1.00501E-01 1.45808E-05 6.40360E-04
 -1        88 1.01489E-01 1.09642E-05 4.81209E-04
 -1        89 1.02197E-01 7.38529E-06 3.22134E-04
 -1        90 1.02621E-01 3.37665E-06 1.69195E-04
 -1        91 0.00000E+00 0.00000E+00 0.00000E+00
 -1        92 0.00000E+00 0.00000E+00 0.00000E+00
 -1        93 0.00000E+00 0.00000E+00 0.00000E+00
 -1        94 0.00000E+00 0.00000E+00 0.00000E+00
 -1        95 0.00000E+00 0.00000E+00 0.00000E+00
 -1        96 0.00000E+00 0.00000E+00 0.00000E+00
 -1        97 4.73446E-03 8.65856E-05-1.71587E-03
 -1        98 1.02585E-02 6.57869E-05-2.78553E-03
 -1        99 1.55787E-02 6.89686E-05-3.07038E-03
 -1       100 2.08592E-02 6.78744E-05-3.10593E-03
 -1       101 2.61004E-02 6.73903E-05-3.04208E-03
 -1       102 3.12800E-02 6.63522E-05-2.96196E-03
 -1       103 3.63772E-02 6.52214E-05-2.88811E-03
 -1       104 4.13758E-02 6.38742E-05-2.81837E-03
 -1       105 4.62606E-02 6.23311E-05-2.74662E-03
 -1       106 5.10179E-02 6.06013E-05-2.66936E-03
 -1       107 5.56342E-02 5.86984E-05-2.58527E-03
 -1       108 6.00968E-02 5.66317E-05-2.49418E-03
 -1       109 6.43935E-02 5.44084E-05-2.39623E-03
 -1       110 6.85123E-02 5.20347E-05-2.29168E-03
 -1       111 7.24418E-02 4.95174E-05-2.18081E-03
 -1       112 7.61712E-02 4.68633E-05-2.06392E-03
 -1       113 7.96902E-02 4.40797E-05-1.94133E-03
 -1       114 8.29890E-02 4.11743E-05-1.81338E-03
 -1       115 8.60587E-02 3.81552E-05-1.68041E-03
 -1       116 8.88906E-02 3.50308E-05-1.54280E-03
 -1       117 9.14769E-02 3.18096E-05-1.40092E-03
 -1       118 9.38106E-02 2.85007E-05-1.25516E-03
 -1       119 9.58851E-02 2.51132E-05-1.10587E-03
 -1       120 9.76948E-02 2.16572E-05-9.53402E-04
 -1       121 9.92347E-02 1.81404E-05-7.98084E-04
 -1       122 1.00501E-01 1.45808E-05-6.40360E-04
 -1       123 1.01489E-01 1.09642E-05-4.81209E-04
 -1       124 1.02197E-01 7.38530E-06-3.22134E-04
 -1       125 1.02621E-01 3.37665E-06-1.69195E-04
 -1       126 1.02879E-01 1.44786E-06 1.25013E-05
 -1       127 1.02916E-01 1.49292E-06 1.64304E-12
 -1       128 1.02879E-01 1.44786E-06-1.25013E-05
 -1       129 4.73446E-03-8.65856E-05-1.71587E-03
 -1       130 1.02585E-02-6.57869E-05-2.78553E-03
 -1       131 1.55787E-02-6.89686E-05-3.07038E-03
 -1       132 2.08592E-02-6.78744E-05-3.10593E-03
 -1       133 2.61004E-02-6.73903E-05-3.04208E-03
 -1       134 3.12800E-02-6.63522E-05-2.96196E-03
 -1       135 3.63772E-02-6.52214E-05-2.88811E-03
 -1       136 4.13758E-02-6.38742E-05-2.81837E-03
 -1       137 4.62606E-02-6.23311E-05-2.74662E-03
 -1       138 5.10179E-02-6.06013E-05-2.66936E-03
 -1       139 5.56342E-02-5.86984E-05-2.58527E-03
 -1       140 6.00968E-02-5.66317E-05-2.49418E-03
 -1       141 6.43935E-02-5.44084E-05-2.39623E-03
 -1       142 6.85123E-02-5.20347E-05-2.29168E-03
 -1       143 7.24418E-02-4.95174E-05-2.18081E-03
 -1       144 7.61712E-02-4.68633E-05-2.06392E-03
 -1       145 7.96902E-02-4.40797E-05-1.94133E-03
 -1       146 8.29890E-02-4.11743E-05-1.81338E-03
 -1       147 8.60587E-02-3.81552E-05-1.68041E-03
 -1       148 8.88906E-02-3.50308E-05-1.54280E-03
 -1       149 9.14769E-02-3.18096E-05-1.40092E-03
 -1       150 9.38106E-02-2.85007E-05-1.25516E-03
 -1       151 9.58851E-02-2.51132E-05-1.10587E-03
 -1       152 9.76948E-02-2.16572E-05-9.53402E-04
 -1       153 9.92347E-02-1.81404E-05-7.98084E-04
 -1       154 1.00501E-01-1.45808E-05-6.40360E-04
 -1       155 1.01489E-01-1.09642E-05-4.81209E-04
 -1       156 1.02197E-01-7.38529E-06-3.22134E-04
 -1       157 1.02621E-01-3.37665E-06-1.69195E-04
 -1       158 1.02879E-01-1.44785E-06-1.25013E-05
 -1       159 1.02916E-01-1.49291E-06 1.67096E-12
 -1       160 1.02879E-01-1.44785E-06 1.25013E-05
 -1       161 4.97803E-03 9.53788E-05 1.97879E-03
 -1       162 1.03297E-02 8.00390E-05 2.98477E-03
 -1       163 1.55997E-02 6.39312E-05 3.28876E-03
 -1       164 2.08566E-02 6.22437E-05 3.31974E-03
 -1       165 2.60908E-02 6.37241E-05 3.25445E-03
 -1       166 3.12699E-02 6.39343E-05 3.17086E-03
 -1       167 3.63676E-02 6.30901E-05 3.09328E-03
 -1       168 4.13661E-02 6.17110E-05 3.01920E-03
 -1       169 4.62503E-02 6.01241E-05 2.94256E-03
 -1       170 5.10066E-02 5.84110E-05 2.85984E-03
 -1       171 5.56219E-02 5.65655E-05 2.76977E-03
 -1       172 6.00836E-02 5.45732E-05 2.67218E-03
 -1       173 6.43793E-02 5.24315E-05 2.56725E-03
 -1       174 6.84972E-02 5.01444E-05 2.45524E-03
 -1       175 7.24258E-02 4.77184E-05 2.33646E-03
 -1       176 7.61544E-02 4.51606E-05 2.21122E-03
 -1       177 7.96726E-02 4.24782E-05 2.07988E-03
 -1       178 8.29708E-02 3.96784E-05 1.94280E-03
 -1       179 8.60397E-02 3.67690E-05 1.80034E-03
 -1       180 8.88710E-02 3.37579E-05 1.65291E-03
 -1       181 9.14568E-02 3.06534E-05 1.50091E-03
 -1       182 9.37899E-02 2.74638E-05 1.34474E-03
 -1       183 9.58640E-02 2.41983E-05 1.18481E-03
 -1       184 9.76732E-02 2.08674E-05 1.02147E-03
 -1       185 9.92127E-02 1.74844E-05 8.55096E-04
 -1       186 1.00478E-01 1.40651E-05 6.86179E-04
 -1       187 1.01467E-01 1.06117E-05 5.15635E-04
 -1       188 1.02175E-01 6.97760E-06 3.45443E-04
 -1       189 1.02600E-01 3.43217E-06 1.79824E-04
 -1       190 0.00000E+00 0.00000E+00 0.00000E+00
 -1       191 0.00000E+00 0.00000E+00 0.00000E+00
 -1       192 1.02744E-01 1.21067E-05 3.21071E-05
 -1       193 5.14130E-03 1.63387E-03 9.27121E-04
 -1       194 1.03781E-02 1.52176E-03 2.56515E-03
 -1       195 1.56104E-02 1.40124E-03 3.46321E-03
 -1       196 2.08661E-02 1.39222E-03 3.55049E-03
 -1       197 2.60909E-02 1.38957E-03 3.40916E-03
 -1       198 3.12643E-02 1.37630E-03 3.27528E-03
 -1       199 3.63579E-02 1.35378E-03 3.18225E-03
 -1       200 4.13532E-02 1.32516E-03 3.10711E-03
 -1       201 4.62350E-02 1.29245E-03 3.03103E-03
 -1       202 5.09894E-02 1.25627E-03 2.94720E-03
 -1       203 5.56030E-02 1.21675E-03 2.85472E-03
 -1       204 6.00632E-02 1.17391E-03 2.75414E-03
 -1       205 6.43574E-02 1.12782E-03 2.64595E-03
 -1       206 6.84739E-02 1.07862E-03 2.53050E-03
 -1       207 7.24012E-02 1.02644E-03 2.40808E-03
 -1       208 7.61285E-02 9.71422E-04 2.27901E-03
 -1       209 7.96456E-02 9.13722E-04 2.14364E-03
 -1       210 8.29426E-02 8.53497E-04 2.00235E-03
 -1       211 8.60105E-02 7.90915E-04 1.85553E-03
 -1       212 8.88408E-02 7.26147E-04 1.70358E-03
 -1       213 9.14257E-02 6.59373E-04 1.54693E-03
 -1       214 9.37581E-02 5.90777E-04 1.38600E-03
 -1       215 9.58315E-02 5.20550E-04 1.22119E-03
 -1       216 9.76401E-02 4.48899E-04 1.05281E-03
 -1       217 9.91792E-02 3.76048E-04 8.81073E-04
 -1       218 1.00444E-01 3.02243E-04 7.06392E-04
 -1       219 1.01433E-01 2.27705E-04 5.30202E-04
 -1       220 1.02141E-01 1.51557E-04 3.57073E-04
 -1       221 1.02570E-01 7.38421E-05 1.89990E-04
 -1       222 4.94255E-03 1.44137E-03 6.59662E-04
 -1       223 1.01872E-02 1.42714E-03 2.36988E-03
 -1       224 1.55575E-02 1.43920E-03 3.24310E-03
 -1       225 2.08784E-02 1.44054E-03 3.33856E-03
 -1       226 2.61110E-02 1.42142E-03 3.19815E-03
 -1       227 3.12789E-02 1.39774E-03 3.06736E-03
 -1       228 3.63684E-02 1.37197E-03 2.97785E-03
 -1       229 4.13628E-02 1.34317E-03 2.90697E-03
 -1       230 4.62454E-02 1.31057E-03 2.83575E-03
 -1       231 5.10009E-02 1.27418E-03 2.75735E-03
 -1       232 5.56157E-02 1.23416E-03 2.67084E-03
 -1       233 6.00768E-02 1.19070E-03 2.57673E-03
 -1       234 6.43720E-02 1.14395E-03 2.47551E-03
 -1       235 6.84894E-02 1.09405E-03 2.36749E-03
 -1       236 7.24176E-02 1.04112E-03 2.25295E-03
 -1       237 7.61458E-02 9.85313E-04 2.13220E-03
 -1       238 7.96636E-02 9.26788E-04 2.00555E-03
 -1       239 8.29614E-02 8.65702E-04 1.87336E-03
 -1       240 8.60300E-02 8.02225E-04 1.73600E-03
 -1       241 8.88610E-02 7.36532E-04 1.59384E-03
 -1       242 9.14464E-02 6.68805E-04 1.44728E-03
 -1       243 9.37793E-02 5.99232E-04 1.29672E-03
 -1       244 9.58532E-02 5.28007E-04 1.14252E-03
 -1       245 9.76623E-02 4.55321E-04 9.84965E-04
 -1       246 9.92018E-02 3.81371E-04 8.24245E-04
 -1       247 1.00467E-01 3.06381E-04 6.60714E-04
 -1       248 1.01455E-01 2.30663E-04 4.95903E-04
 -1       249 1.02163E-01 1.53999E-04 3.33814E-04
 -1       250 1.02591E-01 7.56857E-05 1.79079E-04
 -1       251 1.02763E-01 1.07297E-05 2.80624E-05
 -1       252 1.02600E-01 3.43217E-06-1.79824E-04
 -1       253 1.02175E-01 6.97760E-06-3.45443E-04
 -1       254 1.01467E-01 1.06117E-05-5.15635E-04
 -1       255 1.00478E-01 1.40651E-05-6.86179E-04
 -1       256 9.92127E-02 1.74844E-05-8.55096E-04
 -1       257 9.76732E-02 2.08674E-05-1.02147E-03
 -1       258 9.58640E-02 2.41983E-05-1.18481E-03
 -1       259 9.37899E-02 2.74639E-05-1.34474E-03
 -1       260 9.14568E-02 3.06534E-05-1.50091E-03
 -1       261 8.88710E-02 3.37579E-05-1.65291E-03
 -1       262 8.60397E-02 3.67690E-05-1.80034E-03
 -1       263 8.29708E-02 3.96784E-05-1.94280E-03
 -1       264 7.96726E-02 4.24782E-05-2.07988E-03
 -1       265 7.61544E-02 4.51606E-05-2.21122E-03
 -1       266 7.24258E-02 4.77184E-05-2.33646E-03
 -1       267 6.84972E-02 5.01444E-05-2.45524E-03
 -1       268 6.43793E-02 5.24315E-05-2.56725E-03
 -1       269 6.00836E-02 5.45732E-05-2.67218E-03
 -1       270 5.56219E-02 5.65655E-05-2.76977E-03
 -1       271 5.10066E-02 5.84110E-05-2.85984E-03
 -1       272 4.62503E-02 6.01241E-05-2.94256E-03
 -1       273 4.13661E-02 6.17110E-05-3.01920E-03
 -1       274 3.63676E-02 6.30901E-05-3.09328E-03
 -1       275 3.12699E-02 6.39343E-05-3.17086E-03
 -1       276 2.60908E-02 6.37241E-05-3.25445E-03
 -1       277 2.08566E-02 6.22437E-05-3.31974E-03
 -1       278 1.55997E-02 6.39312E-05-3.28876E-03
 -1       279 1.03297E-02 8.00390E-05-2.98477E-03
 -1       280 4.97803E-03 9.53788E-05-1.97879E-03
 -1       281 0.00000E+00 0.00000E+00 0.00000E+00
 -1       282 0.00000E+00 0.00000E+00 0.00000E+00
 -1       283 4.94255E-03 1.44137E-03-6.59662E-04
 -1       284 1.01872E-02 1.42714E-03-2.36988E-03
 -1       285 1.55575E-02 1.43920E-03-3.24310E-03
 -1       286 2.08784E-02 1.44054E-03-3.33856E-03
 -1       287 2.61110E-02 1.42142E-03-3.19815E-03
 -1       288 3.12789E-02 1.39774E-03-3.06736E-03
 -1       289 3.63684E-02 1.37197E-03-2.97785E-03
 -1       290 4.13628E-02 1.34317E-03-2.90697E-03
 -1       291 4.62454E-02 1.31057E-03-2.83575E-03
 -1       292 5.10009E-02 1.27418E-03-2.75735E-03
 -1       293 5.56157E-02 1.23416E-03-2.67084E-03
 -1       294 6.00768E-02 1.19070E-03-2.57673E-03
 -1       295 6.43720E-02 1.14395E-03-2.47551E-03
 -1       296 6.84894E-02 1.09405E-03-2.36749E-03
 -1       297 7.24176E-02 1.04112E-03-2.25295E-03
 -1       298 7.61458E-02 9.85313E-04-2.13220E-03
 -1       299 7.96636E-02 9.26788E-04-2.00555E-03
 -1       300 8.29614E-02 8.65702E-04-1.87336E-03
 -1       301 8.60300E-02 8.02225E-04-1.73600E-03
 -1       302 8.88610E-02 7.36532E-04-1.59384E-03
 -1       303 9.14464E-02 6.68805E-04-1.44728E-03
 -1       304 9.37793E-02 5.99232E-04-1.29672E-03
 -1       305 9.58532E-02 5.28007E-04-1.14252E-03
 -1       306 9.76623E-02 4.55321E-04-9.84965E-04
 -1       307 9.92018E-02 3.81371E-04-8.24245E-04
 -1       308 1.00467E-01 3.06381E-04-6.60714E-04
 -1       309 1.01455E-01 2.30663E-04-4.95903E-04
 -1       310 1.02163E-01 1.53999E-04-3.33814E-04
 -1       311 1.02591E-01 7.56857E-05-1.79079E-04
 -1       312 1.02763E-01 1.07297E-05-2.80624E-05
 -1       313 5.14130E-03 1.63387E-03-9.27121E-04
 -1       314 1.03781E-02 1.52176E-03-2.56515E-03
 -1       315 1.56104E-02 1.40124E-03-3.46321E-03
 -1       316 2.08661E-02 1.39222E-03-3.55049E-03
 -1       317 2.60909E-02 1.38957E-03-3.40916E-03
 -1       318 3.12643E-02 1.37630E-03-3.27528E-03
 -1       319 3.63579E-02 1.35378E-03-3.18225E-03
 -1       320 4.13532E-02 1.32516E-03-3.10711E-03
 -1       321 4.62350E-02 1.29245E-03-3.03103E-03
 -1       322 5.09894E-02 1.25627E-03-2.94720E-03
 -1       323 5.56030E-02 1.21675E-03-2.85472E-03
 -1       324 6.00632E-02 1.17391E-03-2.75414E-03
 -1       325 6.43574E-02 1.12782E-03-2.64595E-03
 -1       326 6.84739E-02 1.07862E-03-2.53050E-03
 -1       327 7.24012E-02 1.02644E-03-2.40808E-03
 -1       328 7.61285E-02 9.71422E-04-2.27901E-03
 -1       329 7.96456E-02 9.13722E-04-2.14364E-03
 -1       330 8.29426E-02 8.53497E-04-2.00235E-03
 -1       331 8.60105E-02 7.90915E-04-1.85553E-03
 -1       332 8.88408E-02 7.26147E-04-1.70358E-03
 -1       333 9.14257E-02 6.59373E-04-1.54693E-03
 -1       334 9.37581E-02 5.90777E-04-1.38600E-03
 -1       335 9.58315E-02 5.20550E-04-1.22119E-03
 -1       336 9.76401E-02 4.48899E-04-1.05281E-03
 -1       337 9.91792E-02 3.76048E-04-8.81073E-04
 -1       338 1.00444E-01 3.02243E-04-7.06392E-04
 -1       339 1.01433E-01 2.27705E-04-5.30202E-04
 -1       340 1.02141E-01 1.51557E-04-3.57073E-04
 -1       341 1.02570E-01 7.38421E-05-1.89990E-04
 -1       342 1.02744E-01 1.21067E-05-3.21071E-05
 -1       343 5.14130E-03-1.63387E-03 9.27121E-04
 -1       344 1.03781E-02-1.52176E-03 2.56515E-03
 -1       345 1.56104E-02-1.40124E-03 3.46321E-03
 -1       346 2.08661E-02-1.39222E-03 3.55049E-03
 -1       347 2.60909E-02-1.38957E-03 3.40916E-03
 -1       348 3.12643E-02-1.37630E-03 3.27528E-03
 -1       349 3.63579E-02-1.35378E-03 3.18225E-03
 -1       350 4.13532E-02-1.32516E-03 3.10711E-03
 -1       351 4.62350E-02-1.29245E-03 3.03103E-03
 -1       352 5.09894E-02-1.25627E-03 2.94720E-03
 -1       353 5.56030E-02-1.21675E-03 2.85472E-03
 -1       354 6.00632E-02-1.17391E-03 2.75414E-03
 -1       355 6.43574E-02-1.12782E-03 2.64595E-03
 -1       356 6.84739E-02-1.07862E-03 2.53050E-03
 -1       357 7.24012E-02-1.02644E-03 2.40808E-03
 -1       358 7.61285E-02-9.71422E-04 2.27901E-03
 -1       359 7.96456E-02-9.13721E-04 2.14364E-03
 -1       360 8.29426E-02-8.53497E-04 2.00235E-03
 -1       361 8.60105E-02-7.90915E-04 1.85553E-03
 -1       362 8.88408E-02-7.26147E-04 1.70358E-03
 -1       363 9.14257E-02-6.59373E-04 1.54693E-03
 -1       364 9.37581E-02-5.90777E-04 1.38600E-03
 -1       365 9.58315E-02-5.20550E-04 1.22119E-03
 -1       366 9.76401E-02-4.48899E-04 1.05281E-03
 -1       367 9.91792E-02-3.76048E-04 8.81073E-04
 -1       368 1.00444E-01-3.02243E-04 7.06392E-04
 -1       369 1.01433E-01-2.27705E-04 5.30202E-04
 -1       370 1.02141E-01-1.51557E-04 3.57073E-04
 -1       371 1.02570E-01-7.38421E-05 1.89990E-04
 -1       372 4.94255E-03-1.44137E-03 6.59662E-04
 -1       373 1.01872E-02-1.42714E-03 2.36988E-03
 -1       374 1.55575E-02-1.43920E-03 3.24310E-03
 -1       375 2.08784E-02-1.44054E-03 3.33856E-03
 -1       376 2.61110E-02-1.42142E-03 3.19815E-03
 -1       377 3.12789E-02-1.39774E-03 3.06736E-03
 -1       378 3.63684E-02-1.37197E-03 2.97785E-03
 -1       379 4.13628E-02-1.34317E-03 2.90697E-03
 -1       380 4.62454E-02-1.31057E-03 2.83575E-03
 -1       381 5.10009E-02-1.27418E-03 2.75735E-03
 -1       382 5.56157E-02-1.23416E-03 2.67084E-03
 -1       383 6.00768E-02-1.19070E-03 2.57673E-03
 -1       384 6.43720E-02-1.14395E-03 2.47551E-03
 -1       385 6.84894E-02-1.09405E-03 2.36749E-03
 -1       386 7.24176E-02-1.04112E-03 2.25295E-03
 -1       387 7.61458E-02-9.85313E-04 2.13220E-03
 -1       388 7.96636E-02-9.26788E-04 2.00555E-03
 -1       389 8.29614E-02-8.65702E-04 1.87336E-03
 -1       390 8.60300E-02-8.02225E-04 1.73600E-03
 -1       391 8.88610E-02-7.36532E-04 1.59384E-03
 -1       392 9.14464E-02-6.68805E-04 1.44728E-03
 -1       393 9.37793E-02-5.99232E-04 1.29672E-03
 -1       394 9.58532E-02-5.28007E-04 1.14252E-03
 -1       395 9.76623E-02-4.55321E-04 9.84965E-04
 -1       396 9.92018E-02-3.81371E-04 8.24245E-04
 -1       397 1.00467E-01-3.06381E-04 6.60714E-04
 -1       398 1.01455E-01-2.30663E-04 4.95903E-04
 -1       399 1.02163E-01-1.53999E-04 3.33814E-04
 -1       400 1.02591E-01-7.56857E-05 1.79079E-04
 -1       401 0.00000E+00 0.00000E+00 0.00000E+00
 -1       402 0.00000E+00 0.00000E+00 0.00000E+00
 -1       403 1.02744E-01-1.21066E-05 3.21071E-05
 -1       404 4.97803E-03-9.53788E-05 1.97879E-03
 -1       405 1.03297E-02-8.00390E-05 2.98477E-03
 -1       406 1.55997E-02-6.39312E-05 3.28876E-03
 -1       407 2.08566E-02-6.22437E-05 3.31974E-03
 -1       408 2.60908E-02-6.37241E-05 3.25445E-03
 -1       409 3.12699E-02-6.39343E-05 3.17086E-03
 -1       410 3.63676E-02-6.30901E-05 3.09328E-03
 -1       411 4.13661E-02-6.17110E-05 3.01920E-03
 -1       412 4.62503E-02-6.01241E-05 2.94256E-03
 -1       413 5.10066E-02-5.84110E-05 2.85984E-03
 -1       414 5.56219E-02-5.65655E-05 2.76977E-03
 -1       415 6.00836E-02-5.45732E-05 2.67218E-03
 -1       416 6.43793E-02-5.24315E-05 2.56725E-03
 -1       417 6.84972E-02-5.01444E-05 2.45524E-03
 -1       418 7.24258E-02-4.77184E-05 2.33646E-03
 -1       419 7.61544E-02-4.51606E-05 2.21122E-03
 -1       420 7.96726E-02-4.24782E-05 2.07988E-03
 -1       421 8.29708E-02-3.96784E-05 1.94280E-03
 -1       422 8.60397E-02-3.67690E-05 1.80034E-03
 -1       423 8.88710E-02-3.37579E-05 1.65291E-03
 -1       424 9.14568E-02-3.06534E-05 1.50091E-03
 -1       425 9.37899E-02-2.74639E-05 1.34474E-03
 -1       426 9.58640E-02-2.41983E-05 1.18481E-03
 -1       427 9.76732E-02-2.08674E-05 1.02147E-03
 -1       428 9.92127E-02-1.74844E-05 8.55096E-04
 -1       429 1.00478E-01-1.40651E-05 6.86179E-04
 -1       430 1.01467E-01-1.06117E-05 5.15635E-04
 -1       431 1.02175E-01-6.97760E-06 3.45443E-04
 -1       432 1.02600E-01-3.43216E-06 1.79824E-04
 -1       433 1.02763E-01-1.07297E-05 2.80624E-05
 -1       434 0.00000E+00 0.00000E+00 0.00000E+00
 -1       435 0.00000E+00 0.00000E+00 0.00000E+00
 -1       436 1.02600E-01-3.43216E-06-1.79824E-04
 -1       437 1.02175E-01-6.97760E-06-3.45443E-04
 -1       438 1.01467E-01-1.06117E-05-5.15635E-04
 -1       439 1.00478E-01-1.40651E-05-6.86179E-04
 -1       440 9.92127E-02-1.74844E-05-8.55096E-04
 -1       441 9.76732E-02-2.08674E-05-1.02147E-03
 -1       442 9.58640E-02-2.41983E-05-1.18481E-03
 -1       443 9.37899E-02-2.74639E-05-1.34474E-03
 -1       444 9.14568E-02-3.06534E-05-1.50091E-03
 -1       445 8.88710E-02-3.37579E-05-1.65291E-03
 -1       446 8.60397E-02-3.67690E-05-1.80034E-03
 -1       447 8.29708E-02-3.96784E-05-1.94280E-03
 -1       448 7.96726E-02-4.24782E-05-2.07988E-03
 -1       449 7.61544E-02-4.51606E-05-2.21122E-03
 -1       450 7.24258E-02-4.77184E-05-2.33646E-03
 -1       451 6.84972E-02-5.01444E-05-2.45524E-03
 -1       452 6.43793E-02-5.24315E-05-2.56725E-03
 -1       453 6.00836E-02-5.45732E-05-2.67218E-03
 -1       454 5.56219E-02-5.65655E-05-2.76977E-03
 -1       455 5.10066E-02-5.84110E-05-2.85984E-03
 -1       456 4.62503E-02-6.01241E-05-2.94256E-03
 -1       457 4.13661E-02-6.17110E-05-3.01920E-03
 -1       458 3.63676E-02-6.30901E-05-3.09328E-03
 -1       459 3.12699E-02-6.39343E-05-3.17086E-03
 -1       460 2.60908E-02-6.37241E-05-3.25445E-03
 -1       461 2.08566E-02-6.22437E-05-3.31974E-03
 -1       462 1.55997E-02-6.39312E-05-3.28876E-03
 -1       463 1.03297E-02-8.00390E-05-2.98477E-03
 -1       464 4.97803E-03-9.53788E-05-1.97879E-03
 -1       465 1.02744E-01-1.21067E-05-3.21071E-05
 -1       466 5.14130E-03-1.63387E-03-9.27121E-04
 -1       467 1.03781E-02-1.52176E-03-2.56515E-03
 -1       468 1.56104E-02-1.40124E-03-3.46321E-03
 -1       469 2.08661E-02-1.39222E-03-3.55049E-03
 -1       470 2.60909E-02-1.38957E-03-3.40916E-03
 -1       471 3.12643E-02-1.37630E-03-3.27528E-03
 -1       472 3.63579E-02-1.35378E-03-3.18225E-03
 -1       473 4.13532E-02-1.32516E-03-3.10711E-03
 -1       474 4.62350E-02-1.29245E-03-3.03103E-03
 -1       475 5.09894E-02-1.25627E-03-2.94720E-03
 -1       476 5.56030E-02-1.21675E-03-2.85472E-03
 -1       477 6.00632E-02-1.17391E-03-2.75414E-03
 -1       478 6.43574E-02-1.12782E-03-2.64595E-03
 -1       479 6.84739E-02-1.07862E-03-2.53050E-03
 -1       480 7.24012E-02-1.02644E-03-2.40808E-03
 -1       481 7.61285E-02-9.71422E-04-2.27901E-03
 -1       482 7.96456E-02-9.13722E-04-2.14364E-03
 -1       483 8.29426E-02-8.53497E-04-2.00235E-03
 -1       484 8.60105E-02-7.90915E-04-1.85553E-03
 -1       485 8.88408E-02-7.26147E-04-1.70358E-03
 -1       486 9.14257E-02-6.59373E-04-1.54693E-03
 -1       487 9.37581E-02-5.90777E-04-1.38600E-03
 -1       488 9.58315E-02-5.20550E-04-1.22119E-03
 -1       489 9.76401E-02-4.48899E-04-1.05281E-03
 -1       490 9.91792E-02-3.76048E-04-8.81073E-04
 -1       491 1.00444E-01-3.02243E-04-7.06392E-04
 -1       492 1.01433E-01-2.27705E-04-5.30202E-04
 -1       493 1.02141E-01-1.51557E-04-3.57073E-04
 -1       494 1.02570E-01-7.38421E-05-1.89990E-04
 -1       495 4.94255E-03-1.44137E-03-6.59662E-04
 -1       496 1.01872E-02-1.42714E-03-2.36988E-03
 -1       497 1.55575E-02-1.43920E-03-3.24310E-03
 -1       498 2.08784E-02-1.44054E-03-3.33856E-03
 -1       499 2.61110E-02-1.42142E-03-3.19815E-03
 -1       500 3.12789E-02-1.39774E-03-3.06736E-03
 -1       501 3.63684E-02-1.37197E-03-2.97785E-03
 -1       502 4.13628E-02-1.34317E-03-2.90697E-03
 -1       503 4.62454E-02-1.31057E-03-2.83575E-03
 -1       504 5.10009E-02-1.27418E-03-2.75735E-03
 -1       505 5.56157E-02-1.23416E-03-2.67084E-03
 -1       506 6.00768E-02-1.19070E-03-2.57673E-03
 -1       507 6.43720E-02-1.14395E-03-2.47551E-03
 -1       508 6.84894E-02-1.09405E-03-2.36749E-03
 -1       509 7.24176E-02-1.04112E-03-2.25295E-03
 -1       510 7.61458E-02-9.85313E-04-2.13220E-03
 -1       511 7.96636E-02-9.26788E-04-2.00555E-03
 -1       512 8.29614E-02-8.65702E-04-1.87336E-03
 -1       513 8.60300E-02-8.02225E-04-1.73600E-03
 -1       514 8.88610E-02-7.36532E-04-1.59384E-03
 -1       515 9.14464E-02-6.68805E-04-1.44728E-03
 -1       516 9.37793E-02-5.99232E-04-1.29672E-03
 -1       517 9.58532E-02-5.28007E-04-1.14252E-03
 -1       518 9.76623E-02-4.55321E-04-9.84965E-04
 -1       519 9.92018E-02-3.81371E-04-8.24245E-04
 -1       520 1.00467E-01-3.06381E-04-6.60714E-04
 -1       521 1.01455E-01-2.30663E-04-4.95903E-04
 -1       522 1.02163E-01-1.53999E-04-3.33814E-04
 -1       523 1.02591E-01-7.56857E-05-1.79079E-04
 -1       524 1.02763E-01-1.07297E-05-2.80624E-05
 -1       525 4.54258E-03 9.91893E-05 7.53738E-04
 -1       526 9.90690E-03 6.83429E-05 1.32281E-03
 -1       527 1.53449E-02 7.08318E-05 1.54564E-03
 -1       528 2.07566E-02 6.76256E-05 1.57081E-03
 -1       529 2.60746E-02 6.68626E-05 1.53561E-03
 -1       530 3.12944E-02 6.58023E-05 1.49054E-03
 -1       531 3.64112E-02 6.46411E-05 1.45002E-03
 -1       532 4.14199E-02 6.32682E-05 1.41327E-03
 -1       533 4.63115E-02 6.17181E-05 1.37663E-03
 -1       534 5.10744E-02 5.99965E-05 1.33770E-03
 -1       535 5.56959E-02 5.81105E-05 1.29551E-03
 -1       536 6.01635E-02 5.60644E-05 1.24985E-03
 -1       537 6.44649E-02 5.38635E-05 1.20077E-03
 -1       538 6.85883E-02 5.15138E-05 1.14838E-03
 -1       539 7.25222E-02 4.90216E-05 1.09282E-03
 -1       540 7.62557E-02 4.63941E-05 1.03424E-03
 -1       541 7.97786E-02 4.36384E-05 9.72813E-04
 -1       542 8.30811E-02 4.07621E-05 9.08694E-04
 -1       543 8.61542E-02 3.77732E-05 8.42064E-04
 -1       544 8.89892E-02 3.46800E-05 7.73106E-04
 -1       545 9.15784E-02 3.14910E-05 7.02009E-04
 -1       546 9.39147E-02 2.82150E-05 6.28959E-04
 -1       547 9.59914E-02 2.48611E-05 5.54132E-04
 -1       548 9.78030E-02 2.14388E-05 4.77689E-04
 -1       549 9.93442E-02 1.79559E-05 3.99784E-04
 -1       550 1.00611E-01 1.44279E-05 3.20645E-04
 -1       551 1.01599E-01 1.08233E-05 2.40795E-04
 -1       552 1.02305E-01 7.30163E-06 1.61641E-04
 -1       553 1.02728E-01 3.16088E-06 8.64131E-05
 -1       554 4.50460E-03 9.64807E-05-2.41735E-13
 -1       555 9.82248E-03 6.96451E-05-5.66568E-13
 -1       556 1.52551E-02 7.12340E-05-9.08162E-13
 -1       557 2.07076E-02 6.84163E-05-1.22683E-12
 -1       558 2.60578E-02 6.72389E-05-1.52245E-12
 -1       559 3.12955E-02 6.60106E-05-1.79233E-12
 -1       560 3.64212E-02 6.47922E-05-2.04138E-12
 -1       561 4.14343E-02 6.34147E-05-2.25173E-12
 -1       562 4.63285E-02 6.18664E-05-2.38560E-12
 -1       563 5.10933E-02 6.01444E-05-2.46275E-12
 -1       564 5.57165E-02 5.82548E-05-2.50476E-12
 -1       565 6.01858E-02 5.62038E-05-2.47555E-12
 -1       566 6.44888E-02 5.39974E-05-2.37728E-12
 -1       567 6.86137E-02 5.16418E-05-2.21170E-12
 -1       568 7.25490E-02 4.91435E-05-1.99695E-12
 -1       569 7.62839E-02 4.65094E-05-1.75442E-12
 -1       570 7.98082E-02 4.37468E-05-1.51514E-12
 -1       571 8.31119E-02 4.08634E-05-1.27047E-12
 -1       572 8.61861E-02 3.78671E-05-1.01455E-12
 -1       573 8.90222E-02 3.47662E-05-7.56319E-13
 -1       574 9.16123E-02 3.15693E-05-5.11761E-13
 -1       575 9.39494E-02 2.82853E-05-2.91154E-13
 -1       576 9.60270E-02 2.49230E-05-8.99623E-14
 -1       577 9.78391E-02 2.14919E-05 9.59371E-14
 -1       578 9.93807E-02 1.79992E-05 2.81733E-13
 -1       579 1.00647E-01 1.44590E-05 4.96936E-13
 -1       580 1.01635E-01 1.08454E-05 7.57720E-13
 -1       581 1.02341E-01 7.30597E-06 1.05583E-12
 -1       582 1.02765E-01 3.17225E-06 1.37209E-12
 -1       583 4.54258E-03 9.91893E-05-7.53738E-04
 -1       584 9.90690E-03 6.83429E-05-1.32281E-03
 -1       585 1.53449E-02 7.08318E-05-1.54564E-03
 -1       586 2.07566E-02 6.76256E-05-1.57081E-03
 -1       587 2.60746E-02 6.68626E-05-1.53561E-03
 -1       588 3.12944E-02 6.58023E-05-1.49054E-03
 -1       589 3.64112E-02 6.46411E-05-1.45002E-03
 -1       590 4.14199E-02 6.32682E-05-1.41327E-03
 -1       591 4.63115E-02 6.17181E-05-1.37663E-03
 -1       592 5.10744E-02 5.99965E-05-1.33770E-03
 -1       593 5.56959E-02 5.81105E-05-1.29551E-03
 -1       594 6.01635E-02 5.60644E-05-1.24985E-03
 -1       595 6.44649E-02 5.38635E-05-1.20077E-03
 -1       596 6.85883E-02 5.15138E-05-1.14838E-03
 -1       597 7.25222E-02 4.90216E-05-1.09282E-03
 -1       598 7.62557E-02 4.63941E-05-1.03424E-03
 -1       599 7.97786E-02 4.36384E-05-9.72813E-04
 -1       600 8.30811E-02 4.07621E-05-9.08694E-04
 -1       601 8.61542E-02 3.77732E-05-8.42064E-04
 -1       602 8.89892E-02 3.46800E-05-7.73106E-04
 -1       603 9.15784E-02 3.14910E-05-7.02009E-04
 -1       604 9.39147E-02 2.82150E-05-6.28959E-04
 -1       605 9.59914E-02 2.48611E-05-5.54132E-04
 -1       606 9.78030E-02 2.14388E-05-4.77689E-04
 -1       607 9.93442E-02 1.79559E-05-3.99784E-04
 -1       608 1.00611E-01 1.44279E-05-3.20645E-04
 -1       609 1.01599E-01 1.08233E-05-2.40795E-04
 -1       610 1.02305E-01 7.30163E-06-1.61641E-04
 -1       611 1.02728E-01 3.16088E-06-8.64130E-05
 -1       612 4.54258E-03-9.91893E-05-7.53738E-04
 -1       613 9.90690E-03-6.83429E-05-1.32281E-03
 -1       614 1.53449E-02-7.08318E-05-1.54564E-03
 -1       615 2.07566E-02-6.76256E-05-1.57081E-03
 -1       616 2.60746E-02-6.68626E-05-1.53561E-03
 -1       617 3.12944E-02-6.58024E-05-1.49054E-03
 -1       618 3.64112E-02-6.46412E-05-1.45002E-03
 -1       619 4.14199E-02-6.32683E-05-1.41327E-03
 -1       620 4.63115E-02-6.17181E-05-1.37663E-03
 -1       621 5.10744E-02-5.99965E-05-1.33770E-03
 -1       622 5.56959E-02-5.81105E-05-1.29551E-03
 -1       623 6.01635E-02-5.60644E-05-1.24985E-03
 -1       624 6.44649E-02-5.38635E-05-1.20077E-03
 -1       625 6.85883E-02-5.15138E-05-1.14838E-03
 -1       626 7.25222E-02-4.90216E-05-1.09282E-03
 -1       627 7.62557E-02-4.63941E-05-1.03424E-03
 -1       628 7.97786E-02-4.36384E-05-9.72813E-04
 -1       629 8.30811E-02-4.07621E-05-9.08694E-04
 -1       630 8.61542E-02-3.77732E-05-8.42064E-04
 -1       631 8.89892E-02-3.46800E-05-7.73106E-04
 -1       632 9.15784E-02-3.14910E-05-7.02009E-04
 -1       633 9.39147E-02-2.82150E-05-6.28959E-04
 -1       634 9.59914E-02-2.48611E-05-5.54132E-04
 -1       635 9.78030E-02-2.14388E-05-4.77689E-04
 -1       636 9.93442E-02-1.79559E-05-3.99784E-04
 -1       637 1.00611E-01-1.44279E-05-3.20645E-04
 -1       638 1.01599E-01-1.08233E-05-2.40795E-04
 -1       639 1.02305E-01-7.30163E-06-1.61641E-04
 -1       640 1.02728E-01-3.16088E-06-8.64130E-05
 -1       641 4.50460E-03-9.64807E-05-2.50539E-13
 -1       642 9.82248E-03-6.96451E-05-5.89580E-13
 -1       643 1.52551E-02-7.12340E-05-9.42094E-13
 -1       644 2.07076E-02-6.84163E-05-1.26753E-12
 -1       645 2.60578E-02-6.72389E-05-1.56274E-12
 -1       646 3.12955E-02-6.60106E-05-1.83280E-12
 -1       647 3.64212E-02-6.47922E-05-2.07735E-12
 -1       648 4.14343E-02-6.34147E-05-2.26992E-12
 -1       649 4.63285E-02-6.18664E-05-2.38138E-12
 -1       650 5.10933E-02-6.01444E-05-2.43194E-12
 -1       651 5.57165E-02-5.82548E-05-2.44561E-12
 -1       652 6.01858E-02-5.62038E-05-2.39247E-12
 -1       653 6.44888E-02-5.39974E-05-2.27744E-12
 -1       654 6.86137E-02-5.16418E-05-2.10565E-12
 -1       655 7.25490E-02-4.91435E-05-1.89351E-12
 -1       656 7.62839E-02-4.65094E-05-1.65496E-12
 -1       657 7.98082E-02-4.37468E-05-1.42533E-12
 -1       658 8.31119E-02-4.08634E-05-1.19793E-12
 -1       659 8.61861E-02-3.78671E-05-9.65721E-13
 -1       660 8.90222E-02-3.47662E-05-7.42469E-13
 -1       661 9.16123E-02-3.15693E-05-5.28723E-13
 -1       662 9.39494E-02-2.82853E-05-3.29351E-13
 -1       663 9.60270E-02-2.49230E-05-1.48676E-13
 -1       664 9.78391E-02-2.14919E-05 1.01377E-14
 -1       665 9.93807E-02-1.79992E-05 1.86393E-13
 -1       666 1.00647E-01-1.44590E-05 4.17846E-13
 -1       667 1.01635E-01-1.08454E-05 7.05082E-13
 -1       668 1.02341E-01-7.30597E-06 1.02582E-12
 -1       669 1.02765E-01-3.17225E-06 1.36799E-12
 -1       670 4.54258E-03-9.91893E-05 7.53738E-04
 -1       671 9.90690E-03-6.83429E-05 1.32281E-03
 -1       672 1.53449E-02-7.08318E-05 1.54564E-03
 -1       673 2.07566E-02-6.76256E-05 1.57081E-03
 -1       674 2.60746E-02-6.68626E-05 1.53561E-03
 -1       675 3.12944E-02-6.58024E-05 1.49054E-03
 -1       676 3.64112E-02-6.46412E-05 1.45002E-03
 -1       677 4.14199E-02-6.32683E-05 1.41327E-03
 -1       678 4.63115E-02-6.17181E-05 1.37663E-03
 -1       679 5.10744E-02-5.99965E-05 1.33770E-03
 -1       680 5.56959E-02-5.81105E-05 1.29551E-03
 -1       681 6.01635E-02-5.60644E-05 1.24985E-03
 -1       682 6.44649E-02-5.38635E-05 1.20077E-03
 -1       683 6.85883E-02-5.15138E-05 1.14838E-03
 -1       684 7.25222E-02-4.90216E-05 1.09282E-03
 -1       685 7.62557E-02-4.63941E-05 1.03424E-03
 -1       686 7.97786E-02-4.36384E-05 9.72813E-04
 -1       687 8.30811E-02-4.07621E-05 9.08694E-04
 -1       688 8.61542E-02-3.77732E-05 8.42064E-04
 -1       689 8.89892E-02-3.46800E-05 7.73106E-04
 -1       690 9.15784E-02-3.14910E-05 7.02009E-04
 -1       691 9.39147E-02-2.82150E-05 6.28959E-04
 -1       692 9.59914E-02-2.48611E-05 5.54132E-04
 -1       693 9.78030E-02-2.14388E-05 4.77689E-04
 -1       694 9.93442E-02-1.79559E-05 3.99784E-04
 -1       695 1.00611E-01-1.44279E-05 3.20645E-04
 -1       696 1.01599E-01-1.08233E-05 2.40795E-04
 -1       697 1.02305E-01-7.30163E-06 1.61641E-04
 -1       698 1.02728E-01-3.16088E-06 8.64131E-05
 -1       699 4.92874E-03 8.75197E-04 1.53940E-03
 -1       700 1.03743E-02 8.26878E-04 2.85349E-03
 -1       701 1.56064E-02 7.25099E-04 3.34986E-03
 -1       702 2.08656E-02 7.20386E-04 3.40522E-03
 -1       703 2.60953E-02 7.22330E-04 3.31203E-03
 -1       704 3.12707E-02 7.17206E-04 3.20977E-03
 -1       705 3.63660E-02 7.05891E-04 3.12666E-03
 -1       706 4.13629E-02 6.90862E-04 3.05220E-03
 -1       707 4.62462E-02 6.73658E-04 2.97578E-03
 -1       708 5.10019E-02 6.54733E-04 2.89264E-03
 -1       709 5.56167E-02 6.34115E-04 2.80167E-03
 -1       710 6.00780E-02 6.11785E-04 2.70295E-03
 -1       711 6.43733E-02 5.87770E-04 2.59680E-03
 -1       712 6.84907E-02 5.62130E-04 2.48350E-03
 -1       713 7.24190E-02 5.34935E-04 2.36335E-03
 -1       714 7.61473E-02 5.06262E-04 2.23668E-03
 -1       715 7.96652E-02 4.76190E-04 2.10382E-03
 -1       716 8.29630E-02 4.44804E-04 1.96516E-03
 -1       717 8.60316E-02 4.12189E-04 1.82106E-03
 -1       718 8.88627E-02 3.78435E-04 1.67194E-03
 -1       719 9.14482E-02 3.43635E-04 1.51819E-03
 -1       720 9.37811E-02 3.07884E-04 1.36023E-03
 -1       721 9.58550E-02 2.71283E-04 1.19847E-03
 -1       722 9.76641E-02 2.33942E-04 1.03324E-03
 -1       723 9.92035E-02 1.95982E-04 8.64854E-04
 -1       724 1.00469E-01 1.57543E-04 6.93775E-04
 -1       725 1.01457E-01 1.18762E-04 5.21162E-04
 -1       726 1.02167E-01 7.86638E-05 3.49675E-04
 -1       727 1.02591E-01 3.85677E-05 1.83858E-04
 -1       728 4.67667E-03 6.85610E-04 1.25900E-03
 -1       729 1.02555E-02 7.57013E-04 2.65059E-03
 -1       730 1.55782E-02 7.53768E-04 3.13385E-03
 -1       731 2.08731E-02 7.60458E-04 3.19305E-03
 -1       732 2.61106E-02 7.49398E-04 3.10144E-03
 -1       733 3.12832E-02 7.35526E-04 3.00202E-03
 -1       734 3.63762E-02 7.21470E-04 2.92244E-03
 -1       735 4.13727E-02 7.06220E-04 2.85225E-03
 -1       736 4.62566E-02 6.89096E-04 2.78069E-03
 -1       737 5.10132E-02 6.69974E-04 2.70298E-03
 -1       738 5.56291E-02 6.48936E-04 2.61797E-03
 -1       739 6.00914E-02 6.26085E-04 2.52572E-03
 -1       740 6.43876E-02 6.01502E-04 2.42653E-03
 -1       741 6.85060E-02 5.75260E-04 2.32065E-03
 -1       742 7.24352E-02 5.47430E-04 2.20838E-03
 -1       743 7.61642E-02 5.18088E-04 2.09001E-03
 -1       744 7.96829E-02 4.87314E-04 1.96587E-03
 -1       745 8.29815E-02 4.55195E-04 1.83630E-03
 -1       746 8.60508E-02 4.21818E-04 1.70165E-03
 -1       747 8.88824E-02 3.87276E-04 1.56231E-03
 -1       748 9.14686E-02 3.51664E-04 1.41864E-03
 -1       749 9.38020E-02 3.15082E-04 1.27104E-03
 -1       750 9.58764E-02 2.77631E-04 1.11987E-03
 -1       751 9.76859E-02 2.39408E-04 9.65465E-04
 -1       752 9.92257E-02 2.00513E-04 8.08082E-04
 -1       753 1.00492E-01 1.61068E-04 6.48148E-04
 -1       754 1.01480E-01 1.21317E-04 4.86863E-04
 -1       755 1.02189E-01 8.06614E-05 3.26449E-04
 -1       756 1.02612E-01 4.03784E-05 1.73374E-04
 -1       757 4.67667E-03 6.85610E-04-1.25900E-03
 -1       758 1.02555E-02 7.57013E-04-2.65059E-03
 -1       759 1.55782E-02 7.53768E-04-3.13385E-03
 -1       760 2.08731E-02 7.60458E-04-3.19305E-03
 -1       761 2.61106E-02 7.49398E-04-3.10144E-03
 -1       762 3.12832E-02 7.35526E-04-3.00202E-03
 -1       763 3.63762E-02 7.21470E-04-2.92244E-03
 -1       764 4.13727E-02 7.06220E-04-2.85225E-03
 -1       765 4.62566E-02 6.89096E-04-2.78069E-03
 -1       766 5.10132E-02 6.69974E-04-2.70298E-03
 -1       767 5.56291E-02 6.48936E-04-2.61797E-03
 -1       768 6.00914E-02 6.26085E-04-2.52572E-03
 -1       769 6.43876E-02 6.01502E-04-2.42653E-03
 -1       770 6.85060E-02 5.75260E-04-2.32065E-03
 -1       771 7.24352E-02 5.47430E-04-2.20838E-03
 -1       772 7.61642E-02 5.18088E-04-2.09001E-03
 -1       773 7.96829E-02 4.87314E-04-1.96587E-03
 -1       774 8.29815E-02 4.55195E-04-1.83630E-03
 -1       775 8.60508E-02 4.21818E-04-1.70165E-03
 -1       776 8.88824E-02 3.87276E-04-1.56231E-03
 -1       777 9.14686E-02 3.51664E-04-1.41864E-03
 -1       778 9.38020E-02 3.15082E-04-1.27104E-03
 -1       779 9.58764E-02 2.77631E-04-1.11987E-03
 -1       780 9.76859E-02 2.39408E-04-9.65465E-04
 -1       781 9.92257E-02 2.00513E-04-8.08082E-04
 -1       782 1.00492E-01 1.61068E-04-6.48148E-04
 -1       783 1.01480E-01 1.21317E-04-4.86863E-04
 -1       784 1.02189E-01 8.06614E-05-3.26449E-04
 -1       785 1.02612E-01 4.03784E-05-1.73374E-04
 -1       786 4.92874E-03 8.75197E-04-1.53940E-03
 -1       787 1.03743E-02 8.26878E-04-2.85349E-03
 -1       788 1.56064E-02 7.25099E-04-3.34986E-03
 -1       789 2.08656E-02 7.20386E-04-3.40522E-03
 -1       790 2.60953E-02 7.22330E-04-3.31203E-03
 -1       791 3.12707E-02 7.17206E-04-3.20977E-03
 -1       792 3.63660E-02 7.05891E-04-3.12666E-03
 -1       793 4.13629E-02 6.90862E-04-3.05220E-03
 -1       794 4.62462E-02 6.73658E-04-2.97578E-03
 -1       795 5.10019E-02 6.54733E-04-2.89264E-03
 -1       796 5.56167E-02 6.34115E-04-2.80167E-03
 -1       797 6.00780E-02 6.11785E-04-2.70295E-03
 -1       798 6.43733E-02 5.87770E-04-2.59680E-03
 -1       799 6.84907E-02 5.62130E-04-2.48350E-03
 -1       800 7.24190E-02 5.34934E-04-2.36335E-03
 -1       801 7.61473E-02 5.06262E-04-2.23668E-03
 -1       802 7.96652E-02 4.76190E-04-2.10382E-03
 -1       803 8.29630E-02 4.44804E-04-1.96516E-03
 -1       804 8.60316E-02 4.12189E-04-1.82106E-03
 -1       805 8.88627E-02 3.78435E-04-1.67194E-03
 -1       806 9.14482E-02 3.43635E-04-1.51819E-03
 -1       807 9.37811E-02 3.07884E-04-1.36023E-03
 -1       808 9.58550E-02 2.71283E-04-1.19847E-03
 -1       809 9.76641E-02 2.33942E-04-1.03324E-03
 -1       810 9.92035E-02 1.95982E-04-8.64854E-04
 -1       811 1.00469E-01 1.57543E-04-6.93775E-04
 -1       812 1.01457E-01 1.18762E-04-5.21162E-04
 -1       813 1.02167E-01 7.86638E-05-3.49675E-04
 -1       814 1.02591E-01 3.85677E-05-1.83858E-04
 -1       815 4.92874E-03-8.75197E-04 1.53940E-03
 -1       816 1.03743E-02-8.26878E-04 2.85349E-03
 -1       817 1.56064E-02-7.25099E-04 3.34986E-03
 -1       818 2.08656E-02-7.20386E-04 3.40522E-03
 -1       819 2.60953E-02-7.22330E-04 3.31203E-03
 -1       820 3.12707E-02-7.17206E-04 3.20977E-03
 -1       821 3.63660E-02-7.05891E-04 3.12666E-03
 -1       822 4.13629E-02-6.90862E-04 3.05220E-03
 -1       823 4.62462E-02-6.73658E-04 2.97578E-03
 -1       824 5.10019E-02-6.54733E-04 2.89264E-03
 -1       825 5.56167E-02-6.34115E-04 2.80167E-03
 -1       826 6.00780E-02-6.11785E-04 2.70295E-03
 -1       827 6.43733E-02-5.87770E-04 2.59680E-03
 -1       828 6.84907E-02-5.62130E-04 2.48350E-03
 -1       829 7.24190E-02-5.34934E-04 2.36335E-03
 -1       830 7.61473E-02-5.06262E-04 2.23668E-03
 -1       831 7.96652E-02-4.76190E-04 2.10382E-03
 -1       832 8.29630E-02-4.44804E-04 1.96516E-03
 -1       833 8.60316E-02-4.12189E-04 1.82106E-03
 -1       834 8.88627E-02-3.78435E-04 1.67194E-03
 -1       835 9.14482E-02-3.43635E-04 1.51819E-03
 -1       836 9.37811E-02-3.07884E-04 1.36023E-03
 -1       837 9.58550E-02-2.71283E-04 1.19847E-03
 -1       838 9.76641E-02-2.33942E-04 1.03324E-03
 -1       839 9.92035E-02-1.95982E-04 8.64854E-04
 -1       840 1.00469E-01-1.57543E-04 6.93775E-04
 -1       841 1.01457E-01-1.18762E-04 5.21162E-04
 -1       842 1.02167E-01-7.86638E-05 3.49675E-04
 -1       843 1.02591E-01-3.85677E-05 1.83858E-04
 -1       844 4.67667E-03-6.85610E-04 1.25900E-03
 -1       845 1.02555E-02-7.57013E-04 2.65059E-03
 -1       846 1.55782E-02-7.53768E-04 3.13385E-03
 -1       847 2.08731E-02-7.60458E-04 3.19305E-03
 -1       848 2.61106E-02-7.49398E-04 3.10144E-03
 -1       849 3.12832E-02-7.35526E-04 3.00202E-03
 -1       850 3.63762E-02-7.21470E-04 2.92244E-03
 -1       851 4.13727E-02-7.06220E-04 2.85225E-03
 -1       852 4.62566E-02-6.89096E-04 2.78069E-03
 -1       853 5.10132E-02-6.69974E-04 2.70298E-03
 -1       854 5.56291E-02-6.48936E-04 2.61797E-03
 -1       855 6.00914E-02-6.26085E-04 2.52572E-03
 -1       856 6.43876E-02-6.01502E-04 2.42653E-03
 -1       857 6.85060E-02-5.75260E-04 2.32065E-03
 -1       858 7.24352E-02-5.47430E-04 2.20838E-03
 -1       859 7.61642E-02-5.18088E-04 2.09001E-03
 -1       860 7.96829E-02-4.87314E-04 1.96587E-03
 -1       861 8.29815E-02-4.55195E-04 1.83630E-03
 -1       862 8.60508E-02-4.21818E-04 1.70165E-03
 -1       863 8.88824E-02-3.87276E-04 1.56231E-03
 -1       864 9.14686E-02-3.51664E-04 1.41864E-03
 -1       865 9.38020E-02-3.15082E-04 1.27104E-03
 -1       866 9.58764E-02-2.77631E-04 1.11987E-03
 -1       867 9.76859E-02-2.39408E-04 9.65465E-04
 -1       868 9.92257E-02-2.00513E-04 8.08082E-04
 -1       869 1.00492E-01-1.61068E-04 6.48148E-04
 -1       870 1.01480E-01-1.21317E-04 4.86863E-04
 -1       871 1.02189E-01-8.06614E-05 3.26449E-04
 -1       872 1.02612E-01-4.03784E-05 1.73374E-04
 -1       873 1.02591E-01-3.85677E-05-1.83858E-04
 -1       874 1.02167E-01-7.86638E-05-3.49675E-04
 -1       875 1.01457E-01-1.18762E-04-5.21162E-04
 -1       876 1.00469E-01-1.57543E-04-6.93775E-04
 -1       877 9.92035E-02-1.95982E-04-8.64854E-04
 -1       878 9.76641E-02-2.33942E-04-1.03324E-03
 -1       879 9.58550E-02-2.71283E-04-1.19847E-03
 -1       880 9.37811E-02-3.07884E-04-1.36023E-03
 -1       881 9.14482E-02-3.43635E-04-1.51819E-03
 -1       882 8.88627E-02-3.78435E-04-1.67194E-03
 -1       883 8.60316E-02-4.12189E-04-1.82106E-03
 -1       884 8.29630E-02-4.44804E-04-1.96516E-03
 -1       885 7.96652E-02-4.76190E-04-2.10382E-03
 -1       886 7.61473E-02-5.06262E-04-2.23668E-03
 -1       887 7.24190E-02-5.34934E-04-2.36335E-03
 -1       888 6.84907E-02-5.62130E-04-2.48350E-03
 -1       889 6.43733E-02-5.87770E-04-2.59680E-03
 -1       890 6.00780E-02-6.11785E-04-2.70295E-03
 -1       891 5.56167E-02-6.34115E-04-2.80167E-03
 -1       892 5.10019E-02-6.54733E-04-2.89264E-03
 -1       893 4.62462E-02-6.73658E-04-2.97578E-03
 -1       894 4.13629E-02-6.90862E-04-3.05220E-03
 -1       895 3.63660E-02-7.05891E-04-3.12666E-03
 -1       896 3.12707E-02-7.17206E-04-3.20977E-03
 -1       897 2.60953E-02-7.22330E-04-3.31203E-03
 -1       898 2.08656E-02-7.20386E-04-3.40522E-03
 -1       899 1.56064E-02-7.25099E-04-3.34986E-03
 -1       900 1.03743E-02-8.26878E-04-2.85349E-03
 -1       901 4.92874E-03-8.75197E-04-1.53940E-03
 -1       902 4.67667E-03-6.85610E-04-1.25900E-03
 -1       903 1.02555E-02-7.57013E-04-2.65059E-03
 -1       904 1.55782E-02-7.53768E-04-3.13385E-03
 -1       905 2.08731E-02-7.60458E-04-3.19305E-03
 -1       906 2.61106E-02-7.49398E-04-3.10144E-03
 -1       907 3.12832E-02-7.35526E-04-3.00202E-03
 -1       908 3.63762E-02-7.21470E-04-2.92244E-03
 -1       909 4.13727E-02-7.06220E-04-2.85225E-03
 -1       910 4.62566E-02-6.89096E-04-2.78069E-03
 -1       911 5.10132E-02-6.69974E-04-2.70298E-03
 -1       912 5.56291E-02-6.48936E-04-2.61797E-03
 -1       913 6.00914E-02-6.26085E-04-2.52572E-03
 -1       914 6.43876E-02-6.01502E-04-2.42653E-03
 -1       915 6.85060E-02-5.75260E-04-2.32065E-03
 -1       916 7.24352E-02-5.47430E-04-2.20838E-03
 -1       917 7.61642E-02-5.18088E-04-2.09001E-03
 -1       918 7.96829E-02-4.87314E-04-1.96587E-03
 -1       919 8.29815E-02-4.55195E-04-1.83630E-03
 -1       920 8.60508E-02-4.21818E-04-1.70165E-03
 -1       921 8.88824E-02-3.87276E-04-1.56231E-03
 -1       922 9.14686E-02-3.51664E-04-1.41864E-03
 -1       923 9.38020E-02-3.15082E-04-1.27104E-03
 -1       924 9.58764E-02-2.77631E-04-1.11987E-03
 -1       925 9.76859E-02-2.39408E-04-9.65465E-04
 -1       926 9.92257E-02-2.00513E-04-8.08082E-04
 -1       927 1.00492E-01-1.61068E-04-6.48148E-04
 -1       928 1.01480E-01-1.21317E-04-4.86863E-04
 -1       929 1.02189E-01-8.06614E-05-3.26449E-04
 -1       930 1.02612E-01-4.03784E-05-1.73374E-04
 -3
    1PSTEP                        34           1           1          
    1PGM                1.000000E+00                                  
    1PGK                7.388285E+06                                  
    1PHID                         -1                                  
    1PSUBC                         0                                  
    1PMODE                         9                                  
  100CL  109 432.6054182         930                     2    9MODAL      1
 -4  STRESS      6    1
 -5  SXX         1    4    1    1
 -5  SYY         1    4    2    2
 -5  SZZ         1    4    3    3
 -5  SXY         1    4    1    2
 -5  SYZ         1    4    2    3
 -5  SZX         1    4    3    1
 -1         1 1.33835E+10 5.73588E+09 5.73587E+09 6.99295E+07-8.04062E+02 1.38586E+09
 -1         2 1.33835E+10 5.73588E+09 5.73587E+09-6.99295E+07 8.04062E+02 1.38586E+09
 -1         3 3.61856E+08 7.64326E+07 7.61188E+07 3.19756E+06 2.52952E+06-5.43450E+06
 -1         4 3.61856E+08 7.64326E+07 7.61188E+07-3.19756E+06-2.52952E+06-5.43450E+06
 -1         5 1.33835E+10 5.73588E+09 5.73587E+09 6.99295E+07 8.04062E+02-1.38586E+09
 -1         6 1.33835E+10 5.73588E+09 5.73587E+09-6.99295E+07-8.04062E+02-1.38586E+09
 -1         7 3.61856E+08 7.64326E+07 7.61188E+07 3.19756E+06-2.52952E+06 5.43450E+06
 -1         8 3.61856E+08 7.64326E+07 7.61188E+07-3.19756E+06 2.52952E+06 5.43450E+06
 -1         9 1.40720E+10 6.03096E+09 6.03097E+09 7.70295E+07-1.28389E+03 1.59822E+09
 -1        10 3.63227E+08 7.57938E+07 6.98974E+07 6.41332E+06 3.62452E+06-4.37223E+06
 -1        11 1.45336E+10 6.22877E+09 6.22877E+09 1.31963E+09 3.03542E+01 7.48817E+08
 -1        12 1.39717E+10 5.98798E+09 5.98799E+09 1.16415E+09-5.61578E+01 5.32794E+08
 -1        13 3.71723E+08 7.47581E+07 7.06588E+07-6.84702E+06 3.24679E+05-3.26662E+06
 -1        14 3.71174E+08 7.40356E+07 7.02774E+07-1.24870E+07 3.69619E+05 2.25938E+06
 -1        15 1.40720E+10 6.03096E+09 6.03097E+09 7.70295E+07 1.28389E+03-1.59822E+09
 -1        16 3.63227E+08 7.57938E+07 6.98974E+07 6.41332E+06-3.62452E+06 4.37223E+06
 -1        17 1.39717E+10 5.98798E+09 5.98799E+09 1.16415E+09 5.61578E+01-5.32794E+08
 -1        18 1.45336E+10 6.22877E+09 6.22877E+09 1.31963E+09-3.03542E+01-7.48817E+08
 -1        19 3.71174E+08 7.40356E+07 7.02774E+07-1.24870E+07-3.69619E+05-2.25938E+06
 -1        20 3.71723E+08 7.47581E+07 7.06588E+07-6.84702E+06-3.24679E+05 3.26662E+06
 -1        21 1.39717E+10 5.98798E+09 5.98799E+09-1.16415E+09 5.61578E+01 5.32794E+08
 -1        22 1.45336E+10 6.22877E+09 6.22877E+09-1.31963E+09-3.03542E+01 7.48817E+08
 -1        23 3.71723E+08 7.47581E+07 7.06588E+07 6.84702E+06-3.24679E+05-3.26662E+06
 -1        24 3.71174E+08 7.40356E+07 7.02774E+07 1.24870E+07-3.69619E+05 2.25938E+06
 -1        25 1.40720E+10 6.03096E+09 6.03097E+09-7.70295E+07 1.28389E+03 1.59822E+09
 -1        26 3.63227E+08 7.57938E+07 6.98974E+07-6.41332E+06-3.62452E+06-4.37223E+06
 -1        27 1.40720E+10 6.03096E+09 6.03097E+09-7.70295E+07-1.28389E+03-1.59822E+09
 -1        28 1.45336E+10 6.22877E+09 6.22877E+09-1.31963E+09 3.03542E+01-7.48817E+08
 -1        29 1.39717E+10 5.98798E+09 5.98799E+09-1.16415E+09-5.61578E+01-5.32794E+08
 -1        30 3.63227E+08 7.57938E+07 6.98974E+07-6.41332E+06 3.62452E+06 4.37223E+06
 -1        31 3.71723E+08 7.47581E+07 7.06588E+07 6.84702E+06 3.24679E+05 3.26662E+06
 -1        32 3.71174E+08 7.40356E+07 7.02774E+07 1.24870E+07 3.69619E+05-2.25938E+06
 -1        33 1.03189E+10-8.87647E+08-6.19318E+08-6.28760E+07-2.55618E+08 9.80124E+07
 -1        34 1.16148E+10 3.40195E+08 4.22359E+08 5.22828E+06-2.86762E+07 1.61523E+08
 -1        35 1.10756E+10-7.39827E+07-1.08679E+08-1.13852E+06 1.92484E+07-2.18299E+07
 -1        36 1.09998E+10-6.82216E+07-9.01029E+07 9.32294E+06 3.23534E+07-3.04083E+07
 -1        37 1.08973E+10-6.38167E+07-8.30307E+07 6.99078E+06 2.28213E+07-2.73244E+07
 -1        38 1.07614E+10-4.13572E+07-5.47419E+07 2.84829E+06 1.56826E+07-1.77030E+07
 -1        39 1.05756E+10-3.63147E+07-4.53026E+07 3.67223E+05 1.32359E+07-1.01145E+07
 -1        40 1.03542E+10-3.50567E+07-4.15878E+07-7.74610E+05 1.28343E+07-5.87889E+06
 -1        41 1.01012E+10-3.48893E+07-4.03424E+07-1.22887E+06 1.27785E+07-4.24061E+06
 -1        42 9.81977E+09-3.42771E+07-3.92870E+07-1.43745E+06 1.25658E+07-3.87774E+06
 -1        43 9.51114E+09-3.32930E+07-3.80742E+07-1.58222E+06 1.22061E+07-4.00281E+06
 -1        44 9.17625E+09-3.21157E+07-3.67141E+07-1.71288E+06 1.17741E+07-4.26999E+06
 -1        45 8.81601E+09-3.08412E+07-3.52562E+07-1.83738E+06 1.13066E+07-4.56274E+06
 -1        46 8.43140E+09-2.94908E+07-3.37121E+07-1.95582E+06 1.08115E+07-4.85126E+06
 -1        47 8.02350E+09-2.80640E+07-3.20808E+07-2.06816E+06 1.02885E+07-5.12870E+06
 -1        48 7.59344E+09-2.65606E+07-3.03621E+07-2.17451E+06 9.73740E+06-5.39283E+06
 -1        49 7.14241E+09-2.49834E+07-2.85593E+07-2.27485E+06 9.15919E+06-5.64230E+06
 -1        50 6.67164E+09-2.33368E+07-2.66770E+07-2.36894E+06 8.55551E+06-5.87622E+06
 -1        51 6.18245E+09-2.16255E+07-2.47207E+07-2.45649E+06 7.92816E+06-6.09419E+06
 -1        52 5.67617E+09-1.98551E+07-2.26962E+07-2.53715E+06 7.27911E+06-6.29670E+06
 -1        53 5.15422E+09-1.80316E+07-2.06086E+07-2.61023E+06 6.61072E+06-6.48644E+06
 -1        54 4.61804E+09-1.61622E+07-1.84618E+07-2.67399E+06 5.92519E+06-6.67087E+06
 -1        55 4.06912E+09-1.42410E+07-1.62422E+07-2.72418E+06 5.22226E+06-6.86631E+06
 -1        56 3.50901E+09-1.22731E+07-1.39439E+07-2.75268E+06 4.49224E+06-7.09439E+06
 -1        57 2.93944E+09-1.00891E+07-1.13836E+07-2.74788E+06 3.71898E+06-7.37961E+06
 -1        58 2.36184E+09-8.15234E+06-9.02300E+06-2.71538E+06 2.88038E+06-7.66228E+06
 -1        59 1.77849E+09-5.33279E+06-5.51659E+06-2.77902E+06 2.18762E+06-8.09923E+06
 -1        60 1.18274E+09-8.27313E+06-9.84752E+06-2.43882E+06 1.10972E+06-6.86335E+06
 -1        61 6.13144E+08 1.87282E+07 1.72053E+07-2.81688E+06 2.90883E+06-5.00471E+06
 -1        62 1.03189E+10-8.87647E+08-6.19318E+08 6.28760E+07 2.55618E+08 9.80124E+07
 -1        63 1.16148E+10 3.40195E+08 4.22359E+08-5.22828E+06 2.86762E+07 1.61523E+08
 -1        64 1.10756E+10-7.39827E+07-1.08679E+08 1.13852E+06-1.92484E+07-2.18299E+07
 -1        65 1.09998E+10-6.82216E+07-9.01029E+07-9.32294E+06-3.23534E+07-3.04083E+07
 -1        66 1.08973E+10-6.38167E+07-8.30307E+07-6.99078E+06-2.28213E+07-2.73244E+07
 -1        67 1.07614E+10-4.13572E+07-5.47419E+07-2.84829E+06-1.56826E+07-1.77030E+07
 -1        68 1.05756E+10-3.63147E+07-4.53026E+07-3.67223E+05-1.32359E+07-1.01145E+07
 -1        69 1.03542E+10-3.50567E+07-4.15878E+07 7.74610E+05-1.28343E+07-5.87889E+06
 -1        70 1.01012E+10-3.48893E+07-4.03424E+07 1.22887E+06-1.27785E+07-4.24061E+06
 -1        71 9.81977E+09-3.42771E+07-3.92870E+07 1.43745E+06-1.25658E+07-3.87774E+06
 -1        72 9.51114E+09-3.32930E+07-3.80742E+07 1.58222E+06-1.22061E+07-4.00281E+06
 -1        73 9.17625E+09-3.21157E+07-3.67141E+07 1.71288E+06-1.17741E+07-4.26999E+06
 -1        74 8.81601E+09-3.08412E+07-3.52562E+07 1.83738E+06-1.13066E+07-4.56274E+06
 -1        75 8.43140E+09-2.94908E+07-3.37121E+07 1.95582E+06-1.08115E+07-4.85126E+06
 -1        76 8.02350E+09-2.80640E+07-3.20808E+07 2.06816E+06-1.02885E+07-5.12870E+06
 -1        77 7.59344E+09-2.65606E+07-3.03621E+07 2.17451E+06-9.73740E+06-5.39283E+06
 -1        78 7.14241E+09-2.49834E+07-2.85593E+07 2.27485E+06-9.15919E+06-5.64230E+06
 -1        79 6.67164E+09-2.33368E+07-2.66770E+07 2.36894E+06-8.55551E+06-5.87622E+06
 -1        80 6.18245E+09-2.16255E+07-2.47207E+07 2.45649E+06-7.92816E+06-6.09419E+06
 -1        81 5.67617E+09-1.98551E+07-2.26962E+07 2.53715E+06-7.27911E+06-6.29670E+06
 -1        82 5.15422E+09-1.80316E+07-2.06086E+07 2.61023E+06-6.61072E+06-6.48644E+06
 -1        83 4.61804E+09-1.61622E+07-1.84618E+07 2.67399E+06-5.92519E+06-6.67087E+06
 -1        84 4.06912E+09-1.42410E+07-1.62422E+07 2.72418E+06-5.22226E+06-6.86631E+06
 -1        85 3.50901E+09-1.22731E+07-1.39439E+07 2.75268E+06-4.49224E+06-7.09439E+06
 -1        86 2.93944E+09-1.00891E+07-1.13836E+07 2.74788E+06-3.71898E+06-7.37961E+06
 -1        87 2.36184E+09-8.15234E+06-9.02300E+06 2.71538E+06-2.88038E+06-7.66228E+06
 -1        88 1.77849E+09-5.33279E+06-5.51659E+06 2.77902E+06-2.18762E+06-8.09923E+06
 -1        89 1.18274E+09-8.27313E+06-9.84752E+06 2.43882E+06-1.10972E+06-6.86335E+06
 -1        90 6.13144E+08 1.87282E+07 1.72053E+07 2.81688E+06-2.90883E+06-5.00471E+06
 -1        91 1.28411E+10 5.50341E+09 5.50338E+09 8.01139E+07 1.51993E+01 6.08764E+08
 -1        92 1.27337E+10 5.45740E+09 5.45736E+09 7.79263E+07 1.23473E-08-1.95240E-01
 -1        93 1.28411E+10 5.50341E+09 5.50338E+09 8.01139E+07-1.51993E+01-6.08764E+08
 -1        94 1.28411E+10 5.50341E+09 5.50338E+09-8.01139E+07 1.51993E+01-6.08764E+08
 -1        95 1.27337E+10 5.45740E+09 5.45736E+09-7.79263E+07 1.56724E-08-2.02351E-01
 -1        96 1.28411E+10 5.50341E+09 5.50338E+09-8.01139E+07-1.51993E+01 6.08764E+08
 -1        97 1.03189E+10-8.87647E+08-6.19318E+08 6.28760E+07-2.55618E+08-9.80124E+07
 -1        98 1.16148E+10 3.40195E+08 4.22359E+08-5.22828E+06-2.86762E+07-1.61523E+08
 -1        99 1.10756E+10-7.39827E+07-1.08679E+08 1.13852E+06 1.92484E+07 2.18299E+07
 -1       100 1.09998E+10-6.82216E+07-9.01029E+07-9.32294E+06 3.23534E+07 3.04083E+07
 -1       101 1.08973E+10-6.38167E+07-8.30307E+07-6.99078E+06 2.28213E+07 2.73244E+07
 -1       102 1.07614E+10-4.13572E+07-5.47419E+07-2.84829E+06 1.56826E+07 1.77030E+07
 -1       103 1.05756E+10-3.63147E+07-4.53026E+07-3.67223E+05 1.32359E+07 1.01145E+07
 -1       104 1.03542E+10-3.50567E+07-4.15878E+07 7.74610E+05 1.28343E+07 5.87889E+06
 -1       105 1.01012E+10-3.48893E+07-4.03424E+07 1.22887E+06 1.27785E+07 4.24061E+06
 -1       106 9.81977E+09-3.42771E+07-3.92870E+07 1.43745E+06 1.25658E+07 3.87774E+06
 -1       107 9.51114E+09-3.32930E+07-3.80742E+07 1.58222E+06 1.22061E+07 4.00281E+06
 -1       108 9.17625E+09-3.21157E+07-3.67141E+07 1.71288E+06 1.17741E+07 4.26999E+06
 -1       109 8.81601E+09-3.08412E+07-3.52562E+07 1.83738E+06 1.13066E+07 4.56274E+06
 -1       110 8.43140E+09-2.94908E+07-3.37121E+07 1.95582E+06 1.08115E+07 4.85126E+06
 -1       111 8.02350E+09-2.80640E+07-3.20808E+07 2.06816E+06 1.02885E+07 5.12870E+06
 -1       112 7.59344E+09-2.65606E+07-3.03621E+07 2.17451E+06 9.73740E+06 5.39283E+06
 -1       113 7.14241E+09-2.49834E+07-2.85593E+07 2.27485E+06 9.15919E+06 5.64230E+06
 -1       114 6.67164E+09-2.33368E+07-2.66770E+07 2.36894E+06 8.55551E+06 5.87622E+06
 -1       115 6.18245E+09-2.16255E+07-2.47207E+07 2.45649E+06 7.92816E+06 6.09419E+06
 -1       116 5.67617E+09-1.98551E+07-2.26962E+07 2.53715E+06 7.27911E+06 6.29670E+06
 -1       117 5.15422E+09-1.80316E+07-2.06086E+07 2.61023E+06 6.61072E+06 6.48644E+06
 -1       118 4.61804E+09-1.61622E+07-1.84618E+07 2.67399E+06 5.92519E+06 6.67087E+06
 -1       119 4.06912E+09-1.42410E+07-1.62422E+07 2.72418E+06 5.22226E+06 6.86631E+06
 -1       120 3.50901E+09-1.22731E+07-1.39439E+07 2.75268E+06 4.49224E+06 7.09439E+06
 -1       121 2.93944E+09-1.00891E+07-1.13836E+07 2.74788E+06 3.71898E+06 7.37961E+06
 -1       122 2.36184E+09-8.15234E+06-9.02300E+06 2.71538E+06 2.88038E+06 7.66228E+06
 -1       123 1.77849E+09-5.33279E+06-5.51659E+06 2.77902E+06 2.18762E+06 8.09923E+06
 -1       124 1.18274E+09-8.27313E+06-9.84752E+06 2.43882E+06 1.10972E+06 6.86335E+06
 -1       125 6.13144E+08 1.87282E+07 1.72053E+07 2.81688E+06 2.90883E+06 5.00471E+06
 -1       126 3.64146E+08 6.67217E+07 9.39427E+07-1.38359E+06 1.22284E+05 2.84229E+06
 -1       127 3.67491E+08 6.81002E+07 1.02528E+08-1.35638E+06 2.21298E-02-1.68908E-03
 -1       128 3.64146E+08 6.67217E+07 9.39427E+07-1.38359E+06-1.22284E+05-2.84229E+06
 -1       129 1.03189E+10-8.87647E+08-6.19318E+08-6.28760E+07 2.55618E+08-9.80124E+07
 -1       130 1.16148E+10 3.40195E+08 4.22359E+08 5.22828E+06 2.86762E+07-1.61523E+08
 -1       131 1.10756E+10-7.39827E+07-1.08679E+08-1.13852E+06-1.92484E+07 2.18299E+07
 -1       132 1.09998E+10-6.82216E+07-9.01029E+07 9.32294E+06-3.23534E+07 3.04083E+07
 -1       133 1.08973E+10-6.38167E+07-8.30307E+07 6.99078E+06-2.28213E+07 2.73244E+07
 -1       134 1.07614E+10-4.13572E+07-5.47419E+07 2.84829E+06-1.56826E+07 1.77030E+07
 -1       135 1.05756E+10-3.63147E+07-4.53026E+07 3.67223E+05-1.32359E+07 1.01145E+07
 -1       136 1.03542E+10-3.50567E+07-4.15878E+07-7.74610E+05-1.28343E+07 5.87889E+06
 -1       137 1.01012E+10-3.48893E+07-4.03424E+07-1.22887E+06-1.27785E+07 4.24061E+06
 -1       138 9.81977E+09-3.42771E+07-3.92870E+07-1.43745E+06-1.25658E+07 3.87774E+06
 -1       139 9.51114E+09-3.32930E+07-3.80742E+07-1.58222E+06-1.22061E+07 4.00281E+06
 -1       140 9.17625E+09-3.21157E+07-3.67141E+07-1.71288E+06-1.17741E+07 4.26999E+06
 -1       141 8.81601E+09-3.08412E+07-3.52562E+07-1.83738E+06-1.13066E+07 4.56274E+06
 -1       142 8.43140E+09-2.94908E+07-3.37121E+07-1.95582E+06-1.08115E+07 4.85126E+06
 -1       143 8.02350E+09-2.80640E+07-3.20808E+07-2.06816E+06-1.02885E+07 5.12870E+06
 -1       144 7.59344E+09-2.65606E+07-3.03621E+07-2.17451E+06-9.73740E+06 5.39283E+06
 -1       145 7.14241E+09-2.49834E+07-2.85593E+07-2.27485E+06-9.15919E+06 5.64230E+06
 -1       146 6.67164E+09-2.33368E+07-2.66770E+07-2.36894E+06-8.55551E+06 5.87622E+06
 -1       147 6.18245E+09-2.16255E+07-2.47207E+07-2.45649E+06-7.92816E+06 6.09419E+06
 -1       148 5.67617E+09-1.98551E+07-2.26962E+07-2.53715E+06-7.27911E+06 6.29670E+06
 -1       149 5.15422E+09-1.80316E+07-2.06086E+07-2.61023E+06-6.61072E+06 6.48644E+06
 -1       150 4.61804E+09-1.61622E+07-1.84618E+07-2.67399E+06-5.92519E+06 6.67087E+06
 -1       151 4.06912E+09-1.42410E+07-1.62422E+07-2.72418E+06-5.22226E+06 6.86631E+06
 -1       152 3.50901E+09-1.22731E+07-1.39439E+07-2.75268E+06-4.49224E+06 7.09439E+06
 -1       153 2.93944E+09-1.00891E+07-1.13836E+07-2.74788E+06-3.71898E+06 7.37961E+06
 -1       154 2.36184E+09-8.15234E+06-9.02300E+06-2.71538E+06-2.88038E+06 7.66228E+06
 -1       155 1.77849E+09-5.33279E+06-5.51659E+06-2.77902E+06-2.18762E+06 8.09923E+06
 -1       156 1.18274E+09-8.27313E+06-9.84752E+06-2.43882E+06-1.10972E+06 6.86335E+06
 -1       157 6.13144E+08 1.87282E+07 1.72053E+07-2.81688E+06-2.90883E+06 5.00471E+06
 -1       158 3.64146E+08 6.67217E+07 9.39427E+07 1.38359E+06 1.22284E+05-2.84229E+06
 -1       159 3.67491E+08 6.81002E+07 1.02528E+08 1.35638E+06 2.15949E-02 4.97664E-02
 -1       160 3.64146E+08 6.67217E+07 9.39427E+07 1.38359E+06-1.22284E+05 2.84229E+06
 -1       161 9.79455E+09-1.80967E+09-1.69424E+09 7.87713E+07 3.61493E+08-2.51868E+08
 -1       162 1.10414E+10-4.48315E+08 7.87053E+07-5.47298E+07 3.84591E+07 1.03056E+08
 -1       163 1.10837E+10 1.34582E+08-3.14355E+07-1.35400E+07-2.74506E+07 9.68093E+06
 -1       164 1.11022E+10 2.19328E+08 7.05526E+07-8.61244E+06-4.68714E+07 2.14012E+06
 -1       165 1.09837E+10 1.35014E+08 3.22265E+07-3.52136E+06-3.23260E+07-2.74486E+06
 -1       166 1.08266E+10 9.41882E+07 2.68717E+07-9.61529E+05-2.22102E+07-4.61730E+06
 -1       167 1.06314E+10 8.04877E+07 2.21517E+07 6.47988E+05-1.87067E+07-4.15235E+06
 -1       168 1.04072E+10 8.04221E+07 2.23729E+07 1.78669E+06-1.81641E+07-3.09850E+06
 -1       169 1.01532E+10 8.13096E+07 2.25626E+07 2.52632E+06-1.81005E+07-2.49184E+06
 -1       170 9.87065E+09 8.04601E+07 2.23215E+07 3.00618E+06-1.78059E+07-2.32952E+06
 -1       171 9.56048E+09 7.82862E+07 2.17048E+07 3.34843E+06-1.72979E+07-2.40304E+06
 -1       172 9.22382E+09 7.55383E+07 2.09376E+07 3.63352E+06-1.66860E+07-2.56374E+06
 -1       173 8.86169E+09 7.25393E+07 2.01037E+07 3.89536E+06-1.60235E+07-2.74156E+06
 -1       174 8.47508E+09 6.93627E+07 1.92224E+07 4.14425E+06-1.53218E+07-2.91602E+06
 -1       175 8.06507E+09 6.60077E+07 1.82924E+07 4.38173E+06-1.45807E+07-3.08281E+06
 -1       176 7.63278E+09 6.24722E+07 1.73125E+07 4.60722E+06-1.37997E+07-3.24127E+06
 -1       177 7.17941E+09 5.87626E+07 1.62845E+07 4.82002E+06-1.29803E+07-3.39097E+06
 -1       178 6.70620E+09 5.48895E+07 1.52111E+07 5.01950E+06-1.21247E+07-3.53143E+06
 -1       179 6.21447E+09 5.08648E+07 1.40957E+07 5.20501E+06-1.12357E+07-3.66237E+06
 -1       180 5.70558E+09 4.67018E+07 1.29419E+07 5.37575E+06-1.03159E+07-3.78399E+06
 -1       181 5.18092E+09 4.24180E+07 1.17547E+07 5.53042E+06-9.36867E+06-3.89739E+06
 -1       182 4.64196E+09 3.80317E+07 1.05380E+07 5.66704E+06-8.39729E+06-4.00494E+06
 -1       183 4.09019E+09 3.35488E+07 9.29906E+06 5.78230E+06-7.40144E+06-4.10972E+06
 -1       184 3.52713E+09 2.89081E+07 7.99614E+06 5.87169E+06-6.36674E+06-4.21022E+06
 -1       185 2.95446E+09 2.40555E+07 6.73727E+06 5.92438E+06-5.27228E+06-4.29609E+06
 -1       186 2.37370E+09 1.86049E+07 4.98526E+06 5.92938E+06-4.07391E+06-4.33804E+06
 -1       187 1.78737E+09 1.35245E+07 4.76669E+06 5.95453E+06-3.09962E+06-4.40695E+06
 -1       188 1.19328E+09 1.16252E+07-1.10116E+06 5.42723E+06-1.54974E+06-3.60779E+06
 -1       189 6.22127E+08 2.54223E+07 2.89398E+07 5.88841E+06-4.13436E+06-3.13955E+06
 -1       190 1.39327E+10 5.97124E+09 5.97125E+09 7.06867E+08-3.06284E+03 1.24334E+09
 -1       191 1.32201E+10 5.66585E+09 5.66586E+09 5.53739E+08-3.04766E+03 1.01687E+09
 -1       192 3.61481E+08 7.27382E+07 6.73513E+07 3.64494E+06-1.17810E+06-4.75463E+06
 -1       193 1.01233E+10-1.11868E+09-1.45896E+09 2.13888E+08 2.44449E+06-1.53158E+08
 -1       194 1.10801E+10 5.12329E+06 2.88107E+08-1.01168E+08-2.25881E+07-1.18080E+08
 -1       195 1.09369E+10-8.27010E+07-1.67457E+08-5.97495E+07 1.34756E+07 8.13975E+07
 -1       196 1.10119E+10 1.45453E+07 1.12849E+07-5.56060E+06 1.52816E+07 5.18389E+07
 -1       197 1.09168E+10 3.24972E+06-6.26076E+06 1.79422E+06 7.45268E+06 9.13216E+06
 -1       198 1.07821E+10 5.25849E+06 1.98997E+06-2.39462E+06 4.83243E+06-4.11347E+06
 -1       199 1.05937E+10 2.86161E+06-5.70963E+05-5.35457E+06 4.05806E+06-5.24613E+06
 -1       200 1.03709E+10 2.45220E+06-1.16664E+06-6.41488E+06 4.19937E+06-3.48753E+06
 -1       201 1.01179E+10 2.48487E+06-1.43625E+06-6.69526E+06 4.30596E+06-2.46853E+06
 -1       202 9.83645E+09 2.60816E+06-1.34426E+06-7.01657E+06 4.27431E+06-2.31829E+06
 -1       203 9.52754E+09 2.61889E+06-1.24599E+06-7.49848E+06 4.15819E+06-2.50411E+06
 -1       204 9.19215E+09 2.55373E+06-1.17600E+06-8.06393E+06 4.01049E+06-2.74072E+06
 -1       205 8.83129E+09 2.45599E+06-1.12512E+06-8.63959E+06 3.85083E+06-2.95303E+06
 -1       206 8.44602E+09 2.34722E+06-1.07704E+06-9.19527E+06 3.68232E+06-3.14338E+06
 -1       207 8.03741E+09 2.23283E+06-1.02602E+06-9.72378E+06 3.50437E+06-3.32163E+06
 -1       208 7.60660E+09 2.11306E+06-9.71363E+05-1.02244E+07 3.31673E+06-3.49139E+06
 -1       209 7.15478E+09 1.98763E+06-9.13671E+05-1.06965E+07 3.11980E+06-3.65238E+06
 -1       210 6.68320E+09 1.85669E+06-8.53378E+05-1.11393E+07 2.91417E+06-3.80356E+06
 -1       211 6.19316E+09 1.72075E+06-7.90611E+05-1.15515E+07 2.70048E+06-3.94415E+06
 -1       212 5.68601E+09 1.58058E+06-7.25421E+05-1.19327E+07 2.47947E+06-4.07412E+06
 -1       213 5.16316E+09 1.43716E+06-6.57883E+05-1.22825E+07 2.25211E+06-4.19493E+06
 -1       214 4.62605E+09 1.29010E+06-5.90729E+05-1.26007E+07 2.01966E+06-4.31061E+06
 -1       215 4.07619E+09 1.13969E+06-5.21510E+05-1.28828E+07 1.78274E+06-4.42377E+06
 -1       216 3.51512E+09 9.71464E+05-4.74610E+05-1.31217E+07 1.53703E+06-4.51672E+06
 -1       217 2.94460E+09 8.53699E+05-3.15758E+05-1.33152E+07 1.27557E+06-4.54258E+06
 -1       218 2.36585E+09 4.44891E+05-6.27612E+05-1.35162E+07 9.76649E+05-4.35731E+06
 -1       219 1.78248E+09 1.35115E+06 1.63441E+06-1.39452E+07 6.57982E+05-3.96787E+06
 -1       220 1.19238E+09-8.08024E+05-4.32756E+06-1.44683E+07 6.62222E+05-4.87742E+06
 -1       221 6.28597E+08 2.34879E+07 2.59160E+07-1.03184E+07-5.27401E+05-4.64437E+06
 -1       222 9.86164E+09-1.21518E+09-1.56640E+09 7.51627E+07-2.19469E+07-2.32017E+08
 -1       223 1.13562E+10 2.56762E+08 4.46436E+08 1.27851E+08-3.69704E+07-9.89565E+07
 -1       224 1.11979E+10-2.08983E+07-7.06197E+07 4.45357E+07 2.11778E+07 7.46689E+07
 -1       225 1.10917E+10 4.33955E+06 3.21831E+07-1.71991E+07 1.48371E+07 5.55109E+07
 -1       226 1.09065E+10-2.68875E+07-1.83748E+07-1.81547E+07 8.24632E+06 1.07529E+07
 -1       227 1.07596E+10-2.11915E+07-1.26788E+07-1.19271E+07 5.14853E+06-1.44610E+06
 -1       228 1.05792E+10-1.74128E+07-1.09923E+07-7.30989E+06 4.40981E+06-2.10391E+06
 -1       229 1.03633E+10-1.50450E+07-8.69752E+06-6.23939E+06 4.54848E+06 1.98596E+05
 -1       230 1.01130E+10-1.41044E+07-7.89218E+06-6.74792E+06 4.66621E+06 1.68846E+06
 -1       231 9.83208E+09-1.36015E+07-7.51900E+06-7.58416E+06 4.63051E+06 2.28358E+06
 -1       232 9.52322E+09-1.31758E+07-7.28109E+06-8.35925E+06 4.50449E+06 2.51899E+06
 -1       233 9.18790E+09-1.27141E+07-7.03070E+06-9.04973E+06 4.34446E+06 2.68662E+06
 -1       234 8.82719E+09-1.22118E+07-6.75456E+06-9.69357E+06 4.17152E+06 2.86257E+06
 -1       235 8.44210E+09-1.16759E+07-6.45758E+06-1.03095E+07 3.98898E+06 3.04426E+06
 -1       236 8.03369E+09-1.11098E+07-6.14381E+06-1.08996E+07 3.79621E+06 3.22090E+06
 -1       237 7.60309E+09-1.05141E+07-5.81413E+06-1.14609E+07 3.59295E+06 3.38797E+06
 -1       238 7.15148E+09-9.88964E+06-5.46880E+06-1.19907E+07 3.37961E+06 3.54479E+06
 -1       239 6.68011E+09-9.23786E+06-5.10840E+06-1.24872E+07 3.15686E+06 3.69154E+06
 -1       240 6.19030E+09-8.56047E+06-4.73383E+06-1.29490E+07 2.92537E+06 3.82816E+06
 -1       241 5.68338E+09-7.85928E+06-4.34604E+06-1.33747E+07 2.68595E+06 3.95392E+06
 -1       242 5.16078E+09-7.13538E+06-3.94499E+06-1.37630E+07 2.43965E+06 4.06654E+06
 -1       243 4.62394E+09-6.38827E+06-3.52995E+06-1.41151E+07 2.18784E+06 4.16134E+06
 -1       244 4.07438E+09-5.61079E+06-3.09060E+06-1.44385E+07 1.93111E+06 4.23446E+06
 -1       245 3.51366E+09-4.80299E+06-2.64725E+06-1.47505E+07 1.66549E+06 4.30451E+06
 -1       246 2.94342E+09-3.91657E+06-2.09966E+06-1.50491E+07 1.38106E+06 4.40893E+06
 -1       247 2.36453E+09-3.42440E+06-2.18481E+06-1.53475E+07 1.07219E+06 4.74085E+06
 -1       248 1.78020E+09-1.79835E+06 5.50011E+03-1.52818E+07 6.59118E+05 5.08568E+06
 -1       249 1.18905E+09-4.62672E+06-6.47286E+06-1.49343E+07 7.25494E+05 4.56786E+06
 -1       250 6.27365E+08 2.27829E+07 2.53347E+07-1.32017E+07 2.74801E+05 3.10571E+06
 -1       251 3.60542E+08 7.60588E+07 6.80658E+07-1.35036E+06-1.08863E+06 4.46881E+05
 -1       252 6.22127E+08 2.54223E+07 2.89398E+07 5.88841E+06 4.13436E+06 3.13955E+06
 -1       253 1.19328E+09 1.16252E+07-1.10116E+06 5.42723E+06 1.54974E+06 3.60779E+06
 -1       254 1.78737E+09 1.35245E+07 4.76669E+06 5.95453E+06 3.09962E+06 4.40695E+06
 -1       255 2.37370E+09 1.86049E+07 4.98526E+06 5.92938E+06 4.07392E+06 4.33804E+06
 -1       256 2.95446E+09 2.40555E+07 6.73727E+06 5.92437E+06 5.27228E+06 4.29609E+06
 -1       257 3.52713E+09 2.89081E+07 7.99614E+06 5.87169E+06 6.36674E+06 4.21022E+06
 -1       258 4.09019E+09 3.35488E+07 9.29906E+06 5.78230E+06 7.40144E+06 4.10972E+06
 -1       259 4.64196E+09 3.80317E+07 1.05380E+07 5.66704E+06 8.39729E+06 4.00494E+06
 -1       260 5.18092E+09 4.24180E+07 1.17547E+07 5.53042E+06 9.36867E+06 3.89739E+06
 -1       261 5.70558E+09 4.67018E+07 1.29419E+07 5.37575E+06 1.03159E+07 3.78399E+06
 -1       262 6.21447E+09 5.08648E+07 1.40957E+07 5.20501E+06 1.12357E+07 3.66237E+06
 -1       263 6.70620E+09 5.48895E+07 1.52111E+07 5.01950E+06 1.21247E+07 3.53143E+06
 -1       264 7.17941E+09 5.87626E+07 1.62845E+07 4.82002E+06 1.29803E+07 3.39097E+06
 -1       265 7.63278E+09 6.24722E+07 1.73125E+07 4.60722E+06 1.37997E+07 3.24127E+06
 -1       266 8.06507E+09 6.60077E+07 1.82924E+07 4.38173E+06 1.45807E+07 3.08281E+06
 -1       267 8.47508E+09 6.93627E+07 1.92224E+07 4.14425E+06 1.53218E+07 2.91602E+06
 -1       268 8.86169E+09 7.25393E+07 2.01037E+07 3.89536E+06 1.60235E+07 2.74156E+06
 -1       269 9.22382E+09 7.55383E+07 2.09376E+07 3.63352E+06 1.66860E+07 2.56374E+06
 -1       270 9.56048E+09 7.82862E+07 2.17048E+07 3.34843E+06 1.72979E+07 2.40304E+06
 -1       271 9.87065E+09 8.04601E+07 2.23215E+07 3.00618E+06 1.78059E+07 2.32952E+06
 -1       272 1.01532E+10 8.13096E+07 2.25626E+07 2.52632E+06 1.81005E+07 2.49184E+06
 -1       273 1.04072E+10 8.04221E+07 2.23729E+07 1.78669E+06 1.81641E+07 3.09850E+06
 -1       274 1.06314E+10 8.04877E+07 2.21517E+07 6.47988E+05 1.87067E+07 4.15235E+06
 -1       275 1.08266E+10 9.41882E+07 2.68717E+07-9.61529E+05 2.22102E+07 4.61730E+06
 -1       276 1.09837E+10 1.35014E+08 3.22265E+07-3.52136E+06 3.23260E+07 2.74486E+06
 -1       277 1.11022E+10 2.19328E+08 7.05526E+07-8.61244E+06 4.68714E+07-2.14012E+06
 -1       278 1.10837E+10 1.34582E+08-3.14355E+07-1.35400E+07 2.74506E+07-9.68093E+06
 -1       279 1.10414E+10-4.48315E+08 7.87053E+07-5.47298E+07-3.84591E+07-1.03056E+08
 -1       280 9.79455E+09-1.80967E+09-1.69424E+09 7.87713E+07-3.61493E+08 2.51868E+08
 -1       281 1.32201E+10 5.66585E+09 5.66586E+09 5.53739E+08 3.04766E+03-1.01687E+09
 -1       282 1.39327E+10 5.97124E+09 5.97125E+09 7.06867E+08 3.06284E+03-1.24334E+09
 -1       283 9.86164E+09-1.21518E+09-1.56640E+09 7.51627E+07 2.19469E+07 2.32017E+08
 -1       284 1.13562E+10 2.56762E+08 4.46436E+08 1.27851E+08 3.69704E+07 9.89565E+07
 -1       285 1.11979E+10-2.08983E+07-7.06197E+07 4.45357E+07-2.11778E+07-7.46689E+07
 -1       286 1.10917E+10 4.33955E+06 3.21831E+07-1.71991E+07-1.48371E+07-5.55109E+07
 -1       287 1.09065E+10-2.68875E+07-1.83748E+07-1.81547E+07-8.24632E+06-1.07529E+07
 -1       288 1.07596E+10-2.11915E+07-1.26788E+07-1.19271E+07-5.14853E+06 1.44610E+06
 -1       289 1.05792E+10-1.74128E+07-1.09923E+07-7.30989E+06-4.40981E+06 2.10391E+06
 -1       290 1.03633E+10-1.50450E+07-8.69752E+06-6.23938E+06-4.54848E+06-1.98596E+05
 -1       291 1.01130E+10-1.41044E+07-7.89218E+06-6.74792E+06-4.66621E+06-1.68846E+06
 -1       292 9.83208E+09-1.36015E+07-7.51900E+06-7.58416E+06-4.63051E+06-2.28358E+06
 -1       293 9.52322E+09-1.31758E+07-7.28109E+06-8.35925E+06-4.50449E+06-2.51899E+06
 -1       294 9.18790E+09-1.27141E+07-7.03070E+06-9.04973E+06-4.34446E+06-2.68662E+06
 -1       295 8.82719E+09-1.22118E+07-6.75456E+06-9.69357E+06-4.17152E+06-2.86257E+06
 -1       296 8.44210E+09-1.16759E+07-6.45758E+06-1.03095E+07-3.98898E+06-3.04426E+06
 -1       297 8.03369E+09-1.11098E+07-6.14381E+06-1.08996E+07-3.79621E+06-3.22090E+06
 -1       298 7.60309E+09-1.05141E+07-5.81413E+06-1.14609E+07-3.59295E+06-3.38797E+06
 -1       299 7.15148E+09-9.88964E+06-5.46880E+06-1.19907E+07-3.37961E+06-3.54479E+06
 -1       300 6.68011E+09-9.23786E+06-5.10840E+06-1.24872E+07-3.15686E+06-3.69154E+06
 -1       301 6.19030E+09-8.56047E+06-4.73383E+06-1.29490E+07-2.92537E+06-3.82816E+06
 -1       302 5.68338E+09-7.85928E+06-4.34604E+06-1.33747E+07-2.68595E+06-3.95392E+06
 -1       303 5.16078E+09-7.13538E+06-3.94499E+06-1.37630E+07-2.43965E+06-4.06654E+06
 -1       304 4.62394E+09-6.38827E+06-3.52995E+06-1.41151E+07-2.18784E+06-4.16134E+06
 -1       305 4.07438E+09-5.61079E+06-3.09060E+06-1.44385E+07-1.93111E+06-4.23446E+06
 -1       306 3.51366E+09-4.80299E+06-2.64725E+06-1.47505E+07-1.66549E+06-4.30451E+06
 -1       307 2.94342E+09-3.91657E+06-2.09966E+06-1.50491E+07-1.38106E+06-4.40893E+06
 -1       308 2.36453E+09-3.42440E+06-2.18481E+06-1.53475E+07-1.07219E+06-4.74085E+06
 -1       309 1.78020E+09-1.79835E+06 5.50008E+03-1.52818E+07-6.59118E+05-5.08568E+06
 -1       310 1.18905E+09-4.62672E+06-6.47286E+06-1.49343E+07-7.25494E+05-4.56786E+06
 -1       311 6.27365E+08 2.27829E+07 2.53347E+07-1.32017E+07-2.74801E+05-3.10571E+06
 -1       312 3.60542E+08 7.60588E+07 6.80658E+07-1.35036E+06 1.08863E+06-4.46881E+05
 -1       313 1.01233E+10-1.11868E+09-1.45896E+09 2.13888E+08-2.44449E+06 1.53158E+08
 -1       314 1.10801E+10 5.12329E+06 2.88107E+08-1.01168E+08 2.25881E+07 1.18080E+08
 -1       315 1.09369E+10-8.27010E+07-1.67457E+08-5.97495E+07-1.34756E+07-8.13975E+07
 -1       316 1.10119E+10 1.45453E+07 1.12849E+07-5.56060E+06-1.52816E+07-5.18389E+07
 -1       317 1.09168E+10 3.24972E+06-6.26076E+06 1.79422E+06-7.45268E+06-9.13216E+06
 -1       318 1.07821E+10 5.25849E+06 1.98997E+06-2.39462E+06-4.83243E+06 4.11347E+06
 -1       319 1.05937E+10 2.86161E+06-5.70963E+05-5.35457E+06-4.05806E+06 5.24613E+06
 -1       320 1.03709E+10 2.45220E+06-1.16664E+06-6.41488E+06-4.19937E+06 3.48753E+06
 -1       321 1.01179E+10 2.48487E+06-1.43625E+06-6.69526E+06-4.30596E+06 2.46853E+06
 -1       322 9.83645E+09 2.60816E+06-1.34426E+06-7.01657E+06-4.27431E+06 2.31829E+06
 -1       323 9.52754E+09 2.61889E+06-1.24599E+06-7.49848E+06-4.15819E+06 2.50411E+06
 -1       324 9.19215E+09 2.55373E+06-1.17600E+06-8.06393E+06-4.01049E+06 2.74072E+06
 -1       325 8.83129E+09 2.45599E+06-1.12512E+06-8.63959E+06-3.85083E+06 2.95303E+06
 -1       326 8.44602E+09 2.34722E+06-1.07704E+06-9.19527E+06-3.68232E+06 3.14338E+06
 -1       327 8.03741E+09 2.23283E+06-1.02602E+06-9.72378E+06-3.50437E+06 3.32163E+06
 -1       328 7.60660E+09 2.11306E+06-9.71363E+05-1.02244E+07-3.31673E+06 3.49139E+06
 -1       329 7.15478E+09 1.98763E+06-9.13671E+05-1.06965E+07-3.11980E+06 3.65238E+06
 -1       330 6.68320E+09 1.85669E+06-8.53378E+05-1.11393E+07-2.91417E+06 3.80356E+06
 -1       331 6.19316E+09 1.72075E+06-7.90611E+05-1.15515E+07-2.70048E+06 3.94415E+06
 -1       332 5.68601E+09 1.58058E+06-7.25421E+05-1.19327E+07-2.47947E+06 4.07412E+06
 -1       333 5.16316E+09 1.43716E+06-6.57883E+05-1.22825E+07-2.25211E+06 4.19493E+06
 -1       334 4.62605E+09 1.29010E+06-5.90729E+05-1.26007E+07-2.01966E+06 4.31061E+06
 -1       335 4.07619E+09 1.13969E+06-5.21510E+05-1.28828E+07-1.78274E+06 4.42377E+06
 -1       336 3.51512E+09 9.71464E+05-4.74610E+05-1.31217E+07-1.53703E+06 4.51672E+06
 -1       337 2.94460E+09 8.53699E+05-3.15758E+05-1.33152E+07-1.27557E+06 4.54258E+06
 -1       338 2.36585E+09 4.44891E+05-6.27612E+05-1.35162E+07-9.76649E+05 4.35731E+06
 -1       339 1.78248E+09 1.35115E+06 1.63441E+06-1.39452E+07-6.57982E+05 3.96787E+06
 -1       340 1.19238E+09-8.08024E+05-4.32756E+06-1.44683E+07-6.62222E+05 4.87742E+06
 -1       341 6.28597E+08 2.34879E+07 2.59160E+07-1.03184E+07 5.27401E+05 4.64437E+06
 -1       342 3.61481E+08 7.27382E+07 6.73513E+07 3.64494E+06 1.17810E+06 4.75463E+06
 -1       343 1.01233E+10-1.11868E+09-1.45896E+09-2.13888E+08-2.44449E+06-1.53158E+08
 -1       344 1.10801E+10 5.12329E+06 2.88107E+08 1.01168E+08 2.25881E+07-1.18080E+08
 -1       345 1.09369E+10-8.27010E+07-1.67457E+08 5.97495E+07-1.34756E+07 8.13975E+07
 -1       346 1.10119E+10 1.45453E+07 1.12849E+07 5.56060E+06-1.52816E+07 5.18389E+07
 -1       347 1.09168E+10 3.24972E+06-6.26076E+06-1.79422E+06-7.45268E+06 9.13216E+06
 -1       348 1.07821E+10 5.25849E+06 1.98997E+06 2.39462E+06-4.83243E+06-4.11347E+06
 -1       349 1.05937E+10 2.86161E+06-5.70963E+05 5.35457E+06-4.05806E+06-5.24613E+06
 -1       350 1.03709E+10 2.45220E+06-1.16664E+06 6.41488E+06-4.19937E+06-3.48753E+06
 -1       351 1.01179E+10 2.48487E+06-1.43625E+06 6.69526E+06-4.30596E+06-2.46853E+06
 -1       352 9.83645E+09 2.60816E+06-1.34426E+06 7.01657E+06-4.27431E+06-2.31829E+06
 -1       353 9.52754E+09 2.61889E+06-1.24599E+06 7.49848E+06-4.15819E+06-2.50411E+06
 -1       354 9.19215E+09 2.55373E+06-1.17600E+06 8.06393E+06-4.01049E+06-2.74072E+06
 -1       355 8.83129E+09 2.45599E+06-1.12512E+06 8.63959E+06-3.85083E+06-2.95303E+06
 -1       356 8.44602E+09 2.34722E+06-1.07704E+06 9.19527E+06-3.68232E+06-3.14338E+06
 -1       357 8.03741E+09 2.23283E+06-1.02602E+06 9.72378E+06-3.50437E+06-3.32163E+06
 -1       358 7.60660E+09 2.11306E+06-9.71363E+05 1.02244E+07-3.31673E+06-3.49139E+06
 -1       359 7.15478E+09 1.98763E+06-9.13671E+05 1.06965E+07-3.11980E+06-3.65238E+06
 -1       360 6.68320E+09 1.85669E+06-8.53378E+05 1.11393E+07-2.91417E+06-3.80356E+06
 -1       361 6.19316E+09 1.72075E+06-7.90611E+05 1.15515E+07-2.70048E+06-3.94415E+06
 -1       362 5.68601E+09 1.58058E+06-7.25421E+05 1.19327E+07-2.47947E+06-4.07412E+06
 -1       363 5.16316E+09 1.43716E+06-6.57883E+05 1.22825E+07-2.25211E+06-4.19493E+06
 -1       364 4.62605E+09 1.29010E+06-5.90729E+05 1.26007E+07-2.01966E+06-4.31061E+06
 -1       365 4.07619E+09 1.13969E+06-5.21510E+05 1.28828E+07-1.78274E+06-4.42377E+06
 -1       366 3.51512E+09 9.71464E+05-4.74610E+05 1.31217E+07-1.53703E+06-4.51672E+06
 -1       367 2.94460E+09 8.53699E+05-3.15758E+05 1.33152E+07-1.27557E+06-4.54258E+06
 -1       368 2.36585E+09 4.44891E+05-6.27612E+05 1.35162E+07-9.76649E+05-4.35731E+06
 -1       369 1.78248E+09 1.35115E+06 1.63441E+06 1.39452E+07-6.57982E+05-3.96787E+06
 -1       370 1.19238E+09-8.08024E+05-4.32756E+06 1.44683E+07-6.62222E+05-4.87742E+06
 -1       371 6.28597E+08 2.34879E+07 2.59160E+07 1.03184E+07 5.27401E+05-4.64437E+06
 -1       372 9.86164E+09-1.21518E+09-1.56640E+09-7.51627E+07 2.19469E+07-2.32017E+08
 -1       373 1.13562E+10 2.56762E+08 4.46436E+08-1.27851E+08 3.69704E+07-9.89565E+07
 -1       374 1.11979E+10-2.08983E+07-7.06197E+07-4.45357E+07-2.11778E+07 7.46689E+07
 -1       375 1.10917E+10 4.33955E+06 3.21831E+07 1.71991E+07-1.48371E+07 5.55109E+07
 -1       376 1.09065E+10-2.68875E+07-1.83748E+07 1.81547E+07-8.24632E+06 1.07529E+07
 -1       377 1.07596E+10-2.11915E+07-1.26788E+07 1.19271E+07-5.14853E+06-1.44610E+06
 -1       378 1.05792E+10-1.74128E+07-1.09923E+07 7.30989E+06-4.40981E+06-2.10391E+06
 -1       379 1.03633E+10-1.50450E+07-8.69752E+06 6.23939E+06-4.54848E+06 1.98596E+05
 -1       380 1.01130E+10-1.41044E+07-7.89218E+06 6.74792E+06-4.66621E+06 1.68846E+06
 -1       381 9.83208E+09-1.36015E+07-7.51900E+06 7.58416E+06-4.63051E+06 2.28358E+06
 -1       382 9.52322E+09-1.31758E+07-7.28109E+06 8.35925E+06-4.50449E+06 2.51899E+06
 -1       383 9.18790E+09-1.27141E+07-7.03070E+06 9.04973E+06-4.34446E+06 2.68662E+06
 -1       384 8.82719E+09-1.22118E+07-6.75456E+06 9.69357E+06-4.17152E+06 2.86257E+06
 -1       385 8.44210E+09-1.16759E+07-6.45758E+06 1.03095E+07-3.98898E+06 3.04426E+06
 -1       386 8.03369E+09-1.11098E+07-6.14381E+06 1.08996E+07-3.79621E+06 3.22090E+06
 -1       387 7.60309E+09-1.05141E+07-5.81413E+06 1.14609E+07-3.59295E+06 3.38797E+06
 -1       388 7.15148E+09-9.88964E+06-5.46880E+06 1.19907E+07-3.37961E+06 3.54479E+06
 -1       389 6.68011E+09-9.23786E+06-5.10840E+06 1.24872E+07-3.15686E+06 3.69154E+06
 -1       390 6.19030E+09-8.56047E+06-4.73383E+06 1.29490E+07-2.92537E+06 3.82816E+06
 -1       391 5.68338E+09-7.85928E+06-4.34604E+06 1.33747E+07-2.68595E+06 3.95392E+06
 -1       392 5.16078E+09-7.13538E+06-3.94499E+06 1.37630E+07-2.43965E+06 4.06654E+06
 -1       393 4.62394E+09-6.38827E+06-3.52995E+06 1.41151E+07-2.18784E+06 4.16134E+06
 -1       394 4.07438E+09-5.61079E+06-3.09060E+06 1.44385E+07-1.93111E+06 4.23446E+06
 -1       395 3.51366E+09-4.80299E+06-2.64725E+06 1.47505E+07-1.66549E+06 4.30451E+06
 -1       396 2.94342E+09-3.91657E+06-2.09966E+06 1.50491E+07-1.38106E+06 4.40893E+06
 -1       397 2.36453E+09-3.42440E+06-2.18481E+06 1.53475E+07-1.07219E+06 4.74085E+06
 -1       398 1.78020E+09-1.79835E+06 5.50006E+03 1.52818E+07-6.59118E+05 5.08568E+06
 -1       399 1.18905E+09-4.62672E+06-6.47286E+06 1.49343E+07-7.25494E+05 4.56786E+06
 -1       400 6.27365E+08 2.27829E+07 2.53347E+07 1.32017E+07-2.74801E+05 3.10571E+06
 -1       401 1.39327E+10 5.97124E+09 5.97125E+09-7.06867E+08 3.06284E+03 1.24334E+09
 -1       402 1.32201E+10 5.66585E+09 5.66586E+09-5.53739E+08 3.04766E+03 1.01687E+09
 -1       403 3.61481E+08 7.27382E+07 6.73513E+07-3.64494E+06 1.17810E+06-4.75463E+06
 -1       404 9.79455E+09-1.80967E+09-1.69424E+09-7.87713E+07-3.61493E+08-2.51868E+08
 -1       405 1.10414E+10-4.48315E+08 7.87053E+07 5.47298E+07-3.84591E+07 1.03056E+08
 -1       406 1.10837E+10 1.34582E+08-3.14355E+07 1.35400E+07 2.74506E+07 9.68093E+06
 -1       407 1.11022E+10 2.19328E+08 7.05526E+07 8.61244E+06 4.68714E+07 2.14012E+06
 -1       408 1.09837E+10 1.35014E+08 3.22265E+07 3.52136E+06 3.23260E+07-2.74486E+06
 -1       409 1.08266E+10 9.41882E+07 2.68717E+07 9.61529E+05 2.22102E+07-4.61730E+06
 -1       410 1.06314E+10 8.04877E+07 2.21517E+07-6.47988E+05 1.87067E+07-4.15235E+06
 -1       411 1.04072E+10 8.04221E+07 2.23729E+07-1.78669E+06 1.81641E+07-3.09850E+06
 -1       412 1.01532E+10 8.13096E+07 2.25626E+07-2.52632E+06 1.81005E+07-2.49184E+06
 -1       413 9.87065E+09 8.04601E+07 2.23215E+07-3.00618E+06 1.78059E+07-2.32952E+06
 -1       414 9.56048E+09 7.82862E+07 2.17048E+07-3.34843E+06 1.72979E+07-2.40304E+06
 -1       415 9.22382E+09 7.55383E+07 2.09376E+07-3.63352E+06 1.66860E+07-2.56374E+06
 -1       416 8.86169E+09 7.25393E+07 2.01037E+07-3.89536E+06 1.60235E+07-2.74156E+06
 -1       417 8.47508E+09 6.93627E+07 1.92224E+07-4.14425E+06 1.53218E+07-2.91602E+06
 -1       418 8.06507E+09 6.60077E+07 1.82924E+07-4.38173E+06 1.45807E+07-3.08281E+06
 -1       419 7.63278E+09 6.24722E+07 1.73125E+07-4.60722E+06 1.37997E+07-3.24127E+06
 -1       420 7.17941E+09 5.87626E+07 1.62845E+07-4.82003E+06 1.29803E+07-3.39097E+06
 -1       421 6.70620E+09 5.48895E+07 1.52111E+07-5.01950E+06 1.21247E+07-3.53143E+06
 -1       422 6.21447E+09 5.08648E+07 1.40957E+07-5.20501E+06 1.12357E+07-3.66237E+06
 -1       423 5.70558E+09 4.67018E+07 1.29419E+07-5.37575E+06 1.03159E+07-3.78399E+06
 -1       424 5.18092E+09 4.24180E+07 1.17547E+07-5.53042E+06 9.36867E+06-3.89739E+06
 -1       425 4.64196E+09 3.80317E+07 1.05380E+07-5.66704E+06 8.39729E+06-4.00494E+06
 -1       426 4.09019E+09 3.35488E+07 9.29906E+06-5.78230E+06 7.40144E+06-4.10972E+06
 -1       427 3.52713E+09 2.89081E+07 7.99614E+06-5.87169E+06 6.36674E+06-4.21022E+06
 -1       428 2.95446E+09 2.40555E+07 6.73727E+06-5.92437E+06 5.27228E+06-4.29609E+06
 -1       429 2.37370E+09 1.86049E+07 4.98526E+06-5.92938E+06 4.07391E+06-4.33804E+06
 -1       430 1.78737E+09 1.35245E+07 4.76669E+06-5.95453E+06 3.09962E+06-4.40695E+06
 -1       431 1.19328E+09 1.16252E+07-1.10116E+06-5.42723E+06 1.54974E+06-3.60779E+06
 -1       432 6.22127E+08 2.54223E+07 2.89398E+07-5.88841E+06 4.13436E+06-3.13955E+06
 -1       433 3.60542E+08 7.60588E+07 6.80658E+07 1.35036E+06 1.08863E+06 4.46881E+05
 -1       434 1.39327E+10 5.97124E+09 5.97125E+09-7.06867E+08-3.06284E+03-1.24334E+09
 -1       435 1.32201E+10 5.66585E+09 5.66586E+09-5.53739E+08-3.04766E+03-1.01687E+09
 -1       436 6.22127E+08 2.54223E+07 2.89398E+07-5.88841E+06-4.13436E+06 3.13955E+06
 -1       437 1.19328E+09 1.16252E+07-1.10116E+06-5.42723E+06-1.54974E+06 3.60779E+06
 -1       438 1.78737E+09 1.35245E+07 4.76669E+06-5.95453E+06-3.09962E+06 4.40695E+06
 -1       439 2.37370E+09 1.86049E+07 4.98526E+06-5.92938E+06-4.07392E+06 4.33804E+06
 -1       440 2.95446E+09 2.40555E+07 6.73727E+06-5.92437E+06-5.27228E+06 4.29609E+06
 -1       441 3.52713E+09 2.89081E+07 7.99614E+06-5.87169E+06-6.36674E+06 4.21022E+06
 -1       442 4.09019E+09 3.35488E+07 9.29906E+06-5.78230E+06-7.40144E+06 4.10972E+06
 -1       443 4.64196E+09 3.80317E+07 1.05380E+07-5.66704E+06-8.39729E+06 4.00494E+06
 -1       444 5.18092E+09 4.24180E+07 1.17547E+07-5.53042E+06-9.36867E+06 3.89739E+06
 -1       445 5.70558E+09 4.67018E+07 1.29419E+07-5.37575E+06-1.03159E+07 3.78399E+06
 -1       446 6.21447E+09 5.08648E+07 1.40957E+07-5.20501E+06-1.12357E+07 3.66237E+06
 -1       447 6.70620E+09 5.48895E+07 1.52111E+07-5.01950E+06-1.21247E+07 3.53143E+06
 -1       448 7.17941E+09 5.87626E+07 1.62845E+07-4.82002E+06-1.29803E+07 3.39097E+06
 -1       449 7.63278E+09 6.24722E+07 1.73125E+07-4.60722E+06-1.37997E+07 3.24127E+06
 -1       450 8.06507E+09 6.60077E+07 1.82924E+07-4.38173E+06-1.45807E+07 3.08281E+06
 -1       451 8.47508E+09 6.93627E+07 1.92224E+07-4.14425E+06-1.53218E+07 2.91602E+06
 -1       452 8.86169E+09 7.25393E+07 2.01037E+07-3.89536E+06-1.60235E+07 2.74156E+06
 -1       453 9.22382E+09 7.55383E+07 2.09376E+07-3.63352E+06-1.66860E+07 2.56374E+06
 -1       454 9.56048E+09 7.82862E+07 2.17048E+07-3.34843E+06-1.72979E+07 2.40304E+06
 -1       455 9.87065E+09 8.04601E+07 2.23215E+07-3.00618E+06-1.78059E+07 2.32952E+06
 -1       456 1.01532E+10 8.13096E+07 2.25626E+07-2.52632E+06-1.81005E+07 2.49184E+06
 -1       457 1.04072E+10 8.04221E+07 2.23729E+07-1.78669E+06-1.81641E+07 3.09850E+06
 -1       458 1.06314E+10 8.04877E+07 2.21517E+07-6.47988E+05-1.87067E+07 4.15235E+06
 -1       459 1.08266E+10 9.41882E+07 2.68717E+07 9.61529E+05-2.22102E+07 4.61730E+06
 -1       460 1.09837E+10 1.35014E+08 3.22265E+07 3.52136E+06-3.23260E+07 2.74486E+06
 -1       461 1.11022E+10 2.19328E+08 7.05526E+07 8.61244E+06-4.68714E+07-2.14012E+06
 -1       462 1.10837E+10 1.34582E+08-3.14355E+07 1.35400E+07-2.74506E+07-9.68093E+06
 -1       463 1.10414E+10-4.48315E+08 7.87053E+07 5.47298E+07 3.84591E+07-1.03056E+08
 -1       464 9.79455E+09-1.80967E+09-1.69424E+09-7.87713E+07 3.61493E+08 2.51868E+08
 -1       465 3.61481E+08 7.27382E+07 6.73513E+07-3.64494E+06-1.17810E+06 4.75463E+06
 -1       466 1.01233E+10-1.11868E+09-1.45896E+09-2.13888E+08 2.44449E+06 1.53158E+08
 -1       467 1.10801E+10 5.12329E+06 2.88107E+08 1.01168E+08-2.25881E+07 1.18080E+08
 -1       468 1.09369E+10-8.27010E+07-1.67457E+08 5.97495E+07 1.34756E+07-8.13975E+07
 -1       469 1.10119E+10 1.45453E+07 1.12849E+07 5.56060E+06 1.52816E+07-5.18389E+07
 -1       470 1.09168E+10 3.24972E+06-6.26076E+06-1.79422E+06 7.45268E+06-9.13216E+06
 -1       471 1.07821E+10 5.25849E+06 1.98997E+06 2.39462E+06 4.83243E+06 4.11347E+06
 -1       472 1.05937E+10 2.86161E+06-5.70963E+05 5.35457E+06 4.05806E+06 5.24613E+06
 -1       473 1.03709E+10 2.45220E+06-1.16664E+06 6.41488E+06 4.19937E+06 3.48753E+06
 -1       474 1.01179E+10 2.48487E+06-1.43625E+06 6.69526E+06 4.30596E+06 2.46853E+06
 -1       475 9.83645E+09 2.60816E+06-1.34426E+06 7.01657E+06 4.27431E+06 2.31829E+06
 -1       476 9.52754E+09 2.61889E+06-1.24599E+06 7.49848E+06 4.15819E+06 2.50411E+06
 -1       477 9.19215E+09 2.55373E+06-1.17600E+06 8.06393E+06 4.01049E+06 2.74072E+06
 -1       478 8.83129E+09 2.45599E+06-1.12512E+06 8.63959E+06 3.85083E+06 2.95303E+06
 -1       479 8.44602E+09 2.34722E+06-1.07704E+06 9.19527E+06 3.68232E+06 3.14338E+06
 -1       480 8.03741E+09 2.23283E+06-1.02602E+06 9.72378E+06 3.50437E+06 3.32163E+06
 -1       481 7.60660E+09 2.11306E+06-9.71363E+05 1.02244E+07 3.31673E+06 3.49139E+06
 -1       482 7.15478E+09 1.98763E+06-9.13671E+05 1.06965E+07 3.11980E+06 3.65238E+06
 -1       483 6.68320E+09 1.85669E+06-8.53378E+05 1.11393E+07 2.91417E+06 3.80356E+06
 -1       484 6.19316E+09 1.72075E+06-7.90611E+05 1.15515E+07 2.70048E+06 3.94415E+06
 -1       485 5.68601E+09 1.58058E+06-7.25421E+05 1.19327E+07 2.47947E+06 4.07412E+06
 -1       486 5.16316E+09 1.43716E+06-6.57883E+05 1.22825E+07 2.25211E+06 4.19493E+06
 -1       487 4.62605E+09 1.29010E+06-5.90729E+05 1.26007E+07 2.01966E+06 4.31061E+06
 -1       488 4.07619E+09 1.13969E+06-5.21510E+05 1.28828E+07 1.78274E+06 4.42377E+06
 -1       489 3.51512E+09 9.71464E+05-4.74610E+05 1.31217E+07 1.53703E+06 4.51672E+06
 -1       490 2.94460E+09 8.53699E+05-3.15758E+05 1.33152E+07 1.27557E+06 4.54258E+06
 -1       491 2.36585E+09 4.44891E+05-6.27612E+05 1.35162E+07 9.76649E+05 4.35731E+06
 -1       492 1.78248E+09 1.35115E+06 1.63441E+06 1.39452E+07 6.57982E+05 3.96787E+06
 -1       493 1.19238E+09-8.08024E+05-4.32756E+06 1.44683E+07 6.62222E+05 4.87742E+06
 -1       494 6.28597E+08 2.34879E+07 2.59160E+07 1.03184E+07-5.27401E+05 4.64437E+06
 -1       495 9.86164E+09-1.21518E+09-1.56640E+09-7.51627E+07-2.19469E+07 2.32017E+08
 -1       496 1.13562E+10 2.56762E+08 4.46436E+08-1.27851E+08-3.69704E+07 9.89565E+07
 -1       497 1.11979E+10-2.08983E+07-7.06197E+07-4.45357E+07 2.11778E+07-7.46689E+07
 -1       498 1.10917E+10 4.33955E+06 3.21831E+07 1.71991E+07 1.48371E+07-5.55109E+07
 -1       499 1.09065E+10-2.68875E+07-1.83748E+07 1.81547E+07 8.24632E+06-1.07529E+07
 -1       500 1.07596E+10-2.11915E+07-1.26788E+07 1.19271E+07 5.14853E+06 1.44610E+06
 -1       501 1.05792E+10-1.74128E+07-1.09923E+07 7.30989E+06 4.40981E+06 2.10391E+06
 -1       502 1.03633E+10-1.50450E+07-8.69752E+06 6.23939E+06 4.54848E+06-1.98596E+05
 -1       503 1.01130E+10-1.41044E+07-7.89218E+06 6.74792E+06 4.66621E+06-1.68846E+06
 -1       504 9.83208E+09-1.36015E+07-7.51900E+06 7.58416E+06 4.63051E+06-2.28358E+06
 -1       505 9.52322E+09-1.31758E+07-7.28109E+06 8.35925E+06 4.50449E+06-2.51899E+06
 -1       506 9.18790E+09-1.27141E+07-7.03070E+06 9.04973E+06 4.34446E+06-2.68662E+06
 -1       507 8.82719E+09-1.22118E+07-6.75456E+06 9.69357E+06 4.17152E+06-2.86257E+06
 -1       508 8.44210E+09-1.16759E+07-6.45758E+06 1.03095E+07 3.98898E+06-3.04426E+06
 -1       509 8.03369E+09-1.11098E+07-6.14381E+06 1.08996E+07 3.79621E+06-3.22090E+06
 -1       510 7.60309E+09-1.05141E+07-5.81413E+06 1.14609E+07 3.59295E+06-3.38797E+06
 -1       511 7.15148E+09-9.88964E+06-5.46880E+06 1.19907E+07 3.37961E+06-3.54479E+06
 -1       512 6.68011E+09-9.23786E+06-5.10840E+06 1.24872E+07 3.15686E+06-3.69154E+06
 -1       513 6.19030E+09-8.56047E+06-4.73383E+06 1.29490E+07 2.92537E+06-3.82816E+06
 -1       514 5.68338E+09-7.85928E+06-4.34604E+06 1.33747E+07 2.68595E+06-3.95392E+06
 -1       515 5.16078E+09-7.13538E+06-3.94499E+06 1.37630E+07 2.43965E+06-4.06654E+06
 -1       516 4.62394E+09-6.38827E+06-3.52995E+06 1.41151E+07 2.18784E+06-4.16134E+06
 -1       517 4.07438E+09-5.61079E+06-3.09060E+06 1.44385E+07 1.93111E+06-4.23446E+06
 -1       518 3.51366E+09-4.80299E+06-2.64725E+06 1.47505E+07 1.66549E+06-4.30451E+06
 -1       519 2.94342E+09-3.91657E+06-2.09966E+06 1.50491E+07 1.38106E+06-4.40893E+06
 -1       520 2.36453E+09-3.42440E+06-2.18481E+06 1.53475E+07 1.07219E+06-4.74085E+06
 -1       521 1.78020E+09-1.79835E+06 5.50011E+03 1.52818E+07 6.59118E+05-5.08568E+06
 -1       522 1.18905E+09-4.62672E+06-6.47286E+06 1.49343E+07 7.25494E+05-4.56786E+06
 -1       523 6.27365E+08 2.27829E+07 2.53347E+07 1.32017E+07 2.74801E+05-3.10571E+06
 -1       524 3.60542E+08 7.60588E+07 6.80658E+07 1.35036E+06-1.08863E+06-4.46881E+05
 -1       525 1.00932E+10-1.63432E+09 6.05662E+08 2.75998E+07 4.28532E+06 4.34646E+08
 -1       526 1.15332E+10 2.41186E+08 3.95901E+08-1.14520E+07 1.67093E+06 1.30981E+08
 -1       527 1.13448E+10-7.88404E+07-7.73260E+07-2.89663E+05 9.81077E+05-3.99776E+07
 -1       528 1.12425E+10 3.61737E+07-1.13547E+08-1.60292E+06 2.34688E+05-6.97199E+07
 -1       529 1.10344E+10 1.16212E+07-1.11464E+08-7.36322E+05-6.55790E+04-5.08478E+07
 -1       530 1.08317E+10 1.14081E+07-8.21126E+07-8.97131E+05-1.47966E+05-2.78504E+07
 -1       531 1.06141E+10 7.86901E+06-6.53093E+07-1.02338E+06-1.85869E+05-1.21472E+07
 -1       532 1.03799E+10 7.05839E+06-5.72849E+07-1.18047E+06-1.99018E+05-4.27443E+06
 -1       533 1.01226E+10 6.61682E+06-5.38231E+07-1.32128E+06-2.01262E+05-1.13494E+06
 -1       534 9.83959E+09 6.39541E+06-5.17929E+07-1.45690E+06-1.97882E+05-1.06963E+05
 -1       535 9.53008E+09 6.17171E+06-5.00375E+07-1.58793E+06-1.92120E+05 1.86675E+05
 -1       536 9.19444E+09 5.94311E+06-4.82285E+07-1.71511E+06-1.85335E+05 2.74121E+05
 -1       537 8.83346E+09 5.70340E+06-4.63128E+07-1.83776E+06-1.77990E+05 3.12210E+05
 -1       538 8.44808E+09 5.45243E+06-4.42836E+07-1.95537E+06-1.70187E+05 3.37386E+05
 -1       539 8.03938E+09 5.18827E+06-4.21395E+07-2.06755E+06-1.61940E+05 3.57599E+05
 -1       540 7.60847E+09 4.91030E+06-3.98813E+07-2.17400E+06-1.53254E+05 3.75446E+05
 -1       541 7.15654E+09 4.61875E+06-3.75131E+07-2.27444E+06-1.44149E+05 3.92060E+05
 -1       542 6.68485E+09 4.31432E+06-3.50408E+07-2.36859E+06-1.34646E+05 4.07687E+05
 -1       543 6.19468E+09 3.99786E+06-3.24710E+07-2.45620E+06-1.24772E+05 4.21891E+05
 -1       544 5.68740E+09 3.67011E+06-2.98102E+07-2.53703E+06-1.14556E+05 4.33043E+05
 -1       545 5.16441E+09 3.33199E+06-2.70627E+07-2.61085E+06-1.04039E+05 4.36162E+05
 -1       546 4.62713E+09 2.98182E+06-2.42261E+07-2.67747E+06-9.32819E+04 4.17849E+05
 -1       547 4.07701E+09 2.62235E+06-2.12781E+07-2.73655E+06-8.23838E+04 3.48631E+05
 -1       548 3.51548E+09 2.22049E+06-1.81829E+07-2.78860E+06-7.15503E+04 1.77594E+05
 -1       549 2.94405E+09 1.88344E+06-1.48315E+07-2.83129E+06-6.11629E+04-1.51566E+05
 -1       550 2.36378E+09 1.07256E+06-1.15652E+07-2.88047E+06-5.27504E+04-6.40429E+05
 -1       551 1.77771E+09 2.41974E+06-7.78409E+06-2.87791E+06-5.14495E+04-1.05221E+06
 -1       552 1.18160E+09-5.01886E+06-9.73612E+06-3.09440E+06-3.43526E+04-6.29349E+03
 -1       553 6.11264E+08 2.95375E+07 1.73317E+06-2.36401E+06-8.85202E+04 2.26716E+06
 -1       554 1.01856E+10-1.37202E+09 9.46714E+08 2.81257E+07-7.94883E-03-1.94916E-01
 -1       555 1.15141E+10 2.15068E+08 5.39888E+08-1.01958E+07-2.20006E-02-2.08821E-01
 -1       556 1.13700E+10-9.73768E+07-9.88566E+07-4.96256E+05-2.75810E-02-1.80800E-01
 -1       557 1.13003E+10 5.24028E+06-1.45695E+08-1.61338E+06-2.46602E-02-1.50601E-01
 -1       558 1.10756E+10-1.72761E+06-1.35922E+08-9.71545E+05-1.06801E-02-1.28975E-01
 -1       559 1.08513E+10 1.54229E+06-1.00717E+08-9.88080E+05-1.52606E-02-1.08176E-01
 -1       560 1.06209E+10-1.73836E+06-7.95709E+07-1.04832E+06-3.29174E-02-1.00075E-01
 -1       561 1.03802E+10-3.67934E+06-6.95971E+07-1.18156E+06-3.04703E-02-8.16250E-02
 -1       562 1.01204E+10-4.73941E+06-6.53593E+07-1.32071E+06-3.19605E-02-5.74704E-02
 -1       563 9.83669E+09-5.02628E+06-6.28959E+07-1.45853E+06-2.10902E-02-4.98306E-02
 -1       564 9.52709E+09-4.98932E+06-6.07616E+07-1.59137E+06-4.42935E-03-4.38120E-02
 -1       565 9.19152E+09-4.83806E+06-5.85619E+07-1.71932E+06 7.85067E-03-1.35905E-02
 -1       566 8.83065E+09-4.65210E+06-5.62333E+07-1.84234E+06 1.85847E-02 2.41450E-02
 -1       567 8.44540E+09-4.45035E+06-5.37685E+07-1.96023E+06 1.76891E-02 5.57641E-02
 -1       568 8.03683E+09-4.23577E+06-5.11650E+07-2.07268E+06 1.50386E-02 6.53366E-02
 -1       569 7.60605E+09-4.00902E+06-4.84232E+07-2.17940E+06 2.79670E-02 4.34635E-02
 -1       570 7.15427E+09-3.77091E+06-4.55478E+07-2.28009E+06 4.69968E-02 2.59459E-02
 -1       571 6.68272E+09-3.52235E+06-4.25459E+07-2.37448E+06 6.06631E-02 2.41617E-02
 -1       572 6.19271E+09-3.26429E+06-3.94256E+07-2.46230E+06 7.39610E-02 2.57050E-02
 -1       573 5.68560E+09-2.99817E+06-3.61949E+07-2.54332E+06 5.64491E-02 2.24115E-02
 -1       574 5.16276E+09-2.72640E+06-3.28588E+07-2.61730E+06 4.79830E-02 4.84863E-03
 -1       575 4.62562E+09-2.45513E+06-2.94142E+07-2.68408E+06 4.84670E-02-1.58924E-02
 -1       576 4.07561E+09-2.18627E+06-2.58327E+07-2.74344E+06 4.09810E-02-3.26881E-02
 -1       577 3.51411E+09-1.95093E+06-2.20691E+07-2.79614E+06-3.94397E-03-4.10971E-02
 -1       578 2.94256E+09-1.62680E+06-1.80029E+07-2.84022E+06-2.49540E-02-3.28906E-02
 -1       579 2.36203E+09-1.68844E+06-1.39662E+07-2.88901E+06-3.41098E-03-1.22978E-02
 -1       580 1.77611E+09 4.05834E+05-9.29697E+06-2.88869E+06 1.95918E-02 1.10715E-02
 -1       581 1.18146E+09-5.73632E+06-1.12849E+07-3.09874E+06 1.35700E-02 3.33244E-02
 -1       582 6.09886E+08 2.69893E+07-3.53267E+06-2.34756E+06 1.06001E-02 2.00232E-02
 -1       583 1.00932E+10-1.63432E+09 6.05662E+08 2.75998E+07-4.28532E+06-4.34646E+08
 -1       584 1.15332E+10 2.41186E+08 3.95901E+08-1.14520E+07-1.67093E+06-1.30981E+08
 -1       585 1.13448E+10-7.88404E+07-7.73260E+07-2.89663E+05-9.81077E+05 3.99776E+07
 -1       586 1.12425E+10 3.61737E+07-1.13547E+08-1.60292E+06-2.34688E+05 6.97199E+07
 -1       587 1.10344E+10 1.16212E+07-1.11464E+08-7.36322E+05 6.55790E+04 5.08478E+07
 -1       588 1.08317E+10 1.14081E+07-8.21126E+07-8.97131E+05 1.47966E+05 2.78504E+07
 -1       589 1.06141E+10 7.86901E+06-6.53093E+07-1.02338E+06 1.85869E+05 1.21472E+07
 -1       590 1.03799E+10 7.05839E+06-5.72849E+07-1.18047E+06 1.99018E+05 4.27443E+06
 -1       591 1.01226E+10 6.61682E+06-5.38231E+07-1.32128E+06 2.01262E+05 1.13494E+06
 -1       592 9.83959E+09 6.39541E+06-5.17929E+07-1.45690E+06 1.97882E+05 1.06963E+05
 -1       593 9.53008E+09 6.17171E+06-5.00375E+07-1.58793E+06 1.92120E+05-1.86675E+05
 -1       594 9.19444E+09 5.94311E+06-4.82285E+07-1.71511E+06 1.85335E+05-2.74121E+05
 -1       595 8.83346E+09 5.70340E+06-4.63128E+07-1.83776E+06 1.77990E+05-3.12210E+05
 -1       596 8.44808E+09 5.45243E+06-4.42836E+07-1.95537E+06 1.70187E+05-3.37386E+05
 -1       597 8.03938E+09 5.18827E+06-4.21395E+07-2.06755E+06 1.61940E+05-3.57599E+05
 -1       598 7.60847E+09 4.91030E+06-3.98813E+07-2.17400E+06 1.53254E+05-3.75446E+05
 -1       599 7.15654E+09 4.61875E+06-3.75131E+07-2.27444E+06 1.44149E+05-3.92060E+05
 -1       600 6.68485E+09 4.31432E+06-3.50408E+07-2.36859E+06 1.34646E+05-4.07687E+05
 -1       601 6.19468E+09 3.99786E+06-3.24710E+07-2.45620E+06 1.24772E+05-4.21891E+05
 -1       602 5.68740E+09 3.67011E+06-2.98102E+07-2.53703E+06 1.14557E+05-4.33043E+05
 -1       603 5.16441E+09 3.33199E+06-2.70627E+07-2.61085E+06 1.04039E+05-4.36162E+05
 -1       604 4.62713E+09 2.98182E+06-2.42261E+07-2.67747E+06 9.32819E+04-4.17849E+05
 -1       605 4.07701E+09 2.62235E+06-2.12781E+07-2.73655E+06 8.23838E+04-3.48631E+05
 -1       606 3.51548E+09 2.22049E+06-1.81829E+07-2.78860E+06 7.15504E+04-1.77594E+05
 -1       607 2.94405E+09 1.88344E+06-1.48315E+07-2.83129E+06 6.11629E+04 1.51566E+05
 -1       608 2.36378E+09 1.07256E+06-1.15652E+07-2.88047E+06 5.27504E+04 6.40429E+05
 -1       609 1.77771E+09 2.41974E+06-7.78409E+06-2.87791E+06 5.14495E+04 1.05221E+06
 -1       610 1.18160E+09-5.01886E+06-9.73612E+06-3.09440E+06 3.43526E+04 6.29356E+03
 -1       611 6.11264E+08 2.95375E+07 1.73317E+06-2.36401E+06 8.85202E+04-2.26716E+06
 -1       612 1.00932E+10-1.63432E+09 6.05662E+08-2.75998E+07 4.28532E+06-4.34646E+08
 -1       613 1.15332E+10 2.41186E+08 3.95901E+08 1.14520E+07 1.67093E+06-1.30981E+08
 -1       614 1.13448E+10-7.88404E+07-7.73260E+07 2.89663E+05 9.81077E+05 3.99776E+07
 -1       615 1.12425E+10 3.61737E+07-1.13547E+08 1.60292E+06 2.34688E+05 6.97199E+07
 -1       616 1.10344E+10 1.16212E+07-1.11464E+08 7.36322E+05-6.55790E+04 5.08478E+07
 -1       617 1.08317E+10 1.14081E+07-8.21126E+07 8.97131E+05-1.47966E+05 2.78504E+07
 -1       618 1.06141E+10 7.86901E+06-6.53093E+07 1.02338E+06-1.85869E+05 1.21472E+07
 -1       619 1.03799E+10 7.05839E+06-5.72849E+07 1.18047E+06-1.99019E+05 4.27443E+06
 -1       620 1.01226E+10 6.61682E+06-5.38231E+07 1.32128E+06-2.01262E+05 1.13494E+06
 -1       621 9.83959E+09 6.39541E+06-5.17929E+07 1.45690E+06-1.97882E+05 1.06963E+05
 -1       622 9.53008E+09 6.17171E+06-5.00375E+07 1.58793E+06-1.92120E+05-1.86675E+05
 -1       623 9.19444E+09 5.94311E+06-4.82285E+07 1.71511E+06-1.85335E+05-2.74121E+05
 -1       624 8.83346E+09 5.70340E+06-4.63128E+07 1.83776E+06-1.77990E+05-3.12210E+05
 -1       625 8.44808E+09 5.45243E+06-4.42836E+07 1.95537E+06-1.70187E+05-3.37386E+05
 -1       626 8.03938E+09 5.18827E+06-4.21395E+07 2.06755E+06-1.61939E+05-3.57599E+05
 -1       627 7.60847E+09 4.91030E+06-3.98813E+07 2.17400E+06-1.53254E+05-3.75446E+05
 -1       628 7.15654E+09 4.61875E+06-3.75131E+07 2.27444E+06-1.44149E+05-3.92060E+05
 -1       629 6.68485E+09 4.31432E+06-3.50408E+07 2.36859E+06-1.34646E+05-4.07687E+05
 -1       630 6.19468E+09 3.99786E+06-3.24710E+07 2.45620E+06-1.24772E+05-4.21891E+05
 -1       631 5.68740E+09 3.67011E+06-2.98102E+07 2.53703E+06-1.14557E+05-4.33043E+05
 -1       632 5.16441E+09 3.33199E+06-2.70627E+07 2.61085E+06-1.04039E+05-4.36162E+05
 -1       633 4.62713E+09 2.98182E+06-2.42261E+07 2.67747E+06-9.32820E+04-4.17849E+05
 -1       634 4.07701E+09 2.62235E+06-2.12781E+07 2.73655E+06-8.23838E+04-3.48631E+05
 -1       635 3.51548E+09 2.22049E+06-1.81829E+07 2.78860E+06-7.15504E+04-1.77594E+05
 -1       636 2.94405E+09 1.88344E+06-1.48315E+07 2.83129E+06-6.11630E+04 1.51566E+05
 -1       637 2.36378E+09 1.07256E+06-1.15652E+07 2.88047E+06-5.27505E+04 6.40429E+05
 -1       638 1.77771E+09 2.41974E+06-7.78409E+06 2.87791E+06-5.14496E+04 1.05221E+06
 -1       639 1.18160E+09-5.01886E+06-9.73612E+06 3.09440E+06-3.43526E+04 6.29363E+03
 -1       640 6.11264E+08 2.95375E+07 1.73317E+06 2.36401E+06-8.85202E+04-2.26716E+06
 -1       641 1.01856E+10-1.37202E+09 9.46714E+08-2.81257E+07-9.51156E-03-2.14642E-01
 -1       642 1.15141E+10 2.15068E+08 5.39888E+08 1.01958E+07-2.25273E-02-2.28796E-01
 -1       643 1.13700E+10-9.73768E+07-9.88566E+07 4.96256E+05-2.79054E-02-1.95493E-01
 -1       644 1.13003E+10 5.24028E+06-1.45695E+08 1.61338E+06-2.45287E-02-1.56479E-01
 -1       645 1.10756E+10-1.72762E+06-1.35922E+08 9.71545E+05-1.02390E-02-1.29266E-01
 -1       646 1.08513E+10 1.54229E+06-1.00717E+08 9.88080E+05-1.45606E-02-1.04986E-01
 -1       647 1.06209E+10-1.73836E+06-7.95709E+07 1.04832E+06-3.18868E-02-8.11891E-02
 -1       648 1.03802E+10-3.67934E+06-6.95971E+07 1.18156E+06-2.93134E-02-4.81657E-02
 -1       649 1.01204E+10-4.73941E+06-6.53593E+07 1.32071E+06-3.07048E-02-1.80750E-02
 -1       650 9.83669E+09-5.02628E+06-6.28959E+07 1.45853E+06-1.95994E-02-6.02723E-03
 -1       651 9.52709E+09-4.98932E+06-6.07616E+07 1.59137E+06-3.08328E-03-2.03093E-03
 -1       652 9.19152E+09-4.83806E+06-5.85619E+07 1.71932E+06 9.02241E-03 1.87948E-02
 -1       653 8.83065E+09-4.65210E+06-5.62333E+07 1.84234E+06 1.94477E-02 4.26521E-02
 -1       654 8.44540E+09-4.45035E+06-5.37685E+07 1.96023E+06 1.82571E-02 5.82658E-02
 -1       655 8.03683E+09-4.23577E+06-5.11650E+07 2.07268E+06 1.57147E-02 5.94088E-02
 -1       656 7.60605E+09-4.00902E+06-4.84232E+07 2.17940E+06 2.86974E-02 3.15903E-02
 -1       657 7.15427E+09-3.77091E+06-4.55478E+07 2.28009E+06 4.68555E-02 2.72509E-03
 -1       658 6.68272E+09-3.52235E+06-4.25459E+07 2.37448E+06 6.05337E-02-9.85683E-03
 -1       659 6.19271E+09-3.26429E+06-3.94256E+07 2.46230E+06 7.42072E-02-2.23634E-02
 -1       660 5.68560E+09-2.99817E+06-3.61949E+07 2.54332E+06 5.66592E-02-3.13433E-02
 -1       661 5.16276E+09-2.72640E+06-3.28588E+07 2.61730E+06 4.79565E-02-3.67589E-02
 -1       662 4.62562E+09-2.45513E+06-2.94142E+07 2.68408E+06 4.84085E-02-4.79066E-02
 -1       663 4.07561E+09-2.18627E+06-2.58327E+07 2.74344E+06 4.12544E-02-7.01582E-02
 -1       664 3.51411E+09-1.95093E+06-2.20691E+07 2.79614E+06-4.38228E-03-7.02772E-02
 -1       665 2.94256E+09-1.62680E+06-1.80029E+07 2.84022E+06-2.49916E-02-2.69831E-02
 -1       666 2.36203E+09-1.68844E+06-1.39662E+07 2.88901E+06-3.08262E-03 2.23976E-02
 -1       667 1.77611E+09 4.05834E+05-9.29697E+06 2.88869E+06 2.01011E-02 5.04662E-02
 -1       668 1.18146E+09-5.73632E+06-1.12849E+07 3.09874E+06 1.35222E-02 7.23560E-02
 -1       669 6.09886E+08 2.69893E+07-3.53267E+06 2.34756E+06 1.06842E-02 6.64798E-02
 -1       670 1.00932E+10-1.63432E+09 6.05662E+08-2.75998E+07-4.28532E+06 4.34646E+08
 -1       671 1.15332E+10 2.41186E+08 3.95901E+08 1.14520E+07-1.67093E+06 1.30981E+08
 -1       672 1.13448E+10-7.88404E+07-7.73260E+07 2.89663E+05-9.81077E+05-3.99776E+07
 -1       673 1.12425E+10 3.61737E+07-1.13547E+08 1.60292E+06-2.34688E+05-6.97199E+07
 -1       674 1.10344E+10 1.16212E+07-1.11464E+08 7.36322E+05 6.55790E+04-5.08478E+07
 -1       675 1.08317E+10 1.14081E+07-8.21126E+07 8.97131E+05 1.47966E+05-2.78504E+07
 -1       676 1.06141E+10 7.86901E+06-6.53093E+07 1.02338E+06 1.85869E+05-1.21472E+07
 -1       677 1.03799E+10 7.05839E+06-5.72849E+07 1.18047E+06 1.99019E+05-4.27443E+06
 -1       678 1.01226E+10 6.61682E+06-5.38231E+07 1.32128E+06 2.01262E+05-1.13494E+06
 -1       679 9.83959E+09 6.39541E+06-5.17929E+07 1.45690E+06 1.97882E+05-1.06963E+05
 -1       680 9.53008E+09 6.17171E+06-5.00375E+07 1.58793E+06 1.92120E+05 1.86675E+05
 -1       681 9.19444E+09 5.94311E+06-4.82285E+07 1.71511E+06 1.85335E+05 2.74121E+05
 -1       682 8.83346E+09 5.70340E+06-4.63128E+07 1.83776E+06 1.77990E+05 3.12210E+05
 -1       683 8.44808E+09 5.45243E+06-4.42836E+07 1.95537E+06 1.70187E+05 3.37386E+05
 -1       684 8.03938E+09 5.18827E+06-4.21395E+07 2.06755E+06 1.61939E+05 3.57599E+05
 -1       685 7.60847E+09 4.91030E+06-3.98813E+07 2.17400E+06 1.53254E+05 3.75446E+05
 -1       686 7.15654E+09 4.61875E+06-3.75131E+07 2.27444E+06 1.44149E+05 3.92060E+05
 -1       687 6.68485E+09 4.31432E+06-3.50408E+07 2.36859E+06 1.34646E+05 4.07687E+05
 -1       688 6.19468E+09 3.99786E+06-3.24710E+07 2.45620E+06 1.24772E+05 4.21891E+05
 -1       689 5.68740E+09 3.67011E+06-2.98102E+07 2.53703E+06 1.14557E+05 4.33043E+05
 -1       690 5.16441E+09 3.33199E+06-2.70627E+07 2.61085E+06 1.04039E+05 4.36162E+05
 -1       691 4.62713E+09 2.98182E+06-2.42261E+07 2.67747E+06 9.32820E+04 4.17849E+05
 -1       692 4.07701E+09 2.62235E+06-2.12781E+07 2.73655E+06 8.23838E+04 3.48631E+05
 -1       693 3.51548E+09 2.22049E+06-1.81829E+07 2.78860E+06 7.15504E+04 1.77594E+05
 -1       694 2.94405E+09 1.88344E+06-1.48315E+07 2.83129E+06 6.11630E+04-1.51566E+05
 -1       695 2.36378E+09 1.07256E+06-1.15652E+07 2.88047E+06 5.27505E+04-6.40429E+05
 -1       696 1.77771E+09 2.41974E+06-7.78409E+06 2.87791E+06 5.14495E+04-1.05221E+06
 -1       697 1.18160E+09-5.01886E+06-9.73612E+06 3.09440E+06 3.43526E+04-6.29348E+03
 -1       698 6.11264E+08 2.95375E+07 1.73317E+06 2.36401E+06 8.85202E+04 2.26716E+06
 -1       699 9.97183E+09-1.30691E+09-1.76216E+09 1.80046E+08-1.43125E+08-3.55759E+08
 -1       700 1.12330E+10-1.08382E+08 1.81243E+08-1.06258E+08-2.25193E+07 2.04016E+07
 -1       701 1.09995E+10 5.42239E+06-5.86673E+07-5.30778E+07 7.10928E+06 5.40718E+07
 -1       702 1.10408E+10 6.26192E+07 3.07333E+07-1.00709E+07 2.22723E+07 2.92776E+07
 -1       703 1.09424E+10 3.96658E+07 1.89139E+07-1.37668E+06 1.61381E+07 1.24770E+07
 -1       704 1.07971E+10 2.82361E+07 1.60029E+07-1.31441E+06 1.11966E+07-8.52171E+04
 -1       705 1.06072E+10 2.33459E+07 1.25542E+07-1.44518E+06 9.35471E+06-2.75770E+06
 -1       706 1.03842E+10 2.29798E+07 1.18677E+07-8.55384E+05 9.02606E+06-2.70861E+06
 -1       707 1.01309E+10 2.32047E+07 1.16654E+07-1.68654E+05 8.99001E+06-2.36660E+06
 -1       708 9.84901E+09 2.30103E+07 1.14820E+07 2.50835E+05 8.85620E+06-2.31408E+06
 -1       709 9.53960E+09 2.24205E+07 1.11698E+07 4.36868E+05 8.61134E+06-2.45657E+06
 -1       710 9.20373E+09 2.16433E+07 1.07822E+07 5.11192E+05 8.30960E+06-2.65324E+06
 -1       711 8.84241E+09 2.07849E+07 1.03546E+07 5.50751E+05 7.98011E+06-2.84834E+06
 -1       712 8.45664E+09 1.98739E+07 9.90020E+06 5.83960E+05 7.63058E+06-3.03146E+06
 -1       713 8.04752E+09 1.89122E+07 9.42068E+06 6.16565E+05 7.26137E+06-3.20440E+06
 -1       714 7.61618E+09 1.78991E+07 8.91588E+06 6.48237E+05 6.87239E+06-3.36859E+06
 -1       715 7.16379E+09 1.68363E+07 8.38645E+06 6.78256E+05 6.46431E+06-3.52392E+06
 -1       716 6.69161E+09 1.57266E+07 7.83371E+06 7.06315E+05 6.03826E+06-3.66975E+06
 -1       717 6.20095E+09 1.45736E+07 7.25933E+06 7.32144E+05 5.59551E+06-3.80556E+06
 -1       718 5.69317E+09 1.33810E+07 6.66512E+06 7.55066E+05 5.13750E+06-3.93125E+06
 -1       719 5.16966E+09 1.21541E+07 6.05333E+06 7.73691E+05 4.66592E+06-4.04752E+06
 -1       720 4.63187E+09 1.08975E+07 5.42441E+06 7.86249E+05 4.18231E+06-4.15534E+06
 -1       721 4.08131E+09 9.61254E+06 4.78080E+06 7.91938E+05 3.68613E+06-4.25194E+06
 -1       722 3.51952E+09 8.27445E+06 4.09514E+06 7.90613E+05 3.17121E+06-4.32548E+06
 -1       723 2.94818E+09 6.89733E+06 3.44341E+06 7.73586E+05 2.62469E+06-4.31178E+06
 -1       724 2.36878E+09 5.25365E+06 2.48290E+06 7.15657E+05 2.03920E+06-4.23986E+06
 -1       725 1.78457E+09 4.37755E+06 3.17624E+06 4.16175E+05 1.55682E+06-3.92780E+06
 -1       726 1.19012E+09 1.64799E+06-3.74548E+06-2.25481E+05 9.89970E+05-3.75244E+06
 -1       727 6.21962E+08 2.32007E+07 3.04594E+07 1.98839E+06 1.25267E+06-4.31151E+06
 -1       728 1.00636E+10-7.72918E+08-1.57443E+09 1.09588E+08-1.38845E+08-4.37700E+08
 -1       729 1.16630E+10 2.92321E+08 4.30466E+08 9.47179E+07-2.62621E+07 4.64015E+07
 -1       730 1.11314E+10-2.67087E+07-2.87383E+07 2.13961E+07 8.73150E+06 5.03293E+07
 -1       731 1.10419E+10-5.18642E+07-3.27956E+06-1.98016E+07 2.04991E+07 3.14695E+07
 -1       732 1.09097E+10-5.02403E+07-1.78691E+07-2.00681E+07 1.48574E+07 1.42608E+07
 -1       733 1.07630E+10-3.76208E+07-1.39880E+07-1.02162E+07 1.02790E+07 2.48748E+06
 -1       734 1.05806E+10-3.13085E+07-1.18266E+07-3.51955E+06 8.63480E+06 3.91589E+05
 -1       735 1.03621E+10-2.91428E+07-1.04014E+07-8.82706E+05 8.37566E+06 9.79338E+05
 -1       736 1.01107E+10-2.83173E+07-9.84989E+06-2.55280E+05 8.36843E+06 1.79191E+06
 -1       737 9.82965E+09-2.75963E+07-9.50796E+06-2.24176E+05 8.25339E+06 2.28480E+06
 -1       738 9.52086E+09-2.67483E+07-9.20349E+06-2.70656E+05 8.02786E+06 2.56177E+06
 -1       739 9.18565E+09-2.57933E+07-8.87478E+06-2.97921E+05 7.74709E+06 2.76861E+06
 -1       740 8.82504E+09-2.47682E+07-8.52227E+06-3.14130E+05 7.43997E+06 2.96142E+06
 -1       741 8.44004E+09-2.36825E+07-8.14803E+06-3.30302E+05 7.11412E+06 3.15000E+06
 -1       742 8.03173E+09-2.25360E+07-7.75303E+06-3.48181E+05 6.76992E+06 3.33161E+06
 -1       743 7.60123E+09-2.13284E+07-7.33737E+06-3.66323E+05 6.40726E+06 3.50390E+06
 -1       744 7.14973E+09-2.00619E+07-6.90161E+06-3.83624E+05 6.02680E+06 3.66606E+06
 -1       745 6.67848E+09-1.87396E+07-6.44673E+06-3.99734E+05 5.62958E+06 3.81786E+06
 -1       746 6.18878E+09-1.73654E+07-5.97395E+06-4.14606E+05 5.21681E+06 3.95900E+06
 -1       747 5.68199E+09-1.59432E+07-5.48456E+06-4.28286E+05 4.78982E+06 4.08878E+06
 -1       748 5.15951E+09-1.44769E+07-4.97929E+06-4.41504E+05 4.35025E+06 4.20575E+06
 -1       749 4.62279E+09-1.29693E+07-4.45877E+06-4.57975E+05 3.89961E+06 4.30822E+06
 -1       750 4.07335E+09-1.14153E+07-3.91640E+06-4.89154E+05 3.43757E+06 4.39778E+06
 -1       751 3.51273E+09-9.79985E+06-3.36304E+06-5.56766E+05 2.95840E+06 4.48656E+06
 -1       752 2.94257E+09-8.07648E+06-2.73347E+06-6.79304E+05 2.45114E+06 4.63268E+06
 -1       753 2.36419E+09-6.46754E+06-2.40996E+06-8.05130E+05 1.90652E+06 4.83594E+06
 -1       754 1.78039E+09-4.42992E+06-7.19478E+05-8.15828E+05 1.43660E+06 5.11883E+06
 -1       755 1.18463E+09-6.18435E+06-7.74432E+06-6.06022E+05 9.42996E+05 5.86447E+06
 -1       756 6.15815E+08 1.54528E+07 2.62911E+07-3.53756E+05 1.51833E+06 3.43464E+06
 -1       757 1.00636E+10-7.72918E+08-1.57443E+09 1.09588E+08 1.38845E+08 4.37700E+08
 -1       758 1.16630E+10 2.92321E+08 4.30466E+08 9.47179E+07 2.62621E+07-4.64015E+07
 -1       759 1.11314E+10-2.67087E+07-2.87383E+07 2.13961E+07-8.73150E+06-5.03293E+07
 -1       760 1.10419E+10-5.18642E+07-3.27956E+06-1.98016E+07-2.04991E+07-3.14695E+07
 -1       761 1.09097E+10-5.02403E+07-1.78691E+07-2.00681E+07-1.48574E+07-1.42608E+07
 -1       762 1.07630E+10-3.76208E+07-1.39880E+07-1.02162E+07-1.02790E+07-2.48748E+06
 -1       763 1.05806E+10-3.13085E+07-1.18266E+07-3.51955E+06-8.63480E+06-3.91589E+05
 -1       764 1.03621E+10-2.91428E+07-1.04014E+07-8.82706E+05-8.37566E+06-9.79338E+05
 -1       765 1.01107E+10-2.83173E+07-9.84989E+06-2.55280E+05-8.36843E+06-1.79191E+06
 -1       766 9.82965E+09-2.75963E+07-9.50796E+06-2.24176E+05-8.25339E+06-2.28480E+06
 -1       767 9.52086E+09-2.67483E+07-9.20349E+06-2.70656E+05-8.02786E+06-2.56177E+06
 -1       768 9.18565E+09-2.57933E+07-8.87478E+06-2.97921E+05-7.74709E+06-2.76861E+06
 -1       769 8.82504E+09-2.47682E+07-8.52227E+06-3.14130E+05-7.43997E+06-2.96142E+06
 -1       770 8.44004E+09-2.36825E+07-8.14803E+06-3.30302E+05-7.11412E+06-3.15000E+06
 -1       771 8.03173E+09-2.25360E+07-7.75303E+06-3.48181E+05-6.76992E+06-3.33161E+06
 -1       772 7.60123E+09-2.13284E+07-7.33737E+06-3.66323E+05-6.40726E+06-3.50390E+06
 -1       773 7.14973E+09-2.00619E+07-6.90161E+06-3.83624E+05-6.02680E+06-3.66606E+06
 -1       774 6.67848E+09-1.87396E+07-6.44673E+06-3.99734E+05-5.62958E+06-3.81786E+06
 -1       775 6.18878E+09-1.73653E+07-5.97395E+06-4.14606E+05-5.21681E+06-3.95900E+06
 -1       776 5.68199E+09-1.59432E+07-5.48456E+06-4.28286E+05-4.78982E+06-4.08878E+06
 -1       777 5.15951E+09-1.44769E+07-4.97929E+06-4.41505E+05-4.35025E+06-4.20575E+06
 -1       778 4.62279E+09-1.29693E+07-4.45877E+06-4.57975E+05-3.89961E+06-4.30822E+06
 -1       779 4.07335E+09-1.14153E+07-3.91640E+06-4.89154E+05-3.43757E+06-4.39778E+06
 -1       780 3.51273E+09-9.79985E+06-3.36304E+06-5.56766E+05-2.95840E+06-4.48656E+06
 -1       781 2.94257E+09-8.07648E+06-2.73347E+06-6.79304E+05-2.45114E+06-4.63268E+06
 -1       782 2.36419E+09-6.46754E+06-2.40996E+06-8.05130E+05-1.90652E+06-4.83594E+06
 -1       783 1.78039E+09-4.42992E+06-7.19478E+05-8.15828E+05-1.43660E+06-5.11883E+06
 -1       784 1.18463E+09-6.18435E+06-7.74432E+06-6.06022E+05-9.42996E+05-5.86447E+06
 -1       785 6.15815E+08 1.54528E+07 2.62911E+07-3.53756E+05-1.51833E+06-3.43464E+06
 -1       786 9.97183E+09-1.30691E+09-1.76216E+09 1.80046E+08 1.43125E+08 3.55759E+08
 -1       787 1.12330E+10-1.08382E+08 1.81243E+08-1.06258E+08 2.25193E+07-2.04016E+07
 -1       788 1.09995E+10 5.42239E+06-5.86673E+07-5.30778E+07-7.10928E+06-5.40718E+07
 -1       789 1.10408E+10 6.26192E+07 3.07333E+07-1.00709E+07-2.22723E+07-2.92776E+07
 -1       790 1.09424E+10 3.96658E+07 1.89139E+07-1.37667E+06-1.61381E+07-1.24770E+07
 -1       791 1.07971E+10 2.82361E+07 1.60029E+07-1.31441E+06-1.11966E+07 8.52171E+04
 -1       792 1.06072E+10 2.33459E+07 1.25542E+07-1.44518E+06-9.35471E+06 2.75770E+06
 -1       793 1.03842E+10 2.29798E+07 1.18677E+07-8.55384E+05-9.02606E+06 2.70861E+06
 -1       794 1.01309E+10 2.32047E+07 1.16654E+07-1.68654E+05-8.99001E+06 2.36660E+06
 -1       795 9.84901E+09 2.30103E+07 1.14820E+07 2.50835E+05-8.85620E+06 2.31408E+06
 -1       796 9.53960E+09 2.24205E+07 1.11698E+07 4.36868E+05-8.61134E+06 2.45657E+06
 -1       797 9.20373E+09 2.16433E+07 1.07822E+07 5.11192E+05-8.30960E+06 2.65324E+06
 -1       798 8.84241E+09 2.07849E+07 1.03546E+07 5.50751E+05-7.98011E+06 2.84834E+06
 -1       799 8.45664E+09 1.98739E+07 9.90020E+06 5.83960E+05-7.63058E+06 3.03146E+06
 -1       800 8.04752E+09 1.89122E+07 9.42068E+06 6.16565E+05-7.26137E+06 3.20440E+06
 -1       801 7.61618E+09 1.78991E+07 8.91588E+06 6.48237E+05-6.87239E+06 3.36859E+06
 -1       802 7.16379E+09 1.68363E+07 8.38645E+06 6.78256E+05-6.46431E+06 3.52392E+06
 -1       803 6.69161E+09 1.57266E+07 7.83371E+06 7.06315E+05-6.03826E+06 3.66975E+06
 -1       804 6.20095E+09 1.45736E+07 7.25933E+06 7.32144E+05-5.59551E+06 3.80556E+06
 -1       805 5.69317E+09 1.33810E+07 6.66512E+06 7.55066E+05-5.13750E+06 3.93125E+06
 -1       806 5.16966E+09 1.21541E+07 6.05333E+06 7.73691E+05-4.66592E+06 4.04752E+06
 -1       807 4.63187E+09 1.08975E+07 5.42441E+06 7.86250E+05-4.18231E+06 4.15534E+06
 -1       808 4.08131E+09 9.61254E+06 4.78080E+06 7.91938E+05-3.68613E+06 4.25194E+06
 -1       809 3.51952E+09 8.27445E+06 4.09514E+06 7.90613E+05-3.17121E+06 4.32548E+06
 -1       810 2.94818E+09 6.89733E+06 3.44341E+06 7.73586E+05-2.62469E+06 4.31178E+06
 -1       811 2.36878E+09 5.25365E+06 2.48290E+06 7.15657E+05-2.03920E+06 4.23986E+06
 -1       812 1.78457E+09 4.37755E+06 3.17624E+06 4.16175E+05-1.55682E+06 3.92780E+06
 -1       813 1.19012E+09 1.64799E+06-3.74548E+06-2.25482E+05-9.89970E+05 3.75244E+06
 -1       814 6.21962E+08 2.32007E+07 3.04594E+07 1.98839E+06-1.25267E+06 4.31151E+06
 -1       815 9.97183E+09-1.30691E+09-1.76216E+09-1.80046E+08 1.43125E+08-3.55759E+08
 -1       816 1.12330E+10-1.08382E+08 1.81243E+08 1.06258E+08 2.25193E+07 2.04016E+07
 -1       817 1.09995E+10 5.42239E+06-5.86673E+07 5.30778E+07-7.10928E+06 5.40718E+07
 -1       818 1.10408E+10 6.26192E+07 3.07333E+07 1.00709E+07-2.22723E+07 2.92776E+07
 -1       819 1.09424E+10 3.96658E+07 1.89139E+07 1.37667E+06-1.61381E+07 1.24770E+07
 -1       820 1.07971E+10 2.82361E+07 1.60029E+07 1.31441E+06-1.11966E+07-8.52171E+04
 -1       821 1.06072E+10 2.33459E+07 1.25542E+07 1.44518E+06-9.35471E+06-2.75770E+06
 -1       822 1.03842E+10 2.29798E+07 1.18677E+07 8.55384E+05-9.02606E+06-2.70861E+06
 -1       823 1.01309E+10 2.32047E+07 1.16654E+07 1.68654E+05-8.99001E+06-2.36660E+06
 -1       824 9.84901E+09 2.30103E+07 1.14820E+07-2.50835E+05-8.85620E+06-2.31408E+06
 -1       825 9.53960E+09 2.24205E+07 1.11698E+07-4.36868E+05-8.61134E+06-2.45657E+06
 -1       826 9.20373E+09 2.16433E+07 1.07822E+07-5.11192E+05-8.30960E+06-2.65324E+06
 -1       827 8.84241E+09 2.07849E+07 1.03546E+07-5.50751E+05-7.98011E+06-2.84834E+06
 -1       828 8.45664E+09 1.98739E+07 9.90020E+06-5.83960E+05-7.63058E+06-3.03146E+06
 -1       829 8.04752E+09 1.89122E+07 9.42068E+06-6.16565E+05-7.26137E+06-3.20440E+06
 -1       830 7.61618E+09 1.78991E+07 8.91588E+06-6.48237E+05-6.87239E+06-3.36859E+06
 -1       831 7.16379E+09 1.68363E+07 8.38645E+06-6.78256E+05-6.46431E+06-3.52392E+06
 -1       832 6.69161E+09 1.57266E+07 7.83371E+06-7.06315E+05-6.03826E+06-3.66975E+06
 -1       833 6.20095E+09 1.45736E+07 7.25933E+06-7.32144E+05-5.59551E+06-3.80556E+06
 -1       834 5.69317E+09 1.33810E+07 6.66512E+06-7.55066E+05-5.13750E+06-3.93125E+06
 -1       835 5.16966E+09 1.21541E+07 6.05333E+06-7.73691E+05-4.66592E+06-4.04752E+06
 -1       836 4.63187E+09 1.08975E+07 5.42441E+06-7.86250E+05-4.18231E+06-4.15534E+06
 -1       837 4.08131E+09 9.61254E+06 4.78080E+06-7.91938E+05-3.68613E+06-4.25194E+06
 -1       838 3.51952E+09 8.27445E+06 4.09514E+06-7.90613E+05-3.17121E+06-4.32548E+06
 -1       839 2.94818E+09 6.89733E+06 3.44341E+06-7.73586E+05-2.62469E+06-4.31178E+06
 -1       840 2.36878E+09 5.25365E+06 2.48290E+06-7.15656E+05-2.03920E+06-4.23986E+06
 -1       841 1.78457E+09 4.37755E+06 3.17624E+06-4.16175E+05-1.55682E+06-3.92780E+06
 -1       842 1.19012E+09 1.64799E+06-3.74548E+06 2.25482E+05-9.89970E+05-3.75244E+06
 -1       843 6.21962E+08 2.32007E+07 3.04594E+07-1.98839E+06-1.25267E+06-4.31151E+06
 -1       844 1.00636E+10-7.72918E+08-1.57443E+09-1.09588E+08 1.38845E+08-4.37700E+08
 -1       845 1.16630E+10 2.92321E+08 4.30466E+08-9.47179E+07 2.62621E+07 4.64015E+07
 -1       846 1.11314E+10-2.67087E+07-2.87383E+07-2.13961E+07-8.73150E+06 5.03293E+07
 -1       847 1.10419E+10-5.18642E+07-3.27956E+06 1.98016E+07-2.04991E+07 3.14695E+07
 -1       848 1.09097E+10-5.02403E+07-1.78691E+07 2.00681E+07-1.48574E+07 1.42608E+07
 -1       849 1.07630E+10-3.76208E+07-1.39880E+07 1.02162E+07-1.02790E+07 2.48748E+06
 -1       850 1.05806E+10-3.13085E+07-1.18266E+07 3.51955E+06-8.63480E+06 3.91589E+05
 -1       851 1.03621E+10-2.91428E+07-1.04014E+07 8.82706E+05-8.37566E+06 9.79338E+05
 -1       852 1.01107E+10-2.83173E+07-9.84989E+06 2.55280E+05-8.36843E+06 1.79191E+06
 -1       853 9.82965E+09-2.75963E+07-9.50796E+06 2.24176E+05-8.25339E+06 2.28480E+06
 -1       854 9.52086E+09-2.67483E+07-9.20349E+06 2.70656E+05-8.02786E+06 2.56177E+06
 -1       855 9.18565E+09-2.57933E+07-8.87478E+06 2.97921E+05-7.74709E+06 2.76861E+06
 -1       856 8.82504E+09-2.47682E+07-8.52227E+06 3.14130E+05-7.43997E+06 2.96142E+06
 -1       857 8.44004E+09-2.36825E+07-8.14803E+06 3.30302E+05-7.11412E+06 3.15000E+06
 -1       858 8.03173E+09-2.25360E+07-7.75303E+06 3.48181E+05-6.76992E+06 3.33161E+06
 -1       859 7.60123E+09-2.13284E+07-7.33737E+06 3.66323E+05-6.40726E+06 3.50390E+06
 -1       860 7.14973E+09-2.00619E+07-6.90161E+06 3.83624E+05-6.02680E+06 3.66606E+06
 -1       861 6.67848E+09-1.87396E+07-6.44673E+06 3.99734E+05-5.62958E+06 3.81786E+06
 -1       862 6.18878E+09-1.73653E+07-5.97395E+06 4.14606E+05-5.21681E+06 3.95900E+06
 -1       863 5.68199E+09-1.59432E+07-5.48456E+06 4.28286E+05-4.78982E+06 4.08878E+06
 -1       864 5.15951E+09-1.44769E+07-4.97929E+06 4.41504E+05-4.35025E+06 4.20575E+06
 -1       865 4.62279E+09-1.29693E+07-4.45877E+06 4.57975E+05-3.89961E+06 4.30822E+06
 -1       866 4.07335E+09-1.14153E+07-3.91640E+06 4.89154E+05-3.43757E+06 4.39778E+06
 -1       867 3.51273E+09-9.79985E+06-3.36304E+06 5.56766E+05-2.95840E+06 4.48656E+06
 -1       868 2.94257E+09-8.07648E+06-2.73347E+06 6.79304E+05-2.45114E+06 4.63268E+06
 -1       869 2.36419E+09-6.46754E+06-2.40996E+06 8.05131E+05-1.90652E+06 4.83594E+06
 -1       870 1.78039E+09-4.42992E+06-7.19478E+05 8.15828E+05-1.43660E+06 5.11883E+06
 -1       871 1.18463E+09-6.18435E+06-7.74432E+06 6.06022E+05-9.42996E+05 5.86447E+06
 -1       872 6.15815E+08 1.54528E+07 2.62911E+07 3.53756E+05-1.51833E+06 3.43464E+06
 -1       873 6.21962E+08 2.32007E+07 3.04594E+07-1.98839E+06 1.25267E+06 4.31151E+06
 -1       874 1.19012E+09 1.64799E+06-3.74548E+06 2.25481E+05 9.89970E+05 3.75244E+06
 -1       875 1.78457E+09 4.37755E+06 3.17624E+06-4.16175E+05 1.55682E+06 3.92780E+06
 -1       876 2.36878E+09 5.25365E+06 2.48290E+06-7.15657E+05 2.03920E+06 4.23986E+06
 -1       877 2.94818E+09 6.89733E+06 3.44341E+06-7.73586E+05 2.62469E+06 4.31178E+06
 -1       878 3.51952E+09 8.27445E+06 4.09514E+06-7.90613E+05 3.17121E+06 4.32548E+06
 -1       879 4.08131E+09 9.61254E+06 4.78080E+06-7.91938E+05 3.68613E+06 4.25194E+06
 -1       880 4.63187E+09 1.08975E+07 5.42441E+06-7.86249E+05 4.18231E+06 4.15534E+06
 -1       881 5.16966E+09 1.21541E+07 6.05333E+06-7.73691E+05 4.66592E+06 4.04752E+06
 -1       882 5.69317E+09 1.33810E+07 6.66512E+06-7.55066E+05 5.13750E+06 3.93125E+06
 -1       883 6.20095E+09 1.45736E+07 7.25933E+06-7.32144E+05 5.59551E+06 3.80556E+06
 -1       884 6.69161E+09 1.57266E+07 7.83371E+06-7.06315E+05 6.03826E+06 3.66975E+06
 -1       885 7.16379E+09 1.68363E+07 8.38645E+06-6.78256E+05 6.46431E+06 3.52392E+06
 -1       886 7.61618E+09 1.78991E+07 8.91588E+06-6.48237E+05 6.87239E+06 3.36859E+06
 -1       887 8.04752E+09 1.89122E+07 9.42068E+06-6.16565E+05 7.26137E+06 3.20440E+06
 -1       888 8.45664E+09 1.98739E+07 9.90020E+06-5.83960E+05 7.63058E+06 3.03146E+06
 -1       889 8.84241E+09 2.07849E+07 1.03546E+07-5.50751E+05 7.98011E+06 2.84834E+06
 -1       890 9.20373E+09 2.16433E+07 1.07822E+07-5.11192E+05 8.30960E+06 2.65324E+06
 -1       891 9.53960E+09 2.24205E+07 1.11698E+07-4.36868E+05 8.61134E+06 2.45657E+06
 -1       892 9.84901E+09 2.30103E+07 1.14820E+07-2.50835E+05 8.85620E+06 2.31408E+06
 -1       893 1.01309E+10 2.32047E+07 1.16654E+07 1.68654E+05 8.99001E+06 2.36660E+06
 -1       894 1.03842E+10 2.29798E+07 1.18677E+07 8.55384E+05 9.02606E+06 2.70861E+06
 -1       895 1.06072E+10 2.33459E+07 1.25542E+07 1.44518E+06 9.35471E+06 2.75770E+06
 -1       896 1.07971E+10 2.82361E+07 1.60029E+07 1.31441E+06 1.11966E+07 8.52171E+04
 -1       897 1.09424E+10 3.96658E+07 1.89139E+07 1.37667E+06 1.61381E+07-1.24770E+07
 -1       898 1.10408E+10 6.26192E+07 3.07333E+07 1.00709E+07 2.22723E+07-2.92776E+07
 -1       899 1.09995E+10 5.42239E+06-5.86673E+07 5.30778E+07 7.10928E+06-5.40718E+07
 -1       900 1.12330E+10-1.08382E+08 1.81243E+08 1.06258E+08-2.25193E+07-2.04016E+07
 -1       901 9.97183E+09-1.30691E+09-1.76216E+09-1.80046E+08-1.43125E+08 3.55759E+08
 -1       902 1.00636E+10-7.72918E+08-1.57443E+09-1.09588E+08-1.38845E+08 4.37700E+08
 -1       903 1.16630E+10 2.92321E+08 4.30466E+08-9.47179E+07-2.62621E+07-4.64015E+07
 -1       904 1.11314E+10-2.67087E+07-2.87383E+07-2.13961E+07 8.73150E+06-5.03293E+07
 -1       905 1.10419E+10-5.18642E+07-3.27956E+06 1.98016E+07 2.04991E+07-3.14695E+07
 -1       906 1.09097E+10-5.02403E+07-1.78691E+07 2.00681E+07 1.48574E+07-1.42608E+07
 -1       907 1.07630E+10-3.76208E+07-1.39880E+07 1.02162E+07 1.02790E+07-2.48748E+06
 -1       908 1.05806E+10-3.13085E+07-1.18266E+07 3.51955E+06 8.63480E+06-3.91589E+05
 -1       909 1.03621E+10-2.91428E+07-1.04014E+07 8.82706E+05 8.37566E+06-9.79338E+05
 -1       910 1.01107E+10-2.83173E+07-9.84989E+06 2.55280E+05 8.36843E+06-1.79191E+06
 -1       911 9.82965E+09-2.75963E+07-9.50796E+06 2.24176E+05 8.25339E+06-2.28480E+06
 -1       912 9.52086E+09-2.67483E+07-9.20349E+06 2.70656E+05 8.02786E+06-2.56177E+06
 -1       913 9.18565E+09-2.57933E+07-8.87478E+06 2.97921E+05 7.74709E+06-2.76861E+06
 -1       914 8.82504E+09-2.47682E+07-8.52227E+06 3.14130E+05 7.43997E+06-2.96142E+06
 -1       915 8.44004E+09-2.36825E+07-8.14803E+06 3.30302E+05 7.11412E+06-3.15000E+06
 -1       916 8.03173E+09-2.25360E+07-7.75303E+06 3.48181E+05 6.76992E+06-3.33161E+06
 -1       917 7.60123E+09-2.13284E+07-7.33737E+06 3.66323E+05 6.40726E+06-3.50390E+06
 -1       918 7.14973E+09-2.00619E+07-6.90161E+06 3.83624E+05 6.02680E+06-3.66606E+06
 -1       919 6.67848E+09-1.87396E+07-6.44673E+06 3.99734E+05 5.62958E+06-3.81786E+06
 -1       920 6.18878E+09-1.73653E+07-5.97395E+06 4.14606E+05 5.21681E+06-3.95900E+06
 -1       921 5.68199E+09-1.59432E+07-5.48456E+06 4.28286E+05 4.78982E+06-4.08878E+06
 -1       922 5.15951E+09-1.44769E+07-4.97929E+06 4.41504E+05 4.35025E+06-4.20575E+06
 -1       923 4.62279E+09-1.29693E+07-4.45877E+06 4.57975E+05 3.89961E+06-4.30822E+06
 -1       924 4.07335E+09-1.14153E+07-3.91640E+06 4.89154E+05 3.43757E+06-4.39778E+06
 -1       925 3.51273E+09-9.79985E+06-3.36304E+06 5.56766E+05 2.95840E+06-4.48656E+06
 -1       926 2.94257E+09-8.07648E+06-2.73347E+06 6.79304E+05 2.45114E+06-4.63268E+06
 -1       927 2.36419E+09-6.46754E+06-2.40996E+06 8.05131E+05 1.90652E+06-4.83594E+06
 -1       928 1.78039E+09-4.42992E+06-7.19478E+05 8.15828E+05 1.43660E+06-5.11883E+06
 -1       929 1.18463E+09-6.18435E+06-7.74432E+06 6.06022E+05 9.42996E+05-5.86447E+06
 -1       930 6.15815E+08 1.54528E+07 2.62911E+07 3.53756E+05 1.51833E+06-3.43464E+06
 -3
    1PSTEP                        35           1           1          
    1PGM                1.000000E+00                                  
    1PGK                7.388285E+06                                  
    1PHID                         -1                                  
    1PSUBC                         0                                  
    1PMODE                         9                                  
  100CL  109 432.6054182         930                     2    9MODAL      1
 -4  FORC        4    1
 -5  F1          1    2    1    0
 -5  F2          1    2    2    0
 -5  F3          1    2    3    0
 -5  ALL         1    2    0    0    1ALL
 -1         1-3.15923E+06-7.32587E+06 3.16103E+06
 -1         2-3.15923E+06 7.32587E+06 3.16103E+06
 -1         3 1.11463E+05 3.86613E+00 7.70186E+01
 -1         4 1.11463E+05-3.86612E+00 7.70186E+01
 -1         5-3.15923E+06-7.32587E+06-3.16103E+06
 -1         6-3.15923E+06 7.32587E+06-3.16103E+06
 -1         7 1.11463E+05 3.86613E+00-7.70186E+01
 -1         8 1.11463E+05-3.86613E+00-7.70186E+01
 -1         9-3.02785E+06-6.92561E+04-4.35320E+06
 -1        10 5.17175E+04 3.49600E+00 4.08951E+01
 -1        11-2.38655E+06-1.31019E+06-3.67180E+06
 -1        12-1.53887E+06-1.27313E+06 3.62686E+06
 -1        13 4.30650E+04 1.42309E+01 3.35769E+01
 -1        14 4.30679E+04 1.41936E+01 3.26967E+01
 -1        15-3.02785E+06-6.92561E+04 4.35320E+06
 -1        16 5.17175E+04 3.49600E+00-4.08951E+01
 -1        17-1.53887E+06-1.27313E+06-3.62686E+06
 -1        18-2.38655E+06-1.31019E+06 3.67180E+06
 -1        19 4.30679E+04 1.41936E+01-3.26967E+01
 -1        20 4.30650E+04 1.42309E+01-3.35769E+01
 -1        21-1.53887E+06 1.27313E+06 3.62686E+06
 -1        22-2.38655E+06 1.31019E+06-3.67180E+06
 -1        23 4.30650E+04-1.42309E+01 3.35769E+01
 -1        24 4.30679E+04-1.41936E+01 3.26967E+01
 -1        25-3.02785E+06 6.92561E+04-4.35320E+06
 -1        26 5.17175E+04-3.49599E+00 4.08951E+01
 -1        27-3.02785E+06 6.92561E+04 4.35320E+06
 -1        28-2.38655E+06 1.31019E+06 3.67180E+06
 -1        29-1.53887E+06 1.27313E+06-3.62686E+06
 -1        30 5.17175E+04-3.49600E+00-4.08951E+01
 -1        31 4.30650E+04-1.42309E+01-3.35769E+01
 -1        32 4.30679E+04-1.41936E+01-3.26967E+01
 -1        33 1.05353E+04-2.47647E+02 3.12613E+03
 -1        34 2.20984E+04-2.87606E+02 5.25034E+03
 -1        35 3.37100E+04-2.78157E+02 6.06604E+03
 -1        36 4.52075E+04-2.75544E+02 6.20483E+03
 -1        37 5.65997E+04-2.73455E+02 6.09962E+03
 -1        38 6.78460E+04-2.69762E+02 5.94079E+03
 -1        39 7.89078E+04-2.65017E+02 5.78954E+03
 -1        40 8.97524E+04-2.59430E+02 5.64715E+03
 -1        41 1.00349E+05-2.53085E+02 5.50223E+03
 -1        42 1.10669E+05-2.46031E+02 5.34704E+03
 -1        43 1.20683E+05-2.38297E+02 5.17850E+03
 -1        44 1.30363E+05-2.29906E+02 4.99600E+03
 -1        45 1.39684E+05-2.20880E+02 4.79980E+03
 -1        46 1.48618E+05-2.11244E+02 4.59038E+03
 -1        47 1.57142E+05-2.01024E+02 4.36830E+03
 -1        48 1.65232E+05-1.90249E+02 4.13416E+03
 -1        49 1.72865E+05-1.78949E+02 3.88860E+03
 -1        50 1.80021E+05-1.67154E+02 3.63230E+03
 -1        51 1.86680E+05-1.54898E+02 3.36596E+03
 -1        52 1.92823E+05-1.42213E+02 3.09032E+03
 -1        53 1.98433E+05-1.29136E+02 2.80613E+03
 -1        54 2.03496E+05-1.15702E+02 2.51414E+03
 -1        55 2.07996E+05-1.01949E+02 2.21508E+03
 -1        56 2.11921E+05-8.79150E+01 1.90963E+03
 -1        57 2.15262E+05-7.36414E+01 1.59848E+03
 -1        58 2.18007E+05-5.91773E+01 1.28265E+03
 -1        59 2.20151E+05-4.45371E+01 9.64231E+02
 -1        60 2.21686E+05-2.96313E+01 6.47855E+02
 -1        61 2.22609E+05-1.53321E+01 3.44345E+02
 -1        62 1.05353E+04 2.47647E+02 3.12613E+03
 -1        63 2.20984E+04 2.87606E+02 5.25034E+03
 -1        64 3.37100E+04 2.78157E+02 6.06604E+03
 -1        65 4.52075E+04 2.75543E+02 6.20483E+03
 -1        66 5.65997E+04 2.73455E+02 6.09962E+03
 -1        67 6.78460E+04 2.69762E+02 5.94079E+03
 -1        68 7.89078E+04 2.65017E+02 5.78954E+03
 -1        69 8.97524E+04 2.59430E+02 5.64715E+03
 -1        70 1.00349E+05 2.53085E+02 5.50223E+03
 -1        71 1.10669E+05 2.46031E+02 5.34704E+03
 -1        72 1.20683E+05 2.38297E+02 5.17850E+03
 -1        73 1.30363E+05 2.29906E+02 4.99600E+03
 -1        74 1.39684E+05 2.20880E+02 4.79980E+03
 -1        75 1.48618E+05 2.11244E+02 4.59038E+03
 -1        76 1.57142E+05 2.01024E+02 4.36830E+03
 -1        77 1.65232E+05 1.90249E+02 4.13416E+03
 -1        78 1.72865E+05 1.78949E+02 3.88860E+03
 -1        79 1.80021E+05 1.67154E+02 3.63230E+03
 -1        80 1.86680E+05 1.54898E+02 3.36596E+03
 -1        81 1.92823E+05 1.42213E+02 3.09032E+03
 -1        82 1.98433E+05 1.29136E+02 2.80613E+03
 -1        83 2.03496E+05 1.15702E+02 2.51414E+03
 -1        84 2.07996E+05 1.01949E+02 2.21508E+03
 -1        85 2.11921E+05 8.79150E+01 1.90963E+03
 -1        86 2.15262E+05 7.36414E+01 1.59848E+03
 -1        87 2.18007E+05 5.91773E+01 1.28265E+03
 -1        88 2.20151E+05 4.45372E+01 9.64231E+02
 -1        89 2.21686E+05 2.96313E+01 6.47854E+02
 -1        90 2.22609E+05 1.53321E+01 3.44345E+02
 -1        91-4.26941E+06-1.42089E+07-2.40749E+05
 -1        92-4.24782E+06-1.40556E+07 6.51342E-05
 -1        93-4.26941E+06-1.42089E+07 2.40749E+05
 -1        94-4.26941E+06 1.42089E+07 2.40749E+05
 -1        95-4.24782E+06 1.40556E+07 6.71950E-05
 -1        96-4.26941E+06 1.42089E+07-2.40749E+05
 -1        97 1.05353E+04 2.47647E+02-3.12613E+03
 -1        98 2.20984E+04 2.87606E+02-5.25034E+03
 -1        99 3.37100E+04 2.78157E+02-6.06604E+03
 -1       100 4.52075E+04 2.75543E+02-6.20483E+03
 -1       101 5.65997E+04 2.73455E+02-6.09962E+03
 -1       102 6.78460E+04 2.69762E+02-5.94079E+03
 -1       103 7.89078E+04 2.65017E+02-5.78954E+03
 -1       104 8.97524E+04 2.59430E+02-5.64715E+03
 -1       105 1.00349E+05 2.53085E+02-5.50223E+03
 -1       106 1.10669E+05 2.46031E+02-5.34704E+03
 -1       107 1.20683E+05 2.38297E+02-5.17850E+03
 -1       108 1.30363E+05 2.29906E+02-4.99600E+03
 -1       109 1.39684E+05 2.20880E+02-4.79980E+03
 -1       110 1.48618E+05 2.11244E+02-4.59038E+03
 -1       111 1.57142E+05 2.01024E+02-4.36830E+03
 -1       112 1.65232E+05 1.90249E+02-4.13416E+03
 -1       113 1.72865E+05 1.78949E+02-3.88860E+03
 -1       114 1.80021E+05 1.67154E+02-3.63230E+03
 -1       115 1.86680E+05 1.54898E+02-3.36596E+03
 -1       116 1.92823E+05 1.42213E+02-3.09032E+03
 -1       117 1.98433E+05 1.29136E+02-2.80613E+03
 -1       118 2.03496E+05 1.15702E+02-2.51414E+03
 -1       119 2.07996E+05 1.01949E+02-2.21508E+03
 -1       120 2.11921E+05 8.79150E+01-1.90963E+03
 -1       121 2.15262E+05 7.36414E+01-1.59848E+03
 -1       122 2.18007E+05 5.91773E+01-1.28265E+03
 -1       123 2.20151E+05 4.45372E+01-9.64231E+02
 -1       124 2.21686E+05 2.96313E+01-6.47855E+02
 -1       125 2.22609E+05 1.53321E+01-3.44345E+02
 -1       126 1.19554E+05 7.79154E-01 4.37723E+01
 -1       127 1.19596E+05 7.91261E-01 3.03598E-06
 -1       128 1.19554E+05 7.79126E-01-4.37722E+01
 -1       129 1.05353E+04-2.47647E+02-3.12613E+03
 -1       130 2.20984E+04-2.87606E+02-5.25034E+03
 -1       131 3.37100E+04-2.78157E+02-6.06604E+03
 -1       132 4.52075E+04-2.75543E+02-6.20483E+03
 -1       133 5.65997E+04-2.73455E+02-6.09962E+03
 -1       134 6.78460E+04-2.69762E+02-5.94079E+03
 -1       135 7.89078E+04-2.65017E+02-5.78954E+03
 -1       136 8.97524E+04-2.59430E+02-5.64715E+03
 -1       137 1.00349E+05-2.53085E+02-5.50223E+03
 -1       138 1.10669E+05-2.46031E+02-5.34704E+03
 -1       139 1.20683E+05-2.38297E+02-5.17850E+03
 -1       140 1.30363E+05-2.29906E+02-4.99600E+03
 -1       141 1.39684E+05-2.20880E+02-4.79980E+03
 -1       142 1.48618E+05-2.11244E+02-4.59038E+03
 -1       143 1.57142E+05-2.01024E+02-4.36830E+03
 -1       144 1.65232E+05-1.90249E+02-4.13416E+03
 -1       145 1.72865E+05-1.78949E+02-3.88860E+03
 -1       146 1.80021E+05-1.67154E+02-3.63230E+03
 -1       147 1.86680E+05-1.54898E+02-3.36596E+03
 -1       148 1.92823E+05-1.42213E+02-3.09032E+03
 -1       149 1.98433E+05-1.29136E+02-2.80613E+03
 -1       150 2.03496E+05-1.15702E+02-2.51414E+03
 -1       151 2.07996E+05-1.01949E+02-2.21508E+03
 -1       152 2.11921E+05-8.79150E+01-1.90963E+03
 -1       153 2.15262E+05-7.36414E+01-1.59848E+03
 -1       154 2.18007E+05-5.91773E+01-1.28265E+03
 -1       155 2.20151E+05-4.45371E+01-9.64231E+02
 -1       156 2.21686E+05-2.96313E+01-6.47854E+02
 -1       157 2.22609E+05-1.53322E+01-3.44345E+02
 -1       158 1.19554E+05-7.79112E-01-4.37722E+01
 -1       159 1.19596E+05-7.91263E-01 6.04690E-06
 -1       160 1.19554E+05-7.79114E-01 4.37722E+01
 -1       161 5.00921E+03 2.34437E+02 1.67041E+03
 -1       162 1.03617E+04 2.68944E+02 2.77406E+03
 -1       163 1.57024E+04 2.49778E+02 3.20367E+03
 -1       164 2.10033E+04 2.44766E+02 3.27683E+03
 -1       165 2.62714E+04 2.44068E+02 3.21999E+03
 -1       166 3.14821E+04 2.41792E+02 3.13587E+03
 -1       167 3.66121E+04 2.37887E+02 3.05665E+03
 -1       168 4.16430E+04 2.32883E+02 2.98215E+03
 -1       169 4.65595E+04 2.27131E+02 2.90602E+03
 -1       170 5.13475E+04 2.20767E+02 2.82422E+03
 -1       171 5.59937E+04 2.13816E+02 2.73525E+03
 -1       172 6.04852E+04 2.06285E+02 2.63886E+03
 -1       173 6.48096E+04 1.98187E+02 2.53523E+03
 -1       174 6.89550E+04 1.89541E+02 2.42462E+03
 -1       175 7.29099E+04 1.80372E+02 2.30732E+03
 -1       176 7.66634E+04 1.70704E+02 2.18364E+03
 -1       177 8.02051E+04 1.60564E+02 2.05394E+03
 -1       178 8.35253E+04 1.49981E+02 1.91856E+03
 -1       179 8.66148E+04 1.38984E+02 1.77788E+03
 -1       180 8.94650E+04 1.27602E+02 1.63229E+03
 -1       181 9.20681E+04 1.15868E+02 1.48219E+03
 -1       182 9.44168E+04 1.03814E+02 1.32796E+03
 -1       183 9.65047E+04 9.14735E+01 1.17001E+03
 -1       184 9.83261E+04 7.88826E+01 1.00869E+03
 -1       185 9.98760E+04 6.60814E+01 8.44352E+02
 -1       186 1.01150E+05 5.31156E+01 6.77553E+02
 -1       187 1.02145E+05 3.99780E+01 5.09376E+02
 -1       188 1.02858E+05 2.65536E+01 3.42169E+02
 -1       189 1.03287E+05 1.37878E+01 1.81551E+02
 -1       190-4.54177E+06-1.87055E+05-7.16469E+06
 -1       191-1.81552E+06-1.61530E+05 6.88482E+06
 -1       192 8.61389E+04 1.75692E+01 6.76221E+01
 -1       193 4.23774E+03 9.12834E+02 9.44699E+02
 -1       194 8.65003E+03 1.05544E+03 2.06537E+03
 -1       195 1.30801E+04 1.00578E+03 2.71713E+03
 -1       196 1.74980E+04 9.92336E+02 2.84963E+03
 -1       197 2.18825E+04 9.86360E+02 2.77372E+03
 -1       198 2.62178E+04 9.74981E+02 2.67547E+03
 -1       199 3.04871E+04 9.58592E+02 2.59858E+03
 -1       200 3.46750E+04 9.38470E+02 2.53468E+03
 -1       201 3.87683E+04 9.15448E+02 2.47127E+03
 -1       202 4.27549E+04 8.89884E+02 2.40253E+03
 -1       203 4.66235E+04 8.61896E+02 2.32711E+03
 -1       204 5.03633E+04 8.31545E+02 2.24514E+03
 -1       205 5.39641E+04 7.98900E+02 2.15695E+03
 -1       206 5.74158E+04 7.64047E+02 2.06283E+03
 -1       207 6.07089E+04 7.27084E+02 1.96303E+03
 -1       208 6.38342E+04 6.88112E+02 1.85782E+03
 -1       209 6.67833E+04 6.47240E+02 1.74747E+03
 -1       210 6.95479E+04 6.04579E+02 1.63229E+03
 -1       211 7.21203E+04 5.60249E+02 1.51260E+03
 -1       212 7.44935E+04 5.14370E+02 1.38874E+03
 -1       213 7.66610E+04 4.67071E+02 1.26103E+03
 -1       214 7.86167E+04 4.18481E+02 1.12984E+03
 -1       215 8.03552E+04 3.68738E+02 9.95461E+02
 -1       216 8.18719E+04 3.17982E+02 8.58170E+02
 -1       217 8.31624E+04 2.66369E+02 7.18198E+02
 -1       218 8.42233E+04 2.14070E+02 5.75998E+02
 -1       219 8.50518E+04 1.61136E+02 4.32919E+02
 -1       220 8.56459E+04 1.07239E+02 2.91825E+02
 -1       221 8.60053E+04 5.56875E+01 1.55478E+02
 -1       222 4.18960E+03 8.73111E+02 8.84826E+02
 -1       223 8.60676E+03 1.03204E+03 2.00564E+03
 -1       224 1.30645E+04 1.01037E+03 2.65726E+03
 -1       225 1.74988E+04 1.00386E+03 2.79010E+03
 -1       226 2.18871E+04 9.95074E+02 2.71484E+03
 -1       227 2.62217E+04 9.81001E+02 2.61737E+03
 -1       228 3.04901E+04 9.63569E+02 2.54148E+03
 -1       229 3.46778E+04 9.43271E+02 2.47877E+03
 -1       230 3.87712E+04 9.20250E+02 2.41672E+03
 -1       231 4.27581E+04 8.94630E+02 2.34949E+03
 -1       232 4.66270E+04 8.66517E+02 2.27574E+03
 -1       233 5.03671E+04 8.36006E+02 2.19557E+03
 -1       234 5.39681E+04 8.03184E+02 2.10933E+03
 -1       235 5.74201E+04 7.68144E+02 2.01729E+03
 -1       236 6.07134E+04 7.30983E+02 1.91970E+03
 -1       237 6.38390E+04 6.91802E+02 1.81680E+03
 -1       238 6.67883E+04 6.50710E+02 1.70889E+03
 -1       239 6.95531E+04 6.07821E+02 1.59626E+03
 -1       240 7.21257E+04 5.63253E+02 1.47921E+03
 -1       241 7.44991E+04 5.17129E+02 1.35808E+03
 -1       242 7.66668E+04 4.69576E+02 1.23320E+03
 -1       243 7.86226E+04 4.20727E+02 1.10489E+03
 -1       244 8.03613E+04 3.70717E+02 9.73483E+02
 -1       245 8.18780E+04 3.19686E+02 8.39217E+02
 -1       246 8.31687E+04 2.67780E+02 7.02321E+02
 -1       247 8.42297E+04 2.15170E+02 5.63242E+02
 -1       248 8.50582E+04 1.61952E+02 4.23315E+02
 -1       249 8.56521E+04 1.07883E+02 2.85392E+02
 -1       250 8.60113E+04 5.60746E+01 1.52199E+02
 -1       251 8.61446E+04 1.75014E+01 6.58836E+01
 -1       252 1.03287E+05 1.37878E+01-1.81551E+02
 -1       253 1.02858E+05 2.65536E+01-3.42169E+02
 -1       254 1.02145E+05 3.99780E+01-5.09376E+02
 -1       255 1.01150E+05 5.31156E+01-6.77553E+02
 -1       256 9.98760E+04 6.60814E+01-8.44352E+02
 -1       257 9.83261E+04 7.88826E+01-1.00869E+03
 -1       258 9.65047E+04 9.14735E+01-1.17001E+03
 -1       259 9.44168E+04 1.03814E+02-1.32796E+03
 -1       260 9.20681E+04 1.15868E+02-1.48219E+03
 -1       261 8.94650E+04 1.27602E+02-1.63229E+03
 -1       262 8.66148E+04 1.38984E+02-1.77788E+03
 -1       263 8.35253E+04 1.49981E+02-1.91856E+03
 -1       264 8.02051E+04 1.60564E+02-2.05394E+03
 -1       265 7.66634E+04 1.70704E+02-2.18364E+03
 -1       266 7.29099E+04 1.80372E+02-2.30732E+03
 -1       267 6.89550E+04 1.89541E+02-2.42462E+03
 -1       268 6.48096E+04 1.98187E+02-2.53523E+03
 -1       269 6.04852E+04 2.06285E+02-2.63886E+03
 -1       270 5.59937E+04 2.13816E+02-2.73525E+03
 -1       271 5.13475E+04 2.20767E+02-2.82422E+03
 -1       272 4.65595E+04 2.27131E+02-2.90602E+03
 -1       273 4.16430E+04 2.32883E+02-2.98215E+03
 -1       274 3.66121E+04 2.37887E+02-3.05665E+03
 -1       275 3.14821E+04 2.41792E+02-3.13587E+03
 -1       276 2.62714E+04 2.44068E+02-3.21999E+03
 -1       277 2.10033E+04 2.44766E+02-3.27683E+03
 -1       278 1.57024E+04 2.49778E+02-3.20367E+03
 -1       279 1.03617E+04 2.68944E+02-2.77406E+03
 -1       280 5.00921E+03 2.34437E+02-1.67041E+03
 -1       281-1.81552E+06-1.61530E+05-6.88482E+06
 -1       282-4.54177E+06-1.87055E+05 7.16469E+06
 -1       283 4.18960E+03 8.73111E+02-8.84826E+02
 -1       284 8.60675E+03 1.03204E+03-2.00564E+03
 -1       285 1.30645E+04 1.01037E+03-2.65726E+03
 -1       286 1.74988E+04 1.00386E+03-2.79010E+03
 -1       287 2.18871E+04 9.95074E+02-2.71484E+03
 -1       288 2.62217E+04 9.81001E+02-2.61737E+03
 -1       289 3.04901E+04 9.63569E+02-2.54148E+03
 -1       290 3.46778E+04 9.43271E+02-2.47877E+03
 -1       291 3.87712E+04 9.20250E+02-2.41672E+03
 -1       292 4.27581E+04 8.94630E+02-2.34949E+03
 -1       293 4.66270E+04 8.66517E+02-2.27574E+03
 -1       294 5.03671E+04 8.36006E+02-2.19557E+03
 -1       295 5.39681E+04 8.03184E+02-2.10933E+03
 -1       296 5.74201E+04 7.68144E+02-2.01729E+03
 -1       297 6.07134E+04 7.30983E+02-1.91970E+03
 -1       298 6.38390E+04 6.91802E+02-1.81680E+03
 -1       299 6.67883E+04 6.50710E+02-1.70889E+03
 -1       300 6.95531E+04 6.07821E+02-1.59626E+03
 -1       301 7.21257E+04 5.63253E+02-1.47921E+03
 -1       302 7.44991E+04 5.17129E+02-1.35808E+03
 -1       303 7.66668E+04 4.69576E+02-1.23320E+03
 -1       304 7.86226E+04 4.20727E+02-1.10489E+03
 -1       305 8.03613E+04 3.70717E+02-9.73483E+02
 -1       306 8.18780E+04 3.19686E+02-8.39217E+02
 -1       307 8.31687E+04 2.67780E+02-7.02321E+02
 -1       308 8.42297E+04 2.15170E+02-5.63242E+02
 -1       309 8.50582E+04 1.61952E+02-4.23315E+02
 -1       310 8.56521E+04 1.07883E+02-2.85392E+02
 -1       311 8.60113E+04 5.60746E+01-1.52199E+02
 -1       312 8.61446E+04 1.75014E+01-6.58836E+01
 -1       313 4.23774E+03 9.12834E+02-9.44699E+02
 -1       314 8.65003E+03 1.05544E+03-2.06537E+03
 -1       315 1.30801E+04 1.00578E+03-2.71713E+03
 -1       316 1.74980E+04 9.92336E+02-2.84963E+03
 -1       317 2.18825E+04 9.86360E+02-2.77372E+03
 -1       318 2.62178E+04 9.74981E+02-2.67547E+03
 -1       319 3.04871E+04 9.58592E+02-2.59858E+03
 -1       320 3.46750E+04 9.38470E+02-2.53468E+03
 -1       321 3.87683E+04 9.15448E+02-2.47127E+03
 -1       322 4.27549E+04 8.89884E+02-2.40253E+03
 -1       323 4.66235E+04 8.61896E+02-2.32711E+03
 -1       324 5.03633E+04 8.31545E+02-2.24514E+03
 -1       325 5.39641E+04 7.98900E+02-2.15695E+03
 -1       326 5.74158E+04 7.64047E+02-2.06283E+03
 -1       327 6.07089E+04 7.27084E+02-1.96303E+03
 -1       328 6.38342E+04 6.88112E+02-1.85782E+03
 -1       329 6.67833E+04 6.47240E+02-1.74747E+03
 -1       330 6.95479E+04 6.04579E+02-1.63229E+03
 -1       331 7.21203E+04 5.60249E+02-1.51260E+03
 -1       332 7.44935E+04 5.14370E+02-1.38874E+03
 -1       333 7.66610E+04 4.67071E+02-1.26103E+03
 -1       334 7.86167E+04 4.18481E+02-1.12984E+03
 -1       335 8.03552E+04 3.68738E+02-9.95461E+02
 -1       336 8.18719E+04 3.17982E+02-8.58170E+02
 -1       337 8.31624E+04 2.66369E+02-7.18198E+02
 -1       338 8.42233E+04 2.14070E+02-5.75998E+02
 -1       339 8.50518E+04 1.61136E+02-4.32919E+02
 -1       340 8.56459E+04 1.07239E+02-2.91825E+02
 -1       341 8.60053E+04 5.56875E+01-1.55478E+02
 -1       342 8.61389E+04 1.75692E+01-6.76221E+01
 -1       343 4.23774E+03-9.12834E+02 9.44699E+02
 -1       344 8.65003E+03-1.05544E+03 2.06537E+03
 -1       345 1.30801E+04-1.00578E+03 2.71713E+03
 -1       346 1.74980E+04-9.92336E+02 2.84963E+03
 -1       347 2.18825E+04-9.86360E+02 2.77372E+03
 -1       348 2.62178E+04-9.74981E+02 2.67547E+03
 -1       349 3.04871E+04-9.58592E+02 2.59858E+03
 -1       350 3.46750E+04-9.38470E+02 2.53468E+03
 -1       351 3.87683E+04-9.15448E+02 2.47127E+03
 -1       352 4.27549E+04-8.89884E+02 2.40253E+03
 -1       353 4.66235E+04-8.61896E+02 2.32711E+03
 -1       354 5.03633E+04-8.31545E+02 2.24514E+03
 -1       355 5.39641E+04-7.98900E+02 2.15695E+03
 -1       356 5.74158E+04-7.64047E+02 2.06283E+03
 -1       357 6.07089E+04-7.27084E+02 1.96303E+03
 -1       358 6.38342E+04-6.88112E+02 1.85782E+03
 -1       359 6.67833E+04-6.47240E+02 1.74747E+03
 -1       360 6.95479E+04-6.04579E+02 1.63229E+03
 -1       361 7.21203E+04-5.60249E+02 1.51260E+03
 -1       362 7.44935E+04-5.14370E+02 1.38874E+03
 -1       363 7.66610E+04-4.67071E+02 1.26103E+03
 -1       364 7.86167E+04-4.18481E+02 1.12984E+03
 -1       365 8.03552E+04-3.68738E+02 9.95461E+02
 -1       366 8.18719E+04-3.17982E+02 8.58170E+02
 -1       367 8.31624E+04-2.66369E+02 7.18198E+02
 -1       368 8.42233E+04-2.14070E+02 5.75998E+02
 -1       369 8.50518E+04-1.61136E+02 4.32919E+02
 -1       370 8.56459E+04-1.07239E+02 2.91825E+02
 -1       371 8.60053E+04-5.56875E+01 1.55478E+02
 -1       372 4.18960E+03-8.73111E+02 8.84826E+02
 -1       373 8.60676E+03-1.03204E+03 2.00564E+03
 -1       374 1.30645E+04-1.01037E+03 2.65726E+03
 -1       375 1.74988E+04-1.00386E+03 2.79010E+03
 -1       376 2.18871E+04-9.95074E+02 2.71484E+03
 -1       377 2.62217E+04-9.81001E+02 2.61737E+03
 -1       378 3.04901E+04-9.63569E+02 2.54148E+03
 -1       379 3.46778E+04-9.43271E+02 2.47877E+03
 -1       380 3.87712E+04-9.20250E+02 2.41672E+03
 -1       381 4.27581E+04-8.94630E+02 2.34949E+03
 -1       382 4.66270E+04-8.66517E+02 2.27574E+03
 -1       383 5.03671E+04-8.36006E+02 2.19557E+03
 -1       384 5.39681E+04-8.03184E+02 2.10933E+03
 -1       385 5.74201E+04-7.68144E+02 2.01729E+03
 -1       386 6.07134E+04-7.30983E+02 1.91970E+03
 -1       387 6.38390E+04-6.91802E+02 1.81680E+03
 -1       388 6.67883E+04-6.50710E+02 1.70889E+03
 -1       389 6.95531E+04-6.07821E+02 1.59626E+03
 -1       390 7.21257E+04-5.63253E+02 1.47921E+03
 -1       391 7.44991E+04-5.17129E+02 1.35808E+03
 -1       392 7.66668E+04-4.69576E+02 1.23320E+03
 -1       393 7.86226E+04-4.20727E+02 1.10489E+03
 -1       394 8.03613E+04-3.70717E+02 9.73483E+02
 -1       395 8.18780E+04-3.19686E+02 8.39217E+02
 -1       396 8.31687E+04-2.67780E+02 7.02321E+02
 -1       397 8.42297E+04-2.15170E+02 5.63242E+02
 -1       398 8.50582E+04-1.61952E+02 4.23315E+02
 -1       399 8.56521E+04-1.07883E+02 2.85392E+02
 -1       400 8.60113E+04-5.60746E+01 1.52199E+02
 -1       401-4.54177E+06 1.87055E+05-7.16469E+06
 -1       402-1.81552E+06 1.61530E+05 6.88482E+06
 -1       403 8.61389E+04-1.75692E+01 6.76221E+01
 -1       404 5.00921E+03-2.34437E+02 1.67041E+03
 -1       405 1.03617E+04-2.68944E+02 2.77406E+03
 -1       406 1.57024E+04-2.49778E+02 3.20367E+03
 -1       407 2.10033E+04-2.44766E+02 3.27683E+03
 -1       408 2.62714E+04-2.44068E+02 3.21999E+03
 -1       409 3.14821E+04-2.41792E+02 3.13587E+03
 -1       410 3.66121E+04-2.37887E+02 3.05665E+03
 -1       411 4.16430E+04-2.32883E+02 2.98215E+03
 -1       412 4.65595E+04-2.27131E+02 2.90602E+03
 -1       413 5.13475E+04-2.20767E+02 2.82422E+03
 -1       414 5.59937E+04-2.13816E+02 2.73525E+03
 -1       415 6.04852E+04-2.06285E+02 2.63886E+03
 -1       416 6.48096E+04-1.98187E+02 2.53523E+03
 -1       417 6.89550E+04-1.89541E+02 2.42462E+03
 -1       418 7.29099E+04-1.80372E+02 2.30732E+03
 -1       419 7.66634E+04-1.70704E+02 2.18364E+03
 -1       420 8.02051E+04-1.60564E+02 2.05394E+03
 -1       421 8.35253E+04-1.49981E+02 1.91856E+03
 -1       422 8.66148E+04-1.38984E+02 1.77788E+03
 -1       423 8.94650E+04-1.27602E+02 1.63229E+03
 -1       424 9.20681E+04-1.15868E+02 1.48219E+03
 -1       425 9.44168E+04-1.03814E+02 1.32796E+03
 -1       426 9.65047E+04-9.14735E+01 1.17001E+03
 -1       427 9.83261E+04-7.88826E+01 1.00869E+03
 -1       428 9.98760E+04-6.60814E+01 8.44352E+02
 -1       429 1.01150E+05-5.31156E+01 6.77553E+02
 -1       430 1.02145E+05-3.99780E+01 5.09376E+02
 -1       431 1.02858E+05-2.65536E+01 3.42169E+02
 -1       432 1.03287E+05-1.37878E+01 1.81551E+02
 -1       433 8.61446E+04-1.75014E+01 6.58836E+01
 -1       434-4.54177E+06 1.87055E+05 7.16469E+06
 -1       435-1.81552E+06 1.61530E+05-6.88482E+06
 -1       436 1.03287E+05-1.37878E+01-1.81551E+02
 -1       437 1.02858E+05-2.65536E+01-3.42169E+02
 -1       438 1.02145E+05-3.99780E+01-5.09376E+02
 -1       439 1.01150E+05-5.31156E+01-6.77553E+02
 -1       440 9.98760E+04-6.60814E+01-8.44352E+02
 -1       441 9.83261E+04-7.88826E+01-1.00869E+03
 -1       442 9.65047E+04-9.14735E+01-1.17001E+03
 -1       443 9.44168E+04-1.03814E+02-1.32796E+03
 -1       444 9.20681E+04-1.15868E+02-1.48219E+03
 -1       445 8.94650E+04-1.27602E+02-1.63229E+03
 -1       446 8.66148E+04-1.38984E+02-1.77788E+03
 -1       447 8.35253E+04-1.49981E+02-1.91856E+03
 -1       448 8.02051E+04-1.60564E+02-2.05394E+03
 -1       449 7.66634E+04-1.70704E+02-2.18364E+03
 -1       450 7.29099E+04-1.80372E+02-2.30732E+03
 -1       451 6.89550E+04-1.89541E+02-2.42462E+03
 -1       452 6.48096E+04-1.98187E+02-2.53523E+03
 -1       453 6.04852E+04-2.06285E+02-2.63886E+03
 -1       454 5.59937E+04-2.13816E+02-2.73525E+03
 -1       455 5.13475E+04-2.20767E+02-2.82422E+03
 -1       456 4.65595E+04-2.27131E+02-2.90602E+03
 -1       457 4.16430E+04-2.32883E+02-2.98215E+03
 -1       458 3.66121E+04-2.37887E+02-3.05665E+03
 -1       459 3.14821E+04-2.41792E+02-3.13587E+03
 -1       460 2.62714E+04-2.44068E+02-3.21999E+03
 -1       461 2.10033E+04-2.44766E+02-3.27683E+03
 -1       462 1.57024E+04-2.49778E+02-3.20367E+03
 -1       463 1.03617E+04-2.68944E+02-2.77406E+03
 -1       464 5.00921E+03-2.34437E+02-1.67041E+03
 -1       465 8.61389E+04-1.75692E+01-6.76221E+01
 -1       466 4.23774E+03-9.12834E+02-9.44699E+02
 -1       467 8.65003E+03-1.05544E+03-2.06537E+03
 -1       468 1.30801E+04-1.00578E+03-2.71713E+03
 -1       469 1.74980E+04-9.92336E+02-2.84963E+03
 -1       470 2.18825E+04-9.86360E+02-2.77372E+03
 -1       471 2.62178E+04-9.74981E+02-2.67547E+03
 -1       472 3.04871E+04-9.58592E+02-2.59858E+03
 -1       473 3.46750E+04-9.38470E+02-2.53468E+03
 -1       474 3.87683E+04-9.15448E+02-2.47127E+03
 -1       475 4.27549E+04-8.89884E+02-2.40253E+03
 -1       476 4.66235E+04-8.61896E+02-2.32711E+03
 -1       477 5.03633E+04-8.31545E+02-2.24514E+03
 -1       478 5.39641E+04-7.98900E+02-2.15695E+03
 -1       479 5.74158E+04-7.64047E+02-2.06283E+03
 -1       480 6.07089E+04-7.27084E+02-1.96303E+03
 -1       481 6.38342E+04-6.88112E+02-1.85782E+03
 -1       482 6.67833E+04-6.47240E+02-1.74747E+03
 -1       483 6.95479E+04-6.04579E+02-1.63229E+03
 -1       484 7.21203E+04-5.60249E+02-1.51260E+03
 -1       485 7.44935E+04-5.14370E+02-1.38874E+03
 -1       486 7.66610E+04-4.67071E+02-1.26103E+03
 -1       487 7.86167E+04-4.18481E+02-1.12984E+03
 -1       488 8.03552E+04-3.68738E+02-9.95461E+02
 -1       489 8.18719E+04-3.17982E+02-8.58170E+02
 -1       490 8.31624E+04-2.66369E+02-7.18198E+02
 -1       491 8.42233E+04-2.14070E+02-5.75998E+02
 -1       492 8.50518E+04-1.61136E+02-4.32919E+02
 -1       493 8.56459E+04-1.07239E+02-2.91825E+02
 -1       494 8.60053E+04-5.56875E+01-1.55478E+02
 -1       495 4.18960E+03-8.73111E+02-8.84826E+02
 -1       496 8.60676E+03-1.03204E+03-2.00564E+03
 -1       497 1.30645E+04-1.01037E+03-2.65726E+03
 -1       498 1.74988E+04-1.00386E+03-2.79010E+03
 -1       499 2.18871E+04-9.95074E+02-2.71484E+03
 -1       500 2.62217E+04-9.81001E+02-2.61737E+03
 -1       501 3.04901E+04-9.63569E+02-2.54148E+03
 -1       502 3.46778E+04-9.43271E+02-2.47877E+03
 -1       503 3.87712E+04-9.20250E+02-2.41672E+03
 -1       504 4.27581E+04-8.94630E+02-2.34949E+03
 -1       505 4.66270E+04-8.66517E+02-2.27574E+03
 -1       506 5.03671E+04-8.36006E+02-2.19557E+03
 -1       507 5.39681E+04-8.03184E+02-2.10933E+03
 -1       508 5.74201E+04-7.68144E+02-2.01729E+03
 -1       509 6.07134E+04-7.30983E+02-1.91970E+03
 -1       510 6.38390E+04-6.91802E+02-1.81680E+03
 -1       511 6.67883E+04-6.50710E+02-1.70889E+03
 -1       512 6.95531E+04-6.07821E+02-1.59626E+03
 -1       513 7.21257E+04-5.63253E+02-1.47921E+03
 -1       514 7.44991E+04-5.17129E+02-1.35808E+03
 -1       515 7.66668E+04-4.69576E+02-1.23320E+03
 -1       516 7.86226E+04-4.20727E+02-1.10489E+03
 -1       517 8.03613E+04-3.70717E+02-9.73483E+02
 -1       518 8.18780E+04-3.19686E+02-8.39217E+02
 -1       519 8.31687E+04-2.67780E+02-7.02321E+02
 -1       520 8.42297E+04-2.15170E+02-5.63242E+02
 -1       521 8.50582E+04-1.61952E+02-4.23315E+02
 -1       522 8.56521E+04-1.07883E+02-2.85392E+02
 -1       523 8.60113E+04-5.60746E+01-1.52199E+02
 -1       524 8.61446E+04-1.75014E+01-6.58836E+01
 -1       525 1.09396E+04 5.87444E+01 1.74419E+03
 -1       526 2.31561E+04 5.68166E+01 2.99035E+03
 -1       527 3.57335E+04 5.40420E+01 3.51922E+03
 -1       528 4.82585E+04 5.28160E+01 3.61719E+03
 -1       529 6.06054E+04 5.19095E+01 3.55629E+03
 -1       530 7.27332E+04 5.10969E+01 3.46054E+03
 -1       531 8.46261E+04 5.01774E+01 3.36875E+03
 -1       532 9.62684E+04 4.91191E+01 3.28340E+03
 -1       533 1.07638E+05 4.79192E+01 3.19794E+03
 -1       534 1.18708E+05 4.65846E+01 3.10730E+03
 -1       535 1.29450E+05 4.51206E+01 3.00923E+03
 -1       536 1.39833E+05 4.35320E+01 2.90316E+03
 -1       537 1.49831E+05 4.18230E+01 2.78914E+03
 -1       538 1.59414E+05 3.99985E+01 2.66745E+03
 -1       539 1.68557E+05 3.80634E+01 2.53840E+03
 -1       540 1.77235E+05 3.60232E+01 2.40234E+03
 -1       541 1.85423E+05 3.38835E+01 2.25964E+03
 -1       542 1.93099E+05 3.16502E+01 2.11071E+03
 -1       543 2.00241E+05 2.93295E+01 1.95594E+03
 -1       544 2.06830E+05 2.69277E+01 1.79577E+03
 -1       545 2.12848E+05 2.44516E+01 1.63062E+03
 -1       546 2.18278E+05 2.19080E+01 1.46094E+03
 -1       547 2.23105E+05 1.93038E+01 1.28713E+03
 -1       548 2.27316E+05 1.66463E+01 1.10957E+03
 -1       549 2.30898E+05 1.39429E+01 9.28679E+02
 -1       550 2.33841E+05 1.11988E+01 7.45049E+02
 -1       551 2.36138E+05 8.42077E+00 5.60024E+02
 -1       552 2.37781E+05 5.59617E+00 3.76874E+02
 -1       553 2.38769E+05 2.78131E+00 2.00869E+02
 -1       554 1.08216E+04 5.92693E+01 6.57718E-06
 -1       555 2.29476E+04 5.75358E+01-1.17782E-05
 -1       556 3.55483E+04 5.44913E+01-1.33665E-05
 -1       557 4.81565E+04 5.30780E+01-1.02618E-05
 -1       558 6.05707E+04 5.20086E+01-7.00944E-07
 -1       559 7.27370E+04 5.11136E+01 6.76809E-06
 -1       560 8.46495E+04 5.01645E+01 9.27378E-06
 -1       561 9.63016E+04 4.90984E+01-4.76930E-06
 -1       562 1.07677E+05 4.78977E+01 1.61637E-06
 -1       563 1.18752E+05 4.65637E+01 8.01700E-06
 -1       564 1.29497E+05 4.51006E+01 5.47520E-06
 -1       565 1.39885E+05 4.35127E+01 4.57030E-06
 -1       566 1.49886E+05 4.18045E+01-1.10215E-05
 -1       567 1.59473E+05 3.99808E+01-9.56362E-06
 -1       568 1.68620E+05 3.80466E+01-2.65943E-06
 -1       569 1.77301E+05 3.60073E+01 5.97386E-06
 -1       570 1.85492E+05 3.38686E+01-7.24245E-06
 -1       571 1.93170E+05 3.16363E+01-6.32751E-06
 -1       572 2.00315E+05 2.93165E+01 1.50055E-05
 -1       573 2.06907E+05 2.69158E+01 1.37587E-05
 -1       574 2.12927E+05 2.44408E+01-7.19617E-07
 -1       575 2.18359E+05 2.18983E+01 5.01855E-06
 -1       576 2.23188E+05 1.92952E+01 3.66877E-06
 -1       577 2.27400E+05 1.66387E+01-1.36141E-05
 -1       578 2.30983E+05 1.39356E+01-2.01640E-05
 -1       579 2.33926E+05 1.11908E+01-1.53408E-05
 -1       580 2.36223E+05 8.41149E+00-1.58656E-06
 -1       581 2.37865E+05 5.58452E+00 1.33292E-06
 -1       582 2.38854E+05 2.77208E+00 2.76398E-06
 -1       583 1.09396E+04 5.87444E+01-1.74419E+03
 -1       584 2.31561E+04 5.68166E+01-2.99035E+03
 -1       585 3.57335E+04 5.40420E+01-3.51922E+03
 -1       586 4.82585E+04 5.28161E+01-3.61719E+03
 -1       587 6.06054E+04 5.19095E+01-3.55629E+03
 -1       588 7.27332E+04 5.10969E+01-3.46054E+03
 -1       589 8.46261E+04 5.01775E+01-3.36875E+03
 -1       590 9.62684E+04 4.91191E+01-3.28340E+03
 -1       591 1.07638E+05 4.79192E+01-3.19794E+03
 -1       592 1.18708E+05 4.65846E+01-3.10730E+03
 -1       593 1.29450E+05 4.51206E+01-3.00923E+03
 -1       594 1.39833E+05 4.35320E+01-2.90316E+03
 -1       595 1.49831E+05 4.18230E+01-2.78914E+03
 -1       596 1.59414E+05 3.99985E+01-2.66745E+03
 -1       597 1.68557E+05 3.80635E+01-2.53840E+03
 -1       598 1.77235E+05 3.60232E+01-2.40234E+03
 -1       599 1.85423E+05 3.38835E+01-2.25965E+03
 -1       600 1.93099E+05 3.16502E+01-2.11071E+03
 -1       601 2.00241E+05 2.93295E+01-1.95594E+03
 -1       602 2.06830E+05 2.69277E+01-1.79577E+03
 -1       603 2.12848E+05 2.44516E+01-1.63062E+03
 -1       604 2.18278E+05 2.19079E+01-1.46094E+03
 -1       605 2.23105E+05 1.93038E+01-1.28713E+03
 -1       606 2.27316E+05 1.66464E+01-1.10957E+03
 -1       607 2.30898E+05 1.39429E+01-9.28679E+02
 -1       608 2.33841E+05 1.11988E+01-7.45049E+02
 -1       609 2.36138E+05 8.42071E+00-5.60024E+02
 -1       610 2.37781E+05 5.59613E+00-3.76874E+02
 -1       611 2.38769E+05 2.78126E+00-2.00869E+02
 -1       612 1.09396E+04-5.87444E+01-1.74419E+03
 -1       613 2.31561E+04-5.68166E+01-2.99035E+03
 -1       614 3.57335E+04-5.40420E+01-3.51922E+03
 -1       615 4.82585E+04-5.28160E+01-3.61719E+03
 -1       616 6.06054E+04-5.19095E+01-3.55629E+03
 -1       617 7.27332E+04-5.10969E+01-3.46054E+03
 -1       618 8.46261E+04-5.01775E+01-3.36875E+03
 -1       619 9.62684E+04-4.91191E+01-3.28340E+03
 -1       620 1.07638E+05-4.79192E+01-3.19794E+03
 -1       621 1.18708E+05-4.65845E+01-3.10730E+03
 -1       622 1.29450E+05-4.51206E+01-3.00923E+03
 -1       623 1.39833E+05-4.35319E+01-2.90316E+03
 -1       624 1.49831E+05-4.18230E+01-2.78914E+03
 -1       625 1.59414E+05-3.99985E+01-2.66745E+03
 -1       626 1.68557E+05-3.80634E+01-2.53840E+03
 -1       627 1.77235E+05-3.60232E+01-2.40234E+03
 -1       628 1.85423E+05-3.38835E+01-2.25964E+03
 -1       629 1.93099E+05-3.16502E+01-2.11071E+03
 -1       630 2.00241E+05-2.93295E+01-1.95594E+03
 -1       631 2.06830E+05-2.69278E+01-1.79577E+03
 -1       632 2.12848E+05-2.44516E+01-1.63062E+03
 -1       633 2.18278E+05-2.19080E+01-1.46094E+03
 -1       634 2.23105E+05-1.93039E+01-1.28713E+03
 -1       635 2.27316E+05-1.66464E+01-1.10957E+03
 -1       636 2.30898E+05-1.39429E+01-9.28679E+02
 -1       637 2.33841E+05-1.11988E+01-7.45049E+02
 -1       638 2.36138E+05-8.42072E+00-5.60024E+02
 -1       639 2.37781E+05-5.59613E+00-3.76874E+02
 -1       640 2.38769E+05-2.78125E+00-2.00869E+02
 -1       641 1.08216E+04-5.92693E+01 9.43416E-06
 -1       642 2.29476E+04-5.75358E+01-3.35719E-06
 -1       643 3.55483E+04-5.44913E+01-1.70238E-05
 -1       644 4.81565E+04-5.30780E+01-7.07314E-06
 -1       645 6.05707E+04-5.20086E+01 3.58132E-06
 -1       646 7.27370E+04-5.11136E+01 1.84781E-05
 -1       647 8.46495E+04-5.01646E+01 9.09082E-06
 -1       648 9.63016E+04-4.90984E+01 1.01051E-06
 -1       649 1.07677E+05-4.78977E+01 6.09750E-06
 -1       650 1.18752E+05-4.65637E+01 1.24997E-05
 -1       651 1.29497E+05-4.51006E+01-8.60736E-06
 -1       652 1.39885E+05-4.35127E+01-1.05880E-05
 -1       653 1.49886E+05-4.18045E+01-1.62254E-06
 -1       654 1.59473E+05-3.99808E+01-5.17389E-06
 -1       655 1.68620E+05-3.80466E+01-4.29167E-06
 -1       656 1.77301E+05-3.60073E+01 1.21655E-05
 -1       657 1.85492E+05-3.38686E+01 3.66288E-06
 -1       658 1.93170E+05-3.16362E+01 2.93711E-06
 -1       659 2.00315E+05-2.93165E+01 1.16415E-05
 -1       660 2.06907E+05-2.69158E+01 1.10300E-05
 -1       661 2.12927E+05-2.44408E+01 3.62594E-06
 -1       662 2.18359E+05-2.18983E+01-3.57705E-06
 -1       663 2.23188E+05-1.92952E+01 2.98003E-06
 -1       664 2.27400E+05-1.66387E+01-5.84921E-06
 -1       665 2.30983E+05-1.39356E+01-1.06793E-05
 -1       666 2.33926E+05-1.11908E+01-8.01024E-06
 -1       667 2.36223E+05-8.41152E+00-3.05125E-06
 -1       668 2.37865E+05-5.58452E+00-9.59114E-06
 -1       669 2.38854E+05-2.77208E+00 1.53030E-05
 -1       670 1.09396E+04-5.87444E+01 1.74419E+03
 -1       671 2.31561E+04-5.68166E+01 2.99035E+03
 -1       672 3.57335E+04-5.40420E+01 3.51922E+03
 -1       673 4.82585E+04-5.28161E+01 3.61719E+03
 -1       674 6.06054E+04-5.19096E+01 3.55629E+03
 -1       675 7.27332E+04-5.10969E+01 3.46054E+03
 -1       676 8.46261E+04-5.01775E+01 3.36875E+03
 -1       677 9.62684E+04-4.91191E+01 3.28340E+03
 -1       678 1.07638E+05-4.79192E+01 3.19794E+03
 -1       679 1.18708E+05-4.65846E+01 3.10730E+03
 -1       680 1.29450E+05-4.51206E+01 3.00923E+03
 -1       681 1.39833E+05-4.35319E+01 2.90316E+03
 -1       682 1.49831E+05-4.18230E+01 2.78914E+03
 -1       683 1.59414E+05-3.99985E+01 2.66745E+03
 -1       684 1.68557E+05-3.80634E+01 2.53840E+03
 -1       685 1.77235E+05-3.60232E+01 2.40234E+03
 -1       686 1.85423E+05-3.38835E+01 2.25965E+03
 -1       687 1.93099E+05-3.16502E+01 2.11071E+03
 -1       688 2.00241E+05-2.93295E+01 1.95594E+03
 -1       689 2.06830E+05-2.69277E+01 1.79577E+03
 -1       690 2.12848E+05-2.44516E+01 1.63062E+03
 -1       691 2.18278E+05-2.19080E+01 1.46094E+03
 -1       692 2.23105E+05-1.93038E+01 1.28713E+03
 -1       693 2.27316E+05-1.66464E+01 1.10957E+03
 -1       694 2.30898E+05-1.39429E+01 9.28679E+02
 -1       695 2.33841E+05-1.11988E+01 7.45049E+02
 -1       696 2.36138E+05-8.42072E+00 5.60024E+02
 -1       697 2.37781E+05-5.59614E+00 3.76874E+02
 -1       698 2.38769E+05-2.78128E+00 2.00869E+02
 -1       699 8.35788E+03 1.13794E+03 2.35847E+03
 -1       700 1.72766E+04 1.32560E+03 4.40244E+03
 -1       701 2.61625E+04 1.25161E+03 5.38191E+03
 -1       702 3.49934E+04 1.23197E+03 5.56714E+03
 -1       703 4.37653E+04 1.22604E+03 5.44704E+03
 -1       704 5.24398E+04 1.21267E+03 5.28141E+03
 -1       705 6.09812E+04 1.19248E+03 5.13962E+03
 -1       706 6.93591E+04 1.16740E+03 5.01387E+03
 -1       707 7.75471E+04 1.13868E+03 4.88706E+03
 -1       708 8.55215E+04 1.10685E+03 4.75024E+03
 -1       709 9.32598E+04 1.07202E+03 4.60084E+03
 -1       710 1.00741E+05 1.03427E+03 4.43874E+03
 -1       711 1.07943E+05 9.93664E+02 4.26441E+03
 -1       712 1.14847E+05 9.50315E+02 4.07834E+03
 -1       713 1.21434E+05 9.04340E+02 3.88104E+03
 -1       714 1.27686E+05 8.55867E+02 3.67301E+03
 -1       715 1.33585E+05 8.05030E+02 3.45485E+03
 -1       716 1.39115E+05 7.51969E+02 3.22713E+03
 -1       717 1.44260E+05 6.96831E+02 2.99050E+03
 -1       718 1.49008E+05 6.39768E+02 2.74561E+03
 -1       719 1.53343E+05 5.80938E+02 2.49313E+03
 -1       720 1.57255E+05 5.20502E+02 2.23373E+03
 -1       721 1.60733E+05 4.58630E+02 1.96805E+03
 -1       722 1.63766E+05 3.95500E+02 1.69666E+03
 -1       723 1.66348E+05 3.31308E+02 1.42010E+03
 -1       724 1.68470E+05 2.66274E+02 1.13928E+03
 -1       725 1.70127E+05 2.00419E+02 8.56395E+02
 -1       726 1.71315E+05 1.33253E+02 5.76174E+02
 -1       727 1.72031E+05 6.92567E+01 3.06363E+02
 -1       728 8.25630E+03 1.07229E+03 2.23710E+03
 -1       729 1.72054E+04 1.28902E+03 4.28161E+03
 -1       730 2.61401E+04 1.25870E+03 5.26245E+03
 -1       731 3.49947E+04 1.24996E+03 5.44807E+03
 -1       732 4.37728E+04 1.23981E+03 5.32922E+03
 -1       733 5.24468E+04 1.22223E+03 5.16517E+03
 -1       734 6.09870E+04 1.20039E+03 5.02539E+03
 -1       735 6.93646E+04 1.17503E+03 4.90202E+03
 -1       736 7.75529E+04 1.14631E+03 4.77793E+03
 -1       737 8.55279E+04 1.11438E+03 4.64415E+03
 -1       738 9.32668E+04 1.07936E+03 4.49807E+03
 -1       739 1.00748E+05 1.04135E+03 4.33959E+03
 -1       740 1.07951E+05 1.00047E+03 4.16916E+03
 -1       741 1.14856E+05 9.56820E+02 3.98725E+03
 -1       742 1.21443E+05 9.10531E+02 3.79434E+03
 -1       743 1.27696E+05 8.61726E+02 3.59097E+03
 -1       744 1.33595E+05 8.10541E+02 3.37768E+03
 -1       745 1.39125E+05 7.57117E+02 3.15505E+03
 -1       746 1.44271E+05 7.01602E+02 2.92371E+03
 -1       747 1.49019E+05 6.44149E+02 2.68428E+03
 -1       748 1.53355E+05 5.84916E+02 2.43744E+03
 -1       749 1.57267E+05 5.24068E+02 2.18383E+03
 -1       750 1.60745E+05 4.61774E+02 1.92409E+03
 -1       751 1.63778E+05 3.98206E+02 1.65875E+03
 -1       752 1.66360E+05 3.33548E+02 1.38834E+03
 -1       753 1.68482E+05 2.68023E+02 1.11376E+03
 -1       754 1.70140E+05 2.01719E+02 8.37179E+02
 -1       755 1.71327E+05 1.34277E+02 5.63324E+02
 -1       756 1.72043E+05 6.98822E+01 2.99877E+02
 -1       757 8.25630E+03 1.07229E+03-2.23710E+03
 -1       758 1.72054E+04 1.28902E+03-4.28161E+03
 -1       759 2.61401E+04 1.25870E+03-5.26245E+03
 -1       760 3.49947E+04 1.24996E+03-5.44807E+03
 -1       761 4.37728E+04 1.23981E+03-5.32922E+03
 -1       762 5.24468E+04 1.22223E+03-5.16517E+03
 -1       763 6.09870E+04 1.20039E+03-5.02539E+03
 -1       764 6.93646E+04 1.17503E+03-4.90202E+03
 -1       765 7.75529E+04 1.14631E+03-4.77793E+03
 -1       766 8.55279E+04 1.11438E+03-4.64415E+03
 -1       767 9.32668E+04 1.07936E+03-4.49807E+03
 -1       768 1.00748E+05 1.04135E+03-4.33959E+03
 -1       769 1.07951E+05 1.00047E+03-4.16916E+03
 -1       770 1.14856E+05 9.56820E+02-3.98725E+03
 -1       771 1.21443E+05 9.10531E+02-3.79434E+03
 -1       772 1.27696E+05 8.61726E+02-3.59097E+03
 -1       773 1.33595E+05 8.10541E+02-3.37768E+03
 -1       774 1.39125E+05 7.57117E+02-3.15505E+03
 -1       775 1.44271E+05 7.01602E+02-2.92371E+03
 -1       776 1.49019E+05 6.44149E+02-2.68428E+03
 -1       777 1.53355E+05 5.84916E+02-2.43744E+03
 -1       778 1.57267E+05 5.24068E+02-2.18383E+03
 -1       779 1.60745E+05 4.61774E+02-1.92409E+03
 -1       780 1.63778E+05 3.98206E+02-1.65875E+03
 -1       781 1.66360E+05 3.33548E+02-1.38834E+03
 -1       782 1.68482E+05 2.68023E+02-1.11376E+03
 -1       783 1.70140E+05 2.01719E+02-8.37179E+02
 -1       784 1.71327E+05 1.34277E+02-5.63324E+02
 -1       785 1.72043E+05 6.98822E+01-2.99877E+02
 -1       786 8.35788E+03 1.13794E+03-2.35847E+03
 -1       787 1.72766E+04 1.32560E+03-4.40244E+03
 -1       788 2.61625E+04 1.25161E+03-5.38191E+03
 -1       789 3.49934E+04 1.23197E+03-5.56714E+03
 -1       790 4.37653E+04 1.22604E+03-5.44704E+03
 -1       791 5.24398E+04 1.21267E+03-5.28141E+03
 -1       792 6.09812E+04 1.19248E+03-5.13962E+03
 -1       793 6.93591E+04 1.16740E+03-5.01387E+03
 -1       794 7.75471E+04 1.13868E+03-4.88706E+03
 -1       795 8.55215E+04 1.10685E+03-4.75024E+03
 -1       796 9.32598E+04 1.07202E+03-4.60084E+03
 -1       797 1.00741E+05 1.03427E+03-4.43874E+03
 -1       798 1.07943E+05 9.93664E+02-4.26441E+03
 -1       799 1.14847E+05 9.50315E+02-4.07834E+03
 -1       800 1.21434E+05 9.04340E+02-3.88104E+03
 -1       801 1.27686E+05 8.55867E+02-3.67301E+03
 -1       802 1.33585E+05 8.05030E+02-3.45485E+03
 -1       803 1.39115E+05 7.51969E+02-3.22713E+03
 -1       804 1.44260E+05 6.96832E+02-2.99050E+03
 -1       805 1.49008E+05 6.39769E+02-2.74561E+03
 -1       806 1.53343E+05 5.80938E+02-2.49313E+03
 -1       807 1.57255E+05 5.20502E+02-2.23373E+03
 -1       808 1.60733E+05 4.58630E+02-1.96805E+03
 -1       809 1.63766E+05 3.95500E+02-1.69666E+03
 -1       810 1.66348E+05 3.31308E+02-1.42010E+03
 -1       811 1.68470E+05 2.66274E+02-1.13928E+03
 -1       812 1.70127E+05 2.00419E+02-8.56395E+02
 -1       813 1.71315E+05 1.33253E+02-5.76174E+02
 -1       814 1.72031E+05 6.92567E+01-3.06363E+02
 -1       815 8.35788E+03-1.13794E+03 2.35847E+03
 -1       816 1.72766E+04-1.32560E+03 4.40244E+03
 -1       817 2.61625E+04-1.25161E+03 5.38191E+03
 -1       818 3.49934E+04-1.23197E+03 5.56714E+03
 -1       819 4.37653E+04-1.22604E+03 5.44704E+03
 -1       820 5.24398E+04-1.21267E+03 5.28141E+03
 -1       821 6.09812E+04-1.19248E+03 5.13962E+03
 -1       822 6.93591E+04-1.16740E+03 5.01387E+03
 -1       823 7.75471E+04-1.13868E+03 4.88706E+03
 -1       824 8.55215E+04-1.10685E+03 4.75024E+03
 -1       825 9.32598E+04-1.07202E+03 4.60084E+03
 -1       826 1.00741E+05-1.03427E+03 4.43874E+03
 -1       827 1.07943E+05-9.93664E+02 4.26441E+03
 -1       828 1.14847E+05-9.50315E+02 4.07834E+03
 -1       829 1.21434E+05-9.04340E+02 3.88104E+03
 -1       830 1.27686E+05-8.55867E+02 3.67301E+03
 -1       831 1.33585E+05-8.05030E+02 3.45485E+03
 -1       832 1.39115E+05-7.51969E+02 3.22713E+03
 -1       833 1.44260E+05-6.96831E+02 2.99050E+03
 -1       834 1.49008E+05-6.39769E+02 2.74561E+03
 -1       835 1.53343E+05-5.80938E+02 2.49313E+03
 -1       836 1.57255E+05-5.20502E+02 2.23373E+03
 -1       837 1.60733E+05-4.58630E+02 1.96805E+03
 -1       838 1.63766E+05-3.95500E+02 1.69666E+03
 -1       839 1.66348E+05-3.31308E+02 1.42010E+03
 -1       840 1.68470E+05-2.66273E+02 1.13928E+03
 -1       841 1.70127E+05-2.00419E+02 8.56395E+02
 -1       842 1.71315E+05-1.33253E+02 5.76174E+02
 -1       843 1.72031E+05-6.92567E+01 3.06363E+02
 -1       844 8.25630E+03-1.07229E+03 2.23710E+03
 -1       845 1.72054E+04-1.28902E+03 4.28161E+03
 -1       846 2.61401E+04-1.25870E+03 5.26245E+03
 -1       847 3.49947E+04-1.24996E+03 5.44807E+03
 -1       848 4.37728E+04-1.23981E+03 5.32922E+03
 -1       849 5.24468E+04-1.22223E+03 5.16517E+03
 -1       850 6.09870E+04-1.20039E+03 5.02539E+03
 -1       851 6.93646E+04-1.17503E+03 4.90202E+03
 -1       852 7.75529E+04-1.14631E+03 4.77793E+03
 -1       853 8.55279E+04-1.11438E+03 4.64415E+03
 -1       854 9.32668E+04-1.07936E+03 4.49807E+03
 -1       855 1.00748E+05-1.04135E+03 4.33959E+03
 -1       856 1.07951E+05-1.00047E+03 4.16916E+03
 -1       857 1.14856E+05-9.56820E+02 3.98725E+03
 -1       858 1.21443E+05-9.10531E+02 3.79434E+03
 -1       859 1.27696E+05-8.61726E+02 3.59097E+03
 -1       860 1.33595E+05-8.10541E+02 3.37768E+03
 -1       861 1.39125E+05-7.57117E+02 3.15505E+03
 -1       862 1.44271E+05-7.01602E+02 2.92371E+03
 -1       863 1.49019E+05-6.44149E+02 2.68428E+03
 -1       864 1.53355E+05-5.84916E+02 2.43744E+03
 -1       865 1.57267E+05-5.24068E+02 2.18383E+03
 -1       866 1.60745E+05-4.61774E+02 1.92409E+03
 -1       867 1.63778E+05-3.98206E+02 1.65875E+03
 -1       868 1.66360E+05-3.33548E+02 1.38834E+03
 -1       869 1.68482E+05-2.68023E+02 1.11376E+03
 -1       870 1.70140E+05-2.01719E+02 8.37179E+02
 -1       871 1.71327E+05-1.34277E+02 5.63324E+02
 -1       872 1.72043E+05-6.98822E+01 2.99877E+02
 -1       873 1.72031E+05-6.92567E+01-3.06363E+02
 -1       874 1.71315E+05-1.33253E+02-5.76174E+02
 -1       875 1.70127E+05-2.00419E+02-8.56395E+02
 -1       876 1.68470E+05-2.66273E+02-1.13928E+03
 -1       877 1.66348E+05-3.31308E+02-1.42010E+03
 -1       878 1.63766E+05-3.95500E+02-1.69666E+03
 -1       879 1.60733E+05-4.58630E+02-1.96805E+03
 -1       880 1.57255E+05-5.20502E+02-2.23373E+03
 -1       881 1.53343E+05-5.80938E+02-2.49313E+03
 -1       882 1.49008E+05-6.39768E+02-2.74561E+03
 -1       883 1.44260E+05-6.96831E+02-2.99050E+03
 -1       884 1.39115E+05-7.51969E+02-3.22713E+03
 -1       885 1.33585E+05-8.05030E+02-3.45485E+03
 -1       886 1.27686E+05-8.55867E+02-3.67301E+03
 -1       887 1.21434E+05-9.04340E+02-3.88104E+03
 -1       888 1.14847E+05-9.50315E+02-4.07834E+03
 -1       889 1.07943E+05-9.93664E+02-4.26441E+03
 -1       890 1.00741E+05-1.03427E+03-4.43874E+03
 -1       891 9.32598E+04-1.07202E+03-4.60084E+03
 -1       892 8.55215E+04-1.10685E+03-4.75024E+03
 -1       893 7.75471E+04-1.13868E+03-4.88706E+03
 -1       894 6.93591E+04-1.16740E+03-5.01387E+03
 -1       895 6.09812E+04-1.19248E+03-5.13962E+03
 -1       896 5.24398E+04-1.21267E+03-5.28141E+03
 -1       897 4.37653E+04-1.22604E+03-5.44704E+03
 -1       898 3.49934E+04-1.23197E+03-5.56714E+03
 -1       899 2.61625E+04-1.25161E+03-5.38191E+03
 -1       900 1.72766E+04-1.32560E+03-4.40244E+03
 -1       901 8.35788E+03-1.13794E+03-2.35847E+03
 -1       902 8.25630E+03-1.07229E+03-2.23710E+03
 -1       903 1.72054E+04-1.28902E+03-4.28161E+03
 -1       904 2.61401E+04-1.25870E+03-5.26245E+03
 -1       905 3.49947E+04-1.24996E+03-5.44807E+03
 -1       906 4.37728E+04-1.23981E+03-5.32922E+03
 -1       907 5.24468E+04-1.22223E+03-5.16517E+03
 -1       908 6.09870E+04-1.20039E+03-5.02539E+03
 -1       909 6.93646E+04-1.17503E+03-4.90202E+03
 -1       910 7.75529E+04-1.14631E+03-4.77793E+03
 -1       911 8.55279E+04-1.11438E+03-4.64415E+03
 -1       912 9.32668E+04-1.07936E+03-4.49807E+03
 -1       913 1.00748E+05-1.04135E+03-4.33959E+03
 -1       914 1.07951E+05-1.00047E+03-4.16916E+03
 -1       915 1.14856E+05-9.56820E+02-3.98725E+03
 -1       916 1.21443E+05-9.10531E+02-3.79434E+03
 -1       917 1.27696E+05-8.61726E+02-3.59097E+03
 -1       918 1.33595E+05-8.10541E+02-3.37768E+03
 -1       919 1.39125E+05-7.57117E+02-3.15505E+03
 -1       920 1.44271E+05-7.01602E+02-2.92371E+03
 -1       921 1.49019E+05-6.44149E+02-2.68428E+03
 -1       922 1.53355E+05-5.84916E+02-2.43744E+03
 -1       923 1.57267E+05-5.24068E+02-2.18383E+03
 -1       924 1.60745E+05-4.61774E+02-1.92409E+03
 -1       925 1.63778E+05-3.98206E+02-1.65875E+03
 -1       926 1.66360E+05-3.33548E+02-1.38834E+03
 -1       927 1.68482E+05-2.68023E+02-1.11376E+03
 -1       928 1.70140E+05-2.01719E+02-8.37179E+02
 -1       929 1.71327E+05-1.34277E+02-5.63324E+02
 -1       930 1.72043E+05-6.98822E+01-2.99877E+02
 -3
    1PSTEP                        36           1           1          
    1PGM                1.000000E+00                                  
    1PGK                7.388285E+06                                  
    1PHID                         -1                                  
    1PSUBC                         0                                  
    1PMODE                         9                                  
  100CL  109 432.6054182         930                     2    9MODAL      1
 -4  ERROR       1    1
 -5  STR(%)      1    1    0    0
 -1         1 1.34245E+01
 -1         2 1.34245E+01
 -1         3 1.23546E+01
 -1         4 1.23546E+01
 -1         5 1.34245E+01
 -1         6 1.34245E+01
 -1         7 1.23546E+01
 -1         8 1.23546E+01
 -1         9 1.34245E+01
 -1        10 1.16848E+01
 -1        11 1.43398E+01
 -1        12 1.43398E+01
 -1        13 1.14534E+01
 -1        14 1.14534E+01
 -1        15 1.34245E+01
 -1        16 1.16848E+01
 -1        17 1.43398E+01
 -1        18 1.43398E+01
 -1        19 1.14534E+01
 -1        20 1.14534E+01
 -1        21 1.43398E+01
 -1        22 1.43398E+01
 -1        23 1.14534E+01
 -1        24 1.14534E+01
 -1        25 1.34245E+01
 -1        26 1.16848E+01
 -1        27 1.34245E+01
 -1        28 1.43398E+01
 -1        29 1.43398E+01
 -1        30 1.16848E+01
 -1        31 1.14534E+01
 -1        32 1.14534E+01
 -1        33 1.34245E+01
 -1        34 2.98184E+00
 -1        35 7.00855E-01
 -1        36 6.38546E-01
 -1        37 4.65135E-01
 -1        38 3.41381E-01
 -1        39 2.50930E-01
 -1        40 2.62958E-01
 -1        41 2.86535E-01
 -1        42 3.10016E-01
 -1        43 3.34505E-01
 -1        44 3.60681E-01
 -1        45 3.89039E-01
 -1        46 4.20039E-01
 -1        47 4.54249E-01
 -1        48 4.92406E-01
 -1        49 5.35487E-01
 -1        50 5.84802E-01
 -1        51 6.42156E-01
 -1        52 7.10108E-01
 -1        53 7.92394E-01
 -1        54 8.94683E-01
 -1        55 1.02582E+00
 -1        56 1.20125E+00
 -1        57 1.44703E+00
 -1        58 1.83589E+00
 -1        59 2.51883E+00
 -1        60 4.39247E+00
 -1        61 1.23546E+01
 -1        62 1.34245E+01
 -1        63 2.98184E+00
 -1        64 7.00855E-01
 -1        65 6.38546E-01
 -1        66 4.65135E-01
 -1        67 3.41381E-01
 -1        68 2.50930E-01
 -1        69 2.62958E-01
 -1        70 2.86535E-01
 -1        71 3.10016E-01
 -1        72 3.34505E-01
 -1        73 3.60681E-01
 -1        74 3.89039E-01
 -1        75 4.20039E-01
 -1        76 4.54249E-01
 -1        77 4.92406E-01
 -1        78 5.35487E-01
 -1        79 5.84802E-01
 -1        80 6.42156E-01
 -1        81 7.10108E-01
 -1        82 7.92394E-01
 -1        83 8.94683E-01
 -1        84 1.02582E+00
 -1        85 1.20125E+00
 -1        86 1.44703E+00
 -1        87 1.83589E+00
 -1        88 2.51883E+00
 -1        89 4.39247E+00
 -1        90 1.23546E+01
 -1        91 1.03250E+01
 -1        92 7.35297E+00
 -1        93 1.03250E+01
 -1        94 1.03250E+01
 -1        95 7.35297E+00
 -1        96 1.03250E+01
 -1        97 1.34245E+01
 -1        98 2.98184E+00
 -1        99 7.00855E-01
 -1       100 6.38546E-01
 -1       101 4.65135E-01
 -1       102 3.41381E-01
 -1       103 2.50930E-01
 -1       104 2.62958E-01
 -1       105 2.86535E-01
 -1       106 3.10016E-01
 -1       107 3.34505E-01
 -1       108 3.60681E-01
 -1       109 3.89039E-01
 -1       110 4.20039E-01
 -1       111 4.54249E-01
 -1       112 4.92406E-01
 -1       113 5.35487E-01
 -1       114 5.84802E-01
 -1       115 6.42156E-01
 -1       116 7.10108E-01
 -1       117 7.92394E-01
 -1       118 8.94683E-01
 -1       119 1.02582E+00
 -1       120 1.20125E+00
 -1       121 1.44703E+00
 -1       122 1.83589E+00
 -1       123 2.51883E+00
 -1       124 4.39247E+00
 -1       125 1.23546E+01
 -1       126 1.26471E+01
 -1       127 1.26471E+01
 -1       128 1.26471E+01
 -1       129 1.34245E+01
 -1       130 2.98184E+00
 -1       131 7.00855E-01
 -1       132 6.38546E-01
 -1       133 4.65135E-01
 -1       134 3.41381E-01
 -1       135 2.50930E-01
 -1       136 2.62958E-01
 -1       137 2.86535E-01
 -1       138 3.10016E-01
 -1       139 3.34505E-01
 -1       140 3.60681E-01
 -1       141 3.89039E-01
 -1       142 4.20039E-01
 -1       143 4.54249E-01
 -1       144 4.92406E-01
 -1       145 5.35487E-01
 -1       146 5.84802E-01
 -1       147 6.42156E-01
 -1       148 7.10108E-01
 -1       149 7.92394E-01
 -1       150 8.94683E-01
 -1       151 1.02582E+00
 -1       152 1.20125E+00
 -1       153 1.44703E+00
 -1       154 1.83589E+00
 -1       155 2.51883E+00
 -1       156 4.39247E+00
 -1       157 1.23546E+01
 -1       158 1.26471E+01
 -1       159 1.26471E+01
 -1       160 1.26471E+01
 -1       161 1.34245E+01
 -1       162 2.98184E+00
 -1       163 7.00855E-01
 -1       164 2.68545E-01
 -1       165 2.13538E-01
 -1       166 2.16786E-01
 -1       167 2.39463E-01
 -1       168 2.62958E-01
 -1       169 2.86535E-01
 -1       170 3.10016E-01
 -1       171 3.34505E-01
 -1       172 3.60681E-01
 -1       173 3.89039E-01
 -1       174 4.20039E-01
 -1       175 4.54249E-01
 -1       176 4.92406E-01
 -1       177 5.35487E-01
 -1       178 5.84802E-01
 -1       179 6.42156E-01
 -1       180 7.10108E-01
 -1       181 7.92394E-01
 -1       182 8.94683E-01
 -1       183 1.02582E+00
 -1       184 1.20125E+00
 -1       185 1.44703E+00
 -1       186 1.83589E+00
 -1       187 2.51883E+00
 -1       188 4.39247E+00
 -1       189 1.16848E+01
 -1       190 1.43398E+01
 -1       191 1.43398E+01
 -1       192 1.16848E+01
 -1       193 1.43398E+01
 -1       194 2.82149E+00
 -1       195 9.71799E-01
 -1       196 3.59422E-01
 -1       197 1.46927E-01
 -1       198 1.54876E-01
 -1       199 1.62103E-01
 -1       200 1.76484E-01
 -1       201 1.96830E-01
 -1       202 2.19999E-01
 -1       203 2.44861E-01
 -1       204 2.71433E-01
 -1       205 3.00135E-01
 -1       206 3.31485E-01
 -1       207 3.66083E-01
 -1       208 4.04680E-01
 -1       209 4.48260E-01
 -1       210 4.98145E-01
 -1       211 5.56156E-01
 -1       212 6.24861E-01
 -1       213 7.07992E-01
 -1       214 8.11200E-01
 -1       215 9.43429E-01
 -1       216 1.12047E+00
 -1       217 1.37095E+00
 -1       218 1.77299E+00
 -1       219 2.44552E+00
 -1       220 4.42050E+00
 -1       221 1.14534E+01
 -1       222 1.43398E+01
 -1       223 2.82149E+00
 -1       224 9.71799E-01
 -1       225 3.59422E-01
 -1       226 1.46927E-01
 -1       227 1.54876E-01
 -1       228 1.62103E-01
 -1       229 1.76484E-01
 -1       230 1.96830E-01
 -1       231 2.19999E-01
 -1       232 2.44861E-01
 -1       233 2.71433E-01
 -1       234 3.00135E-01
 -1       235 3.31485E-01
 -1       236 3.66083E-01
 -1       237 4.04680E-01
 -1       238 4.48260E-01
 -1       239 4.98145E-01
 -1       240 5.56156E-01
 -1       241 6.24861E-01
 -1       242 7.07992E-01
 -1       243 8.11200E-01
 -1       244 9.43429E-01
 -1       245 1.12047E+00
 -1       246 1.37095E+00
 -1       247 1.77299E+00
 -1       248 2.44552E+00
 -1       249 4.42050E+00
 -1       250 1.14534E+01
 -1       251 1.16848E+01
 -1       252 1.16848E+01
 -1       253 4.39247E+00
 -1       254 2.51883E+00
 -1       255 1.83589E+00
 -1       256 1.44703E+00
 -1       257 1.20125E+00
 -1       258 1.02582E+00
 -1       259 8.94683E-01
 -1       260 7.92394E-01
 -1       261 7.10108E-01
 -1       262 6.42156E-01
 -1       263 5.84802E-01
 -1       264 5.35487E-01
 -1       265 4.92406E-01
 -1       266 4.54249E-01
 -1       267 4.20039E-01
 -1       268 3.89039E-01
 -1       269 3.60681E-01
 -1       270 3.34505E-01
 -1       271 3.10016E-01
 -1       272 2.86535E-01
 -1       273 2.62958E-01
 -1       274 2.39463E-01
 -1       275 2.16786E-01
 -1       276 2.13538E-01
 -1       277 2.68545E-01
 -1       278 7.00855E-01
 -1       279 2.98184E+00
 -1       280 1.34245E+01
 -1       281 1.43398E+01
 -1       282 1.43398E+01
 -1       283 1.43398E+01
 -1       284 2.82149E+00
 -1       285 9.71799E-01
 -1       286 3.59422E-01
 -1       287 1.46927E-01
 -1       288 1.54876E-01
 -1       289 1.62103E-01
 -1       290 1.76484E-01
 -1       291 1.96830E-01
 -1       292 2.19999E-01
 -1       293 2.44861E-01
 -1       294 2.71433E-01
 -1       295 3.00135E-01
 -1       296 3.31485E-01
 -1       297 3.66083E-01
 -1       298 4.04680E-01
 -1       299 4.48260E-01
 -1       300 4.98145E-01
 -1       301 5.56156E-01
 -1       302 6.24861E-01
 -1       303 7.07992E-01
 -1       304 8.11200E-01
 -1       305 9.43429E-01
 -1       306 1.12047E+00
 -1       307 1.37095E+00
 -1       308 1.77299E+00
 -1       309 2.44552E+00
 -1       310 4.42050E+00
 -1       311 1.14534E+01
 -1       312 1.16848E+01
 -1       313 1.43398E+01
 -1       314 2.82149E+00
 -1       315 9.71799E-01
 -1       316 3.59422E-01
 -1       317 1.46927E-01
 -1       318 1.54876E-01
 -1       319 1.62103E-01
 -1       320 1.76484E-01
 -1       321 1.96830E-01
 -1       322 2.19999E-01
 -1       323 2.44861E-01
 -1       324 2.71433E-01
 -1       325 3.00135E-01
 -1       326 3.31485E-01
 -1       327 3.66083E-01
 -1       328 4.04680E-01
 -1       329 4.48260E-01
 -1       330 4.98145E-01
 -1       331 5.56156E-01
 -1       332 6.24861E-01
 -1       333 7.07992E-01
 -1       334 8.11200E-01
 -1       335 9.43429E-01
 -1       336 1.12047E+00
 -1       337 1.37095E+00
 -1       338 1.77299E+00
 -1       339 2.44552E+00
 -1       340 4.42050E+00
 -1       341 1.14534E+01
 -1       342 1.16848E+01
 -1       343 1.43398E+01
 -1       344 2.82149E+00
 -1       345 9.71799E-01
 -1       346 3.59422E-01
 -1       347 1.46927E-01
 -1       348 1.54876E-01
 -1       349 1.62103E-01
 -1       350 1.76484E-01
 -1       351 1.96830E-01
 -1       352 2.19999E-01
 -1       353 2.44861E-01
 -1       354 2.71433E-01
 -1       355 3.00135E-01
 -1       356 3.31485E-01
 -1       357 3.66083E-01
 -1       358 4.04680E-01
 -1       359 4.48260E-01
 -1       360 4.98145E-01
 -1       361 5.56156E-01
 -1       362 6.24861E-01
 -1       363 7.07992E-01
 -1       364 8.11200E-01
 -1       365 9.43429E-01
 -1       366 1.12047E+00
 -1       367 1.37095E+00
 -1       368 1.77299E+00
 -1       369 2.44552E+00
 -1       370 4.42050E+00
 -1       371 1.14534E+01
 -1       372 1.43398E+01
 -1       373 2.82149E+00
 -1       374 9.71799E-01
 -1       375 3.59422E-01
 -1       376 1.46927E-01
 -1       377 1.54876E-01
 -1       378 1.62103E-01
 -1       379 1.76484E-01
 -1       380 1.96830E-01
 -1       381 2.19999E-01
 -1       382 2.44861E-01
 -1       383 2.71433E-01
 -1       384 3.00135E-01
 -1       385 3.31485E-01
 -1       386 3.66083E-01
 -1       387 4.04680E-01
 -1       388 4.48260E-01
 -1       389 4.98145E-01
 -1       390 5.56156E-01
 -1       391 6.24861E-01
 -1       392 7.07992E-01
 -1       393 8.11200E-01
 -1       394 9.43429E-01
 -1       395 1.12047E+00
 -1       396 1.37095E+00
 -1       397 1.77299E+00
 -1       398 2.44552E+00
 -1       399 4.42050E+00
 -1       400 1.14534E+01
 -1       401 1.43398E+01
 -1       402 1.43398E+01
 -1       403 1.16848E+01
 -1       404 1.34245E+01
 -1       405 2.98184E+00
 -1       406 7.00855E-01
 -1       407 2.68545E-01
 -1       408 2.13538E-01
 -1       409 2.16786E-01
 -1       410 2.39463E-01
 -1       411 2.62958E-01
 -1       412 2.86535E-01
 -1       413 3.10016E-01
 -1       414 3.34505E-01
 -1       415 3.60681E-01
 -1       416 3.89039E-01
 -1       417 4.20039E-01
 -1       418 4.54249E-01
 -1       419 4.92406E-01
 -1       420 5.35487E-01
 -1       421 5.84802E-01
 -1       422 6.42156E-01
 -1       423 7.10108E-01
 -1       424 7.92394E-01
 -1       425 8.94683E-01
 -1       426 1.02582E+00
 -1       427 1.20125E+00
 -1       428 1.44703E+00
 -1       429 1.83589E+00
 -1       430 2.51883E+00
 -1       431 4.39247E+00
 -1       432 1.16848E+01
 -1       433 1.16848E+01
 -1       434 1.43398E+01
 -1       435 1.43398E+01
 -1       436 1.16848E+01
 -1       437 4.39247E+00
 -1       438 2.51883E+00
 -1       439 1.83589E+00
 -1       440 1.44703E+00
 -1       441 1.20125E+00
 -1       442 1.02582E+00
 -1       443 8.94683E-01
 -1       444 7.92394E-01
 -1       445 7.10108E-01
 -1       446 6.42156E-01
 -1       447 5.84802E-01
 -1       448 5.35487E-01
 -1       449 4.92406E-01
 -1       450 4.54249E-01
 -1       451 4.20039E-01
 -1       452 3.89039E-01
 -1       453 3.60681E-01
 -1       454 3.34505E-01
 -1       455 3.10016E-01
 -1       456 2.86535E-01
 -1       457 2.62958E-01
 -1       458 2.39463E-01
 -1       459 2.16786E-01
 -1       460 2.13538E-01
 -1       461 2.68545E-01
 -1       462 7.00855E-01
 -1       463 2.98184E+00
 -1       464 1.34245E+01
 -1       465 1.16848E+01
 -1       466 1.43398E+01
 -1       467 2.82149E+00
 -1       468 9.71799E-01
 -1       469 3.59422E-01
 -1       470 1.46927E-01
 -1       471 1.54876E-01
 -1       472 1.62103E-01
 -1       473 1.76484E-01
 -1       474 1.96830E-01
 -1       475 2.19999E-01
 -1       476 2.44861E-01
 -1       477 2.71433E-01
 -1       478 3.00135E-01
 -1       479 3.31485E-01
 -1       480 3.66083E-01
 -1       481 4.04680E-01
 -1       482 4.48260E-01
 -1       483 4.98145E-01
 -1       484 5.56156E-01
 -1       485 6.24861E-01
 -1       486 7.07992E-01
 -1       487 8.11200E-01
 -1       488 9.43429E-01
 -1       489 1.12047E+00
 -1       490 1.37095E+00
 -1       491 1.77299E+00
 -1       492 2.44552E+00
 -1       493 4.42050E+00
 -1       494 1.14534E+01
 -1       495 1.43398E+01
 -1       496 2.82149E+00
 -1       497 9.71799E-01
 -1       498 3.59422E-01
 -1       499 1.46927E-01
 -1       500 1.54876E-01
 -1       501 1.62103E-01
 -1       502 1.76484E-01
 -1       503 1.96830E-01
 -1       504 2.19999E-01
 -1       505 2.44861E-01
 -1       506 2.71433E-01
 -1       507 3.00135E-01
 -1       508 3.31485E-01
 -1       509 3.66083E-01
 -1       510 4.04680E-01
 -1       511 4.48260E-01
 -1       512 4.98145E-01
 -1       513 5.56156E-01
 -1       514 6.24861E-01
 -1       515 7.07992E-01
 -1       516 8.11200E-01
 -1       517 9.43429E-01
 -1       518 1.12047E+00
 -1       519 1.37095E+00
 -1       520 1.77299E+00
 -1       521 2.44552E+00
 -1       522 4.42050E+00
 -1       523 1.14534E+01
 -1       524 1.16848E+01
 -1       525 1.03250E+01
 -1       526 1.21910E+00
 -1       527 6.93994E-01
 -1       528 6.38546E-01
 -1       529 4.65135E-01
 -1       530 3.41381E-01
 -1       531 2.50930E-01
 -1       532 2.24248E-01
 -1       533 2.41349E-01
 -1       534 2.63510E-01
 -1       535 2.88061E-01
 -1       536 3.14621E-01
 -1       537 3.43456E-01
 -1       538 3.75000E-01
 -1       539 4.09818E-01
 -1       540 4.48655E-01
 -1       541 4.92501E-01
 -1       542 5.42687E-01
 -1       543 6.01045E-01
 -1       544 6.70156E-01
 -1       545 7.53768E-01
 -1       546 8.57522E-01
 -1       547 9.90146E-01
 -1       548 1.16649E+00
 -1       549 1.41133E+00
 -1       550 1.78614E+00
 -1       551 2.45042E+00
 -1       552 4.23104E+00
 -1       553 1.26471E+01
 -1       554 7.35297E+00
 -1       555 6.10675E-01
 -1       556 6.10675E-01
 -1       557 2.42732E-01
 -1       558 2.41533E-01
 -1       559 2.22496E-01
 -1       560 1.81642E-01
 -1       561 1.68543E-01
 -1       562 1.84285E-01
 -1       563 2.05798E-01
 -1       564 2.30260E-01
 -1       565 2.56879E-01
 -1       566 2.85769E-01
 -1       567 3.17350E-01
 -1       568 3.52204E-01
 -1       569 3.91084E-01
 -1       570 4.34981E-01
 -1       571 4.85229E-01
 -1       572 5.43662E-01
 -1       573 6.12876E-01
 -1       574 6.96667E-01
 -1       575 8.00828E-01
 -1       576 9.34563E-01
 -1       577 1.11635E+00
 -1       578 1.37648E+00
 -1       579 1.78614E+00
 -1       580 2.42914E+00
 -1       581 4.18697E+00
 -1       582 1.26471E+01
 -1       583 1.03250E+01
 -1       584 1.21910E+00
 -1       585 6.93994E-01
 -1       586 6.38546E-01
 -1       587 4.65135E-01
 -1       588 3.41381E-01
 -1       589 2.50930E-01
 -1       590 2.24248E-01
 -1       591 2.41349E-01
 -1       592 2.63510E-01
 -1       593 2.88061E-01
 -1       594 3.14621E-01
 -1       595 3.43456E-01
 -1       596 3.75000E-01
 -1       597 4.09818E-01
 -1       598 4.48655E-01
 -1       599 4.92501E-01
 -1       600 5.42687E-01
 -1       601 6.01045E-01
 -1       602 6.70156E-01
 -1       603 7.53768E-01
 -1       604 8.57522E-01
 -1       605 9.90146E-01
 -1       606 1.16649E+00
 -1       607 1.41133E+00
 -1       608 1.78614E+00
 -1       609 2.45042E+00
 -1       610 4.23104E+00
 -1       611 1.26471E+01
 -1       612 1.03250E+01
 -1       613 1.21910E+00
 -1       614 6.93994E-01
 -1       615 6.38546E-01
 -1       616 4.65135E-01
 -1       617 3.41381E-01
 -1       618 2.50930E-01
 -1       619 2.24248E-01
 -1       620 2.41349E-01
 -1       621 2.63510E-01
 -1       622 2.88061E-01
 -1       623 3.14621E-01
 -1       624 3.43456E-01
 -1       625 3.75000E-01
 -1       626 4.09818E-01
 -1       627 4.48655E-01
 -1       628 4.92501E-01
 -1       629 5.42687E-01
 -1       630 6.01045E-01
 -1       631 6.70156E-01
 -1       632 7.53768E-01
 -1       633 8.57522E-01
 -1       634 9.90146E-01
 -1       635 1.16649E+00
 -1       636 1.41133E+00
 -1       637 1.78614E+00
 -1       638 2.45042E+00
 -1       639 4.23104E+00
 -1       640 1.26471E+01
 -1       641 7.35297E+00
 -1       642 6.10675E-01
 -1       643 6.10675E-01
 -1       644 2.42732E-01
 -1       645 2.41533E-01
 -1       646 2.22496E-01
 -1       647 1.81642E-01
 -1       648 1.68543E-01
 -1       649 1.84285E-01
 -1       650 2.05798E-01
 -1       651 2.30260E-01
 -1       652 2.56879E-01
 -1       653 2.85769E-01
 -1       654 3.17350E-01
 -1       655 3.52204E-01
 -1       656 3.91084E-01
 -1       657 4.34981E-01
 -1       658 4.85229E-01
 -1       659 5.43662E-01
 -1       660 6.12876E-01
 -1       661 6.96667E-01
 -1       662 8.00828E-01
 -1       663 9.34563E-01
 -1       664 1.11635E+00
 -1       665 1.37648E+00
 -1       666 1.78614E+00
 -1       667 2.42914E+00
 -1       668 4.18697E+00
 -1       669 1.26471E+01
 -1       670 1.03250E+01
 -1       671 1.21910E+00
 -1       672 6.93994E-01
 -1       673 6.38546E-01
 -1       674 4.65135E-01
 -1       675 3.41381E-01
 -1       676 2.50930E-01
 -1       677 2.24248E-01
 -1       678 2.41349E-01
 -1       679 2.63510E-01
 -1       680 2.88061E-01
 -1       681 3.14621E-01
 -1       682 3.43456E-01
 -1       683 3.75000E-01
 -1       684 4.09818E-01
 -1       685 4.48655E-01
 -1       686 4.92501E-01
 -1       687 5.42687E-01
 -1       688 6.01045E-01
 -1       689 6.70156E-01
 -1       690 7.53768E-01
 -1       691 8.57522E-01
 -1       692 9.90146E-01
 -1       693 1.16649E+00
 -1       694 1.41133E+00
 -1       695 1.78614E+00
 -1       696 2.45042E+00
 -1       697 4.23104E+00
 -1       698 1.26471E+01
 -1       699 1.43398E+01
 -1       700 2.82149E+00
 -1       701 9.71799E-01
 -1       702 3.59422E-01
 -1       703 1.93578E-01
 -1       704 1.93578E-01
 -1       705 2.07457E-01
 -1       706 2.29481E-01
 -1       707 2.53131E-01
 -1       708 2.77156E-01
 -1       709 3.02080E-01
 -1       710 3.28591E-01
 -1       711 3.57254E-01
 -1       712 3.88579E-01
 -1       713 4.23151E-01
 -1       714 4.61715E-01
 -1       715 5.05254E-01
 -1       716 5.55093E-01
 -1       717 6.13054E-01
 -1       718 6.81715E-01
 -1       719 7.64844E-01
 -1       720 8.68177E-01
 -1       721 1.00077E+00
 -1       722 1.17843E+00
 -1       723 1.42901E+00
 -1       724 1.81821E+00
 -1       725 2.51516E+00
 -1       726 4.42050E+00
 -1       727 1.16848E+01
 -1       728 1.43398E+01
 -1       729 2.82149E+00
 -1       730 9.71799E-01
 -1       731 3.59422E-01
 -1       732 1.93578E-01
 -1       733 1.93578E-01
 -1       734 2.07457E-01
 -1       735 2.29481E-01
 -1       736 2.53131E-01
 -1       737 2.77156E-01
 -1       738 3.02080E-01
 -1       739 3.28591E-01
 -1       740 3.57254E-01
 -1       741 3.88579E-01
 -1       742 4.23151E-01
 -1       743 4.61715E-01
 -1       744 5.05254E-01
 -1       745 5.55093E-01
 -1       746 6.13054E-01
 -1       747 6.81715E-01
 -1       748 7.64844E-01
 -1       749 8.68177E-01
 -1       750 1.00077E+00
 -1       751 1.17843E+00
 -1       752 1.42901E+00
 -1       753 1.81821E+00
 -1       754 2.51516E+00
 -1       755 4.42050E+00
 -1       756 1.16848E+01
 -1       757 1.43398E+01
 -1       758 2.82149E+00
 -1       759 9.71799E-01
 -1       760 3.59422E-01
 -1       761 1.93578E-01
 -1       762 1.93578E-01
 -1       763 2.07457E-01
 -1       764 2.29481E-01
 -1       765 2.53131E-01
 -1       766 2.77156E-01
 -1       767 3.02080E-01
 -1       768 3.28591E-01
 -1       769 3.57254E-01
 -1       770 3.88579E-01
 -1       771 4.23151E-01
 -1       772 4.61715E-01
 -1       773 5.05254E-01
 -1       774 5.55093E-01
 -1       775 6.13054E-01
 -1       776 6.81715E-01
 -1       777 7.64844E-01
 -1       778 8.68177E-01
 -1       779 1.00077E+00
 -1       780 1.17843E+00
 -1       781 1.42901E+00
 -1       782 1.81821E+00
 -1       783 2.51516E+00
 -1       784 4.42050E+00
 -1       785 1.16848E+01
 -1       786 1.43398E+01
 -1       787 2.82149E+00
 -1       788 9.71799E-01
 -1       789 3.59422E-01
 -1       790 1.93578E-01
 -1       791 1.93578E-01
 -1       792 2.07457E-01
 -1       793 2.29481E-01
 -1       794 2.53131E-01
 -1       795 2.77156E-01
 -1       796 3.02080E-01
 -1       797 3.28591E-01
 -1       798 3.57254E-01
 -1       799 3.88579E-01
 -1       800 4.23151E-01
 -1       801 4.61715E-01
 -1       802 5.05254E-01
 -1       803 5.55093E-01
 -1       804 6.13054E-01
 -1       805 6.81715E-01
 -1       806 7.64844E-01
 -1       807 8.68177E-01
 -1       808 1.00077E+00
 -1       809 1.17843E+00
 -1       810 1.42901E+00
 -1       811 1.81821E+00
 -1       812 2.51516E+00
 -1       813 4.42050E+00
 -1       814 1.16848E+01
 -1       815 1.43398E+01
 -1       816 2.82149E+00
 -1       817 9.71799E-01
 -1       818 3.59422E-01
 -1       819 1.93578E-01
 -1       820 1.93578E-01
 -1       821 2.07457E-01
 -1       822 2.29481E-01
 -1       823 2.53131E-01
 -1       824 2.77156E-01
 -1       825 3.02080E-01
 -1       826 3.28591E-01
 -1       827 3.57254E-01
 -1       828 3.88579E-01
 -1       829 4.23151E-01
 -1       830 4.61715E-01
 -1       831 5.05254E-01
 -1       832 5.55093E-01
 -1       833 6.13054E-01
 -1       834 6.81715E-01
 -1       835 7.64844E-01
 -1       836 8.68177E-01
 -1       837 1.00077E+00
 -1       838 1.17843E+00
 -1       839 1.42901E+00
 -1       840 1.81821E+00
 -1       841 2.51516E+00
 -1       842 4.42050E+00
 -1       843 1.16848E+01
 -1       844 1.43398E+01
 -1       845 2.82149E+00
 -1       846 9.71799E-01
 -1       847 3.59422E-01
 -1       848 1.93578E-01
 -1       849 1.93578E-01
 -1       850 2.07457E-01
 -1       851 2.29481E-01
 -1       852 2.53131E-01
 -1       853 2.77156E-01
 -1       854 3.02080E-01
 -1       855 3.28591E-01
 -1       856 3.57254E-01
 -1       857 3.88579E-01
 -1       858 4.23151E-01
 -1       859 4.61715E-01
 -1       860 5.05254E-01
 -1       861 5.55093E-01
 -1       862 6.13054E-01
 -1       863 6.81715E-01
 -1       864 7.64844E-01
 -1       865 8.68177E-01
 -1       866 1.00077E+00
 -1       867 1.17843E+00
 -1       868 1.42901E+00
 -1       869 1.81821E+00
 -1       870 2.51516E+00
 -1       871 4.42050E+00
 -1       872 1.16848E+01
 -1       873 1.16848E+01
 -1       874 4.42050E+00
 -1       875 2.51516E+00
 -1       876 1.81821E+00
 -1       877 1.42901E+00
 -1       878 1.17843E+00
 -1       879 1.00077E+00
 -1       880 8.68177E-01
 -1       881 7.64844E-01
 -1       882 6.81715E-01
 -1       883 6.13054E-01
 -1       884 5.55093E-01
 -1       885 5.05254E-01
 -1       886 4.61715E-01
 -1       887 4.23151E-01
 -1       888 3.88579E-01
 -1       889 3.57254E-01
 -1       890 3.28591E-01
 -1       891 3.02080E-01
 -1       892 2.77156E-01
 -1       893 2.53131E-01
 -1       894 2.29481E-01
 -1       895 2.07457E-01
 -1       896 1.93578E-01
 -1       897 1.93578E-01
 -1       898 3.59422E-01
 -1       899 9.71799E-01
 -1       900 2.82149E+00
 -1       901 1.43398E+01
 -1       902 1.43398E+01
 -1       903 2.82149E+00
 -1       904 9.71799E-01
 -1       905 3.59422E-01
 -1       906 1.93578E-01
 -1       907 1.93578E-01
 -1       908 2.07457E-01
 -1       909 2.29481E-01
 -1       910 2.53131E-01
 -1       911 2.77156E-01
 -1       912 3.02080E-01
 -1       913 3.28591E-01
 -1       914 3.57254E-01
 -1       915 3.88579E-01
 -1       916 4.23151E-01
 -1       917 4.61715E-01
 -1       918 5.05254E-01
 -1       919 5.55093E-01
 -1       920 6.13054E-01
 -1       921 6.81715E-01
 -1       922 7.64844E-01
 -1       923 8.68177E-01
 -1       924 1.00077E+00
 -1       925 1.17843E+00
 -1       926 1.42901E+00
 -1       927 1.81821E+00
 -1       928 2.51516E+00
 -1       929 4.42050E+00
 -1       930 1.16848E+01
 -3
    1PSTEP                        37           1           1          
    1PGM                1.000000E+00                                  
    1PGK                8.109032E+06                                  
    1PHID                         -1                                  
    1PSUBC                         0                                  
    1PMODE                        10                                  
  100CL  110 453.2153839         930                     2   10MODAL      1
 -4  DISP        4    1
 -5  D1          1    2    1    0
 -5  D2          1    2    2    0
 -5  D3          1    2    3    0
 -5  ALL         1    2    0    0    1ALL
 -1         1 0.00000E+00 0.00000E+00 0.00000E+00
 -1         2 0.00000E+00 0.00000E+00 0.00000E+00
 -1         3-2.02376E-03-1.32046E-01-1.24911E-03
 -1         4 2.02376E-03-1.32046E-01 1.24911E-03
 -1         5 0.00000E+00 0.00000E+00 0.00000E+00
 -1         6 0.00000E+00 0.00000E+00 0.00000E+00
 -1         7-2.02376E-03-1.32046E-01 1.24911E-03
 -1         8 2.02376E-03-1.32046E-01-1.24911E-03
 -1         9 0.00000E+00 0.00000E+00 0.00000E+00
 -1        10-2.02966E-03-1.28125E-01-1.25179E-03
 -1        11 0.00000E+00 0.00000E+00 0.00000E+00
 -1        12 0.00000E+00 0.00000E+00 0.00000E+00
 -1        13-4.23207E-02-1.28192E-01-2.56789E-02
 -1        14-4.12240E-02-1.31976E-01-2.56728E-02
 -1        15 0.00000E+00 0.00000E+00 0.00000E+00
 -1        16-2.02966E-03-1.28125E-01 1.25179E-03
 -1        17 0.00000E+00 0.00000E+00 0.00000E+00
 -1        18 0.00000E+00 0.00000E+00 0.00000E+00
 -1        19-4.12240E-02-1.31976E-01 2.56728E-02
 -1        20-4.23207E-02-1.28192E-01 2.56789E-02
 -1        21 0.00000E+00 0.00000E+00 0.00000E+00
 -1        22 0.00000E+00 0.00000E+00 0.00000E+00
 -1        23 4.23207E-02-1.28192E-01 2.56789E-02
 -1        24 4.12240E-02-1.31976E-01 2.56728E-02
 -1        25 0.00000E+00 0.00000E+00 0.00000E+00
 -1        26 2.02966E-03-1.28125E-01 1.25179E-03
 -1        27 0.00000E+00 0.00000E+00 0.00000E+00
 -1        28 0.00000E+00 0.00000E+00 0.00000E+00
 -1        29 0.00000E+00 0.00000E+00 0.00000E+00
 -1        30 2.02966E-03-1.28125E-01-1.25179E-03
 -1        31 4.23207E-02-1.28192E-01-2.56789E-02
 -1        32 4.12240E-02-1.31976E-01-2.56728E-02
 -1        33-6.60286E-04 1.01167E-02-4.74405E-05
 -1        34-9.58590E-04 3.10143E-02-2.73378E-04
 -1        35-1.01958E-03 5.60563E-02-5.54808E-04
 -1        36-8.50975E-04 7.94966E-02-8.16562E-04
 -1        37-5.08909E-04 9.65433E-02-1.00192E-03
 -1        38-5.39520E-05 1.03719E-01-1.07807E-03
 -1        39 4.39306E-04 9.92242E-02-1.03042E-03
 -1        40 8.96815E-04 8.30549E-02-8.61919E-04
 -1        41 1.25164E-03 5.69220E-02-5.91845E-04
 -1        42 1.45244E-03 2.39742E-02-2.53158E-04
 -1        43 1.46957E-03-1.16553E-02 1.11818E-04
 -1        44 1.29860E-03-4.54199E-02 4.56938E-04
 -1        45 9.60594E-04-7.29783E-02 7.38320E-04
 -1        46 4.99212E-04-9.07808E-02 9.20176E-04
 -1        47-2.52195E-05-9.65481E-02 9.79617E-04
 -1        48-5.43707E-04-8.95805E-02 9.09778E-04
 -1        49-9.87714E-04-7.08576E-02 7.20848E-04
 -1        50-1.29818E-03-4.29167E-02 4.38859E-04
 -1        51-1.43326E-03-9.52679E-03 1.02395E-04
 -1        52-1.37370E-03 2.47984E-02-2.42368E-04
 -1        53-1.12522E-03 5.53817E-02-5.47646E-04
 -1        54-7.17503E-04 7.79812E-02-7.70313E-04
 -1        55-1.99838E-04 8.93233E-02-8.77659E-04
 -1        56 3.65917E-04 8.74982E-02-8.51919E-04
 -1        57 9.14306E-04 7.21587E-02-6.92847E-04
 -1        58 1.38618E-03 4.44913E-02-4.17763E-04
 -1        59 1.73721E-03 6.95565E-03-5.70722E-05
 -1        60 1.94859E-03-3.71803E-02 3.53085E-04
 -1        61 2.02131E-03-8.44682E-02 7.87221E-04
 -1        62 6.60286E-04 1.01167E-02 4.74405E-05
 -1        63 9.58590E-04 3.10143E-02 2.73378E-04
 -1        64 1.01958E-03 5.60563E-02 5.54808E-04
 -1        65 8.50975E-04 7.94966E-02 8.16562E-04
 -1        66 5.08909E-04 9.65433E-02 1.00192E-03
 -1        67 5.39520E-05 1.03719E-01 1.07807E-03
 -1        68-4.39306E-04 9.92242E-02 1.03042E-03
 -1        69-8.96815E-04 8.30549E-02 8.61919E-04
 -1        70-1.25164E-03 5.69220E-02 5.91845E-04
 -1        71-1.45244E-03 2.39742E-02 2.53158E-04
 -1        72-1.46957E-03-1.16553E-02-1.11818E-04
 -1        73-1.29860E-03-4.54199E-02-4.56938E-04
 -1        74-9.60594E-04-7.29783E-02-7.38320E-04
 -1        75-4.99212E-04-9.07808E-02-9.20176E-04
 -1        76 2.52196E-05-9.65481E-02-9.79617E-04
 -1        77 5.43707E-04-8.95805E-02-9.09778E-04
 -1        78 9.87714E-04-7.08576E-02-7.20848E-04
 -1        79 1.29818E-03-4.29167E-02-4.38859E-04
 -1        80 1.43326E-03-9.52679E-03-1.02395E-04
 -1        81 1.37370E-03 2.47984E-02 2.42368E-04
 -1        82 1.12522E-03 5.53817E-02 5.47646E-04
 -1        83 7.17503E-04 7.79812E-02 7.70313E-04
 -1        84 1.99838E-04 8.93233E-02 8.77659E-04
 -1        85-3.65917E-04 8.74982E-02 8.51919E-04
 -1        86-9.14306E-04 7.21587E-02 6.92847E-04
 -1        87-1.38618E-03 4.44913E-02 4.17763E-04
 -1        88-1.73721E-03 6.95565E-03 5.70722E-05
 -1        89-1.94859E-03-3.71803E-02-3.53085E-04
 -1        90-2.02131E-03-8.44682E-02-7.87221E-04
 -1        91 0.00000E+00 0.00000E+00 0.00000E+00
 -1        92 0.00000E+00 0.00000E+00 0.00000E+00
 -1        93 0.00000E+00 0.00000E+00 0.00000E+00
 -1        94 0.00000E+00 0.00000E+00 0.00000E+00
 -1        95 0.00000E+00 0.00000E+00 0.00000E+00
 -1        96 0.00000E+00 0.00000E+00 0.00000E+00
 -1        97 6.60286E-04 1.01167E-02-4.74405E-05
 -1        98 9.58590E-04 3.10143E-02-2.73378E-04
 -1        99 1.01958E-03 5.60563E-02-5.54808E-04
 -1       100 8.50975E-04 7.94966E-02-8.16562E-04
 -1       101 5.08909E-04 9.65433E-02-1.00192E-03
 -1       102 5.39520E-05 1.03719E-01-1.07807E-03
 -1       103-4.39306E-04 9.92242E-02-1.03042E-03
 -1       104-8.96815E-04 8.30549E-02-8.61919E-04
 -1       105-1.25164E-03 5.69220E-02-5.91845E-04
 -1       106-1.45244E-03 2.39742E-02-2.53158E-04
 -1       107-1.46957E-03-1.16553E-02 1.11818E-04
 -1       108-1.29860E-03-4.54199E-02 4.56938E-04
 -1       109-9.60594E-04-7.29783E-02 7.38320E-04
 -1       110-4.99212E-04-9.07808E-02 9.20176E-04
 -1       111 2.52196E-05-9.65481E-02 9.79617E-04
 -1       112 5.43707E-04-8.95805E-02 9.09778E-04
 -1       113 9.87714E-04-7.08576E-02 7.20848E-04
 -1       114 1.29818E-03-4.29167E-02 4.38859E-04
 -1       115 1.43326E-03-9.52679E-03 1.02395E-04
 -1       116 1.37370E-03 2.47984E-02-2.42368E-04
 -1       117 1.12522E-03 5.53817E-02-5.47646E-04
 -1       118 7.17503E-04 7.79812E-02-7.70313E-04
 -1       119 1.99838E-04 8.93233E-02-8.77659E-04
 -1       120-3.65917E-04 8.74982E-02-8.51919E-04
 -1       121-9.14306E-04 7.21587E-02-6.92847E-04
 -1       122-1.38618E-03 4.44913E-02-4.17763E-04
 -1       123-1.73721E-03 6.95565E-03-5.70722E-05
 -1       124-1.94859E-03-3.71803E-02 3.53085E-04
 -1       125-2.02131E-03-8.44682E-02 7.87221E-04
 -1       126-2.46339E-03-1.56553E-01-8.76034E-04
 -1       127-2.62341E-03-1.66517E-01 1.58193E-13
 -1       128-2.46339E-03-1.56553E-01 8.76034E-04
 -1       129-6.60286E-04 1.01167E-02 4.74405E-05
 -1       130-9.58590E-04 3.10143E-02 2.73378E-04
 -1       131-1.01958E-03 5.60563E-02 5.54808E-04
 -1       132-8.50975E-04 7.94966E-02 8.16562E-04
 -1       133-5.08909E-04 9.65433E-02 1.00192E-03
 -1       134-5.39520E-05 1.03719E-01 1.07807E-03
 -1       135 4.39306E-04 9.92242E-02 1.03042E-03
 -1       136 8.96815E-04 8.30549E-02 8.61919E-04
 -1       137 1.25164E-03 5.69220E-02 5.91845E-04
 -1       138 1.45244E-03 2.39742E-02 2.53158E-04
 -1       139 1.46957E-03-1.16553E-02-1.11818E-04
 -1       140 1.29860E-03-4.54199E-02-4.56938E-04
 -1       141 9.60594E-04-7.29783E-02-7.38320E-04
 -1       142 4.99212E-04-9.07808E-02-9.20176E-04
 -1       143-2.52195E-05-9.65481E-02-9.79617E-04
 -1       144-5.43707E-04-8.95805E-02-9.09778E-04
 -1       145-9.87714E-04-7.08576E-02-7.20848E-04
 -1       146-1.29818E-03-4.29167E-02-4.38859E-04
 -1       147-1.43326E-03-9.52679E-03-1.02395E-04
 -1       148-1.37370E-03 2.47984E-02 2.42368E-04
 -1       149-1.12522E-03 5.53817E-02 5.47646E-04
 -1       150-7.17503E-04 7.79812E-02 7.70313E-04
 -1       151-1.99838E-04 8.93233E-02 8.77659E-04
 -1       152 3.65917E-04 8.74982E-02 8.51919E-04
 -1       153 9.14306E-04 7.21587E-02 6.92847E-04
 -1       154 1.38618E-03 4.44913E-02 4.17763E-04
 -1       155 1.73721E-03 6.95565E-03 5.70722E-05
 -1       156 1.94859E-03-3.71803E-02-3.53085E-04
 -1       157 2.02131E-03-8.44682E-02-7.87221E-04
 -1       158 2.46339E-03-1.56553E-01-8.76034E-04
 -1       159 2.62341E-03-1.66517E-01 1.79884E-13
 -1       160 2.46339E-03-1.56553E-01 8.76034E-04
 -1       161 4.84907E-04 9.86099E-03 7.24278E-05
 -1       162 8.34079E-04 3.00501E-02 2.80835E-04
 -1       163 9.07425E-04 5.41975E-02 5.71023E-04
 -1       164 7.63773E-04 7.67886E-02 8.34036E-04
 -1       165 4.52489E-04 9.32231E-02 1.02363E-03
 -1       166 3.21710E-05 1.00143E-01 1.10164E-03
 -1       167-4.26273E-04 9.58048E-02 1.05317E-03
 -1       168-8.52594E-04 8.01939E-02 8.81025E-04
 -1       169-1.18347E-03 5.49566E-02 6.05072E-04
 -1       170-1.37033E-03 2.31315E-02 2.59066E-04
 -1       171-1.38510E-03-1.12886E-02-1.13730E-04
 -1       172-1.22345E-03-4.39099E-02-4.66201E-04
 -1       173-9.05097E-04-7.05363E-02-7.53560E-04
 -1       174-4.71011E-04-8.77364E-02-9.39287E-04
 -1       175 2.21327E-05-9.33066E-02-1.00003E-03
 -1       176 5.09485E-04-8.65696E-02-9.28798E-04
 -1       177 9.26600E-04-6.84713E-02-7.36004E-04
 -1       178 1.21791E-03-4.14627E-02-4.48242E-04
 -1       179 1.34401E-03-9.18493E-03-1.04918E-04
 -1       180 1.28669E-03 2.40012E-02 2.46809E-04
 -1       181 1.05117E-03 5.35766E-02 5.58156E-04
 -1       182 6.65128E-04 7.54420E-02 7.85120E-04
 -1       183 1.74627E-04 8.64314E-02 8.94366E-04
 -1       184-3.62574E-04 8.46935E-02 8.67809E-04
 -1       185-8.85493E-04 6.98824E-02 7.05132E-04
 -1       186-1.33918E-03 4.31296E-02 4.23804E-04
 -1       187-1.68355E-03 6.79362E-03 5.47133E-05
 -1       188-1.90157E-03-3.59895E-02-3.63079E-04
 -1       189-2.00424E-03-8.18964E-02-8.00725E-04
 -1       190 0.00000E+00 0.00000E+00 0.00000E+00
 -1       191 0.00000E+00 0.00000E+00 0.00000E+00
 -1       192-2.21363E-02-1.28143E-01-1.35954E-02
 -1       193 1.11472E-02 1.13008E-02 2.20259E-03
 -1       194 1.78835E-02 3.05518E-02 6.67440E-03
 -1       195 1.93595E-02 5.40393E-02 1.25204E-02
 -1       196 1.63093E-02 7.60870E-02 1.80876E-02
 -1       197 9.67303E-03 9.21179E-02 2.21441E-02
 -1       198 7.63764E-04 9.88263E-02 2.38355E-02
 -1       199-8.95005E-03 9.44829E-02 2.27900E-02
 -1       200-1.79774E-02 7.90640E-02 1.90666E-02
 -1       201-2.49826E-02 5.41833E-02 1.31005E-02
 -1       202-2.89405E-02 2.28275E-02 5.62562E-03
 -1       203-2.92585E-02-1.10761E-02-2.42303E-03
 -1       204-2.58461E-02-4.32041E-02-1.00298E-02
 -1       205-1.91204E-02-6.94272E-02-1.62303E-02
 -1       206-9.94738E-03-8.63683E-02-2.02385E-02
 -1       207 4.74754E-04-9.18591E-02-2.15520E-02
 -1       208 1.07754E-02-8.52336E-02-2.00211E-02
 -1       209 1.95925E-02-6.74239E-02-1.58711E-02
 -1       210 2.57520E-02-4.08438E-02-9.67632E-03
 -1       211 2.84210E-02-9.07919E-03-2.28731E-03
 -1       212 2.72154E-02 2.35751E-02 5.27834E-03
 -1       213 2.22463E-02 5.26681E-02 1.19687E-02
 -1       214 1.40997E-02 7.41606E-02 1.68362E-02
 -1       215 3.75005E-03 8.49313E-02 1.91650E-02
 -1       216-7.58057E-03 8.31507E-02 1.85673E-02
 -1       217-1.86020E-02 6.84694E-02 1.50325E-02
 -1       218-2.81498E-02 4.19894E-02 8.92002E-03
 -1       219-3.53709E-02 6.01460E-03 9.05142E-04
 -1       220-3.98787E-02-3.63980E-02-8.11422E-03
 -1       221-4.18667E-02-8.20017E-02-1.71821E-02
 -1       222 1.07029E-02 1.16007E-02 1.65875E-03
 -1       223 1.71735E-02 3.15623E-02 6.54810E-03
 -1       224 1.85854E-02 5.59360E-02 1.25474E-02
 -1       225 1.56577E-02 7.88369E-02 1.83015E-02
 -1       226 9.28504E-03 9.54908E-02 2.24791E-02
 -1       227 7.18767E-04 1.02461E-01 2.42367E-02
 -1       228-8.63250E-03 9.79602E-02 2.31932E-02
 -1       229-1.73310E-02 8.19739E-02 1.94116E-02
 -1       230-2.40856E-02 5.61827E-02 1.33364E-02
 -1       231-2.79044E-02 2.36857E-02 5.71784E-03
 -1       232-2.82135E-02-1.14469E-02-2.48918E-03
 -1       233-2.49244E-02-4.47365E-02-1.02473E-02
 -1       234-1.84389E-02-7.19065E-02-1.65716E-02
 -1       235-9.59236E-03-8.94597E-02-2.06592E-02
 -1       236 4.59773E-04-9.51509E-02-2.19970E-02
 -1       237 1.03954E-02-8.82914E-02-2.04317E-02
 -1       238 1.89009E-02-6.98476E-02-1.61928E-02
 -1       239 2.48438E-02-4.23212E-02-9.86610E-03
 -1       240 2.74210E-02-9.42778E-03-2.31905E-03
 -1       241 2.62619E-02 2.43824E-02 5.41050E-03
 -1       242 2.14729E-02 5.44977E-02 1.22497E-02
 -1       243 1.36175E-02 7.67343E-02 1.72326E-02
 -1       244 3.63291E-03 8.78618E-02 1.96296E-02
 -1       245-7.30616E-03 8.59917E-02 1.90461E-02
 -1       246-1.79595E-02 7.07728E-02 1.54726E-02
 -1       247-2.72084E-02 4.33618E-02 9.27793E-03
 -1       248-3.42360E-02 6.16631E-03 1.15425E-03
 -1       249-3.86752E-02-3.76162E-02-7.97972E-03
 -1       250-4.07159E-02-8.45897E-02-1.71375E-02
 -1       251-2.14953E-02-1.31971E-01-1.35850E-02
 -1       252-2.00424E-03-8.18964E-02 8.00725E-04
 -1       253-1.90157E-03-3.59895E-02 3.63079E-04
 -1       254-1.68355E-03 6.79362E-03-5.47133E-05
 -1       255-1.33918E-03 4.31296E-02-4.23804E-04
 -1       256-8.85493E-04 6.98824E-02-7.05132E-04
 -1       257-3.62574E-04 8.46935E-02-8.67809E-04
 -1       258 1.74627E-04 8.64314E-02-8.94366E-04
 -1       259 6.65128E-04 7.54420E-02-7.85120E-04
 -1       260 1.05117E-03 5.35766E-02-5.58156E-04
 -1       261 1.28669E-03 2.40012E-02-2.46809E-04
 -1       262 1.34401E-03-9.18493E-03 1.04918E-04
 -1       263 1.21791E-03-4.14627E-02 4.48242E-04
 -1       264 9.26600E-04-6.84713E-02 7.36004E-04
 -1       265 5.09485E-04-8.65696E-02 9.28798E-04
 -1       266 2.21327E-05-9.33066E-02 1.00003E-03
 -1       267-4.71011E-04-8.77364E-02 9.39287E-04
 -1       268-9.05097E-04-7.05363E-02 7.53560E-04
 -1       269-1.22345E-03-4.39099E-02 4.66201E-04
 -1       270-1.38510E-03-1.12886E-02 1.13730E-04
 -1       271-1.37033E-03 2.31315E-02-2.59066E-04
 -1       272-1.18347E-03 5.49566E-02-6.05072E-04
 -1       273-8.52594E-04 8.01939E-02-8.81025E-04
 -1       274-4.26273E-04 9.58048E-02-1.05317E-03
 -1       275 3.21710E-05 1.00143E-01-1.10164E-03
 -1       276 4.52489E-04 9.32231E-02-1.02363E-03
 -1       277 7.63773E-04 7.67886E-02-8.34036E-04
 -1       278 9.07425E-04 5.41975E-02-5.71023E-04
 -1       279 8.34079E-04 3.00501E-02-2.80835E-04
 -1       280 4.84907E-04 9.86099E-03-7.24278E-05
 -1       281 0.00000E+00 0.00000E+00 0.00000E+00
 -1       282 0.00000E+00 0.00000E+00 0.00000E+00
 -1       283 1.07029E-02 1.16007E-02-1.65875E-03
 -1       284 1.71735E-02 3.15623E-02-6.54810E-03
 -1       285 1.85854E-02 5.59360E-02-1.25474E-02
 -1       286 1.56577E-02 7.88369E-02-1.83015E-02
 -1       287 9.28504E-03 9.54908E-02-2.24791E-02
 -1       288 7.18767E-04 1.02461E-01-2.42367E-02
 -1       289-8.63250E-03 9.79602E-02-2.31932E-02
 -1       290-1.73310E-02 8.19739E-02-1.94116E-02
 -1       291-2.40856E-02 5.61827E-02-1.33364E-02
 -1       292-2.79044E-02 2.36857E-02-5.71784E-03
 -1       293-2.82135E-02-1.14469E-02 2.48918E-03
 -1       294-2.49244E-02-4.47365E-02 1.02473E-02
 -1       295-1.84389E-02-7.19065E-02 1.65716E-02
 -1       296-9.59236E-03-8.94597E-02 2.06592E-02
 -1       297 4.59773E-04-9.51509E-02 2.19970E-02
 -1       298 1.03954E-02-8.82914E-02 2.04317E-02
 -1       299 1.89009E-02-6.98476E-02 1.61928E-02
 -1       300 2.48438E-02-4.23212E-02 9.86610E-03
 -1       301 2.74210E-02-9.42778E-03 2.31905E-03
 -1       302 2.62619E-02 2.43824E-02-5.41050E-03
 -1       303 2.14729E-02 5.44977E-02-1.22497E-02
 -1       304 1.36175E-02 7.67343E-02-1.72326E-02
 -1       305 3.63291E-03 8.78618E-02-1.96296E-02
 -1       306-7.30616E-03 8.59917E-02-1.90461E-02
 -1       307-1.79595E-02 7.07728E-02-1.54726E-02
 -1       308-2.72084E-02 4.33618E-02-9.27793E-03
 -1       309-3.42360E-02 6.16631E-03-1.15425E-03
 -1       310-3.86752E-02-3.76162E-02 7.97972E-03
 -1       311-4.07159E-02-8.45897E-02 1.71375E-02
 -1       312-2.14953E-02-1.31971E-01 1.35850E-02
 -1       313 1.11472E-02 1.13008E-02-2.20259E-03
 -1       314 1.78835E-02 3.05518E-02-6.67440E-03
 -1       315 1.93595E-02 5.40393E-02-1.25204E-02
 -1       316 1.63093E-02 7.60870E-02-1.80876E-02
 -1       317 9.67303E-03 9.21179E-02-2.21441E-02
 -1       318 7.63764E-04 9.88263E-02-2.38355E-02
 -1       319-8.95005E-03 9.44829E-02-2.27900E-02
 -1       320-1.79774E-02 7.90640E-02-1.90666E-02
 -1       321-2.49826E-02 5.41833E-02-1.31005E-02
 -1       322-2.89405E-02 2.28275E-02-5.62562E-03
 -1       323-2.92585E-02-1.10761E-02 2.42303E-03
 -1       324-2.58461E-02-4.32041E-02 1.00298E-02
 -1       325-1.91204E-02-6.94272E-02 1.62303E-02
 -1       326-9.94738E-03-8.63683E-02 2.02385E-02
 -1       327 4.74754E-04-9.18591E-02 2.15520E-02
 -1       328 1.07754E-02-8.52336E-02 2.00211E-02
 -1       329 1.95925E-02-6.74239E-02 1.58711E-02
 -1       330 2.57520E-02-4.08438E-02 9.67632E-03
 -1       331 2.84210E-02-9.07919E-03 2.28731E-03
 -1       332 2.72154E-02 2.35751E-02-5.27834E-03
 -1       333 2.22463E-02 5.26681E-02-1.19687E-02
 -1       334 1.40997E-02 7.41606E-02-1.68362E-02
 -1       335 3.75005E-03 8.49313E-02-1.91650E-02
 -1       336-7.58057E-03 8.31507E-02-1.85673E-02
 -1       337-1.86020E-02 6.84694E-02-1.50325E-02
 -1       338-2.81498E-02 4.19894E-02-8.92002E-03
 -1       339-3.53709E-02 6.01460E-03-9.05142E-04
 -1       340-3.98787E-02-3.63980E-02 8.11422E-03
 -1       341-4.18667E-02-8.20017E-02 1.71821E-02
 -1       342-2.21363E-02-1.28143E-01 1.35954E-02
 -1       343-1.11472E-02 1.13008E-02-2.20259E-03
 -1       344-1.78835E-02 3.05518E-02-6.67440E-03
 -1       345-1.93595E-02 5.40393E-02-1.25204E-02
 -1       346-1.63093E-02 7.60870E-02-1.80876E-02
 -1       347-9.67303E-03 9.21179E-02-2.21441E-02
 -1       348-7.63764E-04 9.88263E-02-2.38355E-02
 -1       349 8.95005E-03 9.44829E-02-2.27900E-02
 -1       350 1.79774E-02 7.90640E-02-1.90666E-02
 -1       351 2.49826E-02 5.41833E-02-1.31005E-02
 -1       352 2.89405E-02 2.28275E-02-5.62562E-03
 -1       353 2.92585E-02-1.10761E-02 2.42303E-03
 -1       354 2.58461E-02-4.32041E-02 1.00298E-02
 -1       355 1.91204E-02-6.94272E-02 1.62303E-02
 -1       356 9.94738E-03-8.63683E-02 2.02385E-02
 -1       357-4.74754E-04-9.18591E-02 2.15520E-02
 -1       358-1.07754E-02-8.52336E-02 2.00211E-02
 -1       359-1.95925E-02-6.74239E-02 1.58711E-02
 -1       360-2.57520E-02-4.08438E-02 9.67632E-03
 -1       361-2.84210E-02-9.07919E-03 2.28731E-03
 -1       362-2.72154E-02 2.35751E-02-5.27834E-03
 -1       363-2.22463E-02 5.26681E-02-1.19687E-02
 -1       364-1.40997E-02 7.41606E-02-1.68362E-02
 -1       365-3.75005E-03 8.49313E-02-1.91650E-02
 -1       366 7.58057E-03 8.31507E-02-1.85673E-02
 -1       367 1.86020E-02 6.84694E-02-1.50325E-02
 -1       368 2.81498E-02 4.19894E-02-8.92002E-03
 -1       369 3.53709E-02 6.01460E-03-9.05142E-04
 -1       370 3.98787E-02-3.63980E-02 8.11422E-03
 -1       371 4.18667E-02-8.20017E-02 1.71821E-02
 -1       372-1.07029E-02 1.16007E-02-1.65875E-03
 -1       373-1.71735E-02 3.15623E-02-6.54810E-03
 -1       374-1.85854E-02 5.59360E-02-1.25474E-02
 -1       375-1.56577E-02 7.88369E-02-1.83015E-02
 -1       376-9.28504E-03 9.54908E-02-2.24791E-02
 -1       377-7.18767E-04 1.02461E-01-2.42367E-02
 -1       378 8.63250E-03 9.79602E-02-2.31932E-02
 -1       379 1.73310E-02 8.19739E-02-1.94116E-02
 -1       380 2.40856E-02 5.61827E-02-1.33364E-02
 -1       381 2.79044E-02 2.36857E-02-5.71784E-03
 -1       382 2.82135E-02-1.14469E-02 2.48918E-03
 -1       383 2.49244E-02-4.47365E-02 1.02473E-02
 -1       384 1.84389E-02-7.19065E-02 1.65716E-02
 -1       385 9.59236E-03-8.94597E-02 2.06592E-02
 -1       386-4.59773E-04-9.51509E-02 2.19970E-02
 -1       387-1.03954E-02-8.82914E-02 2.04317E-02
 -1       388-1.89009E-02-6.98476E-02 1.61928E-02
 -1       389-2.48438E-02-4.23212E-02 9.86610E-03
 -1       390-2.74210E-02-9.42778E-03 2.31905E-03
 -1       391-2.62619E-02 2.43824E-02-5.41050E-03
 -1       392-2.14729E-02 5.44977E-02-1.22497E-02
 -1       393-1.36175E-02 7.67343E-02-1.72326E-02
 -1       394-3.63291E-03 8.78618E-02-1.96296E-02
 -1       395 7.30616E-03 8.59917E-02-1.90461E-02
 -1       396 1.79595E-02 7.07728E-02-1.54726E-02
 -1       397 2.72084E-02 4.33618E-02-9.27793E-03
 -1       398 3.42360E-02 6.16631E-03-1.15425E-03
 -1       399 3.86752E-02-3.76162E-02 7.97972E-03
 -1       400 4.07159E-02-8.45897E-02 1.71375E-02
 -1       401 0.00000E+00 0.00000E+00 0.00000E+00
 -1       402 0.00000E+00 0.00000E+00 0.00000E+00
 -1       403 2.21363E-02-1.28143E-01 1.35954E-02
 -1       404-4.84907E-04 9.86099E-03-7.24278E-05
 -1       405-8.34079E-04 3.00501E-02-2.80835E-04
 -1       406-9.07425E-04 5.41975E-02-5.71023E-04
 -1       407-7.63773E-04 7.67886E-02-8.34036E-04
 -1       408-4.52489E-04 9.32231E-02-1.02363E-03
 -1       409-3.21710E-05 1.00143E-01-1.10164E-03
 -1       410 4.26273E-04 9.58048E-02-1.05317E-03
 -1       411 8.52594E-04 8.01939E-02-8.81025E-04
 -1       412 1.18347E-03 5.49566E-02-6.05072E-04
 -1       413 1.37033E-03 2.31315E-02-2.59066E-04
 -1       414 1.38510E-03-1.12886E-02 1.13730E-04
 -1       415 1.22345E-03-4.39099E-02 4.66201E-04
 -1       416 9.05097E-04-7.05363E-02 7.53560E-04
 -1       417 4.71011E-04-8.77364E-02 9.39287E-04
 -1       418-2.21327E-05-9.33066E-02 1.00003E-03
 -1       419-5.09485E-04-8.65696E-02 9.28798E-04
 -1       420-9.26600E-04-6.84713E-02 7.36004E-04
 -1       421-1.21791E-03-4.14627E-02 4.48242E-04
 -1       422-1.34401E-03-9.18493E-03 1.04918E-04
 -1       423-1.28669E-03 2.40012E-02-2.46809E-04
 -1       424-1.05117E-03 5.35766E-02-5.58156E-04
 -1       425-6.65128E-04 7.54420E-02-7.85120E-04
 -1       426-1.74627E-04 8.64314E-02-8.94366E-04
 -1       427 3.62574E-04 8.46935E-02-8.67809E-04
 -1       428 8.85493E-04 6.98824E-02-7.05132E-04
 -1       429 1.33918E-03 4.31296E-02-4.23804E-04
 -1       430 1.68355E-03 6.79362E-03-5.47133E-05
 -1       431 1.90157E-03-3.59895E-02 3.63079E-04
 -1       432 2.00424E-03-8.18964E-02 8.00725E-04
 -1       433 2.14953E-02-1.31971E-01 1.35850E-02
 -1       434 0.00000E+00 0.00000E+00 0.00000E+00
 -1       435 0.00000E+00 0.00000E+00 0.00000E+00
 -1       436 2.00424E-03-8.18964E-02-8.00725E-04
 -1       437 1.90157E-03-3.59895E-02-3.63079E-04
 -1       438 1.68355E-03 6.79362E-03 5.47133E-05
 -1       439 1.33918E-03 4.31296E-02 4.23804E-04
 -1       440 8.85493E-04 6.98824E-02 7.05132E-04
 -1       441 3.62574E-04 8.46935E-02 8.67809E-04
 -1       442-1.74627E-04 8.64314E-02 8.94366E-04
 -1       443-6.65128E-04 7.54420E-02 7.85120E-04
 -1       444-1.05117E-03 5.35766E-02 5.58156E-04
 -1       445-1.28669E-03 2.40012E-02 2.46809E-04
 -1       446-1.34401E-03-9.18493E-03-1.04918E-04
 -1       447-1.21791E-03-4.14627E-02-4.48242E-04
 -1       448-9.26600E-04-6.84713E-02-7.36004E-04
 -1       449-5.09485E-04-8.65696E-02-9.28798E-04
 -1       450-2.21327E-05-9.33066E-02-1.00003E-03
 -1       451 4.71011E-04-8.77364E-02-9.39287E-04
 -1       452 9.05097E-04-7.05363E-02-7.53560E-04
 -1       453 1.22345E-03-4.39099E-02-4.66201E-04
 -1       454 1.38510E-03-1.12886E-02-1.13730E-04
 -1       455 1.37033E-03 2.31315E-02 2.59066E-04
 -1       456 1.18347E-03 5.49566E-02 6.05072E-04
 -1       457 8.52594E-04 8.01939E-02 8.81025E-04
 -1       458 4.26273E-04 9.58048E-02 1.05317E-03
 -1       459-3.21710E-05 1.00143E-01 1.10164E-03
 -1       460-4.52489E-04 9.32231E-02 1.02363E-03
 -1       461-7.63773E-04 7.67886E-02 8.34036E-04
 -1       462-9.07425E-04 5.41975E-02 5.71023E-04
 -1       463-8.34079E-04 3.00501E-02 2.80835E-04
 -1       464-4.84907E-04 9.86099E-03 7.24278E-05
 -1       465 2.21363E-02-1.28143E-01-1.35954E-02
 -1       466-1.11472E-02 1.13008E-02 2.20259E-03
 -1       467-1.78835E-02 3.05518E-02 6.67440E-03
 -1       468-1.93595E-02 5.40393E-02 1.25204E-02
 -1       469-1.63093E-02 7.60870E-02 1.80876E-02
 -1       470-9.67303E-03 9.21179E-02 2.21441E-02
 -1       471-7.63764E-04 9.88263E-02 2.38355E-02
 -1       472 8.95005E-03 9.44829E-02 2.27900E-02
 -1       473 1.79774E-02 7.90640E-02 1.90666E-02
 -1       474 2.49826E-02 5.41833E-02 1.31005E-02
 -1       475 2.89405E-02 2.28275E-02 5.62562E-03
 -1       476 2.92585E-02-1.10761E-02-2.42303E-03
 -1       477 2.58461E-02-4.32041E-02-1.00298E-02
 -1       478 1.91204E-02-6.94272E-02-1.62303E-02
 -1       479 9.94738E-03-8.63683E-02-2.02385E-02
 -1       480-4.74754E-04-9.18591E-02-2.15520E-02
 -1       481-1.07754E-02-8.52336E-02-2.00211E-02
 -1       482-1.95925E-02-6.74239E-02-1.58711E-02
 -1       483-2.57520E-02-4.08438E-02-9.67632E-03
 -1       484-2.84210E-02-9.07919E-03-2.28731E-03
 -1       485-2.72154E-02 2.35751E-02 5.27834E-03
 -1       486-2.22463E-02 5.26681E-02 1.19687E-02
 -1       487-1.40997E-02 7.41606E-02 1.68362E-02
 -1       488-3.75005E-03 8.49313E-02 1.91650E-02
 -1       489 7.58057E-03 8.31507E-02 1.85673E-02
 -1       490 1.86020E-02 6.84694E-02 1.50325E-02
 -1       491 2.81498E-02 4.19894E-02 8.92002E-03
 -1       492 3.53709E-02 6.01460E-03 9.05142E-04
 -1       493 3.98787E-02-3.63980E-02-8.11422E-03
 -1       494 4.18667E-02-8.20017E-02-1.71821E-02
 -1       495-1.07029E-02 1.16007E-02 1.65875E-03
 -1       496-1.71735E-02 3.15623E-02 6.54810E-03
 -1       497-1.85854E-02 5.59360E-02 1.25474E-02
 -1       498-1.56577E-02 7.88369E-02 1.83015E-02
 -1       499-9.28504E-03 9.54908E-02 2.24791E-02
 -1       500-7.18767E-04 1.02461E-01 2.42367E-02
 -1       501 8.63250E-03 9.79602E-02 2.31932E-02
 -1       502 1.73310E-02 8.19739E-02 1.94116E-02
 -1       503 2.40856E-02 5.61827E-02 1.33364E-02
 -1       504 2.79044E-02 2.36857E-02 5.71784E-03
 -1       505 2.82135E-02-1.14469E-02-2.48918E-03
 -1       506 2.49244E-02-4.47365E-02-1.02473E-02
 -1       507 1.84389E-02-7.19065E-02-1.65716E-02
 -1       508 9.59236E-03-8.94597E-02-2.06592E-02
 -1       509-4.59773E-04-9.51509E-02-2.19970E-02
 -1       510-1.03954E-02-8.82914E-02-2.04317E-02
 -1       511-1.89009E-02-6.98476E-02-1.61928E-02
 -1       512-2.48438E-02-4.23212E-02-9.86610E-03
 -1       513-2.74210E-02-9.42778E-03-2.31905E-03
 -1       514-2.62619E-02 2.43824E-02 5.41050E-03
 -1       515-2.14729E-02 5.44977E-02 1.22497E-02
 -1       516-1.36175E-02 7.67343E-02 1.72326E-02
 -1       517-3.63291E-03 8.78618E-02 1.96296E-02
 -1       518 7.30616E-03 8.59917E-02 1.90461E-02
 -1       519 1.79595E-02 7.07728E-02 1.54726E-02
 -1       520 2.72084E-02 4.33618E-02 9.27793E-03
 -1       521 3.42360E-02 6.16631E-03 1.15425E-03
 -1       522 3.86752E-02-3.76162E-02-7.97972E-03
 -1       523 4.07159E-02-8.45897E-02-1.71375E-02
 -1       524 2.14953E-02-1.31971E-01-1.35850E-02
 -1       525 8.68263E-04 1.07295E-02 2.05434E-05
 -1       526 1.27785E-03 3.60126E-02 1.68462E-04
 -1       527 1.33360E-03 6.65743E-02 3.68435E-04
 -1       528 1.10479E-03 9.50812E-02 5.48803E-04
 -1       529 6.58607E-04 1.15677E-01 6.74021E-04
 -1       530 7.90981E-05 1.24301E-01 7.24887E-04
 -1       531-5.43907E-04 1.18893E-01 6.92587E-04
 -1       532-1.11907E-03 9.95051E-02 5.79212E-04
 -1       533-1.56409E-03 6.82150E-02 3.97556E-04
 -1       534-1.81560E-03 2.87979E-02 1.69647E-04
 -1       535-1.83706E-03-1.38049E-02-7.60653E-05
 -1       536-1.62321E-03-5.41647E-02-3.08482E-04
 -1       537-1.20056E-03-8.71006E-02-4.98001E-04
 -1       538-6.23742E-04-1.08378E-01-6.20472E-04
 -1       539 3.18246E-05-1.15281E-01-6.60440E-04
 -1       540 6.79892E-04-1.06976E-01-6.13255E-04
 -1       541 1.23478E-03-8.46381E-02-4.85762E-04
 -1       542 1.62267E-03-5.13022E-02-2.95482E-04
 -1       543 1.79123E-03-1.14741E-02-6.83973E-05
 -1       544 1.71647E-03 2.94497E-02 1.64391E-04
 -1       545 1.40574E-03 6.58786E-02 3.70679E-04
 -1       546 8.96567E-04 9.27453E-02 5.21354E-04
 -1       547 2.51475E-04 1.06150E-01 5.94282E-04
 -1       548-4.50653E-04 1.03841E-01 5.77423E-04
 -1       549-1.12578E-03 8.54688E-02 4.70753E-04
 -1       550-1.69775E-03 5.25570E-02 2.86281E-04
 -1       551-2.11284E-03 8.15350E-03 4.49744E-05
 -1       552-2.35144E-03-4.38380E-02-2.31755E-04
 -1       553-2.44297E-03-9.95906E-02-5.37612E-04
 -1       554 8.70636E-04 1.10390E-02-5.64492E-14
 -1       555 1.33982E-03 3.78647E-02-1.28801E-13
 -1       556 1.40635E-03 7.07417E-02-2.04816E-13
 -1       557 1.16020E-03 1.01303E-01-2.75561E-13
 -1       558 6.89563E-04 1.23319E-01-3.39791E-13
 -1       559 7.95969E-05 1.32519E-01-3.94393E-13
 -1       560-5.75244E-04 1.26744E-01-4.40176E-13
 -1       561-1.17948E-03 1.06071E-01-4.73156E-13
 -1       562-1.64682E-03 7.27216E-02-4.88824E-13
 -1       563-1.91073E-03 3.07204E-02-4.90240E-13
 -1       564-1.93284E-03-1.46686E-02-4.80546E-13
 -1       565-1.70764E-03-5.76638E-02-4.55021E-13
 -1       566-1.26300E-03-9.27488E-02-4.15630E-13
 -1       567-6.56353E-04-1.15415E-01-3.64061E-13
 -1       568 3.30033E-05-1.22771E-01-3.04841E-13
 -1       569 7.14386E-04-1.13931E-01-2.42622E-13
 -1       570 1.29770E-03-9.01468E-02-1.84405E-13
 -1       571 1.70531E-03-5.46527E-02-1.30219E-13
 -1       572 1.88216E-03-1.22489E-02-7.97730E-14
 -1       573 1.80302E-03 3.13154E-02-3.51143E-14
 -1       574 1.47558E-03 7.00845E-02 8.84709E-16
 -1       575 9.39340E-04 9.86608E-02 2.66384E-14
 -1       576 2.60196E-04 1.12893E-01 4.35763E-14
 -1       577-4.78549E-04 1.10393E-01 5.34156E-14
 -1       578-1.18799E-03 9.08127E-02 6.07084E-14
 -1       579-1.78771E-03 5.58104E-02 7.03812E-14
 -1       580-2.22144E-03 8.67617E-03 8.70450E-14
 -1       581-2.47647E-03-4.64479E-02 1.10316E-13
 -1       582-2.58946E-03-1.05717E-01 1.37057E-13
 -1       583 8.68263E-04 1.07295E-02-2.05434E-05
 -1       584 1.27785E-03 3.60126E-02-1.68462E-04
 -1       585 1.33360E-03 6.65743E-02-3.68435E-04
 -1       586 1.10479E-03 9.50812E-02-5.48803E-04
 -1       587 6.58607E-04 1.15677E-01-6.74021E-04
 -1       588 7.90981E-05 1.24301E-01-7.24887E-04
 -1       589-5.43907E-04 1.18893E-01-6.92587E-04
 -1       590-1.11907E-03 9.95051E-02-5.79212E-04
 -1       591-1.56409E-03 6.82150E-02-3.97556E-04
 -1       592-1.81560E-03 2.87979E-02-1.69647E-04
 -1       593-1.83706E-03-1.38049E-02 7.60653E-05
 -1       594-1.62321E-03-5.41647E-02 3.08482E-04
 -1       595-1.20056E-03-8.71006E-02 4.98001E-04
 -1       596-6.23742E-04-1.08378E-01 6.20472E-04
 -1       597 3.18246E-05-1.15281E-01 6.60440E-04
 -1       598 6.79892E-04-1.06976E-01 6.13255E-04
 -1       599 1.23478E-03-8.46381E-02 4.85762E-04
 -1       600 1.62267E-03-5.13022E-02 2.95482E-04
 -1       601 1.79123E-03-1.14741E-02 6.83973E-05
 -1       602 1.71647E-03 2.94497E-02-1.64391E-04
 -1       603 1.40574E-03 6.58786E-02-3.70679E-04
 -1       604 8.96567E-04 9.27453E-02-5.21354E-04
 -1       605 2.51475E-04 1.06150E-01-5.94282E-04
 -1       606-4.50653E-04 1.03841E-01-5.77423E-04
 -1       607-1.12578E-03 8.54688E-02-4.70753E-04
 -1       608-1.69775E-03 5.25570E-02-2.86281E-04
 -1       609-2.11284E-03 8.15350E-03-4.49744E-05
 -1       610-2.35144E-03-4.38380E-02 2.31755E-04
 -1       611-2.44297E-03-9.95906E-02 5.37612E-04
 -1       612-8.68263E-04 1.07295E-02 2.05434E-05
 -1       613-1.27785E-03 3.60126E-02 1.68462E-04
 -1       614-1.33360E-03 6.65743E-02 3.68435E-04
 -1       615-1.10479E-03 9.50812E-02 5.48803E-04
 -1       616-6.58607E-04 1.15677E-01 6.74021E-04
 -1       617-7.90981E-05 1.24301E-01 7.24887E-04
 -1       618 5.43907E-04 1.18893E-01 6.92587E-04
 -1       619 1.11907E-03 9.95051E-02 5.79212E-04
 -1       620 1.56409E-03 6.82150E-02 3.97556E-04
 -1       621 1.81560E-03 2.87979E-02 1.69647E-04
 -1       622 1.83706E-03-1.38049E-02-7.60653E-05
 -1       623 1.62321E-03-5.41647E-02-3.08482E-04
 -1       624 1.20056E-03-8.71006E-02-4.98001E-04
 -1       625 6.23742E-04-1.08378E-01-6.20472E-04
 -1       626-3.18246E-05-1.15281E-01-6.60440E-04
 -1       627-6.79892E-04-1.06976E-01-6.13255E-04
 -1       628-1.23478E-03-8.46381E-02-4.85762E-04
 -1       629-1.62267E-03-5.13022E-02-2.95482E-04
 -1       630-1.79123E-03-1.14741E-02-6.83973E-05
 -1       631-1.71647E-03 2.94497E-02 1.64391E-04
 -1       632-1.40574E-03 6.58786E-02 3.70679E-04
 -1       633-8.96567E-04 9.27453E-02 5.21354E-04
 -1       634-2.51475E-04 1.06150E-01 5.94282E-04
 -1       635 4.50653E-04 1.03841E-01 5.77423E-04
 -1       636 1.12578E-03 8.54688E-02 4.70753E-04
 -1       637 1.69775E-03 5.25570E-02 2.86281E-04
 -1       638 2.11284E-03 8.15350E-03 4.49744E-05
 -1       639 2.35144E-03-4.38380E-02-2.31755E-04
 -1       640 2.44297E-03-9.95906E-02-5.37612E-04
 -1       641-8.70636E-04 1.10390E-02-5.88741E-14
 -1       642-1.33982E-03 3.78647E-02-1.35807E-13
 -1       643-1.40635E-03 7.07417E-02-2.15954E-13
 -1       644-1.16020E-03 1.01303E-01-2.89522E-13
 -1       645-6.89563E-04 1.23319E-01-3.53301E-13
 -1       646-7.95969E-05 1.32519E-01-4.07875E-13
 -1       647 5.75244E-04 1.26744E-01-4.51986E-13
 -1       648 1.17948E-03 1.06071E-01-4.82211E-13
 -1       649 1.64682E-03 7.27216E-02-4.91711E-13
 -1       650 1.91073E-03 3.07204E-02-4.85320E-13
 -1       651 1.93284E-03-1.46686E-02-4.67792E-13
 -1       652 1.70764E-03-5.76638E-02-4.36009E-13
 -1       653 1.26300E-03-9.27488E-02-3.91886E-13
 -1       654 6.56353E-04-1.15415E-01-3.37789E-13
 -1       655-3.30033E-05-1.22771E-01-2.78333E-13
 -1       656-7.14386E-04-1.13931E-01-2.17857E-13
 -1       657-1.29770E-03-9.01468E-02-1.63139E-13
 -1       658-1.70531E-03-5.46527E-02-1.13760E-13
 -1       659-1.88216E-03-1.22489E-02-6.99718E-14
 -1       660-1.80302E-03 3.13154E-02-3.40179E-14
 -1       661-1.47558E-03 7.00845E-02-5.59969E-15
 -1       662-9.39340E-04 9.86608E-02 1.47504E-14
 -1       663-2.60196E-04 1.12893E-01 2.71085E-14
 -1       664 4.78549E-04 1.10393E-01 3.26510E-14
 -1       665 1.18799E-03 9.08127E-02 3.88231E-14
 -1       666 1.78771E-03 5.58104E-02 5.36654E-14
 -1       667 2.22144E-03 8.67617E-03 7.83418E-14
 -1       668 2.47647E-03-4.64479E-02 1.09669E-13
 -1       669 2.58946E-03-1.05717E-01 1.46598E-13
 -1       670-8.68263E-04 1.07295E-02-2.05434E-05
 -1       671-1.27785E-03 3.60126E-02-1.68462E-04
 -1       672-1.33360E-03 6.65743E-02-3.68435E-04
 -1       673-1.10479E-03 9.50812E-02-5.48803E-04
 -1       674-6.58607E-04 1.15677E-01-6.74021E-04
 -1       675-7.90981E-05 1.24301E-01-7.24887E-04
 -1       676 5.43907E-04 1.18893E-01-6.92587E-04
 -1       677 1.11907E-03 9.95051E-02-5.79212E-04
 -1       678 1.56409E-03 6.82150E-02-3.97556E-04
 -1       679 1.81560E-03 2.87979E-02-1.69647E-04
 -1       680 1.83706E-03-1.38049E-02 7.60653E-05
 -1       681 1.62321E-03-5.41647E-02 3.08482E-04
 -1       682 1.20056E-03-8.71006E-02 4.98001E-04
 -1       683 6.23742E-04-1.08378E-01 6.20472E-04
 -1       684-3.18246E-05-1.15281E-01 6.60440E-04
 -1       685-6.79892E-04-1.06976E-01 6.13255E-04
 -1       686-1.23478E-03-8.46381E-02 4.85762E-04
 -1       687-1.62267E-03-5.13022E-02 2.95482E-04
 -1       688-1.79123E-03-1.14741E-02 6.83973E-05
 -1       689-1.71647E-03 2.94497E-02-1.64391E-04
 -1       690-1.40574E-03 6.58786E-02-3.70679E-04
 -1       691-8.96567E-04 9.27453E-02-5.21354E-04
 -1       692-2.51475E-04 1.06150E-01-5.94282E-04
 -1       693 4.50653E-04 1.03841E-01-5.77423E-04
 -1       694 1.12578E-03 8.54688E-02-4.70753E-04
 -1       695 1.69775E-03 5.25570E-02-2.86281E-04
 -1       696 2.11284E-03 8.15350E-03-4.49744E-05
 -1       697 2.35144E-03-4.38380E-02 2.31755E-04
 -1       698 2.44297E-03-9.95906E-02 5.37612E-04
 -1       699 5.11087E-03 1.02120E-02 1.08747E-03
 -1       700 8.91001E-03 3.01919E-02 3.44702E-03
 -1       701 9.71445E-03 5.41230E-02 6.51335E-03
 -1       702 8.20723E-03 7.65623E-02 9.43080E-03
 -1       703 4.85264E-03 9.28748E-02 1.15456E-02
 -1       704 3.20361E-04 9.97317E-02 1.24261E-02
 -1       705-4.63138E-03 9.53934E-02 1.18799E-02
 -1       706-9.23778E-03 7.98428E-02 9.93861E-03
 -1       707-1.28134E-02 5.47161E-02 6.82821E-03
 -1       708-1.48322E-02 2.30358E-02 2.93095E-03
 -1       709-1.49900E-02-1.12253E-02-1.26582E-03
 -1       710-1.32399E-02-4.36949E-02-5.23242E-03
 -1       711-9.79491E-03-7.01973E-02-8.46581E-03
 -1       712-5.09821E-03-8.73178E-02-1.05559E-02
 -1       713 2.37121E-04-9.28633E-02-1.12407E-02
 -1       714 5.50951E-03-8.61602E-02-1.04419E-02
 -1       715 1.00217E-02-6.81499E-02-8.27711E-03
 -1       716 1.31726E-02-4.12721E-02-5.04565E-03
 -1       717 1.45355E-02-9.15088E-03-1.19108E-03
 -1       718 1.39135E-02 2.38732E-02 2.75598E-03
 -1       719 1.13628E-02 5.33022E-02 6.24687E-03
 -1       720 7.18243E-03 7.50549E-02 8.78733E-03
 -1       721 1.87013E-03 8.59793E-02 1.00037E-02
 -1       722-3.95025E-03 8.42306E-02 9.69348E-03
 -1       723-9.62046E-03 6.94621E-02 7.85145E-03
 -1       724-1.45477E-02 4.27967E-02 4.66662E-03
 -1       725-1.82993E-02 6.57624E-03 4.89748E-04
 -1       726-2.06853E-02-3.60896E-02-4.21730E-03
 -1       727-2.18264E-02-8.19050E-02-8.97444E-03
 -1       728 4.81103E-03 1.05181E-02 8.41400E-04
 -1       729 8.47026E-03 3.11943E-02 3.37174E-03
 -1       730 9.24409E-03 5.60116E-02 6.52949E-03
 -1       731 7.81563E-03 7.92992E-02 9.53133E-03
 -1       732 4.61851E-03 9.62304E-02 1.17069E-02
 -1       733 2.88471E-04 1.03347E-01 1.26195E-02
 -1       734-4.45030E-03 9.88515E-02 1.20747E-02
 -1       735-8.86364E-03 8.27365E-02 1.01053E-02
 -1       736-1.22920E-02 5.67044E-02 6.94226E-03
 -1       737-1.42287E-02 2.38892E-02 2.97552E-03
 -1       738-1.43808E-02-1.15940E-02-1.29783E-03
 -1       739-1.27023E-02-4.52188E-02-5.33762E-03
 -1       740-9.39751E-03-7.26629E-02-8.63086E-03
 -1       741-4.89140E-03-9.03920E-02-1.07594E-02
 -1       742 2.27737E-04-9.61369E-02-1.14559E-02
 -1       743 5.28675E-03-8.92012E-02-1.06405E-02
 -1       744 9.61667E-03-7.05604E-02-8.43268E-03
 -1       745 1.26407E-02-4.27414E-02-5.13741E-03
 -1       746 1.39496E-02-9.49762E-03-1.20640E-03
 -1       747 1.33541E-02 2.46760E-02 2.81991E-03
 -1       748 1.09078E-02 5.51216E-02 6.38282E-03
 -1       749 6.89668E-03 7.76144E-02 8.97910E-03
 -1       750 1.79649E-03 8.88937E-02 1.02285E-02
 -1       751-3.79653E-03 8.70559E-02 9.92533E-03
 -1       752-9.25363E-03 7.17526E-02 8.06488E-03
 -1       753-1.40088E-02 4.41616E-02 4.84072E-03
 -1       754-1.76498E-02 6.72683E-03 6.11460E-04
 -1       755-1.99999E-02-3.73020E-02-4.14870E-03
 -1       756-2.11656E-02-8.44863E-02-8.94828E-03
 -1       757 4.81103E-03 1.05181E-02-8.41400E-04
 -1       758 8.47026E-03 3.11943E-02-3.37174E-03
 -1       759 9.24409E-03 5.60116E-02-6.52949E-03
 -1       760 7.81563E-03 7.92992E-02-9.53133E-03
 -1       761 4.61851E-03 9.62304E-02-1.17069E-02
 -1       762 2.88471E-04 1.03347E-01-1.26195E-02
 -1       763-4.45030E-03 9.88515E-02-1.20747E-02
 -1       764-8.86364E-03 8.27365E-02-1.01053E-02
 -1       765-1.22920E-02 5.67044E-02-6.94226E-03
 -1       766-1.42287E-02 2.38892E-02-2.97552E-03
 -1       767-1.43808E-02-1.15940E-02 1.29783E-03
 -1       768-1.27023E-02-4.52188E-02 5.33762E-03
 -1       769-9.39751E-03-7.26629E-02 8.63086E-03
 -1       770-4.89140E-03-9.03920E-02 1.07594E-02
 -1       771 2.27737E-04-9.61369E-02 1.14559E-02
 -1       772 5.28675E-03-8.92012E-02 1.06405E-02
 -1       773 9.61667E-03-7.05604E-02 8.43268E-03
 -1       774 1.26407E-02-4.27414E-02 5.13741E-03
 -1       775 1.39496E-02-9.49762E-03 1.20640E-03
 -1       776 1.33541E-02 2.46760E-02-2.81991E-03
 -1       777 1.09078E-02 5.51216E-02-6.38282E-03
 -1       778 6.89668E-03 7.76144E-02-8.97910E-03
 -1       779 1.79649E-03 8.88937E-02-1.02285E-02
 -1       780-3.79653E-03 8.70559E-02-9.92533E-03
 -1       781-9.25363E-03 7.17526E-02-8.06488E-03
 -1       782-1.40088E-02 4.41616E-02-4.84072E-03
 -1       783-1.76498E-02 6.72683E-03-6.11460E-04
 -1       784-1.99999E-02-3.73020E-02 4.14870E-03
 -1       785-2.11656E-02-8.44863E-02 8.94828E-03
 -1       786 5.11087E-03 1.02120E-02-1.08747E-03
 -1       787 8.91001E-03 3.01919E-02-3.44702E-03
 -1       788 9.71445E-03 5.41230E-02-6.51335E-03
 -1       789 8.20723E-03 7.65623E-02-9.43080E-03
 -1       790 4.85264E-03 9.28748E-02-1.15456E-02
 -1       791 3.20361E-04 9.97317E-02-1.24261E-02
 -1       792-4.63138E-03 9.53934E-02-1.18799E-02
 -1       793-9.23778E-03 7.98428E-02-9.93861E-03
 -1       794-1.28134E-02 5.47161E-02-6.82821E-03
 -1       795-1.48322E-02 2.30358E-02-2.93095E-03
 -1       796-1.49900E-02-1.12253E-02 1.26582E-03
 -1       797-1.32399E-02-4.36949E-02 5.23242E-03
 -1       798-9.79491E-03-7.01973E-02 8.46581E-03
 -1       799-5.09821E-03-8.73178E-02 1.05559E-02
 -1       800 2.37121E-04-9.28633E-02 1.12407E-02
 -1       801 5.50951E-03-8.61602E-02 1.04419E-02
 -1       802 1.00217E-02-6.81499E-02 8.27711E-03
 -1       803 1.31726E-02-4.12721E-02 5.04565E-03
 -1       804 1.45355E-02-9.15088E-03 1.19108E-03
 -1       805 1.39135E-02 2.38732E-02-2.75598E-03
 -1       806 1.13628E-02 5.33022E-02-6.24687E-03
 -1       807 7.18243E-03 7.50549E-02-8.78733E-03
 -1       808 1.87013E-03 8.59793E-02-1.00037E-02
 -1       809-3.95025E-03 8.42306E-02-9.69348E-03
 -1       810-9.62046E-03 6.94621E-02-7.85145E-03
 -1       811-1.45477E-02 4.27967E-02-4.66662E-03
 -1       812-1.82993E-02 6.57624E-03-4.89748E-04
 -1       813-2.06853E-02-3.60896E-02 4.21730E-03
 -1       814-2.18264E-02-8.19050E-02 8.97444E-03
 -1       815-5.11087E-03 1.02120E-02-1.08747E-03
 -1       816-8.91001E-03 3.01919E-02-3.44702E-03
 -1       817-9.71445E-03 5.41230E-02-6.51335E-03
 -1       818-8.20723E-03 7.65623E-02-9.43080E-03
 -1       819-4.85264E-03 9.28748E-02-1.15456E-02
 -1       820-3.20361E-04 9.97317E-02-1.24261E-02
 -1       821 4.63138E-03 9.53934E-02-1.18799E-02
 -1       822 9.23778E-03 7.98428E-02-9.93861E-03
 -1       823 1.28134E-02 5.47161E-02-6.82821E-03
 -1       824 1.48322E-02 2.30358E-02-2.93095E-03
 -1       825 1.49900E-02-1.12253E-02 1.26582E-03
 -1       826 1.32399E-02-4.36949E-02 5.23242E-03
 -1       827 9.79491E-03-7.01973E-02 8.46581E-03
 -1       828 5.09821E-03-8.73178E-02 1.05559E-02
 -1       829-2.37121E-04-9.28633E-02 1.12407E-02
 -1       830-5.50951E-03-8.61602E-02 1.04419E-02
 -1       831-1.00217E-02-6.81499E-02 8.27711E-03
 -1       832-1.31726E-02-4.12721E-02 5.04565E-03
 -1       833-1.45355E-02-9.15088E-03 1.19108E-03
 -1       834-1.39135E-02 2.38732E-02-2.75598E-03
 -1       835-1.13628E-02 5.33022E-02-6.24687E-03
 -1       836-7.18243E-03 7.50549E-02-8.78733E-03
 -1       837-1.87013E-03 8.59793E-02-1.00037E-02
 -1       838 3.95025E-03 8.42306E-02-9.69348E-03
 -1       839 9.62046E-03 6.94621E-02-7.85145E-03
 -1       840 1.45477E-02 4.27967E-02-4.66662E-03
 -1       841 1.82993E-02 6.57624E-03-4.89748E-04
 -1       842 2.06853E-02-3.60896E-02 4.21730E-03
 -1       843 2.18264E-02-8.19050E-02 8.97444E-03
 -1       844-4.81103E-03 1.05181E-02-8.41400E-04
 -1       845-8.47026E-03 3.11943E-02-3.37174E-03
 -1       846-9.24409E-03 5.60116E-02-6.52949E-03
 -1       847-7.81563E-03 7.92992E-02-9.53133E-03
 -1       848-4.61851E-03 9.62304E-02-1.17069E-02
 -1       849-2.88471E-04 1.03347E-01-1.26195E-02
 -1       850 4.45030E-03 9.88515E-02-1.20747E-02
 -1       851 8.86364E-03 8.27365E-02-1.01053E-02
 -1       852 1.22920E-02 5.67044E-02-6.94226E-03
 -1       853 1.42287E-02 2.38892E-02-2.97552E-03
 -1       854 1.43808E-02-1.15940E-02 1.29783E-03
 -1       855 1.27023E-02-4.52188E-02 5.33762E-03
 -1       856 9.39751E-03-7.26629E-02 8.63086E-03
 -1       857 4.89140E-03-9.03920E-02 1.07594E-02
 -1       858-2.27737E-04-9.61369E-02 1.14559E-02
 -1       859-5.28675E-03-8.92012E-02 1.06405E-02
 -1       860-9.61667E-03-7.05604E-02 8.43268E-03
 -1       861-1.26407E-02-4.27414E-02 5.13741E-03
 -1       862-1.39496E-02-9.49762E-03 1.20640E-03
 -1       863-1.33541E-02 2.46760E-02-2.81991E-03
 -1       864-1.09078E-02 5.51216E-02-6.38282E-03
 -1       865-6.89668E-03 7.76144E-02-8.97910E-03
 -1       866-1.79649E-03 8.88937E-02-1.02285E-02
 -1       867 3.79653E-03 8.70559E-02-9.92533E-03
 -1       868 9.25363E-03 7.17526E-02-8.06488E-03
 -1       869 1.40088E-02 4.41616E-02-4.84072E-03
 -1       870 1.76498E-02 6.72683E-03-6.11460E-04
 -1       871 1.99999E-02-3.73020E-02 4.14870E-03
 -1       872 2.11656E-02-8.44863E-02 8.94828E-03
 -1       873 2.18264E-02-8.19050E-02-8.97444E-03
 -1       874 2.06853E-02-3.60896E-02-4.21730E-03
 -1       875 1.82993E-02 6.57624E-03 4.89748E-04
 -1       876 1.45477E-02 4.27967E-02 4.66662E-03
 -1       877 9.62046E-03 6.94621E-02 7.85145E-03
 -1       878 3.95025E-03 8.42306E-02 9.69348E-03
 -1       879-1.87013E-03 8.59793E-02 1.00037E-02
 -1       880-7.18243E-03 7.50549E-02 8.78733E-03
 -1       881-1.13628E-02 5.33022E-02 6.24687E-03
 -1       882-1.39135E-02 2.38732E-02 2.75598E-03
 -1       883-1.45355E-02-9.15088E-03-1.19108E-03
 -1       884-1.31726E-02-4.12721E-02-5.04565E-03
 -1       885-1.00217E-02-6.81499E-02-8.27711E-03
 -1       886-5.50951E-03-8.61602E-02-1.04419E-02
 -1       887-2.37121E-04-9.28633E-02-1.12407E-02
 -1       888 5.09821E-03-8.73178E-02-1.05559E-02
 -1       889 9.79491E-03-7.01973E-02-8.46581E-03
 -1       890 1.32399E-02-4.36949E-02-5.23242E-03
 -1       891 1.49900E-02-1.12253E-02-1.26582E-03
 -1       892 1.48322E-02 2.30358E-02 2.93095E-03
 -1       893 1.28134E-02 5.47161E-02 6.82821E-03
 -1       894 9.23778E-03 7.98428E-02 9.93861E-03
 -1       895 4.63138E-03 9.53934E-02 1.18799E-02
 -1       896-3.20361E-04 9.97317E-02 1.24261E-02
 -1       897-4.85264E-03 9.28748E-02 1.15456E-02
 -1       898-8.20723E-03 7.65623E-02 9.43080E-03
 -1       899-9.71445E-03 5.41230E-02 6.51335E-03
 -1       900-8.91001E-03 3.01919E-02 3.44702E-03
 -1       901-5.11087E-03 1.02120E-02 1.08747E-03
 -1       902-4.81103E-03 1.05181E-02 8.41400E-04
 -1       903-8.47026E-03 3.11943E-02 3.37174E-03
 -1       904-9.24409E-03 5.60116E-02 6.52949E-03
 -1       905-7.81563E-03 7.92992E-02 9.53133E-03
 -1       906-4.61851E-03 9.62304E-02 1.17069E-02
 -1       907-2.88471E-04 1.03347E-01 1.26195E-02
 -1       908 4.45030E-03 9.88515E-02 1.20747E-02
 -1       909 8.86364E-03 8.27365E-02 1.01053E-02
 -1       910 1.22920E-02 5.67044E-02 6.94226E-03
 -1       911 1.42287E-02 2.38892E-02 2.97552E-03
 -1       912 1.43808E-02-1.15940E-02-1.29783E-03
 -1       913 1.27023E-02-4.52188E-02-5.33762E-03
 -1       914 9.39751E-03-7.26629E-02-8.63086E-03
 -1       915 4.89140E-03-9.03920E-02-1.07594E-02
 -1       916-2.27737E-04-9.61369E-02-1.14559E-02
 -1       917-5.28675E-03-8.92012E-02-1.06405E-02
 -1       918-9.61667E-03-7.05604E-02-8.43268E-03
 -1       919-1.26407E-02-4.27414E-02-5.13741E-03
 -1       920-1.39496E-02-9.49762E-03-1.20640E-03
 -1       921-1.33541E-02 2.46760E-02 2.81991E-03
 -1       922-1.09078E-02 5.51216E-02 6.38282E-03
 -1       923-6.89668E-03 7.76144E-02 8.97910E-03
 -1       924-1.79649E-03 8.88937E-02 1.02285E-02
 -1       925 3.79653E-03 8.70559E-02 9.92533E-03
 -1       926 9.25363E-03 7.17526E-02 8.06488E-03
 -1       927 1.40088E-02 4.41616E-02 4.84072E-03
 -1       928 1.76498E-02 6.72683E-03 6.11460E-04
 -1       929 1.99999E-02-3.73020E-02-4.14870E-03
 -1       930 2.11656E-02-8.44863E-02-8.94828E-03
 -3
    1PSTEP                        38           1           1          
    1PGM                1.000000E+00                                  
    1PGK                8.109032E+06                                  
    1PHID                         -1                                  
    1PSUBC                         0                                  
    1PMODE                        10                                  
  100CL  110 453.2153839         930                     2   10MODAL      1
 -4  STRESS      6    1
 -5  SXX         1    4    1    1
 -5  SYY         1    4    2    2
 -5  SZZ         1    4    3    3
 -5  SXY         1    4    1    2
 -5  SYZ         1    4    2    3
 -5  SZX         1    4    3    1
 -1         1 1.86649E+09 7.99940E+08 7.99943E+08 8.17106E+09-1.48399E+03 3.83176E+07
 -1         2-1.86649E+09-7.99940E+08-7.99943E+08 8.17106E+09-1.48399E+03-3.83176E+07
 -1         3 9.93340E+07 8.09018E+06 3.40127E+08-8.52114E+08 6.74843E+08-4.76445E+08
 -1         4-9.93340E+07-8.09018E+06-3.40127E+08-8.52114E+08 6.74843E+08 4.76445E+08
 -1         5 1.86649E+09 7.99940E+08 7.99943E+08 8.17106E+09 1.48399E+03-3.83176E+07
 -1         6-1.86649E+09-7.99940E+08-7.99943E+08 8.17106E+09 1.48399E+03 3.83176E+07
 -1         7 9.93340E+07 8.09018E+06 3.40127E+08-8.52114E+08-6.74843E+08 4.76445E+08
 -1         8-9.93340E+07-8.09018E+06-3.40127E+08-8.52114E+08-6.74843E+08-4.76445E+08
 -1         9 1.37068E+09 5.87457E+08 5.87460E+08 7.96449E+09-4.25884E+03 5.84997E+07
 -1        10-2.11293E+07 5.54147E+07 5.20580E+07 6.73751E+08-7.31598E+07-3.29007E+08
 -1        11 3.15114E+10 1.35050E+10 1.35050E+10 9.12743E+09-9.15265E+02 1.77900E+09
 -1        12 3.02555E+10 1.29668E+10 1.29668E+10 9.36966E+09 1.07554E+03 1.33975E+09
 -1        13-1.09248E+09-1.77293E+08-2.86644E+08 7.38741E+08 1.35222E+08-3.01534E+08
 -1        14-1.36663E+09-5.25239E+08-4.73272E+08-1.08638E+09 1.43390E+08-3.32625E+08
 -1        15 1.37068E+09 5.87457E+08 5.87460E+08 7.96449E+09 4.25884E+03-5.84997E+07
 -1        16-2.11293E+07 5.54147E+07 5.20580E+07 6.73751E+08 7.31598E+07 3.29007E+08
 -1        17 3.02555E+10 1.29668E+10 1.29668E+10 9.36966E+09-1.07554E+03-1.33975E+09
 -1        18 3.15114E+10 1.35050E+10 1.35050E+10 9.12743E+09 9.15265E+02-1.77900E+09
 -1        19-1.36663E+09-5.25239E+08-4.73272E+08-1.08638E+09-1.43390E+08 3.32625E+08
 -1        20-1.09248E+09-1.77293E+08-2.86644E+08 7.38741E+08-1.35222E+08 3.01534E+08
 -1        21-3.02555E+10-1.29668E+10-1.29668E+10 9.36966E+09 1.07554E+03-1.33975E+09
 -1        22-3.15114E+10-1.35050E+10-1.35050E+10 9.12743E+09-9.15265E+02-1.77900E+09
 -1        23 1.09248E+09 1.77293E+08 2.86644E+08 7.38741E+08 1.35222E+08 3.01534E+08
 -1        24 1.36663E+09 5.25239E+08 4.73272E+08-1.08638E+09 1.43390E+08 3.32625E+08
 -1        25-1.37068E+09-5.87457E+08-5.87460E+08 7.96449E+09-4.25884E+03-5.84997E+07
 -1        26 2.11293E+07-5.54147E+07-5.20580E+07 6.73751E+08-7.31598E+07 3.29007E+08
 -1        27-1.37068E+09-5.87457E+08-5.87460E+08 7.96449E+09 4.25884E+03 5.84997E+07
 -1        28-3.15114E+10-1.35050E+10-1.35050E+10 9.12743E+09 9.15265E+02 1.77900E+09
 -1        29-3.02555E+10-1.29668E+10-1.29668E+10 9.36966E+09-1.07554E+03 1.33975E+09
 -1        30 2.11293E+07-5.54147E+07-5.20580E+07 6.73751E+08 7.31598E+07-3.29007E+08
 -1        31 1.09248E+09 1.77293E+08 2.86644E+08 7.38741E+08-1.35222E+08-3.01534E+08
 -1        32 1.36663E+09 5.25239E+08 4.73272E+08-1.08638E+09-1.43390E+08-3.32625E+08
 -1        33-8.15460E+08 4.63069E+08 1.73587E+08 1.64859E+09 1.04007E+08-8.69956E+08
 -1        34-2.48096E+08 2.68297E+08 1.62143E+08 1.82893E+09-8.11987E+07-7.93693E+08
 -1        35 2.87734E+08 1.44690E+08 4.37787E+08 1.64424E+09-2.50953E+08-7.57363E+08
 -1        36 7.56188E+08 9.56327E+07 6.37761E+08 1.31828E+09-4.00021E+08-6.01649E+08
 -1        37 1.10352E+09 6.66400E+07 8.22378E+08 8.27020E+08-5.05228E+08-3.73864E+08
 -1        38 1.28368E+09 5.05638E+07 9.09830E+08 2.59679E+08-5.47393E+08-1.05646E+08
 -1        39 1.27498E+09 3.88130E+07 8.83647E+08-3.23622E+08-5.25515E+08 1.69475E+08
 -1        40 1.08482E+09 2.86750E+07 7.44411E+08-8.47643E+08-4.40208E+08 4.17665E+08
 -1        41 7.43496E+08 2.13013E+07 5.12461E+08-1.24925E+09-3.01759E+08 6.07955E+08
 -1        42 2.99500E+08 1.67740E+07 2.18837E+08-1.47916E+09-1.26992E+08 7.16524E+08
 -1        43-1.86596E+08 1.46831E+07-9.82475E+07-1.50970E+09 6.20066E+07 7.29803E+08
 -1        44-6.49611E+08 1.41024E+07-3.98165E+08-1.33843E+09 2.41077E+08 6.46465E+08
 -1        45-1.02787E+09 1.40275E+07-6.42609E+08-9.88865E+08 3.87176E+08 4.77709E+08
 -1        46-1.27110E+09 1.35662E+07-8.00442E+08-5.07600E+08 4.81487E+08 2.45880E+08
 -1        47-1.34691E+09 1.20352E+07-8.51777E+08 4.16570E+07 5.11943E+08-1.84180E+07
 -1        48-1.24506E+09 8.97495E+06-7.90674E+08 5.86384E+08 4.74854E+08-2.80317E+08
 -1        49-9.78720E+08 4.12097E+06-6.26035E+08 1.05477E+09 3.75438E+08-5.05268E+08
 -1        50-5.82753E+08-2.65501E+06-3.80555E+08 1.38522E+09 2.27177E+08-6.63595E+08
 -1        51-1.09058E+08-1.14135E+07-8.78281E+07 1.53450E+09 5.00944E+07-7.34433E+08
 -1        52 3.80374E+08-2.21900E+07 2.12053E+08 1.48364E+09-1.31829E+08-7.08531E+08
 -1        53 8.21836E+08-3.49734E+07 4.77903E+08 1.24067E+09-2.93747E+08-5.89578E+08
 -1        54 1.15865E+09-4.96180E+07 6.73162E+08 8.39876E+08-4.13181E+08-3.93873E+08
 -1        55 1.34903E+09-6.58897E+07 7.70933E+08 3.37734E+08-4.72992E+08-1.48421E+08
 -1        56 1.37181E+09-8.38011E+07 7.57255E+08-1.94247E+08-4.63976E+08 1.12432E+08
 -1        57 1.22904E+09-1.05169E+08 6.31292E+08-6.79185E+08-3.86176E+08 3.51311E+08
 -1        58 9.45501E+08-1.33303E+08 4.05023E+08-1.04279E+09-2.50425E+08 5.34179E+08
 -1        59 5.70377E+08-1.71373E+08 1.04330E+08-1.23072E+09-7.08829E+07 6.33767E+08
 -1        60 1.74490E+08-2.07911E+08-2.04736E+08-1.17830E+09 1.34652E+08 6.44831E+08
 -1        61-9.96941E+07-1.83106E+08-4.12247E+08-9.71125E+08 3.61654E+08 5.51678E+08
 -1        62 8.15460E+08-4.63069E+08-1.73587E+08 1.64859E+09 1.04007E+08 8.69956E+08
 -1        63 2.48096E+08-2.68297E+08-1.62143E+08 1.82893E+09-8.11987E+07 7.93693E+08
 -1        64-2.87734E+08-1.44690E+08-4.37787E+08 1.64424E+09-2.50953E+08 7.57363E+08
 -1        65-7.56188E+08-9.56327E+07-6.37761E+08 1.31828E+09-4.00021E+08 6.01649E+08
 -1        66-1.10352E+09-6.66400E+07-8.22378E+08 8.27020E+08-5.05228E+08 3.73864E+08
 -1        67-1.28368E+09-5.05638E+07-9.09830E+08 2.59679E+08-5.47393E+08 1.05646E+08
 -1        68-1.27498E+09-3.88130E+07-8.83647E+08-3.23622E+08-5.25515E+08-1.69475E+08
 -1        69-1.08482E+09-2.86750E+07-7.44411E+08-8.47643E+08-4.40208E+08-4.17665E+08
 -1        70-7.43496E+08-2.13013E+07-5.12461E+08-1.24925E+09-3.01759E+08-6.07955E+08
 -1        71-2.99500E+08-1.67740E+07-2.18837E+08-1.47916E+09-1.26992E+08-7.16524E+08
 -1        72 1.86596E+08-1.46831E+07 9.82475E+07-1.50970E+09 6.20066E+07-7.29803E+08
 -1        73 6.49611E+08-1.41024E+07 3.98165E+08-1.33843E+09 2.41077E+08-6.46465E+08
 -1        74 1.02787E+09-1.40275E+07 6.42609E+08-9.88865E+08 3.87176E+08-4.77709E+08
 -1        75 1.27110E+09-1.35662E+07 8.00442E+08-5.07600E+08 4.81487E+08-2.45880E+08
 -1        76 1.34691E+09-1.20352E+07 8.51777E+08 4.16570E+07 5.11943E+08 1.84180E+07
 -1        77 1.24506E+09-8.97495E+06 7.90674E+08 5.86384E+08 4.74854E+08 2.80317E+08
 -1        78 9.78720E+08-4.12097E+06 6.26035E+08 1.05477E+09 3.75438E+08 5.05268E+08
 -1        79 5.82753E+08 2.65501E+06 3.80555E+08 1.38522E+09 2.27177E+08 6.63595E+08
 -1        80 1.09058E+08 1.14135E+07 8.78281E+07 1.53450E+09 5.00944E+07 7.34433E+08
 -1        81-3.80374E+08 2.21900E+07-2.12053E+08 1.48364E+09-1.31829E+08 7.08531E+08
 -1        82-8.21836E+08 3.49734E+07-4.77903E+08 1.24067E+09-2.93747E+08 5.89578E+08
 -1        83-1.15865E+09 4.96180E+07-6.73162E+08 8.39876E+08-4.13181E+08 3.93873E+08
 -1        84-1.34903E+09 6.58897E+07-7.70933E+08 3.37734E+08-4.72992E+08 1.48421E+08
 -1        85-1.37181E+09 8.38011E+07-7.57255E+08-1.94247E+08-4.63976E+08-1.12432E+08
 -1        86-1.22904E+09 1.05169E+08-6.31292E+08-6.79185E+08-3.86176E+08-3.51311E+08
 -1        87-9.45501E+08 1.33303E+08-4.05023E+08-1.04279E+09-2.50425E+08-5.34179E+08
 -1        88-5.70377E+08 1.71373E+08-1.04330E+08-1.23072E+09-7.08829E+07-6.33767E+08
 -1        89-1.74490E+08 2.07911E+08 2.04736E+08-1.17830E+09 1.34652E+08-6.44831E+08
 -1        90 9.96941E+07 1.83106E+08 4.12247E+08-9.71125E+08 3.61654E+08-5.51678E+08
 -1        91 2.45450E+09 1.05193E+09 1.05193E+09 8.66602E+09 3.80745E+02 1.65929E+07
 -1        92 2.46121E+09 1.05480E+09 1.05480E+09 8.91606E+09-2.11643E-07-4.55919E-02
 -1        93 2.45450E+09 1.05193E+09 1.05193E+09 8.66602E+09-3.80745E+02-1.65929E+07
 -1        94-2.45450E+09-1.05193E+09-1.05193E+09 8.66602E+09-3.80745E+02 1.65929E+07
 -1        95-2.46121E+09-1.05480E+09-1.05480E+09 8.91606E+09-7.28294E-07-4.75504E-02
 -1        96-2.45450E+09-1.05193E+09-1.05193E+09 8.66602E+09 3.80745E+02-1.65929E+07
 -1        97 8.15460E+08-4.63069E+08-1.73587E+08 1.64859E+09-1.04007E+08-8.69956E+08
 -1        98 2.48096E+08-2.68297E+08-1.62143E+08 1.82893E+09 8.11987E+07-7.93693E+08
 -1        99-2.87734E+08-1.44690E+08-4.37787E+08 1.64424E+09 2.50953E+08-7.57363E+08
 -1       100-7.56188E+08-9.56327E+07-6.37761E+08 1.31828E+09 4.00021E+08-6.01649E+08
 -1       101-1.10352E+09-6.66400E+07-8.22378E+08 8.27020E+08 5.05228E+08-3.73864E+08
 -1       102-1.28368E+09-5.05638E+07-9.09830E+08 2.59679E+08 5.47393E+08-1.05646E+08
 -1       103-1.27498E+09-3.88130E+07-8.83647E+08-3.23622E+08 5.25515E+08 1.69475E+08
 -1       104-1.08482E+09-2.86750E+07-7.44411E+08-8.47643E+08 4.40208E+08 4.17665E+08
 -1       105-7.43496E+08-2.13013E+07-5.12461E+08-1.24925E+09 3.01759E+08 6.07955E+08
 -1       106-2.99500E+08-1.67740E+07-2.18837E+08-1.47916E+09 1.26992E+08 7.16524E+08
 -1       107 1.86596E+08-1.46831E+07 9.82475E+07-1.50970E+09-6.20066E+07 7.29803E+08
 -1       108 6.49611E+08-1.41024E+07 3.98165E+08-1.33843E+09-2.41077E+08 6.46465E+08
 -1       109 1.02787E+09-1.40275E+07 6.42609E+08-9.88865E+08-3.87176E+08 4.77709E+08
 -1       110 1.27110E+09-1.35662E+07 8.00442E+08-5.07600E+08-4.81487E+08 2.45880E+08
 -1       111 1.34691E+09-1.20352E+07 8.51777E+08 4.16570E+07-5.11943E+08-1.84180E+07
 -1       112 1.24506E+09-8.97495E+06 7.90674E+08 5.86384E+08-4.74854E+08-2.80317E+08
 -1       113 9.78720E+08-4.12097E+06 6.26035E+08 1.05477E+09-3.75438E+08-5.05268E+08
 -1       114 5.82753E+08 2.65501E+06 3.80555E+08 1.38522E+09-2.27177E+08-6.63595E+08
 -1       115 1.09058E+08 1.14135E+07 8.78281E+07 1.53450E+09-5.00944E+07-7.34433E+08
 -1       116-3.80374E+08 2.21900E+07-2.12053E+08 1.48364E+09 1.31829E+08-7.08531E+08
 -1       117-8.21836E+08 3.49734E+07-4.77903E+08 1.24067E+09 2.93747E+08-5.89578E+08
 -1       118-1.15865E+09 4.96180E+07-6.73162E+08 8.39876E+08 4.13181E+08-3.93873E+08
 -1       119-1.34903E+09 6.58897E+07-7.70933E+08 3.37734E+08 4.72992E+08-1.48421E+08
 -1       120-1.37181E+09 8.38011E+07-7.57255E+08-1.94247E+08 4.63976E+08 1.12432E+08
 -1       121-1.22904E+09 1.05169E+08-6.31292E+08-6.79185E+08 3.86176E+08 3.51311E+08
 -1       122-9.45501E+08 1.33303E+08-4.05023E+08-1.04279E+09 2.50425E+08 5.34179E+08
 -1       123-5.70377E+08 1.71373E+08-1.04330E+08-1.23072E+09 7.08829E+07 6.33767E+08
 -1       124-1.74490E+08 2.07911E+08 2.04736E+08-1.17830E+09-1.34652E+08 6.44831E+08
 -1       125 9.96941E+07 1.83106E+08 4.12247E+08-9.71125E+08-3.61654E+08 5.51678E+08
 -1       126 7.53714E+08 7.86698E+08 1.86861E+09 2.62953E+08 1.52640E+09-5.33035E+08
 -1       127 1.04219E+09 1.09703E+09 2.61459E+09 1.68772E+08 1.20993E-02-6.58335E-03
 -1       128 7.53714E+08 7.86698E+08 1.86861E+09 2.62953E+08-1.52640E+09 5.33035E+08
 -1       129-8.15460E+08 4.63069E+08 1.73587E+08 1.64859E+09-1.04007E+08 8.69956E+08
 -1       130-2.48096E+08 2.68297E+08 1.62143E+08 1.82893E+09 8.11987E+07 7.93693E+08
 -1       131 2.87734E+08 1.44690E+08 4.37787E+08 1.64424E+09 2.50953E+08 7.57363E+08
 -1       132 7.56188E+08 9.56327E+07 6.37761E+08 1.31828E+09 4.00021E+08 6.01649E+08
 -1       133 1.10352E+09 6.66400E+07 8.22378E+08 8.27020E+08 5.05228E+08 3.73864E+08
 -1       134 1.28368E+09 5.05638E+07 9.09830E+08 2.59679E+08 5.47393E+08 1.05646E+08
 -1       135 1.27498E+09 3.88130E+07 8.83647E+08-3.23622E+08 5.25515E+08-1.69475E+08
 -1       136 1.08482E+09 2.86750E+07 7.44411E+08-8.47643E+08 4.40208E+08-4.17665E+08
 -1       137 7.43496E+08 2.13013E+07 5.12461E+08-1.24925E+09 3.01759E+08-6.07955E+08
 -1       138 2.99500E+08 1.67740E+07 2.18837E+08-1.47916E+09 1.26992E+08-7.16524E+08
 -1       139-1.86596E+08 1.46831E+07-9.82475E+07-1.50970E+09-6.20066E+07-7.29803E+08
 -1       140-6.49611E+08 1.41024E+07-3.98165E+08-1.33843E+09-2.41077E+08-6.46465E+08
 -1       141-1.02787E+09 1.40275E+07-6.42609E+08-9.88865E+08-3.87176E+08-4.77709E+08
 -1       142-1.27110E+09 1.35662E+07-8.00442E+08-5.07600E+08-4.81487E+08-2.45880E+08
 -1       143-1.34691E+09 1.20352E+07-8.51777E+08 4.16570E+07-5.11943E+08 1.84180E+07
 -1       144-1.24506E+09 8.97495E+06-7.90674E+08 5.86384E+08-4.74854E+08 2.80317E+08
 -1       145-9.78720E+08 4.12097E+06-6.26035E+08 1.05477E+09-3.75438E+08 5.05268E+08
 -1       146-5.82753E+08-2.65501E+06-3.80555E+08 1.38522E+09-2.27177E+08 6.63595E+08
 -1       147-1.09058E+08-1.14135E+07-8.78281E+07 1.53450E+09-5.00944E+07 7.34433E+08
 -1       148 3.80374E+08-2.21900E+07 2.12053E+08 1.48364E+09 1.31829E+08 7.08531E+08
 -1       149 8.21836E+08-3.49734E+07 4.77903E+08 1.24067E+09 2.93747E+08 5.89578E+08
 -1       150 1.15865E+09-4.96180E+07 6.73162E+08 8.39876E+08 4.13181E+08 3.93873E+08
 -1       151 1.34903E+09-6.58897E+07 7.70933E+08 3.37734E+08 4.72992E+08 1.48421E+08
 -1       152 1.37181E+09-8.38011E+07 7.57255E+08-1.94247E+08 4.63976E+08-1.12432E+08
 -1       153 1.22904E+09-1.05169E+08 6.31292E+08-6.79185E+08 3.86176E+08-3.51311E+08
 -1       154 9.45501E+08-1.33303E+08 4.05023E+08-1.04279E+09 2.50425E+08-5.34179E+08
 -1       155 5.70377E+08-1.71373E+08 1.04330E+08-1.23072E+09 7.08829E+07-6.33767E+08
 -1       156 1.74490E+08-2.07911E+08-2.04736E+08-1.17830E+09-1.34652E+08-6.44831E+08
 -1       157-9.96941E+07-1.83106E+08-4.12247E+08-9.71125E+08-3.61654E+08-5.51678E+08
 -1       158-7.53714E+08-7.86698E+08-1.86861E+09 2.62953E+08-1.52640E+09-5.33035E+08
 -1       159-1.04219E+09-1.09703E+09-2.61459E+09 1.68772E+08 1.19991E-02 1.25524E-02
 -1       160-7.53714E+08-7.86698E+08-1.86861E+09 2.62953E+08 1.52640E+09 5.33035E+08
 -1       161 4.58340E+08-8.76929E+08-5.14247E+08 3.22152E+09-1.06835E+08 1.16267E+09
 -1       162 3.29775E+08-2.78732E+08-1.00676E+08 2.46025E+09 1.47082E+08 9.46285E+08
 -1       163-1.39495E+08 5.78026E+07-2.76742E+08 2.05243E+09 1.57266E+08 8.94414E+08
 -1       164-4.79876E+08 3.14086E+08-3.21563E+08 1.57185E+09 2.66705E+08 7.04491E+08
 -1       165-7.36519E+08 5.10782E+08-4.05502E+08 1.03482E+09 3.33987E+08 4.45623E+08
 -1       166-8.72151E+08 6.12673E+08-4.44494E+08 4.68834E+08 3.73318E+08 1.42241E+08
 -1       167-8.73048E+08 6.16903E+08-4.30706E+08-8.96809E+07 3.62611E+08-1.67069E+08
 -1       168-7.45220E+08 5.28172E+08-3.62332E+08-5.86220E+08 3.06058E+08-4.45530E+08
 -1       169-5.10368E+08 3.61180E+08-2.50519E+08-9.68712E+08 2.10821E+08-6.59024E+08
 -1       170-2.02663E+08 1.40603E+08-1.10517E+08-1.19565E+09 9.01701E+07-7.81539E+08
 -1       171 1.35248E+08-1.02723E+08 3.95108E+07-1.24370E+09-4.02091E+07-7.98299E+08
 -1       172 4.57569E+08-3.35364E+08 1.80769E+08-1.11152E+09-1.63539E+08-7.07994E+08
 -1       173 7.20981E+08-5.25660E+08 2.95681E+08-8.20307E+08-2.64064E+08-5.23078E+08
 -1       174 8.90168E+08-6.47769E+08 3.70028E+08-4.11053E+08-3.28980E+08-2.68255E+08
 -1       175 9.42354E+08-6.84988E+08 3.94788E+08 6.07242E+07-3.50114E+08 2.27039E+07
 -1       176 8.70245E+08-6.31885E+08 3.67396E+08 5.32286E+08-3.25032E+08 3.11370E+08
 -1       177 6.82946E+08-4.94939E+08 2.92178E+08 9.41945E+08-2.57399E+08 5.59705E+08
 -1       178 4.04714E+08-2.91622E+08 1.79884E+08 1.23726E+09-1.56551E+08 7.35088E+08
 -1       179 7.17034E+07-4.80159E+07 4.63550E+07 1.38206E+09-3.62994E+07 8.14648E+08
 -1       180-2.72904E+08 2.04720E+08-8.95502E+07 1.36135E+09 8.68861E+07 7.88354E+08
 -1       181-5.84764E+08 4.34571E+08-2.08559E+08 1.18345E+09 1.96115E+08 6.60463E+08
 -1       182-8.24496E+08 6.13037E+08-2.93790E+08 8.79176E+08 2.76427E+08 4.49126E+08
 -1       183-9.63176E+08 7.19118E+08-3.33123E+08 4.98175E+08 3.16895E+08 1.84229E+08
 -1       184-9.86444E+08 7.42320E+08-3.20434E+08 1.03223E+08 3.11734E+08-9.64192E+07
 -1       185-8.96232E+08 6.84850E+08-2.54532E+08-2.36652E+08 2.60814E+08-3.51692E+08
 -1       186-7.11566E+08 5.60373E+08-1.39355E+08-4.52334E+08 1.67835E+08-5.43873E+08
 -1       187-4.66375E+08 3.97542E+08 1.60285E+07-4.80657E+08 4.55633E+07-6.38797E+08
 -1       188-2.22043E+08 2.25629E+08 1.56523E+08-2.54967E+08-8.17001E+07-6.26805E+08
 -1       189-4.77703E+07 7.17790E+07 2.17254E+08 2.96626E+08-1.62960E+08-4.61028E+08
 -1       190 1.44475E+10 6.19188E+09 6.19188E+09 8.24800E+09-2.89344E+02 8.78326E+08
 -1       191 1.35999E+10 5.82861E+09 5.82862E+09 8.49520E+09 1.44506E+03 6.79582E+08
 -1       192-6.88164E+08-6.10062E+07-6.30532E+07 6.26391E+08 1.24395E+08 1.02845E+08
 -1       193 1.73179E+10-1.23052E+09-3.63346E+09 9.60073E+08-3.07629E+08 3.72277E+07
 -1       194 9.45614E+09 1.46634E+09 1.31208E+09 3.45283E+08-3.76566E+07-8.13019E+07
 -1       195-1.74571E+09-1.58880E+08-1.50633E+08 2.08906E+08 2.46563E+07-2.22764E+07
 -1       196-1.04278E+10-8.12567E+08-4.53649E+07 1.05980E+08 1.35169E+08-1.21951E+07
 -1       197-1.68259E+10-1.41694E+09-2.61798E+08 9.70582E+07 2.02296E+08-5.28759E+03
 -1       198-2.01618E+10-1.70761E+09-3.19767E+08 1.19307E+08 2.39716E+08-8.36552E+06
 -1       199-2.02962E+10-1.72734E+09-3.34740E+08 1.59462E+08 2.39301E+08-2.59748E+07
 -1       200-1.73634E+10-1.47859E+09-2.87370E+08 1.98694E+08 2.04000E+08-4.58559E+07
 -1       201-1.18721E+10-1.00928E+09-1.94631E+08 2.27255E+08 1.39481E+08-6.17056E+07
 -1       202-4.62721E+09-3.88442E+08-7.02483E+07 2.38465E+08 5.51509E+07-7.02226E+07
 -1       203 3.35825E+09 2.96606E+08 6.75206E+07 2.28630E+08-3.74051E+07-7.01493E+07
 -1       204 1.09901E+10 9.51671E+08 1.99488E+08 1.97042E+08-1.25671E+08-6.16391E+07
 -1       205 1.72315E+10 1.48740E+09 3.07348E+08 1.46139E+08-1.97796E+08-4.59130E+07
 -1       206 2.12363E+10 1.83078E+09 3.76095E+08 8.13237E+07-2.44103E+08-2.50635E+07
 -1       207 2.24574E+10 1.93455E+09 3.95939E+08 1.03277E+07-2.58345E+08-1.82928E+06
 -1       208 2.07171E+10 1.78322E+09 3.63565E+08-5.77584E+07-2.38512E+08 2.07129E+07
 -1       209 1.62282E+10 1.39494E+09 2.82531E+08-1.13657E+08-1.87089E+08 3.95320E+07
 -1       210 9.56414E+09 8.18908E+08 1.62755E+08-1.49100E+08-1.10717E+08 5.20537E+07
 -1       211 1.58089E+09 1.28686E+08 1.91735E+07-1.57907E+08-1.93015E+07 5.65408E+07
 -1       212-6.69863E+09-5.87730E+08-1.30267E+08-1.36825E+08 7.53089E+07 5.23731E+07
 -1       213-1.42232E+10-1.23982E+09-2.67052E+08-8.60374E+07 1.60925E+08 4.01323E+07
 -1       214-2.00570E+10-1.74698E+09-3.74725E+08-9.21122E+06 2.26692E+08 2.13984E+07
 -1       215-2.35109E+10-2.04989E+09-4.41386E+08 8.70909E+07 2.64592E+08-1.71293E+06
 -1       216-2.42433E+10-2.11951E+09-4.61805E+08 1.94842E+08 2.70643E+08-2.70964E+07
 -1       217-2.23170E+10-1.96194E+09-4.37982E+08 3.06660E+08 2.45225E+08-5.20982E+07
 -1       218-1.82071E+10-1.62006E+09-3.80802E+08 4.16906E+08 1.93590E+08-7.28513E+07
 -1       219-1.27544E+10-1.16412E+09-3.00622E+08 5.22501E+08 1.24660E+08-8.91562E+07
 -1       220-7.10245E+09-6.93765E+08-2.46663E+08 6.33186E+08 5.69700E+07-1.04191E+08
 -1       221-2.77808E+09-4.41064E+08-2.72684E+08 7.04101E+08-1.27503E+07-2.08024E+08
 -1       222 1.63317E+10-1.62012E+09-4.04621E+09 1.64045E+09 2.53663E+08-1.37799E+07
 -1       223 8.96710E+09 1.21321E+09 1.08943E+09 1.49959E+09 5.85084E+07 1.49251E+08
 -1       224-1.68589E+09-1.76531E+08-1.37982E+08 1.48392E+09 4.08675E+06 1.15101E+08
 -1       225-9.91896E+09-6.64757E+08 1.51642E+08 1.19229E+09-7.84758E+07 1.12172E+08
 -1       226-1.60175E+10-1.16378E+09 5.66866E+07 7.44324E+08-1.25221E+08 7.56564E+07
 -1       227-1.92201E+10-1.40970E+09 5.21324E+07 1.86158E+08-1.52023E+08 1.91870E+07
 -1       228-1.93732E+10-1.43514E+09 2.98079E+07-3.90446E+08-1.53635E+08-4.87133E+07
 -1       229-1.65902E+10-1.23429E+09 1.78923E+07-9.11250E+08-1.31922E+08-1.13423E+08
 -1       230-1.13526E+10-8.46438E+08 1.00627E+07-1.30918E+09-9.02312E+07-1.63757E+08
 -1       231-4.43134E+09-3.30034E+08 6.03549E+06-1.53426E+09-3.46578E+07-1.92211E+08
 -1       232 3.20242E+09 2.41030E+08 4.09890E+06-1.55824E+09 2.69400E+07-1.95222E+08
 -1       233 1.05002E+10 7.87526E+08 3.27782E+06-1.37850E+09 8.59872E+07-1.72741E+08
 -1       234 1.64694E+10 1.23470E+09 2.89476E+06-1.01874E+09 1.34346E+08-1.27979E+08
 -1       235 2.03003E+10 1.52168E+09 2.56412E+06-5.26180E+08 1.65374E+08-6.69483E+07
 -1       236 2.14698E+10 1.60920E+09 2.07313E+06 3.44142E+07 1.74778E+08 2.25990E+06
 -1       237 1.98083E+10 1.48454E+09 1.32170E+06 5.89174E+08 1.61142E+08 7.04882E+07
 -1       238 1.55193E+10 1.16295E+09 2.66663E+05 1.06481E+09 1.26096E+08 1.28695E+08
 -1       239 9.15122E+09 6.85518E+08-1.13934E+06 1.39828E+09 7.40615E+07 1.69161E+08
 -1       240 1.52208E+09 1.13468E+08-3.03574E+06 1.54517E+09 1.16446E+07 1.86554E+08
 -1       241-6.39117E+09-4.80240E+08-5.78125E+06 1.48569E+09-5.32694E+07 1.78693E+08
 -1       242-1.35855E+10-1.02097E+09-1.01010E+07 1.22763E+09-1.12581E+08 1.46858E+08
 -1       243-1.91694E+10-1.44282E+09-1.71926E+07 8.05645E+08-1.59062E+08 9.55207E+07
 -1       244-2.24871E+10-1.69784E+09-2.86143E+07 2.77034E+08-1.87360E+08 3.15330E+07
 -1       245-2.32139E+10-1.76276E+09-4.59684E+07-2.85907E+08-1.94743E+08-3.69923E+07
 -1       246-2.14104E+10-1.64250E+09-7.01950E+07-8.05991E+08-1.82021E+08-1.00898E+08
 -1       247-1.75322E+10-1.37104E+09-1.03627E+08-1.21076E+09-1.52881E+08-1.49978E+08
 -1       248-1.23872E+10-1.01274E+09-1.45033E+08-1.43874E+09-1.15477E+08-1.79379E+08
 -1       249-7.06339E+09-6.45527E+08-2.20474E+08-1.44979E+09-6.72480E+07-1.86799E+08
 -1       250-2.91016E+09-4.61698E+08-3.18500E+08-1.25602E+09-4.74150E+07-2.59894E+08
 -1       251-9.38099E+08-5.38028E+08-2.81140E+08-1.40784E+09 1.21213E+08 9.01082E+07
 -1       252-4.77703E+07 7.17790E+07 2.17254E+08 2.96626E+08 1.62960E+08 4.61028E+08
 -1       253-2.22043E+08 2.25629E+08 1.56523E+08-2.54967E+08 8.17001E+07 6.26805E+08
 -1       254-4.66375E+08 3.97542E+08 1.60285E+07-4.80657E+08-4.55633E+07 6.38797E+08
 -1       255-7.11566E+08 5.60373E+08-1.39355E+08-4.52334E+08-1.67835E+08 5.43873E+08
 -1       256-8.96232E+08 6.84850E+08-2.54532E+08-2.36652E+08-2.60814E+08 3.51692E+08
 -1       257-9.86444E+08 7.42320E+08-3.20434E+08 1.03223E+08-3.11734E+08 9.64192E+07
 -1       258-9.63176E+08 7.19118E+08-3.33123E+08 4.98175E+08-3.16895E+08-1.84229E+08
 -1       259-8.24496E+08 6.13037E+08-2.93790E+08 8.79176E+08-2.76427E+08-4.49126E+08
 -1       260-5.84764E+08 4.34571E+08-2.08559E+08 1.18345E+09-1.96115E+08-6.60463E+08
 -1       261-2.72904E+08 2.04720E+08-8.95502E+07 1.36135E+09-8.68861E+07-7.88354E+08
 -1       262 7.17034E+07-4.80159E+07 4.63550E+07 1.38206E+09 3.62994E+07-8.14648E+08
 -1       263 4.04714E+08-2.91622E+08 1.79884E+08 1.23726E+09 1.56551E+08-7.35088E+08
 -1       264 6.82946E+08-4.94939E+08 2.92178E+08 9.41945E+08 2.57399E+08-5.59705E+08
 -1       265 8.70245E+08-6.31885E+08 3.67396E+08 5.32286E+08 3.25032E+08-3.11370E+08
 -1       266 9.42354E+08-6.84988E+08 3.94788E+08 6.07242E+07 3.50114E+08-2.27039E+07
 -1       267 8.90168E+08-6.47769E+08 3.70028E+08-4.11053E+08 3.28980E+08 2.68255E+08
 -1       268 7.20981E+08-5.25660E+08 2.95681E+08-8.20307E+08 2.64064E+08 5.23078E+08
 -1       269 4.57569E+08-3.35364E+08 1.80769E+08-1.11152E+09 1.63539E+08 7.07994E+08
 -1       270 1.35248E+08-1.02723E+08 3.95108E+07-1.24370E+09 4.02091E+07 7.98299E+08
 -1       271-2.02663E+08 1.40603E+08-1.10517E+08-1.19565E+09-9.01701E+07 7.81539E+08
 -1       272-5.10368E+08 3.61180E+08-2.50519E+08-9.68712E+08-2.10821E+08 6.59024E+08
 -1       273-7.45220E+08 5.28172E+08-3.62332E+08-5.86220E+08-3.06058E+08 4.45530E+08
 -1       274-8.73048E+08 6.16903E+08-4.30706E+08-8.96809E+07-3.62611E+08 1.67069E+08
 -1       275-8.72151E+08 6.12673E+08-4.44494E+08 4.68834E+08-3.73318E+08-1.42241E+08
 -1       276-7.36519E+08 5.10782E+08-4.05502E+08 1.03482E+09-3.33987E+08-4.45623E+08
 -1       277-4.79876E+08 3.14086E+08-3.21563E+08 1.57185E+09-2.66705E+08-7.04491E+08
 -1       278-1.39495E+08 5.78026E+07-2.76742E+08 2.05243E+09-1.57266E+08-8.94414E+08
 -1       279 3.29775E+08-2.78732E+08-1.00676E+08 2.46025E+09-1.47082E+08-9.46285E+08
 -1       280 4.58340E+08-8.76929E+08-5.14247E+08 3.22152E+09 1.06835E+08-1.16267E+09
 -1       281 1.35999E+10 5.82861E+09 5.82862E+09 8.49520E+09-1.44506E+03-6.79582E+08
 -1       282 1.44475E+10 6.19188E+09 6.19188E+09 8.24800E+09 2.89344E+02-8.78326E+08
 -1       283 1.63317E+10-1.62012E+09-4.04621E+09 1.64045E+09-2.53663E+08 1.37799E+07
 -1       284 8.96710E+09 1.21321E+09 1.08943E+09 1.49959E+09-5.85084E+07-1.49251E+08
 -1       285-1.68589E+09-1.76531E+08-1.37982E+08 1.48392E+09-4.08675E+06-1.15101E+08
 -1       286-9.91896E+09-6.64757E+08 1.51642E+08 1.19229E+09 7.84758E+07-1.12172E+08
 -1       287-1.60175E+10-1.16378E+09 5.66866E+07 7.44324E+08 1.25221E+08-7.56564E+07
 -1       288-1.92201E+10-1.40970E+09 5.21324E+07 1.86158E+08 1.52023E+08-1.91870E+07
 -1       289-1.93732E+10-1.43514E+09 2.98079E+07-3.90446E+08 1.53635E+08 4.87133E+07
 -1       290-1.65902E+10-1.23429E+09 1.78923E+07-9.11250E+08 1.31922E+08 1.13423E+08
 -1       291-1.13526E+10-8.46438E+08 1.00627E+07-1.30918E+09 9.02312E+07 1.63757E+08
 -1       292-4.43134E+09-3.30034E+08 6.03549E+06-1.53426E+09 3.46578E+07 1.92211E+08
 -1       293 3.20242E+09 2.41030E+08 4.09890E+06-1.55824E+09-2.69400E+07 1.95222E+08
 -1       294 1.05002E+10 7.87526E+08 3.27782E+06-1.37850E+09-8.59872E+07 1.72741E+08
 -1       295 1.64694E+10 1.23470E+09 2.89476E+06-1.01874E+09-1.34346E+08 1.27979E+08
 -1       296 2.03003E+10 1.52168E+09 2.56412E+06-5.26180E+08-1.65374E+08 6.69483E+07
 -1       297 2.14698E+10 1.60920E+09 2.07313E+06 3.44142E+07-1.74778E+08-2.25990E+06
 -1       298 1.98083E+10 1.48454E+09 1.32170E+06 5.89174E+08-1.61142E+08-7.04882E+07
 -1       299 1.55193E+10 1.16295E+09 2.66663E+05 1.06481E+09-1.26096E+08-1.28695E+08
 -1       300 9.15122E+09 6.85518E+08-1.13934E+06 1.39828E+09-7.40615E+07-1.69161E+08
 -1       301 1.52208E+09 1.13468E+08-3.03574E+06 1.54517E+09-1.16446E+07-1.86554E+08
 -1       302-6.39117E+09-4.80240E+08-5.78125E+06 1.48569E+09 5.32694E+07-1.78693E+08
 -1       303-1.35855E+10-1.02097E+09-1.01010E+07 1.22763E+09 1.12581E+08-1.46858E+08
 -1       304-1.91694E+10-1.44282E+09-1.71926E+07 8.05645E+08 1.59062E+08-9.55207E+07
 -1       305-2.24871E+10-1.69784E+09-2.86143E+07 2.77034E+08 1.87360E+08-3.15330E+07
 -1       306-2.32139E+10-1.76276E+09-4.59684E+07-2.85907E+08 1.94743E+08 3.69923E+07
 -1       307-2.14104E+10-1.64250E+09-7.01950E+07-8.05991E+08 1.82021E+08 1.00898E+08
 -1       308-1.75322E+10-1.37104E+09-1.03627E+08-1.21076E+09 1.52881E+08 1.49978E+08
 -1       309-1.23872E+10-1.01274E+09-1.45033E+08-1.43874E+09 1.15477E+08 1.79379E+08
 -1       310-7.06339E+09-6.45527E+08-2.20474E+08-1.44979E+09 6.72480E+07 1.86799E+08
 -1       311-2.91016E+09-4.61698E+08-3.18500E+08-1.25602E+09 4.74150E+07 2.59894E+08
 -1       312-9.38099E+08-5.38028E+08-2.81140E+08-1.40784E+09-1.21213E+08-9.01082E+07
 -1       313 1.73179E+10-1.23052E+09-3.63346E+09 9.60073E+08 3.07629E+08-3.72277E+07
 -1       314 9.45614E+09 1.46634E+09 1.31208E+09 3.45283E+08 3.76566E+07 8.13019E+07
 -1       315-1.74571E+09-1.58880E+08-1.50633E+08 2.08906E+08-2.46563E+07 2.22764E+07
 -1       316-1.04278E+10-8.12567E+08-4.53649E+07 1.05980E+08-1.35169E+08 1.21951E+07
 -1       317-1.68259E+10-1.41694E+09-2.61798E+08 9.70582E+07-2.02296E+08 5.28759E+03
 -1       318-2.01618E+10-1.70761E+09-3.19767E+08 1.19307E+08-2.39716E+08 8.36552E+06
 -1       319-2.02962E+10-1.72734E+09-3.34740E+08 1.59462E+08-2.39301E+08 2.59748E+07
 -1       320-1.73634E+10-1.47859E+09-2.87370E+08 1.98694E+08-2.04000E+08 4.58559E+07
 -1       321-1.18721E+10-1.00928E+09-1.94631E+08 2.27255E+08-1.39481E+08 6.17056E+07
 -1       322-4.62721E+09-3.88442E+08-7.02483E+07 2.38465E+08-5.51509E+07 7.02226E+07
 -1       323 3.35825E+09 2.96606E+08 6.75206E+07 2.28630E+08 3.74051E+07 7.01493E+07
 -1       324 1.09901E+10 9.51671E+08 1.99488E+08 1.97042E+08 1.25671E+08 6.16391E+07
 -1       325 1.72315E+10 1.48740E+09 3.07348E+08 1.46139E+08 1.97796E+08 4.59130E+07
 -1       326 2.12363E+10 1.83078E+09 3.76095E+08 8.13237E+07 2.44103E+08 2.50635E+07
 -1       327 2.24574E+10 1.93455E+09 3.95939E+08 1.03277E+07 2.58345E+08 1.82928E+06
 -1       328 2.07171E+10 1.78322E+09 3.63565E+08-5.77584E+07 2.38512E+08-2.07129E+07
 -1       329 1.62282E+10 1.39494E+09 2.82531E+08-1.13657E+08 1.87089E+08-3.95320E+07
 -1       330 9.56414E+09 8.18908E+08 1.62755E+08-1.49100E+08 1.10717E+08-5.20537E+07
 -1       331 1.58089E+09 1.28686E+08 1.91735E+07-1.57907E+08 1.93015E+07-5.65408E+07
 -1       332-6.69863E+09-5.87730E+08-1.30267E+08-1.36825E+08-7.53089E+07-5.23731E+07
 -1       333-1.42232E+10-1.23982E+09-2.67052E+08-8.60374E+07-1.60925E+08-4.01323E+07
 -1       334-2.00570E+10-1.74698E+09-3.74725E+08-9.21122E+06-2.26692E+08-2.13984E+07
 -1       335-2.35109E+10-2.04989E+09-4.41386E+08 8.70909E+07-2.64592E+08 1.71293E+06
 -1       336-2.42433E+10-2.11951E+09-4.61805E+08 1.94842E+08-2.70643E+08 2.70964E+07
 -1       337-2.23170E+10-1.96194E+09-4.37982E+08 3.06660E+08-2.45225E+08 5.20982E+07
 -1       338-1.82071E+10-1.62006E+09-3.80802E+08 4.16906E+08-1.93590E+08 7.28513E+07
 -1       339-1.27544E+10-1.16412E+09-3.00622E+08 5.22501E+08-1.24660E+08 8.91562E+07
 -1       340-7.10245E+09-6.93765E+08-2.46663E+08 6.33186E+08-5.69700E+07 1.04191E+08
 -1       341-2.77808E+09-4.41064E+08-2.72684E+08 7.04101E+08 1.27503E+07 2.08024E+08
 -1       342-6.88164E+08-6.10062E+07-6.30532E+07 6.26391E+08-1.24395E+08-1.02845E+08
 -1       343-1.73179E+10 1.23052E+09 3.63346E+09 9.60073E+08-3.07629E+08-3.72277E+07
 -1       344-9.45614E+09-1.46634E+09-1.31208E+09 3.45283E+08-3.76566E+07 8.13019E+07
 -1       345 1.74571E+09 1.58880E+08 1.50633E+08 2.08906E+08 2.46563E+07 2.22764E+07
 -1       346 1.04278E+10 8.12567E+08 4.53649E+07 1.05980E+08 1.35169E+08 1.21951E+07
 -1       347 1.68259E+10 1.41694E+09 2.61798E+08 9.70582E+07 2.02296E+08 5.28759E+03
 -1       348 2.01618E+10 1.70761E+09 3.19767E+08 1.19307E+08 2.39716E+08 8.36552E+06
 -1       349 2.02962E+10 1.72734E+09 3.34740E+08 1.59462E+08 2.39301E+08 2.59748E+07
 -1       350 1.73634E+10 1.47859E+09 2.87370E+08 1.98694E+08 2.04000E+08 4.58559E+07
 -1       351 1.18721E+10 1.00928E+09 1.94631E+08 2.27255E+08 1.39481E+08 6.17056E+07
 -1       352 4.62721E+09 3.88442E+08 7.02483E+07 2.38465E+08 5.51509E+07 7.02226E+07
 -1       353-3.35825E+09-2.96606E+08-6.75206E+07 2.28630E+08-3.74051E+07 7.01493E+07
 -1       354-1.09901E+10-9.51671E+08-1.99488E+08 1.97042E+08-1.25671E+08 6.16391E+07
 -1       355-1.72315E+10-1.48740E+09-3.07348E+08 1.46139E+08-1.97796E+08 4.59130E+07
 -1       356-2.12363E+10-1.83078E+09-3.76095E+08 8.13237E+07-2.44103E+08 2.50635E+07
 -1       357-2.24574E+10-1.93455E+09-3.95939E+08 1.03277E+07-2.58345E+08 1.82928E+06
 -1       358-2.07171E+10-1.78322E+09-3.63565E+08-5.77584E+07-2.38512E+08-2.07129E+07
 -1       359-1.62282E+10-1.39494E+09-2.82531E+08-1.13657E+08-1.87089E+08-3.95320E+07
 -1       360-9.56414E+09-8.18908E+08-1.62755E+08-1.49100E+08-1.10717E+08-5.20537E+07
 -1       361-1.58089E+09-1.28686E+08-1.91735E+07-1.57907E+08-1.93015E+07-5.65408E+07
 -1       362 6.69863E+09 5.87730E+08 1.30267E+08-1.36825E+08 7.53089E+07-5.23731E+07
 -1       363 1.42232E+10 1.23982E+09 2.67052E+08-8.60374E+07 1.60925E+08-4.01323E+07
 -1       364 2.00570E+10 1.74698E+09 3.74725E+08-9.21122E+06 2.26692E+08-2.13984E+07
 -1       365 2.35109E+10 2.04989E+09 4.41386E+08 8.70909E+07 2.64592E+08 1.71293E+06
 -1       366 2.42433E+10 2.11951E+09 4.61805E+08 1.94842E+08 2.70643E+08 2.70964E+07
 -1       367 2.23170E+10 1.96194E+09 4.37982E+08 3.06660E+08 2.45225E+08 5.20982E+07
 -1       368 1.82071E+10 1.62006E+09 3.80802E+08 4.16906E+08 1.93590E+08 7.28513E+07
 -1       369 1.27544E+10 1.16412E+09 3.00622E+08 5.22501E+08 1.24660E+08 8.91562E+07
 -1       370 7.10245E+09 6.93765E+08 2.46663E+08 6.33186E+08 5.69700E+07 1.04191E+08
 -1       371 2.77808E+09 4.41064E+08 2.72684E+08 7.04101E+08-1.27503E+07 2.08024E+08
 -1       372-1.63317E+10 1.62012E+09 4.04621E+09 1.64045E+09 2.53663E+08 1.37799E+07
 -1       373-8.96710E+09-1.21321E+09-1.08943E+09 1.49959E+09 5.85084E+07-1.49251E+08
 -1       374 1.68589E+09 1.76531E+08 1.37982E+08 1.48392E+09 4.08675E+06-1.15101E+08
 -1       375 9.91896E+09 6.64757E+08-1.51642E+08 1.19229E+09-7.84758E+07-1.12172E+08
 -1       376 1.60175E+10 1.16378E+09-5.66866E+07 7.44324E+08-1.25221E+08-7.56564E+07
 -1       377 1.92201E+10 1.40970E+09-5.21324E+07 1.86158E+08-1.52023E+08-1.91870E+07
 -1       378 1.93732E+10 1.43514E+09-2.98079E+07-3.90446E+08-1.53635E+08 4.87133E+07
 -1       379 1.65902E+10 1.23429E+09-1.78923E+07-9.11250E+08-1.31922E+08 1.13423E+08
 -1       380 1.13526E+10 8.46438E+08-1.00627E+07-1.30918E+09-9.02312E+07 1.63757E+08
 -1       381 4.43134E+09 3.30034E+08-6.03549E+06-1.53426E+09-3.46578E+07 1.92211E+08
 -1       382-3.20242E+09-2.41030E+08-4.09890E+06-1.55824E+09 2.69400E+07 1.95222E+08
 -1       383-1.05002E+10-7.87526E+08-3.27782E+06-1.37850E+09 8.59872E+07 1.72741E+08
 -1       384-1.64694E+10-1.23470E+09-2.89476E+06-1.01874E+09 1.34346E+08 1.27979E+08
 -1       385-2.03003E+10-1.52168E+09-2.56412E+06-5.26180E+08 1.65374E+08 6.69483E+07
 -1       386-2.14698E+10-1.60920E+09-2.07313E+06 3.44142E+07 1.74778E+08-2.25990E+06
 -1       387-1.98083E+10-1.48454E+09-1.32170E+06 5.89174E+08 1.61142E+08-7.04882E+07
 -1       388-1.55193E+10-1.16295E+09-2.66663E+05 1.06481E+09 1.26096E+08-1.28695E+08
 -1       389-9.15122E+09-6.85518E+08 1.13934E+06 1.39828E+09 7.40615E+07-1.69161E+08
 -1       390-1.52208E+09-1.13468E+08 3.03574E+06 1.54517E+09 1.16446E+07-1.86554E+08
 -1       391 6.39117E+09 4.80240E+08 5.78125E+06 1.48569E+09-5.32694E+07-1.78693E+08
 -1       392 1.35855E+10 1.02097E+09 1.01010E+07 1.22763E+09-1.12581E+08-1.46858E+08
 -1       393 1.91694E+10 1.44282E+09 1.71926E+07 8.05645E+08-1.59062E+08-9.55207E+07
 -1       394 2.24871E+10 1.69784E+09 2.86143E+07 2.77034E+08-1.87360E+08-3.15330E+07
 -1       395 2.32139E+10 1.76276E+09 4.59684E+07-2.85907E+08-1.94743E+08 3.69923E+07
 -1       396 2.14104E+10 1.64250E+09 7.01950E+07-8.05991E+08-1.82021E+08 1.00898E+08
 -1       397 1.75322E+10 1.37104E+09 1.03627E+08-1.21076E+09-1.52881E+08 1.49978E+08
 -1       398 1.23872E+10 1.01274E+09 1.45033E+08-1.43874E+09-1.15477E+08 1.79379E+08
 -1       399 7.06339E+09 6.45527E+08 2.20474E+08-1.44979E+09-6.72480E+07 1.86799E+08
 -1       400 2.91016E+09 4.61698E+08 3.18500E+08-1.25602E+09-4.74150E+07 2.59894E+08
 -1       401-1.44475E+10-6.19188E+09-6.19188E+09 8.24800E+09-2.89344E+02-8.78326E+08
 -1       402-1.35999E+10-5.82861E+09-5.82862E+09 8.49520E+09 1.44506E+03-6.79582E+08
 -1       403 6.88164E+08 6.10062E+07 6.30532E+07 6.26391E+08 1.24395E+08-1.02845E+08
 -1       404-4.58340E+08 8.76929E+08 5.14247E+08 3.22152E+09-1.06835E+08-1.16267E+09
 -1       405-3.29775E+08 2.78732E+08 1.00676E+08 2.46025E+09 1.47082E+08-9.46285E+08
 -1       406 1.39495E+08-5.78026E+07 2.76742E+08 2.05243E+09 1.57266E+08-8.94414E+08
 -1       407 4.79876E+08-3.14086E+08 3.21563E+08 1.57185E+09 2.66705E+08-7.04491E+08
 -1       408 7.36519E+08-5.10782E+08 4.05502E+08 1.03482E+09 3.33987E+08-4.45623E+08
 -1       409 8.72151E+08-6.12673E+08 4.44494E+08 4.68834E+08 3.73318E+08-1.42241E+08
 -1       410 8.73048E+08-6.16903E+08 4.30706E+08-8.96809E+07 3.62611E+08 1.67069E+08
 -1       411 7.45220E+08-5.28172E+08 3.62332E+08-5.86220E+08 3.06058E+08 4.45530E+08
 -1       412 5.10368E+08-3.61180E+08 2.50519E+08-9.68712E+08 2.10821E+08 6.59024E+08
 -1       413 2.02663E+08-1.40603E+08 1.10517E+08-1.19565E+09 9.01701E+07 7.81539E+08
 -1       414-1.35248E+08 1.02723E+08-3.95108E+07-1.24370E+09-4.02091E+07 7.98299E+08
 -1       415-4.57569E+08 3.35364E+08-1.80769E+08-1.11152E+09-1.63539E+08 7.07994E+08
 -1       416-7.20981E+08 5.25660E+08-2.95681E+08-8.20307E+08-2.64064E+08 5.23078E+08
 -1       417-8.90168E+08 6.47769E+08-3.70028E+08-4.11053E+08-3.28980E+08 2.68255E+08
 -1       418-9.42354E+08 6.84988E+08-3.94788E+08 6.07242E+07-3.50114E+08-2.27039E+07
 -1       419-8.70245E+08 6.31885E+08-3.67396E+08 5.32286E+08-3.25032E+08-3.11370E+08
 -1       420-6.82946E+08 4.94939E+08-2.92178E+08 9.41945E+08-2.57399E+08-5.59705E+08
 -1       421-4.04714E+08 2.91622E+08-1.79884E+08 1.23726E+09-1.56551E+08-7.35088E+08
 -1       422-7.17034E+07 4.80159E+07-4.63550E+07 1.38206E+09-3.62994E+07-8.14648E+08
 -1       423 2.72904E+08-2.04720E+08 8.95502E+07 1.36135E+09 8.68861E+07-7.88354E+08
 -1       424 5.84764E+08-4.34571E+08 2.08559E+08 1.18345E+09 1.96115E+08-6.60463E+08
 -1       425 8.24496E+08-6.13037E+08 2.93790E+08 8.79176E+08 2.76427E+08-4.49126E+08
 -1       426 9.63176E+08-7.19118E+08 3.33123E+08 4.98175E+08 3.16895E+08-1.84229E+08
 -1       427 9.86444E+08-7.42320E+08 3.20434E+08 1.03223E+08 3.11734E+08 9.64192E+07
 -1       428 8.96232E+08-6.84850E+08 2.54532E+08-2.36652E+08 2.60814E+08 3.51692E+08
 -1       429 7.11566E+08-5.60373E+08 1.39355E+08-4.52334E+08 1.67835E+08 5.43873E+08
 -1       430 4.66375E+08-3.97542E+08-1.60285E+07-4.80657E+08 4.55633E+07 6.38797E+08
 -1       431 2.22043E+08-2.25629E+08-1.56523E+08-2.54967E+08-8.17001E+07 6.26805E+08
 -1       432 4.77703E+07-7.17790E+07-2.17254E+08 2.96626E+08-1.62960E+08 4.61028E+08
 -1       433 9.38099E+08 5.38028E+08 2.81140E+08-1.40784E+09 1.21213E+08-9.01082E+07
 -1       434-1.44475E+10-6.19188E+09-6.19188E+09 8.24800E+09 2.89344E+02 8.78326E+08
 -1       435-1.35999E+10-5.82861E+09-5.82862E+09 8.49520E+09-1.44506E+03 6.79582E+08
 -1       436 4.77703E+07-7.17790E+07-2.17254E+08 2.96626E+08 1.62960E+08-4.61028E+08
 -1       437 2.22043E+08-2.25629E+08-1.56523E+08-2.54967E+08 8.17001E+07-6.26805E+08
 -1       438 4.66375E+08-3.97542E+08-1.60285E+07-4.80657E+08-4.55633E+07-6.38797E+08
 -1       439 7.11566E+08-5.60373E+08 1.39355E+08-4.52334E+08-1.67835E+08-5.43873E+08
 -1       440 8.96232E+08-6.84850E+08 2.54532E+08-2.36652E+08-2.60814E+08-3.51692E+08
 -1       441 9.86444E+08-7.42320E+08 3.20434E+08 1.03223E+08-3.11734E+08-9.64192E+07
 -1       442 9.63176E+08-7.19118E+08 3.33123E+08 4.98175E+08-3.16895E+08 1.84229E+08
 -1       443 8.24496E+08-6.13037E+08 2.93790E+08 8.79176E+08-2.76427E+08 4.49126E+08
 -1       444 5.84764E+08-4.34571E+08 2.08559E+08 1.18345E+09-1.96115E+08 6.60463E+08
 -1       445 2.72904E+08-2.04720E+08 8.95502E+07 1.36135E+09-8.68861E+07 7.88354E+08
 -1       446-7.17034E+07 4.80159E+07-4.63550E+07 1.38206E+09 3.62994E+07 8.14648E+08
 -1       447-4.04714E+08 2.91622E+08-1.79884E+08 1.23726E+09 1.56551E+08 7.35088E+08
 -1       448-6.82946E+08 4.94939E+08-2.92178E+08 9.41945E+08 2.57399E+08 5.59705E+08
 -1       449-8.70245E+08 6.31885E+08-3.67396E+08 5.32286E+08 3.25032E+08 3.11370E+08
 -1       450-9.42354E+08 6.84988E+08-3.94788E+08 6.07242E+07 3.50114E+08 2.27039E+07
 -1       451-8.90168E+08 6.47769E+08-3.70028E+08-4.11053E+08 3.28980E+08-2.68255E+08
 -1       452-7.20981E+08 5.25660E+08-2.95681E+08-8.20307E+08 2.64064E+08-5.23078E+08
 -1       453-4.57569E+08 3.35364E+08-1.80769E+08-1.11152E+09 1.63539E+08-7.07994E+08
 -1       454-1.35248E+08 1.02723E+08-3.95108E+07-1.24370E+09 4.02091E+07-7.98299E+08
 -1       455 2.02663E+08-1.40603E+08 1.10517E+08-1.19565E+09-9.01701E+07-7.81539E+08
 -1       456 5.10368E+08-3.61180E+08 2.50519E+08-9.68712E+08-2.10821E+08-6.59024E+08
 -1       457 7.45220E+08-5.28172E+08 3.62332E+08-5.86220E+08-3.06058E+08-4.45530E+08
 -1       458 8.73048E+08-6.16903E+08 4.30706E+08-8.96809E+07-3.62611E+08-1.67069E+08
 -1       459 8.72151E+08-6.12673E+08 4.44494E+08 4.68834E+08-3.73318E+08 1.42241E+08
 -1       460 7.36519E+08-5.10782E+08 4.05502E+08 1.03482E+09-3.33987E+08 4.45623E+08
 -1       461 4.79876E+08-3.14086E+08 3.21563E+08 1.57185E+09-2.66705E+08 7.04491E+08
 -1       462 1.39495E+08-5.78026E+07 2.76742E+08 2.05243E+09-1.57266E+08 8.94414E+08
 -1       463-3.29775E+08 2.78732E+08 1.00676E+08 2.46025E+09-1.47082E+08 9.46285E+08
 -1       464-4.58340E+08 8.76929E+08 5.14247E+08 3.22152E+09 1.06835E+08 1.16267E+09
 -1       465 6.88164E+08 6.10062E+07 6.30532E+07 6.26391E+08-1.24395E+08 1.02845E+08
 -1       466-1.73179E+10 1.23052E+09 3.63346E+09 9.60073E+08 3.07629E+08 3.72277E+07
 -1       467-9.45614E+09-1.46634E+09-1.31208E+09 3.45283E+08 3.76566E+07-8.13019E+07
 -1       468 1.74571E+09 1.58880E+08 1.50633E+08 2.08906E+08-2.46563E+07-2.22764E+07
 -1       469 1.04278E+10 8.12567E+08 4.53649E+07 1.05980E+08-1.35169E+08-1.21951E+07
 -1       470 1.68259E+10 1.41694E+09 2.61798E+08 9.70582E+07-2.02296E+08-5.28758E+03
 -1       471 2.01618E+10 1.70761E+09 3.19767E+08 1.19307E+08-2.39716E+08-8.36552E+06
 -1       472 2.02962E+10 1.72734E+09 3.34740E+08 1.59462E+08-2.39301E+08-2.59748E+07
 -1       473 1.73634E+10 1.47859E+09 2.87370E+08 1.98694E+08-2.04000E+08-4.58559E+07
 -1       474 1.18721E+10 1.00928E+09 1.94631E+08 2.27255E+08-1.39481E+08-6.17056E+07
 -1       475 4.62721E+09 3.88442E+08 7.02483E+07 2.38465E+08-5.51509E+07-7.02226E+07
 -1       476-3.35825E+09-2.96606E+08-6.75206E+07 2.28630E+08 3.74051E+07-7.01493E+07
 -1       477-1.09901E+10-9.51671E+08-1.99488E+08 1.97042E+08 1.25671E+08-6.16391E+07
 -1       478-1.72315E+10-1.48740E+09-3.07348E+08 1.46139E+08 1.97796E+08-4.59130E+07
 -1       479-2.12363E+10-1.83078E+09-3.76095E+08 8.13237E+07 2.44103E+08-2.50635E+07
 -1       480-2.24574E+10-1.93455E+09-3.95939E+08 1.03277E+07 2.58345E+08-1.82928E+06
 -1       481-2.07171E+10-1.78322E+09-3.63565E+08-5.77584E+07 2.38512E+08 2.07129E+07
 -1       482-1.62282E+10-1.39494E+09-2.82531E+08-1.13657E+08 1.87089E+08 3.95320E+07
 -1       483-9.56414E+09-8.18908E+08-1.62755E+08-1.49100E+08 1.10717E+08 5.20537E+07
 -1       484-1.58089E+09-1.28686E+08-1.91735E+07-1.57907E+08 1.93015E+07 5.65408E+07
 -1       485 6.69863E+09 5.87730E+08 1.30267E+08-1.36825E+08-7.53089E+07 5.23731E+07
 -1       486 1.42232E+10 1.23982E+09 2.67052E+08-8.60374E+07-1.60925E+08 4.01323E+07
 -1       487 2.00570E+10 1.74698E+09 3.74725E+08-9.21122E+06-2.26692E+08 2.13984E+07
 -1       488 2.35109E+10 2.04989E+09 4.41386E+08 8.70909E+07-2.64592E+08-1.71293E+06
 -1       489 2.42433E+10 2.11951E+09 4.61805E+08 1.94842E+08-2.70643E+08-2.70964E+07
 -1       490 2.23170E+10 1.96194E+09 4.37982E+08 3.06660E+08-2.45225E+08-5.20982E+07
 -1       491 1.82071E+10 1.62006E+09 3.80802E+08 4.16906E+08-1.93590E+08-7.28513E+07
 -1       492 1.27544E+10 1.16412E+09 3.00622E+08 5.22501E+08-1.24660E+08-8.91562E+07
 -1       493 7.10245E+09 6.93765E+08 2.46663E+08 6.33186E+08-5.69700E+07-1.04191E+08
 -1       494 2.77808E+09 4.41064E+08 2.72684E+08 7.04101E+08 1.27503E+07-2.08024E+08
 -1       495-1.63317E+10 1.62012E+09 4.04621E+09 1.64045E+09-2.53663E+08-1.37799E+07
 -1       496-8.96710E+09-1.21321E+09-1.08943E+09 1.49959E+09-5.85084E+07 1.49251E+08
 -1       497 1.68589E+09 1.76531E+08 1.37982E+08 1.48392E+09-4.08675E+06 1.15101E+08
 -1       498 9.91896E+09 6.64757E+08-1.51642E+08 1.19229E+09 7.84758E+07 1.12172E+08
 -1       499 1.60175E+10 1.16378E+09-5.66866E+07 7.44324E+08 1.25221E+08 7.56564E+07
 -1       500 1.92201E+10 1.40970E+09-5.21324E+07 1.86158E+08 1.52023E+08 1.91870E+07
 -1       501 1.93732E+10 1.43514E+09-2.98079E+07-3.90446E+08 1.53635E+08-4.87133E+07
 -1       502 1.65902E+10 1.23429E+09-1.78923E+07-9.11250E+08 1.31922E+08-1.13423E+08
 -1       503 1.13526E+10 8.46438E+08-1.00627E+07-1.30918E+09 9.02312E+07-1.63757E+08
 -1       504 4.43134E+09 3.30034E+08-6.03549E+06-1.53426E+09 3.46578E+07-1.92211E+08
 -1       505-3.20242E+09-2.41030E+08-4.09890E+06-1.55824E+09-2.69400E+07-1.95222E+08
 -1       506-1.05002E+10-7.87526E+08-3.27782E+06-1.37850E+09-8.59872E+07-1.72741E+08
 -1       507-1.64694E+10-1.23470E+09-2.89476E+06-1.01874E+09-1.34346E+08-1.27979E+08
 -1       508-2.03003E+10-1.52168E+09-2.56412E+06-5.26180E+08-1.65374E+08-6.69483E+07
 -1       509-2.14698E+10-1.60920E+09-2.07313E+06 3.44142E+07-1.74778E+08 2.25990E+06
 -1       510-1.98083E+10-1.48454E+09-1.32170E+06 5.89174E+08-1.61142E+08 7.04882E+07
 -1       511-1.55193E+10-1.16295E+09-2.66663E+05 1.06481E+09-1.26096E+08 1.28695E+08
 -1       512-9.15122E+09-6.85518E+08 1.13934E+06 1.39828E+09-7.40615E+07 1.69161E+08
 -1       513-1.52208E+09-1.13468E+08 3.03574E+06 1.54517E+09-1.16446E+07 1.86554E+08
 -1       514 6.39117E+09 4.80240E+08 5.78125E+06 1.48569E+09 5.32694E+07 1.78693E+08
 -1       515 1.35855E+10 1.02097E+09 1.01010E+07 1.22763E+09 1.12581E+08 1.46858E+08
 -1       516 1.91694E+10 1.44282E+09 1.71926E+07 8.05645E+08 1.59062E+08 9.55207E+07
 -1       517 2.24871E+10 1.69784E+09 2.86143E+07 2.77034E+08 1.87360E+08 3.15330E+07
 -1       518 2.32139E+10 1.76276E+09 4.59684E+07-2.85907E+08 1.94743E+08-3.69923E+07
 -1       519 2.14104E+10 1.64250E+09 7.01950E+07-8.05991E+08 1.82021E+08-1.00898E+08
 -1       520 1.75322E+10 1.37104E+09 1.03627E+08-1.21076E+09 1.52881E+08-1.49978E+08
 -1       521 1.23872E+10 1.01274E+09 1.45033E+08-1.43874E+09 1.15477E+08-1.79379E+08
 -1       522 7.06339E+09 6.45527E+08 2.20474E+08-1.44979E+09 6.72480E+07-1.86799E+08
 -1       523 2.91016E+09 4.61698E+08 3.18500E+08-1.25602E+09 4.74150E+07-2.59894E+08
 -1       524 9.38099E+08 5.38028E+08 2.81140E+08-1.40784E+09-1.21213E+08 9.01082E+07
 -1       525 1.77536E+09 7.43259E+08 7.02168E+08-1.76554E+09 1.35488E+07 1.59130E+08
 -1       526 4.80146E+08 1.04297E+08-1.32490E+08-1.44983E+09-1.97534E+08 3.05597E+08
 -1       527-6.05021E+08-4.65244E+08-9.45793E+08-1.19518E+09-5.60571E+08 3.21100E+08
 -1       528-1.48452E+09-9.39339E+08-1.64661E+09-9.21915E+08-8.64536E+08 2.57326E+08
 -1       529-2.10063E+09-1.27219E+09-2.14000E+09-5.70764E+08-1.06445E+09 1.49347E+08
 -1       530-2.40003E+09-1.42877E+09-2.36255E+09-1.87213E+08-1.14299E+09 1.86039E+07
 -1       531-2.36293E+09-1.39519E+09-2.28769E+09 2.02894E+08-1.09079E+09-1.17702E+08
 -1       532-2.00190E+09-1.17791E+09-1.92446E+09 5.54186E+08-9.11679E+08-2.41562E+08
 -1       533-1.36898E+09-8.06405E+08-1.31903E+09 8.24353E+08-6.25015E+08-3.36543E+08
 -1       534-5.50276E+08-3.29807E+08-5.49081E+08 9.80039E+08-2.64923E+08-3.89744E+08
 -1       535 3.44582E+08 1.89186E+08 2.86037E+08 1.00234E+09 1.23799E+08-3.93719E+08
 -1       536 1.19649E+09 6.82400E+08 1.07818E+09 8.89408E+08 4.91809E+08-3.47542E+08
 -1       537 1.89232E+09 1.08506E+09 1.72456E+09 6.56832E+08 7.92015E+08-2.56960E+08
 -1       538 2.33968E+09 1.34430E+09 2.14131E+09 3.35715E+08 9.85954E+08-1.33654E+08
 -1       539 2.47900E+09 1.42607E+09 2.27457E+09-3.13695E+07 1.04898E+09 6.28528E+06
 -1       540 2.29133E+09 1.31972E+09 2.10772E+09-3.95952E+08 9.73593E+08 1.44460E+08
 -1       541 1.80084E+09 1.03937E+09 1.66374E+09-7.10044E+08 7.70573E+08 2.62580E+08
 -1       542 1.07160E+09 6.22165E+08 1.00228E+09-9.32477E+08 4.67620E+08 3.44866E+08
 -1       543 1.99106E+08 1.23341E+08 2.12031E+08-1.03435E+09 1.05855E+08 3.80127E+08
 -1       544-7.02315E+08-3.90961E+08-6.00888E+08-1.00287E+09-2.65453E+08 3.63247E+08
 -1       545-1.51466E+09-8.52429E+08-1.32677E+09-8.43106E+08-5.95195E+08 2.95888E+08
 -1       546-2.13191E+09-1.19962E+09-1.86683E+09-5.77399E+08-8.36979E+08 1.86373E+08
 -1       547-2.47437E+09-1.38624E+09-2.14643E+09-2.42794E+08-9.55260E+08 4.87822E+07
 -1       548-2.50011E+09-1.38771E+09-2.12561E+09 1.12975E+08-9.30665E+08-9.86648E+07
 -1       549-2.21279E+09-1.20553E+09-1.80564E+09 4.35511E+08-7.63746E+08-2.36103E+08
 -1       550-1.66655E+09-8.69311E+08-1.23116E+09 6.66221E+08-4.75300E+08-3.45839E+08
 -1       551-9.61033E+08-4.33057E+08-4.82490E+08 7.57931E+08-9.96580E+07-4.18914E+08
 -1       552-2.37250E+08 2.93894E+07 3.35215E+08 6.56247E+08 3.39585E+08-4.63885E+08
 -1       553 3.53149E+08 4.43572E+08 1.12543E+09 3.68054E+08 8.96000E+08-5.06239E+08
 -1       554 1.86709E+09 7.84928E+08 7.49341E+08-1.06214E+09-1.31965E-03-4.46514E-02
 -1       555 5.38338E+08 1.05647E+08-1.86180E+08-1.05596E+09-4.78876E-03-4.71376E-02
 -1       556-7.32575E+08-5.87493E+08-1.22573E+09-7.96910E+08-6.46865E-03-4.18720E-02
 -1       557-1.72617E+09-1.14723E+09-2.09792E+09-5.59436E+08-5.85485E-03-3.59914E-02
 -1       558-2.40309E+09-1.53030E+09-2.69791E+09-3.45954E+08 8.66890E-04-3.04211E-02
 -1       559-2.72954E+09-1.70797E+09-2.96370E+09-1.11833E+08 4.87566E-04-2.43377E-02
 -1       560-2.67947E+09-1.66253E+09-2.86231E+09 1.24294E+08-1.44124E-03-1.99729E-02
 -1       561-2.26715E+09-1.40165E+09-2.40502E+09 3.37940E+08-7.14970E-03-1.45572E-02
 -1       562-1.55011E+09-9.59483E+08-1.64817E+09 5.02846E+08-7.34293E-03-9.19233E-03
 -1       563-6.24689E+08-3.93672E+08-6.87552E+08 5.98152E+08-3.59422E-03-5.48275E-03
 -1       564 3.85894E+08 2.21855E+08 3.53624E+08 6.11976E+08-3.55393E-04-1.73748E-03
 -1       565 1.34757E+09 8.06554E+08 1.34094E+09 5.43067E+08 5.30958E-04 5.23993E-03
 -1       566 2.13296E+09 1.28385E+09 2.14654E+09 4.00889E+08 1.93596E-03 1.26727E-02
 -1       567 2.63797E+09 1.59121E+09 2.66605E+09 2.04416E+08 2.52962E-03 1.85520E-02
 -1       568 2.79554E+09 1.68841E+09 2.83249E+09-2.03310E+07 3.52979E-03 2.05651E-02
 -1       569 2.58435E+09 1.56287E+09 2.62522E+09-2.43699E+08 4.64439E-03 1.68916E-02
 -1       570 2.03174E+09 1.23138E+09 2.07287E+09-4.36310E+08 7.14946E-03 1.26488E-02
 -1       571 1.21001E+09 7.37945E+08 1.24981E+09-5.72939E+08 1.09850E-02 1.04694E-02
 -1       572 2.26974E+08 1.48054E+08 2.66539E+08-6.35838E+08 1.33297E-02 8.64048E-03
 -1       573-7.88273E+08-4.59878E+08-7.44654E+08-6.17054E+08 1.02353E-02 5.47649E-03
 -1       574-1.70236E+09-1.00478E+09-1.64691E+09-5.19424E+08 8.66234E-03-2.11872E-04
 -1       575-2.39524E+09-1.41360E+09-2.31674E+09-3.56154E+08 8.87918E-03-6.18189E-03
 -1       576-2.77623E+09-1.63102E+09-2.66049E+09-1.49292E+08 7.37143E-03-1.13454E-02
 -1       577-2.79715E+09-1.62747E+09-2.62774E+09 7.18492E+07 3.27826E-04-1.40561E-02
 -1       578-2.46205E+09-1.40466E+09-2.22015E+09 2.71672E+08-5.79500E-03-1.36886E-02
 -1       579-1.83267E+09-9.97969E+08-1.49390E+09 4.08950E+08-2.16019E-03-1.10345E-02
 -1       580-1.03197E+09-4.75661E+08-5.53570E+08 4.29855E+08 1.92751E-03-6.54958E-03
 -1       581-2.19077E+08 7.81682E+07 4.79638E+08 3.19758E+08 7.97153E-04-2.36502E-03
 -1       582 4.90788E+08 6.09470E+08 1.54078E+09 1.49634E+08 3.98898E-03-3.75310E-03
 -1       583 1.77536E+09 7.43259E+08 7.02168E+08-1.76554E+09-1.35488E+07-1.59130E+08
 -1       584 4.80146E+08 1.04297E+08-1.32490E+08-1.44983E+09 1.97534E+08-3.05597E+08
 -1       585-6.05021E+08-4.65244E+08-9.45793E+08-1.19518E+09 5.60571E+08-3.21100E+08
 -1       586-1.48452E+09-9.39339E+08-1.64661E+09-9.21915E+08 8.64536E+08-2.57326E+08
 -1       587-2.10063E+09-1.27219E+09-2.14000E+09-5.70764E+08 1.06445E+09-1.49347E+08
 -1       588-2.40003E+09-1.42877E+09-2.36255E+09-1.87213E+08 1.14299E+09-1.86039E+07
 -1       589-2.36293E+09-1.39519E+09-2.28769E+09 2.02894E+08 1.09079E+09 1.17702E+08
 -1       590-2.00190E+09-1.17791E+09-1.92446E+09 5.54186E+08 9.11679E+08 2.41562E+08
 -1       591-1.36898E+09-8.06405E+08-1.31903E+09 8.24353E+08 6.25015E+08 3.36543E+08
 -1       592-5.50276E+08-3.29807E+08-5.49081E+08 9.80039E+08 2.64923E+08 3.89744E+08
 -1       593 3.44582E+08 1.89186E+08 2.86037E+08 1.00234E+09-1.23799E+08 3.93719E+08
 -1       594 1.19649E+09 6.82400E+08 1.07818E+09 8.89408E+08-4.91809E+08 3.47542E+08
 -1       595 1.89232E+09 1.08506E+09 1.72456E+09 6.56832E+08-7.92015E+08 2.56960E+08
 -1       596 2.33968E+09 1.34430E+09 2.14131E+09 3.35715E+08-9.85954E+08 1.33654E+08
 -1       597 2.47900E+09 1.42607E+09 2.27457E+09-3.13695E+07-1.04898E+09-6.28528E+06
 -1       598 2.29133E+09 1.31972E+09 2.10772E+09-3.95952E+08-9.73593E+08-1.44460E+08
 -1       599 1.80084E+09 1.03937E+09 1.66374E+09-7.10044E+08-7.70573E+08-2.62580E+08
 -1       600 1.07160E+09 6.22165E+08 1.00228E+09-9.32477E+08-4.67620E+08-3.44866E+08
 -1       601 1.99106E+08 1.23341E+08 2.12031E+08-1.03435E+09-1.05855E+08-3.80127E+08
 -1       602-7.02315E+08-3.90961E+08-6.00888E+08-1.00287E+09 2.65453E+08-3.63247E+08
 -1       603-1.51466E+09-8.52429E+08-1.32677E+09-8.43106E+08 5.95195E+08-2.95888E+08
 -1       604-2.13191E+09-1.19962E+09-1.86683E+09-5.77399E+08 8.36979E+08-1.86373E+08
 -1       605-2.47437E+09-1.38624E+09-2.14643E+09-2.42794E+08 9.55260E+08-4.87822E+07
 -1       606-2.50011E+09-1.38771E+09-2.12561E+09 1.12975E+08 9.30665E+08 9.86648E+07
 -1       607-2.21279E+09-1.20553E+09-1.80564E+09 4.35511E+08 7.63746E+08 2.36103E+08
 -1       608-1.66655E+09-8.69311E+08-1.23116E+09 6.66221E+08 4.75300E+08 3.45839E+08
 -1       609-9.61033E+08-4.33057E+08-4.82490E+08 7.57931E+08 9.96580E+07 4.18914E+08
 -1       610-2.37250E+08 2.93894E+07 3.35215E+08 6.56247E+08-3.39585E+08 4.63885E+08
 -1       611 3.53149E+08 4.43572E+08 1.12543E+09 3.68054E+08-8.96000E+08 5.06239E+08
 -1       612-1.77536E+09-7.43259E+08-7.02168E+08-1.76554E+09-1.35488E+07 1.59130E+08
 -1       613-4.80146E+08-1.04297E+08 1.32490E+08-1.44983E+09 1.97534E+08 3.05597E+08
 -1       614 6.05021E+08 4.65244E+08 9.45793E+08-1.19518E+09 5.60571E+08 3.21100E+08
 -1       615 1.48452E+09 9.39339E+08 1.64661E+09-9.21915E+08 8.64536E+08 2.57326E+08
 -1       616 2.10063E+09 1.27219E+09 2.14000E+09-5.70764E+08 1.06445E+09 1.49347E+08
 -1       617 2.40003E+09 1.42877E+09 2.36255E+09-1.87213E+08 1.14299E+09 1.86039E+07
 -1       618 2.36293E+09 1.39519E+09 2.28769E+09 2.02894E+08 1.09079E+09-1.17702E+08
 -1       619 2.00190E+09 1.17791E+09 1.92446E+09 5.54186E+08 9.11679E+08-2.41562E+08
 -1       620 1.36898E+09 8.06405E+08 1.31903E+09 8.24353E+08 6.25015E+08-3.36543E+08
 -1       621 5.50276E+08 3.29807E+08 5.49081E+08 9.80039E+08 2.64923E+08-3.89744E+08
 -1       622-3.44582E+08-1.89186E+08-2.86037E+08 1.00234E+09-1.23799E+08-3.93719E+08
 -1       623-1.19649E+09-6.82400E+08-1.07818E+09 8.89408E+08-4.91809E+08-3.47542E+08
 -1       624-1.89232E+09-1.08506E+09-1.72456E+09 6.56832E+08-7.92015E+08-2.56960E+08
 -1       625-2.33968E+09-1.34430E+09-2.14131E+09 3.35715E+08-9.85954E+08-1.33654E+08
 -1       626-2.47900E+09-1.42607E+09-2.27457E+09-3.13695E+07-1.04898E+09 6.28528E+06
 -1       627-2.29133E+09-1.31972E+09-2.10772E+09-3.95952E+08-9.73593E+08 1.44460E+08
 -1       628-1.80084E+09-1.03937E+09-1.66374E+09-7.10044E+08-7.70573E+08 2.62580E+08
 -1       629-1.07160E+09-6.22165E+08-1.00228E+09-9.32477E+08-4.67620E+08 3.44866E+08
 -1       630-1.99106E+08-1.23341E+08-2.12031E+08-1.03435E+09-1.05855E+08 3.80127E+08
 -1       631 7.02315E+08 3.90961E+08 6.00888E+08-1.00287E+09 2.65453E+08 3.63247E+08
 -1       632 1.51466E+09 8.52429E+08 1.32677E+09-8.43106E+08 5.95195E+08 2.95888E+08
 -1       633 2.13191E+09 1.19962E+09 1.86683E+09-5.77399E+08 8.36979E+08 1.86373E+08
 -1       634 2.47437E+09 1.38624E+09 2.14643E+09-2.42794E+08 9.55260E+08 4.87822E+07
 -1       635 2.50011E+09 1.38771E+09 2.12561E+09 1.12975E+08 9.30665E+08-9.86648E+07
 -1       636 2.21279E+09 1.20553E+09 1.80564E+09 4.35511E+08 7.63746E+08-2.36103E+08
 -1       637 1.66655E+09 8.69311E+08 1.23116E+09 6.66221E+08 4.75300E+08-3.45839E+08
 -1       638 9.61033E+08 4.33057E+08 4.82490E+08 7.57931E+08 9.96580E+07-4.18914E+08
 -1       639 2.37250E+08-2.93894E+07-3.35215E+08 6.56247E+08-3.39585E+08-4.63885E+08
 -1       640-3.53149E+08-4.43572E+08-1.12543E+09 3.68054E+08-8.96000E+08-5.06239E+08
 -1       641-1.86709E+09-7.84928E+08-7.49341E+08-1.06214E+09-1.66105E-03-5.06697E-02
 -1       642-5.38338E+08-1.05647E+08 1.86180E+08-1.05596E+09-4.88502E-03-5.41759E-02
 -1       643 7.32575E+08 5.87493E+08 1.22573E+09-7.96910E+08-6.50048E-03-4.77346E-02
 -1       644 1.72617E+09 1.14723E+09 2.09792E+09-5.59436E+08-5.79667E-03-3.81739E-02
 -1       645 2.40309E+09 1.53030E+09 2.69791E+09-3.45954E+08 1.05214E-03-3.02713E-02
 -1       646 2.72954E+09 1.70797E+09 2.96370E+09-1.11833E+08 6.06775E-04-2.30213E-02
 -1       647 2.67947E+09 1.66253E+09 2.86231E+09 1.24294E+08-1.21951E-03-1.61352E-02
 -1       648 2.26715E+09 1.40165E+09 2.40502E+09 3.37940E+08-6.87242E-03-7.05563E-03
 -1       649 1.55011E+09 9.59483E+08 1.64817E+09 5.02846E+08-7.04324E-03 2.20822E-03
 -1       650 6.24689E+08 3.93672E+08 6.87552E+08 5.98152E+08-3.28791E-03 7.04923E-03
 -1       651-3.85894E+08-2.21855E+08-3.53624E+08 6.11976E+08-7.28667E-05 9.63070E-03
 -1       652-1.34757E+09-8.06554E+08-1.34094E+09 5.43067E+08 7.66754E-04 1.40932E-02
 -1       653-2.13296E+09-1.28385E+09-2.14654E+09 4.00889E+08 2.11644E-03 1.85572E-02
 -1       654-2.63797E+09-1.59121E+09-2.66605E+09 2.04416E+08 2.60091E-03 2.07109E-02
 -1       655-2.79554E+09-1.68841E+09-2.83249E+09-2.03310E+07 3.60513E-03 1.92371E-02
 -1       656-2.58435E+09-1.56287E+09-2.62522E+09-2.43699E+08 4.71854E-03 1.24612E-02
 -1       657-2.03174E+09-1.23138E+09-2.07287E+09-4.36310E+08 7.08604E-03 5.64754E-03
 -1       658-1.21001E+09-7.37945E+08-1.24981E+09-5.72939E+08 1.08746E-02 9.82225E-04
 -1       659-2.26974E+08-1.48054E+08-2.66539E+08-6.35838E+08 1.32960E-02-3.98835E-03
 -1       660 7.88273E+08 4.59878E+08 7.44654E+08-6.17054E+08 1.01650E-02-7.82826E-03
 -1       661 1.70236E+09 1.00478E+09 1.64691E+09-5.19424E+08 8.56435E-03-1.06478E-02
 -1       662 2.39524E+09 1.41360E+09 2.31674E+09-3.56154E+08 8.79502E-03-1.40642E-02
 -1       663 2.77623E+09 1.63102E+09 2.66049E+09-1.49292E+08 7.32660E-03-1.83321E-02
 -1       664 2.79715E+09 1.62747E+09 2.62774E+09 7.18492E+07 2.13146E-04-1.83153E-02
 -1       665 2.46205E+09 1.40466E+09 2.22015E+09 2.71672E+08-5.80812E-03-1.03074E-02
 -1       666 1.83267E+09 9.97969E+08 1.49390E+09 4.08950E+08-2.11704E-03-2.46018E-04
 -1       667 1.03197E+09 4.75661E+08 5.53570E+08 4.29855E+08 2.00215E-03 6.35155E-03
 -1       668 2.19077E+08-7.81682E+07-4.79638E+08 3.19758E+08 7.98821E-04 1.21775E-02
 -1       669-4.90788E+08-6.09470E+08-1.54078E+09 1.49634E+08 3.99995E-03 1.39022E-02
 -1       670-1.77536E+09-7.43259E+08-7.02168E+08-1.76554E+09 1.35488E+07-1.59130E+08
 -1       671-4.80146E+08-1.04297E+08 1.32490E+08-1.44983E+09-1.97534E+08-3.05597E+08
 -1       672 6.05021E+08 4.65244E+08 9.45793E+08-1.19518E+09-5.60571E+08-3.21100E+08
 -1       673 1.48452E+09 9.39339E+08 1.64661E+09-9.21915E+08-8.64536E+08-2.57326E+08
 -1       674 2.10063E+09 1.27219E+09 2.14000E+09-5.70764E+08-1.06445E+09-1.49347E+08
 -1       675 2.40003E+09 1.42877E+09 2.36255E+09-1.87213E+08-1.14299E+09-1.86039E+07
 -1       676 2.36293E+09 1.39519E+09 2.28769E+09 2.02894E+08-1.09079E+09 1.17702E+08
 -1       677 2.00190E+09 1.17791E+09 1.92446E+09 5.54186E+08-9.11679E+08 2.41562E+08
 -1       678 1.36898E+09 8.06405E+08 1.31903E+09 8.24353E+08-6.25015E+08 3.36543E+08
 -1       679 5.50276E+08 3.29807E+08 5.49081E+08 9.80039E+08-2.64923E+08 3.89744E+08
 -1       680-3.44582E+08-1.89186E+08-2.86037E+08 1.00234E+09 1.23799E+08 3.93719E+08
 -1       681-1.19649E+09-6.82400E+08-1.07818E+09 8.89408E+08 4.91809E+08 3.47542E+08
 -1       682-1.89232E+09-1.08506E+09-1.72456E+09 6.56832E+08 7.92015E+08 2.56960E+08
 -1       683-2.33968E+09-1.34430E+09-2.14131E+09 3.35715E+08 9.85954E+08 1.33654E+08
 -1       684-2.47900E+09-1.42607E+09-2.27457E+09-3.13695E+07 1.04898E+09-6.28528E+06
 -1       685-2.29133E+09-1.31972E+09-2.10772E+09-3.95952E+08 9.73593E+08-1.44460E+08
 -1       686-1.80084E+09-1.03937E+09-1.66374E+09-7.10044E+08 7.70573E+08-2.62580E+08
 -1       687-1.07160E+09-6.22165E+08-1.00228E+09-9.32477E+08 4.67620E+08-3.44866E+08
 -1       688-1.99106E+08-1.23341E+08-2.12031E+08-1.03435E+09 1.05855E+08-3.80127E+08
 -1       689 7.02315E+08 3.90961E+08 6.00888E+08-1.00287E+09-2.65453E+08-3.63247E+08
 -1       690 1.51466E+09 8.52429E+08 1.32677E+09-8.43106E+08-5.95195E+08-2.95888E+08
 -1       691 2.13191E+09 1.19962E+09 1.86683E+09-5.77399E+08-8.36979E+08-1.86373E+08
 -1       692 2.47437E+09 1.38624E+09 2.14643E+09-2.42794E+08-9.55260E+08-4.87822E+07
 -1       693 2.50011E+09 1.38771E+09 2.12561E+09 1.12975E+08-9.30665E+08 9.86648E+07
 -1       694 2.21279E+09 1.20553E+09 1.80564E+09 4.35511E+08-7.63746E+08 2.36103E+08
 -1       695 1.66655E+09 8.69311E+08 1.23116E+09 6.66221E+08-4.75300E+08 3.45839E+08
 -1       696 9.61033E+08 4.33057E+08 4.82490E+08 7.57931E+08-9.96580E+07 4.18914E+08
 -1       697 2.37250E+08-2.93894E+07-3.35215E+08 6.56247E+08 3.39585E+08 4.63885E+08
 -1       698-3.53149E+08-4.43572E+08-1.12543E+09 3.68054E+08 8.96000E+08 5.06239E+08
 -1       699 8.34980E+09-1.56038E+09-1.79076E+09 2.14389E+09-1.76548E+08-4.01843E+08
 -1       700 5.12178E+09 4.57851E+08 5.02809E+08 1.66465E+09-2.83670E+07-4.39772E+08
 -1       701-6.24838E+08 2.40987E+08 1.35844E+08 1.33600E+09 3.75535E+07-3.97575E+08
 -1       702-4.97774E+09 2.71425E+08 1.51769E+08 9.98568E+08 1.13665E+08-3.10672E+08
 -1       703-8.13793E+09 3.15122E+08 1.61399E+08 6.66768E+08 1.70705E+08-1.91131E+08
 -1       704-9.80802E+09 3.33465E+08 1.65894E+08 3.27599E+08 2.02252E+08-5.57877E+07
 -1       705-9.89301E+09 3.18264E+08 1.57219E+08 1.32729E+06 2.03017E+08 7.88078E+07
 -1       706-8.47113E+09 2.66962E+08 1.31802E+08-2.87847E+08 1.73658E+08 1.98378E+08
 -1       707-5.79046E+09 1.85451E+08 9.25887E+07-5.11376E+08 1.19381E+08 2.89581E+08
 -1       708-2.24667E+09 8.43367E+07 4.46065E+07-6.46173E+08 4.82513E+07 3.41638E+08
 -1       709 1.66291E+09-2.36901E+07-6.16481E+06-6.79124E+08-2.97855E+07 3.48174E+08
 -1       710 5.40094E+09-1.25278E+08-5.36443E+07-6.09594E+08-1.04160E+08 3.08461E+08
 -1       711 8.45832E+09-2.07967E+08-9.22409E+07-4.49635E+08-1.64928E+08 2.27752E+08
 -1       712 1.04194E+10-2.61709E+08-1.17505E+08-2.22404E+08-2.04006E+08 1.16684E+08
 -1       713 1.10156E+10-2.80176E+08-1.26685E+08 4.08956E+07-2.16199E+08-1.01063E+07
 -1       714 1.01592E+10-2.61637E+08-1.19120E+08 3.05123E+08-1.99872E+08-1.35907E+08
 -1       715 7.95422E+09-2.09260E+08-9.63734E+07 5.35850E+08-1.57152E+08-2.44142E+08
 -1       716 4.68146E+09-1.30767E+08-6.20779E+07 7.03946E+08-9.36494E+07-3.20543E+08
 -1       717 7.60235E+08-3.74769E+07-2.14912E+07 7.89480E+08-1.76976E+07-3.55035E+08
 -1       718-3.30834E+09 5.71841E+07 1.92056E+07 7.84416E+08 6.07757E+07-3.43069E+08
 -1       719-7.00935E+09 1.39520E+08 5.37907E+07 6.93729E+08 1.31623E+08-2.86283E+08
 -1       720-9.88455E+09 1.97508E+08 7.69369E+07 5.34874E+08 1.85915E+08-1.92434E+08
 -1       721-1.15967E+10 2.22357E+08 8.48448E+07 3.35838E+08 2.17167E+08-7.45974E+07
 -1       722-1.19792E+10 2.09256E+08 7.54503E+07 1.32304E+08 2.22271E+08 5.05052E+07
 -1       723-1.10656E+10 1.56829E+08 4.72222E+07-3.57317E+07 2.01243E+08 1.64656E+08
 -1       724-9.09247E+09 6.61392E+07 2.24670E+05-1.28094E+08 1.58869E+08 2.51202E+08
 -1       725-6.48149E+09-5.60169E+07-6.80343E+07-1.08714E+08 9.94782E+07 2.97886E+08
 -1       726-3.79221E+09-1.73693E+08-1.22670E+08 5.93921E+07 5.17212E+07 2.78458E+08
 -1       727-1.66722E+09-2.96814E+08-1.82217E+08 3.93411E+08-4.77583E+06 1.65810E+08
 -1       728 7.66579E+09-1.97247E+09-2.11959E+09 3.13273E+09 3.12455E+08-4.32248E+08
 -1       729 4.81529E+09 2.01801E+08 3.34048E+08 3.09030E+09 8.36427E+07-3.33883E+08
 -1       730-6.10392E+08 1.45068E+08 1.11402E+08 2.87172E+09-3.22106E+06-3.26574E+08
 -1       731-4.70308E+09 2.76315E+08 2.35634E+08 2.28731E+09-1.04367E+08-2.52069E+08
 -1       732-7.70401E+09 3.59160E+08 3.04788E+08 1.44021E+09-1.65490E+08-1.53626E+08
 -1       733-9.30452E+09 3.90433E+08 3.34035E+08 4.31927E+08-1.98098E+08-4.22509E+07
 -1       734-9.40096E+09 3.73215E+08 3.21320E+08-6.01507E+08-1.98452E+08 6.80280E+07
 -1       735-8.05926E+09 3.11696E+08 2.68782E+08-1.53225E+09-1.69420E+08 1.65781E+08
 -1       736-5.51448E+09 2.12058E+08 1.83364E+08-2.24493E+09-1.15431E+08 2.40259E+08
 -1       737-2.14453E+09 8.62572E+07 7.58232E+07-2.65193E+09-4.42274E+07 2.82651E+08
 -1       738 1.57557E+09-5.00822E+07-4.02845E+07-2.70371E+09 3.43585E+07 2.87691E+08
 -1       739 5.13331E+09-1.79479E+08-1.50195E+08-2.39586E+09 1.09544E+08 2.54734E+08
 -1       740 8.04364E+09-2.85098E+08-2.39786E+08-1.77022E+09 1.71059E+08 1.88069E+08
 -1       741 9.91092E+09-3.53100E+08-2.97482E+08-9.09908E+08 2.10498E+08 9.64338E+07
 -1       742 1.04795E+10-3.74542E+08-3.15822E+08 7.13665E+07 2.22412E+08-8.12171E+06
 -1       743 9.66625E+09-3.46586E+08-2.92489E+08 1.04410E+09 2.05003E+08-1.11829E+08
 -1       744 7.57027E+09-2.72898E+08-2.30651E+08 1.88001E+09 1.60341E+08-2.01015E+08
 -1       745 4.45885E+09-1.63182E+08-1.38587E+08 2.46895E+09 9.40600E+07-2.63905E+08
 -1       746 7.30856E+08-3.19370E+07-2.86430E+07 2.73360E+09 1.45927E+07-2.92158E+08
 -1       747-3.13741E+09 1.03379E+08 8.43442E+07 2.63988E+09-6.79583E+07-2.81978E+08
 -1       748-6.65716E+09 2.24533E+08 1.84950E+08 2.20193E+09-1.43166E+08-2.34657E+08
 -1       749-9.39429E+09 3.14790E+08 2.59199E+08 1.48085E+09-2.01657E+08-1.56543E+08
 -1       750-1.10301E+10 3.61143E+08 2.96447E+08 5.77323E+08-2.36443E+08-5.84126E+07
 -1       751-1.14080E+10 3.56251E+08 2.90916E+08-3.81396E+08-2.43908E+08 4.59026E+07
 -1       752-1.05596E+10 3.00497E+08 2.42126E+08-1.25816E+09-2.25105E+08 1.41334E+08
 -1       753-8.70815E+09 2.01988E+08 1.56275E+08-1.92386E+09-1.84143E+08 2.14163E+08
 -1       754-6.25986E+09 6.67688E+07 3.52902E+07-2.26971E+09-1.33076E+08 2.55281E+08
 -1       755-3.73743E+09-7.62597E+07-7.70081E+07-2.22241E+09-6.56237E+07 2.39872E+08
 -1       756-1.70699E+09-2.70214E+08-1.86170E+08-1.76325E+09-3.40410E+07 1.42303E+08
 -1       757 7.66579E+09-1.97247E+09-2.11959E+09 3.13273E+09-3.12455E+08 4.32248E+08
 -1       758 4.81529E+09 2.01801E+08 3.34048E+08 3.09030E+09-8.36427E+07 3.33883E+08
 -1       759-6.10392E+08 1.45068E+08 1.11402E+08 2.87172E+09 3.22106E+06 3.26574E+08
 -1       760-4.70308E+09 2.76315E+08 2.35634E+08 2.28731E+09 1.04367E+08 2.52069E+08
 -1       761-7.70401E+09 3.59160E+08 3.04788E+08 1.44021E+09 1.65490E+08 1.53626E+08
 -1       762-9.30452E+09 3.90433E+08 3.34035E+08 4.31927E+08 1.98098E+08 4.22509E+07
 -1       763-9.40096E+09 3.73215E+08 3.21320E+08-6.01507E+08 1.98452E+08-6.80280E+07
 -1       764-8.05926E+09 3.11696E+08 2.68782E+08-1.53225E+09 1.69420E+08-1.65781E+08
 -1       765-5.51448E+09 2.12058E+08 1.83364E+08-2.24493E+09 1.15431E+08-2.40259E+08
 -1       766-2.14453E+09 8.62572E+07 7.58232E+07-2.65193E+09 4.42274E+07-2.82651E+08
 -1       767 1.57557E+09-5.00822E+07-4.02845E+07-2.70371E+09-3.43585E+07-2.87691E+08
 -1       768 5.13331E+09-1.79479E+08-1.50195E+08-2.39586E+09-1.09544E+08-2.54734E+08
 -1       769 8.04364E+09-2.85098E+08-2.39786E+08-1.77022E+09-1.71059E+08-1.88069E+08
 -1       770 9.91092E+09-3.53100E+08-2.97482E+08-9.09908E+08-2.10498E+08-9.64338E+07
 -1       771 1.04795E+10-3.74542E+08-3.15822E+08 7.13665E+07-2.22412E+08 8.12171E+06
 -1       772 9.66625E+09-3.46586E+08-2.92489E+08 1.04410E+09-2.05003E+08 1.11829E+08
 -1       773 7.57027E+09-2.72898E+08-2.30651E+08 1.88001E+09-1.60341E+08 2.01015E+08
 -1       774 4.45885E+09-1.63182E+08-1.38587E+08 2.46895E+09-9.40600E+07 2.63905E+08
 -1       775 7.30856E+08-3.19370E+07-2.86430E+07 2.73360E+09-1.45927E+07 2.92158E+08
 -1       776-3.13741E+09 1.03379E+08 8.43442E+07 2.63988E+09 6.79583E+07 2.81978E+08
 -1       777-6.65716E+09 2.24533E+08 1.84950E+08 2.20193E+09 1.43166E+08 2.34657E+08
 -1       778-9.39429E+09 3.14790E+08 2.59199E+08 1.48085E+09 2.01657E+08 1.56543E+08
 -1       779-1.10301E+10 3.61143E+08 2.96447E+08 5.77323E+08 2.36443E+08 5.84126E+07
 -1       780-1.14080E+10 3.56251E+08 2.90916E+08-3.81396E+08 2.43908E+08-4.59026E+07
 -1       781-1.05596E+10 3.00497E+08 2.42126E+08-1.25816E+09 2.25105E+08-1.41334E+08
 -1       782-8.70815E+09 2.01988E+08 1.56275E+08-1.92386E+09 1.84143E+08-2.14163E+08
 -1       783-6.25986E+09 6.67688E+07 3.52902E+07-2.26971E+09 1.33076E+08-2.55281E+08
 -1       784-3.73743E+09-7.62597E+07-7.70081E+07-2.22241E+09 6.56237E+07-2.39872E+08
 -1       785-1.70699E+09-2.70214E+08-1.86170E+08-1.76325E+09 3.40410E+07-1.42303E+08
 -1       786 8.34980E+09-1.56038E+09-1.79076E+09 2.14389E+09 1.76548E+08 4.01843E+08
 -1       787 5.12178E+09 4.57851E+08 5.02809E+08 1.66465E+09 2.83670E+07 4.39772E+08
 -1       788-6.24838E+08 2.40987E+08 1.35844E+08 1.33600E+09-3.75535E+07 3.97575E+08
 -1       789-4.97774E+09 2.71425E+08 1.51769E+08 9.98568E+08-1.13665E+08 3.10672E+08
 -1       790-8.13793E+09 3.15122E+08 1.61399E+08 6.66768E+08-1.70705E+08 1.91131E+08
 -1       791-9.80802E+09 3.33465E+08 1.65894E+08 3.27599E+08-2.02252E+08 5.57877E+07
 -1       792-9.89301E+09 3.18264E+08 1.57219E+08 1.32729E+06-2.03017E+08-7.88078E+07
 -1       793-8.47113E+09 2.66962E+08 1.31802E+08-2.87847E+08-1.73658E+08-1.98378E+08
 -1       794-5.79046E+09 1.85451E+08 9.25887E+07-5.11376E+08-1.19381E+08-2.89581E+08
 -1       795-2.24667E+09 8.43367E+07 4.46065E+07-6.46173E+08-4.82513E+07-3.41638E+08
 -1       796 1.66291E+09-2.36901E+07-6.16481E+06-6.79124E+08 2.97855E+07-3.48174E+08
 -1       797 5.40094E+09-1.25278E+08-5.36443E+07-6.09594E+08 1.04160E+08-3.08461E+08
 -1       798 8.45832E+09-2.07967E+08-9.22409E+07-4.49635E+08 1.64928E+08-2.27752E+08
 -1       799 1.04194E+10-2.61709E+08-1.17505E+08-2.22404E+08 2.04006E+08-1.16684E+08
 -1       800 1.10156E+10-2.80176E+08-1.26685E+08 4.08956E+07 2.16199E+08 1.01063E+07
 -1       801 1.01592E+10-2.61637E+08-1.19120E+08 3.05123E+08 1.99872E+08 1.35907E+08
 -1       802 7.95422E+09-2.09260E+08-9.63734E+07 5.35850E+08 1.57152E+08 2.44142E+08
 -1       803 4.68146E+09-1.30767E+08-6.20779E+07 7.03946E+08 9.36494E+07 3.20543E+08
 -1       804 7.60235E+08-3.74769E+07-2.14912E+07 7.89480E+08 1.76976E+07 3.55035E+08
 -1       805-3.30834E+09 5.71841E+07 1.92056E+07 7.84416E+08-6.07757E+07 3.43069E+08
 -1       806-7.00935E+09 1.39520E+08 5.37907E+07 6.93729E+08-1.31623E+08 2.86283E+08
 -1       807-9.88455E+09 1.97508E+08 7.69369E+07 5.34874E+08-1.85915E+08 1.92434E+08
 -1       808-1.15967E+10 2.22357E+08 8.48448E+07 3.35838E+08-2.17167E+08 7.45974E+07
 -1       809-1.19792E+10 2.09256E+08 7.54503E+07 1.32304E+08-2.22271E+08-5.05052E+07
 -1       810-1.10656E+10 1.56829E+08 4.72222E+07-3.57317E+07-2.01243E+08-1.64656E+08
 -1       811-9.09247E+09 6.61392E+07 2.24670E+05-1.28094E+08-1.58869E+08-2.51202E+08
 -1       812-6.48149E+09-5.60169E+07-6.80343E+07-1.08714E+08-9.94782E+07-2.97886E+08
 -1       813-3.79221E+09-1.73693E+08-1.22670E+08 5.93921E+07-5.17212E+07-2.78458E+08
 -1       814-1.66722E+09-2.96814E+08-1.82217E+08 3.93411E+08 4.77583E+06-1.65810E+08
 -1       815-8.34980E+09 1.56038E+09 1.79076E+09 2.14389E+09-1.76548E+08 4.01843E+08
 -1       816-5.12178E+09-4.57851E+08-5.02809E+08 1.66465E+09-2.83670E+07 4.39772E+08
 -1       817 6.24838E+08-2.40987E+08-1.35844E+08 1.33600E+09 3.75535E+07 3.97575E+08
 -1       818 4.97774E+09-2.71425E+08-1.51769E+08 9.98568E+08 1.13665E+08 3.10672E+08
 -1       819 8.13793E+09-3.15122E+08-1.61399E+08 6.66768E+08 1.70705E+08 1.91131E+08
 -1       820 9.80802E+09-3.33465E+08-1.65894E+08 3.27599E+08 2.02252E+08 5.57877E+07
 -1       821 9.89301E+09-3.18264E+08-1.57219E+08 1.32729E+06 2.03017E+08-7.88078E+07
 -1       822 8.47113E+09-2.66962E+08-1.31802E+08-2.87847E+08 1.73658E+08-1.98378E+08
 -1       823 5.79046E+09-1.85451E+08-9.25887E+07-5.11376E+08 1.19381E+08-2.89581E+08
 -1       824 2.24667E+09-8.43367E+07-4.46065E+07-6.46173E+08 4.82513E+07-3.41638E+08
 -1       825-1.66291E+09 2.36901E+07 6.16481E+06-6.79124E+08-2.97855E+07-3.48174E+08
 -1       826-5.40094E+09 1.25278E+08 5.36443E+07-6.09594E+08-1.04160E+08-3.08461E+08
 -1       827-8.45832E+09 2.07967E+08 9.22409E+07-4.49635E+08-1.64928E+08-2.27752E+08
 -1       828-1.04194E+10 2.61709E+08 1.17505E+08-2.22404E+08-2.04006E+08-1.16684E+08
 -1       829-1.10156E+10 2.80176E+08 1.26685E+08 4.08956E+07-2.16199E+08 1.01063E+07
 -1       830-1.01592E+10 2.61637E+08 1.19120E+08 3.05123E+08-1.99872E+08 1.35907E+08
 -1       831-7.95422E+09 2.09260E+08 9.63734E+07 5.35850E+08-1.57152E+08 2.44142E+08
 -1       832-4.68146E+09 1.30767E+08 6.20779E+07 7.03946E+08-9.36494E+07 3.20543E+08
 -1       833-7.60235E+08 3.74769E+07 2.14912E+07 7.89480E+08-1.76976E+07 3.55035E+08
 -1       834 3.30834E+09-5.71841E+07-1.92056E+07 7.84416E+08 6.07757E+07 3.43069E+08
 -1       835 7.00935E+09-1.39520E+08-5.37907E+07 6.93729E+08 1.31623E+08 2.86283E+08
 -1       836 9.88455E+09-1.97508E+08-7.69369E+07 5.34874E+08 1.85915E+08 1.92434E+08
 -1       837 1.15967E+10-2.22357E+08-8.48448E+07 3.35838E+08 2.17167E+08 7.45974E+07
 -1       838 1.19792E+10-2.09256E+08-7.54503E+07 1.32304E+08 2.22271E+08-5.05052E+07
 -1       839 1.10656E+10-1.56829E+08-4.72222E+07-3.57317E+07 2.01243E+08-1.64656E+08
 -1       840 9.09247E+09-6.61392E+07-2.24670E+05-1.28094E+08 1.58869E+08-2.51202E+08
 -1       841 6.48149E+09 5.60169E+07 6.80343E+07-1.08714E+08 9.94782E+07-2.97886E+08
 -1       842 3.79221E+09 1.73693E+08 1.22670E+08 5.93921E+07 5.17212E+07-2.78458E+08
 -1       843 1.66722E+09 2.96814E+08 1.82217E+08 3.93411E+08-4.77583E+06-1.65810E+08
 -1       844-7.66579E+09 1.97247E+09 2.11959E+09 3.13273E+09 3.12455E+08 4.32248E+08
 -1       845-4.81529E+09-2.01801E+08-3.34048E+08 3.09030E+09 8.36427E+07 3.33883E+08
 -1       846 6.10392E+08-1.45068E+08-1.11402E+08 2.87172E+09-3.22106E+06 3.26574E+08
 -1       847 4.70308E+09-2.76315E+08-2.35634E+08 2.28731E+09-1.04367E+08 2.52069E+08
 -1       848 7.70401E+09-3.59160E+08-3.04788E+08 1.44021E+09-1.65490E+08 1.53626E+08
 -1       849 9.30452E+09-3.90433E+08-3.34035E+08 4.31927E+08-1.98098E+08 4.22509E+07
 -1       850 9.40096E+09-3.73215E+08-3.21320E+08-6.01507E+08-1.98452E+08-6.80280E+07
 -1       851 8.05926E+09-3.11696E+08-2.68782E+08-1.53225E+09-1.69420E+08-1.65781E+08
 -1       852 5.51448E+09-2.12058E+08-1.83364E+08-2.24493E+09-1.15431E+08-2.40259E+08
 -1       853 2.14453E+09-8.62572E+07-7.58232E+07-2.65193E+09-4.42274E+07-2.82651E+08
 -1       854-1.57557E+09 5.00822E+07 4.02845E+07-2.70371E+09 3.43585E+07-2.87691E+08
 -1       855-5.13331E+09 1.79479E+08 1.50195E+08-2.39586E+09 1.09544E+08-2.54734E+08
 -1       856-8.04364E+09 2.85098E+08 2.39786E+08-1.77022E+09 1.71059E+08-1.88069E+08
 -1       857-9.91092E+09 3.53100E+08 2.97482E+08-9.09908E+08 2.10498E+08-9.64338E+07
 -1       858-1.04795E+10 3.74542E+08 3.15822E+08 7.13665E+07 2.22412E+08 8.12171E+06
 -1       859-9.66625E+09 3.46586E+08 2.92489E+08 1.04410E+09 2.05003E+08 1.11829E+08
 -1       860-7.57027E+09 2.72898E+08 2.30651E+08 1.88001E+09 1.60341E+08 2.01015E+08
 -1       861-4.45885E+09 1.63182E+08 1.38587E+08 2.46895E+09 9.40600E+07 2.63905E+08
 -1       862-7.30856E+08 3.19370E+07 2.86430E+07 2.73360E+09 1.45927E+07 2.92158E+08
 -1       863 3.13741E+09-1.03379E+08-8.43442E+07 2.63988E+09-6.79583E+07 2.81978E+08
 -1       864 6.65716E+09-2.24533E+08-1.84950E+08 2.20193E+09-1.43166E+08 2.34657E+08
 -1       865 9.39429E+09-3.14790E+08-2.59199E+08 1.48085E+09-2.01657E+08 1.56543E+08
 -1       866 1.10301E+10-3.61143E+08-2.96447E+08 5.77323E+08-2.36443E+08 5.84126E+07
 -1       867 1.14080E+10-3.56251E+08-2.90916E+08-3.81396E+08-2.43908E+08-4.59026E+07
 -1       868 1.05596E+10-3.00497E+08-2.42126E+08-1.25816E+09-2.25105E+08-1.41334E+08
 -1       869 8.70815E+09-2.01988E+08-1.56275E+08-1.92386E+09-1.84143E+08-2.14163E+08
 -1       870 6.25986E+09-6.67688E+07-3.52902E+07-2.26971E+09-1.33076E+08-2.55281E+08
 -1       871 3.73743E+09 7.62597E+07 7.70081E+07-2.22241E+09-6.56237E+07-2.39872E+08
 -1       872 1.70699E+09 2.70214E+08 1.86170E+08-1.76325E+09-3.40410E+07-1.42303E+08
 -1       873 1.66722E+09 2.96814E+08 1.82217E+08 3.93411E+08 4.77583E+06 1.65810E+08
 -1       874 3.79221E+09 1.73693E+08 1.22670E+08 5.93921E+07-5.17212E+07 2.78458E+08
 -1       875 6.48149E+09 5.60169E+07 6.80343E+07-1.08714E+08-9.94782E+07 2.97886E+08
 -1       876 9.09247E+09-6.61392E+07-2.24670E+05-1.28094E+08-1.58869E+08 2.51202E+08
 -1       877 1.10656E+10-1.56829E+08-4.72222E+07-3.57317E+07-2.01243E+08 1.64656E+08
 -1       878 1.19792E+10-2.09256E+08-7.54503E+07 1.32304E+08-2.22271E+08 5.05052E+07
 -1       879 1.15967E+10-2.22357E+08-8.48448E+07 3.35838E+08-2.17167E+08-7.45974E+07
 -1       880 9.88455E+09-1.97508E+08-7.69369E+07 5.34874E+08-1.85915E+08-1.92434E+08
 -1       881 7.00935E+09-1.39520E+08-5.37907E+07 6.93729E+08-1.31623E+08-2.86283E+08
 -1       882 3.30834E+09-5.71841E+07-1.92056E+07 7.84416E+08-6.07757E+07-3.43069E+08
 -1       883-7.60235E+08 3.74769E+07 2.14912E+07 7.89480E+08 1.76976E+07-3.55035E+08
 -1       884-4.68146E+09 1.30767E+08 6.20779E+07 7.03946E+08 9.36494E+07-3.20543E+08
 -1       885-7.95422E+09 2.09260E+08 9.63734E+07 5.35850E+08 1.57152E+08-2.44142E+08
 -1       886-1.01592E+10 2.61637E+08 1.19120E+08 3.05123E+08 1.99872E+08-1.35907E+08
 -1       887-1.10156E+10 2.80176E+08 1.26685E+08 4.08956E+07 2.16199E+08-1.01063E+07
 -1       888-1.04194E+10 2.61709E+08 1.17505E+08-2.22404E+08 2.04006E+08 1.16684E+08
 -1       889-8.45832E+09 2.07967E+08 9.22409E+07-4.49635E+08 1.64928E+08 2.27752E+08
 -1       890-5.40094E+09 1.25278E+08 5.36443E+07-6.09594E+08 1.04160E+08 3.08461E+08
 -1       891-1.66291E+09 2.36901E+07 6.16481E+06-6.79124E+08 2.97855E+07 3.48174E+08
 -1       892 2.24667E+09-8.43367E+07-4.46065E+07-6.46173E+08-4.82513E+07 3.41638E+08
 -1       893 5.79046E+09-1.85451E+08-9.25887E+07-5.11376E+08-1.19381E+08 2.89581E+08
 -1       894 8.47113E+09-2.66962E+08-1.31802E+08-2.87847E+08-1.73658E+08 1.98378E+08
 -1       895 9.89301E+09-3.18264E+08-1.57219E+08 1.32729E+06-2.03017E+08 7.88078E+07
 -1       896 9.80802E+09-3.33465E+08-1.65894E+08 3.27599E+08-2.02252E+08-5.57877E+07
 -1       897 8.13793E+09-3.15122E+08-1.61399E+08 6.66768E+08-1.70705E+08-1.91131E+08
 -1       898 4.97774E+09-2.71425E+08-1.51769E+08 9.98568E+08-1.13665E+08-3.10672E+08
 -1       899 6.24838E+08-2.40987E+08-1.35844E+08 1.33600E+09-3.75535E+07-3.97575E+08
 -1       900-5.12178E+09-4.57851E+08-5.02809E+08 1.66465E+09 2.83670E+07-4.39772E+08
 -1       901-8.34980E+09 1.56038E+09 1.79076E+09 2.14389E+09 1.76548E+08-4.01843E+08
 -1       902-7.66579E+09 1.97247E+09 2.11959E+09 3.13273E+09-3.12455E+08-4.32248E+08
 -1       903-4.81529E+09-2.01801E+08-3.34048E+08 3.09030E+09-8.36427E+07-3.33883E+08
 -1       904 6.10392E+08-1.45068E+08-1.11402E+08 2.87172E+09 3.22106E+06-3.26574E+08
 -1       905 4.70308E+09-2.76315E+08-2.35634E+08 2.28731E+09 1.04367E+08-2.52069E+08
 -1       906 7.70401E+09-3.59160E+08-3.04788E+08 1.44021E+09 1.65490E+08-1.53626E+08
 -1       907 9.30452E+09-3.90433E+08-3.34035E+08 4.31927E+08 1.98098E+08-4.22509E+07
 -1       908 9.40096E+09-3.73215E+08-3.21320E+08-6.01507E+08 1.98452E+08 6.80280E+07
 -1       909 8.05926E+09-3.11696E+08-2.68782E+08-1.53225E+09 1.69420E+08 1.65781E+08
 -1       910 5.51448E+09-2.12058E+08-1.83364E+08-2.24493E+09 1.15431E+08 2.40259E+08
 -1       911 2.14453E+09-8.62572E+07-7.58232E+07-2.65193E+09 4.42274E+07 2.82651E+08
 -1       912-1.57557E+09 5.00822E+07 4.02845E+07-2.70371E+09-3.43585E+07 2.87691E+08
 -1       913-5.13331E+09 1.79479E+08 1.50195E+08-2.39586E+09-1.09544E+08 2.54734E+08
 -1       914-8.04364E+09 2.85098E+08 2.39786E+08-1.77022E+09-1.71059E+08 1.88069E+08
 -1       915-9.91092E+09 3.53100E+08 2.97482E+08-9.09908E+08-2.10498E+08 9.64338E+07
 -1       916-1.04795E+10 3.74542E+08 3.15822E+08 7.13665E+07-2.22412E+08-8.12171E+06
 -1       917-9.66625E+09 3.46586E+08 2.92489E+08 1.04410E+09-2.05003E+08-1.11829E+08
 -1       918-7.57027E+09 2.72898E+08 2.30651E+08 1.88001E+09-1.60341E+08-2.01015E+08
 -1       919-4.45885E+09 1.63182E+08 1.38587E+08 2.46895E+09-9.40600E+07-2.63905E+08
 -1       920-7.30856E+08 3.19370E+07 2.86430E+07 2.73360E+09-1.45927E+07-2.92158E+08
 -1       921 3.13741E+09-1.03379E+08-8.43442E+07 2.63988E+09 6.79583E+07-2.81978E+08
 -1       922 6.65716E+09-2.24533E+08-1.84950E+08 2.20193E+09 1.43166E+08-2.34657E+08
 -1       923 9.39429E+09-3.14790E+08-2.59199E+08 1.48085E+09 2.01657E+08-1.56543E+08
 -1       924 1.10301E+10-3.61143E+08-2.96447E+08 5.77323E+08 2.36443E+08-5.84126E+07
 -1       925 1.14080E+10-3.56251E+08-2.90916E+08-3.81396E+08 2.43908E+08 4.59026E+07
 -1       926 1.05596E+10-3.00497E+08-2.42126E+08-1.25816E+09 2.25105E+08 1.41334E+08
 -1       927 8.70815E+09-2.01988E+08-1.56275E+08-1.92386E+09 1.84143E+08 2.14163E+08
 -1       928 6.25986E+09-6.67688E+07-3.52902E+07-2.26971E+09 1.33076E+08 2.55281E+08
 -1       929 3.73743E+09 7.62597E+07 7.70081E+07-2.22241E+09 6.56237E+07 2.39872E+08
 -1       930 1.70699E+09 2.70214E+08 1.86170E+08-1.76325E+09 3.40410E+07 1.42303E+08
 -3
    1PSTEP                        39           1           1          
    1PGM                1.000000E+00                                  
    1PGK                8.109032E+06                                  
    1PHID                         -1                                  
    1PSUBC                         0                                  
    1PMODE                        10                                  
  100CL  110 453.2153839         930                     2   10MODAL      1
 -4  FORC        4    1
 -5  F1          1    2    1    0
 -5  F2          1    2    2    0
 -5  F3          1    2    3    0
 -5  ALL         1    2    0    0    1ALL
 -1         1-8.84503E+06-2.53109E+05 1.53548E+06
 -1         2 8.84503E+06-2.53109E+05-1.53548E+06
 -1         3-4.45819E+03-1.42257E+05-2.42791E+03
 -1         4 4.45819E+03-1.42257E+05 2.42791E+03
 -1         5-8.84503E+06-2.53109E+05-1.53548E+06
 -1         6 8.84503E+06-2.53109E+05 1.53548E+06
 -1         7-4.45819E+03-1.42257E+05 2.42791E+03
 -1         8 4.45819E+03-1.42257E+05-2.42791E+03
 -1         9-8.32045E+05 7.11421E+04-1.66547E+06
 -1        10-4.03008E+03-6.29335E+04-2.22002E+03
 -1        11-5.40535E+06-2.53582E+06-7.19217E+06
 -1        12-4.29854E+06-2.51547E+06 7.16108E+06
 -1        13-1.61735E+04-5.24295E+04-8.85762E+03
 -1        14-1.60264E+04-5.29503E+04-8.85489E+03
 -1        15-8.32045E+05 7.11421E+04 1.66547E+06
 -1        16-4.03008E+03-6.29335E+04 2.22002E+03
 -1        17-4.29854E+06-2.51547E+06-7.16108E+06
 -1        18-5.40535E+06-2.53582E+06 7.19217E+06
 -1        19-1.60264E+04-5.29503E+04 8.85489E+03
 -1        20-1.61735E+04-5.24295E+04 8.85762E+03
 -1        21 4.29854E+06-2.51547E+06-7.16108E+06
 -1        22 5.40535E+06-2.53582E+06 7.19217E+06
 -1        23 1.61735E+04-5.24295E+04 8.85762E+03
 -1        24 1.60264E+04-5.29503E+04 8.85489E+03
 -1        25 8.32045E+05 7.11421E+04 1.66547E+06
 -1        26 4.03008E+03-6.29335E+04 2.22002E+03
 -1        27 8.32045E+05 7.11421E+04-1.66547E+06
 -1        28 5.40535E+06-2.53582E+06-7.19217E+06
 -1        29 4.29854E+06-2.51547E+06 7.16108E+06
 -1        30 4.03008E+03-6.29335E+04-2.22002E+03
 -1        31 1.61735E+04-5.24295E+04-8.85762E+03
 -1        32 1.60264E+04-5.29503E+04-8.85489E+03
 -1        33-2.10195E+03 2.88662E+04-4.46606E+02
 -1        34-3.51939E+03 7.73987E+04-1.37460E+03
 -1        35-3.86887E+03 1.36613E+05-2.57816E+03
 -1        36-3.26698E+03 1.92266E+05-3.72402E+03
 -1        37-1.93013E+03 2.32699E+05-4.55371E+03
 -1        38-1.21601E+02 2.49562E+05-4.89867E+03
 -1        39 1.85591E+03 2.38528E+05-4.68306E+03
 -1        40 3.69651E+03 1.99574E+05-3.91826E+03
 -1        41 5.12571E+03 1.36792E+05-2.69260E+03
 -1        42 5.93277E+03 5.77163E+04-1.15646E+03
 -1        43 5.99577E+03-2.77556E+04 4.98027E+02
 -1        44 5.29574E+03-1.08736E+05 2.06194E+03
 -1        45 3.91788E+03-1.74827E+05 3.33686E+03
 -1        46 2.03936E+03-2.17527E+05 4.16109E+03
 -1        47-9.46003E+01-2.31380E+05 4.43131E+03
 -1        48-2.20339E+03-2.14713E+05 4.11670E+03
 -1        49-4.00815E+03-1.69877E+05 3.26358E+03
 -1        50-5.26843E+03-1.02961E+05 1.99001E+03
 -1        51-5.81360E+03-2.30010E+04 4.70794E+02
 -1        52-5.56479E+03 5.91760E+04-1.08496E+03
 -1        53-4.54443E+03 1.32352E+05-2.46106E+03
 -1        54-2.87191E+03 1.86349E+05-3.46280E+03
 -1        55-7.45971E+02 2.13310E+05-3.94292E+03
 -1        56 1.58427E+03 2.08648E+05-3.82161E+03
 -1        57 3.85600E+03 1.71524E+05-3.09700E+03
 -1        58 5.83265E+03 1.04774E+05-1.84389E+03
 -1        59 7.34255E+03 1.42659E+04-1.99904E+02
 -1        60 8.31233E+03-9.22691E+04 1.66035E+03
 -1        61 8.78749E+03-2.06841E+05 3.57950E+03
 -1        62 2.10195E+03 2.88662E+04 4.46606E+02
 -1        63 3.51939E+03 7.73987E+04 1.37460E+03
 -1        64 3.86887E+03 1.36613E+05 2.57816E+03
 -1        65 3.26698E+03 1.92266E+05 3.72402E+03
 -1        66 1.93013E+03 2.32699E+05 4.55371E+03
 -1        67 1.21601E+02 2.49562E+05 4.89867E+03
 -1        68-1.85591E+03 2.38528E+05 4.68306E+03
 -1        69-3.69651E+03 1.99574E+05 3.91826E+03
 -1        70-5.12571E+03 1.36792E+05 2.69260E+03
 -1        71-5.93277E+03 5.77163E+04 1.15646E+03
 -1        72-5.99577E+03-2.77556E+04-4.98027E+02
 -1        73-5.29574E+03-1.08736E+05-2.06194E+03
 -1        74-3.91788E+03-1.74827E+05-3.33686E+03
 -1        75-2.03936E+03-2.17527E+05-4.16109E+03
 -1        76 9.46003E+01-2.31380E+05-4.43131E+03
 -1        77 2.20339E+03-2.14713E+05-4.11670E+03
 -1        78 4.00815E+03-1.69877E+05-3.26358E+03
 -1        79 5.26843E+03-1.02961E+05-1.99001E+03
 -1        80 5.81360E+03-2.30010E+04-4.70794E+02
 -1        81 5.56479E+03 5.91760E+04 1.08496E+03
 -1        82 4.54443E+03 1.32352E+05 2.46106E+03
 -1        83 2.87191E+03 1.86349E+05 3.46280E+03
 -1        84 7.45971E+02 2.13310E+05 3.94292E+03
 -1        85-1.58427E+03 2.08648E+05 3.82161E+03
 -1        86-3.85600E+03 1.71524E+05 3.09700E+03
 -1        87-5.83265E+03 1.04774E+05 1.84389E+03
 -1        88-7.34255E+03 1.42659E+04 1.99904E+02
 -1        89-8.31233E+03-9.22691E+04-1.66035E+03
 -1        90-8.78749E+03-2.06841E+05-3.57950E+03
 -1        91-1.61762E+07-3.30924E+05-8.15725E+03
 -1        92-1.61153E+07-2.55232E+05 1.55157E-05
 -1        93-1.61762E+07-3.30924E+05 8.15725E+03
 -1        94 1.61762E+07-3.30924E+05-8.15725E+03
 -1        95 1.61153E+07-2.55232E+05 1.60746E-05
 -1        96 1.61762E+07-3.30924E+05 8.15725E+03
 -1        97 2.10195E+03 2.88662E+04-4.46606E+02
 -1        98 3.51939E+03 7.73987E+04-1.37460E+03
 -1        99 3.86887E+03 1.36613E+05-2.57816E+03
 -1       100 3.26698E+03 1.92266E+05-3.72402E+03
 -1       101 1.93013E+03 2.32699E+05-4.55371E+03
 -1       102 1.21601E+02 2.49562E+05-4.89867E+03
 -1       103-1.85591E+03 2.38528E+05-4.68306E+03
 -1       104-3.69651E+03 1.99574E+05-3.91826E+03
 -1       105-5.12571E+03 1.36792E+05-2.69260E+03
 -1       106-5.93277E+03 5.77163E+04-1.15646E+03
 -1       107-5.99577E+03-2.77556E+04 4.98027E+02
 -1       108-5.29574E+03-1.08736E+05 2.06194E+03
 -1       109-3.91788E+03-1.74827E+05 3.33686E+03
 -1       110-2.03936E+03-2.17527E+05 4.16109E+03
 -1       111 9.46003E+01-2.31380E+05 4.43131E+03
 -1       112 2.20339E+03-2.14713E+05 4.11670E+03
 -1       113 4.00815E+03-1.69877E+05 3.26358E+03
 -1       114 5.26843E+03-1.02961E+05 1.99001E+03
 -1       115 5.81360E+03-2.30010E+04 4.70794E+02
 -1       116 5.56479E+03 5.91760E+04-1.08496E+03
 -1       117 4.54443E+03 1.32352E+05-2.46106E+03
 -1       118 2.87191E+03 1.86349E+05-3.46280E+03
 -1       119 7.45971E+02 2.13310E+05-3.94292E+03
 -1       120-1.58427E+03 2.08648E+05-3.82161E+03
 -1       121-3.85600E+03 1.71524E+05-3.09700E+03
 -1       122-5.83265E+03 1.04774E+05-1.84389E+03
 -1       123-7.34255E+03 1.42659E+04-1.99904E+02
 -1       124-8.31233E+03-9.22691E+04 1.66035E+03
 -1       125-8.78749E+03-2.06841E+05 3.57950E+03
 -1       126-1.02533E+03-1.72864E+05-2.94102E+02
 -1       127-1.08915E+03-1.82953E+05 3.58519E-07
 -1       128-1.02533E+03-1.72864E+05 2.94102E+02
 -1       129-2.10195E+03 2.88662E+04 4.46606E+02
 -1       130-3.51939E+03 7.73987E+04 1.37460E+03
 -1       131-3.86887E+03 1.36613E+05 2.57816E+03
 -1       132-3.26698E+03 1.92266E+05 3.72402E+03
 -1       133-1.93013E+03 2.32699E+05 4.55371E+03
 -1       134-1.21601E+02 2.49562E+05 4.89867E+03
 -1       135 1.85591E+03 2.38528E+05 4.68306E+03
 -1       136 3.69651E+03 1.99574E+05 3.91826E+03
 -1       137 5.12571E+03 1.36792E+05 2.69260E+03
 -1       138 5.93277E+03 5.77163E+04 1.15646E+03
 -1       139 5.99577E+03-2.77556E+04-4.98027E+02
 -1       140 5.29574E+03-1.08736E+05-2.06194E+03
 -1       141 3.91788E+03-1.74827E+05-3.33686E+03
 -1       142 2.03936E+03-2.17527E+05-4.16109E+03
 -1       143-9.46003E+01-2.31380E+05-4.43131E+03
 -1       144-2.20339E+03-2.14713E+05-4.11670E+03
 -1       145-4.00815E+03-1.69877E+05-3.26358E+03
 -1       146-5.26843E+03-1.02961E+05-1.99001E+03
 -1       147-5.81360E+03-2.30010E+04-4.70794E+02
 -1       148-5.56479E+03 5.91760E+04 1.08496E+03
 -1       149-4.54443E+03 1.32352E+05 2.46106E+03
 -1       150-2.87191E+03 1.86349E+05 3.46280E+03
 -1       151-7.45971E+02 2.13310E+05 3.94292E+03
 -1       152 1.58427E+03 2.08648E+05 3.82161E+03
 -1       153 3.85600E+03 1.71524E+05 3.09700E+03
 -1       154 5.83265E+03 1.04774E+05 1.84389E+03
 -1       155 7.34255E+03 1.42659E+04 1.99904E+02
 -1       156 8.31233E+03-9.22691E+04-1.66035E+03
 -1       157 8.78749E+03-2.06841E+05-3.57950E+03
 -1       158 1.02533E+03-1.72864E+05-2.94102E+02
 -1       159 1.08915E+03-1.82953E+05 8.10964E-07
 -1       160 1.02533E+03-1.72864E+05 2.94102E+02
 -1       161 1.81647E+03 1.30077E+04 4.40884E+02
 -1       162 3.09955E+03 3.43587E+04 1.28104E+03
 -1       163 3.42966E+03 6.02859E+04 2.37180E+03
 -1       164 2.90161E+03 8.46621E+04 3.41370E+03
 -1       165 1.71152E+03 1.02392E+05 4.16969E+03
 -1       166 9.61050E+01 1.09792E+05 4.48390E+03
 -1       167-1.67240E+03 1.04937E+05 4.28584E+03
 -1       168-3.31921E+03 8.78000E+04 3.58568E+03
 -1       169-4.59806E+03 6.01728E+04 2.46425E+03
 -1       170-5.31989E+03 2.53679E+04 1.05914E+03
 -1       171-5.37536E+03-1.22586E+04-4.53978E+02
 -1       172-4.74740E+03-4.79114E+04-1.88413E+03
 -1       173-3.51227E+03-7.70105E+04-3.04997E+03
 -1       174-1.82869E+03-9.58106E+04-3.80372E+03
 -1       175 8.36160E+01-1.01907E+05-4.05097E+03
 -1       176 1.97322E+03-9.45616E+04-3.76358E+03
 -1       177 3.59022E+03-7.48093E+04-2.98393E+03
 -1       178 4.71911E+03-4.53289E+04-1.81999E+03
 -1       179 5.20696E+03-1.00998E+04-4.31628E+02
 -1       180 4.98302E+03 2.61122E+04 9.89951E+02
 -1       181 4.06728E+03 5.83675E+04 2.24708E+03
 -1       182 2.56661E+03 8.21836E+04 3.16171E+03
 -1       183 6.58907E+02 9.40966E+04 3.59926E+03
 -1       184-1.43290E+03 9.20761E+04 3.48674E+03
 -1       185-3.47373E+03 7.57339E+04 2.82227E+03
 -1       186-5.25212E+03 4.62914E+04 1.67390E+03
 -1       187-6.61461E+03 6.30415E+03 1.67576E+02
 -1       188-7.49565E+03-4.08306E+04-1.53482E+03
 -1       189-7.93638E+03-9.15359E+04-3.28356E+03
 -1       190-4.43642E+06 3.21392E+05-8.23892E+06
 -1       191-3.10582E+06 2.58527E+05 8.21052E+06
 -1       192-2.01129E+04-1.04834E+05-1.10684E+04
 -1       193 7.77861E+03 1.14953E+04 1.88611E+03
 -1       194 1.28369E+04 2.89690E+04 5.28680E+03
 -1       195 1.40829E+04 5.01292E+04 9.65482E+03
 -1       196 1.18994E+04 7.00923E+04 1.38505E+04
 -1       197 7.03306E+03 8.46121E+04 1.69108E+04
 -1       198 4.51680E+02 9.06446E+04 1.81877E+04
 -1       199-6.74416E+03 8.65967E+04 1.73868E+04
 -1       200-1.34412E+04 7.24402E+04 1.45477E+04
 -1       201-1.86411E+04 4.96469E+04 9.99928E+03
 -1       202-2.15774E+04 2.09443E+04 4.30076E+03
 -1       203-2.18070E+04-1.00791E+04-1.83504E+03
 -1       204-1.92612E+04-3.94728E+04-7.63389E+03
 -1       205-1.42497E+04-6.34629E+04-1.23608E+04
 -1       206-7.41708E+03-7.89633E+04-1.54171E+04
 -1       207 3.44677E+02-8.39925E+04-1.64200E+04
 -1       208 8.01496E+03-7.79429E+04-1.52559E+04
 -1       209 1.45794E+04-6.16680E+04-1.20966E+04
 -1       210 1.91636E+04-3.73763E+04-7.37997E+03
 -1       211 2.11468E+04-8.34837E+03-1.75429E+03
 -1       212 2.02422E+04 2.14867E+04 4.00521E+03
 -1       213 1.65316E+04 4.80561E+04 9.09728E+03
 -1       214 1.04494E+04 6.76635E+04 1.28005E+04
 -1       215 2.71870E+03 7.74508E+04 1.45701E+04
 -1       216-5.75442E+03 7.57404E+04 1.41104E+04
 -1       217-1.40140E+04 6.22066E+04 1.14128E+04
 -1       218-2.11991E+04 3.78482E+04 6.75099E+03
 -1       219-2.66828E+04 4.75996E+03 6.39130E+02
 -1       220-3.01894E+04-3.42736E+04-6.24598E+03
 -1       221-3.18897E+04-7.63268E+04-1.32196E+04
 -1       222 7.66586E+03 1.16086E+04 1.78957E+03
 -1       223 1.26554E+04 2.92874E+04 5.24290E+03
 -1       224 1.38846E+04 5.07087E+04 9.66302E+03
 -1       225 1.17322E+04 7.09230E+04 1.39019E+04
 -1       226 6.93321E+03 8.56269E+04 1.69935E+04
 -1       227 4.40062E+02 9.17365E+04 1.82868E+04
 -1       228-6.66217E+03 8.76408E+04 1.74867E+04
 -1       229-1.32742E+04 7.33140E+04 1.46331E+04
 -1       230-1.84091E+04 5.02475E+04 1.00577E+04
 -1       231-2.13095E+04 2.12027E+04 4.32356E+03
 -1       232-2.15368E+04-1.01893E+04-1.85155E+03
 -1       233-1.90228E+04-3.99312E+04-7.68798E+03
 -1       234-1.40734E+04-6.42052E+04-1.24457E+04
 -1       235-7.32522E+03-7.98891E+04-1.55216E+04
 -1       236 3.40870E+02-8.49785E+04-1.65306E+04
 -1       237 7.91678E+03-7.88591E+04-1.53579E+04
 -1       238 1.44007E+04-6.23944E+04-1.21765E+04
 -1       239 1.89289E+04-3.78195E+04-7.42708E+03
 -1       240 2.08883E+04-8.45377E+03-1.76210E+03
 -1       241 1.99958E+04 2.17271E+04 4.03815E+03
 -1       242 1.63318E+04 4.86023E+04 9.16726E+03
 -1       243 1.03248E+04 6.84320E+04 1.28993E+04
 -1       244 2.68837E+03 7.83256E+04 1.46858E+04
 -1       245-5.68360E+03 7.65877E+04 1.42298E+04
 -1       246-1.38481E+04 6.28920E+04 1.15228E+04
 -1       247-2.09560E+04 3.82538E+04 6.84089E+03
 -1       248-2.63898E+04 4.79878E+03 7.02331E+02
 -1       249-2.98783E+04-3.46469E+04-6.21042E+03
 -1       250-3.15867E+04-7.71123E+04-1.32056E+04
 -1       251-1.99235E+04-1.05883E+05-1.10639E+04
 -1       252-7.93638E+03-9.15359E+04 3.28356E+03
 -1       253-7.49565E+03-4.08306E+04 1.53482E+03
 -1       254-6.61461E+03 6.30415E+03-1.67576E+02
 -1       255-5.25212E+03 4.62914E+04-1.67390E+03
 -1       256-3.47373E+03 7.57339E+04-2.82227E+03
 -1       257-1.43290E+03 9.20761E+04-3.48674E+03
 -1       258 6.58907E+02 9.40966E+04-3.59926E+03
 -1       259 2.56661E+03 8.21836E+04-3.16171E+03
 -1       260 4.06728E+03 5.83675E+04-2.24708E+03
 -1       261 4.98302E+03 2.61122E+04-9.89951E+02
 -1       262 5.20696E+03-1.00998E+04 4.31628E+02
 -1       263 4.71911E+03-4.53289E+04 1.81999E+03
 -1       264 3.59022E+03-7.48093E+04 2.98393E+03
 -1       265 1.97322E+03-9.45616E+04 3.76358E+03
 -1       266 8.36160E+01-1.01907E+05 4.05097E+03
 -1       267-1.82869E+03-9.58106E+04 3.80372E+03
 -1       268-3.51227E+03-7.70105E+04 3.04997E+03
 -1       269-4.74740E+03-4.79114E+04 1.88413E+03
 -1       270-5.37536E+03-1.22586E+04 4.53978E+02
 -1       271-5.31989E+03 2.53679E+04-1.05914E+03
 -1       272-4.59806E+03 6.01728E+04-2.46425E+03
 -1       273-3.31921E+03 8.78000E+04-3.58568E+03
 -1       274-1.67240E+03 1.04937E+05-4.28584E+03
 -1       275 9.61050E+01 1.09792E+05-4.48390E+03
 -1       276 1.71152E+03 1.02392E+05-4.16969E+03
 -1       277 2.90161E+03 8.46621E+04-3.41370E+03
 -1       278 3.42966E+03 6.02859E+04-2.37180E+03
 -1       279 3.09955E+03 3.43587E+04-1.28104E+03
 -1       280 1.81647E+03 1.30077E+04-4.40884E+02
 -1       281-3.10582E+06 2.58527E+05-8.21052E+06
 -1       282-4.43642E+06 3.21392E+05 8.23892E+06
 -1       283 7.66586E+03 1.16086E+04-1.78957E+03
 -1       284 1.26554E+04 2.92874E+04-5.24290E+03
 -1       285 1.38846E+04 5.07087E+04-9.66302E+03
 -1       286 1.17322E+04 7.09230E+04-1.39019E+04
 -1       287 6.93321E+03 8.56269E+04-1.69935E+04
 -1       288 4.40062E+02 9.17365E+04-1.82868E+04
 -1       289-6.66217E+03 8.76408E+04-1.74867E+04
 -1       290-1.32742E+04 7.33140E+04-1.46331E+04
 -1       291-1.84091E+04 5.02475E+04-1.00577E+04
 -1       292-2.13095E+04 2.12027E+04-4.32356E+03
 -1       293-2.15368E+04-1.01893E+04 1.85155E+03
 -1       294-1.90228E+04-3.99312E+04 7.68798E+03
 -1       295-1.40734E+04-6.42052E+04 1.24457E+04
 -1       296-7.32522E+03-7.98891E+04 1.55216E+04
 -1       297 3.40870E+02-8.49785E+04 1.65306E+04
 -1       298 7.91678E+03-7.88591E+04 1.53579E+04
 -1       299 1.44007E+04-6.23944E+04 1.21765E+04
 -1       300 1.89289E+04-3.78195E+04 7.42708E+03
 -1       301 2.08883E+04-8.45377E+03 1.76210E+03
 -1       302 1.99958E+04 2.17271E+04-4.03815E+03
 -1       303 1.63318E+04 4.86023E+04-9.16726E+03
 -1       304 1.03248E+04 6.84320E+04-1.28993E+04
 -1       305 2.68837E+03 7.83256E+04-1.46858E+04
 -1       306-5.68360E+03 7.65877E+04-1.42298E+04
 -1       307-1.38481E+04 6.28920E+04-1.15228E+04
 -1       308-2.09560E+04 3.82538E+04-6.84089E+03
 -1       309-2.63898E+04 4.79878E+03-7.02331E+02
 -1       310-2.98783E+04-3.46469E+04 6.21042E+03
 -1       311-3.15867E+04-7.71123E+04 1.32056E+04
 -1       312-1.99235E+04-1.05883E+05 1.10639E+04
 -1       313 7.77861E+03 1.14953E+04-1.88611E+03
 -1       314 1.28369E+04 2.89690E+04-5.28680E+03
 -1       315 1.40829E+04 5.01292E+04-9.65482E+03
 -1       316 1.18994E+04 7.00923E+04-1.38505E+04
 -1       317 7.03306E+03 8.46121E+04-1.69108E+04
 -1       318 4.51680E+02 9.06446E+04-1.81877E+04
 -1       319-6.74416E+03 8.65967E+04-1.73868E+04
 -1       320-1.34412E+04 7.24402E+04-1.45477E+04
 -1       321-1.86411E+04 4.96469E+04-9.99928E+03
 -1       322-2.15774E+04 2.09443E+04-4.30076E+03
 -1       323-2.18070E+04-1.00791E+04 1.83504E+03
 -1       324-1.92612E+04-3.94728E+04 7.63389E+03
 -1       325-1.42497E+04-6.34629E+04 1.23608E+04
 -1       326-7.41708E+03-7.89633E+04 1.54171E+04
 -1       327 3.44677E+02-8.39925E+04 1.64200E+04
 -1       328 8.01496E+03-7.79429E+04 1.52559E+04
 -1       329 1.45794E+04-6.16680E+04 1.20966E+04
 -1       330 1.91636E+04-3.73763E+04 7.37997E+03
 -1       331 2.11468E+04-8.34837E+03 1.75429E+03
 -1       332 2.02422E+04 2.14867E+04-4.00521E+03
 -1       333 1.65316E+04 4.80561E+04-9.09728E+03
 -1       334 1.04494E+04 6.76635E+04-1.28005E+04
 -1       335 2.71870E+03 7.74508E+04-1.45701E+04
 -1       336-5.75442E+03 7.57404E+04-1.41104E+04
 -1       337-1.40140E+04 6.22066E+04-1.14128E+04
 -1       338-2.11991E+04 3.78482E+04-6.75099E+03
 -1       339-2.66828E+04 4.75996E+03-6.39130E+02
 -1       340-3.01894E+04-3.42736E+04 6.24598E+03
 -1       341-3.18897E+04-7.63268E+04 1.32196E+04
 -1       342-2.01129E+04-1.04834E+05 1.10684E+04
 -1       343-7.77861E+03 1.14953E+04-1.88611E+03
 -1       344-1.28369E+04 2.89690E+04-5.28680E+03
 -1       345-1.40829E+04 5.01292E+04-9.65482E+03
 -1       346-1.18994E+04 7.00923E+04-1.38505E+04
 -1       347-7.03306E+03 8.46121E+04-1.69108E+04
 -1       348-4.51680E+02 9.06446E+04-1.81877E+04
 -1       349 6.74416E+03 8.65967E+04-1.73868E+04
 -1       350 1.34412E+04 7.24402E+04-1.45477E+04
 -1       351 1.86411E+04 4.96469E+04-9.99928E+03
 -1       352 2.15774E+04 2.09443E+04-4.30076E+03
 -1       353 2.18070E+04-1.00791E+04 1.83504E+03
 -1       354 1.92612E+04-3.94728E+04 7.63389E+03
 -1       355 1.42497E+04-6.34629E+04 1.23608E+04
 -1       356 7.41708E+03-7.89633E+04 1.54171E+04
 -1       357-3.44677E+02-8.39925E+04 1.64200E+04
 -1       358-8.01496E+03-7.79429E+04 1.52559E+04
 -1       359-1.45794E+04-6.16680E+04 1.20966E+04
 -1       360-1.91636E+04-3.73763E+04 7.37997E+03
 -1       361-2.11468E+04-8.34837E+03 1.75429E+03
 -1       362-2.02422E+04 2.14867E+04-4.00521E+03
 -1       363-1.65316E+04 4.80561E+04-9.09728E+03
 -1       364-1.04494E+04 6.76635E+04-1.28005E+04
 -1       365-2.71870E+03 7.74508E+04-1.45701E+04
 -1       366 5.75442E+03 7.57404E+04-1.41104E+04
 -1       367 1.40140E+04 6.22066E+04-1.14128E+04
 -1       368 2.11991E+04 3.78482E+04-6.75099E+03
 -1       369 2.66828E+04 4.75996E+03-6.39130E+02
 -1       370 3.01894E+04-3.42736E+04 6.24598E+03
 -1       371 3.18897E+04-7.63268E+04 1.32196E+04
 -1       372-7.66586E+03 1.16086E+04-1.78957E+03
 -1       373-1.26554E+04 2.92874E+04-5.24290E+03
 -1       374-1.38846E+04 5.07087E+04-9.66302E+03
 -1       375-1.17322E+04 7.09230E+04-1.39019E+04
 -1       376-6.93321E+03 8.56269E+04-1.69935E+04
 -1       377-4.40062E+02 9.17365E+04-1.82868E+04
 -1       378 6.66217E+03 8.76408E+04-1.74867E+04
 -1       379 1.32742E+04 7.33140E+04-1.46331E+04
 -1       380 1.84091E+04 5.02475E+04-1.00577E+04
 -1       381 2.13095E+04 2.12027E+04-4.32356E+03
 -1       382 2.15368E+04-1.01893E+04 1.85155E+03
 -1       383 1.90228E+04-3.99312E+04 7.68798E+03
 -1       384 1.40734E+04-6.42052E+04 1.24457E+04
 -1       385 7.32522E+03-7.98891E+04 1.55216E+04
 -1       386-3.40870E+02-8.49785E+04 1.65306E+04
 -1       387-7.91678E+03-7.88591E+04 1.53579E+04
 -1       388-1.44007E+04-6.23944E+04 1.21765E+04
 -1       389-1.89289E+04-3.78195E+04 7.42708E+03
 -1       390-2.08883E+04-8.45377E+03 1.76210E+03
 -1       391-1.99958E+04 2.17271E+04-4.03815E+03
 -1       392-1.63318E+04 4.86023E+04-9.16726E+03
 -1       393-1.03248E+04 6.84320E+04-1.28993E+04
 -1       394-2.68837E+03 7.83256E+04-1.46858E+04
 -1       395 5.68360E+03 7.65877E+04-1.42298E+04
 -1       396 1.38481E+04 6.28920E+04-1.15228E+04
 -1       397 2.09560E+04 3.82538E+04-6.84089E+03
 -1       398 2.63898E+04 4.79878E+03-7.02331E+02
 -1       399 2.98783E+04-3.46469E+04 6.21042E+03
 -1       400 3.15867E+04-7.71123E+04 1.32056E+04
 -1       401 4.43642E+06 3.21392E+05 8.23892E+06
 -1       402 3.10582E+06 2.58527E+05-8.21052E+06
 -1       403 2.01129E+04-1.04834E+05 1.10684E+04
 -1       404-1.81647E+03 1.30077E+04-4.40884E+02
 -1       405-3.09955E+03 3.43587E+04-1.28104E+03
 -1       406-3.42966E+03 6.02859E+04-2.37180E+03
 -1       407-2.90161E+03 8.46621E+04-3.41370E+03
 -1       408-1.71152E+03 1.02392E+05-4.16969E+03
 -1       409-9.61050E+01 1.09792E+05-4.48390E+03
 -1       410 1.67240E+03 1.04937E+05-4.28584E+03
 -1       411 3.31921E+03 8.78000E+04-3.58568E+03
 -1       412 4.59806E+03 6.01728E+04-2.46425E+03
 -1       413 5.31989E+03 2.53679E+04-1.05914E+03
 -1       414 5.37536E+03-1.22586E+04 4.53978E+02
 -1       415 4.74740E+03-4.79114E+04 1.88413E+03
 -1       416 3.51227E+03-7.70105E+04 3.04997E+03
 -1       417 1.82869E+03-9.58106E+04 3.80372E+03
 -1       418-8.36160E+01-1.01907E+05 4.05097E+03
 -1       419-1.97322E+03-9.45616E+04 3.76358E+03
 -1       420-3.59022E+03-7.48093E+04 2.98393E+03
 -1       421-4.71911E+03-4.53289E+04 1.81999E+03
 -1       422-5.20696E+03-1.00998E+04 4.31628E+02
 -1       423-4.98302E+03 2.61122E+04-9.89951E+02
 -1       424-4.06728E+03 5.83675E+04-2.24708E+03
 -1       425-2.56661E+03 8.21836E+04-3.16171E+03
 -1       426-6.58907E+02 9.40966E+04-3.59926E+03
 -1       427 1.43290E+03 9.20761E+04-3.48674E+03
 -1       428 3.47373E+03 7.57339E+04-2.82227E+03
 -1       429 5.25212E+03 4.62914E+04-1.67390E+03
 -1       430 6.61461E+03 6.30415E+03-1.67576E+02
 -1       431 7.49565E+03-4.08306E+04 1.53482E+03
 -1       432 7.93638E+03-9.15359E+04 3.28356E+03
 -1       433 1.99235E+04-1.05883E+05 1.10639E+04
 -1       434 4.43642E+06 3.21392E+05-8.23892E+06
 -1       435 3.10582E+06 2.58527E+05 8.21052E+06
 -1       436 7.93638E+03-9.15359E+04-3.28356E+03
 -1       437 7.49565E+03-4.08306E+04-1.53482E+03
 -1       438 6.61461E+03 6.30415E+03 1.67576E+02
 -1       439 5.25212E+03 4.62914E+04 1.67390E+03
 -1       440 3.47373E+03 7.57339E+04 2.82227E+03
 -1       441 1.43290E+03 9.20761E+04 3.48674E+03
 -1       442-6.58907E+02 9.40966E+04 3.59926E+03
 -1       443-2.56661E+03 8.21836E+04 3.16171E+03
 -1       444-4.06728E+03 5.83675E+04 2.24708E+03
 -1       445-4.98302E+03 2.61122E+04 9.89951E+02
 -1       446-5.20696E+03-1.00998E+04-4.31628E+02
 -1       447-4.71911E+03-4.53289E+04-1.81999E+03
 -1       448-3.59022E+03-7.48093E+04-2.98393E+03
 -1       449-1.97322E+03-9.45616E+04-3.76358E+03
 -1       450-8.36160E+01-1.01907E+05-4.05097E+03
 -1       451 1.82869E+03-9.58106E+04-3.80372E+03
 -1       452 3.51227E+03-7.70105E+04-3.04997E+03
 -1       453 4.74740E+03-4.79114E+04-1.88413E+03
 -1       454 5.37536E+03-1.22586E+04-4.53978E+02
 -1       455 5.31989E+03 2.53679E+04 1.05914E+03
 -1       456 4.59806E+03 6.01728E+04 2.46425E+03
 -1       457 3.31921E+03 8.78000E+04 3.58568E+03
 -1       458 1.67240E+03 1.04937E+05 4.28584E+03
 -1       459-9.61050E+01 1.09792E+05 4.48390E+03
 -1       460-1.71152E+03 1.02392E+05 4.16969E+03
 -1       461-2.90161E+03 8.46621E+04 3.41370E+03
 -1       462-3.42966E+03 6.02859E+04 2.37180E+03
 -1       463-3.09955E+03 3.43587E+04 1.28104E+03
 -1       464-1.81647E+03 1.30077E+04 4.40884E+02
 -1       465 2.01129E+04-1.04834E+05-1.10684E+04
 -1       466-7.77861E+03 1.14953E+04 1.88611E+03
 -1       467-1.28369E+04 2.89690E+04 5.28680E+03
 -1       468-1.40829E+04 5.01292E+04 9.65482E+03
 -1       469-1.18994E+04 7.00923E+04 1.38505E+04
 -1       470-7.03306E+03 8.46121E+04 1.69108E+04
 -1       471-4.51680E+02 9.06446E+04 1.81877E+04
 -1       472 6.74416E+03 8.65967E+04 1.73868E+04
 -1       473 1.34412E+04 7.24402E+04 1.45477E+04
 -1       474 1.86411E+04 4.96469E+04 9.99928E+03
 -1       475 2.15774E+04 2.09443E+04 4.30076E+03
 -1       476 2.18070E+04-1.00791E+04-1.83504E+03
 -1       477 1.92612E+04-3.94728E+04-7.63389E+03
 -1       478 1.42497E+04-6.34629E+04-1.23608E+04
 -1       479 7.41708E+03-7.89633E+04-1.54171E+04
 -1       480-3.44677E+02-8.39925E+04-1.64200E+04
 -1       481-8.01496E+03-7.79429E+04-1.52559E+04
 -1       482-1.45794E+04-6.16680E+04-1.20966E+04
 -1       483-1.91636E+04-3.73763E+04-7.37997E+03
 -1       484-2.11468E+04-8.34837E+03-1.75429E+03
 -1       485-2.02422E+04 2.14867E+04 4.00521E+03
 -1       486-1.65316E+04 4.80561E+04 9.09728E+03
 -1       487-1.04494E+04 6.76635E+04 1.28005E+04
 -1       488-2.71870E+03 7.74508E+04 1.45701E+04
 -1       489 5.75442E+03 7.57404E+04 1.41104E+04
 -1       490 1.40140E+04 6.22066E+04 1.14128E+04
 -1       491 2.11991E+04 3.78482E+04 6.75099E+03
 -1       492 2.66828E+04 4.75996E+03 6.39130E+02
 -1       493 3.01894E+04-3.42736E+04-6.24598E+03
 -1       494 3.18897E+04-7.63268E+04-1.32196E+04
 -1       495-7.66586E+03 1.16086E+04 1.78957E+03
 -1       496-1.26554E+04 2.92874E+04 5.24290E+03
 -1       497-1.38846E+04 5.07087E+04 9.66302E+03
 -1       498-1.17322E+04 7.09230E+04 1.39019E+04
 -1       499-6.93321E+03 8.56269E+04 1.69935E+04
 -1       500-4.40062E+02 9.17365E+04 1.82868E+04
 -1       501 6.66217E+03 8.76408E+04 1.74867E+04
 -1       502 1.32742E+04 7.33140E+04 1.46331E+04
 -1       503 1.84091E+04 5.02475E+04 1.00577E+04
 -1       504 2.13095E+04 2.12027E+04 4.32356E+03
 -1       505 2.15368E+04-1.01893E+04-1.85155E+03
 -1       506 1.90228E+04-3.99312E+04-7.68798E+03
 -1       507 1.40734E+04-6.42052E+04-1.24457E+04
 -1       508 7.32522E+03-7.98891E+04-1.55216E+04
 -1       509-3.40870E+02-8.49785E+04-1.65306E+04
 -1       510-7.91678E+03-7.88591E+04-1.53579E+04
 -1       511-1.44007E+04-6.23944E+04-1.21765E+04
 -1       512-1.89289E+04-3.78195E+04-7.42708E+03
 -1       513-2.08883E+04-8.45377E+03-1.76210E+03
 -1       514-1.99958E+04 2.17271E+04 4.03815E+03
 -1       515-1.63318E+04 4.86023E+04 9.16726E+03
 -1       516-1.03248E+04 6.84320E+04 1.28993E+04
 -1       517-2.68837E+03 7.83256E+04 1.46858E+04
 -1       518 5.68360E+03 7.65877E+04 1.42298E+04
 -1       519 1.38481E+04 6.28920E+04 1.15228E+04
 -1       520 2.09560E+04 3.82538E+04 6.84089E+03
 -1       521 2.63898E+04 4.79878E+03 7.02331E+02
 -1       522 2.98783E+04-3.46469E+04-6.21042E+03
 -1       523 3.15867E+04-7.71123E+04-1.32056E+04
 -1       524 1.99235E+04-1.05883E+05-1.10639E+04
 -1       525 6.48172E+02 3.32685E+04 3.46395E+01
 -1       526 1.00215E+03 9.28015E+04 1.40551E+02
 -1       527 1.06072E+03 1.66365E+05 2.85335E+02
 -1       528 8.81883E+02 2.35404E+05 4.20057E+02
 -1       529 5.24950E+02 2.85367E+05 5.14776E+02
 -1       530 5.77251E+01 3.06142E+05 5.53248E+02
 -1       531-4.45811E+02 2.92591E+05 5.28437E+02
 -1       532-9.11206E+02 2.44796E+05 4.41901E+02
 -1       533-1.27144E+03 1.67826E+05 3.03428E+02
 -1       534-1.47493E+03 7.09369E+04 1.29819E+02
 -1       535-1.49193E+03-3.37512E+04-5.72749E+01
 -1       536-1.31812E+03-1.32914E+05-2.34207E+02
 -1       537-9.74961E+02-2.13836E+05-3.78476E+02
 -1       538-5.06765E+02-2.66121E+05-4.71728E+02
 -1       539 2.52695E+01-2.83101E+05-5.02225E+02
 -1       540 5.51156E+02-2.62735E+05-4.66446E+02
 -1       541 1.00136E+03-2.07912E+05-3.69612E+02
 -1       542 1.31596E+03-1.26087E+05-2.25065E+02
 -1       543 1.45249E+03-2.83289E+04-5.25802E+01
 -1       544 1.39143E+03 7.21035E+04 1.24174E+02
 -1       545 1.13869E+03 1.61474E+05 2.80700E+02
 -1       546 7.24661E+02 2.27330E+05 3.94874E+02
 -1       547 1.99936E+02 2.60075E+05 4.49903E+02
 -1       548-3.71707E+02 2.54158E+05 4.36682E+02
 -1       549-9.22512E+02 2.08674E+05 3.55166E+02
 -1       550-1.39143E+03 1.27283E+05 2.14225E+02
 -1       551-1.73556E+03 1.73377E+04 2.90852E+01
 -1       552-1.94070E+03-1.11756E+05-1.84842E+02
 -1       553-2.02924E+03-2.50845E+05-4.20303E+02
 -1       554 6.80445E+02 3.44540E+04 8.63965E-07
 -1       555 1.06758E+03 9.75363E+04-2.29401E-06
 -1       556 1.13290E+03 1.76070E+05-2.32617E-06
 -1       557 9.39904E+02 2.49731E+05-2.13049E-06
 -1       558 5.58437E+02 3.02931E+05-1.02425E-06
 -1       559 6.12825E+01 3.25019E+05 8.00069E-07
 -1       560-4.73493E+02 3.10620E+05 5.16493E-07
 -1       561-9.67293E+02 2.59872E+05-8.07760E-07
 -1       562-1.34930E+03 1.78177E+05 1.57174E-06
 -1       563-1.56497E+03 7.53638E+04 9.01383E-07
 -1       564-1.58282E+03-3.57090E+04 2.47930E-07
 -1       565-1.39832E+03-1.40910E+05 3.66792E-07
 -1       566-1.03427E+03-2.26755E+05-2.09475E-06
 -1       567-5.37645E+02-2.82223E+05-1.57903E-06
 -1       568 2.66372E+01-3.00243E+05-6.66098E-07
 -1       569 5.84353E+02-2.78656E+05 9.43082E-07
 -1       570 1.06176E+03-2.20527E+05-6.58148E-07
 -1       571 1.39528E+03-1.33767E+05-6.00140E-07
 -1       572 1.53988E+03-3.01209E+04 2.00608E-06
 -1       573 1.47486E+03 7.63461E+04 1.34674E-06
 -1       574 1.20652E+03 1.71062E+05 7.87339E-07
 -1       575 7.67139E+02 2.40816E+05 2.05123E-06
 -1       576 2.10575E+02 2.75442E+05 1.18713E-06
 -1       577-3.95199E+02 2.69075E+05-2.09202E-06
 -1       578-9.77869E+02 2.20812E+05-3.05798E-06
 -1       579-1.47239E+03 1.34615E+05-2.26875E-06
 -1       580-1.83400E+03 1.83588E+04-1.50546E-07
 -1       581-2.05118E+03-1.18044E+05 9.70435E-08
 -1       582-2.15077E+03-2.65230E+05 1.97195E-07
 -1       583 6.48172E+02 3.32685E+04-3.46395E+01
 -1       584 1.00215E+03 9.28015E+04-1.40551E+02
 -1       585 1.06072E+03 1.66365E+05-2.85335E+02
 -1       586 8.81883E+02 2.35404E+05-4.20057E+02
 -1       587 5.24950E+02 2.85367E+05-5.14776E+02
 -1       588 5.77251E+01 3.06142E+05-5.53248E+02
 -1       589-4.45811E+02 2.92591E+05-5.28437E+02
 -1       590-9.11206E+02 2.44796E+05-4.41901E+02
 -1       591-1.27144E+03 1.67826E+05-3.03428E+02
 -1       592-1.47493E+03 7.09369E+04-1.29819E+02
 -1       593-1.49193E+03-3.37512E+04 5.72749E+01
 -1       594-1.31812E+03-1.32914E+05 2.34207E+02
 -1       595-9.74961E+02-2.13836E+05 3.78476E+02
 -1       596-5.06765E+02-2.66121E+05 4.71728E+02
 -1       597 2.52695E+01-2.83101E+05 5.02225E+02
 -1       598 5.51156E+02-2.62735E+05 4.66446E+02
 -1       599 1.00136E+03-2.07912E+05 3.69612E+02
 -1       600 1.31596E+03-1.26087E+05 2.25065E+02
 -1       601 1.45249E+03-2.83289E+04 5.25802E+01
 -1       602 1.39143E+03 7.21035E+04-1.24174E+02
 -1       603 1.13869E+03 1.61474E+05-2.80700E+02
 -1       604 7.24661E+02 2.27330E+05-3.94874E+02
 -1       605 1.99936E+02 2.60075E+05-4.49903E+02
 -1       606-3.71707E+02 2.54158E+05-4.36682E+02
 -1       607-9.22512E+02 2.08674E+05-3.55166E+02
 -1       608-1.39143E+03 1.27283E+05-2.14225E+02
 -1       609-1.73556E+03 1.73377E+04-2.90852E+01
 -1       610-1.94070E+03-1.11756E+05 1.84842E+02
 -1       611-2.02924E+03-2.50845E+05 4.20303E+02
 -1       612-6.48172E+02 3.32685E+04 3.46395E+01
 -1       613-1.00215E+03 9.28015E+04 1.40551E+02
 -1       614-1.06072E+03 1.66365E+05 2.85335E+02
 -1       615-8.81883E+02 2.35404E+05 4.20057E+02
 -1       616-5.24950E+02 2.85367E+05 5.14776E+02
 -1       617-5.77251E+01 3.06142E+05 5.53248E+02
 -1       618 4.45811E+02 2.92591E+05 5.28437E+02
 -1       619 9.11206E+02 2.44796E+05 4.41901E+02
 -1       620 1.27144E+03 1.67826E+05 3.03428E+02
 -1       621 1.47493E+03 7.09369E+04 1.29819E+02
 -1       622 1.49193E+03-3.37512E+04-5.72749E+01
 -1       623 1.31812E+03-1.32914E+05-2.34207E+02
 -1       624 9.74961E+02-2.13836E+05-3.78476E+02
 -1       625 5.06765E+02-2.66121E+05-4.71728E+02
 -1       626-2.52695E+01-2.83101E+05-5.02225E+02
 -1       627-5.51156E+02-2.62735E+05-4.66446E+02
 -1       628-1.00136E+03-2.07912E+05-3.69612E+02
 -1       629-1.31596E+03-1.26087E+05-2.25065E+02
 -1       630-1.45249E+03-2.83289E+04-5.25802E+01
 -1       631-1.39143E+03 7.21035E+04 1.24174E+02
 -1       632-1.13869E+03 1.61474E+05 2.80700E+02
 -1       633-7.24661E+02 2.27330E+05 3.94874E+02
 -1       634-1.99936E+02 2.60075E+05 4.49903E+02
 -1       635 3.71707E+02 2.54158E+05 4.36682E+02
 -1       636 9.22512E+02 2.08674E+05 3.55166E+02
 -1       637 1.39143E+03 1.27283E+05 2.14225E+02
 -1       638 1.73556E+03 1.73377E+04 2.90852E+01
 -1       639 1.94070E+03-1.11756E+05-1.84842E+02
 -1       640 2.02924E+03-2.50845E+05-4.20303E+02
 -1       641-6.80445E+02 3.44540E+04 1.37540E-06
 -1       642-1.06758E+03 9.75363E+04-5.25102E-07
 -1       643-1.13290E+03 1.76070E+05-3.11782E-06
 -1       644-9.39904E+02 2.49731E+05-1.37879E-06
 -1       645-5.58437E+02 3.02931E+05 2.52294E-07
 -1       646-6.12825E+01 3.25019E+05 2.58516E-06
 -1       647 4.73493E+02 3.10620E+05 1.74834E-06
 -1       648 9.67293E+02 2.59872E+05-9.64272E-07
 -1       649 1.34930E+03 1.78177E+05-1.00908E-06
 -1       650 1.56497E+03 7.53638E+04 1.57540E-06
 -1       651 1.58282E+03-3.57090E+04-1.41113E-06
 -1       652 1.39832E+03-1.40910E+05-1.75476E-06
 -1       653 1.03427E+03-2.26755E+05-1.35340E-07
 -1       654 5.37645E+02-2.82223E+05-7.88434E-07
 -1       655-2.66372E+01-3.00243E+05-2.28811E-07
 -1       656-5.84353E+02-2.78656E+05 2.36910E-06
 -1       657-1.06176E+03-2.20527E+05 5.82233E-07
 -1       658-1.39528E+03-1.33767E+05 8.07419E-07
 -1       659-1.53988E+03-3.01209E+04 2.74355E-06
 -1       660-1.47486E+03 7.63461E+04 3.14330E-06
 -1       661-1.20652E+03 1.71062E+05 4.17451E-07
 -1       662-7.67139E+02 2.40816E+05-1.12745E-06
 -1       663-2.10575E+02 2.75442E+05 2.55066E-07
 -1       664 3.95199E+02 2.69075E+05-9.49738E-07
 -1       665 9.77869E+02 2.20812E+05-1.90580E-06
 -1       666 1.47239E+03 1.34615E+05-2.04667E-06
 -1       667 1.83400E+03 1.83588E+04-1.06724E-06
 -1       668 2.05118E+03-1.18044E+05-1.66845E-06
 -1       669 2.15077E+03-2.65230E+05 2.03921E-06
 -1       670-6.48172E+02 3.32685E+04-3.46395E+01
 -1       671-1.00215E+03 9.28015E+04-1.40551E+02
 -1       672-1.06072E+03 1.66365E+05-2.85335E+02
 -1       673-8.81883E+02 2.35404E+05-4.20057E+02
 -1       674-5.24950E+02 2.85367E+05-5.14776E+02
 -1       675-5.77251E+01 3.06142E+05-5.53248E+02
 -1       676 4.45811E+02 2.92591E+05-5.28437E+02
 -1       677 9.11206E+02 2.44796E+05-4.41901E+02
 -1       678 1.27144E+03 1.67826E+05-3.03428E+02
 -1       679 1.47493E+03 7.09369E+04-1.29819E+02
 -1       680 1.49193E+03-3.37512E+04 5.72749E+01
 -1       681 1.31812E+03-1.32914E+05 2.34207E+02
 -1       682 9.74961E+02-2.13836E+05 3.78476E+02
 -1       683 5.06765E+02-2.66121E+05 4.71728E+02
 -1       684-2.52695E+01-2.83101E+05 5.02225E+02
 -1       685-5.51156E+02-2.62735E+05 4.66446E+02
 -1       686-1.00136E+03-2.07912E+05 3.69612E+02
 -1       687-1.31596E+03-1.26087E+05 2.25065E+02
 -1       688-1.45249E+03-2.83289E+04 5.25802E+01
 -1       689-1.39143E+03 7.21035E+04-1.24174E+02
 -1       690-1.13869E+03 1.61474E+05-2.80700E+02
 -1       691-7.24661E+02 2.27330E+05-3.94874E+02
 -1       692-1.99936E+02 2.60075E+05-4.49903E+02
 -1       693 3.71707E+02 2.54158E+05-4.36682E+02
 -1       694 9.22512E+02 2.08674E+05-3.55166E+02
 -1       695 1.39143E+03 1.27283E+05-2.14225E+02
 -1       696 1.73556E+03 1.73377E+04-2.90852E+01
 -1       697 1.94070E+03-1.11756E+05 1.84842E+02
 -1       698 2.02924E+03-2.50845E+05 4.20303E+02
 -1       699 9.20178E+03 2.21849E+04 2.30285E+03
 -1       700 1.55562E+04 5.75139E+04 6.52953E+03
 -1       701 1.71779E+04 1.00341E+05 1.19739E+04
 -1       702 1.45328E+04 1.40666E+05 1.71953E+04
 -1       703 8.57536E+03 1.69996E+05 2.09969E+04
 -1       704 4.94197E+02 1.82214E+05 2.25809E+04
 -1       705-8.35123E+03 1.74124E+05 2.15854E+04
 -1       706-1.65875E+04 1.45677E+05 1.80601E+04
 -1       707-2.29834E+04 9.98386E+04 1.24130E+04
 -1       708-2.65940E+04 4.21015E+04 5.33772E+03
 -1       709-2.68724E+04-2.03114E+04-2.28075E+03
 -1       710-2.37336E+04-7.94486E+04-9.48107E+03
 -1       711-1.75588E+04-1.27715E+05-1.53505E+04
 -1       712-9.14159E+03-1.58899E+05-1.91454E+04
 -1       713 4.19360E+02-1.69013E+05-2.03906E+04
 -1       714 9.86698E+03-1.56835E+05-1.89446E+04
 -1       715 1.79518E+04-1.24079E+05-1.50210E+04
 -1       716 2.35965E+04-7.51911E+04-9.16341E+03
 -1       717 2.60364E+04-1.67698E+04-2.17665E+03
 -1       718 2.49180E+04 4.32791E+04 4.97660E+03
 -1       719 2.03412E+04 9.67624E+04 1.13014E+04
 -1       720 1.28404E+04 1.36244E+05 1.59017E+04
 -1       721 3.30525E+03 1.55977E+05 1.81007E+04
 -1       722-7.14959E+03 1.52589E+05 1.75312E+04
 -1       723-1.73486E+04 1.25433E+05 1.41829E+04
 -1       724-2.62342E+04 7.65285E+04 8.39647E+03
 -1       725-3.30380E+04 1.01032E+04 8.08716E+02
 -1       726-3.74285E+04-6.82216E+04-7.74768E+03
 -1       727-3.96140E+04-1.52533E+05-1.64584E+04
 -1       728 9.06169E+03 2.24083E+04 2.18952E+03
 -1       729 1.53279E+04 5.81451E+04 6.47468E+03
 -1       730 1.69281E+04 1.01494E+05 1.19818E+04
 -1       731 1.43225E+04 1.42321E+05 1.72538E+04
 -1       732 8.44999E+03 1.72017E+05 2.10921E+04
 -1       733 4.79837E+02 1.84388E+05 2.26955E+04
 -1       734-8.24786E+03 1.76203E+05 2.17011E+04
 -1       735-1.63772E+04 1.47416E+05 1.81591E+04
 -1       736-2.26915E+04 1.01034E+05 1.24807E+04
 -1       737-2.62567E+04 4.26157E+04 5.36406E+03
 -1       738-2.65322E+04-2.05309E+04-2.30008E+03
 -1       739-2.34335E+04-8.03614E+04-9.54405E+03
 -1       740-1.73369E+04-1.29193E+05-1.54492E+04
 -1       741-9.02597E+03-1.60743E+05-1.92670E+04
 -1       742 4.14579E+02-1.70977E+05-2.05192E+04
 -1       743 9.74343E+03-1.58659E+05-1.90632E+04
 -1       744 1.77269E+04-1.25526E+05-1.51139E+04
 -1       745 2.33011E+04-7.60736E+04-9.21812E+03
 -1       746 2.57112E+04-1.69796E+04-2.18562E+03
 -1       747 2.46079E+04 4.37581E+04 5.01509E+03
 -1       748 2.00896E+04 9.78503E+04 1.13830E+04
 -1       749 1.26836E+04 1.37775E+05 1.60169E+04
 -1       750 3.26718E+03 1.57719E+05 1.82358E+04
 -1       751-7.06029E+03 1.54277E+05 1.76708E+04
 -1       752-1.71396E+04 1.26799E+05 1.43118E+04
 -1       753-2.59280E+04 7.73372E+04 8.50238E+03
 -1       754-3.26687E+04 1.01816E+04 8.84075E+02
 -1       755-3.70356E+04-6.89649E+04-7.70375E+03
 -1       756-3.92275E+04-1.54105E+05-1.64393E+04
 -1       757 9.06169E+03 2.24083E+04-2.18952E+03
 -1       758 1.53279E+04 5.81451E+04-6.47468E+03
 -1       759 1.69281E+04 1.01494E+05-1.19818E+04
 -1       760 1.43225E+04 1.42321E+05-1.72538E+04
 -1       761 8.44999E+03 1.72017E+05-2.10921E+04
 -1       762 4.79837E+02 1.84388E+05-2.26955E+04
 -1       763-8.24786E+03 1.76203E+05-2.17011E+04
 -1       764-1.63772E+04 1.47416E+05-1.81591E+04
 -1       765-2.26915E+04 1.01034E+05-1.24807E+04
 -1       766-2.62567E+04 4.26157E+04-5.36406E+03
 -1       767-2.65322E+04-2.05309E+04 2.30008E+03
 -1       768-2.34335E+04-8.03614E+04 9.54405E+03
 -1       769-1.73369E+04-1.29193E+05 1.54492E+04
 -1       770-9.02597E+03-1.60743E+05 1.92670E+04
 -1       771 4.14579E+02-1.70977E+05 2.05192E+04
 -1       772 9.74343E+03-1.58659E+05 1.90632E+04
 -1       773 1.77269E+04-1.25526E+05 1.51139E+04
 -1       774 2.33011E+04-7.60736E+04 9.21812E+03
 -1       775 2.57112E+04-1.69796E+04 2.18562E+03
 -1       776 2.46079E+04 4.37581E+04-5.01509E+03
 -1       777 2.00896E+04 9.78503E+04-1.13830E+04
 -1       778 1.26836E+04 1.37775E+05-1.60169E+04
 -1       779 3.26718E+03 1.57719E+05-1.82358E+04
 -1       780-7.06029E+03 1.54277E+05-1.76708E+04
 -1       781-1.71396E+04 1.26799E+05-1.43118E+04
 -1       782-2.59280E+04 7.73372E+04-8.50238E+03
 -1       783-3.26687E+04 1.01816E+04-8.84075E+02
 -1       784-3.70356E+04-6.89649E+04 7.70375E+03
 -1       785-3.92275E+04-1.54105E+05 1.64393E+04
 -1       786 9.20178E+03 2.21849E+04-2.30285E+03
 -1       787 1.55562E+04 5.75139E+04-6.52953E+03
 -1       788 1.71779E+04 1.00341E+05-1.19739E+04
 -1       789 1.45328E+04 1.40666E+05-1.71953E+04
 -1       790 8.57536E+03 1.69996E+05-2.09969E+04
 -1       791 4.94197E+02 1.82214E+05-2.25809E+04
 -1       792-8.35123E+03 1.74124E+05-2.15854E+04
 -1       793-1.65875E+04 1.45677E+05-1.80601E+04
 -1       794-2.29834E+04 9.98386E+04-1.24130E+04
 -1       795-2.65940E+04 4.21015E+04-5.33772E+03
 -1       796-2.68724E+04-2.03114E+04 2.28075E+03
 -1       797-2.37336E+04-7.94486E+04 9.48107E+03
 -1       798-1.75588E+04-1.27715E+05 1.53505E+04
 -1       799-9.14159E+03-1.58899E+05 1.91454E+04
 -1       800 4.19360E+02-1.69013E+05 2.03906E+04
 -1       801 9.86698E+03-1.56835E+05 1.89446E+04
 -1       802 1.79518E+04-1.24079E+05 1.50210E+04
 -1       803 2.35965E+04-7.51911E+04 9.16341E+03
 -1       804 2.60364E+04-1.67698E+04 2.17665E+03
 -1       805 2.49180E+04 4.32791E+04-4.97660E+03
 -1       806 2.03412E+04 9.67624E+04-1.13014E+04
 -1       807 1.28404E+04 1.36244E+05-1.59017E+04
 -1       808 3.30525E+03 1.55977E+05-1.81007E+04
 -1       809-7.14959E+03 1.52589E+05-1.75312E+04
 -1       810-1.73486E+04 1.25433E+05-1.41829E+04
 -1       811-2.62342E+04 7.65285E+04-8.39647E+03
 -1       812-3.30380E+04 1.01032E+04-8.08716E+02
 -1       813-3.74285E+04-6.82216E+04 7.74768E+03
 -1       814-3.96140E+04-1.52533E+05 1.64584E+04
 -1       815-9.20178E+03 2.21849E+04-2.30285E+03
 -1       816-1.55562E+04 5.75139E+04-6.52953E+03
 -1       817-1.71779E+04 1.00341E+05-1.19739E+04
 -1       818-1.45328E+04 1.40666E+05-1.71953E+04
 -1       819-8.57536E+03 1.69996E+05-2.09969E+04
 -1       820-4.94197E+02 1.82214E+05-2.25809E+04
 -1       821 8.35123E+03 1.74124E+05-2.15854E+04
 -1       822 1.65875E+04 1.45677E+05-1.80601E+04
 -1       823 2.29834E+04 9.98386E+04-1.24130E+04
 -1       824 2.65940E+04 4.21015E+04-5.33772E+03
 -1       825 2.68724E+04-2.03114E+04 2.28075E+03
 -1       826 2.37336E+04-7.94486E+04 9.48107E+03
 -1       827 1.75588E+04-1.27715E+05 1.53505E+04
 -1       828 9.14159E+03-1.58899E+05 1.91454E+04
 -1       829-4.19360E+02-1.69013E+05 2.03906E+04
 -1       830-9.86698E+03-1.56835E+05 1.89446E+04
 -1       831-1.79518E+04-1.24079E+05 1.50210E+04
 -1       832-2.35965E+04-7.51911E+04 9.16341E+03
 -1       833-2.60364E+04-1.67698E+04 2.17665E+03
 -1       834-2.49180E+04 4.32791E+04-4.97660E+03
 -1       835-2.03412E+04 9.67624E+04-1.13014E+04
 -1       836-1.28404E+04 1.36244E+05-1.59017E+04
 -1       837-3.30525E+03 1.55977E+05-1.81007E+04
 -1       838 7.14959E+03 1.52589E+05-1.75312E+04
 -1       839 1.73486E+04 1.25433E+05-1.41829E+04
 -1       840 2.62342E+04 7.65285E+04-8.39647E+03
 -1       841 3.30380E+04 1.01032E+04-8.08716E+02
 -1       842 3.74285E+04-6.82216E+04 7.74768E+03
 -1       843 3.96140E+04-1.52533E+05 1.64584E+04
 -1       844-9.06169E+03 2.24083E+04-2.18952E+03
 -1       845-1.53279E+04 5.81451E+04-6.47468E+03
 -1       846-1.69281E+04 1.01494E+05-1.19818E+04
 -1       847-1.43225E+04 1.42321E+05-1.72538E+04
 -1       848-8.44999E+03 1.72017E+05-2.10921E+04
 -1       849-4.79837E+02 1.84388E+05-2.26955E+04
 -1       850 8.24786E+03 1.76203E+05-2.17011E+04
 -1       851 1.63772E+04 1.47416E+05-1.81591E+04
 -1       852 2.26915E+04 1.01034E+05-1.24807E+04
 -1       853 2.62567E+04 4.26157E+04-5.36406E+03
 -1       854 2.65322E+04-2.05309E+04 2.30008E+03
 -1       855 2.34335E+04-8.03614E+04 9.54405E+03
 -1       856 1.73369E+04-1.29193E+05 1.54492E+04
 -1       857 9.02597E+03-1.60743E+05 1.92670E+04
 -1       858-4.14579E+02-1.70977E+05 2.05192E+04
 -1       859-9.74343E+03-1.58659E+05 1.90632E+04
 -1       860-1.77269E+04-1.25526E+05 1.51139E+04
 -1       861-2.33011E+04-7.60736E+04 9.21812E+03
 -1       862-2.57112E+04-1.69796E+04 2.18562E+03
 -1       863-2.46079E+04 4.37581E+04-5.01509E+03
 -1       864-2.00896E+04 9.78503E+04-1.13830E+04
 -1       865-1.26836E+04 1.37775E+05-1.60169E+04
 -1       866-3.26718E+03 1.57719E+05-1.82358E+04
 -1       867 7.06029E+03 1.54277E+05-1.76708E+04
 -1       868 1.71396E+04 1.26799E+05-1.43118E+04
 -1       869 2.59280E+04 7.73372E+04-8.50238E+03
 -1       870 3.26687E+04 1.01816E+04-8.84075E+02
 -1       871 3.70356E+04-6.89649E+04 7.70375E+03
 -1       872 3.92275E+04-1.54105E+05 1.64393E+04
 -1       873 3.96140E+04-1.52533E+05-1.64584E+04
 -1       874 3.74285E+04-6.82216E+04-7.74768E+03
 -1       875 3.30380E+04 1.01032E+04 8.08716E+02
 -1       876 2.62342E+04 7.65285E+04 8.39647E+03
 -1       877 1.73486E+04 1.25433E+05 1.41829E+04
 -1       878 7.14959E+03 1.52589E+05 1.75312E+04
 -1       879-3.30525E+03 1.55977E+05 1.81007E+04
 -1       880-1.28404E+04 1.36244E+05 1.59017E+04
 -1       881-2.03412E+04 9.67624E+04 1.13014E+04
 -1       882-2.49180E+04 4.32791E+04 4.97660E+03
 -1       883-2.60364E+04-1.67698E+04-2.17665E+03
 -1       884-2.35965E+04-7.51911E+04-9.16341E+03
 -1       885-1.79518E+04-1.24079E+05-1.50210E+04
 -1       886-9.86698E+03-1.56835E+05-1.89446E+04
 -1       887-4.19360E+02-1.69013E+05-2.03906E+04
 -1       888 9.14159E+03-1.58899E+05-1.91454E+04
 -1       889 1.75588E+04-1.27715E+05-1.53505E+04
 -1       890 2.37336E+04-7.94486E+04-9.48107E+03
 -1       891 2.68724E+04-2.03114E+04-2.28075E+03
 -1       892 2.65940E+04 4.21015E+04 5.33772E+03
 -1       893 2.29834E+04 9.98386E+04 1.24130E+04
 -1       894 1.65875E+04 1.45677E+05 1.80601E+04
 -1       895 8.35123E+03 1.74124E+05 2.15854E+04
 -1       896-4.94197E+02 1.82214E+05 2.25809E+04
 -1       897-8.57536E+03 1.69996E+05 2.09969E+04
 -1       898-1.45328E+04 1.40666E+05 1.71953E+04
 -1       899-1.71779E+04 1.00341E+05 1.19739E+04
 -1       900-1.55562E+04 5.75139E+04 6.52953E+03
 -1       901-9.20178E+03 2.21849E+04 2.30285E+03
 -1       902-9.06169E+03 2.24083E+04 2.18952E+03
 -1       903-1.53279E+04 5.81451E+04 6.47468E+03
 -1       904-1.69281E+04 1.01494E+05 1.19818E+04
 -1       905-1.43225E+04 1.42321E+05 1.72538E+04
 -1       906-8.44999E+03 1.72017E+05 2.10921E+04
 -1       907-4.79837E+02 1.84388E+05 2.26955E+04
 -1       908 8.24786E+03 1.76203E+05 2.17011E+04
 -1       909 1.63772E+04 1.47416E+05 1.81591E+04
 -1       910 2.26915E+04 1.01034E+05 1.24807E+04
 -1       911 2.62567E+04 4.26157E+04 5.36406E+03
 -1       912 2.65322E+04-2.05309E+04-2.30008E+03
 -1       913 2.34335E+04-8.03614E+04-9.54405E+03
 -1       914 1.73369E+04-1.29193E+05-1.54492E+04
 -1       915 9.02597E+03-1.60743E+05-1.92670E+04
 -1       916-4.14579E+02-1.70977E+05-2.05192E+04
 -1       917-9.74343E+03-1.58659E+05-1.90632E+04
 -1       918-1.77269E+04-1.25526E+05-1.51139E+04
 -1       919-2.33011E+04-7.60736E+04-9.21812E+03
 -1       920-2.57112E+04-1.69796E+04-2.18562E+03
 -1       921-2.46079E+04 4.37581E+04 5.01509E+03
 -1       922-2.00896E+04 9.78503E+04 1.13830E+04
 -1       923-1.26836E+04 1.37775E+05 1.60169E+04
 -1       924-3.26718E+03 1.57719E+05 1.82358E+04
 -1       925 7.06029E+03 1.54277E+05 1.76708E+04
 -1       926 1.71396E+04 1.26799E+05 1.43118E+04
 -1       927 2.59280E+04 7.73372E+04 8.50238E+03
 -1       928 3.26687E+04 1.01816E+04 8.84075E+02
 -1       929 3.70356E+04-6.89649E+04-7.70375E+03
 -1       930 3.92275E+04-1.54105E+05-1.64393E+04
 -3
    1PSTEP                        40           1           1          
    1PGM                1.000000E+00                                  
    1PGK                8.109032E+06                                  
    1PHID                         -1                                  
    1PSUBC                         0                                  
    1PMODE                        10                                  
  100CL  110 453.2153839         930                     2   10MODAL      1
 -4  ERROR       1    1
 -5  STR(%)      1    1    0    0
 -1         1 7.47568E+01
 -1         2 7.47568E+01
 -1         3 6.86997E+01
 -1         4 6.86997E+01
 -1         5 7.47568E+01
 -1         6 7.47568E+01
 -1         7 6.86997E+01
 -1         8 6.86997E+01
 -1         9 7.47568E+01
 -1        10 6.19989E+01
 -1        11 3.86647E+01
 -1        12 3.86647E+01
 -1        13 4.74689E+01
 -1        14 4.74689E+01
 -1        15 7.47568E+01
 -1        16 6.19989E+01
 -1        17 3.86647E+01
 -1        18 3.86647E+01
 -1        19 4.74689E+01
 -1        20 4.74689E+01
 -1        21 3.86647E+01
 -1        22 3.86647E+01
 -1        23 4.74689E+01
 -1        24 4.74689E+01
 -1        25 7.47568E+01
 -1        26 6.19989E+01
 -1        27 7.47568E+01
 -1        28 3.86647E+01
 -1        29 3.86647E+01
 -1        30 6.19989E+01
 -1        31 4.74689E+01
 -1        32 4.74689E+01
 -1        33 7.47568E+01
 -1        34 7.06138E+01
 -1        35 6.94453E+01
 -1        36 7.02911E+01
 -1        37 7.02911E+01
 -1        38 5.68003E+01
 -1        39 5.29193E+01
 -1        40 7.08120E+01
 -1        41 7.08120E+01
 -1        42 6.98828E+01
 -1        43 7.38347E+01
 -1        44 7.59365E+01
 -1        45 7.59365E+01
 -1        46 5.64759E+01
 -1        47 4.86300E+01
 -1        48 6.11279E+01
 -1        49 7.32091E+01
 -1        50 7.32091E+01
 -1        51 7.20141E+01
 -1        52 7.10581E+01
 -1        53 7.20920E+01
 -1        54 7.20920E+01
 -1        55 5.31783E+01
 -1        56 4.97902E+01
 -1        57 5.53067E+01
 -1        58 6.16514E+01
 -1        59 6.58873E+01
 -1        60 6.58873E+01
 -1        61 6.86997E+01
 -1        62 7.47568E+01
 -1        63 7.06138E+01
 -1        64 6.94453E+01
 -1        65 7.02911E+01
 -1        66 7.02911E+01
 -1        67 5.68003E+01
 -1        68 5.29193E+01
 -1        69 7.08120E+01
 -1        70 7.08120E+01
 -1        71 6.98828E+01
 -1        72 7.38347E+01
 -1        73 7.59365E+01
 -1        74 7.59365E+01
 -1        75 5.64759E+01
 -1        76 4.86300E+01
 -1        77 6.11279E+01
 -1        78 7.32091E+01
 -1        79 7.32091E+01
 -1        80 7.20141E+01
 -1        81 7.10581E+01
 -1        82 7.20920E+01
 -1        83 7.20920E+01
 -1        84 5.31783E+01
 -1        85 4.97902E+01
 -1        86 5.53067E+01
 -1        87 6.16514E+01
 -1        88 6.58873E+01
 -1        89 6.58873E+01
 -1        90 6.86997E+01
 -1        91 5.82501E+01
 -1        92 3.65119E+01
 -1        93 5.82501E+01
 -1        94 5.82501E+01
 -1        95 3.65119E+01
 -1        96 5.82501E+01
 -1        97 7.47568E+01
 -1        98 7.06138E+01
 -1        99 6.94453E+01
 -1       100 7.02911E+01
 -1       101 7.02911E+01
 -1       102 5.68003E+01
 -1       103 5.29193E+01
 -1       104 7.08120E+01
 -1       105 7.08120E+01
 -1       106 6.98828E+01
 -1       107 7.38347E+01
 -1       108 7.59365E+01
 -1       109 7.59365E+01
 -1       110 5.64759E+01
 -1       111 4.86300E+01
 -1       112 6.11279E+01
 -1       113 7.32091E+01
 -1       114 7.32091E+01
 -1       115 7.20141E+01
 -1       116 7.10581E+01
 -1       117 7.20920E+01
 -1       118 7.20920E+01
 -1       119 5.31783E+01
 -1       120 4.97902E+01
 -1       121 5.53067E+01
 -1       122 6.16514E+01
 -1       123 6.58873E+01
 -1       124 6.58873E+01
 -1       125 6.86997E+01
 -1       126 6.86997E+01
 -1       127 4.29329E+01
 -1       128 6.86997E+01
 -1       129 7.47568E+01
 -1       130 7.06138E+01
 -1       131 6.94453E+01
 -1       132 7.02911E+01
 -1       133 7.02911E+01
 -1       134 5.68003E+01
 -1       135 5.29193E+01
 -1       136 7.08120E+01
 -1       137 7.08120E+01
 -1       138 6.98828E+01
 -1       139 7.38347E+01
 -1       140 7.59365E+01
 -1       141 7.59365E+01
 -1       142 5.64759E+01
 -1       143 4.86300E+01
 -1       144 6.11279E+01
 -1       145 7.32091E+01
 -1       146 7.32091E+01
 -1       147 7.20141E+01
 -1       148 7.10581E+01
 -1       149 7.20920E+01
 -1       150 7.20920E+01
 -1       151 5.31783E+01
 -1       152 4.97902E+01
 -1       153 5.53067E+01
 -1       154 6.16514E+01
 -1       155 6.58873E+01
 -1       156 6.58873E+01
 -1       157 6.86997E+01
 -1       158 6.86997E+01
 -1       159 4.29329E+01
 -1       160 6.86997E+01
 -1       161 7.47568E+01
 -1       162 6.95364E+01
 -1       163 5.20275E+01
 -1       164 7.02911E+01
 -1       165 7.02911E+01
 -1       166 5.68003E+01
 -1       167 5.29193E+01
 -1       168 7.08120E+01
 -1       169 7.08120E+01
 -1       170 6.44880E+01
 -1       171 6.11096E+01
 -1       172 7.59365E+01
 -1       173 7.59365E+01
 -1       174 5.64759E+01
 -1       175 4.86300E+01
 -1       176 6.11279E+01
 -1       177 7.32091E+01
 -1       178 7.32091E+01
 -1       179 5.26495E+01
 -1       180 7.10581E+01
 -1       181 7.20920E+01
 -1       182 7.20920E+01
 -1       183 5.31783E+01
 -1       184 4.97902E+01
 -1       185 5.53067E+01
 -1       186 6.16514E+01
 -1       187 6.16514E+01
 -1       188 6.08486E+01
 -1       189 6.19989E+01
 -1       190 5.74311E+01
 -1       191 5.74311E+01
 -1       192 6.19989E+01
 -1       193 3.86647E+01
 -1       194 2.95058E+01
 -1       195 2.95058E+01
 -1       196 2.43098E+01
 -1       197 2.35394E+01
 -1       198 2.32186E+01
 -1       199 2.32636E+01
 -1       200 2.33651E+01
 -1       201 2.33651E+01
 -1       202 5.69430E+01
 -1       203 5.69430E+01
 -1       204 2.38326E+01
 -1       205 2.31550E+01
 -1       206 2.31550E+01
 -1       207 2.27085E+01
 -1       208 2.31877E+01
 -1       209 2.31877E+01
 -1       210 2.61753E+01
 -1       211 3.77528E+01
 -1       212 3.77528E+01
 -1       213 2.31140E+01
 -1       214 2.31140E+01
 -1       215 2.28099E+01
 -1       216 2.26949E+01
 -1       217 2.29126E+01
 -1       218 2.29126E+01
 -1       219 2.28652E+01
 -1       220 2.86481E+01
 -1       221 4.74689E+01
 -1       222 3.86647E+01
 -1       223 2.95058E+01
 -1       224 2.95058E+01
 -1       225 2.43098E+01
 -1       226 2.35394E+01
 -1       227 2.32186E+01
 -1       228 2.32636E+01
 -1       229 2.33651E+01
 -1       230 2.33651E+01
 -1       231 5.69430E+01
 -1       232 5.69430E+01
 -1       233 2.38326E+01
 -1       234 2.31550E+01
 -1       235 2.31550E+01
 -1       236 2.27085E+01
 -1       237 2.31877E+01
 -1       238 2.31877E+01
 -1       239 2.61753E+01
 -1       240 3.77528E+01
 -1       241 3.77528E+01
 -1       242 2.31140E+01
 -1       243 2.31140E+01
 -1       244 2.28099E+01
 -1       245 2.26949E+01
 -1       246 2.29126E+01
 -1       247 2.29126E+01
 -1       248 2.28652E+01
 -1       249 2.86481E+01
 -1       250 4.74689E+01
 -1       251 6.19989E+01
 -1       252 6.19989E+01
 -1       253 6.08486E+01
 -1       254 6.16514E+01
 -1       255 6.16514E+01
 -1       256 5.53067E+01
 -1       257 4.97902E+01
 -1       258 5.31783E+01
 -1       259 7.20920E+01
 -1       260 7.20920E+01
 -1       261 7.10581E+01
 -1       262 5.26495E+01
 -1       263 7.32091E+01
 -1       264 7.32091E+01
 -1       265 6.11279E+01
 -1       266 4.86300E+01
 -1       267 5.64759E+01
 -1       268 7.59365E+01
 -1       269 7.59365E+01
 -1       270 6.11096E+01
 -1       271 6.44880E+01
 -1       272 7.08120E+01
 -1       273 7.08120E+01
 -1       274 5.29193E+01
 -1       275 5.68003E+01
 -1       276 7.02911E+01
 -1       277 7.02911E+01
 -1       278 5.20275E+01
 -1       279 6.95364E+01
 -1       280 7.47568E+01
 -1       281 5.74311E+01
 -1       282 5.74311E+01
 -1       283 3.86647E+01
 -1       284 2.95058E+01
 -1       285 2.95058E+01
 -1       286 2.43098E+01
 -1       287 2.35394E+01
 -1       288 2.32186E+01
 -1       289 2.32636E+01
 -1       290 2.33651E+01
 -1       291 2.33651E+01
 -1       292 5.69430E+01
 -1       293 5.69430E+01
 -1       294 2.38326E+01
 -1       295 2.31550E+01
 -1       296 2.31550E+01
 -1       297 2.27085E+01
 -1       298 2.31877E+01
 -1       299 2.31877E+01
 -1       300 2.61753E+01
 -1       301 3.77528E+01
 -1       302 3.77528E+01
 -1       303 2.31140E+01
 -1       304 2.31140E+01
 -1       305 2.28099E+01
 -1       306 2.26949E+01
 -1       307 2.29126E+01
 -1       308 2.29126E+01
 -1       309 2.28652E+01
 -1       310 2.86481E+01
 -1       311 4.74689E+01
 -1       312 6.19989E+01
 -1       313 3.86647E+01
 -1       314 2.95058E+01
 -1       315 2.95058E+01
 -1       316 2.43098E+01
 -1       317 2.35394E+01
 -1       318 2.32186E+01
 -1       319 2.32636E+01
 -1       320 2.33651E+01
 -1       321 2.33651E+01
 -1       322 5.69430E+01
 -1       323 5.69430E+01
 -1       324 2.38326E+01
 -1       325 2.31550E+01
 -1       326 2.31550E+01
 -1       327 2.27085E+01
 -1       328 2.31877E+01
 -1       329 2.31877E+01
 -1       330 2.61753E+01
 -1       331 3.77528E+01
 -1       332 3.77528E+01
 -1       333 2.31140E+01
 -1       334 2.31140E+01
 -1       335 2.28099E+01
 -1       336 2.26949E+01
 -1       337 2.29126E+01
 -1       338 2.29126E+01
 -1       339 2.28652E+01
 -1       340 2.86481E+01
 -1       341 4.74689E+01
 -1       342 6.19989E+01
 -1       343 3.86647E+01
 -1       344 2.95058E+01
 -1       345 2.95058E+01
 -1       346 2.43098E+01
 -1       347 2.35394E+01
 -1       348 2.32186E+01
 -1       349 2.32636E+01
 -1       350 2.33651E+01
 -1       351 2.33651E+01
 -1       352 5.69430E+01
 -1       353 5.69430E+01
 -1       354 2.38326E+01
 -1       355 2.31550E+01
 -1       356 2.31550E+01
 -1       357 2.27085E+01
 -1       358 2.31877E+01
 -1       359 2.31877E+01
 -1       360 2.61753E+01
 -1       361 3.77528E+01
 -1       362 3.77528E+01
 -1       363 2.31140E+01
 -1       364 2.31140E+01
 -1       365 2.28099E+01
 -1       366 2.26949E+01
 -1       367 2.29126E+01
 -1       368 2.29126E+01
 -1       369 2.28652E+01
 -1       370 2.86481E+01
 -1       371 4.74689E+01
 -1       372 3.86647E+01
 -1       373 2.95058E+01
 -1       374 2.95058E+01
 -1       375 2.43098E+01
 -1       376 2.35394E+01
 -1       377 2.32186E+01
 -1       378 2.32636E+01
 -1       379 2.33651E+01
 -1       380 2.33651E+01
 -1       381 5.69430E+01
 -1       382 5.69430E+01
 -1       383 2.38326E+01
 -1       384 2.31550E+01
 -1       385 2.31550E+01
 -1       386 2.27085E+01
 -1       387 2.31877E+01
 -1       388 2.31877E+01
 -1       389 2.61753E+01
 -1       390 3.77528E+01
 -1       391 3.77528E+01
 -1       392 2.31140E+01
 -1       393 2.31140E+01
 -1       394 2.28099E+01
 -1       395 2.26949E+01
 -1       396 2.29126E+01
 -1       397 2.29126E+01
 -1       398 2.28652E+01
 -1       399 2.86481E+01
 -1       400 4.74689E+01
 -1       401 5.74311E+01
 -1       402 5.74311E+01
 -1       403 6.19989E+01
 -1       404 7.47568E+01
 -1       405 6.95364E+01
 -1       406 5.20275E+01
 -1       407 7.02911E+01
 -1       408 7.02911E+01
 -1       409 5.68003E+01
 -1       410 5.29193E+01
 -1       411 7.08120E+01
 -1       412 7.08120E+01
 -1       413 6.44880E+01
 -1       414 6.11096E+01
 -1       415 7.59365E+01
 -1       416 7.59365E+01
 -1       417 5.64759E+01
 -1       418 4.86300E+01
 -1       419 6.11279E+01
 -1       420 7.32091E+01
 -1       421 7.32091E+01
 -1       422 5.26495E+01
 -1       423 7.10581E+01
 -1       424 7.20920E+01
 -1       425 7.20920E+01
 -1       426 5.31783E+01
 -1       427 4.97902E+01
 -1       428 5.53067E+01
 -1       429 6.16514E+01
 -1       430 6.16514E+01
 -1       431 6.08486E+01
 -1       432 6.19989E+01
 -1       433 6.19989E+01
 -1       434 5.74311E+01
 -1       435 5.74311E+01
 -1       436 6.19989E+01
 -1       437 6.08486E+01
 -1       438 6.16514E+01
 -1       439 6.16514E+01
 -1       440 5.53067E+01
 -1       441 4.97902E+01
 -1       442 5.31783E+01
 -1       443 7.20920E+01
 -1       444 7.20920E+01
 -1       445 7.10581E+01
 -1       446 5.26495E+01
 -1       447 7.32091E+01
 -1       448 7.32091E+01
 -1       449 6.11279E+01
 -1       450 4.86300E+01
 -1       451 5.64759E+01
 -1       452 7.59365E+01
 -1       453 7.59365E+01
 -1       454 6.11096E+01
 -1       455 6.44880E+01
 -1       456 7.08120E+01
 -1       457 7.08120E+01
 -1       458 5.29193E+01
 -1       459 5.68003E+01
 -1       460 7.02911E+01
 -1       461 7.02911E+01
 -1       462 5.20275E+01
 -1       463 6.95364E+01
 -1       464 7.47568E+01
 -1       465 6.19989E+01
 -1       466 3.86647E+01
 -1       467 2.95058E+01
 -1       468 2.95058E+01
 -1       469 2.43098E+01
 -1       470 2.35394E+01
 -1       471 2.32186E+01
 -1       472 2.32636E+01
 -1       473 2.33651E+01
 -1       474 2.33651E+01
 -1       475 5.69430E+01
 -1       476 5.69430E+01
 -1       477 2.38326E+01
 -1       478 2.31550E+01
 -1       479 2.31550E+01
 -1       480 2.27085E+01
 -1       481 2.31877E+01
 -1       482 2.31877E+01
 -1       483 2.61753E+01
 -1       484 3.77528E+01
 -1       485 3.77528E+01
 -1       486 2.31140E+01
 -1       487 2.31140E+01
 -1       488 2.28099E+01
 -1       489 2.26949E+01
 -1       490 2.29126E+01
 -1       491 2.29126E+01
 -1       492 2.28652E+01
 -1       493 2.86481E+01
 -1       494 4.74689E+01
 -1       495 3.86647E+01
 -1       496 2.95058E+01
 -1       497 2.95058E+01
 -1       498 2.43098E+01
 -1       499 2.35394E+01
 -1       500 2.32186E+01
 -1       501 2.32636E+01
 -1       502 2.33651E+01
 -1       503 2.33651E+01
 -1       504 5.69430E+01
 -1       505 5.69430E+01
 -1       506 2.38326E+01
 -1       507 2.31550E+01
 -1       508 2.31550E+01
 -1       509 2.27085E+01
 -1       510 2.31877E+01
 -1       511 2.31877E+01
 -1       512 2.61753E+01
 -1       513 3.77528E+01
 -1       514 3.77528E+01
 -1       515 2.31140E+01
 -1       516 2.31140E+01
 -1       517 2.28099E+01
 -1       518 2.26949E+01
 -1       519 2.29126E+01
 -1       520 2.29126E+01
 -1       521 2.28652E+01
 -1       522 2.86481E+01
 -1       523 4.74689E+01
 -1       524 6.19989E+01
 -1       525 7.06138E+01
 -1       526 7.06138E+01
 -1       527 6.94453E+01
 -1       528 6.94453E+01
 -1       529 5.88304E+01
 -1       530 4.90708E+01
 -1       531 4.77621E+01
 -1       532 5.59277E+01
 -1       533 6.98828E+01
 -1       534 6.98828E+01
 -1       535 7.38347E+01
 -1       536 7.38347E+01
 -1       537 5.81199E+01
 -1       538 4.88544E+01
 -1       539 4.31626E+01
 -1       540 5.03572E+01
 -1       541 6.05340E+01
 -1       542 7.20141E+01
 -1       543 7.20141E+01
 -1       544 7.14355E+01
 -1       545 6.81041E+01
 -1       546 5.38875E+01
 -1       547 4.55812E+01
 -1       548 4.14999E+01
 -1       549 4.69548E+01
 -1       550 5.62505E+01
 -1       551 6.58873E+01
 -1       552 6.58873E+01
 -1       553 6.86997E+01
 -1       554 4.22918E+01
 -1       555 4.22918E+01
 -1       556 4.30549E+01
 -1       557 4.30549E+01
 -1       558 3.71918E+01
 -1       559 3.35435E+01
 -1       560 3.44011E+01
 -1       561 3.81060E+01
 -1       562 4.79069E+01
 -1       563 6.53241E+01
 -1       564 6.53241E+01
 -1       565 5.47059E+01
 -1       566 3.90545E+01
 -1       567 3.47903E+01
 -1       568 3.21743E+01
 -1       569 3.53226E+01
 -1       570 4.00081E+01
 -1       571 5.78738E+01
 -1       572 7.14355E+01
 -1       573 7.14355E+01
 -1       574 4.62184E+01
 -1       575 3.67949E+01
 -1       576 3.31028E+01
 -1       577 3.25409E+01
 -1       578 3.52807E+01
 -1       579 4.19734E+01
 -1       580 4.19734E+01
 -1       581 4.45001E+01
 -1       582 4.45001E+01
 -1       583 7.06138E+01
 -1       584 7.06138E+01
 -1       585 6.94453E+01
 -1       586 6.94453E+01
 -1       587 5.88304E+01
 -1       588 4.90708E+01
 -1       589 4.77621E+01
 -1       590 5.59277E+01
 -1       591 6.98828E+01
 -1       592 6.98828E+01
 -1       593 7.38347E+01
 -1       594 7.38347E+01
 -1       595 5.81199E+01
 -1       596 4.88544E+01
 -1       597 4.31626E+01
 -1       598 5.03572E+01
 -1       599 6.05340E+01
 -1       600 7.20141E+01
 -1       601 7.20141E+01
 -1       602 7.14355E+01
 -1       603 6.81041E+01
 -1       604 5.38875E+01
 -1       605 4.55812E+01
 -1       606 4.14999E+01
 -1       607 4.69548E+01
 -1       608 5.62505E+01
 -1       609 6.58873E+01
 -1       610 6.58873E+01
 -1       611 6.86997E+01
 -1       612 7.06138E+01
 -1       613 7.06138E+01
 -1       614 6.94453E+01
 -1       615 6.94453E+01
 -1       616 5.88304E+01
 -1       617 4.90708E+01
 -1       618 4.77621E+01
 -1       619 5.59277E+01
 -1       620 6.98828E+01
 -1       621 6.98828E+01
 -1       622 7.38347E+01
 -1       623 7.38347E+01
 -1       624 5.81199E+01
 -1       625 4.88544E+01
 -1       626 4.31626E+01
 -1       627 5.03572E+01
 -1       628 6.05340E+01
 -1       629 7.20141E+01
 -1       630 7.20141E+01
 -1       631 7.14355E+01
 -1       632 6.81041E+01
 -1       633 5.38875E+01
 -1       634 4.55812E+01
 -1       635 4.14999E+01
 -1       636 4.69548E+01
 -1       637 5.62505E+01
 -1       638 6.58873E+01
 -1       639 6.58873E+01
 -1       640 6.86997E+01
 -1       641 4.22918E+01
 -1       642 4.22918E+01
 -1       643 4.30549E+01
 -1       644 4.30549E+01
 -1       645 3.71918E+01
 -1       646 3.35435E+01
 -1       647 3.44011E+01
 -1       648 3.81060E+01
 -1       649 4.79069E+01
 -1       650 6.53241E+01
 -1       651 6.53241E+01
 -1       652 5.47059E+01
 -1       653 3.90545E+01
 -1       654 3.47903E+01
 -1       655 3.21743E+01
 -1       656 3.53226E+01
 -1       657 4.00081E+01
 -1       658 5.78738E+01
 -1       659 7.14355E+01
 -1       660 7.14355E+01
 -1       661 4.62184E+01
 -1       662 3.67949E+01
 -1       663 3.31028E+01
 -1       664 3.25409E+01
 -1       665 3.52807E+01
 -1       666 4.19734E+01
 -1       667 4.19734E+01
 -1       668 4.45001E+01
 -1       669 4.45001E+01
 -1       670 7.06138E+01
 -1       671 7.06138E+01
 -1       672 6.94453E+01
 -1       673 6.94453E+01
 -1       674 5.88304E+01
 -1       675 4.90708E+01
 -1       676 4.77621E+01
 -1       677 5.59277E+01
 -1       678 6.98828E+01
 -1       679 6.98828E+01
 -1       680 7.38347E+01
 -1       681 7.38347E+01
 -1       682 5.81199E+01
 -1       683 4.88544E+01
 -1       684 4.31626E+01
 -1       685 5.03572E+01
 -1       686 6.05340E+01
 -1       687 7.20141E+01
 -1       688 7.20141E+01
 -1       689 7.14355E+01
 -1       690 6.81041E+01
 -1       691 5.38875E+01
 -1       692 4.55812E+01
 -1       693 4.14999E+01
 -1       694 4.69548E+01
 -1       695 5.62505E+01
 -1       696 6.58873E+01
 -1       697 6.58873E+01
 -1       698 6.86997E+01
 -1       699 5.74311E+01
 -1       700 4.55839E+01
 -1       701 4.55839E+01
 -1       702 5.41245E+01
 -1       703 5.41245E+01
 -1       704 5.29393E+01
 -1       705 5.29193E+01
 -1       706 5.59144E+01
 -1       707 5.59144E+01
 -1       708 5.69430E+01
 -1       709 5.69430E+01
 -1       710 5.56892E+01
 -1       711 5.56892E+01
 -1       712 5.45317E+01
 -1       713 4.86300E+01
 -1       714 5.47791E+01
 -1       715 5.47791E+01
 -1       716 5.44619E+01
 -1       717 3.77528E+01
 -1       718 4.98597E+01
 -1       719 5.57619E+01
 -1       720 5.57619E+01
 -1       721 5.29039E+01
 -1       722 4.97902E+01
 -1       723 5.53067E+01
 -1       724 5.65226E+01
 -1       725 5.69071E+01
 -1       726 5.69071E+01
 -1       727 6.19989E+01
 -1       728 5.74311E+01
 -1       729 4.55839E+01
 -1       730 4.55839E+01
 -1       731 5.41245E+01
 -1       732 5.41245E+01
 -1       733 5.29393E+01
 -1       734 5.29193E+01
 -1       735 5.59144E+01
 -1       736 5.59144E+01
 -1       737 5.69430E+01
 -1       738 5.69430E+01
 -1       739 5.56892E+01
 -1       740 5.56892E+01
 -1       741 5.45317E+01
 -1       742 4.86300E+01
 -1       743 5.47791E+01
 -1       744 5.47791E+01
 -1       745 5.44619E+01
 -1       746 3.77528E+01
 -1       747 4.98597E+01
 -1       748 5.57619E+01
 -1       749 5.57619E+01
 -1       750 5.29039E+01
 -1       751 4.97902E+01
 -1       752 5.53067E+01
 -1       753 5.65226E+01
 -1       754 5.69071E+01
 -1       755 5.69071E+01
 -1       756 6.19989E+01
 -1       757 5.74311E+01
 -1       758 4.55839E+01
 -1       759 4.55839E+01
 -1       760 5.41245E+01
 -1       761 5.41245E+01
 -1       762 5.29393E+01
 -1       763 5.29193E+01
 -1       764 5.59144E+01
 -1       765 5.59144E+01
 -1       766 5.69430E+01
 -1       767 5.69430E+01
 -1       768 5.56892E+01
 -1       769 5.56892E+01
 -1       770 5.45317E+01
 -1       771 4.86300E+01
 -1       772 5.47791E+01
 -1       773 5.47791E+01
 -1       774 5.44619E+01
 -1       775 3.77528E+01
 -1       776 4.98597E+01
 -1       777 5.57619E+01
 -1       778 5.57619E+01
 -1       779 5.29039E+01
 -1       780 4.97902E+01
 -1       781 5.53067E+01
 -1       782 5.65226E+01
 -1       783 5.69071E+01
 -1       784 5.69071E+01
 -1       785 6.19989E+01
 -1       786 5.74311E+01
 -1       787 4.55839E+01
 -1       788 4.55839E+01
 -1       789 5.41245E+01
 -1       790 5.41245E+01
 -1       791 5.29393E+01
 -1       792 5.29193E+01
 -1       793 5.59144E+01
 -1       794 5.59144E+01
 -1       795 5.69430E+01
 -1       796 5.69430E+01
 -1       797 5.56892E+01
 -1       798 5.56892E+01
 -1       799 5.45317E+01
 -1       800 4.86300E+01
 -1       801 5.47791E+01
 -1       802 5.47791E+01
 -1       803 5.44619E+01
 -1       804 3.77528E+01
 -1       805 4.98597E+01
 -1       806 5.57619E+01
 -1       807 5.57619E+01
 -1       808 5.29039E+01
 -1       809 4.97902E+01
 -1       810 5.53067E+01
 -1       811 5.65226E+01
 -1       812 5.69071E+01
 -1       813 5.69071E+01
 -1       814 6.19989E+01
 -1       815 5.74311E+01
 -1       816 4.55839E+01
 -1       817 4.55839E+01
 -1       818 5.41245E+01
 -1       819 5.41245E+01
 -1       820 5.29393E+01
 -1       821 5.29193E+01
 -1       822 5.59144E+01
 -1       823 5.59144E+01
 -1       824 5.69430E+01
 -1       825 5.69430E+01
 -1       826 5.56892E+01
 -1       827 5.56892E+01
 -1       828 5.45317E+01
 -1       829 4.86300E+01
 -1       830 5.47791E+01
 -1       831 5.47791E+01
 -1       832 5.44619E+01
 -1       833 3.77528E+01
 -1       834 4.98597E+01
 -1       835 5.57619E+01
 -1       836 5.57619E+01
 -1       837 5.29039E+01
 -1       838 4.97902E+01
 -1       839 5.53067E+01
 -1       840 5.65226E+01
 -1       841 5.69071E+01
 -1       842 5.69071E+01
 -1       843 6.19989E+01
 -1       844 5.74311E+01
 -1       845 4.55839E+01
 -1       846 4.55839E+01
 -1       847 5.41245E+01
 -1       848 5.41245E+01
 -1       849 5.29393E+01
 -1       850 5.29193E+01
 -1       851 5.59144E+01
 -1       852 5.59144E+01
 -1       853 5.69430E+01
 -1       854 5.69430E+01
 -1       855 5.56892E+01
 -1       856 5.56892E+01
 -1       857 5.45317E+01
 -1       858 4.86300E+01
 -1       859 5.47791E+01
 -1       860 5.47791E+01
 -1       861 5.44619E+01
 -1       862 3.77528E+01
 -1       863 4.98597E+01
 -1       864 5.57619E+01
 -1       865 5.57619E+01
 -1       866 5.29039E+01
 -1       867 4.97902E+01
 -1       868 5.53067E+01
 -1       869 5.65226E+01
 -1       870 5.69071E+01
 -1       871 5.69071E+01
 -1       872 6.19989E+01
 -1       873 6.19989E+01
 -1       874 5.69071E+01
 -1       875 5.69071E+01
 -1       876 5.65226E+01
 -1       877 5.53067E+01
 -1       878 4.97902E+01
 -1       879 5.29039E+01
 -1       880 5.57619E+01
 -1       881 5.57619E+01
 -1       882 4.98597E+01
 -1       883 3.77528E+01
 -1       884 5.44619E+01
 -1       885 5.47791E+01
 -1       886 5.47791E+01
 -1       887 4.86300E+01
 -1       888 5.45317E+01
 -1       889 5.56892E+01
 -1       890 5.56892E+01
 -1       891 5.69430E+01
 -1       892 5.69430E+01
 -1       893 5.59144E+01
 -1       894 5.59144E+01
 -1       895 5.29193E+01
 -1       896 5.29393E+01
 -1       897 5.41245E+01
 -1       898 5.41245E+01
 -1       899 4.55839E+01
 -1       900 4.55839E+01
 -1       901 5.74311E+01
 -1       902 5.74311E+01
 -1       903 4.55839E+01
 -1       904 4.55839E+01
 -1       905 5.41245E+01
 -1       906 5.41245E+01
 -1       907 5.29393E+01
 -1       908 5.29193E+01
 -1       909 5.59144E+01
 -1       910 5.59144E+01
 -1       911 5.69430E+01
 -1       912 5.69430E+01
 -1       913 5.56892E+01
 -1       914 5.56892E+01
 -1       915 5.45317E+01
 -1       916 4.86300E+01
 -1       917 5.47791E+01
 -1       918 5.47791E+01
 -1       919 5.44619E+01
 -1       920 3.77528E+01
 -1       921 4.98597E+01
 -1       922 5.57619E+01
 -1       923 5.57619E+01
 -1       924 5.29039E+01
 -1       925 4.97902E+01
 -1       926 5.53067E+01
 -1       927 5.65226E+01
 -1       928 5.69071E+01
 -1       929 5.69071E+01
 -1       930 6.19989E+01
 -3
    1PSTEP                        41           1           1          
    1PGM                1.000000E+00                                  
    1PGK                1.079833E+07                                  
    1PHID                         -1                                  
    1PSUBC                         0                                  
    1PMODE                        11                                  
  100CL  111 522.9960966         930                     2   11MODAL      1
 -4  DISP        4    1
 -5  D1          1    2    1    0
 -5  D2          1    2    2    0
 -5  D3          1    2    3    0
 -5  ALL         1    2    0    0    1ALL
 -1         1 0.00000E+00 0.00000E+00 0.00000E+00
 -1         2 0.00000E+00 0.00000E+00 0.00000E+00
 -1         3 2.40478E-03 1.54087E-01-3.42898E-03
 -1         4-2.40478E-03 1.54087E-01 3.42898E-03
 -1         5 0.00000E+00 0.00000E+00 0.00000E+00
 -1         6 0.00000E+00 0.00000E+00 0.00000E+00
 -1         7-2.40478E-03-1.54087E-01-3.42898E-03
 -1         8 2.40478E-03-1.54087E-01 3.42898E-03
 -1         9 0.00000E+00 0.00000E+00 0.00000E+00
 -1        10 2.32486E-03 1.64724E-01-3.41969E-03
 -1        11 0.00000E+00 0.00000E+00 0.00000E+00
 -1        12 0.00000E+00 0.00000E+00 0.00000E+00
 -1        13 4.94049E-02 1.64709E-01-7.06253E-02
 -1        14 5.23666E-02 1.54244E-01-7.06331E-02
 -1        15 0.00000E+00 0.00000E+00 0.00000E+00
 -1        16-2.32486E-03-1.64724E-01-3.41969E-03
 -1        17 0.00000E+00 0.00000E+00 0.00000E+00
 -1        18 0.00000E+00 0.00000E+00 0.00000E+00
 -1        19-5.23666E-02-1.54244E-01-7.06331E-02
 -1        20-4.94049E-02-1.64709E-01-7.06253E-02
 -1        21 0.00000E+00 0.00000E+00 0.00000E+00
 -1        22 0.00000E+00 0.00000E+00 0.00000E+00
 -1        23-4.94049E-02 1.64709E-01 7.06253E-02
 -1        24-5.23666E-02 1.54244E-01 7.06331E-02
 -1        25 0.00000E+00 0.00000E+00 0.00000E+00
 -1        26-2.32486E-03 1.64724E-01 3.41969E-03
 -1        27 0.00000E+00 0.00000E+00 0.00000E+00
 -1        28 0.00000E+00 0.00000E+00 0.00000E+00
 -1        29 0.00000E+00 0.00000E+00 0.00000E+00
 -1        30 2.32486E-03-1.64724E-01 3.41969E-03
 -1        31 4.94049E-02-1.64709E-01 7.06253E-02
 -1        32 5.23666E-02-1.54244E-01 7.06331E-02
 -1        33 7.91789E-04-1.19504E-02-3.00575E-04
 -1        34 1.14208E-03-3.63719E-02-8.62663E-04
 -1        35 1.20995E-03-6.54914E-02-1.54596E-03
 -1        36 1.00453E-03-9.26199E-02-2.18264E-03
 -1        37 5.94891E-04-1.12227E-01-2.63836E-03
 -1        38 5.29332E-05-1.20315E-01-2.82274E-03
 -1        39-5.32693E-04-1.14837E-01-2.69084E-03
 -1        40-1.07414E-03-9.58257E-02-2.24395E-03
 -1        41-1.49219E-03-6.53049E-02-1.52911E-03
 -1        42-1.72636E-03-2.69595E-02-6.32084E-04
 -1        43-1.74205E-03 1.43946E-02 3.34855E-04
 -1        44-1.53463E-03 5.34761E-02 1.24848E-03
 -1        45-1.12974E-03 8.52570E-02 1.99141E-03
 -1        46-5.79702E-04 1.05642E-01 2.46800E-03
 -1        47 4.35390E-05 1.12019E-01 2.61729E-03
 -1        48 6.57966E-04 1.03617E-01 2.42127E-03
 -1        49 1.18234E-03 8.16134E-02 1.90747E-03
 -1        50 1.54690E-03 4.89882E-02 1.14554E-03
 -1        51 1.70248E-03 1.01412E-02 2.38304E-04
 -1        52 1.62687E-03-2.96774E-02-6.91480E-04
 -1        53 1.32756E-03-6.50435E-02-1.51688E-03
 -1        54 8.40405E-04-9.10537E-02-2.12289E-03
 -1        55 2.24450E-04-1.03943E-01-2.42078E-03
 -1        56-4.46558E-04-1.01539E-01-2.35889E-03
 -1        57-1.09494E-03-8.34847E-02-1.92872E-03
 -1        58-1.65089E-03-5.11956E-02-1.16625E-03
 -1        59-2.06308E-03-7.54162E-03-1.46981E-04
 -1        60-2.31118E-03 4.37226E-02 1.02576E-03
 -1        61-2.39830E-03 9.86778E-02 2.24860E-03
 -1        62-7.91789E-04-1.19504E-02 3.00575E-04
 -1        63-1.14208E-03-3.63719E-02 8.62663E-04
 -1        64-1.20995E-03-6.54914E-02 1.54596E-03
 -1        65-1.00453E-03-9.26199E-02 2.18264E-03
 -1        66-5.94891E-04-1.12227E-01 2.63836E-03
 -1        67-5.29332E-05-1.20315E-01 2.82274E-03
 -1        68 5.32693E-04-1.14837E-01 2.69084E-03
 -1        69 1.07414E-03-9.58257E-02 2.24395E-03
 -1        70 1.49219E-03-6.53049E-02 1.52911E-03
 -1        71 1.72636E-03-2.69595E-02 6.32084E-04
 -1        72 1.74205E-03 1.43946E-02-3.34855E-04
 -1        73 1.53463E-03 5.34761E-02-1.24848E-03
 -1        74 1.12974E-03 8.52570E-02-1.99141E-03
 -1        75 5.79702E-04 1.05642E-01-2.46800E-03
 -1        76-4.35390E-05 1.12019E-01-2.61729E-03
 -1        77-6.57966E-04 1.03617E-01-2.42127E-03
 -1        78-1.18234E-03 8.16134E-02-1.90747E-03
 -1        79-1.54690E-03 4.89882E-02-1.14554E-03
 -1        80-1.70248E-03 1.01412E-02-2.38304E-04
 -1        81-1.62687E-03-2.96774E-02 6.91480E-04
 -1        82-1.32756E-03-6.50435E-02 1.51688E-03
 -1        83-8.40405E-04-9.10537E-02 2.12289E-03
 -1        84-2.24450E-04-1.03943E-01 2.42078E-03
 -1        85 4.46558E-04-1.01539E-01 2.35889E-03
 -1        86 1.09494E-03-8.34847E-02 1.92872E-03
 -1        87 1.65089E-03-5.11956E-02 1.16625E-03
 -1        88 2.06308E-03-7.54162E-03 1.46981E-04
 -1        89 2.31118E-03 4.37226E-02-1.02576E-03
 -1        90 2.39830E-03 9.86778E-02-2.24860E-03
 -1        91 0.00000E+00 0.00000E+00 0.00000E+00
 -1        92 0.00000E+00 0.00000E+00 0.00000E+00
 -1        93 0.00000E+00 0.00000E+00 0.00000E+00
 -1        94 0.00000E+00 0.00000E+00 0.00000E+00
 -1        95 0.00000E+00 0.00000E+00 0.00000E+00
 -1        96 0.00000E+00 0.00000E+00 0.00000E+00
 -1        97 7.91789E-04 1.19504E-02 3.00575E-04
 -1        98 1.14208E-03 3.63719E-02 8.62663E-04
 -1        99 1.20995E-03 6.54914E-02 1.54596E-03
 -1       100 1.00453E-03 9.26199E-02 2.18264E-03
 -1       101 5.94891E-04 1.12227E-01 2.63836E-03
 -1       102 5.29332E-05 1.20315E-01 2.82274E-03
 -1       103-5.32693E-04 1.14837E-01 2.69084E-03
 -1       104-1.07414E-03 9.58257E-02 2.24395E-03
 -1       105-1.49219E-03 6.53049E-02 1.52911E-03
 -1       106-1.72636E-03 2.69595E-02 6.32084E-04
 -1       107-1.74205E-03-1.43946E-02-3.34855E-04
 -1       108-1.53463E-03-5.34761E-02-1.24848E-03
 -1       109-1.12974E-03-8.52570E-02-1.99141E-03
 -1       110-5.79702E-04-1.05642E-01-2.46800E-03
 -1       111 4.35390E-05-1.12019E-01-2.61729E-03
 -1       112 6.57966E-04-1.03617E-01-2.42127E-03
 -1       113 1.18234E-03-8.16134E-02-1.90747E-03
 -1       114 1.54690E-03-4.89882E-02-1.14554E-03
 -1       115 1.70248E-03-1.01412E-02-2.38304E-04
 -1       116 1.62687E-03 2.96774E-02 6.91480E-04
 -1       117 1.32756E-03 6.50435E-02 1.51688E-03
 -1       118 8.40405E-04 9.10537E-02 2.12289E-03
 -1       119 2.24450E-04 1.03943E-01 2.42078E-03
 -1       120-4.46558E-04 1.01539E-01 2.35889E-03
 -1       121-1.09494E-03 8.34847E-02 1.92872E-03
 -1       122-1.65089E-03 5.11956E-02 1.16625E-03
 -1       123-2.06308E-03 7.54162E-03 1.46981E-04
 -1       124-2.31118E-03-4.37226E-02-1.02576E-03
 -1       125-2.39830E-03-9.86778E-02-2.24860E-03
 -1       126 1.23470E-03 7.85951E-02-3.55057E-03
 -1       127-1.17632E-12 9.40581E-13-3.65187E-03
 -1       128-1.23470E-03-7.85951E-02-3.55057E-03
 -1       129-7.91789E-04 1.19504E-02-3.00575E-04
 -1       130-1.14208E-03 3.63719E-02-8.62663E-04
 -1       131-1.20995E-03 6.54914E-02-1.54596E-03
 -1       132-1.00453E-03 9.26199E-02-2.18264E-03
 -1       133-5.94891E-04 1.12227E-01-2.63836E-03
 -1       134-5.29332E-05 1.20315E-01-2.82274E-03
 -1       135 5.32693E-04 1.14837E-01-2.69084E-03
 -1       136 1.07414E-03 9.58257E-02-2.24395E-03
 -1       137 1.49219E-03 6.53049E-02-1.52911E-03
 -1       138 1.72636E-03 2.69595E-02-6.32084E-04
 -1       139 1.74205E-03-1.43946E-02 3.34855E-04
 -1       140 1.53463E-03-5.34761E-02 1.24848E-03
 -1       141 1.12974E-03-8.52570E-02 1.99141E-03
 -1       142 5.79702E-04-1.05642E-01 2.46800E-03
 -1       143-4.35390E-05-1.12019E-01 2.61729E-03
 -1       144-6.57966E-04-1.03617E-01 2.42127E-03
 -1       145-1.18234E-03-8.16134E-02 1.90747E-03
 -1       146-1.54690E-03-4.89882E-02 1.14554E-03
 -1       147-1.70248E-03-1.01412E-02 2.38304E-04
 -1       148-1.62687E-03 2.96774E-02-6.91480E-04
 -1       149-1.32756E-03 6.50435E-02-1.51688E-03
 -1       150-8.40405E-04 9.10537E-02-2.12289E-03
 -1       151-2.24450E-04 1.03943E-01-2.42078E-03
 -1       152 4.46558E-04 1.01539E-01-2.35889E-03
 -1       153 1.09494E-03 8.34847E-02-1.92872E-03
 -1       154 1.65089E-03 5.11956E-02-1.16625E-03
 -1       155 2.06308E-03 7.54162E-03-1.46981E-04
 -1       156 2.31118E-03-4.37226E-02 1.02576E-03
 -1       157 2.39830E-03-9.86778E-02 2.24860E-03
 -1       158 1.23470E-03-7.85951E-02 3.55057E-03
 -1       159-1.20136E-12 9.41330E-13 3.65187E-03
 -1       160-1.23470E-03 7.85951E-02 3.55057E-03
 -1       161-5.39881E-04-1.28725E-02 2.83607E-04
 -1       162-9.38062E-04-3.92050E-02 8.85509E-04
 -1       163-1.01974E-03-7.05778E-02 1.57317E-03
 -1       164-8.55385E-04-9.97658E-02 2.22047E-03
 -1       165-5.01694E-04-1.20837E-01 2.68006E-03
 -1       166-2.48744E-05-1.29509E-01 2.86533E-03
 -1       167 4.94100E-04-1.23591E-01 2.73016E-03
 -1       168 9.75412E-04-1.03121E-01 2.27620E-03
 -1       169 1.34738E-03-7.02760E-02 1.55104E-03
 -1       170 1.55530E-03-2.90172E-02 6.41488E-04
 -1       171 1.56781E-03 1.54757E-02-3.38764E-04
 -1       172 1.38057E-03 5.75224E-02-1.26490E-03
 -1       173 1.01646E-03 9.17144E-02-2.01799E-03
 -1       174 5.22360E-04 1.13646E-01-2.50113E-03
 -1       175-3.71935E-05 1.20509E-01-2.65255E-03
 -1       176-5.88599E-04 1.11472E-01-2.45400E-03
 -1       177-1.05892E-03 8.78026E-02-1.93340E-03
 -1       178-1.38549E-03 5.27072E-02-1.16135E-03
 -1       179-1.52410E-03 1.09188E-02-2.42073E-04
 -1       180-1.45470E-03-3.19137E-02 6.99997E-04
 -1       181-1.18380E-03-6.99539E-02 1.53613E-03
 -1       182-7.43328E-04-9.79242E-02 2.14962E-03
 -1       183-1.85879E-04-1.11769E-01 2.45026E-03
 -1       184 4.22949E-04-1.09146E-01 2.38538E-03
 -1       185 1.01438E-03-8.96712E-02 1.94633E-03
 -1       186 1.52708E-03-5.48830E-02 1.17046E-03
 -1       187 1.91726E-03-7.91801E-03 1.36992E-04
 -1       188 2.16765E-03 4.70755E-02-1.04297E-03
 -1       189 2.28919E-03 1.05792E-01-2.25530E-03
 -1       190 0.00000E+00 0.00000E+00 0.00000E+00
 -1       191 0.00000E+00 0.00000E+00 0.00000E+00
 -1       192 2.56945E-02 1.64699E-01-3.72346E-02
 -1       193-1.27687E-02-1.46428E-02 5.61340E-03
 -1       194-2.05562E-02-3.98952E-02 1.91246E-02
 -1       195-2.22288E-02-7.05132E-02 3.45988E-02
 -1       196-1.86571E-02-9.90861E-02 4.86663E-02
 -1       197-1.09530E-02-1.19703E-01 5.86205E-02
 -1       198-6.48879E-04-1.28135E-01 6.25851E-02
 -1       199 1.05560E-02-1.22203E-01 5.95811E-02
 -1       200 2.09394E-02-1.01934E-01 4.96501E-02
 -1       201 2.89625E-02-6.94692E-02 3.38292E-02
 -1       202 3.34492E-02-2.87129E-02 1.40040E-02
 -1       203 3.37263E-02 1.52267E-02-7.35460E-03
 -1       204 2.97012E-02 5.67457E-02-2.75312E-02
 -1       205 2.18672E-02 9.05076E-02-4.39375E-02
 -1       206 1.12337E-02 1.12165E-01-5.44641E-02
 -1       207-8.09905E-04 1.18948E-01-5.77661E-02
 -1       208-1.26793E-02 1.10037E-01-5.34467E-02
 -1       209-2.28046E-02 8.66847E-02-4.21141E-02
 -1       210-2.98372E-02 5.20561E-02-2.53060E-02
 -1       211-3.28258E-02 1.08250E-02-5.29262E-03
 -1       212-3.13395E-02-3.14308E-02 1.52149E-02
 -1       213-2.55197E-02-6.89474E-02 3.34097E-02
 -1       214-1.60550E-02-9.65115E-02 4.67419E-02
 -1       215-4.07978E-03-1.10114E-01 5.32336E-02
 -1       216 8.99142E-03-1.07434E-01 5.17223E-02
 -1       217 2.16744E-02-8.80811E-02 4.20189E-02
 -1       218 3.26457E-02-5.35615E-02 2.49803E-02
 -1       219 4.09640E-02-6.95974E-03 2.49981E-03
 -1       220 4.62398E-02 4.76480E-02-2.26822E-02
 -1       221 4.87374E-02 1.06005E-01-4.76138E-02
 -1       222-1.41849E-02-1.37756E-02 6.28202E-03
 -1       223-2.25419E-02-3.69927E-02 1.92731E-02
 -1       224-2.42329E-02-6.52661E-02 3.45569E-02
 -1       225-2.02810E-02-9.17238E-02 4.83945E-02
 -1       226-1.18973E-02-1.10846E-01 5.82009E-02
 -1       227-7.22439E-04-1.18685E-01 6.20859E-02
 -1       228 1.14154E-02-1.13210E-01 5.90816E-02
 -1       229 2.26591E-02-9.44415E-02 4.92246E-02
 -1       230 3.13465E-02-6.43641E-02 3.35400E-02
 -1       231 3.62054E-02-2.65986E-02 1.38935E-02
 -1       232 3.65068E-02 1.41194E-02-7.26894E-03
 -1       233 3.21505E-02 5.25952E-02-2.72587E-02
 -1       234 2.36703E-02 8.38827E-02-4.35127E-02
 -1       235 1.21592E-02 1.03953E-01-5.39423E-02
 -1       236-8.78922E-04 1.10237E-01-5.72157E-02
 -1       237-1.37287E-02 1.01978E-01-5.29404E-02
 -1       238-2.46908E-02 8.03334E-02-4.17190E-02
 -1       239-3.23052E-02 4.82389E-02-2.50750E-02
 -1       240-3.55422E-02 1.00252E-02-5.25744E-03
 -1       241-3.39349E-02-2.91388E-02 1.50476E-02
 -1       242-2.76358E-02-6.39129E-02 3.30591E-02
 -1       243-1.73889E-02-8.94683E-02 4.62502E-02
 -1       244-4.42142E-03-1.02095E-01 5.26596E-02
 -1       245 9.73305E-03-9.96480E-02 5.11333E-02
 -1       246 2.34562E-02-8.17659E-02 4.14804E-02
 -1       247 3.52860E-02-4.98248E-02 2.45460E-02
 -1       248 4.41508E-02-6.61869E-03 2.20172E-03
 -1       249 4.95820E-02 4.42032E-02-2.28397E-02
 -1       250 5.18760E-02 9.88178E-02-4.76642E-02
 -1       251 2.73783E-02 1.54147E-01-3.72391E-02
 -1       252-2.28919E-03-1.05792E-01-2.25530E-03
 -1       253-2.16765E-03-4.70755E-02-1.04297E-03
 -1       254-1.91726E-03 7.91801E-03 1.36992E-04
 -1       255-1.52708E-03 5.48830E-02 1.17046E-03
 -1       256-1.01438E-03 8.96712E-02 1.94633E-03
 -1       257-4.22949E-04 1.09146E-01 2.38538E-03
 -1       258 1.85879E-04 1.11769E-01 2.45026E-03
 -1       259 7.43328E-04 9.79242E-02 2.14962E-03
 -1       260 1.18380E-03 6.99539E-02 1.53613E-03
 -1       261 1.45470E-03 3.19137E-02 6.99997E-04
 -1       262 1.52410E-03-1.09188E-02-2.42073E-04
 -1       263 1.38549E-03-5.27072E-02-1.16135E-03
 -1       264 1.05892E-03-8.78026E-02-1.93340E-03
 -1       265 5.88599E-04-1.11472E-01-2.45400E-03
 -1       266 3.71935E-05-1.20509E-01-2.65255E-03
 -1       267-5.22360E-04-1.13646E-01-2.50113E-03
 -1       268-1.01646E-03-9.17144E-02-2.01799E-03
 -1       269-1.38057E-03-5.75224E-02-1.26490E-03
 -1       270-1.56781E-03-1.54757E-02-3.38764E-04
 -1       271-1.55530E-03 2.90172E-02 6.41488E-04
 -1       272-1.34738E-03 7.02760E-02 1.55104E-03
 -1       273-9.75412E-04 1.03121E-01 2.27620E-03
 -1       274-4.94100E-04 1.23591E-01 2.73016E-03
 -1       275 2.48744E-05 1.29509E-01 2.86533E-03
 -1       276 5.01694E-04 1.20837E-01 2.68006E-03
 -1       277 8.55385E-04 9.97658E-02 2.22047E-03
 -1       278 1.01974E-03 7.05778E-02 1.57317E-03
 -1       279 9.38062E-04 3.92050E-02 8.85509E-04
 -1       280 5.39881E-04 1.28725E-02 2.83607E-04
 -1       281 0.00000E+00 0.00000E+00 0.00000E+00
 -1       282 0.00000E+00 0.00000E+00 0.00000E+00
 -1       283 1.41849E-02 1.37756E-02 6.28202E-03
 -1       284 2.25419E-02 3.69927E-02 1.92731E-02
 -1       285 2.42329E-02 6.52661E-02 3.45569E-02
 -1       286 2.02810E-02 9.17238E-02 4.83945E-02
 -1       287 1.18973E-02 1.10846E-01 5.82009E-02
 -1       288 7.22439E-04 1.18685E-01 6.20859E-02
 -1       289-1.14154E-02 1.13210E-01 5.90816E-02
 -1       290-2.26591E-02 9.44415E-02 4.92246E-02
 -1       291-3.13465E-02 6.43641E-02 3.35400E-02
 -1       292-3.62054E-02 2.65986E-02 1.38935E-02
 -1       293-3.65068E-02-1.41194E-02-7.26894E-03
 -1       294-3.21505E-02-5.25952E-02-2.72587E-02
 -1       295-2.36703E-02-8.38827E-02-4.35127E-02
 -1       296-1.21592E-02-1.03953E-01-5.39423E-02
 -1       297 8.78922E-04-1.10237E-01-5.72157E-02
 -1       298 1.37287E-02-1.01978E-01-5.29404E-02
 -1       299 2.46908E-02-8.03334E-02-4.17190E-02
 -1       300 3.23052E-02-4.82389E-02-2.50750E-02
 -1       301 3.55422E-02-1.00252E-02-5.25744E-03
 -1       302 3.39349E-02 2.91388E-02 1.50476E-02
 -1       303 2.76358E-02 6.39129E-02 3.30591E-02
 -1       304 1.73889E-02 8.94683E-02 4.62502E-02
 -1       305 4.42142E-03 1.02095E-01 5.26596E-02
 -1       306-9.73305E-03 9.96480E-02 5.11333E-02
 -1       307-2.34562E-02 8.17659E-02 4.14804E-02
 -1       308-3.52860E-02 4.98248E-02 2.45460E-02
 -1       309-4.41508E-02 6.61869E-03 2.20172E-03
 -1       310-4.95820E-02-4.42032E-02-2.28397E-02
 -1       311-5.18760E-02-9.88178E-02-4.76642E-02
 -1       312-2.73783E-02-1.54147E-01-3.72391E-02
 -1       313 1.27687E-02 1.46428E-02 5.61340E-03
 -1       314 2.05562E-02 3.98952E-02 1.91246E-02
 -1       315 2.22288E-02 7.05132E-02 3.45988E-02
 -1       316 1.86571E-02 9.90861E-02 4.86663E-02
 -1       317 1.09530E-02 1.19703E-01 5.86205E-02
 -1       318 6.48879E-04 1.28135E-01 6.25851E-02
 -1       319-1.05560E-02 1.22203E-01 5.95811E-02
 -1       320-2.09394E-02 1.01934E-01 4.96501E-02
 -1       321-2.89625E-02 6.94692E-02 3.38292E-02
 -1       322-3.34492E-02 2.87129E-02 1.40040E-02
 -1       323-3.37263E-02-1.52267E-02-7.35460E-03
 -1       324-2.97012E-02-5.67457E-02-2.75312E-02
 -1       325-2.18672E-02-9.05076E-02-4.39375E-02
 -1       326-1.12337E-02-1.12165E-01-5.44641E-02
 -1       327 8.09905E-04-1.18948E-01-5.77661E-02
 -1       328 1.26793E-02-1.10037E-01-5.34467E-02
 -1       329 2.28046E-02-8.66847E-02-4.21141E-02
 -1       330 2.98372E-02-5.20561E-02-2.53060E-02
 -1       331 3.28258E-02-1.08250E-02-5.29262E-03
 -1       332 3.13395E-02 3.14308E-02 1.52149E-02
 -1       333 2.55197E-02 6.89474E-02 3.34097E-02
 -1       334 1.60550E-02 9.65115E-02 4.67419E-02
 -1       335 4.07978E-03 1.10114E-01 5.32336E-02
 -1       336-8.99142E-03 1.07434E-01 5.17223E-02
 -1       337-2.16744E-02 8.80811E-02 4.20189E-02
 -1       338-3.26457E-02 5.35615E-02 2.49803E-02
 -1       339-4.09640E-02 6.95974E-03 2.49981E-03
 -1       340-4.62398E-02-4.76480E-02-2.26822E-02
 -1       341-4.87374E-02-1.06005E-01-4.76138E-02
 -1       342-2.56945E-02-1.64699E-01-3.72346E-02
 -1       343 1.27687E-02-1.46428E-02-5.61340E-03
 -1       344 2.05562E-02-3.98952E-02-1.91246E-02
 -1       345 2.22288E-02-7.05132E-02-3.45988E-02
 -1       346 1.86571E-02-9.90861E-02-4.86663E-02
 -1       347 1.09530E-02-1.19703E-01-5.86205E-02
 -1       348 6.48879E-04-1.28135E-01-6.25851E-02
 -1       349-1.05560E-02-1.22203E-01-5.95811E-02
 -1       350-2.09394E-02-1.01934E-01-4.96501E-02
 -1       351-2.89625E-02-6.94692E-02-3.38292E-02
 -1       352-3.34492E-02-2.87129E-02-1.40040E-02
 -1       353-3.37263E-02 1.52267E-02 7.35460E-03
 -1       354-2.97012E-02 5.67457E-02 2.75312E-02
 -1       355-2.18672E-02 9.05076E-02 4.39375E-02
 -1       356-1.12337E-02 1.12165E-01 5.44641E-02
 -1       357 8.09905E-04 1.18948E-01 5.77661E-02
 -1       358 1.26793E-02 1.10037E-01 5.34467E-02
 -1       359 2.28046E-02 8.66847E-02 4.21141E-02
 -1       360 2.98372E-02 5.20561E-02 2.53060E-02
 -1       361 3.28258E-02 1.08250E-02 5.29262E-03
 -1       362 3.13395E-02-3.14308E-02-1.52149E-02
 -1       363 2.55197E-02-6.89474E-02-3.34097E-02
 -1       364 1.60550E-02-9.65115E-02-4.67419E-02
 -1       365 4.07978E-03-1.10114E-01-5.32336E-02
 -1       366-8.99142E-03-1.07434E-01-5.17223E-02
 -1       367-2.16744E-02-8.80811E-02-4.20189E-02
 -1       368-3.26457E-02-5.35615E-02-2.49803E-02
 -1       369-4.09640E-02-6.95974E-03-2.49981E-03
 -1       370-4.62398E-02 4.76480E-02 2.26822E-02
 -1       371-4.87374E-02 1.06005E-01 4.76138E-02
 -1       372 1.41849E-02-1.37756E-02-6.28202E-03
 -1       373 2.25419E-02-3.69927E-02-1.92731E-02
 -1       374 2.42329E-02-6.52661E-02-3.45569E-02
 -1       375 2.02810E-02-9.17238E-02-4.83945E-02
 -1       376 1.18973E-02-1.10846E-01-5.82009E-02
 -1       377 7.22439E-04-1.18685E-01-6.20859E-02
 -1       378-1.14154E-02-1.13210E-01-5.90816E-02
 -1       379-2.26591E-02-9.44415E-02-4.92246E-02
 -1       380-3.13465E-02-6.43641E-02-3.35400E-02
 -1       381-3.62054E-02-2.65986E-02-1.38935E-02
 -1       382-3.65068E-02 1.41194E-02 7.26894E-03
 -1       383-3.21505E-02 5.25952E-02 2.72587E-02
 -1       384-2.36703E-02 8.38827E-02 4.35127E-02
 -1       385-1.21592E-02 1.03953E-01 5.39423E-02
 -1       386 8.78922E-04 1.10237E-01 5.72157E-02
 -1       387 1.37287E-02 1.01978E-01 5.29404E-02
 -1       388 2.46908E-02 8.03334E-02 4.17190E-02
 -1       389 3.23052E-02 4.82389E-02 2.50750E-02
 -1       390 3.55422E-02 1.00252E-02 5.25744E-03
 -1       391 3.39349E-02-2.91388E-02-1.50476E-02
 -1       392 2.76358E-02-6.39129E-02-3.30591E-02
 -1       393 1.73889E-02-8.94683E-02-4.62502E-02
 -1       394 4.42142E-03-1.02095E-01-5.26596E-02
 -1       395-9.73305E-03-9.96480E-02-5.11333E-02
 -1       396-2.34562E-02-8.17659E-02-4.14804E-02
 -1       397-3.52860E-02-4.98248E-02-2.45460E-02
 -1       398-4.41508E-02-6.61869E-03-2.20172E-03
 -1       399-4.95820E-02 4.42032E-02 2.28397E-02
 -1       400-5.18760E-02 9.88178E-02 4.76642E-02
 -1       401 0.00000E+00 0.00000E+00 0.00000E+00
 -1       402 0.00000E+00 0.00000E+00 0.00000E+00
 -1       403-2.56945E-02 1.64699E-01 3.72346E-02
 -1       404 5.39881E-04-1.28725E-02-2.83607E-04
 -1       405 9.38062E-04-3.92050E-02-8.85509E-04
 -1       406 1.01974E-03-7.05778E-02-1.57317E-03
 -1       407 8.55385E-04-9.97658E-02-2.22047E-03
 -1       408 5.01694E-04-1.20837E-01-2.68006E-03
 -1       409 2.48744E-05-1.29509E-01-2.86533E-03
 -1       410-4.94100E-04-1.23591E-01-2.73016E-03
 -1       411-9.75412E-04-1.03121E-01-2.27620E-03
 -1       412-1.34738E-03-7.02760E-02-1.55104E-03
 -1       413-1.55530E-03-2.90172E-02-6.41488E-04
 -1       414-1.56781E-03 1.54757E-02 3.38764E-04
 -1       415-1.38057E-03 5.75224E-02 1.26490E-03
 -1       416-1.01646E-03 9.17144E-02 2.01799E-03
 -1       417-5.22360E-04 1.13646E-01 2.50113E-03
 -1       418 3.71935E-05 1.20509E-01 2.65255E-03
 -1       419 5.88599E-04 1.11472E-01 2.45400E-03
 -1       420 1.05892E-03 8.78026E-02 1.93340E-03
 -1       421 1.38549E-03 5.27072E-02 1.16135E-03
 -1       422 1.52410E-03 1.09188E-02 2.42073E-04
 -1       423 1.45470E-03-3.19137E-02-6.99997E-04
 -1       424 1.18380E-03-6.99539E-02-1.53613E-03
 -1       425 7.43328E-04-9.79242E-02-2.14962E-03
 -1       426 1.85879E-04-1.11769E-01-2.45026E-03
 -1       427-4.22949E-04-1.09146E-01-2.38538E-03
 -1       428-1.01438E-03-8.96712E-02-1.94633E-03
 -1       429-1.52708E-03-5.48830E-02-1.17046E-03
 -1       430-1.91726E-03-7.91801E-03-1.36992E-04
 -1       431-2.16765E-03 4.70755E-02 1.04297E-03
 -1       432-2.28919E-03 1.05792E-01 2.25530E-03
 -1       433-2.73783E-02 1.54147E-01 3.72391E-02
 -1       434 0.00000E+00 0.00000E+00 0.00000E+00
 -1       435 0.00000E+00 0.00000E+00 0.00000E+00
 -1       436 2.28919E-03-1.05792E-01 2.25530E-03
 -1       437 2.16765E-03-4.70755E-02 1.04297E-03
 -1       438 1.91726E-03 7.91801E-03-1.36992E-04
 -1       439 1.52708E-03 5.48830E-02-1.17046E-03
 -1       440 1.01438E-03 8.96712E-02-1.94633E-03
 -1       441 4.22949E-04 1.09146E-01-2.38538E-03
 -1       442-1.85879E-04 1.11769E-01-2.45026E-03
 -1       443-7.43328E-04 9.79242E-02-2.14962E-03
 -1       444-1.18380E-03 6.99539E-02-1.53613E-03
 -1       445-1.45470E-03 3.19137E-02-6.99997E-04
 -1       446-1.52410E-03-1.09188E-02 2.42073E-04
 -1       447-1.38549E-03-5.27072E-02 1.16135E-03
 -1       448-1.05892E-03-8.78026E-02 1.93340E-03
 -1       449-5.88599E-04-1.11472E-01 2.45400E-03
 -1       450-3.71935E-05-1.20509E-01 2.65255E-03
 -1       451 5.22360E-04-1.13646E-01 2.50113E-03
 -1       452 1.01646E-03-9.17144E-02 2.01799E-03
 -1       453 1.38057E-03-5.75224E-02 1.26490E-03
 -1       454 1.56781E-03-1.54757E-02 3.38764E-04
 -1       455 1.55530E-03 2.90172E-02-6.41488E-04
 -1       456 1.34738E-03 7.02760E-02-1.55104E-03
 -1       457 9.75412E-04 1.03121E-01-2.27620E-03
 -1       458 4.94100E-04 1.23591E-01-2.73016E-03
 -1       459-2.48744E-05 1.29509E-01-2.86533E-03
 -1       460-5.01694E-04 1.20837E-01-2.68006E-03
 -1       461-8.55385E-04 9.97658E-02-2.22047E-03
 -1       462-1.01974E-03 7.05778E-02-1.57317E-03
 -1       463-9.38062E-04 3.92050E-02-8.85509E-04
 -1       464-5.39881E-04 1.28725E-02-2.83607E-04
 -1       465 2.56945E-02-1.64699E-01 3.72346E-02
 -1       466-1.27687E-02 1.46428E-02-5.61340E-03
 -1       467-2.05562E-02 3.98952E-02-1.91246E-02
 -1       468-2.22288E-02 7.05132E-02-3.45988E-02
 -1       469-1.86571E-02 9.90861E-02-4.86663E-02
 -1       470-1.09530E-02 1.19703E-01-5.86205E-02
 -1       471-6.48879E-04 1.28135E-01-6.25851E-02
 -1       472 1.05560E-02 1.22203E-01-5.95811E-02
 -1       473 2.09394E-02 1.01934E-01-4.96501E-02
 -1       474 2.89625E-02 6.94692E-02-3.38292E-02
 -1       475 3.34492E-02 2.87129E-02-1.40040E-02
 -1       476 3.37263E-02-1.52267E-02 7.35460E-03
 -1       477 2.97012E-02-5.67457E-02 2.75312E-02
 -1       478 2.18672E-02-9.05076E-02 4.39375E-02
 -1       479 1.12337E-02-1.12165E-01 5.44641E-02
 -1       480-8.09905E-04-1.18948E-01 5.77661E-02
 -1       481-1.26793E-02-1.10037E-01 5.34467E-02
 -1       482-2.28046E-02-8.66847E-02 4.21141E-02
 -1       483-2.98372E-02-5.20561E-02 2.53060E-02
 -1       484-3.28258E-02-1.08250E-02 5.29262E-03
 -1       485-3.13395E-02 3.14308E-02-1.52149E-02
 -1       486-2.55197E-02 6.89474E-02-3.34097E-02
 -1       487-1.60550E-02 9.65115E-02-4.67419E-02
 -1       488-4.07978E-03 1.10114E-01-5.32336E-02
 -1       489 8.99142E-03 1.07434E-01-5.17223E-02
 -1       490 2.16744E-02 8.80811E-02-4.20189E-02
 -1       491 3.26457E-02 5.35615E-02-2.49803E-02
 -1       492 4.09640E-02 6.95974E-03-2.49981E-03
 -1       493 4.62398E-02-4.76480E-02 2.26822E-02
 -1       494 4.87374E-02-1.06005E-01 4.76138E-02
 -1       495-1.41849E-02 1.37756E-02-6.28202E-03
 -1       496-2.25419E-02 3.69927E-02-1.92731E-02
 -1       497-2.42329E-02 6.52661E-02-3.45569E-02
 -1       498-2.02810E-02 9.17238E-02-4.83945E-02
 -1       499-1.18973E-02 1.10846E-01-5.82009E-02
 -1       500-7.22439E-04 1.18685E-01-6.20859E-02
 -1       501 1.14154E-02 1.13210E-01-5.90816E-02
 -1       502 2.26591E-02 9.44415E-02-4.92246E-02
 -1       503 3.13465E-02 6.43641E-02-3.35400E-02
 -1       504 3.62054E-02 2.65986E-02-1.38935E-02
 -1       505 3.65068E-02-1.41194E-02 7.26894E-03
 -1       506 3.21505E-02-5.25952E-02 2.72587E-02
 -1       507 2.36703E-02-8.38827E-02 4.35127E-02
 -1       508 1.21592E-02-1.03953E-01 5.39423E-02
 -1       509-8.78922E-04-1.10237E-01 5.72157E-02
 -1       510-1.37287E-02-1.01978E-01 5.29404E-02
 -1       511-2.46908E-02-8.03334E-02 4.17190E-02
 -1       512-3.23052E-02-4.82389E-02 2.50750E-02
 -1       513-3.55422E-02-1.00252E-02 5.25744E-03
 -1       514-3.39349E-02 2.91388E-02-1.50476E-02
 -1       515-2.76358E-02 6.39129E-02-3.30591E-02
 -1       516-1.73889E-02 8.94683E-02-4.62502E-02
 -1       517-4.42142E-03 1.02095E-01-5.26596E-02
 -1       518 9.73305E-03 9.96480E-02-5.11333E-02
 -1       519 2.34562E-02 8.17659E-02-4.14804E-02
 -1       520 3.52860E-02 4.98248E-02-2.45460E-02
 -1       521 4.41508E-02 6.61869E-03-2.20172E-03
 -1       522 4.95820E-02-4.42032E-02 2.28397E-02
 -1       523 5.18760E-02-9.88178E-02 4.76642E-02
 -1       524 2.73783E-02-1.54147E-01 3.72391E-02
 -1       525-4.49595E-04-5.51868E-03 2.78432E-04
 -1       526-6.25523E-04-1.80902E-02 8.33965E-04
 -1       527-6.35758E-04-3.27048E-02 1.50072E-03
 -1       528-5.27941E-04-4.62440E-02 2.12317E-03
 -1       529-3.15941E-04-5.60710E-02 2.57352E-03
 -1       530-3.59273E-05-6.01607E-02 2.75960E-03
 -1       531 2.66648E-04-5.74501E-02 2.63431E-03
 -1       532 5.45836E-04-4.79507E-02 2.19836E-03
 -1       533 7.61248E-04-3.26794E-02 1.49819E-03
 -1       534 8.82068E-04-1.34843E-02 6.18401E-04
 -1       535 8.90695E-04 7.22066E-03-3.30474E-04
 -1       536 7.84850E-04 2.67892E-02-1.22722E-03
 -1       537 5.77728E-04 4.27025E-02-1.95646E-03
 -1       538 2.96162E-04 5.29088E-02-2.42419E-03
 -1       539-2.29833E-05 5.61004E-02-2.57050E-03
 -1       540-3.37695E-04 5.18903E-02-2.37767E-03
 -1       541-6.06372E-04 4.08682E-02-1.87272E-03
 -1       542-7.93297E-04 2.45264E-02-1.12403E-03
 -1       543-8.73327E-04 5.06805E-03-2.32561E-04
 -1       544-8.35163E-04-1.48780E-02 6.81219E-04
 -1       545-6.82762E-04-3.25970E-02 1.49287E-03
 -1       546-4.34695E-04-4.56370E-02 2.08991E-03
 -1       547-1.21454E-04-5.21188E-02 2.38606E-03
 -1       548 2.19047E-04-5.09620E-02 2.33153E-03
 -1       549 5.47460E-04-4.19896E-02 1.91816E-03
 -1       550 8.29641E-04-2.58844E-02 1.17816E-03
 -1       551 1.04167E-03-4.00350E-03 1.76303E-04
 -1       552 1.16998E-03 2.18716E-02-1.00272E-03
 -1       553 1.22317E-03 4.98547E-02-2.27455E-03
 -1       554-4.68805E-14 3.97321E-14 2.44342E-04
 -1       555-1.14327E-13 9.19681E-14 8.34416E-04
 -1       556-1.80212E-13 7.42323E-14 1.51160E-03
 -1       557-2.35755E-13-1.46827E-14 2.13640E-03
 -1       558-2.88546E-13-1.15026E-13 2.59063E-03
 -1       559-3.41459E-13-1.74886E-13 2.78028E-03
 -1       560-3.98711E-13-1.58026E-13 2.65544E-03
 -1       561-4.57150E-13-1.34281E-13 2.21652E-03
 -1       562-5.03369E-13-1.31131E-13 1.51062E-03
 -1       563-5.44409E-13-1.04361E-13 6.23232E-04
 -1       564-5.89716E-13-1.20459E-14-3.34013E-04
 -1       565-6.42661E-13 1.63453E-13-1.23874E-03
 -1       566-7.00861E-13 4.27075E-13-1.97447E-03
 -1       567-7.58917E-13 6.89066E-13-2.44634E-03
 -1       568-8.16069E-13 7.78815E-13-2.59388E-03
 -1       569-8.74167E-13 6.55614E-13-2.39919E-03
 -1       570-9.28006E-13 3.81743E-13-1.88953E-03
 -1       571-9.74260E-13 4.64576E-14-1.13391E-03
 -1       572-1.01414E-12-2.11213E-13-2.34186E-04
 -1       573-1.04800E-12-3.69010E-13 6.88104E-04
 -1       574-1.06982E-12-4.75339E-13 1.50746E-03
 -1       575-1.08680E-12-5.89752E-13 2.11058E-03
 -1       576-1.09702E-12-6.58931E-13 2.41065E-03
 -1       577-1.10537E-12-5.91555E-13 2.35786E-03
 -1       578-1.11929E-12-4.22176E-13 1.94404E-03
 -1       579-1.13881E-12-2.15036E-13 1.20034E-03
 -1       580-1.16147E-12 3.65090E-14 1.87926E-04
 -1       581-1.17703E-12 3.28335E-13-1.01112E-03
 -1       582-1.18040E-12 6.44013E-13-2.31320E-03
 -1       583 4.49595E-04 5.51868E-03 2.78432E-04
 -1       584 6.25523E-04 1.80902E-02 8.33965E-04
 -1       585 6.35758E-04 3.27048E-02 1.50072E-03
 -1       586 5.27941E-04 4.62440E-02 2.12317E-03
 -1       587 3.15941E-04 5.60710E-02 2.57352E-03
 -1       588 3.59273E-05 6.01607E-02 2.75960E-03
 -1       589-2.66648E-04 5.74501E-02 2.63431E-03
 -1       590-5.45836E-04 4.79507E-02 2.19836E-03
 -1       591-7.61248E-04 3.26794E-02 1.49819E-03
 -1       592-8.82068E-04 1.34843E-02 6.18401E-04
 -1       593-8.90695E-04-7.22066E-03-3.30474E-04
 -1       594-7.84850E-04-2.67892E-02-1.22722E-03
 -1       595-5.77728E-04-4.27025E-02-1.95646E-03
 -1       596-2.96162E-04-5.29088E-02-2.42419E-03
 -1       597 2.29833E-05-5.61004E-02-2.57050E-03
 -1       598 3.37695E-04-5.18903E-02-2.37767E-03
 -1       599 6.06372E-04-4.08682E-02-1.87272E-03
 -1       600 7.93297E-04-2.45264E-02-1.12403E-03
 -1       601 8.73327E-04-5.06805E-03-2.32561E-04
 -1       602 8.35163E-04 1.48780E-02 6.81219E-04
 -1       603 6.82762E-04 3.25970E-02 1.49287E-03
 -1       604 4.34695E-04 4.56370E-02 2.08991E-03
 -1       605 1.21454E-04 5.21188E-02 2.38606E-03
 -1       606-2.19047E-04 5.09620E-02 2.33153E-03
 -1       607-5.47460E-04 4.19896E-02 1.91816E-03
 -1       608-8.29641E-04 2.58844E-02 1.17816E-03
 -1       609-1.04167E-03 4.00350E-03 1.76303E-04
 -1       610-1.16998E-03-2.18716E-02-1.00272E-03
 -1       611-1.22317E-03-4.98547E-02-2.27455E-03
 -1       612-4.49595E-04 5.51868E-03-2.78432E-04
 -1       613-6.25523E-04 1.80902E-02-8.33965E-04
 -1       614-6.35758E-04 3.27048E-02-1.50072E-03
 -1       615-5.27941E-04 4.62440E-02-2.12317E-03
 -1       616-3.15941E-04 5.60710E-02-2.57352E-03
 -1       617-3.59273E-05 6.01607E-02-2.75960E-03
 -1       618 2.66648E-04 5.74501E-02-2.63431E-03
 -1       619 5.45836E-04 4.79507E-02-2.19836E-03
 -1       620 7.61248E-04 3.26794E-02-1.49819E-03
 -1       621 8.82068E-04 1.34843E-02-6.18401E-04
 -1       622 8.90695E-04-7.22066E-03 3.30474E-04
 -1       623 7.84850E-04-2.67892E-02 1.22722E-03
 -1       624 5.77728E-04-4.27025E-02 1.95646E-03
 -1       625 2.96162E-04-5.29088E-02 2.42419E-03
 -1       626-2.29833E-05-5.61004E-02 2.57050E-03
 -1       627-3.37695E-04-5.18903E-02 2.37767E-03
 -1       628-6.06372E-04-4.08682E-02 1.87272E-03
 -1       629-7.93297E-04-2.45264E-02 1.12403E-03
 -1       630-8.73327E-04-5.06805E-03 2.32561E-04
 -1       631-8.35163E-04 1.48780E-02-6.81219E-04
 -1       632-6.82762E-04 3.25970E-02-1.49287E-03
 -1       633-4.34695E-04 4.56370E-02-2.08991E-03
 -1       634-1.21454E-04 5.21188E-02-2.38606E-03
 -1       635 2.19047E-04 5.09620E-02-2.33153E-03
 -1       636 5.47460E-04 4.19896E-02-1.91816E-03
 -1       637 8.29641E-04 2.58844E-02-1.17816E-03
 -1       638 1.04167E-03 4.00350E-03-1.76303E-04
 -1       639 1.16998E-03-2.18716E-02 1.00272E-03
 -1       640 1.22317E-03-4.98547E-02 2.27455E-03
 -1       641-5.22424E-14 4.18277E-14-2.44342E-04
 -1       642-1.16410E-13 9.34253E-14-8.34416E-04
 -1       643-1.75065E-13 7.52454E-14-1.51160E-03
 -1       644-2.26831E-13-1.36835E-14-2.13640E-03
 -1       645-2.80853E-13-1.13749E-13-2.59063E-03
 -1       646-3.39978E-13-1.73540E-13-2.78028E-03
 -1       647-4.01505E-13-1.56607E-13-2.65544E-03
 -1       648-4.58059E-13-1.32921E-13-2.21652E-03
 -1       649-5.03873E-13-1.29743E-13-1.51062E-03
 -1       650-5.49163E-13-1.03112E-13-6.23232E-04
 -1       651-6.00972E-13-1.05471E-14 3.34013E-04
 -1       652-6.61872E-13 1.65007E-13 1.23874E-03
 -1       653-7.25541E-13 4.28518E-13 1.97447E-03
 -1       654-7.75685E-13 6.90423E-13 2.44634E-03
 -1       655-8.14246E-13 7.80043E-13 2.59388E-03
 -1       656-8.56109E-13 6.56829E-13 2.39919E-03
 -1       657-9.00088E-13 3.82826E-13 1.88953E-03
 -1       658-9.47500E-13 4.74933E-14 1.13391E-03
 -1       659-9.96676E-13-2.10149E-13 2.34186E-04
 -1       660-1.03772E-12-3.68217E-13-6.88104E-04
 -1       661-1.06054E-12-4.74606E-13-1.50746E-03
 -1       662-1.07743E-12-5.89001E-13-2.11058E-03
 -1       663-1.09646E-12-6.58459E-13-2.41065E-03
 -1       664-1.11656E-12-5.90979E-13-2.35786E-03
 -1       665-1.13581E-12-4.21677E-13-1.94404E-03
 -1       666-1.15836E-12-2.14634E-13-1.20034E-03
 -1       667-1.18492E-12 3.71057E-14-1.87926E-04
 -1       668-1.20358E-12 3.28571E-13 1.01112E-03
 -1       669-1.20697E-12 6.44124E-13 2.31320E-03
 -1       670 4.49595E-04-5.51868E-03-2.78432E-04
 -1       671 6.25523E-04-1.80902E-02-8.33965E-04
 -1       672 6.35758E-04-3.27048E-02-1.50072E-03
 -1       673 5.27941E-04-4.62440E-02-2.12317E-03
 -1       674 3.15941E-04-5.60710E-02-2.57352E-03
 -1       675 3.59273E-05-6.01607E-02-2.75960E-03
 -1       676-2.66648E-04-5.74501E-02-2.63431E-03
 -1       677-5.45836E-04-4.79507E-02-2.19836E-03
 -1       678-7.61248E-04-3.26794E-02-1.49819E-03
 -1       679-8.82068E-04-1.34843E-02-6.18401E-04
 -1       680-8.90695E-04 7.22066E-03 3.30474E-04
 -1       681-7.84850E-04 2.67892E-02 1.22722E-03
 -1       682-5.77728E-04 4.27025E-02 1.95646E-03
 -1       683-2.96162E-04 5.29088E-02 2.42419E-03
 -1       684 2.29833E-05 5.61004E-02 2.57050E-03
 -1       685 3.37695E-04 5.18903E-02 2.37767E-03
 -1       686 6.06372E-04 4.08682E-02 1.87272E-03
 -1       687 7.93297E-04 2.45264E-02 1.12403E-03
 -1       688 8.73327E-04 5.06805E-03 2.32561E-04
 -1       689 8.35163E-04-1.48780E-02-6.81219E-04
 -1       690 6.82762E-04-3.25970E-02-1.49287E-03
 -1       691 4.34695E-04-4.56370E-02-2.08991E-03
 -1       692 1.21454E-04-5.21188E-02-2.38606E-03
 -1       693-2.19047E-04-5.09620E-02-2.33153E-03
 -1       694-5.47460E-04-4.19896E-02-1.91816E-03
 -1       695-8.29641E-04-2.58844E-02-1.17816E-03
 -1       696-1.04167E-03-4.00350E-03-1.76303E-04
 -1       697-1.16998E-03 2.18716E-02 1.00272E-03
 -1       698-1.22317E-03 4.98547E-02 2.27455E-03
 -1       699-5.73926E-03-1.33262E-02 2.99268E-03
 -1       700-1.01340E-02-3.94523E-02 9.94128E-03
 -1       701-1.10485E-02-7.06020E-02 1.79617E-02
 -1       702-9.30467E-03-9.96394E-02 2.52728E-02
 -1       703-5.44439E-03-1.20588E-01 3.04577E-02
 -1       704-2.43174E-04-1.29194E-01 3.25257E-02
 -1       705 5.42615E-03-1.23266E-01 3.09697E-02
 -1       706 1.06857E-02-1.02841E-01 2.58099E-02
 -1       707 1.47510E-02-7.00856E-02 1.75859E-02
 -1       708 1.70227E-02-2.89474E-02 7.27863E-03
 -1       709 1.71576E-02 1.54121E-02-3.82666E-03
 -1       710 1.51077E-02 5.73311E-02-1.43177E-02
 -1       711 1.11234E-02 9.14190E-02-2.28483E-02
 -1       712 5.71735E-03 1.13284E-01-2.83216E-02
 -1       713-4.04440E-04 1.20128E-01-3.00382E-02
 -1       714-6.43677E-03 1.11123E-01-2.77916E-02
 -1       715-1.15817E-02 8.75312E-02-2.18982E-02
 -1       716-1.51536E-02 5.25503E-02-1.31576E-02
 -1       717-1.66686E-02 1.08988E-02-2.75003E-03
 -1       718-1.59073E-02-3.17918E-02 7.91467E-03
 -1       719-1.29408E-02-6.97025E-02 1.73773E-02
 -1       720-8.11798E-03-9.75708E-02 2.43127E-02
 -1       721-2.01391E-03-1.11352E-01 2.76937E-02
 -1       722 4.65476E-03-1.08708E-01 2.69172E-02
 -1       723 1.11371E-02-8.92522E-02 2.18851E-02
 -1       724 1.67654E-02-5.45170E-02 1.30398E-02
 -1       725 2.10666E-02-7.63063E-03 1.34789E-03
 -1       726 2.38580E-02 4.72678E-02-1.17917E-02
 -1       727 2.52716E-02 1.05864E-01-2.48618E-02
 -1       728-6.44639E-03-1.24254E-02 3.29724E-03
 -1       729-1.11626E-02-3.65569E-02 1.00386E-02
 -1       730-1.20989E-02-6.53889E-02 1.79489E-02
 -1       731-1.01601E-02-9.23290E-02 2.51586E-02
 -1       732-5.94014E-03-1.11793E-01 3.02713E-02
 -1       733-2.75896E-04-1.19811E-01 3.23013E-02
 -1       734 5.89058E-03-1.14337E-01 3.07436E-02
 -1       735 1.16092E-02-9.54014E-02 2.56169E-02
 -1       736 1.60290E-02-6.50165E-02 1.74547E-02
 -1       737 1.84992E-02-2.68478E-02 7.22894E-03
 -1       738 1.86466E-02 1.43129E-02-3.78664E-03
 -1       739 1.64192E-02 5.32104E-02-1.41921E-02
 -1       740 1.20889E-02 8.48414E-02-2.26531E-02
 -1       741 6.21314E-03 1.05130E-01-2.80820E-02
 -1       742-4.40813E-04 1.11479E-01-2.97856E-02
 -1       743-6.99772E-03 1.03120E-01-2.75594E-02
 -1       744-1.25903E-02 8.12251E-02-2.17172E-02
 -1       745-1.64733E-02 4.87602E-02-1.30520E-02
 -1       746-1.81209E-02 1.01045E-02-2.73457E-03
 -1       747-1.72944E-02-2.95166E-02 7.83690E-03
 -1       748-1.40708E-02-6.47043E-02 1.72150E-02
 -1       749-8.82857E-03-9.05784E-02 2.40849E-02
 -1       750-2.19235E-03-1.03391E-01 2.74271E-02
 -1       751 5.05770E-03-1.00977E-01 2.66422E-02
 -1       752 1.20993E-02-8.29809E-02 2.16309E-02
 -1       753 1.81913E-02-5.08040E-02 1.28306E-02
 -1       754 2.27944E-02-7.29068E-03 1.19834E-03
 -1       755 2.56765E-02 4.38400E-02-1.18791E-02
 -1       756 2.70147E-02 9.87043E-02-2.48954E-02
 -1       757 6.44639E-03 1.24254E-02 3.29724E-03
 -1       758 1.11626E-02 3.65569E-02 1.00386E-02
 -1       759 1.20989E-02 6.53889E-02 1.79489E-02
 -1       760 1.01601E-02 9.23290E-02 2.51586E-02
 -1       761 5.94014E-03 1.11793E-01 3.02713E-02
 -1       762 2.75896E-04 1.19811E-01 3.23013E-02
 -1       763-5.89058E-03 1.14337E-01 3.07436E-02
 -1       764-1.16092E-02 9.54014E-02 2.56169E-02
 -1       765-1.60290E-02 6.50165E-02 1.74547E-02
 -1       766-1.84992E-02 2.68478E-02 7.22894E-03
 -1       767-1.86466E-02-1.43129E-02-3.78664E-03
 -1       768-1.64192E-02-5.32104E-02-1.41921E-02
 -1       769-1.20889E-02-8.48414E-02-2.26531E-02
 -1       770-6.21314E-03-1.05130E-01-2.80820E-02
 -1       771 4.40813E-04-1.11479E-01-2.97856E-02
 -1       772 6.99772E-03-1.03120E-01-2.75594E-02
 -1       773 1.25903E-02-8.12251E-02-2.17172E-02
 -1       774 1.64733E-02-4.87602E-02-1.30520E-02
 -1       775 1.81209E-02-1.01045E-02-2.73457E-03
 -1       776 1.72944E-02 2.95166E-02 7.83690E-03
 -1       777 1.40708E-02 6.47043E-02 1.72150E-02
 -1       778 8.82857E-03 9.05784E-02 2.40849E-02
 -1       779 2.19235E-03 1.03391E-01 2.74271E-02
 -1       780-5.05770E-03 1.00977E-01 2.66422E-02
 -1       781-1.20993E-02 8.29809E-02 2.16309E-02
 -1       782-1.81913E-02 5.08040E-02 1.28306E-02
 -1       783-2.27944E-02 7.29068E-03 1.19834E-03
 -1       784-2.56765E-02-4.38400E-02-1.18791E-02
 -1       785-2.70147E-02-9.87043E-02-2.48954E-02
 -1       786 5.73926E-03 1.33262E-02 2.99268E-03
 -1       787 1.01340E-02 3.94523E-02 9.94128E-03
 -1       788 1.10485E-02 7.06020E-02 1.79617E-02
 -1       789 9.30467E-03 9.96394E-02 2.52728E-02
 -1       790 5.44439E-03 1.20588E-01 3.04577E-02
 -1       791 2.43174E-04 1.29194E-01 3.25257E-02
 -1       792-5.42615E-03 1.23266E-01 3.09697E-02
 -1       793-1.06857E-02 1.02841E-01 2.58099E-02
 -1       794-1.47510E-02 7.00856E-02 1.75859E-02
 -1       795-1.70227E-02 2.89474E-02 7.27863E-03
 -1       796-1.71576E-02-1.54121E-02-3.82666E-03
 -1       797-1.51077E-02-5.73311E-02-1.43177E-02
 -1       798-1.11234E-02-9.14190E-02-2.28483E-02
 -1       799-5.71735E-03-1.13284E-01-2.83216E-02
 -1       800 4.04440E-04-1.20128E-01-3.00382E-02
 -1       801 6.43677E-03-1.11123E-01-2.77916E-02
 -1       802 1.15817E-02-8.75312E-02-2.18982E-02
 -1       803 1.51536E-02-5.25503E-02-1.31576E-02
 -1       804 1.66686E-02-1.08988E-02-2.75003E-03
 -1       805 1.59073E-02 3.17918E-02 7.91467E-03
 -1       806 1.29408E-02 6.97025E-02 1.73773E-02
 -1       807 8.11798E-03 9.75708E-02 2.43127E-02
 -1       808 2.01391E-03 1.11352E-01 2.76937E-02
 -1       809-4.65476E-03 1.08708E-01 2.69172E-02
 -1       810-1.11371E-02 8.92522E-02 2.18851E-02
 -1       811-1.67654E-02 5.45170E-02 1.30398E-02
 -1       812-2.10666E-02 7.63063E-03 1.34789E-03
 -1       813-2.38580E-02-4.72678E-02-1.17917E-02
 -1       814-2.52716E-02-1.05864E-01-2.48618E-02
 -1       815 5.73926E-03-1.33262E-02-2.99268E-03
 -1       816 1.01340E-02-3.94523E-02-9.94128E-03
 -1       817 1.10485E-02-7.06020E-02-1.79617E-02
 -1       818 9.30467E-03-9.96394E-02-2.52728E-02
 -1       819 5.44439E-03-1.20588E-01-3.04577E-02
 -1       820 2.43174E-04-1.29194E-01-3.25257E-02
 -1       821-5.42615E-03-1.23266E-01-3.09697E-02
 -1       822-1.06857E-02-1.02841E-01-2.58099E-02
 -1       823-1.47510E-02-7.00856E-02-1.75859E-02
 -1       824-1.70227E-02-2.89474E-02-7.27863E-03
 -1       825-1.71576E-02 1.54121E-02 3.82666E-03
 -1       826-1.51077E-02 5.73311E-02 1.43177E-02
 -1       827-1.11234E-02 9.14190E-02 2.28483E-02
 -1       828-5.71735E-03 1.13284E-01 2.83216E-02
 -1       829 4.04440E-04 1.20128E-01 3.00382E-02
 -1       830 6.43677E-03 1.11123E-01 2.77916E-02
 -1       831 1.15817E-02 8.75312E-02 2.18982E-02
 -1       832 1.51536E-02 5.25503E-02 1.31576E-02
 -1       833 1.66686E-02 1.08988E-02 2.75003E-03
 -1       834 1.59073E-02-3.17918E-02-7.91467E-03
 -1       835 1.29408E-02-6.97025E-02-1.73773E-02
 -1       836 8.11798E-03-9.75708E-02-2.43127E-02
 -1       837 2.01391E-03-1.11352E-01-2.76937E-02
 -1       838-4.65476E-03-1.08708E-01-2.69172E-02
 -1       839-1.11371E-02-8.92522E-02-2.18851E-02
 -1       840-1.67654E-02-5.45170E-02-1.30398E-02
 -1       841-2.10666E-02-7.63063E-03-1.34789E-03
 -1       842-2.38580E-02 4.72678E-02 1.17917E-02
 -1       843-2.52716E-02 1.05864E-01 2.48618E-02
 -1       844 6.44639E-03-1.24254E-02-3.29724E-03
 -1       845 1.11626E-02-3.65569E-02-1.00386E-02
 -1       846 1.20989E-02-6.53889E-02-1.79489E-02
 -1       847 1.01601E-02-9.23290E-02-2.51586E-02
 -1       848 5.94014E-03-1.11793E-01-3.02713E-02
 -1       849 2.75896E-04-1.19811E-01-3.23013E-02
 -1       850-5.89058E-03-1.14337E-01-3.07436E-02
 -1       851-1.16092E-02-9.54014E-02-2.56169E-02
 -1       852-1.60290E-02-6.50165E-02-1.74547E-02
 -1       853-1.84992E-02-2.68478E-02-7.22894E-03
 -1       854-1.86466E-02 1.43129E-02 3.78664E-03
 -1       855-1.64192E-02 5.32104E-02 1.41921E-02
 -1       856-1.20889E-02 8.48414E-02 2.26531E-02
 -1       857-6.21314E-03 1.05130E-01 2.80820E-02
 -1       858 4.40813E-04 1.11479E-01 2.97856E-02
 -1       859 6.99772E-03 1.03120E-01 2.75594E-02
 -1       860 1.25903E-02 8.12251E-02 2.17172E-02
 -1       861 1.64733E-02 4.87602E-02 1.30520E-02
 -1       862 1.81209E-02 1.01045E-02 2.73457E-03
 -1       863 1.72944E-02-2.95166E-02-7.83690E-03
 -1       864 1.40708E-02-6.47043E-02-1.72150E-02
 -1       865 8.82857E-03-9.05784E-02-2.40849E-02
 -1       866 2.19235E-03-1.03391E-01-2.74271E-02
 -1       867-5.05770E-03-1.00977E-01-2.66422E-02
 -1       868-1.20993E-02-8.29809E-02-2.16309E-02
 -1       869-1.81913E-02-5.08040E-02-1.28306E-02
 -1       870-2.27944E-02-7.29068E-03-1.19834E-03
 -1       871-2.56765E-02 4.38400E-02 1.18791E-02
 -1       872-2.70147E-02 9.87043E-02 2.48954E-02
 -1       873 2.52716E-02-1.05864E-01 2.48618E-02
 -1       874 2.38580E-02-4.72678E-02 1.17917E-02
 -1       875 2.10666E-02 7.63063E-03-1.34789E-03
 -1       876 1.67654E-02 5.45170E-02-1.30398E-02
 -1       877 1.11371E-02 8.92522E-02-2.18851E-02
 -1       878 4.65476E-03 1.08708E-01-2.69172E-02
 -1       879-2.01391E-03 1.11352E-01-2.76937E-02
 -1       880-8.11798E-03 9.75708E-02-2.43127E-02
 -1       881-1.29408E-02 6.97025E-02-1.73773E-02
 -1       882-1.59073E-02 3.17918E-02-7.91467E-03
 -1       883-1.66686E-02-1.08988E-02 2.75003E-03
 -1       884-1.51536E-02-5.25503E-02 1.31576E-02
 -1       885-1.15817E-02-8.75312E-02 2.18982E-02
 -1       886-6.43677E-03-1.11123E-01 2.77916E-02
 -1       887-4.04440E-04-1.20128E-01 3.00382E-02
 -1       888 5.71735E-03-1.13284E-01 2.83216E-02
 -1       889 1.11234E-02-9.14190E-02 2.28483E-02
 -1       890 1.51077E-02-5.73311E-02 1.43177E-02
 -1       891 1.71576E-02-1.54121E-02 3.82666E-03
 -1       892 1.70227E-02 2.89474E-02-7.27863E-03
 -1       893 1.47510E-02 7.00856E-02-1.75859E-02
 -1       894 1.06857E-02 1.02841E-01-2.58099E-02
 -1       895 5.42615E-03 1.23266E-01-3.09697E-02
 -1       896-2.43174E-04 1.29194E-01-3.25257E-02
 -1       897-5.44439E-03 1.20588E-01-3.04577E-02
 -1       898-9.30467E-03 9.96394E-02-2.52728E-02
 -1       899-1.10485E-02 7.06020E-02-1.79617E-02
 -1       900-1.01340E-02 3.94523E-02-9.94128E-03
 -1       901-5.73926E-03 1.33262E-02-2.99268E-03
 -1       902-6.44639E-03 1.24254E-02-3.29724E-03
 -1       903-1.11626E-02 3.65569E-02-1.00386E-02
 -1       904-1.20989E-02 6.53889E-02-1.79489E-02
 -1       905-1.01601E-02 9.23290E-02-2.51586E-02
 -1       906-5.94014E-03 1.11793E-01-3.02713E-02
 -1       907-2.75896E-04 1.19811E-01-3.23013E-02
 -1       908 5.89058E-03 1.14337E-01-3.07436E-02
 -1       909 1.16092E-02 9.54014E-02-2.56169E-02
 -1       910 1.60290E-02 6.50165E-02-1.74547E-02
 -1       911 1.84992E-02 2.68478E-02-7.22894E-03
 -1       912 1.86466E-02-1.43129E-02 3.78664E-03
 -1       913 1.64192E-02-5.32104E-02 1.41921E-02
 -1       914 1.20889E-02-8.48414E-02 2.26531E-02
 -1       915 6.21314E-03-1.05130E-01 2.80820E-02
 -1       916-4.40813E-04-1.11479E-01 2.97856E-02
 -1       917-6.99772E-03-1.03120E-01 2.75594E-02
 -1       918-1.25903E-02-8.12251E-02 2.17172E-02
 -1       919-1.64733E-02-4.87602E-02 1.30520E-02
 -1       920-1.81209E-02-1.01045E-02 2.73457E-03
 -1       921-1.72944E-02 2.95166E-02-7.83690E-03
 -1       922-1.40708E-02 6.47043E-02-1.72150E-02
 -1       923-8.82857E-03 9.05784E-02-2.40849E-02
 -1       924-2.19235E-03 1.03391E-01-2.74271E-02
 -1       925 5.05770E-03 1.00977E-01-2.66422E-02
 -1       926 1.20993E-02 8.29809E-02-2.16309E-02
 -1       927 1.81913E-02 5.08040E-02-1.28306E-02
 -1       928 2.27944E-02 7.29068E-03-1.19834E-03
 -1       929 2.56765E-02-4.38400E-02 1.18791E-02
 -1       930 2.70147E-02-9.87043E-02 2.48954E-02
 -3
    1PSTEP                        42           1           1          
    1PGM                1.000000E+00                                  
    1PGK                1.079833E+07                                  
    1PHID                         -1                                  
    1PSUBC                         0                                  
    1PMODE                        11                                  
  100CL  111 522.9960966         930                     2   11MODAL      1
 -4  STRESS      6    1
 -5  SXX         1    4    1    1
 -5  SYY         1    4    2    2
 -5  SZZ         1    4    3    3
 -5  SXY         1    4    1    2
 -5  SYZ         1    4    2    3
 -5  SZX         1    4    3    1
 -1         1-2.23822E+09-9.59257E+08-9.59259E+08-9.65208E+09-2.02355E+03 2.42771E+08
 -1         2 2.23822E+09 9.59257E+08 9.59259E+08-9.65208E+09-2.02355E+03-2.42771E+08
 -1         3-1.46842E+08-2.33179E+08-3.01595E+08-1.05098E+09-3.94666E+07-9.72450E+08
 -1         4 1.46842E+08 2.33179E+08 3.01595E+08-1.05098E+09-3.94666E+07 9.72450E+08
 -1         5 2.23822E+09 9.59257E+08 9.59259E+08 9.65208E+09-2.02355E+03 2.42771E+08
 -1         6-2.23822E+09-9.59257E+08-9.59259E+08 9.65208E+09-2.02355E+03-2.42771E+08
 -1         7 1.46842E+08 2.33179E+08 3.01595E+08 1.05098E+09-3.94666E+07-9.72450E+08
 -1         8-1.46842E+08-2.33179E+08-3.01595E+08 1.05098E+09-3.94666E+07 9.72450E+08
 -1         9-1.52606E+09-6.54054E+08-6.54058E+08-1.03968E+10-1.73842E+01 2.29066E+08
 -1        10 5.30517E+07 4.28538E+07-1.15702E+08 3.73899E+09 3.47875E+08-4.62337E+08
 -1        11-3.60952E+10-1.54695E+10-1.54695E+10-1.18266E+10 7.68690E+02 4.53385E+09
 -1        12-4.00987E+10-1.71853E+10-1.71853E+10-1.11263E+10-1.66516E+03 5.07388E+09
 -1        13 1.78837E+09 6.70843E+08 6.17663E+08 2.72226E+09 3.29095E+08-8.66758E+08
 -1        14 1.04399E+09-1.13125E+08 1.59158E+08-2.33376E+09 3.35111E+08-8.32263E+08
 -1        15 1.52606E+09 6.54054E+08 6.54058E+08 1.03968E+10-1.73842E+01 2.29066E+08
 -1        16-5.30517E+07-4.28538E+07 1.15702E+08-3.73899E+09 3.47875E+08-4.62337E+08
 -1        17 4.00987E+10 1.71853E+10 1.71853E+10 1.11263E+10-1.66516E+03 5.07388E+09
 -1        18 3.60952E+10 1.54695E+10 1.54695E+10 1.18266E+10 7.68690E+02 4.53385E+09
 -1        19-1.04399E+09 1.13125E+08-1.59158E+08 2.33376E+09 3.35111E+08-8.32263E+08
 -1        20-1.78837E+09-6.70843E+08-6.17663E+08-2.72226E+09 3.29095E+08-8.66758E+08
 -1        21 4.00987E+10 1.71853E+10 1.71853E+10-1.11263E+10-1.66516E+03-5.07388E+09
 -1        22 3.60952E+10 1.54695E+10 1.54695E+10-1.18266E+10 7.68690E+02-4.53385E+09
 -1        23-1.78837E+09-6.70843E+08-6.17663E+08 2.72226E+09 3.29095E+08 8.66758E+08
 -1        24-1.04399E+09 1.13125E+08-1.59158E+08-2.33376E+09 3.35111E+08 8.32263E+08
 -1        25 1.52606E+09 6.54054E+08 6.54058E+08-1.03968E+10-1.73842E+01-2.29066E+08
 -1        26-5.30517E+07-4.28538E+07 1.15702E+08 3.73899E+09 3.47875E+08 4.62337E+08
 -1        27-1.52606E+09-6.54054E+08-6.54058E+08 1.03968E+10-1.73842E+01-2.29066E+08
 -1        28-3.60952E+10-1.54695E+10-1.54695E+10 1.18266E+10 7.68690E+02-4.53385E+09
 -1        29-4.00987E+10-1.71853E+10-1.71853E+10 1.11263E+10-1.66516E+03-5.07388E+09
 -1        30 5.30517E+07 4.28538E+07-1.15702E+08-3.73899E+09 3.47875E+08 4.62337E+08
 -1        31 1.78837E+09 6.70843E+08 6.17663E+08-2.72226E+09 3.29095E+08 8.66758E+08
 -1        32 1.04399E+09-1.13125E+08 1.59158E+08 2.33376E+09 3.35111E+08 8.32263E+08
 -1        33 1.07457E+09-4.44732E+08 2.96237E+07-1.22064E+09-1.11817E+08 5.57572E+08
 -1        34 5.65788E+08-4.36227E+06 4.26898E+08-1.02469E+09 1.04986E+07 1.61661E+08
 -1        35 8.45572E+07 3.24431E+08 4.38827E+08-7.22419E+08 8.83497E+07 5.97886E+07
 -1        36-3.42991E+08 5.19343E+08 4.89906E+08-5.42097E+08 1.23964E+08 1.61218E+07
 -1        37-6.59052E+08 6.53922E+08 4.79600E+08-3.76658E+08 1.55928E+08 3.26827E+07
 -1        38-8.36035E+08 7.08699E+08 4.50791E+08-2.51251E+08 1.69149E+08 8.58102E+07
 -1        39-8.61749E+08 6.77172E+08 3.94805E+08-1.47034E+08 1.63161E+08 1.56620E+08
 -1        40-7.43504E+08 5.64668E+08 3.14990E+08-6.66795E+07 1.36340E+08 2.27912E+08
 -1        41-5.05444E+08 3.83759E+08 2.14064E+08-8.05630E+06 9.28221E+07 2.84416E+08
 -1        42-1.85688E+08 1.56482E+08 9.90226E+07 2.95753E+07 3.78604E+07 3.14220E+08
 -1        43 1.68685E+08-8.88540E+07-1.98816E+07 4.76285E+07-2.15308E+07 3.10287E+08
 -1        44 5.07551E+08-3.20890E+08-1.30212E+08 4.81347E+07-7.77236E+07 2.70980E+08
 -1        45 7.83832E+08-5.09643E+08-2.19601E+08 3.39817E+07-1.23430E+08 2.00041E+08
 -1        46 9.59338E+08-6.30617E+08-2.77786E+08 8.90031E+06-1.52716E+08 1.05912E+08
 -1        47 1.00953E+09-6.68149E+08-2.98281E+08-2.27721E+07-1.61791E+08 5.02546E+05
 -1        48 9.26575E+08-6.17538E+08-2.79409E+08-5.65120E+07-1.49520E+08-1.02451E+08
 -1        49 7.20213E+08-4.85688E+08-2.24650E+08-8.81535E+07-1.17583E+08-1.89222E+08
 -1        50 4.16350E+08-2.90224E+08-1.42292E+08-1.14484E+08-7.02628E+07-2.47882E+08
 -1        51 5.34415E+07-5.72218E+07-4.45282E+07-1.33830E+08-1.38895E+07-2.69806E+08
 -1        52-3.22882E+08 1.82067E+08 5.37728E+07-1.46585E+08 4.39711E+07-2.50673E+08
 -1        53-6.66345E+08 3.94995E+08 1.36294E+08-1.55628E+08 9.54791E+07-1.90830E+08
 -1        54-9.36921E+08 5.51268E+08 1.86280E+08-1.66515E+08 1.33521E+08-9.49709E+07
 -1        55-1.10698E+09 6.26463E+08 1.87653E+08-1.87236E+08 1.52599E+08 2.87997E+07
 -1        56-1.16537E+09 6.05612E+08 1.27380E+08-2.27130E+08 1.49870E+08 1.70235E+08
 -1        57-1.11741E+09 4.88327E+08 1.83062E+06-2.94515E+08 1.24927E+08 3.18381E+08
 -1        58-9.79306E+08 2.94651E+08-1.70753E+08-3.96306E+08 8.25974E+07 4.62815E+08
 -1        59-7.69194E+08 7.93974E+07-3.32543E+08-5.28118E+08 2.16693E+07 5.98489E+08
 -1        60-4.76034E+08-5.77100E+07-3.55904E+08-7.25853E+08-1.81566E+07 7.24439E+08
 -1        61-1.36151E+08-2.72598E+07-9.90232E+07-9.28896E+08-8.52508E+07 8.74588E+08
 -1        62-1.07457E+09 4.44732E+08-2.96237E+07-1.22064E+09-1.11817E+08-5.57572E+08
 -1        63-5.65788E+08 4.36227E+06-4.26898E+08-1.02469E+09 1.04986E+07-1.61661E+08
 -1        64-8.45572E+07-3.24431E+08-4.38827E+08-7.22419E+08 8.83497E+07-5.97886E+07
 -1        65 3.42991E+08-5.19343E+08-4.89906E+08-5.42097E+08 1.23964E+08-1.61218E+07
 -1        66 6.59052E+08-6.53922E+08-4.79600E+08-3.76658E+08 1.55928E+08-3.26827E+07
 -1        67 8.36035E+08-7.08699E+08-4.50791E+08-2.51251E+08 1.69149E+08-8.58102E+07
 -1        68 8.61749E+08-6.77172E+08-3.94805E+08-1.47034E+08 1.63161E+08-1.56620E+08
 -1        69 7.43504E+08-5.64668E+08-3.14990E+08-6.66795E+07 1.36340E+08-2.27912E+08
 -1        70 5.05444E+08-3.83759E+08-2.14064E+08-8.05630E+06 9.28221E+07-2.84416E+08
 -1        71 1.85688E+08-1.56482E+08-9.90226E+07 2.95753E+07 3.78604E+07-3.14220E+08
 -1        72-1.68685E+08 8.88540E+07 1.98816E+07 4.76285E+07-2.15308E+07-3.10287E+08
 -1        73-5.07551E+08 3.20890E+08 1.30212E+08 4.81347E+07-7.77236E+07-2.70980E+08
 -1        74-7.83832E+08 5.09643E+08 2.19601E+08 3.39817E+07-1.23430E+08-2.00041E+08
 -1        75-9.59338E+08 6.30617E+08 2.77786E+08 8.90031E+06-1.52716E+08-1.05912E+08
 -1        76-1.00953E+09 6.68149E+08 2.98281E+08-2.27721E+07-1.61791E+08-5.02547E+05
 -1        77-9.26575E+08 6.17538E+08 2.79409E+08-5.65120E+07-1.49520E+08 1.02451E+08
 -1        78-7.20213E+08 4.85688E+08 2.24650E+08-8.81535E+07-1.17583E+08 1.89222E+08
 -1        79-4.16350E+08 2.90224E+08 1.42292E+08-1.14484E+08-7.02628E+07 2.47882E+08
 -1        80-5.34415E+07 5.72218E+07 4.45282E+07-1.33830E+08-1.38895E+07 2.69806E+08
 -1        81 3.22882E+08-1.82067E+08-5.37728E+07-1.46585E+08 4.39711E+07 2.50673E+08
 -1        82 6.66345E+08-3.94995E+08-1.36294E+08-1.55628E+08 9.54791E+07 1.90830E+08
 -1        83 9.36921E+08-5.51268E+08-1.86280E+08-1.66515E+08 1.33521E+08 9.49709E+07
 -1        84 1.10698E+09-6.26463E+08-1.87653E+08-1.87236E+08 1.52599E+08-2.87997E+07
 -1        85 1.16537E+09-6.05612E+08-1.27380E+08-2.27130E+08 1.49870E+08-1.70235E+08
 -1        86 1.11741E+09-4.88327E+08-1.83062E+06-2.94515E+08 1.24927E+08-3.18381E+08
 -1        87 9.79306E+08-2.94651E+08 1.70753E+08-3.96306E+08 8.25974E+07-4.62815E+08
 -1        88 7.69194E+08-7.93974E+07 3.32543E+08-5.28118E+08 2.16693E+07-5.98489E+08
 -1        89 4.76034E+08 5.77100E+07 3.55904E+08-7.25853E+08-1.81566E+07-7.24439E+08
 -1        90 1.36151E+08 2.72598E+07 9.90232E+07-9.28896E+08-8.52508E+07-8.74588E+08
 -1        91-1.27096E+09-5.44698E+08-5.44698E+08-4.45734E+09-2.26593E+02 2.24887E+08
 -1        92-1.32524E-01-5.67999E-02-5.67977E-02 3.20956E-02 3.32546E+03 1.97354E+08
 -1        93 1.27096E+09 5.44698E+08 5.44698E+08 4.45734E+09-2.26593E+02 2.24887E+08
 -1        94-1.27096E+09-5.44698E+08-5.44698E+08 4.45734E+09-2.26593E+02-2.24887E+08
 -1        95-1.47681E-01-6.32944E-02-6.32932E-02 3.37880E-02 3.32546E+03-1.97354E+08
 -1        96 1.27096E+09 5.44698E+08 5.44698E+08-4.45734E+09-2.26593E+02-2.24887E+08
 -1        97 1.07457E+09-4.44732E+08 2.96237E+07 1.22064E+09-1.11817E+08-5.57572E+08
 -1        98 5.65788E+08-4.36227E+06 4.26898E+08 1.02469E+09 1.04986E+07-1.61661E+08
 -1        99 8.45572E+07 3.24431E+08 4.38827E+08 7.22419E+08 8.83497E+07-5.97886E+07
 -1       100-3.42991E+08 5.19343E+08 4.89906E+08 5.42097E+08 1.23964E+08-1.61218E+07
 -1       101-6.59052E+08 6.53922E+08 4.79600E+08 3.76658E+08 1.55928E+08-3.26827E+07
 -1       102-8.36035E+08 7.08699E+08 4.50791E+08 2.51251E+08 1.69149E+08-8.58102E+07
 -1       103-8.61749E+08 6.77172E+08 3.94805E+08 1.47034E+08 1.63161E+08-1.56620E+08
 -1       104-7.43504E+08 5.64668E+08 3.14990E+08 6.66795E+07 1.36340E+08-2.27912E+08
 -1       105-5.05444E+08 3.83759E+08 2.14064E+08 8.05630E+06 9.28221E+07-2.84416E+08
 -1       106-1.85688E+08 1.56482E+08 9.90226E+07-2.95753E+07 3.78604E+07-3.14220E+08
 -1       107 1.68685E+08-8.88540E+07-1.98816E+07-4.76285E+07-2.15308E+07-3.10287E+08
 -1       108 5.07551E+08-3.20890E+08-1.30212E+08-4.81347E+07-7.77236E+07-2.70980E+08
 -1       109 7.83832E+08-5.09643E+08-2.19601E+08-3.39817E+07-1.23430E+08-2.00041E+08
 -1       110 9.59338E+08-6.30617E+08-2.77786E+08-8.90031E+06-1.52716E+08-1.05912E+08
 -1       111 1.00953E+09-6.68149E+08-2.98281E+08 2.27721E+07-1.61791E+08-5.02547E+05
 -1       112 9.26575E+08-6.17538E+08-2.79409E+08 5.65120E+07-1.49520E+08 1.02451E+08
 -1       113 7.20213E+08-4.85688E+08-2.24650E+08 8.81535E+07-1.17583E+08 1.89222E+08
 -1       114 4.16350E+08-2.90224E+08-1.42292E+08 1.14484E+08-7.02628E+07 2.47882E+08
 -1       115 5.34415E+07-5.72218E+07-4.45282E+07 1.33830E+08-1.38895E+07 2.69806E+08
 -1       116-3.22882E+08 1.82067E+08 5.37728E+07 1.46585E+08 4.39711E+07 2.50673E+08
 -1       117-6.66345E+08 3.94995E+08 1.36294E+08 1.55628E+08 9.54791E+07 1.90830E+08
 -1       118-9.36921E+08 5.51268E+08 1.86280E+08 1.66515E+08 1.33521E+08 9.49709E+07
 -1       119-1.10698E+09 6.26463E+08 1.87653E+08 1.87236E+08 1.52599E+08-2.87997E+07
 -1       120-1.16537E+09 6.05612E+08 1.27380E+08 2.27130E+08 1.49870E+08-1.70235E+08
 -1       121-1.11741E+09 4.88327E+08 1.83062E+06 2.94515E+08 1.24927E+08-3.18381E+08
 -1       122-9.79306E+08 2.94651E+08-1.70753E+08 3.96306E+08 8.25974E+07-4.62815E+08
 -1       123-7.69194E+08 7.93974E+07-3.32543E+08 5.28118E+08 2.16693E+07-5.98489E+08
 -1       124-4.76034E+08-5.77100E+07-3.55904E+08 7.25853E+08-1.81566E+07-7.24439E+08
 -1       125-1.36151E+08-2.72598E+07-9.90232E+07 9.28896E+08-8.52508E+07-8.74588E+08
 -1       126-1.12224E+08-1.30837E+08-3.23900E+08 2.13537E+07-3.96408E+07-2.07207E+09
 -1       127-8.44517E-03-1.03424E-03-5.56878E-02 4.36224E-03 5.19408E+08-2.15066E+09
 -1       128 1.12224E+08 1.30837E+08 3.23900E+08-2.13537E+07-3.96408E+07-2.07207E+09
 -1       129-1.07457E+09 4.44732E+08-2.96237E+07 1.22064E+09-1.11817E+08 5.57572E+08
 -1       130-5.65788E+08 4.36227E+06-4.26898E+08 1.02469E+09 1.04986E+07 1.61661E+08
 -1       131-8.45572E+07-3.24431E+08-4.38827E+08 7.22419E+08 8.83497E+07 5.97886E+07
 -1       132 3.42991E+08-5.19343E+08-4.89906E+08 5.42097E+08 1.23964E+08 1.61218E+07
 -1       133 6.59052E+08-6.53922E+08-4.79600E+08 3.76658E+08 1.55928E+08 3.26827E+07
 -1       134 8.36035E+08-7.08699E+08-4.50791E+08 2.51251E+08 1.69149E+08 8.58102E+07
 -1       135 8.61749E+08-6.77172E+08-3.94805E+08 1.47034E+08 1.63161E+08 1.56620E+08
 -1       136 7.43504E+08-5.64668E+08-3.14990E+08 6.66795E+07 1.36340E+08 2.27912E+08
 -1       137 5.05444E+08-3.83759E+08-2.14064E+08 8.05630E+06 9.28221E+07 2.84416E+08
 -1       138 1.85688E+08-1.56482E+08-9.90226E+07-2.95753E+07 3.78604E+07 3.14220E+08
 -1       139-1.68685E+08 8.88540E+07 1.98816E+07-4.76285E+07-2.15308E+07 3.10287E+08
 -1       140-5.07551E+08 3.20890E+08 1.30212E+08-4.81347E+07-7.77236E+07 2.70980E+08
 -1       141-7.83832E+08 5.09643E+08 2.19601E+08-3.39817E+07-1.23430E+08 2.00041E+08
 -1       142-9.59338E+08 6.30617E+08 2.77786E+08-8.90031E+06-1.52716E+08 1.05912E+08
 -1       143-1.00953E+09 6.68149E+08 2.98281E+08 2.27721E+07-1.61791E+08 5.02546E+05
 -1       144-9.26575E+08 6.17538E+08 2.79409E+08 5.65120E+07-1.49520E+08-1.02451E+08
 -1       145-7.20213E+08 4.85688E+08 2.24650E+08 8.81535E+07-1.17583E+08-1.89222E+08
 -1       146-4.16350E+08 2.90224E+08 1.42292E+08 1.14484E+08-7.02628E+07-2.47882E+08
 -1       147-5.34415E+07 5.72218E+07 4.45282E+07 1.33830E+08-1.38895E+07-2.69806E+08
 -1       148 3.22882E+08-1.82067E+08-5.37728E+07 1.46585E+08 4.39711E+07-2.50673E+08
 -1       149 6.66345E+08-3.94995E+08-1.36294E+08 1.55628E+08 9.54791E+07-1.90830E+08
 -1       150 9.36921E+08-5.51268E+08-1.86280E+08 1.66515E+08 1.33521E+08-9.49709E+07
 -1       151 1.10698E+09-6.26463E+08-1.87653E+08 1.87236E+08 1.52599E+08 2.87997E+07
 -1       152 1.16537E+09-6.05612E+08-1.27380E+08 2.27130E+08 1.49870E+08 1.70235E+08
 -1       153 1.11741E+09-4.88327E+08-1.83062E+06 2.94515E+08 1.24927E+08 3.18381E+08
 -1       154 9.79306E+08-2.94651E+08 1.70753E+08 3.96306E+08 8.25974E+07 4.62815E+08
 -1       155 7.69194E+08-7.93974E+07 3.32543E+08 5.28118E+08 2.16693E+07 5.98489E+08
 -1       156 4.76034E+08 5.77100E+07 3.55904E+08 7.25853E+08-1.81566E+07 7.24439E+08
 -1       157 1.36151E+08 2.72598E+07 9.90232E+07 9.28896E+08-8.52508E+07 8.74588E+08
 -1       158-1.12224E+08-1.30837E+08-3.23900E+08-2.13537E+07-3.96408E+07 2.07207E+09
 -1       159 6.87137E-03 1.18309E-02-2.81386E-02 4.97660E-03 5.19408E+08 2.15066E+09
 -1       160 1.12224E+08 1.30837E+08 3.23900E+08 2.13537E+07-3.96408E+07 2.07207E+09
 -1       161-5.32205E+08 1.08044E+09 4.28395E+08-5.86193E+09 3.00160E+08-1.14952E+09
 -1       162-5.33649E+08 3.19994E+08-4.19487E+08-5.82691E+09 9.89066E+07-6.99829E+08
 -1       163-9.30451E+07-1.14097E+08-4.85389E+08-5.42810E+09 2.10729E+08-5.98828E+08
 -1       164 2.13967E+08-4.42620E+08-6.57133E+08-4.30011E+09 1.73056E+08-4.45306E+08
 -1       165 4.47493E+08-6.92583E+08-7.22235E+08-2.64146E+09 1.64851E+08-2.97163E+08
 -1       166 5.79426E+08-8.19154E+08-7.34313E+08-6.72808E+08 1.41289E+08-1.47640E+08
 -1       167 6.01728E+08-8.18266E+08-6.76582E+08 1.36780E+09 1.18085E+08-7.01671E+06
 -1       168 5.20582E+08-6.96493E+08-5.54398E+08 3.21854E+09 9.10769E+07 1.14479E+08
 -1       169 3.53731E+08-4.73355E+08-3.76930E+08 4.63974E+09 6.19134E+07 2.06175E+08
 -1       170 1.28390E+08-1.81303E+08-1.62143E+08 5.44579E+09 3.10593E+07 2.60256E+08
 -1       171-1.21875E+08 1.39227E+08 6.60194E+07 5.53122E+09 4.45285E+05 2.72571E+08
 -1       172-3.61413E+08 4.44500E+08 2.80309E+08 4.88524E+09-2.74463E+07 2.43582E+08
 -1       173-5.56751E+08 6.93192E+08 4.54365E+08 3.59340E+09-4.99497E+07 1.78503E+08
 -1       174-6.80739E+08 8.51688E+08 5.66556E+08 1.82637E+09-6.48181E+07 8.68038E+07
 -1       175-7.15918E+08 8.98424E+08 6.03106E+08-1.82595E+08-7.06457E+07-1.89313E+07
 -1       176-6.56673E+08 8.26656E+08 5.60080E+08-2.16844E+09-6.71443E+07-1.24590E+08
 -1       177-5.09862E+08 6.45272E+08 4.44005E+08-3.86926E+09-5.52388E+07-2.16374E+08
 -1       178-2.93793E+08 3.77546E+08 2.71104E+08-5.06091E+09-3.70004E+07-2.82634E+08
 -1       179-3.56633E+07 5.79916E+07 6.53224E+07-5.58643E+09-1.54634E+07-3.15484E+08
 -1       180 2.32247E+08-2.72287E+08-1.44484E+08-5.37671E+09 5.59657E+06-3.11972E+08
 -1       181 4.77212E+08-5.71126E+08-3.27684E+08-4.45941E+09 2.18169E+07-2.74677E+08
 -1       182 6.70944E+08-8.00999E+08-4.54854E+08-2.95537E+09 2.83364E+07-2.11633E+08
 -1       183 7.93989E+08-9.34203E+08-5.00679E+08-1.06343E+09 1.98762E+07-1.35554E+08
 -1       184 8.38827E+08-9.56804E+08-4.47550E+08 9.63627E+08-7.98443E+06-6.22606E+07
 -1       185 8.10116E+08-8.71327E+08-2.92307E+08 2.84683E+09-5.74864E+07-8.65290E+06
 -1       186 7.20825E+08-6.98335E+08-5.86277E+07 4.31202E+09-1.17399E+08 1.00666E+07
 -1       187 5.88724E+08-4.70260E+08 1.90929E+08 5.12145E+09-1.75921E+08-2.14157E+07
 -1       188 4.08271E+08-2.54555E+08 3.13849E+08 5.12081E+09-1.34659E+08-1.07385E+08
 -1       189 1.80075E+08-8.32180E+07 1.33283E+08 4.35206E+09-7.69698E+07-3.06998E+08
 -1       190-1.62238E+10-6.95317E+09-6.95318E+09-1.07632E+10 4.70978E+02 2.41714E+09
 -1       191-1.82228E+10-7.80988E+09-7.80989E+09-1.00357E+10-1.70731E+03 2.66313E+09
 -1       192 1.17567E+09 5.20372E+08 4.38351E+08 3.14859E+09 2.12348E+08 8.05300E+07
 -1       193-1.93318E+10 2.23398E+09 5.27116E+09-2.86133E+09 2.47970E+08-7.49662E+08
 -1       194-1.07862E+10-1.47629E+09-1.36842E+09-2.91790E+09 5.49767E+07-1.74602E+08
 -1       195 2.05685E+09 1.88121E+08 2.13494E+07-2.82974E+09 3.31486E+07-5.97583E+07
 -1       196 1.19337E+10 7.40662E+08-4.25769E+08-2.23627E+09-4.69793E+07-1.47513E+07
 -1       197 1.91848E+10 1.30284E+09-3.80105E+08-1.34782E+09-9.34768E+07-2.87511E+07
 -1       198 2.29275E+10 1.56370E+09-4.17791E+08-2.44948E+08-1.21684E+08-5.21668E+07
 -1       199 2.30240E+10 1.57936E+09-3.89098E+08 9.11535E+08-1.26041E+08-8.22889E+07
 -1       200 1.96334E+10 1.34829E+09-3.24033E+08 1.96873E+09-1.09009E+08-1.10654E+08
 -1       201 1.33436E+10 9.16169E+08-2.20612E+08 2.78243E+09-7.40726E+07-1.31961E+08
 -1       202 5.07846E+09 3.46943E+08-9.17322E+07 3.24121E+09-2.70393E+07-1.42088E+08
 -1       203-4.00485E+09-2.79035E+08 4.72243E+07 3.28103E+09 2.51296E+07-1.38391E+08
 -1       204-1.26608E+10-8.75711E+08 1.78555E+08 2.89406E+09 7.50242E+07-1.20128E+08
 -1       205-1.97132E+10-1.36184E+09 2.85407E+08 2.12966E+09 1.15702E+08-8.87393E+07
 -1       206-2.42054E+10-1.67136E+09 3.54024E+08 1.08764E+09 1.41527E+08-4.77066E+07
 -1       207-2.55237E+10-1.76185E+09 3.75661E+08-9.51049E+07 1.48878E+08-2.06367E+06
 -1       208-2.34753E+10-1.61993E+09 3.47752E+08-1.26273E+09 1.36591E+08 4.23039E+07
 -1       209-1.83118E+10-1.26291E+09 2.74269E+08-2.26109E+09 1.06097E+08 7.94408E+07
 -1       210-1.06933E+10-7.36279E+08 1.65198E+08-2.95802E+09 6.12116E+07 1.04062E+08
 -1       211-1.59910E+09-1.07652E+08 3.52049E+07-3.26061E+09 7.60833E+06 1.12154E+08
 -1       212 7.80442E+09 5.42389E+08-9.82919E+07-3.12715E+09-4.79675E+07 1.01413E+08
 -1       213 1.63224E+10 1.13120E+09-2.17323E+08-2.57219E+09-9.86698E+07 7.15991E+07
 -1       214 2.28952E+10 1.58562E+09-3.05333E+08-1.66423E+09-1.38576E+08 2.50127E+07
 -1       215 2.67492E+10 1.85289E+09-3.48447E+08-5.16985E+08-1.63758E+08-3.26828E+07
 -1       216 2.75134E+10 1.91002E+09-3.35621E+08 7.23582E+08-1.72752E+08-9.19134E+07
 -1       217 2.52897E+10 1.77026E+09-2.58416E+08 1.89401E+09-1.67631E+08-1.39436E+08
 -1       218 2.06652E+10 1.48376E+09-1.10909E+08 2.82734E+09-1.50914E+08-1.62860E+08
 -1       219 1.46423E+10 1.13367E+09 9.59041E+07 3.36767E+09-1.30827E+08-1.81947E+08
 -1       220 8.49883E+09 7.87421E+08 3.36139E+08 3.43207E+09-8.21684E+07-2.42109E+08
 -1       221 3.62350E+09 5.37166E+08 4.63763E+08 3.04327E+09-1.14655E+08-5.83345E+08
 -1       222-2.20434E+10 1.25288E+09 4.16334E+09-3.52655E+08-4.38235E+08-6.89680E+08
 -1       223-1.16369E+10-1.87856E+09-1.74431E+09 6.55082E+08-4.15724E+07-4.61549E+08
 -1       224 2.47204E+09 1.82926E+08 1.44349E+08 7.68961E+08 8.81057E+07-2.29510E+08
 -1       225 1.32849E+10 1.04039E+09 6.95134E+07 6.70088E+08 2.50219E+08-1.67259E+08
 -1       226 2.11994E+10 1.82947E+09 3.82256E+08 3.40774E+08 3.46009E+08-1.20581E+08
 -1       227 2.52877E+10 2.21492E+09 4.85648E+08-1.13081E+08 3.96283E+08-8.44561E+07
 -1       228 2.53789E+10 2.24606E+09 5.17389E+08-6.23290E+08 3.89425E+08-5.25208E+07
 -1       229 2.16389E+10 1.92280E+09 4.49964E+08-1.10230E+09 3.29114E+08-2.57170E+07
 -1       230 1.47068E+10 1.30661E+09 3.05471E+08-1.47440E+09 2.23736E+08-4.76787E+06
 -1       231 5.59703E+09 4.89609E+08 1.06639E+08-1.67976E+09 8.76543E+07 9.29497E+06
 -1       232-4.41577E+09-4.11621E+08-1.15828E+08-1.68327E+09-6.08998E+07 1.63137E+07
 -1       233-1.39583E+10-1.27189E+09-3.29548E+08-1.47883E+09-2.02073E+08 1.68359E+07
 -1       234-2.17334E+10-1.97308E+09-5.04021E+08-1.08963E+09-3.17030E+08 1.19295E+07
 -1       235-2.66861E+10-2.41923E+09-6.14539E+08-5.64659E+08-3.90435E+08 3.00802E+06
 -1       236-2.81396E+10-2.54873E+09-6.45186E+08 2.81118E+07-4.12464E+08-8.31317E+06
 -1       237-2.58816E+10-2.34209E+09-5.90768E+08 6.10922E+08-3.80087E+08-2.03853E+07
 -1       238-2.01892E+10-1.82415E+09-4.57321E+08 1.10656E+09-2.97448E+08-3.17360E+07
 -1       239-1.17901E+10-1.06055E+09-2.61148E+08 1.44846E+09-1.75299E+08-4.13116E+07
 -1       240-1.76364E+09-1.48586E+08-2.64375E+07 1.58928E+09-2.95624E+07-4.87177E+07
 -1       241 8.60581E+09 7.96078E+08 2.18231E+08 1.50663E+09 1.20782E+08-5.43762E+07
 -1       242 1.80026E+10 1.65540E+09 4.44011E+08 1.20534E+09 2.56170E+08-5.94384E+07
 -1       243 2.52597E+10 2.32522E+09 6.25873E+08 7.15981E+08 3.58991E+08-6.52235E+07
 -1       244 2.95198E+10 2.72956E+09 7.45722E+08 9.06100E+07 4.15741E+08-7.19646E+07
 -1       245 3.03579E+10 2.83029E+09 7.93806E+08-6.02885E+08 4.19067E+08-7.75652E+07
 -1       246 2.78495E+10 2.63119E+09 7.67787E+08-1.28620E+09 3.68363E+08-7.69440E+07
 -1       247 2.25842E+10 2.17857E+09 6.73220E+08-1.87444E+09 2.73263E+08-6.57740E+07
 -1       248 1.56312E+10 1.55163E+09 5.17986E+08-2.28255E+09 1.49171E+08-7.01575E+07
 -1       249 8.47891E+09 8.70550E+08 3.55101E+08-2.48016E+09 4.99976E+07-1.42091E+08
 -1       250 3.16236E+09 4.85620E+08 3.09958E+08-2.42228E+09-8.28974E+07-5.22862E+08
 -1       251 7.65073E+08-1.18425E+08 1.23532E+08-2.30628E+09 2.10872E+08 1.03994E+08
 -1       252-1.80075E+08 8.32180E+07-1.33283E+08-4.35206E+09-7.69698E+07-3.06998E+08
 -1       253-4.08271E+08 2.54555E+08-3.13849E+08-5.12081E+09-1.34659E+08-1.07385E+08
 -1       254-5.88724E+08 4.70260E+08-1.90929E+08-5.12145E+09-1.75921E+08-2.14157E+07
 -1       255-7.20825E+08 6.98335E+08 5.86277E+07-4.31202E+09-1.17399E+08 1.00666E+07
 -1       256-8.10116E+08 8.71327E+08 2.92307E+08-2.84683E+09-5.74864E+07-8.65290E+06
 -1       257-8.38827E+08 9.56804E+08 4.47550E+08-9.63627E+08-7.98443E+06-6.22606E+07
 -1       258-7.93989E+08 9.34203E+08 5.00679E+08 1.06343E+09 1.98762E+07-1.35554E+08
 -1       259-6.70944E+08 8.00999E+08 4.54854E+08 2.95537E+09 2.83364E+07-2.11633E+08
 -1       260-4.77212E+08 5.71126E+08 3.27684E+08 4.45941E+09 2.18169E+07-2.74677E+08
 -1       261-2.32247E+08 2.72287E+08 1.44484E+08 5.37671E+09 5.59657E+06-3.11972E+08
 -1       262 3.56633E+07-5.79916E+07-6.53224E+07 5.58643E+09-1.54634E+07-3.15484E+08
 -1       263 2.93793E+08-3.77546E+08-2.71104E+08 5.06091E+09-3.70004E+07-2.82634E+08
 -1       264 5.09862E+08-6.45272E+08-4.44005E+08 3.86926E+09-5.52388E+07-2.16374E+08
 -1       265 6.56673E+08-8.26656E+08-5.60080E+08 2.16844E+09-6.71443E+07-1.24590E+08
 -1       266 7.15918E+08-8.98424E+08-6.03106E+08 1.82595E+08-7.06457E+07-1.89313E+07
 -1       267 6.80739E+08-8.51688E+08-5.66556E+08-1.82637E+09-6.48181E+07 8.68038E+07
 -1       268 5.56751E+08-6.93192E+08-4.54365E+08-3.59340E+09-4.99497E+07 1.78503E+08
 -1       269 3.61413E+08-4.44500E+08-2.80309E+08-4.88524E+09-2.74463E+07 2.43582E+08
 -1       270 1.21875E+08-1.39227E+08-6.60194E+07-5.53122E+09 4.45285E+05 2.72571E+08
 -1       271-1.28390E+08 1.81303E+08 1.62143E+08-5.44579E+09 3.10593E+07 2.60256E+08
 -1       272-3.53731E+08 4.73355E+08 3.76930E+08-4.63974E+09 6.19134E+07 2.06175E+08
 -1       273-5.20582E+08 6.96493E+08 5.54398E+08-3.21854E+09 9.10769E+07 1.14479E+08
 -1       274-6.01728E+08 8.18266E+08 6.76582E+08-1.36780E+09 1.18085E+08-7.01671E+06
 -1       275-5.79426E+08 8.19154E+08 7.34313E+08 6.72808E+08 1.41289E+08-1.47640E+08
 -1       276-4.47493E+08 6.92583E+08 7.22235E+08 2.64146E+09 1.64851E+08-2.97163E+08
 -1       277-2.13967E+08 4.42620E+08 6.57133E+08 4.30011E+09 1.73056E+08-4.45306E+08
 -1       278 9.30451E+07 1.14097E+08 4.85389E+08 5.42810E+09 2.10729E+08-5.98828E+08
 -1       279 5.33649E+08-3.19994E+08 4.19487E+08 5.82691E+09 9.89066E+07-6.99829E+08
 -1       280 5.32205E+08-1.08044E+09-4.28395E+08 5.86193E+09 3.00160E+08-1.14952E+09
 -1       281 1.82228E+10 7.80988E+09 7.80989E+09 1.00357E+10-1.70731E+03 2.66313E+09
 -1       282 1.62238E+10 6.95317E+09 6.95318E+09 1.07632E+10 4.70978E+02 2.41714E+09
 -1       283 2.20434E+10-1.25288E+09-4.16334E+09 3.52655E+08-4.38235E+08-6.89680E+08
 -1       284 1.16369E+10 1.87856E+09 1.74431E+09-6.55082E+08-4.15724E+07-4.61549E+08
 -1       285-2.47204E+09-1.82926E+08-1.44349E+08-7.68961E+08 8.81057E+07-2.29510E+08
 -1       286-1.32849E+10-1.04039E+09-6.95134E+07-6.70088E+08 2.50219E+08-1.67259E+08
 -1       287-2.11994E+10-1.82947E+09-3.82256E+08-3.40774E+08 3.46009E+08-1.20581E+08
 -1       288-2.52877E+10-2.21492E+09-4.85648E+08 1.13081E+08 3.96283E+08-8.44561E+07
 -1       289-2.53789E+10-2.24606E+09-5.17389E+08 6.23290E+08 3.89425E+08-5.25208E+07
 -1       290-2.16389E+10-1.92280E+09-4.49964E+08 1.10230E+09 3.29114E+08-2.57170E+07
 -1       291-1.47068E+10-1.30661E+09-3.05471E+08 1.47440E+09 2.23736E+08-4.76787E+06
 -1       292-5.59703E+09-4.89609E+08-1.06639E+08 1.67976E+09 8.76543E+07 9.29497E+06
 -1       293 4.41577E+09 4.11621E+08 1.15828E+08 1.68327E+09-6.08998E+07 1.63137E+07
 -1       294 1.39583E+10 1.27189E+09 3.29548E+08 1.47883E+09-2.02073E+08 1.68359E+07
 -1       295 2.17334E+10 1.97308E+09 5.04021E+08 1.08963E+09-3.17030E+08 1.19295E+07
 -1       296 2.66861E+10 2.41923E+09 6.14539E+08 5.64659E+08-3.90435E+08 3.00802E+06
 -1       297 2.81396E+10 2.54873E+09 6.45186E+08-2.81118E+07-4.12464E+08-8.31317E+06
 -1       298 2.58816E+10 2.34209E+09 5.90768E+08-6.10922E+08-3.80087E+08-2.03853E+07
 -1       299 2.01892E+10 1.82415E+09 4.57321E+08-1.10656E+09-2.97448E+08-3.17360E+07
 -1       300 1.17901E+10 1.06055E+09 2.61148E+08-1.44846E+09-1.75299E+08-4.13116E+07
 -1       301 1.76364E+09 1.48586E+08 2.64375E+07-1.58928E+09-2.95624E+07-4.87177E+07
 -1       302-8.60581E+09-7.96078E+08-2.18231E+08-1.50663E+09 1.20782E+08-5.43762E+07
 -1       303-1.80026E+10-1.65540E+09-4.44011E+08-1.20534E+09 2.56170E+08-5.94384E+07
 -1       304-2.52597E+10-2.32522E+09-6.25873E+08-7.15981E+08 3.58991E+08-6.52235E+07
 -1       305-2.95198E+10-2.72956E+09-7.45722E+08-9.06100E+07 4.15741E+08-7.19646E+07
 -1       306-3.03579E+10-2.83029E+09-7.93806E+08 6.02885E+08 4.19067E+08-7.75652E+07
 -1       307-2.78495E+10-2.63119E+09-7.67787E+08 1.28620E+09 3.68363E+08-7.69440E+07
 -1       308-2.25842E+10-2.17857E+09-6.73220E+08 1.87444E+09 2.73263E+08-6.57740E+07
 -1       309-1.56312E+10-1.55163E+09-5.17986E+08 2.28255E+09 1.49171E+08-7.01575E+07
 -1       310-8.47891E+09-8.70550E+08-3.55101E+08 2.48016E+09 4.99976E+07-1.42091E+08
 -1       311-3.16236E+09-4.85620E+08-3.09958E+08 2.42228E+09-8.28974E+07-5.22862E+08
 -1       312-7.65073E+08 1.18425E+08-1.23532E+08 2.30628E+09 2.10872E+08 1.03994E+08
 -1       313 1.93318E+10-2.23398E+09-5.27116E+09 2.86133E+09 2.47970E+08-7.49662E+08
 -1       314 1.07862E+10 1.47629E+09 1.36842E+09 2.91790E+09 5.49767E+07-1.74602E+08
 -1       315-2.05685E+09-1.88121E+08-2.13494E+07 2.82974E+09 3.31486E+07-5.97583E+07
 -1       316-1.19337E+10-7.40662E+08 4.25769E+08 2.23627E+09-4.69793E+07-1.47513E+07
 -1       317-1.91848E+10-1.30284E+09 3.80105E+08 1.34782E+09-9.34768E+07-2.87511E+07
 -1       318-2.29275E+10-1.56370E+09 4.17791E+08 2.44948E+08-1.21684E+08-5.21668E+07
 -1       319-2.30240E+10-1.57936E+09 3.89098E+08-9.11535E+08-1.26041E+08-8.22889E+07
 -1       320-1.96334E+10-1.34829E+09 3.24033E+08-1.96873E+09-1.09009E+08-1.10654E+08
 -1       321-1.33436E+10-9.16169E+08 2.20612E+08-2.78243E+09-7.40726E+07-1.31961E+08
 -1       322-5.07846E+09-3.46943E+08 9.17322E+07-3.24121E+09-2.70393E+07-1.42088E+08
 -1       323 4.00485E+09 2.79035E+08-4.72243E+07-3.28103E+09 2.51296E+07-1.38391E+08
 -1       324 1.26608E+10 8.75711E+08-1.78555E+08-2.89406E+09 7.50242E+07-1.20128E+08
 -1       325 1.97132E+10 1.36184E+09-2.85407E+08-2.12966E+09 1.15702E+08-8.87393E+07
 -1       326 2.42054E+10 1.67136E+09-3.54024E+08-1.08764E+09 1.41527E+08-4.77066E+07
 -1       327 2.55237E+10 1.76185E+09-3.75661E+08 9.51049E+07 1.48878E+08-2.06367E+06
 -1       328 2.34753E+10 1.61993E+09-3.47752E+08 1.26273E+09 1.36591E+08 4.23039E+07
 -1       329 1.83118E+10 1.26291E+09-2.74269E+08 2.26109E+09 1.06097E+08 7.94408E+07
 -1       330 1.06933E+10 7.36279E+08-1.65198E+08 2.95802E+09 6.12116E+07 1.04062E+08
 -1       331 1.59910E+09 1.07652E+08-3.52049E+07 3.26061E+09 7.60833E+06 1.12154E+08
 -1       332-7.80442E+09-5.42389E+08 9.82919E+07 3.12715E+09-4.79675E+07 1.01413E+08
 -1       333-1.63224E+10-1.13120E+09 2.17323E+08 2.57219E+09-9.86698E+07 7.15991E+07
 -1       334-2.28952E+10-1.58562E+09 3.05333E+08 1.66423E+09-1.38576E+08 2.50127E+07
 -1       335-2.67492E+10-1.85289E+09 3.48447E+08 5.16985E+08-1.63758E+08-3.26828E+07
 -1       336-2.75134E+10-1.91002E+09 3.35621E+08-7.23582E+08-1.72752E+08-9.19134E+07
 -1       337-2.52897E+10-1.77026E+09 2.58416E+08-1.89401E+09-1.67631E+08-1.39436E+08
 -1       338-2.06652E+10-1.48376E+09 1.10909E+08-2.82734E+09-1.50914E+08-1.62860E+08
 -1       339-1.46423E+10-1.13367E+09-9.59041E+07-3.36767E+09-1.30827E+08-1.81947E+08
 -1       340-8.49883E+09-7.87421E+08-3.36139E+08-3.43207E+09-8.21684E+07-2.42109E+08
 -1       341-3.62350E+09-5.37166E+08-4.63763E+08-3.04327E+09-1.14655E+08-5.83345E+08
 -1       342-1.17567E+09-5.20372E+08-4.38351E+08-3.14859E+09 2.12348E+08 8.05300E+07
 -1       343 1.93318E+10-2.23398E+09-5.27116E+09-2.86133E+09 2.47970E+08 7.49662E+08
 -1       344 1.07862E+10 1.47629E+09 1.36842E+09-2.91790E+09 5.49767E+07 1.74602E+08
 -1       345-2.05685E+09-1.88121E+08-2.13494E+07-2.82974E+09 3.31486E+07 5.97583E+07
 -1       346-1.19337E+10-7.40662E+08 4.25769E+08-2.23627E+09-4.69793E+07 1.47513E+07
 -1       347-1.91848E+10-1.30284E+09 3.80105E+08-1.34782E+09-9.34768E+07 2.87511E+07
 -1       348-2.29275E+10-1.56370E+09 4.17791E+08-2.44948E+08-1.21684E+08 5.21668E+07
 -1       349-2.30240E+10-1.57936E+09 3.89098E+08 9.11535E+08-1.26041E+08 8.22889E+07
 -1       350-1.96334E+10-1.34829E+09 3.24033E+08 1.96873E+09-1.09009E+08 1.10654E+08
 -1       351-1.33436E+10-9.16169E+08 2.20612E+08 2.78243E+09-7.40726E+07 1.31961E+08
 -1       352-5.07846E+09-3.46943E+08 9.17322E+07 3.24121E+09-2.70393E+07 1.42088E+08
 -1       353 4.00485E+09 2.79035E+08-4.72243E+07 3.28103E+09 2.51296E+07 1.38391E+08
 -1       354 1.26608E+10 8.75711E+08-1.78555E+08 2.89406E+09 7.50242E+07 1.20128E+08
 -1       355 1.97132E+10 1.36184E+09-2.85407E+08 2.12966E+09 1.15702E+08 8.87393E+07
 -1       356 2.42054E+10 1.67136E+09-3.54024E+08 1.08764E+09 1.41527E+08 4.77066E+07
 -1       357 2.55237E+10 1.76185E+09-3.75661E+08-9.51049E+07 1.48878E+08 2.06367E+06
 -1       358 2.34753E+10 1.61993E+09-3.47752E+08-1.26273E+09 1.36591E+08-4.23039E+07
 -1       359 1.83118E+10 1.26291E+09-2.74269E+08-2.26109E+09 1.06097E+08-7.94408E+07
 -1       360 1.06933E+10 7.36279E+08-1.65198E+08-2.95802E+09 6.12116E+07-1.04062E+08
 -1       361 1.59910E+09 1.07652E+08-3.52049E+07-3.26061E+09 7.60833E+06-1.12154E+08
 -1       362-7.80442E+09-5.42389E+08 9.82919E+07-3.12715E+09-4.79675E+07-1.01413E+08
 -1       363-1.63224E+10-1.13120E+09 2.17323E+08-2.57219E+09-9.86698E+07-7.15991E+07
 -1       364-2.28952E+10-1.58562E+09 3.05333E+08-1.66423E+09-1.38576E+08-2.50127E+07
 -1       365-2.67492E+10-1.85289E+09 3.48447E+08-5.16985E+08-1.63758E+08 3.26828E+07
 -1       366-2.75134E+10-1.91002E+09 3.35621E+08 7.23582E+08-1.72752E+08 9.19134E+07
 -1       367-2.52897E+10-1.77026E+09 2.58416E+08 1.89401E+09-1.67631E+08 1.39436E+08
 -1       368-2.06652E+10-1.48376E+09 1.10909E+08 2.82734E+09-1.50914E+08 1.62860E+08
 -1       369-1.46423E+10-1.13367E+09-9.59041E+07 3.36767E+09-1.30827E+08 1.81947E+08
 -1       370-8.49883E+09-7.87421E+08-3.36139E+08 3.43207E+09-8.21684E+07 2.42109E+08
 -1       371-3.62350E+09-5.37166E+08-4.63763E+08 3.04327E+09-1.14655E+08 5.83345E+08
 -1       372 2.20434E+10-1.25288E+09-4.16334E+09-3.52655E+08-4.38235E+08 6.89680E+08
 -1       373 1.16369E+10 1.87856E+09 1.74431E+09 6.55082E+08-4.15724E+07 4.61549E+08
 -1       374-2.47204E+09-1.82926E+08-1.44349E+08 7.68961E+08 8.81057E+07 2.29510E+08
 -1       375-1.32849E+10-1.04039E+09-6.95134E+07 6.70088E+08 2.50219E+08 1.67259E+08
 -1       376-2.11994E+10-1.82947E+09-3.82256E+08 3.40774E+08 3.46009E+08 1.20581E+08
 -1       377-2.52877E+10-2.21492E+09-4.85648E+08-1.13081E+08 3.96283E+08 8.44561E+07
 -1       378-2.53789E+10-2.24606E+09-5.17389E+08-6.23290E+08 3.89425E+08 5.25208E+07
 -1       379-2.16389E+10-1.92280E+09-4.49964E+08-1.10230E+09 3.29114E+08 2.57170E+07
 -1       380-1.47068E+10-1.30661E+09-3.05471E+08-1.47440E+09 2.23736E+08 4.76787E+06
 -1       381-5.59703E+09-4.89609E+08-1.06639E+08-1.67976E+09 8.76543E+07-9.29497E+06
 -1       382 4.41577E+09 4.11621E+08 1.15828E+08-1.68327E+09-6.08998E+07-1.63137E+07
 -1       383 1.39583E+10 1.27189E+09 3.29548E+08-1.47883E+09-2.02073E+08-1.68359E+07
 -1       384 2.17334E+10 1.97308E+09 5.04021E+08-1.08963E+09-3.17030E+08-1.19295E+07
 -1       385 2.66861E+10 2.41923E+09 6.14539E+08-5.64659E+08-3.90435E+08-3.00802E+06
 -1       386 2.81396E+10 2.54873E+09 6.45186E+08 2.81118E+07-4.12464E+08 8.31317E+06
 -1       387 2.58816E+10 2.34209E+09 5.90768E+08 6.10922E+08-3.80087E+08 2.03853E+07
 -1       388 2.01892E+10 1.82415E+09 4.57321E+08 1.10656E+09-2.97448E+08 3.17360E+07
 -1       389 1.17901E+10 1.06055E+09 2.61148E+08 1.44846E+09-1.75299E+08 4.13116E+07
 -1       390 1.76364E+09 1.48586E+08 2.64375E+07 1.58928E+09-2.95624E+07 4.87177E+07
 -1       391-8.60581E+09-7.96078E+08-2.18231E+08 1.50663E+09 1.20782E+08 5.43762E+07
 -1       392-1.80026E+10-1.65540E+09-4.44011E+08 1.20534E+09 2.56170E+08 5.94384E+07
 -1       393-2.52597E+10-2.32522E+09-6.25873E+08 7.15981E+08 3.58991E+08 6.52235E+07
 -1       394-2.95198E+10-2.72956E+09-7.45722E+08 9.06100E+07 4.15741E+08 7.19646E+07
 -1       395-3.03579E+10-2.83029E+09-7.93806E+08-6.02885E+08 4.19067E+08 7.75652E+07
 -1       396-2.78495E+10-2.63119E+09-7.67787E+08-1.28620E+09 3.68363E+08 7.69440E+07
 -1       397-2.25842E+10-2.17857E+09-6.73220E+08-1.87444E+09 2.73263E+08 6.57740E+07
 -1       398-1.56312E+10-1.55163E+09-5.17986E+08-2.28255E+09 1.49171E+08 7.01575E+07
 -1       399-8.47891E+09-8.70550E+08-3.55101E+08-2.48016E+09 4.99976E+07 1.42091E+08
 -1       400-3.16236E+09-4.85620E+08-3.09958E+08-2.42228E+09-8.28974E+07 5.22862E+08
 -1       401 1.62238E+10 6.95317E+09 6.95318E+09-1.07632E+10 4.70978E+02-2.41714E+09
 -1       402 1.82228E+10 7.80988E+09 7.80989E+09-1.00357E+10-1.70731E+03-2.66313E+09
 -1       403-1.17567E+09-5.20372E+08-4.38351E+08 3.14859E+09 2.12348E+08-8.05300E+07
 -1       404 5.32205E+08-1.08044E+09-4.28395E+08-5.86193E+09 3.00160E+08 1.14952E+09
 -1       405 5.33649E+08-3.19994E+08 4.19487E+08-5.82691E+09 9.89066E+07 6.99829E+08
 -1       406 9.30451E+07 1.14097E+08 4.85389E+08-5.42810E+09 2.10729E+08 5.98828E+08
 -1       407-2.13967E+08 4.42620E+08 6.57133E+08-4.30011E+09 1.73056E+08 4.45306E+08
 -1       408-4.47493E+08 6.92583E+08 7.22235E+08-2.64146E+09 1.64851E+08 2.97163E+08
 -1       409-5.79426E+08 8.19154E+08 7.34313E+08-6.72808E+08 1.41289E+08 1.47640E+08
 -1       410-6.01728E+08 8.18266E+08 6.76582E+08 1.36780E+09 1.18085E+08 7.01671E+06
 -1       411-5.20582E+08 6.96493E+08 5.54398E+08 3.21854E+09 9.10769E+07-1.14479E+08
 -1       412-3.53731E+08 4.73355E+08 3.76930E+08 4.63974E+09 6.19134E+07-2.06175E+08
 -1       413-1.28390E+08 1.81303E+08 1.62143E+08 5.44579E+09 3.10593E+07-2.60256E+08
 -1       414 1.21875E+08-1.39227E+08-6.60194E+07 5.53122E+09 4.45285E+05-2.72571E+08
 -1       415 3.61413E+08-4.44500E+08-2.80309E+08 4.88524E+09-2.74463E+07-2.43582E+08
 -1       416 5.56751E+08-6.93192E+08-4.54365E+08 3.59340E+09-4.99497E+07-1.78503E+08
 -1       417 6.80739E+08-8.51688E+08-5.66556E+08 1.82637E+09-6.48181E+07-8.68038E+07
 -1       418 7.15918E+08-8.98424E+08-6.03106E+08-1.82595E+08-7.06457E+07 1.89313E+07
 -1       419 6.56673E+08-8.26656E+08-5.60080E+08-2.16844E+09-6.71443E+07 1.24590E+08
 -1       420 5.09862E+08-6.45272E+08-4.44005E+08-3.86926E+09-5.52388E+07 2.16374E+08
 -1       421 2.93793E+08-3.77546E+08-2.71104E+08-5.06091E+09-3.70004E+07 2.82634E+08
 -1       422 3.56633E+07-5.79916E+07-6.53224E+07-5.58643E+09-1.54634E+07 3.15484E+08
 -1       423-2.32247E+08 2.72287E+08 1.44484E+08-5.37671E+09 5.59657E+06 3.11972E+08
 -1       424-4.77212E+08 5.71126E+08 3.27684E+08-4.45941E+09 2.18169E+07 2.74677E+08
 -1       425-6.70944E+08 8.00999E+08 4.54854E+08-2.95537E+09 2.83364E+07 2.11633E+08
 -1       426-7.93989E+08 9.34203E+08 5.00679E+08-1.06343E+09 1.98762E+07 1.35554E+08
 -1       427-8.38827E+08 9.56804E+08 4.47550E+08 9.63627E+08-7.98443E+06 6.22606E+07
 -1       428-8.10116E+08 8.71327E+08 2.92307E+08 2.84683E+09-5.74864E+07 8.65290E+06
 -1       429-7.20825E+08 6.98335E+08 5.86277E+07 4.31202E+09-1.17399E+08-1.00666E+07
 -1       430-5.88724E+08 4.70260E+08-1.90929E+08 5.12145E+09-1.75921E+08 2.14157E+07
 -1       431-4.08271E+08 2.54555E+08-3.13849E+08 5.12081E+09-1.34659E+08 1.07385E+08
 -1       432-1.80075E+08 8.32180E+07-1.33283E+08 4.35206E+09-7.69698E+07 3.06998E+08
 -1       433-7.65073E+08 1.18425E+08-1.23532E+08-2.30628E+09 2.10872E+08-1.03994E+08
 -1       434-1.62238E+10-6.95317E+09-6.95318E+09 1.07632E+10 4.70978E+02-2.41714E+09
 -1       435-1.82228E+10-7.80988E+09-7.80989E+09 1.00357E+10-1.70731E+03-2.66313E+09
 -1       436 1.80075E+08-8.32180E+07 1.33283E+08-4.35206E+09-7.69698E+07 3.06998E+08
 -1       437 4.08271E+08-2.54555E+08 3.13849E+08-5.12081E+09-1.34659E+08 1.07385E+08
 -1       438 5.88724E+08-4.70260E+08 1.90929E+08-5.12145E+09-1.75921E+08 2.14157E+07
 -1       439 7.20825E+08-6.98335E+08-5.86277E+07-4.31202E+09-1.17399E+08-1.00666E+07
 -1       440 8.10116E+08-8.71327E+08-2.92307E+08-2.84683E+09-5.74864E+07 8.65290E+06
 -1       441 8.38827E+08-9.56804E+08-4.47550E+08-9.63627E+08-7.98443E+06 6.22606E+07
 -1       442 7.93989E+08-9.34203E+08-5.00679E+08 1.06343E+09 1.98762E+07 1.35554E+08
 -1       443 6.70944E+08-8.00999E+08-4.54854E+08 2.95537E+09 2.83364E+07 2.11633E+08
 -1       444 4.77212E+08-5.71126E+08-3.27684E+08 4.45941E+09 2.18169E+07 2.74677E+08
 -1       445 2.32247E+08-2.72287E+08-1.44484E+08 5.37671E+09 5.59657E+06 3.11972E+08
 -1       446-3.56633E+07 5.79916E+07 6.53224E+07 5.58643E+09-1.54634E+07 3.15484E+08
 -1       447-2.93793E+08 3.77546E+08 2.71104E+08 5.06091E+09-3.70004E+07 2.82634E+08
 -1       448-5.09862E+08 6.45272E+08 4.44005E+08 3.86926E+09-5.52388E+07 2.16374E+08
 -1       449-6.56673E+08 8.26656E+08 5.60080E+08 2.16844E+09-6.71443E+07 1.24590E+08
 -1       450-7.15918E+08 8.98424E+08 6.03106E+08 1.82595E+08-7.06457E+07 1.89313E+07
 -1       451-6.80739E+08 8.51688E+08 5.66556E+08-1.82637E+09-6.48181E+07-8.68038E+07
 -1       452-5.56751E+08 6.93192E+08 4.54365E+08-3.59340E+09-4.99497E+07-1.78503E+08
 -1       453-3.61413E+08 4.44500E+08 2.80309E+08-4.88524E+09-2.74463E+07-2.43582E+08
 -1       454-1.21875E+08 1.39227E+08 6.60194E+07-5.53122E+09 4.45285E+05-2.72571E+08
 -1       455 1.28390E+08-1.81303E+08-1.62143E+08-5.44579E+09 3.10593E+07-2.60256E+08
 -1       456 3.53731E+08-4.73355E+08-3.76930E+08-4.63974E+09 6.19134E+07-2.06175E+08
 -1       457 5.20582E+08-6.96493E+08-5.54398E+08-3.21854E+09 9.10769E+07-1.14479E+08
 -1       458 6.01728E+08-8.18266E+08-6.76582E+08-1.36780E+09 1.18085E+08 7.01671E+06
 -1       459 5.79426E+08-8.19154E+08-7.34313E+08 6.72808E+08 1.41289E+08 1.47640E+08
 -1       460 4.47493E+08-6.92583E+08-7.22235E+08 2.64146E+09 1.64851E+08 2.97163E+08
 -1       461 2.13967E+08-4.42620E+08-6.57133E+08 4.30011E+09 1.73056E+08 4.45306E+08
 -1       462-9.30451E+07-1.14097E+08-4.85389E+08 5.42810E+09 2.10729E+08 5.98828E+08
 -1       463-5.33649E+08 3.19994E+08-4.19487E+08 5.82691E+09 9.89066E+07 6.99829E+08
 -1       464-5.32205E+08 1.08044E+09 4.28395E+08 5.86193E+09 3.00160E+08 1.14952E+09
 -1       465 1.17567E+09 5.20372E+08 4.38351E+08-3.14859E+09 2.12348E+08-8.05300E+07
 -1       466-1.93318E+10 2.23398E+09 5.27116E+09 2.86133E+09 2.47970E+08 7.49662E+08
 -1       467-1.07862E+10-1.47629E+09-1.36842E+09 2.91790E+09 5.49767E+07 1.74602E+08
 -1       468 2.05685E+09 1.88121E+08 2.13494E+07 2.82974E+09 3.31486E+07 5.97583E+07
 -1       469 1.19337E+10 7.40662E+08-4.25769E+08 2.23627E+09-4.69793E+07 1.47513E+07
 -1       470 1.91848E+10 1.30284E+09-3.80105E+08 1.34782E+09-9.34768E+07 2.87511E+07
 -1       471 2.29275E+10 1.56370E+09-4.17791E+08 2.44948E+08-1.21684E+08 5.21668E+07
 -1       472 2.30240E+10 1.57936E+09-3.89098E+08-9.11535E+08-1.26041E+08 8.22889E+07
 -1       473 1.96334E+10 1.34829E+09-3.24033E+08-1.96873E+09-1.09009E+08 1.10654E+08
 -1       474 1.33436E+10 9.16169E+08-2.20612E+08-2.78243E+09-7.40726E+07 1.31961E+08
 -1       475 5.07846E+09 3.46943E+08-9.17322E+07-3.24121E+09-2.70393E+07 1.42088E+08
 -1       476-4.00485E+09-2.79035E+08 4.72243E+07-3.28103E+09 2.51296E+07 1.38391E+08
 -1       477-1.26608E+10-8.75711E+08 1.78555E+08-2.89406E+09 7.50242E+07 1.20128E+08
 -1       478-1.97132E+10-1.36184E+09 2.85407E+08-2.12966E+09 1.15702E+08 8.87393E+07
 -1       479-2.42054E+10-1.67136E+09 3.54024E+08-1.08764E+09 1.41527E+08 4.77066E+07
 -1       480-2.55237E+10-1.76185E+09 3.75661E+08 9.51049E+07 1.48878E+08 2.06367E+06
 -1       481-2.34753E+10-1.61993E+09 3.47752E+08 1.26273E+09 1.36591E+08-4.23039E+07
 -1       482-1.83118E+10-1.26291E+09 2.74269E+08 2.26109E+09 1.06097E+08-7.94408E+07
 -1       483-1.06933E+10-7.36279E+08 1.65198E+08 2.95802E+09 6.12116E+07-1.04062E+08
 -1       484-1.59910E+09-1.07652E+08 3.52049E+07 3.26061E+09 7.60833E+06-1.12154E+08
 -1       485 7.80442E+09 5.42389E+08-9.82919E+07 3.12715E+09-4.79675E+07-1.01413E+08
 -1       486 1.63224E+10 1.13120E+09-2.17323E+08 2.57219E+09-9.86698E+07-7.15991E+07
 -1       487 2.28952E+10 1.58562E+09-3.05333E+08 1.66423E+09-1.38576E+08-2.50127E+07
 -1       488 2.67492E+10 1.85289E+09-3.48447E+08 5.16985E+08-1.63758E+08 3.26828E+07
 -1       489 2.75134E+10 1.91002E+09-3.35621E+08-7.23582E+08-1.72752E+08 9.19134E+07
 -1       490 2.52897E+10 1.77026E+09-2.58416E+08-1.89401E+09-1.67631E+08 1.39436E+08
 -1       491 2.06652E+10 1.48376E+09-1.10909E+08-2.82734E+09-1.50914E+08 1.62860E+08
 -1       492 1.46423E+10 1.13367E+09 9.59041E+07-3.36767E+09-1.30827E+08 1.81947E+08
 -1       493 8.49883E+09 7.87421E+08 3.36139E+08-3.43207E+09-8.21684E+07 2.42109E+08
 -1       494 3.62350E+09 5.37166E+08 4.63763E+08-3.04327E+09-1.14655E+08 5.83345E+08
 -1       495-2.20434E+10 1.25288E+09 4.16334E+09 3.52655E+08-4.38235E+08 6.89680E+08
 -1       496-1.16369E+10-1.87856E+09-1.74431E+09-6.55082E+08-4.15724E+07 4.61549E+08
 -1       497 2.47204E+09 1.82926E+08 1.44349E+08-7.68961E+08 8.81057E+07 2.29510E+08
 -1       498 1.32849E+10 1.04039E+09 6.95134E+07-6.70088E+08 2.50219E+08 1.67259E+08
 -1       499 2.11994E+10 1.82947E+09 3.82256E+08-3.40774E+08 3.46009E+08 1.20581E+08
 -1       500 2.52877E+10 2.21492E+09 4.85648E+08 1.13081E+08 3.96283E+08 8.44561E+07
 -1       501 2.53789E+10 2.24606E+09 5.17389E+08 6.23290E+08 3.89425E+08 5.25208E+07
 -1       502 2.16389E+10 1.92280E+09 4.49964E+08 1.10230E+09 3.29114E+08 2.57170E+07
 -1       503 1.47068E+10 1.30661E+09 3.05471E+08 1.47440E+09 2.23736E+08 4.76787E+06
 -1       504 5.59703E+09 4.89609E+08 1.06639E+08 1.67976E+09 8.76543E+07-9.29497E+06
 -1       505-4.41577E+09-4.11621E+08-1.15828E+08 1.68327E+09-6.08998E+07-1.63137E+07
 -1       506-1.39583E+10-1.27189E+09-3.29548E+08 1.47883E+09-2.02073E+08-1.68359E+07
 -1       507-2.17334E+10-1.97308E+09-5.04021E+08 1.08963E+09-3.17030E+08-1.19295E+07
 -1       508-2.66861E+10-2.41923E+09-6.14539E+08 5.64659E+08-3.90435E+08-3.00802E+06
 -1       509-2.81396E+10-2.54873E+09-6.45186E+08-2.81118E+07-4.12464E+08 8.31317E+06
 -1       510-2.58816E+10-2.34209E+09-5.90768E+08-6.10922E+08-3.80087E+08 2.03853E+07
 -1       511-2.01892E+10-1.82415E+09-4.57321E+08-1.10656E+09-2.97448E+08 3.17360E+07
 -1       512-1.17901E+10-1.06055E+09-2.61148E+08-1.44846E+09-1.75299E+08 4.13116E+07
 -1       513-1.76364E+09-1.48586E+08-2.64375E+07-1.58928E+09-2.95624E+07 4.87177E+07
 -1       514 8.60581E+09 7.96078E+08 2.18231E+08-1.50663E+09 1.20782E+08 5.43762E+07
 -1       515 1.80026E+10 1.65540E+09 4.44011E+08-1.20534E+09 2.56170E+08 5.94384E+07
 -1       516 2.52597E+10 2.32522E+09 6.25873E+08-7.15981E+08 3.58991E+08 6.52235E+07
 -1       517 2.95198E+10 2.72956E+09 7.45722E+08-9.06100E+07 4.15741E+08 7.19646E+07
 -1       518 3.03579E+10 2.83029E+09 7.93806E+08 6.02885E+08 4.19067E+08 7.75652E+07
 -1       519 2.78495E+10 2.63119E+09 7.67787E+08 1.28620E+09 3.68363E+08 7.69440E+07
 -1       520 2.25842E+10 2.17857E+09 6.73220E+08 1.87444E+09 2.73263E+08 6.57740E+07
 -1       521 1.56312E+10 1.55163E+09 5.17986E+08 2.28255E+09 1.49171E+08 7.01575E+07
 -1       522 8.47891E+09 8.70550E+08 3.55101E+08 2.48016E+09 4.99976E+07 1.42091E+08
 -1       523 3.16236E+09 4.85620E+08 3.09958E+08 2.42228E+09-8.28974E+07 5.22862E+08
 -1       524 7.65073E+08-1.18425E+08 1.23532E+08 2.30628E+09 2.10872E+08-1.03994E+08
 -1       525-9.20677E+08-4.15450E+08-4.64156E+08 1.13935E+09-5.44653E+07 6.79696E+08
 -1       526-2.81482E+08-1.31121E+08-1.55587E+08 7.70537E+08 8.71177E+07 9.88219E+08
 -1       527 1.15603E+08 3.67865E+07 7.01914E+06 5.71988E+08 1.74192E+08 1.04464E+09
 -1       528 4.22011E+08 1.63699E+08 1.23654E+08 4.80239E+08 2.31136E+08 8.68285E+08
 -1       529 6.64436E+08 2.67043E+08 2.25706E+08 3.14293E+08 2.63103E+08 5.14654E+08
 -1       530 7.95879E+08 3.25329E+08 2.88551E+08 1.17925E+08 2.70853E+08 4.74728E+07
 -1       531 7.99297E+08 3.29415E+08 2.98752E+08-7.76501E+07 2.51814E+08-4.57351E+08
 -1       532 6.81274E+08 2.81793E+08 2.58035E+08-2.49170E+08 2.07129E+08-9.23997E+08
 -1       533 4.63239E+08 1.91668E+08 1.75655E+08-3.79802E+08 1.40821E+08-1.28429E+09
 -1       534 1.77217E+08 7.26640E+07 6.49961E+07-4.54900E+08 5.98352E+07-1.48614E+09
 -1       535-1.36866E+08-5.83447E+07-5.76157E+07-4.66122E+08-2.65189E+07-1.49979E+09
 -1       536-4.36036E+08-1.83257E+08-1.74820E+08-4.13075E+08-1.07762E+08-1.32126E+09
 -1       537-6.79734E+08-2.85027E+08-2.70356E+08-3.03489E+08-1.73775E+08-9.72652E+08
 -1       538-8.35006E+08-3.49819E+08-3.31056E+08-1.52266E+08-2.16265E+08-4.99032E+08
 -1       539-8.80714E+08-3.68756E+08-3.48473E+08 2.04033E+07-2.29947E+08 3.76424E+07
 -1       540-8.10247E+08-3.39051E+08-3.19924E+08 1.91662E+08-2.13290E+08 5.66744E+08
 -1       541-6.32320E+08-2.64337E+08-2.48802E+08 3.38990E+08-1.68753E+08 1.01832E+09
 -1       542-3.69777E+08-1.54160E+08-1.44090E+08 4.43172E+08-1.02495E+08 1.33229E+09
 -1       543-5.65000E+07-2.26856E+07-1.91186E+07 4.90866E+08-2.36042E+07 1.46634E+09
 -1       544 2.67162E+08 1.13245E+08 1.10321E+08 4.76425E+08 5.69754E+07 1.40136E+09
 -1       545 5.59927E+08 2.36474E+08 2.28320E+08 4.02786E+08 1.27674E+08 1.14383E+09
 -1       546 7.85387E+08 3.32025E+08 3.21364E+08 2.81325E+08 1.77461E+08 7.24669E+08
 -1       547 9.17455E+08 3.89436E+08 3.80664E+08 1.30882E+08 1.97010E+08 1.94778E+08
 -1       548 9.44813E+08 4.04541E+08 4.03655E+08-2.38711E+07 1.79959E+08-3.82351E+08
 -1       549 8.72995E+08 3.79826E+08 3.93092E+08-1.55777E+08 1.25653E+08-9.39974E+08
 -1       550 7.20680E+08 3.21515E+08 3.51038E+08-2.43041E+08 4.16765E+07-1.41840E+09
 -1       551 5.07648E+08 2.32763E+08 2.68228E+08-2.80098E+08-4.54752E+07-1.77421E+09
 -1       552 2.66063E+08 1.19461E+08 1.32141E+08-2.25873E+08-1.00601E+08-1.99068E+09
 -1       553 4.95089E+07-2.76449E+06-5.87238E+07-6.79992E+07-1.11506E+07-2.06758E+09
 -1       554-1.15454E-01 1.62490E-02-9.63055E-04-1.32174E-02 1.90431E+08 7.26391E+08
 -1       555-1.37300E-01-2.19277E-03 1.11745E-02-5.62811E-03-4.34065E+06 1.05357E+09
 -1       556-1.21336E-01-4.23098E-03 2.47632E-02 5.29138E-03-6.56048E+07 1.07646E+09
 -1       557-1.06071E-01 2.33307E-04 2.53538E-02 7.41090E-03-7.46493E+07 8.93039E+08
 -1       558-1.00925E-01 8.49623E-03 2.50399E-02 7.59277E-03-9.48546E+07 5.33678E+08
 -1       559-1.01120E-01 1.32645E-02 3.52328E-02-3.39817E-03-1.14847E+08 5.72893E+07
 -1       560-1.10294E-01 9.88571E-03 2.73660E-02-9.78425E-03-1.17650E+08-4.58627E+08
 -1       561-1.02162E-01 7.94258E-03 1.77994E-02 2.37028E-03-1.01278E+08-9.35103E+08
 -1       562-8.71547E-02 9.46502E-03 5.40970E-03 7.39335E-03-6.93552E+07-1.30280E+09
 -1       563-8.22564E-02 1.09021E-02 1.71042E-02 3.47099E-03-2.69816E+07-1.50895E+09
 -1       564-9.05548E-02 1.69708E-02 2.50412E-02 2.44433E-03 1.97148E+07-1.52342E+09
 -1       565-1.01707E-01 1.71820E-02 3.27820E-02-3.09314E-03 6.42219E+07-1.34229E+09
 -1       566-1.15729E-01 5.23129E-03 1.58825E-02-1.95464E-02 1.00467E+08-9.88083E+08
 -1       567-1.31086E-01-1.25753E-02-2.11653E-02-1.54743E-02 1.23566E+08-5.06665E+08
 -1       568-1.35023E-01-1.88389E-02-2.78772E-02 3.56328E-03 1.30408E+08 3.89490E+07
 -1       569-1.26898E-01-1.37826E-02-1.74417E-02 9.18484E-03 1.20044E+08 5.76940E+08
 -1       570-1.04031E-01-2.93145E-03 6.47640E-03 1.61501E-02 9.38094E+07 1.03618E+09
 -1       571-7.77535E-02 1.11705E-02 3.11063E-02 1.18210E-02 5.51431E+07 1.35562E+09
 -1       572-6.43705E-02 1.50172E-02 2.85015E-02-3.80510E-03 9.11641E+06 1.49224E+09
 -1       573-5.71371E-02 2.82218E-03 1.59360E-03-1.01466E-02-3.83245E+07 1.42673E+09
 -1       574-4.33125E-02 1.82366E-03-1.03839E-02-2.01737E-03-8.13327E+07 1.16583E+09
 -1       575-2.96219E-02 6.50597E-03-1.00226E-02 1.39062E-02-1.15243E+08 7.41258E+08
 -1       576-1.86297E-02 5.28354E-03-2.42411E-03 4.59085E-03-1.37482E+08 2.05062E+08
 -1       577-2.12669E-02 7.54233E-03-5.23750E-04-9.51850E-03-1.47935E+08-3.78168E+08
 -1       578-3.54451E-02 9.99849E-04-2.11060E-03-3.09747E-03-1.46211E+08-9.41644E+08
 -1       579-4.57201E-02-3.97034E-03-8.12843E-04 1.60237E-03-1.26566E+08-1.42779E+09
 -1       580-4.31995E-02-9.37636E-04-9.29196E-03-8.37441E-04-6.22601E+07-1.79532E+09
 -1       581-2.71764E-02-7.38810E-03-1.69307E-02-4.03046E-03 4.81524E+07-2.02344E+09
 -1       582-1.42639E-02-1.29612E-02-3.70769E-02-2.26416E-03 2.68050E+08-2.12591E+09
 -1       583 9.20677E+08 4.15450E+08 4.64156E+08-1.13935E+09-5.44653E+07 6.79696E+08
 -1       584 2.81482E+08 1.31121E+08 1.55587E+08-7.70537E+08 8.71177E+07 9.88219E+08
 -1       585-1.15603E+08-3.67865E+07-7.01914E+06-5.71988E+08 1.74192E+08 1.04464E+09
 -1       586-4.22011E+08-1.63699E+08-1.23654E+08-4.80239E+08 2.31136E+08 8.68285E+08
 -1       587-6.64436E+08-2.67043E+08-2.25706E+08-3.14293E+08 2.63103E+08 5.14654E+08
 -1       588-7.95879E+08-3.25329E+08-2.88551E+08-1.17925E+08 2.70853E+08 4.74728E+07
 -1       589-7.99297E+08-3.29415E+08-2.98752E+08 7.76501E+07 2.51814E+08-4.57351E+08
 -1       590-6.81274E+08-2.81793E+08-2.58035E+08 2.49170E+08 2.07129E+08-9.23997E+08
 -1       591-4.63239E+08-1.91668E+08-1.75655E+08 3.79802E+08 1.40821E+08-1.28429E+09
 -1       592-1.77217E+08-7.26640E+07-6.49961E+07 4.54900E+08 5.98352E+07-1.48614E+09
 -1       593 1.36866E+08 5.83447E+07 5.76157E+07 4.66122E+08-2.65189E+07-1.49979E+09
 -1       594 4.36036E+08 1.83257E+08 1.74820E+08 4.13075E+08-1.07762E+08-1.32126E+09
 -1       595 6.79734E+08 2.85027E+08 2.70356E+08 3.03489E+08-1.73775E+08-9.72652E+08
 -1       596 8.35006E+08 3.49819E+08 3.31056E+08 1.52266E+08-2.16265E+08-4.99032E+08
 -1       597 8.80714E+08 3.68756E+08 3.48473E+08-2.04033E+07-2.29947E+08 3.76424E+07
 -1       598 8.10247E+08 3.39051E+08 3.19924E+08-1.91662E+08-2.13290E+08 5.66744E+08
 -1       599 6.32320E+08 2.64337E+08 2.48802E+08-3.38990E+08-1.68753E+08 1.01832E+09
 -1       600 3.69777E+08 1.54160E+08 1.44090E+08-4.43172E+08-1.02495E+08 1.33229E+09
 -1       601 5.65000E+07 2.26856E+07 1.91186E+07-4.90866E+08-2.36042E+07 1.46634E+09
 -1       602-2.67162E+08-1.13245E+08-1.10321E+08-4.76425E+08 5.69754E+07 1.40136E+09
 -1       603-5.59927E+08-2.36474E+08-2.28320E+08-4.02786E+08 1.27674E+08 1.14383E+09
 -1       604-7.85387E+08-3.32025E+08-3.21364E+08-2.81325E+08 1.77461E+08 7.24669E+08
 -1       605-9.17455E+08-3.89436E+08-3.80664E+08-1.30882E+08 1.97010E+08 1.94778E+08
 -1       606-9.44813E+08-4.04541E+08-4.03655E+08 2.38711E+07 1.79959E+08-3.82351E+08
 -1       607-8.72995E+08-3.79826E+08-3.93092E+08 1.55777E+08 1.25653E+08-9.39974E+08
 -1       608-7.20680E+08-3.21515E+08-3.51038E+08 2.43041E+08 4.16765E+07-1.41840E+09
 -1       609-5.07648E+08-2.32763E+08-2.68228E+08 2.80098E+08-4.54752E+07-1.77421E+09
 -1       610-2.66063E+08-1.19461E+08-1.32141E+08 2.25873E+08-1.00601E+08-1.99068E+09
 -1       611-4.95089E+07 2.76449E+06 5.87238E+07 6.79992E+07-1.11506E+07-2.06758E+09
 -1       612-9.20677E+08-4.15450E+08-4.64156E+08-1.13935E+09-5.44653E+07-6.79696E+08
 -1       613-2.81482E+08-1.31121E+08-1.55587E+08-7.70537E+08 8.71177E+07-9.88219E+08
 -1       614 1.15603E+08 3.67865E+07 7.01914E+06-5.71988E+08 1.74192E+08-1.04464E+09
 -1       615 4.22011E+08 1.63699E+08 1.23654E+08-4.80239E+08 2.31136E+08-8.68285E+08
 -1       616 6.64436E+08 2.67043E+08 2.25706E+08-3.14293E+08 2.63103E+08-5.14654E+08
 -1       617 7.95879E+08 3.25329E+08 2.88551E+08-1.17925E+08 2.70853E+08-4.74728E+07
 -1       618 7.99297E+08 3.29415E+08 2.98752E+08 7.76501E+07 2.51814E+08 4.57351E+08
 -1       619 6.81274E+08 2.81793E+08 2.58035E+08 2.49170E+08 2.07129E+08 9.23997E+08
 -1       620 4.63239E+08 1.91668E+08 1.75655E+08 3.79802E+08 1.40821E+08 1.28429E+09
 -1       621 1.77217E+08 7.26640E+07 6.49961E+07 4.54900E+08 5.98352E+07 1.48614E+09
 -1       622-1.36866E+08-5.83447E+07-5.76157E+07 4.66122E+08-2.65189E+07 1.49979E+09
 -1       623-4.36036E+08-1.83257E+08-1.74820E+08 4.13075E+08-1.07762E+08 1.32126E+09
 -1       624-6.79734E+08-2.85027E+08-2.70356E+08 3.03489E+08-1.73775E+08 9.72652E+08
 -1       625-8.35006E+08-3.49819E+08-3.31056E+08 1.52266E+08-2.16265E+08 4.99032E+08
 -1       626-8.80714E+08-3.68756E+08-3.48473E+08-2.04033E+07-2.29947E+08-3.76424E+07
 -1       627-8.10247E+08-3.39051E+08-3.19924E+08-1.91662E+08-2.13290E+08-5.66744E+08
 -1       628-6.32320E+08-2.64337E+08-2.48802E+08-3.38990E+08-1.68753E+08-1.01832E+09
 -1       629-3.69777E+08-1.54160E+08-1.44090E+08-4.43172E+08-1.02495E+08-1.33229E+09
 -1       630-5.65000E+07-2.26856E+07-1.91186E+07-4.90866E+08-2.36042E+07-1.46634E+09
 -1       631 2.67162E+08 1.13245E+08 1.10321E+08-4.76425E+08 5.69754E+07-1.40136E+09
 -1       632 5.59927E+08 2.36474E+08 2.28320E+08-4.02786E+08 1.27674E+08-1.14383E+09
 -1       633 7.85387E+08 3.32025E+08 3.21364E+08-2.81325E+08 1.77461E+08-7.24669E+08
 -1       634 9.17455E+08 3.89436E+08 3.80664E+08-1.30882E+08 1.97010E+08-1.94778E+08
 -1       635 9.44813E+08 4.04541E+08 4.03655E+08 2.38711E+07 1.79959E+08 3.82351E+08
 -1       636 8.72995E+08 3.79826E+08 3.93092E+08 1.55777E+08 1.25653E+08 9.39974E+08
 -1       637 7.20680E+08 3.21515E+08 3.51038E+08 2.43041E+08 4.16765E+07 1.41840E+09
 -1       638 5.07648E+08 2.32763E+08 2.68228E+08 2.80098E+08-4.54752E+07 1.77421E+09
 -1       639 2.66063E+08 1.19461E+08 1.32141E+08 2.25873E+08-1.00601E+08 1.99068E+09
 -1       640 4.95089E+07-2.76449E+06-5.87238E+07 6.79992E+07-1.11506E+07 2.06758E+09
 -1       641-1.16118E-01 1.72622E-02 3.09518E-03-1.26402E-02 1.90431E+08-7.26391E+08
 -1       642-1.18526E-01 8.08778E-03 2.66807E-02-6.10726E-03-4.34065E+06-1.05357E+09
 -1       643-1.05152E-01 3.06119E-03 3.28844E-02 5.03369E-03-6.56048E+07-1.07646E+09
 -1       644-1.09363E-01-5.08599E-03 1.07842E-02 7.41174E-03-7.46493E+07-8.93039E+08
 -1       645-1.25396E-01-1.00222E-02-1.19684E-02 7.60835E-03-9.48546E+07-5.33678E+08
 -1       646-1.33755E-01-1.08885E-02-1.26959E-02-3.47721E-03-1.14847E+08-5.72893E+07
 -1       647-1.29832E-01-7.78871E-03-1.17144E-02-9.90633E-03-1.17650E+08 4.58627E+08
 -1       648-1.14804E-01-6.55283E-03-1.78518E-02 2.25395E-03-1.01278E+08 9.35103E+08
 -1       649-1.11293E-01-1.15626E-02-4.05565E-02 7.27574E-03-6.93552E+07 1.30280E+09
 -1       650-1.18606E-01-1.67587E-02-3.87546E-02 3.48784E-03-2.69816E+07 1.50895E+09
 -1       651-1.31555E-01-1.23496E-02-3.16948E-02 2.58883E-03 1.97148E+07 1.52342E+09
 -1       652-1.35682E-01-5.92090E-03-1.03750E-02-3.04568E-03 6.42219E+07 1.34229E+09
 -1       653-1.16330E-01 2.66284E-03 7.90545E-03-1.95248E-02 1.00467E+08 9.88083E+08
 -1       654-8.50519E-02 1.21187E-02 1.48306E-02-1.54341E-02 1.23566E+08 5.06665E+08
 -1       655-7.20139E-02 1.59570E-02 2.54674E-02 3.64115E-03 1.30408E+08-3.89490E+07
 -1       656-8.05450E-02 1.15382E-02 2.04103E-02 9.24676E-03 1.20044E+08-5.76940E+08
 -1       657-9.31548E-02 9.72453E-04 8.36263E-03 1.61690E-02 9.38094E+07-1.03618E+09
 -1       658-1.05728E-01-8.37008E-03-6.01691E-03 1.18638E-02 5.51431E+07-1.35562E+09
 -1       659-1.04737E-01-1.20447E-02-2.13153E-02-3.88779E-03 9.11641E+06-1.49224E+09
 -1       660-8.23335E-02-1.57549E-02-3.51736E-02-1.03098E-02-3.83245E+07-1.42673E+09
 -1       661-5.36938E-02-7.85151E-03-3.21522E-02-2.11183E-03-8.13327E+07-1.16583E+09
 -1       662-5.03305E-02-7.17680E-03-3.48766E-02 1.36925E-02-1.15243E+08-7.41258E+08
 -1       663-5.64597E-02-1.59249E-02-3.53209E-02 4.39879E-03-1.37482E+08-2.05062E+08
 -1       664-4.91655E-02-6.55422E-03-1.96182E-02-9.61512E-03-1.47935E+08 3.78168E+08
 -1       665-4.32798E-02-5.68498E-05 2.08964E-03-3.23603E-03-1.46211E+08 9.41644E+08
 -1       666-4.58583E-02 1.49499E-03 1.75329E-02 1.61976E-03-1.26566E+08 1.42779E+09
 -1       667-4.01868E-02 7.71795E-03 1.65893E-02-8.91652E-04-6.22601E+07 1.79532E+09
 -1       668-1.85630E-02 3.75927E-03 1.15331E-02-4.13324E-03 4.81524E+07 2.02344E+09
 -1       669 5.64860E-04 6.55692E-04-6.52328E-03-1.94394E-03 2.68050E+08 2.12591E+09
 -1       670 9.20677E+08 4.15450E+08 4.64156E+08 1.13935E+09-5.44653E+07-6.79696E+08
 -1       671 2.81482E+08 1.31121E+08 1.55587E+08 7.70537E+08 8.71177E+07-9.88219E+08
 -1       672-1.15603E+08-3.67865E+07-7.01914E+06 5.71988E+08 1.74192E+08-1.04464E+09
 -1       673-4.22011E+08-1.63699E+08-1.23654E+08 4.80239E+08 2.31136E+08-8.68285E+08
 -1       674-6.64436E+08-2.67043E+08-2.25706E+08 3.14293E+08 2.63103E+08-5.14654E+08
 -1       675-7.95879E+08-3.25329E+08-2.88551E+08 1.17925E+08 2.70853E+08-4.74728E+07
 -1       676-7.99297E+08-3.29415E+08-2.98752E+08-7.76501E+07 2.51814E+08 4.57351E+08
 -1       677-6.81274E+08-2.81793E+08-2.58035E+08-2.49170E+08 2.07129E+08 9.23997E+08
 -1       678-4.63239E+08-1.91668E+08-1.75655E+08-3.79802E+08 1.40821E+08 1.28429E+09
 -1       679-1.77217E+08-7.26640E+07-6.49961E+07-4.54900E+08 5.98352E+07 1.48614E+09
 -1       680 1.36866E+08 5.83447E+07 5.76157E+07-4.66122E+08-2.65189E+07 1.49979E+09
 -1       681 4.36036E+08 1.83257E+08 1.74820E+08-4.13075E+08-1.07762E+08 1.32126E+09
 -1       682 6.79734E+08 2.85027E+08 2.70356E+08-3.03489E+08-1.73775E+08 9.72652E+08
 -1       683 8.35006E+08 3.49819E+08 3.31056E+08-1.52266E+08-2.16265E+08 4.99032E+08
 -1       684 8.80714E+08 3.68756E+08 3.48473E+08 2.04033E+07-2.29947E+08-3.76424E+07
 -1       685 8.10247E+08 3.39051E+08 3.19924E+08 1.91662E+08-2.13290E+08-5.66744E+08
 -1       686 6.32320E+08 2.64337E+08 2.48802E+08 3.38990E+08-1.68753E+08-1.01832E+09
 -1       687 3.69777E+08 1.54160E+08 1.44090E+08 4.43172E+08-1.02495E+08-1.33229E+09
 -1       688 5.65000E+07 2.26856E+07 1.91186E+07 4.90866E+08-2.36042E+07-1.46634E+09
 -1       689-2.67162E+08-1.13245E+08-1.10321E+08 4.76425E+08 5.69754E+07-1.40136E+09
 -1       690-5.59927E+08-2.36474E+08-2.28320E+08 4.02786E+08 1.27674E+08-1.14383E+09
 -1       691-7.85387E+08-3.32025E+08-3.21364E+08 2.81325E+08 1.77461E+08-7.24669E+08
 -1       692-9.17455E+08-3.89436E+08-3.80664E+08 1.30882E+08 1.97010E+08-1.94778E+08
 -1       693-9.44813E+08-4.04541E+08-4.03655E+08-2.38711E+07 1.79959E+08 3.82351E+08
 -1       694-8.72995E+08-3.79826E+08-3.93092E+08-1.55777E+08 1.25653E+08 9.39974E+08
 -1       695-7.20680E+08-3.21515E+08-3.51038E+08-2.43041E+08 4.16765E+07 1.41840E+09
 -1       696-5.07648E+08-2.32763E+08-2.68228E+08-2.80098E+08-4.54752E+07 1.77421E+09
 -1       697-2.66063E+08-1.19461E+08-1.32141E+08-2.25873E+08-1.00601E+08 1.99068E+09
 -1       698-4.95089E+07 2.76449E+06 5.87238E+07-6.79992E+07-1.11506E+07 2.06758E+09
 -1       699-9.08773E+09 2.43375E+09 2.74137E+09-4.40724E+09 3.65826E+08-2.15921E+08
 -1       700-5.65530E+09-6.64899E+07-2.02953E+08-4.64107E+09 1.33277E+08-1.08493E+08
 -1       701 9.66332E+08 1.74783E+08 1.43729E+08-4.31734E+09 6.39977E+07-9.27714E+07
 -1       702 5.93564E+09 1.28275E+08 4.37160E+07-3.40904E+09-3.57571E+07-7.17355E+07
 -1       703 9.53119E+09 7.45653E+07-1.78206E+07-2.08530E+09-1.04670E+08-3.69677E+07
 -1       704 1.14080E+10 3.80460E+07-5.68284E+07-4.93466E+08-1.45891E+08 1.09708E+07
 -1       705 1.14559E+10 1.27265E+07-7.56354E+07 1.15933E+09-1.56065E+08 6.65263E+07
 -1       706 9.76924E+09 5.54646E+05-7.20098E+07 2.66136E+09-1.36792E+08 1.20100E+08
 -1       707 6.63892E+09 1.68884E+05-4.91546E+07 3.81537E+09-9.29567E+07 1.62376E+08
 -1       708 2.52536E+09 8.04621E+06-1.28238E+07 4.46886E+09-3.22837E+07 1.86106E+08
 -1       709-1.99562E+09 2.03835E+07 2.98636E+07 4.53481E+09 3.57404E+07 1.87095E+08
 -1       710-6.30404E+09 3.36037E+07 7.16533E+07 4.00378E+09 1.01105E+08 1.64611E+08
 -1       711-9.81429E+09 4.46371E+07 1.05905E+08 2.94538E+09 1.54456E+08 1.21290E+08
 -1       712-1.20502E+10 5.11034E+07 1.27313E+08 1.49896E+09 1.88225E+08 6.26692E+07
 -1       713-1.27061E+10 5.14451E+07 1.32453E+08-1.44778E+08 1.97538E+08-3.60737E+06
 -1       714-1.16861E+10 4.50194E+07 1.20138E+08-1.76904E+09 1.80801E+08-6.88232E+07
 -1       715-9.11519E+09 3.21002E+07 9.15044E+07-3.15957E+09 1.39866E+08-1.24353E+08
 -1       716-5.32199E+09 1.37594E+07 4.97853E+07-4.13288E+09 7.97344E+07-1.62809E+08
 -1       717-7.93972E+08-8.40960E+06-2.34291E+05-4.56037E+09 7.84013E+06-1.79015E+08
 -1       718 3.88833E+09-3.27606E+07-5.30653E+07-4.38504E+09-6.70374E+07-1.70632E+08
 -1       719 8.12990E+09-5.82458E+07-1.03586E+08-3.62877E+09-1.36100E+08-1.38296E+08
 -1       720 1.14028E+10-8.51165E+07-1.48137E+08-2.38926E+09-1.91902E+08-8.51408E+07
 -1       721 1.33207E+10-1.15183E+08-1.85120E+08-8.27820E+08-2.29576E+08-1.57927E+07
 -1       722 1.36985E+10-1.50572E+08-2.14285E+08 8.49454E+08-2.47178E+08 6.49653E+07
 -1       723 1.25888E+10-1.89613E+08-2.33386E+08 2.41340E+09-2.45999E+08 1.52205E+08
 -1       724 1.02882E+10-2.22432E+08-2.35384E+08 3.63428E+09-2.25612E+08 2.36935E+08
 -1       725 7.32794E+09-2.06605E+08-1.89806E+08 4.30510E+09-1.92953E+08 3.09397E+08
 -1       726 4.35010E+09-1.25166E+08-9.15677E+07 4.29794E+09-1.13887E+08 2.95433E+08
 -1       727 1.99338E+09 1.08766E+08 1.08282E+08 3.64814E+09-8.94299E+07 1.53668E+08
 -1       728-1.04638E+10 1.99213E+09 2.19607E+09-2.14064E+09-2.48324E+08-1.76624E+08
 -1       729-6.23846E+09-5.03047E+08-5.08868E+08-1.22039E+09-2.82356E+07-2.36647E+08
 -1       730 9.83715E+08-2.50607E+08 2.13268E+07-8.24876E+08 7.78665E+07-1.78163E+08
 -1       731 6.41362E+09-2.49668E+08 7.37271E+07-5.72755E+08 1.84757E+08-1.41859E+08
 -1       732 1.03452E+10-2.41060E+08 1.31708E+08-4.46144E+08 2.51450E+08-8.14977E+07
 -1       733 1.24030E+10-2.25242E+08 1.62702E+08-3.96128E+08 2.84452E+08-5.03995E+06
 -1       734 1.24694E+10-1.96799E+08 1.65557E+08-3.98983E+08 2.77655E+08 7.91877E+07
 -1       735 1.06404E+10-1.57006E+08 1.42083E+08-4.25347E+08 2.33822E+08 1.58404E+08
 -1       736 7.23099E+09-1.07109E+08 9.62849E+07-4.51649E+08 1.58939E+08 2.20275E+08
 -1       737 2.74357E+09-5.09098E+07 3.49533E+07-4.58525E+08 6.30267E+07 2.55252E+08
 -1       738-2.19186E+09 6.68007E+06-3.31185E+07-4.33501E+08-4.13022E+07 2.57859E+08
 -1       739-6.89681E+09 5.98437E+07-9.83057E+07-3.71773E+08-1.40287E+08 2.27294E+08
 -1       740-1.07305E+10 1.02832E+08-1.51504E+08-2.76078E+08-2.20857E+08 1.67354E+08
 -1       741-1.31720E+10 1.30896E+08-1.85302E+08-1.55644E+08-2.72353E+08 8.58292E+07
 -1       742-1.38870E+10 1.41052E+08-1.94935E+08-2.44910E+07-2.87954E+08-6.58217E+06
 -1       743-1.27703E+10 1.32578E+08-1.78869E+08 1.00710E+08-2.65567E+08-9.77045E+07
 -1       744-9.95850E+09 1.07197E+08-1.38961E+08 2.02934E+08-2.08111E+08-1.75504E+08
 -1       745-5.81032E+09 6.89401E+07-8.01579E+07 2.66966E+08-1.23120E+08-2.29687E+08
 -1       746-8.57962E+08 2.37382E+07-9.78696E+06 2.81095E+08-2.17637E+07-2.53059E+08
 -1       747 4.26520E+09-2.11647E+07 6.34732E+07 2.38055E+08 8.26073E+07-2.42433E+08
 -1       748 8.91065E+09-5.78894E+07 1.30748E+08 1.35061E+08 1.76165E+08-1.98885E+08
 -1       749 1.25034E+10-7.86753E+07 1.84002E+08-2.69243E+07 2.46379E+08-1.27244E+08
 -1       750 1.46220E+10-7.68035E+07 2.16779E+08-2.44088E+08 2.83634E+08-3.48812E+07
 -1       751 1.50584E+10-4.82694E+07 2.24383E+08-5.09730E+08 2.82999E+08 6.99927E+07
 -1       752 1.38528E+10 5.64261E+06 2.04379E+08-8.12397E+08 2.44916E+08 1.78780E+08
 -1       753 1.13008E+10 7.90894E+07 1.58880E+08-1.13278E+09 1.79738E+08 2.79174E+08
 -1       754 7.93292E+09 1.47838E+08 9.80229E+07-1.44464E+09 9.74020E+07 3.58623E+08
 -1       755 4.50150E+09 1.87073E+08 4.75238E+07-1.74552E+09 5.07604E+07 3.42265E+08
 -1       756 1.90605E+09 2.67772E+08 1.29785E+08-2.08382E+09-3.55869E+07 1.87122E+08
 -1       757 1.04638E+10-1.99213E+09-2.19607E+09 2.14064E+09-2.48324E+08-1.76624E+08
 -1       758 6.23846E+09 5.03047E+08 5.08868E+08 1.22039E+09-2.82356E+07-2.36647E+08
 -1       759-9.83715E+08 2.50607E+08-2.13268E+07 8.24876E+08 7.78665E+07-1.78163E+08
 -1       760-6.41362E+09 2.49668E+08-7.37271E+07 5.72755E+08 1.84757E+08-1.41859E+08
 -1       761-1.03452E+10 2.41060E+08-1.31708E+08 4.46144E+08 2.51450E+08-8.14977E+07
 -1       762-1.24030E+10 2.25242E+08-1.62702E+08 3.96128E+08 2.84452E+08-5.03995E+06
 -1       763-1.24694E+10 1.96799E+08-1.65557E+08 3.98983E+08 2.77655E+08 7.91877E+07
 -1       764-1.06404E+10 1.57006E+08-1.42083E+08 4.25347E+08 2.33822E+08 1.58404E+08
 -1       765-7.23099E+09 1.07109E+08-9.62849E+07 4.51649E+08 1.58939E+08 2.20275E+08
 -1       766-2.74357E+09 5.09098E+07-3.49533E+07 4.58525E+08 6.30267E+07 2.55252E+08
 -1       767 2.19186E+09-6.68007E+06 3.31185E+07 4.33501E+08-4.13022E+07 2.57859E+08
 -1       768 6.89681E+09-5.98437E+07 9.83057E+07 3.71773E+08-1.40287E+08 2.27294E+08
 -1       769 1.07305E+10-1.02832E+08 1.51504E+08 2.76078E+08-2.20857E+08 1.67354E+08
 -1       770 1.31720E+10-1.30896E+08 1.85302E+08 1.55644E+08-2.72353E+08 8.58292E+07
 -1       771 1.38870E+10-1.41052E+08 1.94935E+08 2.44910E+07-2.87954E+08-6.58217E+06
 -1       772 1.27703E+10-1.32578E+08 1.78869E+08-1.00710E+08-2.65567E+08-9.77045E+07
 -1       773 9.95850E+09-1.07197E+08 1.38961E+08-2.02934E+08-2.08111E+08-1.75504E+08
 -1       774 5.81032E+09-6.89401E+07 8.01579E+07-2.66966E+08-1.23120E+08-2.29687E+08
 -1       775 8.57962E+08-2.37382E+07 9.78696E+06-2.81095E+08-2.17637E+07-2.53059E+08
 -1       776-4.26520E+09 2.11647E+07-6.34732E+07-2.38055E+08 8.26073E+07-2.42433E+08
 -1       777-8.91065E+09 5.78894E+07-1.30748E+08-1.35061E+08 1.76165E+08-1.98885E+08
 -1       778-1.25034E+10 7.86753E+07-1.84002E+08 2.69243E+07 2.46379E+08-1.27244E+08
 -1       779-1.46220E+10 7.68035E+07-2.16779E+08 2.44088E+08 2.83634E+08-3.48812E+07
 -1       780-1.50584E+10 4.82694E+07-2.24383E+08 5.09730E+08 2.82999E+08 6.99927E+07
 -1       781-1.38528E+10-5.64261E+06-2.04379E+08 8.12397E+08 2.44916E+08 1.78780E+08
 -1       782-1.13008E+10-7.90894E+07-1.58880E+08 1.13278E+09 1.79738E+08 2.79174E+08
 -1       783-7.93292E+09-1.47838E+08-9.80229E+07 1.44464E+09 9.74020E+07 3.58623E+08
 -1       784-4.50150E+09-1.87073E+08-4.75238E+07 1.74552E+09 5.07604E+07 3.42265E+08
 -1       785-1.90605E+09-2.67772E+08-1.29785E+08 2.08382E+09-3.55869E+07 1.87122E+08
 -1       786 9.08773E+09-2.43375E+09-2.74137E+09 4.40724E+09 3.65826E+08-2.15921E+08
 -1       787 5.65530E+09 6.64899E+07 2.02953E+08 4.64107E+09 1.33277E+08-1.08493E+08
 -1       788-9.66332E+08-1.74783E+08-1.43729E+08 4.31734E+09 6.39977E+07-9.27714E+07
 -1       789-5.93564E+09-1.28275E+08-4.37160E+07 3.40904E+09-3.57571E+07-7.17355E+07
 -1       790-9.53119E+09-7.45653E+07 1.78206E+07 2.08530E+09-1.04670E+08-3.69677E+07
 -1       791-1.14080E+10-3.80460E+07 5.68284E+07 4.93466E+08-1.45891E+08 1.09708E+07
 -1       792-1.14559E+10-1.27265E+07 7.56354E+07-1.15933E+09-1.56065E+08 6.65263E+07
 -1       793-9.76924E+09-5.54646E+05 7.20098E+07-2.66136E+09-1.36792E+08 1.20100E+08
 -1       794-6.63892E+09-1.68884E+05 4.91546E+07-3.81537E+09-9.29567E+07 1.62376E+08
 -1       795-2.52536E+09-8.04621E+06 1.28238E+07-4.46886E+09-3.22837E+07 1.86106E+08
 -1       796 1.99562E+09-2.03835E+07-2.98636E+07-4.53481E+09 3.57404E+07 1.87095E+08
 -1       797 6.30404E+09-3.36037E+07-7.16533E+07-4.00378E+09 1.01105E+08 1.64611E+08
 -1       798 9.81429E+09-4.46371E+07-1.05905E+08-2.94538E+09 1.54456E+08 1.21290E+08
 -1       799 1.20502E+10-5.11034E+07-1.27313E+08-1.49896E+09 1.88225E+08 6.26692E+07
 -1       800 1.27061E+10-5.14451E+07-1.32453E+08 1.44778E+08 1.97538E+08-3.60737E+06
 -1       801 1.16861E+10-4.50194E+07-1.20138E+08 1.76904E+09 1.80801E+08-6.88232E+07
 -1       802 9.11519E+09-3.21002E+07-9.15044E+07 3.15957E+09 1.39866E+08-1.24353E+08
 -1       803 5.32199E+09-1.37594E+07-4.97853E+07 4.13288E+09 7.97344E+07-1.62809E+08
 -1       804 7.93972E+08 8.40960E+06 2.34291E+05 4.56037E+09 7.84013E+06-1.79015E+08
 -1       805-3.88833E+09 3.27606E+07 5.30653E+07 4.38504E+09-6.70374E+07-1.70632E+08
 -1       806-8.12990E+09 5.82458E+07 1.03586E+08 3.62877E+09-1.36100E+08-1.38296E+08
 -1       807-1.14028E+10 8.51165E+07 1.48137E+08 2.38926E+09-1.91902E+08-8.51408E+07
 -1       808-1.33207E+10 1.15183E+08 1.85120E+08 8.27820E+08-2.29576E+08-1.57927E+07
 -1       809-1.36985E+10 1.50572E+08 2.14285E+08-8.49454E+08-2.47178E+08 6.49653E+07
 -1       810-1.25888E+10 1.89613E+08 2.33386E+08-2.41340E+09-2.45999E+08 1.52205E+08
 -1       811-1.02882E+10 2.22432E+08 2.35384E+08-3.63428E+09-2.25612E+08 2.36935E+08
 -1       812-7.32794E+09 2.06605E+08 1.89806E+08-4.30510E+09-1.92953E+08 3.09397E+08
 -1       813-4.35010E+09 1.25166E+08 9.15677E+07-4.29794E+09-1.13887E+08 2.95433E+08
 -1       814-1.99338E+09-1.08766E+08-1.08282E+08-3.64814E+09-8.94299E+07 1.53668E+08
 -1       815 9.08773E+09-2.43375E+09-2.74137E+09-4.40724E+09 3.65826E+08 2.15921E+08
 -1       816 5.65530E+09 6.64899E+07 2.02953E+08-4.64107E+09 1.33277E+08 1.08493E+08
 -1       817-9.66332E+08-1.74783E+08-1.43729E+08-4.31734E+09 6.39977E+07 9.27714E+07
 -1       818-5.93564E+09-1.28275E+08-4.37160E+07-3.40904E+09-3.57571E+07 7.17355E+07
 -1       819-9.53119E+09-7.45653E+07 1.78206E+07-2.08530E+09-1.04670E+08 3.69677E+07
 -1       820-1.14080E+10-3.80460E+07 5.68284E+07-4.93466E+08-1.45891E+08-1.09708E+07
 -1       821-1.14559E+10-1.27265E+07 7.56354E+07 1.15933E+09-1.56065E+08-6.65263E+07
 -1       822-9.76924E+09-5.54646E+05 7.20098E+07 2.66136E+09-1.36792E+08-1.20100E+08
 -1       823-6.63892E+09-1.68884E+05 4.91546E+07 3.81537E+09-9.29567E+07-1.62376E+08
 -1       824-2.52536E+09-8.04621E+06 1.28238E+07 4.46886E+09-3.22837E+07-1.86106E+08
 -1       825 1.99562E+09-2.03835E+07-2.98636E+07 4.53481E+09 3.57404E+07-1.87095E+08
 -1       826 6.30404E+09-3.36037E+07-7.16533E+07 4.00378E+09 1.01105E+08-1.64611E+08
 -1       827 9.81429E+09-4.46371E+07-1.05905E+08 2.94538E+09 1.54456E+08-1.21290E+08
 -1       828 1.20502E+10-5.11034E+07-1.27313E+08 1.49896E+09 1.88225E+08-6.26692E+07
 -1       829 1.27061E+10-5.14451E+07-1.32453E+08-1.44778E+08 1.97538E+08 3.60737E+06
 -1       830 1.16861E+10-4.50194E+07-1.20138E+08-1.76904E+09 1.80801E+08 6.88232E+07
 -1       831 9.11519E+09-3.21002E+07-9.15044E+07-3.15957E+09 1.39866E+08 1.24353E+08
 -1       832 5.32199E+09-1.37594E+07-4.97853E+07-4.13288E+09 7.97344E+07 1.62809E+08
 -1       833 7.93972E+08 8.40960E+06 2.34291E+05-4.56037E+09 7.84013E+06 1.79015E+08
 -1       834-3.88833E+09 3.27606E+07 5.30653E+07-4.38504E+09-6.70374E+07 1.70632E+08
 -1       835-8.12990E+09 5.82458E+07 1.03586E+08-3.62877E+09-1.36100E+08 1.38296E+08
 -1       836-1.14028E+10 8.51165E+07 1.48137E+08-2.38926E+09-1.91902E+08 8.51408E+07
 -1       837-1.33207E+10 1.15183E+08 1.85120E+08-8.27820E+08-2.29576E+08 1.57927E+07
 -1       838-1.36985E+10 1.50572E+08 2.14285E+08 8.49454E+08-2.47178E+08-6.49653E+07
 -1       839-1.25888E+10 1.89613E+08 2.33386E+08 2.41340E+09-2.45999E+08-1.52205E+08
 -1       840-1.02882E+10 2.22432E+08 2.35384E+08 3.63428E+09-2.25612E+08-2.36935E+08
 -1       841-7.32794E+09 2.06605E+08 1.89806E+08 4.30510E+09-1.92953E+08-3.09397E+08
 -1       842-4.35010E+09 1.25166E+08 9.15677E+07 4.29794E+09-1.13887E+08-2.95433E+08
 -1       843-1.99338E+09-1.08766E+08-1.08282E+08 3.64814E+09-8.94299E+07-1.53668E+08
 -1       844 1.04638E+10-1.99213E+09-2.19607E+09-2.14064E+09-2.48324E+08 1.76624E+08
 -1       845 6.23846E+09 5.03047E+08 5.08868E+08-1.22039E+09-2.82356E+07 2.36647E+08
 -1       846-9.83715E+08 2.50607E+08-2.13268E+07-8.24876E+08 7.78665E+07 1.78163E+08
 -1       847-6.41362E+09 2.49668E+08-7.37271E+07-5.72755E+08 1.84757E+08 1.41859E+08
 -1       848-1.03452E+10 2.41060E+08-1.31708E+08-4.46144E+08 2.51450E+08 8.14977E+07
 -1       849-1.24030E+10 2.25242E+08-1.62702E+08-3.96128E+08 2.84452E+08 5.03995E+06
 -1       850-1.24694E+10 1.96799E+08-1.65557E+08-3.98983E+08 2.77655E+08-7.91877E+07
 -1       851-1.06404E+10 1.57006E+08-1.42083E+08-4.25347E+08 2.33822E+08-1.58404E+08
 -1       852-7.23099E+09 1.07109E+08-9.62849E+07-4.51649E+08 1.58939E+08-2.20275E+08
 -1       853-2.74357E+09 5.09098E+07-3.49533E+07-4.58525E+08 6.30267E+07-2.55252E+08
 -1       854 2.19186E+09-6.68007E+06 3.31185E+07-4.33501E+08-4.13022E+07-2.57859E+08
 -1       855 6.89681E+09-5.98437E+07 9.83057E+07-3.71773E+08-1.40287E+08-2.27294E+08
 -1       856 1.07305E+10-1.02832E+08 1.51504E+08-2.76078E+08-2.20857E+08-1.67354E+08
 -1       857 1.31720E+10-1.30896E+08 1.85302E+08-1.55644E+08-2.72353E+08-8.58292E+07
 -1       858 1.38870E+10-1.41052E+08 1.94935E+08-2.44910E+07-2.87954E+08 6.58217E+06
 -1       859 1.27703E+10-1.32578E+08 1.78869E+08 1.00710E+08-2.65567E+08 9.77045E+07
 -1       860 9.95850E+09-1.07197E+08 1.38961E+08 2.02934E+08-2.08111E+08 1.75504E+08
 -1       861 5.81032E+09-6.89401E+07 8.01579E+07 2.66966E+08-1.23120E+08 2.29687E+08
 -1       862 8.57962E+08-2.37382E+07 9.78696E+06 2.81095E+08-2.17637E+07 2.53059E+08
 -1       863-4.26520E+09 2.11647E+07-6.34732E+07 2.38055E+08 8.26073E+07 2.42433E+08
 -1       864-8.91065E+09 5.78894E+07-1.30748E+08 1.35061E+08 1.76165E+08 1.98885E+08
 -1       865-1.25034E+10 7.86753E+07-1.84002E+08-2.69243E+07 2.46379E+08 1.27244E+08
 -1       866-1.46220E+10 7.68035E+07-2.16779E+08-2.44088E+08 2.83634E+08 3.48812E+07
 -1       867-1.50584E+10 4.82694E+07-2.24383E+08-5.09730E+08 2.82999E+08-6.99927E+07
 -1       868-1.38528E+10-5.64261E+06-2.04379E+08-8.12397E+08 2.44916E+08-1.78780E+08
 -1       869-1.13008E+10-7.90894E+07-1.58880E+08-1.13278E+09 1.79738E+08-2.79174E+08
 -1       870-7.93292E+09-1.47838E+08-9.80229E+07-1.44464E+09 9.74020E+07-3.58623E+08
 -1       871-4.50150E+09-1.87073E+08-4.75238E+07-1.74552E+09 5.07604E+07-3.42265E+08
 -1       872-1.90605E+09-2.67772E+08-1.29785E+08-2.08382E+09-3.55869E+07-1.87122E+08
 -1       873 1.99338E+09 1.08766E+08 1.08282E+08-3.64814E+09-8.94299E+07-1.53668E+08
 -1       874 4.35010E+09-1.25166E+08-9.15677E+07-4.29794E+09-1.13887E+08-2.95433E+08
 -1       875 7.32794E+09-2.06605E+08-1.89806E+08-4.30510E+09-1.92953E+08-3.09397E+08
 -1       876 1.02882E+10-2.22432E+08-2.35384E+08-3.63428E+09-2.25612E+08-2.36935E+08
 -1       877 1.25888E+10-1.89613E+08-2.33386E+08-2.41340E+09-2.45999E+08-1.52205E+08
 -1       878 1.36985E+10-1.50572E+08-2.14285E+08-8.49454E+08-2.47178E+08-6.49653E+07
 -1       879 1.33207E+10-1.15183E+08-1.85120E+08 8.27820E+08-2.29576E+08 1.57927E+07
 -1       880 1.14028E+10-8.51165E+07-1.48137E+08 2.38926E+09-1.91902E+08 8.51408E+07
 -1       881 8.12990E+09-5.82458E+07-1.03586E+08 3.62877E+09-1.36100E+08 1.38296E+08
 -1       882 3.88833E+09-3.27606E+07-5.30653E+07 4.38504E+09-6.70374E+07 1.70632E+08
 -1       883-7.93972E+08-8.40960E+06-2.34291E+05 4.56037E+09 7.84013E+06 1.79015E+08
 -1       884-5.32199E+09 1.37594E+07 4.97853E+07 4.13288E+09 7.97344E+07 1.62809E+08
 -1       885-9.11519E+09 3.21002E+07 9.15044E+07 3.15957E+09 1.39866E+08 1.24353E+08
 -1       886-1.16861E+10 4.50194E+07 1.20138E+08 1.76904E+09 1.80801E+08 6.88232E+07
 -1       887-1.27061E+10 5.14451E+07 1.32453E+08 1.44778E+08 1.97538E+08 3.60737E+06
 -1       888-1.20502E+10 5.11034E+07 1.27313E+08-1.49896E+09 1.88225E+08-6.26692E+07
 -1       889-9.81429E+09 4.46371E+07 1.05905E+08-2.94538E+09 1.54456E+08-1.21290E+08
 -1       890-6.30404E+09 3.36037E+07 7.16533E+07-4.00378E+09 1.01105E+08-1.64611E+08
 -1       891-1.99562E+09 2.03835E+07 2.98636E+07-4.53481E+09 3.57404E+07-1.87095E+08
 -1       892 2.52536E+09 8.04621E+06-1.28238E+07-4.46886E+09-3.22837E+07-1.86106E+08
 -1       893 6.63892E+09 1.68884E+05-4.91546E+07-3.81537E+09-9.29567E+07-1.62376E+08
 -1       894 9.76924E+09 5.54646E+05-7.20098E+07-2.66136E+09-1.36792E+08-1.20100E+08
 -1       895 1.14559E+10 1.27265E+07-7.56354E+07-1.15933E+09-1.56065E+08-6.65263E+07
 -1       896 1.14080E+10 3.80460E+07-5.68284E+07 4.93466E+08-1.45891E+08-1.09708E+07
 -1       897 9.53119E+09 7.45653E+07-1.78206E+07 2.08530E+09-1.04670E+08 3.69677E+07
 -1       898 5.93564E+09 1.28275E+08 4.37160E+07 3.40904E+09-3.57571E+07 7.17355E+07
 -1       899 9.66332E+08 1.74783E+08 1.43729E+08 4.31734E+09 6.39977E+07 9.27714E+07
 -1       900-5.65530E+09-6.64899E+07-2.02953E+08 4.64107E+09 1.33277E+08 1.08493E+08
 -1       901-9.08773E+09 2.43375E+09 2.74137E+09 4.40724E+09 3.65826E+08 2.15921E+08
 -1       902-1.04638E+10 1.99213E+09 2.19607E+09 2.14064E+09-2.48324E+08 1.76624E+08
 -1       903-6.23846E+09-5.03047E+08-5.08868E+08 1.22039E+09-2.82356E+07 2.36647E+08
 -1       904 9.83715E+08-2.50607E+08 2.13268E+07 8.24876E+08 7.78665E+07 1.78163E+08
 -1       905 6.41362E+09-2.49668E+08 7.37271E+07 5.72755E+08 1.84757E+08 1.41859E+08
 -1       906 1.03452E+10-2.41060E+08 1.31708E+08 4.46144E+08 2.51450E+08 8.14977E+07
 -1       907 1.24030E+10-2.25242E+08 1.62702E+08 3.96128E+08 2.84452E+08 5.03995E+06
 -1       908 1.24694E+10-1.96799E+08 1.65557E+08 3.98983E+08 2.77655E+08-7.91877E+07
 -1       909 1.06404E+10-1.57006E+08 1.42083E+08 4.25347E+08 2.33822E+08-1.58404E+08
 -1       910 7.23099E+09-1.07109E+08 9.62849E+07 4.51649E+08 1.58939E+08-2.20275E+08
 -1       911 2.74357E+09-5.09098E+07 3.49533E+07 4.58525E+08 6.30267E+07-2.55252E+08
 -1       912-2.19186E+09 6.68007E+06-3.31185E+07 4.33501E+08-4.13022E+07-2.57859E+08
 -1       913-6.89681E+09 5.98437E+07-9.83057E+07 3.71773E+08-1.40287E+08-2.27294E+08
 -1       914-1.07305E+10 1.02832E+08-1.51504E+08 2.76078E+08-2.20857E+08-1.67354E+08
 -1       915-1.31720E+10 1.30896E+08-1.85302E+08 1.55644E+08-2.72353E+08-8.58292E+07
 -1       916-1.38870E+10 1.41052E+08-1.94935E+08 2.44910E+07-2.87954E+08 6.58217E+06
 -1       917-1.27703E+10 1.32578E+08-1.78869E+08-1.00710E+08-2.65567E+08 9.77045E+07
 -1       918-9.95850E+09 1.07197E+08-1.38961E+08-2.02934E+08-2.08111E+08 1.75504E+08
 -1       919-5.81032E+09 6.89401E+07-8.01579E+07-2.66966E+08-1.23120E+08 2.29687E+08
 -1       920-8.57962E+08 2.37382E+07-9.78696E+06-2.81095E+08-2.17637E+07 2.53059E+08
 -1       921 4.26520E+09-2.11647E+07 6.34732E+07-2.38055E+08 8.26073E+07 2.42433E+08
 -1       922 8.91065E+09-5.78894E+07 1.30748E+08-1.35061E+08 1.76165E+08 1.98885E+08
 -1       923 1.25034E+10-7.86753E+07 1.84002E+08 2.69243E+07 2.46379E+08 1.27244E+08
 -1       924 1.46220E+10-7.68035E+07 2.16779E+08 2.44088E+08 2.83634E+08 3.48812E+07
 -1       925 1.50584E+10-4.82694E+07 2.24383E+08 5.09730E+08 2.82999E+08-6.99927E+07
 -1       926 1.38528E+10 5.64261E+06 2.04379E+08 8.12397E+08 2.44916E+08-1.78780E+08
 -1       927 1.13008E+10 7.90894E+07 1.58880E+08 1.13278E+09 1.79738E+08-2.79174E+08
 -1       928 7.93292E+09 1.47838E+08 9.80229E+07 1.44464E+09 9.74020E+07-3.58623E+08
 -1       929 4.50150E+09 1.87073E+08 4.75238E+07 1.74552E+09 5.07604E+07-3.42265E+08
 -1       930 1.90605E+09 2.67772E+08 1.29785E+08 2.08382E+09-3.55869E+07-1.87122E+08
 -3
    1PSTEP                        43           1           1          
    1PGM                1.000000E+00                                  
    1PGK                1.079833E+07                                  
    1PHID                         -1                                  
    1PSUBC                         0                                  
    1PMODE                        11                                  
  100CL  111 522.9960966         930                     2   11MODAL      1
 -4  FORC        4    1
 -5  F1          1    2    1    0
 -5  F2          1    2    2    0
 -5  F3          1    2    3    0
 -5  ALL         1    2    0    0    1ALL
 -1         1 9.36834E+06 2.28628E+05-1.93543E+06
 -1         2-9.36834E+06 2.28628E+05 1.93543E+06
 -1         3 7.08977E+03 1.98512E+05-8.99942E+03
 -1         4-7.08977E+03 1.98512E+05 8.99942E+03
 -1         5-9.36834E+06-2.28628E+05-1.93543E+06
 -1         6 9.36834E+06-2.28628E+05 1.93543E+06
 -1         7-7.08977E+03-1.98512E+05-8.99942E+03
 -1         8 7.08977E+03-1.98512E+05 8.99942E+03
 -1         9 3.92723E+05-7.66600E+02 1.99472E+06
 -1        10 6.39041E+03 1.04456E+05-8.12959E+03
 -1        11 4.17024E+06 3.09650E+06 8.78023E+06
 -1        12 7.83275E+06 3.14641E+06-8.93182E+06
 -1        13 2.58458E+04 8.70341E+04-3.24941E+04
 -1        14 2.63733E+04 8.51159E+04-3.24980E+04
 -1        15-3.92723E+05 7.66600E+02 1.99472E+06
 -1        16-6.39041E+03-1.04456E+05-8.12959E+03
 -1        17-7.83275E+06-3.14641E+06-8.93182E+06
 -1        18-4.17024E+06-3.09650E+06 8.78023E+06
 -1        19-2.63733E+04-8.51159E+04-3.24980E+04
 -1        20-2.58458E+04-8.70341E+04-3.24941E+04
 -1        21-7.83275E+06 3.14641E+06 8.93182E+06
 -1        22-4.17024E+06 3.09650E+06-8.78023E+06
 -1        23-2.58458E+04 8.70341E+04 3.24941E+04
 -1        24-2.63733E+04 8.51159E+04 3.24980E+04
 -1        25-3.92723E+05-7.66600E+02-1.99472E+06
 -1        26-6.39041E+03 1.04456E+05 8.12959E+03
 -1        27 3.92723E+05 7.66600E+02-1.99472E+06
 -1        28 4.17024E+06-3.09650E+06-8.78023E+06
 -1        29 7.83275E+06-3.14641E+06 8.93182E+06
 -1        30 6.39041E+03-1.04456E+05 8.12959E+03
 -1        31 2.58458E+04-8.70341E+04 3.24941E+04
 -1        32 2.63733E+04-8.51159E+04 3.24980E+04
 -1        33 3.36164E+03-4.10110E+04-2.05056E+03
 -1        34 5.61892E+03-1.08728E+05-5.45963E+03
 -1        35 6.15754E+03-1.90621E+05-9.54290E+03
 -1        36 5.17529E+03-2.67210E+05-1.33077E+04
 -1        37 3.02529E+03-3.22566E+05-1.59857E+04
 -1        38 1.30890E+02-3.45209E+05-1.70456E+04
 -1        39-3.02335E+03-3.29204E+05-1.62179E+04
 -1        40-5.94949E+03-2.74597E+05-1.35114E+04
 -1        41-8.21125E+03-1.87147E+05-9.20691E+03
 -1        42-9.47508E+03-7.73692E+04-3.81638E+03
 -1        43-9.54982E+03 4.09789E+04 1.98927E+03
 -1        44-8.40879E+03 1.52805E+05 7.47279E+03
 -1        45-6.19119E+03 2.43738E+05 1.19314E+04
 -1        46-3.18236E+03 3.02071E+05 1.47925E+04
 -1        47 2.24789E+02 3.20343E+05 1.56909E+04
 -1        48 3.58212E+03 2.96350E+05 1.45192E+04
 -1        49 6.44554E+03 2.33464E+05 1.14426E+04
 -1        50 8.43344E+03 1.40213E+05 6.87920E+03
 -1        51 9.27654E+03 2.91832E+04 1.44599E+03
 -1        52 8.85257E+03-8.46020E+04-4.12016E+03
 -1        53 7.20099E+03-1.85621E+05-9.05642E+03
 -1        54 4.51570E+03-2.59838E+05-1.26701E+04
 -1        55 1.11645E+03-2.96466E+05-1.44247E+04
 -1        56-2.59772E+03-2.89262E+05-1.40061E+04
 -1        57-6.20751E+03-2.37159E+05-1.13641E+04
 -1        58-9.33743E+03-1.44132E+05-6.72827E+03
 -1        59-1.17178E+04-1.82751E+04-5.91657E+02
 -1        60-1.32372E+04 1.29792E+05 6.35492E+03
 -1        61-1.39768E+04 2.89051E+05 1.34157E+04
 -1        62-3.36164E+03-4.10110E+04 2.05056E+03
 -1        63-5.61892E+03-1.08728E+05 5.45963E+03
 -1        64-6.15754E+03-1.90621E+05 9.54290E+03
 -1        65-5.17529E+03-2.67210E+05 1.33077E+04
 -1        66-3.02529E+03-3.22566E+05 1.59857E+04
 -1        67-1.30890E+02-3.45209E+05 1.70456E+04
 -1        68 3.02335E+03-3.29204E+05 1.62179E+04
 -1        69 5.94949E+03-2.74597E+05 1.35114E+04
 -1        70 8.21125E+03-1.87147E+05 9.20691E+03
 -1        71 9.47508E+03-7.73692E+04 3.81638E+03
 -1        72 9.54982E+03 4.09789E+04-1.98927E+03
 -1        73 8.40879E+03 1.52805E+05-7.47279E+03
 -1        74 6.19119E+03 2.43738E+05-1.19314E+04
 -1        75 3.18236E+03 3.02071E+05-1.47925E+04
 -1        76-2.24789E+02 3.20343E+05-1.56909E+04
 -1        77-3.58212E+03 2.96350E+05-1.45192E+04
 -1        78-6.44554E+03 2.33464E+05-1.14426E+04
 -1        79-8.43344E+03 1.40213E+05-6.87920E+03
 -1        80-9.27654E+03 2.91832E+04-1.44599E+03
 -1        81-8.85257E+03-8.46020E+04 4.12016E+03
 -1        82-7.20099E+03-1.85621E+05 9.05642E+03
 -1        83-4.51570E+03-2.59838E+05 1.26701E+04
 -1        84-1.11645E+03-2.96466E+05 1.44247E+04
 -1        85 2.59772E+03-2.89262E+05 1.40061E+04
 -1        86 6.20751E+03-2.37159E+05 1.13641E+04
 -1        87 9.33743E+03-1.44132E+05 6.72827E+03
 -1        88 1.17178E+04-1.82751E+04 5.91657E+02
 -1        89 1.32372E+04 1.29792E+05-6.35492E+03
 -1        90 1.39768E+04 2.89051E+05-1.34157E+04
 -1        91 8.91827E+06 2.29713E+05-5.97464E+04
 -1        92-2.30805E-05 1.49061E-04-6.18403E+04
 -1        93-8.91827E+06-2.29713E+05-5.97464E+04
 -1        94 8.91827E+06-2.29713E+05 5.97464E+04
 -1        95 1.14241E-04-1.54355E-04 6.18403E+04
 -1        96-8.91827E+06 2.29713E+05 5.97464E+04
 -1        97 3.36164E+03 4.10110E+04 2.05056E+03
 -1        98 5.61892E+03 1.08728E+05 5.45963E+03
 -1        99 6.15754E+03 1.90621E+05 9.54290E+03
 -1       100 5.17529E+03 2.67210E+05 1.33077E+04
 -1       101 3.02529E+03 3.22566E+05 1.59857E+04
 -1       102 1.30890E+02 3.45209E+05 1.70456E+04
 -1       103-3.02335E+03 3.29204E+05 1.62179E+04
 -1       104-5.94949E+03 2.74597E+05 1.35114E+04
 -1       105-8.21125E+03 1.87147E+05 9.20691E+03
 -1       106-9.47508E+03 7.73692E+04 3.81638E+03
 -1       107-9.54982E+03-4.09789E+04-1.98927E+03
 -1       108-8.40879E+03-1.52805E+05-7.47279E+03
 -1       109-6.19119E+03-2.43738E+05-1.19314E+04
 -1       110-3.18236E+03-3.02071E+05-1.47925E+04
 -1       111 2.24789E+02-3.20343E+05-1.56909E+04
 -1       112 3.58212E+03-2.96350E+05-1.45192E+04
 -1       113 6.44554E+03-2.33464E+05-1.14426E+04
 -1       114 8.43344E+03-1.40213E+05-6.87920E+03
 -1       115 9.27654E+03-2.91832E+04-1.44599E+03
 -1       116 8.85257E+03 8.46020E+04 4.12016E+03
 -1       117 7.20099E+03 1.85621E+05 9.05642E+03
 -1       118 4.51570E+03 2.59838E+05 1.26701E+04
 -1       119 1.11645E+03 2.96466E+05 1.44247E+04
 -1       120-2.59772E+03 2.89262E+05 1.40061E+04
 -1       121-6.20751E+03 2.37159E+05 1.13641E+04
 -1       122-9.33743E+03 1.44132E+05 6.72827E+03
 -1       123-1.17178E+04 1.82751E+04 5.91657E+02
 -1       124-1.32372E+04-1.29792E+05-6.35492E+03
 -1       125-1.39768E+04-2.89051E+05-1.34157E+04
 -1       126 6.91688E+02 1.16606E+05-1.76953E+03
 -1       127-9.84735E-07-2.51839E-06-1.80078E+03
 -1       128-6.91689E+02-1.16606E+05-1.76953E+03
 -1       129-3.36164E+03 4.10110E+04-2.05056E+03
 -1       130-5.61892E+03 1.08728E+05-5.45963E+03
 -1       131-6.15754E+03 1.90621E+05-9.54290E+03
 -1       132-5.17529E+03 2.67210E+05-1.33077E+04
 -1       133-3.02529E+03 3.22566E+05-1.59857E+04
 -1       134-1.30890E+02 3.45209E+05-1.70456E+04
 -1       135 3.02335E+03 3.29204E+05-1.62179E+04
 -1       136 5.94949E+03 2.74597E+05-1.35114E+04
 -1       137 8.21125E+03 1.87147E+05-9.20691E+03
 -1       138 9.47508E+03 7.73692E+04-3.81638E+03
 -1       139 9.54982E+03-4.09789E+04 1.98927E+03
 -1       140 8.40879E+03-1.52805E+05 7.47279E+03
 -1       141 6.19119E+03-2.43738E+05 1.19314E+04
 -1       142 3.18236E+03-3.02071E+05 1.47925E+04
 -1       143-2.24789E+02-3.20343E+05 1.56909E+04
 -1       144-3.58212E+03-2.96350E+05 1.45192E+04
 -1       145-6.44554E+03-2.33464E+05 1.14426E+04
 -1       146-8.43344E+03-1.40213E+05 6.87920E+03
 -1       147-9.27654E+03-2.91832E+04 1.44599E+03
 -1       148-8.85257E+03 8.46020E+04-4.12016E+03
 -1       149-7.20099E+03 1.85621E+05-9.05642E+03
 -1       150-4.51570E+03 2.59838E+05-1.26701E+04
 -1       151-1.11645E+03 2.96466E+05-1.44247E+04
 -1       152 2.59772E+03 2.89262E+05-1.40061E+04
 -1       153 6.20751E+03 2.37159E+05-1.13641E+04
 -1       154 9.33743E+03 1.44132E+05-6.72827E+03
 -1       155 1.17178E+04 1.82751E+04-5.91657E+02
 -1       156 1.32372E+04-1.29792E+05 6.35492E+03
 -1       157 1.39768E+04-2.89051E+05 1.34157E+04
 -1       158 6.91688E+02-1.16606E+05 1.76953E+03
 -1       159-6.13931E-07 7.48688E-06 1.80078E+03
 -1       160-6.91688E+02 1.16606E+05 1.76953E+03
 -1       161-2.86602E+03-2.18571E+04 1.82717E+03
 -1       162-4.89632E+03-5.76172E+04 4.95484E+03
 -1       163-5.40765E+03-1.00868E+05 8.69001E+03
 -1       164-4.55561E+03-1.41327E+05 1.21252E+04
 -1       165-2.65878E+03-1.70546E+05 1.45657E+04
 -1       166-9.55565E+01-1.82471E+05 1.55305E+04
 -1       167 2.70170E+03-1.73982E+05 1.47755E+04
 -1       168 5.29823E+03-1.45111E+05 1.23091E+04
 -1       169 7.30556E+03-9.88972E+04 8.38753E+03
 -1       170 8.42682E+03-4.08933E+04 3.47683E+03
 -1       171 8.49181E+03 2.16347E+04-1.81189E+03
 -1       172 7.47667E+03 8.07153E+04-6.80711E+03
 -1       173 5.50501E+03 1.28757E+05-1.08687E+04
 -1       174 2.83038E+03 1.59577E+05-1.34750E+04
 -1       175-1.98050E+02 1.69232E+05-1.42935E+04
 -1       176-3.18198E+03 1.56560E+05-1.32261E+04
 -1       177-5.72668E+03 1.23341E+05-1.04236E+04
 -1       178-7.49292E+03 7.40808E+04-6.26666E+03
 -1       179-8.24131E+03 1.54298E+04-1.31735E+03
 -1       180-7.86306E+03-4.46754E+04 3.75304E+03
 -1       181-6.39312E+03-9.80332E+04 8.24951E+03
 -1       182-4.00365E+03-1.37225E+05 1.15408E+04
 -1       183-9.78512E+02-1.56547E+05 1.31378E+04
 -1       184 2.32832E+03-1.52694E+05 1.27539E+04
 -1       185 5.54554E+03-1.25105E+05 1.03439E+04
 -1       186 8.34196E+03-7.59024E+04 6.11914E+03
 -1       187 1.04818E+04-9.42280E+03 5.35761E+02
 -1       188 1.18706E+04 6.86254E+04-5.76429E+03
 -1       189 1.25757E+04 1.52327E+05-1.21361E+04
 -1       190 2.30548E+06-2.83155E+05 1.00245E+07
 -1       191 6.97274E+06-4.15853E+05-1.02089E+07
 -1       192 3.20810E+04 1.74021E+05-4.05474E+04
 -1       193-1.24454E+04-1.92925E+04 7.31371E+03
 -1       194-2.05201E+04-4.85926E+04 2.01033E+04
 -1       195-2.24521E+04-8.39311E+04 3.53612E+04
 -1       196-1.88844E+04-1.17101E+05 4.93099E+04
 -1       197-1.10444E+04-1.41054E+05 5.91901E+04
 -1       198-4.95996E+02-1.50784E+05 6.30810E+04
 -1       199 1.09977E+04-1.43706E+05 5.99966E+04
 -1       200 2.16596E+04-1.19835E+05 4.99740E+04
 -1       201 2.99004E+04-8.16729E+04 3.40518E+04
 -1       202 3.45057E+04-3.37954E+04 1.41201E+04
 -1       203 3.47793E+04 1.78068E+04-7.34319E+03
 -1       204 3.06242E+04 6.65598E+04-2.76143E+04
 -1       205 2.25478E+04 1.06203E+05-4.40965E+04
 -1       206 1.15892E+04 1.31636E+05-5.46734E+04
 -1       207-8.20288E+02 1.39609E+05-5.79960E+04
 -1       208-1.30485E+04 1.29163E+05-5.36668E+04
 -1       209-2.34780E+04 1.01767E+05-4.22973E+04
 -1       210-3.07189E+04 6.11400E+04-2.54325E+04
 -1       211-3.37905E+04 1.27690E+04-5.35305E+03
 -1       212-3.22476E+04-3.67965E+04 1.52167E+04
 -1       213-2.62342E+04-8.07884E+04 3.34556E+04
 -1       214-1.64572E+04-1.13083E+05 4.67996E+04
 -1       215-4.08157E+03-1.28970E+05 5.32599E+04
 -1       216 9.43929E+03-1.25717E+05 5.16697E+04
 -1       217 2.25793E+04-1.02850E+05 4.18461E+04
 -1       218 3.39747E+04-6.21095E+04 2.46637E+04
 -1       219 4.26503E+04-7.05732E+03 2.02590E+03
 -1       220 4.82048E+04 5.76157E+04-2.33733E+04
 -1       221 5.09351E+04 1.27052E+05-4.87848E+04
 -1       222-1.28804E+04-1.88557E+04 7.47175E+03
 -1       223-2.11693E+04-4.73862E+04 2.01742E+04
 -1       224-2.31181E+04-8.18070E+04 3.53464E+04
 -1       225-1.94260E+04-1.14141E+05 4.92247E+04
 -1       226-1.13582E+04-1.37505E+05 5.90543E+04
 -1       227-5.16895E+02-1.47003E+05 6.29189E+04
 -1       228 1.12909E+04-1.40111E+05 5.98339E+04
 -1       229 2.22426E+04-1.16841E+05 4.98353E+04
 -1       230 3.07072E+04-7.96327E+04 3.39575E+04
 -1       231 3.54376E+04-3.29491E+04 1.40842E+04
 -1       232 3.57191E+04 1.73676E+04-7.31492E+03
 -1       233 3.14520E+04 6.49065E+04-2.75248E+04
 -1       234 2.31572E+04 1.03563E+05-4.39572E+04
 -1       235 1.19022E+04 1.28362E+05-5.45024E+04
 -1       236-8.43234E+02 1.36136E+05-5.78157E+04
 -1       237-1.34026E+04 1.25949E+05-5.35010E+04
 -1       238-2.41146E+04 9.92339E+04-4.21680E+04
 -1       239-3.15518E+04 5.96167E+04-2.53569E+04
 -1       240-3.47070E+04 1.24480E+04-5.34173E+03
 -1       241-3.31229E+04-3.58860E+04 1.51616E+04
 -1       242-2.69472E+04-7.87859E+04 3.33403E+04
 -1       243-1.69053E+04-1.10282E+05 4.66379E+04
 -1       244-4.19369E+03-1.25783E+05 5.30710E+04
 -1       245 9.69374E+03-1.22627E+05 5.14754E+04
 -1       246 2.31853E+04-1.00351E+05 4.16677E+04
 -1       247 3.48704E+04-6.06414E+04 2.45187E+04
 -1       248 4.37313E+04-6.94478E+03 1.92458E+03
 -1       249 4.93430E+04 5.62132E+04-2.34298E+04
 -1       250 5.20291E+04 1.24148E+05-4.88066E+04
 -1       251 3.27569E+04 1.70172E+05-4.05530E+04
 -1       252-1.25757E+04-1.52327E+05-1.21361E+04
 -1       253-1.18706E+04-6.86254E+04-5.76429E+03
 -1       254-1.04818E+04 9.42280E+03 5.35761E+02
 -1       255-8.34196E+03 7.59024E+04 6.11914E+03
 -1       256-5.54554E+03 1.25105E+05 1.03439E+04
 -1       257-2.32832E+03 1.52694E+05 1.27539E+04
 -1       258 9.78512E+02 1.56547E+05 1.31378E+04
 -1       259 4.00365E+03 1.37225E+05 1.15408E+04
 -1       260 6.39312E+03 9.80332E+04 8.24951E+03
 -1       261 7.86306E+03 4.46754E+04 3.75304E+03
 -1       262 8.24131E+03-1.54298E+04-1.31735E+03
 -1       263 7.49292E+03-7.40808E+04-6.26666E+03
 -1       264 5.72668E+03-1.23341E+05-1.04236E+04
 -1       265 3.18198E+03-1.56560E+05-1.32261E+04
 -1       266 1.98050E+02-1.69232E+05-1.42935E+04
 -1       267-2.83038E+03-1.59577E+05-1.34750E+04
 -1       268-5.50501E+03-1.28757E+05-1.08687E+04
 -1       269-7.47667E+03-8.07153E+04-6.80711E+03
 -1       270-8.49181E+03-2.16347E+04-1.81189E+03
 -1       271-8.42682E+03 4.08933E+04 3.47683E+03
 -1       272-7.30556E+03 9.88972E+04 8.38753E+03
 -1       273-5.29823E+03 1.45111E+05 1.23091E+04
 -1       274-2.70170E+03 1.73982E+05 1.47755E+04
 -1       275 9.55565E+01 1.82471E+05 1.55305E+04
 -1       276 2.65878E+03 1.70546E+05 1.45657E+04
 -1       277 4.55561E+03 1.41327E+05 1.21252E+04
 -1       278 5.40765E+03 1.00868E+05 8.69001E+03
 -1       279 4.89632E+03 5.76172E+04 4.95484E+03
 -1       280 2.86602E+03 2.18571E+04 1.82717E+03
 -1       281-6.97274E+06 4.15853E+05-1.02089E+07
 -1       282-2.30548E+06 2.83155E+05 1.00245E+07
 -1       283 1.28804E+04 1.88557E+04 7.47175E+03
 -1       284 2.11693E+04 4.73862E+04 2.01742E+04
 -1       285 2.31181E+04 8.18070E+04 3.53464E+04
 -1       286 1.94260E+04 1.14141E+05 4.92247E+04
 -1       287 1.13582E+04 1.37505E+05 5.90543E+04
 -1       288 5.16895E+02 1.47003E+05 6.29189E+04
 -1       289-1.12909E+04 1.40111E+05 5.98339E+04
 -1       290-2.22426E+04 1.16841E+05 4.98353E+04
 -1       291-3.07072E+04 7.96327E+04 3.39575E+04
 -1       292-3.54376E+04 3.29491E+04 1.40842E+04
 -1       293-3.57191E+04-1.73676E+04-7.31492E+03
 -1       294-3.14520E+04-6.49065E+04-2.75248E+04
 -1       295-2.31572E+04-1.03563E+05-4.39572E+04
 -1       296-1.19022E+04-1.28362E+05-5.45024E+04
 -1       297 8.43234E+02-1.36136E+05-5.78157E+04
 -1       298 1.34026E+04-1.25949E+05-5.35010E+04
 -1       299 2.41146E+04-9.92339E+04-4.21680E+04
 -1       300 3.15518E+04-5.96167E+04-2.53569E+04
 -1       301 3.47070E+04-1.24480E+04-5.34173E+03
 -1       302 3.31229E+04 3.58860E+04 1.51616E+04
 -1       303 2.69472E+04 7.87859E+04 3.33403E+04
 -1       304 1.69053E+04 1.10282E+05 4.66379E+04
 -1       305 4.19369E+03 1.25783E+05 5.30710E+04
 -1       306-9.69374E+03 1.22627E+05 5.14754E+04
 -1       307-2.31853E+04 1.00351E+05 4.16677E+04
 -1       308-3.48704E+04 6.06414E+04 2.45187E+04
 -1       309-4.37313E+04 6.94478E+03 1.92458E+03
 -1       310-4.93430E+04-5.62132E+04-2.34298E+04
 -1       311-5.20291E+04-1.24148E+05-4.88066E+04
 -1       312-3.27569E+04-1.70172E+05-4.05530E+04
 -1       313 1.24454E+04 1.92925E+04 7.31371E+03
 -1       314 2.05201E+04 4.85926E+04 2.01033E+04
 -1       315 2.24521E+04 8.39311E+04 3.53612E+04
 -1       316 1.88844E+04 1.17101E+05 4.93099E+04
 -1       317 1.10444E+04 1.41054E+05 5.91901E+04
 -1       318 4.95996E+02 1.50784E+05 6.30810E+04
 -1       319-1.09977E+04 1.43706E+05 5.99966E+04
 -1       320-2.16596E+04 1.19835E+05 4.99740E+04
 -1       321-2.99004E+04 8.16729E+04 3.40518E+04
 -1       322-3.45057E+04 3.37954E+04 1.41201E+04
 -1       323-3.47793E+04-1.78068E+04-7.34319E+03
 -1       324-3.06242E+04-6.65598E+04-2.76143E+04
 -1       325-2.25478E+04-1.06203E+05-4.40965E+04
 -1       326-1.15892E+04-1.31636E+05-5.46734E+04
 -1       327 8.20288E+02-1.39609E+05-5.79960E+04
 -1       328 1.30485E+04-1.29163E+05-5.36668E+04
 -1       329 2.34780E+04-1.01767E+05-4.22973E+04
 -1       330 3.07189E+04-6.11400E+04-2.54325E+04
 -1       331 3.37905E+04-1.27690E+04-5.35305E+03
 -1       332 3.22476E+04 3.67965E+04 1.52167E+04
 -1       333 2.62342E+04 8.07884E+04 3.34556E+04
 -1       334 1.64572E+04 1.13083E+05 4.67996E+04
 -1       335 4.08157E+03 1.28970E+05 5.32599E+04
 -1       336-9.43929E+03 1.25717E+05 5.16697E+04
 -1       337-2.25793E+04 1.02850E+05 4.18461E+04
 -1       338-3.39747E+04 6.21095E+04 2.46637E+04
 -1       339-4.26503E+04 7.05732E+03 2.02590E+03
 -1       340-4.82048E+04-5.76157E+04-2.33733E+04
 -1       341-5.09351E+04-1.27052E+05-4.87848E+04
 -1       342-3.20810E+04-1.74021E+05-4.05474E+04
 -1       343 1.24454E+04-1.92925E+04-7.31371E+03
 -1       344 2.05201E+04-4.85926E+04-2.01033E+04
 -1       345 2.24521E+04-8.39311E+04-3.53612E+04
 -1       346 1.88844E+04-1.17101E+05-4.93099E+04
 -1       347 1.10444E+04-1.41054E+05-5.91901E+04
 -1       348 4.95996E+02-1.50784E+05-6.30810E+04
 -1       349-1.09977E+04-1.43706E+05-5.99966E+04
 -1       350-2.16596E+04-1.19835E+05-4.99740E+04
 -1       351-2.99004E+04-8.16729E+04-3.40518E+04
 -1       352-3.45057E+04-3.37954E+04-1.41201E+04
 -1       353-3.47793E+04 1.78068E+04 7.34319E+03
 -1       354-3.06242E+04 6.65598E+04 2.76143E+04
 -1       355-2.25478E+04 1.06203E+05 4.40965E+04
 -1       356-1.15892E+04 1.31636E+05 5.46734E+04
 -1       357 8.20288E+02 1.39609E+05 5.79960E+04
 -1       358 1.30485E+04 1.29163E+05 5.36668E+04
 -1       359 2.34780E+04 1.01767E+05 4.22973E+04
 -1       360 3.07189E+04 6.11400E+04 2.54325E+04
 -1       361 3.37905E+04 1.27690E+04 5.35305E+03
 -1       362 3.22476E+04-3.67965E+04-1.52167E+04
 -1       363 2.62342E+04-8.07884E+04-3.34556E+04
 -1       364 1.64572E+04-1.13083E+05-4.67996E+04
 -1       365 4.08157E+03-1.28970E+05-5.32599E+04
 -1       366-9.43929E+03-1.25717E+05-5.16697E+04
 -1       367-2.25793E+04-1.02850E+05-4.18461E+04
 -1       368-3.39747E+04-6.21095E+04-2.46637E+04
 -1       369-4.26503E+04-7.05732E+03-2.02590E+03
 -1       370-4.82048E+04 5.76157E+04 2.33733E+04
 -1       371-5.09351E+04 1.27052E+05 4.87848E+04
 -1       372 1.28804E+04-1.88557E+04-7.47175E+03
 -1       373 2.11693E+04-4.73862E+04-2.01742E+04
 -1       374 2.31181E+04-8.18070E+04-3.53464E+04
 -1       375 1.94260E+04-1.14141E+05-4.92247E+04
 -1       376 1.13582E+04-1.37505E+05-5.90543E+04
 -1       377 5.16895E+02-1.47003E+05-6.29189E+04
 -1       378-1.12909E+04-1.40111E+05-5.98339E+04
 -1       379-2.22426E+04-1.16841E+05-4.98353E+04
 -1       380-3.07072E+04-7.96327E+04-3.39575E+04
 -1       381-3.54376E+04-3.29491E+04-1.40842E+04
 -1       382-3.57191E+04 1.73676E+04 7.31492E+03
 -1       383-3.14520E+04 6.49065E+04 2.75248E+04
 -1       384-2.31572E+04 1.03563E+05 4.39572E+04
 -1       385-1.19022E+04 1.28362E+05 5.45024E+04
 -1       386 8.43234E+02 1.36136E+05 5.78157E+04
 -1       387 1.34026E+04 1.25949E+05 5.35010E+04
 -1       388 2.41146E+04 9.92339E+04 4.21680E+04
 -1       389 3.15518E+04 5.96167E+04 2.53569E+04
 -1       390 3.47070E+04 1.24480E+04 5.34173E+03
 -1       391 3.31229E+04-3.58860E+04-1.51616E+04
 -1       392 2.69472E+04-7.87859E+04-3.33403E+04
 -1       393 1.69053E+04-1.10282E+05-4.66379E+04
 -1       394 4.19369E+03-1.25783E+05-5.30710E+04
 -1       395-9.69374E+03-1.22627E+05-5.14754E+04
 -1       396-2.31853E+04-1.00351E+05-4.16677E+04
 -1       397-3.48704E+04-6.06414E+04-2.45187E+04
 -1       398-4.37313E+04-6.94478E+03-1.92458E+03
 -1       399-4.93430E+04 5.62132E+04 2.34298E+04
 -1       400-5.20291E+04 1.24148E+05 4.88066E+04
 -1       401-2.30548E+06-2.83155E+05-1.00245E+07
 -1       402-6.97274E+06-4.15853E+05 1.02089E+07
 -1       403-3.20810E+04 1.74021E+05 4.05474E+04
 -1       404 2.86602E+03-2.18571E+04-1.82717E+03
 -1       405 4.89632E+03-5.76172E+04-4.95484E+03
 -1       406 5.40765E+03-1.00868E+05-8.69001E+03
 -1       407 4.55561E+03-1.41327E+05-1.21252E+04
 -1       408 2.65878E+03-1.70546E+05-1.45657E+04
 -1       409 9.55565E+01-1.82471E+05-1.55305E+04
 -1       410-2.70170E+03-1.73982E+05-1.47755E+04
 -1       411-5.29823E+03-1.45111E+05-1.23091E+04
 -1       412-7.30556E+03-9.88972E+04-8.38753E+03
 -1       413-8.42682E+03-4.08933E+04-3.47683E+03
 -1       414-8.49181E+03 2.16347E+04 1.81189E+03
 -1       415-7.47667E+03 8.07153E+04 6.80711E+03
 -1       416-5.50501E+03 1.28757E+05 1.08687E+04
 -1       417-2.83038E+03 1.59577E+05 1.34750E+04
 -1       418 1.98050E+02 1.69232E+05 1.42935E+04
 -1       419 3.18198E+03 1.56560E+05 1.32261E+04
 -1       420 5.72668E+03 1.23341E+05 1.04236E+04
 -1       421 7.49292E+03 7.40808E+04 6.26666E+03
 -1       422 8.24131E+03 1.54298E+04 1.31735E+03
 -1       423 7.86306E+03-4.46754E+04-3.75304E+03
 -1       424 6.39312E+03-9.80332E+04-8.24951E+03
 -1       425 4.00365E+03-1.37225E+05-1.15408E+04
 -1       426 9.78512E+02-1.56547E+05-1.31378E+04
 -1       427-2.32832E+03-1.52694E+05-1.27539E+04
 -1       428-5.54554E+03-1.25105E+05-1.03439E+04
 -1       429-8.34196E+03-7.59024E+04-6.11914E+03
 -1       430-1.04818E+04-9.42280E+03-5.35761E+02
 -1       431-1.18706E+04 6.86254E+04 5.76429E+03
 -1       432-1.25757E+04 1.52327E+05 1.21361E+04
 -1       433-3.27569E+04 1.70172E+05 4.05530E+04
 -1       434 2.30548E+06 2.83155E+05-1.00245E+07
 -1       435 6.97274E+06 4.15853E+05 1.02089E+07
 -1       436 1.25757E+04-1.52327E+05 1.21361E+04
 -1       437 1.18706E+04-6.86254E+04 5.76429E+03
 -1       438 1.04818E+04 9.42280E+03-5.35761E+02
 -1       439 8.34196E+03 7.59024E+04-6.11914E+03
 -1       440 5.54554E+03 1.25105E+05-1.03439E+04
 -1       441 2.32832E+03 1.52694E+05-1.27539E+04
 -1       442-9.78512E+02 1.56547E+05-1.31378E+04
 -1       443-4.00365E+03 1.37225E+05-1.15408E+04
 -1       444-6.39312E+03 9.80332E+04-8.24951E+03
 -1       445-7.86306E+03 4.46754E+04-3.75304E+03
 -1       446-8.24131E+03-1.54298E+04 1.31735E+03
 -1       447-7.49292E+03-7.40808E+04 6.26666E+03
 -1       448-5.72668E+03-1.23341E+05 1.04236E+04
 -1       449-3.18198E+03-1.56560E+05 1.32261E+04
 -1       450-1.98050E+02-1.69232E+05 1.42935E+04
 -1       451 2.83038E+03-1.59577E+05 1.34750E+04
 -1       452 5.50501E+03-1.28757E+05 1.08687E+04
 -1       453 7.47667E+03-8.07153E+04 6.80711E+03
 -1       454 8.49181E+03-2.16347E+04 1.81189E+03
 -1       455 8.42682E+03 4.08933E+04-3.47683E+03
 -1       456 7.30556E+03 9.88972E+04-8.38753E+03
 -1       457 5.29823E+03 1.45111E+05-1.23091E+04
 -1       458 2.70170E+03 1.73982E+05-1.47755E+04
 -1       459-9.55565E+01 1.82471E+05-1.55305E+04
 -1       460-2.65878E+03 1.70546E+05-1.45657E+04
 -1       461-4.55561E+03 1.41327E+05-1.21252E+04
 -1       462-5.40765E+03 1.00868E+05-8.69001E+03
 -1       463-4.89632E+03 5.76172E+04-4.95484E+03
 -1       464-2.86602E+03 2.18571E+04-1.82717E+03
 -1       465 3.20810E+04-1.74021E+05 4.05474E+04
 -1       466-1.24454E+04 1.92925E+04-7.31371E+03
 -1       467-2.05201E+04 4.85926E+04-2.01033E+04
 -1       468-2.24521E+04 8.39311E+04-3.53612E+04
 -1       469-1.88844E+04 1.17101E+05-4.93099E+04
 -1       470-1.10444E+04 1.41054E+05-5.91901E+04
 -1       471-4.95996E+02 1.50784E+05-6.30810E+04
 -1       472 1.09977E+04 1.43706E+05-5.99966E+04
 -1       473 2.16596E+04 1.19835E+05-4.99740E+04
 -1       474 2.99004E+04 8.16729E+04-3.40518E+04
 -1       475 3.45057E+04 3.37954E+04-1.41201E+04
 -1       476 3.47793E+04-1.78068E+04 7.34319E+03
 -1       477 3.06242E+04-6.65598E+04 2.76143E+04
 -1       478 2.25478E+04-1.06203E+05 4.40965E+04
 -1       479 1.15892E+04-1.31636E+05 5.46734E+04
 -1       480-8.20288E+02-1.39609E+05 5.79960E+04
 -1       481-1.30485E+04-1.29163E+05 5.36668E+04
 -1       482-2.34780E+04-1.01767E+05 4.22973E+04
 -1       483-3.07189E+04-6.11400E+04 2.54325E+04
 -1       484-3.37905E+04-1.27690E+04 5.35305E+03
 -1       485-3.22476E+04 3.67965E+04-1.52167E+04
 -1       486-2.62342E+04 8.07884E+04-3.34556E+04
 -1       487-1.64572E+04 1.13083E+05-4.67996E+04
 -1       488-4.08157E+03 1.28970E+05-5.32599E+04
 -1       489 9.43929E+03 1.25717E+05-5.16697E+04
 -1       490 2.25793E+04 1.02850E+05-4.18461E+04
 -1       491 3.39747E+04 6.21095E+04-2.46637E+04
 -1       492 4.26503E+04 7.05732E+03-2.02590E+03
 -1       493 4.82048E+04-5.76157E+04 2.33733E+04
 -1       494 5.09351E+04-1.27052E+05 4.87848E+04
 -1       495-1.28804E+04 1.88557E+04-7.47175E+03
 -1       496-2.11693E+04 4.73862E+04-2.01742E+04
 -1       497-2.31181E+04 8.18070E+04-3.53464E+04
 -1       498-1.94260E+04 1.14141E+05-4.92247E+04
 -1       499-1.13582E+04 1.37505E+05-5.90543E+04
 -1       500-5.16895E+02 1.47003E+05-6.29189E+04
 -1       501 1.12909E+04 1.40111E+05-5.98339E+04
 -1       502 2.22426E+04 1.16841E+05-4.98353E+04
 -1       503 3.07072E+04 7.96327E+04-3.39575E+04
 -1       504 3.54376E+04 3.29491E+04-1.40842E+04
 -1       505 3.57191E+04-1.73676E+04 7.31492E+03
 -1       506 3.14520E+04-6.49065E+04 2.75248E+04
 -1       507 2.31572E+04-1.03563E+05 4.39572E+04
 -1       508 1.19022E+04-1.28362E+05 5.45024E+04
 -1       509-8.43234E+02-1.36136E+05 5.78157E+04
 -1       510-1.34026E+04-1.25949E+05 5.35010E+04
 -1       511-2.41146E+04-9.92339E+04 4.21680E+04
 -1       512-3.15518E+04-5.96167E+04 2.53569E+04
 -1       513-3.47070E+04-1.24480E+04 5.34173E+03
 -1       514-3.31229E+04 3.58860E+04-1.51616E+04
 -1       515-2.69472E+04 7.87859E+04-3.33403E+04
 -1       516-1.69053E+04 1.10282E+05-4.66379E+04
 -1       517-4.19369E+03 1.25783E+05-5.30710E+04
 -1       518 9.69374E+03 1.22627E+05-5.14754E+04
 -1       519 2.31853E+04 1.00351E+05-4.16677E+04
 -1       520 3.48704E+04 6.06414E+04-2.45187E+04
 -1       521 4.37313E+04 6.94478E+03-1.92458E+03
 -1       522 4.93430E+04-5.62132E+04 2.34298E+04
 -1       523 5.20291E+04-1.24148E+05 4.88066E+04
 -1       524 3.27569E+04-1.70172E+05 4.05530E+04
 -1       525-4.40756E+02-2.31159E+04 3.67196E+02
 -1       526-6.58382E+02-6.28111E+04 9.70927E+02
 -1       527-6.85213E+02-1.10614E+05 1.70219E+03
 -1       528-5.68907E+02-1.55143E+05 2.38651E+03
 -1       529-3.38244E+02-1.87376E+05 2.88109E+03
 -1       530-3.29174E+01-2.00630E+05 3.08335E+03
 -1       531 2.97659E+02-1.91392E+05 2.94038E+03
 -1       532 6.03198E+02-1.59672E+05 2.45264E+03
 -1       533 8.39061E+02-1.08824E+05 1.67155E+03
 -1       534 9.71233E+02-4.49729E+04 6.91037E+02
 -1       535 9.80280E+02 2.38724E+04-3.66023E+02
 -1       536 8.63633E+02 8.89272E+04-1.36483E+03
 -1       537 6.35759E+02 1.41828E+05-2.17702E+03
 -1       538 3.26128E+02 1.75762E+05-2.69805E+03
 -1       539-2.47458E+01 1.86388E+05-2.86125E+03
 -1       540-3.70682E+02 1.72423E+05-2.64695E+03
 -1       541-6.65945E+02 1.35827E+05-2.08526E+03
 -1       542-8.71261E+02 8.15628E+04-1.25235E+03
 -1       543-9.58966E+02 1.69529E+04-2.60650E+02
 -1       544-9.16596E+02-4.92635E+04 7.55663E+02
 -1       545-7.48432E+02-1.08060E+05 1.65795E+03
 -1       546-4.74769E+02-1.51277E+05 2.32085E+03
 -1       547-1.28955E+02-1.72653E+05 2.64798E+03
 -1       548 2.47541E+02-1.68569E+05 2.58359E+03
 -1       549 6.11537E+02-1.38402E+05 2.11816E+03
 -1       550 9.25027E+02-8.44006E+04 1.28727E+03
 -1       551 1.16066E+03-1.11171E+04 1.63399E+02
 -1       552 1.30561E+03 7.54732E+04-1.15850E+03
 -1       553 1.36898E+03 1.69198E+05-2.57976E+03
 -1       554 9.61796E-07 8.75183E-07 3.50674E+02
 -1       555-7.23732E-06-4.44383E-07 9.63172E+02
 -1       556-6.36982E-06-4.56334E-06 1.69912E+03
 -1       557 3.12006E-06-7.63875E-06 2.38320E+03
 -1       558 2.19573E-06 1.86403E-06 2.87873E+03
 -1       559 2.79514E-06-6.49032E-07 3.08300E+03
 -1       560 4.57923E-07 1.07102E-05 2.94149E+03
 -1       561-6.89007E-06 3.19719E-06 2.45418E+03
 -1       562-4.45810E-07 7.30780E-06 1.67266E+03
 -1       563 6.95223E-06 4.64178E-06 6.91143E+02
 -1       564 9.42476E-06-6.47853E-06-3.67201E+02
 -1       565 7.95499E-06-1.64971E-05-1.36730E+03
 -1       566-1.41349E-07-1.61537E-05-2.18056E+03
 -1       567-1.98972E-06-3.46172E-07-2.70223E+03
 -1       568 3.16629E-06-1.48769E-06-2.86556E+03
 -1       569-1.58284E-06 6.68621E-06-2.65081E+03
 -1       570-3.92512E-06 1.18510E-05-2.08815E+03
 -1       571-2.45525E-06-1.29230E-05-1.25384E+03
 -1       572-2.65062E-06-1.08220E-05-2.60470E+02
 -1       573-6.58402E-06 4.50111E-06 7.57622E+02
 -1       574-2.27188E-06-2.96679E-07 1.66168E+03
 -1       575-2.46552E-06-9.49701E-06 2.32635E+03
 -1       576 1.99067E-06 3.91546E-08 2.65544E+03
 -1       577 8.46901E-07-2.03876E-06 2.59343E+03
 -1       578 2.08782E-06-1.90017E-06 2.13070E+03
 -1       579 2.69195E-06 5.39486E-06 1.30127E+03
 -1       580-6.73801E-06 8.86736E-06 1.73881E+02
 -1       581-1.23371E-05 1.97405E-05-1.16122E+03
 -1       582-4.76524E-06 2.68577E-05-2.61108E+03
 -1       583 4.40756E+02 2.31159E+04 3.67196E+02
 -1       584 6.58382E+02 6.28111E+04 9.70927E+02
 -1       585 6.85213E+02 1.10614E+05 1.70219E+03
 -1       586 5.68907E+02 1.55143E+05 2.38651E+03
 -1       587 3.38244E+02 1.87376E+05 2.88109E+03
 -1       588 3.29175E+01 2.00630E+05 3.08335E+03
 -1       589-2.97659E+02 1.91392E+05 2.94038E+03
 -1       590-6.03198E+02 1.59672E+05 2.45264E+03
 -1       591-8.39061E+02 1.08824E+05 1.67155E+03
 -1       592-9.71233E+02 4.49729E+04 6.91037E+02
 -1       593-9.80280E+02-2.38724E+04-3.66023E+02
 -1       594-8.63633E+02-8.89272E+04-1.36483E+03
 -1       595-6.35759E+02-1.41828E+05-2.17702E+03
 -1       596-3.26128E+02-1.75762E+05-2.69805E+03
 -1       597 2.47458E+01-1.86388E+05-2.86125E+03
 -1       598 3.70682E+02-1.72423E+05-2.64695E+03
 -1       599 6.65945E+02-1.35827E+05-2.08526E+03
 -1       600 8.71261E+02-8.15628E+04-1.25235E+03
 -1       601 9.58966E+02-1.69529E+04-2.60650E+02
 -1       602 9.16596E+02 4.92635E+04 7.55663E+02
 -1       603 7.48432E+02 1.08060E+05 1.65795E+03
 -1       604 4.74769E+02 1.51277E+05 2.32085E+03
 -1       605 1.28955E+02 1.72653E+05 2.64798E+03
 -1       606-2.47541E+02 1.68569E+05 2.58359E+03
 -1       607-6.11537E+02 1.38402E+05 2.11816E+03
 -1       608-9.25027E+02 8.44006E+04 1.28727E+03
 -1       609-1.16066E+03 1.11171E+04 1.63399E+02
 -1       610-1.30561E+03-7.54732E+04-1.15850E+03
 -1       611-1.36898E+03-1.69198E+05-2.57976E+03
 -1       612-4.40756E+02 2.31159E+04-3.67196E+02
 -1       613-6.58382E+02 6.28111E+04-9.70927E+02
 -1       614-6.85213E+02 1.10614E+05-1.70219E+03
 -1       615-5.68907E+02 1.55143E+05-2.38651E+03
 -1       616-3.38244E+02 1.87376E+05-2.88109E+03
 -1       617-3.29174E+01 2.00630E+05-3.08335E+03
 -1       618 2.97659E+02 1.91392E+05-2.94038E+03
 -1       619 6.03198E+02 1.59672E+05-2.45264E+03
 -1       620 8.39061E+02 1.08824E+05-1.67155E+03
 -1       621 9.71233E+02 4.49729E+04-6.91037E+02
 -1       622 9.80280E+02-2.38724E+04 3.66023E+02
 -1       623 8.63633E+02-8.89272E+04 1.36483E+03
 -1       624 6.35759E+02-1.41828E+05 2.17702E+03
 -1       625 3.26128E+02-1.75762E+05 2.69805E+03
 -1       626-2.47458E+01-1.86388E+05 2.86125E+03
 -1       627-3.70682E+02-1.72423E+05 2.64695E+03
 -1       628-6.65945E+02-1.35827E+05 2.08526E+03
 -1       629-8.71261E+02-8.15628E+04 1.25235E+03
 -1       630-9.58966E+02-1.69529E+04 2.60650E+02
 -1       631-9.16596E+02 4.92635E+04-7.55663E+02
 -1       632-7.48432E+02 1.08060E+05-1.65795E+03
 -1       633-4.74769E+02 1.51277E+05-2.32085E+03
 -1       634-1.28955E+02 1.72653E+05-2.64798E+03
 -1       635 2.47541E+02 1.68569E+05-2.58359E+03
 -1       636 6.11537E+02 1.38402E+05-2.11816E+03
 -1       637 9.25027E+02 8.44006E+04-1.28727E+03
 -1       638 1.16066E+03 1.11171E+04-1.63399E+02
 -1       639 1.30561E+03-7.54732E+04 1.15850E+03
 -1       640 1.36898E+03-1.69198E+05 2.57976E+03
 -1       641 5.29306E-06-7.24155E-07-3.50674E+02
 -1       642-3.29879E-06 4.56973E-06-9.63172E+02
 -1       643-5.56704E-06 3.79437E-06-1.69912E+03
 -1       644 5.77350E-06-2.30108E-07-2.38320E+03
 -1       645 7.92865E-06-6.12733E-06-2.87873E+03
 -1       646 2.57070E-06-7.18098E-06-3.08300E+03
 -1       647-1.19892E-06-1.92664E-06-2.94149E+03
 -1       648-5.72384E-06 4.87129E-06-2.45418E+03
 -1       649 7.71523E-07-9.75334E-06-1.67266E+03
 -1       650 4.11686E-06-1.37574E-05-6.91143E+02
 -1       651 5.72869E-06-4.43081E-06 3.67201E+02
 -1       652 3.26539E-06-2.49970E-06 1.36730E+03
 -1       653-2.16275E-06 1.41029E-06 2.18056E+03
 -1       654 1.03481E-06 9.58096E-06 2.70223E+03
 -1       655 4.19749E-06 1.12807E-05 2.86556E+03
 -1       656 1.74742E-06-1.92492E-06 2.65081E+03
 -1       657 1.31354E-06-2.45692E-06 2.08815E+03
 -1       658 1.70544E-06 1.43060E-06 1.25384E+03
 -1       659-7.68179E-07 5.08673E-06 2.60470E+02
 -1       660-9.24042E-06-1.17158E-05-7.57622E+02
 -1       661-2.62766E-06-1.00558E-07-1.66168E+03
 -1       662 4.00233E-07 5.21497E-06-2.32635E+03
 -1       663-6.90677E-07-1.35812E-05-2.65544E+03
 -1       664 1.98504E-06-1.66902E-06-2.59343E+03
 -1       665 2.67681E-06 9.32692E-06-2.13070E+03
 -1       666 7.14394E-07 1.80967E-06-1.30127E+03
 -1       667-7.87522E-06 2.81940E-06-1.73881E+02
 -1       668-1.29298E-05-1.54166E-05 1.16122E+03
 -1       669-8.30718E-06-1.28815E-05 2.61108E+03
 -1       670 4.40756E+02-2.31159E+04-3.67196E+02
 -1       671 6.58382E+02-6.28111E+04-9.70927E+02
 -1       672 6.85213E+02-1.10614E+05-1.70219E+03
 -1       673 5.68907E+02-1.55143E+05-2.38651E+03
 -1       674 3.38244E+02-1.87376E+05-2.88109E+03
 -1       675 3.29175E+01-2.00630E+05-3.08335E+03
 -1       676-2.97659E+02-1.91392E+05-2.94038E+03
 -1       677-6.03198E+02-1.59672E+05-2.45264E+03
 -1       678-8.39061E+02-1.08824E+05-1.67155E+03
 -1       679-9.71233E+02-4.49729E+04-6.91037E+02
 -1       680-9.80280E+02 2.38724E+04 3.66023E+02
 -1       681-8.63633E+02 8.89272E+04 1.36483E+03
 -1       682-6.35759E+02 1.41828E+05 2.17702E+03
 -1       683-3.26128E+02 1.75762E+05 2.69805E+03
 -1       684 2.47458E+01 1.86388E+05 2.86125E+03
 -1       685 3.70682E+02 1.72423E+05 2.64695E+03
 -1       686 6.65945E+02 1.35827E+05 2.08526E+03
 -1       687 8.71261E+02 8.15628E+04 1.25235E+03
 -1       688 9.58966E+02 1.69529E+04 2.60650E+02
 -1       689 9.16596E+02-4.92635E+04-7.55663E+02
 -1       690 7.48432E+02-1.08060E+05-1.65795E+03
 -1       691 4.74769E+02-1.51277E+05-2.32085E+03
 -1       692 1.28955E+02-1.72653E+05-2.64798E+03
 -1       693-2.47541E+02-1.68569E+05-2.58359E+03
 -1       694-6.11537E+02-1.38402E+05-2.11816E+03
 -1       695-9.25027E+02-8.44006E+04-1.28727E+03
 -1       696-1.16066E+03-1.11171E+04-1.63399E+02
 -1       697-1.30561E+03 7.54732E+04 1.15850E+03
 -1       698-1.36898E+03 1.69198E+05 2.57976E+03
 -1       699-1.46555E+04-3.72689E+04 9.12307E+03
 -1       700-2.47810E+04-9.64825E+04 2.49447E+04
 -1       701-2.73027E+04-1.67972E+05 4.38312E+04
 -1       702-2.29966E+04-2.34945E+05 6.11308E+04
 -1       703-1.34264E+04-2.83309E+05 7.33975E+04
 -1       704-5.08176E+02-3.03009E+05 7.82342E+04
 -1       705 1.35845E+04-2.88861E+05 7.44158E+04
 -1       706 2.66640E+04-2.40907E+05 6.19876E+04
 -1       707 3.67751E+04-1.64186E+05 4.22381E+04
 -1       708 4.24235E+04-6.79096E+04 1.75128E+04
 -1       709 4.27527E+04 3.58680E+04-9.11355E+03
 -1       710 3.76425E+04 1.33921E+05-3.42613E+04
 -1       711 2.77158E+04 2.13652E+05-5.47088E+04
 -1       712 1.42490E+04 2.64803E+05-6.78301E+04
 -1       713-9.99480E+02 2.80831E+05-7.19516E+04
 -1       714-1.60242E+04 2.59808E+05-6.65800E+04
 -1       715-2.88376E+04 2.04691E+05-5.24740E+04
 -1       716-3.77317E+04 1.22955E+05-3.15502E+04
 -1       717-4.15012E+04 2.56379E+04-6.63806E+03
 -1       718-3.95985E+04-7.40881E+04 1.88827E+04
 -1       719-3.21997E+04-1.62611E+05 4.15126E+04
 -1       720-2.01721E+04-2.27617E+05 5.80718E+04
 -1       721-4.94528E+03-2.59637E+05 6.60944E+04
 -1       722 1.16976E+04-2.53182E+05 6.41345E+04
 -1       723 2.78853E+04-2.07311E+05 5.19650E+04
 -1       724 4.19479E+04-1.25537E+05 3.06645E+04
 -1       725 5.26949E+04-1.50485E+04 2.57173E+03
 -1       726 5.96453E+04 1.14693E+05-2.90034E+04
 -1       727 6.31517E+04 2.53885E+05-6.07192E+04
 -1       728-1.52069E+04-3.63861E+04 9.30764E+03
 -1       729-2.56007E+04-9.40796E+04 2.50319E+04
 -1       730-2.81446E+04-1.63754E+05 4.38146E+04
 -1       731-2.36821E+04-2.29069E+05 6.10311E+04
 -1       732-1.38239E+04-2.76260E+05 7.32378E+04
 -1       733-5.35301E+02-2.95499E+05 7.80434E+04
 -1       734 1.39546E+04-2.81719E+05 7.42242E+04
 -1       735 2.74006E+04-2.34959E+05 6.18242E+04
 -1       736 3.77946E+04-1.60133E+05 4.21270E+04
 -1       737 4.36014E+04-6.62286E+04 1.74705E+04
 -1       738 4.39406E+04 3.49952E+04-9.08016E+03
 -1       739 3.86888E+04 1.30636E+05-3.41558E+04
 -1       740 2.84860E+04 2.08406E+05-5.45446E+04
 -1       741 1.46445E+04 2.58298E+05-6.76285E+04
 -1       742-1.02854E+03 2.73931E+05-7.17390E+04
 -1       743-1.64717E+04 2.53423E+05-6.63845E+04
 -1       744-2.96423E+04 1.99658E+05-5.23215E+04
 -1       745-3.87846E+04 1.19929E+05-3.14611E+04
 -1       746-4.26599E+04 2.50003E+04-6.62477E+03
 -1       747-4.07052E+04-7.22788E+04 1.88177E+04
 -1       748-3.31012E+04-1.58632E+05 4.13765E+04
 -1       749-2.07389E+04-2.22052E+05 5.78809E+04
 -1       750-5.08768E+03-2.53304E+05 6.58713E+04
 -1       751 1.20182E+04-2.47040E+05 6.39051E+04
 -1       752 2.86501E+04-2.02340E+05 5.17543E+04
 -1       753 4.30791E+04-1.22614E+05 3.04928E+04
 -1       754 5.40616E+04-1.48197E+04 2.45117E+03
 -1       755 6.10870E+04 1.11903E+05-2.90721E+04
 -1       756 6.45460E+04 2.48082E+05-6.07472E+04
 -1       757 1.52069E+04 3.63861E+04 9.30764E+03
 -1       758 2.56007E+04 9.40796E+04 2.50319E+04
 -1       759 2.81446E+04 1.63754E+05 4.38146E+04
 -1       760 2.36821E+04 2.29069E+05 6.10311E+04
 -1       761 1.38239E+04 2.76260E+05 7.32378E+04
 -1       762 5.35301E+02 2.95499E+05 7.80434E+04
 -1       763-1.39546E+04 2.81719E+05 7.42242E+04
 -1       764-2.74006E+04 2.34959E+05 6.18242E+04
 -1       765-3.77946E+04 1.60133E+05 4.21270E+04
 -1       766-4.36014E+04 6.62286E+04 1.74705E+04
 -1       767-4.39406E+04-3.49952E+04-9.08016E+03
 -1       768-3.86888E+04-1.30636E+05-3.41558E+04
 -1       769-2.84860E+04-2.08406E+05-5.45446E+04
 -1       770-1.46445E+04-2.58298E+05-6.76285E+04
 -1       771 1.02854E+03-2.73931E+05-7.17390E+04
 -1       772 1.64717E+04-2.53423E+05-6.63845E+04
 -1       773 2.96423E+04-1.99658E+05-5.23215E+04
 -1       774 3.87846E+04-1.19929E+05-3.14611E+04
 -1       775 4.26599E+04-2.50003E+04-6.62477E+03
 -1       776 4.07052E+04 7.22788E+04 1.88177E+04
 -1       777 3.31012E+04 1.58632E+05 4.13765E+04
 -1       778 2.07389E+04 2.22052E+05 5.78809E+04
 -1       779 5.08768E+03 2.53304E+05 6.58713E+04
 -1       780-1.20182E+04 2.47040E+05 6.39051E+04
 -1       781-2.86501E+04 2.02340E+05 5.17543E+04
 -1       782-4.30791E+04 1.22614E+05 3.04928E+04
 -1       783-5.40616E+04 1.48197E+04 2.45117E+03
 -1       784-6.10870E+04-1.11903E+05-2.90721E+04
 -1       785-6.45460E+04-2.48082E+05-6.07472E+04
 -1       786 1.46555E+04 3.72689E+04 9.12307E+03
 -1       787 2.47810E+04 9.64825E+04 2.49447E+04
 -1       788 2.73027E+04 1.67972E+05 4.38312E+04
 -1       789 2.29966E+04 2.34945E+05 6.11308E+04
 -1       790 1.34264E+04 2.83309E+05 7.33975E+04
 -1       791 5.08176E+02 3.03009E+05 7.82342E+04
 -1       792-1.35845E+04 2.88861E+05 7.44158E+04
 -1       793-2.66640E+04 2.40907E+05 6.19876E+04
 -1       794-3.67751E+04 1.64186E+05 4.22381E+04
 -1       795-4.24235E+04 6.79096E+04 1.75128E+04
 -1       796-4.27527E+04-3.58680E+04-9.11355E+03
 -1       797-3.76425E+04-1.33921E+05-3.42613E+04
 -1       798-2.77158E+04-2.13652E+05-5.47088E+04
 -1       799-1.42490E+04-2.64803E+05-6.78301E+04
 -1       800 9.99480E+02-2.80831E+05-7.19516E+04
 -1       801 1.60242E+04-2.59808E+05-6.65800E+04
 -1       802 2.88376E+04-2.04691E+05-5.24740E+04
 -1       803 3.77317E+04-1.22955E+05-3.15502E+04
 -1       804 4.15012E+04-2.56379E+04-6.63806E+03
 -1       805 3.95985E+04 7.40881E+04 1.88827E+04
 -1       806 3.21997E+04 1.62611E+05 4.15126E+04
 -1       807 2.01721E+04 2.27617E+05 5.80718E+04
 -1       808 4.94528E+03 2.59637E+05 6.60944E+04
 -1       809-1.16976E+04 2.53182E+05 6.41345E+04
 -1       810-2.78853E+04 2.07311E+05 5.19650E+04
 -1       811-4.19479E+04 1.25537E+05 3.06645E+04
 -1       812-5.26949E+04 1.50485E+04 2.57173E+03
 -1       813-5.96453E+04-1.14693E+05-2.90034E+04
 -1       814-6.31517E+04-2.53885E+05-6.07192E+04
 -1       815 1.46555E+04-3.72689E+04-9.12307E+03
 -1       816 2.47810E+04-9.64825E+04-2.49447E+04
 -1       817 2.73027E+04-1.67972E+05-4.38312E+04
 -1       818 2.29966E+04-2.34945E+05-6.11308E+04
 -1       819 1.34264E+04-2.83309E+05-7.33975E+04
 -1       820 5.08176E+02-3.03009E+05-7.82342E+04
 -1       821-1.35845E+04-2.88861E+05-7.44158E+04
 -1       822-2.66640E+04-2.40907E+05-6.19876E+04
 -1       823-3.67751E+04-1.64186E+05-4.22381E+04
 -1       824-4.24235E+04-6.79096E+04-1.75128E+04
 -1       825-4.27527E+04 3.58680E+04 9.11355E+03
 -1       826-3.76425E+04 1.33921E+05 3.42613E+04
 -1       827-2.77158E+04 2.13652E+05 5.47088E+04
 -1       828-1.42490E+04 2.64803E+05 6.78301E+04
 -1       829 9.99480E+02 2.80831E+05 7.19516E+04
 -1       830 1.60242E+04 2.59808E+05 6.65800E+04
 -1       831 2.88376E+04 2.04691E+05 5.24740E+04
 -1       832 3.77317E+04 1.22955E+05 3.15502E+04
 -1       833 4.15012E+04 2.56379E+04 6.63806E+03
 -1       834 3.95985E+04-7.40881E+04-1.88827E+04
 -1       835 3.21997E+04-1.62611E+05-4.15126E+04
 -1       836 2.01721E+04-2.27617E+05-5.80718E+04
 -1       837 4.94528E+03-2.59637E+05-6.60944E+04
 -1       838-1.16976E+04-2.53182E+05-6.41345E+04
 -1       839-2.78853E+04-2.07311E+05-5.19650E+04
 -1       840-4.19479E+04-1.25537E+05-3.06645E+04
 -1       841-5.26949E+04-1.50485E+04-2.57173E+03
 -1       842-5.96453E+04 1.14693E+05 2.90034E+04
 -1       843-6.31517E+04 2.53885E+05 6.07192E+04
 -1       844 1.52069E+04-3.63861E+04-9.30764E+03
 -1       845 2.56007E+04-9.40796E+04-2.50319E+04
 -1       846 2.81446E+04-1.63754E+05-4.38146E+04
 -1       847 2.36821E+04-2.29069E+05-6.10311E+04
 -1       848 1.38239E+04-2.76260E+05-7.32378E+04
 -1       849 5.35301E+02-2.95499E+05-7.80434E+04
 -1       850-1.39546E+04-2.81719E+05-7.42242E+04
 -1       851-2.74006E+04-2.34959E+05-6.18242E+04
 -1       852-3.77946E+04-1.60133E+05-4.21270E+04
 -1       853-4.36014E+04-6.62286E+04-1.74705E+04
 -1       854-4.39406E+04 3.49952E+04 9.08016E+03
 -1       855-3.86888E+04 1.30636E+05 3.41558E+04
 -1       856-2.84860E+04 2.08406E+05 5.45446E+04
 -1       857-1.46445E+04 2.58298E+05 6.76285E+04
 -1       858 1.02854E+03 2.73931E+05 7.17390E+04
 -1       859 1.64717E+04 2.53423E+05 6.63845E+04
 -1       860 2.96423E+04 1.99658E+05 5.23215E+04
 -1       861 3.87846E+04 1.19929E+05 3.14611E+04
 -1       862 4.26599E+04 2.50003E+04 6.62477E+03
 -1       863 4.07052E+04-7.22788E+04-1.88177E+04
 -1       864 3.31012E+04-1.58632E+05-4.13765E+04
 -1       865 2.07389E+04-2.22052E+05-5.78809E+04
 -1       866 5.08768E+03-2.53304E+05-6.58713E+04
 -1       867-1.20182E+04-2.47040E+05-6.39051E+04
 -1       868-2.86501E+04-2.02340E+05-5.17543E+04
 -1       869-4.30791E+04-1.22614E+05-3.04928E+04
 -1       870-5.40616E+04-1.48197E+04-2.45117E+03
 -1       871-6.10870E+04 1.11903E+05 2.90721E+04
 -1       872-6.45460E+04 2.48082E+05 6.07472E+04
 -1       873 6.31517E+04-2.53885E+05 6.07192E+04
 -1       874 5.96453E+04-1.14693E+05 2.90034E+04
 -1       875 5.26949E+04 1.50485E+04-2.57173E+03
 -1       876 4.19479E+04 1.25537E+05-3.06645E+04
 -1       877 2.78853E+04 2.07311E+05-5.19650E+04
 -1       878 1.16976E+04 2.53182E+05-6.41345E+04
 -1       879-4.94528E+03 2.59637E+05-6.60944E+04
 -1       880-2.01721E+04 2.27617E+05-5.80718E+04
 -1       881-3.21997E+04 1.62611E+05-4.15126E+04
 -1       882-3.95985E+04 7.40881E+04-1.88827E+04
 -1       883-4.15012E+04-2.56379E+04 6.63806E+03
 -1       884-3.77317E+04-1.22955E+05 3.15502E+04
 -1       885-2.88376E+04-2.04691E+05 5.24740E+04
 -1       886-1.60242E+04-2.59808E+05 6.65800E+04
 -1       887-9.99480E+02-2.80831E+05 7.19516E+04
 -1       888 1.42490E+04-2.64803E+05 6.78301E+04
 -1       889 2.77158E+04-2.13652E+05 5.47088E+04
 -1       890 3.76425E+04-1.33921E+05 3.42613E+04
 -1       891 4.27527E+04-3.58680E+04 9.11355E+03
 -1       892 4.24235E+04 6.79096E+04-1.75128E+04
 -1       893 3.67751E+04 1.64186E+05-4.22381E+04
 -1       894 2.66640E+04 2.40907E+05-6.19876E+04
 -1       895 1.35845E+04 2.88861E+05-7.44158E+04
 -1       896-5.08176E+02 3.03009E+05-7.82342E+04
 -1       897-1.34264E+04 2.83309E+05-7.33975E+04
 -1       898-2.29966E+04 2.34945E+05-6.11308E+04
 -1       899-2.73027E+04 1.67972E+05-4.38312E+04
 -1       900-2.47810E+04 9.64825E+04-2.49447E+04
 -1       901-1.46555E+04 3.72689E+04-9.12307E+03
 -1       902-1.52069E+04 3.63861E+04-9.30764E+03
 -1       903-2.56007E+04 9.40796E+04-2.50319E+04
 -1       904-2.81446E+04 1.63754E+05-4.38146E+04
 -1       905-2.36821E+04 2.29069E+05-6.10311E+04
 -1       906-1.38239E+04 2.76260E+05-7.32378E+04
 -1       907-5.35301E+02 2.95499E+05-7.80434E+04
 -1       908 1.39546E+04 2.81719E+05-7.42242E+04
 -1       909 2.74006E+04 2.34959E+05-6.18242E+04
 -1       910 3.77946E+04 1.60133E+05-4.21270E+04
 -1       911 4.36014E+04 6.62286E+04-1.74705E+04
 -1       912 4.39406E+04-3.49952E+04 9.08016E+03
 -1       913 3.86888E+04-1.30636E+05 3.41558E+04
 -1       914 2.84860E+04-2.08406E+05 5.45446E+04
 -1       915 1.46445E+04-2.58298E+05 6.76285E+04
 -1       916-1.02854E+03-2.73931E+05 7.17390E+04
 -1       917-1.64717E+04-2.53423E+05 6.63845E+04
 -1       918-2.96423E+04-1.99658E+05 5.23215E+04
 -1       919-3.87846E+04-1.19929E+05 3.14611E+04
 -1       920-4.26599E+04-2.50003E+04 6.62477E+03
 -1       921-4.07052E+04 7.22788E+04-1.88177E+04
 -1       922-3.31012E+04 1.58632E+05-4.13765E+04
 -1       923-2.07389E+04 2.22052E+05-5.78809E+04
 -1       924-5.08768E+03 2.53304E+05-6.58713E+04
 -1       925 1.20182E+04 2.47040E+05-6.39051E+04
 -1       926 2.86501E+04 2.02340E+05-5.17543E+04
 -1       927 4.30791E+04 1.22614E+05-3.04928E+04
 -1       928 5.40616E+04 1.48197E+04-2.45117E+03
 -1       929 6.10870E+04-1.11903E+05 2.90721E+04
 -1       930 6.45460E+04-2.48082E+05 6.07472E+04
 -3
    1PSTEP                        44           1           1          
    1PGM                1.000000E+00                                  
    1PGK                1.079833E+07                                  
    1PHID                         -1                                  
    1PSUBC                         0                                  
    1PMODE                        11                                  
  100CL  111 522.9960966         930                     2   11MODAL      1
 -4  ERROR       1    1
 -5  STR(%)      1    1    0    0
 -1         1 7.14471E+01
 -1         2 7.14471E+01
 -1         3 6.19805E+01
 -1         4 6.19805E+01
 -1         5 7.14471E+01
 -1         6 7.14471E+01
 -1         7 6.19805E+01
 -1         8 6.19805E+01
 -1         9 7.14471E+01
 -1        10 6.19805E+01
 -1        11 4.03261E+01
 -1        12 4.03261E+01
 -1        13 3.82698E+01
 -1        14 3.82698E+01
 -1        15 7.14471E+01
 -1        16 6.19805E+01
 -1        17 4.03261E+01
 -1        18 4.03261E+01
 -1        19 3.82698E+01
 -1        20 3.82698E+01
 -1        21 4.03261E+01
 -1        22 4.03261E+01
 -1        23 3.82698E+01
 -1        24 3.82698E+01
 -1        25 7.14471E+01
 -1        26 6.19805E+01
 -1        27 7.14471E+01
 -1        28 4.03261E+01
 -1        29 4.03261E+01
 -1        30 6.19805E+01
 -1        31 3.82698E+01
 -1        32 3.82698E+01
 -1        33 7.21960E+01
 -1        34 7.21960E+01
 -1        35 5.43083E+01
 -1        36 5.89972E+01
 -1        37 5.89972E+01
 -1        38 5.53014E+01
 -1        39 5.94489E+01
 -1        40 6.06885E+01
 -1        41 6.86432E+01
 -1        42 6.86432E+01
 -1        43 6.79621E+01
 -1        44 6.79621E+01
 -1        45 6.58419E+01
 -1        46 6.55826E+01
 -1        47 5.11300E+01
 -1        48 6.59804E+01
 -1        49 6.73535E+01
 -1        50 6.73535E+01
 -1        51 6.20126E+01
 -1        52 7.24179E+01
 -1        53 7.24179E+01
 -1        54 6.40337E+01
 -1        55 6.04500E+01
 -1        56 6.04857E+01
 -1        57 7.57260E+01
 -1        58 7.57260E+01
 -1        59 7.27698E+01
 -1        60 7.20398E+01
 -1        61 6.60981E+01
 -1        62 7.21960E+01
 -1        63 7.21960E+01
 -1        64 5.43083E+01
 -1        65 5.89972E+01
 -1        66 5.89972E+01
 -1        67 5.53014E+01
 -1        68 5.94489E+01
 -1        69 6.06885E+01
 -1        70 6.86432E+01
 -1        71 6.86432E+01
 -1        72 6.79621E+01
 -1        73 6.79621E+01
 -1        74 6.58419E+01
 -1        75 6.55826E+01
 -1        76 5.11300E+01
 -1        77 6.59804E+01
 -1        78 6.73535E+01
 -1        79 6.73535E+01
 -1        80 6.20126E+01
 -1        81 7.24179E+01
 -1        82 7.24179E+01
 -1        83 6.40337E+01
 -1        84 6.04500E+01
 -1        85 6.04857E+01
 -1        86 7.57260E+01
 -1        87 7.57260E+01
 -1        88 7.27698E+01
 -1        89 7.20398E+01
 -1        90 6.60981E+01
 -1        91 6.21553E+01
 -1        92 6.21553E+01
 -1        93 6.21553E+01
 -1        94 6.21553E+01
 -1        95 6.21553E+01
 -1        96 6.21553E+01
 -1        97 7.21960E+01
 -1        98 7.21960E+01
 -1        99 5.43083E+01
 -1       100 5.89972E+01
 -1       101 5.89972E+01
 -1       102 5.53014E+01
 -1       103 5.94489E+01
 -1       104 6.06885E+01
 -1       105 6.86432E+01
 -1       106 6.86432E+01
 -1       107 6.79621E+01
 -1       108 6.79621E+01
 -1       109 6.58419E+01
 -1       110 6.55826E+01
 -1       111 5.11300E+01
 -1       112 6.59804E+01
 -1       113 6.73535E+01
 -1       114 6.73535E+01
 -1       115 6.20126E+01
 -1       116 7.24179E+01
 -1       117 7.24179E+01
 -1       118 6.40337E+01
 -1       119 6.04500E+01
 -1       120 6.04857E+01
 -1       121 7.57260E+01
 -1       122 7.57260E+01
 -1       123 7.27698E+01
 -1       124 7.20398E+01
 -1       125 6.60981E+01
 -1       126 1.73997E+01
 -1       127 1.48555E+01
 -1       128 1.73997E+01
 -1       129 7.21960E+01
 -1       130 7.21960E+01
 -1       131 5.43083E+01
 -1       132 5.89972E+01
 -1       133 5.89972E+01
 -1       134 5.53014E+01
 -1       135 5.94489E+01
 -1       136 6.06885E+01
 -1       137 6.86432E+01
 -1       138 6.86432E+01
 -1       139 6.79621E+01
 -1       140 6.79621E+01
 -1       141 6.58419E+01
 -1       142 6.55826E+01
 -1       143 5.11300E+01
 -1       144 6.59804E+01
 -1       145 6.73535E+01
 -1       146 6.73535E+01
 -1       147 6.20126E+01
 -1       148 7.24179E+01
 -1       149 7.24179E+01
 -1       150 6.40337E+01
 -1       151 6.04500E+01
 -1       152 6.04857E+01
 -1       153 7.57260E+01
 -1       154 7.57260E+01
 -1       155 7.27698E+01
 -1       156 7.20398E+01
 -1       157 6.60981E+01
 -1       158 1.73997E+01
 -1       159 1.48555E+01
 -1       160 1.73997E+01
 -1       161 7.14471E+01
 -1       162 6.94365E+01
 -1       163 5.38360E+01
 -1       164 5.89972E+01
 -1       165 5.89972E+01
 -1       166 5.53014E+01
 -1       167 5.94489E+01
 -1       168 6.06885E+01
 -1       169 6.86432E+01
 -1       170 6.86432E+01
 -1       171 6.79621E+01
 -1       172 6.79621E+01
 -1       173 6.58419E+01
 -1       174 6.55826E+01
 -1       175 5.11300E+01
 -1       176 6.59804E+01
 -1       177 6.73535E+01
 -1       178 6.73535E+01
 -1       179 6.20126E+01
 -1       180 7.24179E+01
 -1       181 7.24179E+01
 -1       182 6.40337E+01
 -1       183 6.04500E+01
 -1       184 6.04857E+01
 -1       185 7.57260E+01
 -1       186 7.57260E+01
 -1       187 7.27698E+01
 -1       188 7.20398E+01
 -1       189 6.60981E+01
 -1       190 5.61668E+01
 -1       191 5.61668E+01
 -1       192 6.07295E+01
 -1       193 4.03261E+01
 -1       194 4.21913E+01
 -1       195 4.21913E+01
 -1       196 2.67626E+01
 -1       197 2.48819E+01
 -1       198 2.45964E+01
 -1       199 2.50776E+01
 -1       200 2.50776E+01
 -1       201 2.67452E+01
 -1       202 7.40206E+01
 -1       203 7.40206E+01
 -1       204 2.78267E+01
 -1       205 2.50341E+01
 -1       206 2.50341E+01
 -1       207 2.43663E+01
 -1       208 2.50823E+01
 -1       209 2.50823E+01
 -1       210 3.35413E+01
 -1       211 4.98081E+01
 -1       212 4.98081E+01
 -1       213 2.49893E+01
 -1       214 2.49893E+01
 -1       215 2.46284E+01
 -1       216 2.48118E+01
 -1       217 2.52755E+01
 -1       218 2.52755E+01
 -1       219 2.73184E+01
 -1       220 3.92801E+01
 -1       221 3.92801E+01
 -1       222 4.03261E+01
 -1       223 4.21913E+01
 -1       224 4.21913E+01
 -1       225 2.67626E+01
 -1       226 2.48819E+01
 -1       227 2.45964E+01
 -1       228 2.50776E+01
 -1       229 2.50776E+01
 -1       230 2.67452E+01
 -1       231 7.40206E+01
 -1       232 7.40206E+01
 -1       233 2.78267E+01
 -1       234 2.50341E+01
 -1       235 2.50341E+01
 -1       236 2.43663E+01
 -1       237 2.50823E+01
 -1       238 2.50823E+01
 -1       239 3.35413E+01
 -1       240 4.98081E+01
 -1       241 4.98081E+01
 -1       242 2.49893E+01
 -1       243 2.49893E+01
 -1       244 2.46284E+01
 -1       245 2.48118E+01
 -1       246 2.52755E+01
 -1       247 2.52755E+01
 -1       248 2.73184E+01
 -1       249 3.92801E+01
 -1       250 3.92801E+01
 -1       251 6.07295E+01
 -1       252 6.60981E+01
 -1       253 7.20398E+01
 -1       254 7.27698E+01
 -1       255 7.57260E+01
 -1       256 7.57260E+01
 -1       257 6.04857E+01
 -1       258 6.04500E+01
 -1       259 6.40337E+01
 -1       260 7.24179E+01
 -1       261 7.24179E+01
 -1       262 6.20126E+01
 -1       263 6.73535E+01
 -1       264 6.73535E+01
 -1       265 6.59804E+01
 -1       266 5.11300E+01
 -1       267 6.55826E+01
 -1       268 6.58419E+01
 -1       269 6.79621E+01
 -1       270 6.79621E+01
 -1       271 6.86432E+01
 -1       272 6.86432E+01
 -1       273 6.06885E+01
 -1       274 5.94489E+01
 -1       275 5.53014E+01
 -1       276 5.89972E+01
 -1       277 5.89972E+01
 -1       278 5.38360E+01
 -1       279 6.94365E+01
 -1       280 7.14471E+01
 -1       281 5.61668E+01
 -1       282 5.61668E+01
 -1       283 4.03261E+01
 -1       284 4.21913E+01
 -1       285 4.21913E+01
 -1       286 2.67626E+01
 -1       287 2.48819E+01
 -1       288 2.45964E+01
 -1       289 2.50776E+01
 -1       290 2.50776E+01
 -1       291 2.67452E+01
 -1       292 7.40206E+01
 -1       293 7.40206E+01
 -1       294 2.78267E+01
 -1       295 2.50341E+01
 -1       296 2.50341E+01
 -1       297 2.43663E+01
 -1       298 2.50823E+01
 -1       299 2.50823E+01
 -1       300 3.35413E+01
 -1       301 4.98081E+01
 -1       302 4.98081E+01
 -1       303 2.49893E+01
 -1       304 2.49893E+01
 -1       305 2.46284E+01
 -1       306 2.48118E+01
 -1       307 2.52755E+01
 -1       308 2.52755E+01
 -1       309 2.73184E+01
 -1       310 3.92801E+01
 -1       311 3.92801E+01
 -1       312 6.07295E+01
 -1       313 4.03261E+01
 -1       314 4.21913E+01
 -1       315 4.21913E+01
 -1       316 2.67626E+01
 -1       317 2.48819E+01
 -1       318 2.45964E+01
 -1       319 2.50776E+01
 -1       320 2.50776E+01
 -1       321 2.67452E+01
 -1       322 7.40206E+01
 -1       323 7.40206E+01
 -1       324 2.78267E+01
 -1       325 2.50341E+01
 -1       326 2.50341E+01
 -1       327 2.43663E+01
 -1       328 2.50823E+01
 -1       329 2.50823E+01
 -1       330 3.35413E+01
 -1       331 4.98081E+01
 -1       332 4.98081E+01
 -1       333 2.49893E+01
 -1       334 2.49893E+01
 -1       335 2.46284E+01
 -1       336 2.48118E+01
 -1       337 2.52755E+01
 -1       338 2.52755E+01
 -1       339 2.73184E+01
 -1       340 3.92801E+01
 -1       341 3.92801E+01
 -1       342 6.07295E+01
 -1       343 4.03261E+01
 -1       344 4.21913E+01
 -1       345 4.21913E+01
 -1       346 2.67626E+01
 -1       347 2.48819E+01
 -1       348 2.45964E+01
 -1       349 2.50776E+01
 -1       350 2.50776E+01
 -1       351 2.67452E+01
 -1       352 7.40206E+01
 -1       353 7.40206E+01
 -1       354 2.78267E+01
 -1       355 2.50341E+01
 -1       356 2.50341E+01
 -1       357 2.43663E+01
 -1       358 2.50823E+01
 -1       359 2.50823E+01
 -1       360 3.35413E+01
 -1       361 4.98081E+01
 -1       362 4.98081E+01
 -1       363 2.49893E+01
 -1       364 2.49893E+01
 -1       365 2.46284E+01
 -1       366 2.48118E+01
 -1       367 2.52755E+01
 -1       368 2.52755E+01
 -1       369 2.73184E+01
 -1       370 3.92801E+01
 -1       371 3.92801E+01
 -1       372 4.03261E+01
 -1       373 4.21913E+01
 -1       374 4.21913E+01
 -1       375 2.67626E+01
 -1       376 2.48819E+01
 -1       377 2.45964E+01
 -1       378 2.50776E+01
 -1       379 2.50776E+01
 -1       380 2.67452E+01
 -1       381 7.40206E+01
 -1       382 7.40206E+01
 -1       383 2.78267E+01
 -1       384 2.50341E+01
 -1       385 2.50341E+01
 -1       386 2.43663E+01
 -1       387 2.50823E+01
 -1       388 2.50823E+01
 -1       389 3.35413E+01
 -1       390 4.98081E+01
 -1       391 4.98081E+01
 -1       392 2.49893E+01
 -1       393 2.49893E+01
 -1       394 2.46284E+01
 -1       395 2.48118E+01
 -1       396 2.52755E+01
 -1       397 2.52755E+01
 -1       398 2.73184E+01
 -1       399 3.92801E+01
 -1       400 3.92801E+01
 -1       401 5.61668E+01
 -1       402 5.61668E+01
 -1       403 6.07295E+01
 -1       404 7.14471E+01
 -1       405 6.94365E+01
 -1       406 5.38360E+01
 -1       407 5.89972E+01
 -1       408 5.89972E+01
 -1       409 5.53014E+01
 -1       410 5.94489E+01
 -1       411 6.06885E+01
 -1       412 6.86432E+01
 -1       413 6.86432E+01
 -1       414 6.79621E+01
 -1       415 6.79621E+01
 -1       416 6.58419E+01
 -1       417 6.55826E+01
 -1       418 5.11300E+01
 -1       419 6.59804E+01
 -1       420 6.73535E+01
 -1       421 6.73535E+01
 -1       422 6.20126E+01
 -1       423 7.24179E+01
 -1       424 7.24179E+01
 -1       425 6.40337E+01
 -1       426 6.04500E+01
 -1       427 6.04857E+01
 -1       428 7.57260E+01
 -1       429 7.57260E+01
 -1       430 7.27698E+01
 -1       431 7.20398E+01
 -1       432 6.60981E+01
 -1       433 6.07295E+01
 -1       434 5.61668E+01
 -1       435 5.61668E+01
 -1       436 6.60981E+01
 -1       437 7.20398E+01
 -1       438 7.27698E+01
 -1       439 7.57260E+01
 -1       440 7.57260E+01
 -1       441 6.04857E+01
 -1       442 6.04500E+01
 -1       443 6.40337E+01
 -1       444 7.24179E+01
 -1       445 7.24179E+01
 -1       446 6.20126E+01
 -1       447 6.73535E+01
 -1       448 6.73535E+01
 -1       449 6.59804E+01
 -1       450 5.11300E+01
 -1       451 6.55826E+01
 -1       452 6.58419E+01
 -1       453 6.79621E+01
 -1       454 6.79621E+01
 -1       455 6.86432E+01
 -1       456 6.86432E+01
 -1       457 6.06885E+01
 -1       458 5.94489E+01
 -1       459 5.53014E+01
 -1       460 5.89972E+01
 -1       461 5.89972E+01
 -1       462 5.38360E+01
 -1       463 6.94365E+01
 -1       464 7.14471E+01
 -1       465 6.07295E+01
 -1       466 4.03261E+01
 -1       467 4.21913E+01
 -1       468 4.21913E+01
 -1       469 2.67626E+01
 -1       470 2.48819E+01
 -1       471 2.45964E+01
 -1       472 2.50776E+01
 -1       473 2.50776E+01
 -1       474 2.67452E+01
 -1       475 7.40206E+01
 -1       476 7.40206E+01
 -1       477 2.78267E+01
 -1       478 2.50341E+01
 -1       479 2.50341E+01
 -1       480 2.43663E+01
 -1       481 2.50823E+01
 -1       482 2.50823E+01
 -1       483 3.35413E+01
 -1       484 4.98081E+01
 -1       485 4.98081E+01
 -1       486 2.49893E+01
 -1       487 2.49893E+01
 -1       488 2.46284E+01
 -1       489 2.48118E+01
 -1       490 2.52755E+01
 -1       491 2.52755E+01
 -1       492 2.73184E+01
 -1       493 3.92801E+01
 -1       494 3.92801E+01
 -1       495 4.03261E+01
 -1       496 4.21913E+01
 -1       497 4.21913E+01
 -1       498 2.67626E+01
 -1       499 2.48819E+01
 -1       500 2.45964E+01
 -1       501 2.50776E+01
 -1       502 2.50776E+01
 -1       503 2.67452E+01
 -1       504 7.40206E+01
 -1       505 7.40206E+01
 -1       506 2.78267E+01
 -1       507 2.50341E+01
 -1       508 2.50341E+01
 -1       509 2.43663E+01
 -1       510 2.50823E+01
 -1       511 2.50823E+01
 -1       512 3.35413E+01
 -1       513 4.98081E+01
 -1       514 4.98081E+01
 -1       515 2.49893E+01
 -1       516 2.49893E+01
 -1       517 2.46284E+01
 -1       518 2.48118E+01
 -1       519 2.52755E+01
 -1       520 2.52755E+01
 -1       521 2.73184E+01
 -1       522 3.92801E+01
 -1       523 3.92801E+01
 -1       524 6.07295E+01
 -1       525 7.21960E+01
 -1       526 7.21960E+01
 -1       527 5.43083E+01
 -1       528 5.43083E+01
 -1       529 6.28015E+01
 -1       530 6.29939E+01
 -1       531 6.29939E+01
 -1       532 5.60489E+01
 -1       533 4.53712E+01
 -1       534 4.46083E+01
 -1       535 4.65155E+01
 -1       536 4.65155E+01
 -1       537 5.52868E+01
 -1       538 6.31948E+01
 -1       539 6.31948E+01
 -1       540 6.28483E+01
 -1       541 5.32523E+01
 -1       542 4.71296E+01
 -1       543 4.55292E+01
 -1       544 4.74784E+01
 -1       545 4.82277E+01
 -1       546 6.13766E+01
 -1       547 6.31152E+01
 -1       548 6.31152E+01
 -1       549 5.90150E+01
 -1       550 4.66072E+01
 -1       551 3.89292E+01
 -1       552 3.33143E+01
 -1       553 1.73997E+01
 -1       554 6.21553E+01
 -1       555 4.06386E+01
 -1       556 2.69923E+01
 -1       557 5.13021E+01
 -1       558 6.28015E+01
 -1       559 6.29939E+01
 -1       560 6.29939E+01
 -1       561 5.60489E+01
 -1       562 4.03319E+01
 -1       563 1.69304E+01
 -1       564 1.31562E+01
 -1       565 3.81594E+01
 -1       566 5.52868E+01
 -1       567 6.31948E+01
 -1       568 6.31948E+01
 -1       569 6.28483E+01
 -1       570 5.32523E+01
 -1       571 3.44527E+01
 -1       572 7.44978E+00
 -1       573 2.59068E+01
 -1       574 4.82277E+01
 -1       575 6.13766E+01
 -1       576 6.31152E+01
 -1       577 6.31152E+01
 -1       578 5.90150E+01
 -1       579 4.66072E+01
 -1       580 2.94567E+01
 -1       581 1.03972E+01
 -1       582 1.48555E+01
 -1       583 7.21960E+01
 -1       584 7.21960E+01
 -1       585 5.43083E+01
 -1       586 5.43083E+01
 -1       587 6.28015E+01
 -1       588 6.29939E+01
 -1       589 6.29939E+01
 -1       590 5.60489E+01
 -1       591 4.53712E+01
 -1       592 4.46083E+01
 -1       593 4.65155E+01
 -1       594 4.65155E+01
 -1       595 5.52868E+01
 -1       596 6.31948E+01
 -1       597 6.31948E+01
 -1       598 6.28483E+01
 -1       599 5.32523E+01
 -1       600 4.71296E+01
 -1       601 4.55292E+01
 -1       602 4.74784E+01
 -1       603 4.82277E+01
 -1       604 6.13766E+01
 -1       605 6.31152E+01
 -1       606 6.31152E+01
 -1       607 5.90150E+01
 -1       608 4.66072E+01
 -1       609 3.89292E+01
 -1       610 3.33143E+01
 -1       611 1.73997E+01
 -1       612 7.21960E+01
 -1       613 7.21960E+01
 -1       614 5.43083E+01
 -1       615 5.43083E+01
 -1       616 6.28015E+01
 -1       617 6.29939E+01
 -1       618 6.29939E+01
 -1       619 5.60489E+01
 -1       620 4.53712E+01
 -1       621 4.46083E+01
 -1       622 4.65155E+01
 -1       623 4.65155E+01
 -1       624 5.52868E+01
 -1       625 6.31948E+01
 -1       626 6.31948E+01
 -1       627 6.28483E+01
 -1       628 5.32523E+01
 -1       629 4.71296E+01
 -1       630 4.55292E+01
 -1       631 4.74784E+01
 -1       632 4.82277E+01
 -1       633 6.13766E+01
 -1       634 6.31152E+01
 -1       635 6.31152E+01
 -1       636 5.90150E+01
 -1       637 4.66072E+01
 -1       638 3.89292E+01
 -1       639 3.33143E+01
 -1       640 1.73997E+01
 -1       641 6.21553E+01
 -1       642 4.06386E+01
 -1       643 2.69923E+01
 -1       644 5.13021E+01
 -1       645 6.28015E+01
 -1       646 6.29939E+01
 -1       647 6.29939E+01
 -1       648 5.60489E+01
 -1       649 4.03319E+01
 -1       650 1.69304E+01
 -1       651 1.31562E+01
 -1       652 3.81594E+01
 -1       653 5.52868E+01
 -1       654 6.31948E+01
 -1       655 6.31948E+01
 -1       656 6.28483E+01
 -1       657 5.32523E+01
 -1       658 3.44527E+01
 -1       659 7.44978E+00
 -1       660 2.59068E+01
 -1       661 4.82277E+01
 -1       662 6.13766E+01
 -1       663 6.31152E+01
 -1       664 6.31152E+01
 -1       665 5.90150E+01
 -1       666 4.66072E+01
 -1       667 2.94567E+01
 -1       668 1.03972E+01
 -1       669 1.48555E+01
 -1       670 7.21960E+01
 -1       671 7.21960E+01
 -1       672 5.43083E+01
 -1       673 5.43083E+01
 -1       674 6.28015E+01
 -1       675 6.29939E+01
 -1       676 6.29939E+01
 -1       677 5.60489E+01
 -1       678 4.53712E+01
 -1       679 4.46083E+01
 -1       680 4.65155E+01
 -1       681 4.65155E+01
 -1       682 5.52868E+01
 -1       683 6.31948E+01
 -1       684 6.31948E+01
 -1       685 6.28483E+01
 -1       686 5.32523E+01
 -1       687 4.71296E+01
 -1       688 4.55292E+01
 -1       689 4.74784E+01
 -1       690 4.82277E+01
 -1       691 6.13766E+01
 -1       692 6.31152E+01
 -1       693 6.31152E+01
 -1       694 5.90150E+01
 -1       695 4.66072E+01
 -1       696 3.89292E+01
 -1       697 3.33143E+01
 -1       698 1.73997E+01
 -1       699 5.61668E+01
 -1       700 4.92177E+01
 -1       701 4.92177E+01
 -1       702 5.89972E+01
 -1       703 5.89972E+01
 -1       704 5.53014E+01
 -1       705 5.64182E+01
 -1       706 5.87588E+01
 -1       707 5.87588E+01
 -1       708 7.40206E+01
 -1       709 7.40206E+01
 -1       710 5.91649E+01
 -1       711 5.91649E+01
 -1       712 5.70119E+01
 -1       713 5.11300E+01
 -1       714 5.69821E+01
 -1       715 5.94137E+01
 -1       716 5.94137E+01
 -1       717 4.98081E+01
 -1       718 5.72147E+01
 -1       719 5.74092E+01
 -1       720 5.74092E+01
 -1       721 5.48937E+01
 -1       722 5.28417E+01
 -1       723 5.69490E+01
 -1       724 5.69490E+01
 -1       725 5.96709E+01
 -1       726 6.26156E+01
 -1       727 6.26156E+01
 -1       728 5.61668E+01
 -1       729 4.92177E+01
 -1       730 4.92177E+01
 -1       731 5.89972E+01
 -1       732 5.89972E+01
 -1       733 5.53014E+01
 -1       734 5.64182E+01
 -1       735 5.87588E+01
 -1       736 5.87588E+01
 -1       737 7.40206E+01
 -1       738 7.40206E+01
 -1       739 5.91649E+01
 -1       740 5.91649E+01
 -1       741 5.70119E+01
 -1       742 5.11300E+01
 -1       743 5.69821E+01
 -1       744 5.94137E+01
 -1       745 5.94137E+01
 -1       746 4.98081E+01
 -1       747 5.72147E+01
 -1       748 5.74092E+01
 -1       749 5.74092E+01
 -1       750 5.48937E+01
 -1       751 5.28417E+01
 -1       752 5.69490E+01
 -1       753 5.69490E+01
 -1       754 5.96709E+01
 -1       755 6.26156E+01
 -1       756 6.26156E+01
 -1       757 5.61668E+01
 -1       758 4.92177E+01
 -1       759 4.92177E+01
 -1       760 5.89972E+01
 -1       761 5.89972E+01
 -1       762 5.53014E+01
 -1       763 5.64182E+01
 -1       764 5.87588E+01
 -1       765 5.87588E+01
 -1       766 7.40206E+01
 -1       767 7.40206E+01
 -1       768 5.91649E+01
 -1       769 5.91649E+01
 -1       770 5.70119E+01
 -1       771 5.11300E+01
 -1       772 5.69821E+01
 -1       773 5.94137E+01
 -1       774 5.94137E+01
 -1       775 4.98081E+01
 -1       776 5.72147E+01
 -1       777 5.74092E+01
 -1       778 5.74092E+01
 -1       779 5.48937E+01
 -1       780 5.28417E+01
 -1       781 5.69490E+01
 -1       782 5.69490E+01
 -1       783 5.96709E+01
 -1       784 6.26156E+01
 -1       785 6.26156E+01
 -1       786 5.61668E+01
 -1       787 4.92177E+01
 -1       788 4.92177E+01
 -1       789 5.89972E+01
 -1       790 5.89972E+01
 -1       791 5.53014E+01
 -1       792 5.64182E+01
 -1       793 5.87588E+01
 -1       794 5.87588E+01
 -1       795 7.40206E+01
 -1       796 7.40206E+01
 -1       797 5.91649E+01
 -1       798 5.91649E+01
 -1       799 5.70119E+01
 -1       800 5.11300E+01
 -1       801 5.69821E+01
 -1       802 5.94137E+01
 -1       803 5.94137E+01
 -1       804 4.98081E+01
 -1       805 5.72147E+01
 -1       806 5.74092E+01
 -1       807 5.74092E+01
 -1       808 5.48937E+01
 -1       809 5.28417E+01
 -1       810 5.69490E+01
 -1       811 5.69490E+01
 -1       812 5.96709E+01
 -1       813 6.26156E+01
 -1       814 6.26156E+01
 -1       815 5.61668E+01
 -1       816 4.92177E+01
 -1       817 4.92177E+01
 -1       818 5.89972E+01
 -1       819 5.89972E+01
 -1       820 5.53014E+01
 -1       821 5.64182E+01
 -1       822 5.87588E+01
 -1       823 5.87588E+01
 -1       824 7.40206E+01
 -1       825 7.40206E+01
 -1       826 5.91649E+01
 -1       827 5.91649E+01
 -1       828 5.70119E+01
 -1       829 5.11300E+01
 -1       830 5.69821E+01
 -1       831 5.94137E+01
 -1       832 5.94137E+01
 -1       833 4.98081E+01
 -1       834 5.72147E+01
 -1       835 5.74092E+01
 -1       836 5.74092E+01
 -1       837 5.48937E+01
 -1       838 5.28417E+01
 -1       839 5.69490E+01
 -1       840 5.69490E+01
 -1       841 5.96709E+01
 -1       842 6.26156E+01
 -1       843 6.26156E+01
 -1       844 5.61668E+01
 -1       845 4.92177E+01
 -1       846 4.92177E+01
 -1       847 5.89972E+01
 -1       848 5.89972E+01
 -1       849 5.53014E+01
 -1       850 5.64182E+01
 -1       851 5.87588E+01
 -1       852 5.87588E+01
 -1       853 7.40206E+01
 -1       854 7.40206E+01
 -1       855 5.91649E+01
 -1       856 5.91649E+01
 -1       857 5.70119E+01
 -1       858 5.11300E+01
 -1       859 5.69821E+01
 -1       860 5.94137E+01
 -1       861 5.94137E+01
 -1       862 4.98081E+01
 -1       863 5.72147E+01
 -1       864 5.74092E+01
 -1       865 5.74092E+01
 -1       866 5.48937E+01
 -1       867 5.28417E+01
 -1       868 5.69490E+01
 -1       869 5.69490E+01
 -1       870 5.96709E+01
 -1       871 6.26156E+01
 -1       872 6.26156E+01
 -1       873 6.26156E+01
 -1       874 6.26156E+01
 -1       875 5.96709E+01
 -1       876 5.69490E+01
 -1       877 5.69490E+01
 -1       878 5.28417E+01
 -1       879 5.48937E+01
 -1       880 5.74092E+01
 -1       881 5.74092E+01
 -1       882 5.72147E+01
 -1       883 4.98081E+01
 -1       884 5.94137E+01
 -1       885 5.94137E+01
 -1       886 5.69821E+01
 -1       887 5.11300E+01
 -1       888 5.70119E+01
 -1       889 5.91649E+01
 -1       890 5.91649E+01
 -1       891 7.40206E+01
 -1       892 7.40206E+01
 -1       893 5.87588E+01
 -1       894 5.87588E+01
 -1       895 5.64182E+01
 -1       896 5.53014E+01
 -1       897 5.89972E+01
 -1       898 5.89972E+01
 -1       899 4.92177E+01
 -1       900 4.92177E+01
 -1       901 5.61668E+01
 -1       902 5.61668E+01
 -1       903 4.92177E+01
 -1       904 4.92177E+01
 -1       905 5.89972E+01
 -1       906 5.89972E+01
 -1       907 5.53014E+01
 -1       908 5.64182E+01
 -1       909 5.87588E+01
 -1       910 5.87588E+01
 -1       911 7.40206E+01
 -1       912 7.40206E+01
 -1       913 5.91649E+01
 -1       914 5.91649E+01
 -1       915 5.70119E+01
 -1       916 5.11300E+01
 -1       917 5.69821E+01
 -1       918 5.94137E+01
 -1       919 5.94137E+01
 -1       920 4.98081E+01
 -1       921 5.72147E+01
 -1       922 5.74092E+01
 -1       923 5.74092E+01
 -1       924 5.48937E+01
 -1       925 5.28417E+01
 -1       926 5.69490E+01
 -1       927 5.69490E+01
 -1       928 5.96709E+01
 -1       929 6.26156E+01
 -1       930 6.26156E+01
 -3
    1PSTEP                        45           1           1          
    1PGM                1.000000E+00                                  
    1PGK                1.358437E+07                                  
    1PHID                         -1                                  
    1PSUBC                         0                                  
    1PMODE                        12                                  
  100CL  112 586.5970834         930                     2   12MODAL      1
 -4  DISP        4    1
 -5  D1          1    2    1    0
 -5  D2          1    2    2    0
 -5  D3          1    2    3    0
 -5  ALL         1    2    0    0    1ALL
 -1         1 0.00000E+00 0.00000E+00 0.00000E+00
 -1         2 0.00000E+00 0.00000E+00 0.00000E+00
 -1         3-4.17491E-02-1.89984E-05-1.16696E-01
 -1         4-4.17491E-02 1.89984E-05-1.16696E-01
 -1         5 0.00000E+00 0.00000E+00 0.00000E+00
 -1         6 0.00000E+00 0.00000E+00 0.00000E+00
 -1         7 4.17491E-02 1.89984E-05-1.16696E-01
 -1         8 4.17491E-02-1.89984E-05-1.16696E-01
 -1         9 0.00000E+00 0.00000E+00 0.00000E+00
 -1        10-4.49439E-02 2.20546E-04-1.16780E-01
 -1        11 0.00000E+00 0.00000E+00 0.00000E+00
 -1        12 0.00000E+00 0.00000E+00 0.00000E+00
 -1        13-4.47577E-02 9.93465E-04-1.24851E-01
 -1        14-4.10607E-02-6.13930E-04-1.24839E-01
 -1        15 0.00000E+00 0.00000E+00 0.00000E+00
 -1        16 4.49439E-02-2.20546E-04-1.16780E-01
 -1        17 0.00000E+00 0.00000E+00 0.00000E+00
 -1        18 0.00000E+00 0.00000E+00 0.00000E+00
 -1        19 4.10607E-02 6.13930E-04-1.24839E-01
 -1        20 4.47577E-02-9.93465E-04-1.24851E-01
 -1        21 0.00000E+00 0.00000E+00 0.00000E+00
 -1        22 0.00000E+00 0.00000E+00 0.00000E+00
 -1        23-4.47577E-02-9.93465E-04-1.24851E-01
 -1        24-4.10607E-02 6.13930E-04-1.24839E-01
 -1        25 0.00000E+00 0.00000E+00 0.00000E+00
 -1        26-4.49439E-02-2.20546E-04-1.16780E-01
 -1        27 0.00000E+00 0.00000E+00 0.00000E+00
 -1        28 0.00000E+00 0.00000E+00 0.00000E+00
 -1        29 0.00000E+00 0.00000E+00 0.00000E+00
 -1        30 4.49439E-02 2.20546E-04-1.16780E-01
 -1        31 4.47577E-02 9.93465E-04-1.24851E-01
 -1        32 4.10607E-02-6.13930E-04-1.24839E-01
 -1        33-3.88050E-03 7.38075E-05-1.47291E-02
 -1        34-7.06174E-03 1.96500E-05-3.53973E-02
 -1        35-8.12769E-03 7.70424E-06-5.57118E-02
 -1        36-7.50128E-03-9.53317E-06-7.43432E-02
 -1        37-5.41688E-03-2.57878E-05-8.97937E-02
 -1        38-2.16178E-03-3.86164E-05-1.00915E-01
 -1        39 1.91838E-03-4.67416E-05-1.06865E-01
 -1        40 6.44497E-03-5.01649E-05-1.07123E-01
 -1        41 1.10291E-02-4.89703E-05-1.01542E-01
 -1        42 1.52908E-02-4.34271E-05-9.03680E-02
 -1        43 1.88800E-02-3.40119E-05-7.42209E-02
 -1        44 2.14971E-02-2.14112E-05-5.40544E-02
 -1        45 2.29091E-02-6.48761E-06-3.10921E-02
 -1        46 2.29629E-02 9.77456E-06-6.75006E-03
 -1        47 2.15931E-02 2.63318E-05 1.74537E-02
 -1        48 1.88243E-02 4.21466E-05 3.99944E-02
 -1        49 1.47681E-02 5.62533E-05 5.94366E-02
 -1        50 9.61416E-03 6.78191E-05 7.45240E-02
 -1        51 3.61662E-03 7.61977E-05 8.42574E-02
 -1        52-2.92380E-03 8.09725E-05 8.79564E-02
 -1        53-9.68074E-03 8.19852E-05 8.53000E-02
 -1        54-1.63251E-02 7.93512E-05 7.63445E-02
 -1        55-2.25482E-02 7.34613E-05 6.15170E-02
 -1        56-2.80844E-02 6.49638E-05 4.15850E-02
 -1        57-3.27312E-02 5.47289E-05 1.76058E-02
 -1        58-3.63660E-02 4.36641E-05-9.14365E-03
 -1        59-3.89567E-02 3.26262E-05-3.72616E-02
 -1        60-4.05701E-02 2.27001E-05-6.53319E-02
 -1        61-4.13867E-02 1.83266E-05-9.20837E-02
 -1        62-3.88050E-03-7.38075E-05-1.47291E-02
 -1        63-7.06174E-03-1.96500E-05-3.53973E-02
 -1        64-8.12769E-03-7.70424E-06-5.57118E-02
 -1        65-7.50128E-03 9.53317E-06-7.43432E-02
 -1        66-5.41688E-03 2.57878E-05-8.97937E-02
 -1        67-2.16178E-03 3.86164E-05-1.00915E-01
 -1        68 1.91838E-03 4.67416E-05-1.06865E-01
 -1        69 6.44497E-03 5.01649E-05-1.07123E-01
 -1        70 1.10291E-02 4.89703E-05-1.01542E-01
 -1        71 1.52908E-02 4.34271E-05-9.03680E-02
 -1        72 1.88800E-02 3.40119E-05-7.42209E-02
 -1        73 2.14971E-02 2.14112E-05-5.40544E-02
 -1        74 2.29091E-02 6.48761E-06-3.10921E-02
 -1        75 2.29629E-02-9.77455E-06-6.75006E-03
 -1        76 2.15931E-02-2.63317E-05 1.74537E-02
 -1        77 1.88243E-02-4.21466E-05 3.99944E-02
 -1        78 1.47681E-02-5.62533E-05 5.94366E-02
 -1        79 9.61416E-03-6.78191E-05 7.45240E-02
 -1        80 3.61662E-03-7.61977E-05 8.42574E-02
 -1        81-2.92380E-03-8.09725E-05 8.79564E-02
 -1        82-9.68074E-03-8.19852E-05 8.53000E-02
 -1        83-1.63251E-02-7.93512E-05 7.63445E-02
 -1        84-2.25482E-02-7.34613E-05 6.15170E-02
 -1        85-2.80844E-02-6.49638E-05 4.15850E-02
 -1        86-3.27312E-02-5.47289E-05 1.76058E-02
 -1        87-3.63660E-02-4.36641E-05-9.14365E-03
 -1        88-3.89567E-02-3.26262E-05-3.72616E-02
 -1        89-4.05701E-02-2.27001E-05-6.53319E-02
 -1        90-4.13867E-02-1.83266E-05-9.20837E-02
 -1        91 0.00000E+00 0.00000E+00 0.00000E+00
 -1        92 0.00000E+00 0.00000E+00 0.00000E+00
 -1        93 0.00000E+00 0.00000E+00 0.00000E+00
 -1        94 0.00000E+00 0.00000E+00 0.00000E+00
 -1        95 0.00000E+00 0.00000E+00 0.00000E+00
 -1        96 0.00000E+00 0.00000E+00 0.00000E+00
 -1        97 3.88050E-03 7.38075E-05-1.47291E-02
 -1        98 7.06174E-03 1.96500E-05-3.53973E-02
 -1        99 8.12769E-03 7.70424E-06-5.57118E-02
 -1       100 7.50128E-03-9.53317E-06-7.43432E-02
 -1       101 5.41688E-03-2.57878E-05-8.97937E-02
 -1       102 2.16178E-03-3.86164E-05-1.00915E-01
 -1       103-1.91838E-03-4.67416E-05-1.06865E-01
 -1       104-6.44497E-03-5.01649E-05-1.07123E-01
 -1       105-1.10291E-02-4.89703E-05-1.01542E-01
 -1       106-1.52908E-02-4.34271E-05-9.03680E-02
 -1       107-1.88800E-02-3.40119E-05-7.42209E-02
 -1       108-2.14971E-02-2.14112E-05-5.40544E-02
 -1       109-2.29091E-02-6.48761E-06-3.10921E-02
 -1       110-2.29629E-02 9.77456E-06-6.75006E-03
 -1       111-2.15931E-02 2.63317E-05 1.74537E-02
 -1       112-1.88243E-02 4.21466E-05 3.99944E-02
 -1       113-1.47681E-02 5.62533E-05 5.94366E-02
 -1       114-9.61416E-03 6.78191E-05 7.45240E-02
 -1       115-3.61662E-03 7.61977E-05 8.42574E-02
 -1       116 2.92380E-03 8.09725E-05 8.79564E-02
 -1       117 9.68074E-03 8.19852E-05 8.53000E-02
 -1       118 1.63251E-02 7.93512E-05 7.63445E-02
 -1       119 2.25482E-02 7.34613E-05 6.15170E-02
 -1       120 2.80844E-02 6.49638E-05 4.15850E-02
 -1       121 3.27312E-02 5.47289E-05 1.76058E-02
 -1       122 3.63660E-02 4.36641E-05-9.14365E-03
 -1       123 3.89567E-02 3.26262E-05-3.72616E-02
 -1       124 4.05701E-02 2.27001E-05-6.53319E-02
 -1       125 4.13867E-02 1.83266E-05-9.20837E-02
 -1       126-2.07572E-02 2.32182E-05-1.15489E-01
 -1       127-6.21012E-13 9.90458E-13-1.14964E-01
 -1       128 2.07572E-02-2.32182E-05-1.15489E-01
 -1       129 3.88050E-03-7.38075E-05-1.47291E-02
 -1       130 7.06174E-03-1.96500E-05-3.53973E-02
 -1       131 8.12769E-03-7.70424E-06-5.57118E-02
 -1       132 7.50128E-03 9.53317E-06-7.43432E-02
 -1       133 5.41688E-03 2.57878E-05-8.97937E-02
 -1       134 2.16178E-03 3.86164E-05-1.00915E-01
 -1       135-1.91838E-03 4.67416E-05-1.06865E-01
 -1       136-6.44497E-03 5.01649E-05-1.07123E-01
 -1       137-1.10291E-02 4.89703E-05-1.01542E-01
 -1       138-1.52908E-02 4.34271E-05-9.03680E-02
 -1       139-1.88800E-02 3.40119E-05-7.42209E-02
 -1       140-2.14971E-02 2.14112E-05-5.40544E-02
 -1       141-2.29091E-02 6.48761E-06-3.10921E-02
 -1       142-2.29629E-02-9.77456E-06-6.75006E-03
 -1       143-2.15931E-02-2.63317E-05 1.74537E-02
 -1       144-1.88243E-02-4.21466E-05 3.99944E-02
 -1       145-1.47681E-02-5.62533E-05 5.94366E-02
 -1       146-9.61416E-03-6.78191E-05 7.45240E-02
 -1       147-3.61662E-03-7.61977E-05 8.42574E-02
 -1       148 2.92380E-03-8.09725E-05 8.79564E-02
 -1       149 9.68074E-03-8.19852E-05 8.53000E-02
 -1       150 1.63251E-02-7.93512E-05 7.63445E-02
 -1       151 2.25482E-02-7.34613E-05 6.15170E-02
 -1       152 2.80844E-02-6.49638E-05 4.15850E-02
 -1       153 3.27312E-02-5.47289E-05 1.76058E-02
 -1       154 3.63660E-02-4.36641E-05-9.14365E-03
 -1       155 3.89567E-02-3.26262E-05-3.72616E-02
 -1       156 4.05701E-02-2.27001E-05-6.53319E-02
 -1       157 4.13867E-02-1.83266E-05-9.20837E-02
 -1       158 2.07572E-02 2.32182E-05-1.15489E-01
 -1       159-6.52782E-13 9.91041E-13-1.14964E-01
 -1       160-2.07572E-02-2.32182E-05-1.15489E-01
 -1       161-6.45731E-03-2.09747E-04-1.49114E-02
 -1       162-9.62732E-03-4.81209E-05-3.54575E-02
 -1       163-1.05851E-02 7.32885E-05-5.57434E-02
 -1       164-9.64610E-03 1.42874E-04-7.43147E-02
 -1       165-7.08333E-03 1.81832E-04-8.97166E-02
 -1       166-3.22310E-03 2.09005E-04-1.00799E-01
 -1       167 1.55157E-03 2.25573E-04-1.06724E-01
 -1       168 6.81753E-03 2.29336E-04-1.06972E-01
 -1       169 1.21357E-02 2.18961E-04-1.01394E-01
 -1       170 1.70759E-02 1.94800E-04-9.02370E-02
 -1       171 2.12423E-02 1.58390E-04-7.41184E-02
 -1       172 2.42961E-02 1.12073E-04-5.39900E-02
 -1       173 2.59742E-02 5.87783E-05-3.10730E-02
 -1       174 2.61045E-02 1.85454E-06-6.78019E-03
 -1       175 2.46144E-02-5.51220E-05 1.73734E-02
 -1       176 2.15338E-02-1.08569E-04 3.98661E-02
 -1       177 1.69915E-02-1.55124E-04 5.92656E-02
 -1       178 1.12052E-02-1.91853E-04 7.43179E-02
 -1       179 4.46625E-03-2.16443E-04 8.40258E-02
 -1       180-2.88086E-03-2.27343E-04 8.77103E-02
 -1       181-1.04623E-02-2.23863E-04 8.50506E-02
 -1       182-1.79006E-02-2.06204E-04 7.61030E-02
 -1       183-2.48415E-02-1.75406E-04 6.12932E-02
 -1       184-3.09788E-02-1.33264E-04 4.13868E-02
 -1       185-3.60770E-02-8.24072E-05 1.74385E-02
 -1       186-3.99911E-02-2.67632E-05-9.27775E-03
 -1       187-4.26799E-02 2.74847E-05-3.73630E-02
 -1       188-4.42174E-02 7.62334E-05-6.54045E-02
 -1       189-4.48186E-02 1.15803E-04-9.21334E-02
 -1       190 0.00000E+00 0.00000E+00 0.00000E+00
 -1       191 0.00000E+00 0.00000E+00 0.00000E+00
 -1       192-4.48038E-02 9.00182E-04-1.19903E-01
 -1       193-4.90937E-03-1.74802E-03-1.03271E-02
 -1       194-8.01018E-03-7.65974E-04-3.41393E-02
 -1       195-8.99424E-03 3.22756E-04-5.86767E-02
 -1       196-8.19731E-03 9.86825E-04-7.91583E-02
 -1       197-5.90414E-03 1.46096E-03-9.53940E-02
 -1       198-2.38339E-03 1.80875E-03-1.07005E-01
 -1       199 2.02461E-03 2.02702E-03-1.13245E-01
 -1       200 6.91771E-03 2.10024E-03-1.13511E-01
 -1       201 1.18739E-02 2.02137E-03-1.07601E-01
 -1       202 1.64814E-02 1.79629E-03-9.57639E-02
 -1       203 2.03622E-02 1.44121E-03-7.86569E-02
 -1       204 2.31930E-02 9.80197E-04-5.72926E-02
 -1       205 2.47225E-02 4.43409E-04-3.29680E-02
 -1       206 2.47858E-02-1.34730E-04-7.18286E-03
 -1       207 2.33123E-02-7.17577E-04 1.84548E-02
 -1       208 2.03288E-02-1.26854E-03 4.23299E-02
 -1       209 1.59558E-02-1.75339E-03 6.29221E-02
 -1       210 1.03982E-02-2.14241E-03 7.89005E-02
 -1       211 3.93048E-03-2.41233E-03 8.92066E-02
 -1       212-3.12249E-03-2.54779E-03 9.31197E-02
 -1       213-1.04083E-02-2.54236E-03 9.02999E-02
 -1       214-1.75715E-02-2.39895E-03 8.08065E-02
 -1       215-2.42789E-02-2.12948E-03 6.50893E-02
 -1       216-3.02434E-02-1.75414E-03 4.39560E-02
 -1       217-3.52450E-02-1.30121E-03 1.85257E-02
 -1       218-3.91463E-02-8.08628E-04-9.81520E-03
 -1       219-4.19092E-02-3.24962E-04-3.94732E-02
 -1       220-4.36291E-02 9.06232E-05-6.88772E-02
 -1       221-4.44966E-02 4.70557E-04-9.72063E-02
 -1       222-2.36440E-03-8.82157E-04-1.01537E-02
 -1       223-4.57641E-03-4.51359E-04-3.40760E-02
 -1       224-5.96359E-03-2.82058E-04-5.86558E-02
 -1       225-5.74286E-03-1.63521E-05-7.92089E-02
 -1       226-4.02763E-03 2.86174E-04-9.54969E-02
 -1       227-1.17468E-03 5.22960E-04-1.07149E-01
 -1       228 2.46626E-03 6.75203E-04-1.13415E-01
 -1       229 6.53569E-03 7.44012E-04-1.13691E-01
 -1       230 1.06716E-02 7.33781E-04-1.07777E-01
 -1       231 1.45206E-02 6.49773E-04-9.59197E-02
 -1       232 1.77563E-02 5.00015E-04-7.87798E-02
 -1       233 2.00983E-02 2.95911E-04-5.73718E-02
 -1       234 2.13285E-02 5.18014E-05-3.29957E-02
 -1       235 2.13029E-02-2.15962E-04-7.15457E-03
 -1       236 1.99588E-02-4.90077E-04 1.85399E-02
 -1       237 1.73171E-02-7.53390E-04 4.24692E-02
 -1       238 1.34790E-02-9.89972E-04 6.31095E-02
 -1       239 8.61809E-03-1.18613E-03 7.91272E-02
 -1       240 2.96766E-03-1.33132E-03 8.94614E-02
 -1       241-3.19621E-03-1.41881E-03 9.33901E-02
 -1       242-9.57390E-03-1.44620E-03 9.05728E-02
 -1       243-1.58635E-02-1.41570E-03 8.10691E-02
 -1       244-2.17824E-02-1.33424E-03 6.53301E-02
 -1       245-2.70886E-02-1.21327E-03 4.41656E-02
 -1       246-3.16005E-02-1.06758E-03 1.86978E-02
 -1       247-3.52135E-02-9.11900E-04-9.68368E-03
 -1       248-3.79098E-02-7.53919E-04-3.93809E-02
 -1       249-3.97425E-02-6.15421E-04-6.88206E-02
 -1       250-4.07462E-02-5.88066E-04-9.71810E-02
 -1       251-4.13372E-02-5.04652E-04-1.19905E-01
 -1       252 4.48186E-02-1.15803E-04-9.21334E-02
 -1       253 4.42174E-02-7.62334E-05-6.54045E-02
 -1       254 4.26799E-02-2.74847E-05-3.73630E-02
 -1       255 3.99911E-02 2.67632E-05-9.27775E-03
 -1       256 3.60770E-02 8.24072E-05 1.74385E-02
 -1       257 3.09788E-02 1.33264E-04 4.13868E-02
 -1       258 2.48415E-02 1.75406E-04 6.12932E-02
 -1       259 1.79006E-02 2.06204E-04 7.61030E-02
 -1       260 1.04623E-02 2.23863E-04 8.50506E-02
 -1       261 2.88086E-03 2.27343E-04 8.77103E-02
 -1       262-4.46625E-03 2.16443E-04 8.40258E-02
 -1       263-1.12052E-02 1.91853E-04 7.43179E-02
 -1       264-1.69915E-02 1.55124E-04 5.92656E-02
 -1       265-2.15338E-02 1.08569E-04 3.98661E-02
 -1       266-2.46144E-02 5.51220E-05 1.73734E-02
 -1       267-2.61045E-02-1.85454E-06-6.78019E-03
 -1       268-2.59742E-02-5.87783E-05-3.10730E-02
 -1       269-2.42961E-02-1.12073E-04-5.39900E-02
 -1       270-2.12423E-02-1.58390E-04-7.41184E-02
 -1       271-1.70759E-02-1.94800E-04-9.02370E-02
 -1       272-1.21357E-02-2.18961E-04-1.01394E-01
 -1       273-6.81753E-03-2.29336E-04-1.06972E-01
 -1       274-1.55157E-03-2.25573E-04-1.06724E-01
 -1       275 3.22310E-03-2.09005E-04-1.00799E-01
 -1       276 7.08333E-03-1.81832E-04-8.97166E-02
 -1       277 9.64610E-03-1.42874E-04-7.43147E-02
 -1       278 1.05851E-02-7.32885E-05-5.57434E-02
 -1       279 9.62732E-03 4.81209E-05-3.54575E-02
 -1       280 6.45731E-03 2.09747E-04-1.49114E-02
 -1       281 0.00000E+00 0.00000E+00 0.00000E+00
 -1       282 0.00000E+00 0.00000E+00 0.00000E+00
 -1       283 2.36440E-03 8.82157E-04-1.01537E-02
 -1       284 4.57641E-03 4.51359E-04-3.40760E-02
 -1       285 5.96359E-03 2.82058E-04-5.86558E-02
 -1       286 5.74286E-03 1.63521E-05-7.92089E-02
 -1       287 4.02763E-03-2.86174E-04-9.54969E-02
 -1       288 1.17468E-03-5.22960E-04-1.07149E-01
 -1       289-2.46626E-03-6.75203E-04-1.13415E-01
 -1       290-6.53569E-03-7.44012E-04-1.13691E-01
 -1       291-1.06716E-02-7.33781E-04-1.07777E-01
 -1       292-1.45206E-02-6.49773E-04-9.59197E-02
 -1       293-1.77563E-02-5.00015E-04-7.87798E-02
 -1       294-2.00983E-02-2.95911E-04-5.73718E-02
 -1       295-2.13285E-02-5.18014E-05-3.29957E-02
 -1       296-2.13029E-02 2.15962E-04-7.15457E-03
 -1       297-1.99588E-02 4.90077E-04 1.85399E-02
 -1       298-1.73171E-02 7.53390E-04 4.24692E-02
 -1       299-1.34790E-02 9.89972E-04 6.31095E-02
 -1       300-8.61809E-03 1.18613E-03 7.91272E-02
 -1       301-2.96766E-03 1.33132E-03 8.94614E-02
 -1       302 3.19621E-03 1.41881E-03 9.33901E-02
 -1       303 9.57390E-03 1.44620E-03 9.05728E-02
 -1       304 1.58635E-02 1.41570E-03 8.10691E-02
 -1       305 2.17824E-02 1.33424E-03 6.53301E-02
 -1       306 2.70886E-02 1.21327E-03 4.41656E-02
 -1       307 3.16005E-02 1.06758E-03 1.86978E-02
 -1       308 3.52135E-02 9.11900E-04-9.68368E-03
 -1       309 3.79098E-02 7.53919E-04-3.93809E-02
 -1       310 3.97425E-02 6.15421E-04-6.88206E-02
 -1       311 4.07462E-02 5.88066E-04-9.71810E-02
 -1       312 4.13372E-02 5.04652E-04-1.19905E-01
 -1       313 4.90937E-03 1.74802E-03-1.03271E-02
 -1       314 8.01018E-03 7.65974E-04-3.41393E-02
 -1       315 8.99424E-03-3.22756E-04-5.86767E-02
 -1       316 8.19731E-03-9.86825E-04-7.91583E-02
 -1       317 5.90414E-03-1.46096E-03-9.53940E-02
 -1       318 2.38339E-03-1.80875E-03-1.07005E-01
 -1       319-2.02461E-03-2.02702E-03-1.13245E-01
 -1       320-6.91771E-03-2.10024E-03-1.13511E-01
 -1       321-1.18739E-02-2.02137E-03-1.07601E-01
 -1       322-1.64814E-02-1.79629E-03-9.57639E-02
 -1       323-2.03622E-02-1.44121E-03-7.86569E-02
 -1       324-2.31930E-02-9.80197E-04-5.72926E-02
 -1       325-2.47225E-02-4.43409E-04-3.29680E-02
 -1       326-2.47858E-02 1.34730E-04-7.18286E-03
 -1       327-2.33123E-02 7.17577E-04 1.84548E-02
 -1       328-2.03288E-02 1.26854E-03 4.23299E-02
 -1       329-1.59558E-02 1.75339E-03 6.29221E-02
 -1       330-1.03982E-02 2.14241E-03 7.89005E-02
 -1       331-3.93048E-03 2.41233E-03 8.92066E-02
 -1       332 3.12249E-03 2.54779E-03 9.31197E-02
 -1       333 1.04083E-02 2.54236E-03 9.02999E-02
 -1       334 1.75715E-02 2.39895E-03 8.08065E-02
 -1       335 2.42789E-02 2.12948E-03 6.50893E-02
 -1       336 3.02434E-02 1.75414E-03 4.39560E-02
 -1       337 3.52450E-02 1.30121E-03 1.85257E-02
 -1       338 3.91463E-02 8.08628E-04-9.81520E-03
 -1       339 4.19092E-02 3.24962E-04-3.94732E-02
 -1       340 4.36291E-02-9.06232E-05-6.88772E-02
 -1       341 4.44966E-02-4.70557E-04-9.72063E-02
 -1       342 4.48038E-02-9.00182E-04-1.19903E-01
 -1       343-4.90937E-03 1.74802E-03-1.03271E-02
 -1       344-8.01018E-03 7.65974E-04-3.41393E-02
 -1       345-8.99424E-03-3.22756E-04-5.86767E-02
 -1       346-8.19731E-03-9.86825E-04-7.91583E-02
 -1       347-5.90414E-03-1.46096E-03-9.53940E-02
 -1       348-2.38339E-03-1.80875E-03-1.07005E-01
 -1       349 2.02461E-03-2.02702E-03-1.13245E-01
 -1       350 6.91771E-03-2.10024E-03-1.13511E-01
 -1       351 1.18739E-02-2.02137E-03-1.07601E-01
 -1       352 1.64814E-02-1.79629E-03-9.57639E-02
 -1       353 2.03622E-02-1.44121E-03-7.86569E-02
 -1       354 2.31930E-02-9.80197E-04-5.72926E-02
 -1       355 2.47225E-02-4.43409E-04-3.29680E-02
 -1       356 2.47858E-02 1.34730E-04-7.18286E-03
 -1       357 2.33123E-02 7.17577E-04 1.84548E-02
 -1       358 2.03288E-02 1.26854E-03 4.23299E-02
 -1       359 1.59558E-02 1.75339E-03 6.29221E-02
 -1       360 1.03982E-02 2.14241E-03 7.89005E-02
 -1       361 3.93048E-03 2.41233E-03 8.92066E-02
 -1       362-3.12249E-03 2.54779E-03 9.31197E-02
 -1       363-1.04083E-02 2.54236E-03 9.02999E-02
 -1       364-1.75715E-02 2.39895E-03 8.08065E-02
 -1       365-2.42789E-02 2.12948E-03 6.50893E-02
 -1       366-3.02434E-02 1.75414E-03 4.39560E-02
 -1       367-3.52450E-02 1.30121E-03 1.85257E-02
 -1       368-3.91463E-02 8.08628E-04-9.81520E-03
 -1       369-4.19092E-02 3.24962E-04-3.94732E-02
 -1       370-4.36291E-02-9.06232E-05-6.88772E-02
 -1       371-4.44966E-02-4.70557E-04-9.72063E-02
 -1       372-2.36440E-03 8.82157E-04-1.01537E-02
 -1       373-4.57641E-03 4.51359E-04-3.40760E-02
 -1       374-5.96359E-03 2.82058E-04-5.86558E-02
 -1       375-5.74286E-03 1.63521E-05-7.92089E-02
 -1       376-4.02763E-03-2.86174E-04-9.54969E-02
 -1       377-1.17468E-03-5.22960E-04-1.07149E-01
 -1       378 2.46626E-03-6.75203E-04-1.13415E-01
 -1       379 6.53569E-03-7.44012E-04-1.13691E-01
 -1       380 1.06716E-02-7.33781E-04-1.07777E-01
 -1       381 1.45206E-02-6.49773E-04-9.59197E-02
 -1       382 1.77563E-02-5.00015E-04-7.87798E-02
 -1       383 2.00983E-02-2.95911E-04-5.73718E-02
 -1       384 2.13285E-02-5.18014E-05-3.29957E-02
 -1       385 2.13029E-02 2.15962E-04-7.15457E-03
 -1       386 1.99588E-02 4.90078E-04 1.85399E-02
 -1       387 1.73171E-02 7.53390E-04 4.24692E-02
 -1       388 1.34790E-02 9.89972E-04 6.31095E-02
 -1       389 8.61809E-03 1.18613E-03 7.91272E-02
 -1       390 2.96766E-03 1.33132E-03 8.94614E-02
 -1       391-3.19621E-03 1.41881E-03 9.33901E-02
 -1       392-9.57390E-03 1.44620E-03 9.05728E-02
 -1       393-1.58635E-02 1.41570E-03 8.10691E-02
 -1       394-2.17824E-02 1.33424E-03 6.53301E-02
 -1       395-2.70886E-02 1.21327E-03 4.41656E-02
 -1       396-3.16005E-02 1.06758E-03 1.86978E-02
 -1       397-3.52135E-02 9.11900E-04-9.68368E-03
 -1       398-3.79098E-02 7.53919E-04-3.93809E-02
 -1       399-3.97425E-02 6.15421E-04-6.88206E-02
 -1       400-4.07462E-02 5.88066E-04-9.71810E-02
 -1       401 0.00000E+00 0.00000E+00 0.00000E+00
 -1       402 0.00000E+00 0.00000E+00 0.00000E+00
 -1       403-4.48038E-02-9.00182E-04-1.19903E-01
 -1       404-6.45731E-03 2.09747E-04-1.49114E-02
 -1       405-9.62732E-03 4.81209E-05-3.54575E-02
 -1       406-1.05851E-02-7.32885E-05-5.57434E-02
 -1       407-9.64610E-03-1.42874E-04-7.43147E-02
 -1       408-7.08333E-03-1.81832E-04-8.97166E-02
 -1       409-3.22310E-03-2.09005E-04-1.00799E-01
 -1       410 1.55157E-03-2.25573E-04-1.06724E-01
 -1       411 6.81753E-03-2.29336E-04-1.06972E-01
 -1       412 1.21357E-02-2.18961E-04-1.01394E-01
 -1       413 1.70759E-02-1.94800E-04-9.02370E-02
 -1       414 2.12423E-02-1.58390E-04-7.41184E-02
 -1       415 2.42961E-02-1.12073E-04-5.39900E-02
 -1       416 2.59742E-02-5.87783E-05-3.10730E-02
 -1       417 2.61045E-02-1.85454E-06-6.78019E-03
 -1       418 2.46144E-02 5.51220E-05 1.73734E-02
 -1       419 2.15338E-02 1.08569E-04 3.98661E-02
 -1       420 1.69915E-02 1.55124E-04 5.92656E-02
 -1       421 1.12052E-02 1.91853E-04 7.43179E-02
 -1       422 4.46625E-03 2.16443E-04 8.40258E-02
 -1       423-2.88086E-03 2.27343E-04 8.77103E-02
 -1       424-1.04623E-02 2.23863E-04 8.50506E-02
 -1       425-1.79006E-02 2.06204E-04 7.61030E-02
 -1       426-2.48415E-02 1.75406E-04 6.12932E-02
 -1       427-3.09788E-02 1.33264E-04 4.13868E-02
 -1       428-3.60770E-02 8.24072E-05 1.74385E-02
 -1       429-3.99911E-02 2.67632E-05-9.27775E-03
 -1       430-4.26799E-02-2.74847E-05-3.73630E-02
 -1       431-4.42174E-02-7.62334E-05-6.54045E-02
 -1       432-4.48186E-02-1.15803E-04-9.21334E-02
 -1       433-4.13372E-02 5.04652E-04-1.19905E-01
 -1       434 0.00000E+00 0.00000E+00 0.00000E+00
 -1       435 0.00000E+00 0.00000E+00 0.00000E+00
 -1       436 4.48186E-02 1.15803E-04-9.21334E-02
 -1       437 4.42174E-02 7.62334E-05-6.54045E-02
 -1       438 4.26799E-02 2.74847E-05-3.73630E-02
 -1       439 3.99911E-02-2.67632E-05-9.27775E-03
 -1       440 3.60770E-02-8.24072E-05 1.74385E-02
 -1       441 3.09788E-02-1.33264E-04 4.13868E-02
 -1       442 2.48415E-02-1.75406E-04 6.12932E-02
 -1       443 1.79006E-02-2.06204E-04 7.61030E-02
 -1       444 1.04623E-02-2.23863E-04 8.50506E-02
 -1       445 2.88086E-03-2.27343E-04 8.77103E-02
 -1       446-4.46625E-03-2.16443E-04 8.40258E-02
 -1       447-1.12052E-02-1.91853E-04 7.43179E-02
 -1       448-1.69915E-02-1.55124E-04 5.92656E-02
 -1       449-2.15338E-02-1.08569E-04 3.98661E-02
 -1       450-2.46144E-02-5.51220E-05 1.73734E-02
 -1       451-2.61045E-02 1.85454E-06-6.78019E-03
 -1       452-2.59742E-02 5.87783E-05-3.10730E-02
 -1       453-2.42961E-02 1.12073E-04-5.39900E-02
 -1       454-2.12423E-02 1.58390E-04-7.41184E-02
 -1       455-1.70759E-02 1.94800E-04-9.02370E-02
 -1       456-1.21357E-02 2.18961E-04-1.01394E-01
 -1       457-6.81753E-03 2.29336E-04-1.06972E-01
 -1       458-1.55157E-03 2.25573E-04-1.06724E-01
 -1       459 3.22310E-03 2.09005E-04-1.00799E-01
 -1       460 7.08333E-03 1.81832E-04-8.97166E-02
 -1       461 9.64610E-03 1.42874E-04-7.43147E-02
 -1       462 1.05851E-02 7.32885E-05-5.57434E-02
 -1       463 9.62732E-03-4.81209E-05-3.54575E-02
 -1       464 6.45731E-03-2.09747E-04-1.49114E-02
 -1       465 4.48038E-02 9.00182E-04-1.19903E-01
 -1       466 4.90937E-03-1.74802E-03-1.03271E-02
 -1       467 8.01018E-03-7.65974E-04-3.41393E-02
 -1       468 8.99424E-03 3.22756E-04-5.86767E-02
 -1       469 8.19731E-03 9.86825E-04-7.91583E-02
 -1       470 5.90414E-03 1.46096E-03-9.53940E-02
 -1       471 2.38339E-03 1.80875E-03-1.07005E-01
 -1       472-2.02461E-03 2.02702E-03-1.13245E-01
 -1       473-6.91771E-03 2.10024E-03-1.13511E-01
 -1       474-1.18739E-02 2.02137E-03-1.07601E-01
 -1       475-1.64814E-02 1.79629E-03-9.57639E-02
 -1       476-2.03622E-02 1.44121E-03-7.86569E-02
 -1       477-2.31930E-02 9.80197E-04-5.72926E-02
 -1       478-2.47225E-02 4.43409E-04-3.29680E-02
 -1       479-2.47858E-02-1.34730E-04-7.18286E-03
 -1       480-2.33123E-02-7.17577E-04 1.84548E-02
 -1       481-2.03288E-02-1.26854E-03 4.23299E-02
 -1       482-1.59558E-02-1.75339E-03 6.29221E-02
 -1       483-1.03982E-02-2.14241E-03 7.89005E-02
 -1       484-3.93048E-03-2.41233E-03 8.92066E-02
 -1       485 3.12249E-03-2.54779E-03 9.31197E-02
 -1       486 1.04083E-02-2.54236E-03 9.02999E-02
 -1       487 1.75715E-02-2.39895E-03 8.08065E-02
 -1       488 2.42789E-02-2.12948E-03 6.50893E-02
 -1       489 3.02434E-02-1.75414E-03 4.39560E-02
 -1       490 3.52450E-02-1.30121E-03 1.85257E-02
 -1       491 3.91463E-02-8.08628E-04-9.81520E-03
 -1       492 4.19092E-02-3.24962E-04-3.94732E-02
 -1       493 4.36291E-02 9.06232E-05-6.88772E-02
 -1       494 4.44966E-02 4.70557E-04-9.72063E-02
 -1       495 2.36440E-03-8.82157E-04-1.01537E-02
 -1       496 4.57641E-03-4.51359E-04-3.40760E-02
 -1       497 5.96359E-03-2.82058E-04-5.86558E-02
 -1       498 5.74286E-03-1.63521E-05-7.92089E-02
 -1       499 4.02763E-03 2.86174E-04-9.54969E-02
 -1       500 1.17468E-03 5.22960E-04-1.07149E-01
 -1       501-2.46626E-03 6.75203E-04-1.13415E-01
 -1       502-6.53569E-03 7.44012E-04-1.13691E-01
 -1       503-1.06716E-02 7.33781E-04-1.07777E-01
 -1       504-1.45206E-02 6.49773E-04-9.59197E-02
 -1       505-1.77563E-02 5.00015E-04-7.87798E-02
 -1       506-2.00983E-02 2.95911E-04-5.73718E-02
 -1       507-2.13285E-02 5.18014E-05-3.29957E-02
 -1       508-2.13029E-02-2.15962E-04-7.15457E-03
 -1       509-1.99588E-02-4.90077E-04 1.85399E-02
 -1       510-1.73171E-02-7.53390E-04 4.24692E-02
 -1       511-1.34790E-02-9.89972E-04 6.31095E-02
 -1       512-8.61809E-03-1.18613E-03 7.91272E-02
 -1       513-2.96766E-03-1.33132E-03 8.94614E-02
 -1       514 3.19621E-03-1.41881E-03 9.33901E-02
 -1       515 9.57390E-03-1.44620E-03 9.05728E-02
 -1       516 1.58635E-02-1.41570E-03 8.10691E-02
 -1       517 2.17824E-02-1.33424E-03 6.53301E-02
 -1       518 2.70886E-02-1.21327E-03 4.41656E-02
 -1       519 3.16005E-02-1.06758E-03 1.86978E-02
 -1       520 3.52135E-02-9.11900E-04-9.68368E-03
 -1       521 3.79098E-02-7.53919E-04-3.93809E-02
 -1       522 3.97425E-02-6.15421E-04-6.88206E-02
 -1       523 4.07462E-02-5.88066E-04-9.71810E-02
 -1       524 4.13372E-02-5.04652E-04-1.19905E-01
 -1       525-1.27952E-03-4.79975E-05-1.54380E-02
 -1       526-2.34824E-03-1.06704E-05-3.48702E-02
 -1       527-3.04538E-03 5.19636E-06-5.52316E-02
 -1       528-2.93706E-03 2.18631E-05-7.39966E-02
 -1       529-2.07998E-03 3.27601E-05-8.96160E-02
 -1       530-6.42209E-04 4.07308E-05-1.00875E-01
 -1       531 1.19945E-03 4.56180E-05-1.06917E-01
 -1       532 3.25895E-03 4.72238E-05-1.07225E-01
 -1       533 5.35116E-03 4.54267E-05-1.01660E-01
 -1       534 7.29760E-03 4.03671E-05-9.04703E-02
 -1       535 8.93411E-03 3.24011E-05-7.42797E-02
 -1       536 1.01197E-02 2.20650E-05-5.40461E-02
 -1       537 1.07446E-02 1.00333E-05-3.09987E-02
 -1       538 1.07363E-02-2.92236E-06-6.55961E-03
 -1       539 1.00635E-02-1.59809E-05 1.77465E-02
 -1       540 8.73658E-03-2.83225E-05 4.03885E-02
 -1       541 6.80685E-03-3.91801E-05 5.99253E-02
 -1       542 4.36194E-03-4.78879E-05 7.50954E-02
 -1       543 1.51952E-03-5.39239E-05 8.48962E-02
 -1       544-1.58105E-03-5.69438E-05 8.86450E-02
 -1       545-4.78856E-03-5.68026E-05 8.60203E-02
 -1       546-7.95063E-03-5.35647E-05 7.70800E-02
 -1       547-1.09247E-02-4.74985E-05 6.22546E-02
 -1       548-1.35890E-02-3.90632E-05 4.23173E-02
 -1       549-1.58518E-02-2.88988E-05 1.83318E-02
 -1       550-1.76594E-02-1.78549E-05-8.42073E-03
 -1       551-1.89990E-02-6.97628E-06-3.65381E-02
 -1       552-1.98942E-02 2.94699E-06-6.46070E-02
 -1       553-2.04129E-02 1.12419E-05-9.13409E-02
 -1       554-2.15216E-14 6.08888E-14-1.57926E-02
 -1       555-5.63508E-14 1.73032E-13-3.47935E-02
 -1       556-9.21797E-14 2.50144E-13-5.49823E-02
 -1       557-1.23204E-13 2.63276E-13-7.37896E-02
 -1       558-1.53246E-13 2.31024E-13-8.94525E-02
 -1       559-1.84016E-13 1.60164E-13-1.00751E-01
 -1       560-2.16337E-13 6.37337E-14-1.06819E-01
 -1       561-2.47699E-13-6.99996E-14-1.07145E-01
 -1       562-2.71104E-13-2.14898E-13-1.01591E-01
 -1       563-2.90958E-13-3.12278E-13-9.04077E-02
 -1       564-3.12361E-13-3.21188E-13-7.42197E-02
 -1       565-3.37789E-13-2.11706E-13-5.39849E-02
 -1       566-3.66998E-13 1.57374E-14-3.09332E-02
 -1       567-3.97916E-13 2.90605E-13-6.48725E-03
 -1       568-4.30217E-13 4.71422E-13 1.78277E-02
 -1       569-4.63868E-13 5.07448E-13 4.04800E-02
 -1       570-4.95805E-13 4.16694E-13 6.00280E-02
 -1       571-5.23005E-13 2.42736E-13 7.52102E-02
 -1       572-5.45789E-13 8.46097E-14 8.50235E-02
 -1       573-5.64992E-13-4.50820E-14 8.87852E-02
 -1       574-5.77323E-13-1.72834E-13 8.61743E-02
 -1       575-5.86439E-13-3.28064E-13 7.72489E-02
 -1       576-5.90772E-13-4.62477E-13 6.24403E-02
 -1       577-5.93327E-13-4.95534E-13 4.25229E-02
 -1       578-5.98681E-13-4.25285E-13 1.85615E-02
 -1       579-6.06811E-13-2.79596E-13-8.16330E-03
 -1       580-6.16677E-13-4.48946E-14-3.62519E-02
 -1       581-6.23585E-13 2.63248E-13-6.43018E-02
 -1       582-6.24240E-13 6.21836E-13-9.09784E-02
 -1       583 1.27952E-03 4.79975E-05-1.54380E-02
 -1       584 2.34824E-03 1.06704E-05-3.48702E-02
 -1       585 3.04538E-03-5.19635E-06-5.52316E-02
 -1       586 2.93706E-03-2.18631E-05-7.39966E-02
 -1       587 2.07998E-03-3.27601E-05-8.96160E-02
 -1       588 6.42209E-04-4.07308E-05-1.00875E-01
 -1       589-1.19945E-03-4.56180E-05-1.06917E-01
 -1       590-3.25895E-03-4.72238E-05-1.07225E-01
 -1       591-5.35116E-03-4.54267E-05-1.01660E-01
 -1       592-7.29760E-03-4.03671E-05-9.04703E-02
 -1       593-8.93411E-03-3.24011E-05-7.42797E-02
 -1       594-1.01197E-02-2.20650E-05-5.40461E-02
 -1       595-1.07446E-02-1.00333E-05-3.09987E-02
 -1       596-1.07363E-02 2.92236E-06-6.55961E-03
 -1       597-1.00635E-02 1.59809E-05 1.77465E-02
 -1       598-8.73658E-03 2.83225E-05 4.03885E-02
 -1       599-6.80685E-03 3.91801E-05 5.99253E-02
 -1       600-4.36194E-03 4.78879E-05 7.50954E-02
 -1       601-1.51952E-03 5.39239E-05 8.48962E-02
 -1       602 1.58105E-03 5.69438E-05 8.86450E-02
 -1       603 4.78856E-03 5.68026E-05 8.60203E-02
 -1       604 7.95063E-03 5.35647E-05 7.70800E-02
 -1       605 1.09247E-02 4.74985E-05 6.22546E-02
 -1       606 1.35890E-02 3.90632E-05 4.23173E-02
 -1       607 1.58518E-02 2.88988E-05 1.83318E-02
 -1       608 1.76594E-02 1.78549E-05-8.42073E-03
 -1       609 1.89990E-02 6.97628E-06-3.65381E-02
 -1       610 1.98942E-02-2.94699E-06-6.46070E-02
 -1       611 2.04129E-02-1.12419E-05-9.13409E-02
 -1       612 1.27952E-03-4.79975E-05-1.54380E-02
 -1       613 2.34824E-03-1.06704E-05-3.48702E-02
 -1       614 3.04538E-03 5.19636E-06-5.52316E-02
 -1       615 2.93706E-03 2.18631E-05-7.39966E-02
 -1       616 2.07998E-03 3.27601E-05-8.96160E-02
 -1       617 6.42209E-04 4.07308E-05-1.00875E-01
 -1       618-1.19945E-03 4.56180E-05-1.06917E-01
 -1       619-3.25895E-03 4.72238E-05-1.07225E-01
 -1       620-5.35116E-03 4.54267E-05-1.01660E-01
 -1       621-7.29760E-03 4.03671E-05-9.04703E-02
 -1       622-8.93411E-03 3.24011E-05-7.42797E-02
 -1       623-1.01197E-02 2.20650E-05-5.40461E-02
 -1       624-1.07446E-02 1.00333E-05-3.09987E-02
 -1       625-1.07363E-02-2.92236E-06-6.55961E-03
 -1       626-1.00635E-02-1.59809E-05 1.77465E-02
 -1       627-8.73658E-03-2.83225E-05 4.03885E-02
 -1       628-6.80685E-03-3.91801E-05 5.99253E-02
 -1       629-4.36194E-03-4.78879E-05 7.50954E-02
 -1       630-1.51952E-03-5.39239E-05 8.48962E-02
 -1       631 1.58105E-03-5.69438E-05 8.86450E-02
 -1       632 4.78856E-03-5.68026E-05 8.60203E-02
 -1       633 7.95063E-03-5.35647E-05 7.70800E-02
 -1       634 1.09247E-02-4.74985E-05 6.22546E-02
 -1       635 1.35890E-02-3.90632E-05 4.23173E-02
 -1       636 1.58518E-02-2.88988E-05 1.83318E-02
 -1       637 1.76594E-02-1.78549E-05-8.42073E-03
 -1       638 1.89990E-02-6.97628E-06-3.65381E-02
 -1       639 1.98942E-02 2.94699E-06-6.46070E-02
 -1       640 2.04129E-02 1.12419E-05-9.13409E-02
 -1       641-3.03156E-14 6.19574E-14-1.57926E-02
 -1       642-6.52568E-14 1.73743E-13-3.47935E-02
 -1       643-9.59736E-14 2.50638E-13-5.49823E-02
 -1       644-1.22167E-13 2.63789E-13-7.37896E-02
 -1       645-1.48644E-13 2.31662E-13-8.94525E-02
 -1       646-1.76917E-13 1.60802E-13-1.00751E-01
 -1       647-2.06540E-13 6.45109E-14-1.06819E-01
 -1       648-2.35067E-13-6.93612E-14-1.07145E-01
 -1       649-2.59988E-13-2.14190E-13-1.01591E-01
 -1       650-2.85938E-13-3.11584E-13-9.04077E-02
 -1       651-3.16421E-13-3.20390E-13-7.42197E-02
 -1       652-3.52600E-13-2.10852E-13-5.39849E-02
 -1       653-3.90214E-13 1.64868E-14-3.09332E-02
 -1       654-4.18945E-13 2.91335E-13-6.48725E-03
 -1       655-4.39549E-13 4.72091E-13 1.78277E-02
 -1       656-4.61138E-13 5.08121E-13 4.04800E-02
 -1       657-4.83267E-13 4.17333E-13 6.00280E-02
 -1       658-5.07823E-13 2.43291E-13 7.52102E-02
 -1       659-5.33698E-13 8.52006E-14 8.50235E-02
 -1       660-5.54529E-13-4.46379E-14 8.87852E-02
 -1       661-5.65194E-13-1.72418E-13 8.61743E-02
 -1       662-5.72841E-13-3.27571E-13 7.72489E-02
 -1       663-5.82943E-13-4.62210E-13 6.24403E-02
 -1       664-5.95361E-13-4.95215E-13 4.25229E-02
 -1       665-6.08014E-13-4.25035E-13 1.85615E-02
 -1       666-6.23075E-13-2.79415E-13-8.16330E-03
 -1       667-6.40261E-13-4.45859E-14-3.62519E-02
 -1       668-6.52610E-13 2.63414E-13-6.43018E-02
 -1       669-6.55850E-13 6.21864E-13-9.09784E-02
 -1       670-1.27952E-03 4.79975E-05-1.54380E-02
 -1       671-2.34824E-03 1.06704E-05-3.48702E-02
 -1       672-3.04538E-03-5.19636E-06-5.52316E-02
 -1       673-2.93706E-03-2.18631E-05-7.39966E-02
 -1       674-2.07998E-03-3.27601E-05-8.96160E-02
 -1       675-6.42209E-04-4.07308E-05-1.00875E-01
 -1       676 1.19945E-03-4.56180E-05-1.06917E-01
 -1       677 3.25895E-03-4.72238E-05-1.07225E-01
 -1       678 5.35116E-03-4.54267E-05-1.01660E-01
 -1       679 7.29760E-03-4.03671E-05-9.04703E-02
 -1       680 8.93411E-03-3.24011E-05-7.42797E-02
 -1       681 1.01197E-02-2.20650E-05-5.40461E-02
 -1       682 1.07446E-02-1.00333E-05-3.09987E-02
 -1       683 1.07363E-02 2.92236E-06-6.55961E-03
 -1       684 1.00635E-02 1.59809E-05 1.77465E-02
 -1       685 8.73658E-03 2.83225E-05 4.03885E-02
 -1       686 6.80685E-03 3.91801E-05 5.99253E-02
 -1       687 4.36194E-03 4.78879E-05 7.50954E-02
 -1       688 1.51952E-03 5.39239E-05 8.48962E-02
 -1       689-1.58105E-03 5.69438E-05 8.86450E-02
 -1       690-4.78856E-03 5.68026E-05 8.60203E-02
 -1       691-7.95063E-03 5.35647E-05 7.70800E-02
 -1       692-1.09247E-02 4.74985E-05 6.22546E-02
 -1       693-1.35890E-02 3.90632E-05 4.23173E-02
 -1       694-1.58518E-02 2.88988E-05 1.83318E-02
 -1       695-1.76594E-02 1.78549E-05-8.42073E-03
 -1       696-1.89990E-02 6.97628E-06-3.65381E-02
 -1       697-1.98942E-02-2.94699E-06-6.46070E-02
 -1       698-2.04129E-02-1.12419E-05-9.13409E-02
 -1       699-5.27207E-03-1.19214E-03-1.29621E-02
 -1       700-8.54404E-03-4.42524E-04-3.50741E-02
 -1       701-9.49562E-03 3.01050E-04-5.68446E-02
 -1       702-8.67977E-03 7.28797E-04-7.61298E-02
 -1       703-6.30157E-03 1.01462E-03-9.18451E-02
 -1       704-2.66606E-03 1.22050E-03-1.03125E-01
 -1       705 1.86533E-03 1.34850E-03-1.09167E-01
 -1       706 6.88282E-03 1.38739E-03-1.09421E-01
 -1       707 1.19593E-02 1.33136E-03-1.03719E-01
 -1       708 1.66773E-02 1.18360E-03-9.23066E-02
 -1       709 2.06531E-02 9.54303E-04-7.58183E-02
 -1       710 2.35580E-02 6.58730E-04-5.52277E-02
 -1       711 2.51371E-02 3.15984E-04-3.17843E-02
 -1       712 2.52229E-02-5.21029E-05-6.93363E-03
 -1       713 2.37441E-02-4.22272E-04 1.77747E-02
 -1       714 2.07287E-02-7.71273E-04 4.07841E-02
 -1       715 1.62998E-02-1.07733E-03 6.06292E-02
 -1       716 1.06666E-02-1.32150E-03 7.60274E-02
 -1       717 4.10932E-03-1.48893E-03 8.59586E-02
 -1       718-3.04082E-03-1.56974E-03 8.97280E-02
 -1       719-1.04242E-02-1.55973E-03 8.70080E-02
 -1       720-1.76782E-02-1.46054E-03 7.78557E-02
 -1       721-2.44624E-02-1.27947E-03 6.27058E-02
 -1       722-3.04835E-02-1.02895E-03 4.23398E-02
 -1       723-3.55164E-02-7.26675E-04 1.78364E-02
 -1       724-3.94223E-02-3.97272E-04-9.48851E-03
 -1       725-4.21636E-02-7.41539E-05-3.81640E-02
 -1       726-4.38163E-02 2.07356E-04-6.67269E-02
 -1       727-4.45978E-02 4.51202E-04-9.40069E-02
 -1       728-2.43752E-03-3.93957E-04-1.27484E-02
 -1       729-5.42309E-03-2.23311E-04-3.50043E-02
 -1       730-6.63125E-03-2.03453E-04-5.68372E-02
 -1       731-6.24214E-03-1.09599E-04-7.61919E-02
 -1       732-4.41830E-03 3.09426E-05-9.19629E-02
 -1       733-1.45078E-03 1.45340E-04-1.03285E-01
 -1       734 2.31537E-03 2.19058E-04-1.09354E-01
 -1       735 6.51701E-03 2.54988E-04-1.09618E-01
 -1       736 1.07834E-02 2.56551E-04-1.03911E-01
 -1       737 1.47526E-02 2.26529E-04-9.24769E-02
 -1       738 1.80911E-02 1.68338E-04-7.59531E-02
 -1       739 2.05129E-02 8.67090E-05-5.53155E-02
 -1       740 2.17955E-02-1.23988E-05-3.18170E-02
 -1       741 2.17922E-02-1.22192E-04-6.90639E-03
 -1       742 2.04395E-02-2.35504E-04 1.78626E-02
 -1       743 1.77592E-02-3.45254E-04 4.09298E-02
 -1       744 1.38557E-02-4.44896E-04 6.08262E-02
 -1       745 8.90726E-03-5.28832E-04 7.62660E-02
 -1       746 3.15322E-03-5.92783E-04 8.62270E-02
 -1       747-3.12306E-03-6.34077E-04 9.00126E-02
 -1       748-9.61415E-03-6.51858E-04 8.72945E-02
 -1       749-1.60102E-02-6.47224E-04 7.81305E-02
 -1       750-2.20211E-02-6.23327E-04 6.29564E-02
 -1       751-2.73978E-02-5.85312E-04 4.25562E-02
 -1       752-3.19524E-02-5.39676E-04 1.80113E-02
 -1       753-3.55741E-02-4.91439E-04-9.35830E-03
 -1       754-3.82375E-02-4.40716E-04-3.80779E-02
 -1       755-4.00036E-02-3.95857E-04-6.66793E-02
 -1       756-4.10061E-02-4.31314E-04-9.39929E-02
 -1       757 2.43752E-03 3.93957E-04-1.27484E-02
 -1       758 5.42309E-03 2.23311E-04-3.50043E-02
 -1       759 6.63125E-03 2.03453E-04-5.68372E-02
 -1       760 6.24214E-03 1.09599E-04-7.61919E-02
 -1       761 4.41830E-03-3.09426E-05-9.19629E-02
 -1       762 1.45078E-03-1.45340E-04-1.03285E-01
 -1       763-2.31537E-03-2.19058E-04-1.09354E-01
 -1       764-6.51701E-03-2.54988E-04-1.09618E-01
 -1       765-1.07834E-02-2.56551E-04-1.03911E-01
 -1       766-1.47526E-02-2.26529E-04-9.24769E-02
 -1       767-1.80911E-02-1.68338E-04-7.59531E-02
 -1       768-2.05129E-02-8.67090E-05-5.53155E-02
 -1       769-2.17955E-02 1.23988E-05-3.18170E-02
 -1       770-2.17922E-02 1.22192E-04-6.90639E-03
 -1       771-2.04395E-02 2.35504E-04 1.78626E-02
 -1       772-1.77592E-02 3.45254E-04 4.09298E-02
 -1       773-1.38557E-02 4.44896E-04 6.08262E-02
 -1       774-8.90726E-03 5.28832E-04 7.62660E-02
 -1       775-3.15322E-03 5.92783E-04 8.62270E-02
 -1       776 3.12306E-03 6.34077E-04 9.00126E-02
 -1       777 9.61415E-03 6.51858E-04 8.72945E-02
 -1       778 1.60102E-02 6.47224E-04 7.81305E-02
 -1       779 2.20211E-02 6.23327E-04 6.29564E-02
 -1       780 2.73978E-02 5.85312E-04 4.25562E-02
 -1       781 3.19524E-02 5.39676E-04 1.80113E-02
 -1       782 3.55741E-02 4.91439E-04-9.35830E-03
 -1       783 3.82375E-02 4.40716E-04-3.80779E-02
 -1       784 4.00036E-02 3.95857E-04-6.66793E-02
 -1       785 4.10061E-02 4.31314E-04-9.39929E-02
 -1       786 5.27207E-03 1.19214E-03-1.29621E-02
 -1       787 8.54404E-03 4.42524E-04-3.50741E-02
 -1       788 9.49562E-03-3.01050E-04-5.68446E-02
 -1       789 8.67977E-03-7.28797E-04-7.61298E-02
 -1       790 6.30157E-03-1.01462E-03-9.18451E-02
 -1       791 2.66606E-03-1.22050E-03-1.03125E-01
 -1       792-1.86533E-03-1.34850E-03-1.09167E-01
 -1       793-6.88282E-03-1.38739E-03-1.09421E-01
 -1       794-1.19593E-02-1.33136E-03-1.03719E-01
 -1       795-1.66773E-02-1.18360E-03-9.23066E-02
 -1       796-2.06531E-02-9.54303E-04-7.58183E-02
 -1       797-2.35580E-02-6.58730E-04-5.52277E-02
 -1       798-2.51371E-02-3.15984E-04-3.17843E-02
 -1       799-2.52229E-02 5.21029E-05-6.93363E-03
 -1       800-2.37441E-02 4.22272E-04 1.77747E-02
 -1       801-2.07287E-02 7.71273E-04 4.07841E-02
 -1       802-1.62998E-02 1.07733E-03 6.06292E-02
 -1       803-1.06666E-02 1.32150E-03 7.60274E-02
 -1       804-4.10932E-03 1.48893E-03 8.59586E-02
 -1       805 3.04082E-03 1.56974E-03 8.97280E-02
 -1       806 1.04242E-02 1.55973E-03 8.70080E-02
 -1       807 1.76782E-02 1.46054E-03 7.78557E-02
 -1       808 2.44624E-02 1.27947E-03 6.27058E-02
 -1       809 3.04835E-02 1.02895E-03 4.23398E-02
 -1       810 3.55164E-02 7.26675E-04 1.78364E-02
 -1       811 3.94223E-02 3.97272E-04-9.48851E-03
 -1       812 4.21636E-02 7.41538E-05-3.81640E-02
 -1       813 4.38163E-02-2.07356E-04-6.67269E-02
 -1       814 4.45978E-02-4.51202E-04-9.40069E-02
 -1       815-5.27207E-03 1.19214E-03-1.29621E-02
 -1       816-8.54404E-03 4.42524E-04-3.50741E-02
 -1       817-9.49562E-03-3.01050E-04-5.68446E-02
 -1       818-8.67977E-03-7.28797E-04-7.61298E-02
 -1       819-6.30157E-03-1.01462E-03-9.18451E-02
 -1       820-2.66606E-03-1.22050E-03-1.03125E-01
 -1       821 1.86533E-03-1.34850E-03-1.09167E-01
 -1       822 6.88282E-03-1.38739E-03-1.09421E-01
 -1       823 1.19593E-02-1.33136E-03-1.03719E-01
 -1       824 1.66773E-02-1.18360E-03-9.23066E-02
 -1       825 2.06531E-02-9.54303E-04-7.58183E-02
 -1       826 2.35580E-02-6.58730E-04-5.52277E-02
 -1       827 2.51371E-02-3.15984E-04-3.17843E-02
 -1       828 2.52229E-02 5.21029E-05-6.93363E-03
 -1       829 2.37441E-02 4.22272E-04 1.77747E-02
 -1       830 2.07287E-02 7.71273E-04 4.07841E-02
 -1       831 1.62998E-02 1.07733E-03 6.06292E-02
 -1       832 1.06666E-02 1.32150E-03 7.60274E-02
 -1       833 4.10932E-03 1.48893E-03 8.59586E-02
 -1       834-3.04082E-03 1.56974E-03 8.97280E-02
 -1       835-1.04242E-02 1.55973E-03 8.70080E-02
 -1       836-1.76782E-02 1.46054E-03 7.78557E-02
 -1       837-2.44624E-02 1.27947E-03 6.27058E-02
 -1       838-3.04835E-02 1.02895E-03 4.23398E-02
 -1       839-3.55164E-02 7.26675E-04 1.78364E-02
 -1       840-3.94223E-02 3.97272E-04-9.48851E-03
 -1       841-4.21636E-02 7.41539E-05-3.81640E-02
 -1       842-4.38163E-02-2.07356E-04-6.67269E-02
 -1       843-4.45978E-02-4.51202E-04-9.40069E-02
 -1       844-2.43752E-03 3.93957E-04-1.27484E-02
 -1       845-5.42309E-03 2.23311E-04-3.50043E-02
 -1       846-6.63125E-03 2.03453E-04-5.68372E-02
 -1       847-6.24214E-03 1.09599E-04-7.61919E-02
 -1       848-4.41830E-03-3.09426E-05-9.19629E-02
 -1       849-1.45078E-03-1.45340E-04-1.03285E-01
 -1       850 2.31537E-03-2.19058E-04-1.09354E-01
 -1       851 6.51701E-03-2.54988E-04-1.09618E-01
 -1       852 1.07834E-02-2.56551E-04-1.03911E-01
 -1       853 1.47526E-02-2.26529E-04-9.24769E-02
 -1       854 1.80911E-02-1.68338E-04-7.59531E-02
 -1       855 2.05129E-02-8.67090E-05-5.53155E-02
 -1       856 2.17955E-02 1.23988E-05-3.18170E-02
 -1       857 2.17922E-02 1.22192E-04-6.90639E-03
 -1       858 2.04395E-02 2.35504E-04 1.78626E-02
 -1       859 1.77592E-02 3.45254E-04 4.09298E-02
 -1       860 1.38557E-02 4.44896E-04 6.08262E-02
 -1       861 8.90726E-03 5.28832E-04 7.62660E-02
 -1       862 3.15322E-03 5.92783E-04 8.62270E-02
 -1       863-3.12306E-03 6.34077E-04 9.00126E-02
 -1       864-9.61415E-03 6.51858E-04 8.72945E-02
 -1       865-1.60102E-02 6.47224E-04 7.81305E-02
 -1       866-2.20211E-02 6.23327E-04 6.29564E-02
 -1       867-2.73978E-02 5.85312E-04 4.25562E-02
 -1       868-3.19524E-02 5.39676E-04 1.80113E-02
 -1       869-3.55741E-02 4.91439E-04-9.35830E-03
 -1       870-3.82375E-02 4.40716E-04-3.80779E-02
 -1       871-4.00036E-02 3.95857E-04-6.66793E-02
 -1       872-4.10061E-02 4.31314E-04-9.39929E-02
 -1       873 4.45978E-02 4.51202E-04-9.40069E-02
 -1       874 4.38163E-02 2.07356E-04-6.67269E-02
 -1       875 4.21636E-02-7.41539E-05-3.81640E-02
 -1       876 3.94223E-02-3.97272E-04-9.48851E-03
 -1       877 3.55164E-02-7.26675E-04 1.78364E-02
 -1       878 3.04835E-02-1.02895E-03 4.23398E-02
 -1       879 2.44624E-02-1.27947E-03 6.27058E-02
 -1       880 1.76782E-02-1.46054E-03 7.78557E-02
 -1       881 1.04242E-02-1.55973E-03 8.70080E-02
 -1       882 3.04082E-03-1.56974E-03 8.97280E-02
 -1       883-4.10932E-03-1.48893E-03 8.59586E-02
 -1       884-1.06666E-02-1.32150E-03 7.60274E-02
 -1       885-1.62998E-02-1.07733E-03 6.06292E-02
 -1       886-2.07287E-02-7.71273E-04 4.07841E-02
 -1       887-2.37441E-02-4.22272E-04 1.77747E-02
 -1       888-2.52229E-02-5.21029E-05-6.93363E-03
 -1       889-2.51371E-02 3.15984E-04-3.17843E-02
 -1       890-2.35580E-02 6.58730E-04-5.52277E-02
 -1       891-2.06531E-02 9.54303E-04-7.58183E-02
 -1       892-1.66773E-02 1.18360E-03-9.23066E-02
 -1       893-1.19593E-02 1.33136E-03-1.03719E-01
 -1       894-6.88282E-03 1.38739E-03-1.09421E-01
 -1       895-1.86533E-03 1.34850E-03-1.09167E-01
 -1       896 2.66606E-03 1.22050E-03-1.03125E-01
 -1       897 6.30157E-03 1.01462E-03-9.18451E-02
 -1       898 8.67977E-03 7.28797E-04-7.61298E-02
 -1       899 9.49562E-03 3.01050E-04-5.68446E-02
 -1       900 8.54404E-03-4.42524E-04-3.50741E-02
 -1       901 5.27207E-03-1.19214E-03-1.29621E-02
 -1       902 2.43752E-03-3.93957E-04-1.27484E-02
 -1       903 5.42309E-03-2.23311E-04-3.50043E-02
 -1       904 6.63125E-03-2.03453E-04-5.68372E-02
 -1       905 6.24214E-03-1.09599E-04-7.61919E-02
 -1       906 4.41830E-03 3.09426E-05-9.19629E-02
 -1       907 1.45078E-03 1.45340E-04-1.03285E-01
 -1       908-2.31537E-03 2.19058E-04-1.09354E-01
 -1       909-6.51701E-03 2.54988E-04-1.09618E-01
 -1       910-1.07834E-02 2.56551E-04-1.03911E-01
 -1       911-1.47526E-02 2.26529E-04-9.24769E-02
 -1       912-1.80911E-02 1.68338E-04-7.59531E-02
 -1       913-2.05129E-02 8.67090E-05-5.53155E-02
 -1       914-2.17955E-02-1.23988E-05-3.18170E-02
 -1       915-2.17922E-02-1.22192E-04-6.90639E-03
 -1       916-2.04395E-02-2.35504E-04 1.78626E-02
 -1       917-1.77592E-02-3.45254E-04 4.09298E-02
 -1       918-1.38557E-02-4.44896E-04 6.08262E-02
 -1       919-8.90726E-03-5.28832E-04 7.62660E-02
 -1       920-3.15322E-03-5.92783E-04 8.62270E-02
 -1       921 3.12306E-03-6.34077E-04 9.00126E-02
 -1       922 9.61415E-03-6.51858E-04 8.72945E-02
 -1       923 1.60102E-02-6.47224E-04 7.81305E-02
 -1       924 2.20211E-02-6.23327E-04 6.29564E-02
 -1       925 2.73978E-02-5.85312E-04 4.25562E-02
 -1       926 3.19524E-02-5.39676E-04 1.80113E-02
 -1       927 3.55741E-02-4.91439E-04-9.35830E-03
 -1       928 3.82375E-02-4.40716E-04-3.80779E-02
 -1       929 4.00036E-02-3.95857E-04-6.66793E-02
 -1       930 4.10061E-02-4.31314E-04-9.39929E-02
 -3
    1PSTEP                        46           1           1          
    1PGM                1.000000E+00                                  
    1PGK                1.358437E+07                                  
    1PHID                         -1                                  
    1PSUBC                         0                                  
    1PMODE                        12                                  
  100CL  112 586.5970834         930                     2   12MODAL      1
 -4  STRESS      6    1
 -5  SXX         1    4    1    1
 -5  SYY         1    4    2    2
 -5  SZZ         1    4    3    3
 -5  SXY         1    4    1    2
 -5  SYZ         1    4    2    3
 -5  SZX         1    4    3    1
 -1         1-1.09695E+10-4.70130E+09-4.70126E+09-5.95953E+07 3.72795E+03-1.18963E+10
 -1         2-1.09695E+10-4.70130E+09-4.70126E+09 5.95953E+07-3.72795E+03-1.18963E+10
 -1         3 8.16770E+08 2.48835E+09 2.77123E+09-2.59379E+08 1.07316E+09-1.07557E+09
 -1         4 8.16770E+08 2.48835E+09 2.77123E+09 2.59379E+08-1.07316E+09-1.07557E+09
 -1         5 1.09695E+10 4.70130E+09 4.70126E+09 5.95953E+07 3.72795E+03-1.18963E+10
 -1         6 1.09695E+10 4.70130E+09 4.70126E+09-5.95953E+07-3.72795E+03-1.18963E+10
 -1         7-8.16770E+08-2.48835E+09-2.77123E+09 2.59379E+08 1.07316E+09-1.07557E+09
 -1         8-8.16770E+08-2.48835E+09-2.77123E+09-2.59379E+08-1.07316E+09-1.07557E+09
 -1         9-1.82538E+10-7.82316E+09-7.82314E+09-1.69382E+08 5.65764E+03-1.20436E+10
 -1        10-3.66548E+09-8.88681E+09-2.45490E+09-4.74436E+07 1.51041E+09-7.93013E+08
 -1        11-1.38780E+10-5.94778E+09-5.94779E+09-1.41182E+09-2.45867E+02-8.34107E+09
 -1        12-6.68362E+09-2.86447E+09-2.86448E+09-7.12470E+08 2.35370E+01-8.20096E+09
 -1        13-8.88244E+08-8.18176E+08-3.15110E+08 3.35534E+08-2.90240E+08-2.09708E+08
 -1        14-4.66512E+08 4.53457E+08 1.92900E+08-5.42048E+08-3.17364E+08-2.19933E+08
 -1        15 1.82538E+10 7.82316E+09 7.82314E+09 1.69382E+08 5.65764E+03-1.20436E+10
 -1        16 3.66548E+09 8.88681E+09 2.45490E+09 4.74436E+07 1.51041E+09-7.93013E+08
 -1        17 6.68362E+09 2.86447E+09 2.86448E+09 7.12470E+08 2.35370E+01-8.20096E+09
 -1        18 1.38780E+10 5.94778E+09 5.94779E+09 1.41182E+09-2.45867E+02-8.34107E+09
 -1        19 4.66512E+08-4.53457E+08-1.92900E+08 5.42048E+08-3.17364E+08-2.19933E+08
 -1        20 8.88244E+08 8.18176E+08 3.15110E+08-3.35534E+08-2.90240E+08-2.09708E+08
 -1        21-6.68362E+09-2.86447E+09-2.86448E+09 7.12470E+08-2.35370E+01-8.20096E+09
 -1        22-1.38780E+10-5.94778E+09-5.94779E+09 1.41182E+09 2.45867E+02-8.34107E+09
 -1        23-8.88244E+08-8.18176E+08-3.15110E+08-3.35534E+08 2.90240E+08-2.09708E+08
 -1        24-4.66512E+08 4.53457E+08 1.92900E+08 5.42048E+08 3.17364E+08-2.19933E+08
 -1        25-1.82538E+10-7.82316E+09-7.82314E+09 1.69382E+08-5.65764E+03-1.20436E+10
 -1        26-3.66548E+09-8.88681E+09-2.45490E+09 4.74436E+07-1.51041E+09-7.93013E+08
 -1        27 1.82538E+10 7.82316E+09 7.82314E+09-1.69382E+08-5.65764E+03-1.20436E+10
 -1        28 1.38780E+10 5.94778E+09 5.94779E+09-1.41182E+09 2.45867E+02-8.34107E+09
 -1        29 6.68362E+09 2.86447E+09 2.86448E+09-7.12470E+08-2.35370E+01-8.20096E+09
 -1        30 3.66548E+09 8.88681E+09 2.45490E+09-4.74436E+07-1.51041E+09-7.93013E+08
 -1        31 8.88244E+08 8.18176E+08 3.15110E+08 3.35534E+08 2.90240E+08-2.09708E+08
 -1        32 4.66512E+08-4.53457E+08-1.92900E+08-5.42048E+08 3.17364E+08-2.19933E+08
 -1        33-7.50972E+09 4.44485E+08-7.61775E+08 9.14545E+08 6.94848E+08-3.26604E+09
 -1        34-4.85342E+09-6.75120E+08-6.38343E+08 1.00286E+09 1.30778E+08-4.95656E+09
 -1        35 1.04803E+08 8.98741E+08 9.88927E+08 9.28406E+08-3.87792E+08-4.45912E+09
 -1        36 3.74440E+09 1.46599E+09 1.52792E+09 7.77576E+08-6.33284E+08-3.89105E+09
 -1        37 6.67347E+09 1.70872E+09 1.84868E+09 6.15651E+08-7.42535E+08-3.12057E+09
 -1        38 8.86489E+09 1.83934E+09 2.03788E+09 4.38255E+08-8.09876E+08-2.22213E+09
 -1        39 1.02603E+10 1.92193E+09 2.15667E+09 2.44760E+08-8.50497E+08-1.25151E+09
 -1        40 1.07930E+10 1.92098E+09 2.16934E+09 4.43603E+07-8.52475E+08-2.56300E+08
 -1        41 1.04526E+10 1.82105E+09 2.06200E+09-1.51676E+08-8.09023E+08 7.13533E+08
 -1        42 9.28042E+09 1.62194E+09 1.83569E+09-3.32096E+08-7.20411E+08 1.60570E+09
 -1        43 7.36797E+09 1.33484E+09 1.50381E+09-4.86776E+08-5.91749E+08 2.37121E+09
 -1        44 4.84960E+09 9.77268E+08 1.08699E+09-6.07228E+08-4.30944E+08 2.96839E+09
 -1        45 1.89365E+09 5.71062E+08 6.11035E+08-6.87038E+08-2.47869E+08 3.36573E+09
 -1        46-1.30775E+09 1.41187E+08 1.05458E+08-7.22265E+08-5.38179E+07 3.54400E+09
 -1        47-4.55046E+09-2.85629E+08-3.98169E+08-7.11728E+08 1.39123E+08 3.49754E+09
 -1        48-7.63113E+09-6.82509E+08-8.68152E+08-6.57112E+08 3.18806E+08 3.23479E+09
 -1        49-1.03599E+10-1.02411E+09-1.27466E+09-5.62893E+08 4.73789E+08 2.77785E+09
 -1        50-1.25726E+10-1.28825E+09-1.59162E+09-4.36087E+08 5.94055E+08 2.16133E+09
 -1        51-1.41410E+10-1.45724E+09-1.79833E+09-2.85833E+08 6.71642E+08 1.43025E+09
 -1        52-1.49816E+10-1.51906E+09-1.88080E+09-1.22858E+08 7.01145E+08 6.37418E+08
 -1        53-1.50610E+10-1.46802E+09-1.83256E+09 4.11792E+07 6.80034E+08-1.59724E+08
 -1        54-1.43983E+10-1.30492E+09-1.65489E+09 1.94390E+08 6.08727E+08-9.02471E+08
 -1        55-1.30646E+10-1.03637E+09-1.35621E+09 3.25371E+08 4.90323E+08-1.53422E+09
 -1        56-1.11794E+10-6.74197E+08-9.51294E+08 4.23777E+08 3.30290E+08-2.00357E+09
 -1        57-8.90485E+09-2.36140E+08-4.62203E+08 4.80722E+08 1.36901E+08-2.26807E+09
 -1        58-6.44170E+09 2.42596E+08 7.35691E+07 4.88567E+08-7.49058E+07-2.29773E+09
 -1        59-4.02480E+09 7.00599E+08 5.97231E+08 4.43416E+08-2.80530E+08-2.07883E+09
 -1        60-1.90869E+09 1.09135E+09 1.05100E+09 3.50120E+08-4.59340E+08-1.62245E+09
 -1        61-3.13984E+08 1.61627E+09 1.46370E+09 2.37611E+08-6.73064E+08-9.98801E+08
 -1        62-7.50972E+09 4.44485E+08-7.61775E+08-9.14545E+08-6.94848E+08-3.26604E+09
 -1        63-4.85342E+09-6.75120E+08-6.38343E+08-1.00286E+09-1.30778E+08-4.95656E+09
 -1        64 1.04803E+08 8.98741E+08 9.88927E+08-9.28406E+08 3.87792E+08-4.45912E+09
 -1        65 3.74440E+09 1.46599E+09 1.52792E+09-7.77576E+08 6.33284E+08-3.89105E+09
 -1        66 6.67347E+09 1.70872E+09 1.84868E+09-6.15651E+08 7.42535E+08-3.12057E+09
 -1        67 8.86489E+09 1.83934E+09 2.03788E+09-4.38255E+08 8.09876E+08-2.22213E+09
 -1        68 1.02603E+10 1.92193E+09 2.15667E+09-2.44760E+08 8.50497E+08-1.25151E+09
 -1        69 1.07930E+10 1.92098E+09 2.16934E+09-4.43603E+07 8.52475E+08-2.56300E+08
 -1        70 1.04526E+10 1.82105E+09 2.06200E+09 1.51676E+08 8.09023E+08 7.13533E+08
 -1        71 9.28042E+09 1.62194E+09 1.83569E+09 3.32096E+08 7.20411E+08 1.60570E+09
 -1        72 7.36797E+09 1.33484E+09 1.50381E+09 4.86776E+08 5.91749E+08 2.37121E+09
 -1        73 4.84960E+09 9.77268E+08 1.08699E+09 6.07228E+08 4.30944E+08 2.96839E+09
 -1        74 1.89365E+09 5.71062E+08 6.11035E+08 6.87038E+08 2.47869E+08 3.36573E+09
 -1        75-1.30775E+09 1.41187E+08 1.05458E+08 7.22265E+08 5.38179E+07 3.54400E+09
 -1        76-4.55046E+09-2.85629E+08-3.98169E+08 7.11728E+08-1.39123E+08 3.49754E+09
 -1        77-7.63113E+09-6.82509E+08-8.68152E+08 6.57112E+08-3.18806E+08 3.23479E+09
 -1        78-1.03599E+10-1.02411E+09-1.27466E+09 5.62893E+08-4.73789E+08 2.77785E+09
 -1        79-1.25726E+10-1.28825E+09-1.59162E+09 4.36087E+08-5.94055E+08 2.16133E+09
 -1        80-1.41410E+10-1.45724E+09-1.79833E+09 2.85833E+08-6.71642E+08 1.43025E+09
 -1        81-1.49816E+10-1.51906E+09-1.88080E+09 1.22858E+08-7.01145E+08 6.37418E+08
 -1        82-1.50610E+10-1.46802E+09-1.83256E+09-4.11792E+07-6.80034E+08-1.59724E+08
 -1        83-1.43983E+10-1.30492E+09-1.65489E+09-1.94390E+08-6.08727E+08-9.02471E+08
 -1        84-1.30646E+10-1.03637E+09-1.35621E+09-3.25371E+08-4.90323E+08-1.53422E+09
 -1        85-1.11794E+10-6.74197E+08-9.51294E+08-4.23777E+08-3.30290E+08-2.00357E+09
 -1        86-8.90485E+09-2.36140E+08-4.62203E+08-4.80722E+08-1.36901E+08-2.26807E+09
 -1        87-6.44170E+09 2.42596E+08 7.35691E+07-4.88567E+08 7.49058E+07-2.29773E+09
 -1        88-4.02480E+09 7.00599E+08 5.97231E+08-4.43416E+08 2.80530E+08-2.07883E+09
 -1        89-1.90869E+09 1.09135E+09 1.05100E+09-3.50120E+08 4.59340E+08-1.62245E+09
 -1        90-3.13984E+08 1.61627E+09 1.46370E+09-2.37611E+08 6.73064E+08-9.98801E+08
 -1        91-3.61695E+09-1.55015E+09-1.55011E+09-3.87669E+07 1.13371E+02-1.24687E+10
 -1        92-6.08368E-02-2.60721E-02-2.60728E-02 4.91786E-02 1.47452E+02-1.27551E+10
 -1        93 3.61695E+09 1.55015E+09 1.55011E+09 3.87669E+07 1.13371E+02-1.24687E+10
 -1        94 3.61695E+09 1.55015E+09 1.55011E+09-3.87669E+07-1.13371E+02-1.24687E+10
 -1        95-8.56968E-02-3.67265E-02-3.67275E-02 5.00419E-02-1.47452E+02-1.27551E+10
 -1        96-3.61695E+09-1.55015E+09-1.55011E+09 3.87669E+07-1.13371E+02-1.24687E+10
 -1        97 7.50972E+09-4.44485E+08 7.61775E+08 9.14545E+08-6.94848E+08-3.26604E+09
 -1        98 4.85342E+09 6.75120E+08 6.38343E+08 1.00286E+09-1.30778E+08-4.95656E+09
 -1        99-1.04803E+08-8.98741E+08-9.88927E+08 9.28406E+08 3.87792E+08-4.45912E+09
 -1       100-3.74440E+09-1.46599E+09-1.52792E+09 7.77576E+08 6.33284E+08-3.89105E+09
 -1       101-6.67347E+09-1.70872E+09-1.84868E+09 6.15651E+08 7.42535E+08-3.12057E+09
 -1       102-8.86489E+09-1.83934E+09-2.03788E+09 4.38255E+08 8.09876E+08-2.22213E+09
 -1       103-1.02603E+10-1.92193E+09-2.15667E+09 2.44760E+08 8.50497E+08-1.25151E+09
 -1       104-1.07930E+10-1.92098E+09-2.16934E+09 4.43603E+07 8.52475E+08-2.56300E+08
 -1       105-1.04526E+10-1.82105E+09-2.06200E+09-1.51676E+08 8.09023E+08 7.13533E+08
 -1       106-9.28042E+09-1.62194E+09-1.83569E+09-3.32096E+08 7.20411E+08 1.60570E+09
 -1       107-7.36797E+09-1.33484E+09-1.50381E+09-4.86776E+08 5.91749E+08 2.37121E+09
 -1       108-4.84960E+09-9.77268E+08-1.08699E+09-6.07228E+08 4.30944E+08 2.96839E+09
 -1       109-1.89365E+09-5.71062E+08-6.11035E+08-6.87038E+08 2.47869E+08 3.36573E+09
 -1       110 1.30775E+09-1.41187E+08-1.05458E+08-7.22265E+08 5.38179E+07 3.54400E+09
 -1       111 4.55046E+09 2.85629E+08 3.98169E+08-7.11728E+08-1.39123E+08 3.49754E+09
 -1       112 7.63113E+09 6.82509E+08 8.68152E+08-6.57112E+08-3.18806E+08 3.23479E+09
 -1       113 1.03599E+10 1.02411E+09 1.27466E+09-5.62893E+08-4.73789E+08 2.77785E+09
 -1       114 1.25726E+10 1.28825E+09 1.59162E+09-4.36087E+08-5.94055E+08 2.16133E+09
 -1       115 1.41410E+10 1.45724E+09 1.79833E+09-2.85833E+08-6.71642E+08 1.43025E+09
 -1       116 1.49816E+10 1.51906E+09 1.88080E+09-1.22858E+08-7.01145E+08 6.37418E+08
 -1       117 1.50610E+10 1.46802E+09 1.83256E+09 4.11792E+07-6.80034E+08-1.59724E+08
 -1       118 1.43983E+10 1.30492E+09 1.65489E+09 1.94390E+08-6.08727E+08-9.02471E+08
 -1       119 1.30646E+10 1.03637E+09 1.35621E+09 3.25371E+08-4.90323E+08-1.53422E+09
 -1       120 1.11794E+10 6.74197E+08 9.51294E+08 4.23777E+08-3.30290E+08-2.00357E+09
 -1       121 8.90485E+09 2.36140E+08 4.62203E+08 4.80722E+08-1.36901E+08-2.26807E+09
 -1       122 6.44170E+09-2.42596E+08-7.35691E+07 4.88567E+08 7.49058E+07-2.29773E+09
 -1       123 4.02480E+09-7.00599E+08-5.97231E+08 4.43416E+08 2.80530E+08-2.07883E+09
 -1       124 1.90869E+09-1.09135E+09-1.05100E+09 3.50120E+08 4.59340E+08-1.62245E+09
 -1       125 3.13984E+08-1.61627E+09-1.46370E+09 2.37611E+08 6.73064E+08-9.98801E+08
 -1       126-5.02862E+08-8.18862E+08 1.55298E+09 9.67309E+06 8.22776E+06-1.42348E+09
 -1       127-9.89461E-03-4.19801E-03-5.15491E-02-6.06025E-04-2.01105E+07-1.39418E+09
 -1       128 5.02862E+08 8.18862E+08-1.55298E+09-9.67309E+06 8.22776E+06-1.42348E+09
 -1       129 7.50972E+09-4.44485E+08 7.61775E+08-9.14545E+08 6.94848E+08-3.26604E+09
 -1       130 4.85342E+09 6.75120E+08 6.38343E+08-1.00286E+09 1.30778E+08-4.95656E+09
 -1       131-1.04803E+08-8.98741E+08-9.88927E+08-9.28406E+08-3.87792E+08-4.45912E+09
 -1       132-3.74440E+09-1.46599E+09-1.52792E+09-7.77576E+08-6.33284E+08-3.89105E+09
 -1       133-6.67347E+09-1.70872E+09-1.84868E+09-6.15651E+08-7.42535E+08-3.12057E+09
 -1       134-8.86489E+09-1.83934E+09-2.03788E+09-4.38255E+08-8.09876E+08-2.22213E+09
 -1       135-1.02603E+10-1.92193E+09-2.15667E+09-2.44760E+08-8.50497E+08-1.25151E+09
 -1       136-1.07930E+10-1.92098E+09-2.16934E+09-4.43603E+07-8.52475E+08-2.56300E+08
 -1       137-1.04526E+10-1.82105E+09-2.06200E+09 1.51676E+08-8.09023E+08 7.13533E+08
 -1       138-9.28042E+09-1.62194E+09-1.83569E+09 3.32096E+08-7.20411E+08 1.60570E+09
 -1       139-7.36797E+09-1.33484E+09-1.50381E+09 4.86776E+08-5.91749E+08 2.37121E+09
 -1       140-4.84960E+09-9.77268E+08-1.08699E+09 6.07228E+08-4.30944E+08 2.96839E+09
 -1       141-1.89365E+09-5.71062E+08-6.11035E+08 6.87038E+08-2.47869E+08 3.36573E+09
 -1       142 1.30775E+09-1.41187E+08-1.05458E+08 7.22265E+08-5.38179E+07 3.54400E+09
 -1       143 4.55046E+09 2.85629E+08 3.98169E+08 7.11728E+08 1.39123E+08 3.49754E+09
 -1       144 7.63113E+09 6.82509E+08 8.68152E+08 6.57112E+08 3.18806E+08 3.23479E+09
 -1       145 1.03599E+10 1.02411E+09 1.27466E+09 5.62893E+08 4.73789E+08 2.77785E+09
 -1       146 1.25726E+10 1.28825E+09 1.59162E+09 4.36087E+08 5.94055E+08 2.16133E+09
 -1       147 1.41410E+10 1.45724E+09 1.79833E+09 2.85833E+08 6.71642E+08 1.43025E+09
 -1       148 1.49816E+10 1.51906E+09 1.88080E+09 1.22858E+08 7.01145E+08 6.37418E+08
 -1       149 1.50610E+10 1.46802E+09 1.83256E+09-4.11792E+07 6.80034E+08-1.59724E+08
 -1       150 1.43983E+10 1.30492E+09 1.65489E+09-1.94390E+08 6.08727E+08-9.02471E+08
 -1       151 1.30646E+10 1.03637E+09 1.35621E+09-3.25371E+08 4.90323E+08-1.53422E+09
 -1       152 1.11794E+10 6.74197E+08 9.51294E+08-4.23777E+08 3.30290E+08-2.00357E+09
 -1       153 8.90485E+09 2.36140E+08 4.62203E+08-4.80722E+08 1.36901E+08-2.26807E+09
 -1       154 6.44170E+09-2.42596E+08-7.35691E+07-4.88567E+08-7.49058E+07-2.29773E+09
 -1       155 4.02480E+09-7.00599E+08-5.97231E+08-4.43416E+08-2.80530E+08-2.07883E+09
 -1       156 1.90869E+09-1.09135E+09-1.05100E+09-3.50120E+08-4.59340E+08-1.62245E+09
 -1       157 3.13984E+08-1.61627E+09-1.46370E+09-2.37611E+08-6.73064E+08-9.98801E+08
 -1       158 5.02862E+08 8.18862E+08-1.55298E+09 9.67309E+06-8.22776E+06-1.42348E+09
 -1       159 1.05767E-02 1.66216E-02-2.62105E-03-1.72716E-04 2.01105E+07-1.39418E+09
 -1       160-5.02862E+08-8.18862E+08 1.55298E+09-9.67309E+06-8.22776E+06-1.42348E+09
 -1       161-7.62833E+09 5.93873E+09 2.32795E+09-1.13644E+09-1.02374E+09 1.09748E+09
 -1       162-4.05828E+09 9.22783E+08-3.84416E+06-9.06606E+08-1.91027E+08-1.14021E+09
 -1       163-1.09767E+09-2.88840E+09-7.04766E+08-9.49578E+08 5.53321E+08-9.90055E+08
 -1       164 1.85275E+09-4.76348E+09-1.31628E+09-8.66864E+08 9.12922E+08-8.87639E+08
 -1       165 4.64779E+09-5.52490E+09-1.46216E+09-7.10043E+08 1.07239E+09-7.25336E+08
 -1       166 6.78917E+09-6.01721E+09-1.57325E+09-5.07296E+08 1.17233E+09-5.18658E+08
 -1       167 8.16369E+09-6.29929E+09-1.62930E+09-2.87484E+08 1.23251E+09-2.98245E+08
 -1       168 8.73482E+09-6.30397E+09-1.62290E+09-6.41979E+07 1.23617E+09-7.66113E+07
 -1       169 8.51670E+09-5.97806E+09-1.53580E+09 1.52254E+08 1.17347E+09 1.37962E+08
 -1       170 7.55404E+09-5.32376E+09-1.36820E+09 3.51132E+08 1.04490E+09 3.35261E+08
 -1       171 5.92886E+09-4.37788E+09-1.12901E+09 5.21888E+08 8.57904E+08 5.04850E+08
 -1       172 3.75907E+09-3.19817E+09-8.32626E+08 6.55308E+08 6.23992E+08 6.37690E+08
 -1       173 1.19271E+09-1.85678E+09-4.96979E+08 7.44402E+08 3.57551E+08 7.26961E+08
 -1       174-1.60136E+09-4.36261E+08-1.42584E+08 7.84917E+08 7.50316E+07 7.68553E+08
 -1       175-4.44399E+09 9.74975E+08 2.08578E+08 7.75627E+08-2.05961E+08 7.61320E+08
 -1       176-7.15707E+09 2.28807E+09 5.34383E+08 7.18428E+08-4.67737E+08 7.07174E+08
 -1       177-9.57469E+09 3.41928E+09 8.13957E+08 6.18251E+08-6.93636E+08 6.10996E+08
 -1       178-1.15537E+10 4.29526E+09 1.02898E+09 4.82788E+08-8.69076E+08 4.80381E+08
 -1       179-1.29830E+10 4.85766E+09 1.16486E+09 3.22044E+08-9.82472E+08 3.25189E+08
 -1       180-1.37908E+10 5.06681E+09 1.21161E+09 1.47750E+08-1.02596E+09 1.56975E+08
 -1       181-1.39496E+10 4.90402E+09 1.16443E+09-2.73214E+07-9.95871E+08-1.16850E+07
 -1       182-1.34789E+10 4.37207E+09 1.02382E+09-1.90077E+08-8.92833E+08-1.67887E+08
 -1       183-1.24450E+10 3.49339E+09 7.95021E+08-3.27838E+08-7.21389E+08-2.99066E+08
 -1       184-1.09583E+10 2.30748E+09 4.87368E+08-4.29196E+08-4.89536E+08-3.93661E+08
 -1       185-9.16491E+09 8.76213E+08 1.16074E+08-4.85313E+08-2.09375E+08-4.43162E+08
 -1       186-7.22840E+09-6.94436E+08-2.90874E+08-4.91698E+08 9.75116E+07-4.42515E+08
 -1       187-5.30714E+09-2.21844E+09-6.80643E+08-4.44962E+08 3.95246E+08-3.91056E+08
 -1       188-3.63139E+09-3.58308E+09-1.03623E+09-3.42289E+08 6.54427E+08-2.97316E+08
 -1       189-2.68628E+09-4.90686E+09-1.50480E+09-1.49823E+08 9.63117E+08-2.14783E+08
 -1       190-1.49033E+10-6.38719E+09-6.38720E+09-9.62833E+08 1.04008E+04-1.04693E+10
 -1       191-6.89032E+09-2.95307E+09-2.95306E+09-3.18149E+08 1.04301E+04-1.02966E+10
 -1       192-1.69040E+09-2.81464E+09-1.37854E+09 1.87185E+08-7.98063E+08-1.76082E+08
 -1       193-8.19332E+09 3.71753E+08 3.51836E+08-9.92968E+08 2.13613E+08 1.43932E+09
 -1       194-4.29081E+09 2.27704E+08-2.33888E+08-1.69988E+08 1.20345E+08 1.01815E+09
 -1       195-1.38111E+08-6.88125E+07 2.63333E+08-2.37172E+08-1.65233E+08-4.86473E+07
 -1       196 3.18406E+09-2.84409E+08 8.29533E+07-4.49714E+08-2.93412E+08-1.43422E+08
 -1       197 6.03219E+09-3.46093E+08 1.05413E+08-4.17176E+08-3.39141E+08-1.89129E+07
 -1       198 8.25109E+09-3.70210E+08 1.24237E+08-3.04210E+08-3.77743E+08 2.24180E+07
 -1       199 9.70175E+09-3.68250E+08 1.54805E+08-1.82515E+08-4.00913E+08 1.50950E+07
 -1       200 1.02847E+10-3.57454E+08 1.68513E+08-6.80563E+07-4.04682E+08-6.27482E+06
 -1       201 9.99059E+09-3.34795E+08 1.65132E+08 3.81976E+07-3.85138E+08-2.60310E+07
 -1       202 8.86673E+09-2.98624E+08 1.46452E+08 1.35016E+08-3.42835E+08-4.19128E+07
 -1       203 7.00656E+09-2.49619E+08 1.15171E+08 2.18694E+08-2.80396E+08-5.45874E+07
 -1       204 4.54318E+09-1.90325E+08 7.37352E+07 2.85142E+08-2.01768E+08-6.40609E+07
 -1       205 1.64264E+09-1.24203E+08 2.49096E+07 3.31166E+08-1.11842E+08-6.98086E+07
 -1       206-1.50567E+09-5.52249E+07-2.81612E+07 3.54913E+08-1.62064E+07-7.13243E+07
 -1       207-4.70059E+09 1.23739E+07-8.20976E+07 3.55969E+08 7.91627E+07-6.83870E+07
 -1       208-7.74182E+09 7.43249E+07-1.33519E+08 3.35345E+08 1.68265E+08-6.10955E+07
 -1       209-1.04426E+10 1.26582E+08-1.79271E+08 2.95433E+08 2.45455E+08-4.98340E+07
 -1       210-1.26414E+10 1.65571E+08-2.16629E+08 2.39878E+08 3.05800E+08-3.52305E+07
 -1       211-1.42127E+10 1.88417E+08-2.43473E+08 1.73379E+08 3.45393E+08-1.81206E+07
 -1       212-1.50747E+10 1.93102E+08-2.58436E+08 1.01427E+08 3.61595E+08 4.71362E+05
 -1       213-1.51956E+10 1.78550E+08-2.61033E+08 3.00419E+07 3.53203E+08 1.93540E+07
 -1       214-1.45957E+10 1.44581E+08-2.51757E+08-3.44358E+07 3.20493E+08 3.73290E+07
 -1       215-1.33471E+10 9.19266E+07-2.31883E+08-8.55991E+07 2.65088E+08 5.38551E+07
 -1       216-1.15681E+10 2.26120E+07-2.02879E+08-1.17975E+08 1.89719E+08 7.02584E+07
 -1       217-9.41441E+09-5.80944E+07-1.64538E+08-1.29700E+08 9.84775E+07 8.89605E+07
 -1       218-7.07598E+09-1.42857E+08-1.19871E+08-1.25961E+08-2.08240E+06 1.06611E+08
 -1       219-4.79928E+09-2.33215E+08-7.51247E+07-1.16385E+08-9.86678E+07 7.61469E+07
 -1       220-2.81983E+09-2.90034E+08-5.37978E+07-3.16371E+07-1.71095E+08-6.21937E+07
 -1       221-1.42273E+09-5.84184E+08-2.08330E+08 1.73842E+08-3.02858E+08-1.66459E+08
 -1       222-3.53121E+09 2.00530E+09 2.24053E+09-3.20097E+08 2.89569E+08 1.46489E+09
 -1       223-3.87406E+09-1.07471E+08-2.09417E+08-1.35355E+09 1.32557E+08 9.56544E+08
 -1       224-1.23872E+09-2.85338E+05-4.62922E+07-1.08278E+09-1.90719E+08-9.46526E+07
 -1       225 2.01863E+09 1.03550E+08-1.50286E+08-7.11600E+08-3.15069E+08-1.93421E+08
 -1       226 4.81173E+09 1.60078E+08-1.08874E+08-5.18567E+08-3.67280E+08-5.66386E+07
 -1       227 6.81851E+09 1.50168E+08-1.49424E+08-3.63293E+08-4.08138E+08-4.70827E+06
 -1       228 8.08210E+09 1.35236E+08-1.80046E+08-1.95142E+08-4.33021E+08 3.05958E+05
 -1       229 8.59394E+09 1.23331E+08-1.94480E+08-1.15632E+07-4.36884E+08-8.51696E+06
 -1       230 8.36074E+09 1.12637E+08-1.89593E+08 1.72558E+08-4.15708E+08-1.60178E+07
 -1       231 7.41835E+09 1.00900E+08-1.68204E+08 3.42780E+08-3.70052E+08-2.06315E+07
 -1       232 5.84264E+09 8.75213E+07-1.32863E+08 4.88219E+08-3.02744E+08-2.36439E+07
 -1       233 3.74660E+09 7.28847E+07-8.62760E+07 6.00565E+08-2.18033E+08-2.56030E+07
 -1       234 1.27263E+09 5.77192E+07-3.15153E+07 6.73625E+08-1.21178E+08-2.63935E+07
 -1       235-1.41687E+09 4.28392E+07 2.78961E+07 7.03515E+08-1.81967E+07-2.57605E+07
 -1       236-4.14973E+09 2.91016E+07 8.81779E+07 6.88970E+08 8.44773E+07-2.35597E+07
 -1       237-6.75465E+09 1.73832E+07 1.45550E+08 6.31505E+08 1.80383E+08-1.97851E+07
 -1       238-9.07202E+09 8.53928E+06 1.96483E+08 5.35347E+08 2.63444E+08-1.45408E+07
 -1       239-1.09640E+10 3.35170E+06 2.37927E+08 4.07192E+08 3.28347E+08-8.01460E+06
 -1       240-1.23235E+10 2.48156E+06 2.67503E+08 2.55805E+08 3.70883E+08-4.68146E+05
 -1       241-1.30810E+10 6.44016E+06 2.83670E+08 9.14813E+07 3.88208E+08 7.74784E+06
 -1       242-1.32096E+10 1.56040E+07 2.85862E+08-7.46218E+07 3.79026E+08 1.61744E+07
 -1       243-1.27270E+10 3.02795E+07 2.74575E+08-2.31296E+08 3.43630E+08 2.43628E+07
 -1       244-1.16953E+10 5.06794E+07 2.51264E+08-3.68044E+08 2.83759E+08 3.24925E+07
 -1       245-1.02203E+10 7.65418E+07 2.17618E+08-4.75092E+08 2.02365E+08 4.25450E+07
 -1       246-8.44665E+09 1.05545E+08 1.74882E+08-5.41420E+08 1.03774E+08 5.74168E+07
 -1       247-6.54848E+09 1.32249E+08 1.20911E+08-5.53030E+08-4.55106E+06 7.43499E+07
 -1       248-4.68810E+09 1.50463E+08 7.33342E+07-4.97934E+08-1.10292E+08 4.58587E+07
 -1       249-2.88101E+09 2.37537E+08 8.61206E+07-4.25182E+08-1.87880E+08-8.92175E+07
 -1       250-1.19276E+09 4.62790E+08 1.74753E+08-4.89369E+08-3.24229E+08-1.84174E+08
 -1       251-1.10347E+08 1.54579E+09 4.03600E+08-7.08067E+08-7.30570E+08-1.88772E+08
 -1       252 2.68628E+09 4.90686E+09 1.50480E+09 1.49823E+08 9.63117E+08-2.14783E+08
 -1       253 3.63139E+09 3.58308E+09 1.03623E+09 3.42289E+08 6.54427E+08-2.97316E+08
 -1       254 5.30714E+09 2.21844E+09 6.80643E+08 4.44962E+08 3.95246E+08-3.91056E+08
 -1       255 7.22840E+09 6.94436E+08 2.90874E+08 4.91698E+08 9.75116E+07-4.42515E+08
 -1       256 9.16491E+09-8.76213E+08-1.16074E+08 4.85313E+08-2.09375E+08-4.43162E+08
 -1       257 1.09583E+10-2.30748E+09-4.87368E+08 4.29196E+08-4.89536E+08-3.93661E+08
 -1       258 1.24450E+10-3.49339E+09-7.95021E+08 3.27838E+08-7.21389E+08-2.99066E+08
 -1       259 1.34789E+10-4.37207E+09-1.02382E+09 1.90077E+08-8.92833E+08-1.67887E+08
 -1       260 1.39496E+10-4.90402E+09-1.16443E+09 2.73214E+07-9.95871E+08-1.16850E+07
 -1       261 1.37908E+10-5.06681E+09-1.21161E+09-1.47750E+08-1.02596E+09 1.56975E+08
 -1       262 1.29830E+10-4.85766E+09-1.16486E+09-3.22044E+08-9.82472E+08 3.25189E+08
 -1       263 1.15537E+10-4.29526E+09-1.02898E+09-4.82788E+08-8.69076E+08 4.80381E+08
 -1       264 9.57469E+09-3.41928E+09-8.13957E+08-6.18251E+08-6.93636E+08 6.10996E+08
 -1       265 7.15707E+09-2.28807E+09-5.34383E+08-7.18428E+08-4.67737E+08 7.07174E+08
 -1       266 4.44399E+09-9.74975E+08-2.08578E+08-7.75627E+08-2.05961E+08 7.61320E+08
 -1       267 1.60136E+09 4.36261E+08 1.42584E+08-7.84917E+08 7.50316E+07 7.68553E+08
 -1       268-1.19271E+09 1.85678E+09 4.96979E+08-7.44402E+08 3.57551E+08 7.26961E+08
 -1       269-3.75907E+09 3.19817E+09 8.32626E+08-6.55308E+08 6.23992E+08 6.37690E+08
 -1       270-5.92886E+09 4.37788E+09 1.12901E+09-5.21888E+08 8.57904E+08 5.04850E+08
 -1       271-7.55404E+09 5.32376E+09 1.36820E+09-3.51132E+08 1.04490E+09 3.35261E+08
 -1       272-8.51670E+09 5.97806E+09 1.53580E+09-1.52254E+08 1.17347E+09 1.37962E+08
 -1       273-8.73482E+09 6.30397E+09 1.62290E+09 6.41979E+07 1.23617E+09-7.66113E+07
 -1       274-8.16369E+09 6.29929E+09 1.62930E+09 2.87484E+08 1.23251E+09-2.98245E+08
 -1       275-6.78917E+09 6.01721E+09 1.57325E+09 5.07296E+08 1.17233E+09-5.18658E+08
 -1       276-4.64779E+09 5.52490E+09 1.46216E+09 7.10043E+08 1.07239E+09-7.25336E+08
 -1       277-1.85275E+09 4.76348E+09 1.31628E+09 8.66864E+08 9.12922E+08-8.87639E+08
 -1       278 1.09767E+09 2.88840E+09 7.04766E+08 9.49578E+08 5.53321E+08-9.90055E+08
 -1       279 4.05828E+09-9.22783E+08 3.84416E+06 9.06606E+08-1.91027E+08-1.14021E+09
 -1       280 7.62833E+09-5.93873E+09-2.32795E+09 1.13644E+09-1.02374E+09 1.09748E+09
 -1       281 6.89032E+09 2.95307E+09 2.95306E+09 3.18149E+08 1.04301E+04-1.02966E+10
 -1       282 1.49033E+10 6.38719E+09 6.38720E+09 9.62833E+08 1.04008E+04-1.04693E+10
 -1       283 3.53121E+09-2.00530E+09-2.24053E+09 3.20097E+08 2.89569E+08 1.46489E+09
 -1       284 3.87406E+09 1.07471E+08 2.09417E+08 1.35355E+09 1.32557E+08 9.56544E+08
 -1       285 1.23872E+09 2.85338E+05 4.62922E+07 1.08278E+09-1.90719E+08-9.46526E+07
 -1       286-2.01863E+09-1.03550E+08 1.50286E+08 7.11600E+08-3.15069E+08-1.93421E+08
 -1       287-4.81173E+09-1.60078E+08 1.08874E+08 5.18567E+08-3.67280E+08-5.66386E+07
 -1       288-6.81851E+09-1.50168E+08 1.49424E+08 3.63293E+08-4.08138E+08-4.70827E+06
 -1       289-8.08210E+09-1.35236E+08 1.80046E+08 1.95142E+08-4.33021E+08 3.05958E+05
 -1       290-8.59394E+09-1.23331E+08 1.94480E+08 1.15632E+07-4.36884E+08-8.51696E+06
 -1       291-8.36074E+09-1.12637E+08 1.89593E+08-1.72558E+08-4.15708E+08-1.60178E+07
 -1       292-7.41835E+09-1.00900E+08 1.68204E+08-3.42780E+08-3.70052E+08-2.06315E+07
 -1       293-5.84264E+09-8.75213E+07 1.32863E+08-4.88219E+08-3.02744E+08-2.36439E+07
 -1       294-3.74660E+09-7.28847E+07 8.62760E+07-6.00565E+08-2.18033E+08-2.56030E+07
 -1       295-1.27263E+09-5.77192E+07 3.15153E+07-6.73625E+08-1.21178E+08-2.63935E+07
 -1       296 1.41687E+09-4.28392E+07-2.78961E+07-7.03515E+08-1.81967E+07-2.57605E+07
 -1       297 4.14973E+09-2.91016E+07-8.81779E+07-6.88970E+08 8.44773E+07-2.35597E+07
 -1       298 6.75465E+09-1.73832E+07-1.45550E+08-6.31505E+08 1.80383E+08-1.97851E+07
 -1       299 9.07202E+09-8.53928E+06-1.96483E+08-5.35347E+08 2.63444E+08-1.45408E+07
 -1       300 1.09640E+10-3.35170E+06-2.37927E+08-4.07192E+08 3.28347E+08-8.01460E+06
 -1       301 1.23235E+10-2.48156E+06-2.67503E+08-2.55805E+08 3.70883E+08-4.68146E+05
 -1       302 1.30810E+10-6.44016E+06-2.83670E+08-9.14813E+07 3.88208E+08 7.74784E+06
 -1       303 1.32096E+10-1.56040E+07-2.85862E+08 7.46218E+07 3.79026E+08 1.61744E+07
 -1       304 1.27270E+10-3.02795E+07-2.74575E+08 2.31296E+08 3.43630E+08 2.43628E+07
 -1       305 1.16953E+10-5.06794E+07-2.51264E+08 3.68044E+08 2.83759E+08 3.24925E+07
 -1       306 1.02203E+10-7.65418E+07-2.17618E+08 4.75092E+08 2.02365E+08 4.25450E+07
 -1       307 8.44665E+09-1.05545E+08-1.74882E+08 5.41420E+08 1.03774E+08 5.74168E+07
 -1       308 6.54848E+09-1.32249E+08-1.20911E+08 5.53030E+08-4.55106E+06 7.43499E+07
 -1       309 4.68810E+09-1.50463E+08-7.33342E+07 4.97934E+08-1.10292E+08 4.58587E+07
 -1       310 2.88101E+09-2.37537E+08-8.61206E+07 4.25182E+08-1.87880E+08-8.92175E+07
 -1       311 1.19276E+09-4.62790E+08-1.74753E+08 4.89369E+08-3.24229E+08-1.84174E+08
 -1       312 1.10347E+08-1.54579E+09-4.03600E+08 7.08067E+08-7.30570E+08-1.88772E+08
 -1       313 8.19332E+09-3.71753E+08-3.51836E+08 9.92968E+08 2.13613E+08 1.43932E+09
 -1       314 4.29081E+09-2.27704E+08 2.33888E+08 1.69988E+08 1.20345E+08 1.01815E+09
 -1       315 1.38111E+08 6.88125E+07-2.63333E+08 2.37172E+08-1.65233E+08-4.86473E+07
 -1       316-3.18406E+09 2.84409E+08-8.29533E+07 4.49714E+08-2.93412E+08-1.43422E+08
 -1       317-6.03219E+09 3.46093E+08-1.05413E+08 4.17176E+08-3.39141E+08-1.89129E+07
 -1       318-8.25109E+09 3.70210E+08-1.24237E+08 3.04210E+08-3.77743E+08 2.24180E+07
 -1       319-9.70175E+09 3.68250E+08-1.54805E+08 1.82515E+08-4.00913E+08 1.50950E+07
 -1       320-1.02847E+10 3.57454E+08-1.68513E+08 6.80563E+07-4.04682E+08-6.27482E+06
 -1       321-9.99059E+09 3.34795E+08-1.65132E+08-3.81976E+07-3.85138E+08-2.60310E+07
 -1       322-8.86673E+09 2.98624E+08-1.46452E+08-1.35016E+08-3.42835E+08-4.19128E+07
 -1       323-7.00656E+09 2.49619E+08-1.15171E+08-2.18694E+08-2.80396E+08-5.45874E+07
 -1       324-4.54318E+09 1.90325E+08-7.37352E+07-2.85142E+08-2.01768E+08-6.40609E+07
 -1       325-1.64264E+09 1.24203E+08-2.49096E+07-3.31166E+08-1.11842E+08-6.98086E+07
 -1       326 1.50567E+09 5.52249E+07 2.81612E+07-3.54913E+08-1.62064E+07-7.13243E+07
 -1       327 4.70059E+09-1.23739E+07 8.20976E+07-3.55969E+08 7.91627E+07-6.83870E+07
 -1       328 7.74182E+09-7.43249E+07 1.33519E+08-3.35345E+08 1.68265E+08-6.10955E+07
 -1       329 1.04426E+10-1.26582E+08 1.79271E+08-2.95433E+08 2.45455E+08-4.98340E+07
 -1       330 1.26414E+10-1.65571E+08 2.16629E+08-2.39878E+08 3.05800E+08-3.52305E+07
 -1       331 1.42127E+10-1.88417E+08 2.43473E+08-1.73379E+08 3.45393E+08-1.81206E+07
 -1       332 1.50747E+10-1.93102E+08 2.58436E+08-1.01427E+08 3.61595E+08 4.71362E+05
 -1       333 1.51956E+10-1.78550E+08 2.61033E+08-3.00419E+07 3.53203E+08 1.93540E+07
 -1       334 1.45957E+10-1.44581E+08 2.51757E+08 3.44358E+07 3.20493E+08 3.73290E+07
 -1       335 1.33471E+10-9.19266E+07 2.31883E+08 8.55991E+07 2.65088E+08 5.38551E+07
 -1       336 1.15681E+10-2.26120E+07 2.02879E+08 1.17975E+08 1.89719E+08 7.02584E+07
 -1       337 9.41441E+09 5.80944E+07 1.64538E+08 1.29700E+08 9.84775E+07 8.89605E+07
 -1       338 7.07598E+09 1.42857E+08 1.19871E+08 1.25961E+08-2.08240E+06 1.06611E+08
 -1       339 4.79928E+09 2.33215E+08 7.51247E+07 1.16385E+08-9.86678E+07 7.61469E+07
 -1       340 2.81983E+09 2.90034E+08 5.37978E+07 3.16371E+07-1.71095E+08-6.21937E+07
 -1       341 1.42273E+09 5.84184E+08 2.08330E+08-1.73842E+08-3.02858E+08-1.66459E+08
 -1       342 1.69040E+09 2.81464E+09 1.37854E+09-1.87185E+08-7.98063E+08-1.76082E+08
 -1       343-8.19332E+09 3.71753E+08 3.51836E+08 9.92968E+08-2.13613E+08 1.43932E+09
 -1       344-4.29081E+09 2.27704E+08-2.33888E+08 1.69988E+08-1.20345E+08 1.01815E+09
 -1       345-1.38111E+08-6.88125E+07 2.63333E+08 2.37172E+08 1.65233E+08-4.86473E+07
 -1       346 3.18406E+09-2.84409E+08 8.29533E+07 4.49714E+08 2.93412E+08-1.43422E+08
 -1       347 6.03219E+09-3.46093E+08 1.05413E+08 4.17176E+08 3.39141E+08-1.89129E+07
 -1       348 8.25109E+09-3.70210E+08 1.24237E+08 3.04210E+08 3.77743E+08 2.24180E+07
 -1       349 9.70175E+09-3.68250E+08 1.54805E+08 1.82515E+08 4.00913E+08 1.50950E+07
 -1       350 1.02847E+10-3.57454E+08 1.68513E+08 6.80563E+07 4.04682E+08-6.27482E+06
 -1       351 9.99059E+09-3.34795E+08 1.65132E+08-3.81976E+07 3.85138E+08-2.60310E+07
 -1       352 8.86673E+09-2.98624E+08 1.46452E+08-1.35016E+08 3.42835E+08-4.19128E+07
 -1       353 7.00656E+09-2.49619E+08 1.15171E+08-2.18694E+08 2.80396E+08-5.45874E+07
 -1       354 4.54318E+09-1.90325E+08 7.37352E+07-2.85142E+08 2.01768E+08-6.40609E+07
 -1       355 1.64264E+09-1.24203E+08 2.49096E+07-3.31166E+08 1.11842E+08-6.98086E+07
 -1       356-1.50567E+09-5.52249E+07-2.81612E+07-3.54913E+08 1.62064E+07-7.13243E+07
 -1       357-4.70059E+09 1.23739E+07-8.20976E+07-3.55969E+08-7.91627E+07-6.83870E+07
 -1       358-7.74182E+09 7.43249E+07-1.33519E+08-3.35345E+08-1.68265E+08-6.10955E+07
 -1       359-1.04426E+10 1.26582E+08-1.79271E+08-2.95433E+08-2.45455E+08-4.98340E+07
 -1       360-1.26414E+10 1.65571E+08-2.16629E+08-2.39878E+08-3.05800E+08-3.52305E+07
 -1       361-1.42127E+10 1.88417E+08-2.43473E+08-1.73379E+08-3.45393E+08-1.81206E+07
 -1       362-1.50747E+10 1.93102E+08-2.58436E+08-1.01427E+08-3.61595E+08 4.71362E+05
 -1       363-1.51956E+10 1.78550E+08-2.61033E+08-3.00419E+07-3.53203E+08 1.93540E+07
 -1       364-1.45957E+10 1.44581E+08-2.51757E+08 3.44358E+07-3.20493E+08 3.73290E+07
 -1       365-1.33471E+10 9.19266E+07-2.31883E+08 8.55991E+07-2.65088E+08 5.38551E+07
 -1       366-1.15681E+10 2.26120E+07-2.02879E+08 1.17975E+08-1.89719E+08 7.02584E+07
 -1       367-9.41441E+09-5.80944E+07-1.64538E+08 1.29700E+08-9.84775E+07 8.89605E+07
 -1       368-7.07598E+09-1.42857E+08-1.19871E+08 1.25961E+08 2.08240E+06 1.06611E+08
 -1       369-4.79928E+09-2.33215E+08-7.51247E+07 1.16385E+08 9.86678E+07 7.61469E+07
 -1       370-2.81983E+09-2.90034E+08-5.37978E+07 3.16371E+07 1.71095E+08-6.21937E+07
 -1       371-1.42273E+09-5.84184E+08-2.08330E+08-1.73842E+08 3.02858E+08-1.66459E+08
 -1       372-3.53121E+09 2.00530E+09 2.24053E+09 3.20097E+08-2.89569E+08 1.46489E+09
 -1       373-3.87406E+09-1.07471E+08-2.09417E+08 1.35355E+09-1.32557E+08 9.56544E+08
 -1       374-1.23872E+09-2.85338E+05-4.62922E+07 1.08278E+09 1.90719E+08-9.46526E+07
 -1       375 2.01863E+09 1.03550E+08-1.50286E+08 7.11600E+08 3.15069E+08-1.93421E+08
 -1       376 4.81173E+09 1.60078E+08-1.08874E+08 5.18567E+08 3.67280E+08-5.66386E+07
 -1       377 6.81851E+09 1.50168E+08-1.49424E+08 3.63293E+08 4.08138E+08-4.70827E+06
 -1       378 8.08210E+09 1.35236E+08-1.80046E+08 1.95142E+08 4.33021E+08 3.05958E+05
 -1       379 8.59394E+09 1.23331E+08-1.94480E+08 1.15632E+07 4.36884E+08-8.51696E+06
 -1       380 8.36074E+09 1.12637E+08-1.89593E+08-1.72558E+08 4.15708E+08-1.60178E+07
 -1       381 7.41835E+09 1.00900E+08-1.68204E+08-3.42780E+08 3.70052E+08-2.06315E+07
 -1       382 5.84264E+09 8.75213E+07-1.32863E+08-4.88219E+08 3.02744E+08-2.36439E+07
 -1       383 3.74660E+09 7.28847E+07-8.62760E+07-6.00565E+08 2.18033E+08-2.56030E+07
 -1       384 1.27263E+09 5.77192E+07-3.15153E+07-6.73625E+08 1.21178E+08-2.63935E+07
 -1       385-1.41687E+09 4.28392E+07 2.78961E+07-7.03515E+08 1.81967E+07-2.57605E+07
 -1       386-4.14973E+09 2.91016E+07 8.81779E+07-6.88970E+08-8.44773E+07-2.35597E+07
 -1       387-6.75465E+09 1.73832E+07 1.45550E+08-6.31505E+08-1.80383E+08-1.97851E+07
 -1       388-9.07202E+09 8.53928E+06 1.96483E+08-5.35347E+08-2.63444E+08-1.45408E+07
 -1       389-1.09640E+10 3.35170E+06 2.37927E+08-4.07192E+08-3.28347E+08-8.01460E+06
 -1       390-1.23235E+10 2.48156E+06 2.67503E+08-2.55805E+08-3.70883E+08-4.68146E+05
 -1       391-1.30810E+10 6.44016E+06 2.83670E+08-9.14813E+07-3.88208E+08 7.74784E+06
 -1       392-1.32096E+10 1.56040E+07 2.85862E+08 7.46218E+07-3.79026E+08 1.61744E+07
 -1       393-1.27270E+10 3.02795E+07 2.74575E+08 2.31296E+08-3.43630E+08 2.43628E+07
 -1       394-1.16953E+10 5.06794E+07 2.51264E+08 3.68044E+08-2.83759E+08 3.24925E+07
 -1       395-1.02203E+10 7.65418E+07 2.17618E+08 4.75092E+08-2.02365E+08 4.25450E+07
 -1       396-8.44665E+09 1.05545E+08 1.74882E+08 5.41420E+08-1.03774E+08 5.74168E+07
 -1       397-6.54848E+09 1.32249E+08 1.20911E+08 5.53030E+08 4.55106E+06 7.43499E+07
 -1       398-4.68810E+09 1.50463E+08 7.33342E+07 4.97934E+08 1.10292E+08 4.58587E+07
 -1       399-2.88101E+09 2.37537E+08 8.61206E+07 4.25182E+08 1.87880E+08-8.92175E+07
 -1       400-1.19276E+09 4.62790E+08 1.74753E+08 4.89369E+08 3.24229E+08-1.84174E+08
 -1       401-1.49033E+10-6.38719E+09-6.38720E+09 9.62833E+08-1.04008E+04-1.04693E+10
 -1       402-6.89032E+09-2.95307E+09-2.95306E+09 3.18149E+08-1.04301E+04-1.02966E+10
 -1       403-1.69040E+09-2.81464E+09-1.37854E+09-1.87185E+08 7.98063E+08-1.76082E+08
 -1       404-7.62833E+09 5.93873E+09 2.32795E+09 1.13644E+09 1.02374E+09 1.09748E+09
 -1       405-4.05828E+09 9.22783E+08-3.84416E+06 9.06606E+08 1.91027E+08-1.14021E+09
 -1       406-1.09767E+09-2.88840E+09-7.04766E+08 9.49578E+08-5.53321E+08-9.90055E+08
 -1       407 1.85275E+09-4.76348E+09-1.31628E+09 8.66864E+08-9.12922E+08-8.87639E+08
 -1       408 4.64779E+09-5.52490E+09-1.46216E+09 7.10043E+08-1.07239E+09-7.25336E+08
 -1       409 6.78917E+09-6.01721E+09-1.57325E+09 5.07296E+08-1.17233E+09-5.18658E+08
 -1       410 8.16369E+09-6.29929E+09-1.62930E+09 2.87484E+08-1.23251E+09-2.98245E+08
 -1       411 8.73482E+09-6.30397E+09-1.62290E+09 6.41979E+07-1.23617E+09-7.66113E+07
 -1       412 8.51670E+09-5.97806E+09-1.53580E+09-1.52254E+08-1.17347E+09 1.37962E+08
 -1       413 7.55404E+09-5.32376E+09-1.36820E+09-3.51132E+08-1.04490E+09 3.35261E+08
 -1       414 5.92886E+09-4.37788E+09-1.12901E+09-5.21888E+08-8.57904E+08 5.04850E+08
 -1       415 3.75907E+09-3.19817E+09-8.32626E+08-6.55308E+08-6.23992E+08 6.37690E+08
 -1       416 1.19271E+09-1.85678E+09-4.96979E+08-7.44402E+08-3.57551E+08 7.26961E+08
 -1       417-1.60136E+09-4.36261E+08-1.42584E+08-7.84917E+08-7.50316E+07 7.68553E+08
 -1       418-4.44399E+09 9.74975E+08 2.08578E+08-7.75627E+08 2.05961E+08 7.61320E+08
 -1       419-7.15707E+09 2.28807E+09 5.34383E+08-7.18428E+08 4.67737E+08 7.07174E+08
 -1       420-9.57469E+09 3.41928E+09 8.13957E+08-6.18251E+08 6.93636E+08 6.10996E+08
 -1       421-1.15537E+10 4.29526E+09 1.02898E+09-4.82788E+08 8.69076E+08 4.80381E+08
 -1       422-1.29830E+10 4.85766E+09 1.16486E+09-3.22044E+08 9.82472E+08 3.25189E+08
 -1       423-1.37908E+10 5.06681E+09 1.21161E+09-1.47750E+08 1.02596E+09 1.56975E+08
 -1       424-1.39496E+10 4.90402E+09 1.16443E+09 2.73214E+07 9.95871E+08-1.16850E+07
 -1       425-1.34789E+10 4.37207E+09 1.02382E+09 1.90077E+08 8.92833E+08-1.67887E+08
 -1       426-1.24450E+10 3.49339E+09 7.95021E+08 3.27838E+08 7.21389E+08-2.99066E+08
 -1       427-1.09583E+10 2.30748E+09 4.87368E+08 4.29196E+08 4.89536E+08-3.93661E+08
 -1       428-9.16491E+09 8.76213E+08 1.16074E+08 4.85313E+08 2.09375E+08-4.43162E+08
 -1       429-7.22840E+09-6.94436E+08-2.90874E+08 4.91698E+08-9.75116E+07-4.42515E+08
 -1       430-5.30714E+09-2.21844E+09-6.80643E+08 4.44962E+08-3.95246E+08-3.91056E+08
 -1       431-3.63139E+09-3.58308E+09-1.03623E+09 3.42289E+08-6.54427E+08-2.97316E+08
 -1       432-2.68628E+09-4.90686E+09-1.50480E+09 1.49823E+08-9.63117E+08-2.14783E+08
 -1       433-1.10347E+08 1.54579E+09 4.03600E+08 7.08067E+08 7.30570E+08-1.88772E+08
 -1       434 1.49033E+10 6.38719E+09 6.38720E+09-9.62833E+08-1.04008E+04-1.04693E+10
 -1       435 6.89032E+09 2.95307E+09 2.95306E+09-3.18149E+08-1.04301E+04-1.02966E+10
 -1       436 2.68628E+09 4.90686E+09 1.50480E+09-1.49823E+08-9.63117E+08-2.14783E+08
 -1       437 3.63139E+09 3.58308E+09 1.03623E+09-3.42289E+08-6.54427E+08-2.97316E+08
 -1       438 5.30714E+09 2.21844E+09 6.80643E+08-4.44962E+08-3.95246E+08-3.91056E+08
 -1       439 7.22840E+09 6.94436E+08 2.90874E+08-4.91698E+08-9.75116E+07-4.42515E+08
 -1       440 9.16491E+09-8.76213E+08-1.16074E+08-4.85313E+08 2.09375E+08-4.43162E+08
 -1       441 1.09583E+10-2.30748E+09-4.87368E+08-4.29196E+08 4.89536E+08-3.93661E+08
 -1       442 1.24450E+10-3.49339E+09-7.95021E+08-3.27838E+08 7.21389E+08-2.99066E+08
 -1       443 1.34789E+10-4.37207E+09-1.02382E+09-1.90077E+08 8.92833E+08-1.67887E+08
 -1       444 1.39496E+10-4.90402E+09-1.16443E+09-2.73214E+07 9.95871E+08-1.16850E+07
 -1       445 1.37908E+10-5.06681E+09-1.21161E+09 1.47750E+08 1.02596E+09 1.56975E+08
 -1       446 1.29830E+10-4.85766E+09-1.16486E+09 3.22044E+08 9.82472E+08 3.25189E+08
 -1       447 1.15537E+10-4.29526E+09-1.02898E+09 4.82788E+08 8.69076E+08 4.80381E+08
 -1       448 9.57469E+09-3.41928E+09-8.13957E+08 6.18251E+08 6.93636E+08 6.10996E+08
 -1       449 7.15707E+09-2.28807E+09-5.34383E+08 7.18428E+08 4.67737E+08 7.07174E+08
 -1       450 4.44399E+09-9.74975E+08-2.08578E+08 7.75627E+08 2.05961E+08 7.61320E+08
 -1       451 1.60136E+09 4.36261E+08 1.42584E+08 7.84917E+08-7.50316E+07 7.68553E+08
 -1       452-1.19271E+09 1.85678E+09 4.96979E+08 7.44402E+08-3.57551E+08 7.26961E+08
 -1       453-3.75907E+09 3.19817E+09 8.32626E+08 6.55308E+08-6.23992E+08 6.37690E+08
 -1       454-5.92886E+09 4.37788E+09 1.12901E+09 5.21888E+08-8.57904E+08 5.04850E+08
 -1       455-7.55404E+09 5.32376E+09 1.36820E+09 3.51132E+08-1.04490E+09 3.35261E+08
 -1       456-8.51670E+09 5.97806E+09 1.53580E+09 1.52254E+08-1.17347E+09 1.37962E+08
 -1       457-8.73482E+09 6.30397E+09 1.62290E+09-6.41979E+07-1.23617E+09-7.66113E+07
 -1       458-8.16369E+09 6.29929E+09 1.62930E+09-2.87484E+08-1.23251E+09-2.98245E+08
 -1       459-6.78917E+09 6.01721E+09 1.57325E+09-5.07296E+08-1.17233E+09-5.18658E+08
 -1       460-4.64779E+09 5.52490E+09 1.46216E+09-7.10043E+08-1.07239E+09-7.25336E+08
 -1       461-1.85275E+09 4.76348E+09 1.31628E+09-8.66864E+08-9.12922E+08-8.87639E+08
 -1       462 1.09767E+09 2.88840E+09 7.04766E+08-9.49578E+08-5.53321E+08-9.90055E+08
 -1       463 4.05828E+09-9.22783E+08 3.84416E+06-9.06606E+08 1.91027E+08-1.14021E+09
 -1       464 7.62833E+09-5.93873E+09-2.32795E+09-1.13644E+09 1.02374E+09 1.09748E+09
 -1       465 1.69040E+09 2.81464E+09 1.37854E+09 1.87185E+08 7.98063E+08-1.76082E+08
 -1       466 8.19332E+09-3.71753E+08-3.51836E+08-9.92968E+08-2.13613E+08 1.43932E+09
 -1       467 4.29081E+09-2.27704E+08 2.33888E+08-1.69988E+08-1.20345E+08 1.01815E+09
 -1       468 1.38111E+08 6.88125E+07-2.63333E+08-2.37172E+08 1.65233E+08-4.86473E+07
 -1       469-3.18406E+09 2.84409E+08-8.29533E+07-4.49714E+08 2.93412E+08-1.43422E+08
 -1       470-6.03219E+09 3.46093E+08-1.05413E+08-4.17176E+08 3.39141E+08-1.89129E+07
 -1       471-8.25109E+09 3.70210E+08-1.24237E+08-3.04210E+08 3.77743E+08 2.24180E+07
 -1       472-9.70175E+09 3.68250E+08-1.54805E+08-1.82515E+08 4.00913E+08 1.50950E+07
 -1       473-1.02847E+10 3.57454E+08-1.68513E+08-6.80563E+07 4.04682E+08-6.27482E+06
 -1       474-9.99059E+09 3.34795E+08-1.65132E+08 3.81976E+07 3.85138E+08-2.60310E+07
 -1       475-8.86673E+09 2.98624E+08-1.46452E+08 1.35016E+08 3.42835E+08-4.19128E+07
 -1       476-7.00656E+09 2.49619E+08-1.15171E+08 2.18694E+08 2.80396E+08-5.45874E+07
 -1       477-4.54318E+09 1.90325E+08-7.37352E+07 2.85142E+08 2.01768E+08-6.40609E+07
 -1       478-1.64264E+09 1.24203E+08-2.49096E+07 3.31166E+08 1.11842E+08-6.98086E+07
 -1       479 1.50567E+09 5.52249E+07 2.81612E+07 3.54913E+08 1.62064E+07-7.13243E+07
 -1       480 4.70059E+09-1.23739E+07 8.20976E+07 3.55969E+08-7.91627E+07-6.83870E+07
 -1       481 7.74182E+09-7.43249E+07 1.33519E+08 3.35345E+08-1.68265E+08-6.10955E+07
 -1       482 1.04426E+10-1.26582E+08 1.79271E+08 2.95433E+08-2.45455E+08-4.98340E+07
 -1       483 1.26414E+10-1.65571E+08 2.16629E+08 2.39878E+08-3.05800E+08-3.52305E+07
 -1       484 1.42127E+10-1.88417E+08 2.43473E+08 1.73379E+08-3.45393E+08-1.81206E+07
 -1       485 1.50747E+10-1.93102E+08 2.58436E+08 1.01427E+08-3.61595E+08 4.71362E+05
 -1       486 1.51956E+10-1.78550E+08 2.61033E+08 3.00419E+07-3.53203E+08 1.93540E+07
 -1       487 1.45957E+10-1.44581E+08 2.51757E+08-3.44358E+07-3.20493E+08 3.73290E+07
 -1       488 1.33471E+10-9.19266E+07 2.31883E+08-8.55991E+07-2.65088E+08 5.38551E+07
 -1       489 1.15681E+10-2.26120E+07 2.02879E+08-1.17975E+08-1.89719E+08 7.02584E+07
 -1       490 9.41441E+09 5.80944E+07 1.64538E+08-1.29700E+08-9.84775E+07 8.89605E+07
 -1       491 7.07598E+09 1.42857E+08 1.19871E+08-1.25961E+08 2.08240E+06 1.06611E+08
 -1       492 4.79928E+09 2.33215E+08 7.51247E+07-1.16385E+08 9.86678E+07 7.61469E+07
 -1       493 2.81983E+09 2.90034E+08 5.37978E+07-3.16371E+07 1.71095E+08-6.21937E+07
 -1       494 1.42273E+09 5.84184E+08 2.08330E+08 1.73842E+08 3.02858E+08-1.66459E+08
 -1       495 3.53121E+09-2.00530E+09-2.24053E+09-3.20097E+08-2.89569E+08 1.46489E+09
 -1       496 3.87406E+09 1.07471E+08 2.09417E+08-1.35355E+09-1.32557E+08 9.56544E+08
 -1       497 1.23872E+09 2.85338E+05 4.62922E+07-1.08278E+09 1.90719E+08-9.46526E+07
 -1       498-2.01863E+09-1.03550E+08 1.50286E+08-7.11600E+08 3.15069E+08-1.93421E+08
 -1       499-4.81173E+09-1.60078E+08 1.08874E+08-5.18567E+08 3.67280E+08-5.66386E+07
 -1       500-6.81851E+09-1.50168E+08 1.49424E+08-3.63293E+08 4.08138E+08-4.70827E+06
 -1       501-8.08210E+09-1.35236E+08 1.80046E+08-1.95142E+08 4.33021E+08 3.05958E+05
 -1       502-8.59394E+09-1.23331E+08 1.94480E+08-1.15632E+07 4.36884E+08-8.51696E+06
 -1       503-8.36074E+09-1.12637E+08 1.89593E+08 1.72558E+08 4.15708E+08-1.60178E+07
 -1       504-7.41835E+09-1.00900E+08 1.68204E+08 3.42780E+08 3.70052E+08-2.06315E+07
 -1       505-5.84264E+09-8.75213E+07 1.32863E+08 4.88219E+08 3.02744E+08-2.36439E+07
 -1       506-3.74660E+09-7.28847E+07 8.62760E+07 6.00565E+08 2.18033E+08-2.56030E+07
 -1       507-1.27263E+09-5.77192E+07 3.15153E+07 6.73625E+08 1.21178E+08-2.63935E+07
 -1       508 1.41687E+09-4.28392E+07-2.78961E+07 7.03515E+08 1.81967E+07-2.57605E+07
 -1       509 4.14973E+09-2.91016E+07-8.81779E+07 6.88970E+08-8.44773E+07-2.35597E+07
 -1       510 6.75465E+09-1.73832E+07-1.45550E+08 6.31505E+08-1.80383E+08-1.97851E+07
 -1       511 9.07202E+09-8.53928E+06-1.96483E+08 5.35347E+08-2.63444E+08-1.45408E+07
 -1       512 1.09640E+10-3.35170E+06-2.37927E+08 4.07192E+08-3.28347E+08-8.01460E+06
 -1       513 1.23235E+10-2.48156E+06-2.67503E+08 2.55805E+08-3.70883E+08-4.68146E+05
 -1       514 1.30810E+10-6.44016E+06-2.83670E+08 9.14813E+07-3.88208E+08 7.74784E+06
 -1       515 1.32096E+10-1.56040E+07-2.85862E+08-7.46218E+07-3.79026E+08 1.61744E+07
 -1       516 1.27270E+10-3.02795E+07-2.74575E+08-2.31296E+08-3.43630E+08 2.43628E+07
 -1       517 1.16953E+10-5.06794E+07-2.51264E+08-3.68044E+08-2.83759E+08 3.24925E+07
 -1       518 1.02203E+10-7.65418E+07-2.17618E+08-4.75092E+08-2.02365E+08 4.25450E+07
 -1       519 8.44665E+09-1.05545E+08-1.74882E+08-5.41420E+08-1.03774E+08 5.74168E+07
 -1       520 6.54848E+09-1.32249E+08-1.20911E+08-5.53030E+08 4.55106E+06 7.43499E+07
 -1       521 4.68810E+09-1.50463E+08-7.33342E+07-4.97934E+08 1.10292E+08 4.58587E+07
 -1       522 2.88101E+09-2.37537E+08-8.61206E+07-4.25182E+08 1.87880E+08-8.92175E+07
 -1       523 1.19276E+09-4.62790E+08-1.74753E+08-4.89369E+08 3.24229E+08-1.84174E+08
 -1       524 1.10347E+08-1.54579E+09-4.03600E+08-7.08067E+08 7.30570E+08-1.88772E+08
 -1       525-2.65754E+09 1.04210E+09-1.68214E+09-4.30919E+06 3.19642E+07-1.24011E+10
 -1       526-1.80298E+09 2.40637E+07 1.46239E+08 2.14820E+07 8.50998E+06-1.30117E+10
 -1       527-5.04807E+08-2.24441E+08 6.02578E+08 1.31384E+07 3.33652E+06-1.22806E+10
 -1       528 1.10809E+09-4.92935E+08 8.07806E+08 1.11314E+07-4.12859E+06-1.06370E+10
 -1       529 2.54222E+09-5.41907E+08 9.84311E+08 7.61959E+06-1.11681E+07-8.50856E+09
 -1       530 3.59394E+09-5.84806E+08 1.08709E+09 5.19259E+06-1.67238E+07-6.05033E+09
 -1       531 4.25832E+09-6.06165E+08 1.14709E+09 2.62217E+06-2.02427E+07-3.39508E+09
 -1       532 4.52336E+09-6.03803E+08 1.15131E+09-7.72655E+04-2.17252E+07-6.68294E+08
 -1       533 4.39677E+09-5.71576E+08 1.09278E+09-2.76901E+06-2.12079E+07 1.98982E+09
 -1       534 3.90103E+09-5.09193E+08 9.72841E+08-5.26028E+06-1.88072E+07 4.43515E+09
 -1       535 3.07668E+09-4.19785E+08 7.98474E+08-7.39119E+06-1.47297E+07 6.53296E+09
 -1       536 1.98240E+09-3.08745E+08 5.80313E+08-9.03308E+06-9.27266E+06 8.16861E+09
 -1       537 6.92127E+08-1.82828E+08 3.31734E+08-1.00910E+07-2.80963E+06 9.25543E+09
 -1       538-7.09659E+08-4.97602E+07 6.80835E+07-1.05057E+07 4.23313E+06 9.74043E+09
 -1       539-2.13327E+09 8.21954E+07-1.94198E+08-1.02577E+07 1.14037E+07 9.60794E+09
 -1       540-3.48946E+09 2.04727E+08-4.38597E+08-9.36881E+06 1.82527E+07 8.88097E+09
 -1       541-4.69505E+09 3.09995E+08-6.49564E+08-7.90132E+06 2.43620E+07 7.62018E+09
 -1       542-5.67818E+09 3.91126E+08-8.13493E+08-5.95419E+06 2.93708E+07 5.92049E+09
 -1       543-6.38296E+09 4.42643E+08-9.19571E+08-3.65716E+06 3.29994E+07 3.90549E+09
 -1       544-6.77311E+09 4.60808E+08-9.60458E+08-1.16255E+06 3.50673E+07 1.72013E+09
 -1       545-6.83446E+09 4.43829E+08-9.32729E+08 1.36459E+06 3.55058E+07-4.77910E+08
 -1       546-6.57625E+09 3.91883E+08-8.37003E+08 3.75741E+06 3.43651E+07-2.52753E+09
 -1       547-6.03123E+09 3.06936E+08-6.77686E+08 5.85633E+06 3.18143E+07-4.27348E+09
 -1       548-5.25417E+09 1.92688E+08-4.62427E+08 7.51135E+06 2.81343E+07-5.57508E+09
 -1       549-4.31811E+09 5.49995E+07-2.02833E+08 8.56484E+06 2.37018E+07-6.31492E+09
 -1       550-3.30830E+09-9.57627E+07 8.26148E+07 8.85326E+06 1.89099E+07-6.40940E+09
 -1       551-2.30624E+09-2.39195E+08 3.73320E+08 8.40069E+06 1.41296E+07-5.81906E+09
 -1       552-1.41226E+09-3.81032E+08 6.21922E+08 7.35728E+06 9.83087E+06-4.56170E+09
 -1       553-8.18495E+08-5.43799E+08 8.35889E+08 8.18638E+06 7.93681E+06-2.62467E+09
 -1       554-5.50695E-02 1.05100E-02 3.13371E-03-1.27119E-02 4.15730E+07-1.29424E+10
 -1       555-7.28759E-02-2.45430E-03 6.80965E-03-7.21206E-03 9.24226E+06-1.37921E+10
 -1       556-6.85775E-02-5.30250E-03 1.06631E-02 8.15560E-04-4.50084E+06-1.31101E+10
 -1       557-6.27533E-02-3.79281E-03 8.31586E-03 2.01134E-03-1.89367E+07-1.13762E+10
 -1       558-6.22580E-02-1.15473E-03 6.44575E-03 1.58182E-03-2.83752E+07-9.08639E+09
 -1       559-6.30433E-02-9.69097E-05 1.07558E-02-8.84296E-04-3.52790E+07-6.45695E+09
 -1       560-6.22586E-02 3.77617E-03 1.15851E-02-9.37654E-04-3.95122E+07-3.62075E+09
 -1       561-5.23626E-02 3.86895E-03 1.32932E-02 6.10576E-03-4.09030E+07-7.11286E+08
 -1       562-3.78745E-02 1.03699E-02 1.48275E-02 6.55504E-03-3.93464E+07 2.12416E+09
 -1       563-3.05628E-02 1.58070E-02 2.67693E-02 4.22080E-03-3.49641E+07 4.73266E+09
 -1       564-3.33248E-02 1.95050E-02 3.33868E-02 2.48414E-03-2.80643E+07 6.97057E+09
 -1       565-3.98323E-02 2.03478E-02 3.81866E-02-3.04411E-03-1.91116E+07 8.71546E+09
 -1       566-5.32975E-02 9.36211E-03 2.35064E-02-1.51894E-02-8.69040E+06 9.87483E+09
 -1       567-6.90271E-02-4.22708E-03-4.52346E-03-1.34816E-02 2.53121E+06 1.03921E+10
 -1       568-7.72750E-02-1.14119E-02-1.52637E-02-8.26422E-05 1.38419E+07 1.02506E+10
 -1       569-7.60781E-02-1.04458E-02-1.35209E-02 3.52184E-03 2.45316E+07 9.47481E+09
 -1       570-6.40538E-02-4.28853E-03-2.19588E-03 1.08465E-02 3.39359E+07 8.12951E+09
 -1       571-4.84688E-02 2.33439E-03 1.10757E-02 8.46790E-03 4.14782E+07 6.31593E+09
 -1       572-3.97550E-02 5.25663E-03 9.19382E-03-2.68949E-03 4.67063E+07 4.16592E+09
 -1       573-3.60182E-02-2.21341E-03-7.49575E-03-5.68537E-03 4.93220E+07 1.83412E+09
 -1       574-2.73422E-02-2.21289E-03-1.39113E-02-3.65509E-04 4.91997E+07-5.11248E+08
 -1       575-1.62515E-02 3.84751E-03-1.10139E-02 1.07387E-02 4.63952E+07-2.69829E+09
 -1       576-6.63954E-03 3.91879E-03-2.03294E-03 5.89577E-03 4.11409E+07-4.56124E+09
 -1       577-5.19922E-03 7.15376E-03 3.07322E-03-4.05862E-03 3.38347E+07-5.94982E+09
 -1       578-1.20801E-02 3.46829E-03 3.31438E-03-4.35497E-04 2.50308E+07-6.73895E+09
 -1       579-1.74275E-02 4.59582E-04 4.27866E-03 8.88282E-04 1.54650E+07-6.84010E+09
 -1       580-1.80292E-02 1.27935E-03-2.83727E-03-2.27450E-03 6.04253E+06-6.21495E+09
 -1       581-1.24428E-02-3.24443E-03-1.19260E-02-3.33208E-03-2.55254E+06-4.86938E+09
 -1       582-1.09720E-02-1.25699E-02-3.31867E-02-3.17789E-03-9.73720E+06-2.77900E+09
 -1       583 2.65754E+09-1.04210E+09 1.68214E+09 4.30919E+06 3.19642E+07-1.24011E+10
 -1       584 1.80298E+09-2.40637E+07-1.46239E+08-2.14820E+07 8.50998E+06-1.30117E+10
 -1       585 5.04807E+08 2.24441E+08-6.02578E+08-1.31384E+07 3.33652E+06-1.22806E+10
 -1       586-1.10809E+09 4.92935E+08-8.07806E+08-1.11314E+07-4.12859E+06-1.06370E+10
 -1       587-2.54222E+09 5.41907E+08-9.84311E+08-7.61959E+06-1.11681E+07-8.50856E+09
 -1       588-3.59394E+09 5.84806E+08-1.08709E+09-5.19259E+06-1.67238E+07-6.05033E+09
 -1       589-4.25832E+09 6.06165E+08-1.14709E+09-2.62217E+06-2.02427E+07-3.39508E+09
 -1       590-4.52336E+09 6.03803E+08-1.15131E+09 7.72655E+04-2.17252E+07-6.68294E+08
 -1       591-4.39677E+09 5.71576E+08-1.09278E+09 2.76901E+06-2.12079E+07 1.98982E+09
 -1       592-3.90103E+09 5.09193E+08-9.72841E+08 5.26028E+06-1.88072E+07 4.43515E+09
 -1       593-3.07668E+09 4.19785E+08-7.98474E+08 7.39119E+06-1.47297E+07 6.53296E+09
 -1       594-1.98240E+09 3.08745E+08-5.80313E+08 9.03308E+06-9.27266E+06 8.16861E+09
 -1       595-6.92127E+08 1.82828E+08-3.31734E+08 1.00910E+07-2.80963E+06 9.25543E+09
 -1       596 7.09659E+08 4.97602E+07-6.80835E+07 1.05057E+07 4.23313E+06 9.74043E+09
 -1       597 2.13327E+09-8.21954E+07 1.94198E+08 1.02577E+07 1.14037E+07 9.60794E+09
 -1       598 3.48946E+09-2.04727E+08 4.38597E+08 9.36881E+06 1.82527E+07 8.88097E+09
 -1       599 4.69505E+09-3.09995E+08 6.49564E+08 7.90132E+06 2.43620E+07 7.62018E+09
 -1       600 5.67818E+09-3.91126E+08 8.13493E+08 5.95419E+06 2.93708E+07 5.92049E+09
 -1       601 6.38296E+09-4.42643E+08 9.19571E+08 3.65716E+06 3.29994E+07 3.90549E+09
 -1       602 6.77311E+09-4.60808E+08 9.60458E+08 1.16255E+06 3.50673E+07 1.72013E+09
 -1       603 6.83446E+09-4.43829E+08 9.32729E+08-1.36459E+06 3.55058E+07-4.77910E+08
 -1       604 6.57625E+09-3.91883E+08 8.37003E+08-3.75741E+06 3.43651E+07-2.52753E+09
 -1       605 6.03123E+09-3.06936E+08 6.77686E+08-5.85633E+06 3.18143E+07-4.27348E+09
 -1       606 5.25417E+09-1.92688E+08 4.62427E+08-7.51135E+06 2.81343E+07-5.57508E+09
 -1       607 4.31811E+09-5.49995E+07 2.02833E+08-8.56484E+06 2.37018E+07-6.31492E+09
 -1       608 3.30830E+09 9.57627E+07-8.26148E+07-8.85326E+06 1.89099E+07-6.40940E+09
 -1       609 2.30624E+09 2.39195E+08-3.73320E+08-8.40069E+06 1.41296E+07-5.81906E+09
 -1       610 1.41226E+09 3.81032E+08-6.21922E+08-7.35728E+06 9.83087E+06-4.56170E+09
 -1       611 8.18495E+08 5.43799E+08-8.35889E+08-8.18638E+06 7.93681E+06-2.62467E+09
 -1       612 2.65754E+09-1.04210E+09 1.68214E+09-4.30919E+06-3.19642E+07-1.24011E+10
 -1       613 1.80298E+09-2.40637E+07-1.46239E+08 2.14820E+07-8.50998E+06-1.30117E+10
 -1       614 5.04807E+08 2.24441E+08-6.02578E+08 1.31384E+07-3.33652E+06-1.22806E+10
 -1       615-1.10809E+09 4.92935E+08-8.07806E+08 1.11314E+07 4.12859E+06-1.06370E+10
 -1       616-2.54222E+09 5.41907E+08-9.84311E+08 7.61959E+06 1.11681E+07-8.50856E+09
 -1       617-3.59394E+09 5.84806E+08-1.08709E+09 5.19259E+06 1.67238E+07-6.05033E+09
 -1       618-4.25832E+09 6.06165E+08-1.14709E+09 2.62217E+06 2.02427E+07-3.39508E+09
 -1       619-4.52336E+09 6.03803E+08-1.15131E+09-7.72655E+04 2.17252E+07-6.68294E+08
 -1       620-4.39677E+09 5.71576E+08-1.09278E+09-2.76901E+06 2.12079E+07 1.98982E+09
 -1       621-3.90103E+09 5.09193E+08-9.72841E+08-5.26028E+06 1.88072E+07 4.43515E+09
 -1       622-3.07668E+09 4.19785E+08-7.98474E+08-7.39119E+06 1.47297E+07 6.53296E+09
 -1       623-1.98240E+09 3.08745E+08-5.80313E+08-9.03308E+06 9.27266E+06 8.16861E+09
 -1       624-6.92127E+08 1.82828E+08-3.31734E+08-1.00910E+07 2.80963E+06 9.25543E+09
 -1       625 7.09659E+08 4.97602E+07-6.80835E+07-1.05057E+07-4.23313E+06 9.74043E+09
 -1       626 2.13327E+09-8.21954E+07 1.94198E+08-1.02577E+07-1.14037E+07 9.60794E+09
 -1       627 3.48946E+09-2.04727E+08 4.38597E+08-9.36881E+06-1.82527E+07 8.88097E+09
 -1       628 4.69505E+09-3.09995E+08 6.49564E+08-7.90132E+06-2.43620E+07 7.62018E+09
 -1       629 5.67818E+09-3.91126E+08 8.13493E+08-5.95419E+06-2.93708E+07 5.92049E+09
 -1       630 6.38296E+09-4.42643E+08 9.19571E+08-3.65716E+06-3.29994E+07 3.90549E+09
 -1       631 6.77311E+09-4.60808E+08 9.60458E+08-1.16255E+06-3.50673E+07 1.72013E+09
 -1       632 6.83446E+09-4.43829E+08 9.32729E+08 1.36459E+06-3.55058E+07-4.77910E+08
 -1       633 6.57625E+09-3.91883E+08 8.37003E+08 3.75741E+06-3.43651E+07-2.52753E+09
 -1       634 6.03123E+09-3.06936E+08 6.77686E+08 5.85633E+06-3.18143E+07-4.27348E+09
 -1       635 5.25417E+09-1.92688E+08 4.62427E+08 7.51135E+06-2.81343E+07-5.57508E+09
 -1       636 4.31811E+09-5.49995E+07 2.02833E+08 8.56484E+06-2.37018E+07-6.31492E+09
 -1       637 3.30830E+09 9.57627E+07-8.26148E+07 8.85326E+06-1.89099E+07-6.40940E+09
 -1       638 2.30624E+09 2.39195E+08-3.73320E+08 8.40069E+06-1.41296E+07-5.81906E+09
 -1       639 1.41226E+09 3.81032E+08-6.21922E+08 7.35728E+06-9.83087E+06-4.56170E+09
 -1       640 8.18495E+08 5.43799E+08-8.35889E+08 8.18638E+06-7.93681E+06-2.62467E+09
 -1       641-6.58189E-02 6.95954E-03 2.04849E-03-1.24250E-02-4.15730E+07-1.29424E+10
 -1       642-6.12528E-02 5.14077E-03 2.05037E-02-7.44380E-03-9.24226E+06-1.37921E+10
 -1       643-4.98690E-02 5.38942E-03 2.75946E-02 7.35340E-04 4.50084E+06-1.31101E+10
 -1       644-4.90301E-02 3.16235E-03 1.77761E-02 2.06899E-03 1.89367E+07-1.13762E+10
 -1       645-5.49307E-02 1.28493E-03 7.25059E-03 1.63160E-03 2.83752E+07-9.08639E+09
 -1       646-5.99730E-02-1.21866E-03 3.94601E-03-8.27886E-04 3.52790E+07-6.45695E+09
 -1       647-6.11050E-02 4.56478E-04-6.34894E-04-9.37906E-04 3.95122E+07-3.62075E+09
 -1       648-6.18762E-02-6.72578E-03-1.25093E-02 6.07802E-03 4.09030E+07-7.11286E+08
 -1       649-6.63470E-02-1.19793E-02-3.11978E-02 6.57745E-03 3.93464E+07 2.12416E+09
 -1       650-7.44514E-02-1.58579E-02-3.48920E-02 4.25469E-03 3.49641E+07 4.73266E+09
 -1       651-8.51849E-02-1.63788E-02-3.43659E-02 2.55536E-03 2.80643E+07 6.97057E+09
 -1       652-8.69621E-02-1.13579E-02-2.03693E-02-3.06762E-03 1.91116E+07 8.71546E+09
 -1       653-7.31162E-02-5.48401E-03-6.16188E-03-1.52351E-02 8.69040E+06 9.87483E+09
 -1       654-4.89925E-02 4.54782E-03 4.69127E-03-1.35129E-02-2.53121E+06 1.03921E+10
 -1       655-3.65274E-02 1.00998E-02 1.56945E-02-1.10185E-04-1.38419E+07 1.02506E+10
 -1       656-3.76770E-02 1.02499E-02 1.70638E-02 3.50926E-03-2.45316E+07 9.47481E+09
 -1       657-4.36961E-02 5.98222E-03 1.16832E-02 1.07964E-02-3.39359E+07 8.12951E+09
 -1       658-5.31171E-02-1.97128E-03 1.37144E-03 8.44840E-03-4.14782E+07 6.31593E+09
 -1       659-5.26238E-02-3.80926E-03-8.15634E-03-2.73416E-03-4.67063E+07 4.16592E+09
 -1       660-3.99409E-02-6.16039E-03-1.67305E-02-5.75545E-03-4.93220E+07 1.83412E+09
 -1       661-2.46090E-02-1.98874E-03-1.58978E-02-3.44477E-04-4.91997E+07-5.11248E+08
 -1       662-2.46324E-02-1.02353E-03-1.88688E-02 1.06767E-02-4.63952E+07-2.69829E+09
 -1       663-3.30005E-02-9.76571E-03-2.12878E-02 5.82720E-03-4.11409E+07-4.56124E+09
 -1       664-3.25452E-02-6.26425E-03-1.43088E-02-4.06674E-03-3.38347E+07-5.94982E+09
 -1       665-3.15468E-02-4.42472E-03-3.52845E-03-4.96097E-04-2.50308E+07-6.73895E+09
 -1       666-3.35103E-02-4.02591E-03 5.41079E-03 9.17299E-04-1.54650E+07-6.84010E+09
 -1       667-2.82567E-02 1.44984E-03 7.95925E-03-2.27261E-03-6.04253E+06-6.21495E+09
 -1       668-1.27596E-02 3.01100E-03 9.24206E-03-3.45834E-03 2.55254E+06-4.86938E+09
 -1       669 7.28786E-04 1.44264E-03 1.81997E-03-3.01373E-03 9.73720E+06-2.77900E+09
 -1       670-2.65754E+09 1.04210E+09-1.68214E+09 4.30919E+06-3.19642E+07-1.24011E+10
 -1       671-1.80298E+09 2.40637E+07 1.46239E+08-2.14820E+07-8.50998E+06-1.30117E+10
 -1       672-5.04807E+08-2.24441E+08 6.02578E+08-1.31384E+07-3.33652E+06-1.22806E+10
 -1       673 1.10809E+09-4.92935E+08 8.07806E+08-1.11314E+07 4.12859E+06-1.06370E+10
 -1       674 2.54222E+09-5.41907E+08 9.84311E+08-7.61959E+06 1.11681E+07-8.50856E+09
 -1       675 3.59394E+09-5.84806E+08 1.08709E+09-5.19259E+06 1.67238E+07-6.05033E+09
 -1       676 4.25832E+09-6.06165E+08 1.14709E+09-2.62217E+06 2.02427E+07-3.39508E+09
 -1       677 4.52336E+09-6.03803E+08 1.15131E+09 7.72655E+04 2.17252E+07-6.68294E+08
 -1       678 4.39677E+09-5.71576E+08 1.09278E+09 2.76901E+06 2.12079E+07 1.98982E+09
 -1       679 3.90103E+09-5.09193E+08 9.72841E+08 5.26028E+06 1.88072E+07 4.43515E+09
 -1       680 3.07668E+09-4.19785E+08 7.98474E+08 7.39119E+06 1.47297E+07 6.53296E+09
 -1       681 1.98240E+09-3.08745E+08 5.80313E+08 9.03308E+06 9.27266E+06 8.16861E+09
 -1       682 6.92127E+08-1.82828E+08 3.31734E+08 1.00910E+07 2.80963E+06 9.25543E+09
 -1       683-7.09659E+08-4.97602E+07 6.80835E+07 1.05057E+07-4.23313E+06 9.74043E+09
 -1       684-2.13327E+09 8.21954E+07-1.94198E+08 1.02577E+07-1.14037E+07 9.60794E+09
 -1       685-3.48946E+09 2.04727E+08-4.38597E+08 9.36881E+06-1.82527E+07 8.88097E+09
 -1       686-4.69505E+09 3.09995E+08-6.49564E+08 7.90132E+06-2.43620E+07 7.62018E+09
 -1       687-5.67818E+09 3.91126E+08-8.13493E+08 5.95419E+06-2.93708E+07 5.92049E+09
 -1       688-6.38296E+09 4.42643E+08-9.19571E+08 3.65716E+06-3.29994E+07 3.90549E+09
 -1       689-6.77311E+09 4.60808E+08-9.60458E+08 1.16255E+06-3.50673E+07 1.72013E+09
 -1       690-6.83446E+09 4.43829E+08-9.32729E+08-1.36459E+06-3.55058E+07-4.77910E+08
 -1       691-6.57625E+09 3.91883E+08-8.37003E+08-3.75741E+06-3.43651E+07-2.52753E+09
 -1       692-6.03123E+09 3.06936E+08-6.77686E+08-5.85633E+06-3.18143E+07-4.27348E+09
 -1       693-5.25417E+09 1.92688E+08-4.62427E+08-7.51135E+06-2.81343E+07-5.57508E+09
 -1       694-4.31811E+09 5.49995E+07-2.02833E+08-8.56484E+06-2.37018E+07-6.31492E+09
 -1       695-3.30830E+09-9.57627E+07 8.26148E+07-8.85326E+06-1.89099E+07-6.40940E+09
 -1       696-2.30624E+09-2.39195E+08 3.73320E+08-8.40069E+06-1.41296E+07-5.81906E+09
 -1       697-1.41226E+09-3.81032E+08 6.21922E+08-7.35728E+06-9.83087E+06-4.56170E+09
 -1       698-8.18495E+08-5.43799E+08 8.35889E+08-8.18638E+06-7.93681E+06-2.62467E+09
 -1       699-7.98329E+09 1.81690E+09 1.47523E+09-1.63754E+09 4.55009E+08 2.79429E+09
 -1       700-4.32837E+09 4.35887E+08-8.19184E+07-9.21021E+08 6.91826E+07 9.50592E+08
 -1       701-4.78104E+08-8.38714E+08-2.79959E+08-1.02619E+09-2.53844E+08 5.57051E+08
 -1       702 2.76432E+09-1.40615E+09-5.58222E+08-1.07721E+09-4.51098E+08 4.49301E+08
 -1       703 5.63428E+09-1.63377E+09-6.32479E+08-9.12732E+08-5.34492E+08 3.65716E+08
 -1       704 7.84464E+09-1.76677E+09-6.67500E+08-6.56531E+08-5.83299E+08 2.75508E+08
 -1       705 9.27086E+09-1.83692E+09-6.80048E+08-3.78412E+08-6.11432E+08 1.49837E+08
 -1       706 9.84782E+09-1.83112E+09-6.70407E+08-1.01337E+08-6.12179E+08 1.17457E+07
 -1       707 9.57418E+09-1.73378E+09-6.31772E+08 1.64374E+08-5.80747E+08-1.23944E+08
 -1       708 8.49589E+09-1.54436E+09-5.63131E+08 4.07979E+08-5.17165E+08-2.48064E+08
 -1       709 6.70235E+09-1.27288E+09-4.67505E+08 6.17465E+08-4.24970E+08-3.53876E+08
 -1       710 4.32223E+09-9.35637E+08-3.50367E+08 7.81803E+08-3.09800E+08-4.35723E+08
 -1       711 1.51646E+09-5.53143E+08-2.18672E+08 8.92559E+08-1.78724E+08-4.89091E+08
 -1       712-1.53136E+09-1.48849E+08-8.03799E+07 9.44660E+08-3.98294E+07-5.11101E+08
 -1       713-4.62630E+09 2.52131E+08 5.59763E+07 9.36714E+08 9.82344E+07-5.00818E+08
 -1       714-7.57436E+09 6.24540E+08 1.81798E+08 8.71099E+08 2.26775E+08-4.59349E+08
 -1       715-1.01947E+10 9.44557E+08 2.88952E+08 7.53848E+08 3.37602E+08-3.89775E+08
 -1       716-1.23310E+10 1.19130E+09 3.70284E+08 5.94322E+08 4.23547E+08-2.96967E+08
 -1       717-1.38618E+10 1.34813E+09 4.20059E+08 4.04670E+08 4.78910E+08-1.87298E+08
 -1       718-1.47082E+10 1.40368E+09 4.34318E+08 1.99125E+08 4.99818E+08-6.82652E+07
 -1       719-1.48396E+10 1.35254E+09 4.11080E+08-6.78872E+06 4.84451E+08 5.19484E+07
 -1       720-1.42759E+10 1.19530E+09 3.50352E+08-1.97053E+08 4.33089E+08 1.65055E+08
 -1       721-1.30875E+10 9.38064E+08 2.53922E+08-3.56002E+08 3.47921E+08 2.63430E+08
 -1       722-1.13910E+10 5.92019E+08 1.25430E+08-4.69745E+08 2.32935E+08 3.40848E+08
 -1       723-9.34142E+09 1.75366E+08-2.88934E+07-5.28993E+08 9.41791E+07 3.92421E+08
 -1       724-7.12148E+09-2.79066E+08-1.94759E+08-5.32668E+08-5.68721E+07 4.07471E+08
 -1       725-4.94004E+09-7.26836E+08-3.61367E+08-4.82153E+08-2.04349E+08 3.74178E+08
 -1       726-3.03360E+09-1.09472E+09-4.97856E+08-3.42245E+08-3.36079E+08 2.59169E+08
 -1       727-1.77174E+09-1.64293E+09-8.07033E+08-2.36927E+07-4.99015E+08 1.36940E+07
 -1       728-4.60386E+09 1.29973E+09 2.33390E+09-1.51901E+09 4.63281E+08 2.82248E+09
 -1       729-4.69073E+09-4.89920E+08-4.68369E+08-2.26534E+09 6.62600E+07 8.67253E+08
 -1       730-7.03429E+08 4.75229E+08 4.66262E+07-1.99360E+09-2.43808E+08 5.03789E+08
 -1       731 2.60726E+09 8.68782E+08 7.71399E+07-1.56253E+09-4.30263E+08 3.98734E+08
 -1       732 5.34675E+09 9.86213E+08 6.72541E+07-1.20632E+09-5.10173E+08 3.26118E+08
 -1       733 7.39567E+09 1.04429E+09 4.11244E+07-8.54307E+08-5.56932E+08 2.47531E+08
 -1       734 8.69430E+09 1.07454E+09 2.04216E+07-4.72061E+08-5.83766E+08 1.34661E+08
 -1       735 9.21360E+09 1.06658E+09 8.63560E+06-7.03589E+07-5.84460E+08 9.83320E+06
 -1       736 8.95064E+09 1.00838E+09 3.81472E+06 3.25410E+08-5.54439E+08-1.12862E+08
 -1       737 7.94358E+09 8.98598E+08 4.06438E+06 6.90173E+08-4.93736E+08-2.25021E+08
 -1       738 6.27347E+09 7.42779E+08 8.52669E+06 1.00260E+09-4.05726E+08-3.20586E+08
 -1       739 4.05948E+09 5.50228E+08 1.65668E+07 1.24531E+09-2.95790E+08-3.94478E+08
 -1       740 1.45121E+09 3.32584E+08 2.74710E+07 1.40526E+09-1.70674E+08-4.42617E+08
 -1       741-1.38074E+09 1.03121E+08 4.03951E+07 1.47435E+09-3.80969E+07-4.62398E+08
 -1       742-4.25532E+09-1.23951E+08 5.44440E+07 1.45012E+09 9.36852E+07-4.52968E+08
 -1       743-6.99233E+09-3.34325E+08 6.87467E+07 1.33592E+09 2.16375E+08-4.15323E+08
 -1       744-9.42374E+09-5.14492E+08 8.25181E+07 1.14081E+09 3.22155E+08-3.52248E+08
 -1       745-1.14044E+10-6.52590E+08 9.51097E+07 8.79010E+08 4.04183E+08-2.68145E+08
 -1       746-1.28212E+10-7.39150E+08 1.06053E+08 5.69099E+08 4.57018E+08-1.68774E+08
 -1       747-1.36010E+10-7.67685E+08 1.15095E+08 2.32872E+08 4.76962E+08-6.09173E+07
 -1       748-1.37148E+10-7.35049E+08 1.22246E+08-1.05998E+08 4.62278E+08 4.80238E+07
 -1       749-1.31808E+10-6.41449E+08 1.27846E+08-4.23481E+08 4.13233E+08 1.50557E+08
 -1       750-1.20638E+10-4.90083E+08 1.32587E+08-6.96668E+08 3.31916E+08 2.39820E+08
 -1       751-1.04722E+10-2.86762E+08 1.37418E+08-9.04620E+08 2.22142E+08 3.10269E+08
 -1       752-8.55485E+09-4.20999E+07 1.41838E+08-1.02764E+09 8.96633E+07 3.57639E+08
 -1       753-6.48753E+09 2.25204E+08 1.46709E+08-1.04613E+09-5.44366E+07 3.71586E+08
 -1       754-4.46867E+09 4.68390E+08 1.38613E+08-9.48056E+08-1.95721E+08 3.40823E+08
 -1       755-2.64804E+09 7.05308E+08 1.57820E+08-7.76125E+08-3.20996E+08 2.30057E+08
 -1       756-9.54021E+08 1.19694E+09 2.90245E+08-6.47580E+08-4.76028E+08-6.23636E+06
 -1       757 4.60386E+09-1.29973E+09-2.33390E+09 1.51901E+09 4.63281E+08 2.82248E+09
 -1       758 4.69073E+09 4.89920E+08 4.68369E+08 2.26534E+09 6.62600E+07 8.67253E+08
 -1       759 7.03429E+08-4.75229E+08-4.66262E+07 1.99360E+09-2.43808E+08 5.03789E+08
 -1       760-2.60726E+09-8.68782E+08-7.71399E+07 1.56253E+09-4.30263E+08 3.98734E+08
 -1       761-5.34675E+09-9.86213E+08-6.72541E+07 1.20632E+09-5.10173E+08 3.26118E+08
 -1       762-7.39567E+09-1.04429E+09-4.11244E+07 8.54307E+08-5.56932E+08 2.47531E+08
 -1       763-8.69430E+09-1.07454E+09-2.04216E+07 4.72061E+08-5.83766E+08 1.34661E+08
 -1       764-9.21360E+09-1.06658E+09-8.63560E+06 7.03589E+07-5.84460E+08 9.83320E+06
 -1       765-8.95064E+09-1.00838E+09-3.81472E+06-3.25410E+08-5.54439E+08-1.12862E+08
 -1       766-7.94358E+09-8.98598E+08-4.06438E+06-6.90173E+08-4.93736E+08-2.25021E+08
 -1       767-6.27347E+09-7.42779E+08-8.52669E+06-1.00260E+09-4.05726E+08-3.20586E+08
 -1       768-4.05948E+09-5.50228E+08-1.65668E+07-1.24531E+09-2.95790E+08-3.94478E+08
 -1       769-1.45121E+09-3.32584E+08-2.74710E+07-1.40526E+09-1.70674E+08-4.42617E+08
 -1       770 1.38074E+09-1.03121E+08-4.03951E+07-1.47435E+09-3.80969E+07-4.62398E+08
 -1       771 4.25532E+09 1.23951E+08-5.44440E+07-1.45012E+09 9.36852E+07-4.52968E+08
 -1       772 6.99233E+09 3.34325E+08-6.87467E+07-1.33592E+09 2.16375E+08-4.15323E+08
 -1       773 9.42374E+09 5.14492E+08-8.25181E+07-1.14081E+09 3.22155E+08-3.52248E+08
 -1       774 1.14044E+10 6.52590E+08-9.51097E+07-8.79010E+08 4.04183E+08-2.68145E+08
 -1       775 1.28212E+10 7.39150E+08-1.06053E+08-5.69099E+08 4.57018E+08-1.68774E+08
 -1       776 1.36010E+10 7.67685E+08-1.15095E+08-2.32872E+08 4.76962E+08-6.09173E+07
 -1       777 1.37148E+10 7.35049E+08-1.22246E+08 1.05998E+08 4.62278E+08 4.80238E+07
 -1       778 1.31808E+10 6.41449E+08-1.27846E+08 4.23481E+08 4.13233E+08 1.50557E+08
 -1       779 1.20638E+10 4.90083E+08-1.32587E+08 6.96668E+08 3.31916E+08 2.39820E+08
 -1       780 1.04722E+10 2.86762E+08-1.37418E+08 9.04620E+08 2.22142E+08 3.10269E+08
 -1       781 8.55485E+09 4.20999E+07-1.41838E+08 1.02764E+09 8.96633E+07 3.57639E+08
 -1       782 6.48753E+09-2.25204E+08-1.46709E+08 1.04613E+09-5.44366E+07 3.71586E+08
 -1       783 4.46867E+09-4.68390E+08-1.38613E+08 9.48056E+08-1.95721E+08 3.40823E+08
 -1       784 2.64804E+09-7.05308E+08-1.57820E+08 7.76125E+08-3.20996E+08 2.30057E+08
 -1       785 9.54021E+08-1.19694E+09-2.90245E+08 6.47580E+08-4.76028E+08-6.23636E+06
 -1       786 7.98329E+09-1.81690E+09-1.47523E+09 1.63754E+09 4.55009E+08 2.79429E+09
 -1       787 4.32837E+09-4.35887E+08 8.19184E+07 9.21021E+08 6.91826E+07 9.50592E+08
 -1       788 4.78104E+08 8.38714E+08 2.79959E+08 1.02619E+09-2.53844E+08 5.57051E+08
 -1       789-2.76432E+09 1.40615E+09 5.58222E+08 1.07721E+09-4.51098E+08 4.49301E+08
 -1       790-5.63428E+09 1.63377E+09 6.32479E+08 9.12732E+08-5.34492E+08 3.65716E+08
 -1       791-7.84464E+09 1.76677E+09 6.67500E+08 6.56531E+08-5.83299E+08 2.75508E+08
 -1       792-9.27086E+09 1.83692E+09 6.80048E+08 3.78412E+08-6.11432E+08 1.49837E+08
 -1       793-9.84782E+09 1.83112E+09 6.70407E+08 1.01337E+08-6.12179E+08 1.17457E+07
 -1       794-9.57418E+09 1.73378E+09 6.31772E+08-1.64374E+08-5.80747E+08-1.23944E+08
 -1       795-8.49589E+09 1.54436E+09 5.63131E+08-4.07979E+08-5.17165E+08-2.48064E+08
 -1       796-6.70235E+09 1.27288E+09 4.67505E+08-6.17465E+08-4.24970E+08-3.53876E+08
 -1       797-4.32223E+09 9.35637E+08 3.50367E+08-7.81803E+08-3.09800E+08-4.35723E+08
 -1       798-1.51646E+09 5.53143E+08 2.18672E+08-8.92559E+08-1.78724E+08-4.89091E+08
 -1       799 1.53136E+09 1.48849E+08 8.03799E+07-9.44660E+08-3.98294E+07-5.11101E+08
 -1       800 4.62630E+09-2.52131E+08-5.59763E+07-9.36714E+08 9.82344E+07-5.00818E+08
 -1       801 7.57436E+09-6.24540E+08-1.81798E+08-8.71099E+08 2.26775E+08-4.59349E+08
 -1       802 1.01947E+10-9.44557E+08-2.88952E+08-7.53848E+08 3.37602E+08-3.89775E+08
 -1       803 1.23310E+10-1.19130E+09-3.70284E+08-5.94322E+08 4.23547E+08-2.96967E+08
 -1       804 1.38618E+10-1.34813E+09-4.20059E+08-4.04670E+08 4.78910E+08-1.87298E+08
 -1       805 1.47082E+10-1.40368E+09-4.34318E+08-1.99125E+08 4.99818E+08-6.82652E+07
 -1       806 1.48396E+10-1.35254E+09-4.11080E+08 6.78872E+06 4.84451E+08 5.19484E+07
 -1       807 1.42759E+10-1.19530E+09-3.50352E+08 1.97053E+08 4.33089E+08 1.65055E+08
 -1       808 1.30875E+10-9.38064E+08-2.53922E+08 3.56002E+08 3.47921E+08 2.63430E+08
 -1       809 1.13910E+10-5.92019E+08-1.25430E+08 4.69745E+08 2.32935E+08 3.40848E+08
 -1       810 9.34142E+09-1.75366E+08 2.88934E+07 5.28993E+08 9.41791E+07 3.92421E+08
 -1       811 7.12148E+09 2.79066E+08 1.94759E+08 5.32668E+08-5.68721E+07 4.07471E+08
 -1       812 4.94004E+09 7.26836E+08 3.61367E+08 4.82153E+08-2.04349E+08 3.74178E+08
 -1       813 3.03360E+09 1.09472E+09 4.97856E+08 3.42245E+08-3.36079E+08 2.59169E+08
 -1       814 1.77174E+09 1.64293E+09 8.07033E+08 2.36927E+07-4.99015E+08 1.36940E+07
 -1       815-7.98329E+09 1.81690E+09 1.47523E+09 1.63754E+09-4.55009E+08 2.79429E+09
 -1       816-4.32837E+09 4.35887E+08-8.19184E+07 9.21021E+08-6.91826E+07 9.50592E+08
 -1       817-4.78104E+08-8.38714E+08-2.79959E+08 1.02619E+09 2.53844E+08 5.57051E+08
 -1       818 2.76432E+09-1.40615E+09-5.58222E+08 1.07721E+09 4.51098E+08 4.49301E+08
 -1       819 5.63428E+09-1.63377E+09-6.32479E+08 9.12732E+08 5.34492E+08 3.65716E+08
 -1       820 7.84464E+09-1.76677E+09-6.67500E+08 6.56531E+08 5.83299E+08 2.75508E+08
 -1       821 9.27086E+09-1.83692E+09-6.80048E+08 3.78412E+08 6.11432E+08 1.49837E+08
 -1       822 9.84782E+09-1.83112E+09-6.70407E+08 1.01337E+08 6.12179E+08 1.17457E+07
 -1       823 9.57418E+09-1.73378E+09-6.31772E+08-1.64374E+08 5.80747E+08-1.23944E+08
 -1       824 8.49589E+09-1.54436E+09-5.63131E+08-4.07979E+08 5.17165E+08-2.48064E+08
 -1       825 6.70235E+09-1.27288E+09-4.67505E+08-6.17465E+08 4.24970E+08-3.53876E+08
 -1       826 4.32223E+09-9.35637E+08-3.50367E+08-7.81803E+08 3.09800E+08-4.35723E+08
 -1       827 1.51646E+09-5.53143E+08-2.18672E+08-8.92559E+08 1.78724E+08-4.89091E+08
 -1       828-1.53136E+09-1.48849E+08-8.03799E+07-9.44660E+08 3.98294E+07-5.11101E+08
 -1       829-4.62630E+09 2.52131E+08 5.59763E+07-9.36714E+08-9.82344E+07-5.00818E+08
 -1       830-7.57436E+09 6.24540E+08 1.81798E+08-8.71099E+08-2.26775E+08-4.59349E+08
 -1       831-1.01947E+10 9.44557E+08 2.88952E+08-7.53848E+08-3.37602E+08-3.89775E+08
 -1       832-1.23310E+10 1.19130E+09 3.70284E+08-5.94322E+08-4.23547E+08-2.96967E+08
 -1       833-1.38618E+10 1.34813E+09 4.20059E+08-4.04670E+08-4.78910E+08-1.87298E+08
 -1       834-1.47082E+10 1.40368E+09 4.34318E+08-1.99125E+08-4.99818E+08-6.82652E+07
 -1       835-1.48396E+10 1.35254E+09 4.11080E+08 6.78872E+06-4.84451E+08 5.19484E+07
 -1       836-1.42759E+10 1.19530E+09 3.50352E+08 1.97053E+08-4.33089E+08 1.65055E+08
 -1       837-1.30875E+10 9.38064E+08 2.53922E+08 3.56002E+08-3.47921E+08 2.63430E+08
 -1       838-1.13910E+10 5.92019E+08 1.25430E+08 4.69745E+08-2.32935E+08 3.40848E+08
 -1       839-9.34142E+09 1.75366E+08-2.88934E+07 5.28993E+08-9.41791E+07 3.92421E+08
 -1       840-7.12148E+09-2.79066E+08-1.94759E+08 5.32668E+08 5.68721E+07 4.07471E+08
 -1       841-4.94004E+09-7.26836E+08-3.61367E+08 4.82153E+08 2.04349E+08 3.74178E+08
 -1       842-3.03360E+09-1.09472E+09-4.97856E+08 3.42245E+08 3.36079E+08 2.59169E+08
 -1       843-1.77174E+09-1.64293E+09-8.07033E+08 2.36927E+07 4.99015E+08 1.36940E+07
 -1       844-4.60386E+09 1.29973E+09 2.33390E+09 1.51901E+09-4.63281E+08 2.82248E+09
 -1       845-4.69073E+09-4.89920E+08-4.68369E+08 2.26534E+09-6.62600E+07 8.67253E+08
 -1       846-7.03429E+08 4.75229E+08 4.66262E+07 1.99360E+09 2.43808E+08 5.03789E+08
 -1       847 2.60726E+09 8.68782E+08 7.71399E+07 1.56253E+09 4.30263E+08 3.98734E+08
 -1       848 5.34675E+09 9.86213E+08 6.72541E+07 1.20632E+09 5.10173E+08 3.26118E+08
 -1       849 7.39567E+09 1.04429E+09 4.11244E+07 8.54307E+08 5.56932E+08 2.47531E+08
 -1       850 8.69430E+09 1.07454E+09 2.04216E+07 4.72061E+08 5.83766E+08 1.34661E+08
 -1       851 9.21360E+09 1.06658E+09 8.63560E+06 7.03589E+07 5.84460E+08 9.83320E+06
 -1       852 8.95064E+09 1.00838E+09 3.81472E+06-3.25410E+08 5.54439E+08-1.12862E+08
 -1       853 7.94358E+09 8.98598E+08 4.06438E+06-6.90173E+08 4.93736E+08-2.25021E+08
 -1       854 6.27347E+09 7.42779E+08 8.52669E+06-1.00260E+09 4.05726E+08-3.20586E+08
 -1       855 4.05948E+09 5.50228E+08 1.65668E+07-1.24531E+09 2.95790E+08-3.94478E+08
 -1       856 1.45121E+09 3.32584E+08 2.74710E+07-1.40526E+09 1.70674E+08-4.42617E+08
 -1       857-1.38074E+09 1.03121E+08 4.03951E+07-1.47435E+09 3.80969E+07-4.62398E+08
 -1       858-4.25532E+09-1.23951E+08 5.44440E+07-1.45012E+09-9.36852E+07-4.52968E+08
 -1       859-6.99233E+09-3.34325E+08 6.87467E+07-1.33592E+09-2.16375E+08-4.15323E+08
 -1       860-9.42374E+09-5.14492E+08 8.25181E+07-1.14081E+09-3.22155E+08-3.52248E+08
 -1       861-1.14044E+10-6.52590E+08 9.51097E+07-8.79010E+08-4.04183E+08-2.68145E+08
 -1       862-1.28212E+10-7.39150E+08 1.06053E+08-5.69099E+08-4.57018E+08-1.68774E+08
 -1       863-1.36010E+10-7.67685E+08 1.15095E+08-2.32872E+08-4.76962E+08-6.09173E+07
 -1       864-1.37148E+10-7.35049E+08 1.22246E+08 1.05998E+08-4.62278E+08 4.80238E+07
 -1       865-1.31808E+10-6.41449E+08 1.27846E+08 4.23481E+08-4.13233E+08 1.50557E+08
 -1       866-1.20638E+10-4.90083E+08 1.32587E+08 6.96668E+08-3.31916E+08 2.39820E+08
 -1       867-1.04722E+10-2.86762E+08 1.37418E+08 9.04620E+08-2.22142E+08 3.10269E+08
 -1       868-8.55485E+09-4.20999E+07 1.41838E+08 1.02764E+09-8.96633E+07 3.57639E+08
 -1       869-6.48753E+09 2.25204E+08 1.46709E+08 1.04613E+09 5.44366E+07 3.71586E+08
 -1       870-4.46867E+09 4.68390E+08 1.38613E+08 9.48056E+08 1.95721E+08 3.40823E+08
 -1       871-2.64804E+09 7.05308E+08 1.57820E+08 7.76125E+08 3.20996E+08 2.30057E+08
 -1       872-9.54021E+08 1.19694E+09 2.90245E+08 6.47580E+08 4.76028E+08-6.23636E+06
 -1       873 1.77174E+09 1.64293E+09 8.07033E+08-2.36927E+07 4.99015E+08 1.36940E+07
 -1       874 3.03360E+09 1.09472E+09 4.97856E+08-3.42245E+08 3.36079E+08 2.59169E+08
 -1       875 4.94004E+09 7.26836E+08 3.61367E+08-4.82153E+08 2.04349E+08 3.74178E+08
 -1       876 7.12148E+09 2.79066E+08 1.94759E+08-5.32668E+08 5.68721E+07 4.07471E+08
 -1       877 9.34142E+09-1.75366E+08 2.88934E+07-5.28993E+08-9.41791E+07 3.92421E+08
 -1       878 1.13910E+10-5.92019E+08-1.25430E+08-4.69745E+08-2.32935E+08 3.40848E+08
 -1       879 1.30875E+10-9.38064E+08-2.53922E+08-3.56002E+08-3.47921E+08 2.63430E+08
 -1       880 1.42759E+10-1.19530E+09-3.50352E+08-1.97053E+08-4.33089E+08 1.65055E+08
 -1       881 1.48396E+10-1.35254E+09-4.11080E+08-6.78872E+06-4.84451E+08 5.19484E+07
 -1       882 1.47082E+10-1.40368E+09-4.34318E+08 1.99125E+08-4.99818E+08-6.82652E+07
 -1       883 1.38618E+10-1.34813E+09-4.20059E+08 4.04670E+08-4.78910E+08-1.87298E+08
 -1       884 1.23310E+10-1.19130E+09-3.70284E+08 5.94322E+08-4.23547E+08-2.96967E+08
 -1       885 1.01947E+10-9.44557E+08-2.88952E+08 7.53848E+08-3.37602E+08-3.89775E+08
 -1       886 7.57436E+09-6.24540E+08-1.81798E+08 8.71099E+08-2.26775E+08-4.59349E+08
 -1       887 4.62630E+09-2.52131E+08-5.59763E+07 9.36714E+08-9.82344E+07-5.00818E+08
 -1       888 1.53136E+09 1.48849E+08 8.03799E+07 9.44660E+08 3.98294E+07-5.11101E+08
 -1       889-1.51646E+09 5.53143E+08 2.18672E+08 8.92559E+08 1.78724E+08-4.89091E+08
 -1       890-4.32223E+09 9.35637E+08 3.50367E+08 7.81803E+08 3.09800E+08-4.35723E+08
 -1       891-6.70235E+09 1.27288E+09 4.67505E+08 6.17465E+08 4.24970E+08-3.53876E+08
 -1       892-8.49589E+09 1.54436E+09 5.63131E+08 4.07979E+08 5.17165E+08-2.48064E+08
 -1       893-9.57418E+09 1.73378E+09 6.31772E+08 1.64374E+08 5.80747E+08-1.23944E+08
 -1       894-9.84782E+09 1.83112E+09 6.70407E+08-1.01337E+08 6.12179E+08 1.17457E+07
 -1       895-9.27086E+09 1.83692E+09 6.80048E+08-3.78412E+08 6.11432E+08 1.49837E+08
 -1       896-7.84464E+09 1.76677E+09 6.67500E+08-6.56531E+08 5.83299E+08 2.75508E+08
 -1       897-5.63428E+09 1.63377E+09 6.32479E+08-9.12732E+08 5.34492E+08 3.65716E+08
 -1       898-2.76432E+09 1.40615E+09 5.58222E+08-1.07721E+09 4.51098E+08 4.49301E+08
 -1       899 4.78104E+08 8.38714E+08 2.79959E+08-1.02619E+09 2.53844E+08 5.57051E+08
 -1       900 4.32837E+09-4.35887E+08 8.19184E+07-9.21021E+08-6.91826E+07 9.50592E+08
 -1       901 7.98329E+09-1.81690E+09-1.47523E+09-1.63754E+09-4.55009E+08 2.79429E+09
 -1       902 4.60386E+09-1.29973E+09-2.33390E+09-1.51901E+09-4.63281E+08 2.82248E+09
 -1       903 4.69073E+09 4.89920E+08 4.68369E+08-2.26534E+09-6.62600E+07 8.67253E+08
 -1       904 7.03429E+08-4.75229E+08-4.66262E+07-1.99360E+09 2.43808E+08 5.03789E+08
 -1       905-2.60726E+09-8.68782E+08-7.71399E+07-1.56253E+09 4.30263E+08 3.98734E+08
 -1       906-5.34675E+09-9.86213E+08-6.72541E+07-1.20632E+09 5.10173E+08 3.26118E+08
 -1       907-7.39567E+09-1.04429E+09-4.11244E+07-8.54307E+08 5.56932E+08 2.47531E+08
 -1       908-8.69430E+09-1.07454E+09-2.04216E+07-4.72061E+08 5.83766E+08 1.34661E+08
 -1       909-9.21360E+09-1.06658E+09-8.63560E+06-7.03589E+07 5.84460E+08 9.83320E+06
 -1       910-8.95064E+09-1.00838E+09-3.81472E+06 3.25410E+08 5.54439E+08-1.12862E+08
 -1       911-7.94358E+09-8.98598E+08-4.06438E+06 6.90173E+08 4.93736E+08-2.25021E+08
 -1       912-6.27347E+09-7.42779E+08-8.52669E+06 1.00260E+09 4.05726E+08-3.20586E+08
 -1       913-4.05948E+09-5.50228E+08-1.65668E+07 1.24531E+09 2.95790E+08-3.94478E+08
 -1       914-1.45121E+09-3.32584E+08-2.74710E+07 1.40526E+09 1.70674E+08-4.42617E+08
 -1       915 1.38074E+09-1.03121E+08-4.03951E+07 1.47435E+09 3.80969E+07-4.62398E+08
 -1       916 4.25532E+09 1.23951E+08-5.44440E+07 1.45012E+09-9.36852E+07-4.52968E+08
 -1       917 6.99233E+09 3.34325E+08-6.87467E+07 1.33592E+09-2.16375E+08-4.15323E+08
 -1       918 9.42374E+09 5.14492E+08-8.25181E+07 1.14081E+09-3.22155E+08-3.52248E+08
 -1       919 1.14044E+10 6.52590E+08-9.51097E+07 8.79010E+08-4.04183E+08-2.68145E+08
 -1       920 1.28212E+10 7.39150E+08-1.06053E+08 5.69099E+08-4.57018E+08-1.68774E+08
 -1       921 1.36010E+10 7.67685E+08-1.15095E+08 2.32872E+08-4.76962E+08-6.09173E+07
 -1       922 1.37148E+10 7.35049E+08-1.22246E+08-1.05998E+08-4.62278E+08 4.80238E+07
 -1       923 1.31808E+10 6.41449E+08-1.27846E+08-4.23481E+08-4.13233E+08 1.50557E+08
 -1       924 1.20638E+10 4.90083E+08-1.32587E+08-6.96668E+08-3.31916E+08 2.39820E+08
 -1       925 1.04722E+10 2.86762E+08-1.37418E+08-9.04620E+08-2.22142E+08 3.10269E+08
 -1       926 8.55485E+09 4.20999E+07-1.41838E+08-1.02764E+09-8.96633E+07 3.57639E+08
 -1       927 6.48753E+09-2.25204E+08-1.46709E+08-1.04613E+09 5.44366E+07 3.71586E+08
 -1       928 4.46867E+09-4.68390E+08-1.38613E+08-9.48056E+08 1.95721E+08 3.40823E+08
 -1       929 2.64804E+09-7.05308E+08-1.57820E+08-7.76125E+08 3.20996E+08 2.30057E+08
 -1       930 9.54021E+08-1.19694E+09-2.90245E+08-6.47580E+08 4.76028E+08-6.23636E+06
 -3
    1PSTEP                        47           1           1          
    1PGM                1.000000E+00                                  
    1PGK                1.358437E+07                                  
    1PHID                         -1                                  
    1PSUBC                         0                                  
    1PMODE                        12                                  
  100CL  112 586.5970834         930                     2   12MODAL      1
 -4  FORC        4    1
 -5  F1          1    2    1    0
 -5  F2          1    2    2    0
 -5  F3          1    2    3    0
 -5  ALL         1    2    0    0    1ALL
 -1         1-2.52302E+06 5.39242E+06-1.40874E+06
 -1         2-2.52302E+06-5.39242E+06-1.40874E+06
 -1         3-7.64904E+04 7.76181E+00-2.16776E+05
 -1         4-7.64904E+04-7.76181E+00-2.16776E+05
 -1         5 2.52302E+06-5.39242E+06-1.40874E+06
 -1         6 2.52302E+06 5.39242E+06-1.40874E+06
 -1         7 7.64904E+04-7.76181E+00-2.16776E+05
 -1         8 7.64904E+04 7.76181E+00-2.16776E+05
 -1         9 9.82138E+06 3.89458E+05 5.35745E+06
 -1        10-4.04991E+04 1.53923E+02-1.01193E+05
 -1        11 5.81909E+06 1.26799E+06 3.04460E+06
 -1        12-2.57494E+06 9.55422E+05-2.74524E+06
 -1        13-3.35244E+04 2.64472E+02-8.80406E+04
 -1        14-3.25873E+04-8.50594E+01-8.80374E+04
 -1        15-9.82138E+06-3.89458E+05 5.35745E+06
 -1        16 4.04991E+04-1.53923E+02-1.01193E+05
 -1        17 2.57494E+06-9.55422E+05-2.74524E+06
 -1        18-5.81909E+06-1.26799E+06 3.04460E+06
 -1        19 3.25873E+04 8.50594E+01-8.80374E+04
 -1        20 3.35244E+04-2.64472E+02-8.80406E+04
 -1        21-2.57494E+06-9.55422E+05-2.74524E+06
 -1        22 5.81909E+06-1.26799E+06 3.04460E+06
 -1        23-3.35244E+04-2.64472E+02-8.80406E+04
 -1        24-3.25873E+04 8.50594E+01-8.80374E+04
 -1        25 9.82138E+06-3.89458E+05 5.35745E+06
 -1        26-4.04991E+04-1.53923E+02-1.01193E+05
 -1        27-9.82138E+06 3.89458E+05 5.35745E+06
 -1        28-5.81909E+06 1.26799E+06 3.04460E+06
 -1        29 2.57494E+06 9.55422E+05-2.74524E+06
 -1        30 4.04991E+04 1.53923E+02-1.01193E+05
 -1        31 3.35244E+04 2.64472E+02-8.80406E+04
 -1        32 3.25873E+04-8.50594E+01-8.80374E+04
 -1        33-1.39559E+04 3.79876E+02-6.23597E+04
 -1        34-2.44579E+04 2.18005E+02-1.40604E+05
 -1        35-2.85900E+04 5.67277E+00-2.21342E+05
 -1        36-2.65022E+04-1.54370E+02-2.95138E+05
 -1        37-1.90670E+04-2.87178E+02-3.56286E+05
 -1        38-7.35202E+03-3.88606E+02-4.00275E+05
 -1        39 7.37823E+03-4.52899E+02-4.23776E+05
 -1        40 2.37438E+04-4.77843E+02-4.24739E+05
 -1        41 4.03272E+04-4.63302E+02-4.02586E+05
 -1        42 5.57462E+04-4.11262E+02-3.58286E+05
 -1        43 6.87286E+04-3.25848E+02-2.94295E+05
 -1        44 7.81842E+04-2.13088E+02-2.14390E+05
 -1        45 8.32658E+04-8.05463E+01-1.23417E+05
 -1        46 8.34162E+04 6.31427E+01-2.69847E+04
 -1        47 7.83965E+04 2.08808E+02 6.88928E+04
 -1        48 6.82949E+04 3.47314E+02 1.58176E+05
 -1        49 5.35153E+04 4.70139E+02 2.35178E+05
 -1        50 3.47453E+04 5.69914E+02 2.94922E+05
 -1        51 1.29067E+04 6.40896E+02 3.33449E+05
 -1        52-1.09098E+04 6.79341E+02 3.48064E+05
 -1        53-3.55206E+04 6.83766E+02 3.37492E+05
 -1        54-5.97321E+04 6.55060E+02 3.01957E+05
 -1        55-8.24257E+04 5.96461E+02 2.43149E+05
 -1        56-1.02639E+05 5.13410E+02 1.64106E+05
 -1        57-1.19640E+05 4.13257E+02 6.90160E+04
 -1        58-1.32987E+05 3.04639E+02-3.70651E+04
 -1        59-1.42565E+05 1.97277E+02-1.48587E+05
 -1        60-1.48623E+05 1.06031E+02-2.59992E+05
 -1        61-1.51835E+05 3.97856E+01-3.66449E+05
 -1        62-1.39559E+04-3.79876E+02-6.23597E+04
 -1        63-2.44579E+04-2.18005E+02-1.40604E+05
 -1        64-2.85900E+04-5.67277E+00-2.21342E+05
 -1        65-2.65022E+04 1.54370E+02-2.95138E+05
 -1        66-1.90670E+04 2.87178E+02-3.56286E+05
 -1        67-7.35202E+03 3.88606E+02-4.00275E+05
 -1        68 7.37823E+03 4.52899E+02-4.23776E+05
 -1        69 2.37438E+04 4.77843E+02-4.24739E+05
 -1        70 4.03272E+04 4.63302E+02-4.02586E+05
 -1        71 5.57462E+04 4.11262E+02-3.58286E+05
 -1        72 6.87286E+04 3.25848E+02-2.94295E+05
 -1        73 7.81842E+04 2.13088E+02-2.14390E+05
 -1        74 8.32658E+04 8.05463E+01-1.23417E+05
 -1        75 8.34162E+04-6.31427E+01-2.69847E+04
 -1        76 7.83965E+04-2.08808E+02 6.88928E+04
 -1        77 6.82949E+04-3.47314E+02 1.58176E+05
 -1        78 5.35153E+04-4.70139E+02 2.35178E+05
 -1        79 3.47453E+04-5.69914E+02 2.94922E+05
 -1        80 1.29067E+04-6.40896E+02 3.33449E+05
 -1        81-1.09098E+04-6.79341E+02 3.48064E+05
 -1        82-3.55206E+04-6.83766E+02 3.37492E+05
 -1        83-5.97321E+04-6.55060E+02 3.01957E+05
 -1        84-8.24257E+04-5.96461E+02 2.43149E+05
 -1        85-1.02639E+05-5.13410E+02 1.64106E+05
 -1        86-1.19640E+05-4.13257E+02 6.90160E+04
 -1        87-1.32987E+05-3.04639E+02-3.70651E+04
 -1        88-1.42565E+05-1.97277E+02-1.48587E+05
 -1        89-1.48623E+05-1.06031E+02-2.59992E+05
 -1        90-1.51835E+05-3.97856E+01-3.66449E+05
 -1        91 1.76267E+06 5.02366E+06 4.13593E+06
 -1        92-7.39929E-05 7.61598E-05 4.46370E+06
 -1        93-1.76267E+06-5.02366E+06 4.13593E+06
 -1        94-1.76267E+06 5.02366E+06 4.13593E+06
 -1        95 1.21066E-04-8.17718E-05 4.46370E+06
 -1        96 1.76267E+06-5.02366E+06 4.13593E+06
 -1        97 1.39559E+04 3.79876E+02-6.23597E+04
 -1        98 2.44579E+04 2.18005E+02-1.40604E+05
 -1        99 2.85900E+04 5.67277E+00-2.21342E+05
 -1       100 2.65022E+04-1.54370E+02-2.95138E+05
 -1       101 1.90670E+04-2.87178E+02-3.56286E+05
 -1       102 7.35202E+03-3.88606E+02-4.00275E+05
 -1       103-7.37823E+03-4.52899E+02-4.23776E+05
 -1       104-2.37438E+04-4.77843E+02-4.24739E+05
 -1       105-4.03272E+04-4.63302E+02-4.02586E+05
 -1       106-5.57462E+04-4.11262E+02-3.58286E+05
 -1       107-6.87286E+04-3.25848E+02-2.94295E+05
 -1       108-7.81842E+04-2.13088E+02-2.14390E+05
 -1       109-8.32658E+04-8.05463E+01-1.23417E+05
 -1       110-8.34162E+04 6.31427E+01-2.69847E+04
 -1       111-7.83965E+04 2.08808E+02 6.88928E+04
 -1       112-6.82949E+04 3.47314E+02 1.58176E+05
 -1       113-5.35153E+04 4.70139E+02 2.35178E+05
 -1       114-3.47453E+04 5.69914E+02 2.94922E+05
 -1       115-1.29067E+04 6.40896E+02 3.33449E+05
 -1       116 1.09098E+04 6.79341E+02 3.48064E+05
 -1       117 3.55206E+04 6.83766E+02 3.37492E+05
 -1       118 5.97321E+04 6.55060E+02 3.01957E+05
 -1       119 8.24257E+04 5.96461E+02 2.43149E+05
 -1       120 1.02639E+05 5.13410E+02 1.64106E+05
 -1       121 1.19640E+05 4.13257E+02 6.90160E+04
 -1       122 1.32987E+05 3.04639E+02-3.70651E+04
 -1       123 1.42565E+05 1.97277E+02-1.48587E+05
 -1       124 1.48623E+05 1.06031E+02-2.59992E+05
 -1       125 1.51835E+05 3.97856E+01-3.66449E+05
 -1       126-4.42548E+04 6.90436E+00-2.29907E+05
 -1       127-3.17901E-07-6.32155E-06-2.29029E+05
 -1       128 4.42548E+04-6.90438E+00-2.29907E+05
 -1       129 1.39559E+04-3.79876E+02-6.23597E+04
 -1       130 2.44579E+04-2.18005E+02-1.40604E+05
 -1       131 2.85900E+04-5.67276E+00-2.21342E+05
 -1       132 2.65022E+04 1.54370E+02-2.95138E+05
 -1       133 1.90670E+04 2.87178E+02-3.56286E+05
 -1       134 7.35202E+03 3.88606E+02-4.00275E+05
 -1       135-7.37823E+03 4.52899E+02-4.23776E+05
 -1       136-2.37438E+04 4.77843E+02-4.24739E+05
 -1       137-4.03272E+04 4.63302E+02-4.02586E+05
 -1       138-5.57462E+04 4.11262E+02-3.58286E+05
 -1       139-6.87286E+04 3.25848E+02-2.94295E+05
 -1       140-7.81842E+04 2.13088E+02-2.14390E+05
 -1       141-8.32658E+04 8.05463E+01-1.23417E+05
 -1       142-8.34162E+04-6.31427E+01-2.69847E+04
 -1       143-7.83965E+04-2.08808E+02 6.88928E+04
 -1       144-6.82949E+04-3.47314E+02 1.58176E+05
 -1       145-5.35153E+04-4.70139E+02 2.35178E+05
 -1       146-3.47453E+04-5.69914E+02 2.94922E+05
 -1       147-1.29067E+04-6.40896E+02 3.33449E+05
 -1       148 1.09098E+04-6.79341E+02 3.48064E+05
 -1       149 3.55206E+04-6.83766E+02 3.37492E+05
 -1       150 5.97321E+04-6.55060E+02 3.01957E+05
 -1       151 8.24257E+04-5.96461E+02 2.43149E+05
 -1       152 1.02639E+05-5.13410E+02 1.64106E+05
 -1       153 1.19640E+05-4.13257E+02 6.90160E+04
 -1       154 1.32987E+05-3.04639E+02-3.70651E+04
 -1       155 1.42565E+05-1.97277E+02-1.48587E+05
 -1       156 1.48623E+05-1.06031E+02-2.59992E+05
 -1       157 1.51835E+05-3.97856E+01-3.66449E+05
 -1       158 4.42548E+04 6.90437E+00-2.29907E+05
 -1       159-2.40660E-07 1.28774E-05-2.29029E+05
 -1       160-4.42548E+04-6.90436E+00-2.29907E+05
 -1       161-9.07387E+03-4.80325E+02-2.85643E+04
 -1       162-1.49219E+04-2.45983E+02-6.53239E+04
 -1       163-1.68995E+04 9.85700E+01-1.03178E+05
 -1       164-1.55109E+04 3.31647E+02-1.37551E+05
 -1       165-1.12642E+04 4.92869E+02-1.65932E+05
 -1       166-4.72917E+03 6.08129E+02-1.86323E+05
 -1       167 3.42138E+03 6.79352E+02-1.97207E+05
 -1       168 1.24460E+04 7.02570E+02-1.97628E+05
 -1       169 2.15769E+04 6.75682E+02-1.87310E+05
 -1       170 3.00632E+04 6.00490E+02-1.66700E+05
 -1       171 3.72140E+04 4.82272E+02-1.36941E+05
 -1       172 4.24373E+04 3.28991E+02-9.97859E+04
 -1       173 4.52736E+04 1.50649E+02-5.74896E+04
 -1       174 4.54211E+04-4.13257E+01-1.26587E+04
 -1       175 4.27515E+04-2.34770E+02 3.19112E+04
 -1       176 3.73145E+04-4.17540E+02 7.34124E+04
 -1       177 2.93321E+04-5.78269E+02 1.09201E+05
 -1       178 1.91807E+04-7.07092E+02 1.36964E+05
 -1       179 7.36446E+03-7.96273E+02 1.54861E+05
 -1       180-5.52030E+03-8.40703E+02 1.61636E+05
 -1       181-1.88263E+04-8.38232E+02 1.56700E+05
 -1       182-3.19007E+04-7.89795E+02 1.40153E+05
 -1       183-4.41309E+04-6.99322E+02 1.12781E+05
 -1       184-5.49887E+04-5.73548E+02 7.59947E+04
 -1       185-6.40705E+04-4.22022E+02 3.17407E+04
 -1       186-7.11294E+04-2.57472E+02-1.76266E+04
 -1       187-7.61001E+04-9.58105E+01-6.95166E+04
 -1       188-7.91212E+04 4.62175E+01-1.21345E+05
 -1       189-8.05745E+04 1.79659E+02-1.70954E+05
 -1       190 1.35218E+07 6.52906E+05 6.99522E+06
 -1       191-7.77774E+06 5.50935E+05-5.57105E+06
 -1       192-6.72147E+04 4.68552E+02-1.72017E+05
 -1       193-6.08578E+03-1.46260E+03-2.03058E+04
 -1       194-1.04438E+04-8.77012E+02-5.31845E+04
 -1       195-1.21571E+04 1.33936E+02-8.86335E+04
 -1       196-1.12444E+04 8.75393E+02-1.19512E+05
 -1       197-8.03404E+03 1.42895E+03-1.44172E+05
 -1       198-2.97810E+03 1.83690E+03-1.61732E+05
 -1       199 3.38899E+03 2.09291E+03-1.71117E+05
 -1       200 1.04730E+04 2.18537E+03-1.71477E+05
 -1       201 1.76568E+04 2.11011E+03-1.62531E+05
 -1       202 2.43377E+04 1.87425E+03-1.44651E+05
 -1       203 2.99612E+04 1.49541E+03-1.18827E+05
 -1       204 3.40525E+04 9.99721E+02-8.65836E+04
 -1       205 3.62426E+04 4.20008E+02-4.98778E+04
 -1       206 3.62885E+04-2.06271E+02-1.09721E+04
 -1       207 3.40858E+04-8.39287E+02 2.77073E+04
 -1       208 2.96724E+04-1.43932E+03 6.37240E+04
 -1       209 2.32235E+04-1.96926E+03 9.47839E+04
 -1       210 1.50374E+04-2.39696E+03 1.18879E+05
 -1       211 5.51467E+03-2.69728E+03 1.34411E+05
 -1       212-4.87107E+03-2.85374E+03 1.40294E+05
 -1       213-1.56057E+04-2.85961E+03 1.36013E+05
 -1       214-2.61709E+04-2.71834E+03 1.21657E+05
 -1       215-3.60812E+04-2.44339E+03 9.79036E+04
 -1       216-4.49189E+04-2.05758E+03 6.59746E+04
 -1       217-5.23657E+04-1.59252E+03 2.75637E+04
 -1       218-5.82288E+04-1.08829E+03-1.52427E+04
 -1       219-6.24625E+04-5.93470E+02-6.01017E+04
 -1       220-6.51784E+04-1.60429E+02-1.04793E+05
 -1       221-6.66122E+04 2.25642E+02-1.48016E+05
 -1       222-4.89526E+03-1.14936E+03-2.02361E+04
 -1       223-8.82151E+03-7.56792E+02-5.31447E+04
 -1       224-1.06424E+04-1.18890E+02-8.86269E+04
 -1       225-9.98925E+03 4.06275E+02-1.19539E+05
 -1       226-7.07662E+03 8.62786E+02-1.44226E+05
 -1       227-2.36407E+03 1.21565E+03-1.61808E+05
 -1       228 3.61278E+03 1.44109E+03-1.71206E+05
 -1       229 1.02798E+04 1.53245E+03-1.71572E+05
 -1       230 1.70486E+04 1.49053E+03-1.62623E+05
 -1       231 2.33456E+04 1.32253E+03-1.44732E+05
 -1       232 2.86425E+04 1.04235E+03-1.18891E+05
 -1       233 3.24863E+04 6.70087E+02-8.66251E+04
 -1       234 3.45248E+04 2.30962E+02-4.98925E+04
 -1       235 3.45256E+04-2.46254E+02-1.09577E+04
 -1       236 3.23884E+04-7.31025E+02 2.77513E+04
 -1       237 2.81479E+04-1.19296E+03 6.37962E+04
 -1       238 2.19696E+04-1.60375E+03 9.48811E+04
 -1       239 1.41362E+04-1.93892E+03 1.18996E+05
 -1       240 5.02699E+03-2.17947E+03 1.34544E+05
 -1       241-4.90881E+03-2.31304E+03 1.40434E+05
 -1       242-1.51839E+04-2.33486E+03 1.36154E+05
 -1       243-2.53071E+04-2.24808E+03 1.21793E+05
 -1       244-3.48184E+04-2.06380E+03 9.80282E+04
 -1       245-4.33234E+04-1.80048E+03 6.60829E+04
 -1       246-5.05231E+04-1.48280E+03 2.76524E+04
 -1       247-5.62402E+04-1.13892E+03-1.51753E+04
 -1       248-6.04348E+04-7.99491E+02-6.00549E+04
 -1       249-6.31975E+04-5.11287E+02-1.04765E+05
 -1       250-6.47040E+04-3.06522E+02-1.48003E+05
 -1       251-6.54136E+04-9.27816E+01-1.72008E+05
 -1       252 8.05745E+04-1.79659E+02-1.70954E+05
 -1       253 7.91212E+04-4.62175E+01-1.21345E+05
 -1       254 7.61001E+04 9.58105E+01-6.95166E+04
 -1       255 7.11294E+04 2.57472E+02-1.76266E+04
 -1       256 6.40705E+04 4.22022E+02 3.17407E+04
 -1       257 5.49887E+04 5.73548E+02 7.59947E+04
 -1       258 4.41309E+04 6.99322E+02 1.12781E+05
 -1       259 3.19007E+04 7.89795E+02 1.40153E+05
 -1       260 1.88263E+04 8.38232E+02 1.56700E+05
 -1       261 5.52030E+03 8.40703E+02 1.61636E+05
 -1       262-7.36446E+03 7.96273E+02 1.54861E+05
 -1       263-1.91807E+04 7.07092E+02 1.36964E+05
 -1       264-2.93321E+04 5.78269E+02 1.09201E+05
 -1       265-3.73145E+04 4.17540E+02 7.34124E+04
 -1       266-4.27515E+04 2.34770E+02 3.19112E+04
 -1       267-4.54211E+04 4.13257E+01-1.26587E+04
 -1       268-4.52736E+04-1.50649E+02-5.74896E+04
 -1       269-4.24373E+04-3.28991E+02-9.97859E+04
 -1       270-3.72140E+04-4.82272E+02-1.36941E+05
 -1       271-3.00632E+04-6.00490E+02-1.66700E+05
 -1       272-2.15769E+04-6.75682E+02-1.87310E+05
 -1       273-1.24460E+04-7.02570E+02-1.97628E+05
 -1       274-3.42138E+03-6.79352E+02-1.97207E+05
 -1       275 4.72917E+03-6.08129E+02-1.86323E+05
 -1       276 1.12642E+04-4.92869E+02-1.65932E+05
 -1       277 1.55109E+04-3.31647E+02-1.37551E+05
 -1       278 1.68995E+04-9.85700E+01-1.03178E+05
 -1       279 1.49219E+04 2.45983E+02-6.53239E+04
 -1       280 9.07387E+03 4.80325E+02-2.85643E+04
 -1       281 7.77774E+06-5.50935E+05-5.57105E+06
 -1       282-1.35218E+07-6.52906E+05 6.99522E+06
 -1       283 4.89526E+03 1.14936E+03-2.02361E+04
 -1       284 8.82151E+03 7.56792E+02-5.31447E+04
 -1       285 1.06424E+04 1.18890E+02-8.86269E+04
 -1       286 9.98925E+03-4.06275E+02-1.19539E+05
 -1       287 7.07662E+03-8.62786E+02-1.44226E+05
 -1       288 2.36407E+03-1.21565E+03-1.61808E+05
 -1       289-3.61278E+03-1.44109E+03-1.71206E+05
 -1       290-1.02798E+04-1.53245E+03-1.71572E+05
 -1       291-1.70486E+04-1.49053E+03-1.62623E+05
 -1       292-2.33456E+04-1.32253E+03-1.44732E+05
 -1       293-2.86425E+04-1.04235E+03-1.18891E+05
 -1       294-3.24863E+04-6.70087E+02-8.66251E+04
 -1       295-3.45248E+04-2.30962E+02-4.98925E+04
 -1       296-3.45256E+04 2.46254E+02-1.09577E+04
 -1       297-3.23884E+04 7.31025E+02 2.77513E+04
 -1       298-2.81479E+04 1.19296E+03 6.37962E+04
 -1       299-2.19696E+04 1.60375E+03 9.48811E+04
 -1       300-1.41362E+04 1.93892E+03 1.18996E+05
 -1       301-5.02699E+03 2.17947E+03 1.34544E+05
 -1       302 4.90881E+03 2.31304E+03 1.40434E+05
 -1       303 1.51839E+04 2.33486E+03 1.36154E+05
 -1       304 2.53071E+04 2.24808E+03 1.21793E+05
 -1       305 3.48184E+04 2.06380E+03 9.80282E+04
 -1       306 4.33234E+04 1.80048E+03 6.60829E+04
 -1       307 5.05231E+04 1.48280E+03 2.76524E+04
 -1       308 5.62402E+04 1.13892E+03-1.51753E+04
 -1       309 6.04348E+04 7.99491E+02-6.00549E+04
 -1       310 6.31975E+04 5.11287E+02-1.04765E+05
 -1       311 6.47040E+04 3.06522E+02-1.48003E+05
 -1       312 6.54136E+04 9.27816E+01-1.72008E+05
 -1       313 6.08578E+03 1.46260E+03-2.03058E+04
 -1       314 1.04438E+04 8.77012E+02-5.31845E+04
 -1       315 1.21571E+04-1.33936E+02-8.86335E+04
 -1       316 1.12444E+04-8.75393E+02-1.19512E+05
 -1       317 8.03404E+03-1.42895E+03-1.44172E+05
 -1       318 2.97810E+03-1.83690E+03-1.61732E+05
 -1       319-3.38899E+03-2.09291E+03-1.71117E+05
 -1       320-1.04730E+04-2.18537E+03-1.71477E+05
 -1       321-1.76568E+04-2.11011E+03-1.62531E+05
 -1       322-2.43377E+04-1.87425E+03-1.44651E+05
 -1       323-2.99612E+04-1.49541E+03-1.18827E+05
 -1       324-3.40525E+04-9.99721E+02-8.65836E+04
 -1       325-3.62426E+04-4.20008E+02-4.98778E+04
 -1       326-3.62885E+04 2.06271E+02-1.09721E+04
 -1       327-3.40858E+04 8.39287E+02 2.77073E+04
 -1       328-2.96724E+04 1.43932E+03 6.37240E+04
 -1       329-2.32235E+04 1.96926E+03 9.47839E+04
 -1       330-1.50374E+04 2.39696E+03 1.18879E+05
 -1       331-5.51467E+03 2.69728E+03 1.34411E+05
 -1       332 4.87107E+03 2.85374E+03 1.40294E+05
 -1       333 1.56057E+04 2.85961E+03 1.36013E+05
 -1       334 2.61709E+04 2.71834E+03 1.21657E+05
 -1       335 3.60812E+04 2.44339E+03 9.79036E+04
 -1       336 4.49189E+04 2.05758E+03 6.59746E+04
 -1       337 5.23657E+04 1.59252E+03 2.75637E+04
 -1       338 5.82288E+04 1.08829E+03-1.52427E+04
 -1       339 6.24625E+04 5.93470E+02-6.01017E+04
 -1       340 6.51784E+04 1.60429E+02-1.04793E+05
 -1       341 6.66122E+04-2.25642E+02-1.48016E+05
 -1       342 6.72147E+04-4.68552E+02-1.72017E+05
 -1       343-6.08578E+03 1.46260E+03-2.03058E+04
 -1       344-1.04438E+04 8.77012E+02-5.31845E+04
 -1       345-1.21571E+04-1.33936E+02-8.86335E+04
 -1       346-1.12444E+04-8.75393E+02-1.19512E+05
 -1       347-8.03404E+03-1.42895E+03-1.44172E+05
 -1       348-2.97810E+03-1.83690E+03-1.61732E+05
 -1       349 3.38899E+03-2.09291E+03-1.71117E+05
 -1       350 1.04730E+04-2.18537E+03-1.71477E+05
 -1       351 1.76568E+04-2.11011E+03-1.62531E+05
 -1       352 2.43377E+04-1.87425E+03-1.44651E+05
 -1       353 2.99612E+04-1.49541E+03-1.18827E+05
 -1       354 3.40525E+04-9.99721E+02-8.65836E+04
 -1       355 3.62426E+04-4.20008E+02-4.98778E+04
 -1       356 3.62885E+04 2.06271E+02-1.09721E+04
 -1       357 3.40858E+04 8.39287E+02 2.77073E+04
 -1       358 2.96724E+04 1.43932E+03 6.37240E+04
 -1       359 2.32235E+04 1.96926E+03 9.47839E+04
 -1       360 1.50374E+04 2.39696E+03 1.18879E+05
 -1       361 5.51467E+03 2.69728E+03 1.34411E+05
 -1       362-4.87107E+03 2.85374E+03 1.40294E+05
 -1       363-1.56057E+04 2.85961E+03 1.36013E+05
 -1       364-2.61709E+04 2.71834E+03 1.21657E+05
 -1       365-3.60812E+04 2.44339E+03 9.79036E+04
 -1       366-4.49189E+04 2.05758E+03 6.59746E+04
 -1       367-5.23657E+04 1.59252E+03 2.75637E+04
 -1       368-5.82288E+04 1.08829E+03-1.52427E+04
 -1       369-6.24625E+04 5.93470E+02-6.01017E+04
 -1       370-6.51784E+04 1.60429E+02-1.04793E+05
 -1       371-6.66122E+04-2.25642E+02-1.48016E+05
 -1       372-4.89526E+03 1.14936E+03-2.02361E+04
 -1       373-8.82151E+03 7.56792E+02-5.31447E+04
 -1       374-1.06424E+04 1.18890E+02-8.86269E+04
 -1       375-9.98925E+03-4.06275E+02-1.19539E+05
 -1       376-7.07662E+03-8.62786E+02-1.44226E+05
 -1       377-2.36407E+03-1.21565E+03-1.61808E+05
 -1       378 3.61278E+03-1.44109E+03-1.71206E+05
 -1       379 1.02798E+04-1.53245E+03-1.71572E+05
 -1       380 1.70486E+04-1.49053E+03-1.62623E+05
 -1       381 2.33456E+04-1.32253E+03-1.44732E+05
 -1       382 2.86425E+04-1.04235E+03-1.18891E+05
 -1       383 3.24863E+04-6.70087E+02-8.66251E+04
 -1       384 3.45248E+04-2.30962E+02-4.98925E+04
 -1       385 3.45256E+04 2.46254E+02-1.09577E+04
 -1       386 3.23884E+04 7.31025E+02 2.77513E+04
 -1       387 2.81479E+04 1.19296E+03 6.37962E+04
 -1       388 2.19696E+04 1.60375E+03 9.48811E+04
 -1       389 1.41362E+04 1.93892E+03 1.18996E+05
 -1       390 5.02699E+03 2.17947E+03 1.34544E+05
 -1       391-4.90881E+03 2.31304E+03 1.40434E+05
 -1       392-1.51839E+04 2.33486E+03 1.36154E+05
 -1       393-2.53071E+04 2.24808E+03 1.21793E+05
 -1       394-3.48184E+04 2.06380E+03 9.80282E+04
 -1       395-4.33234E+04 1.80048E+03 6.60829E+04
 -1       396-5.05231E+04 1.48280E+03 2.76524E+04
 -1       397-5.62402E+04 1.13892E+03-1.51753E+04
 -1       398-6.04348E+04 7.99491E+02-6.00549E+04
 -1       399-6.31975E+04 5.11287E+02-1.04765E+05
 -1       400-6.47040E+04 3.06522E+02-1.48003E+05
 -1       401 1.35218E+07-6.52906E+05 6.99522E+06
 -1       402-7.77774E+06-5.50935E+05-5.57105E+06
 -1       403-6.72147E+04-4.68552E+02-1.72017E+05
 -1       404-9.07387E+03 4.80325E+02-2.85643E+04
 -1       405-1.49219E+04 2.45983E+02-6.53239E+04
 -1       406-1.68995E+04-9.85700E+01-1.03178E+05
 -1       407-1.55109E+04-3.31647E+02-1.37551E+05
 -1       408-1.12642E+04-4.92869E+02-1.65932E+05
 -1       409-4.72917E+03-6.08129E+02-1.86323E+05
 -1       410 3.42138E+03-6.79352E+02-1.97207E+05
 -1       411 1.24460E+04-7.02570E+02-1.97628E+05
 -1       412 2.15769E+04-6.75682E+02-1.87310E+05
 -1       413 3.00632E+04-6.00490E+02-1.66700E+05
 -1       414 3.72140E+04-4.82272E+02-1.36941E+05
 -1       415 4.24373E+04-3.28991E+02-9.97859E+04
 -1       416 4.52736E+04-1.50649E+02-5.74896E+04
 -1       417 4.54211E+04 4.13257E+01-1.26587E+04
 -1       418 4.27515E+04 2.34770E+02 3.19112E+04
 -1       419 3.73145E+04 4.17540E+02 7.34124E+04
 -1       420 2.93321E+04 5.78269E+02 1.09201E+05
 -1       421 1.91807E+04 7.07092E+02 1.36964E+05
 -1       422 7.36446E+03 7.96273E+02 1.54861E+05
 -1       423-5.52030E+03 8.40703E+02 1.61636E+05
 -1       424-1.88263E+04 8.38232E+02 1.56700E+05
 -1       425-3.19007E+04 7.89795E+02 1.40153E+05
 -1       426-4.41309E+04 6.99322E+02 1.12781E+05
 -1       427-5.49887E+04 5.73548E+02 7.59947E+04
 -1       428-6.40705E+04 4.22022E+02 3.17407E+04
 -1       429-7.11294E+04 2.57472E+02-1.76266E+04
 -1       430-7.61001E+04 9.58105E+01-6.95166E+04
 -1       431-7.91212E+04-4.62176E+01-1.21345E+05
 -1       432-8.05745E+04-1.79659E+02-1.70954E+05
 -1       433-6.54136E+04 9.27816E+01-1.72008E+05
 -1       434-1.35218E+07 6.52906E+05 6.99522E+06
 -1       435 7.77774E+06 5.50935E+05-5.57105E+06
 -1       436 8.05745E+04 1.79659E+02-1.70954E+05
 -1       437 7.91212E+04 4.62175E+01-1.21345E+05
 -1       438 7.61001E+04-9.58105E+01-6.95166E+04
 -1       439 7.11294E+04-2.57472E+02-1.76266E+04
 -1       440 6.40705E+04-4.22022E+02 3.17407E+04
 -1       441 5.49887E+04-5.73548E+02 7.59947E+04
 -1       442 4.41309E+04-6.99322E+02 1.12781E+05
 -1       443 3.19007E+04-7.89795E+02 1.40153E+05
 -1       444 1.88263E+04-8.38232E+02 1.56700E+05
 -1       445 5.52030E+03-8.40703E+02 1.61636E+05
 -1       446-7.36446E+03-7.96273E+02 1.54861E+05
 -1       447-1.91807E+04-7.07092E+02 1.36964E+05
 -1       448-2.93321E+04-5.78269E+02 1.09201E+05
 -1       449-3.73145E+04-4.17540E+02 7.34124E+04
 -1       450-4.27515E+04-2.34770E+02 3.19112E+04
 -1       451-4.54211E+04-4.13257E+01-1.26587E+04
 -1       452-4.52736E+04 1.50649E+02-5.74896E+04
 -1       453-4.24373E+04 3.28991E+02-9.97859E+04
 -1       454-3.72140E+04 4.82272E+02-1.36941E+05
 -1       455-3.00632E+04 6.00490E+02-1.66700E+05
 -1       456-2.15769E+04 6.75682E+02-1.87310E+05
 -1       457-1.24460E+04 7.02570E+02-1.97628E+05
 -1       458-3.42138E+03 6.79352E+02-1.97207E+05
 -1       459 4.72917E+03 6.08129E+02-1.86323E+05
 -1       460 1.12642E+04 4.92869E+02-1.65932E+05
 -1       461 1.55109E+04 3.31647E+02-1.37551E+05
 -1       462 1.68995E+04 9.85700E+01-1.03178E+05
 -1       463 1.49219E+04-2.45983E+02-6.53239E+04
 -1       464 9.07387E+03-4.80325E+02-2.85643E+04
 -1       465 6.72147E+04 4.68552E+02-1.72017E+05
 -1       466 6.08578E+03-1.46260E+03-2.03058E+04
 -1       467 1.04438E+04-8.77012E+02-5.31845E+04
 -1       468 1.21571E+04 1.33936E+02-8.86335E+04
 -1       469 1.12444E+04 8.75393E+02-1.19512E+05
 -1       470 8.03404E+03 1.42895E+03-1.44172E+05
 -1       471 2.97810E+03 1.83690E+03-1.61732E+05
 -1       472-3.38899E+03 2.09291E+03-1.71117E+05
 -1       473-1.04730E+04 2.18537E+03-1.71477E+05
 -1       474-1.76568E+04 2.11011E+03-1.62531E+05
 -1       475-2.43377E+04 1.87425E+03-1.44651E+05
 -1       476-2.99612E+04 1.49541E+03-1.18827E+05
 -1       477-3.40525E+04 9.99721E+02-8.65836E+04
 -1       478-3.62426E+04 4.20008E+02-4.98778E+04
 -1       479-3.62885E+04-2.06271E+02-1.09721E+04
 -1       480-3.40858E+04-8.39287E+02 2.77073E+04
 -1       481-2.96724E+04-1.43932E+03 6.37240E+04
 -1       482-2.32235E+04-1.96926E+03 9.47839E+04
 -1       483-1.50374E+04-2.39696E+03 1.18879E+05
 -1       484-5.51467E+03-2.69728E+03 1.34411E+05
 -1       485 4.87107E+03-2.85374E+03 1.40294E+05
 -1       486 1.56057E+04-2.85961E+03 1.36013E+05
 -1       487 2.61709E+04-2.71834E+03 1.21657E+05
 -1       488 3.60812E+04-2.44339E+03 9.79036E+04
 -1       489 4.49189E+04-2.05758E+03 6.59746E+04
 -1       490 5.23657E+04-1.59252E+03 2.75637E+04
 -1       491 5.82288E+04-1.08829E+03-1.52427E+04
 -1       492 6.24625E+04-5.93470E+02-6.01017E+04
 -1       493 6.51784E+04-1.60429E+02-1.04793E+05
 -1       494 6.66122E+04 2.25642E+02-1.48016E+05
 -1       495 4.89526E+03-1.14936E+03-2.02361E+04
 -1       496 8.82151E+03-7.56792E+02-5.31447E+04
 -1       497 1.06424E+04-1.18890E+02-8.86269E+04
 -1       498 9.98925E+03 4.06275E+02-1.19539E+05
 -1       499 7.07662E+03 8.62786E+02-1.44226E+05
 -1       500 2.36407E+03 1.21565E+03-1.61808E+05
 -1       501-3.61278E+03 1.44109E+03-1.71206E+05
 -1       502-1.02798E+04 1.53245E+03-1.71572E+05
 -1       503-1.70486E+04 1.49053E+03-1.62623E+05
 -1       504-2.33456E+04 1.32253E+03-1.44732E+05
 -1       505-2.86425E+04 1.04235E+03-1.18891E+05
 -1       506-3.24863E+04 6.70087E+02-8.66251E+04
 -1       507-3.45248E+04 2.30962E+02-4.98925E+04
 -1       508-3.45256E+04-2.46254E+02-1.09577E+04
 -1       509-3.23884E+04-7.31025E+02 2.77513E+04
 -1       510-2.81479E+04-1.19296E+03 6.37962E+04
 -1       511-2.19696E+04-1.60375E+03 9.48811E+04
 -1       512-1.41362E+04-1.93892E+03 1.18996E+05
 -1       513-5.02699E+03-2.17947E+03 1.34544E+05
 -1       514 4.90881E+03-2.31304E+03 1.40434E+05
 -1       515 1.51839E+04-2.33486E+03 1.36154E+05
 -1       516 2.53071E+04-2.24808E+03 1.21793E+05
 -1       517 3.48184E+04-2.06380E+03 9.80282E+04
 -1       518 4.33234E+04-1.80048E+03 6.60829E+04
 -1       519 5.05231E+04-1.48280E+03 2.76524E+04
 -1       520 5.62402E+04-1.13892E+03-1.51753E+04
 -1       521 6.04348E+04-7.99491E+02-6.00549E+04
 -1       522 6.31975E+04-5.11287E+02-1.04765E+05
 -1       523 6.47040E+04-3.06522E+02-1.48003E+05
 -1       524 6.54136E+04-9.27816E+01-1.72008E+05
 -1       525-6.22963E+03-4.45611E+01-6.87428E+04
 -1       526-1.12986E+04-1.98767E+01-1.49963E+05
 -1       527-1.38896E+04 3.44361E+00-2.35206E+05
 -1       528-1.31892E+04 2.20862E+01-3.14255E+05
 -1       529-9.37457E+03 3.66554E+01-3.80094E+05
 -1       530-3.08139E+03 4.72011E+01-4.27557E+05
 -1       531 4.94279E+03 5.37437E+01-4.52976E+05
 -1       532 1.39053E+04 5.60668E+01-4.54170E+05
 -1       533 2.30063E+04 5.41084E+01-4.30549E+05
 -1       534 3.14723E+04 4.80592E+01-3.83162E+05
 -1       535 3.85926E+04 3.83655E+01-3.14648E+05
 -1       536 4.37575E+04 2.56918E+01-2.29054E+05
 -1       537 4.64924E+04 1.08754E+01-1.31576E+05
 -1       538 4.64845E+04-5.12674E+00-2.82275E+04
 -1       539 4.35982E+04-2.12972E+01 7.45456E+04
 -1       540 3.78802E+04-3.66213E+01 1.70269E+05
 -1       541 2.95529E+04-5.01507E+01 2.52848E+05
 -1       542 1.89966E+04-6.10640E+01 3.16950E+05
 -1       543 6.72178E+03-6.87188E+01 3.58332E+05
 -1       544-6.66709E+03-7.26933E+01 3.74106E+05
 -1       545-2.05142E+04-7.28145E+01 3.62911E+05
 -1       546-3.41587E+04-6.91701E+01 3.24990E+05
 -1       547-4.69821E+04-6.21052E+01 2.62159E+05
 -1       548-5.84546E+04-5.22073E+01 1.77684E+05
 -1       549-6.81764E+04-4.02883E+01 7.60593E+04
 -1       550-7.59095E+04-2.73653E+01-3.73108E+04
 -1       551-8.15936E+04-1.45745E+01-1.56511E+05
 -1       552-8.53489E+04-3.06987E+00-2.75598E+05
 -1       553-8.75462E+04 6.71181E+00-3.89032E+05
 -1       554 5.42845E-07 1.68349E-06-6.94951E+04
 -1       555-3.67222E-06 3.24274E-06-1.49668E+05
 -1       556-3.12258E-06-1.59830E-06-2.34418E+05
 -1       557 1.64306E-06-8.20758E-06-3.13570E+05
 -1       558 1.21059E-06 3.56630E-06-3.79613E+05
 -1       559 1.27361E-06 4.90107E-06-4.27253E+05
 -1       560-8.64384E-09 4.45161E-06-4.52796E+05
 -1       561-3.47147E-06 6.11936E-06-4.54065E+05
 -1       562-2.08622E-07 2.06214E-06-4.30479E+05
 -1       563 3.76675E-06-5.53100E-06-3.83097E+05
 -1       564 6.06011E-06-1.05677E-05-3.14558E+05
 -1       565 4.89061E-06-1.48365E-05-2.28914E+05
 -1       566 7.46440E-08-1.23839E-05-1.31367E+05
 -1       567-8.39253E-07-1.87122E-06-2.79357E+04
 -1       568 2.19612E-06-1.18241E-06 7.49283E+04
 -1       569-9.39064E-07 3.07375E-06 1.70745E+05
 -1       570-2.28493E-06 4.70645E-06 2.53415E+05
 -1       571-1.47356E-06-4.97054E-06 3.17601E+05
 -1       572-1.65380E-06-4.81612E-06 3.59057E+05
 -1       573-3.48984E-06 3.11201E-06 3.74894E+05
 -1       574-1.10348E-06 4.01066E-08 3.63752E+05
 -1       575-1.27015E-06-1.14955E-05 3.25874E+05
 -1       576 1.18232E-06-1.16752E-06 2.63082E+05
 -1       577 7.39310E-07 7.11257E-07 1.78647E+05
 -1       578 1.33925E-06 2.56279E-06 7.70694E+04
 -1       579 1.26239E-06 5.43720E-06-3.62444E+04
 -1       580-3.79674E-06 6.64102E-06-1.55387E+05
 -1       581-7.09653E-06 1.26239E-05-2.74413E+05
 -1       582-2.92919E-06 2.19883E-05-3.87638E+05
 -1       583 6.22963E+03 4.45612E+01-6.87428E+04
 -1       584 1.12986E+04 1.98767E+01-1.49963E+05
 -1       585 1.38896E+04-3.44361E+00-2.35206E+05
 -1       586 1.31892E+04-2.20862E+01-3.14255E+05
 -1       587 9.37457E+03-3.66554E+01-3.80094E+05
 -1       588 3.08139E+03-4.72011E+01-4.27557E+05
 -1       589-4.94279E+03-5.37437E+01-4.52976E+05
 -1       590-1.39053E+04-5.60668E+01-4.54170E+05
 -1       591-2.30063E+04-5.41084E+01-4.30549E+05
 -1       592-3.14723E+04-4.80593E+01-3.83162E+05
 -1       593-3.85926E+04-3.83655E+01-3.14648E+05
 -1       594-4.37575E+04-2.56918E+01-2.29054E+05
 -1       595-4.64924E+04-1.08755E+01-1.31576E+05
 -1       596-4.64845E+04 5.12672E+00-2.82275E+04
 -1       597-4.35982E+04 2.12972E+01 7.45456E+04
 -1       598-3.78802E+04 3.66213E+01 1.70269E+05
 -1       599-2.95529E+04 5.01507E+01 2.52848E+05
 -1       600-1.89966E+04 6.10640E+01 3.16950E+05
 -1       601-6.72178E+03 6.87188E+01 3.58332E+05
 -1       602 6.66709E+03 7.26933E+01 3.74106E+05
 -1       603 2.05142E+04 7.28145E+01 3.62911E+05
 -1       604 3.41587E+04 6.91701E+01 3.24990E+05
 -1       605 4.69821E+04 6.21052E+01 2.62159E+05
 -1       606 5.84546E+04 5.22073E+01 1.77684E+05
 -1       607 6.81764E+04 4.02883E+01 7.60593E+04
 -1       608 7.59095E+04 2.73653E+01-3.73108E+04
 -1       609 8.15936E+04 1.45745E+01-1.56511E+05
 -1       610 8.53489E+04 3.06989E+00-2.75598E+05
 -1       611 8.75462E+04-6.71181E+00-3.89032E+05
 -1       612 6.22963E+03-4.45612E+01-6.87428E+04
 -1       613 1.12986E+04-1.98767E+01-1.49963E+05
 -1       614 1.38896E+04 3.44361E+00-2.35206E+05
 -1       615 1.31892E+04 2.20862E+01-3.14255E+05
 -1       616 9.37457E+03 3.66554E+01-3.80094E+05
 -1       617 3.08139E+03 4.72011E+01-4.27557E+05
 -1       618-4.94279E+03 5.37437E+01-4.52976E+05
 -1       619-1.39053E+04 5.60668E+01-4.54170E+05
 -1       620-2.30063E+04 5.41084E+01-4.30549E+05
 -1       621-3.14723E+04 4.80593E+01-3.83162E+05
 -1       622-3.85926E+04 3.83655E+01-3.14648E+05
 -1       623-4.37575E+04 2.56918E+01-2.29054E+05
 -1       624-4.64924E+04 1.08755E+01-1.31576E+05
 -1       625-4.64845E+04-5.12672E+00-2.82275E+04
 -1       626-4.35982E+04-2.12972E+01 7.45456E+04
 -1       627-3.78802E+04-3.66213E+01 1.70269E+05
 -1       628-2.95529E+04-5.01507E+01 2.52848E+05
 -1       629-1.89966E+04-6.10640E+01 3.16950E+05
 -1       630-6.72178E+03-6.87188E+01 3.58332E+05
 -1       631 6.66709E+03-7.26933E+01 3.74106E+05
 -1       632 2.05142E+04-7.28145E+01 3.62911E+05
 -1       633 3.41587E+04-6.91701E+01 3.24990E+05
 -1       634 4.69821E+04-6.21052E+01 2.62159E+05
 -1       635 5.84546E+04-5.22073E+01 1.77684E+05
 -1       636 6.81764E+04-4.02883E+01 7.60593E+04
 -1       637 7.59095E+04-2.73653E+01-3.73108E+04
 -1       638 8.15936E+04-1.45745E+01-1.56511E+05
 -1       639 8.53489E+04-3.06989E+00-2.75598E+05
 -1       640 8.75462E+04 6.71181E+00-3.89032E+05
 -1       641 2.72057E-06-4.18806E-07-6.94951E+04
 -1       642-1.87475E-06 1.60472E-07-1.49668E+05
 -1       643-3.41522E-06 2.90753E-06-2.34418E+05
 -1       644 2.96332E-06 3.24558E-06-3.13570E+05
 -1       645 4.45178E-06-3.64738E-06-3.79613E+05
 -1       646 1.50171E-06-4.99686E-06-4.27253E+05
 -1       647-1.70323E-07 2.40883E-06-4.52796E+05
 -1       648-2.64337E-06-2.81805E-06-4.54065E+05
 -1       649 5.53358E-07-6.39524E-06-4.30479E+05
 -1       650 2.44069E-06-1.29382E-06-3.83097E+05
 -1       651 2.51931E-06-6.80052E-07-3.14558E+05
 -1       652 1.49905E-06 3.42277E-07-2.28914E+05
 -1       653-1.04759E-06 1.91651E-07-1.31367E+05
 -1       654 4.88217E-07 8.44714E-06-2.79357E+04
 -1       655 1.82379E-06 8.33950E-06 7.49283E+04
 -1       656 7.86298E-07 2.95688E-06 1.70745E+05
 -1       657 9.26200E-07 7.78086E-06 2.53415E+05
 -1       658 7.52101E-07-1.91408E-06 3.17601E+05
 -1       659-7.85963E-07 2.37238E-06 3.59057E+05
 -1       660-5.39871E-06-7.24768E-06 3.74894E+05
 -1       661-2.07008E-06 1.29976E-06 3.63752E+05
 -1       662-1.98088E-07 1.09175E-05 3.25874E+05
 -1       663-1.88971E-07-6.06079E-06 2.63082E+05
 -1       664 8.32923E-07-3.45471E-06 1.78647E+05
 -1       665 1.22124E-06 2.24724E-06 7.70694E+04
 -1       666 2.25045E-07-3.39644E-06-3.62444E+04
 -1       667-4.06738E-06-3.45357E-08-1.55387E+05
 -1       668-6.05895E-06-1.00607E-05-2.74413E+05
 -1       669-4.76867E-06-1.14389E-05-3.87638E+05
 -1       670-6.22963E+03 4.45612E+01-6.87428E+04
 -1       671-1.12986E+04 1.98767E+01-1.49963E+05
 -1       672-1.38896E+04-3.44360E+00-2.35206E+05
 -1       673-1.31892E+04-2.20862E+01-3.14255E+05
 -1       674-9.37457E+03-3.66554E+01-3.80094E+05
 -1       675-3.08139E+03-4.72011E+01-4.27557E+05
 -1       676 4.94279E+03-5.37437E+01-4.52976E+05
 -1       677 1.39053E+04-5.60668E+01-4.54170E+05
 -1       678 2.30063E+04-5.41084E+01-4.30549E+05
 -1       679 3.14723E+04-4.80592E+01-3.83162E+05
 -1       680 3.85926E+04-3.83655E+01-3.14648E+05
 -1       681 4.37575E+04-2.56918E+01-2.29054E+05
 -1       682 4.64924E+04-1.08755E+01-1.31576E+05
 -1       683 4.64845E+04 5.12674E+00-2.82275E+04
 -1       684 4.35982E+04 2.12972E+01 7.45456E+04
 -1       685 3.78802E+04 3.66213E+01 1.70269E+05
 -1       686 2.95529E+04 5.01507E+01 2.52848E+05
 -1       687 1.89966E+04 6.10640E+01 3.16950E+05
 -1       688 6.72178E+03 6.87188E+01 3.58332E+05
 -1       689-6.66709E+03 7.26933E+01 3.74106E+05
 -1       690-2.05142E+04 7.28145E+01 3.62911E+05
 -1       691-3.41587E+04 6.91701E+01 3.24990E+05
 -1       692-4.69821E+04 6.21052E+01 2.62159E+05
 -1       693-5.84546E+04 5.22073E+01 1.77684E+05
 -1       694-6.81764E+04 4.02883E+01 7.60593E+04
 -1       695-7.59095E+04 2.73653E+01-3.73108E+04
 -1       696-8.15936E+04 1.45745E+01-1.56511E+05
 -1       697-8.53489E+04 3.06987E+00-2.75598E+05
 -1       698-8.75462E+04-6.71181E+00-3.89032E+05
 -1       699-1.31535E+04-2.01255E+03-4.42513E+04
 -1       700-2.24037E+04-1.14287E+03-1.07737E+05
 -1       701-2.57959E+04 2.71297E+02-1.74347E+05
 -1       702-2.37779E+04 1.27125E+03-2.33630E+05
 -1       703-1.71079E+04 1.99740E+03-2.81836E+05
 -1       704-6.69728E+03 2.52743E+03-3.16327E+05
 -1       705 6.36247E+03 2.85817E+03-3.34747E+05
 -1       706 2.08644E+04 2.97359E+03-3.35456E+05
 -1       707 3.55571E+04 2.86686E+03-3.17947E+05
 -1       708 4.92177E+04 2.54695E+03-2.82967E+05
 -1       709 6.07212E+04 2.03718E+03-2.32451E+05
 -1       710 6.91038E+04 1.37242E+03-1.69380E+05
 -1       711 7.36168E+04 5.96457E+02-9.75811E+04
 -1       712 7.37679E+04-2.40733E+02-2.14795E+04
 -1       713 6.93464E+04-1.08598E+03 5.41793E+04
 -1       714 6.04307E+04-1.88623E+03 1.24629E+05
 -1       715 4.73786E+04-2.59190E+03 1.85383E+05
 -1       716 3.07987E+04-3.15999E+03 2.32512E+05
 -1       717 1.15068E+04-3.55685E+03 2.62892E+05
 -1       718-9.53187E+03-3.76036E+03 2.74396E+05
 -1       719-3.12699E+04-3.76138E+03 2.66018E+05
 -1       720-5.26509E+04-3.56433E+03 2.37932E+05
 -1       721-7.26849E+04-3.18689E+03 1.91467E+05
 -1       722-9.05193E+04-2.65916E+03 1.29016E+05
 -1       723-1.05504E+05-2.02319E+03 5.38875E+04
 -1       724-1.17243E+05-1.33314E+03-2.98836E+04
 -1       725-1.25639E+05-6.55414E+02-1.17815E+05
 -1       726-1.30916E+05-6.29110E+01-2.05535E+05
 -1       727-1.33622E+05 4.72697E+02-2.89894E+05
 -1       728-1.07454E+04-1.49855E+03-4.41015E+04
 -1       729-1.93382E+04-9.60936E+02-1.07654E+05
 -1       730-2.29224E+04-1.30967E+02-1.74335E+05
 -1       731-2.13384E+04 5.30727E+02-2.33683E+05
 -1       732-1.52291E+04 1.10326E+03-2.81945E+05
 -1       733-5.49183E+03 1.54669E+03-3.16478E+05
 -1       734 6.80079E+03 1.82961E+03-3.34926E+05
 -1       735 2.04853E+04 1.94360E+03-3.35646E+05
 -1       736 3.43658E+04 1.88963E+03-3.18132E+05
 -1       737 4.72755E+04 1.67674E+03-2.83130E+05
 -1       738 5.81400E+04 1.32244E+03-2.32580E+05
 -1       739 6.60383E+04 8.52112E+02-1.69463E+05
 -1       740 7.02548E+04 2.97561E+02-9.76107E+04
 -1       741 7.03178E+04-3.04902E+02-2.14507E+04
 -1       742 6.60244E+04-9.16742E+02 5.42674E+04
 -1       743 5.74473E+04-1.49960E+03 1.24774E+05
 -1       744 4.49250E+04-2.01773E+03 1.85577E+05
 -1       745 2.90353E+04-2.44025E+03 2.32747E+05
 -1       746 1.05529E+04-2.74314E+03 2.63157E+05
 -1       747-9.60508E+03-2.91081E+03 2.74677E+05
 -1       748-3.04435E+04-2.93719E+03 2.66302E+05
 -1       749-5.09593E+04-2.82623E+03 2.38205E+05
 -1       750-7.02126E+04-2.59190E+03 1.91717E+05
 -1       751-8.73959E+04-2.25745E+03 1.29233E+05
 -1       752-1.01896E+05-1.85400E+03 5.40651E+04
 -1       753-1.13346E+05-1.41691E+03-2.97487E+04
 -1       754-1.21656E+05-9.84867E+02-1.17722E+05
 -1       755-1.27028E+05-6.21220E+02-2.05479E+05
 -1       756-1.29916E+05-3.71940E+02-2.89867E+05
 -1       757 1.07454E+04 1.49855E+03-4.41015E+04
 -1       758 1.93382E+04 9.60936E+02-1.07654E+05
 -1       759 2.29224E+04 1.30967E+02-1.74335E+05
 -1       760 2.13384E+04-5.30727E+02-2.33683E+05
 -1       761 1.52291E+04-1.10326E+03-2.81945E+05
 -1       762 5.49183E+03-1.54669E+03-3.16478E+05
 -1       763-6.80079E+03-1.82961E+03-3.34926E+05
 -1       764-2.04853E+04-1.94360E+03-3.35646E+05
 -1       765-3.43658E+04-1.88963E+03-3.18132E+05
 -1       766-4.72755E+04-1.67674E+03-2.83130E+05
 -1       767-5.81400E+04-1.32244E+03-2.32580E+05
 -1       768-6.60383E+04-8.52112E+02-1.69463E+05
 -1       769-7.02548E+04-2.97561E+02-9.76107E+04
 -1       770-7.03178E+04 3.04902E+02-2.14507E+04
 -1       771-6.60244E+04 9.16742E+02 5.42674E+04
 -1       772-5.74473E+04 1.49960E+03 1.24774E+05
 -1       773-4.49250E+04 2.01773E+03 1.85577E+05
 -1       774-2.90353E+04 2.44025E+03 2.32747E+05
 -1       775-1.05529E+04 2.74314E+03 2.63157E+05
 -1       776 9.60508E+03 2.91081E+03 2.74677E+05
 -1       777 3.04435E+04 2.93719E+03 2.66302E+05
 -1       778 5.09593E+04 2.82623E+03 2.38205E+05
 -1       779 7.02126E+04 2.59190E+03 1.91717E+05
 -1       780 8.73959E+04 2.25745E+03 1.29233E+05
 -1       781 1.01896E+05 1.85400E+03 5.40651E+04
 -1       782 1.13346E+05 1.41691E+03-2.97487E+04
 -1       783 1.21656E+05 9.84867E+02-1.17722E+05
 -1       784 1.27028E+05 6.21220E+02-2.05479E+05
 -1       785 1.29916E+05 3.71940E+02-2.89867E+05
 -1       786 1.31535E+04 2.01255E+03-4.42513E+04
 -1       787 2.24037E+04 1.14287E+03-1.07737E+05
 -1       788 2.57959E+04-2.71297E+02-1.74347E+05
 -1       789 2.37779E+04-1.27125E+03-2.33630E+05
 -1       790 1.71079E+04-1.99740E+03-2.81836E+05
 -1       791 6.69728E+03-2.52743E+03-3.16327E+05
 -1       792-6.36247E+03-2.85817E+03-3.34747E+05
 -1       793-2.08644E+04-2.97359E+03-3.35456E+05
 -1       794-3.55571E+04-2.86686E+03-3.17947E+05
 -1       795-4.92177E+04-2.54695E+03-2.82967E+05
 -1       796-6.07212E+04-2.03718E+03-2.32451E+05
 -1       797-6.91038E+04-1.37242E+03-1.69380E+05
 -1       798-7.36168E+04-5.96457E+02-9.75811E+04
 -1       799-7.37679E+04 2.40733E+02-2.14795E+04
 -1       800-6.93464E+04 1.08598E+03 5.41793E+04
 -1       801-6.04307E+04 1.88623E+03 1.24629E+05
 -1       802-4.73786E+04 2.59190E+03 1.85383E+05
 -1       803-3.07987E+04 3.15999E+03 2.32512E+05
 -1       804-1.15068E+04 3.55685E+03 2.62892E+05
 -1       805 9.53187E+03 3.76036E+03 2.74396E+05
 -1       806 3.12699E+04 3.76138E+03 2.66018E+05
 -1       807 5.26509E+04 3.56433E+03 2.37932E+05
 -1       808 7.26849E+04 3.18689E+03 1.91467E+05
 -1       809 9.05193E+04 2.65916E+03 1.29016E+05
 -1       810 1.05504E+05 2.02319E+03 5.38875E+04
 -1       811 1.17243E+05 1.33314E+03-2.98836E+04
 -1       812 1.25639E+05 6.55414E+02-1.17815E+05
 -1       813 1.30916E+05 6.29110E+01-2.05535E+05
 -1       814 1.33622E+05-4.72697E+02-2.89894E+05
 -1       815-1.31535E+04 2.01255E+03-4.42513E+04
 -1       816-2.24037E+04 1.14287E+03-1.07737E+05
 -1       817-2.57959E+04-2.71297E+02-1.74347E+05
 -1       818-2.37779E+04-1.27125E+03-2.33630E+05
 -1       819-1.71079E+04-1.99740E+03-2.81836E+05
 -1       820-6.69728E+03-2.52743E+03-3.16327E+05
 -1       821 6.36247E+03-2.85817E+03-3.34747E+05
 -1       822 2.08644E+04-2.97359E+03-3.35456E+05
 -1       823 3.55571E+04-2.86686E+03-3.17947E+05
 -1       824 4.92177E+04-2.54695E+03-2.82967E+05
 -1       825 6.07212E+04-2.03718E+03-2.32451E+05
 -1       826 6.91038E+04-1.37242E+03-1.69380E+05
 -1       827 7.36168E+04-5.96457E+02-9.75811E+04
 -1       828 7.37679E+04 2.40733E+02-2.14795E+04
 -1       829 6.93464E+04 1.08598E+03 5.41793E+04
 -1       830 6.04307E+04 1.88623E+03 1.24629E+05
 -1       831 4.73786E+04 2.59190E+03 1.85383E+05
 -1       832 3.07987E+04 3.15999E+03 2.32512E+05
 -1       833 1.15068E+04 3.55685E+03 2.62892E+05
 -1       834-9.53187E+03 3.76036E+03 2.74396E+05
 -1       835-3.12699E+04 3.76138E+03 2.66018E+05
 -1       836-5.26509E+04 3.56433E+03 2.37932E+05
 -1       837-7.26849E+04 3.18689E+03 1.91467E+05
 -1       838-9.05193E+04 2.65916E+03 1.29016E+05
 -1       839-1.05504E+05 2.02319E+03 5.38875E+04
 -1       840-1.17243E+05 1.33314E+03-2.98836E+04
 -1       841-1.25639E+05 6.55414E+02-1.17815E+05
 -1       842-1.30916E+05 6.29110E+01-2.05535E+05
 -1       843-1.33622E+05-4.72697E+02-2.89894E+05
 -1       844-1.07454E+04 1.49855E+03-4.41015E+04
 -1       845-1.93382E+04 9.60936E+02-1.07654E+05
 -1       846-2.29224E+04 1.30967E+02-1.74335E+05
 -1       847-2.13384E+04-5.30727E+02-2.33683E+05
 -1       848-1.52291E+04-1.10326E+03-2.81945E+05
 -1       849-5.49183E+03-1.54669E+03-3.16478E+05
 -1       850 6.80079E+03-1.82961E+03-3.34926E+05
 -1       851 2.04853E+04-1.94360E+03-3.35646E+05
 -1       852 3.43658E+04-1.88963E+03-3.18132E+05
 -1       853 4.72755E+04-1.67674E+03-2.83130E+05
 -1       854 5.81400E+04-1.32244E+03-2.32580E+05
 -1       855 6.60383E+04-8.52112E+02-1.69463E+05
 -1       856 7.02548E+04-2.97561E+02-9.76107E+04
 -1       857 7.03178E+04 3.04902E+02-2.14507E+04
 -1       858 6.60244E+04 9.16742E+02 5.42674E+04
 -1       859 5.74473E+04 1.49960E+03 1.24774E+05
 -1       860 4.49250E+04 2.01773E+03 1.85577E+05
 -1       861 2.90353E+04 2.44025E+03 2.32747E+05
 -1       862 1.05529E+04 2.74314E+03 2.63157E+05
 -1       863-9.60508E+03 2.91081E+03 2.74677E+05
 -1       864-3.04435E+04 2.93719E+03 2.66302E+05
 -1       865-5.09593E+04 2.82623E+03 2.38205E+05
 -1       866-7.02126E+04 2.59190E+03 1.91717E+05
 -1       867-8.73959E+04 2.25745E+03 1.29233E+05
 -1       868-1.01896E+05 1.85400E+03 5.40651E+04
 -1       869-1.13346E+05 1.41691E+03-2.97487E+04
 -1       870-1.21656E+05 9.84867E+02-1.17722E+05
 -1       871-1.27028E+05 6.21220E+02-2.05479E+05
 -1       872-1.29916E+05 3.71940E+02-2.89867E+05
 -1       873 1.33622E+05 4.72697E+02-2.89894E+05
 -1       874 1.30916E+05-6.29110E+01-2.05535E+05
 -1       875 1.25639E+05-6.55414E+02-1.17815E+05
 -1       876 1.17243E+05-1.33314E+03-2.98836E+04
 -1       877 1.05504E+05-2.02319E+03 5.38875E+04
 -1       878 9.05193E+04-2.65916E+03 1.29016E+05
 -1       879 7.26849E+04-3.18689E+03 1.91467E+05
 -1       880 5.26509E+04-3.56433E+03 2.37932E+05
 -1       881 3.12699E+04-3.76138E+03 2.66018E+05
 -1       882 9.53187E+03-3.76036E+03 2.74396E+05
 -1       883-1.15068E+04-3.55685E+03 2.62892E+05
 -1       884-3.07987E+04-3.15999E+03 2.32512E+05
 -1       885-4.73786E+04-2.59190E+03 1.85383E+05
 -1       886-6.04307E+04-1.88623E+03 1.24629E+05
 -1       887-6.93464E+04-1.08598E+03 5.41793E+04
 -1       888-7.37679E+04-2.40733E+02-2.14795E+04
 -1       889-7.36168E+04 5.96457E+02-9.75811E+04
 -1       890-6.91038E+04 1.37242E+03-1.69380E+05
 -1       891-6.07212E+04 2.03718E+03-2.32451E+05
 -1       892-4.92177E+04 2.54695E+03-2.82967E+05
 -1       893-3.55571E+04 2.86686E+03-3.17947E+05
 -1       894-2.08644E+04 2.97359E+03-3.35456E+05
 -1       895-6.36247E+03 2.85817E+03-3.34747E+05
 -1       896 6.69728E+03 2.52743E+03-3.16327E+05
 -1       897 1.71079E+04 1.99740E+03-2.81836E+05
 -1       898 2.37779E+04 1.27125E+03-2.33630E+05
 -1       899 2.57959E+04 2.71297E+02-1.74347E+05
 -1       900 2.24037E+04-1.14287E+03-1.07737E+05
 -1       901 1.31535E+04-2.01255E+03-4.42513E+04
 -1       902 1.07454E+04-1.49855E+03-4.41015E+04
 -1       903 1.93382E+04-9.60936E+02-1.07654E+05
 -1       904 2.29224E+04-1.30967E+02-1.74335E+05
 -1       905 2.13384E+04 5.30727E+02-2.33683E+05
 -1       906 1.52291E+04 1.10326E+03-2.81945E+05
 -1       907 5.49183E+03 1.54669E+03-3.16478E+05
 -1       908-6.80079E+03 1.82961E+03-3.34926E+05
 -1       909-2.04853E+04 1.94360E+03-3.35646E+05
 -1       910-3.43658E+04 1.88963E+03-3.18132E+05
 -1       911-4.72755E+04 1.67674E+03-2.83130E+05
 -1       912-5.81400E+04 1.32244E+03-2.32580E+05
 -1       913-6.60383E+04 8.52112E+02-1.69463E+05
 -1       914-7.02548E+04 2.97561E+02-9.76107E+04
 -1       915-7.03178E+04-3.04902E+02-2.14507E+04
 -1       916-6.60244E+04-9.16742E+02 5.42674E+04
 -1       917-5.74473E+04-1.49960E+03 1.24774E+05
 -1       918-4.49250E+04-2.01773E+03 1.85577E+05
 -1       919-2.90353E+04-2.44025E+03 2.32747E+05
 -1       920-1.05529E+04-2.74314E+03 2.63157E+05
 -1       921 9.60508E+03-2.91081E+03 2.74677E+05
 -1       922 3.04435E+04-2.93719E+03 2.66302E+05
 -1       923 5.09593E+04-2.82623E+03 2.38205E+05
 -1       924 7.02126E+04-2.59190E+03 1.91717E+05
 -1       925 8.73959E+04-2.25745E+03 1.29233E+05
 -1       926 1.01896E+05-1.85400E+03 5.40651E+04
 -1       927 1.13346E+05-1.41691E+03-2.97487E+04
 -1       928 1.21656E+05-9.84867E+02-1.17722E+05
 -1       929 1.27028E+05-6.21220E+02-2.05479E+05
 -1       930 1.29916E+05-3.71940E+02-2.89867E+05
 -3
    1PSTEP                        48           1           1          
    1PGM                1.000000E+00                                  
    1PGK                1.358437E+07                                  
    1PHID                         -1                                  
    1PSUBC                         0                                  
    1PMODE                        12                                  
  100CL  112 586.5970834         930                     2   12MODAL      1
 -4  ERROR       1    1
 -5  STR(%)      1    1    0    0
 -1         1 4.12559E+01
 -1         2 4.12559E+01
 -1         3 8.65884E+01
 -1         4 8.65884E+01
 -1         5 4.12559E+01
 -1         6 4.12559E+01
 -1         7 8.65884E+01
 -1         8 8.65884E+01
 -1         9 4.12559E+01
 -1        10 8.65884E+01
 -1        11 3.82542E+01
 -1        12 3.82542E+01
 -1        13 3.62570E+01
 -1        14 3.62570E+01
 -1        15 4.12559E+01
 -1        16 8.65884E+01
 -1        17 3.82542E+01
 -1        18 3.82542E+01
 -1        19 3.62570E+01
 -1        20 3.62570E+01
 -1        21 3.82542E+01
 -1        22 3.82542E+01
 -1        23 3.62570E+01
 -1        24 3.62570E+01
 -1        25 4.12559E+01
 -1        26 8.65884E+01
 -1        27 4.12559E+01
 -1        28 3.82542E+01
 -1        29 3.82542E+01
 -1        30 8.65884E+01
 -1        31 3.62570E+01
 -1        32 3.62570E+01
 -1        33 7.97014E+01
 -1        34 7.97014E+01
 -1        35 7.47266E+01
 -1        36 7.47266E+01
 -1        37 6.90154E+01
 -1        38 6.61818E+01
 -1        39 2.67252E+01
 -1        40 2.71280E+01
 -1        41 2.71280E+01
 -1        42 2.38848E+01
 -1        43 1.61431E+01
 -1        44 7.61302E+01
 -1        45 7.61302E+01
 -1        46 6.07953E+01
 -1        47 1.28140E+01
 -1        48 1.12845E+01
 -1        49 1.71053E+01
 -1        50 2.21733E+01
 -1        51 2.55512E+01
 -1        52 2.55512E+01
 -1        53 2.59239E+01
 -1        54 2.59239E+01
 -1        55 2.46302E+01
 -1        56 2.11757E+01
 -1        57 1.69990E+01
 -1        58 1.24930E+01
 -1        59 2.28174E+01
 -1        60 8.76156E+01
 -1        61 8.76156E+01
 -1        62 7.97014E+01
 -1        63 7.97014E+01
 -1        64 7.47266E+01
 -1        65 7.47266E+01
 -1        66 6.90154E+01
 -1        67 6.61818E+01
 -1        68 2.67252E+01
 -1        69 2.71280E+01
 -1        70 2.71280E+01
 -1        71 2.38848E+01
 -1        72 1.61431E+01
 -1        73 7.61302E+01
 -1        74 7.61302E+01
 -1        75 6.07953E+01
 -1        76 1.28140E+01
 -1        77 1.12845E+01
 -1        78 1.71053E+01
 -1        79 2.21733E+01
 -1        80 2.55512E+01
 -1        81 2.55512E+01
 -1        82 2.59239E+01
 -1        83 2.59239E+01
 -1        84 2.46302E+01
 -1        85 2.11757E+01
 -1        86 1.69990E+01
 -1        87 1.24930E+01
 -1        88 2.28174E+01
 -1        89 8.76156E+01
 -1        90 8.76156E+01
 -1        91 1.06927E+01
 -1        92 3.44375E+00
 -1        93 1.06927E+01
 -1        94 1.06927E+01
 -1        95 3.44375E+00
 -1        96 1.06927E+01
 -1        97 7.97014E+01
 -1        98 7.97014E+01
 -1        99 7.47266E+01
 -1       100 7.47266E+01
 -1       101 6.90154E+01
 -1       102 6.61818E+01
 -1       103 2.67252E+01
 -1       104 2.71280E+01
 -1       105 2.71280E+01
 -1       106 2.38848E+01
 -1       107 1.61431E+01
 -1       108 7.61302E+01
 -1       109 7.61302E+01
 -1       110 6.07953E+01
 -1       111 1.28140E+01
 -1       112 1.12845E+01
 -1       113 1.71053E+01
 -1       114 2.21733E+01
 -1       115 2.55512E+01
 -1       116 2.55512E+01
 -1       117 2.59239E+01
 -1       118 2.59239E+01
 -1       119 2.46302E+01
 -1       120 2.11757E+01
 -1       121 1.69990E+01
 -1       122 1.24930E+01
 -1       123 2.28174E+01
 -1       124 8.76156E+01
 -1       125 8.76156E+01
 -1       126 2.04892E+01
 -1       127 1.37690E+01
 -1       128 2.04892E+01
 -1       129 7.97014E+01
 -1       130 7.97014E+01
 -1       131 7.47266E+01
 -1       132 7.47266E+01
 -1       133 6.90154E+01
 -1       134 6.61818E+01
 -1       135 2.67252E+01
 -1       136 2.71280E+01
 -1       137 2.71280E+01
 -1       138 2.38848E+01
 -1       139 1.61431E+01
 -1       140 7.61302E+01
 -1       141 7.61302E+01
 -1       142 6.07953E+01
 -1       143 1.28140E+01
 -1       144 1.12845E+01
 -1       145 1.71053E+01
 -1       146 2.21733E+01
 -1       147 2.55512E+01
 -1       148 2.55512E+01
 -1       149 2.59239E+01
 -1       150 2.59239E+01
 -1       151 2.46302E+01
 -1       152 2.11757E+01
 -1       153 1.69990E+01
 -1       154 1.24930E+01
 -1       155 2.28174E+01
 -1       156 8.76156E+01
 -1       157 8.76156E+01
 -1       158 2.04892E+01
 -1       159 1.37690E+01
 -1       160 2.04892E+01
 -1       161 7.97014E+01
 -1       162 7.97014E+01
 -1       163 7.47266E+01
 -1       164 7.47266E+01
 -1       165 6.90154E+01
 -1       166 6.61818E+01
 -1       167 8.90877E+00
 -1       168 6.80289E+00
 -1       169 7.14086E+00
 -1       170 8.41353E+00
 -1       171 1.11655E+01
 -1       172 7.61302E+01
 -1       173 7.61302E+01
 -1       174 6.07953E+01
 -1       175 1.28140E+01
 -1       176 4.48652E+00
 -1       177 3.39059E+00
 -1       178 3.09332E+00
 -1       179 2.82182E+00
 -1       180 2.52596E+00
 -1       181 2.33003E+00
 -1       182 2.33003E+00
 -1       183 2.26067E+00
 -1       184 2.45797E+00
 -1       185 3.38199E+00
 -1       186 9.28334E+00
 -1       187 2.28174E+01
 -1       188 8.76156E+01
 -1       189 8.76156E+01
 -1       190 4.12559E+01
 -1       191 4.12559E+01
 -1       192 8.65884E+01
 -1       193 3.82542E+01
 -1       194 3.26178E+01
 -1       195 3.26309E+01
 -1       196 3.26309E+01
 -1       197 1.22007E+01
 -1       198 5.79345E+00
 -1       199 4.27032E+00
 -1       200 3.64324E+00
 -1       201 3.86289E+00
 -1       202 4.46104E+00
 -1       203 6.18033E+00
 -1       204 1.22660E+01
 -1       205 6.39594E+01
 -1       206 6.39594E+01
 -1       207 1.00891E+01
 -1       208 4.93702E+00
 -1       209 4.13468E+00
 -1       210 3.64391E+00
 -1       211 3.27466E+00
 -1       212 2.95644E+00
 -1       213 2.76141E+00
 -1       214 2.95209E+00
 -1       215 3.11295E+00
 -1       216 3.22198E+00
 -1       217 3.27221E+00
 -1       218 3.27221E+00
 -1       219 4.21810E+00
 -1       220 8.23632E+00
 -1       221 3.62570E+01
 -1       222 3.82542E+01
 -1       223 3.26178E+01
 -1       224 3.26309E+01
 -1       225 3.26309E+01
 -1       226 1.22007E+01
 -1       227 5.79345E+00
 -1       228 4.27032E+00
 -1       229 3.64324E+00
 -1       230 3.86289E+00
 -1       231 4.46104E+00
 -1       232 6.18033E+00
 -1       233 1.22660E+01
 -1       234 6.39594E+01
 -1       235 6.39594E+01
 -1       236 1.00891E+01
 -1       237 4.93702E+00
 -1       238 4.13468E+00
 -1       239 3.64391E+00
 -1       240 3.27466E+00
 -1       241 2.95644E+00
 -1       242 2.76141E+00
 -1       243 2.95209E+00
 -1       244 3.11295E+00
 -1       245 3.22198E+00
 -1       246 3.27221E+00
 -1       247 3.27221E+00
 -1       248 4.21810E+00
 -1       249 8.23632E+00
 -1       250 3.62570E+01
 -1       251 8.65884E+01
 -1       252 8.76156E+01
 -1       253 8.76156E+01
 -1       254 2.28174E+01
 -1       255 9.28334E+00
 -1       256 3.38199E+00
 -1       257 2.45797E+00
 -1       258 2.26067E+00
 -1       259 2.33003E+00
 -1       260 2.33003E+00
 -1       261 2.52596E+00
 -1       262 2.82182E+00
 -1       263 3.09332E+00
 -1       264 3.39059E+00
 -1       265 4.48652E+00
 -1       266 1.28140E+01
 -1       267 6.07953E+01
 -1       268 7.61302E+01
 -1       269 7.61302E+01
 -1       270 1.11655E+01
 -1       271 8.41353E+00
 -1       272 7.14086E+00
 -1       273 6.80289E+00
 -1       274 8.90877E+00
 -1       275 6.61818E+01
 -1       276 6.90154E+01
 -1       277 7.47266E+01
 -1       278 7.47266E+01
 -1       279 7.97014E+01
 -1       280 7.97014E+01
 -1       281 4.12559E+01
 -1       282 4.12559E+01
 -1       283 3.82542E+01
 -1       284 3.26178E+01
 -1       285 3.26309E+01
 -1       286 3.26309E+01
 -1       287 1.22007E+01
 -1       288 5.79345E+00
 -1       289 4.27032E+00
 -1       290 3.64324E+00
 -1       291 3.86289E+00
 -1       292 4.46104E+00
 -1       293 6.18033E+00
 -1       294 1.22660E+01
 -1       295 6.39594E+01
 -1       296 6.39594E+01
 -1       297 1.00891E+01
 -1       298 4.93702E+00
 -1       299 4.13468E+00
 -1       300 3.64391E+00
 -1       301 3.27466E+00
 -1       302 2.95644E+00
 -1       303 2.76141E+00
 -1       304 2.95209E+00
 -1       305 3.11295E+00
 -1       306 3.22198E+00
 -1       307 3.27221E+00
 -1       308 3.27221E+00
 -1       309 4.21810E+00
 -1       310 8.23632E+00
 -1       311 3.62570E+01
 -1       312 8.65884E+01
 -1       313 3.82542E+01
 -1       314 3.26178E+01
 -1       315 3.26309E+01
 -1       316 3.26309E+01
 -1       317 1.22007E+01
 -1       318 5.79345E+00
 -1       319 4.27032E+00
 -1       320 3.64324E+00
 -1       321 3.86289E+00
 -1       322 4.46104E+00
 -1       323 6.18033E+00
 -1       324 1.22660E+01
 -1       325 6.39594E+01
 -1       326 6.39594E+01
 -1       327 1.00891E+01
 -1       328 4.93702E+00
 -1       329 4.13468E+00
 -1       330 3.64391E+00
 -1       331 3.27466E+00
 -1       332 2.95644E+00
 -1       333 2.76141E+00
 -1       334 2.95209E+00
 -1       335 3.11295E+00
 -1       336 3.22198E+00
 -1       337 3.27221E+00
 -1       338 3.27221E+00
 -1       339 4.21810E+00
 -1       340 8.23632E+00
 -1       341 3.62570E+01
 -1       342 8.65884E+01
 -1       343 3.82542E+01
 -1       344 3.26178E+01
 -1       345 3.26309E+01
 -1       346 3.26309E+01
 -1       347 1.22007E+01
 -1       348 5.79345E+00
 -1       349 4.27032E+00
 -1       350 3.64324E+00
 -1       351 3.86289E+00
 -1       352 4.46104E+00
 -1       353 6.18033E+00
 -1       354 1.22660E+01
 -1       355 6.39594E+01
 -1       356 6.39594E+01
 -1       357 1.00891E+01
 -1       358 4.93702E+00
 -1       359 4.13468E+00
 -1       360 3.64391E+00
 -1       361 3.27466E+00
 -1       362 2.95644E+00
 -1       363 2.76141E+00
 -1       364 2.95209E+00
 -1       365 3.11295E+00
 -1       366 3.22198E+00
 -1       367 3.27221E+00
 -1       368 3.27221E+00
 -1       369 4.21810E+00
 -1       370 8.23632E+00
 -1       371 3.62570E+01
 -1       372 3.82542E+01
 -1       373 3.26178E+01
 -1       374 3.26309E+01
 -1       375 3.26309E+01
 -1       376 1.22007E+01
 -1       377 5.79345E+00
 -1       378 4.27032E+00
 -1       379 3.64324E+00
 -1       380 3.86289E+00
 -1       381 4.46104E+00
 -1       382 6.18033E+00
 -1       383 1.22660E+01
 -1       384 6.39594E+01
 -1       385 6.39594E+01
 -1       386 1.00891E+01
 -1       387 4.93702E+00
 -1       388 4.13468E+00
 -1       389 3.64391E+00
 -1       390 3.27466E+00
 -1       391 2.95644E+00
 -1       392 2.76141E+00
 -1       393 2.95209E+00
 -1       394 3.11295E+00
 -1       395 3.22198E+00
 -1       396 3.27221E+00
 -1       397 3.27221E+00
 -1       398 4.21810E+00
 -1       399 8.23632E+00
 -1       400 3.62570E+01
 -1       401 4.12559E+01
 -1       402 4.12559E+01
 -1       403 8.65884E+01
 -1       404 7.97014E+01
 -1       405 7.97014E+01
 -1       406 7.47266E+01
 -1       407 7.47266E+01
 -1       408 6.90154E+01
 -1       409 6.61818E+01
 -1       410 8.90877E+00
 -1       411 6.80289E+00
 -1       412 7.14086E+00
 -1       413 8.41353E+00
 -1       414 1.11655E+01
 -1       415 7.61302E+01
 -1       416 7.61302E+01
 -1       417 6.07953E+01
 -1       418 1.28140E+01
 -1       419 4.48652E+00
 -1       420 3.39059E+00
 -1       421 3.09332E+00
 -1       422 2.82182E+00
 -1       423 2.52596E+00
 -1       424 2.33003E+00
 -1       425 2.33003E+00
 -1       426 2.26067E+00
 -1       427 2.45797E+00
 -1       428 3.38199E+00
 -1       429 9.28334E+00
 -1       430 2.28174E+01
 -1       431 8.76156E+01
 -1       432 8.76156E+01
 -1       433 8.65884E+01
 -1       434 4.12559E+01
 -1       435 4.12559E+01
 -1       436 8.76156E+01
 -1       437 8.76156E+01
 -1       438 2.28174E+01
 -1       439 9.28334E+00
 -1       440 3.38199E+00
 -1       441 2.45797E+00
 -1       442 2.26067E+00
 -1       443 2.33003E+00
 -1       444 2.33003E+00
 -1       445 2.52596E+00
 -1       446 2.82182E+00
 -1       447 3.09332E+00
 -1       448 3.39059E+00
 -1       449 4.48652E+00
 -1       450 1.28140E+01
 -1       451 6.07953E+01
 -1       452 7.61302E+01
 -1       453 7.61302E+01
 -1       454 1.11655E+01
 -1       455 8.41353E+00
 -1       456 7.14086E+00
 -1       457 6.80289E+00
 -1       458 8.90877E+00
 -1       459 6.61818E+01
 -1       460 6.90154E+01
 -1       461 7.47266E+01
 -1       462 7.47266E+01
 -1       463 7.97014E+01
 -1       464 7.97014E+01
 -1       465 8.65884E+01
 -1       466 3.82542E+01
 -1       467 3.26178E+01
 -1       468 3.26309E+01
 -1       469 3.26309E+01
 -1       470 1.22007E+01
 -1       471 5.79345E+00
 -1       472 4.27032E+00
 -1       473 3.64324E+00
 -1       474 3.86289E+00
 -1       475 4.46104E+00
 -1       476 6.18033E+00
 -1       477 1.22660E+01
 -1       478 6.39594E+01
 -1       479 6.39594E+01
 -1       480 1.00891E+01
 -1       481 4.93702E+00
 -1       482 4.13468E+00
 -1       483 3.64391E+00
 -1       484 3.27466E+00
 -1       485 2.95644E+00
 -1       486 2.76141E+00
 -1       487 2.95209E+00
 -1       488 3.11295E+00
 -1       489 3.22198E+00
 -1       490 3.27221E+00
 -1       491 3.27221E+00
 -1       492 4.21810E+00
 -1       493 8.23632E+00
 -1       494 3.62570E+01
 -1       495 3.82542E+01
 -1       496 3.26178E+01
 -1       497 3.26309E+01
 -1       498 3.26309E+01
 -1       499 1.22007E+01
 -1       500 5.79345E+00
 -1       501 4.27032E+00
 -1       502 3.64324E+00
 -1       503 3.86289E+00
 -1       504 4.46104E+00
 -1       505 6.18033E+00
 -1       506 1.22660E+01
 -1       507 6.39594E+01
 -1       508 6.39594E+01
 -1       509 1.00891E+01
 -1       510 4.93702E+00
 -1       511 4.13468E+00
 -1       512 3.64391E+00
 -1       513 3.27466E+00
 -1       514 2.95644E+00
 -1       515 2.76141E+00
 -1       516 2.95209E+00
 -1       517 3.11295E+00
 -1       518 3.22198E+00
 -1       519 3.27221E+00
 -1       520 3.27221E+00
 -1       521 4.21810E+00
 -1       522 8.23632E+00
 -1       523 3.62570E+01
 -1       524 8.65884E+01
 -1       525 1.26603E+01
 -1       526 1.26603E+01
 -1       527 2.74658E+00
 -1       528 4.31889E+00
 -1       529 1.12058E+01
 -1       530 1.95572E+01
 -1       531 3.72456E+01
 -1       532 5.38630E+01
 -1       533 5.38630E+01
 -1       534 2.68035E+01
 -1       535 1.61431E+01
 -1       536 8.19036E+00
 -1       537 3.03332E+00
 -1       538 2.38823E+00
 -1       539 4.88361E+00
 -1       540 1.12845E+01
 -1       541 1.85848E+01
 -1       542 2.85242E+01
 -1       543 4.29045E+01
 -1       544 5.73092E+01
 -1       545 5.73092E+01
 -1       546 5.41335E+01
 -1       547 3.83186E+01
 -1       548 2.79311E+01
 -1       549 2.09091E+01
 -1       550 1.59023E+01
 -1       551 1.23198E+01
 -1       552 9.82983E+00
 -1       553 2.04892E+01
 -1       554 3.54073E+00
 -1       555 3.54073E+00
 -1       556 2.74658E+00
 -1       557 2.24663E+00
 -1       558 6.08905E+00
 -1       559 1.74533E+01
 -1       560 3.72456E+01
 -1       561 5.38630E+01
 -1       562 5.38630E+01
 -1       563 2.68035E+01
 -1       564 1.33564E+01
 -1       565 4.80773E+00
 -1       566 2.07670E+00
 -1       567 2.38823E+00
 -1       568 4.74436E+00
 -1       569 1.09136E+01
 -1       570 1.85848E+01
 -1       571 2.85242E+01
 -1       572 4.29045E+01
 -1       573 5.73092E+01
 -1       574 5.73092E+01
 -1       575 5.41335E+01
 -1       576 3.83186E+01
 -1       577 2.79311E+01
 -1       578 2.09091E+01
 -1       579 1.59023E+01
 -1       580 1.23198E+01
 -1       581 9.82983E+00
 -1       582 1.37690E+01
 -1       583 1.26603E+01
 -1       584 1.26603E+01
 -1       585 2.74658E+00
 -1       586 4.31889E+00
 -1       587 1.12058E+01
 -1       588 1.95572E+01
 -1       589 3.72456E+01
 -1       590 5.38630E+01
 -1       591 5.38630E+01
 -1       592 2.68035E+01
 -1       593 1.61431E+01
 -1       594 8.19036E+00
 -1       595 3.03332E+00
 -1       596 2.38823E+00
 -1       597 4.88361E+00
 -1       598 1.12845E+01
 -1       599 1.85848E+01
 -1       600 2.85242E+01
 -1       601 4.29045E+01
 -1       602 5.73092E+01
 -1       603 5.73092E+01
 -1       604 5.41335E+01
 -1       605 3.83186E+01
 -1       606 2.79311E+01
 -1       607 2.09091E+01
 -1       608 1.59023E+01
 -1       609 1.23198E+01
 -1       610 9.82983E+00
 -1       611 2.04892E+01
 -1       612 1.26603E+01
 -1       613 1.26603E+01
 -1       614 2.74658E+00
 -1       615 4.31889E+00
 -1       616 1.12058E+01
 -1       617 1.95572E+01
 -1       618 3.72456E+01
 -1       619 5.38630E+01
 -1       620 5.38630E+01
 -1       621 2.68035E+01
 -1       622 1.61431E+01
 -1       623 8.19036E+00
 -1       624 3.03332E+00
 -1       625 2.38823E+00
 -1       626 4.88361E+00
 -1       627 1.12845E+01
 -1       628 1.85848E+01
 -1       629 2.85242E+01
 -1       630 4.29045E+01
 -1       631 5.73092E+01
 -1       632 5.73092E+01
 -1       633 5.41335E+01
 -1       634 3.83186E+01
 -1       635 2.79311E+01
 -1       636 2.09091E+01
 -1       637 1.59023E+01
 -1       638 1.23198E+01
 -1       639 9.82983E+00
 -1       640 2.04892E+01
 -1       641 3.54073E+00
 -1       642 3.54073E+00
 -1       643 2.74658E+00
 -1       644 2.24663E+00
 -1       645 6.08905E+00
 -1       646 1.74533E+01
 -1       647 3.72456E+01
 -1       648 5.38630E+01
 -1       649 5.38630E+01
 -1       650 2.68035E+01
 -1       651 1.33564E+01
 -1       652 4.80773E+00
 -1       653 2.07670E+00
 -1       654 2.38823E+00
 -1       655 4.74436E+00
 -1       656 1.09136E+01
 -1       657 1.85848E+01
 -1       658 2.85242E+01
 -1       659 4.29045E+01
 -1       660 5.73092E+01
 -1       661 5.73092E+01
 -1       662 5.41335E+01
 -1       663 3.83186E+01
 -1       664 2.79311E+01
 -1       665 2.09091E+01
 -1       666 1.59023E+01
 -1       667 1.23198E+01
 -1       668 9.82983E+00
 -1       669 1.37690E+01
 -1       670 1.26603E+01
 -1       671 1.26603E+01
 -1       672 2.74658E+00
 -1       673 4.31889E+00
 -1       674 1.12058E+01
 -1       675 1.95572E+01
 -1       676 3.72456E+01
 -1       677 5.38630E+01
 -1       678 5.38630E+01
 -1       679 2.68035E+01
 -1       680 1.61431E+01
 -1       681 8.19036E+00
 -1       682 3.03332E+00
 -1       683 2.38823E+00
 -1       684 4.88361E+00
 -1       685 1.12845E+01
 -1       686 1.85848E+01
 -1       687 2.85242E+01
 -1       688 4.29045E+01
 -1       689 5.73092E+01
 -1       690 5.73092E+01
 -1       691 5.41335E+01
 -1       692 3.83186E+01
 -1       693 2.79311E+01
 -1       694 2.09091E+01
 -1       695 1.59023E+01
 -1       696 1.23198E+01
 -1       697 9.82983E+00
 -1       698 2.04892E+01
 -1       699 4.12559E+01
 -1       700 3.26178E+01
 -1       701 4.68577E+01
 -1       702 4.68577E+01
 -1       703 2.03062E+01
 -1       704 8.31820E+00
 -1       705 4.27032E+00
 -1       706 3.64324E+00
 -1       707 3.86289E+00
 -1       708 4.46104E+00
 -1       709 8.18889E+00
 -1       710 2.16522E+01
 -1       711 6.39594E+01
 -1       712 6.39594E+01
 -1       713 1.28140E+01
 -1       714 4.93702E+00
 -1       715 4.13468E+00
 -1       716 3.64391E+00
 -1       717 3.27466E+00
 -1       718 2.95644E+00
 -1       719 2.76141E+00
 -1       720 2.95209E+00
 -1       721 3.11295E+00
 -1       722 3.22198E+00
 -1       723 3.27221E+00
 -1       724 4.26693E+00
 -1       725 1.33995E+01
 -1       726 8.76156E+01
 -1       727 8.76156E+01
 -1       728 4.12559E+01
 -1       729 3.26178E+01
 -1       730 4.68577E+01
 -1       731 4.68577E+01
 -1       732 2.03062E+01
 -1       733 8.31820E+00
 -1       734 4.27032E+00
 -1       735 3.64324E+00
 -1       736 3.86289E+00
 -1       737 4.46104E+00
 -1       738 8.18889E+00
 -1       739 2.16522E+01
 -1       740 6.39594E+01
 -1       741 6.39594E+01
 -1       742 1.28140E+01
 -1       743 4.93702E+00
 -1       744 4.13468E+00
 -1       745 3.64391E+00
 -1       746 3.27466E+00
 -1       747 2.95644E+00
 -1       748 2.76141E+00
 -1       749 2.95209E+00
 -1       750 3.11295E+00
 -1       751 3.22198E+00
 -1       752 3.27221E+00
 -1       753 4.26693E+00
 -1       754 1.33995E+01
 -1       755 8.76156E+01
 -1       756 8.76156E+01
 -1       757 4.12559E+01
 -1       758 3.26178E+01
 -1       759 4.68577E+01
 -1       760 4.68577E+01
 -1       761 2.03062E+01
 -1       762 8.31820E+00
 -1       763 4.27032E+00
 -1       764 3.64324E+00
 -1       765 3.86289E+00
 -1       766 4.46104E+00
 -1       767 8.18889E+00
 -1       768 2.16522E+01
 -1       769 6.39594E+01
 -1       770 6.39594E+01
 -1       771 1.28140E+01
 -1       772 4.93702E+00
 -1       773 4.13468E+00
 -1       774 3.64391E+00
 -1       775 3.27466E+00
 -1       776 2.95644E+00
 -1       777 2.76141E+00
 -1       778 2.95209E+00
 -1       779 3.11295E+00
 -1       780 3.22198E+00
 -1       781 3.27221E+00
 -1       782 4.26693E+00
 -1       783 1.33995E+01
 -1       784 8.76156E+01
 -1       785 8.76156E+01
 -1       786 4.12559E+01
 -1       787 3.26178E+01
 -1       788 4.68577E+01
 -1       789 4.68577E+01
 -1       790 2.03062E+01
 -1       791 8.31820E+00
 -1       792 4.27032E+00
 -1       793 3.64324E+00
 -1       794 3.86289E+00
 -1       795 4.46104E+00
 -1       796 8.18889E+00
 -1       797 2.16522E+01
 -1       798 6.39594E+01
 -1       799 6.39594E+01
 -1       800 1.28140E+01
 -1       801 4.93702E+00
 -1       802 4.13468E+00
 -1       803 3.64391E+00
 -1       804 3.27466E+00
 -1       805 2.95644E+00
 -1       806 2.76141E+00
 -1       807 2.95209E+00
 -1       808 3.11295E+00
 -1       809 3.22198E+00
 -1       810 3.27221E+00
 -1       811 4.26693E+00
 -1       812 1.33995E+01
 -1       813 8.76156E+01
 -1       814 8.76156E+01
 -1       815 4.12559E+01
 -1       816 3.26178E+01
 -1       817 4.68577E+01
 -1       818 4.68577E+01
 -1       819 2.03062E+01
 -1       820 8.31820E+00
 -1       821 4.27032E+00
 -1       822 3.64324E+00
 -1       823 3.86289E+00
 -1       824 4.46104E+00
 -1       825 8.18889E+00
 -1       826 2.16522E+01
 -1       827 6.39594E+01
 -1       828 6.39594E+01
 -1       829 1.28140E+01
 -1       830 4.93702E+00
 -1       831 4.13468E+00
 -1       832 3.64391E+00
 -1       833 3.27466E+00
 -1       834 2.95644E+00
 -1       835 2.76141E+00
 -1       836 2.95209E+00
 -1       837 3.11295E+00
 -1       838 3.22198E+00
 -1       839 3.27221E+00
 -1       840 4.26693E+00
 -1       841 1.33995E+01
 -1       842 8.76156E+01
 -1       843 8.76156E+01
 -1       844 4.12559E+01
 -1       845 3.26178E+01
 -1       846 4.68577E+01
 -1       847 4.68577E+01
 -1       848 2.03062E+01
 -1       849 8.31820E+00
 -1       850 4.27032E+00
 -1       851 3.64324E+00
 -1       852 3.86289E+00
 -1       853 4.46104E+00
 -1       854 8.18889E+00
 -1       855 2.16522E+01
 -1       856 6.39594E+01
 -1       857 6.39594E+01
 -1       858 1.28140E+01
 -1       859 4.93702E+00
 -1       860 4.13468E+00
 -1       861 3.64391E+00
 -1       862 3.27466E+00
 -1       863 2.95644E+00
 -1       864 2.76141E+00
 -1       865 2.95209E+00
 -1       866 3.11295E+00
 -1       867 3.22198E+00
 -1       868 3.27221E+00
 -1       869 4.26693E+00
 -1       870 1.33995E+01
 -1       871 8.76156E+01
 -1       872 8.76156E+01
 -1       873 8.76156E+01
 -1       874 8.76156E+01
 -1       875 1.33995E+01
 -1       876 4.26693E+00
 -1       877 3.27221E+00
 -1       878 3.22198E+00
 -1       879 3.11295E+00
 -1       880 2.95209E+00
 -1       881 2.76141E+00
 -1       882 2.95644E+00
 -1       883 3.27466E+00
 -1       884 3.64391E+00
 -1       885 4.13468E+00
 -1       886 4.93702E+00
 -1       887 1.28140E+01
 -1       888 6.39594E+01
 -1       889 6.39594E+01
 -1       890 2.16522E+01
 -1       891 8.18889E+00
 -1       892 4.46104E+00
 -1       893 3.86289E+00
 -1       894 3.64324E+00
 -1       895 4.27032E+00
 -1       896 8.31820E+00
 -1       897 2.03062E+01
 -1       898 4.68577E+01
 -1       899 4.68577E+01
 -1       900 3.26178E+01
 -1       901 4.12559E+01
 -1       902 4.12559E+01
 -1       903 3.26178E+01
 -1       904 4.68577E+01
 -1       905 4.68577E+01
 -1       906 2.03062E+01
 -1       907 8.31820E+00
 -1       908 4.27032E+00
 -1       909 3.64324E+00
 -1       910 3.86289E+00
 -1       911 4.46104E+00
 -1       912 8.18889E+00
 -1       913 2.16522E+01
 -1       914 6.39594E+01
 -1       915 6.39594E+01
 -1       916 1.28140E+01
 -1       917 4.93702E+00
 -1       918 4.13468E+00
 -1       919 3.64391E+00
 -1       920 3.27466E+00
 -1       921 2.95644E+00
 -1       922 2.76141E+00
 -1       923 2.95209E+00
 -1       924 3.11295E+00
 -1       925 3.22198E+00
 -1       926 3.27221E+00
 -1       927 4.26693E+00
 -1       928 1.33995E+01
 -1       929 8.76156E+01
 -1       930 8.76156E+01
 -3
    1PSTEP                        49           1           1          
    1PGM                1.000000E+00                                  
    1PGK                1.866454E+07                                  
    1PHID                         -1                                  
    1PSUBC                         0                                  
    1PMODE                        13                                  
  100CL  113 687.5888427         930                     2   13MODAL      1
 -4  DISP        4    1
 -5  D1          1    2    1    0
 -5  D2          1    2    2    0
 -5  D3          1    2    3    0
 -5  ALL         1    2    0    0    1ALL
 -1         1 0.00000E+00 0.00000E+00 0.00000E+00
 -1         2 0.00000E+00 0.00000E+00 0.00000E+00
 -1         3 2.10506E-03 1.10534E-01 3.15500E-03
 -1         4-2.10506E-03 1.10534E-01-3.15500E-03
 -1         5 0.00000E+00 0.00000E+00 0.00000E+00
 -1         6 0.00000E+00 0.00000E+00 0.00000E+00
 -1         7 2.10506E-03 1.10534E-01-3.15500E-03
 -1         8-2.10506E-03 1.10534E-01 3.15500E-03
 -1         9 0.00000E+00 0.00000E+00 0.00000E+00
 -1        10 2.14967E-03 1.00472E-01 3.18404E-03
 -1        11 0.00000E+00 0.00000E+00 0.00000E+00
 -1        12 0.00000E+00 0.00000E+00 0.00000E+00
 -1        13 4.43307E-02 1.00580E-01 6.62812E-02
 -1        14 4.03337E-02 1.10341E-01 6.62655E-02
 -1        15 0.00000E+00 0.00000E+00 0.00000E+00
 -1        16 2.14967E-03 1.00472E-01-3.18404E-03
 -1        17 0.00000E+00 0.00000E+00 0.00000E+00
 -1        18 0.00000E+00 0.00000E+00 0.00000E+00
 -1        19 4.03337E-02 1.10341E-01-6.62655E-02
 -1        20 4.43307E-02 1.00580E-01-6.62812E-02
 -1        21 0.00000E+00 0.00000E+00 0.00000E+00
 -1        22 0.00000E+00 0.00000E+00 0.00000E+00
 -1        23-4.43307E-02 1.00580E-01-6.62812E-02
 -1        24-4.03337E-02 1.10341E-01-6.62655E-02
 -1        25 0.00000E+00 0.00000E+00 0.00000E+00
 -1        26-2.14967E-03 1.00472E-01-3.18404E-03
 -1        27 0.00000E+00 0.00000E+00 0.00000E+00
 -1        28 0.00000E+00 0.00000E+00 0.00000E+00
 -1        29 0.00000E+00 0.00000E+00 0.00000E+00
 -1        30-2.14967E-03 1.00472E-01 3.18404E-03
 -1        31-4.43307E-02 1.00580E-01 6.62812E-02
 -1        32-4.03337E-02 1.10341E-01 6.62655E-02
 -1        33-8.32762E-04 1.40049E-02-3.51409E-04
 -1        34-1.03560E-03 3.93203E-02-1.30513E-03
 -1        35-8.80945E-04 6.49572E-02-2.31703E-03
 -1        36-4.13282E-04 8.21985E-02-3.01673E-03
 -1        37 2.12883E-04 8.52681E-02-3.17492E-03
 -1        38 8.41422E-04 7.21503E-02-2.72336E-03
 -1        39 1.31751E-03 4.48333E-02-1.74297E-03
 -1        40 1.52754E-03 8.69091E-03-4.35033E-04
 -1        41 1.41889E-03-2.87941E-02 9.26077E-04
 -1        42 1.01057E-03-5.97220E-02 2.05351E-03
 -1        43 3.88034E-04-7.75314E-02 2.71020E-03
 -1        44-3.15818E-04-7.84485E-02 2.75997E-03
 -1        45-9.49832E-04-6.23220E-02 2.19680E-03
 -1        46-1.37753E-03-3.26677E-02 1.14593E-03
 -1        47-1.50682E-03 4.08496E-03-1.63406E-04
 -1        48-1.31006E-03 3.99799E-02-1.44767E-03
 -1        49-8.30125E-04 6.72543E-02-2.43043E-03
 -1        50-1.71262E-04 8.00193E-02-2.90231E-03
 -1        51 5.23332E-04 7.55374E-02-2.76624E-03
 -1        52 1.10230E-03 5.48219E-02-2.05840E-03
 -1        53 1.43858E-03 2.24297E-02-9.40155E-04
 -1        54 1.45649E-03-1.45049E-02 3.37491E-04
 -1        55 1.14743E-03-4.77828E-02 1.48910E-03
 -1        56 5.70784E-04-6.98651E-02 2.25780E-03
 -1        57-1.60313E-04-7.54272E-02 2.47175E-03
 -1        58-9.05806E-04-6.23942E-02 2.08062E-03
 -1        59-1.53006E-03-3.22199E-02 1.15820E-03
 -1        60-1.94129E-03 1.06642E-02-1.27965E-04
 -1        61-2.09476E-03 6.01747E-02-1.59786E-03
 -1        62 8.32762E-04 1.40049E-02 3.51409E-04
 -1        63 1.03560E-03 3.93203E-02 1.30513E-03
 -1        64 8.80945E-04 6.49572E-02 2.31703E-03
 -1        65 4.13282E-04 8.21985E-02 3.01673E-03
 -1        66-2.12883E-04 8.52681E-02 3.17492E-03
 -1        67-8.41422E-04 7.21503E-02 2.72336E-03
 -1        68-1.31751E-03 4.48333E-02 1.74297E-03
 -1        69-1.52754E-03 8.69091E-03 4.35033E-04
 -1        70-1.41889E-03-2.87941E-02-9.26077E-04
 -1        71-1.01057E-03-5.97220E-02-2.05351E-03
 -1        72-3.88034E-04-7.75314E-02-2.71020E-03
 -1        73 3.15818E-04-7.84485E-02-2.75997E-03
 -1        74 9.49832E-04-6.23220E-02-2.19680E-03
 -1        75 1.37753E-03-3.26677E-02-1.14593E-03
 -1        76 1.50682E-03 4.08496E-03 1.63406E-04
 -1        77 1.31006E-03 3.99799E-02 1.44767E-03
 -1        78 8.30125E-04 6.72543E-02 2.43043E-03
 -1        79 1.71262E-04 8.00193E-02 2.90231E-03
 -1        80-5.23332E-04 7.55374E-02 2.76624E-03
 -1        81-1.10230E-03 5.48219E-02 2.05840E-03
 -1        82-1.43858E-03 2.24297E-02 9.40155E-04
 -1        83-1.45649E-03-1.45049E-02-3.37491E-04
 -1        84-1.14743E-03-4.77828E-02-1.48910E-03
 -1        85-5.70784E-04-6.98651E-02-2.25780E-03
 -1        86 1.60313E-04-7.54272E-02-2.47175E-03
 -1        87 9.05806E-04-6.23942E-02-2.08062E-03
 -1        88 1.53006E-03-3.22199E-02-1.15820E-03
 -1        89 1.94129E-03 1.06642E-02 1.27965E-04
 -1        90 2.09476E-03 6.01747E-02 1.59786E-03
 -1        91 0.00000E+00 0.00000E+00 0.00000E+00
 -1        92 0.00000E+00 0.00000E+00 0.00000E+00
 -1        93 0.00000E+00 0.00000E+00 0.00000E+00
 -1        94 0.00000E+00 0.00000E+00 0.00000E+00
 -1        95 0.00000E+00 0.00000E+00 0.00000E+00
 -1        96 0.00000E+00 0.00000E+00 0.00000E+00
 -1        97 8.32762E-04 1.40049E-02-3.51409E-04
 -1        98 1.03560E-03 3.93203E-02-1.30513E-03
 -1        99 8.80945E-04 6.49572E-02-2.31703E-03
 -1       100 4.13282E-04 8.21985E-02-3.01673E-03
 -1       101-2.12883E-04 8.52681E-02-3.17492E-03
 -1       102-8.41422E-04 7.21503E-02-2.72336E-03
 -1       103-1.31751E-03 4.48333E-02-1.74297E-03
 -1       104-1.52754E-03 8.69091E-03-4.35033E-04
 -1       105-1.41889E-03-2.87941E-02 9.26077E-04
 -1       106-1.01057E-03-5.97220E-02 2.05351E-03
 -1       107-3.88034E-04-7.75314E-02 2.71020E-03
 -1       108 3.15818E-04-7.84485E-02 2.75997E-03
 -1       109 9.49832E-04-6.23220E-02 2.19680E-03
 -1       110 1.37753E-03-3.26677E-02 1.14593E-03
 -1       111 1.50682E-03 4.08496E-03-1.63406E-04
 -1       112 1.31006E-03 3.99799E-02-1.44767E-03
 -1       113 8.30125E-04 6.72543E-02-2.43043E-03
 -1       114 1.71262E-04 8.00193E-02-2.90231E-03
 -1       115-5.23332E-04 7.55374E-02-2.76624E-03
 -1       116-1.10230E-03 5.48219E-02-2.05840E-03
 -1       117-1.43858E-03 2.24297E-02-9.40155E-04
 -1       118-1.45649E-03-1.45049E-02 3.37491E-04
 -1       119-1.14743E-03-4.77828E-02 1.48910E-03
 -1       120-5.70784E-04-6.98651E-02 2.25780E-03
 -1       121 1.60313E-04-7.54272E-02 2.47175E-03
 -1       122 9.05806E-04-6.23942E-02 2.08062E-03
 -1       123 1.53006E-03-3.22199E-02 1.15820E-03
 -1       124 1.94129E-03 1.06642E-02-1.27965E-04
 -1       125 2.09476E-03 6.01747E-02-1.59786E-03
 -1       126 3.53495E-03 1.71961E-01 2.18531E-03
 -1       127 4.05959E-03 1.96846E-01 6.52665E-13
 -1       128 3.53495E-03 1.71961E-01-2.18531E-03
 -1       129-8.32762E-04 1.40049E-02 3.51409E-04
 -1       130-1.03560E-03 3.93203E-02 1.30513E-03
 -1       131-8.80945E-04 6.49572E-02 2.31703E-03
 -1       132-4.13282E-04 8.21985E-02 3.01673E-03
 -1       133 2.12883E-04 8.52681E-02 3.17492E-03
 -1       134 8.41422E-04 7.21503E-02 2.72336E-03
 -1       135 1.31751E-03 4.48333E-02 1.74297E-03
 -1       136 1.52754E-03 8.69091E-03 4.35033E-04
 -1       137 1.41889E-03-2.87941E-02-9.26077E-04
 -1       138 1.01057E-03-5.97220E-02-2.05351E-03
 -1       139 3.88034E-04-7.75314E-02-2.71020E-03
 -1       140-3.15818E-04-7.84485E-02-2.75997E-03
 -1       141-9.49832E-04-6.23220E-02-2.19680E-03
 -1       142-1.37753E-03-3.26677E-02-1.14593E-03
 -1       143-1.50682E-03 4.08496E-03 1.63406E-04
 -1       144-1.31006E-03 3.99799E-02 1.44767E-03
 -1       145-8.30125E-04 6.72543E-02 2.43043E-03
 -1       146-1.71262E-04 8.00193E-02 2.90231E-03
 -1       147 5.23332E-04 7.55374E-02 2.76624E-03
 -1       148 1.10230E-03 5.48219E-02 2.05840E-03
 -1       149 1.43858E-03 2.24297E-02 9.40155E-04
 -1       150 1.45649E-03-1.45049E-02-3.37491E-04
 -1       151 1.14743E-03-4.77828E-02-1.48910E-03
 -1       152 5.70784E-04-6.98651E-02-2.25780E-03
 -1       153-1.60313E-04-7.54272E-02-2.47175E-03
 -1       154-9.05806E-04-6.23942E-02-2.08062E-03
 -1       155-1.53006E-03-3.22199E-02-1.15820E-03
 -1       156-1.94129E-03 1.06642E-02 1.27965E-04
 -1       157-2.09476E-03 6.01747E-02 1.59786E-03
 -1       158-3.53495E-03 1.71961E-01 2.18531E-03
 -1       159-4.05959E-03 1.96846E-01 6.28112E-13
 -1       160-3.53495E-03 1.71961E-01-2.18531E-03
 -1       161 5.84249E-04 1.25828E-02 4.07403E-04
 -1       162 8.86325E-04 3.47003E-02 1.36210E-03
 -1       163 7.65023E-04 5.69516E-02 2.41031E-03
 -1       164 3.48857E-04 7.18388E-02 3.12687E-03
 -1       165-2.23867E-04 7.43751E-02 3.29043E-03
 -1       166-8.02806E-04 6.27966E-02 2.82351E-03
 -1       167-1.24214E-03 3.88298E-02 1.80920E-03
 -1       168-1.43467E-03 7.16237E-03 4.55299E-04
 -1       169-1.33071E-03-2.56628E-02-9.53986E-04
 -1       170-9.47606E-04-5.27289E-02-2.12157E-03
 -1       171-3.64957E-04-6.82865E-02-2.80195E-03
 -1       172 2.93289E-04-6.90278E-02-2.85415E-03
 -1       173 8.86078E-04-5.48225E-02-2.27191E-03
 -1       174 1.28604E-03-2.87582E-02-1.18479E-03
 -1       175 1.40726E-03 3.51907E-03 1.69986E-04
 -1       176 1.22398E-03 3.50225E-02 1.49905E-03
 -1       177 7.76336E-04 5.89340E-02 2.51639E-03
 -1       178 1.61771E-04 7.00803E-02 3.00537E-03
 -1       179-4.85880E-04 6.60556E-02 2.86555E-03
 -1       180-1.02514E-03 4.77496E-02 2.13437E-03
 -1       181-1.33719E-03 1.91686E-02 9.78691E-04
 -1       182-1.35114E-03-1.34096E-02-3.41967E-04
 -1       183-1.05865E-03-4.27590E-02-1.53256E-03
 -1       184-5.14748E-04-6.22168E-02-2.32754E-03
 -1       185 1.75695E-04-6.70470E-02-2.54897E-03
 -1       186 8.82957E-04-5.53519E-02-2.14428E-03
 -1       187 1.48373E-03-2.83297E-02-1.18976E-03
 -1       188 1.89451E-03 1.02049E-02 1.34505E-04
 -1       189 2.09675E-03 5.48966E-02 1.63239E-03
 -1       190 0.00000E+00 0.00000E+00 0.00000E+00
 -1       191 0.00000E+00 0.00000E+00 0.00000E+00
 -1       192 2.32108E-02 1.00470E-01 3.50562E-02
 -1       193 1.34640E-02 1.40052E-02 1.03462E-02
 -1       194 1.89569E-02 3.46850E-02 3.17769E-02
 -1       195 1.62716E-02 5.59325E-02 5.46050E-02
 -1       196 7.49948E-03 7.01626E-02 7.04526E-02
 -1       197-4.61390E-03 7.24621E-02 7.40548E-02
 -1       198-1.68217E-02 6.11126E-02 6.36091E-02
 -1       199-2.60912E-02 3.77727E-02 4.08727E-02
 -1       200-3.01590E-02 6.98145E-03 1.04922E-02
 -1       201-2.79819E-02-2.49168E-02-2.11495E-02
 -1       202-1.99265E-02-5.12118E-02-4.73771E-02
 -1       203-7.66907E-03-6.63243E-02-6.26775E-02
 -1       204 6.18091E-03-6.70447E-02-6.38863E-02
 -1       205 1.86542E-02-5.32479E-02-5.08617E-02
 -1       206 2.70696E-02-2.79337E-02-2.65080E-02
 -1       207 2.96186E-02 3.41389E-03 3.85798E-03
 -1       208 2.57587E-02 3.40091E-02 3.36601E-02
 -1       209 1.63342E-02 5.72302E-02 5.64883E-02
 -1       210 3.39575E-03 6.80531E-02 6.74874E-02
 -1       211-1.02404E-02 6.41420E-02 6.44073E-02
 -1       212-2.15969E-02 4.63628E-02 4.80863E-02
 -1       213-2.81739E-02 1.86091E-02 2.22600E-02
 -1       214-2.84799E-02-1.30168E-02-7.26522E-03
 -1       215-2.23403E-02-4.14890E-02-3.38920E-02
 -1       216-1.09130E-02-6.03246E-02-5.16805E-02
 -1       217 3.59426E-03-6.49079E-02-5.66352E-02
 -1       218 1.84458E-02-5.33750E-02-4.75374E-02
 -1       219 3.10306E-02-2.68539E-02-2.61519E-02
 -1       220 3.95231E-02 1.10102E-02 3.28648E-03
 -1       221 4.34317E-02 5.50743E-02 3.54154E-02
 -1       222 1.11689E-02 1.55349E-02 9.76614E-03
 -1       223 1.58580E-02 3.95515E-02 3.17806E-02
 -1       224 1.35975E-02 6.42833E-02 5.48275E-02
 -1       225 6.15022E-03 8.09426E-02 7.08834E-02
 -1       226-4.16453E-03 8.37971E-02 7.45503E-02
 -1       227-1.45786E-02 7.08522E-02 6.40470E-02
 -1       228-2.24931E-02 4.40334E-02 4.11442E-02
 -1       229-2.59562E-02 8.59114E-03 1.05301E-02
 -1       230-2.40606E-02-2.81523E-02-2.13592E-02
 -1       231-1.71132E-02-5.84638E-02-4.77925E-02
 -1       232-6.55225E-03-7.59197E-02-6.32112E-02
 -1       233 5.37730E-03-7.68258E-02-6.44243E-02
 -1       234 1.61176E-02-6.10350E-02-5.12886E-02
 -1       235 2.33578E-02-3.19920E-02-2.67319E-02
 -1       236 2.55382E-02 4.00527E-03 3.88509E-03
 -1       237 2.21905E-02 3.91640E-02 3.39320E-02
 -1       238 1.40423E-02 6.58809E-02 5.69458E-02
 -1       239 2.86194E-03 7.83886E-02 6.80310E-02
 -1       240-8.92044E-03 7.40068E-02 6.49184E-02
 -1       241-1.87338E-02 5.37294E-02 4.84529E-02
 -1       242-2.44153E-02 2.20222E-02 2.24003E-02
 -1       243-2.46675E-02-1.41240E-02-7.38553E-03
 -1       244-1.93248E-02-4.66736E-02-3.42530E-02
 -1       245-9.36791E-03-6.82346E-02-5.22134E-02
 -1       246 3.31632E-03-7.35792E-02-5.72389E-02
 -1       247 1.63833E-02-6.06561E-02-4.81023E-02
 -1       248 2.75960E-02-3.08661E-02-2.65872E-02
 -1       249 3.53786E-02 1.14859E-02 3.03244E-03
 -1       250 3.92774E-02 6.04341E-02 3.53250E-02
 -1       251 2.09119E-02 1.10354E-01 3.50379E-02
 -1       252 2.09675E-03 5.48966E-02-1.63239E-03
 -1       253 1.89451E-03 1.02049E-02-1.34505E-04
 -1       254 1.48373E-03-2.83297E-02 1.18976E-03
 -1       255 8.82957E-04-5.53519E-02 2.14428E-03
 -1       256 1.75695E-04-6.70470E-02 2.54897E-03
 -1       257-5.14748E-04-6.22168E-02 2.32754E-03
 -1       258-1.05865E-03-4.27590E-02 1.53256E-03
 -1       259-1.35114E-03-1.34096E-02 3.41967E-04
 -1       260-1.33719E-03 1.91686E-02-9.78691E-04
 -1       261-1.02514E-03 4.77496E-02-2.13437E-03
 -1       262-4.85880E-04 6.60556E-02-2.86555E-03
 -1       263 1.61771E-04 7.00803E-02-3.00537E-03
 -1       264 7.76336E-04 5.89340E-02-2.51639E-03
 -1       265 1.22398E-03 3.50225E-02-1.49905E-03
 -1       266 1.40726E-03 3.51907E-03-1.69986E-04
 -1       267 1.28604E-03-2.87582E-02 1.18479E-03
 -1       268 8.86078E-04-5.48225E-02 2.27191E-03
 -1       269 2.93289E-04-6.90278E-02 2.85415E-03
 -1       270-3.64957E-04-6.82865E-02 2.80195E-03
 -1       271-9.47606E-04-5.27289E-02 2.12157E-03
 -1       272-1.33071E-03-2.56628E-02 9.53986E-04
 -1       273-1.43467E-03 7.16237E-03-4.55299E-04
 -1       274-1.24214E-03 3.88298E-02-1.80920E-03
 -1       275-8.02806E-04 6.27966E-02-2.82351E-03
 -1       276-2.23867E-04 7.43751E-02-3.29043E-03
 -1       277 3.48857E-04 7.18388E-02-3.12687E-03
 -1       278 7.65023E-04 5.69516E-02-2.41031E-03
 -1       279 8.86325E-04 3.47003E-02-1.36210E-03
 -1       280 5.84249E-04 1.25828E-02-4.07403E-04
 -1       281 0.00000E+00 0.00000E+00 0.00000E+00
 -1       282 0.00000E+00 0.00000E+00 0.00000E+00
 -1       283 1.11689E-02 1.55349E-02-9.76614E-03
 -1       284 1.58580E-02 3.95515E-02-3.17806E-02
 -1       285 1.35975E-02 6.42833E-02-5.48275E-02
 -1       286 6.15022E-03 8.09426E-02-7.08834E-02
 -1       287-4.16453E-03 8.37971E-02-7.45503E-02
 -1       288-1.45786E-02 7.08522E-02-6.40470E-02
 -1       289-2.24931E-02 4.40334E-02-4.11442E-02
 -1       290-2.59562E-02 8.59114E-03-1.05301E-02
 -1       291-2.40606E-02-2.81523E-02 2.13592E-02
 -1       292-1.71132E-02-5.84638E-02 4.77925E-02
 -1       293-6.55225E-03-7.59197E-02 6.32112E-02
 -1       294 5.37730E-03-7.68258E-02 6.44243E-02
 -1       295 1.61176E-02-6.10350E-02 5.12886E-02
 -1       296 2.33578E-02-3.19920E-02 2.67319E-02
 -1       297 2.55382E-02 4.00527E-03-3.88509E-03
 -1       298 2.21905E-02 3.91640E-02-3.39320E-02
 -1       299 1.40423E-02 6.58809E-02-5.69458E-02
 -1       300 2.86194E-03 7.83886E-02-6.80310E-02
 -1       301-8.92044E-03 7.40068E-02-6.49184E-02
 -1       302-1.87338E-02 5.37294E-02-4.84529E-02
 -1       303-2.44153E-02 2.20222E-02-2.24003E-02
 -1       304-2.46675E-02-1.41240E-02 7.38553E-03
 -1       305-1.93248E-02-4.66736E-02 3.42530E-02
 -1       306-9.36791E-03-6.82346E-02 5.22134E-02
 -1       307 3.31632E-03-7.35792E-02 5.72389E-02
 -1       308 1.63833E-02-6.06561E-02 4.81023E-02
 -1       309 2.75960E-02-3.08661E-02 2.65872E-02
 -1       310 3.53786E-02 1.14859E-02-3.03244E-03
 -1       311 3.92774E-02 6.04341E-02-3.53250E-02
 -1       312 2.09119E-02 1.10354E-01-3.50379E-02
 -1       313 1.34640E-02 1.40052E-02-1.03462E-02
 -1       314 1.89569E-02 3.46850E-02-3.17769E-02
 -1       315 1.62716E-02 5.59325E-02-5.46050E-02
 -1       316 7.49948E-03 7.01626E-02-7.04526E-02
 -1       317-4.61390E-03 7.24621E-02-7.40548E-02
 -1       318-1.68217E-02 6.11126E-02-6.36091E-02
 -1       319-2.60912E-02 3.77727E-02-4.08727E-02
 -1       320-3.01590E-02 6.98145E-03-1.04922E-02
 -1       321-2.79819E-02-2.49168E-02 2.11495E-02
 -1       322-1.99265E-02-5.12118E-02 4.73771E-02
 -1       323-7.66907E-03-6.63243E-02 6.26775E-02
 -1       324 6.18091E-03-6.70447E-02 6.38863E-02
 -1       325 1.86542E-02-5.32479E-02 5.08617E-02
 -1       326 2.70696E-02-2.79337E-02 2.65080E-02
 -1       327 2.96186E-02 3.41389E-03-3.85798E-03
 -1       328 2.57587E-02 3.40091E-02-3.36601E-02
 -1       329 1.63342E-02 5.72302E-02-5.64883E-02
 -1       330 3.39575E-03 6.80531E-02-6.74874E-02
 -1       331-1.02404E-02 6.41420E-02-6.44073E-02
 -1       332-2.15969E-02 4.63628E-02-4.80863E-02
 -1       333-2.81739E-02 1.86091E-02-2.22600E-02
 -1       334-2.84799E-02-1.30168E-02 7.26522E-03
 -1       335-2.23403E-02-4.14890E-02 3.38920E-02
 -1       336-1.09130E-02-6.03246E-02 5.16805E-02
 -1       337 3.59426E-03-6.49079E-02 5.66352E-02
 -1       338 1.84458E-02-5.33750E-02 4.75374E-02
 -1       339 3.10306E-02-2.68539E-02 2.61519E-02
 -1       340 3.95231E-02 1.10102E-02-3.28648E-03
 -1       341 4.34317E-02 5.50743E-02-3.54154E-02
 -1       342 2.32108E-02 1.00470E-01-3.50562E-02
 -1       343-1.34640E-02 1.40052E-02-1.03462E-02
 -1       344-1.89569E-02 3.46850E-02-3.17769E-02
 -1       345-1.62716E-02 5.59325E-02-5.46050E-02
 -1       346-7.49948E-03 7.01626E-02-7.04526E-02
 -1       347 4.61390E-03 7.24621E-02-7.40548E-02
 -1       348 1.68217E-02 6.11126E-02-6.36091E-02
 -1       349 2.60912E-02 3.77727E-02-4.08727E-02
 -1       350 3.01590E-02 6.98145E-03-1.04922E-02
 -1       351 2.79819E-02-2.49168E-02 2.11495E-02
 -1       352 1.99265E-02-5.12118E-02 4.73771E-02
 -1       353 7.66907E-03-6.63243E-02 6.26775E-02
 -1       354-6.18091E-03-6.70447E-02 6.38863E-02
 -1       355-1.86542E-02-5.32479E-02 5.08617E-02
 -1       356-2.70696E-02-2.79337E-02 2.65080E-02
 -1       357-2.96186E-02 3.41389E-03-3.85798E-03
 -1       358-2.57587E-02 3.40091E-02-3.36601E-02
 -1       359-1.63342E-02 5.72302E-02-5.64883E-02
 -1       360-3.39575E-03 6.80531E-02-6.74874E-02
 -1       361 1.02404E-02 6.41420E-02-6.44073E-02
 -1       362 2.15969E-02 4.63628E-02-4.80863E-02
 -1       363 2.81739E-02 1.86091E-02-2.22600E-02
 -1       364 2.84799E-02-1.30168E-02 7.26522E-03
 -1       365 2.23403E-02-4.14890E-02 3.38920E-02
 -1       366 1.09130E-02-6.03246E-02 5.16805E-02
 -1       367-3.59426E-03-6.49079E-02 5.66352E-02
 -1       368-1.84458E-02-5.33750E-02 4.75374E-02
 -1       369-3.10306E-02-2.68539E-02 2.61519E-02
 -1       370-3.95231E-02 1.10102E-02-3.28648E-03
 -1       371-4.34317E-02 5.50743E-02-3.54154E-02
 -1       372-1.11689E-02 1.55349E-02-9.76614E-03
 -1       373-1.58580E-02 3.95515E-02-3.17806E-02
 -1       374-1.35975E-02 6.42833E-02-5.48275E-02
 -1       375-6.15022E-03 8.09426E-02-7.08834E-02
 -1       376 4.16453E-03 8.37971E-02-7.45503E-02
 -1       377 1.45786E-02 7.08522E-02-6.40470E-02
 -1       378 2.24931E-02 4.40334E-02-4.11442E-02
 -1       379 2.59562E-02 8.59114E-03-1.05301E-02
 -1       380 2.40606E-02-2.81523E-02 2.13592E-02
 -1       381 1.71132E-02-5.84638E-02 4.77925E-02
 -1       382 6.55225E-03-7.59197E-02 6.32112E-02
 -1       383-5.37730E-03-7.68258E-02 6.44243E-02
 -1       384-1.61176E-02-6.10350E-02 5.12886E-02
 -1       385-2.33578E-02-3.19920E-02 2.67319E-02
 -1       386-2.55382E-02 4.00527E-03-3.88509E-03
 -1       387-2.21905E-02 3.91640E-02-3.39320E-02
 -1       388-1.40423E-02 6.58809E-02-5.69458E-02
 -1       389-2.86194E-03 7.83886E-02-6.80310E-02
 -1       390 8.92044E-03 7.40068E-02-6.49184E-02
 -1       391 1.87338E-02 5.37294E-02-4.84529E-02
 -1       392 2.44153E-02 2.20222E-02-2.24003E-02
 -1       393 2.46675E-02-1.41240E-02 7.38553E-03
 -1       394 1.93248E-02-4.66736E-02 3.42530E-02
 -1       395 9.36791E-03-6.82346E-02 5.22134E-02
 -1       396-3.31632E-03-7.35792E-02 5.72389E-02
 -1       397-1.63833E-02-6.06561E-02 4.81023E-02
 -1       398-2.75960E-02-3.08661E-02 2.65872E-02
 -1       399-3.53786E-02 1.14859E-02-3.03244E-03
 -1       400-3.92774E-02 6.04341E-02-3.53250E-02
 -1       401 0.00000E+00 0.00000E+00 0.00000E+00
 -1       402 0.00000E+00 0.00000E+00 0.00000E+00
 -1       403-2.32108E-02 1.00470E-01-3.50562E-02
 -1       404-5.84249E-04 1.25828E-02-4.07403E-04
 -1       405-8.86325E-04 3.47003E-02-1.36210E-03
 -1       406-7.65023E-04 5.69516E-02-2.41031E-03
 -1       407-3.48857E-04 7.18388E-02-3.12687E-03
 -1       408 2.23867E-04 7.43751E-02-3.29043E-03
 -1       409 8.02806E-04 6.27966E-02-2.82351E-03
 -1       410 1.24214E-03 3.88298E-02-1.80920E-03
 -1       411 1.43467E-03 7.16237E-03-4.55299E-04
 -1       412 1.33071E-03-2.56628E-02 9.53986E-04
 -1       413 9.47606E-04-5.27289E-02 2.12157E-03
 -1       414 3.64957E-04-6.82865E-02 2.80195E-03
 -1       415-2.93289E-04-6.90278E-02 2.85415E-03
 -1       416-8.86078E-04-5.48225E-02 2.27191E-03
 -1       417-1.28604E-03-2.87582E-02 1.18479E-03
 -1       418-1.40726E-03 3.51907E-03-1.69986E-04
 -1       419-1.22398E-03 3.50225E-02-1.49905E-03
 -1       420-7.76336E-04 5.89340E-02-2.51639E-03
 -1       421-1.61771E-04 7.00803E-02-3.00537E-03
 -1       422 4.85880E-04 6.60556E-02-2.86555E-03
 -1       423 1.02514E-03 4.77496E-02-2.13437E-03
 -1       424 1.33719E-03 1.91686E-02-9.78691E-04
 -1       425 1.35114E-03-1.34096E-02 3.41967E-04
 -1       426 1.05865E-03-4.27590E-02 1.53256E-03
 -1       427 5.14748E-04-6.22168E-02 2.32754E-03
 -1       428-1.75695E-04-6.70470E-02 2.54897E-03
 -1       429-8.82957E-04-5.53519E-02 2.14428E-03
 -1       430-1.48373E-03-2.83297E-02 1.18976E-03
 -1       431-1.89451E-03 1.02049E-02-1.34505E-04
 -1       432-2.09675E-03 5.48966E-02-1.63239E-03
 -1       433-2.09119E-02 1.10354E-01-3.50379E-02
 -1       434 0.00000E+00 0.00000E+00 0.00000E+00
 -1       435 0.00000E+00 0.00000E+00 0.00000E+00
 -1       436-2.09675E-03 5.48966E-02 1.63239E-03
 -1       437-1.89451E-03 1.02049E-02 1.34505E-04
 -1       438-1.48373E-03-2.83297E-02-1.18976E-03
 -1       439-8.82957E-04-5.53519E-02-2.14428E-03
 -1       440-1.75695E-04-6.70470E-02-2.54897E-03
 -1       441 5.14748E-04-6.22168E-02-2.32754E-03
 -1       442 1.05865E-03-4.27590E-02-1.53256E-03
 -1       443 1.35114E-03-1.34096E-02-3.41967E-04
 -1       444 1.33719E-03 1.91686E-02 9.78691E-04
 -1       445 1.02514E-03 4.77496E-02 2.13437E-03
 -1       446 4.85880E-04 6.60556E-02 2.86555E-03
 -1       447-1.61771E-04 7.00803E-02 3.00537E-03
 -1       448-7.76336E-04 5.89340E-02 2.51639E-03
 -1       449-1.22398E-03 3.50225E-02 1.49905E-03
 -1       450-1.40726E-03 3.51907E-03 1.69986E-04
 -1       451-1.28604E-03-2.87582E-02-1.18479E-03
 -1       452-8.86078E-04-5.48225E-02-2.27191E-03
 -1       453-2.93289E-04-6.90278E-02-2.85415E-03
 -1       454 3.64957E-04-6.82865E-02-2.80195E-03
 -1       455 9.47606E-04-5.27289E-02-2.12157E-03
 -1       456 1.33071E-03-2.56628E-02-9.53986E-04
 -1       457 1.43467E-03 7.16237E-03 4.55299E-04
 -1       458 1.24214E-03 3.88298E-02 1.80920E-03
 -1       459 8.02806E-04 6.27966E-02 2.82351E-03
 -1       460 2.23867E-04 7.43751E-02 3.29043E-03
 -1       461-3.48857E-04 7.18388E-02 3.12687E-03
 -1       462-7.65023E-04 5.69516E-02 2.41031E-03
 -1       463-8.86325E-04 3.47003E-02 1.36210E-03
 -1       464-5.84249E-04 1.25828E-02 4.07403E-04
 -1       465-2.32108E-02 1.00470E-01 3.50562E-02
 -1       466-1.34640E-02 1.40052E-02 1.03462E-02
 -1       467-1.89569E-02 3.46850E-02 3.17769E-02
 -1       468-1.62716E-02 5.59325E-02 5.46050E-02
 -1       469-7.49948E-03 7.01626E-02 7.04526E-02
 -1       470 4.61390E-03 7.24621E-02 7.40548E-02
 -1       471 1.68217E-02 6.11126E-02 6.36091E-02
 -1       472 2.60912E-02 3.77727E-02 4.08727E-02
 -1       473 3.01590E-02 6.98145E-03 1.04922E-02
 -1       474 2.79819E-02-2.49168E-02-2.11495E-02
 -1       475 1.99265E-02-5.12118E-02-4.73771E-02
 -1       476 7.66907E-03-6.63243E-02-6.26775E-02
 -1       477-6.18091E-03-6.70447E-02-6.38863E-02
 -1       478-1.86542E-02-5.32479E-02-5.08617E-02
 -1       479-2.70696E-02-2.79337E-02-2.65080E-02
 -1       480-2.96186E-02 3.41389E-03 3.85798E-03
 -1       481-2.57587E-02 3.40091E-02 3.36601E-02
 -1       482-1.63342E-02 5.72302E-02 5.64883E-02
 -1       483-3.39575E-03 6.80531E-02 6.74874E-02
 -1       484 1.02404E-02 6.41420E-02 6.44073E-02
 -1       485 2.15969E-02 4.63628E-02 4.80863E-02
 -1       486 2.81739E-02 1.86091E-02 2.22600E-02
 -1       487 2.84799E-02-1.30168E-02-7.26522E-03
 -1       488 2.23403E-02-4.14890E-02-3.38920E-02
 -1       489 1.09130E-02-6.03246E-02-5.16805E-02
 -1       490-3.59426E-03-6.49079E-02-5.66352E-02
 -1       491-1.84458E-02-5.33750E-02-4.75374E-02
 -1       492-3.10306E-02-2.68539E-02-2.61519E-02
 -1       493-3.95231E-02 1.10102E-02 3.28648E-03
 -1       494-4.34317E-02 5.50743E-02 3.54154E-02
 -1       495-1.11689E-02 1.55349E-02 9.76614E-03
 -1       496-1.58580E-02 3.95515E-02 3.17806E-02
 -1       497-1.35975E-02 6.42833E-02 5.48275E-02
 -1       498-6.15022E-03 8.09426E-02 7.08834E-02
 -1       499 4.16453E-03 8.37971E-02 7.45503E-02
 -1       500 1.45786E-02 7.08522E-02 6.40470E-02
 -1       501 2.24931E-02 4.40334E-02 4.11442E-02
 -1       502 2.59562E-02 8.59114E-03 1.05301E-02
 -1       503 2.40606E-02-2.81523E-02-2.13592E-02
 -1       504 1.71132E-02-5.84638E-02-4.77925E-02
 -1       505 6.55225E-03-7.59197E-02-6.32112E-02
 -1       506-5.37730E-03-7.68258E-02-6.44243E-02
 -1       507-1.61176E-02-6.10350E-02-5.12886E-02
 -1       508-2.33578E-02-3.19920E-02-2.67319E-02
 -1       509-2.55382E-02 4.00527E-03 3.88509E-03
 -1       510-2.21905E-02 3.91640E-02 3.39320E-02
 -1       511-1.40423E-02 6.58809E-02 5.69458E-02
 -1       512-2.86194E-03 7.83886E-02 6.80310E-02
 -1       513 8.92044E-03 7.40068E-02 6.49184E-02
 -1       514 1.87338E-02 5.37294E-02 4.84529E-02
 -1       515 2.44153E-02 2.20222E-02 2.24003E-02
 -1       516 2.46675E-02-1.41240E-02-7.38553E-03
 -1       517 1.93248E-02-4.66736E-02-3.42530E-02
 -1       518 9.36791E-03-6.82346E-02-5.22134E-02
 -1       519-3.31632E-03-7.35792E-02-5.72389E-02
 -1       520-1.63833E-02-6.06561E-02-4.81023E-02
 -1       521-2.75960E-02-3.08661E-02-2.65872E-02
 -1       522-3.53786E-02 1.14859E-02 3.03244E-03
 -1       523-3.92774E-02 6.04341E-02 3.53250E-02
 -1       524-2.09119E-02 1.10354E-01 3.50379E-02
 -1       525 1.56897E-03 1.99540E-02 2.03164E-04
 -1       526 2.06286E-03 6.32582E-02 8.15007E-04
 -1       527 1.73950E-03 1.08144E-01 1.49501E-03
 -1       528 8.47785E-04 1.38650E-01 1.96033E-03
 -1       529-3.36799E-04 1.44710E-01 2.06479E-03
 -1       530-1.50882E-03 1.23109E-01 1.76942E-03
 -1       531-2.39246E-03 7.73931E-02 1.12921E-03
 -1       532-2.78394E-03 1.67214E-02 2.76096E-04
 -1       533-2.59096E-03-4.62812E-02-6.11141E-04
 -1       534-1.85028E-03-9.83397E-02-1.34569E-03
 -1       535-7.18675E-04-1.28449E-01-1.77305E-03
 -1       536 5.61628E-04-1.30282E-01-1.80447E-03
 -1       537 1.71572E-03-1.03575E-01-1.43606E-03
 -1       538 2.49573E-03-5.41949E-02-7.49577E-04
 -1       539 2.73456E-03 7.12813E-03 1.05303E-04
 -1       540 2.38217E-03 6.71170E-02 9.43458E-04
 -1       541 1.51650E-03 1.12822E-01 1.58440E-03
 -1       542 3.26651E-04 1.34423E-01 1.89140E-03
 -1       543-9.27888E-04 1.27363E-01 1.80105E-03
 -1       544-1.97336E-03 9.33329E-02 1.33703E-03
 -1       545-2.58084E-03 3.99208E-02 6.04796E-04
 -1       546-2.61572E-03-2.10239E-02-2.31431E-04
 -1       547-2.06654E-03-7.59380E-02-9.84836E-04
 -1       548-1.04684E-03-1.12456E-01-1.48738E-03
 -1       549 2.31387E-04-1.22035E-01-1.62719E-03
 -1       550 1.50899E-03-1.01666E-01-1.37224E-03
 -1       551 2.54845E-03-5.41988E-02-7.71155E-04
 -1       552 3.20080E-03 1.29739E-02 7.65521E-05
 -1       553 3.47210E-03 9.06891E-02 1.08217E-03
 -1       554 1.71613E-03 2.23753E-02 6.32740E-15
 -1       555 2.35121E-03 7.23540E-02 4.25745E-15
 -1       556 1.99850E-03 1.25026E-01 1.68552E-14
 -1       557 9.71302E-04 1.60818E-01 4.49341E-14
 -1       558-3.82515E-04 1.68060E-01 7.28189E-14
 -1       559-1.72064E-03 1.43118E-01 9.45906E-14
 -1       560-2.72839E-03 9.01581E-02 9.66914E-14
 -1       561-3.17458E-03 1.98345E-02 8.34591E-14
 -1       562-2.95467E-03-5.32050E-02 7.13149E-14
 -1       563-2.11080E-03-1.13573E-01 4.53752E-14
 -1       564-8.21664E-04-1.48516E-01-3.70190E-15
 -1       565 6.36845E-04-1.50703E-01-5.57974E-14
 -1       566 1.95167E-03-1.19827E-01-1.06724E-13
 -1       567 2.84059E-03-6.26783E-02-1.52107E-13
 -1       568 3.11340E-03 8.31758E-03-1.92594E-13
 -1       569 2.71318E-03 7.77895E-02-2.34091E-13
 -1       570 1.72870E-03 1.30745E-01-2.83204E-13
 -1       571 3.75307E-04 1.55819E-01-3.26152E-13
 -1       572-1.05162E-03 1.47734E-01-3.51514E-13
 -1       573-2.24048E-03 1.08452E-01-3.58788E-13
 -1       574-2.93089E-03 4.67517E-02-3.51134E-13
 -1       575-2.96996E-03-2.36572E-02-3.30793E-13
 -1       576-2.34535E-03-8.70977E-02-2.92183E-13
 -1       577-1.18750E-03-1.29303E-01-2.34899E-13
 -1       578 2.60885E-04-1.40464E-01-1.53849E-13
 -1       579 1.70431E-03-1.17214E-01-3.53051E-14
 -1       580 2.87424E-03-6.29563E-02 1.22107E-13
 -1       581 3.62031E-03 1.38067E-02 3.04705E-13
 -1       582 3.96220E-03 1.03018E-01 4.97213E-13
 -1       583 1.56897E-03 1.99540E-02-2.03164E-04
 -1       584 2.06286E-03 6.32582E-02-8.15007E-04
 -1       585 1.73950E-03 1.08144E-01-1.49501E-03
 -1       586 8.47785E-04 1.38650E-01-1.96033E-03
 -1       587-3.36799E-04 1.44710E-01-2.06479E-03
 -1       588-1.50882E-03 1.23109E-01-1.76942E-03
 -1       589-2.39246E-03 7.73931E-02-1.12921E-03
 -1       590-2.78394E-03 1.67214E-02-2.76096E-04
 -1       591-2.59096E-03-4.62812E-02 6.11141E-04
 -1       592-1.85028E-03-9.83397E-02 1.34569E-03
 -1       593-7.18675E-04-1.28449E-01 1.77305E-03
 -1       594 5.61628E-04-1.30282E-01 1.80447E-03
 -1       595 1.71572E-03-1.03575E-01 1.43606E-03
 -1       596 2.49573E-03-5.41949E-02 7.49577E-04
 -1       597 2.73456E-03 7.12813E-03-1.05303E-04
 -1       598 2.38217E-03 6.71170E-02-9.43458E-04
 -1       599 1.51650E-03 1.12822E-01-1.58440E-03
 -1       600 3.26651E-04 1.34423E-01-1.89140E-03
 -1       601-9.27888E-04 1.27363E-01-1.80105E-03
 -1       602-1.97336E-03 9.33329E-02-1.33703E-03
 -1       603-2.58084E-03 3.99208E-02-6.04796E-04
 -1       604-2.61572E-03-2.10239E-02 2.31431E-04
 -1       605-2.06654E-03-7.59380E-02 9.84836E-04
 -1       606-1.04684E-03-1.12456E-01 1.48738E-03
 -1       607 2.31387E-04-1.22035E-01 1.62719E-03
 -1       608 1.50899E-03-1.01666E-01 1.37224E-03
 -1       609 2.54845E-03-5.41988E-02 7.71155E-04
 -1       610 3.20080E-03 1.29739E-02-7.65521E-05
 -1       611 3.47210E-03 9.06891E-02-1.08217E-03
 -1       612-1.56897E-03 1.99540E-02 2.03164E-04
 -1       613-2.06286E-03 6.32582E-02 8.15007E-04
 -1       614-1.73950E-03 1.08144E-01 1.49501E-03
 -1       615-8.47785E-04 1.38650E-01 1.96033E-03
 -1       616 3.36799E-04 1.44710E-01 2.06479E-03
 -1       617 1.50882E-03 1.23109E-01 1.76942E-03
 -1       618 2.39246E-03 7.73931E-02 1.12921E-03
 -1       619 2.78394E-03 1.67214E-02 2.76096E-04
 -1       620 2.59096E-03-4.62812E-02-6.11141E-04
 -1       621 1.85028E-03-9.83397E-02-1.34569E-03
 -1       622 7.18675E-04-1.28449E-01-1.77305E-03
 -1       623-5.61628E-04-1.30282E-01-1.80447E-03
 -1       624-1.71572E-03-1.03575E-01-1.43606E-03
 -1       625-2.49573E-03-5.41949E-02-7.49577E-04
 -1       626-2.73456E-03 7.12813E-03 1.05303E-04
 -1       627-2.38217E-03 6.71170E-02 9.43458E-04
 -1       628-1.51650E-03 1.12822E-01 1.58440E-03
 -1       629-3.26651E-04 1.34423E-01 1.89140E-03
 -1       630 9.27888E-04 1.27363E-01 1.80105E-03
 -1       631 1.97336E-03 9.33329E-02 1.33703E-03
 -1       632 2.58084E-03 3.99208E-02 6.04796E-04
 -1       633 2.61572E-03-2.10239E-02-2.31431E-04
 -1       634 2.06654E-03-7.59380E-02-9.84836E-04
 -1       635 1.04684E-03-1.12456E-01-1.48738E-03
 -1       636-2.31387E-04-1.22035E-01-1.62719E-03
 -1       637-1.50899E-03-1.01666E-01-1.37224E-03
 -1       638-2.54845E-03-5.41988E-02-7.71155E-04
 -1       639-3.20080E-03 1.29739E-02 7.65521E-05
 -1       640-3.47210E-03 9.06891E-02 1.08217E-03
 -1       641-1.71613E-03 2.23753E-02 3.83417E-15
 -1       642-2.35121E-03 7.23540E-02-1.18829E-16
 -1       643-1.99850E-03 1.25026E-01 1.33760E-14
 -1       644-9.71302E-04 1.60818E-01 4.42073E-14
 -1       645 3.82515E-04 1.68060E-01 7.84884E-14
 -1       646 1.72064E-03 1.43118E-01 9.98910E-14
 -1       647 2.72839E-03 9.01581E-02 9.88841E-14
 -1       648 3.17458E-03 1.98345E-02 8.66328E-14
 -1       649 2.95467E-03-5.32050E-02 7.56886E-14
 -1       650 2.11080E-03-1.13573E-01 5.20209E-14
 -1       651 8.21664E-04-1.48516E-01 3.17107E-15
 -1       652-6.36845E-04-1.50703E-01-4.91204E-14
 -1       653-1.95167E-03-1.19827E-01-1.01314E-13
 -1       654-2.84059E-03-6.26783E-02-1.49001E-13
 -1       655-3.11340E-03 8.31758E-03-1.91517E-13
 -1       656-2.71318E-03 7.77895E-02-2.29212E-13
 -1       657-1.72870E-03 1.30745E-01-2.72896E-13
 -1       658-3.75307E-04 1.55819E-01-3.11497E-13
 -1       659 1.05162E-03 1.47734E-01-3.33431E-13
 -1       660 2.24048E-03 1.08452E-01-3.42655E-13
 -1       661 2.93089E-03 4.67517E-02-3.37147E-13
 -1       662 2.96996E-03-2.36572E-02-3.15847E-13
 -1       663 2.34535E-03-8.70977E-02-2.81154E-13
 -1       664 1.18750E-03-1.29303E-01-2.35791E-13
 -1       665-2.60885E-04-1.40464E-01-1.62221E-13
 -1       666-1.70431E-03-1.17214E-01-4.32536E-14
 -1       667-2.87424E-03-6.29563E-02 1.15666E-13
 -1       668-3.62031E-03 1.38067E-02 2.94617E-13
 -1       669-3.96220E-03 1.03018E-01 4.80182E-13
 -1       670-1.56897E-03 1.99540E-02-2.03164E-04
 -1       671-2.06286E-03 6.32582E-02-8.15007E-04
 -1       672-1.73950E-03 1.08144E-01-1.49501E-03
 -1       673-8.47785E-04 1.38650E-01-1.96033E-03
 -1       674 3.36799E-04 1.44710E-01-2.06479E-03
 -1       675 1.50882E-03 1.23109E-01-1.76942E-03
 -1       676 2.39246E-03 7.73931E-02-1.12921E-03
 -1       677 2.78394E-03 1.67214E-02-2.76096E-04
 -1       678 2.59096E-03-4.62812E-02 6.11141E-04
 -1       679 1.85028E-03-9.83397E-02 1.34569E-03
 -1       680 7.18675E-04-1.28449E-01 1.77305E-03
 -1       681-5.61628E-04-1.30282E-01 1.80447E-03
 -1       682-1.71572E-03-1.03575E-01 1.43606E-03
 -1       683-2.49573E-03-5.41949E-02 7.49577E-04
 -1       684-2.73456E-03 7.12813E-03-1.05303E-04
 -1       685-2.38217E-03 6.71170E-02-9.43458E-04
 -1       686-1.51650E-03 1.12822E-01-1.58440E-03
 -1       687-3.26651E-04 1.34423E-01-1.89140E-03
 -1       688 9.27888E-04 1.27363E-01-1.80105E-03
 -1       689 1.97336E-03 9.33329E-02-1.33703E-03
 -1       690 2.58084E-03 3.99208E-02-6.04796E-04
 -1       691 2.61572E-03-2.10239E-02 2.31431E-04
 -1       692 2.06654E-03-7.59380E-02 9.84836E-04
 -1       693 1.04684E-03-1.12456E-01 1.48738E-03
 -1       694-2.31387E-04-1.22035E-01 1.62719E-03
 -1       695-1.50899E-03-1.01666E-01 1.37224E-03
 -1       696-2.54845E-03-5.41988E-02 7.71155E-04
 -1       697-3.20080E-03 1.29739E-02-7.65521E-05
 -1       698-3.47210E-03 9.06891E-02-1.08217E-03
 -1       699 6.00959E-03 1.28734E-02 5.25683E-03
 -1       700 9.29393E-03 3.46165E-02 1.63850E-02
 -1       701 8.02283E-03 5.65050E-02 2.82378E-02
 -1       702 3.64884E-03 7.11825E-02 3.64714E-02
 -1       703-2.44103E-03 7.36421E-02 3.83378E-02
 -1       704-8.59990E-03 6.21538E-02 3.29243E-02
 -1       705-1.32791E-02 3.84208E-02 2.11456E-02
 -1       706-1.53275E-02 7.07755E-03 5.41079E-03
 -1       707-1.42131E-02-2.54053E-02-1.09754E-02
 -1       708-1.01202E-02-5.21865E-02-2.45565E-02
 -1       709-3.89804E-03-6.75787E-02-3.24779E-02
 -1       710 3.13048E-03-6.83101E-02-3.31008E-02
 -1       711 9.45970E-03-5.42521E-02-2.63518E-02
 -1       712 1.37300E-02-2.84603E-02-1.37353E-02
 -1       713 1.50242E-02 3.47838E-03 1.99443E-03
 -1       714 1.30675E-02 3.46503E-02 1.74310E-02
 -1       715 8.28837E-03 5.83090E-02 2.92539E-02
 -1       716 1.72740E-03 6.93354E-02 3.49481E-02
 -1       717-5.18640E-03 6.53491E-02 3.33479E-02
 -1       718-1.09423E-02 4.72309E-02 2.48878E-02
 -1       719-1.42712E-02 1.89463E-02 1.15030E-02
 -1       720-1.44156E-02-1.32909E-02-3.79756E-03
 -1       721-1.12851E-02-4.23273E-02-1.75951E-02
 -1       722-5.46473E-03-6.15653E-02-2.68114E-02
 -1       723 1.92909E-03-6.63131E-02-2.93776E-02
 -1       724 9.51433E-03-5.46866E-02-2.46660E-02
 -1       725 1.59755E-02-2.78580E-02-1.35831E-02
 -1       726 2.04026E-02 1.04234E-02 1.69671E-03
 -1       727 2.26086E-02 5.48916E-02 1.84421E-02
 -1       728 4.66895E-03 1.44369E-02 5.00986E-03
 -1       729 7.52594E-03 3.94311E-02 1.63743E-02
 -1       730 6.50093E-03 6.47706E-02 2.83608E-02
 -1       731 2.88042E-03 8.18462E-02 3.66890E-02
 -1       732-2.19573E-03 8.48524E-02 3.85898E-02
 -1       733-7.34616E-03 7.17845E-02 3.31469E-02
 -1       734-1.12643E-02 4.46105E-02 2.12846E-02
 -1       735-1.29729E-02 8.66807E-03 5.43209E-03
 -1       736-1.20159E-02-2.86055E-02-1.10789E-02
 -1       737-8.54417E-03-5.93580E-02-2.47638E-02
 -1       738-3.27327E-03-7.70672E-02-3.27450E-02
 -1       739 2.67824E-03-7.79819E-02-3.33703E-02
 -1       740 8.03560E-03-6.19521E-02-2.65657E-02
 -1       741 1.16469E-02-3.24731E-02-1.38474E-02
 -1       742 1.27347E-02 4.06324E-03 2.00840E-03
 -1       743 1.10659E-02 3.97476E-02 1.75680E-02
 -1       744 7.00344E-03 6.68629E-02 2.94843E-02
 -1       745 1.42958E-03 7.95550E-02 3.52221E-02
 -1       746-4.44335E-03 7.51029E-02 3.36060E-02
 -1       747-9.33249E-03 5.45142E-02 2.50738E-02
 -1       748-1.21581E-02 2.23197E-02 1.15760E-02
 -1       749-1.22716E-02-1.43877E-02-3.85482E-03
 -1       750-9.58764E-03-4.74561E-02-1.77727E-02
 -1       751-4.59178E-03-6.93889E-02-2.70751E-02
 -1       752 1.78034E-03-7.48888E-02-2.96766E-02
 -1       753 8.36630E-03-6.18877E-02-2.49457E-02
 -1       754 1.40575E-02-3.18234E-02-1.37973E-02
 -1       755 1.80926E-02 1.09020E-02 1.56883E-03
 -1       756 2.02634E-02 6.02238E-02 1.83931E-02
 -1       757 4.66895E-03 1.44369E-02-5.00986E-03
 -1       758 7.52594E-03 3.94311E-02-1.63743E-02
 -1       759 6.50093E-03 6.47706E-02-2.83608E-02
 -1       760 2.88042E-03 8.18462E-02-3.66890E-02
 -1       761-2.19573E-03 8.48524E-02-3.85898E-02
 -1       762-7.34616E-03 7.17845E-02-3.31469E-02
 -1       763-1.12643E-02 4.46105E-02-2.12846E-02
 -1       764-1.29729E-02 8.66807E-03-5.43209E-03
 -1       765-1.20159E-02-2.86055E-02 1.10789E-02
 -1       766-8.54417E-03-5.93580E-02 2.47638E-02
 -1       767-3.27327E-03-7.70672E-02 3.27450E-02
 -1       768 2.67824E-03-7.79819E-02 3.33703E-02
 -1       769 8.03560E-03-6.19521E-02 2.65657E-02
 -1       770 1.16469E-02-3.24731E-02 1.38474E-02
 -1       771 1.27347E-02 4.06324E-03-2.00840E-03
 -1       772 1.10659E-02 3.97476E-02-1.75680E-02
 -1       773 7.00344E-03 6.68629E-02-2.94843E-02
 -1       774 1.42958E-03 7.95550E-02-3.52221E-02
 -1       775-4.44335E-03 7.51029E-02-3.36060E-02
 -1       776-9.33249E-03 5.45142E-02-2.50738E-02
 -1       777-1.21581E-02 2.23197E-02-1.15760E-02
 -1       778-1.22716E-02-1.43877E-02 3.85482E-03
 -1       779-9.58764E-03-4.74561E-02 1.77727E-02
 -1       780-4.59178E-03-6.93889E-02 2.70751E-02
 -1       781 1.78034E-03-7.48888E-02 2.96766E-02
 -1       782 8.36630E-03-6.18877E-02 2.49457E-02
 -1       783 1.40575E-02-3.18234E-02 1.37973E-02
 -1       784 1.80926E-02 1.09020E-02-1.56883E-03
 -1       785 2.02634E-02 6.02238E-02-1.83931E-02
 -1       786 6.00959E-03 1.28734E-02-5.25683E-03
 -1       787 9.29393E-03 3.46165E-02-1.63850E-02
 -1       788 8.02283E-03 5.65050E-02-2.82378E-02
 -1       789 3.64884E-03 7.11825E-02-3.64714E-02
 -1       790-2.44103E-03 7.36421E-02-3.83378E-02
 -1       791-8.59990E-03 6.21538E-02-3.29243E-02
 -1       792-1.32791E-02 3.84208E-02-2.11456E-02
 -1       793-1.53275E-02 7.07755E-03-5.41079E-03
 -1       794-1.42131E-02-2.54053E-02 1.09754E-02
 -1       795-1.01202E-02-5.21865E-02 2.45565E-02
 -1       796-3.89804E-03-6.75787E-02 3.24779E-02
 -1       797 3.13048E-03-6.83101E-02 3.31008E-02
 -1       798 9.45970E-03-5.42521E-02 2.63518E-02
 -1       799 1.37300E-02-2.84603E-02 1.37353E-02
 -1       800 1.50242E-02 3.47838E-03-1.99443E-03
 -1       801 1.30675E-02 3.46503E-02-1.74310E-02
 -1       802 8.28837E-03 5.83090E-02-2.92539E-02
 -1       803 1.72740E-03 6.93354E-02-3.49481E-02
 -1       804-5.18640E-03 6.53491E-02-3.33479E-02
 -1       805-1.09423E-02 4.72309E-02-2.48878E-02
 -1       806-1.42712E-02 1.89463E-02-1.15030E-02
 -1       807-1.44156E-02-1.32909E-02 3.79756E-03
 -1       808-1.12851E-02-4.23273E-02 1.75951E-02
 -1       809-5.46473E-03-6.15653E-02 2.68114E-02
 -1       810 1.92909E-03-6.63131E-02 2.93776E-02
 -1       811 9.51433E-03-5.46866E-02 2.46660E-02
 -1       812 1.59755E-02-2.78580E-02 1.35831E-02
 -1       813 2.04026E-02 1.04234E-02-1.69671E-03
 -1       814 2.26086E-02 5.48916E-02-1.84421E-02
 -1       815-6.00959E-03 1.28734E-02-5.25683E-03
 -1       816-9.29393E-03 3.46165E-02-1.63850E-02
 -1       817-8.02283E-03 5.65050E-02-2.82378E-02
 -1       818-3.64884E-03 7.11825E-02-3.64714E-02
 -1       819 2.44103E-03 7.36421E-02-3.83378E-02
 -1       820 8.59990E-03 6.21538E-02-3.29243E-02
 -1       821 1.32791E-02 3.84208E-02-2.11456E-02
 -1       822 1.53275E-02 7.07755E-03-5.41079E-03
 -1       823 1.42131E-02-2.54053E-02 1.09754E-02
 -1       824 1.01202E-02-5.21865E-02 2.45565E-02
 -1       825 3.89804E-03-6.75787E-02 3.24779E-02
 -1       826-3.13048E-03-6.83101E-02 3.31008E-02
 -1       827-9.45970E-03-5.42521E-02 2.63518E-02
 -1       828-1.37300E-02-2.84603E-02 1.37353E-02
 -1       829-1.50242E-02 3.47838E-03-1.99443E-03
 -1       830-1.30675E-02 3.46503E-02-1.74310E-02
 -1       831-8.28837E-03 5.83090E-02-2.92539E-02
 -1       832-1.72740E-03 6.93354E-02-3.49481E-02
 -1       833 5.18640E-03 6.53491E-02-3.33479E-02
 -1       834 1.09423E-02 4.72309E-02-2.48878E-02
 -1       835 1.42712E-02 1.89463E-02-1.15030E-02
 -1       836 1.44156E-02-1.32909E-02 3.79756E-03
 -1       837 1.12851E-02-4.23273E-02 1.75951E-02
 -1       838 5.46473E-03-6.15653E-02 2.68114E-02
 -1       839-1.92909E-03-6.63131E-02 2.93776E-02
 -1       840-9.51433E-03-5.46866E-02 2.46660E-02
 -1       841-1.59755E-02-2.78580E-02 1.35831E-02
 -1       842-2.04026E-02 1.04234E-02-1.69671E-03
 -1       843-2.26086E-02 5.48916E-02-1.84421E-02
 -1       844-4.66895E-03 1.44369E-02-5.00986E-03
 -1       845-7.52594E-03 3.94311E-02-1.63743E-02
 -1       846-6.50093E-03 6.47706E-02-2.83608E-02
 -1       847-2.88042E-03 8.18462E-02-3.66890E-02
 -1       848 2.19573E-03 8.48524E-02-3.85898E-02
 -1       849 7.34616E-03 7.17845E-02-3.31469E-02
 -1       850 1.12643E-02 4.46105E-02-2.12846E-02
 -1       851 1.29729E-02 8.66807E-03-5.43209E-03
 -1       852 1.20159E-02-2.86055E-02 1.10789E-02
 -1       853 8.54417E-03-5.93580E-02 2.47638E-02
 -1       854 3.27327E-03-7.70672E-02 3.27450E-02
 -1       855-2.67824E-03-7.79819E-02 3.33703E-02
 -1       856-8.03560E-03-6.19521E-02 2.65657E-02
 -1       857-1.16469E-02-3.24731E-02 1.38474E-02
 -1       858-1.27347E-02 4.06324E-03-2.00840E-03
 -1       859-1.10659E-02 3.97476E-02-1.75680E-02
 -1       860-7.00344E-03 6.68629E-02-2.94843E-02
 -1       861-1.42958E-03 7.95550E-02-3.52221E-02
 -1       862 4.44335E-03 7.51029E-02-3.36060E-02
 -1       863 9.33249E-03 5.45142E-02-2.50738E-02
 -1       864 1.21581E-02 2.23197E-02-1.15760E-02
 -1       865 1.22716E-02-1.43877E-02 3.85482E-03
 -1       866 9.58764E-03-4.74561E-02 1.77727E-02
 -1       867 4.59178E-03-6.93889E-02 2.70751E-02
 -1       868-1.78034E-03-7.48888E-02 2.96766E-02
 -1       869-8.36630E-03-6.18877E-02 2.49457E-02
 -1       870-1.40575E-02-3.18234E-02 1.37973E-02
 -1       871-1.80926E-02 1.09020E-02-1.56883E-03
 -1       872-2.02634E-02 6.02238E-02-1.83931E-02
 -1       873-2.26086E-02 5.48916E-02 1.84421E-02
 -1       874-2.04026E-02 1.04234E-02 1.69671E-03
 -1       875-1.59755E-02-2.78580E-02-1.35831E-02
 -1       876-9.51433E-03-5.46866E-02-2.46660E-02
 -1       877-1.92909E-03-6.63131E-02-2.93776E-02
 -1       878 5.46473E-03-6.15653E-02-2.68114E-02
 -1       879 1.12851E-02-4.23273E-02-1.75951E-02
 -1       880 1.44156E-02-1.32909E-02-3.79756E-03
 -1       881 1.42712E-02 1.89463E-02 1.15030E-02
 -1       882 1.09423E-02 4.72309E-02 2.48878E-02
 -1       883 5.18640E-03 6.53491E-02 3.33479E-02
 -1       884-1.72740E-03 6.93354E-02 3.49481E-02
 -1       885-8.28837E-03 5.83090E-02 2.92539E-02
 -1       886-1.30675E-02 3.46503E-02 1.74310E-02
 -1       887-1.50242E-02 3.47838E-03 1.99443E-03
 -1       888-1.37300E-02-2.84603E-02-1.37353E-02
 -1       889-9.45970E-03-5.42521E-02-2.63518E-02
 -1       890-3.13048E-03-6.83101E-02-3.31008E-02
 -1       891 3.89804E-03-6.75787E-02-3.24779E-02
 -1       892 1.01202E-02-5.21865E-02-2.45565E-02
 -1       893 1.42131E-02-2.54053E-02-1.09754E-02
 -1       894 1.53275E-02 7.07755E-03 5.41079E-03
 -1       895 1.32791E-02 3.84208E-02 2.11456E-02
 -1       896 8.59990E-03 6.21538E-02 3.29243E-02
 -1       897 2.44103E-03 7.36421E-02 3.83378E-02
 -1       898-3.64884E-03 7.11825E-02 3.64714E-02
 -1       899-8.02283E-03 5.65050E-02 2.82378E-02
 -1       900-9.29393E-03 3.46165E-02 1.63850E-02
 -1       901-6.00959E-03 1.28734E-02 5.25683E-03
 -1       902-4.66895E-03 1.44369E-02 5.00986E-03
 -1       903-7.52594E-03 3.94311E-02 1.63743E-02
 -1       904-6.50093E-03 6.47706E-02 2.83608E-02
 -1       905-2.88042E-03 8.18462E-02 3.66890E-02
 -1       906 2.19573E-03 8.48524E-02 3.85898E-02
 -1       907 7.34616E-03 7.17845E-02 3.31469E-02
 -1       908 1.12643E-02 4.46105E-02 2.12846E-02
 -1       909 1.29729E-02 8.66807E-03 5.43209E-03
 -1       910 1.20159E-02-2.86055E-02-1.10789E-02
 -1       911 8.54417E-03-5.93580E-02-2.47638E-02
 -1       912 3.27327E-03-7.70672E-02-3.27450E-02
 -1       913-2.67824E-03-7.79819E-02-3.33703E-02
 -1       914-8.03560E-03-6.19521E-02-2.65657E-02
 -1       915-1.16469E-02-3.24731E-02-1.38474E-02
 -1       916-1.27347E-02 4.06324E-03 2.00840E-03
 -1       917-1.10659E-02 3.97476E-02 1.75680E-02
 -1       918-7.00344E-03 6.68629E-02 2.94843E-02
 -1       919-1.42958E-03 7.95550E-02 3.52221E-02
 -1       920 4.44335E-03 7.51029E-02 3.36060E-02
 -1       921 9.33249E-03 5.45142E-02 2.50738E-02
 -1       922 1.21581E-02 2.23197E-02 1.15760E-02
 -1       923 1.22716E-02-1.43877E-02-3.85482E-03
 -1       924 9.58764E-03-4.74561E-02-1.77727E-02
 -1       925 4.59178E-03-6.93889E-02-2.70751E-02
 -1       926-1.78034E-03-7.48888E-02-2.96766E-02
 -1       927-8.36630E-03-6.18877E-02-2.49457E-02
 -1       928-1.40575E-02-3.18234E-02-1.37973E-02
 -1       929-1.80926E-02 1.09020E-02 1.56883E-03
 -1       930-2.02634E-02 6.02238E-02 1.83931E-02
 -3
    1PSTEP                        50           1           1          
    1PGM                1.000000E+00                                  
    1PGK                1.866454E+07                                  
    1PHID                         -1                                  
    1PSUBC                         0                                  
    1PMODE                        13                                  
  100CL  113 687.5888427         930                     2   13MODAL      1
 -4  STRESS      6    1
 -5  SXX         1    4    1    1
 -5  SYY         1    4    2    2
 -5  SZZ         1    4    3    3
 -5  SXY         1    4    1    2
 -5  SYZ         1    4    2    3
 -5  SZX         1    4    3    1
 -1         1 2.35406E+09 1.00890E+09 1.00890E+09 1.13114E+10-8.60688E+03 2.83830E+08
 -1         2-2.35406E+09-1.00890E+09-1.00890E+09 1.13114E+10-8.60688E+03-2.83830E+08
 -1         3-3.95307E+08-1.86214E+08-1.20349E+09 2.49805E+09-1.67369E+09 1.49258E+09
 -1         4 3.95307E+08 1.86214E+08 1.20349E+09 2.49805E+09-1.67369E+09-1.49258E+09
 -1         5 2.35406E+09 1.00890E+09 1.00890E+09 1.13114E+10 8.60688E+03-2.83830E+08
 -1         6-2.35406E+09-1.00890E+09-1.00890E+09 1.13114E+10 8.60688E+03 2.83830E+08
 -1         7-3.95307E+08-1.86214E+08-1.20349E+09 2.49805E+09 1.67369E+09-1.49258E+09
 -1         8 3.95307E+08 1.86214E+08 1.20349E+09 2.49805E+09 1.67369E+09 1.49258E+09
 -1         9 1.65150E+09 7.07810E+08 7.07814E+08 1.01628E+10-1.34139E+04 3.29056E+08
 -1        10-1.07024E+08-1.87213E+08-5.39949E+08-3.22731E+09 2.55131E+08 9.86327E+08
 -1        11 3.80608E+10 1.63119E+10 1.63119E+10 1.13117E+10-1.03332E+03 8.35648E+09
 -1        12 3.15727E+10 1.35313E+10 1.35313E+10 1.25472E+10 1.19364E+03 7.88795E+09
 -1        13 2.08935E+09 2.22754E+08 4.48857E+08-3.05512E+09-4.55894E+08 1.01682E+09
 -1        14 2.88300E+09 1.22744E+09 9.88360E+08 3.70040E+09-4.60733E+08 1.07708E+09
 -1        15 1.65150E+09 7.07810E+08 7.07814E+08 1.01628E+10 1.34139E+04-3.29056E+08
 -1        16-1.07024E+08-1.87213E+08-5.39949E+08-3.22731E+09-2.55131E+08-9.86327E+08
 -1        17 3.15727E+10 1.35313E+10 1.35313E+10 1.25472E+10-1.19364E+03-7.88795E+09
 -1        18 3.80608E+10 1.63119E+10 1.63119E+10 1.13117E+10 1.03332E+03-8.35648E+09
 -1        19 2.88300E+09 1.22744E+09 9.88360E+08 3.70040E+09 4.60733E+08-1.07708E+09
 -1        20 2.08935E+09 2.22754E+08 4.48857E+08-3.05512E+09 4.55894E+08-1.01682E+09
 -1        21-3.15727E+10-1.35313E+10-1.35313E+10 1.25472E+10 1.19364E+03-7.88795E+09
 -1        22-3.80608E+10-1.63119E+10-1.63119E+10 1.13117E+10-1.03332E+03-8.35648E+09
 -1        23-2.08935E+09-2.22754E+08-4.48857E+08-3.05512E+09-4.55894E+08-1.01682E+09
 -1        24-2.88300E+09-1.22744E+09-9.88360E+08 3.70040E+09-4.60733E+08-1.07708E+09
 -1        25-1.65150E+09-7.07810E+08-7.07814E+08 1.01628E+10-1.34139E+04-3.29056E+08
 -1        26 1.07024E+08 1.87213E+08 5.39949E+08-3.22731E+09 2.55131E+08-9.86327E+08
 -1        27-1.65150E+09-7.07810E+08-7.07814E+08 1.01628E+10 1.34139E+04 3.29056E+08
 -1        28-3.80608E+10-1.63119E+10-1.63119E+10 1.13117E+10 1.03332E+03 8.35648E+09
 -1        29-3.15727E+10-1.35313E+10-1.35313E+10 1.25472E+10-1.19364E+03 7.88795E+09
 -1        30 1.07024E+08 1.87213E+08 5.39949E+08-3.22731E+09-2.55131E+08 9.86327E+08
 -1        31-2.08935E+09-2.22754E+08-4.48857E+08-3.05512E+09 4.55894E+08 1.01682E+09
 -1        32-2.88300E+09-1.22744E+09-9.88360E+08 3.70040E+09 4.60733E+08 1.07708E+09
 -1        33-6.57402E+08 7.21800E+08 7.11263E+08 3.04071E+09 6.23346E+07-1.73083E+09
 -1        34 5.89456E+08 7.67631E+08 1.36582E+09 3.53059E+09-4.72770E+08-1.68579E+09
 -1        35 1.61789E+09 8.80863E+08 2.33410E+09 2.75349E+09-9.78101E+08-1.40145E+09
 -1        36 2.33046E+09 1.00440E+09 2.93564E+09 1.47701E+09-1.31380E+09-7.28865E+08
 -1        37 2.55352E+09 1.01793E+09 3.10261E+09-1.46274E+08-1.39928E+09 1.10443E+08
 -1        38 2.22880E+09 8.76994E+08 2.68638E+09-1.70581E+09-1.19743E+09 9.24991E+08
 -1        39 1.42184E+09 5.87793E+08 1.75041E+09-2.87973E+09-7.58383E+08 1.53510E+09
 -1        40 3.11843E+08 2.01263E+08 4.83396E+08-3.41436E+09-1.72039E+08 1.81102E+09
 -1        41-8.56335E+08-2.01850E+08-8.43301E+08-3.20209E+09 4.37470E+08 1.69510E+09
 -1        42-1.82768E+09-5.37749E+08-1.94676E+09-2.29420E+09 9.41676E+08 1.21406E+09
 -1        43-2.39198E+09-7.37410E+08-2.59382E+09-8.90702E+08 1.23404E+09 4.72800E+08
 -1        44-2.42843E+09-7.61562E+08-2.65096E+09 7.03099E+08 1.25337E+09-3.68157E+08
 -1        45-1.93075E+09-6.08409E+08-2.11168E+09 2.14215E+09 9.97006E+08-1.12723E+09
 -1        46-1.00801E+09-3.13620E+08-1.09705E+09 3.11583E+09 5.21478E+08-1.64090E+09
 -1        47 1.39411E+08 5.76214E+07 1.70957E+08 3.41475E+09-6.97402E+07-1.79899E+09
 -1        48 1.26327E+09 4.24833E+08 1.41778E+09 2.97587E+09-6.48633E+08-1.56840E+09
 -1        49 2.12133E+09 7.09726E+08 2.37584E+09 1.89583E+09-1.09036E+09-1.00016E+09
 -1        50 2.52974E+09 8.53193E+08 2.84246E+09 4.09863E+08-1.30032E+09-2.18328E+08
 -1        51 2.40266E+09 8.28051E+08 2.72366E+09-1.15951E+09-1.23459E+09 6.06990E+08
 -1        52 1.77053E+09 6.44701E+08 2.05391E+09-2.47277E+09-9.09543E+08 1.29669E+09
 -1        53 7.72694E+08 3.48369E+08 9.87696E+08-3.24764E+09-3.98282E+08 1.70174E+09
 -1        54-3.73809E+08 8.54963E+06-2.35620E+08-3.32109E+09 1.85246E+08 1.73591E+09
 -1        55-1.42232E+09-2.96444E+08-1.34488E+09-2.68534E+09 7.11221E+08 1.39495E+09
 -1        56-2.15048E+09-4.95911E+08-2.09555E+09-1.49000E+09 1.06309E+09 7.57785E+08
 -1        57-2.40742E+09-5.38409E+08-2.31858E+09-8.27972E+06 1.16354E+09-3.07176E+07
 -1        58-2.14622E+09-4.03441E+08-1.95680E+09 1.41871E+09 9.93085E+08-7.95749E+08
 -1        59-1.44624E+09-1.11656E+08-1.08517E+09 2.47317E+09 5.82592E+08-1.37074E+09
 -1        60-5.12610E+08 2.42297E+08 2.53050E+07 2.85555E+09-8.73968E+06-1.66326E+09
 -1        61 2.44789E+08 4.38760E+08 9.50314E+08 2.68509E+09-6.99325E+08-1.61220E+09
 -1        62 6.57402E+08-7.21800E+08-7.11263E+08 3.04071E+09 6.23346E+07 1.73083E+09
 -1        63-5.89456E+08-7.67631E+08-1.36582E+09 3.53059E+09-4.72770E+08 1.68579E+09
 -1        64-1.61789E+09-8.80863E+08-2.33410E+09 2.75349E+09-9.78101E+08 1.40145E+09
 -1        65-2.33046E+09-1.00440E+09-2.93564E+09 1.47701E+09-1.31380E+09 7.28865E+08
 -1        66-2.55352E+09-1.01793E+09-3.10261E+09-1.46274E+08-1.39928E+09-1.10443E+08
 -1        67-2.22880E+09-8.76994E+08-2.68638E+09-1.70581E+09-1.19743E+09-9.24991E+08
 -1        68-1.42184E+09-5.87793E+08-1.75041E+09-2.87973E+09-7.58383E+08-1.53510E+09
 -1        69-3.11843E+08-2.01263E+08-4.83396E+08-3.41436E+09-1.72039E+08-1.81102E+09
 -1        70 8.56335E+08 2.01850E+08 8.43301E+08-3.20209E+09 4.37470E+08-1.69510E+09
 -1        71 1.82768E+09 5.37749E+08 1.94676E+09-2.29420E+09 9.41676E+08-1.21406E+09
 -1        72 2.39198E+09 7.37410E+08 2.59382E+09-8.90702E+08 1.23404E+09-4.72800E+08
 -1        73 2.42843E+09 7.61562E+08 2.65096E+09 7.03099E+08 1.25337E+09 3.68157E+08
 -1        74 1.93075E+09 6.08409E+08 2.11168E+09 2.14215E+09 9.97006E+08 1.12723E+09
 -1        75 1.00801E+09 3.13620E+08 1.09705E+09 3.11583E+09 5.21478E+08 1.64090E+09
 -1        76-1.39411E+08-5.76214E+07-1.70957E+08 3.41475E+09-6.97402E+07 1.79899E+09
 -1        77-1.26327E+09-4.24833E+08-1.41778E+09 2.97587E+09-6.48633E+08 1.56840E+09
 -1        78-2.12133E+09-7.09726E+08-2.37584E+09 1.89583E+09-1.09036E+09 1.00016E+09
 -1        79-2.52974E+09-8.53193E+08-2.84246E+09 4.09863E+08-1.30032E+09 2.18328E+08
 -1        80-2.40266E+09-8.28051E+08-2.72366E+09-1.15951E+09-1.23459E+09-6.06990E+08
 -1        81-1.77053E+09-6.44701E+08-2.05391E+09-2.47277E+09-9.09543E+08-1.29669E+09
 -1        82-7.72694E+08-3.48369E+08-9.87696E+08-3.24764E+09-3.98282E+08-1.70174E+09
 -1        83 3.73809E+08-8.54963E+06 2.35620E+08-3.32109E+09 1.85246E+08-1.73591E+09
 -1        84 1.42232E+09 2.96444E+08 1.34488E+09-2.68534E+09 7.11221E+08-1.39495E+09
 -1        85 2.15048E+09 4.95911E+08 2.09555E+09-1.49000E+09 1.06309E+09-7.57785E+08
 -1        86 2.40742E+09 5.38409E+08 2.31858E+09-8.27972E+06 1.16354E+09 3.07176E+07
 -1        87 2.14622E+09 4.03441E+08 1.95680E+09 1.41871E+09 9.93085E+08 7.95749E+08
 -1        88 1.44624E+09 1.11656E+08 1.08517E+09 2.47317E+09 5.82592E+08 1.37074E+09
 -1        89 5.12610E+08-2.42297E+08-2.53050E+07 2.85555E+09-8.73968E+06 1.66326E+09
 -1        90-2.44789E+08-4.38760E+08-9.50314E+08 2.68509E+09-6.99325E+08 1.61220E+09
 -1        91 4.43534E+09 1.90086E+09 1.90086E+09 1.61165E+10-2.04237E+03 1.64095E+08
 -1        92 4.85133E+09 2.07914E+09 2.07914E+09 1.80722E+10-1.89245E-06 5.11041E-03
 -1        93 4.43534E+09 1.90086E+09 1.90086E+09 1.61165E+10 2.04237E+03-1.64095E+08
 -1        94-4.43534E+09-1.90086E+09-1.90086E+09 1.61165E+10 2.04237E+03 1.64095E+08
 -1        95-4.85133E+09-2.07914E+09-2.07914E+09 1.80722E+10-2.15322E-06 3.09673E-03
 -1        96-4.43534E+09-1.90086E+09-1.90086E+09 1.61165E+10-2.04237E+03-1.64095E+08
 -1        97 6.57402E+08-7.21800E+08-7.11263E+08 3.04071E+09-6.23346E+07-1.73083E+09
 -1        98-5.89456E+08-7.67631E+08-1.36582E+09 3.53059E+09 4.72770E+08-1.68579E+09
 -1        99-1.61789E+09-8.80863E+08-2.33410E+09 2.75349E+09 9.78101E+08-1.40145E+09
 -1       100-2.33046E+09-1.00440E+09-2.93564E+09 1.47701E+09 1.31380E+09-7.28865E+08
 -1       101-2.55352E+09-1.01793E+09-3.10261E+09-1.46274E+08 1.39928E+09 1.10443E+08
 -1       102-2.22880E+09-8.76994E+08-2.68638E+09-1.70581E+09 1.19743E+09 9.24991E+08
 -1       103-1.42184E+09-5.87793E+08-1.75041E+09-2.87973E+09 7.58383E+08 1.53510E+09
 -1       104-3.11843E+08-2.01263E+08-4.83396E+08-3.41436E+09 1.72039E+08 1.81102E+09
 -1       105 8.56335E+08 2.01850E+08 8.43301E+08-3.20209E+09-4.37470E+08 1.69510E+09
 -1       106 1.82768E+09 5.37749E+08 1.94676E+09-2.29420E+09-9.41676E+08 1.21406E+09
 -1       107 2.39198E+09 7.37410E+08 2.59382E+09-8.90702E+08-1.23404E+09 4.72800E+08
 -1       108 2.42843E+09 7.61562E+08 2.65096E+09 7.03099E+08-1.25337E+09-3.68157E+08
 -1       109 1.93075E+09 6.08409E+08 2.11168E+09 2.14215E+09-9.97006E+08-1.12723E+09
 -1       110 1.00801E+09 3.13620E+08 1.09705E+09 3.11583E+09-5.21478E+08-1.64090E+09
 -1       111-1.39411E+08-5.76214E+07-1.70957E+08 3.41475E+09 6.97402E+07-1.79899E+09
 -1       112-1.26327E+09-4.24833E+08-1.41778E+09 2.97587E+09 6.48633E+08-1.56840E+09
 -1       113-2.12133E+09-7.09726E+08-2.37584E+09 1.89583E+09 1.09036E+09-1.00016E+09
 -1       114-2.52974E+09-8.53193E+08-2.84246E+09 4.09863E+08 1.30032E+09-2.18328E+08
 -1       115-2.40266E+09-8.28051E+08-2.72366E+09-1.15951E+09 1.23459E+09 6.06990E+08
 -1       116-1.77053E+09-6.44701E+08-2.05391E+09-2.47277E+09 9.09543E+08 1.29669E+09
 -1       117-7.72694E+08-3.48369E+08-9.87696E+08-3.24764E+09 3.98282E+08 1.70174E+09
 -1       118 3.73809E+08-8.54963E+06 2.35620E+08-3.32109E+09-1.85246E+08 1.73591E+09
 -1       119 1.42232E+09 2.96444E+08 1.34488E+09-2.68534E+09-7.11221E+08 1.39495E+09
 -1       120 2.15048E+09 4.95911E+08 2.09555E+09-1.49000E+09-1.06309E+09 7.57785E+08
 -1       121 2.40742E+09 5.38409E+08 2.31858E+09-8.27972E+06-1.16354E+09-3.07176E+07
 -1       122 2.14622E+09 4.03441E+08 1.95680E+09 1.41871E+09-9.93085E+08-7.95749E+08
 -1       123 1.44624E+09 1.11656E+08 1.08517E+09 2.47317E+09-5.82592E+08-1.37074E+09
 -1       124 5.12610E+08-2.42297E+08-2.53050E+07 2.85555E+09 8.73968E+06-1.66326E+09
 -1       125-2.44789E+08-4.38760E+08-9.50314E+08 2.68509E+09 6.99325E+08-1.61220E+09
 -1       126-1.87186E+09-1.97339E+09-4.70610E+09-7.56007E+08-3.66788E+09 1.73745E+09
 -1       127-2.56389E+09-2.72122E+09-6.50683E+09-4.69548E+08-1.61457E-02 2.61701E-02
 -1       128-1.87186E+09-1.97339E+09-4.70610E+09-7.56007E+08 3.66788E+09-1.73745E+09
 -1       129-6.57402E+08 7.21800E+08 7.11263E+08 3.04071E+09-6.23346E+07 1.73083E+09
 -1       130 5.89456E+08 7.67631E+08 1.36582E+09 3.53059E+09 4.72770E+08 1.68579E+09
 -1       131 1.61789E+09 8.80863E+08 2.33410E+09 2.75349E+09 9.78101E+08 1.40145E+09
 -1       132 2.33046E+09 1.00440E+09 2.93564E+09 1.47701E+09 1.31380E+09 7.28865E+08
 -1       133 2.55352E+09 1.01793E+09 3.10261E+09-1.46274E+08 1.39928E+09-1.10443E+08
 -1       134 2.22880E+09 8.76994E+08 2.68638E+09-1.70581E+09 1.19743E+09-9.24991E+08
 -1       135 1.42184E+09 5.87793E+08 1.75041E+09-2.87973E+09 7.58383E+08-1.53510E+09
 -1       136 3.11843E+08 2.01263E+08 4.83396E+08-3.41436E+09 1.72039E+08-1.81102E+09
 -1       137-8.56335E+08-2.01850E+08-8.43301E+08-3.20209E+09-4.37470E+08-1.69510E+09
 -1       138-1.82768E+09-5.37749E+08-1.94676E+09-2.29420E+09-9.41676E+08-1.21406E+09
 -1       139-2.39198E+09-7.37410E+08-2.59382E+09-8.90702E+08-1.23404E+09-4.72800E+08
 -1       140-2.42843E+09-7.61562E+08-2.65096E+09 7.03099E+08-1.25337E+09 3.68157E+08
 -1       141-1.93075E+09-6.08409E+08-2.11168E+09 2.14215E+09-9.97006E+08 1.12723E+09
 -1       142-1.00801E+09-3.13620E+08-1.09705E+09 3.11583E+09-5.21478E+08 1.64090E+09
 -1       143 1.39411E+08 5.76214E+07 1.70957E+08 3.41475E+09 6.97402E+07 1.79899E+09
 -1       144 1.26327E+09 4.24833E+08 1.41778E+09 2.97587E+09 6.48633E+08 1.56840E+09
 -1       145 2.12133E+09 7.09726E+08 2.37584E+09 1.89583E+09 1.09036E+09 1.00016E+09
 -1       146 2.52974E+09 8.53193E+08 2.84246E+09 4.09863E+08 1.30032E+09 2.18328E+08
 -1       147 2.40266E+09 8.28051E+08 2.72366E+09-1.15951E+09 1.23459E+09-6.06990E+08
 -1       148 1.77053E+09 6.44701E+08 2.05391E+09-2.47277E+09 9.09543E+08-1.29669E+09
 -1       149 7.72694E+08 3.48369E+08 9.87696E+08-3.24764E+09 3.98282E+08-1.70174E+09
 -1       150-3.73809E+08 8.54963E+06-2.35620E+08-3.32109E+09-1.85246E+08-1.73591E+09
 -1       151-1.42232E+09-2.96444E+08-1.34488E+09-2.68534E+09-7.11221E+08-1.39495E+09
 -1       152-2.15048E+09-4.95911E+08-2.09555E+09-1.49000E+09-1.06309E+09-7.57785E+08
 -1       153-2.40742E+09-5.38409E+08-2.31858E+09-8.27972E+06-1.16354E+09 3.07176E+07
 -1       154-2.14622E+09-4.03441E+08-1.95680E+09 1.41871E+09-9.93085E+08 7.95749E+08
 -1       155-1.44624E+09-1.11656E+08-1.08517E+09 2.47317E+09-5.82592E+08 1.37074E+09
 -1       156-5.12610E+08 2.42297E+08 2.53050E+07 2.85555E+09 8.73968E+06 1.66326E+09
 -1       157 2.44789E+08 4.38760E+08 9.50314E+08 2.68509E+09 6.99325E+08 1.61220E+09
 -1       158 1.87186E+09 1.97339E+09 4.70610E+09-7.56007E+08 3.66788E+09 1.73745E+09
 -1       159 2.56389E+09 2.72122E+09 6.50683E+09-4.69548E+08-1.67027E-02 1.52618E-02
 -1       160 1.87186E+09 1.97339E+09 4.70610E+09-7.56007E+08-3.66788E+09-1.73745E+09
 -1       161 3.39452E+08-9.23989E+08-1.04635E+09 3.41303E+09 1.11564E+08 2.03688E+09
 -1       162-1.37397E+08-1.25578E+08-9.65053E+08 1.66995E+09 6.89941E+08 1.70196E+09
 -1       163-9.65428E+08 3.10471E+08-1.64760E+09 9.72983E+08 9.18028E+08 1.40622E+09
 -1       164-1.45825E+09 5.77455E+08-1.97751E+09 6.49832E+08 1.18806E+09 7.40871E+08
 -1       165-1.62811E+09 6.83545E+08-2.08013E+09 5.40444E+08 1.23786E+09-5.67972E+07
 -1       166-1.42916E+09 6.04868E+08-1.80512E+09 5.33489E+08 1.07566E+09-8.29215E+08
 -1       167-9.09111E+08 3.72214E+08-1.19125E+09 5.42698E+08 7.02487E+08-1.40731E+09
 -1       168-1.87143E+08 4.42563E+07-3.58098E+08 5.22609E+08 1.98712E+08-1.67149E+09
 -1       169 5.74829E+08-3.03908E+08 5.15426E+08 4.52127E+08-3.29686E+08-1.56823E+09
 -1       170 1.20891E+09-5.93418E+08 1.24333E+09 3.31199E+08-7.69405E+08-1.12296E+09
 -1       171 1.57673E+09-7.59420E+08 1.67247E+09 1.75158E+08-1.02768E+09-4.33909E+08
 -1       172 1.59877E+09-7.64366E+08 1.71538E+09 8.89180E+06-1.05125E+09 3.48839E+08
 -1       173 1.27077E+09-6.06093E+08 1.36770E+09-1.39514E+08-8.37447E+08 1.05558E+09
 -1       174 6.64262E+08-3.18136E+08 7.08390E+08-2.45291E+08-4.34385E+08 1.53349E+09
 -1       175-8.92308E+07 3.75958E+07-1.17837E+08-2.92635E+08 6.97118E+07 1.67953E+09
 -1       176-8.26737E+08 3.84256E+08-9.32035E+08-2.78402E+08 5.65703E+08 1.46258E+09
 -1       177-1.38917E+09 6.46696E+08-1.55989E+09-2.13098E+08 9.47214E+08 9.30125E+08
 -1       178-1.65574E+09 7.67697E+08-1.86950E+09-1.18851E+08 1.13368E+09 1.97783E+08
 -1       179-1.56998E+09 7.20279E+08-1.79978E+09-2.47732E+07 1.08769E+09-5.75815E+08
 -1       180-1.15172E+09 5.13449E+08-1.37323E+09 3.93576E+07 8.22887E+08-1.22362E+09
 -1       181-4.92265E+08 1.90106E+08-6.90101E+08 4.96482E+07 4.00479E+08-1.60663E+09
 -1       182 2.66133E+08-1.82427E+08 9.47522E+07-6.78525E+06-8.46720E+07-1.64442E+09
 -1       183 9.61855E+08-5.27331E+08 8.06435E+08-1.29852E+08-5.25189E+08-1.33298E+09
 -1       184 1.44952E+09-7.75295E+08 1.28723E+09-3.08959E+08-8.23841E+08-7.45725E+08
 -1       185 1.63092E+09-8.81254E+08 1.42618E+09-5.30222E+08-9.13353E+08-1.80198E+07
 -1       186 1.47938E+09-8.31104E+08 1.18469E+09-7.91505E+08-7.68907E+08 6.85609E+08
 -1       187 1.04600E+09-6.60078E+08 6.06665E+08-1.11811E+09-4.20382E+08 1.19745E+09
 -1       188 4.98741E+08-4.08286E+08-7.45708E+07-1.62539E+09 1.26321E+07 1.41961E+09
 -1       189 5.77656E+07-1.38871E+08-5.61549E+08-2.56967E+09 4.04605E+08 1.21967E+09
 -1       190 1.69881E+10 7.28069E+09 7.28070E+09 1.03974E+10 5.22558E+02 4.24585E+09
 -1       191 1.31982E+10 5.65646E+09 5.65647E+09 1.16603E+10 2.27444E+03 4.04637E+09
 -1       192 1.38665E+09 2.11985E+08 1.94875E+08-2.94108E+09-3.27443E+08-3.35486E+08
 -1       193 1.83881E+10-1.18972E+09-3.86381E+09-4.38209E+07-4.41126E+08-8.98579E+08
 -1       194 3.80798E+09 1.28231E+09 1.58466E+09-1.28191E+09 1.03400E+08-6.66431E+08
 -1       195-1.25788E+10-1.16721E+09-6.62557E+08-1.22102E+09 2.61497E+08-3.79994E+08
 -1       196-2.27702E+10-2.05687E+09-7.46684E+08-5.82817E+08 4.43684E+08-2.17798E+08
 -1       197-2.65938E+10-2.50233E+09-1.02221E+09 4.40893E+08 4.91946E+08-7.51885E+07
 -1       198-2.34825E+10-2.21081E+09-8.95703E+08 1.48833E+09 4.32428E+08 1.95796E+07
 -1       199-1.45827E+10-1.36739E+09-5.62146E+08 2.28934E+09 2.72902E+08 7.59964E+07
 -1       200-2.06069E+09-1.71383E+08-8.04471E+07 2.63964E+09 5.24455E+07 9.77989E+07
 -1       201 1.12007E+10 1.09472E+09 4.27952E+08 2.45221E+09-1.79938E+08 9.06484E+07
 -1       202 2.22268E+10 2.14645E+09 8.50042E+08 1.76196E+09-3.72941E+08 6.03164E+07
 -1       203 2.85645E+10 2.74941E+09 1.09238E+09 7.14095E+08-4.84560E+08 1.46447E+07
 -1       204 2.87999E+10 2.76896E+09 1.10201E+09-4.68999E+08-4.90655E+08-3.61674E+07
 -1       205 2.28549E+10 2.19814E+09 8.76616E+08-1.53617E+09-3.90036E+08-8.08204E+07
 -1       206 1.19993E+10 1.15869E+09 4.64885E+08-2.26171E+09-2.04596E+08-1.09087E+08
 -1       207-1.42732E+09-1.25406E+08-4.40974E+07-2.49406E+09 2.54691E+07-1.14039E+08
 -1       208-1.45231E+10-1.37650E+09-5.40122E+08-2.18862E+09 2.50381E+08-9.36599E+07
 -1       209-2.44521E+10-2.32339E+09-9.15720E+08-1.41738E+09 4.21563E+08-5.14149E+07
 -1       210-2.90573E+10-2.75991E+09-1.08946E+09-3.53405E+08 5.02152E+08 4.32799E+06
 -1       211-2.73255E+10-2.58957E+09-1.02365E+09 7.66850E+08 4.74965E+08 6.19219E+07
 -1       212-1.96033E+10-1.84623E+09-7.32504E+08 1.69509E+09 3.46175E+08 1.08822E+08
 -1       213-7.51656E+09-6.86404E+08-2.78997E+08 2.22557E+09 1.43873E+08 1.34388E+08
 -1       214 6.39052E+09 6.45390E+08 2.39337E+08 2.24009E+09-8.82124E+07 1.32725E+08
 -1       215 1.92198E+10 1.87126E+09 7.12510E+08 1.73334E+09-3.00349E+08 1.04877E+08
 -1       216 2.83663E+10 2.74259E+09 1.04354E+09 8.12085E+08-4.48037E+08 5.96946E+07
 -1       217 3.21057E+10 3.09638E+09 1.16977E+09-3.32123E+08-5.00802E+08 1.03436E+07
 -1       218 3.00011E+10 2.89731E+09 1.08203E+09-1.46730E+09-4.51332E+08-2.92449E+07
 -1       219 2.30459E+10 2.23751E+09 8.14086E+08-2.37616E+09-3.13167E+08-2.43509E+07
 -1       220 1.35890E+10 1.36095E+09 5.33404E+08-2.95450E+09-1.50890E+08 6.74137E+07
 -1       221 5.46801E+09 8.96597E+08 5.04048E+08-3.07776E+09 7.43518E+07 5.85554E+08
 -1       222 1.41036E+10-2.84375E+09-5.64535E+09 3.72062E+09 1.86748E+08-8.97085E+08
 -1       223 3.12537E+09 7.09911E+08 1.20816E+09 3.98130E+09 7.63182E+07-3.42308E+08
 -1       224-1.03464E+10-6.68642E+08 1.56737E+08 3.33894E+09 7.38532E+07-2.07504E+08
 -1       225-1.86840E+10-9.31707E+08 8.16727E+08 1.71717E+09 4.16057E+07-1.07579E+08
 -1       226-2.18685E+10-1.14815E+09 8.01642E+08-3.63913E+08 3.30391E+07-7.23109E+07
 -1       227-1.93397E+10-1.02172E+09 7.03843E+08-2.42567E+09 2.65515E+07-7.08665E+07
 -1       228-1.20132E+10-6.48405E+08 4.24373E+08-3.97830E+09 2.32049E+07-8.55685E+07
 -1       229-1.65799E+09-1.01998E+08 6.11790E+07-4.67915E+09 2.12110E+07-9.64896E+07
 -1       230 9.33617E+09 4.85469E+08-3.14176E+08-4.37641E+09 2.01731E+07-9.24130E+07
 -1       231 1.84903E+10 9.78653E+08-6.21225E+08-3.13850E+09 1.93683E+07-7.05615E+07
 -1       232 2.37548E+10 1.26442E+09-7.96014E+08-1.23474E+09 1.79616E+07-3.48577E+07
 -1       233 2.39450E+10 1.27697E+09-8.02032E+08 9.23580E+08 1.53212E+07 6.99397E+06
 -1       234 1.89907E+10 1.01129E+09-6.38709E+08 2.87182E+09 1.12579E+07 4.60335E+07
 -1       235 9.94579E+09 5.23578E+08-3.41713E+08 4.19190E+09 6.11442E+06 7.42324E+07
 -1       236-1.24275E+09-8.13951E+07 2.44767E+07 4.60238E+09 7.00672E+05 8.61879E+07
 -1       237-1.21581E+10-6.73207E+08 3.80370E+08 4.01903E+09-3.88016E+06 8.01618E+07
 -1       238-2.04369E+10-1.12408E+09 6.48624E+08 2.57290E+09-6.46103E+06 5.82995E+07
 -1       239-2.42797E+10-1.33640E+09 7.70863E+08 5.81674E+08-6.04353E+06 2.59792E+07
 -1       240-2.28377E+10-1.26345E+09 7.20548E+08-1.51948E+09-1.99044E+06-9.56075E+06
 -1       241-1.63919E+10-9.18867E+08 5.09119E+08-3.27286E+09 5.84213E+06-4.09529E+07
 -1       242-6.28681E+09-3.72820E+08 1.84002E+08-4.29837E+09 1.70433E+07-6.22435E+07
 -1       243 5.36970E+09 2.64184E+08-1.81271E+08-4.37695E+09 3.06334E+07-6.96943E+07
 -1       244 1.61729E+10 8.65901E+08-5.03188E+08-3.49844E+09 4.53063E+07-6.17404E+07
 -1       245 2.39555E+10 1.31765E+09-7.07194E+08-1.86300E+09 5.95443E+07-3.83395E+07
 -1       246 2.72765E+10 1.54108E+09-7.45575E+08 1.65324E+08 7.35155E+07-2.59502E+06
 -1       247 2.57654E+10 1.51284E+09-6.04020E+08 2.13795E+09 8.63607E+07 3.87736E+07
 -1       248 2.02355E+10 1.28516E+09-3.14756E+08 3.61505E+09 1.03489E+08 1.01200E+08
 -1       249 1.25802E+10 9.44592E+08 1.05875E+08 4.28831E+09 8.69087E+07 2.06716E+08
 -1       250 5.59829E+09 8.03233E+08 5.15123E+08 4.08207E+09 1.52318E+08 6.81790E+08
 -1       251 1.94188E+09 1.25832E+09 6.75345E+08 4.46085E+09-3.39977E+08-3.10707E+08
 -1       252 5.77656E+07-1.38871E+08-5.61549E+08-2.56967E+09-4.04605E+08-1.21967E+09
 -1       253 4.98741E+08-4.08286E+08-7.45708E+07-1.62539E+09-1.26321E+07-1.41961E+09
 -1       254 1.04600E+09-6.60078E+08 6.06665E+08-1.11811E+09 4.20382E+08-1.19745E+09
 -1       255 1.47938E+09-8.31104E+08 1.18469E+09-7.91505E+08 7.68907E+08-6.85609E+08
 -1       256 1.63092E+09-8.81254E+08 1.42618E+09-5.30222E+08 9.13353E+08 1.80198E+07
 -1       257 1.44952E+09-7.75295E+08 1.28723E+09-3.08959E+08 8.23841E+08 7.45725E+08
 -1       258 9.61855E+08-5.27331E+08 8.06435E+08-1.29852E+08 5.25189E+08 1.33298E+09
 -1       259 2.66133E+08-1.82427E+08 9.47522E+07-6.78525E+06 8.46720E+07 1.64442E+09
 -1       260-4.92265E+08 1.90106E+08-6.90101E+08 4.96482E+07-4.00479E+08 1.60663E+09
 -1       261-1.15172E+09 5.13449E+08-1.37323E+09 3.93576E+07-8.22887E+08 1.22362E+09
 -1       262-1.56998E+09 7.20279E+08-1.79978E+09-2.47732E+07-1.08769E+09 5.75815E+08
 -1       263-1.65574E+09 7.67697E+08-1.86950E+09-1.18851E+08-1.13368E+09-1.97783E+08
 -1       264-1.38917E+09 6.46696E+08-1.55989E+09-2.13098E+08-9.47214E+08-9.30125E+08
 -1       265-8.26737E+08 3.84256E+08-9.32035E+08-2.78402E+08-5.65703E+08-1.46258E+09
 -1       266-8.92308E+07 3.75958E+07-1.17837E+08-2.92635E+08-6.97118E+07-1.67953E+09
 -1       267 6.64262E+08-3.18136E+08 7.08390E+08-2.45291E+08 4.34385E+08-1.53349E+09
 -1       268 1.27077E+09-6.06093E+08 1.36770E+09-1.39514E+08 8.37447E+08-1.05558E+09
 -1       269 1.59877E+09-7.64366E+08 1.71538E+09 8.89180E+06 1.05125E+09-3.48839E+08
 -1       270 1.57673E+09-7.59420E+08 1.67247E+09 1.75158E+08 1.02768E+09 4.33909E+08
 -1       271 1.20891E+09-5.93418E+08 1.24333E+09 3.31199E+08 7.69405E+08 1.12296E+09
 -1       272 5.74829E+08-3.03908E+08 5.15426E+08 4.52127E+08 3.29686E+08 1.56823E+09
 -1       273-1.87143E+08 4.42563E+07-3.58098E+08 5.22609E+08-1.98712E+08 1.67149E+09
 -1       274-9.09111E+08 3.72214E+08-1.19125E+09 5.42698E+08-7.02487E+08 1.40731E+09
 -1       275-1.42916E+09 6.04868E+08-1.80512E+09 5.33489E+08-1.07566E+09 8.29215E+08
 -1       276-1.62811E+09 6.83545E+08-2.08013E+09 5.40444E+08-1.23786E+09 5.67972E+07
 -1       277-1.45825E+09 5.77455E+08-1.97751E+09 6.49832E+08-1.18806E+09-7.40871E+08
 -1       278-9.65428E+08 3.10471E+08-1.64760E+09 9.72983E+08-9.18028E+08-1.40622E+09
 -1       279-1.37397E+08-1.25578E+08-9.65053E+08 1.66995E+09-6.89941E+08-1.70196E+09
 -1       280 3.39452E+08-9.23989E+08-1.04635E+09 3.41303E+09-1.11564E+08-2.03688E+09
 -1       281 1.31982E+10 5.65646E+09 5.65647E+09 1.16603E+10-2.27444E+03-4.04637E+09
 -1       282 1.69881E+10 7.28069E+09 7.28070E+09 1.03974E+10-5.22558E+02-4.24585E+09
 -1       283 1.41036E+10-2.84375E+09-5.64535E+09 3.72062E+09-1.86748E+08 8.97085E+08
 -1       284 3.12537E+09 7.09911E+08 1.20816E+09 3.98130E+09-7.63182E+07 3.42308E+08
 -1       285-1.03464E+10-6.68642E+08 1.56737E+08 3.33894E+09-7.38532E+07 2.07504E+08
 -1       286-1.86840E+10-9.31707E+08 8.16727E+08 1.71717E+09-4.16057E+07 1.07579E+08
 -1       287-2.18685E+10-1.14815E+09 8.01642E+08-3.63913E+08-3.30391E+07 7.23109E+07
 -1       288-1.93397E+10-1.02172E+09 7.03843E+08-2.42567E+09-2.65515E+07 7.08665E+07
 -1       289-1.20132E+10-6.48405E+08 4.24373E+08-3.97830E+09-2.32049E+07 8.55685E+07
 -1       290-1.65799E+09-1.01998E+08 6.11790E+07-4.67915E+09-2.12110E+07 9.64896E+07
 -1       291 9.33617E+09 4.85469E+08-3.14176E+08-4.37641E+09-2.01731E+07 9.24130E+07
 -1       292 1.84903E+10 9.78653E+08-6.21225E+08-3.13850E+09-1.93683E+07 7.05615E+07
 -1       293 2.37548E+10 1.26442E+09-7.96014E+08-1.23474E+09-1.79616E+07 3.48577E+07
 -1       294 2.39450E+10 1.27697E+09-8.02032E+08 9.23580E+08-1.53212E+07-6.99397E+06
 -1       295 1.89907E+10 1.01129E+09-6.38709E+08 2.87182E+09-1.12579E+07-4.60335E+07
 -1       296 9.94579E+09 5.23578E+08-3.41713E+08 4.19190E+09-6.11442E+06-7.42324E+07
 -1       297-1.24275E+09-8.13951E+07 2.44767E+07 4.60238E+09-7.00672E+05-8.61879E+07
 -1       298-1.21581E+10-6.73207E+08 3.80370E+08 4.01903E+09 3.88016E+06-8.01618E+07
 -1       299-2.04369E+10-1.12408E+09 6.48624E+08 2.57290E+09 6.46103E+06-5.82995E+07
 -1       300-2.42797E+10-1.33640E+09 7.70863E+08 5.81674E+08 6.04353E+06-2.59792E+07
 -1       301-2.28377E+10-1.26345E+09 7.20548E+08-1.51948E+09 1.99044E+06 9.56075E+06
 -1       302-1.63919E+10-9.18867E+08 5.09119E+08-3.27286E+09-5.84213E+06 4.09529E+07
 -1       303-6.28681E+09-3.72820E+08 1.84002E+08-4.29837E+09-1.70433E+07 6.22435E+07
 -1       304 5.36970E+09 2.64184E+08-1.81271E+08-4.37695E+09-3.06334E+07 6.96943E+07
 -1       305 1.61729E+10 8.65901E+08-5.03188E+08-3.49844E+09-4.53063E+07 6.17404E+07
 -1       306 2.39555E+10 1.31765E+09-7.07194E+08-1.86300E+09-5.95443E+07 3.83395E+07
 -1       307 2.72765E+10 1.54108E+09-7.45575E+08 1.65324E+08-7.35155E+07 2.59502E+06
 -1       308 2.57654E+10 1.51284E+09-6.04020E+08 2.13795E+09-8.63607E+07-3.87736E+07
 -1       309 2.02355E+10 1.28516E+09-3.14756E+08 3.61505E+09-1.03489E+08-1.01200E+08
 -1       310 1.25802E+10 9.44592E+08 1.05875E+08 4.28831E+09-8.69087E+07-2.06716E+08
 -1       311 5.59829E+09 8.03233E+08 5.15123E+08 4.08207E+09-1.52318E+08-6.81790E+08
 -1       312 1.94188E+09 1.25832E+09 6.75345E+08 4.46085E+09 3.39977E+08 3.10707E+08
 -1       313 1.83881E+10-1.18972E+09-3.86381E+09-4.38209E+07 4.41126E+08 8.98579E+08
 -1       314 3.80798E+09 1.28231E+09 1.58466E+09-1.28191E+09-1.03400E+08 6.66431E+08
 -1       315-1.25788E+10-1.16721E+09-6.62557E+08-1.22102E+09-2.61497E+08 3.79994E+08
 -1       316-2.27702E+10-2.05687E+09-7.46684E+08-5.82817E+08-4.43684E+08 2.17798E+08
 -1       317-2.65938E+10-2.50233E+09-1.02221E+09 4.40893E+08-4.91946E+08 7.51885E+07
 -1       318-2.34825E+10-2.21081E+09-8.95703E+08 1.48833E+09-4.32428E+08-1.95796E+07
 -1       319-1.45827E+10-1.36739E+09-5.62146E+08 2.28934E+09-2.72902E+08-7.59964E+07
 -1       320-2.06069E+09-1.71383E+08-8.04471E+07 2.63964E+09-5.24455E+07-9.77989E+07
 -1       321 1.12007E+10 1.09472E+09 4.27952E+08 2.45221E+09 1.79938E+08-9.06484E+07
 -1       322 2.22268E+10 2.14645E+09 8.50042E+08 1.76196E+09 3.72941E+08-6.03164E+07
 -1       323 2.85645E+10 2.74941E+09 1.09238E+09 7.14095E+08 4.84560E+08-1.46447E+07
 -1       324 2.87999E+10 2.76896E+09 1.10201E+09-4.68999E+08 4.90655E+08 3.61674E+07
 -1       325 2.28549E+10 2.19814E+09 8.76616E+08-1.53617E+09 3.90036E+08 8.08204E+07
 -1       326 1.19993E+10 1.15869E+09 4.64885E+08-2.26171E+09 2.04596E+08 1.09087E+08
 -1       327-1.42732E+09-1.25406E+08-4.40974E+07-2.49406E+09-2.54691E+07 1.14039E+08
 -1       328-1.45231E+10-1.37650E+09-5.40122E+08-2.18862E+09-2.50381E+08 9.36599E+07
 -1       329-2.44521E+10-2.32339E+09-9.15720E+08-1.41738E+09-4.21563E+08 5.14149E+07
 -1       330-2.90573E+10-2.75991E+09-1.08946E+09-3.53405E+08-5.02152E+08-4.32799E+06
 -1       331-2.73255E+10-2.58957E+09-1.02365E+09 7.66850E+08-4.74965E+08-6.19219E+07
 -1       332-1.96033E+10-1.84623E+09-7.32504E+08 1.69509E+09-3.46175E+08-1.08822E+08
 -1       333-7.51656E+09-6.86404E+08-2.78997E+08 2.22557E+09-1.43873E+08-1.34388E+08
 -1       334 6.39052E+09 6.45390E+08 2.39337E+08 2.24009E+09 8.82124E+07-1.32725E+08
 -1       335 1.92198E+10 1.87126E+09 7.12510E+08 1.73334E+09 3.00349E+08-1.04877E+08
 -1       336 2.83663E+10 2.74259E+09 1.04354E+09 8.12085E+08 4.48037E+08-5.96946E+07
 -1       337 3.21057E+10 3.09638E+09 1.16977E+09-3.32123E+08 5.00802E+08-1.03436E+07
 -1       338 3.00011E+10 2.89731E+09 1.08203E+09-1.46730E+09 4.51332E+08 2.92449E+07
 -1       339 2.30459E+10 2.23751E+09 8.14086E+08-2.37616E+09 3.13167E+08 2.43509E+07
 -1       340 1.35890E+10 1.36095E+09 5.33404E+08-2.95450E+09 1.50890E+08-6.74137E+07
 -1       341 5.46801E+09 8.96597E+08 5.04048E+08-3.07776E+09-7.43518E+07-5.85554E+08
 -1       342 1.38665E+09 2.11985E+08 1.94875E+08-2.94108E+09 3.27443E+08 3.35486E+08
 -1       343-1.83881E+10 1.18972E+09 3.86381E+09-4.38209E+07-4.41126E+08 8.98579E+08
 -1       344-3.80798E+09-1.28231E+09-1.58466E+09-1.28191E+09 1.03400E+08 6.66431E+08
 -1       345 1.25788E+10 1.16721E+09 6.62557E+08-1.22102E+09 2.61497E+08 3.79994E+08
 -1       346 2.27702E+10 2.05687E+09 7.46684E+08-5.82817E+08 4.43684E+08 2.17798E+08
 -1       347 2.65938E+10 2.50233E+09 1.02221E+09 4.40893E+08 4.91946E+08 7.51885E+07
 -1       348 2.34825E+10 2.21081E+09 8.95703E+08 1.48833E+09 4.32428E+08-1.95796E+07
 -1       349 1.45827E+10 1.36739E+09 5.62146E+08 2.28934E+09 2.72902E+08-7.59964E+07
 -1       350 2.06069E+09 1.71383E+08 8.04471E+07 2.63964E+09 5.24455E+07-9.77989E+07
 -1       351-1.12007E+10-1.09472E+09-4.27952E+08 2.45221E+09-1.79938E+08-9.06484E+07
 -1       352-2.22268E+10-2.14645E+09-8.50042E+08 1.76196E+09-3.72941E+08-6.03164E+07
 -1       353-2.85645E+10-2.74941E+09-1.09238E+09 7.14095E+08-4.84560E+08-1.46447E+07
 -1       354-2.87999E+10-2.76896E+09-1.10201E+09-4.68999E+08-4.90655E+08 3.61674E+07
 -1       355-2.28549E+10-2.19814E+09-8.76616E+08-1.53617E+09-3.90036E+08 8.08204E+07
 -1       356-1.19993E+10-1.15869E+09-4.64885E+08-2.26171E+09-2.04596E+08 1.09087E+08
 -1       357 1.42732E+09 1.25406E+08 4.40974E+07-2.49406E+09 2.54691E+07 1.14039E+08
 -1       358 1.45231E+10 1.37650E+09 5.40122E+08-2.18862E+09 2.50381E+08 9.36599E+07
 -1       359 2.44521E+10 2.32339E+09 9.15720E+08-1.41738E+09 4.21563E+08 5.14149E+07
 -1       360 2.90573E+10 2.75991E+09 1.08946E+09-3.53405E+08 5.02152E+08-4.32799E+06
 -1       361 2.73255E+10 2.58957E+09 1.02365E+09 7.66850E+08 4.74965E+08-6.19219E+07
 -1       362 1.96033E+10 1.84623E+09 7.32504E+08 1.69509E+09 3.46175E+08-1.08822E+08
 -1       363 7.51656E+09 6.86404E+08 2.78997E+08 2.22557E+09 1.43873E+08-1.34388E+08
 -1       364-6.39052E+09-6.45390E+08-2.39337E+08 2.24009E+09-8.82124E+07-1.32725E+08
 -1       365-1.92198E+10-1.87126E+09-7.12510E+08 1.73334E+09-3.00349E+08-1.04877E+08
 -1       366-2.83663E+10-2.74259E+09-1.04354E+09 8.12085E+08-4.48037E+08-5.96946E+07
 -1       367-3.21057E+10-3.09638E+09-1.16977E+09-3.32123E+08-5.00802E+08-1.03436E+07
 -1       368-3.00011E+10-2.89731E+09-1.08203E+09-1.46730E+09-4.51332E+08 2.92449E+07
 -1       369-2.30459E+10-2.23751E+09-8.14086E+08-2.37616E+09-3.13167E+08 2.43509E+07
 -1       370-1.35890E+10-1.36095E+09-5.33404E+08-2.95450E+09-1.50890E+08-6.74137E+07
 -1       371-5.46801E+09-8.96597E+08-5.04048E+08-3.07776E+09 7.43518E+07-5.85554E+08
 -1       372-1.41036E+10 2.84375E+09 5.64535E+09 3.72062E+09 1.86748E+08 8.97085E+08
 -1       373-3.12537E+09-7.09911E+08-1.20816E+09 3.98130E+09 7.63182E+07 3.42308E+08
 -1       374 1.03464E+10 6.68642E+08-1.56737E+08 3.33894E+09 7.38532E+07 2.07504E+08
 -1       375 1.86840E+10 9.31707E+08-8.16727E+08 1.71717E+09 4.16057E+07 1.07579E+08
 -1       376 2.18685E+10 1.14815E+09-8.01642E+08-3.63913E+08 3.30391E+07 7.23109E+07
 -1       377 1.93397E+10 1.02172E+09-7.03843E+08-2.42567E+09 2.65515E+07 7.08665E+07
 -1       378 1.20132E+10 6.48405E+08-4.24373E+08-3.97830E+09 2.32049E+07 8.55685E+07
 -1       379 1.65799E+09 1.01998E+08-6.11790E+07-4.67915E+09 2.12110E+07 9.64896E+07
 -1       380-9.33617E+09-4.85469E+08 3.14176E+08-4.37641E+09 2.01731E+07 9.24130E+07
 -1       381-1.84903E+10-9.78653E+08 6.21225E+08-3.13850E+09 1.93683E+07 7.05615E+07
 -1       382-2.37548E+10-1.26442E+09 7.96014E+08-1.23474E+09 1.79616E+07 3.48577E+07
 -1       383-2.39450E+10-1.27697E+09 8.02032E+08 9.23580E+08 1.53212E+07-6.99397E+06
 -1       384-1.89907E+10-1.01129E+09 6.38709E+08 2.87182E+09 1.12579E+07-4.60335E+07
 -1       385-9.94579E+09-5.23578E+08 3.41713E+08 4.19190E+09 6.11442E+06-7.42324E+07
 -1       386 1.24275E+09 8.13951E+07-2.44767E+07 4.60238E+09 7.00672E+05-8.61879E+07
 -1       387 1.21581E+10 6.73207E+08-3.80370E+08 4.01903E+09-3.88016E+06-8.01618E+07
 -1       388 2.04369E+10 1.12408E+09-6.48624E+08 2.57290E+09-6.46103E+06-5.82995E+07
 -1       389 2.42797E+10 1.33640E+09-7.70863E+08 5.81674E+08-6.04353E+06-2.59792E+07
 -1       390 2.28377E+10 1.26345E+09-7.20548E+08-1.51948E+09-1.99044E+06 9.56075E+06
 -1       391 1.63919E+10 9.18867E+08-5.09119E+08-3.27286E+09 5.84213E+06 4.09529E+07
 -1       392 6.28681E+09 3.72820E+08-1.84002E+08-4.29837E+09 1.70433E+07 6.22435E+07
 -1       393-5.36970E+09-2.64184E+08 1.81271E+08-4.37695E+09 3.06334E+07 6.96943E+07
 -1       394-1.61729E+10-8.65901E+08 5.03188E+08-3.49844E+09 4.53063E+07 6.17404E+07
 -1       395-2.39555E+10-1.31765E+09 7.07194E+08-1.86300E+09 5.95443E+07 3.83395E+07
 -1       396-2.72765E+10-1.54108E+09 7.45575E+08 1.65324E+08 7.35155E+07 2.59502E+06
 -1       397-2.57654E+10-1.51284E+09 6.04020E+08 2.13795E+09 8.63607E+07-3.87736E+07
 -1       398-2.02355E+10-1.28516E+09 3.14756E+08 3.61505E+09 1.03489E+08-1.01200E+08
 -1       399-1.25802E+10-9.44592E+08-1.05875E+08 4.28831E+09 8.69087E+07-2.06716E+08
 -1       400-5.59829E+09-8.03233E+08-5.15123E+08 4.08207E+09 1.52318E+08-6.81790E+08
 -1       401-1.69881E+10-7.28069E+09-7.28070E+09 1.03974E+10 5.22558E+02-4.24585E+09
 -1       402-1.31982E+10-5.65646E+09-5.65647E+09 1.16603E+10 2.27444E+03-4.04637E+09
 -1       403-1.38665E+09-2.11985E+08-1.94875E+08-2.94108E+09-3.27443E+08 3.35486E+08
 -1       404-3.39452E+08 9.23989E+08 1.04635E+09 3.41303E+09 1.11564E+08-2.03688E+09
 -1       405 1.37397E+08 1.25578E+08 9.65053E+08 1.66995E+09 6.89941E+08-1.70196E+09
 -1       406 9.65428E+08-3.10471E+08 1.64760E+09 9.72983E+08 9.18028E+08-1.40622E+09
 -1       407 1.45825E+09-5.77455E+08 1.97751E+09 6.49832E+08 1.18806E+09-7.40871E+08
 -1       408 1.62811E+09-6.83545E+08 2.08013E+09 5.40444E+08 1.23786E+09 5.67972E+07
 -1       409 1.42916E+09-6.04868E+08 1.80512E+09 5.33489E+08 1.07566E+09 8.29215E+08
 -1       410 9.09111E+08-3.72214E+08 1.19125E+09 5.42698E+08 7.02487E+08 1.40731E+09
 -1       411 1.87143E+08-4.42563E+07 3.58098E+08 5.22609E+08 1.98712E+08 1.67149E+09
 -1       412-5.74829E+08 3.03908E+08-5.15426E+08 4.52127E+08-3.29686E+08 1.56823E+09
 -1       413-1.20891E+09 5.93418E+08-1.24333E+09 3.31199E+08-7.69405E+08 1.12296E+09
 -1       414-1.57673E+09 7.59420E+08-1.67247E+09 1.75158E+08-1.02768E+09 4.33909E+08
 -1       415-1.59877E+09 7.64366E+08-1.71538E+09 8.89180E+06-1.05125E+09-3.48839E+08
 -1       416-1.27077E+09 6.06093E+08-1.36770E+09-1.39514E+08-8.37447E+08-1.05558E+09
 -1       417-6.64262E+08 3.18136E+08-7.08390E+08-2.45291E+08-4.34385E+08-1.53349E+09
 -1       418 8.92308E+07-3.75958E+07 1.17837E+08-2.92635E+08 6.97118E+07-1.67953E+09
 -1       419 8.26737E+08-3.84256E+08 9.32035E+08-2.78402E+08 5.65703E+08-1.46258E+09
 -1       420 1.38917E+09-6.46696E+08 1.55989E+09-2.13098E+08 9.47214E+08-9.30125E+08
 -1       421 1.65574E+09-7.67697E+08 1.86950E+09-1.18851E+08 1.13368E+09-1.97783E+08
 -1       422 1.56998E+09-7.20279E+08 1.79978E+09-2.47732E+07 1.08769E+09 5.75815E+08
 -1       423 1.15172E+09-5.13449E+08 1.37323E+09 3.93576E+07 8.22887E+08 1.22362E+09
 -1       424 4.92265E+08-1.90106E+08 6.90101E+08 4.96482E+07 4.00479E+08 1.60663E+09
 -1       425-2.66133E+08 1.82427E+08-9.47522E+07-6.78525E+06-8.46720E+07 1.64442E+09
 -1       426-9.61855E+08 5.27331E+08-8.06435E+08-1.29852E+08-5.25189E+08 1.33298E+09
 -1       427-1.44952E+09 7.75295E+08-1.28723E+09-3.08959E+08-8.23841E+08 7.45725E+08
 -1       428-1.63092E+09 8.81254E+08-1.42618E+09-5.30222E+08-9.13353E+08 1.80198E+07
 -1       429-1.47938E+09 8.31104E+08-1.18469E+09-7.91505E+08-7.68907E+08-6.85609E+08
 -1       430-1.04600E+09 6.60078E+08-6.06665E+08-1.11811E+09-4.20382E+08-1.19745E+09
 -1       431-4.98741E+08 4.08286E+08 7.45708E+07-1.62539E+09 1.26321E+07-1.41961E+09
 -1       432-5.77656E+07 1.38871E+08 5.61549E+08-2.56967E+09 4.04605E+08-1.21967E+09
 -1       433-1.94188E+09-1.25832E+09-6.75345E+08 4.46085E+09-3.39977E+08 3.10707E+08
 -1       434-1.69881E+10-7.28069E+09-7.28070E+09 1.03974E+10-5.22558E+02 4.24585E+09
 -1       435-1.31982E+10-5.65646E+09-5.65647E+09 1.16603E+10-2.27444E+03 4.04637E+09
 -1       436-5.77656E+07 1.38871E+08 5.61549E+08-2.56967E+09-4.04605E+08 1.21967E+09
 -1       437-4.98741E+08 4.08286E+08 7.45708E+07-1.62539E+09-1.26321E+07 1.41961E+09
 -1       438-1.04600E+09 6.60078E+08-6.06665E+08-1.11811E+09 4.20382E+08 1.19745E+09
 -1       439-1.47938E+09 8.31104E+08-1.18469E+09-7.91505E+08 7.68907E+08 6.85609E+08
 -1       440-1.63092E+09 8.81254E+08-1.42618E+09-5.30222E+08 9.13353E+08-1.80198E+07
 -1       441-1.44952E+09 7.75295E+08-1.28723E+09-3.08959E+08 8.23841E+08-7.45725E+08
 -1       442-9.61855E+08 5.27331E+08-8.06435E+08-1.29852E+08 5.25189E+08-1.33298E+09
 -1       443-2.66133E+08 1.82427E+08-9.47522E+07-6.78525E+06 8.46720E+07-1.64442E+09
 -1       444 4.92265E+08-1.90106E+08 6.90101E+08 4.96482E+07-4.00479E+08-1.60663E+09
 -1       445 1.15172E+09-5.13449E+08 1.37323E+09 3.93576E+07-8.22887E+08-1.22362E+09
 -1       446 1.56998E+09-7.20279E+08 1.79978E+09-2.47732E+07-1.08769E+09-5.75815E+08
 -1       447 1.65574E+09-7.67697E+08 1.86950E+09-1.18851E+08-1.13368E+09 1.97783E+08
 -1       448 1.38917E+09-6.46696E+08 1.55989E+09-2.13098E+08-9.47214E+08 9.30125E+08
 -1       449 8.26737E+08-3.84256E+08 9.32035E+08-2.78402E+08-5.65703E+08 1.46258E+09
 -1       450 8.92308E+07-3.75958E+07 1.17837E+08-2.92635E+08-6.97118E+07 1.67953E+09
 -1       451-6.64262E+08 3.18136E+08-7.08390E+08-2.45291E+08 4.34385E+08 1.53349E+09
 -1       452-1.27077E+09 6.06093E+08-1.36770E+09-1.39514E+08 8.37447E+08 1.05558E+09
 -1       453-1.59877E+09 7.64366E+08-1.71538E+09 8.89180E+06 1.05125E+09 3.48839E+08
 -1       454-1.57673E+09 7.59420E+08-1.67247E+09 1.75158E+08 1.02768E+09-4.33909E+08
 -1       455-1.20891E+09 5.93418E+08-1.24333E+09 3.31199E+08 7.69405E+08-1.12296E+09
 -1       456-5.74829E+08 3.03908E+08-5.15426E+08 4.52127E+08 3.29686E+08-1.56823E+09
 -1       457 1.87143E+08-4.42563E+07 3.58098E+08 5.22609E+08-1.98712E+08-1.67149E+09
 -1       458 9.09111E+08-3.72214E+08 1.19125E+09 5.42698E+08-7.02487E+08-1.40731E+09
 -1       459 1.42916E+09-6.04868E+08 1.80512E+09 5.33489E+08-1.07566E+09-8.29215E+08
 -1       460 1.62811E+09-6.83545E+08 2.08013E+09 5.40444E+08-1.23786E+09-5.67972E+07
 -1       461 1.45825E+09-5.77455E+08 1.97751E+09 6.49832E+08-1.18806E+09 7.40871E+08
 -1       462 9.65428E+08-3.10471E+08 1.64760E+09 9.72983E+08-9.18028E+08 1.40622E+09
 -1       463 1.37397E+08 1.25578E+08 9.65053E+08 1.66995E+09-6.89941E+08 1.70196E+09
 -1       464-3.39452E+08 9.23989E+08 1.04635E+09 3.41303E+09-1.11564E+08 2.03688E+09
 -1       465-1.38665E+09-2.11985E+08-1.94875E+08-2.94108E+09 3.27443E+08-3.35486E+08
 -1       466-1.83881E+10 1.18972E+09 3.86381E+09-4.38209E+07 4.41126E+08-8.98579E+08
 -1       467-3.80798E+09-1.28231E+09-1.58466E+09-1.28191E+09-1.03400E+08-6.66431E+08
 -1       468 1.25788E+10 1.16721E+09 6.62557E+08-1.22102E+09-2.61497E+08-3.79994E+08
 -1       469 2.27702E+10 2.05687E+09 7.46684E+08-5.82817E+08-4.43684E+08-2.17798E+08
 -1       470 2.65938E+10 2.50233E+09 1.02221E+09 4.40893E+08-4.91946E+08-7.51885E+07
 -1       471 2.34825E+10 2.21081E+09 8.95703E+08 1.48833E+09-4.32428E+08 1.95796E+07
 -1       472 1.45827E+10 1.36739E+09 5.62146E+08 2.28934E+09-2.72902E+08 7.59964E+07
 -1       473 2.06069E+09 1.71383E+08 8.04471E+07 2.63964E+09-5.24455E+07 9.77989E+07
 -1       474-1.12007E+10-1.09472E+09-4.27952E+08 2.45221E+09 1.79938E+08 9.06484E+07
 -1       475-2.22268E+10-2.14645E+09-8.50042E+08 1.76196E+09 3.72941E+08 6.03164E+07
 -1       476-2.85645E+10-2.74941E+09-1.09238E+09 7.14095E+08 4.84560E+08 1.46447E+07
 -1       477-2.87999E+10-2.76896E+09-1.10201E+09-4.68999E+08 4.90655E+08-3.61674E+07
 -1       478-2.28549E+10-2.19814E+09-8.76616E+08-1.53617E+09 3.90036E+08-8.08204E+07
 -1       479-1.19993E+10-1.15869E+09-4.64885E+08-2.26171E+09 2.04596E+08-1.09087E+08
 -1       480 1.42732E+09 1.25406E+08 4.40974E+07-2.49406E+09-2.54691E+07-1.14039E+08
 -1       481 1.45231E+10 1.37650E+09 5.40122E+08-2.18862E+09-2.50381E+08-9.36599E+07
 -1       482 2.44521E+10 2.32339E+09 9.15720E+08-1.41738E+09-4.21563E+08-5.14149E+07
 -1       483 2.90573E+10 2.75991E+09 1.08946E+09-3.53405E+08-5.02152E+08 4.32799E+06
 -1       484 2.73255E+10 2.58957E+09 1.02365E+09 7.66850E+08-4.74965E+08 6.19219E+07
 -1       485 1.96033E+10 1.84623E+09 7.32504E+08 1.69509E+09-3.46175E+08 1.08822E+08
 -1       486 7.51656E+09 6.86404E+08 2.78997E+08 2.22557E+09-1.43873E+08 1.34388E+08
 -1       487-6.39052E+09-6.45390E+08-2.39337E+08 2.24009E+09 8.82124E+07 1.32725E+08
 -1       488-1.92198E+10-1.87126E+09-7.12510E+08 1.73334E+09 3.00349E+08 1.04877E+08
 -1       489-2.83663E+10-2.74259E+09-1.04354E+09 8.12085E+08 4.48037E+08 5.96946E+07
 -1       490-3.21057E+10-3.09638E+09-1.16977E+09-3.32123E+08 5.00802E+08 1.03436E+07
 -1       491-3.00011E+10-2.89731E+09-1.08203E+09-1.46730E+09 4.51332E+08-2.92449E+07
 -1       492-2.30459E+10-2.23751E+09-8.14086E+08-2.37616E+09 3.13167E+08-2.43509E+07
 -1       493-1.35890E+10-1.36095E+09-5.33404E+08-2.95450E+09 1.50890E+08 6.74137E+07
 -1       494-5.46801E+09-8.96597E+08-5.04048E+08-3.07776E+09-7.43518E+07 5.85554E+08
 -1       495-1.41036E+10 2.84375E+09 5.64535E+09 3.72062E+09-1.86748E+08-8.97085E+08
 -1       496-3.12537E+09-7.09911E+08-1.20816E+09 3.98130E+09-7.63182E+07-3.42308E+08
 -1       497 1.03464E+10 6.68642E+08-1.56737E+08 3.33894E+09-7.38532E+07-2.07504E+08
 -1       498 1.86840E+10 9.31707E+08-8.16727E+08 1.71717E+09-4.16057E+07-1.07579E+08
 -1       499 2.18685E+10 1.14815E+09-8.01642E+08-3.63913E+08-3.30391E+07-7.23109E+07
 -1       500 1.93397E+10 1.02172E+09-7.03843E+08-2.42567E+09-2.65515E+07-7.08665E+07
 -1       501 1.20132E+10 6.48405E+08-4.24373E+08-3.97830E+09-2.32049E+07-8.55685E+07
 -1       502 1.65799E+09 1.01998E+08-6.11790E+07-4.67915E+09-2.12110E+07-9.64896E+07
 -1       503-9.33617E+09-4.85469E+08 3.14176E+08-4.37641E+09-2.01731E+07-9.24130E+07
 -1       504-1.84903E+10-9.78653E+08 6.21225E+08-3.13850E+09-1.93683E+07-7.05615E+07
 -1       505-2.37548E+10-1.26442E+09 7.96014E+08-1.23474E+09-1.79616E+07-3.48577E+07
 -1       506-2.39450E+10-1.27697E+09 8.02032E+08 9.23580E+08-1.53212E+07 6.99397E+06
 -1       507-1.89907E+10-1.01129E+09 6.38709E+08 2.87182E+09-1.12579E+07 4.60335E+07
 -1       508-9.94579E+09-5.23578E+08 3.41713E+08 4.19190E+09-6.11442E+06 7.42324E+07
 -1       509 1.24275E+09 8.13951E+07-2.44767E+07 4.60238E+09-7.00672E+05 8.61879E+07
 -1       510 1.21581E+10 6.73207E+08-3.80370E+08 4.01903E+09 3.88016E+06 8.01618E+07
 -1       511 2.04369E+10 1.12408E+09-6.48624E+08 2.57290E+09 6.46103E+06 5.82995E+07
 -1       512 2.42797E+10 1.33640E+09-7.70863E+08 5.81674E+08 6.04353E+06 2.59792E+07
 -1       513 2.28377E+10 1.26345E+09-7.20548E+08-1.51948E+09 1.99044E+06-9.56075E+06
 -1       514 1.63919E+10 9.18867E+08-5.09119E+08-3.27286E+09-5.84213E+06-4.09529E+07
 -1       515 6.28681E+09 3.72820E+08-1.84002E+08-4.29837E+09-1.70433E+07-6.22435E+07
 -1       516-5.36970E+09-2.64184E+08 1.81271E+08-4.37695E+09-3.06334E+07-6.96943E+07
 -1       517-1.61729E+10-8.65901E+08 5.03188E+08-3.49844E+09-4.53063E+07-6.17404E+07
 -1       518-2.39555E+10-1.31765E+09 7.07194E+08-1.86300E+09-5.95443E+07-3.83395E+07
 -1       519-2.72765E+10-1.54108E+09 7.45575E+08 1.65324E+08-7.35155E+07-2.59502E+06
 -1       520-2.57654E+10-1.51284E+09 6.04020E+08 2.13795E+09-8.63607E+07 3.87736E+07
 -1       521-2.02355E+10-1.28516E+09 3.14756E+08 3.61505E+09-1.03489E+08 1.01200E+08
 -1       522-1.25802E+10-9.44592E+08-1.05875E+08 4.28831E+09-8.69087E+07 2.06716E+08
 -1       523-5.59829E+09-8.03233E+08-5.15123E+08 4.08207E+09-1.52318E+08 6.81790E+08
 -1       524-1.94188E+09-1.25832E+09-6.75345E+08 4.46085E+09 3.39977E+08-3.10707E+08
 -1       525 2.68747E+09 1.02133E+09 7.16951E+08-3.92432E+09-1.91096E+08 7.11700E+08
 -1       526-6.06801E+08-7.44534E+08-1.87498E+09-3.13241E+09-1.00254E+09 1.09146E+09
 -1       527-3.22262E+09-2.24122E+09-4.24812E+09-2.22722E+09-2.06714E+09 9.46518E+08
 -1       528-4.89446E+09-3.21746E+09-5.83041E+09-1.15772E+09-2.77360E+09 4.71767E+08
 -1       529-5.39342E+09-3.49002E+09-6.23998E+09 4.98774E+07-2.92857E+09-1.50564E+08
 -1       530-4.67471E+09-3.01438E+09-5.37322E+09 1.15541E+09-2.50148E+09-7.58597E+08
 -1       531-2.93459E+09-1.90469E+09-3.41437E+09 1.97472E+09-1.58132E+09-1.21409E+09
 -1       532-5.63181E+08-4.02851E+08-7.79657E+08 2.34696E+09-3.59983E+08-1.41612E+09
 -1       533 1.92128E+09 1.16717E+09 1.96930E+09 2.20052E+09 9.07531E+08-1.32005E+09
 -1       534 3.98038E+09 2.46816E+09 4.24681E+09 1.57177E+09 1.95517E+09-9.45716E+08
 -1       535 5.16970E+09 3.22163E+09 5.56907E+09 5.99514E+08 2.56248E+09-3.73072E+08
 -1       536 5.23382E+09 3.26759E+09 5.65814E+09-5.04297E+08 2.60263E+09 2.75122E+08
 -1       537 4.16083E+09 2.59868E+09 4.50145E+09-1.49994E+09 2.07025E+09 8.59886E+08
 -1       538 2.18449E+09 1.36159E+09 2.35414E+09-2.17150E+09 1.08277E+09 1.25609E+09
 -1       539-2.66661E+08-1.74941E+08-3.16476E+08-2.37339E+09-1.44913E+08 1.37949E+09
 -1       540-2.66210E+09-1.67828E+09-2.93218E+09-2.06173E+09-1.34695E+09 1.20498E+09
 -1       541-4.48422E+09-2.82401E+09-4.92913E+09-1.30378E+09-2.26411E+09 7.71973E+08
 -1       542-5.34040E+09-3.36611E+09-5.87995E+09-2.63314E+08-2.69992E+09 1.75860E+08
 -1       543-5.04794E+09-3.19025E+09-5.58623E+09 8.34830E+08-2.56325E+09-4.52668E+08
 -1       544-3.67354E+09-2.33847E+09-4.12136E+09 1.75354E+09-1.88820E+09-9.76021E+08
 -1       545-1.51869E+09-9.99861E+08-1.81418E+09 2.29490E+09-8.26899E+08-1.27970E+09
 -1       546 9.46187E+08 5.30788E+08 8.23106E+08 2.34344E+09 3.83405E+08-1.29741E+09
 -1       547 3.18488E+09 1.91771E+09 3.20750E+09 1.89225E+09 1.47228E+09-1.02600E+09
 -1       548 4.71470E+09 2.85870E+09 4.81430E+09 1.04734E+09 2.19695E+09-5.26493E+08
 -1       549 5.21823E+09 3.15392E+09 5.29483E+09 1.12280E+07 2.39808E+09 9.00550E+07
 -1       550 4.62666E+09 2.75520E+09 4.55733E+09-9.48906E+08 2.03427E+09 6.91515E+08
 -1       551 3.14368E+09 1.77723E+09 2.78041E+09-1.57190E+09 1.17377E+09 1.16721E+09
 -1       552 1.22241E+09 4.76386E+08 3.65549E+08-1.60999E+09-7.69802E+07 1.47560E+09
 -1       553-5.65690E+08-8.35576E+08-2.21956E+09-1.01194E+09-1.77238E+09 1.66035E+09
 -1       554 3.05936E+09 1.16032E+09 8.08379E+08-3.01511E+09-7.06756E-03 2.10808E-03
 -1       555-6.59764E+08-8.87831E+08-2.29967E+09-2.70906E+09-1.51663E-02 2.36808E-03
 -1       556-3.89279E+09-2.77826E+09-5.36807E+09-1.81303E+09-1.92232E-02 1.61019E-02
 -1       557-5.91237E+09-3.98926E+09-7.38515E+09-8.65232E+08-1.70727E-02 2.28340E-02
 -1       558-6.48757E+09-4.31332E+09-7.89016E+09 3.68281E+07-2.37083E-03 2.29730E-02
 -1       559-5.61466E+09-3.71993E+09-6.78510E+09 8.59291E+08-6.50883E-03 2.24274E-02
 -1       560-3.52217E+09-2.34785E+09-4.30398E+09 1.46140E+09-2.06990E-02 1.13568E-02
 -1       561-6.78539E+08-4.95780E+08-9.74062E+08 1.73324E+09-2.17639E-02 4.40820E-03
 -1       562 2.29761E+09 1.43841E+09 2.49709E+09 1.62312E+09-2.19798E-02-9.25139E-04
 -1       563 4.76325E+09 3.04045E+09 5.37159E+09 1.15759E+09-1.15728E-02-1.46577E-02
 -1       564 6.18727E+09 3.96803E+09 7.03949E+09 4.38941E+08-5.90324E-03-2.94021E-02
 -1       565 6.26440E+09 4.02441E+09 7.15030E+09-3.76286E+08 1.59073E-03-3.01633E-02
 -1       566 4.98066E+09 3.20072E+09 5.68841E+09-1.11105E+09 7.21741E-03-2.39491E-02
 -1       567 2.61592E+09 1.67761E+09 2.97610E+09-1.60592E+09 8.68464E-03-1.84159E-02
 -1       568-3.16902E+08-2.13994E+08-3.96411E+08-1.75341E+09 7.39929E-03-2.27690E-02
 -1       569-3.18297E+09-2.06457E+09-3.69893E+09-1.52122E+09 1.72634E-02-4.16012E-02
 -1       570-5.36298E+09-3.47471E+09-6.21938E+09-9.59222E+08 2.95901E-02-5.22929E-02
 -1       571-6.38721E+09-4.14158E+09-7.41806E+09-1.88687E+08 3.66898E-02-4.94482E-02
 -1       572-6.03727E+09-3.92453E+09-7.04451E+09 6.23890E+08 4.44307E-02-4.18677E-02
 -1       573-4.39336E+09-2.87550E+09-5.19164E+09 1.30276E+09 3.57828E-02-3.33132E-02
 -1       574-1.81684E+09-1.22766E+09-2.27535E+09 1.70086E+09 2.93670E-02-2.98979E-02
 -1       575 1.12832E+09 6.55382E+08 1.05629E+09 1.73175E+09 2.94502E-02-2.62360E-02
 -1       576 3.79894E+09 2.35928E+09 4.06531E+09 1.38935E+09 2.27566E-02-2.01163E-02
 -1       577 5.61623E+09 3.51121E+09 6.08780E+09 7.53539E+08-1.07670E-03-1.08048E-02
 -1       578 6.20152E+09 3.86584E+09 6.68462E+09-1.81497E+07-1.00203E-02 6.93584E-03
 -1       579 5.47669E+09 3.36592E+09 5.74305E+09-7.11641E+08 1.12104E-03 2.79942E-02
 -1       580 3.71008E+09 2.16255E+09 3.49843E+09-1.07625E+09 1.27687E-02 4.42701E-02
 -1       581 1.43832E+09 5.59590E+08 4.26978E+08-9.74072E+08 1.03458E-02 5.64103E-02
 -1       582-7.85094E+08-1.13989E+09-3.01455E+09-5.04371E+08-1.84822E-03 4.37622E-02
 -1       583 2.68747E+09 1.02133E+09 7.16951E+08-3.92432E+09 1.91096E+08-7.11700E+08
 -1       584-6.06801E+08-7.44534E+08-1.87498E+09-3.13241E+09 1.00254E+09-1.09146E+09
 -1       585-3.22262E+09-2.24122E+09-4.24812E+09-2.22722E+09 2.06714E+09-9.46518E+08
 -1       586-4.89446E+09-3.21746E+09-5.83041E+09-1.15772E+09 2.77360E+09-4.71767E+08
 -1       587-5.39342E+09-3.49002E+09-6.23998E+09 4.98774E+07 2.92857E+09 1.50564E+08
 -1       588-4.67471E+09-3.01438E+09-5.37322E+09 1.15541E+09 2.50148E+09 7.58597E+08
 -1       589-2.93459E+09-1.90469E+09-3.41437E+09 1.97472E+09 1.58132E+09 1.21409E+09
 -1       590-5.63181E+08-4.02851E+08-7.79657E+08 2.34696E+09 3.59983E+08 1.41612E+09
 -1       591 1.92128E+09 1.16717E+09 1.96930E+09 2.20052E+09-9.07531E+08 1.32005E+09
 -1       592 3.98038E+09 2.46816E+09 4.24681E+09 1.57177E+09-1.95517E+09 9.45716E+08
 -1       593 5.16970E+09 3.22163E+09 5.56907E+09 5.99514E+08-2.56248E+09 3.73072E+08
 -1       594 5.23382E+09 3.26759E+09 5.65814E+09-5.04297E+08-2.60263E+09-2.75122E+08
 -1       595 4.16083E+09 2.59868E+09 4.50145E+09-1.49994E+09-2.07025E+09-8.59886E+08
 -1       596 2.18449E+09 1.36159E+09 2.35414E+09-2.17150E+09-1.08277E+09-1.25609E+09
 -1       597-2.66661E+08-1.74941E+08-3.16476E+08-2.37339E+09 1.44913E+08-1.37949E+09
 -1       598-2.66210E+09-1.67828E+09-2.93218E+09-2.06173E+09 1.34695E+09-1.20498E+09
 -1       599-4.48422E+09-2.82401E+09-4.92913E+09-1.30378E+09 2.26411E+09-7.71973E+08
 -1       600-5.34040E+09-3.36611E+09-5.87995E+09-2.63314E+08 2.69992E+09-1.75860E+08
 -1       601-5.04794E+09-3.19025E+09-5.58623E+09 8.34830E+08 2.56325E+09 4.52668E+08
 -1       602-3.67354E+09-2.33847E+09-4.12136E+09 1.75354E+09 1.88820E+09 9.76021E+08
 -1       603-1.51869E+09-9.99861E+08-1.81418E+09 2.29490E+09 8.26899E+08 1.27970E+09
 -1       604 9.46187E+08 5.30788E+08 8.23106E+08 2.34344E+09-3.83405E+08 1.29741E+09
 -1       605 3.18488E+09 1.91771E+09 3.20750E+09 1.89225E+09-1.47228E+09 1.02600E+09
 -1       606 4.71470E+09 2.85870E+09 4.81430E+09 1.04734E+09-2.19695E+09 5.26493E+08
 -1       607 5.21823E+09 3.15392E+09 5.29483E+09 1.12280E+07-2.39808E+09-9.00550E+07
 -1       608 4.62666E+09 2.75520E+09 4.55733E+09-9.48906E+08-2.03427E+09-6.91515E+08
 -1       609 3.14368E+09 1.77723E+09 2.78041E+09-1.57190E+09-1.17377E+09-1.16721E+09
 -1       610 1.22241E+09 4.76386E+08 3.65549E+08-1.60999E+09 7.69802E+07-1.47560E+09
 -1       611-5.65690E+08-8.35576E+08-2.21956E+09-1.01194E+09 1.77238E+09-1.66035E+09
 -1       612-2.68747E+09-1.02133E+09-7.16951E+08-3.92432E+09 1.91096E+08 7.11700E+08
 -1       613 6.06801E+08 7.44534E+08 1.87498E+09-3.13241E+09 1.00254E+09 1.09146E+09
 -1       614 3.22262E+09 2.24122E+09 4.24812E+09-2.22722E+09 2.06714E+09 9.46518E+08
 -1       615 4.89446E+09 3.21746E+09 5.83041E+09-1.15772E+09 2.77360E+09 4.71767E+08
 -1       616 5.39342E+09 3.49002E+09 6.23998E+09 4.98774E+07 2.92857E+09-1.50564E+08
 -1       617 4.67471E+09 3.01438E+09 5.37322E+09 1.15541E+09 2.50148E+09-7.58597E+08
 -1       618 2.93459E+09 1.90469E+09 3.41437E+09 1.97472E+09 1.58132E+09-1.21409E+09
 -1       619 5.63181E+08 4.02851E+08 7.79657E+08 2.34696E+09 3.59983E+08-1.41612E+09
 -1       620-1.92128E+09-1.16717E+09-1.96930E+09 2.20052E+09-9.07531E+08-1.32005E+09
 -1       621-3.98038E+09-2.46816E+09-4.24681E+09 1.57177E+09-1.95517E+09-9.45716E+08
 -1       622-5.16970E+09-3.22163E+09-5.56907E+09 5.99514E+08-2.56248E+09-3.73072E+08
 -1       623-5.23382E+09-3.26759E+09-5.65814E+09-5.04297E+08-2.60263E+09 2.75122E+08
 -1       624-4.16083E+09-2.59868E+09-4.50145E+09-1.49994E+09-2.07025E+09 8.59886E+08
 -1       625-2.18449E+09-1.36159E+09-2.35414E+09-2.17150E+09-1.08277E+09 1.25609E+09
 -1       626 2.66661E+08 1.74941E+08 3.16476E+08-2.37339E+09 1.44913E+08 1.37949E+09
 -1       627 2.66210E+09 1.67828E+09 2.93218E+09-2.06173E+09 1.34695E+09 1.20498E+09
 -1       628 4.48422E+09 2.82401E+09 4.92913E+09-1.30378E+09 2.26411E+09 7.71973E+08
 -1       629 5.34040E+09 3.36611E+09 5.87995E+09-2.63314E+08 2.69992E+09 1.75860E+08
 -1       630 5.04794E+09 3.19025E+09 5.58623E+09 8.34830E+08 2.56325E+09-4.52668E+08
 -1       631 3.67354E+09 2.33847E+09 4.12136E+09 1.75354E+09 1.88820E+09-9.76021E+08
 -1       632 1.51869E+09 9.99861E+08 1.81418E+09 2.29490E+09 8.26899E+08-1.27970E+09
 -1       633-9.46187E+08-5.30788E+08-8.23106E+08 2.34344E+09-3.83405E+08-1.29741E+09
 -1       634-3.18488E+09-1.91771E+09-3.20750E+09 1.89225E+09-1.47228E+09-1.02600E+09
 -1       635-4.71470E+09-2.85870E+09-4.81430E+09 1.04734E+09-2.19695E+09-5.26493E+08
 -1       636-5.21823E+09-3.15392E+09-5.29483E+09 1.12280E+07-2.39808E+09 9.00550E+07
 -1       637-4.62666E+09-2.75520E+09-4.55733E+09-9.48906E+08-2.03427E+09 6.91515E+08
 -1       638-3.14368E+09-1.77723E+09-2.78041E+09-1.57190E+09-1.17377E+09 1.16721E+09
 -1       639-1.22241E+09-4.76386E+08-3.65549E+08-1.60999E+09 7.69802E+07 1.47560E+09
 -1       640 5.65690E+08 8.35576E+08 2.21956E+09-1.01194E+09 1.77238E+09 1.66035E+09
 -1       641-3.05936E+09-1.16032E+09-8.08379E+08-3.01511E+09-6.91175E-03-1.39029E-03
 -1       642 6.59764E+08 8.87831E+08 2.29967E+09-2.70906E+09-1.51050E-02 2.26799E-03
 -1       643 3.89279E+09 2.77826E+09 5.36807E+09-1.81303E+09-1.92590E-02 1.90026E-02
 -1       644 5.91237E+09 3.98926E+09 7.38515E+09-8.65232E+08-1.70918E-02 2.99806E-02
 -1       645 6.48757E+09 4.31332E+09 7.89016E+09 3.68281E+07-2.39277E-03 2.77781E-02
 -1       646 5.61466E+09 3.71993E+09 6.78510E+09 8.59291E+08-6.53553E-03 1.94717E-02
 -1       647 3.52217E+09 2.34785E+09 4.30398E+09 1.46140E+09-2.06609E-02 1.02852E-02
 -1       648 6.78539E+08 4.95780E+08 9.74062E+08 1.73324E+09-2.16886E-02 6.63848E-03
 -1       649-2.29761E+09-1.43841E+09-2.49709E+09 1.62312E+09-2.18706E-02 1.57447E-03
 -1       650-4.76325E+09-3.04045E+09-5.37159E+09 1.15759E+09-1.14326E-02-1.32775E-02
 -1       651-6.18727E+09-3.96803E+09-7.03949E+09 4.38941E+08-5.72968E-03-3.00035E-02
 -1       652-6.26440E+09-4.02441E+09-7.15030E+09-3.76286E+08 1.69754E-03-3.18627E-02
 -1       653-4.98066E+09-3.20072E+09-5.68841E+09-1.11105E+09 7.25698E-03-2.71545E-02
 -1       654-2.61592E+09-1.67761E+09-2.97610E+09-1.60592E+09 8.64792E-03-2.24040E-02
 -1       655 3.16902E+08 2.13994E+08 3.96411E+08-1.75341E+09 7.58630E-03-2.17689E-02
 -1       656 3.18297E+09 2.06457E+09 3.69893E+09-1.52122E+09 1.76392E-02-3.45201E-02
 -1       657 5.36298E+09 3.47471E+09 6.21938E+09-9.59222E+08 2.95076E-02-4.50967E-02
 -1       658 6.38721E+09 4.14158E+09 7.41806E+09-1.88687E+08 3.66936E-02-4.34940E-02
 -1       659 6.03727E+09 3.92453E+09 7.04451E+09 6.23890E+08 4.48256E-02-4.06056E-02
 -1       660 4.39336E+09 2.87550E+09 5.19164E+09 1.30276E+09 3.62105E-02-3.67115E-02
 -1       661 1.81684E+09 1.22766E+09 2.27535E+09 1.70086E+09 2.96428E-02-3.03026E-02
 -1       662-1.12832E+09-6.55382E+08-1.05629E+09 1.73175E+09 2.98103E-02-2.73120E-02
 -1       663-3.79894E+09-2.35928E+09-4.06531E+09 1.38935E+09 2.32673E-02-3.23260E-02
 -1       664-5.61623E+09-3.51121E+09-6.08780E+09 7.53539E+08-9.95636E-04-2.62624E-02
 -1       665-6.20152E+09-3.86584E+09-6.68462E+09-1.81497E+07-9.79137E-03 1.36680E-03
 -1       666-5.47669E+09-3.36592E+09-5.74305E+09-7.11641E+08 1.50681E-03 2.94516E-02
 -1       667-3.71008E+09-2.16255E+09-3.49843E+09-1.07625E+09 1.31223E-02 4.23676E-02
 -1       668-1.43832E+09-5.59590E+08-4.26978E+08-9.74072E+08 1.03204E-02 4.81778E-02
 -1       669 7.85094E+08 1.13989E+09 3.01455E+09-5.04371E+08-1.85823E-03 3.29702E-02
 -1       670-2.68747E+09-1.02133E+09-7.16951E+08-3.92432E+09-1.91096E+08-7.11700E+08
 -1       671 6.06801E+08 7.44534E+08 1.87498E+09-3.13241E+09-1.00254E+09-1.09146E+09
 -1       672 3.22262E+09 2.24122E+09 4.24812E+09-2.22722E+09-2.06714E+09-9.46518E+08
 -1       673 4.89446E+09 3.21746E+09 5.83041E+09-1.15772E+09-2.77360E+09-4.71767E+08
 -1       674 5.39342E+09 3.49002E+09 6.23998E+09 4.98774E+07-2.92857E+09 1.50564E+08
 -1       675 4.67471E+09 3.01438E+09 5.37322E+09 1.15541E+09-2.50148E+09 7.58597E+08
 -1       676 2.93459E+09 1.90469E+09 3.41437E+09 1.97472E+09-1.58132E+09 1.21409E+09
 -1       677 5.63181E+08 4.02851E+08 7.79657E+08 2.34696E+09-3.59983E+08 1.41612E+09
 -1       678-1.92128E+09-1.16717E+09-1.96930E+09 2.20052E+09 9.07531E+08 1.32005E+09
 -1       679-3.98038E+09-2.46816E+09-4.24681E+09 1.57177E+09 1.95517E+09 9.45716E+08
 -1       680-5.16970E+09-3.22163E+09-5.56907E+09 5.99514E+08 2.56248E+09 3.73072E+08
 -1       681-5.23382E+09-3.26759E+09-5.65814E+09-5.04297E+08 2.60263E+09-2.75122E+08
 -1       682-4.16083E+09-2.59868E+09-4.50145E+09-1.49994E+09 2.07025E+09-8.59886E+08
 -1       683-2.18449E+09-1.36159E+09-2.35414E+09-2.17150E+09 1.08277E+09-1.25609E+09
 -1       684 2.66661E+08 1.74941E+08 3.16476E+08-2.37339E+09-1.44913E+08-1.37949E+09
 -1       685 2.66210E+09 1.67828E+09 2.93218E+09-2.06173E+09-1.34695E+09-1.20498E+09
 -1       686 4.48422E+09 2.82401E+09 4.92913E+09-1.30378E+09-2.26411E+09-7.71973E+08
 -1       687 5.34040E+09 3.36611E+09 5.87995E+09-2.63314E+08-2.69992E+09-1.75860E+08
 -1       688 5.04794E+09 3.19025E+09 5.58623E+09 8.34830E+08-2.56325E+09 4.52668E+08
 -1       689 3.67354E+09 2.33847E+09 4.12136E+09 1.75354E+09-1.88820E+09 9.76021E+08
 -1       690 1.51869E+09 9.99861E+08 1.81418E+09 2.29490E+09-8.26899E+08 1.27970E+09
 -1       691-9.46187E+08-5.30788E+08-8.23106E+08 2.34344E+09 3.83405E+08 1.29741E+09
 -1       692-3.18488E+09-1.91771E+09-3.20750E+09 1.89225E+09 1.47228E+09 1.02600E+09
 -1       693-4.71470E+09-2.85870E+09-4.81430E+09 1.04734E+09 2.19695E+09 5.26493E+08
 -1       694-5.21823E+09-3.15392E+09-5.29483E+09 1.12280E+07 2.39808E+09-9.00550E+07
 -1       695-4.62666E+09-2.75520E+09-4.55733E+09-9.48906E+08 2.03427E+09-6.91515E+08
 -1       696-3.14368E+09-1.77723E+09-2.78041E+09-1.57190E+09 1.17377E+09-1.16721E+09
 -1       697-1.22241E+09-4.76386E+08-3.65549E+08-1.60999E+09-7.69802E+07-1.47560E+09
 -1       698 5.65690E+08 8.35576E+08 2.21956E+09-1.01194E+09-1.77238E+09-1.66035E+09
 -1       699 8.90889E+09-1.27855E+09-1.55265E+09 1.84082E+09-1.26153E+07-1.40391E+09
 -1       700 2.77140E+09 1.17415E+09 1.01774E+09 5.89418E+08 1.40239E+08-1.29694E+09
 -1       701-5.43473E+09 1.04535E+09 5.95934E+08 1.52453E+08 2.61076E+08-9.93575E+08
 -1       702-1.04682E+10 1.14251E+09 5.85615E+08 1.81480E+08 3.48080E+08-5.18571E+08
 -1       703-1.23470E+10 1.15142E+09 5.60866E+08 4.91240E+08 3.77586E+08 3.50846E+07
 -1       704-1.09402E+10 9.87521E+08 4.77013E+08 8.73296E+08 3.31476E+08 5.57961E+08
 -1       705-6.76691E+09 6.59270E+08 3.29971E+08 1.17714E+09 2.16563E+08 9.42980E+08
 -1       706-8.73110E+08 2.22220E+08 1.36150E+08 1.29592E+09 5.65030E+07 1.11533E+09
 -1       707 5.37703E+09-2.34792E+08-6.65907E+07 1.18435E+09-1.12996E+08 1.04331E+09
 -1       708 1.05744E+10-6.16131E+08-2.36922E+08 8.55410E+08-2.54702E+08 7.45456E+08
 -1       709 1.35578E+10-8.42745E+08-3.40244E+08 3.72419E+08-3.37821E+08 2.87357E+08
 -1       710 1.36573E+10-8.69211E+08-3.56664E+08-1.66990E+08-3.44650E+08-2.31693E+08
 -1       711 1.08357E+10-6.93051E+08-2.84862E+08-6.52683E+08-2.74121E+08-6.99596E+08
 -1       712 5.69341E+09-3.54817E+08-1.42071E+08-9.86018E+08-1.41852E+08-1.01544E+09
 -1       713-6.62370E+08 7.09862E+07 3.99051E+07-1.10128E+09 2.33456E+07-1.11126E+09
 -1       714-6.85816E+09 4.92178E+08 2.21692E+08-9.80062E+08 1.85755E+08-9.66688E+08
 -1       715-1.15515E+10 8.18942E+08 3.64934E+08-6.55410E+08 3.10512E+08-6.13446E+08
 -1       716-1.37208E+10 9.83257E+08 4.40584E+08-2.04828E+08 3.71138E+08-1.28461E+08
 -1       717-1.28861E+10 9.53495E+08 4.35062E+08 2.66505E+08 3.55217E+08 3.82760E+08
 -1       718-9.21054E+09 7.40898E+08 3.52888E+08 6.48702E+08 2.66944E+08 8.09055E+08
 -1       719-3.46332E+09 3.96513E+08 2.15201E+08 8.51300E+08 1.25995E+08 1.05792E+09
 -1       720 3.15148E+09-6.59686E+05 5.45798E+07 8.22977E+08-3.70564E+07 1.07605E+09
 -1       721 9.26211E+09-3.60997E+08-9.19758E+07 5.61905E+08-1.87458E+08 8.61562E+08
 -1       722 1.36365E+10-6.02602E+08-1.90173E+08 1.13547E+08-2.94015E+08 4.64527E+08
 -1       723 1.54641E+10-6.65840E+08-2.11853E+08-4.43892E+08-3.33709E+08-2.35741E+07
 -1       724 1.45489E+10-5.22138E+08-1.42195E+08-1.02249E+09-3.02191E+08-4.90030E+08
 -1       725 1.13807E+10-1.94966E+08 2.31973E+07-1.55258E+09-1.98478E+08-8.29099E+08
 -1       726 7.08916E+09 2.13855E+08 2.01753E+08-2.04557E+09-1.07194E+08-8.87198E+08
 -1       727 3.27856E+09 6.75618E+08 4.24328E+08-2.59192E+09 6.27511E+07-5.59339E+08
 -1       728 6.25781E+09-2.70447E+09-2.77575E+09 6.18243E+09 4.81314E+08-1.40822E+09
 -1       729 2.16669E+09 2.51193E+08 5.59437E+08 6.35727E+09 8.30627E+07-1.14754E+09
 -1       730-4.50983E+09 5.12333E+08 7.13499E+08 5.14410E+09-3.65554E+07-9.01428E+08
 -1       731-8.56451E+09 8.26612E+08 1.06195E+09 2.70302E+09-1.61751E+08-4.66470E+08
 -1       732-1.01135E+10 9.18579E+08 1.16105E+09-3.39095E+08-1.98207E+08 3.71485E+07
 -1       733-8.98465E+09 7.86478E+08 1.00336E+09-3.30464E+09-1.75653E+08 5.12338E+08
 -1       734-5.57460E+09 4.77516E+08 6.33137E+08-5.53193E+09-1.01709E+08 8.61682E+08
 -1       735-7.29997E+08 6.50683E+07 1.31938E+08-6.54469E+09 1.70680E+06 1.01741E+09
 -1       736 4.42384E+09-3.62754E+08-3.90934E+08-6.13293E+09 1.10866E+08 9.50991E+08
 -1       737 8.71795E+09-7.14545E+08-8.23391E+08-4.39473E+09 2.00957E+08 6.79369E+08
 -1       738 1.11864E+10-9.15187E+08-1.07338E+09-1.71161E+09 2.51645E+08 2.62208E+08
 -1       739 1.12708E+10-9.21607E+08-1.08834E+09 1.33387E+09 2.51155E+08-2.10220E+08
 -1       740 8.93711E+09-7.32371E+08-8.66233E+08 4.08334E+09 1.98927E+08-6.36003E+08
 -1       741 4.68059E+09-3.88277E+08-4.55956E+08 5.94422E+09 1.05776E+08-9.23408E+08
 -1       742-5.83199E+08 3.62912E+07 5.32478E+07 6.51719E+09-8.40657E+06-1.01065E+09
 -1       743-5.71746E+09 4.49361E+08 5.51058E+08 5.68219E+09-1.18946E+08-8.79263E+08
 -1       744-9.61031E+09 7.61239E+08 9.29967E+08 3.62398E+09-2.01705E+08-5.58137E+08
 -1       745-1.14148E+10 9.03954E+08 1.10859E+09 7.91788E+08-2.38305E+08-1.17294E+08
 -1       746-1.07310E+10 8.46100E+08 1.04935E+09-2.19860E+09-2.20112E+08 3.47242E+08
 -1       747-7.69017E+09 5.99896E+08 7.66699E+08-4.69907E+09-1.50151E+08 7.34294E+08
 -1       748-2.92302E+09 2.18931E+08 3.24014E+08-6.17089E+09-4.25212E+07 9.59670E+08
 -1       749 2.58085E+09-2.13084E+08-1.80334E+08-6.30295E+09 8.05500E+07 9.74861E+08
 -1       750 7.69288E+09-6.00601E+08-6.34627E+08-5.08036E+09 1.93696E+08 7.78232E+08
 -1       751 1.13970E+10-8.57759E+08-9.38589E+08-2.78753E+09 2.73944E+08 4.15483E+08
 -1       752 1.30191E+10-9.29835E+08-1.02456E+09 5.49162E+07 3.08049E+08-3.00615E+07
 -1       753 1.23857E+10-8.06202E+08-8.76384E+08 2.80475E+09 2.90223E+08-4.55790E+08
 -1       754 9.91076E+09-4.96408E+08-5.08205E+08 4.82953E+09 2.41504E+08-7.67800E+08
 -1       755 6.46230E+09-9.86816E+07-8.00637E+07 5.65933E+09 1.26063E+08-8.20460E+08
 -1       756 3.17846E+09 4.12399E+08 3.15333E+08 5.12005E+09 1.15350E+08-5.15088E+08
 -1       757 6.25781E+09-2.70447E+09-2.77575E+09 6.18243E+09-4.81314E+08 1.40822E+09
 -1       758 2.16669E+09 2.51193E+08 5.59437E+08 6.35727E+09-8.30627E+07 1.14754E+09
 -1       759-4.50983E+09 5.12333E+08 7.13499E+08 5.14410E+09 3.65554E+07 9.01428E+08
 -1       760-8.56451E+09 8.26612E+08 1.06195E+09 2.70302E+09 1.61751E+08 4.66470E+08
 -1       761-1.01135E+10 9.18579E+08 1.16105E+09-3.39095E+08 1.98207E+08-3.71485E+07
 -1       762-8.98465E+09 7.86478E+08 1.00336E+09-3.30464E+09 1.75653E+08-5.12338E+08
 -1       763-5.57460E+09 4.77516E+08 6.33137E+08-5.53193E+09 1.01709E+08-8.61682E+08
 -1       764-7.29997E+08 6.50683E+07 1.31938E+08-6.54469E+09-1.70680E+06-1.01741E+09
 -1       765 4.42384E+09-3.62754E+08-3.90934E+08-6.13293E+09-1.10866E+08-9.50991E+08
 -1       766 8.71795E+09-7.14545E+08-8.23391E+08-4.39473E+09-2.00957E+08-6.79369E+08
 -1       767 1.11864E+10-9.15187E+08-1.07338E+09-1.71161E+09-2.51645E+08-2.62208E+08
 -1       768 1.12708E+10-9.21607E+08-1.08834E+09 1.33387E+09-2.51155E+08 2.10220E+08
 -1       769 8.93711E+09-7.32371E+08-8.66233E+08 4.08334E+09-1.98927E+08 6.36003E+08
 -1       770 4.68059E+09-3.88277E+08-4.55956E+08 5.94422E+09-1.05776E+08 9.23408E+08
 -1       771-5.83199E+08 3.62912E+07 5.32478E+07 6.51719E+09 8.40657E+06 1.01065E+09
 -1       772-5.71746E+09 4.49361E+08 5.51058E+08 5.68219E+09 1.18946E+08 8.79263E+08
 -1       773-9.61031E+09 7.61239E+08 9.29967E+08 3.62398E+09 2.01705E+08 5.58137E+08
 -1       774-1.14148E+10 9.03954E+08 1.10859E+09 7.91788E+08 2.38305E+08 1.17294E+08
 -1       775-1.07310E+10 8.46100E+08 1.04935E+09-2.19860E+09 2.20112E+08-3.47242E+08
 -1       776-7.69017E+09 5.99896E+08 7.66699E+08-4.69907E+09 1.50151E+08-7.34294E+08
 -1       777-2.92302E+09 2.18931E+08 3.24014E+08-6.17089E+09 4.25212E+07-9.59670E+08
 -1       778 2.58085E+09-2.13084E+08-1.80334E+08-6.30295E+09-8.05500E+07-9.74861E+08
 -1       779 7.69288E+09-6.00601E+08-6.34627E+08-5.08036E+09-1.93696E+08-7.78232E+08
 -1       780 1.13970E+10-8.57759E+08-9.38589E+08-2.78753E+09-2.73944E+08-4.15483E+08
 -1       781 1.30191E+10-9.29835E+08-1.02456E+09 5.49162E+07-3.08049E+08 3.00615E+07
 -1       782 1.23857E+10-8.06202E+08-8.76384E+08 2.80475E+09-2.90223E+08 4.55790E+08
 -1       783 9.91076E+09-4.96408E+08-5.08205E+08 4.82953E+09-2.41504E+08 7.67800E+08
 -1       784 6.46230E+09-9.86816E+07-8.00637E+07 5.65933E+09-1.26063E+08 8.20460E+08
 -1       785 3.17846E+09 4.12399E+08 3.15333E+08 5.12005E+09-1.15350E+08 5.15088E+08
 -1       786 8.90889E+09-1.27855E+09-1.55265E+09 1.84082E+09 1.26153E+07 1.40391E+09
 -1       787 2.77140E+09 1.17415E+09 1.01774E+09 5.89418E+08-1.40239E+08 1.29694E+09
 -1       788-5.43473E+09 1.04535E+09 5.95934E+08 1.52453E+08-2.61076E+08 9.93575E+08
 -1       789-1.04682E+10 1.14251E+09 5.85615E+08 1.81480E+08-3.48080E+08 5.18571E+08
 -1       790-1.23470E+10 1.15142E+09 5.60866E+08 4.91240E+08-3.77586E+08-3.50846E+07
 -1       791-1.09402E+10 9.87521E+08 4.77013E+08 8.73296E+08-3.31476E+08-5.57961E+08
 -1       792-6.76691E+09 6.59270E+08 3.29971E+08 1.17714E+09-2.16563E+08-9.42980E+08
 -1       793-8.73110E+08 2.22220E+08 1.36150E+08 1.29592E+09-5.65030E+07-1.11533E+09
 -1       794 5.37703E+09-2.34792E+08-6.65907E+07 1.18435E+09 1.12996E+08-1.04331E+09
 -1       795 1.05744E+10-6.16131E+08-2.36922E+08 8.55410E+08 2.54702E+08-7.45456E+08
 -1       796 1.35578E+10-8.42745E+08-3.40244E+08 3.72419E+08 3.37821E+08-2.87357E+08
 -1       797 1.36573E+10-8.69211E+08-3.56664E+08-1.66990E+08 3.44650E+08 2.31693E+08
 -1       798 1.08357E+10-6.93051E+08-2.84862E+08-6.52683E+08 2.74121E+08 6.99596E+08
 -1       799 5.69341E+09-3.54817E+08-1.42071E+08-9.86018E+08 1.41852E+08 1.01544E+09
 -1       800-6.62370E+08 7.09862E+07 3.99051E+07-1.10128E+09-2.33456E+07 1.11126E+09
 -1       801-6.85816E+09 4.92178E+08 2.21692E+08-9.80062E+08-1.85755E+08 9.66688E+08
 -1       802-1.15515E+10 8.18942E+08 3.64934E+08-6.55410E+08-3.10512E+08 6.13446E+08
 -1       803-1.37208E+10 9.83257E+08 4.40584E+08-2.04828E+08-3.71138E+08 1.28461E+08
 -1       804-1.28861E+10 9.53495E+08 4.35062E+08 2.66505E+08-3.55217E+08-3.82760E+08
 -1       805-9.21054E+09 7.40898E+08 3.52888E+08 6.48702E+08-2.66944E+08-8.09055E+08
 -1       806-3.46332E+09 3.96513E+08 2.15201E+08 8.51300E+08-1.25995E+08-1.05792E+09
 -1       807 3.15148E+09-6.59686E+05 5.45798E+07 8.22977E+08 3.70564E+07-1.07605E+09
 -1       808 9.26211E+09-3.60997E+08-9.19758E+07 5.61905E+08 1.87458E+08-8.61562E+08
 -1       809 1.36365E+10-6.02602E+08-1.90173E+08 1.13547E+08 2.94015E+08-4.64527E+08
 -1       810 1.54641E+10-6.65840E+08-2.11853E+08-4.43892E+08 3.33709E+08 2.35741E+07
 -1       811 1.45489E+10-5.22138E+08-1.42195E+08-1.02249E+09 3.02191E+08 4.90030E+08
 -1       812 1.13807E+10-1.94966E+08 2.31973E+07-1.55258E+09 1.98478E+08 8.29099E+08
 -1       813 7.08916E+09 2.13855E+08 2.01753E+08-2.04557E+09 1.07194E+08 8.87198E+08
 -1       814 3.27856E+09 6.75618E+08 4.24328E+08-2.59192E+09-6.27511E+07 5.59339E+08
 -1       815-8.90889E+09 1.27855E+09 1.55265E+09 1.84082E+09-1.26153E+07 1.40391E+09
 -1       816-2.77140E+09-1.17415E+09-1.01774E+09 5.89418E+08 1.40239E+08 1.29694E+09
 -1       817 5.43473E+09-1.04535E+09-5.95934E+08 1.52453E+08 2.61076E+08 9.93575E+08
 -1       818 1.04682E+10-1.14251E+09-5.85615E+08 1.81480E+08 3.48080E+08 5.18571E+08
 -1       819 1.23470E+10-1.15142E+09-5.60866E+08 4.91240E+08 3.77586E+08-3.50846E+07
 -1       820 1.09402E+10-9.87521E+08-4.77013E+08 8.73296E+08 3.31476E+08-5.57961E+08
 -1       821 6.76691E+09-6.59270E+08-3.29971E+08 1.17714E+09 2.16563E+08-9.42980E+08
 -1       822 8.73110E+08-2.22220E+08-1.36150E+08 1.29592E+09 5.65030E+07-1.11533E+09
 -1       823-5.37703E+09 2.34792E+08 6.65907E+07 1.18435E+09-1.12996E+08-1.04331E+09
 -1       824-1.05744E+10 6.16131E+08 2.36922E+08 8.55410E+08-2.54702E+08-7.45456E+08
 -1       825-1.35578E+10 8.42745E+08 3.40244E+08 3.72419E+08-3.37821E+08-2.87357E+08
 -1       826-1.36573E+10 8.69211E+08 3.56664E+08-1.66990E+08-3.44650E+08 2.31693E+08
 -1       827-1.08357E+10 6.93051E+08 2.84862E+08-6.52683E+08-2.74121E+08 6.99596E+08
 -1       828-5.69341E+09 3.54817E+08 1.42071E+08-9.86018E+08-1.41852E+08 1.01544E+09
 -1       829 6.62370E+08-7.09862E+07-3.99051E+07-1.10128E+09 2.33456E+07 1.11126E+09
 -1       830 6.85816E+09-4.92178E+08-2.21692E+08-9.80062E+08 1.85755E+08 9.66688E+08
 -1       831 1.15515E+10-8.18942E+08-3.64934E+08-6.55410E+08 3.10512E+08 6.13446E+08
 -1       832 1.37208E+10-9.83257E+08-4.40584E+08-2.04828E+08 3.71138E+08 1.28461E+08
 -1       833 1.28861E+10-9.53495E+08-4.35062E+08 2.66505E+08 3.55217E+08-3.82760E+08
 -1       834 9.21054E+09-7.40898E+08-3.52888E+08 6.48702E+08 2.66944E+08-8.09055E+08
 -1       835 3.46332E+09-3.96513E+08-2.15201E+08 8.51300E+08 1.25995E+08-1.05792E+09
 -1       836-3.15148E+09 6.59686E+05-5.45798E+07 8.22977E+08-3.70564E+07-1.07605E+09
 -1       837-9.26211E+09 3.60997E+08 9.19758E+07 5.61905E+08-1.87458E+08-8.61562E+08
 -1       838-1.36365E+10 6.02602E+08 1.90173E+08 1.13547E+08-2.94015E+08-4.64527E+08
 -1       839-1.54641E+10 6.65840E+08 2.11853E+08-4.43892E+08-3.33709E+08 2.35741E+07
 -1       840-1.45489E+10 5.22138E+08 1.42195E+08-1.02249E+09-3.02191E+08 4.90030E+08
 -1       841-1.13807E+10 1.94966E+08-2.31973E+07-1.55258E+09-1.98478E+08 8.29099E+08
 -1       842-7.08916E+09-2.13855E+08-2.01753E+08-2.04557E+09-1.07194E+08 8.87198E+08
 -1       843-3.27856E+09-6.75618E+08-4.24328E+08-2.59192E+09 6.27511E+07 5.59339E+08
 -1       844-6.25781E+09 2.70447E+09 2.77575E+09 6.18243E+09 4.81314E+08 1.40822E+09
 -1       845-2.16669E+09-2.51193E+08-5.59437E+08 6.35727E+09 8.30627E+07 1.14754E+09
 -1       846 4.50983E+09-5.12333E+08-7.13499E+08 5.14410E+09-3.65554E+07 9.01428E+08
 -1       847 8.56451E+09-8.26612E+08-1.06195E+09 2.70302E+09-1.61751E+08 4.66470E+08
 -1       848 1.01135E+10-9.18579E+08-1.16105E+09-3.39095E+08-1.98207E+08-3.71485E+07
 -1       849 8.98465E+09-7.86478E+08-1.00336E+09-3.30464E+09-1.75653E+08-5.12338E+08
 -1       850 5.57460E+09-4.77516E+08-6.33137E+08-5.53193E+09-1.01709E+08-8.61682E+08
 -1       851 7.29997E+08-6.50683E+07-1.31938E+08-6.54469E+09 1.70680E+06-1.01741E+09
 -1       852-4.42384E+09 3.62754E+08 3.90934E+08-6.13293E+09 1.10866E+08-9.50991E+08
 -1       853-8.71795E+09 7.14545E+08 8.23391E+08-4.39473E+09 2.00957E+08-6.79369E+08
 -1       854-1.11864E+10 9.15187E+08 1.07338E+09-1.71161E+09 2.51645E+08-2.62208E+08
 -1       855-1.12708E+10 9.21607E+08 1.08834E+09 1.33387E+09 2.51155E+08 2.10220E+08
 -1       856-8.93711E+09 7.32371E+08 8.66233E+08 4.08334E+09 1.98927E+08 6.36003E+08
 -1       857-4.68059E+09 3.88277E+08 4.55956E+08 5.94422E+09 1.05776E+08 9.23408E+08
 -1       858 5.83199E+08-3.62912E+07-5.32478E+07 6.51719E+09-8.40657E+06 1.01065E+09
 -1       859 5.71746E+09-4.49361E+08-5.51058E+08 5.68219E+09-1.18946E+08 8.79263E+08
 -1       860 9.61031E+09-7.61239E+08-9.29967E+08 3.62398E+09-2.01705E+08 5.58137E+08
 -1       861 1.14148E+10-9.03954E+08-1.10859E+09 7.91788E+08-2.38305E+08 1.17294E+08
 -1       862 1.07310E+10-8.46100E+08-1.04935E+09-2.19860E+09-2.20112E+08-3.47242E+08
 -1       863 7.69017E+09-5.99896E+08-7.66699E+08-4.69907E+09-1.50151E+08-7.34294E+08
 -1       864 2.92302E+09-2.18931E+08-3.24014E+08-6.17089E+09-4.25212E+07-9.59670E+08
 -1       865-2.58085E+09 2.13084E+08 1.80334E+08-6.30295E+09 8.05500E+07-9.74861E+08
 -1       866-7.69288E+09 6.00601E+08 6.34627E+08-5.08036E+09 1.93696E+08-7.78232E+08
 -1       867-1.13970E+10 8.57759E+08 9.38589E+08-2.78753E+09 2.73944E+08-4.15483E+08
 -1       868-1.30191E+10 9.29835E+08 1.02456E+09 5.49162E+07 3.08049E+08 3.00615E+07
 -1       869-1.23857E+10 8.06202E+08 8.76384E+08 2.80475E+09 2.90223E+08 4.55790E+08
 -1       870-9.91076E+09 4.96408E+08 5.08205E+08 4.82953E+09 2.41504E+08 7.67800E+08
 -1       871-6.46230E+09 9.86816E+07 8.00637E+07 5.65933E+09 1.26063E+08 8.20460E+08
 -1       872-3.17846E+09-4.12399E+08-3.15333E+08 5.12005E+09 1.15350E+08 5.15088E+08
 -1       873-3.27856E+09-6.75618E+08-4.24328E+08-2.59192E+09-6.27511E+07-5.59339E+08
 -1       874-7.08916E+09-2.13855E+08-2.01753E+08-2.04557E+09 1.07194E+08-8.87198E+08
 -1       875-1.13807E+10 1.94966E+08-2.31973E+07-1.55258E+09 1.98478E+08-8.29099E+08
 -1       876-1.45489E+10 5.22138E+08 1.42195E+08-1.02249E+09 3.02191E+08-4.90030E+08
 -1       877-1.54641E+10 6.65840E+08 2.11853E+08-4.43892E+08 3.33709E+08-2.35741E+07
 -1       878-1.36365E+10 6.02602E+08 1.90173E+08 1.13547E+08 2.94015E+08 4.64527E+08
 -1       879-9.26211E+09 3.60997E+08 9.19758E+07 5.61905E+08 1.87458E+08 8.61562E+08
 -1       880-3.15148E+09 6.59686E+05-5.45798E+07 8.22977E+08 3.70564E+07 1.07605E+09
 -1       881 3.46332E+09-3.96513E+08-2.15201E+08 8.51300E+08-1.25995E+08 1.05792E+09
 -1       882 9.21054E+09-7.40898E+08-3.52888E+08 6.48702E+08-2.66944E+08 8.09055E+08
 -1       883 1.28861E+10-9.53495E+08-4.35062E+08 2.66505E+08-3.55217E+08 3.82760E+08
 -1       884 1.37208E+10-9.83257E+08-4.40584E+08-2.04828E+08-3.71138E+08-1.28461E+08
 -1       885 1.15515E+10-8.18942E+08-3.64934E+08-6.55410E+08-3.10512E+08-6.13446E+08
 -1       886 6.85816E+09-4.92178E+08-2.21692E+08-9.80062E+08-1.85755E+08-9.66688E+08
 -1       887 6.62370E+08-7.09862E+07-3.99051E+07-1.10128E+09-2.33456E+07-1.11126E+09
 -1       888-5.69341E+09 3.54817E+08 1.42071E+08-9.86018E+08 1.41852E+08-1.01544E+09
 -1       889-1.08357E+10 6.93051E+08 2.84862E+08-6.52683E+08 2.74121E+08-6.99596E+08
 -1       890-1.36573E+10 8.69211E+08 3.56664E+08-1.66990E+08 3.44650E+08-2.31693E+08
 -1       891-1.35578E+10 8.42745E+08 3.40244E+08 3.72419E+08 3.37821E+08 2.87357E+08
 -1       892-1.05744E+10 6.16131E+08 2.36922E+08 8.55410E+08 2.54702E+08 7.45456E+08
 -1       893-5.37703E+09 2.34792E+08 6.65907E+07 1.18435E+09 1.12996E+08 1.04331E+09
 -1       894 8.73110E+08-2.22220E+08-1.36150E+08 1.29592E+09-5.65030E+07 1.11533E+09
 -1       895 6.76691E+09-6.59270E+08-3.29971E+08 1.17714E+09-2.16563E+08 9.42980E+08
 -1       896 1.09402E+10-9.87521E+08-4.77013E+08 8.73296E+08-3.31476E+08 5.57961E+08
 -1       897 1.23470E+10-1.15142E+09-5.60866E+08 4.91240E+08-3.77586E+08 3.50846E+07
 -1       898 1.04682E+10-1.14251E+09-5.85615E+08 1.81480E+08-3.48080E+08-5.18571E+08
 -1       899 5.43473E+09-1.04535E+09-5.95934E+08 1.52453E+08-2.61076E+08-9.93575E+08
 -1       900-2.77140E+09-1.17415E+09-1.01774E+09 5.89418E+08-1.40239E+08-1.29694E+09
 -1       901-8.90889E+09 1.27855E+09 1.55265E+09 1.84082E+09 1.26153E+07-1.40391E+09
 -1       902-6.25781E+09 2.70447E+09 2.77575E+09 6.18243E+09-4.81314E+08-1.40822E+09
 -1       903-2.16669E+09-2.51193E+08-5.59437E+08 6.35727E+09-8.30627E+07-1.14754E+09
 -1       904 4.50983E+09-5.12333E+08-7.13499E+08 5.14410E+09 3.65554E+07-9.01428E+08
 -1       905 8.56451E+09-8.26612E+08-1.06195E+09 2.70302E+09 1.61751E+08-4.66470E+08
 -1       906 1.01135E+10-9.18579E+08-1.16105E+09-3.39095E+08 1.98207E+08 3.71485E+07
 -1       907 8.98465E+09-7.86478E+08-1.00336E+09-3.30464E+09 1.75653E+08 5.12338E+08
 -1       908 5.57460E+09-4.77516E+08-6.33137E+08-5.53193E+09 1.01709E+08 8.61682E+08
 -1       909 7.29997E+08-6.50683E+07-1.31938E+08-6.54469E+09-1.70680E+06 1.01741E+09
 -1       910-4.42384E+09 3.62754E+08 3.90934E+08-6.13293E+09-1.10866E+08 9.50991E+08
 -1       911-8.71795E+09 7.14545E+08 8.23391E+08-4.39473E+09-2.00957E+08 6.79369E+08
 -1       912-1.11864E+10 9.15187E+08 1.07338E+09-1.71161E+09-2.51645E+08 2.62208E+08
 -1       913-1.12708E+10 9.21607E+08 1.08834E+09 1.33387E+09-2.51155E+08-2.10220E+08
 -1       914-8.93711E+09 7.32371E+08 8.66233E+08 4.08334E+09-1.98927E+08-6.36003E+08
 -1       915-4.68059E+09 3.88277E+08 4.55956E+08 5.94422E+09-1.05776E+08-9.23408E+08
 -1       916 5.83199E+08-3.62912E+07-5.32478E+07 6.51719E+09 8.40657E+06-1.01065E+09
 -1       917 5.71746E+09-4.49361E+08-5.51058E+08 5.68219E+09 1.18946E+08-8.79263E+08
 -1       918 9.61031E+09-7.61239E+08-9.29967E+08 3.62398E+09 2.01705E+08-5.58137E+08
 -1       919 1.14148E+10-9.03954E+08-1.10859E+09 7.91788E+08 2.38305E+08-1.17294E+08
 -1       920 1.07310E+10-8.46100E+08-1.04935E+09-2.19860E+09 2.20112E+08 3.47242E+08
 -1       921 7.69017E+09-5.99896E+08-7.66699E+08-4.69907E+09 1.50151E+08 7.34294E+08
 -1       922 2.92302E+09-2.18931E+08-3.24014E+08-6.17089E+09 4.25212E+07 9.59670E+08
 -1       923-2.58085E+09 2.13084E+08 1.80334E+08-6.30295E+09-8.05500E+07 9.74861E+08
 -1       924-7.69288E+09 6.00601E+08 6.34627E+08-5.08036E+09-1.93696E+08 7.78232E+08
 -1       925-1.13970E+10 8.57759E+08 9.38589E+08-2.78753E+09-2.73944E+08 4.15483E+08
 -1       926-1.30191E+10 9.29835E+08 1.02456E+09 5.49162E+07-3.08049E+08-3.00615E+07
 -1       927-1.23857E+10 8.06202E+08 8.76384E+08 2.80475E+09-2.90223E+08-4.55790E+08
 -1       928-9.91076E+09 4.96408E+08 5.08205E+08 4.82953E+09-2.41504E+08-7.67800E+08
 -1       929-6.46230E+09 9.86816E+07 8.00637E+07 5.65933E+09-1.26063E+08-8.20460E+08
 -1       930-3.17846E+09-4.12399E+08-3.15333E+08 5.12005E+09-1.15350E+08-5.15088E+08
 -3
    1PSTEP                        51           1           1          
    1PGM                1.000000E+00                                  
    1PGK                1.866454E+07                                  
    1PHID                         -1                                  
    1PSUBC                         0                                  
    1PMODE                        13                                  
  100CL  113 687.5888427         930                     2   13MODAL      1
 -4  FORC        4    1
 -5  F1          1    2    1    0
 -5  F2          1    2    2    0
 -5  F3          1    2    3    0
 -5  ALL         1    2    0    0    1ALL
 -1         1-1.34913E+07-8.69273E+05 1.68243E+06
 -1         2 1.34913E+07-8.69273E+05-1.68243E+06
 -1         3 1.04818E+04 2.78359E+05 1.36312E+04
 -1         4-1.04818E+04 2.78359E+05-1.36312E+04
 -1         5-1.34913E+07-8.69273E+05-1.68243E+06
 -1         6 1.34913E+07-8.69273E+05 1.68243E+06
 -1         7 1.04818E+04 2.78359E+05-1.36312E+04
 -1         8-1.04818E+04 2.78359E+05 1.36312E+04
 -1         9-1.54756E+06-1.63286E+05-1.96309E+06
 -1        10 9.50268E+03 1.12061E+05 1.24856E+04
 -1        11-9.03407E+06-3.14219E+06-8.45576E+06
 -1        12-2.85972E+06-3.04881E+06 8.20624E+06
 -1        13 3.79994E+04 9.33794E+04 4.99591E+04
 -1        14 3.67736E+04 9.63171E+04 4.99462E+04
 -1        15-1.54756E+06-1.63286E+05 1.96309E+06
 -1        16 9.50268E+03 1.12061E+05-1.24856E+04
 -1        17-2.85972E+06-3.04881E+06-8.20624E+06
 -1        18-9.03407E+06-3.14219E+06 8.45576E+06
 -1        19 3.67736E+04 9.63171E+04-4.99462E+04
 -1        20 3.79994E+04 9.33794E+04-4.99591E+04
 -1        21 2.85972E+06-3.04881E+06-8.20624E+06
 -1        22 9.03407E+06-3.14219E+06 8.45576E+06
 -1        23-3.79994E+04 9.33794E+04-4.99591E+04
 -1        24-3.67736E+04 9.63171E+04-4.99462E+04
 -1        25 1.54756E+06-1.63286E+05 1.96309E+06
 -1        26-9.50268E+03 1.12061E+05-1.24856E+04
 -1        27 1.54756E+06-1.63286E+05-1.96309E+06
 -1        28 9.03407E+06-3.14219E+06-8.45576E+06
 -1        29 2.85972E+06-3.04881E+06 8.20624E+06
 -1        30-9.50268E+03 1.12061E+05 1.24856E+04
 -1        31-3.79994E+04 9.33794E+04 4.99591E+04
 -1        32-3.67736E+04 9.63171E+04 4.99462E+04
 -1        33-5.32536E+03 9.36228E+04-5.43568E+03
 -1        34-7.94843E+03 2.35569E+05-1.48493E+04
 -1        35-6.93204E+03 3.82892E+05-2.50953E+04
 -1        36-3.11522E+03 4.82399E+05-3.22434E+04
 -1        37 2.20314E+03 4.99653E+05-3.38281E+04
 -1        38 7.58793E+03 4.22821E+05-2.90311E+04
 -1        39 1.16805E+04 2.63452E+05-1.86490E+04
 -1        40 1.34687E+04 5.28164E+04-4.79363E+03
 -1        41 1.24833E+04-1.65568E+05 9.63176E+03
 -1        42 8.88400E+03-3.45770E+05 2.15878E+04
 -1        43 3.41550E+03-4.49647E+05 2.85627E+04
 -1        44-2.76056E+03-4.55265E+05 2.91140E+04
 -1        45-8.32130E+03-3.61748E+05 2.31768E+04
 -1        46-1.20719E+04-1.89529E+05 1.20746E+04
 -1        47-1.32061E+04 2.40235E+04-1.76875E+03
 -1        48-1.14824E+04 2.32678E+05-1.53556E+04
 -1        49-7.27740E+03 3.91332E+05-2.57636E+04
 -1        50-1.50578E+03 4.65773E+05-3.07790E+04
 -1        51 4.57587E+03 4.40109E+05-2.93757E+04
 -1        52 9.63863E+03 3.20240E+05-2.19351E+04
 -1        53 1.25654E+04 1.32652E+05-1.01597E+04
 -1        54 1.26877E+04-8.12165E+04 3.30299E+03
 -1        55 9.92281E+03-2.73770E+05 1.54441E+04
 -1        56 4.78120E+03-4.01302E+05 2.35537E+04
 -1        57-1.75957E+03-4.33033E+05 2.58099E+04
 -1        58-8.48872E+03-3.57091E+05 2.16569E+04
 -1        59-1.42580E+04-1.81964E+05 1.18756E+04
 -1        60-1.82831E+04 6.71183E+04-1.69623E+03
 -1        61-2.03750E+04 3.56509E+05-1.69157E+04
 -1        62 5.32536E+03 9.36228E+04 5.43568E+03
 -1        63 7.94843E+03 2.35569E+05 1.48493E+04
 -1        64 6.93204E+03 3.82892E+05 2.50953E+04
 -1        65 3.11522E+03 4.82399E+05 3.22434E+04
 -1        66-2.20314E+03 4.99653E+05 3.38281E+04
 -1        67-7.58793E+03 4.22821E+05 2.90311E+04
 -1        68-1.16805E+04 2.63452E+05 1.86490E+04
 -1        69-1.34687E+04 5.28164E+04 4.79363E+03
 -1        70-1.24833E+04-1.65568E+05-9.63176E+03
 -1        71-8.88400E+03-3.45770E+05-2.15878E+04
 -1        72-3.41550E+03-4.49647E+05-2.85627E+04
 -1        73 2.76056E+03-4.55265E+05-2.91140E+04
 -1        74 8.32130E+03-3.61748E+05-2.31768E+04
 -1        75 1.20719E+04-1.89529E+05-1.20746E+04
 -1        76 1.32061E+04 2.40235E+04 1.76875E+03
 -1        77 1.14824E+04 2.32678E+05 1.53556E+04
 -1        78 7.27740E+03 3.91332E+05 2.57636E+04
 -1        79 1.50578E+03 4.65773E+05 3.07790E+04
 -1        80-4.57587E+03 4.40109E+05 2.93757E+04
 -1        81-9.63863E+03 3.20240E+05 2.19351E+04
 -1        82-1.25654E+04 1.32652E+05 1.01597E+04
 -1        83-1.26877E+04-8.12165E+04-3.30299E+03
 -1        84-9.92281E+03-2.73770E+05-1.54441E+04
 -1        85-4.78120E+03-4.01302E+05-2.35537E+04
 -1        86 1.75957E+03-4.33033E+05-2.58099E+04
 -1        87 8.48872E+03-3.57091E+05-2.16569E+04
 -1        88 1.42580E+04-1.81964E+05-1.18756E+04
 -1        89 1.82831E+04 6.71183E+04 1.69623E+03
 -1        90 2.03750E+04 3.56509E+05 1.69157E+04
 -1        91-3.05114E+07-7.50686E+05-5.11055E+04
 -1        92-3.31509E+07-6.80076E+05-1.02966E-06
 -1        93-3.05114E+07-7.50686E+05 5.11055E+04
 -1        94 3.05114E+07-7.50686E+05-5.11055E+04
 -1        95 3.31509E+07-6.80076E+05-6.09401E-07
 -1        96 3.05114E+07-7.50686E+05 5.11055E+04
 -1        97 5.32536E+03 9.36228E+04-5.43568E+03
 -1        98 7.94843E+03 2.35569E+05-1.48493E+04
 -1        99 6.93204E+03 3.82892E+05-2.50953E+04
 -1       100 3.11522E+03 4.82399E+05-3.22434E+04
 -1       101-2.20314E+03 4.99653E+05-3.38281E+04
 -1       102-7.58793E+03 4.22821E+05-2.90311E+04
 -1       103-1.16805E+04 2.63452E+05-1.86490E+04
 -1       104-1.34687E+04 5.28164E+04-4.79363E+03
 -1       105-1.24833E+04-1.65568E+05 9.63176E+03
 -1       106-8.88400E+03-3.45770E+05 2.15878E+04
 -1       107-3.41550E+03-4.49647E+05 2.85627E+04
 -1       108 2.76056E+03-4.55265E+05 2.91140E+04
 -1       109 8.32130E+03-3.61748E+05 2.31768E+04
 -1       110 1.20719E+04-1.89529E+05 1.20746E+04
 -1       111 1.32061E+04 2.40235E+04-1.76875E+03
 -1       112 1.14824E+04 2.32678E+05-1.53556E+04
 -1       113 7.27740E+03 3.91332E+05-2.57636E+04
 -1       114 1.50578E+03 4.65773E+05-3.07790E+04
 -1       115-4.57587E+03 4.40109E+05-2.93757E+04
 -1       116-9.63863E+03 3.20240E+05-2.19351E+04
 -1       117-1.25654E+04 1.32652E+05-1.01597E+04
 -1       118-1.26877E+04-8.12165E+04 3.30299E+03
 -1       119-9.92281E+03-2.73770E+05 1.54441E+04
 -1       120-4.78120E+03-4.01302E+05 2.35537E+04
 -1       121 1.75957E+03-4.33033E+05 2.58099E+04
 -1       122 8.48872E+03-3.57091E+05 2.16569E+04
 -1       123 1.42580E+04-1.81964E+05 1.18756E+04
 -1       124 1.82831E+04 6.71183E+04-1.69623E+03
 -1       125 2.03750E+04 3.56509E+05-1.69157E+04
 -1       126 3.29401E+03 4.10659E+05 1.61665E+03
 -1       127 3.77572E+03 4.66090E+05 5.54492E-06
 -1       128 3.29401E+03 4.10659E+05-1.61665E+03
 -1       129-5.32536E+03 9.36228E+04 5.43568E+03
 -1       130-7.94843E+03 2.35569E+05 1.48493E+04
 -1       131-6.93204E+03 3.82892E+05 2.50953E+04
 -1       132-3.11522E+03 4.82399E+05 3.22434E+04
 -1       133 2.20314E+03 4.99653E+05 3.38281E+04
 -1       134 7.58793E+03 4.22821E+05 2.90311E+04
 -1       135 1.16805E+04 2.63452E+05 1.86490E+04
 -1       136 1.34687E+04 5.28164E+04 4.79363E+03
 -1       137 1.24833E+04-1.65568E+05-9.63176E+03
 -1       138 8.88400E+03-3.45770E+05-2.15878E+04
 -1       139 3.41550E+03-4.49647E+05-2.85627E+04
 -1       140-2.76056E+03-4.55265E+05-2.91140E+04
 -1       141-8.32130E+03-3.61748E+05-2.31768E+04
 -1       142-1.20719E+04-1.89529E+05-1.20746E+04
 -1       143-1.32061E+04 2.40235E+04 1.76875E+03
 -1       144-1.14824E+04 2.32678E+05 1.53556E+04
 -1       145-7.27740E+03 3.91332E+05 2.57636E+04
 -1       146-1.50578E+03 4.65773E+05 3.07790E+04
 -1       147 4.57587E+03 4.40109E+05 2.93757E+04
 -1       148 9.63863E+03 3.20240E+05 2.19351E+04
 -1       149 1.25654E+04 1.32652E+05 1.01597E+04
 -1       150 1.26877E+04-8.12165E+04-3.30299E+03
 -1       151 9.92281E+03-2.73770E+05-1.54441E+04
 -1       152 4.78120E+03-4.01302E+05-2.35537E+04
 -1       153-1.75957E+03-4.33033E+05-2.58099E+04
 -1       154-8.48872E+03-3.57091E+05-2.16569E+04
 -1       155-1.42580E+04-1.81964E+05-1.18756E+04
 -1       156-1.82831E+04 6.71183E+04 1.69623E+03
 -1       157-2.03750E+04 3.56509E+05 1.69157E+04
 -1       158-3.29401E+03 4.10659E+05 1.61665E+03
 -1       159-3.77572E+03 4.66090E+05 2.18971E-06
 -1       160-3.29401E+03 4.10659E+05-1.61665E+03
 -1       161 4.57774E+03 3.76696E+04 5.11566E+03
 -1       162 6.98927E+03 9.22732E+04 1.37604E+04
 -1       163 6.13411E+03 1.48178E+05 2.31597E+04
 -1       164 2.73940E+03 1.85684E+05 2.97201E+04
 -1       165-2.01824E+03 1.91757E+05 3.11711E+04
 -1       166-6.84506E+03 1.61815E+05 2.67521E+04
 -1       167-1.05157E+04 1.00221E+05 1.71918E+04
 -1       168-1.21181E+04 1.89581E+04 4.43275E+03
 -1       169-1.12290E+04-6.52315E+04-8.85174E+03
 -1       170-7.99174E+03-1.34646E+05-1.98628E+04
 -1       171-3.07526E+03-1.74570E+05-2.62875E+04
 -1       172 2.47661E+03-1.76542E+05-2.67976E+04
 -1       173 7.47523E+03-1.40231E+05-2.13333E+04
 -1       174 1.08470E+04-7.35424E+04-1.11131E+04
 -1       175 1.18675E+04 9.06954E+03 1.63153E+03
 -1       176 1.03199E+04 8.97210E+04 1.41408E+04
 -1       177 6.54273E+03 1.50962E+05 2.37244E+04
 -1       178 1.35809E+03 1.79555E+05 2.83443E+04
 -1       179-4.10468E+03 1.69347E+05 2.70559E+04
 -1       180-8.65133E+03 1.22620E+05 2.02102E+04
 -1       181-1.12780E+04 4.96359E+04 9.37460E+03
 -1       182-1.13838E+04-3.35350E+04-3.01425E+03
 -1       183-8.89422E+03-1.08398E+05-1.41869E+04
 -1       184-4.26723E+03-1.57902E+05-2.16489E+04
 -1       185 1.62018E+03-1.69929E+05-2.37226E+04
 -1       186 7.68179E+03-1.39622E+05-1.98948E+04
 -1       187 1.28864E+04-7.00150E+04-1.08870E+04
 -1       188 1.65298E+04 2.91896E+04 1.59205E+03
 -1       189 1.84507E+04 1.44538E+05 1.55331E+04
 -1       190-8.13622E+06 5.19580E+04-9.48876E+06
 -1       191-5.21181E+05-2.27945E+05 9.21485E+06
 -1       192 4.72366E+04 1.86655E+05 6.23912E+04
 -1       193 1.98230E+04 3.27883E+04 2.14078E+04
 -1       194 2.91287E+04 7.70411E+04 5.68418E+04
 -1       195 2.53267E+04 1.22173E+05 9.51415E+04
 -1       196 1.14135E+04 1.52508E+05 1.21889E+05
 -1       197-8.00331E+03 1.57243E+05 1.27804E+05
 -1       198-2.76633E+04 1.32595E+05 1.09714E+05
 -1       199-4.26081E+04 8.21121E+04 7.05607E+04
 -1       200-4.91417E+04 1.55758E+04 1.82909E+04
 -1       201-4.55508E+04-5.33308E+04-3.61419E+04
 -1       202-3.24196E+04-1.10135E+05-8.12663E+04
 -1       203-1.24662E+04-1.42806E+05-1.07604E+05
 -1       204 1.00698E+04-1.44423E+05-1.09712E+05
 -1       205 3.03610E+04-1.14720E+05-8.73441E+04
 -1       206 4.40475E+04-6.01645E+04-4.54917E+04
 -1       207 4.81875E+04 7.41791E+03 6.70665E+03
 -1       208 4.18994E+04 7.33965E+04 5.79471E+04
 -1       209 2.65575E+04 1.23496E+05 9.72111E+04
 -1       210 5.49928E+03 1.46888E+05 1.16152E+05
 -1       211-1.66905E+04 1.38538E+05 1.10901E+05
 -1       212-3.51634E+04 1.00319E+05 8.28960E+04
 -1       213-4.58444E+04 4.06270E+04 3.85527E+04
 -1       214-4.62952E+04-2.73833E+04-1.21540E+04
 -1       215-3.62153E+04-8.85713E+04-5.78884E+04
 -1       216-1.74675E+04-1.28973E+05-8.84398E+04
 -1       217 6.38138E+03-1.38654E+05-9.69313E+04
 -1       218 3.09105E+04-1.13608E+05-8.12531E+04
 -1       219 5.19126E+04-5.62711E+04-4.43966E+04
 -1       220 6.64737E+04 2.54869E+04 6.49544E+03
 -1       221 7.39309E+04 1.20768E+05 6.26778E+04
 -1       222 1.85795E+04 3.40847E+04 2.11869E+04
 -1       223 2.73761E+04 8.04855E+04 5.68083E+04
 -1       224 2.37998E+04 1.27927E+05 9.52729E+04
 -1       225 1.06447E+04 1.59875E+05 1.22130E+05
 -1       226-7.73456E+03 1.64967E+05 1.28085E+05
 -1       227-2.63561E+04 1.39228E+05 1.09962E+05
 -1       228-4.05149E+04 8.63800E+04 7.07147E+04
 -1       229-4.66975E+04 1.66854E+04 1.83124E+04
 -1       230-4.32702E+04-5.55105E+04-3.62609E+04
 -1       231-3.07830E+04-1.15042E+05-8.15022E+04
 -1       232-1.18158E+04-1.49305E+05-1.07907E+05
 -1       233 9.60374E+03-1.51050E+05-1.10017E+05
 -1       234 2.88874E+04-1.19996E+05-8.75865E+04
 -1       235 4.18904E+04-6.29121E+04-4.56188E+04
 -1       236 4.58157E+04 7.82396E+03 6.72210E+03
 -1       237 3.98248E+04 7.68986E+04 5.81016E+04
 -1       238 2.52242E+04 1.29371E+05 9.74710E+04
 -1       239 5.18742E+03 1.53907E+05 1.16461E+05
 -1       240-1.59253E+04 1.45242E+05 1.11192E+05
 -1       241-3.35014E+04 1.05332E+05 8.31044E+04
 -1       242-4.36616E+04 4.29619E+04 3.86325E+04
 -1       243-4.40807E+04-2.81109E+04-1.22221E+04
 -1       244-3.44634E+04-9.20615E+04-5.80934E+04
 -1       245-1.65699E+04-1.34309E+05-8.87429E+04
 -1       246 6.21939E+03-1.44504E+05-9.72752E+04
 -1       247 2.97105E+04-1.18511E+05-8.15760E+04
 -1       248 4.99105E+04-5.89508E+04-4.46472E+04
 -1       249 6.40473E+04 2.58708E+04 6.34404E+03
 -1       250 7.14390E+04 1.24497E+05 6.26148E+04
 -1       251 4.56666E+04 1.92568E+05 6.23694E+04
 -1       252 1.84507E+04 1.44538E+05-1.55331E+04
 -1       253 1.65298E+04 2.91896E+04-1.59205E+03
 -1       254 1.28864E+04-7.00150E+04 1.08870E+04
 -1       255 7.68179E+03-1.39622E+05 1.98948E+04
 -1       256 1.62018E+03-1.69929E+05 2.37226E+04
 -1       257-4.26723E+03-1.57902E+05 2.16489E+04
 -1       258-8.89422E+03-1.08398E+05 1.41869E+04
 -1       259-1.13838E+04-3.35350E+04 3.01425E+03
 -1       260-1.12780E+04 4.96359E+04-9.37460E+03
 -1       261-8.65133E+03 1.22620E+05-2.02102E+04
 -1       262-4.10468E+03 1.69347E+05-2.70559E+04
 -1       263 1.35809E+03 1.79555E+05-2.83443E+04
 -1       264 6.54273E+03 1.50962E+05-2.37244E+04
 -1       265 1.03199E+04 8.97210E+04-1.41408E+04
 -1       266 1.18675E+04 9.06954E+03-1.63153E+03
 -1       267 1.08470E+04-7.35424E+04 1.11131E+04
 -1       268 7.47523E+03-1.40231E+05 2.13333E+04
 -1       269 2.47661E+03-1.76542E+05 2.67976E+04
 -1       270-3.07526E+03-1.74570E+05 2.62875E+04
 -1       271-7.99174E+03-1.34646E+05 1.98628E+04
 -1       272-1.12290E+04-6.52315E+04 8.85174E+03
 -1       273-1.21181E+04 1.89581E+04-4.43275E+03
 -1       274-1.05157E+04 1.00221E+05-1.71918E+04
 -1       275-6.84506E+03 1.61815E+05-2.67521E+04
 -1       276-2.01824E+03 1.91757E+05-3.11711E+04
 -1       277 2.73940E+03 1.85684E+05-2.97201E+04
 -1       278 6.13411E+03 1.48178E+05-2.31597E+04
 -1       279 6.98927E+03 9.22732E+04-1.37604E+04
 -1       280 4.57774E+03 3.76696E+04-5.11566E+03
 -1       281-5.21181E+05-2.27945E+05-9.21485E+06
 -1       282-8.13622E+06 5.19580E+04 9.48876E+06
 -1       283 1.85795E+04 3.40847E+04-2.11869E+04
 -1       284 2.73761E+04 8.04855E+04-5.68083E+04
 -1       285 2.37998E+04 1.27927E+05-9.52729E+04
 -1       286 1.06447E+04 1.59875E+05-1.22130E+05
 -1       287-7.73456E+03 1.64967E+05-1.28085E+05
 -1       288-2.63561E+04 1.39228E+05-1.09962E+05
 -1       289-4.05149E+04 8.63800E+04-7.07147E+04
 -1       290-4.66975E+04 1.66854E+04-1.83124E+04
 -1       291-4.32702E+04-5.55105E+04 3.62609E+04
 -1       292-3.07830E+04-1.15042E+05 8.15022E+04
 -1       293-1.18158E+04-1.49305E+05 1.07907E+05
 -1       294 9.60374E+03-1.51050E+05 1.10017E+05
 -1       295 2.88874E+04-1.19996E+05 8.75865E+04
 -1       296 4.18904E+04-6.29121E+04 4.56188E+04
 -1       297 4.58157E+04 7.82396E+03-6.72210E+03
 -1       298 3.98248E+04 7.68986E+04-5.81016E+04
 -1       299 2.52242E+04 1.29371E+05-9.74710E+04
 -1       300 5.18742E+03 1.53907E+05-1.16461E+05
 -1       301-1.59253E+04 1.45242E+05-1.11192E+05
 -1       302-3.35014E+04 1.05332E+05-8.31044E+04
 -1       303-4.36616E+04 4.29619E+04-3.86325E+04
 -1       304-4.40807E+04-2.81109E+04 1.22221E+04
 -1       305-3.44634E+04-9.20615E+04 5.80934E+04
 -1       306-1.65699E+04-1.34309E+05 8.87429E+04
 -1       307 6.21939E+03-1.44504E+05 9.72752E+04
 -1       308 2.97105E+04-1.18511E+05 8.15760E+04
 -1       309 4.99105E+04-5.89508E+04 4.46472E+04
 -1       310 6.40473E+04 2.58708E+04-6.34404E+03
 -1       311 7.14390E+04 1.24497E+05-6.26148E+04
 -1       312 4.56666E+04 1.92568E+05-6.23694E+04
 -1       313 1.98230E+04 3.27883E+04-2.14078E+04
 -1       314 2.91287E+04 7.70411E+04-5.68418E+04
 -1       315 2.53267E+04 1.22173E+05-9.51415E+04
 -1       316 1.14135E+04 1.52508E+05-1.21889E+05
 -1       317-8.00331E+03 1.57243E+05-1.27804E+05
 -1       318-2.76633E+04 1.32595E+05-1.09714E+05
 -1       319-4.26081E+04 8.21121E+04-7.05607E+04
 -1       320-4.91417E+04 1.55758E+04-1.82909E+04
 -1       321-4.55508E+04-5.33308E+04 3.61419E+04
 -1       322-3.24196E+04-1.10135E+05 8.12663E+04
 -1       323-1.24662E+04-1.42806E+05 1.07604E+05
 -1       324 1.00698E+04-1.44423E+05 1.09712E+05
 -1       325 3.03610E+04-1.14720E+05 8.73441E+04
 -1       326 4.40475E+04-6.01645E+04 4.54917E+04
 -1       327 4.81875E+04 7.41791E+03-6.70665E+03
 -1       328 4.18994E+04 7.33965E+04-5.79471E+04
 -1       329 2.65575E+04 1.23496E+05-9.72111E+04
 -1       330 5.49928E+03 1.46888E+05-1.16152E+05
 -1       331-1.66905E+04 1.38538E+05-1.10901E+05
 -1       332-3.51634E+04 1.00319E+05-8.28960E+04
 -1       333-4.58444E+04 4.06270E+04-3.85527E+04
 -1       334-4.62952E+04-2.73833E+04 1.21540E+04
 -1       335-3.62153E+04-8.85713E+04 5.78884E+04
 -1       336-1.74675E+04-1.28973E+05 8.84398E+04
 -1       337 6.38138E+03-1.38654E+05 9.69313E+04
 -1       338 3.09105E+04-1.13608E+05 8.12531E+04
 -1       339 5.19126E+04-5.62711E+04 4.43966E+04
 -1       340 6.64737E+04 2.54869E+04-6.49544E+03
 -1       341 7.39309E+04 1.20768E+05-6.26778E+04
 -1       342 4.72366E+04 1.86655E+05-6.23912E+04
 -1       343-1.98230E+04 3.27883E+04-2.14078E+04
 -1       344-2.91287E+04 7.70411E+04-5.68418E+04
 -1       345-2.53267E+04 1.22173E+05-9.51415E+04
 -1       346-1.14135E+04 1.52508E+05-1.21889E+05
 -1       347 8.00331E+03 1.57243E+05-1.27804E+05
 -1       348 2.76633E+04 1.32595E+05-1.09714E+05
 -1       349 4.26081E+04 8.21121E+04-7.05607E+04
 -1       350 4.91417E+04 1.55758E+04-1.82909E+04
 -1       351 4.55508E+04-5.33308E+04 3.61419E+04
 -1       352 3.24196E+04-1.10135E+05 8.12663E+04
 -1       353 1.24662E+04-1.42806E+05 1.07604E+05
 -1       354-1.00698E+04-1.44423E+05 1.09712E+05
 -1       355-3.03610E+04-1.14720E+05 8.73441E+04
 -1       356-4.40475E+04-6.01645E+04 4.54917E+04
 -1       357-4.81875E+04 7.41791E+03-6.70665E+03
 -1       358-4.18994E+04 7.33965E+04-5.79471E+04
 -1       359-2.65575E+04 1.23496E+05-9.72111E+04
 -1       360-5.49928E+03 1.46888E+05-1.16152E+05
 -1       361 1.66905E+04 1.38538E+05-1.10901E+05
 -1       362 3.51634E+04 1.00319E+05-8.28960E+04
 -1       363 4.58444E+04 4.06270E+04-3.85527E+04
 -1       364 4.62952E+04-2.73833E+04 1.21540E+04
 -1       365 3.62153E+04-8.85713E+04 5.78884E+04
 -1       366 1.74675E+04-1.28973E+05 8.84398E+04
 -1       367-6.38138E+03-1.38654E+05 9.69313E+04
 -1       368-3.09105E+04-1.13608E+05 8.12531E+04
 -1       369-5.19126E+04-5.62711E+04 4.43966E+04
 -1       370-6.64737E+04 2.54869E+04-6.49544E+03
 -1       371-7.39309E+04 1.20768E+05-6.26778E+04
 -1       372-1.85795E+04 3.40847E+04-2.11869E+04
 -1       373-2.73761E+04 8.04855E+04-5.68083E+04
 -1       374-2.37998E+04 1.27927E+05-9.52729E+04
 -1       375-1.06447E+04 1.59875E+05-1.22130E+05
 -1       376 7.73456E+03 1.64967E+05-1.28085E+05
 -1       377 2.63561E+04 1.39228E+05-1.09962E+05
 -1       378 4.05149E+04 8.63800E+04-7.07147E+04
 -1       379 4.66975E+04 1.66854E+04-1.83124E+04
 -1       380 4.32702E+04-5.55105E+04 3.62609E+04
 -1       381 3.07830E+04-1.15042E+05 8.15022E+04
 -1       382 1.18158E+04-1.49305E+05 1.07907E+05
 -1       383-9.60374E+03-1.51050E+05 1.10017E+05
 -1       384-2.88874E+04-1.19996E+05 8.75865E+04
 -1       385-4.18904E+04-6.29121E+04 4.56188E+04
 -1       386-4.58157E+04 7.82396E+03-6.72210E+03
 -1       387-3.98248E+04 7.68986E+04-5.81016E+04
 -1       388-2.52242E+04 1.29371E+05-9.74710E+04
 -1       389-5.18742E+03 1.53907E+05-1.16461E+05
 -1       390 1.59253E+04 1.45242E+05-1.11192E+05
 -1       391 3.35014E+04 1.05332E+05-8.31044E+04
 -1       392 4.36616E+04 4.29619E+04-3.86325E+04
 -1       393 4.40807E+04-2.81109E+04 1.22221E+04
 -1       394 3.44634E+04-9.20615E+04 5.80934E+04
 -1       395 1.65699E+04-1.34309E+05 8.87429E+04
 -1       396-6.21939E+03-1.44504E+05 9.72752E+04
 -1       397-2.97105E+04-1.18511E+05 8.15760E+04
 -1       398-4.99105E+04-5.89508E+04 4.46472E+04
 -1       399-6.40473E+04 2.58708E+04-6.34404E+03
 -1       400-7.14390E+04 1.24497E+05-6.26148E+04
 -1       401 8.13622E+06 5.19580E+04 9.48876E+06
 -1       402 5.21181E+05-2.27945E+05-9.21485E+06
 -1       403-4.72366E+04 1.86655E+05-6.23912E+04
 -1       404-4.57774E+03 3.76696E+04-5.11566E+03
 -1       405-6.98927E+03 9.22732E+04-1.37604E+04
 -1       406-6.13411E+03 1.48178E+05-2.31597E+04
 -1       407-2.73940E+03 1.85684E+05-2.97201E+04
 -1       408 2.01824E+03 1.91757E+05-3.11711E+04
 -1       409 6.84506E+03 1.61815E+05-2.67521E+04
 -1       410 1.05157E+04 1.00221E+05-1.71918E+04
 -1       411 1.21181E+04 1.89581E+04-4.43275E+03
 -1       412 1.12290E+04-6.52315E+04 8.85174E+03
 -1       413 7.99174E+03-1.34646E+05 1.98628E+04
 -1       414 3.07526E+03-1.74570E+05 2.62875E+04
 -1       415-2.47661E+03-1.76542E+05 2.67976E+04
 -1       416-7.47523E+03-1.40231E+05 2.13333E+04
 -1       417-1.08470E+04-7.35424E+04 1.11131E+04
 -1       418-1.18675E+04 9.06954E+03-1.63153E+03
 -1       419-1.03199E+04 8.97210E+04-1.41408E+04
 -1       420-6.54273E+03 1.50962E+05-2.37244E+04
 -1       421-1.35809E+03 1.79555E+05-2.83443E+04
 -1       422 4.10468E+03 1.69347E+05-2.70559E+04
 -1       423 8.65133E+03 1.22620E+05-2.02102E+04
 -1       424 1.12780E+04 4.96359E+04-9.37460E+03
 -1       425 1.13838E+04-3.35350E+04 3.01425E+03
 -1       426 8.89422E+03-1.08398E+05 1.41869E+04
 -1       427 4.26723E+03-1.57902E+05 2.16489E+04
 -1       428-1.62018E+03-1.69929E+05 2.37226E+04
 -1       429-7.68179E+03-1.39622E+05 1.98948E+04
 -1       430-1.28864E+04-7.00150E+04 1.08870E+04
 -1       431-1.65298E+04 2.91896E+04-1.59205E+03
 -1       432-1.84507E+04 1.44538E+05-1.55331E+04
 -1       433-4.56666E+04 1.92568E+05-6.23694E+04
 -1       434 8.13622E+06 5.19580E+04-9.48876E+06
 -1       435 5.21181E+05-2.27945E+05 9.21485E+06
 -1       436-1.84507E+04 1.44538E+05 1.55331E+04
 -1       437-1.65298E+04 2.91896E+04 1.59205E+03
 -1       438-1.28864E+04-7.00150E+04-1.08870E+04
 -1       439-7.68179E+03-1.39622E+05-1.98948E+04
 -1       440-1.62018E+03-1.69929E+05-2.37226E+04
 -1       441 4.26723E+03-1.57902E+05-2.16489E+04
 -1       442 8.89422E+03-1.08398E+05-1.41869E+04
 -1       443 1.13838E+04-3.35350E+04-3.01425E+03
 -1       444 1.12780E+04 4.96359E+04 9.37460E+03
 -1       445 8.65133E+03 1.22620E+05 2.02102E+04
 -1       446 4.10468E+03 1.69347E+05 2.70559E+04
 -1       447-1.35809E+03 1.79555E+05 2.83443E+04
 -1       448-6.54273E+03 1.50962E+05 2.37244E+04
 -1       449-1.03199E+04 8.97210E+04 1.41408E+04
 -1       450-1.18675E+04 9.06954E+03 1.63153E+03
 -1       451-1.08470E+04-7.35424E+04-1.11131E+04
 -1       452-7.47523E+03-1.40231E+05-2.13333E+04
 -1       453-2.47661E+03-1.76542E+05-2.67976E+04
 -1       454 3.07526E+03-1.74570E+05-2.62875E+04
 -1       455 7.99174E+03-1.34646E+05-1.98628E+04
 -1       456 1.12290E+04-6.52315E+04-8.85174E+03
 -1       457 1.21181E+04 1.89581E+04 4.43275E+03
 -1       458 1.05157E+04 1.00221E+05 1.71918E+04
 -1       459 6.84506E+03 1.61815E+05 2.67521E+04
 -1       460 2.01824E+03 1.91757E+05 3.11711E+04
 -1       461-2.73940E+03 1.85684E+05 2.97201E+04
 -1       462-6.13411E+03 1.48178E+05 2.31597E+04
 -1       463-6.98927E+03 9.22732E+04 1.37604E+04
 -1       464-4.57774E+03 3.76696E+04 5.11566E+03
 -1       465-4.72366E+04 1.86655E+05 6.23912E+04
 -1       466-1.98230E+04 3.27883E+04 2.14078E+04
 -1       467-2.91287E+04 7.70411E+04 5.68418E+04
 -1       468-2.53267E+04 1.22173E+05 9.51415E+04
 -1       469-1.14135E+04 1.52508E+05 1.21889E+05
 -1       470 8.00331E+03 1.57243E+05 1.27804E+05
 -1       471 2.76633E+04 1.32595E+05 1.09714E+05
 -1       472 4.26081E+04 8.21121E+04 7.05607E+04
 -1       473 4.91417E+04 1.55758E+04 1.82909E+04
 -1       474 4.55508E+04-5.33308E+04-3.61419E+04
 -1       475 3.24196E+04-1.10135E+05-8.12663E+04
 -1       476 1.24662E+04-1.42806E+05-1.07604E+05
 -1       477-1.00698E+04-1.44423E+05-1.09712E+05
 -1       478-3.03610E+04-1.14720E+05-8.73441E+04
 -1       479-4.40475E+04-6.01645E+04-4.54917E+04
 -1       480-4.81875E+04 7.41791E+03 6.70665E+03
 -1       481-4.18994E+04 7.33965E+04 5.79471E+04
 -1       482-2.65575E+04 1.23496E+05 9.72111E+04
 -1       483-5.49928E+03 1.46888E+05 1.16152E+05
 -1       484 1.66905E+04 1.38538E+05 1.10901E+05
 -1       485 3.51634E+04 1.00319E+05 8.28960E+04
 -1       486 4.58444E+04 4.06270E+04 3.85527E+04
 -1       487 4.62952E+04-2.73833E+04-1.21540E+04
 -1       488 3.62153E+04-8.85713E+04-5.78884E+04
 -1       489 1.74675E+04-1.28973E+05-8.84398E+04
 -1       490-6.38138E+03-1.38654E+05-9.69313E+04
 -1       491-3.09105E+04-1.13608E+05-8.12531E+04
 -1       492-5.19126E+04-5.62711E+04-4.43966E+04
 -1       493-6.64737E+04 2.54869E+04 6.49544E+03
 -1       494-7.39309E+04 1.20768E+05 6.26778E+04
 -1       495-1.85795E+04 3.40847E+04 2.11869E+04
 -1       496-2.73761E+04 8.04855E+04 5.68083E+04
 -1       497-2.37998E+04 1.27927E+05 9.52729E+04
 -1       498-1.06447E+04 1.59875E+05 1.22130E+05
 -1       499 7.73456E+03 1.64967E+05 1.28085E+05
 -1       500 2.63561E+04 1.39228E+05 1.09962E+05
 -1       501 4.05149E+04 8.63800E+04 7.07147E+04
 -1       502 4.66975E+04 1.66854E+04 1.83124E+04
 -1       503 4.32702E+04-5.55105E+04-3.62609E+04
 -1       504 3.07830E+04-1.15042E+05-8.15022E+04
 -1       505 1.18158E+04-1.49305E+05-1.07907E+05
 -1       506-9.60374E+03-1.51050E+05-1.10017E+05
 -1       507-2.88874E+04-1.19996E+05-8.75865E+04
 -1       508-4.18904E+04-6.29121E+04-4.56188E+04
 -1       509-4.58157E+04 7.82396E+03 6.72210E+03
 -1       510-3.98248E+04 7.68986E+04 5.81016E+04
 -1       511-2.52242E+04 1.29371E+05 9.74710E+04
 -1       512-5.18742E+03 1.53907E+05 1.16461E+05
 -1       513 1.59253E+04 1.45242E+05 1.11192E+05
 -1       514 3.35014E+04 1.05332E+05 8.31044E+04
 -1       515 4.36616E+04 4.29619E+04 3.86325E+04
 -1       516 4.40807E+04-2.81109E+04-1.22221E+04
 -1       517 3.44634E+04-9.20615E+04-5.80934E+04
 -1       518 1.65699E+04-1.34309E+05-8.87429E+04
 -1       519-6.21939E+03-1.44504E+05-9.72752E+04
 -1       520-2.97105E+04-1.18511E+05-8.15760E+04
 -1       521-4.99105E+04-5.89508E+04-4.46472E+04
 -1       522-6.40473E+04 2.58708E+04 6.34404E+03
 -1       523-7.14390E+04 1.24497E+05 6.26148E+04
 -1       524-4.56666E+04 1.92568E+05 6.23694E+04
 -1       525 2.55329E+03 1.35367E+05 5.01625E+02
 -1       526 3.54756E+03 3.58631E+05 1.50800E+03
 -1       527 3.03342E+03 5.96074E+05 2.64435E+03
 -1       528 1.46862E+03 7.58064E+05 3.43595E+03
 -1       529-6.30577E+02 7.88874E+05 3.61176E+03
 -1       530-2.71704E+03 6.70323E+05 3.09512E+03
 -1       531-4.29188E+03 4.21262E+05 1.97897E+03
 -1       532-4.98853E+03 9.12386E+04 4.92127E+02
 -1       533-4.64067E+03-2.51275E+05-1.05419E+03
 -1       534-3.31346E+03-5.34226E+05-2.33464E+03
 -1       535-1.28710E+03-6.97863E+05-3.08020E+03
 -1       536 1.00509E+03-7.07835E+05-3.13629E+03
 -1       537 3.07118E+03-5.62723E+05-2.49610E+03
 -1       538 4.46752E+03-2.94407E+05-1.30192E+03
 -1       539 4.89508E+03 3.88027E+04 1.85808E+02
 -1       540 4.26429E+03 3.64761E+05 1.64491E+03
 -1       541 2.71468E+03 6.13102E+05 2.76132E+03
 -1       542 5.84830E+02 7.30474E+05 3.29705E+03
 -1       543-1.66071E+03 6.92106E+05 3.14181E+03
 -1       544-3.53173E+03 5.07205E+05 2.33670E+03
 -1       545-4.61820E+03 2.17015E+05 1.06514E+03
 -1       546-4.67870E+03-1.14039E+05-3.87419E+02
 -1       547-3.69201E+03-4.12190E+05-1.69635E+03
 -1       548-1.86012E+03-6.10120E+05-2.56965E+03
 -1       549 4.39937E+02-6.61159E+05-2.81230E+03
 -1       550 2.74867E+03-5.48508E+05-2.36639E+03
 -1       551 4.64574E+03-2.86860E+05-1.31135E+03
 -1       552 5.87510E+03 8.47698E+04 1.86063E+02
 -1       553 6.44345E+03 5.18202E+05 1.96031E+03
 -1       554 2.91247E+03 1.52352E+05 4.85381E-06
 -1       555 4.11234E+03 4.09538E+05-5.76579E-06
 -1       556 3.53603E+03 6.85750E+05-5.07615E-06
 -1       557 1.71856E+03 8.74771E+05-3.85131E-06
 -1       558-7.14462E+02 9.11581E+05 2.05799E-06
 -1       559-3.12803E+03 7.75466E+05 8.63774E-06
 -1       560-4.94803E+03 4.88460E+05 1.04593E-05
 -1       561-5.75331E+03 1.07897E+05 1.88865E-06
 -1       562-5.35341E+03-2.87174E+05 3.83939E-06
 -1       563-3.82414E+03-6.13642E+05 6.80565E-06
 -1       564-1.48882E+03-8.02614E+05 7.24461E-06
 -1       565 1.15305E+03-8.14483E+05 6.98466E-06
 -1       566 3.53460E+03-6.47600E+05-2.34183E-06
 -1       567 5.14473E+03-3.38682E+05-5.87331E-06
 -1       568 5.63897E+03 4.51058E+04-8.76362E-08
 -1       569 4.91423E+03 4.20666E+05 4.23430E-06
 -1       570 3.13129E+03 7.06955E+05-3.89876E-06
 -1       571 6.80172E+02 8.42530E+05-4.05831E-06
 -1       572-1.90409E+03 7.98870E+05 7.63679E-06
 -1       573-4.05709E+03 5.86581E+05 7.05613E-06
 -1       574-5.30709E+03 2.53143E+05-1.55537E-06
 -1       575-5.37693E+03-1.27311E+05 1.94638E-06
 -1       576-4.24372E+03-4.69975E+05 6.44375E-07
 -1       577-2.14234E+03-6.97600E+05-8.78223E-06
 -1       578 4.90493E+02-7.56893E+05-1.28016E-05
 -1       579 3.12466E+03-6.29093E+05-8.11385E-06
 -1       580 5.28166E+03-3.31593E+05 1.79377E-06
 -1       581 6.68647E+03 9.10499E+04 1.39805E-06
 -1       582 7.36344E+03 5.85258E+05 5.61816E-06
 -1       583 2.55329E+03 1.35367E+05-5.01625E+02
 -1       584 3.54756E+03 3.58631E+05-1.50800E+03
 -1       585 3.03342E+03 5.96074E+05-2.64435E+03
 -1       586 1.46862E+03 7.58064E+05-3.43595E+03
 -1       587-6.30577E+02 7.88874E+05-3.61176E+03
 -1       588-2.71704E+03 6.70323E+05-3.09512E+03
 -1       589-4.29188E+03 4.21262E+05-1.97897E+03
 -1       590-4.98853E+03 9.12386E+04-4.92127E+02
 -1       591-4.64067E+03-2.51275E+05 1.05419E+03
 -1       592-3.31346E+03-5.34226E+05 2.33464E+03
 -1       593-1.28710E+03-6.97863E+05 3.08020E+03
 -1       594 1.00509E+03-7.07835E+05 3.13629E+03
 -1       595 3.07118E+03-5.62723E+05 2.49610E+03
 -1       596 4.46752E+03-2.94407E+05 1.30192E+03
 -1       597 4.89508E+03 3.88027E+04-1.85808E+02
 -1       598 4.26429E+03 3.64761E+05-1.64491E+03
 -1       599 2.71468E+03 6.13102E+05-2.76132E+03
 -1       600 5.84830E+02 7.30474E+05-3.29705E+03
 -1       601-1.66071E+03 6.92106E+05-3.14181E+03
 -1       602-3.53173E+03 5.07205E+05-2.33670E+03
 -1       603-4.61820E+03 2.17015E+05-1.06514E+03
 -1       604-4.67870E+03-1.14039E+05 3.87419E+02
 -1       605-3.69201E+03-4.12190E+05 1.69635E+03
 -1       606-1.86012E+03-6.10120E+05 2.56965E+03
 -1       607 4.39937E+02-6.61159E+05 2.81230E+03
 -1       608 2.74867E+03-5.48508E+05 2.36639E+03
 -1       609 4.64574E+03-2.86860E+05 1.31135E+03
 -1       610 5.87510E+03 8.47698E+04-1.86063E+02
 -1       611 6.44345E+03 5.18202E+05-1.96031E+03
 -1       612-2.55329E+03 1.35367E+05 5.01625E+02
 -1       613-3.54756E+03 3.58631E+05 1.50800E+03
 -1       614-3.03342E+03 5.96074E+05 2.64435E+03
 -1       615-1.46862E+03 7.58064E+05 3.43595E+03
 -1       616 6.30577E+02 7.88874E+05 3.61176E+03
 -1       617 2.71704E+03 6.70323E+05 3.09512E+03
 -1       618 4.29188E+03 4.21262E+05 1.97897E+03
 -1       619 4.98853E+03 9.12386E+04 4.92127E+02
 -1       620 4.64067E+03-2.51275E+05-1.05419E+03
 -1       621 3.31346E+03-5.34226E+05-2.33464E+03
 -1       622 1.28710E+03-6.97863E+05-3.08020E+03
 -1       623-1.00509E+03-7.07835E+05-3.13629E+03
 -1       624-3.07118E+03-5.62723E+05-2.49610E+03
 -1       625-4.46752E+03-2.94407E+05-1.30192E+03
 -1       626-4.89508E+03 3.88027E+04 1.85808E+02
 -1       627-4.26429E+03 3.64761E+05 1.64491E+03
 -1       628-2.71468E+03 6.13102E+05 2.76132E+03
 -1       629-5.84830E+02 7.30474E+05 3.29705E+03
 -1       630 1.66071E+03 6.92106E+05 3.14181E+03
 -1       631 3.53173E+03 5.07205E+05 2.33670E+03
 -1       632 4.61820E+03 2.17015E+05 1.06514E+03
 -1       633 4.67870E+03-1.14039E+05-3.87419E+02
 -1       634 3.69201E+03-4.12190E+05-1.69635E+03
 -1       635 1.86012E+03-6.10120E+05-2.56965E+03
 -1       636-4.39937E+02-6.61159E+05-2.81230E+03
 -1       637-2.74867E+03-5.48508E+05-2.36639E+03
 -1       638-4.64574E+03-2.86860E+05-1.31135E+03
 -1       639-5.87510E+03 8.47698E+04 1.86063E+02
 -1       640-6.44345E+03 5.18202E+05 1.96031E+03
 -1       641-2.91247E+03 1.52352E+05 6.17842E-06
 -1       642-4.11234E+03 4.09538E+05-1.58722E-06
 -1       643-3.53603E+03 6.85750E+05-1.01618E-05
 -1       644-1.71856E+03 8.74771E+05-2.46328E-06
 -1       645 7.14462E+02 9.11581E+05 4.19734E-06
 -1       646 3.12803E+03 7.75466E+05 1.32213E-05
 -1       647 4.94803E+03 4.88460E+05 7.33300E-06
 -1       648 5.75331E+03 1.07897E+05 3.23298E-06
 -1       649 5.35341E+03-2.87174E+05 8.09306E-06
 -1       650 3.82414E+03-6.13642E+05 1.07324E-05
 -1       651 1.48882E+03-8.02614E+05-3.18783E-06
 -1       652-1.15305E+03-8.14483E+05-5.62993E-06
 -1       653-3.53460E+03-6.47600E+05-4.67939E-07
 -1       654-5.14473E+03-3.38682E+05-9.23544E-07
 -1       655-5.63897E+03 4.51058E+04-2.02126E-06
 -1       656-4.91423E+03 4.20666E+05 6.74662E-06
 -1       657-3.13129E+03 7.06955E+05 1.09337E-06
 -1       658-6.80172E+02 8.42530E+05 3.52928E-07
 -1       659 1.90409E+03 7.98870E+05 5.86629E-06
 -1       660 4.05709E+03 5.86581E+05 5.05511E-06
 -1       661 5.30709E+03 2.53143E+05-2.13228E-07
 -1       662 5.37693E+03-1.27311E+05-5.39968E-06
 -1       663 4.24372E+03-4.69975E+05-3.95492E-07
 -1       664 2.14234E+03-6.97600E+05-5.65159E-06
 -1       665-4.90493E+02-7.56893E+05-8.09236E-06
 -1       666-3.12466E+03-6.29093E+05-6.31969E-06
 -1       667-5.28166E+03-3.31593E+05-2.33305E-06
 -1       668-6.68647E+03 9.10499E+04-4.36961E-06
 -1       669-7.36344E+03 5.85258E+05 9.32143E-06
 -1       670-2.55329E+03 1.35367E+05-5.01625E+02
 -1       671-3.54756E+03 3.58631E+05-1.50800E+03
 -1       672-3.03342E+03 5.96074E+05-2.64435E+03
 -1       673-1.46862E+03 7.58064E+05-3.43595E+03
 -1       674 6.30577E+02 7.88874E+05-3.61176E+03
 -1       675 2.71704E+03 6.70323E+05-3.09512E+03
 -1       676 4.29188E+03 4.21262E+05-1.97897E+03
 -1       677 4.98853E+03 9.12386E+04-4.92127E+02
 -1       678 4.64067E+03-2.51275E+05 1.05419E+03
 -1       679 3.31346E+03-5.34226E+05 2.33464E+03
 -1       680 1.28710E+03-6.97863E+05 3.08020E+03
 -1       681-1.00509E+03-7.07835E+05 3.13629E+03
 -1       682-3.07118E+03-5.62723E+05 2.49610E+03
 -1       683-4.46752E+03-2.94407E+05 1.30192E+03
 -1       684-4.89508E+03 3.88027E+04-1.85808E+02
 -1       685-4.26429E+03 3.64761E+05-1.64491E+03
 -1       686-2.71468E+03 6.13102E+05-2.76132E+03
 -1       687-5.84830E+02 7.30474E+05-3.29705E+03
 -1       688 1.66071E+03 6.92106E+05-3.14181E+03
 -1       689 3.53173E+03 5.07205E+05-2.33670E+03
 -1       690 4.61820E+03 2.17015E+05-1.06514E+03
 -1       691 4.67870E+03-1.14039E+05 3.87419E+02
 -1       692 3.69201E+03-4.12190E+05 1.69635E+03
 -1       693 1.86012E+03-6.10120E+05 2.56965E+03
 -1       694-4.39937E+02-6.61159E+05 2.81230E+03
 -1       695-2.74867E+03-5.48508E+05 2.36639E+03
 -1       696-4.64574E+03-2.86860E+05 1.31135E+03
 -1       697-5.87510E+03 8.47698E+04-1.86063E+02
 -1       698-6.44345E+03 5.18202E+05-1.96031E+03
 -1       699 2.30897E+04 6.38065E+04 2.63222E+04
 -1       700 3.49121E+04 1.53769E+05 7.01595E+04
 -1       701 3.05656E+04 2.45668E+05 1.17623E+05
 -1       702 1.36655E+04 3.07374E+05 1.50770E+05
 -1       703-1.00192E+04 3.17221E+05 1.58098E+05
 -1       704-3.40415E+04 2.67607E+05 1.35708E+05
 -1       705-5.23097E+04 1.65729E+05 8.72561E+04
 -1       706-6.02856E+04 3.13739E+04 2.25798E+04
 -1       707-5.58639E+04-1.07798E+05-4.47686E+04
 -1       708-3.97569E+04-2.22536E+05-1.00597E+05
 -1       709-1.52936E+04-2.88528E+05-1.33179E+05
 -1       710 1.23319E+04-2.91789E+05-1.35780E+05
 -1       711 3.72042E+04-2.31774E+05-1.08096E+05
 -1       712 5.39809E+04-1.21553E+05-5.63031E+04
 -1       713 5.90570E+04 1.49864E+04 8.28948E+03
 -1       714 5.13528E+04 1.48285E+05 7.16943E+04
 -1       715 3.25531E+04 2.49502E+05 1.20276E+05
 -1       716 6.74897E+03 2.96758E+05 1.43707E+05
 -1       717-2.04398E+04 2.79885E+05 1.37199E+05
 -1       718-4.30700E+04 2.02658E+05 1.02531E+05
 -1       719-5.61454E+04 8.20388E+04 4.76439E+04
 -1       720-5.66755E+04-5.54046E+04-1.51166E+04
 -1       721-4.42883E+04-1.79095E+05-7.17205E+04
 -1       722-2.12616E+04-2.60838E+05-1.09530E+05
 -1       723 8.04124E+03-2.80587E+05-1.20038E+05
 -1       724 3.82135E+04-2.30285E+05-1.00637E+05
 -1       725 6.41176E+04-1.14908E+05-5.50106E+04
 -1       726 8.22262E+04 4.95695E+04 8.05382E+03
 -1       727 9.17363E+04 2.41008E+05 7.79802E+04
 -1       728 2.15336E+04 6.63794E+04 2.60635E+04
 -1       729 3.27092E+04 1.60581E+05 7.01051E+04
 -1       730 2.86443E+04 2.57056E+05 1.17764E+05
 -1       731 1.26988E+04 3.21957E+05 1.51035E+05
 -1       732-9.68064E+03 3.32512E+05 1.58411E+05
 -1       733-3.23974E+04 2.80735E+05 1.35985E+05
 -1       734-4.96777E+04 1.74173E+05 8.74279E+04
 -1       735-5.72125E+04 3.35657E+04 2.26024E+04
 -1       736-5.29967E+04-1.12118E+05-4.49042E+04
 -1       737-3.76995E+04-2.32255E+05-1.00864E+05
 -1       738-1.44760E+04-3.01399E+05-1.33522E+05
 -1       739 1.17458E+04-3.04912E+05-1.36125E+05
 -1       740 3.53514E+04-2.42222E+05-1.08370E+05
 -1       741 5.12687E+04-1.26994E+05-5.64469E+04
 -1       742 5.60750E+04 1.57896E+04 8.30678E+03
 -1       743 4.87446E+04 1.55218E+05 7.18687E+04
 -1       744 3.08770E+04 2.61133E+05 1.20570E+05
 -1       745 6.35715E+03 3.10655E+05 1.44056E+05
 -1       746-1.94774E+04 2.93155E+05 1.37526E+05
 -1       747-4.09799E+04 2.12579E+05 1.02765E+05
 -1       748-5.34008E+04 8.66554E+04 4.77327E+04
 -1       749-5.38912E+04-5.68531E+04-1.51956E+04
 -1       750-4.20859E+04-1.86014E+05-7.19549E+04
 -1       751-2.01334E+04-2.71412E+05-1.09876E+05
 -1       752 7.83704E+03-2.92178E+05-1.20432E+05
 -1       753 3.67038E+04-2.40002E+05-1.01008E+05
 -1       754 6.15980E+04-1.20218E+05-5.53024E+04
 -1       755 7.91676E+04 5.03386E+04 7.87057E+03
 -1       756 8.85687E+04 2.48466E+05 7.78949E+04
 -1       757 2.15336E+04 6.63794E+04-2.60635E+04
 -1       758 3.27092E+04 1.60581E+05-7.01051E+04
 -1       759 2.86443E+04 2.57056E+05-1.17764E+05
 -1       760 1.26988E+04 3.21957E+05-1.51035E+05
 -1       761-9.68064E+03 3.32512E+05-1.58411E+05
 -1       762-3.23974E+04 2.80735E+05-1.35985E+05
 -1       763-4.96777E+04 1.74173E+05-8.74279E+04
 -1       764-5.72125E+04 3.35657E+04-2.26024E+04
 -1       765-5.29967E+04-1.12118E+05 4.49042E+04
 -1       766-3.76995E+04-2.32255E+05 1.00864E+05
 -1       767-1.44760E+04-3.01399E+05 1.33522E+05
 -1       768 1.17458E+04-3.04912E+05 1.36125E+05
 -1       769 3.53514E+04-2.42222E+05 1.08370E+05
 -1       770 5.12687E+04-1.26994E+05 5.64469E+04
 -1       771 5.60750E+04 1.57896E+04-8.30678E+03
 -1       772 4.87446E+04 1.55218E+05-7.18687E+04
 -1       773 3.08770E+04 2.61133E+05-1.20570E+05
 -1       774 6.35715E+03 3.10655E+05-1.44056E+05
 -1       775-1.94774E+04 2.93155E+05-1.37526E+05
 -1       776-4.09799E+04 2.12579E+05-1.02765E+05
 -1       777-5.34008E+04 8.66554E+04-4.77327E+04
 -1       778-5.38912E+04-5.68531E+04 1.51956E+04
 -1       779-4.20859E+04-1.86014E+05 7.19549E+04
 -1       780-2.01334E+04-2.71412E+05 1.09876E+05
 -1       781 7.83704E+03-2.92178E+05 1.20432E+05
 -1       782 3.67038E+04-2.40002E+05 1.01008E+05
 -1       783 6.15980E+04-1.20218E+05 5.53024E+04
 -1       784 7.91676E+04 5.03386E+04-7.87057E+03
 -1       785 8.85687E+04 2.48466E+05-7.78949E+04
 -1       786 2.30897E+04 6.38065E+04-2.63222E+04
 -1       787 3.49121E+04 1.53769E+05-7.01595E+04
 -1       788 3.05656E+04 2.45668E+05-1.17623E+05
 -1       789 1.36655E+04 3.07374E+05-1.50770E+05
 -1       790-1.00192E+04 3.17221E+05-1.58098E+05
 -1       791-3.40415E+04 2.67607E+05-1.35708E+05
 -1       792-5.23097E+04 1.65729E+05-8.72561E+04
 -1       793-6.02856E+04 3.13739E+04-2.25798E+04
 -1       794-5.58639E+04-1.07798E+05 4.47686E+04
 -1       795-3.97569E+04-2.22536E+05 1.00597E+05
 -1       796-1.52936E+04-2.88528E+05 1.33179E+05
 -1       797 1.23319E+04-2.91789E+05 1.35780E+05
 -1       798 3.72042E+04-2.31774E+05 1.08096E+05
 -1       799 5.39809E+04-1.21553E+05 5.63031E+04
 -1       800 5.90570E+04 1.49864E+04-8.28948E+03
 -1       801 5.13528E+04 1.48285E+05-7.16943E+04
 -1       802 3.25531E+04 2.49502E+05-1.20276E+05
 -1       803 6.74897E+03 2.96758E+05-1.43707E+05
 -1       804-2.04398E+04 2.79885E+05-1.37199E+05
 -1       805-4.30700E+04 2.02658E+05-1.02531E+05
 -1       806-5.61454E+04 8.20388E+04-4.76439E+04
 -1       807-5.66755E+04-5.54046E+04 1.51166E+04
 -1       808-4.42883E+04-1.79095E+05 7.17205E+04
 -1       809-2.12616E+04-2.60838E+05 1.09530E+05
 -1       810 8.04124E+03-2.80587E+05 1.20038E+05
 -1       811 3.82135E+04-2.30285E+05 1.00637E+05
 -1       812 6.41176E+04-1.14908E+05 5.50106E+04
 -1       813 8.22262E+04 4.95695E+04-8.05382E+03
 -1       814 9.17363E+04 2.41008E+05-7.79802E+04
 -1       815-2.30897E+04 6.38065E+04-2.63222E+04
 -1       816-3.49121E+04 1.53769E+05-7.01595E+04
 -1       817-3.05656E+04 2.45668E+05-1.17623E+05
 -1       818-1.36655E+04 3.07374E+05-1.50770E+05
 -1       819 1.00192E+04 3.17221E+05-1.58098E+05
 -1       820 3.40415E+04 2.67607E+05-1.35708E+05
 -1       821 5.23097E+04 1.65729E+05-8.72561E+04
 -1       822 6.02856E+04 3.13739E+04-2.25798E+04
 -1       823 5.58639E+04-1.07798E+05 4.47686E+04
 -1       824 3.97569E+04-2.22536E+05 1.00597E+05
 -1       825 1.52936E+04-2.88528E+05 1.33179E+05
 -1       826-1.23319E+04-2.91789E+05 1.35780E+05
 -1       827-3.72042E+04-2.31774E+05 1.08096E+05
 -1       828-5.39809E+04-1.21553E+05 5.63031E+04
 -1       829-5.90570E+04 1.49864E+04-8.28948E+03
 -1       830-5.13528E+04 1.48285E+05-7.16943E+04
 -1       831-3.25531E+04 2.49502E+05-1.20276E+05
 -1       832-6.74897E+03 2.96758E+05-1.43707E+05
 -1       833 2.04398E+04 2.79885E+05-1.37199E+05
 -1       834 4.30700E+04 2.02658E+05-1.02531E+05
 -1       835 5.61454E+04 8.20388E+04-4.76439E+04
 -1       836 5.66755E+04-5.54046E+04 1.51166E+04
 -1       837 4.42883E+04-1.79095E+05 7.17205E+04
 -1       838 2.12616E+04-2.60838E+05 1.09530E+05
 -1       839-8.04124E+03-2.80587E+05 1.20038E+05
 -1       840-3.82135E+04-2.30285E+05 1.00637E+05
 -1       841-6.41176E+04-1.14908E+05 5.50106E+04
 -1       842-8.22262E+04 4.95695E+04-8.05382E+03
 -1       843-9.17363E+04 2.41008E+05-7.79802E+04
 -1       844-2.15336E+04 6.63794E+04-2.60635E+04
 -1       845-3.27092E+04 1.60581E+05-7.01051E+04
 -1       846-2.86443E+04 2.57056E+05-1.17764E+05
 -1       847-1.26988E+04 3.21957E+05-1.51035E+05
 -1       848 9.68064E+03 3.32512E+05-1.58411E+05
 -1       849 3.23974E+04 2.80735E+05-1.35985E+05
 -1       850 4.96777E+04 1.74173E+05-8.74279E+04
 -1       851 5.72125E+04 3.35657E+04-2.26024E+04
 -1       852 5.29967E+04-1.12118E+05 4.49042E+04
 -1       853 3.76995E+04-2.32255E+05 1.00864E+05
 -1       854 1.44760E+04-3.01399E+05 1.33522E+05
 -1       855-1.17458E+04-3.04912E+05 1.36125E+05
 -1       856-3.53514E+04-2.42222E+05 1.08370E+05
 -1       857-5.12687E+04-1.26994E+05 5.64469E+04
 -1       858-5.60750E+04 1.57896E+04-8.30678E+03
 -1       859-4.87446E+04 1.55218E+05-7.18687E+04
 -1       860-3.08770E+04 2.61133E+05-1.20570E+05
 -1       861-6.35715E+03 3.10655E+05-1.44056E+05
 -1       862 1.94774E+04 2.93155E+05-1.37526E+05
 -1       863 4.09799E+04 2.12579E+05-1.02765E+05
 -1       864 5.34008E+04 8.66554E+04-4.77327E+04
 -1       865 5.38912E+04-5.68531E+04 1.51956E+04
 -1       866 4.20859E+04-1.86014E+05 7.19549E+04
 -1       867 2.01334E+04-2.71412E+05 1.09876E+05
 -1       868-7.83704E+03-2.92178E+05 1.20432E+05
 -1       869-3.67038E+04-2.40002E+05 1.01008E+05
 -1       870-6.15980E+04-1.20218E+05 5.53024E+04
 -1       871-7.91676E+04 5.03386E+04-7.87057E+03
 -1       872-8.85687E+04 2.48466E+05-7.78949E+04
 -1       873-9.17363E+04 2.41008E+05 7.79802E+04
 -1       874-8.22262E+04 4.95695E+04 8.05382E+03
 -1       875-6.41176E+04-1.14908E+05-5.50106E+04
 -1       876-3.82135E+04-2.30285E+05-1.00637E+05
 -1       877-8.04124E+03-2.80587E+05-1.20038E+05
 -1       878 2.12616E+04-2.60838E+05-1.09530E+05
 -1       879 4.42883E+04-1.79095E+05-7.17205E+04
 -1       880 5.66755E+04-5.54046E+04-1.51166E+04
 -1       881 5.61454E+04 8.20388E+04 4.76439E+04
 -1       882 4.30700E+04 2.02658E+05 1.02531E+05
 -1       883 2.04398E+04 2.79885E+05 1.37199E+05
 -1       884-6.74897E+03 2.96758E+05 1.43707E+05
 -1       885-3.25531E+04 2.49502E+05 1.20276E+05
 -1       886-5.13528E+04 1.48285E+05 7.16943E+04
 -1       887-5.90570E+04 1.49864E+04 8.28948E+03
 -1       888-5.39809E+04-1.21553E+05-5.63031E+04
 -1       889-3.72042E+04-2.31774E+05-1.08096E+05
 -1       890-1.23319E+04-2.91789E+05-1.35780E+05
 -1       891 1.52936E+04-2.88528E+05-1.33179E+05
 -1       892 3.97569E+04-2.22536E+05-1.00597E+05
 -1       893 5.58639E+04-1.07798E+05-4.47686E+04
 -1       894 6.02856E+04 3.13739E+04 2.25798E+04
 -1       895 5.23097E+04 1.65729E+05 8.72561E+04
 -1       896 3.40415E+04 2.67607E+05 1.35708E+05
 -1       897 1.00192E+04 3.17221E+05 1.58098E+05
 -1       898-1.36655E+04 3.07374E+05 1.50770E+05
 -1       899-3.05656E+04 2.45668E+05 1.17623E+05
 -1       900-3.49121E+04 1.53769E+05 7.01595E+04
 -1       901-2.30897E+04 6.38065E+04 2.63222E+04
 -1       902-2.15336E+04 6.63794E+04 2.60635E+04
 -1       903-3.27092E+04 1.60581E+05 7.01051E+04
 -1       904-2.86443E+04 2.57056E+05 1.17764E+05
 -1       905-1.26988E+04 3.21957E+05 1.51035E+05
 -1       906 9.68064E+03 3.32512E+05 1.58411E+05
 -1       907 3.23974E+04 2.80735E+05 1.35985E+05
 -1       908 4.96777E+04 1.74173E+05 8.74279E+04
 -1       909 5.72125E+04 3.35657E+04 2.26024E+04
 -1       910 5.29967E+04-1.12118E+05-4.49042E+04
 -1       911 3.76995E+04-2.32255E+05-1.00864E+05
 -1       912 1.44760E+04-3.01399E+05-1.33522E+05
 -1       913-1.17458E+04-3.04912E+05-1.36125E+05
 -1       914-3.53514E+04-2.42222E+05-1.08370E+05
 -1       915-5.12687E+04-1.26994E+05-5.64469E+04
 -1       916-5.60750E+04 1.57896E+04 8.30678E+03
 -1       917-4.87446E+04 1.55218E+05 7.18687E+04
 -1       918-3.08770E+04 2.61133E+05 1.20570E+05
 -1       919-6.35715E+03 3.10655E+05 1.44056E+05
 -1       920 1.94774E+04 2.93155E+05 1.37526E+05
 -1       921 4.09799E+04 2.12579E+05 1.02765E+05
 -1       922 5.34008E+04 8.66554E+04 4.77327E+04
 -1       923 5.38912E+04-5.68531E+04-1.51956E+04
 -1       924 4.20859E+04-1.86014E+05-7.19549E+04
 -1       925 2.01334E+04-2.71412E+05-1.09876E+05
 -1       926-7.83704E+03-2.92178E+05-1.20432E+05
 -1       927-3.67038E+04-2.40002E+05-1.01008E+05
 -1       928-6.15980E+04-1.20218E+05-5.53024E+04
 -1       929-7.91676E+04 5.03386E+04 7.87057E+03
 -1       930-8.85687E+04 2.48466E+05 7.78949E+04
 -3
    1PSTEP                        52           1           1          
    1PGM                1.000000E+00                                  
    1PGK                1.866454E+07                                  
    1PHID                         -1                                  
    1PSUBC                         0                                  
    1PMODE                        13                                  
  100CL  113 687.5888427         930                     2   13MODAL      1
 -4  ERROR       1    1
 -5  STR(%)      1    1    0    0
 -1         1 6.92042E+01
 -1         2 6.92042E+01
 -1         3 6.73518E+01
 -1         4 6.73518E+01
 -1         5 6.92042E+01
 -1         6 6.92042E+01
 -1         7 6.73518E+01
 -1         8 6.73518E+01
 -1         9 6.92042E+01
 -1        10 6.31382E+01
 -1        11 4.28520E+01
 -1        12 4.28520E+01
 -1        13 4.33954E+01
 -1        14 4.33954E+01
 -1        15 6.92042E+01
 -1        16 6.31382E+01
 -1        17 4.28520E+01
 -1        18 4.28520E+01
 -1        19 4.33954E+01
 -1        20 4.33954E+01
 -1        21 4.28520E+01
 -1        22 4.28520E+01
 -1        23 4.33954E+01
 -1        24 4.33954E+01
 -1        25 6.92042E+01
 -1        26 6.31382E+01
 -1        27 6.92042E+01
 -1        28 4.28520E+01
 -1        29 4.28520E+01
 -1        30 6.31382E+01
 -1        31 4.33954E+01
 -1        32 4.33954E+01
 -1        33 6.92042E+01
 -1        34 6.09396E+01
 -1        35 6.09396E+01
 -1        36 5.87157E+01
 -1        37 5.30826E+01
 -1        38 5.85868E+01
 -1        39 6.66968E+01
 -1        40 6.66968E+01
 -1        41 6.34726E+01
 -1        42 6.34726E+01
 -1        43 5.50110E+01
 -1        44 5.44511E+01
 -1        45 6.17682E+01
 -1        46 6.17682E+01
 -1        47 6.36754E+01
 -1        48 6.36754E+01
 -1        49 5.96538E+01
 -1        50 5.31516E+01
 -1        51 5.61723E+01
 -1        52 6.37914E+01
 -1        53 6.37914E+01
 -1        54 6.79484E+01
 -1        55 6.79484E+01
 -1        56 5.79616E+01
 -1        57 5.09851E+01
 -1        58 5.50364E+01
 -1        59 6.55889E+01
 -1        60 6.55889E+01
 -1        61 6.73518E+01
 -1        62 6.92042E+01
 -1        63 6.09396E+01
 -1        64 6.09396E+01
 -1        65 5.87157E+01
 -1        66 5.30826E+01
 -1        67 5.85868E+01
 -1        68 6.66968E+01
 -1        69 6.66968E+01
 -1        70 6.34726E+01
 -1        71 6.34726E+01
 -1        72 5.50110E+01
 -1        73 5.44511E+01
 -1        74 6.17682E+01
 -1        75 6.17682E+01
 -1        76 6.36754E+01
 -1        77 6.36754E+01
 -1        78 5.96538E+01
 -1        79 5.31516E+01
 -1        80 5.61723E+01
 -1        81 6.37914E+01
 -1        82 6.37914E+01
 -1        83 6.79484E+01
 -1        84 6.79484E+01
 -1        85 5.79616E+01
 -1        86 5.09851E+01
 -1        87 5.50364E+01
 -1        88 6.55889E+01
 -1        89 6.55889E+01
 -1        90 6.73518E+01
 -1        91 6.67389E+01
 -1        92 4.06559E+01
 -1        93 6.67389E+01
 -1        94 6.67389E+01
 -1        95 4.06559E+01
 -1        96 6.67389E+01
 -1        97 6.92042E+01
 -1        98 6.09396E+01
 -1        99 6.09396E+01
 -1       100 5.87157E+01
 -1       101 5.30826E+01
 -1       102 5.85868E+01
 -1       103 6.66968E+01
 -1       104 6.66968E+01
 -1       105 6.34726E+01
 -1       106 6.34726E+01
 -1       107 5.50110E+01
 -1       108 5.44511E+01
 -1       109 6.17682E+01
 -1       110 6.17682E+01
 -1       111 6.36754E+01
 -1       112 6.36754E+01
 -1       113 5.96538E+01
 -1       114 5.31516E+01
 -1       115 5.61723E+01
 -1       116 6.37914E+01
 -1       117 6.37914E+01
 -1       118 6.79484E+01
 -1       119 6.79484E+01
 -1       120 5.79616E+01
 -1       121 5.09851E+01
 -1       122 5.50364E+01
 -1       123 6.55889E+01
 -1       124 6.55889E+01
 -1       125 6.73518E+01
 -1       126 6.73518E+01
 -1       127 4.66170E+01
 -1       128 6.73518E+01
 -1       129 6.92042E+01
 -1       130 6.09396E+01
 -1       131 6.09396E+01
 -1       132 5.87157E+01
 -1       133 5.30826E+01
 -1       134 5.85868E+01
 -1       135 6.66968E+01
 -1       136 6.66968E+01
 -1       137 6.34726E+01
 -1       138 6.34726E+01
 -1       139 5.50110E+01
 -1       140 5.44511E+01
 -1       141 6.17682E+01
 -1       142 6.17682E+01
 -1       143 6.36754E+01
 -1       144 6.36754E+01
 -1       145 5.96538E+01
 -1       146 5.31516E+01
 -1       147 5.61723E+01
 -1       148 6.37914E+01
 -1       149 6.37914E+01
 -1       150 6.79484E+01
 -1       151 6.79484E+01
 -1       152 5.79616E+01
 -1       153 5.09851E+01
 -1       154 5.50364E+01
 -1       155 6.55889E+01
 -1       156 6.55889E+01
 -1       157 6.73518E+01
 -1       158 6.73518E+01
 -1       159 4.66170E+01
 -1       160 6.73518E+01
 -1       161 6.92042E+01
 -1       162 3.89936E+01
 -1       163 5.29026E+01
 -1       164 5.29026E+01
 -1       165 4.94426E+01
 -1       166 5.52041E+01
 -1       167 5.98835E+01
 -1       168 5.98835E+01
 -1       169 6.34726E+01
 -1       170 6.34726E+01
 -1       171 5.13812E+01
 -1       172 5.17877E+01
 -1       173 6.17682E+01
 -1       174 6.17682E+01
 -1       175 5.88441E+01
 -1       176 5.88441E+01
 -1       177 5.70447E+01
 -1       178 5.15619E+01
 -1       179 5.32965E+01
 -1       180 6.13300E+01
 -1       181 6.13300E+01
 -1       182 6.74761E+01
 -1       183 6.74761E+01
 -1       184 5.79616E+01
 -1       185 5.09851E+01
 -1       186 5.25208E+01
 -1       187 6.55889E+01
 -1       188 6.55889E+01
 -1       189 6.31382E+01
 -1       190 5.33233E+01
 -1       191 5.33233E+01
 -1       192 6.31382E+01
 -1       193 4.28520E+01
 -1       194 4.05312E+01
 -1       195 4.05312E+01
 -1       196 2.82807E+01
 -1       197 2.87160E+01
 -1       198 2.87160E+01
 -1       199 3.51604E+01
 -1       200 5.18562E+01
 -1       201 5.18562E+01
 -1       202 2.82768E+01
 -1       203 2.82768E+01
 -1       204 2.82261E+01
 -1       205 2.82261E+01
 -1       206 4.73086E+01
 -1       207 4.73086E+01
 -1       208 3.65943E+01
 -1       209 2.80655E+01
 -1       210 2.80655E+01
 -1       211 2.80804E+01
 -1       212 2.80804E+01
 -1       213 7.53505E+01
 -1       214 7.53505E+01
 -1       215 2.73759E+01
 -1       216 2.73759E+01
 -1       217 2.69835E+01
 -1       218 2.69835E+01
 -1       219 2.69659E+01
 -1       220 3.40691E+01
 -1       221 4.33954E+01
 -1       222 4.28520E+01
 -1       223 4.05312E+01
 -1       224 4.05312E+01
 -1       225 2.82807E+01
 -1       226 2.87160E+01
 -1       227 2.87160E+01
 -1       228 3.51604E+01
 -1       229 5.18562E+01
 -1       230 5.18562E+01
 -1       231 2.82768E+01
 -1       232 2.82768E+01
 -1       233 2.82261E+01
 -1       234 2.82261E+01
 -1       235 4.73086E+01
 -1       236 4.73086E+01
 -1       237 3.65943E+01
 -1       238 2.80655E+01
 -1       239 2.80655E+01
 -1       240 2.80804E+01
 -1       241 2.80804E+01
 -1       242 7.53505E+01
 -1       243 7.53505E+01
 -1       244 2.73759E+01
 -1       245 2.73759E+01
 -1       246 2.69835E+01
 -1       247 2.69835E+01
 -1       248 2.69659E+01
 -1       249 3.40691E+01
 -1       250 4.33954E+01
 -1       251 6.31382E+01
 -1       252 6.31382E+01
 -1       253 6.55889E+01
 -1       254 6.55889E+01
 -1       255 5.25208E+01
 -1       256 5.09851E+01
 -1       257 5.79616E+01
 -1       258 6.74761E+01
 -1       259 6.74761E+01
 -1       260 6.13300E+01
 -1       261 6.13300E+01
 -1       262 5.32965E+01
 -1       263 5.15619E+01
 -1       264 5.70447E+01
 -1       265 5.88441E+01
 -1       266 5.88441E+01
 -1       267 6.17682E+01
 -1       268 6.17682E+01
 -1       269 5.17877E+01
 -1       270 5.13812E+01
 -1       271 6.34726E+01
 -1       272 6.34726E+01
 -1       273 5.98835E+01
 -1       274 5.98835E+01
 -1       275 5.52041E+01
 -1       276 4.94426E+01
 -1       277 5.29026E+01
 -1       278 5.29026E+01
 -1       279 3.89936E+01
 -1       280 6.92042E+01
 -1       281 5.33233E+01
 -1       282 5.33233E+01
 -1       283 4.28520E+01
 -1       284 4.05312E+01
 -1       285 4.05312E+01
 -1       286 2.82807E+01
 -1       287 2.87160E+01
 -1       288 2.87160E+01
 -1       289 3.51604E+01
 -1       290 5.18562E+01
 -1       291 5.18562E+01
 -1       292 2.82768E+01
 -1       293 2.82768E+01
 -1       294 2.82261E+01
 -1       295 2.82261E+01
 -1       296 4.73086E+01
 -1       297 4.73086E+01
 -1       298 3.65943E+01
 -1       299 2.80655E+01
 -1       300 2.80655E+01
 -1       301 2.80804E+01
 -1       302 2.80804E+01
 -1       303 7.53505E+01
 -1       304 7.53505E+01
 -1       305 2.73759E+01
 -1       306 2.73759E+01
 -1       307 2.69835E+01
 -1       308 2.69835E+01
 -1       309 2.69659E+01
 -1       310 3.40691E+01
 -1       311 4.33954E+01
 -1       312 6.31382E+01
 -1       313 4.28520E+01
 -1       314 4.05312E+01
 -1       315 4.05312E+01
 -1       316 2.82807E+01
 -1       317 2.87160E+01
 -1       318 2.87160E+01
 -1       319 3.51604E+01
 -1       320 5.18562E+01
 -1       321 5.18562E+01
 -1       322 2.82768E+01
 -1       323 2.82768E+01
 -1       324 2.82261E+01
 -1       325 2.82261E+01
 -1       326 4.73086E+01
 -1       327 4.73086E+01
 -1       328 3.65943E+01
 -1       329 2.80655E+01
 -1       330 2.80655E+01
 -1       331 2.80804E+01
 -1       332 2.80804E+01
 -1       333 7.53505E+01
 -1       334 7.53505E+01
 -1       335 2.73759E+01
 -1       336 2.73759E+01
 -1       337 2.69835E+01
 -1       338 2.69835E+01
 -1       339 2.69659E+01
 -1       340 3.40691E+01
 -1       341 4.33954E+01
 -1       342 6.31382E+01
 -1       343 4.28520E+01
 -1       344 4.05312E+01
 -1       345 4.05312E+01
 -1       346 2.82807E+01
 -1       347 2.87160E+01
 -1       348 2.87160E+01
 -1       349 3.51604E+01
 -1       350 5.18562E+01
 -1       351 5.18562E+01
 -1       352 2.82768E+01
 -1       353 2.82768E+01
 -1       354 2.82261E+01
 -1       355 2.82261E+01
 -1       356 4.73086E+01
 -1       357 4.73086E+01
 -1       358 3.65943E+01
 -1       359 2.80655E+01
 -1       360 2.80655E+01
 -1       361 2.80804E+01
 -1       362 2.80804E+01
 -1       363 7.53505E+01
 -1       364 7.53505E+01
 -1       365 2.73759E+01
 -1       366 2.73759E+01
 -1       367 2.69835E+01
 -1       368 2.69835E+01
 -1       369 2.69659E+01
 -1       370 3.40691E+01
 -1       371 4.33954E+01
 -1       372 4.28520E+01
 -1       373 4.05312E+01
 -1       374 4.05312E+01
 -1       375 2.82807E+01
 -1       376 2.87160E+01
 -1       377 2.87160E+01
 -1       378 3.51604E+01
 -1       379 5.18562E+01
 -1       380 5.18562E+01
 -1       381 2.82768E+01
 -1       382 2.82768E+01
 -1       383 2.82261E+01
 -1       384 2.82261E+01
 -1       385 4.73086E+01
 -1       386 4.73086E+01
 -1       387 3.65943E+01
 -1       388 2.80655E+01
 -1       389 2.80655E+01
 -1       390 2.80804E+01
 -1       391 2.80804E+01
 -1       392 7.53505E+01
 -1       393 7.53505E+01
 -1       394 2.73759E+01
 -1       395 2.73759E+01
 -1       396 2.69835E+01
 -1       397 2.69835E+01
 -1       398 2.69659E+01
 -1       399 3.40691E+01
 -1       400 4.33954E+01
 -1       401 5.33233E+01
 -1       402 5.33233E+01
 -1       403 6.31382E+01
 -1       404 6.92042E+01
 -1       405 3.89936E+01
 -1       406 5.29026E+01
 -1       407 5.29026E+01
 -1       408 4.94426E+01
 -1       409 5.52041E+01
 -1       410 5.98835E+01
 -1       411 5.98835E+01
 -1       412 6.34726E+01
 -1       413 6.34726E+01
 -1       414 5.13812E+01
 -1       415 5.17877E+01
 -1       416 6.17682E+01
 -1       417 6.17682E+01
 -1       418 5.88441E+01
 -1       419 5.88441E+01
 -1       420 5.70447E+01
 -1       421 5.15619E+01
 -1       422 5.32965E+01
 -1       423 6.13300E+01
 -1       424 6.13300E+01
 -1       425 6.74761E+01
 -1       426 6.74761E+01
 -1       427 5.79616E+01
 -1       428 5.09851E+01
 -1       429 5.25208E+01
 -1       430 6.55889E+01
 -1       431 6.55889E+01
 -1       432 6.31382E+01
 -1       433 6.31382E+01
 -1       434 5.33233E+01
 -1       435 5.33233E+01
 -1       436 6.31382E+01
 -1       437 6.55889E+01
 -1       438 6.55889E+01
 -1       439 5.25208E+01
 -1       440 5.09851E+01
 -1       441 5.79616E+01
 -1       442 6.74761E+01
 -1       443 6.74761E+01
 -1       444 6.13300E+01
 -1       445 6.13300E+01
 -1       446 5.32965E+01
 -1       447 5.15619E+01
 -1       448 5.70447E+01
 -1       449 5.88441E+01
 -1       450 5.88441E+01
 -1       451 6.17682E+01
 -1       452 6.17682E+01
 -1       453 5.17877E+01
 -1       454 5.13812E+01
 -1       455 6.34726E+01
 -1       456 6.34726E+01
 -1       457 5.98835E+01
 -1       458 5.98835E+01
 -1       459 5.52041E+01
 -1       460 4.94426E+01
 -1       461 5.29026E+01
 -1       462 5.29026E+01
 -1       463 3.89936E+01
 -1       464 6.92042E+01
 -1       465 6.31382E+01
 -1       466 4.28520E+01
 -1       467 4.05312E+01
 -1       468 4.05312E+01
 -1       469 2.82807E+01
 -1       470 2.87160E+01
 -1       471 2.87160E+01
 -1       472 3.51604E+01
 -1       473 5.18562E+01
 -1       474 5.18562E+01
 -1       475 2.82768E+01
 -1       476 2.82768E+01
 -1       477 2.82261E+01
 -1       478 2.82261E+01
 -1       479 4.73086E+01
 -1       480 4.73086E+01
 -1       481 3.65943E+01
 -1       482 2.80655E+01
 -1       483 2.80655E+01
 -1       484 2.80804E+01
 -1       485 2.80804E+01
 -1       486 7.53505E+01
 -1       487 7.53505E+01
 -1       488 2.73759E+01
 -1       489 2.73759E+01
 -1       490 2.69835E+01
 -1       491 2.69835E+01
 -1       492 2.69659E+01
 -1       493 3.40691E+01
 -1       494 4.33954E+01
 -1       495 4.28520E+01
 -1       496 4.05312E+01
 -1       497 4.05312E+01
 -1       498 2.82807E+01
 -1       499 2.87160E+01
 -1       500 2.87160E+01
 -1       501 3.51604E+01
 -1       502 5.18562E+01
 -1       503 5.18562E+01
 -1       504 2.82768E+01
 -1       505 2.82768E+01
 -1       506 2.82261E+01
 -1       507 2.82261E+01
 -1       508 4.73086E+01
 -1       509 4.73086E+01
 -1       510 3.65943E+01
 -1       511 2.80655E+01
 -1       512 2.80655E+01
 -1       513 2.80804E+01
 -1       514 2.80804E+01
 -1       515 7.53505E+01
 -1       516 7.53505E+01
 -1       517 2.73759E+01
 -1       518 2.73759E+01
 -1       519 2.69835E+01
 -1       520 2.69835E+01
 -1       521 2.69659E+01
 -1       522 3.40691E+01
 -1       523 4.33954E+01
 -1       524 6.31382E+01
 -1       525 6.67389E+01
 -1       526 6.09396E+01
 -1       527 6.09396E+01
 -1       528 5.87157E+01
 -1       529 5.30826E+01
 -1       530 5.85868E+01
 -1       531 6.66968E+01
 -1       532 6.70099E+01
 -1       533 6.70099E+01
 -1       534 6.28251E+01
 -1       535 5.50110E+01
 -1       536 5.44511E+01
 -1       537 6.17217E+01
 -1       538 7.41241E+01
 -1       539 7.41241E+01
 -1       540 6.36754E+01
 -1       541 5.96538E+01
 -1       542 5.31516E+01
 -1       543 5.61723E+01
 -1       544 6.37914E+01
 -1       545 6.37914E+01
 -1       546 6.79484E+01
 -1       547 6.79484E+01
 -1       548 5.79169E+01
 -1       549 5.09197E+01
 -1       550 5.50364E+01
 -1       551 6.23073E+01
 -1       552 6.23073E+01
 -1       553 6.73518E+01
 -1       554 4.06559E+01
 -1       555 4.63703E+01
 -1       556 4.63703E+01
 -1       557 3.93157E+01
 -1       558 3.56142E+01
 -1       559 4.11294E+01
 -1       560 5.56386E+01
 -1       561 6.70099E+01
 -1       562 6.70099E+01
 -1       563 4.49855E+01
 -1       564 3.75352E+01
 -1       565 3.68766E+01
 -1       566 4.37086E+01
 -1       567 7.41241E+01
 -1       568 7.41241E+01
 -1       569 6.18371E+01
 -1       570 4.18801E+01
 -1       571 3.58889E+01
 -1       572 3.84318E+01
 -1       573 4.64983E+01
 -1       574 6.31464E+01
 -1       575 6.31464E+01
 -1       576 5.40162E+01
 -1       577 3.95687E+01
 -1       578 3.47590E+01
 -1       579 3.98702E+01
 -1       580 5.02528E+01
 -1       581 5.02528E+01
 -1       582 4.78245E+01
 -1       583 6.67389E+01
 -1       584 6.09396E+01
 -1       585 6.09396E+01
 -1       586 5.87157E+01
 -1       587 5.30826E+01
 -1       588 5.85868E+01
 -1       589 6.66968E+01
 -1       590 6.70099E+01
 -1       591 6.70099E+01
 -1       592 6.28251E+01
 -1       593 5.50110E+01
 -1       594 5.44511E+01
 -1       595 6.17217E+01
 -1       596 7.41241E+01
 -1       597 7.41241E+01
 -1       598 6.36754E+01
 -1       599 5.96538E+01
 -1       600 5.31516E+01
 -1       601 5.61723E+01
 -1       602 6.37914E+01
 -1       603 6.37914E+01
 -1       604 6.79484E+01
 -1       605 6.79484E+01
 -1       606 5.79169E+01
 -1       607 5.09197E+01
 -1       608 5.50364E+01
 -1       609 6.23073E+01
 -1       610 6.23073E+01
 -1       611 6.73518E+01
 -1       612 6.67389E+01
 -1       613 6.09396E+01
 -1       614 6.09396E+01
 -1       615 5.87157E+01
 -1       616 5.30826E+01
 -1       617 5.85868E+01
 -1       618 6.66968E+01
 -1       619 6.70099E+01
 -1       620 6.70099E+01
 -1       621 6.28251E+01
 -1       622 5.50110E+01
 -1       623 5.44511E+01
 -1       624 6.17217E+01
 -1       625 7.41241E+01
 -1       626 7.41241E+01
 -1       627 6.36754E+01
 -1       628 5.96538E+01
 -1       629 5.31516E+01
 -1       630 5.61723E+01
 -1       631 6.37914E+01
 -1       632 6.37914E+01
 -1       633 6.79484E+01
 -1       634 6.79484E+01
 -1       635 5.79169E+01
 -1       636 5.09197E+01
 -1       637 5.50364E+01
 -1       638 6.23073E+01
 -1       639 6.23073E+01
 -1       640 6.73518E+01
 -1       641 4.06559E+01
 -1       642 4.63703E+01
 -1       643 4.63703E+01
 -1       644 3.93157E+01
 -1       645 3.56142E+01
 -1       646 4.11294E+01
 -1       647 5.56386E+01
 -1       648 6.70099E+01
 -1       649 6.70099E+01
 -1       650 4.49855E+01
 -1       651 3.75352E+01
 -1       652 3.68766E+01
 -1       653 4.37086E+01
 -1       654 7.41241E+01
 -1       655 7.41241E+01
 -1       656 6.18371E+01
 -1       657 4.18801E+01
 -1       658 3.58889E+01
 -1       659 3.84318E+01
 -1       660 4.64983E+01
 -1       661 6.31464E+01
 -1       662 6.31464E+01
 -1       663 5.40162E+01
 -1       664 3.95687E+01
 -1       665 3.47590E+01
 -1       666 3.98702E+01
 -1       667 5.02528E+01
 -1       668 5.02528E+01
 -1       669 4.78245E+01
 -1       670 6.67389E+01
 -1       671 6.09396E+01
 -1       672 6.09396E+01
 -1       673 5.87157E+01
 -1       674 5.30826E+01
 -1       675 5.85868E+01
 -1       676 6.66968E+01
 -1       677 6.70099E+01
 -1       678 6.70099E+01
 -1       679 6.28251E+01
 -1       680 5.50110E+01
 -1       681 5.44511E+01
 -1       682 6.17217E+01
 -1       683 7.41241E+01
 -1       684 7.41241E+01
 -1       685 6.36754E+01
 -1       686 5.96538E+01
 -1       687 5.31516E+01
 -1       688 5.61723E+01
 -1       689 6.37914E+01
 -1       690 6.37914E+01
 -1       691 6.79484E+01
 -1       692 6.79484E+01
 -1       693 5.79169E+01
 -1       694 5.09197E+01
 -1       695 5.50364E+01
 -1       696 6.23073E+01
 -1       697 6.23073E+01
 -1       698 6.73518E+01
 -1       699 5.33233E+01
 -1       700 4.05312E+01
 -1       701 5.27041E+01
 -1       702 5.27041E+01
 -1       703 4.94426E+01
 -1       704 5.52041E+01
 -1       705 5.52041E+01
 -1       706 5.18562E+01
 -1       707 5.62926E+01
 -1       708 5.62926E+01
 -1       709 5.13812E+01
 -1       710 5.17877E+01
 -1       711 5.58891E+01
 -1       712 5.58891E+01
 -1       713 4.82861E+01
 -1       714 5.58420E+01
 -1       715 5.58420E+01
 -1       716 5.15619E+01
 -1       717 5.32965E+01
 -1       718 5.32965E+01
 -1       719 7.53505E+01
 -1       720 7.53505E+01
 -1       721 5.49717E+01
 -1       722 5.49717E+01
 -1       723 5.09851E+01
 -1       724 5.25208E+01
 -1       725 5.71470E+01
 -1       726 6.06437E+01
 -1       727 6.31382E+01
 -1       728 5.33233E+01
 -1       729 4.05312E+01
 -1       730 5.27041E+01
 -1       731 5.27041E+01
 -1       732 4.94426E+01
 -1       733 5.52041E+01
 -1       734 5.52041E+01
 -1       735 5.18562E+01
 -1       736 5.62926E+01
 -1       737 5.62926E+01
 -1       738 5.13812E+01
 -1       739 5.17877E+01
 -1       740 5.58891E+01
 -1       741 5.58891E+01
 -1       742 4.82861E+01
 -1       743 5.58420E+01
 -1       744 5.58420E+01
 -1       745 5.15619E+01
 -1       746 5.32965E+01
 -1       747 5.32965E+01
 -1       748 7.53505E+01
 -1       749 7.53505E+01
 -1       750 5.49717E+01
 -1       751 5.49717E+01
 -1       752 5.09851E+01
 -1       753 5.25208E+01
 -1       754 5.71470E+01
 -1       755 6.06437E+01
 -1       756 6.31382E+01
 -1       757 5.33233E+01
 -1       758 4.05312E+01
 -1       759 5.27041E+01
 -1       760 5.27041E+01
 -1       761 4.94426E+01
 -1       762 5.52041E+01
 -1       763 5.52041E+01
 -1       764 5.18562E+01
 -1       765 5.62926E+01
 -1       766 5.62926E+01
 -1       767 5.13812E+01
 -1       768 5.17877E+01
 -1       769 5.58891E+01
 -1       770 5.58891E+01
 -1       771 4.82861E+01
 -1       772 5.58420E+01
 -1       773 5.58420E+01
 -1       774 5.15619E+01
 -1       775 5.32965E+01
 -1       776 5.32965E+01
 -1       777 7.53505E+01
 -1       778 7.53505E+01
 -1       779 5.49717E+01
 -1       780 5.49717E+01
 -1       781 5.09851E+01
 -1       782 5.25208E+01
 -1       783 5.71470E+01
 -1       784 6.06437E+01
 -1       785 6.31382E+01
 -1       786 5.33233E+01
 -1       787 4.05312E+01
 -1       788 5.27041E+01
 -1       789 5.27041E+01
 -1       790 4.94426E+01
 -1       791 5.52041E+01
 -1       792 5.52041E+01
 -1       793 5.18562E+01
 -1       794 5.62926E+01
 -1       795 5.62926E+01
 -1       796 5.13812E+01
 -1       797 5.17877E+01
 -1       798 5.58891E+01
 -1       799 5.58891E+01
 -1       800 4.82861E+01
 -1       801 5.58420E+01
 -1       802 5.58420E+01
 -1       803 5.15619E+01
 -1       804 5.32965E+01
 -1       805 5.32965E+01
 -1       806 7.53505E+01
 -1       807 7.53505E+01
 -1       808 5.49717E+01
 -1       809 5.49717E+01
 -1       810 5.09851E+01
 -1       811 5.25208E+01
 -1       812 5.71470E+01
 -1       813 6.06437E+01
 -1       814 6.31382E+01
 -1       815 5.33233E+01
 -1       816 4.05312E+01
 -1       817 5.27041E+01
 -1       818 5.27041E+01
 -1       819 4.94426E+01
 -1       820 5.52041E+01
 -1       821 5.52041E+01
 -1       822 5.18562E+01
 -1       823 5.62926E+01
 -1       824 5.62926E+01
 -1       825 5.13812E+01
 -1       826 5.17877E+01
 -1       827 5.58891E+01
 -1       828 5.58891E+01
 -1       829 4.82861E+01
 -1       830 5.58420E+01
 -1       831 5.58420E+01
 -1       832 5.15619E+01
 -1       833 5.32965E+01
 -1       834 5.32965E+01
 -1       835 7.53505E+01
 -1       836 7.53505E+01
 -1       837 5.49717E+01
 -1       838 5.49717E+01
 -1       839 5.09851E+01
 -1       840 5.25208E+01
 -1       841 5.71470E+01
 -1       842 6.06437E+01
 -1       843 6.31382E+01
 -1       844 5.33233E+01
 -1       845 4.05312E+01
 -1       846 5.27041E+01
 -1       847 5.27041E+01
 -1       848 4.94426E+01
 -1       849 5.52041E+01
 -1       850 5.52041E+01
 -1       851 5.18562E+01
 -1       852 5.62926E+01
 -1       853 5.62926E+01
 -1       854 5.13812E+01
 -1       855 5.17877E+01
 -1       856 5.58891E+01
 -1       857 5.58891E+01
 -1       858 4.82861E+01
 -1       859 5.58420E+01
 -1       860 5.58420E+01
 -1       861 5.15619E+01
 -1       862 5.32965E+01
 -1       863 5.32965E+01
 -1       864 7.53505E+01
 -1       865 7.53505E+01
 -1       866 5.49717E+01
 -1       867 5.49717E+01
 -1       868 5.09851E+01
 -1       869 5.25208E+01
 -1       870 5.71470E+01
 -1       871 6.06437E+01
 -1       872 6.31382E+01
 -1       873 6.31382E+01
 -1       874 6.06437E+01
 -1       875 5.71470E+01
 -1       876 5.25208E+01
 -1       877 5.09851E+01
 -1       878 5.49717E+01
 -1       879 5.49717E+01
 -1       880 7.53505E+01
 -1       881 7.53505E+01
 -1       882 5.32965E+01
 -1       883 5.32965E+01
 -1       884 5.15619E+01
 -1       885 5.58420E+01
 -1       886 5.58420E+01
 -1       887 4.82861E+01
 -1       888 5.58891E+01
 -1       889 5.58891E+01
 -1       890 5.17877E+01
 -1       891 5.13812E+01
 -1       892 5.62926E+01
 -1       893 5.62926E+01
 -1       894 5.18562E+01
 -1       895 5.52041E+01
 -1       896 5.52041E+01
 -1       897 4.94426E+01
 -1       898 5.27041E+01
 -1       899 5.27041E+01
 -1       900 4.05312E+01
 -1       901 5.33233E+01
 -1       902 5.33233E+01
 -1       903 4.05312E+01
 -1       904 5.27041E+01
 -1       905 5.27041E+01
 -1       906 4.94426E+01
 -1       907 5.52041E+01
 -1       908 5.52041E+01
 -1       909 5.18562E+01
 -1       910 5.62926E+01
 -1       911 5.62926E+01
 -1       912 5.13812E+01
 -1       913 5.17877E+01
 -1       914 5.58891E+01
 -1       915 5.58891E+01
 -1       916 4.82861E+01
 -1       917 5.58420E+01
 -1       918 5.58420E+01
 -1       919 5.15619E+01
 -1       920 5.32965E+01
 -1       921 5.32965E+01
 -1       922 7.53505E+01
 -1       923 7.53505E+01
 -1       924 5.49717E+01
 -1       925 5.49717E+01
 -1       926 5.09851E+01
 -1       927 5.25208E+01
 -1       928 5.71470E+01
 -1       929 6.06437E+01
 -1       930 6.31382E+01
 -3
    1PSTEP                        53           1           1          
    1PGM                1.000000E+00                                  
    1PGK                2.488115E+07                                  
    1PHID                         -1                                  
    1PSUBC                         0                                  
    1PMODE                        14                                  
  100CL  114 793.8809333         930                     2   14MODAL      1
 -4  DISP        4    1
 -5  D1          1    2    1    0
 -5  D2          1    2    2    0
 -5  D3          1    2    3    0
 -5  ALL         1    2    0    0    1ALL
 -1         1 0.00000E+00 0.00000E+00 0.00000E+00
 -1         2 0.00000E+00 0.00000E+00 0.00000E+00
 -1         3-4.04524E-06-3.52976E-02 7.45900E-03
 -1         4 4.04524E-06-3.52976E-02-7.45900E-03
 -1         5 0.00000E+00 0.00000E+00 0.00000E+00
 -1         6 0.00000E+00 0.00000E+00 0.00000E+00
 -1         7-4.04524E-06-3.52976E-02-7.45900E-03
 -1         8 4.04524E-06-3.52976E-02 7.45900E-03
 -1         9 0.00000E+00 0.00000E+00 0.00000E+00
 -1        10 1.83760E-05-6.35759E-02 8.06673E-03
 -1        11 0.00000E+00 0.00000E+00 0.00000E+00
 -1        12 0.00000E+00 0.00000E+00 0.00000E+00
 -1        13-7.32581E-04-6.53373E-02 1.99526E-01
 -1        14-9.95729E-04-3.43939E-02 1.99471E-01
 -1        15 0.00000E+00 0.00000E+00 0.00000E+00
 -1        16 1.83760E-05-6.35759E-02-8.06673E-03
 -1        17 0.00000E+00 0.00000E+00 0.00000E+00
 -1        18 0.00000E+00 0.00000E+00 0.00000E+00
 -1        19-9.95729E-04-3.43939E-02-1.99471E-01
 -1        20-7.32581E-04-6.53373E-02-1.99526E-01
 -1        21 0.00000E+00 0.00000E+00 0.00000E+00
 -1        22 0.00000E+00 0.00000E+00 0.00000E+00
 -1        23 7.32581E-04-6.53373E-02-1.99526E-01
 -1        24 9.95729E-04-3.43939E-02-1.99471E-01
 -1        25 0.00000E+00 0.00000E+00 0.00000E+00
 -1        26-1.83760E-05-6.35759E-02-8.06673E-03
 -1        27 0.00000E+00 0.00000E+00 0.00000E+00
 -1        28 0.00000E+00 0.00000E+00 0.00000E+00
 -1        29 0.00000E+00 0.00000E+00 0.00000E+00
 -1        30-1.83760E-05-6.35759E-02 8.06673E-03
 -1        31 7.32581E-04-6.53373E-02 1.99526E-01
 -1        32 9.95729E-04-3.43939E-02 1.99471E-01
 -1        33 2.40509E-05-2.58172E-04-6.28985E-05
 -1        34 4.49891E-05-9.72642E-04-2.22695E-04
 -1        35 6.13012E-05-2.06270E-03-4.48443E-04
 -1        36 7.33873E-05-3.44554E-03-7.18979E-04
 -1        37 8.12470E-05-5.03248E-03-1.02085E-03
 -1        38 8.51177E-05-6.73208E-03-1.34562E-03
 -1        39 8.57116E-05-8.46262E-03-1.68789E-03
 -1        40 8.40165E-05-1.01614E-02-2.04352E-03
 -1        41 8.12145E-05-1.17920E-02-2.40840E-03
 -1        42 7.84323E-05-1.33470E-02-2.77790E-03
 -1        43 7.65108E-05-1.48434E-02-3.14676E-03
 -1        44 7.58306E-05-1.63134E-02-3.50949E-03
 -1        45 7.62507E-05-1.77917E-02-3.86097E-03
 -1        46 7.71787E-05-1.93027E-02-4.19718E-03
 -1        47 7.77544E-05-2.08511E-02-4.51567E-03
 -1        48 7.71011E-05-2.24185E-02-4.81574E-03
 -1        49 7.45777E-05-2.39658E-02-5.09825E-03
 -1        50 6.99657E-05-2.54427E-02-5.36499E-03
 -1        51 6.35430E-05-2.67991E-02-5.61799E-03
 -1        52 5.60255E-05-2.79977E-02-5.85870E-03
 -1        53 4.83926E-05-2.90232E-02-6.08747E-03
 -1        54 4.16444E-05-2.98861E-02-6.30333E-03
 -1        55 3.65492E-05-3.06195E-02-6.50427E-03
 -1        56 3.34605E-05-3.12709E-02-6.68777E-03
 -1        57 3.22247E-05-3.18896E-02-6.85162E-03
 -1        58 3.22096E-05-3.25134E-02-6.99490E-03
 -1        59 3.32357E-05-3.31635E-02-7.11915E-03
 -1        60 3.20559E-05-3.38385E-02-7.22965E-03
 -1        61 4.33122E-05-3.45636E-02-7.33804E-03
 -1        62-2.40509E-05-2.58172E-04 6.28985E-05
 -1        63-4.49891E-05-9.72642E-04 2.22695E-04
 -1        64-6.13012E-05-2.06270E-03 4.48443E-04
 -1        65-7.33873E-05-3.44554E-03 7.18979E-04
 -1        66-8.12470E-05-5.03248E-03 1.02085E-03
 -1        67-8.51177E-05-6.73208E-03 1.34562E-03
 -1        68-8.57116E-05-8.46262E-03 1.68789E-03
 -1        69-8.40165E-05-1.01614E-02 2.04352E-03
 -1        70-8.12145E-05-1.17920E-02 2.40840E-03
 -1        71-7.84323E-05-1.33470E-02 2.77790E-03
 -1        72-7.65108E-05-1.48434E-02 3.14676E-03
 -1        73-7.58306E-05-1.63134E-02 3.50949E-03
 -1        74-7.62507E-05-1.77917E-02 3.86097E-03
 -1        75-7.71787E-05-1.93027E-02 4.19718E-03
 -1        76-7.77544E-05-2.08511E-02 4.51567E-03
 -1        77-7.71011E-05-2.24185E-02 4.81574E-03
 -1        78-7.45777E-05-2.39658E-02 5.09825E-03
 -1        79-6.99657E-05-2.54427E-02 5.36499E-03
 -1        80-6.35430E-05-2.67991E-02 5.61799E-03
 -1        81-5.60255E-05-2.79977E-02 5.85870E-03
 -1        82-4.83926E-05-2.90232E-02 6.08747E-03
 -1        83-4.16444E-05-2.98861E-02 6.30333E-03
 -1        84-3.65492E-05-3.06195E-02 6.50427E-03
 -1        85-3.34605E-05-3.12709E-02 6.68777E-03
 -1        86-3.22247E-05-3.18896E-02 6.85162E-03
 -1        87-3.22096E-05-3.25134E-02 6.99490E-03
 -1        88-3.32357E-05-3.31635E-02 7.11915E-03
 -1        89-3.20559E-05-3.38385E-02 7.22965E-03
 -1        90-4.33122E-05-3.45636E-02 7.33804E-03
 -1        91 0.00000E+00 0.00000E+00 0.00000E+00
 -1        92 0.00000E+00 0.00000E+00 0.00000E+00
 -1        93 0.00000E+00 0.00000E+00 0.00000E+00
 -1        94 0.00000E+00 0.00000E+00 0.00000E+00
 -1        95 0.00000E+00 0.00000E+00 0.00000E+00
 -1        96 0.00000E+00 0.00000E+00 0.00000E+00
 -1        97-2.40509E-05-2.58172E-04-6.28985E-05
 -1        98-4.49891E-05-9.72642E-04-2.22695E-04
 -1        99-6.13012E-05-2.06270E-03-4.48443E-04
 -1       100-7.33873E-05-3.44554E-03-7.18979E-04
 -1       101-8.12470E-05-5.03248E-03-1.02085E-03
 -1       102-8.51177E-05-6.73208E-03-1.34562E-03
 -1       103-8.57116E-05-8.46262E-03-1.68789E-03
 -1       104-8.40165E-05-1.01614E-02-2.04352E-03
 -1       105-8.12145E-05-1.17920E-02-2.40840E-03
 -1       106-7.84323E-05-1.33470E-02-2.77790E-03
 -1       107-7.65108E-05-1.48434E-02-3.14676E-03
 -1       108-7.58306E-05-1.63134E-02-3.50949E-03
 -1       109-7.62507E-05-1.77917E-02-3.86097E-03
 -1       110-7.71787E-05-1.93027E-02-4.19718E-03
 -1       111-7.77544E-05-2.08511E-02-4.51567E-03
 -1       112-7.71011E-05-2.24185E-02-4.81574E-03
 -1       113-7.45777E-05-2.39658E-02-5.09825E-03
 -1       114-6.99657E-05-2.54427E-02-5.36499E-03
 -1       115-6.35430E-05-2.67991E-02-5.61799E-03
 -1       116-5.60255E-05-2.79977E-02-5.85870E-03
 -1       117-4.83926E-05-2.90232E-02-6.08747E-03
 -1       118-4.16444E-05-2.98861E-02-6.30333E-03
 -1       119-3.65492E-05-3.06195E-02-6.50427E-03
 -1       120-3.34605E-05-3.12709E-02-6.68777E-03
 -1       121-3.22247E-05-3.18896E-02-6.85162E-03
 -1       122-3.22096E-05-3.25134E-02-6.99490E-03
 -1       123-3.32357E-05-3.31635E-02-7.11915E-03
 -1       124-3.20559E-05-3.38385E-02-7.22965E-03
 -1       125-4.33122E-05-3.45636E-02-7.33804E-03
 -1       126 9.12546E-05 9.59343E-02 4.34642E-03
 -1       127 1.49820E-04 1.44442E-01-6.19713E-14
 -1       128 9.12546E-05 9.59343E-02-4.34642E-03
 -1       129 2.40509E-05-2.58172E-04 6.28985E-05
 -1       130 4.49891E-05-9.72642E-04 2.22695E-04
 -1       131 6.13012E-05-2.06270E-03 4.48443E-04
 -1       132 7.33873E-05-3.44554E-03 7.18979E-04
 -1       133 8.12470E-05-5.03248E-03 1.02085E-03
 -1       134 8.51177E-05-6.73208E-03 1.34562E-03
 -1       135 8.57116E-05-8.46262E-03 1.68789E-03
 -1       136 8.40165E-05-1.01614E-02 2.04352E-03
 -1       137 8.12145E-05-1.17920E-02 2.40840E-03
 -1       138 7.84323E-05-1.33470E-02 2.77790E-03
 -1       139 7.65108E-05-1.48434E-02 3.14676E-03
 -1       140 7.58306E-05-1.63134E-02 3.50949E-03
 -1       141 7.62507E-05-1.77917E-02 3.86097E-03
 -1       142 7.71787E-05-1.93027E-02 4.19718E-03
 -1       143 7.77544E-05-2.08511E-02 4.51567E-03
 -1       144 7.71011E-05-2.24185E-02 4.81574E-03
 -1       145 7.45777E-05-2.39658E-02 5.09825E-03
 -1       146 6.99657E-05-2.54427E-02 5.36499E-03
 -1       147 6.35430E-05-2.67991E-02 5.61799E-03
 -1       148 5.60255E-05-2.79977E-02 5.85870E-03
 -1       149 4.83926E-05-2.90232E-02 6.08747E-03
 -1       150 4.16444E-05-2.98861E-02 6.30333E-03
 -1       151 3.65492E-05-3.06195E-02 6.50427E-03
 -1       152 3.34605E-05-3.12709E-02 6.68777E-03
 -1       153 3.22247E-05-3.18896E-02 6.85162E-03
 -1       154 3.22096E-05-3.25134E-02 6.99490E-03
 -1       155 3.32357E-05-3.31635E-02 7.11915E-03
 -1       156 3.20559E-05-3.38385E-02 7.22965E-03
 -1       157 4.33122E-05-3.45636E-02 7.33804E-03
 -1       158-9.12546E-05 9.59343E-02 4.34642E-03
 -1       159-1.49820E-04 1.44442E-01-6.83273E-14
 -1       160-9.12546E-05 9.59343E-02-4.34642E-03
 -1       161-1.44073E-05-5.07536E-04 6.89418E-05
 -1       162-3.23614E-05-1.83530E-03 2.43149E-04
 -1       163-4.61422E-05-3.78507E-03 4.87362E-04
 -1       164-5.65752E-05-6.19631E-03 7.80215E-04
 -1       165-6.34593E-05-8.93178E-03 1.10701E-03
 -1       166-6.68020E-05-1.18683E-02 1.45876E-03
 -1       167-6.72204E-05-1.49025E-02 1.82949E-03
 -1       168-6.56053E-05-1.79549E-02 2.21455E-03
 -1       169-6.30514E-05-2.09729E-02 2.60945E-03
 -1       170-6.06103E-05-2.39314E-02 3.00919E-03
 -1       171-5.90673E-05-2.68281E-02 3.40813E-03
 -1       172-5.87738E-05-2.96752E-02 3.80044E-03
 -1       173-5.95877E-05-3.24889E-02 4.18071E-03
 -1       174-6.09389E-05-3.52788E-02 4.54466E-03
 -1       175-6.20040E-05-3.80408E-02 4.88967E-03
 -1       176-6.19444E-05-4.07533E-02 5.21495E-03
 -1       177-6.01458E-05-4.33800E-02 5.52134E-03
 -1       178-5.63963E-05-4.58763E-02 5.81068E-03
 -1       179-5.09561E-05-4.81989E-02 6.08502E-03
 -1       180-4.45014E-05-5.03154E-02 6.34585E-03
 -1       181-3.79576E-05-5.22113E-02 6.59351E-03
 -1       182-3.22677E-05-5.38936E-02 6.82698E-03
 -1       183-2.81536E-05-5.53885E-02 7.04413E-03
 -1       184-2.59374E-05-5.67351E-02 7.24242E-03
 -1       185-2.55055E-05-5.79769E-02 7.41977E-03
 -1       186-2.61651E-05-5.91520E-02 7.57557E-03
 -1       187-2.82004E-05-6.02886E-02 7.71189E-03
 -1       188-2.62963E-05-6.13970E-02 7.83271E-03
 -1       189-4.26029E-05-6.25072E-02 7.94736E-03
 -1       190 0.00000E+00 0.00000E+00 0.00000E+00
 -1       191 0.00000E+00 0.00000E+00 0.00000E+00
 -1       192-4.54657E-04-6.50865E-02 1.01668E-01
 -1       193-3.57432E-04-6.05401E-04 1.73181E-03
 -1       194-7.31606E-04-1.95005E-03 6.10043E-03
 -1       195-1.03551E-03-3.94065E-03 1.21827E-02
 -1       196-1.26357E-03-6.40399E-03 1.94519E-02
 -1       197-1.41123E-03-9.19958E-03 2.75696E-02
 -1       198-1.48396E-03-1.22038E-02 3.63136E-02
 -1       199-1.49405E-03-1.53124E-02 4.55291E-02
 -1       200-1.46080E-03-1.84448E-02 5.50944E-02
 -1       201-1.40715E-03-2.15476E-02 6.48943E-02
 -1       202-1.35517E-03-2.45941E-02 7.48048E-02
 -1       203-1.32134E-03-2.75800E-02 8.46905E-02
 -1       204-1.31309E-03-3.05152E-02 9.44123E-02
 -1       205-1.32750E-03-3.34138E-02 1.03842E-01
 -1       206-1.35275E-03-3.62840E-02 1.12876E-01
 -1       207-1.37168E-03-3.91204E-02 1.21454E-01
 -1       208-1.36685E-03-4.19018E-02 1.29552E-01
 -1       209-1.32546E-03-4.45925E-02 1.37187E-01
 -1       210-1.24312E-03-4.71492E-02 1.44399E-01
 -1       211-1.12530E-03-4.95298E-02 1.51233E-01
 -1       212-9.86159E-04-5.17029E-02 1.57722E-01
 -1       213-8.45080E-04-5.36544E-02 1.63870E-01
 -1       214-7.21811E-04-5.53908E-02 1.69655E-01
 -1       215-6.31428E-04-5.69372E-02 1.75026E-01
 -1       216-5.80426E-04-5.83315E-02 1.79930E-01
 -1       217-5.65296E-04-5.96165E-02 1.84331E-01
 -1       218-5.74724E-04-6.08309E-02 1.88237E-01
 -1       219-5.97085E-04-6.20029E-02 1.91707E-01
 -1       220-6.29637E-04-6.31467E-02 1.94797E-01
 -1       221-6.94253E-04-6.42678E-02 1.97440E-01
 -1       222-7.82138E-04-3.39984E-04 1.76196E-03
 -1       223-1.43017E-03-1.00278E-03 6.11604E-03
 -1       224-1.91859E-03-2.04870E-03 1.21943E-02
 -1       225-2.27679E-03-3.38377E-03 1.94565E-02
 -1       226-2.51915E-03-4.91957E-03 2.75679E-02
 -1       227-2.66272E-03-6.56666E-03 3.63060E-02
 -1       228-2.72619E-03-8.24492E-03 4.55162E-02
 -1       229-2.73125E-03-9.89288E-03 5.50770E-02
 -1       230-2.70045E-03-1.14750E-02 6.48734E-02
 -1       231-2.65429E-03-1.29838E-02 7.47812E-02
 -1       232-2.60804E-03-1.44359E-02 8.46647E-02
 -1       233-2.56949E-03-1.58628E-02 9.43844E-02
 -1       234-2.53823E-03-1.72984E-02 1.03812E-01
 -1       235-2.50679E-03-1.87664E-02 1.12844E-01
 -1       236-2.46352E-03-2.02716E-02 1.21418E-01
 -1       237-2.39636E-03-2.17959E-02 1.29512E-01
 -1       238-2.29665E-03-2.33012E-02 1.37144E-01
 -1       239-2.16194E-03-2.47381E-02 1.44352E-01
 -1       240-1.99716E-03-2.60578E-02 1.51183E-01
 -1       241-1.81377E-03-2.72237E-02 1.57669E-01
 -1       242-1.62722E-03-2.82210E-02 1.63816E-01
 -1       243-1.45343E-03-2.90600E-02 1.69600E-01
 -1       244-1.30524E-03-2.97732E-02 1.74972E-01
 -1       245-1.18993E-03-3.04070E-02 1.79876E-01
 -1       246-1.10846E-03-3.10091E-02 1.84276E-01
 -1       247-1.05615E-03-3.16161E-02 1.88183E-01
 -1       248-1.02602E-03-3.22475E-02 1.91651E-01
 -1       249-1.00922E-03-3.29074E-02 1.94742E-01
 -1       250-9.98501E-04-3.36306E-02 1.97384E-01
 -1       251-5.60270E-04-3.46608E-02 1.01792E-01
 -1       252-4.26029E-05-6.25072E-02-7.94736E-03
 -1       253-2.62963E-05-6.13970E-02-7.83271E-03
 -1       254-2.82004E-05-6.02886E-02-7.71189E-03
 -1       255-2.61651E-05-5.91520E-02-7.57557E-03
 -1       256-2.55055E-05-5.79769E-02-7.41977E-03
 -1       257-2.59374E-05-5.67351E-02-7.24242E-03
 -1       258-2.81536E-05-5.53885E-02-7.04413E-03
 -1       259-3.22677E-05-5.38936E-02-6.82698E-03
 -1       260-3.79576E-05-5.22113E-02-6.59351E-03
 -1       261-4.45014E-05-5.03154E-02-6.34585E-03
 -1       262-5.09561E-05-4.81989E-02-6.08502E-03
 -1       263-5.63963E-05-4.58763E-02-5.81068E-03
 -1       264-6.01458E-05-4.33800E-02-5.52134E-03
 -1       265-6.19444E-05-4.07533E-02-5.21495E-03
 -1       266-6.20040E-05-3.80408E-02-4.88967E-03
 -1       267-6.09389E-05-3.52788E-02-4.54466E-03
 -1       268-5.95877E-05-3.24889E-02-4.18071E-03
 -1       269-5.87738E-05-2.96752E-02-3.80044E-03
 -1       270-5.90673E-05-2.68281E-02-3.40813E-03
 -1       271-6.06103E-05-2.39314E-02-3.00919E-03
 -1       272-6.30514E-05-2.09729E-02-2.60945E-03
 -1       273-6.56053E-05-1.79549E-02-2.21455E-03
 -1       274-6.72204E-05-1.49025E-02-1.82949E-03
 -1       275-6.68020E-05-1.18683E-02-1.45876E-03
 -1       276-6.34593E-05-8.93178E-03-1.10701E-03
 -1       277-5.65752E-05-6.19631E-03-7.80215E-04
 -1       278-4.61422E-05-3.78507E-03-4.87362E-04
 -1       279-3.23614E-05-1.83530E-03-2.43149E-04
 -1       280-1.44073E-05-5.07536E-04-6.89418E-05
 -1       281 0.00000E+00 0.00000E+00 0.00000E+00
 -1       282 0.00000E+00 0.00000E+00 0.00000E+00
 -1       283-7.82138E-04-3.39984E-04-1.76196E-03
 -1       284-1.43017E-03-1.00278E-03-6.11604E-03
 -1       285-1.91859E-03-2.04870E-03-1.21943E-02
 -1       286-2.27679E-03-3.38377E-03-1.94565E-02
 -1       287-2.51915E-03-4.91957E-03-2.75679E-02
 -1       288-2.66272E-03-6.56666E-03-3.63060E-02
 -1       289-2.72619E-03-8.24492E-03-4.55162E-02
 -1       290-2.73125E-03-9.89288E-03-5.50770E-02
 -1       291-2.70045E-03-1.14750E-02-6.48734E-02
 -1       292-2.65429E-03-1.29838E-02-7.47812E-02
 -1       293-2.60804E-03-1.44359E-02-8.46647E-02
 -1       294-2.56949E-03-1.58628E-02-9.43844E-02
 -1       295-2.53823E-03-1.72984E-02-1.03812E-01
 -1       296-2.50679E-03-1.87664E-02-1.12844E-01
 -1       297-2.46352E-03-2.02716E-02-1.21418E-01
 -1       298-2.39636E-03-2.17959E-02-1.29512E-01
 -1       299-2.29665E-03-2.33012E-02-1.37144E-01
 -1       300-2.16194E-03-2.47381E-02-1.44352E-01
 -1       301-1.99716E-03-2.60578E-02-1.51183E-01
 -1       302-1.81377E-03-2.72237E-02-1.57669E-01
 -1       303-1.62722E-03-2.82210E-02-1.63816E-01
 -1       304-1.45343E-03-2.90600E-02-1.69600E-01
 -1       305-1.30524E-03-2.97732E-02-1.74972E-01
 -1       306-1.18993E-03-3.04070E-02-1.79876E-01
 -1       307-1.10846E-03-3.10091E-02-1.84276E-01
 -1       308-1.05615E-03-3.16161E-02-1.88183E-01
 -1       309-1.02602E-03-3.22475E-02-1.91651E-01
 -1       310-1.00922E-03-3.29074E-02-1.94742E-01
 -1       311-9.98501E-04-3.36306E-02-1.97384E-01
 -1       312-5.60270E-04-3.46608E-02-1.01792E-01
 -1       313-3.57432E-04-6.05401E-04-1.73181E-03
 -1       314-7.31606E-04-1.95005E-03-6.10043E-03
 -1       315-1.03551E-03-3.94065E-03-1.21827E-02
 -1       316-1.26357E-03-6.40399E-03-1.94519E-02
 -1       317-1.41123E-03-9.19958E-03-2.75696E-02
 -1       318-1.48396E-03-1.22038E-02-3.63136E-02
 -1       319-1.49405E-03-1.53124E-02-4.55291E-02
 -1       320-1.46080E-03-1.84448E-02-5.50944E-02
 -1       321-1.40715E-03-2.15476E-02-6.48943E-02
 -1       322-1.35517E-03-2.45941E-02-7.48048E-02
 -1       323-1.32134E-03-2.75800E-02-8.46905E-02
 -1       324-1.31309E-03-3.05152E-02-9.44123E-02
 -1       325-1.32750E-03-3.34138E-02-1.03842E-01
 -1       326-1.35275E-03-3.62840E-02-1.12876E-01
 -1       327-1.37168E-03-3.91204E-02-1.21454E-01
 -1       328-1.36685E-03-4.19018E-02-1.29552E-01
 -1       329-1.32546E-03-4.45925E-02-1.37187E-01
 -1       330-1.24312E-03-4.71492E-02-1.44399E-01
 -1       331-1.12530E-03-4.95298E-02-1.51233E-01
 -1       332-9.86159E-04-5.17029E-02-1.57722E-01
 -1       333-8.45080E-04-5.36544E-02-1.63870E-01
 -1       334-7.21811E-04-5.53908E-02-1.69655E-01
 -1       335-6.31428E-04-5.69372E-02-1.75026E-01
 -1       336-5.80426E-04-5.83315E-02-1.79930E-01
 -1       337-5.65296E-04-5.96165E-02-1.84331E-01
 -1       338-5.74724E-04-6.08309E-02-1.88237E-01
 -1       339-5.97085E-04-6.20029E-02-1.91707E-01
 -1       340-6.29637E-04-6.31467E-02-1.94797E-01
 -1       341-6.94253E-04-6.42678E-02-1.97440E-01
 -1       342-4.54657E-04-6.50865E-02-1.01668E-01
 -1       343 3.57432E-04-6.05401E-04-1.73181E-03
 -1       344 7.31606E-04-1.95005E-03-6.10043E-03
 -1       345 1.03551E-03-3.94065E-03-1.21827E-02
 -1       346 1.26357E-03-6.40399E-03-1.94519E-02
 -1       347 1.41123E-03-9.19958E-03-2.75696E-02
 -1       348 1.48396E-03-1.22038E-02-3.63136E-02
 -1       349 1.49405E-03-1.53124E-02-4.55291E-02
 -1       350 1.46080E-03-1.84448E-02-5.50944E-02
 -1       351 1.40715E-03-2.15476E-02-6.48943E-02
 -1       352 1.35517E-03-2.45941E-02-7.48048E-02
 -1       353 1.32134E-03-2.75800E-02-8.46905E-02
 -1       354 1.31309E-03-3.05152E-02-9.44123E-02
 -1       355 1.32750E-03-3.34138E-02-1.03842E-01
 -1       356 1.35275E-03-3.62840E-02-1.12876E-01
 -1       357 1.37168E-03-3.91204E-02-1.21454E-01
 -1       358 1.36685E-03-4.19018E-02-1.29552E-01
 -1       359 1.32546E-03-4.45925E-02-1.37187E-01
 -1       360 1.24312E-03-4.71492E-02-1.44399E-01
 -1       361 1.12530E-03-4.95298E-02-1.51233E-01
 -1       362 9.86159E-04-5.17029E-02-1.57722E-01
 -1       363 8.45080E-04-5.36544E-02-1.63870E-01
 -1       364 7.21811E-04-5.53908E-02-1.69655E-01
 -1       365 6.31428E-04-5.69372E-02-1.75026E-01
 -1       366 5.80426E-04-5.83315E-02-1.79930E-01
 -1       367 5.65296E-04-5.96165E-02-1.84331E-01
 -1       368 5.74724E-04-6.08309E-02-1.88237E-01
 -1       369 5.97085E-04-6.20029E-02-1.91707E-01
 -1       370 6.29637E-04-6.31467E-02-1.94797E-01
 -1       371 6.94253E-04-6.42678E-02-1.97440E-01
 -1       372 7.82138E-04-3.39984E-04-1.76196E-03
 -1       373 1.43017E-03-1.00278E-03-6.11604E-03
 -1       374 1.91859E-03-2.04870E-03-1.21943E-02
 -1       375 2.27679E-03-3.38377E-03-1.94565E-02
 -1       376 2.51915E-03-4.91957E-03-2.75679E-02
 -1       377 2.66272E-03-6.56666E-03-3.63060E-02
 -1       378 2.72619E-03-8.24492E-03-4.55162E-02
 -1       379 2.73125E-03-9.89288E-03-5.50770E-02
 -1       380 2.70045E-03-1.14750E-02-6.48734E-02
 -1       381 2.65429E-03-1.29838E-02-7.47812E-02
 -1       382 2.60804E-03-1.44359E-02-8.46647E-02
 -1       383 2.56949E-03-1.58628E-02-9.43844E-02
 -1       384 2.53823E-03-1.72984E-02-1.03812E-01
 -1       385 2.50679E-03-1.87664E-02-1.12844E-01
 -1       386 2.46352E-03-2.02716E-02-1.21418E-01
 -1       387 2.39636E-03-2.17959E-02-1.29512E-01
 -1       388 2.29665E-03-2.33012E-02-1.37144E-01
 -1       389 2.16194E-03-2.47381E-02-1.44352E-01
 -1       390 1.99716E-03-2.60578E-02-1.51183E-01
 -1       391 1.81377E-03-2.72237E-02-1.57669E-01
 -1       392 1.62722E-03-2.82210E-02-1.63816E-01
 -1       393 1.45343E-03-2.90600E-02-1.69600E-01
 -1       394 1.30524E-03-2.97732E-02-1.74972E-01
 -1       395 1.18993E-03-3.04070E-02-1.79876E-01
 -1       396 1.10846E-03-3.10091E-02-1.84276E-01
 -1       397 1.05615E-03-3.16161E-02-1.88183E-01
 -1       398 1.02602E-03-3.22475E-02-1.91651E-01
 -1       399 1.00922E-03-3.29074E-02-1.94742E-01
 -1       400 9.98501E-04-3.36306E-02-1.97384E-01
 -1       401 0.00000E+00 0.00000E+00 0.00000E+00
 -1       402 0.00000E+00 0.00000E+00 0.00000E+00
 -1       403 4.54657E-04-6.50865E-02-1.01668E-01
 -1       404 1.44073E-05-5.07536E-04-6.89418E-05
 -1       405 3.23614E-05-1.83530E-03-2.43149E-04
 -1       406 4.61422E-05-3.78507E-03-4.87362E-04
 -1       407 5.65752E-05-6.19631E-03-7.80215E-04
 -1       408 6.34593E-05-8.93178E-03-1.10701E-03
 -1       409 6.68020E-05-1.18683E-02-1.45876E-03
 -1       410 6.72204E-05-1.49025E-02-1.82949E-03
 -1       411 6.56053E-05-1.79549E-02-2.21455E-03
 -1       412 6.30514E-05-2.09729E-02-2.60945E-03
 -1       413 6.06103E-05-2.39314E-02-3.00919E-03
 -1       414 5.90673E-05-2.68281E-02-3.40813E-03
 -1       415 5.87738E-05-2.96752E-02-3.80044E-03
 -1       416 5.95877E-05-3.24889E-02-4.18071E-03
 -1       417 6.09389E-05-3.52788E-02-4.54466E-03
 -1       418 6.20040E-05-3.80408E-02-4.88967E-03
 -1       419 6.19444E-05-4.07533E-02-5.21495E-03
 -1       420 6.01458E-05-4.33800E-02-5.52134E-03
 -1       421 5.63963E-05-4.58763E-02-5.81068E-03
 -1       422 5.09561E-05-4.81989E-02-6.08502E-03
 -1       423 4.45013E-05-5.03154E-02-6.34585E-03
 -1       424 3.79576E-05-5.22113E-02-6.59351E-03
 -1       425 3.22677E-05-5.38936E-02-6.82698E-03
 -1       426 2.81536E-05-5.53885E-02-7.04413E-03
 -1       427 2.59374E-05-5.67351E-02-7.24242E-03
 -1       428 2.55055E-05-5.79769E-02-7.41977E-03
 -1       429 2.61651E-05-5.91520E-02-7.57557E-03
 -1       430 2.82004E-05-6.02886E-02-7.71189E-03
 -1       431 2.62963E-05-6.13970E-02-7.83271E-03
 -1       432 4.26029E-05-6.25072E-02-7.94736E-03
 -1       433 5.60270E-04-3.46608E-02-1.01792E-01
 -1       434 0.00000E+00 0.00000E+00 0.00000E+00
 -1       435 0.00000E+00 0.00000E+00 0.00000E+00
 -1       436 4.26029E-05-6.25072E-02 7.94736E-03
 -1       437 2.62963E-05-6.13970E-02 7.83271E-03
 -1       438 2.82004E-05-6.02886E-02 7.71189E-03
 -1       439 2.61651E-05-5.91520E-02 7.57557E-03
 -1       440 2.55055E-05-5.79769E-02 7.41977E-03
 -1       441 2.59374E-05-5.67351E-02 7.24242E-03
 -1       442 2.81536E-05-5.53885E-02 7.04413E-03
 -1       443 3.22677E-05-5.38936E-02 6.82698E-03
 -1       444 3.79576E-05-5.22113E-02 6.59351E-03
 -1       445 4.45013E-05-5.03154E-02 6.34585E-03
 -1       446 5.09561E-05-4.81989E-02 6.08502E-03
 -1       447 5.63963E-05-4.58763E-02 5.81068E-03
 -1       448 6.01458E-05-4.33800E-02 5.52134E-03
 -1       449 6.19444E-05-4.07533E-02 5.21495E-03
 -1       450 6.20040E-05-3.80408E-02 4.88967E-03
 -1       451 6.09389E-05-3.52788E-02 4.54466E-03
 -1       452 5.95877E-05-3.24889E-02 4.18071E-03
 -1       453 5.87738E-05-2.96752E-02 3.80044E-03
 -1       454 5.90673E-05-2.68281E-02 3.40813E-03
 -1       455 6.06103E-05-2.39314E-02 3.00919E-03
 -1       456 6.30514E-05-2.09729E-02 2.60945E-03
 -1       457 6.56053E-05-1.79549E-02 2.21455E-03
 -1       458 6.72204E-05-1.49025E-02 1.82949E-03
 -1       459 6.68020E-05-1.18683E-02 1.45876E-03
 -1       460 6.34593E-05-8.93178E-03 1.10701E-03
 -1       461 5.65752E-05-6.19631E-03 7.80215E-04
 -1       462 4.61422E-05-3.78507E-03 4.87362E-04
 -1       463 3.23614E-05-1.83530E-03 2.43149E-04
 -1       464 1.44073E-05-5.07536E-04 6.89418E-05
 -1       465 4.54657E-04-6.50865E-02 1.01668E-01
 -1       466 3.57432E-04-6.05401E-04 1.73181E-03
 -1       467 7.31606E-04-1.95005E-03 6.10043E-03
 -1       468 1.03551E-03-3.94065E-03 1.21827E-02
 -1       469 1.26357E-03-6.40399E-03 1.94519E-02
 -1       470 1.41123E-03-9.19958E-03 2.75696E-02
 -1       471 1.48396E-03-1.22038E-02 3.63136E-02
 -1       472 1.49405E-03-1.53124E-02 4.55291E-02
 -1       473 1.46080E-03-1.84448E-02 5.50944E-02
 -1       474 1.40715E-03-2.15476E-02 6.48943E-02
 -1       475 1.35517E-03-2.45941E-02 7.48048E-02
 -1       476 1.32134E-03-2.75800E-02 8.46905E-02
 -1       477 1.31309E-03-3.05152E-02 9.44123E-02
 -1       478 1.32750E-03-3.34138E-02 1.03842E-01
 -1       479 1.35275E-03-3.62840E-02 1.12876E-01
 -1       480 1.37168E-03-3.91204E-02 1.21454E-01
 -1       481 1.36685E-03-4.19018E-02 1.29552E-01
 -1       482 1.32546E-03-4.45925E-02 1.37187E-01
 -1       483 1.24312E-03-4.71492E-02 1.44399E-01
 -1       484 1.12530E-03-4.95298E-02 1.51233E-01
 -1       485 9.86159E-04-5.17029E-02 1.57722E-01
 -1       486 8.45080E-04-5.36544E-02 1.63870E-01
 -1       487 7.21811E-04-5.53908E-02 1.69655E-01
 -1       488 6.31428E-04-5.69372E-02 1.75026E-01
 -1       489 5.80426E-04-5.83315E-02 1.79930E-01
 -1       490 5.65296E-04-5.96165E-02 1.84331E-01
 -1       491 5.74724E-04-6.08309E-02 1.88237E-01
 -1       492 5.97085E-04-6.20029E-02 1.91707E-01
 -1       493 6.29637E-04-6.31467E-02 1.94797E-01
 -1       494 6.94253E-04-6.42678E-02 1.97440E-01
 -1       495 7.82138E-04-3.39984E-04 1.76196E-03
 -1       496 1.43017E-03-1.00278E-03 6.11604E-03
 -1       497 1.91859E-03-2.04870E-03 1.21943E-02
 -1       498 2.27679E-03-3.38377E-03 1.94565E-02
 -1       499 2.51915E-03-4.91957E-03 2.75679E-02
 -1       500 2.66272E-03-6.56666E-03 3.63060E-02
 -1       501 2.72619E-03-8.24492E-03 4.55162E-02
 -1       502 2.73125E-03-9.89288E-03 5.50770E-02
 -1       503 2.70045E-03-1.14750E-02 6.48734E-02
 -1       504 2.65429E-03-1.29838E-02 7.47812E-02
 -1       505 2.60804E-03-1.44359E-02 8.46647E-02
 -1       506 2.56949E-03-1.58628E-02 9.43844E-02
 -1       507 2.53823E-03-1.72984E-02 1.03812E-01
 -1       508 2.50679E-03-1.87664E-02 1.12844E-01
 -1       509 2.46352E-03-2.02716E-02 1.21418E-01
 -1       510 2.39636E-03-2.17959E-02 1.29512E-01
 -1       511 2.29665E-03-2.33012E-02 1.37144E-01
 -1       512 2.16194E-03-2.47381E-02 1.44352E-01
 -1       513 1.99716E-03-2.60578E-02 1.51183E-01
 -1       514 1.81377E-03-2.72237E-02 1.57669E-01
 -1       515 1.62722E-03-2.82210E-02 1.63816E-01
 -1       516 1.45343E-03-2.90600E-02 1.69600E-01
 -1       517 1.30524E-03-2.97732E-02 1.74972E-01
 -1       518 1.18993E-03-3.04070E-02 1.79876E-01
 -1       519 1.10846E-03-3.10091E-02 1.84276E-01
 -1       520 1.05615E-03-3.16161E-02 1.88183E-01
 -1       521 1.02602E-03-3.22475E-02 1.91651E-01
 -1       522 1.00922E-03-3.29074E-02 1.94742E-01
 -1       523 9.98501E-04-3.36306E-02 1.97384E-01
 -1       524 5.60270E-04-3.46608E-02 1.01792E-01
 -1       525 6.64226E-05 8.17572E-04 3.50570E-05
 -1       526 1.10186E-04 2.88875E-03 1.26434E-04
 -1       527 1.37411E-04 5.75700E-03 2.57180E-04
 -1       528 1.54970E-04 9.12418E-03 4.14266E-04
 -1       529 1.68223E-04 1.28341E-02 5.89367E-04
 -1       530 1.80340E-04 1.68294E-02 7.77523E-04
 -1       531 1.92349E-04 2.11003E-02 9.75791E-04
 -1       532 2.03617E-04 2.56401E-02 1.18197E-03
 -1       533 2.12560E-04 3.04151E-02 1.39380E-03
 -1       534 2.17381E-04 3.53513E-02 1.60858E-03
 -1       535 2.16754E-04 4.03373E-02 1.82313E-03
 -1       536 2.10303E-04 4.52417E-02 2.03411E-03
 -1       537 1.98799E-04 4.99372E-02 2.23836E-03
 -1       538 1.84022E-04 5.43265E-02 2.43343E-03
 -1       539 1.68342E-04 5.83613E-02 2.61785E-03
 -1       540 1.54129E-04 6.20487E-02 2.79126E-03
 -1       541 1.43155E-04 6.54444E-02 2.95430E-03
 -1       542 1.36156E-04 6.86340E-02 3.10818E-03
 -1       543 1.32667E-04 7.17058E-02 3.25426E-03
 -1       544 1.31177E-04 7.47249E-02 3.39352E-03
 -1       545 1.29576E-04 7.77137E-02 3.52622E-03
 -1       546 1.25744E-04 8.06445E-02 3.65179E-03
 -1       547 1.18132E-04 8.34468E-02 3.76893E-03
 -1       548 1.06171E-04 8.60247E-02 3.87594E-03
 -1       549 9.04618E-05 8.82825E-02 3.97105E-03
 -1       550 7.29755E-05 9.01534E-02 4.05298E-03
 -1       551 5.80497E-05 9.16394E-02 4.12223E-03
 -1       552 5.09012E-05 9.28629E-02 4.18381E-03
 -1       553 6.48713E-05 9.41228E-02 4.25309E-03
 -1       554 9.70160E-05 1.20395E-03 4.74100E-15
 -1       555 1.62274E-04 4.29310E-03 1.20598E-14
 -1       556 2.04132E-04 8.61970E-03 1.56888E-14
 -1       557 2.31434E-04 1.37401E-02 1.45838E-14
 -1       558 2.51454E-04 1.94037E-02 1.10432E-14
 -1       559 2.68635E-04 2.54980E-02 6.60583E-15
 -1       560 2.84617E-04 3.19804E-02 4.59008E-15
 -1       561 2.98900E-04 3.88202E-02 5.32213E-15
 -1       562 3.09755E-04 4.59587E-02 5.01682E-15
 -1       563 3.15165E-04 5.32915E-02 7.03604E-15
 -1       564 3.13642E-04 6.06720E-02 1.27329E-14
 -1       565 3.04813E-04 6.79307E-02 1.63949E-14
 -1       566 2.89651E-04 7.49053E-02 1.81704E-14
 -1       567 2.70319E-04 8.14709E-02 1.71477E-14
 -1       568 2.49675E-04 8.75625E-02 1.35690E-14
 -1       569 2.30568E-04 9.31834E-02 8.76556E-15
 -1       570 2.15135E-04 9.83966E-02 6.89119E-15
 -1       571 2.04278E-04 1.03302E-01 6.41501E-15
 -1       572 1.97473E-04 1.08002E-01 4.15293E-15
 -1       573 1.92955E-04 1.12574E-01 1.69656E-15
 -1       574 1.88255E-04 1.17043E-01 2.04697E-16
 -1       575 1.80897E-04 1.21375E-01 3.95517E-16
 -1       576 1.69070E-04 1.25485E-01 1.36696E-15
 -1       577 1.52065E-04 1.29258E-01 3.70255E-15
 -1       578 1.30533E-04 1.32576E-01 4.93355E-15
 -1       579 1.06885E-04 1.35359E-01-4.51028E-16
 -1       580 8.61937E-05 1.37611E-01-1.30798E-14
 -1       581 8.02153E-05 1.39516E-01-3.01079E-14
 -1       582 1.00369E-04 1.41575E-01-4.91690E-14
 -1       583 6.64226E-05 8.17572E-04-3.50570E-05
 -1       584 1.10186E-04 2.88875E-03-1.26434E-04
 -1       585 1.37411E-04 5.75700E-03-2.57180E-04
 -1       586 1.54970E-04 9.12418E-03-4.14266E-04
 -1       587 1.68223E-04 1.28341E-02-5.89367E-04
 -1       588 1.80340E-04 1.68294E-02-7.77523E-04
 -1       589 1.92349E-04 2.11003E-02-9.75791E-04
 -1       590 2.03617E-04 2.56401E-02-1.18197E-03
 -1       591 2.12560E-04 3.04151E-02-1.39380E-03
 -1       592 2.17381E-04 3.53513E-02-1.60858E-03
 -1       593 2.16754E-04 4.03373E-02-1.82313E-03
 -1       594 2.10303E-04 4.52417E-02-2.03411E-03
 -1       595 1.98799E-04 4.99372E-02-2.23836E-03
 -1       596 1.84022E-04 5.43265E-02-2.43343E-03
 -1       597 1.68342E-04 5.83613E-02-2.61785E-03
 -1       598 1.54129E-04 6.20487E-02-2.79126E-03
 -1       599 1.43155E-04 6.54444E-02-2.95430E-03
 -1       600 1.36156E-04 6.86340E-02-3.10818E-03
 -1       601 1.32667E-04 7.17058E-02-3.25426E-03
 -1       602 1.31177E-04 7.47249E-02-3.39352E-03
 -1       603 1.29576E-04 7.77137E-02-3.52622E-03
 -1       604 1.25744E-04 8.06445E-02-3.65179E-03
 -1       605 1.18132E-04 8.34468E-02-3.76893E-03
 -1       606 1.06171E-04 8.60247E-02-3.87594E-03
 -1       607 9.04618E-05 8.82825E-02-3.97105E-03
 -1       608 7.29755E-05 9.01534E-02-4.05298E-03
 -1       609 5.80497E-05 9.16394E-02-4.12223E-03
 -1       610 5.09012E-05 9.28629E-02-4.18381E-03
 -1       611 6.48713E-05 9.41228E-02-4.25309E-03
 -1       612-6.64226E-05 8.17572E-04 3.50570E-05
 -1       613-1.10186E-04 2.88875E-03 1.26434E-04
 -1       614-1.37411E-04 5.75700E-03 2.57180E-04
 -1       615-1.54970E-04 9.12418E-03 4.14266E-04
 -1       616-1.68223E-04 1.28341E-02 5.89367E-04
 -1       617-1.80340E-04 1.68294E-02 7.77523E-04
 -1       618-1.92349E-04 2.11003E-02 9.75791E-04
 -1       619-2.03617E-04 2.56401E-02 1.18197E-03
 -1       620-2.12560E-04 3.04151E-02 1.39380E-03
 -1       621-2.17381E-04 3.53513E-02 1.60858E-03
 -1       622-2.16754E-04 4.03373E-02 1.82313E-03
 -1       623-2.10303E-04 4.52417E-02 2.03411E-03
 -1       624-1.98799E-04 4.99372E-02 2.23836E-03
 -1       625-1.84022E-04 5.43265E-02 2.43343E-03
 -1       626-1.68342E-04 5.83613E-02 2.61785E-03
 -1       627-1.54129E-04 6.20487E-02 2.79126E-03
 -1       628-1.43155E-04 6.54444E-02 2.95430E-03
 -1       629-1.36156E-04 6.86340E-02 3.10818E-03
 -1       630-1.32667E-04 7.17058E-02 3.25426E-03
 -1       631-1.31177E-04 7.47249E-02 3.39352E-03
 -1       632-1.29576E-04 7.77137E-02 3.52622E-03
 -1       633-1.25744E-04 8.06445E-02 3.65179E-03
 -1       634-1.18132E-04 8.34468E-02 3.76893E-03
 -1       635-1.06171E-04 8.60247E-02 3.87594E-03
 -1       636-9.04618E-05 8.82825E-02 3.97105E-03
 -1       637-7.29755E-05 9.01534E-02 4.05298E-03
 -1       638-5.80497E-05 9.16394E-02 4.12223E-03
 -1       639-5.09012E-05 9.28629E-02 4.18381E-03
 -1       640-6.48713E-05 9.41228E-02 4.25309E-03
 -1       641-9.70160E-05 1.20395E-03 4.90493E-15
 -1       642-1.62274E-04 4.29310E-03 1.16851E-14
 -1       643-2.04132E-04 8.61970E-03 1.41276E-14
 -1       644-2.31434E-04 1.37401E-02 1.21986E-14
 -1       645-2.51454E-04 1.94037E-02 8.05606E-15
 -1       646-2.68635E-04 2.54980E-02 4.30211E-15
 -1       647-2.84617E-04 3.19804E-02 3.95517E-15
 -1       648-2.98900E-04 3.88202E-02 5.44183E-15
 -1       649-3.09755E-04 4.59587E-02 6.25194E-15
 -1       650-3.15165E-04 5.32915E-02 9.04138E-15
 -1       651-3.13642E-04 6.06720E-02 1.54668E-14
 -1       652-3.04813E-04 6.79307E-02 1.98418E-14
 -1       653-2.89651E-04 7.49053E-02 2.14516E-14
 -1       654-2.70319E-04 8.14709E-02 1.92520E-14
 -1       655-2.49675E-04 8.75625E-02 1.42846E-14
 -1       656-2.30568E-04 9.31834E-02 8.00228E-15
 -1       657-2.15135E-04 9.83966E-02 5.03200E-15
 -1       658-2.04278E-04 1.03302E-01 2.80505E-15
 -1       659-1.97473E-04 1.08002E-01-4.90059E-16
 -1       660-1.92955E-04 1.12574E-01-2.21871E-15
 -1       661-1.88255E-04 1.17043E-01-2.60902E-15
 -1       662-1.80897E-04 1.21375E-01-1.90126E-15
 -1       663-1.69070E-04 1.25485E-01 5.89806E-16
 -1       664-1.52065E-04 1.29258E-01 5.49300E-15
 -1       665-1.30533E-04 1.32576E-01 7.85483E-15
 -1       666-1.06885E-04 1.35359E-01 2.50494E-15
 -1       667-8.61937E-05 1.37611E-01-1.12410E-14
 -1       668-8.02153E-05 1.39516E-01-2.97748E-14
 -1       669-1.00369E-04 1.41575E-01-5.15768E-14
 -1       670-6.64226E-05 8.17572E-04-3.50570E-05
 -1       671-1.10186E-04 2.88875E-03-1.26434E-04
 -1       672-1.37411E-04 5.75700E-03-2.57180E-04
 -1       673-1.54970E-04 9.12418E-03-4.14266E-04
 -1       674-1.68223E-04 1.28341E-02-5.89367E-04
 -1       675-1.80340E-04 1.68294E-02-7.77523E-04
 -1       676-1.92349E-04 2.11003E-02-9.75791E-04
 -1       677-2.03617E-04 2.56401E-02-1.18197E-03
 -1       678-2.12560E-04 3.04151E-02-1.39380E-03
 -1       679-2.17381E-04 3.53513E-02-1.60858E-03
 -1       680-2.16754E-04 4.03373E-02-1.82313E-03
 -1       681-2.10303E-04 4.52417E-02-2.03411E-03
 -1       682-1.98799E-04 4.99372E-02-2.23836E-03
 -1       683-1.84022E-04 5.43265E-02-2.43343E-03
 -1       684-1.68342E-04 5.83613E-02-2.61785E-03
 -1       685-1.54129E-04 6.20487E-02-2.79126E-03
 -1       686-1.43155E-04 6.54444E-02-2.95430E-03
 -1       687-1.36156E-04 6.86340E-02-3.10818E-03
 -1       688-1.32667E-04 7.17058E-02-3.25426E-03
 -1       689-1.31177E-04 7.47249E-02-3.39352E-03
 -1       690-1.29576E-04 7.77137E-02-3.52622E-03
 -1       691-1.25744E-04 8.06445E-02-3.65179E-03
 -1       692-1.18132E-04 8.34468E-02-3.76893E-03
 -1       693-1.06171E-04 8.60247E-02-3.87594E-03
 -1       694-9.04618E-05 8.82825E-02-3.97105E-03
 -1       695-7.29755E-05 9.01534E-02-4.05298E-03
 -1       696-5.80497E-05 9.16394E-02-4.12223E-03
 -1       697-5.09012E-05 9.28629E-02-4.18381E-03
 -1       698-6.48713E-05 9.41228E-02-4.25309E-03
 -1       699-1.59655E-04-5.44815E-04 8.83875E-04
 -1       700-3.60837E-04-1.90233E-03 3.10305E-03
 -1       701-5.15131E-04-3.89392E-03 6.19910E-03
 -1       702-6.32799E-04-6.35738E-03 9.90111E-03
 -1       703-7.09562E-04-9.15144E-03 1.40351E-02
 -1       704-7.47900E-04-1.21522E-02 1.84876E-02
 -1       705-7.54198E-04-1.52550E-02 2.31802E-02
 -1       706-7.38265E-04-1.83791E-02 2.80515E-02
 -1       707-7.11780E-04-2.14712E-02 3.30430E-02
 -1       708-6.85974E-04-2.45051E-02 3.80917E-02
 -1       709-6.69236E-04-2.74773E-02 4.31281E-02
 -1       710-6.65355E-04-3.03987E-02 4.80810E-02
 -1       711-6.72885E-04-3.32845E-02 5.28844E-02
 -1       712-6.85847E-04-3.61435E-02 5.74861E-02
 -1       713-6.95573E-04-3.89708E-02 6.18536E-02
 -1       714-6.93225E-04-4.17449E-02 6.59763E-02
 -1       715-6.72338E-04-4.44296E-02 6.98629E-02
 -1       716-6.30698E-04-4.69807E-02 7.35338E-02
 -1       717-5.71084E-04-4.93554E-02 7.70127E-02
 -1       718-5.00683E-04-5.15215E-02 8.03163E-02
 -1       719-4.29327E-04-5.34646E-02 8.34480E-02
 -1       720-3.67030E-04-5.51916E-02 8.63951E-02
 -1       721-3.21435E-04-5.67282E-02 8.91325E-02
 -1       722-2.95861E-04-5.81130E-02 9.16316E-02
 -1       723-2.88586E-04-5.93895E-02 9.38729E-02
 -1       724-2.94123E-04-6.05969E-02 9.58597E-02
 -1       725-3.06355E-04-6.17627E-02 9.76200E-02
 -1       726-3.26244E-04-6.29012E-02 9.91828E-02
 -1       727-3.44921E-04-6.40179E-02 1.00561E-01
 -1       728-3.87261E-04-2.73204E-04 8.99816E-04
 -1       729-7.36120E-04-9.67392E-04 3.11613E-03
 -1       730-9.90559E-04-2.03127E-03 6.21426E-03
 -1       731-1.17852E-03-3.38668E-03 9.91852E-03
 -1       732-1.30641E-03-4.94281E-03 1.40556E-02
 -1       733-1.38306E-03-6.60986E-03 1.85118E-02
 -1       734-1.41838E-03-8.30691E-03 2.32088E-02
 -1       735-1.42341E-03-9.97199E-03 2.80851E-02
 -1       736-1.40955E-03-1.15693E-02 3.30823E-02
 -1       737-1.38710E-03-1.30916E-02 3.81370E-02
 -1       738-1.36376E-03-1.45560E-02 4.31797E-02
 -1       739-1.34349E-03-1.59946E-02 4.81388E-02
 -1       740-1.32619E-03-1.74421E-02 5.29481E-02
 -1       741-1.30832E-03-1.89228E-02 5.75553E-02
 -1       742-1.28423E-03-2.04415E-02 6.19278E-02
 -1       743-1.24808E-03-2.19799E-02 6.60549E-02
 -1       744-1.19566E-03-2.34994E-02 6.99455E-02
 -1       745-1.12584E-03-2.49499E-02 7.36202E-02
 -1       746-1.04109E-03-2.62817E-02 7.71029E-02
 -1       747-9.47095E-04-2.74577E-02 8.04103E-02
 -1       748-8.51498E-04-2.84628E-02 8.35458E-02
 -1       749-7.62177E-04-2.93075E-02 8.64968E-02
 -1       750-6.85510E-04-3.00248E-02 8.92382E-02
 -1       751-6.25160E-04-3.06617E-02 9.17409E-02
 -1       752-5.81686E-04-3.12668E-02 9.39856E-02
 -1       753-5.53429E-04-3.18775E-02 9.59753E-02
 -1       754-5.36702E-04-3.25124E-02 9.77388E-02
 -1       755-5.29514E-04-3.31790E-02 9.93032E-02
 -1       756-5.25995E-04-3.38931E-02 1.00684E-01
 -1       757-3.87261E-04-2.73204E-04-8.99816E-04
 -1       758-7.36120E-04-9.67392E-04-3.11613E-03
 -1       759-9.90559E-04-2.03127E-03-6.21426E-03
 -1       760-1.17852E-03-3.38668E-03-9.91852E-03
 -1       761-1.30641E-03-4.94281E-03-1.40556E-02
 -1       762-1.38306E-03-6.60986E-03-1.85118E-02
 -1       763-1.41838E-03-8.30691E-03-2.32088E-02
 -1       764-1.42341E-03-9.97199E-03-2.80851E-02
 -1       765-1.40955E-03-1.15693E-02-3.30823E-02
 -1       766-1.38710E-03-1.30916E-02-3.81370E-02
 -1       767-1.36376E-03-1.45560E-02-4.31797E-02
 -1       768-1.34349E-03-1.59946E-02-4.81388E-02
 -1       769-1.32619E-03-1.74421E-02-5.29481E-02
 -1       770-1.30832E-03-1.89228E-02-5.75553E-02
 -1       771-1.28423E-03-2.04415E-02-6.19278E-02
 -1       772-1.24808E-03-2.19799E-02-6.60549E-02
 -1       773-1.19566E-03-2.34994E-02-6.99455E-02
 -1       774-1.12584E-03-2.49499E-02-7.36202E-02
 -1       775-1.04109E-03-2.62817E-02-7.71029E-02
 -1       776-9.47095E-04-2.74577E-02-8.04103E-02
 -1       777-8.51498E-04-2.84628E-02-8.35458E-02
 -1       778-7.62177E-04-2.93075E-02-8.64968E-02
 -1       779-6.85510E-04-3.00248E-02-8.92382E-02
 -1       780-6.25160E-04-3.06617E-02-9.17409E-02
 -1       781-5.81686E-04-3.12668E-02-9.39856E-02
 -1       782-5.53429E-04-3.18775E-02-9.59753E-02
 -1       783-5.36702E-04-3.25124E-02-9.77388E-02
 -1       784-5.29514E-04-3.31790E-02-9.93032E-02
 -1       785-5.25995E-04-3.38931E-02-1.00684E-01
 -1       786-1.59655E-04-5.44815E-04-8.83875E-04
 -1       787-3.60837E-04-1.90233E-03-3.10305E-03
 -1       788-5.15131E-04-3.89392E-03-6.19910E-03
 -1       789-6.32799E-04-6.35738E-03-9.90111E-03
 -1       790-7.09562E-04-9.15144E-03-1.40351E-02
 -1       791-7.47900E-04-1.21522E-02-1.84876E-02
 -1       792-7.54198E-04-1.52550E-02-2.31802E-02
 -1       793-7.38265E-04-1.83791E-02-2.80515E-02
 -1       794-7.11780E-04-2.14712E-02-3.30430E-02
 -1       795-6.85974E-04-2.45051E-02-3.80917E-02
 -1       796-6.69236E-04-2.74773E-02-4.31281E-02
 -1       797-6.65355E-04-3.03987E-02-4.80810E-02
 -1       798-6.72885E-04-3.32845E-02-5.28844E-02
 -1       799-6.85847E-04-3.61435E-02-5.74861E-02
 -1       800-6.95573E-04-3.89708E-02-6.18536E-02
 -1       801-6.93225E-04-4.17449E-02-6.59763E-02
 -1       802-6.72338E-04-4.44296E-02-6.98629E-02
 -1       803-6.30698E-04-4.69807E-02-7.35338E-02
 -1       804-5.71084E-04-4.93554E-02-7.70127E-02
 -1       805-5.00683E-04-5.15215E-02-8.03163E-02
 -1       806-4.29327E-04-5.34646E-02-8.34480E-02
 -1       807-3.67030E-04-5.51916E-02-8.63951E-02
 -1       808-3.21435E-04-5.67282E-02-8.91325E-02
 -1       809-2.95861E-04-5.81130E-02-9.16316E-02
 -1       810-2.88586E-04-5.93895E-02-9.38729E-02
 -1       811-2.94123E-04-6.05969E-02-9.58597E-02
 -1       812-3.06355E-04-6.17627E-02-9.76200E-02
 -1       813-3.26244E-04-6.29012E-02-9.91828E-02
 -1       814-3.44921E-04-6.40179E-02-1.00561E-01
 -1       815 1.59655E-04-5.44815E-04-8.83875E-04
 -1       816 3.60837E-04-1.90233E-03-3.10305E-03
 -1       817 5.15131E-04-3.89392E-03-6.19910E-03
 -1       818 6.32799E-04-6.35738E-03-9.90111E-03
 -1       819 7.09562E-04-9.15144E-03-1.40351E-02
 -1       820 7.47900E-04-1.21522E-02-1.84876E-02
 -1       821 7.54198E-04-1.52550E-02-2.31802E-02
 -1       822 7.38265E-04-1.83791E-02-2.80515E-02
 -1       823 7.11780E-04-2.14712E-02-3.30430E-02
 -1       824 6.85974E-04-2.45051E-02-3.80917E-02
 -1       825 6.69236E-04-2.74773E-02-4.31281E-02
 -1       826 6.65355E-04-3.03987E-02-4.80810E-02
 -1       827 6.72885E-04-3.32845E-02-5.28844E-02
 -1       828 6.85847E-04-3.61435E-02-5.74861E-02
 -1       829 6.95573E-04-3.89708E-02-6.18536E-02
 -1       830 6.93225E-04-4.17449E-02-6.59763E-02
 -1       831 6.72338E-04-4.44296E-02-6.98629E-02
 -1       832 6.30698E-04-4.69807E-02-7.35338E-02
 -1       833 5.71084E-04-4.93554E-02-7.70127E-02
 -1       834 5.00683E-04-5.15215E-02-8.03163E-02
 -1       835 4.29327E-04-5.34646E-02-8.34480E-02
 -1       836 3.67030E-04-5.51916E-02-8.63951E-02
 -1       837 3.21435E-04-5.67282E-02-8.91325E-02
 -1       838 2.95861E-04-5.81130E-02-9.16316E-02
 -1       839 2.88586E-04-5.93895E-02-9.38729E-02
 -1       840 2.94123E-04-6.05969E-02-9.58597E-02
 -1       841 3.06355E-04-6.17627E-02-9.76200E-02
 -1       842 3.26244E-04-6.29012E-02-9.91828E-02
 -1       843 3.44921E-04-6.40179E-02-1.00561E-01
 -1       844 3.87261E-04-2.73204E-04-8.99816E-04
 -1       845 7.36120E-04-9.67392E-04-3.11613E-03
 -1       846 9.90559E-04-2.03127E-03-6.21426E-03
 -1       847 1.17852E-03-3.38668E-03-9.91852E-03
 -1       848 1.30641E-03-4.94281E-03-1.40556E-02
 -1       849 1.38306E-03-6.60986E-03-1.85118E-02
 -1       850 1.41838E-03-8.30691E-03-2.32088E-02
 -1       851 1.42341E-03-9.97199E-03-2.80851E-02
 -1       852 1.40955E-03-1.15693E-02-3.30823E-02
 -1       853 1.38710E-03-1.30916E-02-3.81370E-02
 -1       854 1.36376E-03-1.45560E-02-4.31797E-02
 -1       855 1.34349E-03-1.59946E-02-4.81388E-02
 -1       856 1.32619E-03-1.74421E-02-5.29481E-02
 -1       857 1.30832E-03-1.89228E-02-5.75553E-02
 -1       858 1.28423E-03-2.04415E-02-6.19278E-02
 -1       859 1.24808E-03-2.19799E-02-6.60549E-02
 -1       860 1.19566E-03-2.34994E-02-6.99455E-02
 -1       861 1.12584E-03-2.49499E-02-7.36202E-02
 -1       862 1.04109E-03-2.62817E-02-7.71029E-02
 -1       863 9.47095E-04-2.74577E-02-8.04103E-02
 -1       864 8.51498E-04-2.84628E-02-8.35458E-02
 -1       865 7.62177E-04-2.93075E-02-8.64968E-02
 -1       866 6.85510E-04-3.00248E-02-8.92382E-02
 -1       867 6.25160E-04-3.06617E-02-9.17409E-02
 -1       868 5.81686E-04-3.12668E-02-9.39856E-02
 -1       869 5.53429E-04-3.18775E-02-9.59753E-02
 -1       870 5.36702E-04-3.25124E-02-9.77388E-02
 -1       871 5.29514E-04-3.31790E-02-9.93032E-02
 -1       872 5.25995E-04-3.38931E-02-1.00684E-01
 -1       873 3.44921E-04-6.40179E-02 1.00561E-01
 -1       874 3.26244E-04-6.29012E-02 9.91828E-02
 -1       875 3.06355E-04-6.17627E-02 9.76200E-02
 -1       876 2.94123E-04-6.05969E-02 9.58597E-02
 -1       877 2.88586E-04-5.93895E-02 9.38729E-02
 -1       878 2.95861E-04-5.81130E-02 9.16316E-02
 -1       879 3.21435E-04-5.67282E-02 8.91325E-02
 -1       880 3.67030E-04-5.51916E-02 8.63951E-02
 -1       881 4.29327E-04-5.34646E-02 8.34480E-02
 -1       882 5.00683E-04-5.15215E-02 8.03163E-02
 -1       883 5.71084E-04-4.93554E-02 7.70127E-02
 -1       884 6.30698E-04-4.69807E-02 7.35338E-02
 -1       885 6.72338E-04-4.44296E-02 6.98629E-02
 -1       886 6.93225E-04-4.17449E-02 6.59763E-02
 -1       887 6.95573E-04-3.89708E-02 6.18536E-02
 -1       888 6.85847E-04-3.61435E-02 5.74861E-02
 -1       889 6.72885E-04-3.32845E-02 5.28844E-02
 -1       890 6.65355E-04-3.03987E-02 4.80810E-02
 -1       891 6.69236E-04-2.74773E-02 4.31281E-02
 -1       892 6.85974E-04-2.45051E-02 3.80917E-02
 -1       893 7.11780E-04-2.14712E-02 3.30430E-02
 -1       894 7.38265E-04-1.83791E-02 2.80515E-02
 -1       895 7.54198E-04-1.52550E-02 2.31802E-02
 -1       896 7.47900E-04-1.21522E-02 1.84876E-02
 -1       897 7.09562E-04-9.15144E-03 1.40351E-02
 -1       898 6.32799E-04-6.35738E-03 9.90111E-03
 -1       899 5.15131E-04-3.89392E-03 6.19910E-03
 -1       900 3.60837E-04-1.90233E-03 3.10305E-03
 -1       901 1.59655E-04-5.44815E-04 8.83875E-04
 -1       902 3.87261E-04-2.73204E-04 8.99816E-04
 -1       903 7.36120E-04-9.67392E-04 3.11613E-03
 -1       904 9.90559E-04-2.03127E-03 6.21426E-03
 -1       905 1.17852E-03-3.38668E-03 9.91852E-03
 -1       906 1.30641E-03-4.94281E-03 1.40556E-02
 -1       907 1.38306E-03-6.60986E-03 1.85118E-02
 -1       908 1.41838E-03-8.30691E-03 2.32088E-02
 -1       909 1.42341E-03-9.97199E-03 2.80851E-02
 -1       910 1.40955E-03-1.15693E-02 3.30823E-02
 -1       911 1.38710E-03-1.30916E-02 3.81370E-02
 -1       912 1.36376E-03-1.45560E-02 4.31797E-02
 -1       913 1.34349E-03-1.59946E-02 4.81388E-02
 -1       914 1.32619E-03-1.74421E-02 5.29481E-02
 -1       915 1.30832E-03-1.89228E-02 5.75553E-02
 -1       916 1.28423E-03-2.04415E-02 6.19278E-02
 -1       917 1.24808E-03-2.19799E-02 6.60549E-02
 -1       918 1.19566E-03-2.34994E-02 6.99455E-02
 -1       919 1.12584E-03-2.49499E-02 7.36202E-02
 -1       920 1.04109E-03-2.62817E-02 7.71029E-02
 -1       921 9.47095E-04-2.74577E-02 8.04103E-02
 -1       922 8.51498E-04-2.84628E-02 8.35458E-02
 -1       923 7.62177E-04-2.93075E-02 8.64968E-02
 -1       924 6.85510E-04-3.00248E-02 8.92382E-02
 -1       925 6.25160E-04-3.06617E-02 9.17409E-02
 -1       926 5.81686E-04-3.12668E-02 9.39856E-02
 -1       927 5.53429E-04-3.18775E-02 9.59753E-02
 -1       928 5.36702E-04-3.25124E-02 9.77388E-02
 -1       929 5.29514E-04-3.31790E-02 9.93032E-02
 -1       930 5.25995E-04-3.38931E-02 1.00684E-01
 -3
    1PSTEP                        54           1           1          
    1PGM                1.000000E+00                                  
    1PGK                2.488115E+07                                  
    1PHID                         -1                                  
    1PSUBC                         0                                  
    1PMODE                        14                                  
  100CL  114 793.8809333         930                     2   14MODAL      1
 -4  STRESS      6    1
 -5  SXX         1    4    1    1
 -5  SYY         1    4    2    2
 -5  SZZ         1    4    3    3
 -5  SXY         1    4    1    2
 -5  SYZ         1    4    2    3
 -5  SZX         1    4    3    1
 -1         1-6.79859E+07-2.91379E+07-2.91380E+07-2.08519E+08-1.84843E+03 5.08027E+07
 -1         2 6.79859E+07 2.91379E+07 2.91380E+07-2.08519E+08-1.84843E+03-5.08027E+07
 -1         3-5.47309E+09-6.33675E+09-1.21818E+10-1.92714E+08-1.99456E+09 3.57888E+07
 -1         4 5.47309E+09 6.33675E+09 1.21818E+10-1.92714E+08-1.99456E+09-3.57888E+07
 -1         5-6.79859E+07-2.91379E+07-2.91380E+07-2.08519E+08 1.84843E+03-5.08027E+07
 -1         6 6.79859E+07 2.91379E+07 2.91380E+07-2.08519E+08 1.84843E+03 5.08027E+07
 -1         7-5.47309E+09-6.33675E+09-1.21818E+10-1.92714E+08 1.99456E+09-3.57888E+07
 -1         8 5.47309E+09 6.33675E+09 1.21818E+10-1.92714E+08 1.99456E+09 3.57888E+07
 -1         9-4.07219E+07-1.74537E+07-1.74538E+07-4.09927E+08-2.33725E+03 5.56839E+07
 -1        10-3.14609E+09-3.97333E+08-1.05165E+10-5.89925E+08 5.20918E+09-3.77244E+07
 -1        11-1.01039E+09-4.33034E+08-4.33034E+08-4.88973E+08 6.95087E+01 1.39876E+09
 -1        12-2.21099E+09-9.47576E+08-9.47577E+08-2.74597E+08-2.54845E+01 1.42311E+09
 -1        13 1.02920E+08 1.11020E+09-4.98852E+08-3.39939E+08 6.75730E+08 1.10459E+08
 -1        14-1.24453E+09-2.25516E+09-1.91269E+09 2.04295E+08 1.01311E+09 1.11508E+08
 -1        15-4.07219E+07-1.74537E+07-1.74538E+07-4.09927E+08 2.33725E+03-5.56839E+07
 -1        16-3.14609E+09-3.97333E+08-1.05165E+10-5.89925E+08-5.20918E+09 3.77244E+07
 -1        17-2.21099E+09-9.47576E+08-9.47577E+08-2.74597E+08 2.54845E+01-1.42311E+09
 -1        18-1.01039E+09-4.33034E+08-4.33034E+08-4.88973E+08-6.95087E+01-1.39876E+09
 -1        19-1.24453E+09-2.25516E+09-1.91269E+09 2.04295E+08-1.01311E+09-1.11508E+08
 -1        20 1.02920E+08 1.11020E+09-4.98852E+08-3.39939E+08-6.75730E+08-1.10459E+08
 -1        21 2.21099E+09 9.47576E+08 9.47577E+08-2.74597E+08-2.54845E+01-1.42311E+09
 -1        22 1.01039E+09 4.33034E+08 4.33034E+08-4.88973E+08 6.95087E+01-1.39876E+09
 -1        23-1.02920E+08-1.11020E+09 4.98852E+08-3.39939E+08 6.75730E+08-1.10459E+08
 -1        24 1.24453E+09 2.25516E+09 1.91269E+09 2.04295E+08 1.01311E+09-1.11508E+08
 -1        25 4.07219E+07 1.74537E+07 1.74538E+07-4.09927E+08-2.33725E+03-5.56839E+07
 -1        26 3.14609E+09 3.97333E+08 1.05165E+10-5.89925E+08 5.20918E+09 3.77244E+07
 -1        27 4.07219E+07 1.74537E+07 1.74538E+07-4.09927E+08 2.33725E+03 5.56839E+07
 -1        28 1.01039E+09 4.33034E+08 4.33034E+08-4.88973E+08-6.95087E+01 1.39876E+09
 -1        29 2.21099E+09 9.47576E+08 9.47577E+08-2.74597E+08 2.54845E+01 1.42311E+09
 -1        30 3.14609E+09 3.97333E+08 1.05165E+10-5.89925E+08-5.20918E+09-3.77244E+07
 -1        31-1.02920E+08-1.11020E+09 4.98852E+08-3.39939E+08-6.75730E+08 1.10459E+08
 -1        32 1.24453E+09 2.25516E+09 1.91269E+09 2.04295E+08-1.01311E+09 1.11508E+08
 -1        33 9.76328E+07 4.24096E+07 1.25584E+08 1.36586E+08-8.28288E+06-7.75907E+07
 -1        34 2.21657E+08 1.98171E+08 4.10322E+08 2.68864E+08-5.09988E+07-1.50134E+08
 -1        35 3.85439E+08 4.02001E+08 7.83409E+08 3.52831E+08-1.10751E+08-1.97330E+08
 -1        36 5.81994E+08 6.39848E+08 1.23033E+09 4.14018E+08-1.82648E+08-2.30037E+08
 -1        37 8.03427E+08 9.06643E+08 1.73039E+09 4.59930E+08-2.62153E+08-2.54143E+08
 -1        38 1.04445E+09 1.19443E+09 2.27144E+09 4.96140E+08-3.47146E+08-2.72970E+08
 -1        39 1.30072E+09 1.49728E+09 2.84231E+09 5.25738E+08-4.36666E+08-2.88368E+08
 -1        40 1.56851E+09 1.81011E+09 3.43398E+09 5.49082E+08-5.30170E+08-3.00581E+08
 -1        41 1.84426E+09 2.12862E+09 4.03848E+09 5.65106E+08-6.26830E+08-3.08948E+08
 -1        42 2.12420E+09 2.44893E+09 4.64818E+09 5.72127E+08-7.25389E+08-3.12505E+08
 -1        43 2.40413E+09 2.76740E+09 5.25547E+09 5.68905E+08-8.24163E+08-3.10543E+08
 -1        44 2.67975E+09 3.08056E+09 5.85284E+09 5.55376E+08-9.21263E+08-3.03007E+08
 -1        45 2.94706E+09 3.38531E+09 6.43352E+09 5.32973E+08-1.01489E+09-2.90669E+08
 -1        46 3.20293E+09 3.67914E+09 6.99204E+09 5.04474E+08-1.10366E+09-2.75034E+08
 -1        47 3.44544E+09 3.96027E+09 7.52480E+09 4.73431E+08-1.18680E+09-2.58033E+08
 -1        48 3.67402E+09 4.22772E+09 8.03014E+09 4.43362E+08-1.26426E+09-2.41576E+08
 -1        49 3.88932E+09 4.48123E+09 8.50816E+09 4.16931E+08-1.33659E+09-2.27110E+08
 -1        50 4.09274E+09 4.72099E+09 8.96009E+09 3.95337E+08-1.40475E+09-2.15284E+08
 -1        51 4.28583E+09 4.94738E+09 9.38751E+09 3.78091E+08-1.46972E+09-2.05827E+08
 -1        52 4.46972E+09 5.16060E+09 9.79149E+09 3.63242E+08-1.53226E+09-1.97678E+08
 -1        53 4.64465E+09 5.36050E+09 1.01720E+10 3.47987E+08-1.59259E+09-1.89322E+08
 -1        54 4.80977E+09 5.54640E+09 1.05276E+10 3.29565E+08-1.65040E+09-1.79250E+08
 -1        55 4.96348E+09 5.71746E+09 1.08561E+10 3.06174E+08-1.70483E+09-1.66424E+08
 -1        56 5.10416E+09 5.87321E+09 1.11558E+10 2.77848E+08-1.75457E+09-1.50583E+08
 -1        57 5.23189E+09 6.01559E+09 1.14284E+10 2.47001E+08-1.79810E+09-1.32654E+08
 -1        58 5.34889E+09 6.14713E+09 1.16790E+10 2.16352E+08-1.83295E+09-1.14301E+08
 -1        59 5.45761E+09 6.27598E+09 1.19166E+10 1.97370E+08-1.86174E+09-1.01077E+08
 -1        60 5.56292E+09 6.38355E+09 1.21242E+10 1.48572E+08-1.88229E+09-8.93747E+07
 -1        61 5.57383E+09 6.43905E+09 1.22384E+10 2.56396E+08-1.92986E+09-1.21027E+08
 -1        62-9.76328E+07-4.24096E+07-1.25584E+08 1.36586E+08-8.28288E+06 7.75907E+07
 -1        63-2.21657E+08-1.98171E+08-4.10322E+08 2.68864E+08-5.09988E+07 1.50134E+08
 -1        64-3.85439E+08-4.02001E+08-7.83409E+08 3.52831E+08-1.10751E+08 1.97330E+08
 -1        65-5.81994E+08-6.39848E+08-1.23033E+09 4.14018E+08-1.82648E+08 2.30037E+08
 -1        66-8.03427E+08-9.06643E+08-1.73039E+09 4.59930E+08-2.62153E+08 2.54143E+08
 -1        67-1.04445E+09-1.19443E+09-2.27144E+09 4.96140E+08-3.47146E+08 2.72970E+08
 -1        68-1.30072E+09-1.49728E+09-2.84231E+09 5.25738E+08-4.36666E+08 2.88368E+08
 -1        69-1.56851E+09-1.81011E+09-3.43398E+09 5.49082E+08-5.30170E+08 3.00581E+08
 -1        70-1.84426E+09-2.12862E+09-4.03848E+09 5.65106E+08-6.26830E+08 3.08948E+08
 -1        71-2.12420E+09-2.44893E+09-4.64818E+09 5.72127E+08-7.25389E+08 3.12505E+08
 -1        72-2.40413E+09-2.76740E+09-5.25547E+09 5.68905E+08-8.24163E+08 3.10543E+08
 -1        73-2.67975E+09-3.08056E+09-5.85284E+09 5.55376E+08-9.21263E+08 3.03007E+08
 -1        74-2.94706E+09-3.38531E+09-6.43352E+09 5.32973E+08-1.01489E+09 2.90669E+08
 -1        75-3.20293E+09-3.67914E+09-6.99204E+09 5.04474E+08-1.10366E+09 2.75034E+08
 -1        76-3.44544E+09-3.96027E+09-7.52480E+09 4.73431E+08-1.18680E+09 2.58033E+08
 -1        77-3.67402E+09-4.22772E+09-8.03014E+09 4.43362E+08-1.26426E+09 2.41576E+08
 -1        78-3.88932E+09-4.48123E+09-8.50816E+09 4.16931E+08-1.33659E+09 2.27110E+08
 -1        79-4.09274E+09-4.72099E+09-8.96009E+09 3.95337E+08-1.40475E+09 2.15284E+08
 -1        80-4.28583E+09-4.94738E+09-9.38751E+09 3.78091E+08-1.46972E+09 2.05827E+08
 -1        81-4.46972E+09-5.16060E+09-9.79149E+09 3.63242E+08-1.53226E+09 1.97678E+08
 -1        82-4.64465E+09-5.36050E+09-1.01720E+10 3.47987E+08-1.59259E+09 1.89322E+08
 -1        83-4.80977E+09-5.54640E+09-1.05276E+10 3.29565E+08-1.65040E+09 1.79250E+08
 -1        84-4.96348E+09-5.71746E+09-1.08561E+10 3.06174E+08-1.70483E+09 1.66424E+08
 -1        85-5.10416E+09-5.87321E+09-1.11558E+10 2.77848E+08-1.75457E+09 1.50583E+08
 -1        86-5.23189E+09-6.01559E+09-1.14284E+10 2.47001E+08-1.79810E+09 1.32654E+08
 -1        87-5.34889E+09-6.14713E+09-1.16790E+10 2.16352E+08-1.83295E+09 1.14301E+08
 -1        88-5.45761E+09-6.27598E+09-1.19166E+10 1.97370E+08-1.86174E+09 1.01077E+08
 -1        89-5.56292E+09-6.38355E+09-1.21242E+10 1.48572E+08-1.88229E+09 8.93747E+07
 -1        90-5.57383E+09-6.43905E+09-1.22384E+10 2.56396E+08-1.92986E+09 1.21027E+08
 -1        91 1.87770E+08 8.04728E+07 8.04726E+07 6.60340E+08-2.65388E+02 2.83153E+07
 -1        92 2.74255E+08 1.17538E+08 1.17537E+08 9.72412E+08-3.77186E-07 3.82911E-03
 -1        93 1.87770E+08 8.04728E+07 8.04726E+07 6.60340E+08 2.65388E+02-2.83153E+07
 -1        94-1.87770E+08-8.04728E+07-8.04726E+07 6.60340E+08 2.65388E+02 2.83153E+07
 -1        95-2.74255E+08-1.17538E+08-1.17537E+08 9.72412E+08-3.68804E-07 3.96152E-03
 -1        96-1.87770E+08-8.04728E+07-8.04726E+07 6.60340E+08-2.65388E+02-2.83153E+07
 -1        97-9.76328E+07-4.24096E+07-1.25584E+08 1.36586E+08 8.28288E+06-7.75907E+07
 -1        98-2.21657E+08-1.98171E+08-4.10322E+08 2.68864E+08 5.09988E+07-1.50134E+08
 -1        99-3.85439E+08-4.02001E+08-7.83409E+08 3.52831E+08 1.10751E+08-1.97330E+08
 -1       100-5.81994E+08-6.39848E+08-1.23033E+09 4.14018E+08 1.82648E+08-2.30037E+08
 -1       101-8.03427E+08-9.06643E+08-1.73039E+09 4.59930E+08 2.62153E+08-2.54143E+08
 -1       102-1.04445E+09-1.19443E+09-2.27144E+09 4.96140E+08 3.47146E+08-2.72970E+08
 -1       103-1.30072E+09-1.49728E+09-2.84231E+09 5.25738E+08 4.36666E+08-2.88368E+08
 -1       104-1.56851E+09-1.81011E+09-3.43398E+09 5.49082E+08 5.30170E+08-3.00581E+08
 -1       105-1.84426E+09-2.12862E+09-4.03848E+09 5.65106E+08 6.26830E+08-3.08948E+08
 -1       106-2.12420E+09-2.44893E+09-4.64818E+09 5.72127E+08 7.25389E+08-3.12505E+08
 -1       107-2.40413E+09-2.76740E+09-5.25547E+09 5.68905E+08 8.24163E+08-3.10543E+08
 -1       108-2.67975E+09-3.08056E+09-5.85284E+09 5.55376E+08 9.21263E+08-3.03007E+08
 -1       109-2.94706E+09-3.38531E+09-6.43352E+09 5.32973E+08 1.01489E+09-2.90669E+08
 -1       110-3.20293E+09-3.67914E+09-6.99204E+09 5.04474E+08 1.10366E+09-2.75034E+08
 -1       111-3.44544E+09-3.96027E+09-7.52480E+09 4.73431E+08 1.18680E+09-2.58033E+08
 -1       112-3.67402E+09-4.22772E+09-8.03014E+09 4.43362E+08 1.26426E+09-2.41576E+08
 -1       113-3.88932E+09-4.48123E+09-8.50816E+09 4.16931E+08 1.33659E+09-2.27110E+08
 -1       114-4.09274E+09-4.72099E+09-8.96009E+09 3.95337E+08 1.40475E+09-2.15284E+08
 -1       115-4.28583E+09-4.94738E+09-9.38751E+09 3.78091E+08 1.46972E+09-2.05827E+08
 -1       116-4.46972E+09-5.16060E+09-9.79149E+09 3.63242E+08 1.53226E+09-1.97678E+08
 -1       117-4.64465E+09-5.36050E+09-1.01720E+10 3.47987E+08 1.59259E+09-1.89322E+08
 -1       118-4.80977E+09-5.54640E+09-1.05276E+10 3.29565E+08 1.65040E+09-1.79250E+08
 -1       119-4.96348E+09-5.71746E+09-1.08561E+10 3.06174E+08 1.70483E+09-1.66424E+08
 -1       120-5.10416E+09-5.87321E+09-1.11558E+10 2.77848E+08 1.75457E+09-1.50583E+08
 -1       121-5.23189E+09-6.01559E+09-1.14284E+10 2.47001E+08 1.79810E+09-1.32654E+08
 -1       122-5.34889E+09-6.14713E+09-1.16790E+10 2.16352E+08 1.83295E+09-1.14301E+08
 -1       123-5.45761E+09-6.27598E+09-1.19166E+10 1.97370E+08 1.86174E+09-1.01077E+08
 -1       124-5.56292E+09-6.38355E+09-1.21242E+10 1.48572E+08 1.88229E+09-8.93747E+07
 -1       125-5.57383E+09-6.43905E+09-1.22384E+10 2.56396E+08 1.92986E+09-1.21027E+08
 -1       126-4.77089E+09-4.81351E+09-1.12741E+10-2.50966E+08-3.79958E+09 1.42015E+08
 -1       127-5.50720E+09-5.58708E+09-1.31164E+10-4.98150E+08-4.40216E-03-1.09516E-04
 -1       128-4.77089E+09-4.81351E+09-1.12741E+10-2.50966E+08 3.79958E+09-1.42015E+08
 -1       129 9.76328E+07 4.24096E+07 1.25584E+08 1.36586E+08 8.28288E+06 7.75907E+07
 -1       130 2.21657E+08 1.98171E+08 4.10322E+08 2.68864E+08 5.09988E+07 1.50134E+08
 -1       131 3.85439E+08 4.02001E+08 7.83409E+08 3.52831E+08 1.10751E+08 1.97330E+08
 -1       132 5.81994E+08 6.39848E+08 1.23033E+09 4.14018E+08 1.82648E+08 2.30037E+08
 -1       133 8.03427E+08 9.06643E+08 1.73039E+09 4.59930E+08 2.62153E+08 2.54143E+08
 -1       134 1.04445E+09 1.19443E+09 2.27144E+09 4.96140E+08 3.47146E+08 2.72970E+08
 -1       135 1.30072E+09 1.49728E+09 2.84231E+09 5.25738E+08 4.36666E+08 2.88368E+08
 -1       136 1.56851E+09 1.81011E+09 3.43398E+09 5.49082E+08 5.30170E+08 3.00581E+08
 -1       137 1.84426E+09 2.12862E+09 4.03848E+09 5.65106E+08 6.26830E+08 3.08948E+08
 -1       138 2.12420E+09 2.44893E+09 4.64818E+09 5.72127E+08 7.25389E+08 3.12505E+08
 -1       139 2.40413E+09 2.76740E+09 5.25547E+09 5.68905E+08 8.24163E+08 3.10543E+08
 -1       140 2.67975E+09 3.08056E+09 5.85284E+09 5.55376E+08 9.21263E+08 3.03007E+08
 -1       141 2.94706E+09 3.38531E+09 6.43352E+09 5.32973E+08 1.01489E+09 2.90669E+08
 -1       142 3.20293E+09 3.67914E+09 6.99204E+09 5.04474E+08 1.10366E+09 2.75034E+08
 -1       143 3.44544E+09 3.96027E+09 7.52480E+09 4.73431E+08 1.18680E+09 2.58033E+08
 -1       144 3.67402E+09 4.22772E+09 8.03014E+09 4.43362E+08 1.26426E+09 2.41576E+08
 -1       145 3.88932E+09 4.48123E+09 8.50816E+09 4.16931E+08 1.33659E+09 2.27110E+08
 -1       146 4.09274E+09 4.72099E+09 8.96009E+09 3.95337E+08 1.40475E+09 2.15284E+08
 -1       147 4.28583E+09 4.94738E+09 9.38751E+09 3.78091E+08 1.46972E+09 2.05827E+08
 -1       148 4.46972E+09 5.16060E+09 9.79149E+09 3.63242E+08 1.53226E+09 1.97678E+08
 -1       149 4.64465E+09 5.36050E+09 1.01720E+10 3.47987E+08 1.59259E+09 1.89322E+08
 -1       150 4.80977E+09 5.54640E+09 1.05276E+10 3.29565E+08 1.65040E+09 1.79250E+08
 -1       151 4.96348E+09 5.71746E+09 1.08561E+10 3.06174E+08 1.70483E+09 1.66424E+08
 -1       152 5.10416E+09 5.87321E+09 1.11558E+10 2.77848E+08 1.75457E+09 1.50583E+08
 -1       153 5.23189E+09 6.01559E+09 1.14284E+10 2.47001E+08 1.79810E+09 1.32654E+08
 -1       154 5.34889E+09 6.14713E+09 1.16790E+10 2.16352E+08 1.83295E+09 1.14301E+08
 -1       155 5.45761E+09 6.27598E+09 1.19166E+10 1.97370E+08 1.86174E+09 1.01077E+08
 -1       156 5.56292E+09 6.38355E+09 1.21242E+10 1.48572E+08 1.88229E+09 8.93747E+07
 -1       157 5.57383E+09 6.43905E+09 1.22384E+10 2.56396E+08 1.92986E+09 1.21027E+08
 -1       158 4.77089E+09 4.81351E+09 1.12741E+10-2.50966E+08 3.79958E+09 1.42015E+08
 -1       159 5.50720E+09 5.58708E+09 1.31164E+10-4.98150E+08-4.28391E-03-6.22879E-03
 -1       160 4.77089E+09 4.81351E+09 1.12741E+10-2.50966E+08-3.79958E+09-1.42015E+08
 -1       161-4.72684E+07 4.91319E+07-9.34476E+07-4.68969E+08 7.63842E+07 4.04974E+07
 -1       162-1.33653E+08 1.83153E+07-3.52770E+08-7.10100E+08 1.82229E+08 9.34256E+07
 -1       163-2.29612E+08-4.88454E+06-6.75754E+08-8.85800E+08 3.44439E+08 1.26196E+08
 -1       164-3.46323E+08-2.87356E+07-1.06507E+09-1.00405E+09 5.33833E+08 1.49655E+08
 -1       165-4.77116E+08-5.48126E+07-1.49979E+09-1.08566E+09 7.48007E+08 1.67605E+08
 -1       166-6.19359E+08-8.12102E+07-1.97016E+09-1.14195E+09 9.79838E+08 1.82188E+08
 -1       167-7.70785E+08-1.07457E+08-2.46601E+09-1.17926E+09 1.22480E+09 1.94589E+08
 -1       168-9.29254E+08-1.32949E+08-2.97916E+09-1.20136E+09 1.47871E+09 2.04832E+08
 -1       169-1.09271E+09-1.57353E+08-3.50251E+09-1.21000E+09 1.73808E+09 2.12239E+08
 -1       170-1.25888E+09-1.80631E+08-4.02957E+09-1.20596E+09 1.99961E+09 2.15911E+08
 -1       171-1.42518E+09-2.02978E+08-4.55405E+09-1.18980E+09 2.26006E+09 2.15180E+08
 -1       172-1.58895E+09-2.24727E+08-5.06994E+09-1.16240E+09 2.51631E+09 2.09953E+08
 -1       173-1.74769E+09-2.46227E+08-5.57182E+09-1.12535E+09 2.76553E+09 2.00855E+08
 -1       174-1.89944E+09-2.67718E+08-6.05530E+09-1.08082E+09 3.00545E+09 1.89147E+08
 -1       175-2.04304E+09-2.89242E+08-6.51737E+09-1.03138E+09 3.23454E+09 1.76461E+08
 -1       176-2.17818E+09-3.10609E+08-6.95650E+09-9.79485E+08 3.45205E+09 1.64416E+08
 -1       177-2.30533E+09-3.31425E+08-7.37243E+09-9.27067E+08 3.65796E+09 1.54234E+08
 -1       178-2.42544E+09-3.51178E+08-7.76578E+09-8.75184E+08 3.85267E+09 1.46452E+08
 -1       179-2.53955E+09-3.69360E+08-8.13744E+09-8.23908E+08 4.03676E+09 1.40821E+08
 -1       180-2.64843E+09-3.85582E+08-8.48801E+09-7.72478E+08 4.21061E+09 1.36404E+08
 -1       181-2.75224E+09-3.99666E+08-8.81728E+09-7.19702E+08 4.37415E+09 1.31867E+08
 -1       182-2.85045E+09-4.11668E+08-9.12413E+09-6.64526E+08 4.52684E+09 1.25879E+08
 -1       183-2.94201E+09-4.21900E+08-9.40695E+09-6.06698E+08 4.66775E+09 1.17542E+08
 -1       184-3.02588E+09-4.30754E+08-9.66477E+09-5.47320E+08 4.79651E+09 1.06688E+08
 -1       185-3.10199E+09-4.39103E+08-9.90007E+09-4.88566E+08 4.91345E+09 9.43433E+07
 -1       186-3.17226E+09-4.46500E+08-1.01183E+10-4.35319E+08 5.02334E+09 8.18075E+07
 -1       187-3.23569E+09-4.57112E+08-1.03281E+10-3.79624E+08 5.12297E+09 7.37189E+07
 -1       188-3.30590E+09-4.58976E+08-1.05103E+10-3.66314E+08 5.22211E+09 6.06339E+07
 -1       189-3.26942E+09-4.58023E+08-1.05964E+10-1.94915E+08 5.25928E+09 9.02630E+07
 -1       190-4.51306E+08-1.93422E+08-1.93422E+08-4.40038E+08 2.41214E+02 7.13892E+08
 -1       191-1.09473E+09-4.69174E+08-4.69174E+08-2.20660E+08 1.20229E+02 7.26768E+08
 -1       192 3.28835E+09 6.78556E+09 4.94376E+09-1.55322E+08 1.59023E+09 2.62625E+08
 -1       193-5.92185E+08 2.27097E+08 3.59466E+08-4.14719E+08-1.03326E+07-7.73409E+07
 -1       194-6.83333E+08 4.42207E+07 5.11677E+07-6.48048E+08 1.75727E+07 4.11045E+07
 -1       195-5.15987E+08 8.98127E+07 5.20405E+07-8.17829E+08 4.06286E+07 1.08566E+08
 -1       196-3.58532E+08 1.20640E+08-7.83519E+05-9.34829E+08 6.70615E+07 1.51917E+08
 -1       197-1.90092E+08 1.69396E+08-3.17029E+07-1.01964E+09 9.53928E+07 1.80903E+08
 -1       198-3.94621E+07 2.22146E+08-6.38208E+07-1.08120E+09 1.25793E+08 2.00497E+08
 -1       199 7.91468E+07 2.76965E+08-9.42155E+07-1.12584E+09 1.57917E+08 2.12802E+08
 -1       200 1.52733E+08 3.30293E+08-1.25324E+08-1.15615E+09 1.91578E+08 2.19553E+08
 -1       201 1.77793E+08 3.80511E+08-1.57562E+08-1.17264E+09 2.26440E+08 2.22244E+08
 -1       202 1.61029E+08 4.27307E+08-1.90851E+08-1.17475E+09 2.62037E+08 2.22155E+08
 -1       203 1.18370E+08 4.71637E+08-2.24348E+08-1.16203E+09 2.97744E+08 2.20246E+08
 -1       204 7.10592E+07 5.15215E+08-2.56793E+08-1.13504E+09 3.32857E+08 2.17116E+08
 -1       205 4.02608E+07 5.59877E+08-2.86863E+08-1.09577E+09 3.66701E+08 2.13034E+08
 -1       206 4.16276E+07 6.06947E+08-3.13553E+08-1.04751E+09 3.98753E+08 2.08003E+08
 -1       207 8.12940E+07 6.56783E+08-3.36445E+08-9.94312E+08 4.28727E+08 2.01868E+08
 -1       208 1.54368E+08 7.08597E+08-3.55817E+08-9.40146E+08 4.56608E+08 1.94437E+08
 -1       209 2.46321E+08 7.60595E+08-3.72555E+08-8.88056E+08 4.82619E+08 1.85592E+08
 -1       210 3.36906E+08 8.10401E+08-3.87905E+08-8.39541E+08 5.07129E+08 1.75372E+08
 -1       211 4.05556E+08 8.55647E+08-4.03129E+08-7.94324E+08 5.30526E+08 1.64007E+08
 -1       212 4.36847E+08 8.94562E+08-4.19144E+08-7.50592E+08 5.53095E+08 1.51919E+08
 -1       213 4.24616E+08 9.26442E+08-4.36240E+08-7.05667E+08 5.74914E+08 1.39706E+08
 -1       214 3.73725E+08 9.51883E+08-4.53889E+08-6.56998E+08 5.95814E+08 1.28155E+08
 -1       215 2.99028E+08 9.72775E+08-4.70842E+08-6.03293E+08 6.15419E+08 1.18236E+08
 -1       216 2.21422E+08 9.91791E+08-4.85166E+08-5.45663E+08 6.33282E+08 1.10831E+08
 -1       217 1.60782E+08 1.01205E+09-4.96060E+08-4.87769E+08 6.49281E+08 1.05211E+08
 -1       218 1.25811E+08 1.03338E+09-5.02745E+08-4.34795E+08 6.63622E+08 9.85754E+07
 -1       219 1.03972E+08 1.05373E+09-5.14967E+08-3.87220E+08 6.76740E+08 8.27291E+07
 -1       220 6.14799E+07 1.06538E+09-5.20364E+08-3.42797E+08 6.92619E+08 4.43741E+07
 -1       221 5.15278E+07 1.07660E+09-5.44548E+08-2.26191E+08 6.88373E+08 8.96289E+07
 -1       222-1.56206E+09-1.55211E+08-4.61901E+07 3.39346E+08-3.71152E+07-7.10346E+07
 -1       223-1.36610E+09-3.14822E+08-2.61375E+08 6.18182E+08 1.28108E+07 3.35990E+07
 -1       224-1.04358E+09-2.94116E+08-2.21417E+08 7.87707E+08 4.74039E+07 1.04092E+08
 -1       225-8.16344E+08-3.42239E+08-2.76991E+08 9.10759E+08 9.13166E+07 1.46584E+08
 -1       226-6.25888E+08-4.01781E+08-3.33795E+08 1.00053E+09 1.37039E+08 1.75991E+08
 -1       227-4.83190E+08-4.78806E+08-4.07225E+08 1.06913E+09 1.85750E+08 1.95939E+08
 -1       228-3.88130E+08-5.66492E+08-4.87436E+08 1.12184E+09 2.36160E+08 2.08866E+08
 -1       229-3.43215E+08-6.62246E+08-5.71870E+08 1.16072E+09 2.87717E+08 2.16334E+08
 -1       230-3.45452E+08-7.63213E+08-6.57653E+08 1.18500E+09 3.39809E+08 2.19723E+08
 -1       231-3.86136E+08-8.67205E+08-7.43354E+08 1.19279E+09 3.91916E+08 2.20175E+08
 -1       232-4.51188E+08-9.72324E+08-8.28404E+08 1.18268E+09 4.43527E+08 2.18550E+08
 -1       233-5.23639E+08-1.07694E+09-9.12849E+08 1.15492E+09 4.94153E+08 2.15415E+08
 -1       234-5.87153E+08-1.17968E+09-9.96953E+08 1.11197E+09 5.43350E+08 2.11075E+08
 -1       235-6.29649E+08-1.27945E+09-1.08085E+09 1.05827E+09 5.90750E+08 2.05641E+08
 -1       236-6.45988E+08-1.37548E+09-1.16431E+09 9.99431E+08 6.36091E+08 1.99101E+08
 -1       237-6.38962E+08-1.46733E+09-1.24659E+09 9.40964E+08 6.79222E+08 1.91406E+08
 -1       238-6.18278E+08-1.55483E+09-1.32656E+09 8.87077E+08 7.20089E+08 1.82544E+08
 -1       239-5.97798E+08-1.63801E+09-1.40284E+09 8.39736E+08 7.58705E+08 1.72597E+08
 -1       240-5.91756E+08-1.71697E+09-1.47411E+09 7.98325E+08 7.95108E+08 1.61762E+08
 -1       241-6.10942E+08-1.79183E+09-1.53940E+09 7.59991E+08 8.29313E+08 1.50360E+08
 -1       242-6.59921E+08-1.86258E+09-1.59831E+09 7.20598E+08 8.61274E+08 1.38849E+08
 -1       243-7.36034E+08-1.92920E+09-1.65114E+09 6.76107E+08 8.90865E+08 1.27874E+08
 -1       244-8.30584E+08-1.99175E+09-1.69908E+09 6.24147E+08 9.17927E+08 1.18300E+08
 -1       245-9.31842E+08-2.05091E+09-1.74395E+09 5.65428E+08 9.42314E+08 1.10947E+08
 -1       246-1.02856E+09-2.10790E+09-1.78885E+09 5.04641E+08 9.64496E+08 1.05176E+08
 -1       247-1.11320E+09-2.16518E+09-1.83402E+09 4.47480E+08 9.84686E+08 9.82024E+07
 -1       248-1.18020E+09-2.21683E+09-1.88139E+09 4.00831E+08 1.00501E+09 8.25236E+07
 -1       249-1.22409E+09-2.26999E+09-1.90665E+09 3.45643E+08 1.02358E+09 4.38365E+07
 -1       250-1.23242E+09-2.23277E+09-1.92255E+09 2.90337E+08 1.02855E+09 8.95156E+07
 -1       251-2.65842E+08-1.91389E+09 1.26767E+09 3.14532E+08 1.06974E+09 2.62478E+08
 -1       252-3.26942E+09-4.58023E+08-1.05964E+10-1.94915E+08-5.25928E+09-9.02630E+07
 -1       253-3.30590E+09-4.58976E+08-1.05103E+10-3.66314E+08-5.22211E+09-6.06339E+07
 -1       254-3.23569E+09-4.57112E+08-1.03281E+10-3.79624E+08-5.12297E+09-7.37189E+07
 -1       255-3.17226E+09-4.46500E+08-1.01183E+10-4.35319E+08-5.02334E+09-8.18075E+07
 -1       256-3.10199E+09-4.39103E+08-9.90007E+09-4.88566E+08-4.91345E+09-9.43433E+07
 -1       257-3.02588E+09-4.30754E+08-9.66477E+09-5.47320E+08-4.79651E+09-1.06688E+08
 -1       258-2.94201E+09-4.21900E+08-9.40695E+09-6.06698E+08-4.66775E+09-1.17542E+08
 -1       259-2.85045E+09-4.11668E+08-9.12413E+09-6.64526E+08-4.52684E+09-1.25879E+08
 -1       260-2.75224E+09-3.99666E+08-8.81728E+09-7.19702E+08-4.37415E+09-1.31867E+08
 -1       261-2.64843E+09-3.85582E+08-8.48801E+09-7.72478E+08-4.21061E+09-1.36404E+08
 -1       262-2.53955E+09-3.69360E+08-8.13744E+09-8.23908E+08-4.03676E+09-1.40821E+08
 -1       263-2.42544E+09-3.51178E+08-7.76578E+09-8.75184E+08-3.85267E+09-1.46452E+08
 -1       264-2.30533E+09-3.31425E+08-7.37243E+09-9.27067E+08-3.65796E+09-1.54234E+08
 -1       265-2.17818E+09-3.10609E+08-6.95650E+09-9.79485E+08-3.45205E+09-1.64416E+08
 -1       266-2.04304E+09-2.89242E+08-6.51737E+09-1.03138E+09-3.23454E+09-1.76461E+08
 -1       267-1.89944E+09-2.67718E+08-6.05530E+09-1.08082E+09-3.00545E+09-1.89147E+08
 -1       268-1.74769E+09-2.46227E+08-5.57182E+09-1.12535E+09-2.76553E+09-2.00855E+08
 -1       269-1.58895E+09-2.24727E+08-5.06994E+09-1.16240E+09-2.51631E+09-2.09953E+08
 -1       270-1.42518E+09-2.02978E+08-4.55405E+09-1.18980E+09-2.26006E+09-2.15180E+08
 -1       271-1.25888E+09-1.80631E+08-4.02957E+09-1.20596E+09-1.99961E+09-2.15911E+08
 -1       272-1.09271E+09-1.57353E+08-3.50251E+09-1.21000E+09-1.73808E+09-2.12239E+08
 -1       273-9.29254E+08-1.32949E+08-2.97916E+09-1.20136E+09-1.47871E+09-2.04832E+08
 -1       274-7.70785E+08-1.07457E+08-2.46601E+09-1.17926E+09-1.22480E+09-1.94589E+08
 -1       275-6.19359E+08-8.12102E+07-1.97016E+09-1.14195E+09-9.79838E+08-1.82188E+08
 -1       276-4.77116E+08-5.48126E+07-1.49979E+09-1.08566E+09-7.48007E+08-1.67605E+08
 -1       277-3.46323E+08-2.87356E+07-1.06507E+09-1.00405E+09-5.33833E+08-1.49655E+08
 -1       278-2.29612E+08-4.88454E+06-6.75754E+08-8.85800E+08-3.44439E+08-1.26196E+08
 -1       279-1.33653E+08 1.83153E+07-3.52770E+08-7.10100E+08-1.82229E+08-9.34256E+07
 -1       280-4.72684E+07 4.91319E+07-9.34476E+07-4.68969E+08-7.63842E+07-4.04974E+07
 -1       281-1.09473E+09-4.69174E+08-4.69174E+08-2.20660E+08-1.20229E+02-7.26768E+08
 -1       282-4.51306E+08-1.93422E+08-1.93422E+08-4.40038E+08-2.41214E+02-7.13892E+08
 -1       283-1.56206E+09-1.55211E+08-4.61901E+07 3.39346E+08 3.71152E+07 7.10346E+07
 -1       284-1.36610E+09-3.14822E+08-2.61375E+08 6.18182E+08-1.28108E+07-3.35990E+07
 -1       285-1.04358E+09-2.94116E+08-2.21417E+08 7.87707E+08-4.74039E+07-1.04092E+08
 -1       286-8.16344E+08-3.42239E+08-2.76991E+08 9.10759E+08-9.13166E+07-1.46584E+08
 -1       287-6.25888E+08-4.01781E+08-3.33795E+08 1.00053E+09-1.37039E+08-1.75991E+08
 -1       288-4.83190E+08-4.78806E+08-4.07225E+08 1.06913E+09-1.85750E+08-1.95939E+08
 -1       289-3.88130E+08-5.66492E+08-4.87436E+08 1.12184E+09-2.36160E+08-2.08866E+08
 -1       290-3.43215E+08-6.62246E+08-5.71870E+08 1.16072E+09-2.87717E+08-2.16334E+08
 -1       291-3.45452E+08-7.63213E+08-6.57653E+08 1.18500E+09-3.39809E+08-2.19723E+08
 -1       292-3.86136E+08-8.67205E+08-7.43354E+08 1.19279E+09-3.91916E+08-2.20175E+08
 -1       293-4.51188E+08-9.72324E+08-8.28404E+08 1.18268E+09-4.43527E+08-2.18550E+08
 -1       294-5.23639E+08-1.07694E+09-9.12849E+08 1.15492E+09-4.94153E+08-2.15415E+08
 -1       295-5.87153E+08-1.17968E+09-9.96953E+08 1.11197E+09-5.43350E+08-2.11075E+08
 -1       296-6.29649E+08-1.27945E+09-1.08085E+09 1.05827E+09-5.90750E+08-2.05641E+08
 -1       297-6.45988E+08-1.37548E+09-1.16431E+09 9.99431E+08-6.36091E+08-1.99101E+08
 -1       298-6.38962E+08-1.46733E+09-1.24659E+09 9.40964E+08-6.79222E+08-1.91406E+08
 -1       299-6.18278E+08-1.55483E+09-1.32656E+09 8.87077E+08-7.20089E+08-1.82544E+08
 -1       300-5.97798E+08-1.63801E+09-1.40284E+09 8.39736E+08-7.58705E+08-1.72597E+08
 -1       301-5.91756E+08-1.71697E+09-1.47411E+09 7.98325E+08-7.95108E+08-1.61762E+08
 -1       302-6.10942E+08-1.79183E+09-1.53940E+09 7.59991E+08-8.29313E+08-1.50360E+08
 -1       303-6.59921E+08-1.86258E+09-1.59831E+09 7.20598E+08-8.61274E+08-1.38849E+08
 -1       304-7.36034E+08-1.92920E+09-1.65114E+09 6.76107E+08-8.90865E+08-1.27874E+08
 -1       305-8.30584E+08-1.99175E+09-1.69908E+09 6.24147E+08-9.17927E+08-1.18300E+08
 -1       306-9.31842E+08-2.05091E+09-1.74395E+09 5.65428E+08-9.42314E+08-1.10947E+08
 -1       307-1.02856E+09-2.10790E+09-1.78885E+09 5.04641E+08-9.64496E+08-1.05176E+08
 -1       308-1.11320E+09-2.16518E+09-1.83402E+09 4.47480E+08-9.84686E+08-9.82024E+07
 -1       309-1.18020E+09-2.21683E+09-1.88139E+09 4.00831E+08-1.00501E+09-8.25236E+07
 -1       310-1.22409E+09-2.26999E+09-1.90665E+09 3.45643E+08-1.02358E+09-4.38365E+07
 -1       311-1.23242E+09-2.23277E+09-1.92255E+09 2.90337E+08-1.02855E+09-8.95156E+07
 -1       312-2.65842E+08-1.91389E+09 1.26767E+09 3.14532E+08-1.06974E+09-2.62478E+08
 -1       313-5.92185E+08 2.27097E+08 3.59466E+08-4.14719E+08 1.03326E+07 7.73409E+07
 -1       314-6.83333E+08 4.42207E+07 5.11677E+07-6.48048E+08-1.75727E+07-4.11045E+07
 -1       315-5.15987E+08 8.98127E+07 5.20405E+07-8.17829E+08-4.06286E+07-1.08566E+08
 -1       316-3.58532E+08 1.20640E+08-7.83519E+05-9.34829E+08-6.70615E+07-1.51917E+08
 -1       317-1.90092E+08 1.69396E+08-3.17029E+07-1.01964E+09-9.53928E+07-1.80903E+08
 -1       318-3.94621E+07 2.22146E+08-6.38208E+07-1.08120E+09-1.25793E+08-2.00497E+08
 -1       319 7.91468E+07 2.76965E+08-9.42155E+07-1.12584E+09-1.57917E+08-2.12802E+08
 -1       320 1.52733E+08 3.30293E+08-1.25324E+08-1.15615E+09-1.91578E+08-2.19553E+08
 -1       321 1.77793E+08 3.80511E+08-1.57562E+08-1.17264E+09-2.26440E+08-2.22244E+08
 -1       322 1.61029E+08 4.27307E+08-1.90851E+08-1.17475E+09-2.62037E+08-2.22155E+08
 -1       323 1.18370E+08 4.71637E+08-2.24348E+08-1.16203E+09-2.97744E+08-2.20246E+08
 -1       324 7.10592E+07 5.15215E+08-2.56793E+08-1.13504E+09-3.32857E+08-2.17116E+08
 -1       325 4.02608E+07 5.59877E+08-2.86863E+08-1.09577E+09-3.66701E+08-2.13034E+08
 -1       326 4.16276E+07 6.06947E+08-3.13553E+08-1.04751E+09-3.98753E+08-2.08003E+08
 -1       327 8.12940E+07 6.56783E+08-3.36445E+08-9.94312E+08-4.28727E+08-2.01868E+08
 -1       328 1.54368E+08 7.08597E+08-3.55817E+08-9.40146E+08-4.56608E+08-1.94437E+08
 -1       329 2.46321E+08 7.60595E+08-3.72555E+08-8.88056E+08-4.82619E+08-1.85592E+08
 -1       330 3.36906E+08 8.10401E+08-3.87905E+08-8.39541E+08-5.07129E+08-1.75372E+08
 -1       331 4.05556E+08 8.55647E+08-4.03129E+08-7.94324E+08-5.30526E+08-1.64007E+08
 -1       332 4.36847E+08 8.94562E+08-4.19144E+08-7.50592E+08-5.53095E+08-1.51919E+08
 -1       333 4.24616E+08 9.26442E+08-4.36240E+08-7.05667E+08-5.74914E+08-1.39706E+08
 -1       334 3.73725E+08 9.51883E+08-4.53889E+08-6.56998E+08-5.95814E+08-1.28155E+08
 -1       335 2.99028E+08 9.72775E+08-4.70842E+08-6.03293E+08-6.15419E+08-1.18236E+08
 -1       336 2.21422E+08 9.91791E+08-4.85166E+08-5.45663E+08-6.33282E+08-1.10831E+08
 -1       337 1.60782E+08 1.01205E+09-4.96060E+08-4.87769E+08-6.49281E+08-1.05211E+08
 -1       338 1.25811E+08 1.03338E+09-5.02745E+08-4.34795E+08-6.63622E+08-9.85754E+07
 -1       339 1.03972E+08 1.05373E+09-5.14967E+08-3.87220E+08-6.76740E+08-8.27291E+07
 -1       340 6.14799E+07 1.06538E+09-5.20364E+08-3.42797E+08-6.92619E+08-4.43741E+07
 -1       341 5.15278E+07 1.07660E+09-5.44548E+08-2.26191E+08-6.88373E+08-8.96289E+07
 -1       342 3.28835E+09 6.78556E+09 4.94376E+09-1.55322E+08-1.59023E+09-2.62625E+08
 -1       343 5.92185E+08-2.27097E+08-3.59466E+08-4.14719E+08-1.03326E+07 7.73409E+07
 -1       344 6.83333E+08-4.42207E+07-5.11677E+07-6.48048E+08 1.75727E+07-4.11045E+07
 -1       345 5.15987E+08-8.98127E+07-5.20405E+07-8.17829E+08 4.06286E+07-1.08566E+08
 -1       346 3.58532E+08-1.20640E+08 7.83519E+05-9.34829E+08 6.70615E+07-1.51917E+08
 -1       347 1.90092E+08-1.69396E+08 3.17029E+07-1.01964E+09 9.53928E+07-1.80903E+08
 -1       348 3.94621E+07-2.22146E+08 6.38208E+07-1.08120E+09 1.25793E+08-2.00497E+08
 -1       349-7.91468E+07-2.76965E+08 9.42155E+07-1.12584E+09 1.57917E+08-2.12802E+08
 -1       350-1.52733E+08-3.30293E+08 1.25324E+08-1.15615E+09 1.91578E+08-2.19553E+08
 -1       351-1.77793E+08-3.80511E+08 1.57562E+08-1.17264E+09 2.26440E+08-2.22244E+08
 -1       352-1.61029E+08-4.27307E+08 1.90851E+08-1.17475E+09 2.62037E+08-2.22155E+08
 -1       353-1.18370E+08-4.71637E+08 2.24348E+08-1.16203E+09 2.97744E+08-2.20246E+08
 -1       354-7.10592E+07-5.15215E+08 2.56793E+08-1.13504E+09 3.32857E+08-2.17116E+08
 -1       355-4.02608E+07-5.59877E+08 2.86863E+08-1.09577E+09 3.66701E+08-2.13034E+08
 -1       356-4.16276E+07-6.06947E+08 3.13553E+08-1.04751E+09 3.98753E+08-2.08003E+08
 -1       357-8.12940E+07-6.56783E+08 3.36445E+08-9.94312E+08 4.28727E+08-2.01868E+08
 -1       358-1.54368E+08-7.08597E+08 3.55817E+08-9.40146E+08 4.56608E+08-1.94437E+08
 -1       359-2.46321E+08-7.60595E+08 3.72555E+08-8.88056E+08 4.82619E+08-1.85592E+08
 -1       360-3.36906E+08-8.10401E+08 3.87905E+08-8.39541E+08 5.07129E+08-1.75372E+08
 -1       361-4.05556E+08-8.55647E+08 4.03129E+08-7.94324E+08 5.30526E+08-1.64007E+08
 -1       362-4.36847E+08-8.94562E+08 4.19144E+08-7.50592E+08 5.53095E+08-1.51919E+08
 -1       363-4.24616E+08-9.26442E+08 4.36240E+08-7.05667E+08 5.74914E+08-1.39706E+08
 -1       364-3.73725E+08-9.51883E+08 4.53889E+08-6.56998E+08 5.95814E+08-1.28155E+08
 -1       365-2.99028E+08-9.72775E+08 4.70842E+08-6.03293E+08 6.15419E+08-1.18236E+08
 -1       366-2.21422E+08-9.91791E+08 4.85166E+08-5.45663E+08 6.33282E+08-1.10831E+08
 -1       367-1.60782E+08-1.01205E+09 4.96060E+08-4.87769E+08 6.49281E+08-1.05211E+08
 -1       368-1.25811E+08-1.03338E+09 5.02745E+08-4.34795E+08 6.63622E+08-9.85754E+07
 -1       369-1.03972E+08-1.05373E+09 5.14967E+08-3.87220E+08 6.76740E+08-8.27291E+07
 -1       370-6.14799E+07-1.06538E+09 5.20364E+08-3.42797E+08 6.92619E+08-4.43741E+07
 -1       371-5.15278E+07-1.07660E+09 5.44548E+08-2.26191E+08 6.88373E+08-8.96289E+07
 -1       372 1.56206E+09 1.55211E+08 4.61901E+07 3.39346E+08-3.71152E+07 7.10346E+07
 -1       373 1.36610E+09 3.14822E+08 2.61375E+08 6.18182E+08 1.28108E+07-3.35990E+07
 -1       374 1.04358E+09 2.94116E+08 2.21417E+08 7.87707E+08 4.74039E+07-1.04092E+08
 -1       375 8.16344E+08 3.42239E+08 2.76991E+08 9.10759E+08 9.13166E+07-1.46584E+08
 -1       376 6.25888E+08 4.01781E+08 3.33795E+08 1.00053E+09 1.37039E+08-1.75991E+08
 -1       377 4.83190E+08 4.78806E+08 4.07225E+08 1.06913E+09 1.85750E+08-1.95939E+08
 -1       378 3.88130E+08 5.66492E+08 4.87436E+08 1.12184E+09 2.36160E+08-2.08866E+08
 -1       379 3.43215E+08 6.62246E+08 5.71870E+08 1.16072E+09 2.87717E+08-2.16334E+08
 -1       380 3.45452E+08 7.63213E+08 6.57653E+08 1.18500E+09 3.39809E+08-2.19723E+08
 -1       381 3.86136E+08 8.67205E+08 7.43354E+08 1.19279E+09 3.91916E+08-2.20175E+08
 -1       382 4.51188E+08 9.72324E+08 8.28404E+08 1.18268E+09 4.43527E+08-2.18550E+08
 -1       383 5.23639E+08 1.07694E+09 9.12849E+08 1.15492E+09 4.94153E+08-2.15415E+08
 -1       384 5.87153E+08 1.17968E+09 9.96953E+08 1.11197E+09 5.43350E+08-2.11075E+08
 -1       385 6.29649E+08 1.27945E+09 1.08085E+09 1.05827E+09 5.90750E+08-2.05641E+08
 -1       386 6.45988E+08 1.37548E+09 1.16431E+09 9.99431E+08 6.36091E+08-1.99101E+08
 -1       387 6.38962E+08 1.46733E+09 1.24659E+09 9.40964E+08 6.79222E+08-1.91406E+08
 -1       388 6.18278E+08 1.55483E+09 1.32656E+09 8.87077E+08 7.20089E+08-1.82544E+08
 -1       389 5.97798E+08 1.63801E+09 1.40284E+09 8.39736E+08 7.58705E+08-1.72597E+08
 -1       390 5.91756E+08 1.71697E+09 1.47411E+09 7.98325E+08 7.95108E+08-1.61762E+08
 -1       391 6.10942E+08 1.79183E+09 1.53940E+09 7.59991E+08 8.29313E+08-1.50360E+08
 -1       392 6.59921E+08 1.86258E+09 1.59831E+09 7.20598E+08 8.61274E+08-1.38849E+08
 -1       393 7.36034E+08 1.92920E+09 1.65114E+09 6.76107E+08 8.90865E+08-1.27874E+08
 -1       394 8.30584E+08 1.99175E+09 1.69908E+09 6.24147E+08 9.17927E+08-1.18300E+08
 -1       395 9.31842E+08 2.05091E+09 1.74395E+09 5.65428E+08 9.42314E+08-1.10947E+08
 -1       396 1.02856E+09 2.10790E+09 1.78885E+09 5.04641E+08 9.64496E+08-1.05176E+08
 -1       397 1.11320E+09 2.16518E+09 1.83402E+09 4.47480E+08 9.84686E+08-9.82024E+07
 -1       398 1.18020E+09 2.21683E+09 1.88139E+09 4.00831E+08 1.00501E+09-8.25236E+07
 -1       399 1.22409E+09 2.26999E+09 1.90665E+09 3.45643E+08 1.02358E+09-4.38365E+07
 -1       400 1.23242E+09 2.23277E+09 1.92255E+09 2.90337E+08 1.02855E+09-8.95156E+07
 -1       401 4.51306E+08 1.93422E+08 1.93422E+08-4.40038E+08 2.41214E+02-7.13892E+08
 -1       402 1.09473E+09 4.69174E+08 4.69174E+08-2.20660E+08 1.20229E+02-7.26768E+08
 -1       403-3.28835E+09-6.78556E+09-4.94376E+09-1.55322E+08 1.59023E+09-2.62625E+08
 -1       404 4.72684E+07-4.91319E+07 9.34476E+07-4.68969E+08 7.63842E+07-4.04974E+07
 -1       405 1.33653E+08-1.83153E+07 3.52770E+08-7.10100E+08 1.82229E+08-9.34256E+07
 -1       406 2.29612E+08 4.88454E+06 6.75754E+08-8.85800E+08 3.44439E+08-1.26196E+08
 -1       407 3.46323E+08 2.87356E+07 1.06507E+09-1.00405E+09 5.33833E+08-1.49655E+08
 -1       408 4.77116E+08 5.48126E+07 1.49979E+09-1.08566E+09 7.48007E+08-1.67605E+08
 -1       409 6.19359E+08 8.12102E+07 1.97016E+09-1.14195E+09 9.79838E+08-1.82188E+08
 -1       410 7.70785E+08 1.07457E+08 2.46601E+09-1.17926E+09 1.22480E+09-1.94589E+08
 -1       411 9.29254E+08 1.32949E+08 2.97916E+09-1.20136E+09 1.47871E+09-2.04832E+08
 -1       412 1.09271E+09 1.57353E+08 3.50251E+09-1.21000E+09 1.73808E+09-2.12239E+08
 -1       413 1.25888E+09 1.80631E+08 4.02957E+09-1.20596E+09 1.99961E+09-2.15911E+08
 -1       414 1.42518E+09 2.02978E+08 4.55405E+09-1.18980E+09 2.26006E+09-2.15180E+08
 -1       415 1.58895E+09 2.24727E+08 5.06994E+09-1.16240E+09 2.51631E+09-2.09953E+08
 -1       416 1.74769E+09 2.46227E+08 5.57182E+09-1.12535E+09 2.76553E+09-2.00855E+08
 -1       417 1.89944E+09 2.67718E+08 6.05530E+09-1.08082E+09 3.00545E+09-1.89147E+08
 -1       418 2.04304E+09 2.89242E+08 6.51737E+09-1.03138E+09 3.23454E+09-1.76461E+08
 -1       419 2.17818E+09 3.10609E+08 6.95650E+09-9.79485E+08 3.45205E+09-1.64416E+08
 -1       420 2.30533E+09 3.31425E+08 7.37243E+09-9.27067E+08 3.65796E+09-1.54234E+08
 -1       421 2.42544E+09 3.51178E+08 7.76578E+09-8.75184E+08 3.85267E+09-1.46452E+08
 -1       422 2.53955E+09 3.69360E+08 8.13744E+09-8.23908E+08 4.03676E+09-1.40821E+08
 -1       423 2.64843E+09 3.85582E+08 8.48801E+09-7.72478E+08 4.21061E+09-1.36404E+08
 -1       424 2.75224E+09 3.99666E+08 8.81728E+09-7.19702E+08 4.37415E+09-1.31867E+08
 -1       425 2.85045E+09 4.11668E+08 9.12413E+09-6.64526E+08 4.52684E+09-1.25879E+08
 -1       426 2.94201E+09 4.21900E+08 9.40695E+09-6.06698E+08 4.66775E+09-1.17542E+08
 -1       427 3.02588E+09 4.30754E+08 9.66477E+09-5.47320E+08 4.79651E+09-1.06688E+08
 -1       428 3.10199E+09 4.39103E+08 9.90007E+09-4.88566E+08 4.91345E+09-9.43433E+07
 -1       429 3.17226E+09 4.46500E+08 1.01183E+10-4.35319E+08 5.02334E+09-8.18075E+07
 -1       430 3.23569E+09 4.57112E+08 1.03281E+10-3.79624E+08 5.12297E+09-7.37189E+07
 -1       431 3.30590E+09 4.58976E+08 1.05103E+10-3.66314E+08 5.22211E+09-6.06339E+07
 -1       432 3.26942E+09 4.58023E+08 1.05964E+10-1.94915E+08 5.25928E+09-9.02630E+07
 -1       433 2.65842E+08 1.91389E+09-1.26767E+09 3.14532E+08 1.06974E+09-2.62478E+08
 -1       434 4.51306E+08 1.93422E+08 1.93422E+08-4.40038E+08-2.41214E+02 7.13892E+08
 -1       435 1.09473E+09 4.69174E+08 4.69174E+08-2.20660E+08-1.20229E+02 7.26768E+08
 -1       436 3.26942E+09 4.58023E+08 1.05964E+10-1.94915E+08-5.25928E+09 9.02630E+07
 -1       437 3.30590E+09 4.58976E+08 1.05103E+10-3.66314E+08-5.22211E+09 6.06339E+07
 -1       438 3.23569E+09 4.57112E+08 1.03281E+10-3.79624E+08-5.12297E+09 7.37189E+07
 -1       439 3.17226E+09 4.46500E+08 1.01183E+10-4.35319E+08-5.02334E+09 8.18075E+07
 -1       440 3.10199E+09 4.39103E+08 9.90007E+09-4.88566E+08-4.91345E+09 9.43433E+07
 -1       441 3.02588E+09 4.30754E+08 9.66477E+09-5.47320E+08-4.79651E+09 1.06688E+08
 -1       442 2.94201E+09 4.21900E+08 9.40695E+09-6.06698E+08-4.66775E+09 1.17542E+08
 -1       443 2.85045E+09 4.11668E+08 9.12413E+09-6.64526E+08-4.52684E+09 1.25879E+08
 -1       444 2.75224E+09 3.99666E+08 8.81728E+09-7.19702E+08-4.37415E+09 1.31867E+08
 -1       445 2.64843E+09 3.85582E+08 8.48801E+09-7.72478E+08-4.21061E+09 1.36404E+08
 -1       446 2.53955E+09 3.69360E+08 8.13744E+09-8.23908E+08-4.03676E+09 1.40821E+08
 -1       447 2.42544E+09 3.51178E+08 7.76578E+09-8.75184E+08-3.85267E+09 1.46452E+08
 -1       448 2.30533E+09 3.31425E+08 7.37243E+09-9.27067E+08-3.65796E+09 1.54234E+08
 -1       449 2.17818E+09 3.10609E+08 6.95650E+09-9.79485E+08-3.45205E+09 1.64416E+08
 -1       450 2.04304E+09 2.89242E+08 6.51737E+09-1.03138E+09-3.23454E+09 1.76461E+08
 -1       451 1.89944E+09 2.67718E+08 6.05530E+09-1.08082E+09-3.00545E+09 1.89147E+08
 -1       452 1.74769E+09 2.46227E+08 5.57182E+09-1.12535E+09-2.76553E+09 2.00855E+08
 -1       453 1.58895E+09 2.24727E+08 5.06994E+09-1.16240E+09-2.51631E+09 2.09953E+08
 -1       454 1.42518E+09 2.02978E+08 4.55405E+09-1.18980E+09-2.26006E+09 2.15180E+08
 -1       455 1.25888E+09 1.80631E+08 4.02957E+09-1.20596E+09-1.99961E+09 2.15911E+08
 -1       456 1.09271E+09 1.57353E+08 3.50251E+09-1.21000E+09-1.73808E+09 2.12239E+08
 -1       457 9.29254E+08 1.32949E+08 2.97916E+09-1.20136E+09-1.47871E+09 2.04832E+08
 -1       458 7.70785E+08 1.07457E+08 2.46601E+09-1.17926E+09-1.22480E+09 1.94589E+08
 -1       459 6.19359E+08 8.12102E+07 1.97016E+09-1.14195E+09-9.79838E+08 1.82188E+08
 -1       460 4.77116E+08 5.48126E+07 1.49979E+09-1.08566E+09-7.48007E+08 1.67605E+08
 -1       461 3.46323E+08 2.87356E+07 1.06507E+09-1.00405E+09-5.33833E+08 1.49655E+08
 -1       462 2.29612E+08 4.88454E+06 6.75754E+08-8.85800E+08-3.44439E+08 1.26196E+08
 -1       463 1.33653E+08-1.83153E+07 3.52770E+08-7.10100E+08-1.82229E+08 9.34256E+07
 -1       464 4.72684E+07-4.91319E+07 9.34476E+07-4.68969E+08-7.63842E+07 4.04974E+07
 -1       465-3.28835E+09-6.78556E+09-4.94376E+09-1.55322E+08-1.59023E+09 2.62625E+08
 -1       466 5.92185E+08-2.27097E+08-3.59466E+08-4.14719E+08 1.03326E+07-7.73409E+07
 -1       467 6.83333E+08-4.42207E+07-5.11677E+07-6.48048E+08-1.75727E+07 4.11045E+07
 -1       468 5.15987E+08-8.98127E+07-5.20405E+07-8.17829E+08-4.06286E+07 1.08566E+08
 -1       469 3.58532E+08-1.20640E+08 7.83519E+05-9.34829E+08-6.70615E+07 1.51917E+08
 -1       470 1.90092E+08-1.69396E+08 3.17029E+07-1.01964E+09-9.53928E+07 1.80903E+08
 -1       471 3.94621E+07-2.22146E+08 6.38208E+07-1.08120E+09-1.25793E+08 2.00497E+08
 -1       472-7.91468E+07-2.76965E+08 9.42155E+07-1.12584E+09-1.57917E+08 2.12802E+08
 -1       473-1.52733E+08-3.30293E+08 1.25324E+08-1.15615E+09-1.91578E+08 2.19553E+08
 -1       474-1.77793E+08-3.80511E+08 1.57562E+08-1.17264E+09-2.26440E+08 2.22244E+08
 -1       475-1.61029E+08-4.27307E+08 1.90851E+08-1.17475E+09-2.62037E+08 2.22155E+08
 -1       476-1.18370E+08-4.71637E+08 2.24348E+08-1.16203E+09-2.97744E+08 2.20246E+08
 -1       477-7.10592E+07-5.15215E+08 2.56793E+08-1.13504E+09-3.32857E+08 2.17116E+08
 -1       478-4.02608E+07-5.59877E+08 2.86863E+08-1.09577E+09-3.66701E+08 2.13034E+08
 -1       479-4.16276E+07-6.06947E+08 3.13553E+08-1.04751E+09-3.98753E+08 2.08003E+08
 -1       480-8.12940E+07-6.56783E+08 3.36445E+08-9.94312E+08-4.28727E+08 2.01868E+08
 -1       481-1.54368E+08-7.08597E+08 3.55817E+08-9.40146E+08-4.56608E+08 1.94437E+08
 -1       482-2.46321E+08-7.60595E+08 3.72555E+08-8.88056E+08-4.82619E+08 1.85592E+08
 -1       483-3.36906E+08-8.10401E+08 3.87905E+08-8.39541E+08-5.07129E+08 1.75372E+08
 -1       484-4.05556E+08-8.55647E+08 4.03129E+08-7.94324E+08-5.30526E+08 1.64007E+08
 -1       485-4.36847E+08-8.94562E+08 4.19144E+08-7.50592E+08-5.53095E+08 1.51919E+08
 -1       486-4.24616E+08-9.26442E+08 4.36240E+08-7.05667E+08-5.74914E+08 1.39706E+08
 -1       487-3.73725E+08-9.51883E+08 4.53889E+08-6.56998E+08-5.95814E+08 1.28155E+08
 -1       488-2.99028E+08-9.72775E+08 4.70842E+08-6.03293E+08-6.15419E+08 1.18236E+08
 -1       489-2.21422E+08-9.91791E+08 4.85166E+08-5.45663E+08-6.33282E+08 1.10831E+08
 -1       490-1.60782E+08-1.01205E+09 4.96060E+08-4.87769E+08-6.49281E+08 1.05211E+08
 -1       491-1.25811E+08-1.03338E+09 5.02745E+08-4.34795E+08-6.63622E+08 9.85754E+07
 -1       492-1.03972E+08-1.05373E+09 5.14967E+08-3.87220E+08-6.76740E+08 8.27291E+07
 -1       493-6.14799E+07-1.06538E+09 5.20364E+08-3.42797E+08-6.92619E+08 4.43741E+07
 -1       494-5.15278E+07-1.07660E+09 5.44548E+08-2.26191E+08-6.88373E+08 8.96289E+07
 -1       495 1.56206E+09 1.55211E+08 4.61901E+07 3.39346E+08 3.71152E+07-7.10346E+07
 -1       496 1.36610E+09 3.14822E+08 2.61375E+08 6.18182E+08-1.28108E+07 3.35990E+07
 -1       497 1.04358E+09 2.94116E+08 2.21417E+08 7.87707E+08-4.74039E+07 1.04092E+08
 -1       498 8.16344E+08 3.42239E+08 2.76991E+08 9.10759E+08-9.13166E+07 1.46584E+08
 -1       499 6.25888E+08 4.01781E+08 3.33795E+08 1.00053E+09-1.37039E+08 1.75991E+08
 -1       500 4.83190E+08 4.78806E+08 4.07225E+08 1.06913E+09-1.85750E+08 1.95939E+08
 -1       501 3.88130E+08 5.66492E+08 4.87436E+08 1.12184E+09-2.36160E+08 2.08866E+08
 -1       502 3.43215E+08 6.62246E+08 5.71870E+08 1.16072E+09-2.87717E+08 2.16334E+08
 -1       503 3.45452E+08 7.63213E+08 6.57653E+08 1.18500E+09-3.39809E+08 2.19723E+08
 -1       504 3.86136E+08 8.67205E+08 7.43354E+08 1.19279E+09-3.91916E+08 2.20175E+08
 -1       505 4.51188E+08 9.72324E+08 8.28404E+08 1.18268E+09-4.43527E+08 2.18550E+08
 -1       506 5.23639E+08 1.07694E+09 9.12849E+08 1.15492E+09-4.94153E+08 2.15415E+08
 -1       507 5.87153E+08 1.17968E+09 9.96953E+08 1.11197E+09-5.43350E+08 2.11075E+08
 -1       508 6.29649E+08 1.27945E+09 1.08085E+09 1.05827E+09-5.90750E+08 2.05641E+08
 -1       509 6.45988E+08 1.37548E+09 1.16431E+09 9.99431E+08-6.36091E+08 1.99101E+08
 -1       510 6.38962E+08 1.46733E+09 1.24659E+09 9.40964E+08-6.79222E+08 1.91406E+08
 -1       511 6.18278E+08 1.55483E+09 1.32656E+09 8.87077E+08-7.20089E+08 1.82544E+08
 -1       512 5.97798E+08 1.63801E+09 1.40284E+09 8.39736E+08-7.58705E+08 1.72597E+08
 -1       513 5.91756E+08 1.71697E+09 1.47411E+09 7.98325E+08-7.95108E+08 1.61762E+08
 -1       514 6.10942E+08 1.79183E+09 1.53940E+09 7.59991E+08-8.29313E+08 1.50360E+08
 -1       515 6.59921E+08 1.86258E+09 1.59831E+09 7.20598E+08-8.61274E+08 1.38849E+08
 -1       516 7.36034E+08 1.92920E+09 1.65114E+09 6.76107E+08-8.90865E+08 1.27874E+08
 -1       517 8.30584E+08 1.99175E+09 1.69908E+09 6.24147E+08-9.17927E+08 1.18300E+08
 -1       518 9.31842E+08 2.05091E+09 1.74395E+09 5.65428E+08-9.42314E+08 1.10947E+08
 -1       519 1.02856E+09 2.10790E+09 1.78885E+09 5.04641E+08-9.64496E+08 1.05176E+08
 -1       520 1.11320E+09 2.16518E+09 1.83402E+09 4.47480E+08-9.84686E+08 9.82024E+07
 -1       521 1.18020E+09 2.21683E+09 1.88139E+09 4.00831E+08-1.00501E+09 8.25236E+07
 -1       522 1.22409E+09 2.26999E+09 1.90665E+09 3.45643E+08-1.02358E+09 4.38365E+07
 -1       523 1.23242E+09 2.23277E+09 1.92255E+09 2.90337E+08-1.02855E+09 8.95156E+07
 -1       524 2.65842E+08 1.91389E+09-1.26767E+09 3.14532E+08-1.06974E+09 2.62478E+08
 -1       525 1.14882E+08 2.58866E+07-2.85932E+07-8.10419E+07-2.52815E+07 1.03491E+08
 -1       526-4.43276E+07-1.01664E+08-2.94552E+08-7.49067E+07-9.43895E+07 1.79464E+08
 -1       527-2.28014E+08-2.64186E+08-6.52606E+08-6.29114E+07-2.04434E+08 2.31192E+08
 -1       528-4.23507E+08-4.48394E+08-1.07114E+09-5.28111E+07-3.38659E+08 2.66162E+08
 -1       529-6.27299E+08-6.47790E+08-1.53200E+09-4.80912E+07-4.87590E+08 2.90784E+08
 -1       530-8.40034E+08-8.59519E+08-2.02503E+09-4.91727E+07-6.46485E+08 3.09257E+08
 -1       531-1.06358E+09-1.08238E+09-2.54435E+09-5.48446E+07-8.13795E+08 3.23715E+08
 -1       532-1.29893E+09-1.31526E+09-3.08525E+09-6.28924E+07-9.88746E+08 3.34644E+08
 -1       533-1.54508E+09-1.55619E+09-3.64223E+09-7.07905E+07-1.16998E+09 3.41602E+08
 -1       534-1.79864E+09-1.80202E+09-4.20811E+09-7.61356E+07-1.35511E+09 3.43840E+08
 -1       535-2.05419E+09-2.04847E+09-4.77405E+09-7.72106E+07-1.54083E+09 3.40812E+08
 -1       536-2.30519E+09-2.29069E+09-5.33044E+09-7.33807E+07-1.72340E+09 3.32534E+08
 -1       537-2.54529E+09-2.52406E+09-5.86825E+09-6.52547E+07-1.89922E+09 3.19728E+08
 -1       538-2.76960E+09-2.74500E+09-6.38040E+09-5.45253E+07-2.06554E+09 3.03747E+08
 -1       539-2.97570E+09-2.95155E+09-6.86281E+09-4.35219E+07-2.22085E+09 2.86310E+08
 -1       540-3.16398E+09-3.14363E+09-7.31480E+09-3.45934E+07-2.36512E+09 2.69116E+08
 -1       541-3.33730E+09-3.32278E+09-7.73864E+09-2.94833E+07-2.49955E+09 2.53451E+08
 -1       542-3.50000E+09-3.49153E+09-8.13843E+09-2.88655E+07-2.62615E+09 2.39906E+08
 -1       543-3.65657E+09-3.65254E+09-8.51858E+09-3.21664E+07-2.74700E+09 2.28273E+08
 -1       544-3.81027E+09-3.80777E+09-8.88230E+09-3.77282E+07-2.86366E+09 2.17658E+08
 -1       545-3.96219E+09-3.95780E+09-9.23047E+09-4.32842E+07-2.97666E+09 2.06787E+08
 -1       546-4.11091E+09-4.10167E+09-9.56131E+09-4.66273E+07-3.08542E+09 1.94395E+08
 -1       547-4.25293E+09-4.23712E+09-9.87081E+09-4.61956E+07-3.18825E+09 1.79570E+08
 -1       548-4.38358E+09-4.36123E+09-1.01539E+10-4.13816E+07-3.28232E+09 1.61969E+08
 -1       549-4.49783E+09-4.47102E+09-1.04056E+10-3.18364E+07-3.36360E+09 1.41983E+08
 -1       550-4.58980E+09-4.56362E+09-1.06223E+10-1.50879E+07-3.42710E+09 1.21293E+08
 -1       551-4.65590E+09-4.63807E+09-1.08043E+10 3.85409E+06-3.47132E+09 1.04558E+08
 -1       552-4.68684E+09-4.69235E+09-1.09543E+10 4.68032E+07-3.51044E+09 1.01471E+08
 -1       553-4.70986E+09-4.74245E+09-1.10983E+10 2.18434E+07-3.60628E+09 1.27894E+08
 -1       554 1.83819E+08 5.27527E+07-7.97690E+06-8.85540E+07 1.92690E-03 4.82245E-03
 -1       555-1.28630E+07-9.93791E+07-3.18401E+08-5.32617E+07 2.97916E-03 4.78333E-03
 -1       556-2.36381E+08-2.92241E+08-7.37756E+08-1.91995E+07 2.67792E-03 6.43924E-04
 -1       557-4.71338E+08-5.09560E+08-1.22719E+09 7.92896E+06 2.37656E-03-2.54872E-03
 -1       558-7.13141E+08-7.43187E+08-1.76415E+09 2.51919E+07 1.04833E-03-4.01566E-03
 -1       559-9.63306E+08-9.90092E+08-2.33700E+09 3.31285E+07 1.15657E-03-5.15203E-03
 -1       560-1.22500E+09-1.24944E+09-2.93981E+09 3.40133E+07 3.74317E-03-3.16234E-03
 -1       561-1.50012E+09-1.52042E+09-3.56796E+09 3.06791E+07 2.45571E-03-1.63302E-03
 -1       562-1.78788E+09-1.80102E+09-4.21551E+09 2.58883E+07 2.46716E-03-4.84623E-04
 -1       563-2.08442E+09-2.08756E+09-4.87411E+09 2.19972E+07 1.01471E-03 2.43524E-03
 -1       564-2.38330E+09-2.37494E+09-5.53316E+09 2.06770E+07 3.95775E-04 5.09112E-03
 -1       565-2.67668E+09-2.65730E+09-6.18100E+09 2.26314E+07 6.14166E-04 4.53691E-03
 -1       566-2.95690E+09-2.92904E+09-6.80656E+09 2.74968E+07-1.48773E-04 3.16143E-03
 -1       567-3.21809E+09-3.18580E+09-7.40124E+09 3.39853E+07-1.63555E-03 1.39375E-03
 -1       568-3.45737E+09-3.42527E+09-7.96018E+09 4.02609E+07-2.44713E-03 7.75348E-04
 -1       569-3.67531E+09-3.64741E+09-8.48273E+09 4.44574E+07-2.86770E-03 4.44106E-03
 -1       570-3.87546E+09-3.85423E+09-8.97197E+09 4.52007E+07-1.93024E-03 7.75710E-03
 -1       571-4.06320E+09-4.04893E+09-9.43324E+09 4.20007E+07-4.12178E-03 7.73489E-03
 -1       572-4.24403E+09-4.23488E+09-9.87225E+09 3.54034E+07-5.53036E-03 6.63605E-03
 -1       573-4.42199E+09-4.41454E+09-1.02931E+10 2.68512E+07-3.15380E-03 6.02895E-03
 -1       574-4.59841E+09-4.58867E+09-1.06972E+10 1.82632E+07-1.51825E-03 6.48053E-03
 -1       575-4.77163E+09-4.75613E+09-1.10821E+10 1.14439E+07-2.51198E-03 7.09148E-03
 -1       576-4.93746E+09-4.91417E+09-1.14431E+10 7.56409E+06-1.85966E-03 8.14937E-03
 -1       577-5.09020E+09-5.05908E+09-1.17734E+10 7.38278E+06 1.21498E-03 8.41823E-03
 -1       578-5.22316E+09-5.18666E+09-1.20657E+10 1.23049E+07 5.26428E-04 4.93701E-03
 -1       579-5.32842E+09-5.29260E+09-1.23136E+10 2.54713E+07 3.07083E-04 6.11655E-05
 -1       580-5.39342E+09-5.37187E+09-1.25128E+10 5.97367E+07-1.10626E-04-3.06412E-03
 -1       581-5.41569E+09-5.42714E+09-1.26748E+10 9.41965E+07 1.35612E-03-5.54525E-03
 -1       582-5.42736E+09-5.48358E+09-1.28512E+10 1.04068E+08 2.02179E-04-3.32726E-03
 -1       583 1.14882E+08 2.58866E+07-2.85932E+07-8.10419E+07 2.52815E+07-1.03491E+08
 -1       584-4.43276E+07-1.01664E+08-2.94552E+08-7.49067E+07 9.43895E+07-1.79464E+08
 -1       585-2.28014E+08-2.64186E+08-6.52606E+08-6.29114E+07 2.04434E+08-2.31192E+08
 -1       586-4.23507E+08-4.48394E+08-1.07114E+09-5.28111E+07 3.38659E+08-2.66162E+08
 -1       587-6.27299E+08-6.47790E+08-1.53200E+09-4.80912E+07 4.87590E+08-2.90784E+08
 -1       588-8.40034E+08-8.59519E+08-2.02503E+09-4.91727E+07 6.46485E+08-3.09257E+08
 -1       589-1.06358E+09-1.08238E+09-2.54435E+09-5.48446E+07 8.13795E+08-3.23715E+08
 -1       590-1.29893E+09-1.31526E+09-3.08525E+09-6.28924E+07 9.88746E+08-3.34644E+08
 -1       591-1.54508E+09-1.55619E+09-3.64223E+09-7.07905E+07 1.16998E+09-3.41602E+08
 -1       592-1.79864E+09-1.80202E+09-4.20811E+09-7.61356E+07 1.35511E+09-3.43840E+08
 -1       593-2.05419E+09-2.04847E+09-4.77405E+09-7.72106E+07 1.54083E+09-3.40812E+08
 -1       594-2.30519E+09-2.29069E+09-5.33044E+09-7.33807E+07 1.72340E+09-3.32534E+08
 -1       595-2.54529E+09-2.52406E+09-5.86825E+09-6.52547E+07 1.89922E+09-3.19728E+08
 -1       596-2.76960E+09-2.74500E+09-6.38040E+09-5.45253E+07 2.06554E+09-3.03747E+08
 -1       597-2.97570E+09-2.95155E+09-6.86281E+09-4.35219E+07 2.22085E+09-2.86310E+08
 -1       598-3.16398E+09-3.14363E+09-7.31480E+09-3.45934E+07 2.36512E+09-2.69116E+08
 -1       599-3.33730E+09-3.32278E+09-7.73864E+09-2.94833E+07 2.49955E+09-2.53451E+08
 -1       600-3.50000E+09-3.49153E+09-8.13843E+09-2.88655E+07 2.62615E+09-2.39906E+08
 -1       601-3.65657E+09-3.65254E+09-8.51858E+09-3.21664E+07 2.74700E+09-2.28273E+08
 -1       602-3.81027E+09-3.80777E+09-8.88230E+09-3.77282E+07 2.86366E+09-2.17658E+08
 -1       603-3.96219E+09-3.95780E+09-9.23047E+09-4.32842E+07 2.97666E+09-2.06787E+08
 -1       604-4.11091E+09-4.10167E+09-9.56131E+09-4.66273E+07 3.08542E+09-1.94395E+08
 -1       605-4.25293E+09-4.23712E+09-9.87081E+09-4.61956E+07 3.18825E+09-1.79570E+08
 -1       606-4.38358E+09-4.36123E+09-1.01539E+10-4.13816E+07 3.28232E+09-1.61969E+08
 -1       607-4.49783E+09-4.47102E+09-1.04056E+10-3.18364E+07 3.36360E+09-1.41983E+08
 -1       608-4.58980E+09-4.56362E+09-1.06223E+10-1.50879E+07 3.42710E+09-1.21293E+08
 -1       609-4.65590E+09-4.63807E+09-1.08043E+10 3.85409E+06 3.47132E+09-1.04558E+08
 -1       610-4.68684E+09-4.69235E+09-1.09543E+10 4.68032E+07 3.51044E+09-1.01471E+08
 -1       611-4.70986E+09-4.74245E+09-1.10983E+10 2.18434E+07 3.60628E+09-1.27894E+08
 -1       612-1.14882E+08-2.58866E+07 2.85932E+07-8.10419E+07 2.52815E+07 1.03491E+08
 -1       613 4.43276E+07 1.01664E+08 2.94552E+08-7.49067E+07 9.43895E+07 1.79464E+08
 -1       614 2.28014E+08 2.64186E+08 6.52606E+08-6.29114E+07 2.04434E+08 2.31192E+08
 -1       615 4.23507E+08 4.48394E+08 1.07114E+09-5.28111E+07 3.38659E+08 2.66162E+08
 -1       616 6.27299E+08 6.47790E+08 1.53200E+09-4.80912E+07 4.87590E+08 2.90784E+08
 -1       617 8.40034E+08 8.59519E+08 2.02503E+09-4.91727E+07 6.46485E+08 3.09257E+08
 -1       618 1.06358E+09 1.08238E+09 2.54435E+09-5.48446E+07 8.13795E+08 3.23715E+08
 -1       619 1.29893E+09 1.31526E+09 3.08525E+09-6.28924E+07 9.88746E+08 3.34644E+08
 -1       620 1.54508E+09 1.55619E+09 3.64223E+09-7.07905E+07 1.16998E+09 3.41602E+08
 -1       621 1.79864E+09 1.80202E+09 4.20811E+09-7.61356E+07 1.35511E+09 3.43840E+08
 -1       622 2.05419E+09 2.04847E+09 4.77405E+09-7.72106E+07 1.54083E+09 3.40812E+08
 -1       623 2.30519E+09 2.29069E+09 5.33044E+09-7.33807E+07 1.72340E+09 3.32534E+08
 -1       624 2.54529E+09 2.52406E+09 5.86825E+09-6.52547E+07 1.89922E+09 3.19728E+08
 -1       625 2.76960E+09 2.74500E+09 6.38040E+09-5.45253E+07 2.06554E+09 3.03747E+08
 -1       626 2.97570E+09 2.95155E+09 6.86281E+09-4.35219E+07 2.22085E+09 2.86310E+08
 -1       627 3.16398E+09 3.14363E+09 7.31480E+09-3.45934E+07 2.36512E+09 2.69116E+08
 -1       628 3.33730E+09 3.32278E+09 7.73864E+09-2.94833E+07 2.49955E+09 2.53451E+08
 -1       629 3.50000E+09 3.49153E+09 8.13843E+09-2.88655E+07 2.62615E+09 2.39906E+08
 -1       630 3.65657E+09 3.65254E+09 8.51858E+09-3.21664E+07 2.74700E+09 2.28273E+08
 -1       631 3.81027E+09 3.80777E+09 8.88230E+09-3.77282E+07 2.86366E+09 2.17658E+08
 -1       632 3.96219E+09 3.95780E+09 9.23047E+09-4.32842E+07 2.97666E+09 2.06787E+08
 -1       633 4.11091E+09 4.10167E+09 9.56131E+09-4.66273E+07 3.08542E+09 1.94395E+08
 -1       634 4.25293E+09 4.23712E+09 9.87081E+09-4.61956E+07 3.18825E+09 1.79570E+08
 -1       635 4.38358E+09 4.36123E+09 1.01539E+10-4.13816E+07 3.28232E+09 1.61969E+08
 -1       636 4.49783E+09 4.47102E+09 1.04056E+10-3.18364E+07 3.36360E+09 1.41983E+08
 -1       637 4.58980E+09 4.56362E+09 1.06223E+10-1.50879E+07 3.42710E+09 1.21293E+08
 -1       638 4.65590E+09 4.63807E+09 1.08043E+10 3.85409E+06 3.47132E+09 1.04558E+08
 -1       639 4.68684E+09 4.69235E+09 1.09543E+10 4.68032E+07 3.51044E+09 1.01471E+08
 -1       640 4.70986E+09 4.74245E+09 1.10983E+10 2.18434E+07 3.60628E+09 1.27894E+08
 -1       641-1.83819E+08-5.27527E+07 7.97690E+06-8.85540E+07 1.88370E-03 4.41111E-03
 -1       642 1.28630E+07 9.93791E+07 3.18401E+08-5.32617E+07 2.94542E-03 3.22691E-03
 -1       643 2.36381E+08 2.92241E+08 7.37756E+08-1.91995E+07 2.66409E-03-1.02942E-03
 -1       644 4.71338E+08 5.09560E+08 1.22719E+09 7.92896E+06 2.35271E-03-3.68282E-03
 -1       645 7.13141E+08 7.43187E+08 1.76415E+09 2.51919E+07 1.01113E-03-3.95227E-03
 -1       646 9.63306E+08 9.90092E+08 2.33700E+09 3.31285E+07 1.14155E-03-3.15750E-03
 -1       647 1.22500E+09 1.24944E+09 2.93981E+09 3.40133E+07 3.68929E-03-1.24658E-03
 -1       648 1.50012E+09 1.52042E+09 3.56796E+09 3.06791E+07 2.42567E-03-1.51504E-04
 -1       649 1.78788E+09 1.80102E+09 4.21551E+09 2.58883E+07 2.43425E-03 1.15112E-03
 -1       650 2.08442E+09 2.08756E+09 4.87411E+09 2.19972E+07 9.87053E-04 3.69877E-03
 -1       651 2.38330E+09 2.37494E+09 5.53316E+09 2.06770E+07 3.25203E-04 6.31317E-03
 -1       652 2.67668E+09 2.65730E+09 6.18100E+09 2.26314E+07 5.92232E-04 5.08350E-03
 -1       653 2.95690E+09 2.92904E+09 6.80656E+09 2.74968E+07-1.87874E-04 2.09627E-03
 -1       654 3.21809E+09 3.18580E+09 7.40124E+09 3.39853E+07-1.61171E-03-6.68135E-04
 -1       655 3.45737E+09 3.42527E+09 7.96018E+09 4.02609E+07-2.49100E-03-1.55465E-03
 -1       656 3.67531E+09 3.64741E+09 8.48273E+09 4.44574E+07-2.92873E-03 2.36277E-03
 -1       657 3.87546E+09 3.85423E+09 8.97197E+09 4.52007E+07-1.85776E-03 5.47799E-03
 -1       658 4.06320E+09 4.04893E+09 9.43324E+09 4.20007E+07-4.09222E-03 5.46157E-03
 -1       659 4.24403E+09 4.23488E+09 9.87225E+09 3.54034E+07-5.59521E-03 6.36719E-03
 -1       660 4.42199E+09 4.41454E+09 1.02931E+10 2.68512E+07-3.22056E-03 7.51185E-03
 -1       661 4.59841E+09 4.58867E+09 1.06972E+10 1.82632E+07-1.52302E-03 7.72629E-03
 -1       662 4.77163E+09 4.75613E+09 1.10821E+10 1.14439E+07-2.54631E-03 8.58868E-03
 -1       663 4.93746E+09 4.91417E+09 1.14431E+10 7.56409E+06-1.98174E-03 1.14998E-02
 -1       664 5.09020E+09 5.05908E+09 1.17734E+10 7.38278E+06 1.25694E-03 1.14826E-02
 -1       665 5.22316E+09 5.18666E+09 1.20657E+10 1.23049E+07 5.26428E-04 5.90560E-03
 -1       666 5.32842E+09 5.29260E+09 1.23136E+10 2.54713E+07 2.46048E-04-8.44191E-04
 -1       667 5.39342E+09 5.37187E+09 1.25128E+10 5.97367E+07-1.90735E-04-5.25975E-03
 -1       668 5.41569E+09 5.42714E+09 1.26748E+10 9.41965E+07 1.35231E-03-8.97673E-03
 -1       669 5.42736E+09 5.48358E+09 1.28512E+10 1.04068E+08 1.96457E-04-8.53057E-03
 -1       670-1.14882E+08-2.58866E+07 2.85932E+07-8.10419E+07-2.52815E+07-1.03491E+08
 -1       671 4.43276E+07 1.01664E+08 2.94552E+08-7.49067E+07-9.43895E+07-1.79464E+08
 -1       672 2.28014E+08 2.64186E+08 6.52606E+08-6.29114E+07-2.04434E+08-2.31192E+08
 -1       673 4.23507E+08 4.48394E+08 1.07114E+09-5.28111E+07-3.38659E+08-2.66162E+08
 -1       674 6.27299E+08 6.47790E+08 1.53200E+09-4.80912E+07-4.87590E+08-2.90784E+08
 -1       675 8.40034E+08 8.59519E+08 2.02503E+09-4.91727E+07-6.46485E+08-3.09257E+08
 -1       676 1.06358E+09 1.08238E+09 2.54435E+09-5.48446E+07-8.13795E+08-3.23715E+08
 -1       677 1.29893E+09 1.31526E+09 3.08525E+09-6.28924E+07-9.88746E+08-3.34644E+08
 -1       678 1.54508E+09 1.55619E+09 3.64223E+09-7.07905E+07-1.16998E+09-3.41602E+08
 -1       679 1.79864E+09 1.80202E+09 4.20811E+09-7.61356E+07-1.35511E+09-3.43840E+08
 -1       680 2.05419E+09 2.04847E+09 4.77405E+09-7.72106E+07-1.54083E+09-3.40812E+08
 -1       681 2.30519E+09 2.29069E+09 5.33044E+09-7.33807E+07-1.72340E+09-3.32534E+08
 -1       682 2.54529E+09 2.52406E+09 5.86825E+09-6.52547E+07-1.89922E+09-3.19728E+08
 -1       683 2.76960E+09 2.74500E+09 6.38040E+09-5.45253E+07-2.06554E+09-3.03747E+08
 -1       684 2.97570E+09 2.95155E+09 6.86281E+09-4.35219E+07-2.22085E+09-2.86310E+08
 -1       685 3.16398E+09 3.14363E+09 7.31480E+09-3.45934E+07-2.36512E+09-2.69116E+08
 -1       686 3.33730E+09 3.32278E+09 7.73864E+09-2.94833E+07-2.49955E+09-2.53451E+08
 -1       687 3.50000E+09 3.49153E+09 8.13843E+09-2.88655E+07-2.62615E+09-2.39906E+08
 -1       688 3.65657E+09 3.65254E+09 8.51858E+09-3.21664E+07-2.74700E+09-2.28273E+08
 -1       689 3.81027E+09 3.80777E+09 8.88230E+09-3.77282E+07-2.86366E+09-2.17658E+08
 -1       690 3.96219E+09 3.95780E+09 9.23047E+09-4.32842E+07-2.97666E+09-2.06787E+08
 -1       691 4.11091E+09 4.10167E+09 9.56131E+09-4.66273E+07-3.08542E+09-1.94395E+08
 -1       692 4.25293E+09 4.23712E+09 9.87081E+09-4.61956E+07-3.18825E+09-1.79570E+08
 -1       693 4.38358E+09 4.36123E+09 1.01539E+10-4.13816E+07-3.28232E+09-1.61969E+08
 -1       694 4.49783E+09 4.47102E+09 1.04056E+10-3.18364E+07-3.36360E+09-1.41983E+08
 -1       695 4.58980E+09 4.56362E+09 1.06223E+10-1.50879E+07-3.42710E+09-1.21293E+08
 -1       696 4.65590E+09 4.63807E+09 1.08043E+10 3.85409E+06-3.47132E+09-1.04558E+08
 -1       697 4.68684E+09 4.69235E+09 1.09543E+10 4.68032E+07-3.51044E+09-1.01471E+08
 -1       698 4.70986E+09 4.74245E+09 1.10983E+10 2.18434E+07-3.60628E+09-1.27894E+08
 -1       699-2.28593E+08 2.47300E+08 2.53581E+08-4.44953E+08 5.78265E+07-1.08593E+08
 -1       700-2.22742E+08 2.80650E+08 2.20982E+08-6.93503E+08 7.33485E+07-9.87492E+07
 -1       701-2.84049E+07 4.84494E+08 3.72640E+08-8.66706E+08 1.21574E+08-9.90702E+07
 -1       702 1.74997E+08 7.23492E+08 5.40307E+08-9.85668E+08 1.75987E+08-1.00482E+08
 -1       703 3.99488E+08 9.97239E+08 7.37222E+08-1.06997E+09 2.39821E+08-1.03256E+08
 -1       704 6.28295E+08 1.29681E+09 9.53717E+08-1.12925E+09 3.09658E+08-1.06907E+08
 -1       705 8.49579E+08 1.61435E+09 1.18385E+09-1.16999E+09 3.84117E+08-1.11389E+08
 -1       706 1.05445E+09 1.94374E+09 1.42264E+09-1.19549E+09 4.61653E+08-1.16111E+08
 -1       707 1.23871E+09 2.27989E+09 1.66614E+09-1.20719E+09 5.41059E+08-1.20020E+08
 -1       708 1.40352E+09 2.61841E+09 1.91109E+09-1.20543E+09 6.21241E+08-1.21974E+08
 -1       709 1.55469E+09 2.95535E+09 2.15478E+09-1.19046E+09 7.01188E+08-1.21115E+08
 -1       710 1.70073E+09 3.28707E+09 2.39481E+09-1.16308E+09 7.79954E+08-1.17157E+08
 -1       711 1.85036E+09 3.61041E+09 2.62917E+09-1.12502E+09 8.56700E+08-1.10479E+08
 -1       712 2.00987E+09 3.92278E+09 2.85619E+09-1.07889E+09 9.30749E+08-1.02042E+08
 -1       713 2.18131E+09 4.22231E+09 3.07456E+09-1.02777E+09 1.00163E+09-9.31506E+07
 -1       714 2.36176E+09 4.50785E+09 3.28337E+09-9.74685E+08 1.06909E+09-8.51111E+07
 -1       715 2.54393E+09 4.77892E+09 3.48202E+09-9.21958E+08 1.13306E+09-7.89020E+07
 -1       716 2.71801E+09 5.03549E+09 3.67016E+09-8.70817E+08 1.19360E+09-7.49252E+07
 -1       717 2.87410E+09 5.27771E+09 3.84759E+09-8.21215E+08 1.25084E+09-7.29111E+07
 -1       718 3.00477E+09 5.50564E+09 4.01412E+09-7.72020E+08 1.30484E+09-7.19972E+07
 -1       719 3.10691E+09 5.71908E+09 4.16951E+09-7.21504E+08 1.35557E+09-7.09490E+07
 -1       720 3.18255E+09 5.91746E+09 4.31343E+09-6.68087E+08 1.40287E+09-6.84557E+07
 -1       721 3.23853E+09 6.10025E+09 4.44579E+09-6.11216E+08 1.44656E+09-6.34837E+07
 -1       722 3.28478E+09 6.26740E+09 4.56690E+09-5.52185E+08 1.48660E+09-5.57532E+07
 -1       723 3.33207E+09 6.42131E+09 4.67952E+09-4.94388E+08 1.52360E+09-4.60774E+07
 -1       724 3.38627E+09 6.56515E+09 4.78460E+09-4.41406E+08 1.55831E+09-3.81555E+07
 -1       725 3.44347E+09 6.70059E+09 4.89005E+09-3.94410E+08 1.59307E+09-3.61054E+07
 -1       726 3.49952E+09 6.82867E+09 4.97137E+09-3.42132E+08 1.61804E+09-2.85447E+07
 -1       727 3.41757E+09 6.83973E+09 5.00160E+09-2.68365E+08 1.64385E+09-7.96234E+07
 -1       728-7.81732E+08-3.29879E+07 3.55352E+06 3.23793E+08 2.37157E+07-1.03307E+08
 -1       729-6.92643E+08-1.48577E+08-4.87565E+07 5.95497E+08 3.93543E+07-9.90649E+07
 -1       730-5.09059E+08-1.78149E+08 2.96509E+07 7.73404E+08 7.39948E+07-9.73270E+07
 -1       731-3.77533E+08-2.38853E+08 8.58443E+07 9.00815E+08 1.13997E+08-9.83434E+07
 -1       732-2.65146E+08-3.12780E+08 1.44826E+08 9.95966E+08 1.60165E+08-1.00519E+08
 -1       733-1.75083E+08-3.96445E+08 2.04727E+08 1.07071E+09 2.10212E+08-1.03624E+08
 -1       734-1.08257E+08-4.86030E+08 2.66386E+08 1.13076E+09 2.62852E+08-1.07573E+08
 -1       735-6.52477E+07-5.78461E+08 3.30074E+08 1.17741E+09 3.16833E+08-1.11804E+08
 -1       736-4.46118E+07-6.71497E+08 3.95726E+08 1.20869E+09 3.71266E+08-1.15313E+08
 -1       737-4.22919E+07-7.63898E+08 4.62657E+08 1.22150E+09 4.25521E+08-1.17010E+08
 -1       738-5.18534E+07-8.55167E+08 5.29660E+08 1.21349E+09 4.79180E+08-1.16080E+08
 -1       739-6.55804E+07-9.45286E+08 5.95211E+08 1.18462E+09 5.31959E+08-1.12246E+08
 -1       740-7.60640E+07-1.03441E+09 6.57800E+08 1.13779E+09 5.83647E+08-1.05860E+08
 -1       741-7.78397E+07-1.12259E+09 7.16264E+08 1.07853E+09 6.34050E+08-9.78232E+07
 -1       742-6.86008E+07-1.20956E+09 7.70024E+08 1.01390E+09 6.82950E+08-8.93581E+07
 -1       743-4.96430E+07-1.29468E+09 8.19188E+08 9.50893E+08 7.30090E+08-8.16924E+07
 -1       744-2.54039E+07-1.37695E+09 8.64454E+08 8.94792E+08 7.75179E+08-7.57445E+07
 -1       745-2.21082E+06-1.45522E+09 9.06886E+08 8.48003E+08 8.17919E+08-7.18907E+07
 -1       746 1.34372E+07-1.52836E+09 9.47576E+08 8.09595E+08 8.58034E+08-6.98766E+07
 -1       747 1.65962E+07-1.59554E+09 9.87317E+08 7.75743E+08 8.95313E+08-6.88908E+07
 -1       748 5.15277E+06-1.65637E+09 1.02635E+09 7.40943E+08 9.29628E+08-6.77708E+07
 -1       749-1.97465E+07-1.71097E+09 1.06421E+09 6.99772E+08 9.60950E+08-6.52770E+07
 -1       750-5.42059E+07-1.76010E+09 1.09987E+09 6.48802E+08 9.89401E+08-6.04251E+07
 -1       751-9.30584E+07-1.80530E+09 1.13173E+09 5.88350E+08 1.01531E+09-5.29145E+07
 -1       752-1.31735E+08-1.84935E+09 1.15918E+09 5.23316E+08 1.03952E+09-4.35349E+07
 -1       753-1.66894E+08-1.89451E+09 1.18076E+09 4.61976E+08 1.06258E+09-3.57325E+07
 -1       754-1.95772E+08-1.94183E+09 1.20556E+09 4.10062E+08 1.08669E+09-3.41913E+07
 -1       755-2.20586E+08-1.98423E+09 1.21147E+09 3.63366E+08 1.10169E+09-2.65310E+07
 -1       756-2.52200E+08-1.98598E+09 1.25295E+09 3.01804E+08 1.12309E+09-7.83598E+07
 -1       757-7.81732E+08-3.29879E+07 3.55352E+06 3.23793E+08-2.37157E+07 1.03307E+08
 -1       758-6.92643E+08-1.48577E+08-4.87565E+07 5.95497E+08-3.93543E+07 9.90649E+07
 -1       759-5.09059E+08-1.78149E+08 2.96509E+07 7.73404E+08-7.39948E+07 9.73270E+07
 -1       760-3.77533E+08-2.38853E+08 8.58443E+07 9.00815E+08-1.13997E+08 9.83434E+07
 -1       761-2.65146E+08-3.12780E+08 1.44826E+08 9.95966E+08-1.60165E+08 1.00519E+08
 -1       762-1.75083E+08-3.96445E+08 2.04727E+08 1.07071E+09-2.10212E+08 1.03624E+08
 -1       763-1.08257E+08-4.86030E+08 2.66386E+08 1.13076E+09-2.62852E+08 1.07573E+08
 -1       764-6.52477E+07-5.78461E+08 3.30074E+08 1.17741E+09-3.16833E+08 1.11804E+08
 -1       765-4.46118E+07-6.71497E+08 3.95726E+08 1.20869E+09-3.71266E+08 1.15313E+08
 -1       766-4.22919E+07-7.63898E+08 4.62657E+08 1.22150E+09-4.25521E+08 1.17010E+08
 -1       767-5.18534E+07-8.55167E+08 5.29660E+08 1.21349E+09-4.79180E+08 1.16080E+08
 -1       768-6.55804E+07-9.45286E+08 5.95211E+08 1.18462E+09-5.31959E+08 1.12246E+08
 -1       769-7.60640E+07-1.03441E+09 6.57800E+08 1.13779E+09-5.83647E+08 1.05860E+08
 -1       770-7.78397E+07-1.12259E+09 7.16264E+08 1.07853E+09-6.34050E+08 9.78232E+07
 -1       771-6.86008E+07-1.20956E+09 7.70024E+08 1.01390E+09-6.82950E+08 8.93581E+07
 -1       772-4.96430E+07-1.29468E+09 8.19188E+08 9.50893E+08-7.30090E+08 8.16924E+07
 -1       773-2.54039E+07-1.37695E+09 8.64454E+08 8.94792E+08-7.75179E+08 7.57445E+07
 -1       774-2.21082E+06-1.45522E+09 9.06886E+08 8.48003E+08-8.17919E+08 7.18907E+07
 -1       775 1.34372E+07-1.52836E+09 9.47576E+08 8.09595E+08-8.58034E+08 6.98766E+07
 -1       776 1.65962E+07-1.59554E+09 9.87317E+08 7.75743E+08-8.95313E+08 6.88908E+07
 -1       777 5.15277E+06-1.65637E+09 1.02635E+09 7.40943E+08-9.29628E+08 6.77708E+07
 -1       778-1.97465E+07-1.71097E+09 1.06421E+09 6.99772E+08-9.60950E+08 6.52770E+07
 -1       779-5.42059E+07-1.76010E+09 1.09987E+09 6.48802E+08-9.89401E+08 6.04251E+07
 -1       780-9.30584E+07-1.80530E+09 1.13173E+09 5.88350E+08-1.01531E+09 5.29145E+07
 -1       781-1.31735E+08-1.84935E+09 1.15918E+09 5.23316E+08-1.03952E+09 4.35349E+07
 -1       782-1.66894E+08-1.89451E+09 1.18076E+09 4.61976E+08-1.06258E+09 3.57325E+07
 -1       783-1.95772E+08-1.94183E+09 1.20556E+09 4.10062E+08-1.08669E+09 3.41913E+07
 -1       784-2.20586E+08-1.98423E+09 1.21147E+09 3.63366E+08-1.10169E+09 2.65310E+07
 -1       785-2.52200E+08-1.98598E+09 1.25295E+09 3.01804E+08-1.12309E+09 7.83598E+07
 -1       786-2.28593E+08 2.47300E+08 2.53581E+08-4.44953E+08-5.78265E+07 1.08593E+08
 -1       787-2.22742E+08 2.80650E+08 2.20982E+08-6.93503E+08-7.33485E+07 9.87492E+07
 -1       788-2.84049E+07 4.84494E+08 3.72640E+08-8.66706E+08-1.21574E+08 9.90702E+07
 -1       789 1.74997E+08 7.23492E+08 5.40307E+08-9.85668E+08-1.75987E+08 1.00482E+08
 -1       790 3.99488E+08 9.97239E+08 7.37222E+08-1.06997E+09-2.39821E+08 1.03256E+08
 -1       791 6.28295E+08 1.29681E+09 9.53717E+08-1.12925E+09-3.09658E+08 1.06907E+08
 -1       792 8.49579E+08 1.61435E+09 1.18385E+09-1.16999E+09-3.84117E+08 1.11389E+08
 -1       793 1.05445E+09 1.94374E+09 1.42264E+09-1.19549E+09-4.61653E+08 1.16111E+08
 -1       794 1.23871E+09 2.27989E+09 1.66614E+09-1.20719E+09-5.41059E+08 1.20020E+08
 -1       795 1.40352E+09 2.61841E+09 1.91109E+09-1.20543E+09-6.21241E+08 1.21974E+08
 -1       796 1.55469E+09 2.95535E+09 2.15478E+09-1.19046E+09-7.01188E+08 1.21115E+08
 -1       797 1.70073E+09 3.28707E+09 2.39481E+09-1.16308E+09-7.79954E+08 1.17157E+08
 -1       798 1.85036E+09 3.61041E+09 2.62917E+09-1.12502E+09-8.56700E+08 1.10479E+08
 -1       799 2.00987E+09 3.92278E+09 2.85619E+09-1.07889E+09-9.30749E+08 1.02042E+08
 -1       800 2.18131E+09 4.22231E+09 3.07456E+09-1.02777E+09-1.00163E+09 9.31506E+07
 -1       801 2.36176E+09 4.50785E+09 3.28337E+09-9.74685E+08-1.06909E+09 8.51111E+07
 -1       802 2.54393E+09 4.77892E+09 3.48202E+09-9.21958E+08-1.13306E+09 7.89020E+07
 -1       803 2.71801E+09 5.03549E+09 3.67016E+09-8.70817E+08-1.19360E+09 7.49252E+07
 -1       804 2.87410E+09 5.27771E+09 3.84759E+09-8.21215E+08-1.25084E+09 7.29111E+07
 -1       805 3.00477E+09 5.50564E+09 4.01412E+09-7.72020E+08-1.30484E+09 7.19972E+07
 -1       806 3.10691E+09 5.71908E+09 4.16951E+09-7.21504E+08-1.35557E+09 7.09490E+07
 -1       807 3.18255E+09 5.91746E+09 4.31343E+09-6.68087E+08-1.40287E+09 6.84557E+07
 -1       808 3.23853E+09 6.10025E+09 4.44579E+09-6.11216E+08-1.44656E+09 6.34837E+07
 -1       809 3.28478E+09 6.26740E+09 4.56690E+09-5.52185E+08-1.48660E+09 5.57532E+07
 -1       810 3.33207E+09 6.42131E+09 4.67952E+09-4.94388E+08-1.52360E+09 4.60774E+07
 -1       811 3.38627E+09 6.56515E+09 4.78460E+09-4.41406E+08-1.55831E+09 3.81555E+07
 -1       812 3.44347E+09 6.70059E+09 4.89005E+09-3.94410E+08-1.59307E+09 3.61054E+07
 -1       813 3.49952E+09 6.82867E+09 4.97137E+09-3.42132E+08-1.61804E+09 2.85447E+07
 -1       814 3.41757E+09 6.83973E+09 5.00160E+09-2.68365E+08-1.64385E+09 7.96234E+07
 -1       815 2.28593E+08-2.47300E+08-2.53581E+08-4.44953E+08 5.78265E+07 1.08593E+08
 -1       816 2.22742E+08-2.80650E+08-2.20982E+08-6.93503E+08 7.33485E+07 9.87492E+07
 -1       817 2.84049E+07-4.84494E+08-3.72640E+08-8.66706E+08 1.21574E+08 9.90702E+07
 -1       818-1.74997E+08-7.23492E+08-5.40307E+08-9.85668E+08 1.75987E+08 1.00482E+08
 -1       819-3.99488E+08-9.97239E+08-7.37222E+08-1.06997E+09 2.39821E+08 1.03256E+08
 -1       820-6.28295E+08-1.29681E+09-9.53717E+08-1.12925E+09 3.09658E+08 1.06907E+08
 -1       821-8.49579E+08-1.61435E+09-1.18385E+09-1.16999E+09 3.84117E+08 1.11389E+08
 -1       822-1.05445E+09-1.94374E+09-1.42264E+09-1.19549E+09 4.61653E+08 1.16111E+08
 -1       823-1.23871E+09-2.27989E+09-1.66614E+09-1.20719E+09 5.41059E+08 1.20020E+08
 -1       824-1.40352E+09-2.61841E+09-1.91109E+09-1.20543E+09 6.21241E+08 1.21974E+08
 -1       825-1.55469E+09-2.95535E+09-2.15478E+09-1.19046E+09 7.01188E+08 1.21115E+08
 -1       826-1.70073E+09-3.28707E+09-2.39481E+09-1.16308E+09 7.79954E+08 1.17157E+08
 -1       827-1.85036E+09-3.61041E+09-2.62917E+09-1.12502E+09 8.56700E+08 1.10479E+08
 -1       828-2.00987E+09-3.92278E+09-2.85619E+09-1.07889E+09 9.30749E+08 1.02042E+08
 -1       829-2.18131E+09-4.22231E+09-3.07456E+09-1.02777E+09 1.00163E+09 9.31506E+07
 -1       830-2.36176E+09-4.50785E+09-3.28337E+09-9.74685E+08 1.06909E+09 8.51111E+07
 -1       831-2.54393E+09-4.77892E+09-3.48202E+09-9.21958E+08 1.13306E+09 7.89020E+07
 -1       832-2.71801E+09-5.03549E+09-3.67016E+09-8.70817E+08 1.19360E+09 7.49252E+07
 -1       833-2.87410E+09-5.27771E+09-3.84759E+09-8.21215E+08 1.25084E+09 7.29111E+07
 -1       834-3.00477E+09-5.50564E+09-4.01412E+09-7.72020E+08 1.30484E+09 7.19972E+07
 -1       835-3.10691E+09-5.71908E+09-4.16951E+09-7.21504E+08 1.35557E+09 7.09490E+07
 -1       836-3.18255E+09-5.91746E+09-4.31343E+09-6.68087E+08 1.40287E+09 6.84557E+07
 -1       837-3.23853E+09-6.10025E+09-4.44579E+09-6.11216E+08 1.44656E+09 6.34837E+07
 -1       838-3.28478E+09-6.26740E+09-4.56690E+09-5.52185E+08 1.48660E+09 5.57532E+07
 -1       839-3.33207E+09-6.42131E+09-4.67952E+09-4.94388E+08 1.52360E+09 4.60774E+07
 -1       840-3.38627E+09-6.56515E+09-4.78460E+09-4.41406E+08 1.55831E+09 3.81555E+07
 -1       841-3.44347E+09-6.70059E+09-4.89005E+09-3.94410E+08 1.59307E+09 3.61054E+07
 -1       842-3.49952E+09-6.82867E+09-4.97137E+09-3.42132E+08 1.61804E+09 2.85447E+07
 -1       843-3.41757E+09-6.83973E+09-5.00160E+09-2.68365E+08 1.64385E+09 7.96234E+07
 -1       844 7.81732E+08 3.29879E+07-3.55352E+06 3.23793E+08 2.37157E+07 1.03307E+08
 -1       845 6.92643E+08 1.48577E+08 4.87565E+07 5.95497E+08 3.93543E+07 9.90649E+07
 -1       846 5.09059E+08 1.78149E+08-2.96509E+07 7.73404E+08 7.39948E+07 9.73270E+07
 -1       847 3.77533E+08 2.38853E+08-8.58443E+07 9.00815E+08 1.13997E+08 9.83434E+07
 -1       848 2.65146E+08 3.12780E+08-1.44826E+08 9.95966E+08 1.60165E+08 1.00519E+08
 -1       849 1.75083E+08 3.96445E+08-2.04727E+08 1.07071E+09 2.10212E+08 1.03624E+08
 -1       850 1.08257E+08 4.86030E+08-2.66386E+08 1.13076E+09 2.62852E+08 1.07573E+08
 -1       851 6.52477E+07 5.78461E+08-3.30074E+08 1.17741E+09 3.16833E+08 1.11804E+08
 -1       852 4.46118E+07 6.71497E+08-3.95726E+08 1.20869E+09 3.71266E+08 1.15313E+08
 -1       853 4.22919E+07 7.63898E+08-4.62657E+08 1.22150E+09 4.25521E+08 1.17010E+08
 -1       854 5.18534E+07 8.55167E+08-5.29660E+08 1.21349E+09 4.79180E+08 1.16080E+08
 -1       855 6.55804E+07 9.45286E+08-5.95211E+08 1.18462E+09 5.31959E+08 1.12246E+08
 -1       856 7.60640E+07 1.03441E+09-6.57800E+08 1.13779E+09 5.83647E+08 1.05860E+08
 -1       857 7.78397E+07 1.12259E+09-7.16264E+08 1.07853E+09 6.34050E+08 9.78232E+07
 -1       858 6.86008E+07 1.20956E+09-7.70024E+08 1.01390E+09 6.82950E+08 8.93581E+07
 -1       859 4.96430E+07 1.29468E+09-8.19188E+08 9.50893E+08 7.30090E+08 8.16924E+07
 -1       860 2.54039E+07 1.37695E+09-8.64454E+08 8.94792E+08 7.75179E+08 7.57445E+07
 -1       861 2.21082E+06 1.45522E+09-9.06886E+08 8.48003E+08 8.17919E+08 7.18907E+07
 -1       862-1.34372E+07 1.52836E+09-9.47576E+08 8.09595E+08 8.58034E+08 6.98766E+07
 -1       863-1.65962E+07 1.59554E+09-9.87317E+08 7.75743E+08 8.95313E+08 6.88908E+07
 -1       864-5.15277E+06 1.65637E+09-1.02635E+09 7.40943E+08 9.29628E+08 6.77708E+07
 -1       865 1.97465E+07 1.71097E+09-1.06421E+09 6.99772E+08 9.60950E+08 6.52770E+07
 -1       866 5.42059E+07 1.76010E+09-1.09987E+09 6.48802E+08 9.89401E+08 6.04251E+07
 -1       867 9.30584E+07 1.80530E+09-1.13173E+09 5.88350E+08 1.01531E+09 5.29145E+07
 -1       868 1.31735E+08 1.84935E+09-1.15918E+09 5.23316E+08 1.03952E+09 4.35349E+07
 -1       869 1.66894E+08 1.89451E+09-1.18076E+09 4.61976E+08 1.06258E+09 3.57325E+07
 -1       870 1.95772E+08 1.94183E+09-1.20556E+09 4.10062E+08 1.08669E+09 3.41913E+07
 -1       871 2.20586E+08 1.98423E+09-1.21147E+09 3.63366E+08 1.10169E+09 2.65310E+07
 -1       872 2.52200E+08 1.98598E+09-1.25295E+09 3.01804E+08 1.12309E+09 7.83598E+07
 -1       873-3.41757E+09-6.83973E+09-5.00160E+09-2.68365E+08-1.64385E+09-7.96234E+07
 -1       874-3.49952E+09-6.82867E+09-4.97137E+09-3.42132E+08-1.61804E+09-2.85447E+07
 -1       875-3.44347E+09-6.70059E+09-4.89005E+09-3.94410E+08-1.59307E+09-3.61054E+07
 -1       876-3.38627E+09-6.56515E+09-4.78460E+09-4.41406E+08-1.55831E+09-3.81555E+07
 -1       877-3.33207E+09-6.42131E+09-4.67952E+09-4.94388E+08-1.52360E+09-4.60774E+07
 -1       878-3.28478E+09-6.26740E+09-4.56690E+09-5.52185E+08-1.48660E+09-5.57532E+07
 -1       879-3.23853E+09-6.10025E+09-4.44579E+09-6.11216E+08-1.44656E+09-6.34837E+07
 -1       880-3.18255E+09-5.91746E+09-4.31343E+09-6.68087E+08-1.40287E+09-6.84557E+07
 -1       881-3.10691E+09-5.71908E+09-4.16951E+09-7.21504E+08-1.35557E+09-7.09490E+07
 -1       882-3.00477E+09-5.50564E+09-4.01412E+09-7.72020E+08-1.30484E+09-7.19972E+07
 -1       883-2.87410E+09-5.27771E+09-3.84759E+09-8.21215E+08-1.25084E+09-7.29111E+07
 -1       884-2.71801E+09-5.03549E+09-3.67016E+09-8.70817E+08-1.19360E+09-7.49252E+07
 -1       885-2.54393E+09-4.77892E+09-3.48202E+09-9.21958E+08-1.13306E+09-7.89020E+07
 -1       886-2.36176E+09-4.50785E+09-3.28337E+09-9.74685E+08-1.06909E+09-8.51111E+07
 -1       887-2.18131E+09-4.22231E+09-3.07456E+09-1.02777E+09-1.00163E+09-9.31506E+07
 -1       888-2.00987E+09-3.92278E+09-2.85619E+09-1.07889E+09-9.30749E+08-1.02042E+08
 -1       889-1.85036E+09-3.61041E+09-2.62917E+09-1.12502E+09-8.56700E+08-1.10479E+08
 -1       890-1.70073E+09-3.28707E+09-2.39481E+09-1.16308E+09-7.79954E+08-1.17157E+08
 -1       891-1.55469E+09-2.95535E+09-2.15478E+09-1.19046E+09-7.01188E+08-1.21115E+08
 -1       892-1.40352E+09-2.61841E+09-1.91109E+09-1.20543E+09-6.21241E+08-1.21974E+08
 -1       893-1.23871E+09-2.27989E+09-1.66614E+09-1.20719E+09-5.41059E+08-1.20020E+08
 -1       894-1.05445E+09-1.94374E+09-1.42264E+09-1.19549E+09-4.61653E+08-1.16111E+08
 -1       895-8.49579E+08-1.61435E+09-1.18385E+09-1.16999E+09-3.84117E+08-1.11389E+08
 -1       896-6.28295E+08-1.29681E+09-9.53717E+08-1.12925E+09-3.09658E+08-1.06907E+08
 -1       897-3.99488E+08-9.97239E+08-7.37222E+08-1.06997E+09-2.39821E+08-1.03256E+08
 -1       898-1.74997E+08-7.23492E+08-5.40307E+08-9.85668E+08-1.75987E+08-1.00482E+08
 -1       899 2.84049E+07-4.84494E+08-3.72640E+08-8.66706E+08-1.21574E+08-9.90702E+07
 -1       900 2.22742E+08-2.80650E+08-2.20982E+08-6.93503E+08-7.33485E+07-9.87492E+07
 -1       901 2.28593E+08-2.47300E+08-2.53581E+08-4.44953E+08-5.78265E+07-1.08593E+08
 -1       902 7.81732E+08 3.29879E+07-3.55352E+06 3.23793E+08-2.37157E+07-1.03307E+08
 -1       903 6.92643E+08 1.48577E+08 4.87565E+07 5.95497E+08-3.93543E+07-9.90649E+07
 -1       904 5.09059E+08 1.78149E+08-2.96509E+07 7.73404E+08-7.39948E+07-9.73270E+07
 -1       905 3.77533E+08 2.38853E+08-8.58443E+07 9.00815E+08-1.13997E+08-9.83434E+07
 -1       906 2.65146E+08 3.12780E+08-1.44826E+08 9.95966E+08-1.60165E+08-1.00519E+08
 -1       907 1.75083E+08 3.96445E+08-2.04727E+08 1.07071E+09-2.10212E+08-1.03624E+08
 -1       908 1.08257E+08 4.86030E+08-2.66386E+08 1.13076E+09-2.62852E+08-1.07573E+08
 -1       909 6.52477E+07 5.78461E+08-3.30074E+08 1.17741E+09-3.16833E+08-1.11804E+08
 -1       910 4.46118E+07 6.71497E+08-3.95726E+08 1.20869E+09-3.71266E+08-1.15313E+08
 -1       911 4.22919E+07 7.63898E+08-4.62657E+08 1.22150E+09-4.25521E+08-1.17010E+08
 -1       912 5.18534E+07 8.55167E+08-5.29660E+08 1.21349E+09-4.79180E+08-1.16080E+08
 -1       913 6.55804E+07 9.45286E+08-5.95211E+08 1.18462E+09-5.31959E+08-1.12246E+08
 -1       914 7.60640E+07 1.03441E+09-6.57800E+08 1.13779E+09-5.83647E+08-1.05860E+08
 -1       915 7.78397E+07 1.12259E+09-7.16264E+08 1.07853E+09-6.34050E+08-9.78232E+07
 -1       916 6.86008E+07 1.20956E+09-7.70024E+08 1.01390E+09-6.82950E+08-8.93581E+07
 -1       917 4.96430E+07 1.29468E+09-8.19188E+08 9.50893E+08-7.30090E+08-8.16924E+07
 -1       918 2.54039E+07 1.37695E+09-8.64454E+08 8.94792E+08-7.75179E+08-7.57445E+07
 -1       919 2.21082E+06 1.45522E+09-9.06886E+08 8.48003E+08-8.17919E+08-7.18907E+07
 -1       920-1.34372E+07 1.52836E+09-9.47576E+08 8.09595E+08-8.58034E+08-6.98766E+07
 -1       921-1.65962E+07 1.59554E+09-9.87317E+08 7.75743E+08-8.95313E+08-6.88908E+07
 -1       922-5.15277E+06 1.65637E+09-1.02635E+09 7.40943E+08-9.29628E+08-6.77708E+07
 -1       923 1.97465E+07 1.71097E+09-1.06421E+09 6.99772E+08-9.60950E+08-6.52770E+07
 -1       924 5.42059E+07 1.76010E+09-1.09987E+09 6.48802E+08-9.89401E+08-6.04251E+07
 -1       925 9.30584E+07 1.80530E+09-1.13173E+09 5.88350E+08-1.01531E+09-5.29145E+07
 -1       926 1.31735E+08 1.84935E+09-1.15918E+09 5.23316E+08-1.03952E+09-4.35349E+07
 -1       927 1.66894E+08 1.89451E+09-1.18076E+09 4.61976E+08-1.06258E+09-3.57325E+07
 -1       928 1.95772E+08 1.94183E+09-1.20556E+09 4.10062E+08-1.08669E+09-3.41913E+07
 -1       929 2.20586E+08 1.98423E+09-1.21147E+09 3.63366E+08-1.10169E+09-2.65310E+07
 -1       930 2.52200E+08 1.98598E+09-1.25295E+09 3.01804E+08-1.12309E+09-7.83598E+07
 -3
    1PSTEP                        55           1           1          
    1PGM                1.000000E+00                                  
    1PGK                2.488115E+07                                  
    1PHID                         -1                                  
    1PSUBC                         0                                  
    1PMODE                        14                                  
  100CL  114 793.8809333         930                     2   14MODAL      1
 -4  FORC        4    1
 -5  F1          1    2    1    0
 -5  F2          1    2    2    0
 -5  F3          1    2    3    0
 -5  ALL         1    2    0    0    1ALL
 -1         1 7.53319E+04-3.75588E+04-8.61532E+04
 -1         2-7.53319E+04-3.75588E+04 8.61532E+04
 -1         3-2.39886E+02-5.89346E+04 5.97906E+04
 -1         4 2.39886E+02-5.89346E+04-5.97906E+04
 -1         5 7.53319E+04-3.75588E+04 8.61532E+04
 -1         6-7.53319E+04-3.75588E+04-8.61532E+04
 -1         7-2.39886E+02-5.89346E+04-5.97906E+04
 -1         8 2.39886E+02-5.89346E+04 5.97906E+04
 -1         9-8.62588E+04-9.26398E+03 7.36960E+04
 -1        10-2.24606E+02-9.16575E+04 5.58146E+04
 -1        11-2.82593E+05 1.06497E+05 3.42112E+05
 -1        12 7.23365E+05 1.21927E+05-3.71832E+05
 -1        13-9.81963E+02-7.72177E+04 2.34900E+05
 -1        14-1.08937E+03-6.27793E+04 2.34902E+05
 -1        15-8.62588E+04-9.26398E+03-7.36960E+04
 -1        16-2.24606E+02-9.16575E+04-5.58146E+04
 -1        17 7.23365E+05 1.21927E+05 3.71832E+05
 -1        18-2.82593E+05 1.06497E+05-3.42112E+05
 -1        19-1.08937E+03-6.27793E+04-2.34902E+05
 -1        20-9.81963E+02-7.72177E+04-2.34900E+05
 -1        21-7.23365E+05 1.21927E+05 3.71832E+05
 -1        22 2.82593E+05 1.06497E+05-3.42112E+05
 -1        23 9.81963E+02-7.72177E+04-2.34900E+05
 -1        24 1.08937E+03-6.27793E+04-2.34902E+05
 -1        25 8.62588E+04-9.26398E+03-7.36960E+04
 -1        26 2.24606E+02-9.16575E+04-5.58146E+04
 -1        27 8.62588E+04-9.26398E+03 7.36960E+04
 -1        28 2.82593E+05 1.06497E+05 3.42112E+05
 -1        29-7.23365E+05 1.21927E+05-3.71832E+05
 -1        30 2.24606E+02-9.16575E+04 5.58146E+04
 -1        31 9.81963E+02-7.72177E+04 2.34900E+05
 -1        32 1.08937E+03-6.27793E+04 2.34902E+05
 -1        33 3.27433E+02-1.03369E+03-1.30685E+03
 -1        34 6.37670E+02-3.30904E+03-3.82804E+03
 -1        35 8.83415E+02-7.04421E+03-7.42392E+03
 -1        36 1.06514E+03-1.20465E+04-1.17561E+04
 -1        37 1.18711E+03-1.79417E+04-1.66096E+04
 -1        38 1.25464E+03-2.42422E+04-2.18450E+04
 -1        39 1.27738E+03-3.04644E+04-2.73672E+04
 -1        40 1.26819E+03-3.62344E+04-3.31019E+04
 -1        41 1.24155E+03-4.13649E+04-3.89793E+04
 -1        42 1.21106E+03-4.58824E+04-4.49243E+04
 -1        43 1.18686E+03-4.99994E+04-5.08556E+04
 -1        44 1.17377E+03-5.40404E+04-5.66892E+04
 -1        45 1.17070E+03-5.83402E+04-6.23481E+04
 -1        46 1.17136E+03-6.31421E+04-6.77710E+04
 -1        47 1.16648E+03-6.85225E+04-7.29200E+04
 -1        48 1.14650E+03-7.43620E+04-7.77821E+04
 -1        49 1.10450E+03-8.03701E+04-8.23669E+04
 -1        50 1.03825E+03-8.61565E+04-8.66978E+04
 -1        51 9.51067E+02-9.13309E+04-9.08019E+04
 -1        52 8.51176E+02-9.56033E+04-9.46982E+04
 -1        53 7.49751E+02-9.88592E+04-9.83906E+04
 -1        54 6.58226E+02-1.01189E+05-1.01865E+05
 -1        55 5.85558E+02-1.02863E+05-1.05092E+05
 -1        56 5.36223E+02-1.04266E+05-1.08040E+05
 -1        57 5.09485E+02-1.05792E+05-1.10685E+05
 -1        58 5.00461E+02-1.07741E+05-1.13029E+05
 -1        59 5.01643E+02-1.10228E+05-1.15099E+05
 -1        60 5.08511E+02-1.13136E+05-1.16940E+05
 -1        61 5.17102E+02-1.16126E+05-1.18587E+05
 -1        62-3.27433E+02-1.03369E+03 1.30685E+03
 -1        63-6.37670E+02-3.30904E+03 3.82804E+03
 -1        64-8.83415E+02-7.04421E+03 7.42392E+03
 -1        65-1.06514E+03-1.20465E+04 1.17561E+04
 -1        66-1.18711E+03-1.79417E+04 1.66096E+04
 -1        67-1.25464E+03-2.42422E+04 2.18450E+04
 -1        68-1.27738E+03-3.04644E+04 2.73672E+04
 -1        69-1.26819E+03-3.62344E+04 3.31019E+04
 -1        70-1.24155E+03-4.13649E+04 3.89793E+04
 -1        71-1.21106E+03-4.58824E+04 4.49243E+04
 -1        72-1.18686E+03-4.99994E+04 5.08556E+04
 -1        73-1.17377E+03-5.40404E+04 5.66892E+04
 -1        74-1.17070E+03-5.83402E+04 6.23481E+04
 -1        75-1.17136E+03-6.31421E+04 6.77710E+04
 -1        76-1.16648E+03-6.85225E+04 7.29200E+04
 -1        77-1.14650E+03-7.43620E+04 7.77821E+04
 -1        78-1.10450E+03-8.03701E+04 8.23669E+04
 -1        79-1.03825E+03-8.61565E+04 8.66978E+04
 -1        80-9.51067E+02-9.13309E+04 9.08019E+04
 -1        81-8.51176E+02-9.56033E+04 9.46982E+04
 -1        82-7.49751E+02-9.88592E+04 9.83906E+04
 -1        83-6.58226E+02-1.01189E+05 1.01865E+05
 -1        84-5.85558E+02-1.02863E+05 1.05092E+05
 -1        85-5.36223E+02-1.04266E+05 1.08040E+05
 -1        86-5.09485E+02-1.05792E+05 1.10685E+05
 -1        87-5.00461E+02-1.07741E+05 1.13029E+05
 -1        88-5.01643E+02-1.10228E+05 1.15099E+05
 -1        89-5.08511E+02-1.13136E+05 1.16940E+05
 -1        90-5.17102E+02-1.16126E+05 1.18587E+05
 -1        91-1.01401E+06-1.45604E+04-7.70823E+03
 -1        92-1.54090E+06-2.04831E+04-1.60785E-06
 -1        93-1.01401E+06-1.45604E+04 7.70823E+03
 -1        94 1.01401E+06-1.45604E+04-7.70823E+03
 -1        95 1.54090E+06-2.04831E+04-1.61979E-06
 -1        96 1.01401E+06-1.45604E+04 7.70823E+03
 -1        97-3.27433E+02-1.03369E+03-1.30685E+03
 -1        98-6.37670E+02-3.30904E+03-3.82804E+03
 -1        99-8.83415E+02-7.04421E+03-7.42392E+03
 -1       100-1.06514E+03-1.20465E+04-1.17561E+04
 -1       101-1.18711E+03-1.79417E+04-1.66096E+04
 -1       102-1.25464E+03-2.42422E+04-2.18450E+04
 -1       103-1.27738E+03-3.04644E+04-2.73672E+04
 -1       104-1.26819E+03-3.62344E+04-3.31019E+04
 -1       105-1.24155E+03-4.13649E+04-3.89793E+04
 -1       106-1.21106E+03-4.58824E+04-4.49243E+04
 -1       107-1.18686E+03-4.99994E+04-5.08556E+04
 -1       108-1.17377E+03-5.40404E+04-5.66892E+04
 -1       109-1.17070E+03-5.83402E+04-6.23481E+04
 -1       110-1.17136E+03-6.31421E+04-6.77710E+04
 -1       111-1.16648E+03-6.85225E+04-7.29200E+04
 -1       112-1.14650E+03-7.43620E+04-7.77821E+04
 -1       113-1.10450E+03-8.03701E+04-8.23669E+04
 -1       114-1.03825E+03-8.61565E+04-8.66978E+04
 -1       115-9.51067E+02-9.13309E+04-9.08019E+04
 -1       116-8.51176E+02-9.56033E+04-9.46982E+04
 -1       117-7.49751E+02-9.88592E+04-9.83906E+04
 -1       118-6.58226E+02-1.01189E+05-1.01865E+05
 -1       119-5.85558E+02-1.02863E+05-1.05092E+05
 -1       120-5.36223E+02-1.04266E+05-1.08040E+05
 -1       121-5.09485E+02-1.05792E+05-1.10685E+05
 -1       122-5.00461E+02-1.07741E+05-1.13029E+05
 -1       123-5.01643E+02-1.10228E+05-1.15099E+05
 -1       124-5.08511E+02-1.13136E+05-1.16940E+05
 -1       125-5.17102E+02-1.16126E+05-1.18587E+05
 -1       126 9.70357E+01 3.19636E+05 5.36907E+03
 -1       127 1.51906E+02 4.99016E+05 7.17991E-08
 -1       128 9.70357E+01 3.19636E+05-5.36907E+03
 -1       129 3.27433E+02-1.03369E+03 1.30685E+03
 -1       130 6.37670E+02-3.30904E+03 3.82804E+03
 -1       131 8.83415E+02-7.04421E+03 7.42392E+03
 -1       132 1.06514E+03-1.20465E+04 1.17561E+04
 -1       133 1.18711E+03-1.79417E+04 1.66096E+04
 -1       134 1.25464E+03-2.42422E+04 2.18450E+04
 -1       135 1.27738E+03-3.04644E+04 2.73672E+04
 -1       136 1.26819E+03-3.62344E+04 3.31019E+04
 -1       137 1.24155E+03-4.13649E+04 3.89793E+04
 -1       138 1.21106E+03-4.58824E+04 4.49243E+04
 -1       139 1.18686E+03-4.99994E+04 5.08556E+04
 -1       140 1.17377E+03-5.40404E+04 5.66892E+04
 -1       141 1.17070E+03-5.83402E+04 6.23481E+04
 -1       142 1.17136E+03-6.31421E+04 6.77710E+04
 -1       143 1.16648E+03-6.85225E+04 7.29200E+04
 -1       144 1.14650E+03-7.43620E+04 7.77821E+04
 -1       145 1.10450E+03-8.03701E+04 8.23669E+04
 -1       146 1.03825E+03-8.61565E+04 8.66978E+04
 -1       147 9.51067E+02-9.13309E+04 9.08019E+04
 -1       148 8.51176E+02-9.56033E+04 9.46982E+04
 -1       149 7.49751E+02-9.88592E+04 9.83906E+04
 -1       150 6.58226E+02-1.01189E+05 1.01865E+05
 -1       151 5.85558E+02-1.02863E+05 1.05092E+05
 -1       152 5.36223E+02-1.04266E+05 1.08040E+05
 -1       153 5.09485E+02-1.05792E+05 1.10685E+05
 -1       154 5.00461E+02-1.07741E+05 1.13029E+05
 -1       155 5.01643E+02-1.10228E+05 1.15099E+05
 -1       156 5.08511E+02-1.13136E+05 1.16940E+05
 -1       157 5.17102E+02-1.16126E+05 1.18587E+05
 -1       158-9.70357E+01 3.19636E+05 5.36907E+03
 -1       159-1.51906E+02 4.99016E+05-5.81320E-07
 -1       160-9.70357E+01 3.19636E+05-5.36907E+03
 -1       161-2.61065E+02-1.85998E+03 1.21984E+03
 -1       162-5.21968E+02-5.59582E+03 3.57705E+03
 -1       163-7.31749E+02-1.11787E+04 6.93594E+03
 -1       164-8.87202E+02-1.81491E+04 1.09815E+04
 -1       165-9.91212E+02-2.60916E+04 1.55139E+04
 -1       166-1.04804E+03-3.46283E+04 2.04032E+04
 -1       167-1.06598E+03-4.34359E+04 2.55602E+04
 -1       168-1.05637E+03-5.22656E+04 3.09153E+04
 -1       169-1.03201E+03-6.09580E+04 3.64027E+04
 -1       170-1.00503E+03-6.94445E+04 4.19528E+04
 -1       171-9.84472E+02-7.77336E+04 4.74895E+04
 -1       172-9.74592E+02-8.58822E+04 5.29351E+04
 -1       173-9.74295E+02-9.39591E+04 5.82180E+04
 -1       174-9.77840E+02-1.02009E+05 6.32814E+04
 -1       175-9.76729E+02-1.10024E+05 6.80899E+04
 -1       176-9.62262E+02-1.17938E+05 7.26313E+04
 -1       177-9.28107E+02-1.25627E+05 7.69141E+04
 -1       178-8.72204E+02-1.32942E+05 8.09600E+04
 -1       179-7.97522E+02-1.39733E+05 8.47936E+04
 -1       180-7.11477E+02-1.45889E+05 8.84325E+04
 -1       181-6.24164E+02-1.51363E+05 9.18801E+04
 -1       182-5.45894E+02-1.56180E+05 9.51231E+04
 -1       183-4.84663E+02-1.60434E+05 9.81352E+04
 -1       184-4.44280E+02-1.64260E+05 1.00886E+05
 -1       185-4.23726E+02-1.67807E+05 1.03356E+05
 -1       186-4.18446E+02-1.71199E+05 1.05547E+05
 -1       187-4.22793E+02-1.74522E+05 1.07485E+05
 -1       188-4.35126E+02-1.77821E+05 1.09206E+05
 -1       189-4.58250E+02-1.81132E+05 1.10728E+05
 -1       190-4.36143E+05-2.28837E+04 4.02280E+05
 -1       191 8.13419E+05-6.60447E+04-4.34937E+05
 -1       192-1.25498E+03-1.53952E+05 2.88113E+05
 -1       193-1.15323E+03-1.69664E+03 5.14876E+03
 -1       194-2.23246E+03-4.83615E+03 1.51001E+04
 -1       195-3.10171E+03-9.50857E+03 2.92574E+04
 -1       196-3.74615E+03-1.53526E+04 4.62948E+04
 -1       197-4.17562E+03-2.20156E+04 6.53830E+04
 -1       198-4.41089E+03-2.91823E+04 8.59777E+04
 -1       199-4.48634E+03-3.65836E+04 1.07700E+05
 -1       200-4.44833E+03-4.40117E+04 1.30252E+05
 -1       201-4.34915E+03-5.13328E+04 1.53357E+05
 -1       202-4.23800E+03-5.84880E+04 1.76720E+05
 -1       203-4.15164E+03-6.54813E+04 2.00023E+05
 -1       204-4.10747E+03-7.23571E+04 2.22944E+05
 -1       205-4.10118E+03-7.91692E+04 2.45183E+05
 -1       206-4.10966E+03-8.59523E+04 2.66504E+05
 -1       207-4.09867E+03-9.26998E+04 2.86759E+05
 -1       208-4.03314E+03-9.93552E+04 3.05896E+05
 -1       209-3.88756E+03-1.05819E+05 3.23948E+05
 -1       210-3.65366E+03-1.11966E+05 3.41003E+05
 -1       211-3.34351E+03-1.17676E+05 3.57160E+05
 -1       212-2.98713E+03-1.22858E+05 3.72491E+05
 -1       213-2.62539E+03-1.27472E+05 3.87008E+05
 -1       214-2.30004E+03-1.31541E+05 4.00658E+05
 -1       215-2.04353E+03-1.35139E+05 4.13330E+05
 -1       216-1.87135E+03-1.38377E+05 4.24904E+05
 -1       217-1.77949E+03-1.41378E+05 4.35305E+05
 -1       218-1.74910E+03-1.44245E+05 4.44556E+05
 -1       219-1.75918E+03-1.47049E+05 4.52770E+05
 -1       220-1.80232E+03-1.49829E+05 4.60042E+05
 -1       221-1.88675E+03-1.52604E+05 4.66269E+05
 -1       222-1.47129E+03-1.38074E+03 5.16703E+03
 -1       223-2.77690E+03-3.90680E+03 1.51154E+04
 -1       224-3.79798E+03-7.70776E+03 2.92691E+04
 -1       225-4.54872E+03-1.25039E+04 4.63033E+04
 -1       226-5.05522E+03-1.79929E+04 6.53885E+04
 -1       227-5.34783E+03-2.38930E+04 8.59806E+04
 -1       228-5.46621E+03-2.99582E+04 1.07701E+05
 -1       229-5.45877E+03-3.59994E+04 1.30252E+05
 -1       230-5.37768E+03-4.18998E+04 1.53356E+05
 -1       231-5.27107E+03-4.76186E+04 1.76719E+05
 -1       232-5.17489E+03-5.31794E+04 2.00023E+05
 -1       233-5.10690E+03-5.86461E+04 2.22944E+05
 -1       234-5.06472E+03-6.40909E+04 2.45184E+05
 -1       235-5.02868E+03-6.95629E+04 2.66506E+05
 -1       236-4.96875E+03-7.50645E+04 2.86760E+05
 -1       237-4.85404E+03-8.05427E+04 3.05896E+05
 -1       238-4.66222E+03-8.58953E+04 3.23947E+05
 -1       239-4.38653E+03-9.09932E+04 3.41001E+05
 -1       240-4.03865E+03-9.57089E+04 3.57157E+05
 -1       241-3.64657E+03-9.99478E+04 3.72487E+05
 -1       242-3.24816E+03-1.03670E+05 3.87005E+05
 -1       243-2.88232E+03-1.06899E+05 4.00655E+05
 -1       244-2.57988E+03-1.09719E+05 4.13328E+05
 -1       245-2.35700E+03-1.12246E+05 4.24904E+05
 -1       246-2.21302E+03-1.14606E+05 4.35306E+05
 -1       247-2.13389E+03-1.16903E+05 4.44558E+05
 -1       248-2.10115E+03-1.19200E+05 4.52772E+05
 -1       249-2.10192E+03-1.21532E+05 4.60045E+05
 -1       250-2.13535E+03-1.23934E+05 4.66272E+05
 -1       251-1.38289E+03-1.25657E+05 2.88087E+05
 -1       252-4.58250E+02-1.81132E+05-1.10728E+05
 -1       253-4.35126E+02-1.77821E+05-1.09206E+05
 -1       254-4.22793E+02-1.74522E+05-1.07485E+05
 -1       255-4.18446E+02-1.71199E+05-1.05547E+05
 -1       256-4.23726E+02-1.67807E+05-1.03356E+05
 -1       257-4.44280E+02-1.64260E+05-1.00886E+05
 -1       258-4.84663E+02-1.60434E+05-9.81352E+04
 -1       259-5.45894E+02-1.56180E+05-9.51231E+04
 -1       260-6.24164E+02-1.51363E+05-9.18801E+04
 -1       261-7.11477E+02-1.45889E+05-8.84325E+04
 -1       262-7.97522E+02-1.39733E+05-8.47936E+04
 -1       263-8.72204E+02-1.32942E+05-8.09600E+04
 -1       264-9.28107E+02-1.25627E+05-7.69141E+04
 -1       265-9.62262E+02-1.17938E+05-7.26313E+04
 -1       266-9.76729E+02-1.10024E+05-6.80899E+04
 -1       267-9.77840E+02-1.02009E+05-6.32814E+04
 -1       268-9.74295E+02-9.39591E+04-5.82180E+04
 -1       269-9.74592E+02-8.58822E+04-5.29351E+04
 -1       270-9.84472E+02-7.77336E+04-4.74895E+04
 -1       271-1.00503E+03-6.94445E+04-4.19528E+04
 -1       272-1.03201E+03-6.09580E+04-3.64027E+04
 -1       273-1.05637E+03-5.22656E+04-3.09153E+04
 -1       274-1.06598E+03-4.34359E+04-2.55602E+04
 -1       275-1.04804E+03-3.46283E+04-2.04032E+04
 -1       276-9.91212E+02-2.60916E+04-1.55139E+04
 -1       277-8.87202E+02-1.81491E+04-1.09815E+04
 -1       278-7.31749E+02-1.11787E+04-6.93594E+03
 -1       279-5.21968E+02-5.59582E+03-3.57705E+03
 -1       280-2.61065E+02-1.85998E+03-1.21984E+03
 -1       281 8.13419E+05-6.60447E+04 4.34937E+05
 -1       282-4.36143E+05-2.28837E+04-4.02280E+05
 -1       283-1.47129E+03-1.38074E+03-5.16703E+03
 -1       284-2.77690E+03-3.90680E+03-1.51154E+04
 -1       285-3.79798E+03-7.70776E+03-2.92691E+04
 -1       286-4.54872E+03-1.25039E+04-4.63033E+04
 -1       287-5.05522E+03-1.79929E+04-6.53885E+04
 -1       288-5.34783E+03-2.38930E+04-8.59806E+04
 -1       289-5.46621E+03-2.99582E+04-1.07701E+05
 -1       290-5.45877E+03-3.59994E+04-1.30252E+05
 -1       291-5.37768E+03-4.18998E+04-1.53356E+05
 -1       292-5.27107E+03-4.76186E+04-1.76719E+05
 -1       293-5.17489E+03-5.31794E+04-2.00023E+05
 -1       294-5.10690E+03-5.86461E+04-2.22944E+05
 -1       295-5.06472E+03-6.40909E+04-2.45184E+05
 -1       296-5.02868E+03-6.95629E+04-2.66506E+05
 -1       297-4.96875E+03-7.50645E+04-2.86760E+05
 -1       298-4.85404E+03-8.05427E+04-3.05896E+05
 -1       299-4.66222E+03-8.58953E+04-3.23947E+05
 -1       300-4.38653E+03-9.09932E+04-3.41001E+05
 -1       301-4.03865E+03-9.57089E+04-3.57157E+05
 -1       302-3.64657E+03-9.99478E+04-3.72487E+05
 -1       303-3.24816E+03-1.03670E+05-3.87005E+05
 -1       304-2.88232E+03-1.06899E+05-4.00655E+05
 -1       305-2.57988E+03-1.09719E+05-4.13328E+05
 -1       306-2.35700E+03-1.12246E+05-4.24904E+05
 -1       307-2.21302E+03-1.14606E+05-4.35306E+05
 -1       308-2.13389E+03-1.16903E+05-4.44558E+05
 -1       309-2.10115E+03-1.19200E+05-4.52772E+05
 -1       310-2.10192E+03-1.21532E+05-4.60045E+05
 -1       311-2.13535E+03-1.23934E+05-4.66272E+05
 -1       312-1.38289E+03-1.25657E+05-2.88087E+05
 -1       313-1.15323E+03-1.69664E+03-5.14876E+03
 -1       314-2.23246E+03-4.83615E+03-1.51001E+04
 -1       315-3.10171E+03-9.50857E+03-2.92574E+04
 -1       316-3.74615E+03-1.53526E+04-4.62948E+04
 -1       317-4.17562E+03-2.20156E+04-6.53830E+04
 -1       318-4.41089E+03-2.91823E+04-8.59777E+04
 -1       319-4.48634E+03-3.65836E+04-1.07700E+05
 -1       320-4.44833E+03-4.40117E+04-1.30252E+05
 -1       321-4.34915E+03-5.13328E+04-1.53357E+05
 -1       322-4.23800E+03-5.84880E+04-1.76720E+05
 -1       323-4.15164E+03-6.54813E+04-2.00023E+05
 -1       324-4.10747E+03-7.23571E+04-2.22944E+05
 -1       325-4.10118E+03-7.91692E+04-2.45183E+05
 -1       326-4.10966E+03-8.59523E+04-2.66504E+05
 -1       327-4.09867E+03-9.26998E+04-2.86759E+05
 -1       328-4.03314E+03-9.93552E+04-3.05896E+05
 -1       329-3.88756E+03-1.05819E+05-3.23948E+05
 -1       330-3.65366E+03-1.11966E+05-3.41003E+05
 -1       331-3.34351E+03-1.17676E+05-3.57160E+05
 -1       332-2.98713E+03-1.22858E+05-3.72491E+05
 -1       333-2.62539E+03-1.27472E+05-3.87008E+05
 -1       334-2.30004E+03-1.31541E+05-4.00658E+05
 -1       335-2.04353E+03-1.35139E+05-4.13330E+05
 -1       336-1.87135E+03-1.38377E+05-4.24904E+05
 -1       337-1.77949E+03-1.41378E+05-4.35305E+05
 -1       338-1.74910E+03-1.44245E+05-4.44556E+05
 -1       339-1.75918E+03-1.47049E+05-4.52770E+05
 -1       340-1.80232E+03-1.49829E+05-4.60042E+05
 -1       341-1.88675E+03-1.52604E+05-4.66269E+05
 -1       342-1.25498E+03-1.53952E+05-2.88113E+05
 -1       343 1.15323E+03-1.69664E+03-5.14876E+03
 -1       344 2.23246E+03-4.83615E+03-1.51001E+04
 -1       345 3.10171E+03-9.50857E+03-2.92574E+04
 -1       346 3.74615E+03-1.53526E+04-4.62948E+04
 -1       347 4.17562E+03-2.20156E+04-6.53830E+04
 -1       348 4.41089E+03-2.91823E+04-8.59777E+04
 -1       349 4.48634E+03-3.65836E+04-1.07700E+05
 -1       350 4.44833E+03-4.40117E+04-1.30252E+05
 -1       351 4.34915E+03-5.13328E+04-1.53357E+05
 -1       352 4.23800E+03-5.84880E+04-1.76720E+05
 -1       353 4.15164E+03-6.54813E+04-2.00023E+05
 -1       354 4.10747E+03-7.23571E+04-2.22944E+05
 -1       355 4.10118E+03-7.91692E+04-2.45183E+05
 -1       356 4.10966E+03-8.59523E+04-2.66504E+05
 -1       357 4.09867E+03-9.26998E+04-2.86759E+05
 -1       358 4.03314E+03-9.93552E+04-3.05896E+05
 -1       359 3.88756E+03-1.05819E+05-3.23948E+05
 -1       360 3.65366E+03-1.11966E+05-3.41003E+05
 -1       361 3.34351E+03-1.17676E+05-3.57160E+05
 -1       362 2.98713E+03-1.22858E+05-3.72491E+05
 -1       363 2.62539E+03-1.27472E+05-3.87008E+05
 -1       364 2.30004E+03-1.31541E+05-4.00658E+05
 -1       365 2.04353E+03-1.35139E+05-4.13330E+05
 -1       366 1.87135E+03-1.38377E+05-4.24904E+05
 -1       367 1.77949E+03-1.41378E+05-4.35305E+05
 -1       368 1.74910E+03-1.44245E+05-4.44556E+05
 -1       369 1.75918E+03-1.47049E+05-4.52770E+05
 -1       370 1.80232E+03-1.49829E+05-4.60042E+05
 -1       371 1.88675E+03-1.52604E+05-4.66269E+05
 -1       372 1.47129E+03-1.38074E+03-5.16703E+03
 -1       373 2.77690E+03-3.90680E+03-1.51154E+04
 -1       374 3.79798E+03-7.70776E+03-2.92691E+04
 -1       375 4.54872E+03-1.25039E+04-4.63033E+04
 -1       376 5.05522E+03-1.79929E+04-6.53885E+04
 -1       377 5.34783E+03-2.38930E+04-8.59806E+04
 -1       378 5.46621E+03-2.99582E+04-1.07701E+05
 -1       379 5.45877E+03-3.59994E+04-1.30252E+05
 -1       380 5.37768E+03-4.18998E+04-1.53356E+05
 -1       381 5.27107E+03-4.76186E+04-1.76719E+05
 -1       382 5.17489E+03-5.31794E+04-2.00023E+05
 -1       383 5.10690E+03-5.86461E+04-2.22944E+05
 -1       384 5.06472E+03-6.40909E+04-2.45184E+05
 -1       385 5.02868E+03-6.95629E+04-2.66506E+05
 -1       386 4.96875E+03-7.50645E+04-2.86760E+05
 -1       387 4.85404E+03-8.05427E+04-3.05896E+05
 -1       388 4.66222E+03-8.58953E+04-3.23947E+05
 -1       389 4.38653E+03-9.09932E+04-3.41001E+05
 -1       390 4.03865E+03-9.57089E+04-3.57157E+05
 -1       391 3.64657E+03-9.99478E+04-3.72487E+05
 -1       392 3.24816E+03-1.03670E+05-3.87005E+05
 -1       393 2.88232E+03-1.06899E+05-4.00655E+05
 -1       394 2.57988E+03-1.09719E+05-4.13328E+05
 -1       395 2.35700E+03-1.12246E+05-4.24904E+05
 -1       396 2.21302E+03-1.14606E+05-4.35306E+05
 -1       397 2.13389E+03-1.16903E+05-4.44558E+05
 -1       398 2.10115E+03-1.19200E+05-4.52772E+05
 -1       399 2.10192E+03-1.21532E+05-4.60045E+05
 -1       400 2.13535E+03-1.23934E+05-4.66272E+05
 -1       401 4.36143E+05-2.28837E+04-4.02280E+05
 -1       402-8.13419E+05-6.60447E+04 4.34937E+05
 -1       403 1.25498E+03-1.53952E+05-2.88113E+05
 -1       404 2.61065E+02-1.85998E+03-1.21984E+03
 -1       405 5.21968E+02-5.59582E+03-3.57705E+03
 -1       406 7.31749E+02-1.11787E+04-6.93594E+03
 -1       407 8.87202E+02-1.81491E+04-1.09815E+04
 -1       408 9.91212E+02-2.60916E+04-1.55139E+04
 -1       409 1.04804E+03-3.46283E+04-2.04032E+04
 -1       410 1.06598E+03-4.34359E+04-2.55602E+04
 -1       411 1.05637E+03-5.22656E+04-3.09153E+04
 -1       412 1.03201E+03-6.09580E+04-3.64027E+04
 -1       413 1.00503E+03-6.94445E+04-4.19528E+04
 -1       414 9.84472E+02-7.77336E+04-4.74895E+04
 -1       415 9.74592E+02-8.58822E+04-5.29351E+04
 -1       416 9.74295E+02-9.39591E+04-5.82180E+04
 -1       417 9.77840E+02-1.02009E+05-6.32814E+04
 -1       418 9.76729E+02-1.10024E+05-6.80899E+04
 -1       419 9.62262E+02-1.17938E+05-7.26313E+04
 -1       420 9.28107E+02-1.25627E+05-7.69141E+04
 -1       421 8.72204E+02-1.32942E+05-8.09600E+04
 -1       422 7.97522E+02-1.39733E+05-8.47936E+04
 -1       423 7.11477E+02-1.45889E+05-8.84325E+04
 -1       424 6.24164E+02-1.51363E+05-9.18801E+04
 -1       425 5.45894E+02-1.56180E+05-9.51231E+04
 -1       426 4.84663E+02-1.60434E+05-9.81352E+04
 -1       427 4.44280E+02-1.64260E+05-1.00886E+05
 -1       428 4.23726E+02-1.67807E+05-1.03356E+05
 -1       429 4.18446E+02-1.71199E+05-1.05547E+05
 -1       430 4.22793E+02-1.74522E+05-1.07485E+05
 -1       431 4.35126E+02-1.77821E+05-1.09206E+05
 -1       432 4.58250E+02-1.81132E+05-1.10728E+05
 -1       433 1.38289E+03-1.25657E+05-2.88087E+05
 -1       434 4.36143E+05-2.28837E+04 4.02280E+05
 -1       435-8.13419E+05-6.60447E+04-4.34937E+05
 -1       436 4.58250E+02-1.81132E+05 1.10728E+05
 -1       437 4.35126E+02-1.77821E+05 1.09206E+05
 -1       438 4.22793E+02-1.74522E+05 1.07485E+05
 -1       439 4.18446E+02-1.71199E+05 1.05547E+05
 -1       440 4.23726E+02-1.67807E+05 1.03356E+05
 -1       441 4.44280E+02-1.64260E+05 1.00886E+05
 -1       442 4.84663E+02-1.60434E+05 9.81352E+04
 -1       443 5.45894E+02-1.56180E+05 9.51231E+04
 -1       444 6.24164E+02-1.51363E+05 9.18801E+04
 -1       445 7.11477E+02-1.45889E+05 8.84325E+04
 -1       446 7.97522E+02-1.39733E+05 8.47936E+04
 -1       447 8.72204E+02-1.32942E+05 8.09600E+04
 -1       448 9.28107E+02-1.25627E+05 7.69141E+04
 -1       449 9.62262E+02-1.17938E+05 7.26313E+04
 -1       450 9.76729E+02-1.10024E+05 6.80899E+04
 -1       451 9.77840E+02-1.02009E+05 6.32814E+04
 -1       452 9.74295E+02-9.39591E+04 5.82180E+04
 -1       453 9.74592E+02-8.58822E+04 5.29351E+04
 -1       454 9.84472E+02-7.77336E+04 4.74895E+04
 -1       455 1.00503E+03-6.94445E+04 4.19528E+04
 -1       456 1.03201E+03-6.09580E+04 3.64027E+04
 -1       457 1.05637E+03-5.22656E+04 3.09153E+04
 -1       458 1.06598E+03-4.34359E+04 2.55602E+04
 -1       459 1.04804E+03-3.46283E+04 2.04032E+04
 -1       460 9.91212E+02-2.60916E+04 1.55139E+04
 -1       461 8.87202E+02-1.81491E+04 1.09815E+04
 -1       462 7.31749E+02-1.11787E+04 6.93594E+03
 -1       463 5.21968E+02-5.59582E+03 3.57705E+03
 -1       464 2.61065E+02-1.85998E+03 1.21984E+03
 -1       465 1.25498E+03-1.53952E+05 2.88113E+05
 -1       466 1.15323E+03-1.69664E+03 5.14876E+03
 -1       467 2.23246E+03-4.83615E+03 1.51001E+04
 -1       468 3.10171E+03-9.50857E+03 2.92574E+04
 -1       469 3.74615E+03-1.53526E+04 4.62948E+04
 -1       470 4.17562E+03-2.20156E+04 6.53830E+04
 -1       471 4.41089E+03-2.91823E+04 8.59777E+04
 -1       472 4.48634E+03-3.65836E+04 1.07700E+05
 -1       473 4.44833E+03-4.40117E+04 1.30252E+05
 -1       474 4.34915E+03-5.13328E+04 1.53357E+05
 -1       475 4.23800E+03-5.84880E+04 1.76720E+05
 -1       476 4.15164E+03-6.54813E+04 2.00023E+05
 -1       477 4.10747E+03-7.23571E+04 2.22944E+05
 -1       478 4.10118E+03-7.91692E+04 2.45183E+05
 -1       479 4.10966E+03-8.59523E+04 2.66504E+05
 -1       480 4.09867E+03-9.26998E+04 2.86759E+05
 -1       481 4.03314E+03-9.93552E+04 3.05896E+05
 -1       482 3.88756E+03-1.05819E+05 3.23948E+05
 -1       483 3.65366E+03-1.11966E+05 3.41003E+05
 -1       484 3.34351E+03-1.17676E+05 3.57160E+05
 -1       485 2.98713E+03-1.22858E+05 3.72491E+05
 -1       486 2.62539E+03-1.27472E+05 3.87008E+05
 -1       487 2.30004E+03-1.31541E+05 4.00658E+05
 -1       488 2.04353E+03-1.35139E+05 4.13330E+05
 -1       489 1.87135E+03-1.38377E+05 4.24904E+05
 -1       490 1.77949E+03-1.41378E+05 4.35305E+05
 -1       491 1.74910E+03-1.44245E+05 4.44556E+05
 -1       492 1.75918E+03-1.47049E+05 4.52770E+05
 -1       493 1.80232E+03-1.49829E+05 4.60042E+05
 -1       494 1.88675E+03-1.52604E+05 4.66269E+05
 -1       495 1.47129E+03-1.38074E+03 5.16703E+03
 -1       496 2.77690E+03-3.90680E+03 1.51154E+04
 -1       497 3.79798E+03-7.70776E+03 2.92691E+04
 -1       498 4.54872E+03-1.25039E+04 4.63033E+04
 -1       499 5.05522E+03-1.79929E+04 6.53885E+04
 -1       500 5.34783E+03-2.38930E+04 8.59806E+04
 -1       501 5.46621E+03-2.99582E+04 1.07701E+05
 -1       502 5.45877E+03-3.59994E+04 1.30252E+05
 -1       503 5.37768E+03-4.18998E+04 1.53356E+05
 -1       504 5.27107E+03-4.76186E+04 1.76719E+05
 -1       505 5.17489E+03-5.31794E+04 2.00023E+05
 -1       506 5.10690E+03-5.86461E+04 2.22944E+05
 -1       507 5.06472E+03-6.40909E+04 2.45184E+05
 -1       508 5.02868E+03-6.95629E+04 2.66506E+05
 -1       509 4.96875E+03-7.50645E+04 2.86760E+05
 -1       510 4.85404E+03-8.05427E+04 3.05896E+05
 -1       511 4.66222E+03-8.58953E+04 3.23947E+05
 -1       512 4.38653E+03-9.09932E+04 3.41001E+05
 -1       513 4.03865E+03-9.57089E+04 3.57157E+05
 -1       514 3.64657E+03-9.99478E+04 3.72487E+05
 -1       515 3.24816E+03-1.03670E+05 3.87005E+05
 -1       516 2.88232E+03-1.06899E+05 4.00655E+05
 -1       517 2.57988E+03-1.09719E+05 4.13328E+05
 -1       518 2.35700E+03-1.12246E+05 4.24904E+05
 -1       519 2.21302E+03-1.14606E+05 4.35306E+05
 -1       520 2.13389E+03-1.16903E+05 4.44558E+05
 -1       521 2.10115E+03-1.19200E+05 4.52772E+05
 -1       522 2.10192E+03-1.21532E+05 4.60045E+05
 -1       523 2.13535E+03-1.23934E+05 4.66272E+05
 -1       524 1.38289E+03-1.25657E+05 2.88087E+05
 -1       525 1.38698E+02 6.90491E+03 1.11742E+02
 -1       526 2.36637E+02 2.02979E+04 3.33139E+02
 -1       527 2.97740E+02 3.91601E+04 6.53596E+02
 -1       528 3.37002E+02 6.14481E+04 1.04130E+03
 -1       529 3.66583E+02 8.60850E+04 1.47534E+03
 -1       530 3.93828E+02 1.12681E+05 1.94286E+03
 -1       531 4.21131E+02 1.41184E+05 2.43591E+03
 -1       532 4.47023E+02 1.71563E+05 2.94852E+03
 -1       533 4.67780E+02 2.03598E+05 3.47483E+03
 -1       534 4.79182E+02 2.36780E+05 4.00809E+03
 -1       535 4.78100E+02 2.70335E+05 4.54061E+03
 -1       536 4.63632E+02 3.03344E+05 5.06433E+03
 -1       537 4.37547E+02 3.34917E+05 5.57173E+03
 -1       538 4.03972E+02 3.64375E+05 6.05690E+03
 -1       539 3.68408E+02 3.91382E+05 6.51628E+03
 -1       540 3.36358E+02 4.15996E+05 6.94889E+03
 -1       541 3.11937E+02 4.38618E+05 7.35604E+03
 -1       542 2.96846E+02 4.59856E+05 7.74045E+03
 -1       543 2.89989E+02 4.80340E+05 8.10515E+03
 -1       544 2.87839E+02 5.00535E+05 8.45235E+03
 -1       545 2.85462E+02 5.20601E+05 8.78260E+03
 -1       546 2.77891E+02 5.40345E+05 9.09454E+03
 -1       547 2.61472E+02 5.59264E+05 9.38516E+03
 -1       548 2.34833E+02 5.76679E+05 9.65056E+03
 -1       549 1.99454E+02 5.91907E+05 9.88694E+03
 -1       550 1.60378E+02 6.04492E+05 1.00921E+04
 -1       551 1.27553E+02 6.14488E+05 1.02685E+04
 -1       552 1.16660E+02 6.22845E+05 1.04291E+04
 -1       553 1.47115E+02 6.31764E+05 1.06026E+04
 -1       554 2.14147E+02 1.06063E+04-9.82384E-07
 -1       555 3.69116E+02 3.13798E+04 1.62228E-06
 -1       556 4.69218E+02 6.09416E+04 1.42087E-06
 -1       557 5.34901E+02 9.61802E+04 1.81405E-06
 -1       558 5.83025E+02 1.35313E+05 5.40947E-07
 -1       559 6.24095E+02 1.77521E+05-7.22611E-07
 -1       560 6.62122E+02 2.22486E+05-2.40725E-06
 -1       561 6.96054E+02 2.69984E+05-2.83815E-07
 -1       562 7.21882E+02 3.19597E+05-6.34191E-08
 -1       563 7.34869E+02 3.70593E+05-8.36979E-07
 -1       564 7.31510E+02 4.21940E+05-1.64167E-06
 -1       565 7.10925E+02 4.72445E+05-1.89045E-06
 -1       566 6.75412E+02 5.20968E+05 1.23967E-06
 -1       567 6.30082E+02 5.66629E+05 9.42593E-07
 -1       568 5.81679E+02 6.08973E+05 3.82282E-07
 -1       569 5.36933E+02 6.48026E+05-3.03247E-07
 -1       570 5.00893E+02 6.84233E+05 6.20184E-07
 -1       571 4.75689E+02 7.18298E+05 9.61729E-07
 -1       572 4.60078E+02 7.50953E+05-2.22461E-06
 -1       573 4.49896E+02 7.82738E+05-2.88852E-06
 -1       574 4.39298E+02 8.13833E+05-4.73050E-07
 -1       575 4.22407E+02 8.43998E+05-1.06885E-06
 -1       576 3.94911E+02 8.72630E+05-1.19880E-06
 -1       577 3.55184E+02 8.98914E+05 1.02628E-06
 -1       578 3.05025E+02 9.22035E+05 2.30361E-06
 -1       579 2.50753E+02 9.41454E+05 1.21292E-06
 -1       580 2.05920E+02 9.57303E+05 3.77266E-07
 -1       581 1.94542E+02 9.71011E+05 5.96214E-07
 -1       582 2.41429E+02 9.85843E+05 5.72079E-07
 -1       583 1.38698E+02 6.90491E+03-1.11742E+02
 -1       584 2.36637E+02 2.02979E+04-3.33139E+02
 -1       585 2.97740E+02 3.91601E+04-6.53596E+02
 -1       586 3.37002E+02 6.14481E+04-1.04130E+03
 -1       587 3.66583E+02 8.60850E+04-1.47534E+03
 -1       588 3.93828E+02 1.12681E+05-1.94286E+03
 -1       589 4.21131E+02 1.41184E+05-2.43591E+03
 -1       590 4.47023E+02 1.71563E+05-2.94852E+03
 -1       591 4.67780E+02 2.03598E+05-3.47483E+03
 -1       592 4.79182E+02 2.36780E+05-4.00809E+03
 -1       593 4.78100E+02 2.70335E+05-4.54061E+03
 -1       594 4.63632E+02 3.03344E+05-5.06433E+03
 -1       595 4.37547E+02 3.34917E+05-5.57173E+03
 -1       596 4.03972E+02 3.64375E+05-6.05690E+03
 -1       597 3.68408E+02 3.91382E+05-6.51628E+03
 -1       598 3.36358E+02 4.15996E+05-6.94889E+03
 -1       599 3.11937E+02 4.38618E+05-7.35604E+03
 -1       600 2.96846E+02 4.59856E+05-7.74045E+03
 -1       601 2.89989E+02 4.80340E+05-8.10515E+03
 -1       602 2.87839E+02 5.00535E+05-8.45235E+03
 -1       603 2.85462E+02 5.20601E+05-8.78260E+03
 -1       604 2.77891E+02 5.40345E+05-9.09454E+03
 -1       605 2.61472E+02 5.59264E+05-9.38516E+03
 -1       606 2.34833E+02 5.76679E+05-9.65056E+03
 -1       607 1.99454E+02 5.91907E+05-9.88694E+03
 -1       608 1.60378E+02 6.04492E+05-1.00921E+04
 -1       609 1.27553E+02 6.14488E+05-1.02685E+04
 -1       610 1.16660E+02 6.22845E+05-1.04291E+04
 -1       611 1.47115E+02 6.31764E+05-1.06026E+04
 -1       612-1.38698E+02 6.90491E+03 1.11742E+02
 -1       613-2.36637E+02 2.02979E+04 3.33139E+02
 -1       614-2.97740E+02 3.91601E+04 6.53596E+02
 -1       615-3.37002E+02 6.14481E+04 1.04130E+03
 -1       616-3.66583E+02 8.60850E+04 1.47534E+03
 -1       617-3.93828E+02 1.12681E+05 1.94286E+03
 -1       618-4.21131E+02 1.41184E+05 2.43591E+03
 -1       619-4.47023E+02 1.71563E+05 2.94852E+03
 -1       620-4.67780E+02 2.03598E+05 3.47483E+03
 -1       621-4.79182E+02 2.36780E+05 4.00809E+03
 -1       622-4.78100E+02 2.70335E+05 4.54061E+03
 -1       623-4.63632E+02 3.03344E+05 5.06433E+03
 -1       624-4.37547E+02 3.34917E+05 5.57173E+03
 -1       625-4.03972E+02 3.64375E+05 6.05690E+03
 -1       626-3.68408E+02 3.91382E+05 6.51628E+03
 -1       627-3.36358E+02 4.15996E+05 6.94889E+03
 -1       628-3.11937E+02 4.38618E+05 7.35604E+03
 -1       629-2.96846E+02 4.59856E+05 7.74045E+03
 -1       630-2.89989E+02 4.80340E+05 8.10515E+03
 -1       631-2.87839E+02 5.00535E+05 8.45235E+03
 -1       632-2.85462E+02 5.20601E+05 8.78260E+03
 -1       633-2.77891E+02 5.40345E+05 9.09454E+03
 -1       634-2.61472E+02 5.59264E+05 9.38516E+03
 -1       635-2.34833E+02 5.76679E+05 9.65056E+03
 -1       636-1.99454E+02 5.91907E+05 9.88694E+03
 -1       637-1.60378E+02 6.04492E+05 1.00921E+04
 -1       638-1.27553E+02 6.14488E+05 1.02685E+04
 -1       639-1.16660E+02 6.22845E+05 1.04291E+04
 -1       640-1.47115E+02 6.31764E+05 1.06026E+04
 -1       641-2.14147E+02 1.06063E+04-1.52429E-06
 -1       642-3.69116E+02 3.13798E+04 2.06613E-07
 -1       643-4.69218E+02 6.09416E+04 2.59764E-06
 -1       644-5.34901E+02 9.61802E+04 6.57030E-07
 -1       645-5.83025E+02 1.35313E+05-7.11905E-07
 -1       646-6.24095E+02 1.77521E+05-3.66711E-06
 -1       647-6.62122E+02 2.22486E+05-1.71190E-06
 -1       648-6.96054E+02 2.69984E+05-1.07101E-06
 -1       649-7.21882E+02 3.19597E+05-2.51648E-06
 -1       650-7.34869E+02 3.70593E+05-2.89595E-06
 -1       651-7.31510E+02 4.21940E+05 1.38720E-06
 -1       652-7.10925E+02 4.72445E+05 2.00940E-06
 -1       653-6.75412E+02 5.20968E+05 1.22964E-08
 -1       654-6.30082E+02 5.66629E+05 9.47737E-07
 -1       655-5.81679E+02 6.08973E+05 6.14556E-07
 -1       656-5.36933E+02 6.48026E+05-2.60181E-06
 -1       657-5.00893E+02 6.84233E+05-3.40064E-07
 -1       658-4.75689E+02 7.18298E+05-2.53844E-07
 -1       659-4.60078E+02 7.50953E+05-2.65898E-06
 -1       660-4.49896E+02 7.82738E+05-8.94113E-07
 -1       661-4.39298E+02 8.13833E+05 6.14935E-07
 -1       662-4.22407E+02 8.43998E+05 1.57568E-06
 -1       663-3.94911E+02 8.72630E+05 5.34579E-07
 -1       664-3.55184E+02 8.98914E+05 1.75007E-06
 -1       665-3.05025E+02 9.22035E+05 1.73468E-06
 -1       666-2.50753E+02 9.41454E+05 9.46267E-07
 -1       667-2.05920E+02 9.57303E+05-1.29500E-06
 -1       668-1.94542E+02 9.71011E+05 1.16517E-06
 -1       669-2.41429E+02 9.85843E+05-1.57944E-06
 -1       670-1.38698E+02 6.90491E+03-1.11742E+02
 -1       671-2.36637E+02 2.02979E+04-3.33139E+02
 -1       672-2.97740E+02 3.91601E+04-6.53596E+02
 -1       673-3.37002E+02 6.14481E+04-1.04130E+03
 -1       674-3.66583E+02 8.60850E+04-1.47534E+03
 -1       675-3.93828E+02 1.12681E+05-1.94286E+03
 -1       676-4.21131E+02 1.41184E+05-2.43591E+03
 -1       677-4.47023E+02 1.71563E+05-2.94852E+03
 -1       678-4.67780E+02 2.03598E+05-3.47483E+03
 -1       679-4.79182E+02 2.36780E+05-4.00809E+03
 -1       680-4.78100E+02 2.70335E+05-4.54061E+03
 -1       681-4.63632E+02 3.03344E+05-5.06433E+03
 -1       682-4.37547E+02 3.34917E+05-5.57173E+03
 -1       683-4.03972E+02 3.64375E+05-6.05690E+03
 -1       684-3.68408E+02 3.91382E+05-6.51628E+03
 -1       685-3.36358E+02 4.15996E+05-6.94889E+03
 -1       686-3.11937E+02 4.38618E+05-7.35604E+03
 -1       687-2.96846E+02 4.59856E+05-7.74045E+03
 -1       688-2.89989E+02 4.80340E+05-8.10515E+03
 -1       689-2.87839E+02 5.00535E+05-8.45235E+03
 -1       690-2.85462E+02 5.20601E+05-8.78260E+03
 -1       691-2.77891E+02 5.40345E+05-9.09454E+03
 -1       692-2.61472E+02 5.59264E+05-9.38516E+03
 -1       693-2.34833E+02 5.76679E+05-9.65056E+03
 -1       694-1.99454E+02 5.91907E+05-9.88694E+03
 -1       695-1.60378E+02 6.04492E+05-1.00921E+04
 -1       696-1.27553E+02 6.14488E+05-1.02685E+04
 -1       697-1.16660E+02 6.22845E+05-1.04291E+04
 -1       698-1.47115E+02 6.31764E+05-1.06026E+04
 -1       699-1.37774E+03-3.22930E+03 6.31369E+03
 -1       700-2.71688E+03-9.50191E+03 1.85061E+04
 -1       701-3.79273E+03-1.88533E+04 3.58609E+04
 -1       702-4.58986E+03-3.05365E+04 5.67529E+04
 -1       703-5.12305E+03-4.38514E+04 8.01598E+04
 -1       704-5.41667E+03-5.81669E+04 1.05413E+05
 -1       705-5.51324E+03-7.29436E+04 1.32049E+05
 -1       706-5.46975E+03-8.77660E+04 1.59704E+05
 -1       707-5.35043E+03-1.02367E+05 1.88038E+05
 -1       708-5.21571E+03-1.16629E+05 2.16692E+05
 -1       709-5.11071E+03-1.30565E+05 2.45274E+05
 -1       710-5.05686E+03-1.44265E+05 2.73386E+05
 -1       711-5.04898E+03-1.57841E+05 3.00661E+05
 -1       712-5.05886E+03-1.71365E+05 3.26808E+05
 -1       713-5.04468E+03-1.84824E+05 3.51644E+05
 -1       714-4.96357E+03-1.98104E+05 3.75107E+05
 -1       715-4.78433E+03-2.11005E+05 3.97238E+05
 -1       716-4.49692E+03-2.23275E+05 4.18145E+05
 -1       717-4.11614E+03-2.34670E+05 4.37953E+05
 -1       718-3.67876E+03-2.45005E+05 4.56751E+05
 -1       719-3.23487E+03-2.54204E+05 4.74554E+05
 -1       720-2.83561E+03-2.62307E+05 4.91295E+05
 -1       721-2.52072E+03-2.69467E+05 5.06840E+05
 -1       722-2.30924E+03-2.75910E+05 5.21037E+05
 -1       723-2.19650E+03-2.81880E+05 5.33792E+05
 -1       724-2.15994E+03-2.87588E+05 5.45127E+05
 -1       725-2.17435E+03-2.93174E+05 5.55179E+05
 -1       726-2.22891E+03-2.98714E+05 5.64086E+05
 -1       727-2.34881E+03-3.04249E+05 5.71804E+05
 -1       728-1.77484E+03-2.60397E+03 6.33456E+03
 -1       729-3.39658E+03-7.67819E+03 1.85224E+04
 -1       730-4.66236E+03-1.53245E+04 3.58711E+04
 -1       731-5.59234E+03-2.49556E+04 5.67570E+04
 -1       732-6.22168E+03-3.59711E+04 8.01579E+04
 -1       733-6.58688E+03-4.78055E+04 1.05405E+05
 -1       734-6.73708E+03-5.99652E+04 1.32036E+05
 -1       735-6.73183E+03-7.20705E+04 1.59687E+05
 -1       736-6.63518E+03-8.38878E+04 1.88018E+05
 -1       737-6.50619E+03-9.53360E+04 2.16669E+05
 -1       738-6.38893E+03-1.06465E+05 2.45248E+05
 -1       739-6.30530E+03-1.17404E+05 2.73358E+05
 -1       740-6.25252E+03-1.28301E+05 3.00631E+05
 -1       741-6.20670E+03-1.39256E+05 3.26775E+05
 -1       742-6.13129E+03-1.50274E+05 3.51608E+05
 -1       743-5.98868E+03-1.61248E+05 3.75068E+05
 -1       744-5.75165E+03-1.71974E+05 3.97195E+05
 -1       745-5.41206E+03-1.82189E+05 4.18099E+05
 -1       746-4.98422E+03-1.91636E+05 4.37904E+05
 -1       747-4.50235E+03-2.00125E+05 4.56699E+05
 -1       748-4.01277E+03-2.07574E+05 4.74501E+05
 -1       749-3.56301E+03-2.14033E+05 4.91241E+05
 -1       750-3.19079E+03-2.19667E+05 5.06786E+05
 -1       751-2.91590E+03-2.24715E+05 5.20983E+05
 -1       752-2.73779E+03-2.29432E+05 5.33738E+05
 -1       753-2.63995E+03-2.34025E+05 5.45072E+05
 -1       754-2.60038E+03-2.38619E+05 5.55124E+05
 -1       755-2.60439E+03-2.43283E+05 5.64031E+05
 -1       756-2.66389E+03-2.48073E+05 5.71750E+05
 -1       757-1.77484E+03-2.60397E+03-6.33456E+03
 -1       758-3.39658E+03-7.67819E+03-1.85224E+04
 -1       759-4.66236E+03-1.53245E+04-3.58711E+04
 -1       760-5.59234E+03-2.49556E+04-5.67570E+04
 -1       761-6.22168E+03-3.59711E+04-8.01579E+04
 -1       762-6.58688E+03-4.78055E+04-1.05405E+05
 -1       763-6.73708E+03-5.99652E+04-1.32036E+05
 -1       764-6.73183E+03-7.20705E+04-1.59687E+05
 -1       765-6.63518E+03-8.38878E+04-1.88018E+05
 -1       766-6.50619E+03-9.53360E+04-2.16669E+05
 -1       767-6.38893E+03-1.06465E+05-2.45248E+05
 -1       768-6.30530E+03-1.17404E+05-2.73358E+05
 -1       769-6.25252E+03-1.28301E+05-3.00631E+05
 -1       770-6.20670E+03-1.39256E+05-3.26775E+05
 -1       771-6.13129E+03-1.50274E+05-3.51608E+05
 -1       772-5.98868E+03-1.61248E+05-3.75068E+05
 -1       773-5.75165E+03-1.71974E+05-3.97195E+05
 -1       774-5.41206E+03-1.82189E+05-4.18099E+05
 -1       775-4.98422E+03-1.91636E+05-4.37904E+05
 -1       776-4.50235E+03-2.00125E+05-4.56699E+05
 -1       777-4.01277E+03-2.07574E+05-4.74501E+05
 -1       778-3.56301E+03-2.14033E+05-4.91241E+05
 -1       779-3.19079E+03-2.19667E+05-5.06786E+05
 -1       780-2.91590E+03-2.24715E+05-5.20983E+05
 -1       781-2.73779E+03-2.29432E+05-5.33738E+05
 -1       782-2.63995E+03-2.34025E+05-5.45072E+05
 -1       783-2.60038E+03-2.38619E+05-5.55124E+05
 -1       784-2.60439E+03-2.43283E+05-5.64031E+05
 -1       785-2.66389E+03-2.48073E+05-5.71750E+05
 -1       786-1.37774E+03-3.22930E+03-6.31369E+03
 -1       787-2.71688E+03-9.50191E+03-1.85061E+04
 -1       788-3.79273E+03-1.88533E+04-3.58609E+04
 -1       789-4.58986E+03-3.05365E+04-5.67529E+04
 -1       790-5.12305E+03-4.38514E+04-8.01598E+04
 -1       791-5.41667E+03-5.81669E+04-1.05413E+05
 -1       792-5.51324E+03-7.29436E+04-1.32049E+05
 -1       793-5.46975E+03-8.77660E+04-1.59704E+05
 -1       794-5.35043E+03-1.02367E+05-1.88038E+05
 -1       795-5.21571E+03-1.16629E+05-2.16692E+05
 -1       796-5.11071E+03-1.30565E+05-2.45274E+05
 -1       797-5.05686E+03-1.44265E+05-2.73386E+05
 -1       798-5.04898E+03-1.57841E+05-3.00661E+05
 -1       799-5.05886E+03-1.71365E+05-3.26808E+05
 -1       800-5.04468E+03-1.84824E+05-3.51644E+05
 -1       801-4.96357E+03-1.98104E+05-3.75107E+05
 -1       802-4.78433E+03-2.11005E+05-3.97238E+05
 -1       803-4.49692E+03-2.23275E+05-4.18145E+05
 -1       804-4.11614E+03-2.34670E+05-4.37953E+05
 -1       805-3.67876E+03-2.45005E+05-4.56751E+05
 -1       806-3.23487E+03-2.54204E+05-4.74554E+05
 -1       807-2.83561E+03-2.62307E+05-4.91295E+05
 -1       808-2.52072E+03-2.69467E+05-5.06840E+05
 -1       809-2.30924E+03-2.75910E+05-5.21037E+05
 -1       810-2.19650E+03-2.81880E+05-5.33792E+05
 -1       811-2.15994E+03-2.87588E+05-5.45127E+05
 -1       812-2.17435E+03-2.93174E+05-5.55179E+05
 -1       813-2.22891E+03-2.98714E+05-5.64086E+05
 -1       814-2.34881E+03-3.04249E+05-5.71804E+05
 -1       815 1.37774E+03-3.22930E+03-6.31369E+03
 -1       816 2.71688E+03-9.50191E+03-1.85061E+04
 -1       817 3.79273E+03-1.88533E+04-3.58609E+04
 -1       818 4.58986E+03-3.05365E+04-5.67529E+04
 -1       819 5.12305E+03-4.38514E+04-8.01598E+04
 -1       820 5.41667E+03-5.81669E+04-1.05413E+05
 -1       821 5.51324E+03-7.29436E+04-1.32049E+05
 -1       822 5.46975E+03-8.77660E+04-1.59704E+05
 -1       823 5.35043E+03-1.02367E+05-1.88038E+05
 -1       824 5.21571E+03-1.16629E+05-2.16692E+05
 -1       825 5.11071E+03-1.30565E+05-2.45274E+05
 -1       826 5.05686E+03-1.44265E+05-2.73386E+05
 -1       827 5.04898E+03-1.57841E+05-3.00661E+05
 -1       828 5.05886E+03-1.71365E+05-3.26808E+05
 -1       829 5.04468E+03-1.84824E+05-3.51644E+05
 -1       830 4.96357E+03-1.98104E+05-3.75107E+05
 -1       831 4.78433E+03-2.11005E+05-3.97238E+05
 -1       832 4.49692E+03-2.23275E+05-4.18145E+05
 -1       833 4.11614E+03-2.34670E+05-4.37953E+05
 -1       834 3.67876E+03-2.45005E+05-4.56751E+05
 -1       835 3.23487E+03-2.54204E+05-4.74554E+05
 -1       836 2.83561E+03-2.62307E+05-4.91295E+05
 -1       837 2.52072E+03-2.69467E+05-5.06840E+05
 -1       838 2.30924E+03-2.75910E+05-5.21037E+05
 -1       839 2.19650E+03-2.81880E+05-5.33792E+05
 -1       840 2.15994E+03-2.87588E+05-5.45127E+05
 -1       841 2.17435E+03-2.93174E+05-5.55179E+05
 -1       842 2.22891E+03-2.98714E+05-5.64086E+05
 -1       843 2.34881E+03-3.04249E+05-5.71804E+05
 -1       844 1.77484E+03-2.60397E+03-6.33456E+03
 -1       845 3.39658E+03-7.67819E+03-1.85224E+04
 -1       846 4.66236E+03-1.53245E+04-3.58711E+04
 -1       847 5.59234E+03-2.49556E+04-5.67570E+04
 -1       848 6.22168E+03-3.59711E+04-8.01579E+04
 -1       849 6.58688E+03-4.78055E+04-1.05405E+05
 -1       850 6.73708E+03-5.99652E+04-1.32036E+05
 -1       851 6.73183E+03-7.20705E+04-1.59687E+05
 -1       852 6.63518E+03-8.38878E+04-1.88018E+05
 -1       853 6.50619E+03-9.53360E+04-2.16669E+05
 -1       854 6.38893E+03-1.06465E+05-2.45248E+05
 -1       855 6.30530E+03-1.17404E+05-2.73358E+05
 -1       856 6.25252E+03-1.28301E+05-3.00631E+05
 -1       857 6.20670E+03-1.39256E+05-3.26775E+05
 -1       858 6.13129E+03-1.50274E+05-3.51608E+05
 -1       859 5.98868E+03-1.61248E+05-3.75068E+05
 -1       860 5.75165E+03-1.71974E+05-3.97195E+05
 -1       861 5.41206E+03-1.82189E+05-4.18099E+05
 -1       862 4.98422E+03-1.91636E+05-4.37904E+05
 -1       863 4.50235E+03-2.00125E+05-4.56699E+05
 -1       864 4.01277E+03-2.07574E+05-4.74501E+05
 -1       865 3.56301E+03-2.14033E+05-4.91241E+05
 -1       866 3.19079E+03-2.19667E+05-5.06786E+05
 -1       867 2.91590E+03-2.24715E+05-5.20983E+05
 -1       868 2.73779E+03-2.29432E+05-5.33738E+05
 -1       869 2.63995E+03-2.34025E+05-5.45072E+05
 -1       870 2.60038E+03-2.38619E+05-5.55124E+05
 -1       871 2.60439E+03-2.43283E+05-5.64031E+05
 -1       872 2.66389E+03-2.48073E+05-5.71750E+05
 -1       873 2.34881E+03-3.04249E+05 5.71804E+05
 -1       874 2.22891E+03-2.98714E+05 5.64086E+05
 -1       875 2.17435E+03-2.93174E+05 5.55179E+05
 -1       876 2.15994E+03-2.87588E+05 5.45127E+05
 -1       877 2.19650E+03-2.81880E+05 5.33792E+05
 -1       878 2.30924E+03-2.75910E+05 5.21037E+05
 -1       879 2.52072E+03-2.69467E+05 5.06840E+05
 -1       880 2.83561E+03-2.62307E+05 4.91295E+05
 -1       881 3.23487E+03-2.54204E+05 4.74554E+05
 -1       882 3.67876E+03-2.45005E+05 4.56751E+05
 -1       883 4.11614E+03-2.34670E+05 4.37953E+05
 -1       884 4.49692E+03-2.23275E+05 4.18145E+05
 -1       885 4.78433E+03-2.11005E+05 3.97238E+05
 -1       886 4.96357E+03-1.98104E+05 3.75107E+05
 -1       887 5.04468E+03-1.84824E+05 3.51644E+05
 -1       888 5.05886E+03-1.71365E+05 3.26808E+05
 -1       889 5.04898E+03-1.57841E+05 3.00661E+05
 -1       890 5.05686E+03-1.44265E+05 2.73386E+05
 -1       891 5.11071E+03-1.30565E+05 2.45274E+05
 -1       892 5.21571E+03-1.16629E+05 2.16692E+05
 -1       893 5.35043E+03-1.02367E+05 1.88038E+05
 -1       894 5.46975E+03-8.77660E+04 1.59704E+05
 -1       895 5.51324E+03-7.29436E+04 1.32049E+05
 -1       896 5.41667E+03-5.81669E+04 1.05413E+05
 -1       897 5.12305E+03-4.38514E+04 8.01598E+04
 -1       898 4.58986E+03-3.05365E+04 5.67529E+04
 -1       899 3.79273E+03-1.88533E+04 3.58609E+04
 -1       900 2.71688E+03-9.50191E+03 1.85061E+04
 -1       901 1.37774E+03-3.22930E+03 6.31369E+03
 -1       902 1.77484E+03-2.60397E+03 6.33456E+03
 -1       903 3.39658E+03-7.67819E+03 1.85224E+04
 -1       904 4.66236E+03-1.53245E+04 3.58711E+04
 -1       905 5.59234E+03-2.49556E+04 5.67570E+04
 -1       906 6.22168E+03-3.59711E+04 8.01579E+04
 -1       907 6.58688E+03-4.78055E+04 1.05405E+05
 -1       908 6.73708E+03-5.99652E+04 1.32036E+05
 -1       909 6.73183E+03-7.20705E+04 1.59687E+05
 -1       910 6.63518E+03-8.38878E+04 1.88018E+05
 -1       911 6.50619E+03-9.53360E+04 2.16669E+05
 -1       912 6.38893E+03-1.06465E+05 2.45248E+05
 -1       913 6.30530E+03-1.17404E+05 2.73358E+05
 -1       914 6.25252E+03-1.28301E+05 3.00631E+05
 -1       915 6.20670E+03-1.39256E+05 3.26775E+05
 -1       916 6.13129E+03-1.50274E+05 3.51608E+05
 -1       917 5.98868E+03-1.61248E+05 3.75068E+05
 -1       918 5.75165E+03-1.71974E+05 3.97195E+05
 -1       919 5.41206E+03-1.82189E+05 4.18099E+05
 -1       920 4.98422E+03-1.91636E+05 4.37904E+05
 -1       921 4.50235E+03-2.00125E+05 4.56699E+05
 -1       922 4.01277E+03-2.07574E+05 4.74501E+05
 -1       923 3.56301E+03-2.14033E+05 4.91241E+05
 -1       924 3.19079E+03-2.19667E+05 5.06786E+05
 -1       925 2.91590E+03-2.24715E+05 5.20983E+05
 -1       926 2.73779E+03-2.29432E+05 5.33738E+05
 -1       927 2.63995E+03-2.34025E+05 5.45072E+05
 -1       928 2.60038E+03-2.38619E+05 5.55124E+05
 -1       929 2.60439E+03-2.43283E+05 5.64031E+05
 -1       930 2.66389E+03-2.48073E+05 5.71750E+05
 -3
    1PSTEP                        56           1           1          
    1PGM                1.000000E+00                                  
    1PGK                2.488115E+07                                  
    1PHID                         -1                                  
    1PSUBC                         0                                  
    1PMODE                        14                                  
  100CL  114 793.8809333         930                     2   14MODAL      1
 -4  ERROR       1    1
 -5  STR(%)      1    1    0    0
 -1         1 6.77398E+01
 -1         2 6.77398E+01
 -1         3 8.33069E+01
 -1         4 8.33069E+01
 -1         5 6.77398E+01
 -1         6 6.77398E+01
 -1         7 8.33069E+01
 -1         8 8.33069E+01
 -1         9 6.19051E+01
 -1        10 8.33069E+01
 -1        11 4.96334E+01
 -1        12 4.96334E+01
 -1        13 9.13808E+01
 -1        14 9.13808E+01
 -1        15 6.19051E+01
 -1        16 8.33069E+01
 -1        17 4.96334E+01
 -1        18 4.96334E+01
 -1        19 9.13808E+01
 -1        20 9.13808E+01
 -1        21 4.96334E+01
 -1        22 4.96334E+01
 -1        23 9.13808E+01
 -1        24 9.13808E+01
 -1        25 6.19051E+01
 -1        26 8.33069E+01
 -1        27 6.19051E+01
 -1        28 4.96334E+01
 -1        29 4.96334E+01
 -1        30 8.33069E+01
 -1        31 9.13808E+01
 -1        32 9.13808E+01
 -1        33 6.77398E+01
 -1        34 5.37941E+01
 -1        35 5.80325E+01
 -1        36 6.83952E+01
 -1        37 7.44043E+01
 -1        38 7.78094E+01
 -1        39 7.97094E+01
 -1        40 8.07830E+01
 -1        41 8.14063E+01
 -1        42 8.17823E+01
 -1        43 8.20259E+01
 -1        44 8.22056E+01
 -1        45 8.24325E+01
 -1        46 8.26441E+01
 -1        47 8.28208E+01
 -1        48 8.29645E+01
 -1        49 8.30756E+01
 -1        50 8.31547E+01
 -1        51 8.32045E+01
 -1        52 8.32340E+01
 -1        53 8.32746E+01
 -1        54 8.32934E+01
 -1        55 8.32988E+01
 -1        56 8.32994E+01
 -1        57 8.33049E+01
 -1        58 8.33100E+01
 -1        59 8.33112E+01
 -1        60 8.33872E+01
 -1        61 8.33872E+01
 -1        62 6.77398E+01
 -1        63 5.37941E+01
 -1        64 5.80325E+01
 -1        65 6.83952E+01
 -1        66 7.44043E+01
 -1        67 7.78094E+01
 -1        68 7.97094E+01
 -1        69 8.07830E+01
 -1        70 8.14063E+01
 -1        71 8.17823E+01
 -1        72 8.20259E+01
 -1        73 8.22056E+01
 -1        74 8.24325E+01
 -1        75 8.26441E+01
 -1        76 8.28208E+01
 -1        77 8.29645E+01
 -1        78 8.30756E+01
 -1        79 8.31547E+01
 -1        80 8.32045E+01
 -1        81 8.32340E+01
 -1        82 8.32746E+01
 -1        83 8.32934E+01
 -1        84 8.32988E+01
 -1        85 8.32994E+01
 -1        86 8.33049E+01
 -1        87 8.33100E+01
 -1        88 8.33112E+01
 -1        89 8.33872E+01
 -1        90 8.33872E+01
 -1        91 6.77398E+01
 -1        92 3.51819E+01
 -1        93 6.77398E+01
 -1        94 6.77398E+01
 -1        95 3.51819E+01
 -1        96 6.77398E+01
 -1        97 6.77398E+01
 -1        98 5.37941E+01
 -1        99 5.80325E+01
 -1       100 6.83952E+01
 -1       101 7.44043E+01
 -1       102 7.78094E+01
 -1       103 7.97094E+01
 -1       104 8.07830E+01
 -1       105 8.14063E+01
 -1       106 8.17823E+01
 -1       107 8.20259E+01
 -1       108 8.22056E+01
 -1       109 8.24325E+01
 -1       110 8.26441E+01
 -1       111 8.28208E+01
 -1       112 8.29645E+01
 -1       113 8.30756E+01
 -1       114 8.31547E+01
 -1       115 8.32045E+01
 -1       116 8.32340E+01
 -1       117 8.32746E+01
 -1       118 8.32934E+01
 -1       119 8.32988E+01
 -1       120 8.32994E+01
 -1       121 8.33049E+01
 -1       122 8.33100E+01
 -1       123 8.33112E+01
 -1       124 8.33872E+01
 -1       125 8.33872E+01
 -1       126 3.94739E+01
 -1       127 2.93762E+01
 -1       128 3.94739E+01
 -1       129 6.77398E+01
 -1       130 5.37941E+01
 -1       131 5.80325E+01
 -1       132 6.83952E+01
 -1       133 7.44043E+01
 -1       134 7.78094E+01
 -1       135 7.97094E+01
 -1       136 8.07830E+01
 -1       137 8.14063E+01
 -1       138 8.17823E+01
 -1       139 8.20259E+01
 -1       140 8.22056E+01
 -1       141 8.24325E+01
 -1       142 8.26441E+01
 -1       143 8.28208E+01
 -1       144 8.29645E+01
 -1       145 8.30756E+01
 -1       146 8.31547E+01
 -1       147 8.32045E+01
 -1       148 8.32340E+01
 -1       149 8.32746E+01
 -1       150 8.32934E+01
 -1       151 8.32988E+01
 -1       152 8.32994E+01
 -1       153 8.33049E+01
 -1       154 8.33100E+01
 -1       155 8.33112E+01
 -1       156 8.33872E+01
 -1       157 8.33872E+01
 -1       158 3.94739E+01
 -1       159 2.93762E+01
 -1       160 3.94739E+01
 -1       161 6.19051E+01
 -1       162 4.67066E+01
 -1       163 5.80325E+01
 -1       164 6.83952E+01
 -1       165 7.44043E+01
 -1       166 7.78094E+01
 -1       167 7.97094E+01
 -1       168 8.07830E+01
 -1       169 8.14063E+01
 -1       170 8.17823E+01
 -1       171 8.20259E+01
 -1       172 8.22056E+01
 -1       173 8.24325E+01
 -1       174 8.26441E+01
 -1       175 8.28208E+01
 -1       176 8.29645E+01
 -1       177 8.30756E+01
 -1       178 8.31547E+01
 -1       179 8.32045E+01
 -1       180 8.32340E+01
 -1       181 8.32746E+01
 -1       182 8.32934E+01
 -1       183 8.32988E+01
 -1       184 8.32994E+01
 -1       185 8.33049E+01
 -1       186 8.33100E+01
 -1       187 8.33112E+01
 -1       188 8.33872E+01
 -1       189 8.33872E+01
 -1       190 6.19051E+01
 -1       191 6.19051E+01
 -1       192 9.13808E+01
 -1       193 4.96334E+01
 -1       194 3.66860E+01
 -1       195 3.39143E+01
 -1       196 3.11730E+01
 -1       197 5.06069E+01
 -1       198 5.06069E+01
 -1       199 4.80893E+01
 -1       200 4.94436E+01
 -1       201 5.19859E+01
 -1       202 5.52822E+01
 -1       203 5.94318E+01
 -1       204 6.41998E+01
 -1       205 6.80399E+01
 -1       206 7.07269E+01
 -1       207 7.22602E+01
 -1       208 7.28564E+01
 -1       209 7.31164E+01
 -1       210 7.36261E+01
 -1       211 7.41461E+01
 -1       212 7.49627E+01
 -1       213 7.64417E+01
 -1       214 7.89180E+01
 -1       215 8.16622E+01
 -1       216 8.42957E+01
 -1       217 8.64631E+01
 -1       218 8.79918E+01
 -1       219 8.90035E+01
 -1       220 9.04099E+01
 -1       221 9.13808E+01
 -1       222 4.96334E+01
 -1       223 3.66860E+01
 -1       224 3.39143E+01
 -1       225 3.11730E+01
 -1       226 5.06069E+01
 -1       227 5.06069E+01
 -1       228 4.80893E+01
 -1       229 4.94436E+01
 -1       230 5.19859E+01
 -1       231 5.52822E+01
 -1       232 5.94318E+01
 -1       233 6.41998E+01
 -1       234 6.80399E+01
 -1       235 7.07269E+01
 -1       236 7.22602E+01
 -1       237 7.28564E+01
 -1       238 7.31164E+01
 -1       239 7.36261E+01
 -1       240 7.41461E+01
 -1       241 7.49627E+01
 -1       242 7.64417E+01
 -1       243 7.89180E+01
 -1       244 8.16622E+01
 -1       245 8.42957E+01
 -1       246 8.64631E+01
 -1       247 8.79918E+01
 -1       248 8.90035E+01
 -1       249 9.04099E+01
 -1       250 9.13808E+01
 -1       251 9.13808E+01
 -1       252 8.33872E+01
 -1       253 8.33872E+01
 -1       254 8.33112E+01
 -1       255 8.33100E+01
 -1       256 8.33049E+01
 -1       257 8.32994E+01
 -1       258 8.32988E+01
 -1       259 8.32934E+01
 -1       260 8.32746E+01
 -1       261 8.32340E+01
 -1       262 8.32045E+01
 -1       263 8.31547E+01
 -1       264 8.30756E+01
 -1       265 8.29645E+01
 -1       266 8.28208E+01
 -1       267 8.26441E+01
 -1       268 8.24325E+01
 -1       269 8.22056E+01
 -1       270 8.20259E+01
 -1       271 8.17823E+01
 -1       272 8.14063E+01
 -1       273 8.07830E+01
 -1       274 7.97094E+01
 -1       275 7.78094E+01
 -1       276 7.44043E+01
 -1       277 6.83952E+01
 -1       278 5.80325E+01
 -1       279 4.67066E+01
 -1       280 6.19051E+01
 -1       281 6.19051E+01
 -1       282 6.19051E+01
 -1       283 4.96334E+01
 -1       284 3.66860E+01
 -1       285 3.39143E+01
 -1       286 3.11730E+01
 -1       287 5.06069E+01
 -1       288 5.06069E+01
 -1       289 4.80893E+01
 -1       290 4.94436E+01
 -1       291 5.19859E+01
 -1       292 5.52822E+01
 -1       293 5.94318E+01
 -1       294 6.41998E+01
 -1       295 6.80399E+01
 -1       296 7.07269E+01
 -1       297 7.22602E+01
 -1       298 7.28564E+01
 -1       299 7.31164E+01
 -1       300 7.36261E+01
 -1       301 7.41461E+01
 -1       302 7.49627E+01
 -1       303 7.64417E+01
 -1       304 7.89180E+01
 -1       305 8.16622E+01
 -1       306 8.42957E+01
 -1       307 8.64631E+01
 -1       308 8.79918E+01
 -1       309 8.90035E+01
 -1       310 9.04099E+01
 -1       311 9.13808E+01
 -1       312 9.13808E+01
 -1       313 4.96334E+01
 -1       314 3.66860E+01
 -1       315 3.39143E+01
 -1       316 3.11730E+01
 -1       317 5.06069E+01
 -1       318 5.06069E+01
 -1       319 4.80893E+01
 -1       320 4.94436E+01
 -1       321 5.19859E+01
 -1       322 5.52822E+01
 -1       323 5.94318E+01
 -1       324 6.41998E+01
 -1       325 6.80399E+01
 -1       326 7.07269E+01
 -1       327 7.22602E+01
 -1       328 7.28564E+01
 -1       329 7.31164E+01
 -1       330 7.36261E+01
 -1       331 7.41461E+01
 -1       332 7.49627E+01
 -1       333 7.64417E+01
 -1       334 7.89180E+01
 -1       335 8.16622E+01
 -1       336 8.42957E+01
 -1       337 8.64631E+01
 -1       338 8.79918E+01
 -1       339 8.90035E+01
 -1       340 9.04099E+01
 -1       341 9.13808E+01
 -1       342 9.13808E+01
 -1       343 4.96334E+01
 -1       344 3.66860E+01
 -1       345 3.39143E+01
 -1       346 3.11730E+01
 -1       347 5.06069E+01
 -1       348 5.06069E+01
 -1       349 4.80893E+01
 -1       350 4.94436E+01
 -1       351 5.19859E+01
 -1       352 5.52822E+01
 -1       353 5.94318E+01
 -1       354 6.41998E+01
 -1       355 6.80399E+01
 -1       356 7.07269E+01
 -1       357 7.22602E+01
 -1       358 7.28564E+01
 -1       359 7.31164E+01
 -1       360 7.36261E+01
 -1       361 7.41461E+01
 -1       362 7.49627E+01
 -1       363 7.64417E+01
 -1       364 7.89180E+01
 -1       365 8.16622E+01
 -1       366 8.42957E+01
 -1       367 8.64631E+01
 -1       368 8.79918E+01
 -1       369 8.90035E+01
 -1       370 9.04099E+01
 -1       371 9.13808E+01
 -1       372 4.96334E+01
 -1       373 3.66860E+01
 -1       374 3.39143E+01
 -1       375 3.11730E+01
 -1       376 5.06069E+01
 -1       377 5.06069E+01
 -1       378 4.80893E+01
 -1       379 4.94436E+01
 -1       380 5.19859E+01
 -1       381 5.52822E+01
 -1       382 5.94318E+01
 -1       383 6.41998E+01
 -1       384 6.80399E+01
 -1       385 7.07269E+01
 -1       386 7.22602E+01
 -1       387 7.28564E+01
 -1       388 7.31164E+01
 -1       389 7.36261E+01
 -1       390 7.41461E+01
 -1       391 7.49627E+01
 -1       392 7.64417E+01
 -1       393 7.89180E+01
 -1       394 8.16622E+01
 -1       395 8.42957E+01
 -1       396 8.64631E+01
 -1       397 8.79918E+01
 -1       398 8.90035E+01
 -1       399 9.04099E+01
 -1       400 9.13808E+01
 -1       401 6.19051E+01
 -1       402 6.19051E+01
 -1       403 9.13808E+01
 -1       404 6.19051E+01
 -1       405 4.67066E+01
 -1       406 5.80325E+01
 -1       407 6.83952E+01
 -1       408 7.44043E+01
 -1       409 7.78094E+01
 -1       410 7.97094E+01
 -1       411 8.07830E+01
 -1       412 8.14063E+01
 -1       413 8.17823E+01
 -1       414 8.20259E+01
 -1       415 8.22056E+01
 -1       416 8.24325E+01
 -1       417 8.26441E+01
 -1       418 8.28208E+01
 -1       419 8.29645E+01
 -1       420 8.30756E+01
 -1       421 8.31547E+01
 -1       422 8.32045E+01
 -1       423 8.32340E+01
 -1       424 8.32746E+01
 -1       425 8.32934E+01
 -1       426 8.32988E+01
 -1       427 8.32994E+01
 -1       428 8.33049E+01
 -1       429 8.33100E+01
 -1       430 8.33112E+01
 -1       431 8.33872E+01
 -1       432 8.33872E+01
 -1       433 9.13808E+01
 -1       434 6.19051E+01
 -1       435 6.19051E+01
 -1       436 8.33872E+01
 -1       437 8.33872E+01
 -1       438 8.33112E+01
 -1       439 8.33100E+01
 -1       440 8.33049E+01
 -1       441 8.32994E+01
 -1       442 8.32988E+01
 -1       443 8.32934E+01
 -1       444 8.32746E+01
 -1       445 8.32340E+01
 -1       446 8.32045E+01
 -1       447 8.31547E+01
 -1       448 8.30756E+01
 -1       449 8.29645E+01
 -1       450 8.28208E+01
 -1       451 8.26441E+01
 -1       452 8.24325E+01
 -1       453 8.22056E+01
 -1       454 8.20259E+01
 -1       455 8.17823E+01
 -1       456 8.14063E+01
 -1       457 8.07830E+01
 -1       458 7.97094E+01
 -1       459 7.78094E+01
 -1       460 7.44043E+01
 -1       461 6.83952E+01
 -1       462 5.80325E+01
 -1       463 4.67066E+01
 -1       464 6.19051E+01
 -1       465 9.13808E+01
 -1       466 4.96334E+01
 -1       467 3.66860E+01
 -1       468 3.39143E+01
 -1       469 3.11730E+01
 -1       470 5.06069E+01
 -1       471 5.06069E+01
 -1       472 4.80893E+01
 -1       473 4.94436E+01
 -1       474 5.19859E+01
 -1       475 5.52822E+01
 -1       476 5.94318E+01
 -1       477 6.41998E+01
 -1       478 6.80399E+01
 -1       479 7.07269E+01
 -1       480 7.22602E+01
 -1       481 7.28564E+01
 -1       482 7.31164E+01
 -1       483 7.36261E+01
 -1       484 7.41461E+01
 -1       485 7.49627E+01
 -1       486 7.64417E+01
 -1       487 7.89180E+01
 -1       488 8.16622E+01
 -1       489 8.42957E+01
 -1       490 8.64631E+01
 -1       491 8.79918E+01
 -1       492 8.90035E+01
 -1       493 9.04099E+01
 -1       494 9.13808E+01
 -1       495 4.96334E+01
 -1       496 3.66860E+01
 -1       497 3.39143E+01
 -1       498 3.11730E+01
 -1       499 5.06069E+01
 -1       500 5.06069E+01
 -1       501 4.80893E+01
 -1       502 4.94436E+01
 -1       503 5.19859E+01
 -1       504 5.52822E+01
 -1       505 5.94318E+01
 -1       506 6.41998E+01
 -1       507 6.80399E+01
 -1       508 7.07269E+01
 -1       509 7.22602E+01
 -1       510 7.28564E+01
 -1       511 7.31164E+01
 -1       512 7.36261E+01
 -1       513 7.41461E+01
 -1       514 7.49627E+01
 -1       515 7.64417E+01
 -1       516 7.89180E+01
 -1       517 8.16622E+01
 -1       518 8.42957E+01
 -1       519 8.64631E+01
 -1       520 8.79918E+01
 -1       521 8.90035E+01
 -1       522 9.04099E+01
 -1       523 9.13808E+01
 -1       524 9.13808E+01
 -1       525 6.77398E+01
 -1       526 5.37941E+01
 -1       527 4.95043E+01
 -1       528 4.69672E+01
 -1       529 4.53272E+01
 -1       530 4.41457E+01
 -1       531 4.32749E+01
 -1       532 4.26367E+01
 -1       533 4.21700E+01
 -1       534 4.18207E+01
 -1       535 4.15443E+01
 -1       536 4.13070E+01
 -1       537 4.10863E+01
 -1       538 4.08707E+01
 -1       539 4.06572E+01
 -1       540 4.04496E+01
 -1       541 4.02556E+01
 -1       542 4.00837E+01
 -1       543 3.99406E+01
 -1       544 3.98289E+01
 -1       545 3.97468E+01
 -1       546 3.96879E+01
 -1       547 3.96433E+01
 -1       548 3.96027E+01
 -1       549 3.95547E+01
 -1       550 3.94832E+01
 -1       551 3.93761E+01
 -1       552 3.92375E+01
 -1       553 3.94739E+01
 -1       554 3.51819E+01
 -1       555 4.24318E+01
 -1       556 4.24318E+01
 -1       557 3.94255E+01
 -1       558 3.71473E+01
 -1       559 3.55701E+01
 -1       560 3.44568E+01
 -1       561 3.36472E+01
 -1       562 3.30366E+01
 -1       563 3.25535E+01
 -1       564 3.21495E+01
 -1       565 3.17937E+01
 -1       566 3.14689E+01
 -1       567 3.11679E+01
 -1       568 3.08901E+01
 -1       569 3.06389E+01
 -1       570 3.04188E+01
 -1       571 3.02330E+01
 -1       572 3.00819E+01
 -1       573 2.99618E+01
 -1       574 2.98659E+01
 -1       575 2.97850E+01
 -1       576 2.97096E+01
 -1       577 2.96316E+01
 -1       578 2.95437E+01
 -1       579 2.94412E+01
 -1       580 2.93204E+01
 -1       581 2.92079E+01
 -1       582 2.93762E+01
 -1       583 6.77398E+01
 -1       584 5.37941E+01
 -1       585 4.95043E+01
 -1       586 4.69672E+01
 -1       587 4.53272E+01
 -1       588 4.41457E+01
 -1       589 4.32749E+01
 -1       590 4.26367E+01
 -1       591 4.21700E+01
 -1       592 4.18207E+01
 -1       593 4.15443E+01
 -1       594 4.13070E+01
 -1       595 4.10863E+01
 -1       596 4.08707E+01
 -1       597 4.06572E+01
 -1       598 4.04496E+01
 -1       599 4.02556E+01
 -1       600 4.00837E+01
 -1       601 3.99406E+01
 -1       602 3.98289E+01
 -1       603 3.97468E+01
 -1       604 3.96879E+01
 -1       605 3.96433E+01
 -1       606 3.96027E+01
 -1       607 3.95547E+01
 -1       608 3.94832E+01
 -1       609 3.93761E+01
 -1       610 3.92375E+01
 -1       611 3.94739E+01
 -1       612 6.77398E+01
 -1       613 5.37941E+01
 -1       614 4.95043E+01
 -1       615 4.69672E+01
 -1       616 4.53272E+01
 -1       617 4.41457E+01
 -1       618 4.32749E+01
 -1       619 4.26367E+01
 -1       620 4.21700E+01
 -1       621 4.18207E+01
 -1       622 4.15443E+01
 -1       623 4.13070E+01
 -1       624 4.10863E+01
 -1       625 4.08707E+01
 -1       626 4.06572E+01
 -1       627 4.04496E+01
 -1       628 4.02556E+01
 -1       629 4.00837E+01
 -1       630 3.99406E+01
 -1       631 3.98289E+01
 -1       632 3.97468E+01
 -1       633 3.96879E+01
 -1       634 3.96433E+01
 -1       635 3.96027E+01
 -1       636 3.95547E+01
 -1       637 3.94832E+01
 -1       638 3.93761E+01
 -1       639 3.92375E+01
 -1       640 3.94739E+01
 -1       641 3.51819E+01
 -1       642 4.24318E+01
 -1       643 4.24318E+01
 -1       644 3.94255E+01
 -1       645 3.71473E+01
 -1       646 3.55701E+01
 -1       647 3.44568E+01
 -1       648 3.36472E+01
 -1       649 3.30366E+01
 -1       650 3.25535E+01
 -1       651 3.21495E+01
 -1       652 3.17937E+01
 -1       653 3.14689E+01
 -1       654 3.11679E+01
 -1       655 3.08901E+01
 -1       656 3.06389E+01
 -1       657 3.04188E+01
 -1       658 3.02330E+01
 -1       659 3.00819E+01
 -1       660 2.99618E+01
 -1       661 2.98659E+01
 -1       662 2.97850E+01
 -1       663 2.97096E+01
 -1       664 2.96316E+01
 -1       665 2.95437E+01
 -1       666 2.94412E+01
 -1       667 2.93204E+01
 -1       668 2.92079E+01
 -1       669 2.93762E+01
 -1       670 6.77398E+01
 -1       671 5.37941E+01
 -1       672 4.95043E+01
 -1       673 4.69672E+01
 -1       674 4.53272E+01
 -1       675 4.41457E+01
 -1       676 4.32749E+01
 -1       677 4.26367E+01
 -1       678 4.21700E+01
 -1       679 4.18207E+01
 -1       680 4.15443E+01
 -1       681 4.13070E+01
 -1       682 4.10863E+01
 -1       683 4.08707E+01
 -1       684 4.06572E+01
 -1       685 4.04496E+01
 -1       686 4.02556E+01
 -1       687 4.00837E+01
 -1       688 3.99406E+01
 -1       689 3.98289E+01
 -1       690 3.97468E+01
 -1       691 3.96879E+01
 -1       692 3.96433E+01
 -1       693 3.96027E+01
 -1       694 3.95547E+01
 -1       695 3.94832E+01
 -1       696 3.93761E+01
 -1       697 3.92375E+01
 -1       698 3.94739E+01
 -1       699 6.19051E+01
 -1       700 4.67066E+01
 -1       701 5.80325E+01
 -1       702 6.83952E+01
 -1       703 7.44043E+01
 -1       704 7.78094E+01
 -1       705 7.97094E+01
 -1       706 8.07830E+01
 -1       707 8.14063E+01
 -1       708 8.17823E+01
 -1       709 8.20259E+01
 -1       710 8.22056E+01
 -1       711 8.24325E+01
 -1       712 8.26441E+01
 -1       713 8.28208E+01
 -1       714 8.29645E+01
 -1       715 8.30756E+01
 -1       716 8.31547E+01
 -1       717 8.32045E+01
 -1       718 8.32340E+01
 -1       719 8.32746E+01
 -1       720 8.32934E+01
 -1       721 8.32988E+01
 -1       722 8.42957E+01
 -1       723 8.64631E+01
 -1       724 8.79918E+01
 -1       725 8.90035E+01
 -1       726 9.04099E+01
 -1       727 9.13808E+01
 -1       728 6.19051E+01
 -1       729 4.67066E+01
 -1       730 5.80325E+01
 -1       731 6.83952E+01
 -1       732 7.44043E+01
 -1       733 7.78094E+01
 -1       734 7.97094E+01
 -1       735 8.07830E+01
 -1       736 8.14063E+01
 -1       737 8.17823E+01
 -1       738 8.20259E+01
 -1       739 8.22056E+01
 -1       740 8.24325E+01
 -1       741 8.26441E+01
 -1       742 8.28208E+01
 -1       743 8.29645E+01
 -1       744 8.30756E+01
 -1       745 8.31547E+01
 -1       746 8.32045E+01
 -1       747 8.32340E+01
 -1       748 8.32746E+01
 -1       749 8.32934E+01
 -1       750 8.32988E+01
 -1       751 8.42957E+01
 -1       752 8.64631E+01
 -1       753 8.79918E+01
 -1       754 8.90035E+01
 -1       755 9.04099E+01
 -1       756 9.13808E+01
 -1       757 6.19051E+01
 -1       758 4.67066E+01
 -1       759 5.80325E+01
 -1       760 6.83952E+01
 -1       761 7.44043E+01
 -1       762 7.78094E+01
 -1       763 7.97094E+01
 -1       764 8.07830E+01
 -1       765 8.14063E+01
 -1       766 8.17823E+01
 -1       767 8.20259E+01
 -1       768 8.22056E+01
 -1       769 8.24325E+01
 -1       770 8.26441E+01
 -1       771 8.28208E+01
 -1       772 8.29645E+01
 -1       773 8.30756E+01
 -1       774 8.31547E+01
 -1       775 8.32045E+01
 -1       776 8.32340E+01
 -1       777 8.32746E+01
 -1       778 8.32934E+01
 -1       779 8.32988E+01
 -1       780 8.42957E+01
 -1       781 8.64631E+01
 -1       782 8.79918E+01
 -1       783 8.90035E+01
 -1       784 9.04099E+01
 -1       785 9.13808E+01
 -1       786 6.19051E+01
 -1       787 4.67066E+01
 -1       788 5.80325E+01
 -1       789 6.83952E+01
 -1       790 7.44043E+01
 -1       791 7.78094E+01
 -1       792 7.97094E+01
 -1       793 8.07830E+01
 -1       794 8.14063E+01
 -1       795 8.17823E+01
 -1       796 8.20259E+01
 -1       797 8.22056E+01
 -1       798 8.24325E+01
 -1       799 8.26441E+01
 -1       800 8.28208E+01
 -1       801 8.29645E+01
 -1       802 8.30756E+01
 -1       803 8.31547E+01
 -1       804 8.32045E+01
 -1       805 8.32340E+01
 -1       806 8.32746E+01
 -1       807 8.32934E+01
 -1       808 8.32988E+01
 -1       809 8.42957E+01
 -1       810 8.64631E+01
 -1       811 8.79918E+01
 -1       812 8.90035E+01
 -1       813 9.04099E+01
 -1       814 9.13808E+01
 -1       815 6.19051E+01
 -1       816 4.67066E+01
 -1       817 5.80325E+01
 -1       818 6.83952E+01
 -1       819 7.44043E+01
 -1       820 7.78094E+01
 -1       821 7.97094E+01
 -1       822 8.07830E+01
 -1       823 8.14063E+01
 -1       824 8.17823E+01
 -1       825 8.20259E+01
 -1       826 8.22056E+01
 -1       827 8.24325E+01
 -1       828 8.26441E+01
 -1       829 8.28208E+01
 -1       830 8.29645E+01
 -1       831 8.30756E+01
 -1       832 8.31547E+01
 -1       833 8.32045E+01
 -1       834 8.32340E+01
 -1       835 8.32746E+01
 -1       836 8.32934E+01
 -1       837 8.32988E+01
 -1       838 8.42957E+01
 -1       839 8.64631E+01
 -1       840 8.79918E+01
 -1       841 8.90035E+01
 -1       842 9.04099E+01
 -1       843 9.13808E+01
 -1       844 6.19051E+01
 -1       845 4.67066E+01
 -1       846 5.80325E+01
 -1       847 6.83952E+01
 -1       848 7.44043E+01
 -1       849 7.78094E+01
 -1       850 7.97094E+01
 -1       851 8.07830E+01
 -1       852 8.14063E+01
 -1       853 8.17823E+01
 -1       854 8.20259E+01
 -1       855 8.22056E+01
 -1       856 8.24325E+01
 -1       857 8.26441E+01
 -1       858 8.28208E+01
 -1       859 8.29645E+01
 -1       860 8.30756E+01
 -1       861 8.31547E+01
 -1       862 8.32045E+01
 -1       863 8.32340E+01
 -1       864 8.32746E+01
 -1       865 8.32934E+01
 -1       866 8.32988E+01
 -1       867 8.42957E+01
 -1       868 8.64631E+01
 -1       869 8.79918E+01
 -1       870 8.90035E+01
 -1       871 9.04099E+01
 -1       872 9.13808E+01
 -1       873 9.13808E+01
 -1       874 9.04099E+01
 -1       875 8.90035E+01
 -1       876 8.79918E+01
 -1       877 8.64631E+01
 -1       878 8.42957E+01
 -1       879 8.32988E+01
 -1       880 8.32934E+01
 -1       881 8.32746E+01
 -1       882 8.32340E+01
 -1       883 8.32045E+01
 -1       884 8.31547E+01
 -1       885 8.30756E+01
 -1       886 8.29645E+01
 -1       887 8.28208E+01
 -1       888 8.26441E+01
 -1       889 8.24325E+01
 -1       890 8.22056E+01
 -1       891 8.20259E+01
 -1       892 8.17823E+01
 -1       893 8.14063E+01
 -1       894 8.07830E+01
 -1       895 7.97094E+01
 -1       896 7.78094E+01
 -1       897 7.44043E+01
 -1       898 6.83952E+01
 -1       899 5.80325E+01
 -1       900 4.67066E+01
 -1       901 6.19051E+01
 -1       902 6.19051E+01
 -1       903 4.67066E+01
 -1       904 5.80325E+01
 -1       905 6.83952E+01
 -1       906 7.44043E+01
 -1       907 7.78094E+01
 -1       908 7.97094E+01
 -1       909 8.07830E+01
 -1       910 8.14063E+01
 -1       911 8.17823E+01
 -1       912 8.20259E+01
 -1       913 8.22056E+01
 -1       914 8.24325E+01
 -1       915 8.26441E+01
 -1       916 8.28208E+01
 -1       917 8.29645E+01
 -1       918 8.30756E+01
 -1       919 8.31547E+01
 -1       920 8.32045E+01
 -1       921 8.32340E+01
 -1       922 8.32746E+01
 -1       923 8.32934E+01
 -1       924 8.32988E+01
 -1       925 8.42957E+01
 -1       926 8.64631E+01
 -1       927 8.79918E+01
 -1       928 8.90035E+01
 -1       929 9.04099E+01
 -1       930 9.13808E+01
 -3
    1PSTEP                        57           1           1          
    1PGM                1.000000E+00                                  
    1PGK                2.540482E+07                                  
    1PHID                         -1                                  
    1PSUBC                         0                                  
    1PMODE                        15                                  
  100CL  115 802.1917462         930                     2   15MODAL      1
 -4  DISP        4    1
 -5  D1          1    2    1    0
 -5  D2          1    2    2    0
 -5  D3          1    2    3    0
 -5  ALL         1    2    0    0    1ALL
 -1         1 0.00000E+00 0.00000E+00 0.00000E+00
 -1         2 0.00000E+00 0.00000E+00 0.00000E+00
 -1         3-1.32778E-04-3.79559E-02 8.53152E-03
 -1         4 1.32778E-04-3.79559E-02-8.53152E-03
 -1         5 0.00000E+00 0.00000E+00 0.00000E+00
 -1         6 0.00000E+00 0.00000E+00 0.00000E+00
 -1         7-1.32778E-04-3.79559E-02-8.53152E-03
 -1         8 1.32778E-04-3.79559E-02 8.53152E-03
 -1         9 0.00000E+00 0.00000E+00 0.00000E+00
 -1        10-7.80511E-05-7.00108E-02 9.19460E-03
 -1        11 0.00000E+00 0.00000E+00 0.00000E+00
 -1        12 0.00000E+00 0.00000E+00 0.00000E+00
 -1        13-3.08616E-03-7.18817E-02 2.25377E-01
 -1        14-5.32279E-03-3.70620E-02 2.25316E-01
 -1        15 0.00000E+00 0.00000E+00 0.00000E+00
 -1        16-7.80511E-05-7.00108E-02-9.19460E-03
 -1        17 0.00000E+00 0.00000E+00 0.00000E+00
 -1        18 0.00000E+00 0.00000E+00 0.00000E+00
 -1        19-5.32279E-03-3.70620E-02-2.25316E-01
 -1        20-3.08616E-03-7.18817E-02-2.25377E-01
 -1        21 0.00000E+00 0.00000E+00 0.00000E+00
 -1        22 0.00000E+00 0.00000E+00 0.00000E+00
 -1        23 3.08616E-03-7.18817E-02-2.25377E-01
 -1        24 5.32279E-03-3.70620E-02-2.25316E-01
 -1        25 0.00000E+00 0.00000E+00 0.00000E+00
 -1        26 7.80511E-05-7.00108E-02-9.19460E-03
 -1        27 0.00000E+00 0.00000E+00 0.00000E+00
 -1        28 0.00000E+00 0.00000E+00 0.00000E+00
 -1        29 0.00000E+00 0.00000E+00 0.00000E+00
 -1        30 7.80511E-05-7.00108E-02 9.19460E-03
 -1        31 3.08616E-03-7.18817E-02 2.25377E-01
 -1        32 5.32279E-03-3.70620E-02 2.25316E-01
 -1        33-1.04981E-04 1.34886E-03 1.92660E-04
 -1        34-1.70699E-04 4.42362E-03 6.69467E-04
 -1        35-2.06827E-04 8.50543E-03 1.33908E-03
 -1        36-2.15949E-04 1.29734E-02 2.13099E-03
 -1        37-2.04597E-04 1.73159E-02 2.98972E-03
 -1        38-1.79328E-04 2.11649E-02 3.86570E-03
 -1        39-1.47413E-04 2.43263E-02 4.71112E-03
 -1        40-1.14652E-04 2.67631E-02 5.47841E-03
 -1        41-8.47111E-05 2.85520E-02 6.12190E-03
 -1        42-5.85466E-05 2.98196E-02 6.60136E-03
 -1        43-3.46285E-05 3.06746E-02 6.88626E-03
 -1        44-9.77864E-06 3.11532E-02 6.95906E-03
 -1        45 1.95583E-05 3.11930E-02 6.81688E-03
 -1        46 5.59633E-05 3.06411E-02 6.47060E-03
 -1        47 9.99788E-05 2.92947E-02 5.94195E-03
 -1        48 1.49623E-04 2.69616E-02 5.25891E-03
 -1        49 2.00624E-04 2.35249E-02 4.45091E-03
 -1        50 2.47308E-04 1.89930E-02 3.54466E-03
 -1        51 2.83920E-04 1.35201E-02 2.56189E-03
 -1        52 3.06012E-04 7.39128E-03 1.51919E-03
 -1        53 3.11534E-04 9.75119E-04 4.29820E-04
 -1        54 3.01341E-04-5.34472E-03-6.93131E-04
 -1        55 2.78959E-04-1.12415E-02-1.83358E-03
 -1        56 2.49703E-04-1.65020E-02-2.97032E-03
 -1        57 2.19383E-04-2.10546E-02-4.07699E-03
 -1        58 1.92918E-04-2.49608E-02-5.12508E-03
 -1        59 1.74466E-04-2.83844E-02-6.09090E-03
 -1        60 1.62478E-04-3.15415E-02-6.96376E-03
 -1        61 1.73406E-04-3.46894E-02-7.76216E-03
 -1        62 1.04981E-04 1.34886E-03-1.92660E-04
 -1        63 1.70699E-04 4.42362E-03-6.69467E-04
 -1        64 2.06827E-04 8.50543E-03-1.33908E-03
 -1        65 2.15949E-04 1.29734E-02-2.13099E-03
 -1        66 2.04597E-04 1.73159E-02-2.98972E-03
 -1        67 1.79328E-04 2.11649E-02-3.86570E-03
 -1        68 1.47413E-04 2.43263E-02-4.71112E-03
 -1        69 1.14652E-04 2.67631E-02-5.47841E-03
 -1        70 8.47111E-05 2.85520E-02-6.12190E-03
 -1        71 5.85466E-05 2.98196E-02-6.60136E-03
 -1        72 3.46285E-05 3.06746E-02-6.88626E-03
 -1        73 9.77864E-06 3.11532E-02-6.95906E-03
 -1        74-1.95583E-05 3.11930E-02-6.81688E-03
 -1        75-5.59633E-05 3.06411E-02-6.47060E-03
 -1        76-9.99788E-05 2.92947E-02-5.94195E-03
 -1        77-1.49623E-04 2.69616E-02-5.25891E-03
 -1        78-2.00624E-04 2.35249E-02-4.45091E-03
 -1        79-2.47308E-04 1.89930E-02-3.54466E-03
 -1        80-2.83920E-04 1.35201E-02-2.56189E-03
 -1        81-3.06012E-04 7.39128E-03-1.51919E-03
 -1        82-3.11534E-04 9.75119E-04-4.29820E-04
 -1        83-3.01341E-04-5.34472E-03 6.93131E-04
 -1        84-2.78959E-04-1.12415E-02 1.83358E-03
 -1        85-2.49703E-04-1.65020E-02 2.97032E-03
 -1        86-2.19383E-04-2.10546E-02 4.07699E-03
 -1        87-1.92918E-04-2.49608E-02 5.12508E-03
 -1        88-1.74466E-04-2.83844E-02 6.09090E-03
 -1        89-1.62478E-04-3.15415E-02 6.96376E-03
 -1        90-1.73406E-04-3.46894E-02 7.76216E-03
 -1        91 0.00000E+00 0.00000E+00 0.00000E+00
 -1        92 0.00000E+00 0.00000E+00 0.00000E+00
 -1        93 0.00000E+00 0.00000E+00 0.00000E+00
 -1        94 0.00000E+00 0.00000E+00 0.00000E+00
 -1        95 0.00000E+00 0.00000E+00 0.00000E+00
 -1        96 0.00000E+00 0.00000E+00 0.00000E+00
 -1        97 1.04981E-04 1.34886E-03 1.92660E-04
 -1        98 1.70699E-04 4.42362E-03 6.69467E-04
 -1        99 2.06827E-04 8.50543E-03 1.33908E-03
 -1       100 2.15949E-04 1.29734E-02 2.13099E-03
 -1       101 2.04597E-04 1.73159E-02 2.98972E-03
 -1       102 1.79328E-04 2.11649E-02 3.86570E-03
 -1       103 1.47413E-04 2.43263E-02 4.71112E-03
 -1       104 1.14652E-04 2.67631E-02 5.47841E-03
 -1       105 8.47111E-05 2.85520E-02 6.12190E-03
 -1       106 5.85466E-05 2.98196E-02 6.60136E-03
 -1       107 3.46285E-05 3.06746E-02 6.88626E-03
 -1       108 9.77864E-06 3.11532E-02 6.95906E-03
 -1       109-1.95583E-05 3.11930E-02 6.81688E-03
 -1       110-5.59633E-05 3.06411E-02 6.47060E-03
 -1       111-9.99788E-05 2.92947E-02 5.94195E-03
 -1       112-1.49623E-04 2.69616E-02 5.25891E-03
 -1       113-2.00624E-04 2.35249E-02 4.45091E-03
 -1       114-2.47308E-04 1.89930E-02 3.54466E-03
 -1       115-2.83920E-04 1.35201E-02 2.56189E-03
 -1       116-3.06012E-04 7.39128E-03 1.51919E-03
 -1       117-3.11534E-04 9.75119E-04 4.29820E-04
 -1       118-3.01341E-04-5.34472E-03-6.93131E-04
 -1       119-2.78959E-04-1.12415E-02-1.83358E-03
 -1       120-2.49703E-04-1.65020E-02-2.97032E-03
 -1       121-2.19383E-04-2.10546E-02-4.07699E-03
 -1       122-1.92918E-04-2.49608E-02-5.12508E-03
 -1       123-1.74466E-04-2.83844E-02-6.09090E-03
 -1       124-1.62478E-04-3.15415E-02-6.96376E-03
 -1       125-1.73406E-04-3.46894E-02-7.76216E-03
 -1       126 5.00624E-04 1.13040E-01 5.02346E-03
 -1       127 7.50362E-04 1.69215E-01 4.35277E-13
 -1       128 5.00624E-04 1.13040E-01-5.02346E-03
 -1       129-1.04981E-04 1.34886E-03-1.92660E-04
 -1       130-1.70699E-04 4.42362E-03-6.69467E-04
 -1       131-2.06827E-04 8.50543E-03-1.33908E-03
 -1       132-2.15949E-04 1.29734E-02-2.13099E-03
 -1       133-2.04597E-04 1.73159E-02-2.98972E-03
 -1       134-1.79328E-04 2.11649E-02-3.86570E-03
 -1       135-1.47413E-04 2.43263E-02-4.71112E-03
 -1       136-1.14652E-04 2.67631E-02-5.47841E-03
 -1       137-8.47111E-05 2.85520E-02-6.12190E-03
 -1       138-5.85466E-05 2.98196E-02-6.60136E-03
 -1       139-3.46285E-05 3.06746E-02-6.88626E-03
 -1       140-9.77864E-06 3.11532E-02-6.95906E-03
 -1       141 1.95583E-05 3.11930E-02-6.81688E-03
 -1       142 5.59633E-05 3.06411E-02-6.47060E-03
 -1       143 9.99788E-05 2.92947E-02-5.94195E-03
 -1       144 1.49623E-04 2.69616E-02-5.25891E-03
 -1       145 2.00624E-04 2.35249E-02-4.45091E-03
 -1       146 2.47308E-04 1.89930E-02-3.54466E-03
 -1       147 2.83920E-04 1.35201E-02-2.56189E-03
 -1       148 3.06012E-04 7.39128E-03-1.51919E-03
 -1       149 3.11534E-04 9.75119E-04-4.29820E-04
 -1       150 3.01341E-04-5.34472E-03 6.93131E-04
 -1       151 2.78959E-04-1.12415E-02 1.83358E-03
 -1       152 2.49703E-04-1.65020E-02 2.97032E-03
 -1       153 2.19383E-04-2.10546E-02 4.07699E-03
 -1       154 1.92918E-04-2.49608E-02 5.12508E-03
 -1       155 1.74466E-04-2.83844E-02 6.09090E-03
 -1       156 1.62478E-04-3.15415E-02 6.96376E-03
 -1       157 1.73406E-04-3.46894E-02 7.76216E-03
 -1       158-5.00624E-04 1.13040E-01 5.02346E-03
 -1       159-7.50362E-04 1.69215E-01 4.07986E-13
 -1       160-5.00624E-04 1.13040E-01-5.02346E-03
 -1       161 6.24000E-05 2.10864E-03-2.09969E-04
 -1       162 1.23313E-04 7.03038E-03-7.32988E-04
 -1       163 1.53831E-04 1.36770E-02-1.45874E-03
 -1       164 1.61807E-04 2.11595E-02-2.31664E-03
 -1       165 1.52389E-04 2.87613E-02-3.24528E-03
 -1       166 1.31323E-04 3.59284E-02-4.19184E-03
 -1       167 1.05304E-04 4.22858E-02-5.10456E-03
 -1       168 7.96433E-05 4.76176E-02-5.93224E-03
 -1       169 5.76199E-05 5.18308E-02-6.62593E-03
 -1       170 3.99279E-05 5.49038E-02-7.14267E-03
 -1       171 2.48782E-05 5.68329E-02-7.44990E-03
 -1       172 9.20464E-06 5.75898E-02-7.52887E-03
 -1       173-1.07201E-05 5.71000E-02-7.37636E-03
 -1       174-3.75909E-05 5.52489E-02-7.00372E-03
 -1       175-7.21495E-05 5.19108E-02-6.43384E-03
 -1       176-1.12717E-04 4.69947E-02-5.69634E-03
 -1       177-1.55408E-04 4.04914E-02-4.82252E-03
 -1       178-1.94979E-04 3.25087E-02-3.84107E-03
 -1       179-2.26075E-04 2.32844E-02-2.77561E-03
 -1       180-2.44554E-04 1.31699E-02-1.64450E-03
 -1       181-2.48519E-04 2.58951E-03-4.62745E-04
 -1       182-2.38797E-04-8.01793E-03 7.54828E-04
 -1       183-2.18716E-04-1.82606E-02 1.99032E-03
 -1       184-1.93265E-04-2.78444E-02 3.22074E-03
 -1       185-1.67896E-04-3.66025E-02 4.41820E-03
 -1       186-1.47008E-04-4.44973E-02 5.55283E-03
 -1       187-1.34560E-04-5.16041E-02 6.59958E-03
 -1       188-1.26003E-04-5.80688E-02 7.54247E-03
 -1       189-1.43234E-04-6.41374E-02 8.39302E-03
 -1       190 0.00000E+00 0.00000E+00 0.00000E+00
 -1       191 0.00000E+00 0.00000E+00 0.00000E+00
 -1       192-1.64320E-03-7.16356E-02 1.15125E-01
 -1       193 1.53677E-03 2.45341E-03-5.25747E-03
 -1       194 2.77670E-03 7.37079E-03-1.84727E-02
 -1       195 3.45372E-03 1.40993E-02-3.66596E-02
 -1       196 3.64042E-03 2.17047E-02-5.79896E-02
 -1       197 3.43635E-03 2.94573E-02-8.10187E-02
 -1       198 2.98135E-03 3.67962E-02-1.04444E-01
 -1       199 2.41248E-03 4.33332E-02-1.26990E-01
 -1       200 1.84368E-03 4.88375E-02-1.47398E-01
 -1       201 1.34440E-03 5.32004E-02-1.64479E-01
 -1       202 9.30543E-04 5.63859E-02-1.77196E-01
 -1       203 5.68354E-04 5.83795E-02-1.84767E-01
 -1       204 1.91295E-04 5.91467E-02-1.86738E-01
 -1       205-2.74704E-04 5.86127E-02-1.83023E-01
 -1       206-8.84308E-04 5.66678E-02-1.73884E-01
 -1       207-1.65153E-03 5.31955E-02-1.59855E-01
 -1       208-2.54003E-03 4.81154E-02-1.41638E-01
 -1       209-3.46761E-03 4.14280E-02-1.19983E-01
 -1       210-4.32391E-03 3.32488E-02-9.55897E-02
 -1       211-4.99648E-03 2.38192E-02-6.90491E-02
 -1       212-5.39837E-03 1.34912E-02-4.08390E-02
 -1       213-5.48977E-03 2.68731E-03-1.13649E-02
 -1       214-5.28782E-03-8.15564E-03 1.89705E-02
 -1       215-4.86189E-03-1.86463E-02 4.96976E-02
 -1       216-4.31567E-03-2.84885E-02 8.02436E-02
 -1       217-3.76185E-03-3.75108E-02 1.09949E-01
 -1       218-3.29835E-03-4.56696E-02 1.38132E-01
 -1       219-2.99569E-03-5.30287E-02 1.64163E-01
 -1       220-2.88972E-03-5.97257E-02 1.87517E-01
 -1       221-2.99111E-03-6.59627E-02 2.07825E-01
 -1       222 2.82729E-03 1.64633E-03-5.36888E-03
 -1       223 4.87984E-03 4.49996E-03-1.85136E-02
 -1       224 6.07492E-03 8.40110E-03-3.66769E-02
 -1       225 6.57346E-03 1.26949E-02-5.79750E-02
 -1       226 6.50534E-03 1.68740E-02-8.09808E-02
 -1       227 6.01839E-03 2.05787E-02-1.04388E-01
 -1       228 5.25116E-03 2.36188E-02-1.26922E-01
 -1       229 4.32221E-03 2.59583E-02-1.47323E-01
 -1       230 3.31503E-03 2.76730E-02-1.64400E-01
 -1       231 2.27222E-03 2.88870E-02-1.77115E-01
 -1       232 1.19885E-03 2.97067E-02-1.84683E-01
 -1       233 7.51492E-05 3.01678E-02-1.86651E-01
 -1       234-1.12505E-03 3.02089E-02-1.82933E-01
 -1       235-2.41474E-03 2.96804E-02-1.73791E-01
 -1       236-3.77858E-03 2.83832E-02-1.59761E-01
 -1       237-5.16629E-03 2.61285E-02-1.41548E-01
 -1       238-6.49646E-03 2.28014E-02-1.19902E-01
 -1       239-7.67015E-03 1.84087E-02-9.55224E-02
 -1       240-8.59052E-03 1.30999E-02-6.90009E-02
 -1       241-9.18366E-03 7.15266E-03-4.08131E-02
 -1       242-9.41495E-03 9.25829E-04-1.13621E-02
 -1       243-9.29697E-03-5.20698E-03 1.89517E-02
 -1       244-8.88702E-03-1.09277E-02 4.96607E-02
 -1       245-8.27510E-03-1.60292E-02 8.01934E-02
 -1       246-7.56615E-03-2.04415E-02 1.09890E-01
 -1       247-6.86041E-03-2.42250E-02 1.38069E-01
 -1       248-6.23849E-03-2.75423E-02 1.64099E-01
 -1       249-5.75538E-03-3.06158E-02 1.87455E-01
 -1       250-5.43696E-03-3.37178E-02 2.07763E-01
 -1       251-2.84970E-03-3.73173E-02 1.15258E-01
 -1       252-1.43234E-04-6.41374E-02-8.39302E-03
 -1       253-1.26003E-04-5.80688E-02-7.54247E-03
 -1       254-1.34560E-04-5.16041E-02-6.59958E-03
 -1       255-1.47008E-04-4.44973E-02-5.55283E-03
 -1       256-1.67896E-04-3.66025E-02-4.41820E-03
 -1       257-1.93265E-04-2.78444E-02-3.22074E-03
 -1       258-2.18716E-04-1.82606E-02-1.99032E-03
 -1       259-2.38797E-04-8.01793E-03-7.54828E-04
 -1       260-2.48519E-04 2.58951E-03 4.62745E-04
 -1       261-2.44554E-04 1.31699E-02 1.64450E-03
 -1       262-2.26075E-04 2.32844E-02 2.77561E-03
 -1       263-1.94979E-04 3.25087E-02 3.84107E-03
 -1       264-1.55408E-04 4.04914E-02 4.82252E-03
 -1       265-1.12717E-04 4.69947E-02 5.69634E-03
 -1       266-7.21495E-05 5.19108E-02 6.43384E-03
 -1       267-3.75909E-05 5.52489E-02 7.00372E-03
 -1       268-1.07201E-05 5.71000E-02 7.37636E-03
 -1       269 9.20464E-06 5.75898E-02 7.52887E-03
 -1       270 2.48782E-05 5.68329E-02 7.44990E-03
 -1       271 3.99279E-05 5.49038E-02 7.14267E-03
 -1       272 5.76199E-05 5.18308E-02 6.62593E-03
 -1       273 7.96433E-05 4.76176E-02 5.93224E-03
 -1       274 1.05304E-04 4.22858E-02 5.10456E-03
 -1       275 1.31323E-04 3.59284E-02 4.19184E-03
 -1       276 1.52389E-04 2.87613E-02 3.24528E-03
 -1       277 1.61807E-04 2.11595E-02 2.31664E-03
 -1       278 1.53831E-04 1.36770E-02 1.45874E-03
 -1       279 1.23313E-04 7.03038E-03 7.32988E-04
 -1       280 6.24000E-05 2.10864E-03 2.09969E-04
 -1       281 0.00000E+00 0.00000E+00 0.00000E+00
 -1       282 0.00000E+00 0.00000E+00 0.00000E+00
 -1       283 2.82729E-03 1.64633E-03 5.36888E-03
 -1       284 4.87984E-03 4.49996E-03 1.85136E-02
 -1       285 6.07492E-03 8.40110E-03 3.66769E-02
 -1       286 6.57346E-03 1.26949E-02 5.79750E-02
 -1       287 6.50534E-03 1.68740E-02 8.09808E-02
 -1       288 6.01839E-03 2.05787E-02 1.04388E-01
 -1       289 5.25116E-03 2.36188E-02 1.26922E-01
 -1       290 4.32221E-03 2.59583E-02 1.47323E-01
 -1       291 3.31503E-03 2.76730E-02 1.64400E-01
 -1       292 2.27222E-03 2.88870E-02 1.77115E-01
 -1       293 1.19885E-03 2.97067E-02 1.84683E-01
 -1       294 7.51492E-05 3.01678E-02 1.86651E-01
 -1       295-1.12505E-03 3.02089E-02 1.82933E-01
 -1       296-2.41474E-03 2.96804E-02 1.73791E-01
 -1       297-3.77858E-03 2.83832E-02 1.59761E-01
 -1       298-5.16629E-03 2.61285E-02 1.41548E-01
 -1       299-6.49646E-03 2.28014E-02 1.19902E-01
 -1       300-7.67015E-03 1.84087E-02 9.55224E-02
 -1       301-8.59052E-03 1.30999E-02 6.90009E-02
 -1       302-9.18366E-03 7.15266E-03 4.08131E-02
 -1       303-9.41495E-03 9.25829E-04 1.13621E-02
 -1       304-9.29697E-03-5.20698E-03-1.89517E-02
 -1       305-8.88702E-03-1.09277E-02-4.96607E-02
 -1       306-8.27510E-03-1.60292E-02-8.01934E-02
 -1       307-7.56615E-03-2.04415E-02-1.09890E-01
 -1       308-6.86041E-03-2.42250E-02-1.38069E-01
 -1       309-6.23849E-03-2.75423E-02-1.64099E-01
 -1       310-5.75538E-03-3.06158E-02-1.87455E-01
 -1       311-5.43696E-03-3.37178E-02-2.07763E-01
 -1       312-2.84970E-03-3.73173E-02-1.15258E-01
 -1       313 1.53677E-03 2.45341E-03 5.25747E-03
 -1       314 2.77670E-03 7.37079E-03 1.84727E-02
 -1       315 3.45372E-03 1.40993E-02 3.66596E-02
 -1       316 3.64042E-03 2.17047E-02 5.79896E-02
 -1       317 3.43635E-03 2.94573E-02 8.10187E-02
 -1       318 2.98135E-03 3.67962E-02 1.04444E-01
 -1       319 2.41248E-03 4.33332E-02 1.26990E-01
 -1       320 1.84368E-03 4.88375E-02 1.47398E-01
 -1       321 1.34440E-03 5.32004E-02 1.64479E-01
 -1       322 9.30543E-04 5.63859E-02 1.77196E-01
 -1       323 5.68354E-04 5.83795E-02 1.84767E-01
 -1       324 1.91295E-04 5.91467E-02 1.86738E-01
 -1       325-2.74704E-04 5.86127E-02 1.83023E-01
 -1       326-8.84308E-04 5.66678E-02 1.73884E-01
 -1       327-1.65153E-03 5.31955E-02 1.59855E-01
 -1       328-2.54003E-03 4.81154E-02 1.41638E-01
 -1       329-3.46761E-03 4.14280E-02 1.19983E-01
 -1       330-4.32391E-03 3.32488E-02 9.55897E-02
 -1       331-4.99648E-03 2.38192E-02 6.90491E-02
 -1       332-5.39837E-03 1.34912E-02 4.08390E-02
 -1       333-5.48977E-03 2.68731E-03 1.13649E-02
 -1       334-5.28782E-03-8.15564E-03-1.89705E-02
 -1       335-4.86189E-03-1.86463E-02-4.96976E-02
 -1       336-4.31567E-03-2.84885E-02-8.02436E-02
 -1       337-3.76185E-03-3.75108E-02-1.09949E-01
 -1       338-3.29835E-03-4.56696E-02-1.38132E-01
 -1       339-2.99569E-03-5.30287E-02-1.64163E-01
 -1       340-2.88972E-03-5.97257E-02-1.87517E-01
 -1       341-2.99111E-03-6.59627E-02-2.07825E-01
 -1       342-1.64320E-03-7.16356E-02-1.15125E-01
 -1       343-1.53677E-03 2.45341E-03 5.25747E-03
 -1       344-2.77670E-03 7.37079E-03 1.84727E-02
 -1       345-3.45372E-03 1.40993E-02 3.66596E-02
 -1       346-3.64042E-03 2.17047E-02 5.79896E-02
 -1       347-3.43635E-03 2.94573E-02 8.10187E-02
 -1       348-2.98135E-03 3.67962E-02 1.04444E-01
 -1       349-2.41248E-03 4.33332E-02 1.26990E-01
 -1       350-1.84368E-03 4.88375E-02 1.47398E-01
 -1       351-1.34440E-03 5.32004E-02 1.64479E-01
 -1       352-9.30543E-04 5.63859E-02 1.77196E-01
 -1       353-5.68354E-04 5.83795E-02 1.84767E-01
 -1       354-1.91295E-04 5.91467E-02 1.86738E-01
 -1       355 2.74704E-04 5.86127E-02 1.83023E-01
 -1       356 8.84308E-04 5.66678E-02 1.73884E-01
 -1       357 1.65153E-03 5.31955E-02 1.59855E-01
 -1       358 2.54003E-03 4.81154E-02 1.41638E-01
 -1       359 3.46761E-03 4.14280E-02 1.19983E-01
 -1       360 4.32391E-03 3.32488E-02 9.55897E-02
 -1       361 4.99648E-03 2.38192E-02 6.90491E-02
 -1       362 5.39837E-03 1.34912E-02 4.08390E-02
 -1       363 5.48977E-03 2.68731E-03 1.13649E-02
 -1       364 5.28782E-03-8.15564E-03-1.89705E-02
 -1       365 4.86189E-03-1.86463E-02-4.96976E-02
 -1       366 4.31567E-03-2.84885E-02-8.02436E-02
 -1       367 3.76185E-03-3.75108E-02-1.09949E-01
 -1       368 3.29835E-03-4.56696E-02-1.38132E-01
 -1       369 2.99569E-03-5.30287E-02-1.64163E-01
 -1       370 2.88972E-03-5.97257E-02-1.87517E-01
 -1       371 2.99111E-03-6.59627E-02-2.07825E-01
 -1       372-2.82729E-03 1.64633E-03 5.36888E-03
 -1       373-4.87984E-03 4.49996E-03 1.85136E-02
 -1       374-6.07492E-03 8.40110E-03 3.66769E-02
 -1       375-6.57346E-03 1.26949E-02 5.79750E-02
 -1       376-6.50534E-03 1.68740E-02 8.09808E-02
 -1       377-6.01839E-03 2.05787E-02 1.04388E-01
 -1       378-5.25116E-03 2.36188E-02 1.26922E-01
 -1       379-4.32221E-03 2.59583E-02 1.47323E-01
 -1       380-3.31503E-03 2.76730E-02 1.64400E-01
 -1       381-2.27222E-03 2.88870E-02 1.77115E-01
 -1       382-1.19885E-03 2.97067E-02 1.84683E-01
 -1       383-7.51492E-05 3.01678E-02 1.86651E-01
 -1       384 1.12505E-03 3.02089E-02 1.82933E-01
 -1       385 2.41474E-03 2.96804E-02 1.73791E-01
 -1       386 3.77858E-03 2.83832E-02 1.59761E-01
 -1       387 5.16629E-03 2.61285E-02 1.41548E-01
 -1       388 6.49646E-03 2.28014E-02 1.19902E-01
 -1       389 7.67015E-03 1.84087E-02 9.55224E-02
 -1       390 8.59052E-03 1.30999E-02 6.90009E-02
 -1       391 9.18366E-03 7.15266E-03 4.08131E-02
 -1       392 9.41495E-03 9.25829E-04 1.13621E-02
 -1       393 9.29697E-03-5.20698E-03-1.89517E-02
 -1       394 8.88702E-03-1.09277E-02-4.96607E-02
 -1       395 8.27510E-03-1.60292E-02-8.01934E-02
 -1       396 7.56615E-03-2.04415E-02-1.09890E-01
 -1       397 6.86041E-03-2.42250E-02-1.38069E-01
 -1       398 6.23849E-03-2.75423E-02-1.64099E-01
 -1       399 5.75538E-03-3.06158E-02-1.87455E-01
 -1       400 5.43696E-03-3.37178E-02-2.07763E-01
 -1       401 0.00000E+00 0.00000E+00 0.00000E+00
 -1       402 0.00000E+00 0.00000E+00 0.00000E+00
 -1       403 1.64320E-03-7.16356E-02-1.15125E-01
 -1       404-6.24000E-05 2.10864E-03 2.09969E-04
 -1       405-1.23313E-04 7.03038E-03 7.32988E-04
 -1       406-1.53831E-04 1.36770E-02 1.45874E-03
 -1       407-1.61807E-04 2.11595E-02 2.31664E-03
 -1       408-1.52389E-04 2.87613E-02 3.24528E-03
 -1       409-1.31323E-04 3.59284E-02 4.19184E-03
 -1       410-1.05304E-04 4.22858E-02 5.10456E-03
 -1       411-7.96433E-05 4.76176E-02 5.93224E-03
 -1       412-5.76199E-05 5.18308E-02 6.62593E-03
 -1       413-3.99279E-05 5.49038E-02 7.14267E-03
 -1       414-2.48782E-05 5.68329E-02 7.44990E-03
 -1       415-9.20463E-06 5.75898E-02 7.52887E-03
 -1       416 1.07201E-05 5.71000E-02 7.37636E-03
 -1       417 3.75909E-05 5.52489E-02 7.00372E-03
 -1       418 7.21495E-05 5.19108E-02 6.43384E-03
 -1       419 1.12717E-04 4.69947E-02 5.69634E-03
 -1       420 1.55408E-04 4.04914E-02 4.82252E-03
 -1       421 1.94979E-04 3.25087E-02 3.84107E-03
 -1       422 2.26075E-04 2.32844E-02 2.77561E-03
 -1       423 2.44554E-04 1.31699E-02 1.64450E-03
 -1       424 2.48519E-04 2.58951E-03 4.62745E-04
 -1       425 2.38797E-04-8.01793E-03-7.54828E-04
 -1       426 2.18716E-04-1.82606E-02-1.99032E-03
 -1       427 1.93265E-04-2.78444E-02-3.22074E-03
 -1       428 1.67896E-04-3.66025E-02-4.41820E-03
 -1       429 1.47008E-04-4.44973E-02-5.55283E-03
 -1       430 1.34560E-04-5.16041E-02-6.59958E-03
 -1       431 1.26003E-04-5.80688E-02-7.54247E-03
 -1       432 1.43234E-04-6.41374E-02-8.39302E-03
 -1       433 2.84970E-03-3.73173E-02-1.15258E-01
 -1       434 0.00000E+00 0.00000E+00 0.00000E+00
 -1       435 0.00000E+00 0.00000E+00 0.00000E+00
 -1       436 1.43234E-04-6.41374E-02 8.39302E-03
 -1       437 1.26003E-04-5.80688E-02 7.54247E-03
 -1       438 1.34560E-04-5.16041E-02 6.59958E-03
 -1       439 1.47008E-04-4.44973E-02 5.55283E-03
 -1       440 1.67896E-04-3.66025E-02 4.41820E-03
 -1       441 1.93265E-04-2.78444E-02 3.22074E-03
 -1       442 2.18716E-04-1.82606E-02 1.99032E-03
 -1       443 2.38797E-04-8.01793E-03 7.54828E-04
 -1       444 2.48519E-04 2.58951E-03-4.62745E-04
 -1       445 2.44554E-04 1.31699E-02-1.64450E-03
 -1       446 2.26075E-04 2.32844E-02-2.77561E-03
 -1       447 1.94979E-04 3.25087E-02-3.84107E-03
 -1       448 1.55408E-04 4.04914E-02-4.82252E-03
 -1       449 1.12717E-04 4.69947E-02-5.69634E-03
 -1       450 7.21495E-05 5.19108E-02-6.43384E-03
 -1       451 3.75909E-05 5.52489E-02-7.00372E-03
 -1       452 1.07201E-05 5.71000E-02-7.37636E-03
 -1       453-9.20463E-06 5.75898E-02-7.52887E-03
 -1       454-2.48782E-05 5.68329E-02-7.44990E-03
 -1       455-3.99279E-05 5.49038E-02-7.14267E-03
 -1       456-5.76199E-05 5.18308E-02-6.62593E-03
 -1       457-7.96433E-05 4.76176E-02-5.93224E-03
 -1       458-1.05304E-04 4.22858E-02-5.10456E-03
 -1       459-1.31323E-04 3.59284E-02-4.19184E-03
 -1       460-1.52389E-04 2.87613E-02-3.24528E-03
 -1       461-1.61807E-04 2.11595E-02-2.31664E-03
 -1       462-1.53831E-04 1.36770E-02-1.45874E-03
 -1       463-1.23313E-04 7.03038E-03-7.32988E-04
 -1       464-6.24000E-05 2.10864E-03-2.09969E-04
 -1       465 1.64320E-03-7.16356E-02 1.15125E-01
 -1       466-1.53677E-03 2.45341E-03-5.25747E-03
 -1       467-2.77670E-03 7.37079E-03-1.84727E-02
 -1       468-3.45372E-03 1.40993E-02-3.66596E-02
 -1       469-3.64042E-03 2.17047E-02-5.79896E-02
 -1       470-3.43635E-03 2.94573E-02-8.10187E-02
 -1       471-2.98135E-03 3.67962E-02-1.04444E-01
 -1       472-2.41248E-03 4.33332E-02-1.26990E-01
 -1       473-1.84368E-03 4.88375E-02-1.47398E-01
 -1       474-1.34440E-03 5.32004E-02-1.64479E-01
 -1       475-9.30543E-04 5.63859E-02-1.77196E-01
 -1       476-5.68354E-04 5.83795E-02-1.84767E-01
 -1       477-1.91295E-04 5.91467E-02-1.86738E-01
 -1       478 2.74704E-04 5.86127E-02-1.83023E-01
 -1       479 8.84308E-04 5.66678E-02-1.73884E-01
 -1       480 1.65153E-03 5.31955E-02-1.59855E-01
 -1       481 2.54003E-03 4.81154E-02-1.41638E-01
 -1       482 3.46761E-03 4.14280E-02-1.19983E-01
 -1       483 4.32391E-03 3.32488E-02-9.55897E-02
 -1       484 4.99648E-03 2.38192E-02-6.90491E-02
 -1       485 5.39837E-03 1.34912E-02-4.08390E-02
 -1       486 5.48977E-03 2.68731E-03-1.13649E-02
 -1       487 5.28782E-03-8.15564E-03 1.89705E-02
 -1       488 4.86189E-03-1.86463E-02 4.96976E-02
 -1       489 4.31567E-03-2.84885E-02 8.02436E-02
 -1       490 3.76185E-03-3.75108E-02 1.09949E-01
 -1       491 3.29835E-03-4.56696E-02 1.38132E-01
 -1       492 2.99569E-03-5.30287E-02 1.64163E-01
 -1       493 2.88972E-03-5.97257E-02 1.87517E-01
 -1       494 2.99111E-03-6.59627E-02 2.07825E-01
 -1       495-2.82729E-03 1.64633E-03-5.36888E-03
 -1       496-4.87984E-03 4.49996E-03-1.85136E-02
 -1       497-6.07492E-03 8.40110E-03-3.66769E-02
 -1       498-6.57346E-03 1.26949E-02-5.79750E-02
 -1       499-6.50534E-03 1.68740E-02-8.09808E-02
 -1       500-6.01839E-03 2.05787E-02-1.04388E-01
 -1       501-5.25116E-03 2.36188E-02-1.26922E-01
 -1       502-4.32221E-03 2.59583E-02-1.47323E-01
 -1       503-3.31503E-03 2.76730E-02-1.64400E-01
 -1       504-2.27222E-03 2.88870E-02-1.77115E-01
 -1       505-1.19885E-03 2.97067E-02-1.84683E-01
 -1       506-7.51492E-05 3.01678E-02-1.86651E-01
 -1       507 1.12505E-03 3.02089E-02-1.82933E-01
 -1       508 2.41474E-03 2.96804E-02-1.73791E-01
 -1       509 3.77858E-03 2.83832E-02-1.59761E-01
 -1       510 5.16629E-03 2.61285E-02-1.41548E-01
 -1       511 6.49646E-03 2.28014E-02-1.19902E-01
 -1       512 7.67015E-03 1.84087E-02-9.55224E-02
 -1       513 8.59052E-03 1.30999E-02-6.90009E-02
 -1       514 9.18366E-03 7.15266E-03-4.08131E-02
 -1       515 9.41495E-03 9.25829E-04-1.13621E-02
 -1       516 9.29697E-03-5.20698E-03 1.89517E-02
 -1       517 8.88702E-03-1.09277E-02 4.96607E-02
 -1       518 8.27510E-03-1.60292E-02 8.01934E-02
 -1       519 7.56615E-03-2.04415E-02 1.09890E-01
 -1       520 6.86041E-03-2.42250E-02 1.38069E-01
 -1       521 6.23849E-03-2.75423E-02 1.64099E-01
 -1       522 5.75538E-03-3.06158E-02 1.87455E-01
 -1       523 5.43696E-03-3.37178E-02 2.07763E-01
 -1       524 2.84970E-03-3.73173E-02 1.15258E-01
 -1       525-1.60275E-04-1.95625E-03-1.07430E-04
 -1       526-2.82910E-04-7.14376E-03-3.77850E-04
 -1       527-3.74241E-04-1.47553E-02-7.62612E-04
 -1       528-4.42478E-04-2.41768E-02-1.22152E-03
 -1       529-4.90130E-04-3.49269E-02-1.72109E-03
 -1       530-5.12896E-04-4.64946E-02-2.23196E-03
 -1       531-5.03774E-04-5.82321E-02-2.72618E-03
 -1       532-4.56926E-04-6.93351E-02-3.17579E-03
 -1       533-3.71157E-04-7.89127E-02-3.55354E-03
 -1       534-2.51609E-04-8.61177E-02-3.83520E-03
 -1       535-1.09464E-04-9.02924E-02-4.00228E-03
 -1       536 4.01268E-05-9.10872E-02-4.04426E-03
 -1       537 1.81254E-04-8.85163E-02-3.95963E-03
 -1       538 3.00707E-04-8.29348E-02-3.75535E-03
 -1       539 3.90744E-04-7.49428E-02-3.44499E-03
 -1       540 4.50418E-04-6.52408E-02-3.04583E-03
 -1       541 4.85144E-04-5.44754E-02-2.57572E-03
 -1       542 5.04603E-04-4.31136E-02-2.05056E-03
 -1       543 5.19610E-04-3.13803E-02-1.48282E-03
 -1       544 5.38776E-04-1.92705E-02-8.81461E-04
 -1       545 5.65913E-04-6.63253E-03-2.53234E-04
 -1       546 5.98862E-04 6.70500E-03 3.95309E-04
 -1       547 6.30082E-04 2.07989E-02 1.05557E-03
 -1       548 6.48906E-04 3.54906E-02 1.71527E-03
 -1       549 6.45169E-04 5.03732E-02 2.35812E-03
 -1       550 6.13966E-04 6.48558E-02 2.96582E-03
 -1       551 5.61407E-04 7.83492E-02 3.52404E-03
 -1       552 5.05815E-04 9.05559E-02 4.03302E-03
 -1       553 4.83524E-04 1.01780E-01 4.52136E-03
 -1       554-2.54657E-04-3.13201E-03-2.26433E-14
 -1       555-4.38113E-04-1.13415E-02-5.00633E-14
 -1       556-5.71356E-04-2.32376E-02-6.81807E-14
 -1       557-6.65142E-04-3.77800E-02-7.23579E-14
 -1       558-7.23763E-04-5.41073E-02-6.85884E-14
 -1       559-7.44709E-04-7.13798E-02-6.19088E-14
 -1       560-7.21171E-04-8.86378E-02-5.83609E-14
 -1       561-6.47379E-04-1.04764E-01-5.68660E-14
 -1       562-5.22921E-04-1.18563E-01-5.07962E-14
 -1       563-3.54911E-04-1.28916E-01-4.91378E-14
 -1       564-1.57670E-04-1.34958E-01-5.66387E-14
 -1       565 4.97489E-05-1.36221E-01-6.63289E-14
 -1       566 2.47407E-04-1.32703E-01-7.56270E-14
 -1       567 4.18624E-04-1.24837E-01-8.37143E-14
 -1       568 5.53289E-04-1.13377E-01-9.23194E-14
 -1       569 6.49478E-04-9.92168E-02-1.06627E-13
 -1       570 7.12939E-04-8.32042E-02-1.30999E-13
 -1       571 7.54621E-04-6.59840E-02-1.58512E-13
 -1       572 7.86951E-04-4.79197E-02-1.82250E-13
 -1       573 8.19871E-04-2.91058E-02-1.97845E-13
 -1       574 8.57761E-04-9.46404E-03-2.05012E-13
 -1       575 8.98031E-04 1.11051E-02-2.04134E-13
 -1       576 9.31790E-04 3.25638E-02-1.91722E-13
 -1       577 9.46486E-04 5.46161E-02-1.63855E-13
 -1       578 9.30370E-04 7.66715E-02-1.15508E-13
 -1       579 8.78701E-04 9.79326E-02-3.96905E-14
 -1       580 8.01298E-04 1.17645E-01 6.60227E-14
 -1       581 7.31000E-04 1.35536E-01 1.92465E-13
 -1       582 7.08526E-04 1.52266E-01 3.26274E-13
 -1       583-1.60275E-04-1.95625E-03 1.07430E-04
 -1       584-2.82910E-04-7.14376E-03 3.77850E-04
 -1       585-3.74241E-04-1.47553E-02 7.62612E-04
 -1       586-4.42478E-04-2.41768E-02 1.22152E-03
 -1       587-4.90130E-04-3.49269E-02 1.72109E-03
 -1       588-5.12896E-04-4.64946E-02 2.23196E-03
 -1       589-5.03774E-04-5.82321E-02 2.72618E-03
 -1       590-4.56926E-04-6.93351E-02 3.17579E-03
 -1       591-3.71157E-04-7.89127E-02 3.55354E-03
 -1       592-2.51609E-04-8.61177E-02 3.83520E-03
 -1       593-1.09464E-04-9.02924E-02 4.00228E-03
 -1       594 4.01268E-05-9.10872E-02 4.04426E-03
 -1       595 1.81254E-04-8.85163E-02 3.95963E-03
 -1       596 3.00707E-04-8.29348E-02 3.75535E-03
 -1       597 3.90744E-04-7.49428E-02 3.44499E-03
 -1       598 4.50418E-04-6.52408E-02 3.04583E-03
 -1       599 4.85144E-04-5.44754E-02 2.57572E-03
 -1       600 5.04603E-04-4.31136E-02 2.05056E-03
 -1       601 5.19610E-04-3.13803E-02 1.48282E-03
 -1       602 5.38776E-04-1.92705E-02 8.81461E-04
 -1       603 5.65913E-04-6.63253E-03 2.53234E-04
 -1       604 5.98862E-04 6.70500E-03-3.95309E-04
 -1       605 6.30082E-04 2.07989E-02-1.05557E-03
 -1       606 6.48906E-04 3.54906E-02-1.71527E-03
 -1       607 6.45169E-04 5.03732E-02-2.35812E-03
 -1       608 6.13966E-04 6.48558E-02-2.96582E-03
 -1       609 5.61407E-04 7.83492E-02-3.52404E-03
 -1       610 5.05815E-04 9.05559E-02-4.03302E-03
 -1       611 4.83524E-04 1.01780E-01-4.52136E-03
 -1       612 1.60275E-04-1.95625E-03-1.07430E-04
 -1       613 2.82910E-04-7.14376E-03-3.77850E-04
 -1       614 3.74241E-04-1.47553E-02-7.62612E-04
 -1       615 4.42478E-04-2.41768E-02-1.22152E-03
 -1       616 4.90130E-04-3.49269E-02-1.72109E-03
 -1       617 5.12896E-04-4.64946E-02-2.23196E-03
 -1       618 5.03774E-04-5.82321E-02-2.72618E-03
 -1       619 4.56926E-04-6.93351E-02-3.17579E-03
 -1       620 3.71157E-04-7.89127E-02-3.55354E-03
 -1       621 2.51609E-04-8.61177E-02-3.83520E-03
 -1       622 1.09464E-04-9.02924E-02-4.00228E-03
 -1       623-4.01268E-05-9.10872E-02-4.04426E-03
 -1       624-1.81254E-04-8.85163E-02-3.95963E-03
 -1       625-3.00707E-04-8.29348E-02-3.75535E-03
 -1       626-3.90744E-04-7.49428E-02-3.44499E-03
 -1       627-4.50418E-04-6.52408E-02-3.04583E-03
 -1       628-4.85144E-04-5.44754E-02-2.57572E-03
 -1       629-5.04603E-04-4.31136E-02-2.05056E-03
 -1       630-5.19610E-04-3.13803E-02-1.48282E-03
 -1       631-5.38776E-04-1.92705E-02-8.81461E-04
 -1       632-5.65913E-04-6.63253E-03-2.53234E-04
 -1       633-5.98862E-04 6.70500E-03 3.95309E-04
 -1       634-6.30082E-04 2.07989E-02 1.05557E-03
 -1       635-6.48906E-04 3.54906E-02 1.71527E-03
 -1       636-6.45169E-04 5.03732E-02 2.35812E-03
 -1       637-6.13966E-04 6.48558E-02 2.96582E-03
 -1       638-5.61407E-04 7.83492E-02 3.52404E-03
 -1       639-5.05815E-04 9.05559E-02 4.03302E-03
 -1       640-4.83524E-04 1.01780E-01 4.52136E-03
 -1       641 2.54657E-04-3.13201E-03-2.57468E-14
 -1       642 4.38113E-04-1.13415E-02-5.78834E-14
 -1       643 5.71356E-04-2.32376E-02-7.84555E-14
 -1       644 6.65142E-04-3.77800E-02-8.29246E-14
 -1       645 7.23763E-04-5.41073E-02-7.73860E-14
 -1       646 7.44709E-04-7.13798E-02-6.90923E-14
 -1       647 7.21171E-04-8.86378E-02-6.37849E-14
 -1       648 6.47379E-04-1.04764E-01-5.64236E-14
 -1       649 5.22921E-04-1.18563E-01-4.49502E-14
 -1       650 3.54911E-04-1.28916E-01-3.85421E-14
 -1       651 1.57670E-04-1.34958E-01-4.42563E-14
 -1       652-4.97489E-05-1.36221E-01-5.39638E-14
 -1       653-2.47407E-04-1.32703E-01-6.56593E-14
 -1       654-4.18624E-04-1.24837E-01-7.83748E-14
 -1       655-5.53289E-04-1.13377E-01-9.25783E-14
 -1       656-6.49478E-04-9.92168E-02-1.09399E-13
 -1       657-7.12939E-04-8.32042E-02-1.33830E-13
 -1       658-7.54621E-04-6.59840E-02-1.59595E-13
 -1       659-7.86951E-04-4.79197E-02-1.79634E-13
 -1       660-8.19871E-04-2.91058E-02-1.93071E-13
 -1       661-8.57761E-04-9.46404E-03-1.97436E-13
 -1       662-8.98031E-04 1.11051E-02-1.91649E-13
 -1       663-9.31790E-04 3.25638E-02-1.77410E-13
 -1       664-9.46486E-04 5.46161E-02-1.54508E-13
 -1       665-9.30370E-04 7.66715E-02-1.11421E-13
 -1       666-8.78701E-04 9.79326E-02-3.71231E-14
 -1       667-8.01298E-04 1.17645E-01 6.62682E-14
 -1       668-7.31000E-04 1.35536E-01 1.85831E-13
 -1       669-7.08526E-04 1.52266E-01 3.09258E-13
 -1       670 1.60275E-04-1.95625E-03 1.07430E-04
 -1       671 2.82910E-04-7.14376E-03 3.77850E-04
 -1       672 3.74241E-04-1.47553E-02 7.62612E-04
 -1       673 4.42478E-04-2.41768E-02 1.22152E-03
 -1       674 4.90130E-04-3.49269E-02 1.72109E-03
 -1       675 5.12896E-04-4.64946E-02 2.23196E-03
 -1       676 5.03774E-04-5.82321E-02 2.72618E-03
 -1       677 4.56926E-04-6.93351E-02 3.17579E-03
 -1       678 3.71157E-04-7.89127E-02 3.55354E-03
 -1       679 2.51609E-04-8.61177E-02 3.83520E-03
 -1       680 1.09464E-04-9.02924E-02 4.00228E-03
 -1       681-4.01268E-05-9.10872E-02 4.04426E-03
 -1       682-1.81254E-04-8.85163E-02 3.95963E-03
 -1       683-3.00707E-04-8.29348E-02 3.75535E-03
 -1       684-3.90744E-04-7.49428E-02 3.44499E-03
 -1       685-4.50418E-04-6.52408E-02 3.04583E-03
 -1       686-4.85144E-04-5.44754E-02 2.57572E-03
 -1       687-5.04603E-04-4.31136E-02 2.05056E-03
 -1       688-5.19610E-04-3.13803E-02 1.48282E-03
 -1       689-5.38776E-04-1.92705E-02 8.81461E-04
 -1       690-5.65913E-04-6.63253E-03 2.53234E-04
 -1       691-5.98862E-04 6.70500E-03-3.95309E-04
 -1       692-6.30082E-04 2.07989E-02-1.05557E-03
 -1       693-6.48906E-04 3.54906E-02-1.71527E-03
 -1       694-6.45169E-04 5.03732E-02-2.35812E-03
 -1       695-6.13966E-04 6.48558E-02-2.96582E-03
 -1       696-5.61407E-04 7.83492E-02-3.52404E-03
 -1       697-5.05815E-04 9.05559E-02-4.03302E-03
 -1       698-4.83524E-04 1.01780E-01-4.52136E-03
 -1       699 6.71278E-04 2.23281E-03-2.68540E-03
 -1       700 1.35298E-03 7.23455E-03-9.38825E-03
 -1       701 1.69960E-03 1.39957E-02-1.86376E-02
 -1       702 1.80305E-03 2.16240E-02-2.94968E-02
 -1       703 1.70771E-03 2.93851E-02-4.12273E-02
 -1       704 1.48343E-03 3.67187E-02-5.31635E-02
 -1       705 1.20057E-03 4.32393E-02-6.46549E-02
 -1       706 9.17005E-04 4.87207E-02-7.50598E-02
 -1       707 6.68175E-04 5.30601E-02-8.37699E-02
 -1       708 4.62264E-04 5.62271E-02-9.02556E-02
 -1       709 2.82251E-04 5.82118E-02-9.41158E-02
 -1       710 9.44525E-05 5.89819E-02-9.51188E-02
 -1       711-1.38664E-04 5.84624E-02-9.32212E-02
 -1       712-4.44817E-04 5.65407E-02-8.85576E-02
 -1       713-8.31142E-04 5.30958E-02-8.14032E-02
 -1       714-1.27926E-03 4.80423E-02-7.21180E-02
 -1       715-1.74757E-03 4.13770E-02-6.10862E-02
 -1       716-2.18019E-03 3.32132E-02-4.86649E-02
 -1       717-2.52019E-03 2.37926E-02-3.51551E-02
 -1       718-2.72357E-03 1.34701E-02-2.07981E-02
 -1       719-2.77021E-03 2.67216E-03-5.79782E-03
 -1       720-2.66882E-03-8.15994E-03 9.64330E-03
 -1       721-2.45461E-03-1.86315E-02 2.52882E-02
 -1       722-2.18021E-03-2.84449E-02 4.08454E-02
 -1       723-1.90290E-03-3.74293E-02 5.59760E-02
 -1       724-1.67262E-03-4.55437E-02 7.03281E-02
 -1       725-1.52406E-03-5.28555E-02 8.35836E-02
 -1       726-1.47954E-03-5.95064E-02 9.54793E-02
 -1       727-1.50716E-03-6.57022E-02 1.05887E-01
 -1       728 1.35816E-03 1.40722E-03-2.74199E-03
 -1       729 2.47830E-03 4.40291E-03-9.42632E-03
 -1       730 3.10731E-03 8.38990E-03-1.86756E-02
 -1       731 3.38100E-03 1.27677E-02-2.95364E-02
 -1       732 3.36082E-03 1.70189E-02-4.12724E-02
 -1       733 3.12102E-03 2.07823E-02-5.32170E-02
 -1       734 2.73256E-03 2.38670E-02-6.47188E-02
 -1       735 2.25555E-03 2.62386E-02-7.51347E-02
 -1       736 1.73284E-03 2.79755E-02-8.38550E-02
 -1       737 1.18705E-03 2.92049E-02-9.03484E-02
 -1       738 6.22335E-04 3.00360E-02-9.42127E-02
 -1       739 3.06011E-05 3.05056E-02-9.52158E-02
 -1       740-5.99446E-04 3.05518E-02-9.33141E-02
 -1       741-1.27274E-03 3.00225E-02-8.86429E-02
 -1       742-1.98044E-03 2.87156E-02-8.14784E-02
 -1       743-2.69671E-03 2.64391E-02-7.21818E-02
 -1       744-3.38063E-03 2.30758E-02-6.11381E-02
 -1       745-3.98286E-03 1.86326E-02-4.87053E-02
 -1       746-4.45529E-03 1.32608E-02-3.51843E-02
 -1       747-4.76126E-03 7.24224E-03-2.08162E-02
 -1       748-4.88361E-03 9.41198E-04-5.80427E-03
 -1       749-4.82855E-03-5.26299E-03 9.64977E-03
 -1       750-4.62443E-03-1.10475E-02 2.53093E-02
 -1       751-4.31603E-03-1.62020E-02 4.08829E-02
 -1       752-3.95578E-03-2.06558E-02 5.60316E-02
 -1       753-3.59496E-03-2.44710E-02 7.04028E-02
 -1       754-3.27547E-03-2.78101E-02 8.36779E-02
 -1       755-3.02524E-03-3.09018E-02 9.55902E-02
 -1       756-2.86280E-03-3.40000E-02 1.06013E-01
 -1       757 1.35816E-03 1.40722E-03 2.74199E-03
 -1       758 2.47830E-03 4.40291E-03 9.42632E-03
 -1       759 3.10731E-03 8.38990E-03 1.86756E-02
 -1       760 3.38100E-03 1.27677E-02 2.95364E-02
 -1       761 3.36082E-03 1.70189E-02 4.12724E-02
 -1       762 3.12102E-03 2.07823E-02 5.32170E-02
 -1       763 2.73256E-03 2.38670E-02 6.47188E-02
 -1       764 2.25555E-03 2.62386E-02 7.51347E-02
 -1       765 1.73284E-03 2.79755E-02 8.38550E-02
 -1       766 1.18705E-03 2.92049E-02 9.03484E-02
 -1       767 6.22335E-04 3.00360E-02 9.42127E-02
 -1       768 3.06011E-05 3.05056E-02 9.52158E-02
 -1       769-5.99446E-04 3.05518E-02 9.33141E-02
 -1       770-1.27274E-03 3.00225E-02 8.86429E-02
 -1       771-1.98044E-03 2.87156E-02 8.14784E-02
 -1       772-2.69671E-03 2.64391E-02 7.21818E-02
 -1       773-3.38063E-03 2.30758E-02 6.11381E-02
 -1       774-3.98286E-03 1.86326E-02 4.87053E-02
 -1       775-4.45529E-03 1.32608E-02 3.51843E-02
 -1       776-4.76126E-03 7.24224E-03 2.08162E-02
 -1       777-4.88361E-03 9.41198E-04 5.80427E-03
 -1       778-4.82855E-03-5.26299E-03-9.64977E-03
 -1       779-4.62443E-03-1.10475E-02-2.53093E-02
 -1       780-4.31603E-03-1.62020E-02-4.08829E-02
 -1       781-3.95578E-03-2.06558E-02-5.60316E-02
 -1       782-3.59496E-03-2.44710E-02-7.04028E-02
 -1       783-3.27547E-03-2.78101E-02-8.36779E-02
 -1       784-3.02524E-03-3.09018E-02-9.55902E-02
 -1       785-2.86280E-03-3.40000E-02-1.06013E-01
 -1       786 6.71278E-04 2.23281E-03 2.68540E-03
 -1       787 1.35298E-03 7.23455E-03 9.38825E-03
 -1       788 1.69960E-03 1.39957E-02 1.86376E-02
 -1       789 1.80305E-03 2.16240E-02 2.94968E-02
 -1       790 1.70771E-03 2.93851E-02 4.12273E-02
 -1       791 1.48343E-03 3.67187E-02 5.31635E-02
 -1       792 1.20057E-03 4.32393E-02 6.46549E-02
 -1       793 9.17005E-04 4.87207E-02 7.50598E-02
 -1       794 6.68175E-04 5.30601E-02 8.37699E-02
 -1       795 4.62264E-04 5.62271E-02 9.02556E-02
 -1       796 2.82251E-04 5.82118E-02 9.41158E-02
 -1       797 9.44525E-05 5.89819E-02 9.51188E-02
 -1       798-1.38664E-04 5.84624E-02 9.32212E-02
 -1       799-4.44817E-04 5.65407E-02 8.85576E-02
 -1       800-8.31142E-04 5.30958E-02 8.14032E-02
 -1       801-1.27926E-03 4.80423E-02 7.21180E-02
 -1       802-1.74757E-03 4.13770E-02 6.10862E-02
 -1       803-2.18019E-03 3.32132E-02 4.86649E-02
 -1       804-2.52019E-03 2.37926E-02 3.51551E-02
 -1       805-2.72357E-03 1.34701E-02 2.07981E-02
 -1       806-2.77021E-03 2.67216E-03 5.79782E-03
 -1       807-2.66882E-03-8.15994E-03-9.64330E-03
 -1       808-2.45461E-03-1.86315E-02-2.52882E-02
 -1       809-2.18021E-03-2.84449E-02-4.08454E-02
 -1       810-1.90290E-03-3.74293E-02-5.59760E-02
 -1       811-1.67262E-03-4.55437E-02-7.03281E-02
 -1       812-1.52406E-03-5.28555E-02-8.35836E-02
 -1       813-1.47954E-03-5.95064E-02-9.54793E-02
 -1       814-1.50716E-03-6.57022E-02-1.05887E-01
 -1       815-6.71278E-04 2.23281E-03 2.68540E-03
 -1       816-1.35298E-03 7.23455E-03 9.38825E-03
 -1       817-1.69960E-03 1.39957E-02 1.86376E-02
 -1       818-1.80305E-03 2.16240E-02 2.94968E-02
 -1       819-1.70771E-03 2.93851E-02 4.12273E-02
 -1       820-1.48343E-03 3.67187E-02 5.31635E-02
 -1       821-1.20057E-03 4.32393E-02 6.46549E-02
 -1       822-9.17005E-04 4.87207E-02 7.50598E-02
 -1       823-6.68175E-04 5.30601E-02 8.37699E-02
 -1       824-4.62264E-04 5.62271E-02 9.02556E-02
 -1       825-2.82251E-04 5.82118E-02 9.41158E-02
 -1       826-9.44525E-05 5.89819E-02 9.51188E-02
 -1       827 1.38664E-04 5.84624E-02 9.32212E-02
 -1       828 4.44817E-04 5.65407E-02 8.85576E-02
 -1       829 8.31142E-04 5.30958E-02 8.14032E-02
 -1       830 1.27926E-03 4.80423E-02 7.21180E-02
 -1       831 1.74757E-03 4.13770E-02 6.10862E-02
 -1       832 2.18019E-03 3.32132E-02 4.86649E-02
 -1       833 2.52019E-03 2.37926E-02 3.51551E-02
 -1       834 2.72357E-03 1.34701E-02 2.07981E-02
 -1       835 2.77021E-03 2.67216E-03 5.79782E-03
 -1       836 2.66882E-03-8.15994E-03-9.64330E-03
 -1       837 2.45461E-03-1.86315E-02-2.52882E-02
 -1       838 2.18021E-03-2.84449E-02-4.08454E-02
 -1       839 1.90290E-03-3.74293E-02-5.59760E-02
 -1       840 1.67262E-03-4.55437E-02-7.03281E-02
 -1       841 1.52406E-03-5.28555E-02-8.35836E-02
 -1       842 1.47954E-03-5.95064E-02-9.54793E-02
 -1       843 1.50716E-03-6.57022E-02-1.05887E-01
 -1       844-1.35816E-03 1.40722E-03 2.74199E-03
 -1       845-2.47830E-03 4.40291E-03 9.42632E-03
 -1       846-3.10731E-03 8.38990E-03 1.86756E-02
 -1       847-3.38100E-03 1.27677E-02 2.95364E-02
 -1       848-3.36082E-03 1.70189E-02 4.12724E-02
 -1       849-3.12102E-03 2.07823E-02 5.32170E-02
 -1       850-2.73256E-03 2.38670E-02 6.47188E-02
 -1       851-2.25555E-03 2.62386E-02 7.51347E-02
 -1       852-1.73284E-03 2.79755E-02 8.38550E-02
 -1       853-1.18705E-03 2.92049E-02 9.03484E-02
 -1       854-6.22335E-04 3.00360E-02 9.42127E-02
 -1       855-3.06011E-05 3.05056E-02 9.52158E-02
 -1       856 5.99446E-04 3.05518E-02 9.33141E-02
 -1       857 1.27274E-03 3.00225E-02 8.86429E-02
 -1       858 1.98044E-03 2.87156E-02 8.14784E-02
 -1       859 2.69671E-03 2.64391E-02 7.21818E-02
 -1       860 3.38063E-03 2.30758E-02 6.11381E-02
 -1       861 3.98286E-03 1.86326E-02 4.87053E-02
 -1       862 4.45529E-03 1.32608E-02 3.51843E-02
 -1       863 4.76126E-03 7.24224E-03 2.08162E-02
 -1       864 4.88361E-03 9.41198E-04 5.80427E-03
 -1       865 4.82855E-03-5.26299E-03-9.64977E-03
 -1       866 4.62443E-03-1.10475E-02-2.53093E-02
 -1       867 4.31603E-03-1.62020E-02-4.08829E-02
 -1       868 3.95578E-03-2.06558E-02-5.60316E-02
 -1       869 3.59496E-03-2.44710E-02-7.04028E-02
 -1       870 3.27547E-03-2.78101E-02-8.36779E-02
 -1       871 3.02524E-03-3.09018E-02-9.55902E-02
 -1       872 2.86280E-03-3.40000E-02-1.06013E-01
 -1       873 1.50716E-03-6.57022E-02 1.05887E-01
 -1       874 1.47954E-03-5.95064E-02 9.54793E-02
 -1       875 1.52406E-03-5.28555E-02 8.35836E-02
 -1       876 1.67262E-03-4.55437E-02 7.03281E-02
 -1       877 1.90290E-03-3.74293E-02 5.59760E-02
 -1       878 2.18021E-03-2.84449E-02 4.08454E-02
 -1       879 2.45461E-03-1.86315E-02 2.52882E-02
 -1       880 2.66882E-03-8.15994E-03 9.64330E-03
 -1       881 2.77021E-03 2.67216E-03-5.79782E-03
 -1       882 2.72357E-03 1.34701E-02-2.07981E-02
 -1       883 2.52019E-03 2.37926E-02-3.51551E-02
 -1       884 2.18019E-03 3.32132E-02-4.86649E-02
 -1       885 1.74757E-03 4.13770E-02-6.10862E-02
 -1       886 1.27926E-03 4.80423E-02-7.21180E-02
 -1       887 8.31142E-04 5.30958E-02-8.14032E-02
 -1       888 4.44817E-04 5.65407E-02-8.85576E-02
 -1       889 1.38664E-04 5.84624E-02-9.32212E-02
 -1       890-9.44525E-05 5.89819E-02-9.51188E-02
 -1       891-2.82251E-04 5.82118E-02-9.41158E-02
 -1       892-4.62264E-04 5.62271E-02-9.02556E-02
 -1       893-6.68175E-04 5.30601E-02-8.37699E-02
 -1       894-9.17005E-04 4.87207E-02-7.50598E-02
 -1       895-1.20057E-03 4.32393E-02-6.46549E-02
 -1       896-1.48343E-03 3.67187E-02-5.31635E-02
 -1       897-1.70771E-03 2.93851E-02-4.12273E-02
 -1       898-1.80305E-03 2.16240E-02-2.94968E-02
 -1       899-1.69960E-03 1.39957E-02-1.86376E-02
 -1       900-1.35298E-03 7.23455E-03-9.38825E-03
 -1       901-6.71278E-04 2.23281E-03-2.68540E-03
 -1       902-1.35816E-03 1.40722E-03-2.74199E-03
 -1       903-2.47830E-03 4.40291E-03-9.42632E-03
 -1       904-3.10731E-03 8.38990E-03-1.86756E-02
 -1       905-3.38100E-03 1.27677E-02-2.95364E-02
 -1       906-3.36082E-03 1.70189E-02-4.12724E-02
 -1       907-3.12102E-03 2.07823E-02-5.32170E-02
 -1       908-2.73256E-03 2.38670E-02-6.47188E-02
 -1       909-2.25555E-03 2.62386E-02-7.51347E-02
 -1       910-1.73284E-03 2.79755E-02-8.38550E-02
 -1       911-1.18705E-03 2.92049E-02-9.03484E-02
 -1       912-6.22335E-04 3.00360E-02-9.42127E-02
 -1       913-3.06011E-05 3.05056E-02-9.52158E-02
 -1       914 5.99446E-04 3.05518E-02-9.33141E-02
 -1       915 1.27274E-03 3.00225E-02-8.86429E-02
 -1       916 1.98044E-03 2.87156E-02-8.14784E-02
 -1       917 2.69671E-03 2.64391E-02-7.21818E-02
 -1       918 3.38063E-03 2.30758E-02-6.11381E-02
 -1       919 3.98286E-03 1.86326E-02-4.87053E-02
 -1       920 4.45529E-03 1.32608E-02-3.51843E-02
 -1       921 4.76126E-03 7.24224E-03-2.08162E-02
 -1       922 4.88361E-03 9.41198E-04-5.80427E-03
 -1       923 4.82855E-03-5.26299E-03 9.64977E-03
 -1       924 4.62443E-03-1.10475E-02 2.53093E-02
 -1       925 4.31603E-03-1.62020E-02 4.08829E-02
 -1       926 3.95578E-03-2.06558E-02 5.60316E-02
 -1       927 3.59496E-03-2.44710E-02 7.04028E-02
 -1       928 3.27547E-03-2.78101E-02 8.36779E-02
 -1       929 3.02524E-03-3.09018E-02 9.55902E-02
 -1       930 2.86280E-03-3.40000E-02 1.06013E-01
 -3
    1PSTEP                        58           1           1          
    1PGM                1.000000E+00                                  
    1PGK                2.540482E+07                                  
    1PHID                         -1                                  
    1PSUBC                         0                                  
    1PMODE                        15                                  
  100CL  115 802.1917462         930                     2   15MODAL      1
 -4  STRESS      6    1
 -5  SXX         1    4    1    1
 -5  SYY         1    4    2    2
 -5  SZZ         1    4    3    3
 -5  SXY         1    4    1    2
 -5  SYZ         1    4    2    3
 -5  SZX         1    4    3    1
 -1         1 2.96757E+08 1.27186E+08 1.27186E+08 1.08944E+09 5.65819E+03-1.55610E+08
 -1         2-2.96757E+08-1.27186E+08-1.27186E+08 1.08944E+09 5.65819E+03 1.55610E+08
 -1         3-5.97336E+09-6.84148E+09-1.33541E+10 7.31427E+08-2.44239E+09 5.85999E+08
 -1         4 5.97336E+09 6.84148E+09 1.33541E+10 7.31427E+08-2.44239E+09-5.85999E+08
 -1         5 2.96757E+08 1.27186E+08 1.27186E+08 1.08944E+09-5.65819E+03 1.55610E+08
 -1         6-2.96757E+08-1.27186E+08-1.27186E+08 1.08944E+09-5.65819E+03-1.55610E+08
 -1         7-5.97336E+09-6.84148E+09-1.33541E+10 7.31427E+08 2.44239E+09-5.85999E+08
 -1         8 5.97336E+09 6.84148E+09 1.33541E+10 7.31427E+08 2.44239E+09 5.85999E+08
 -1         9 1.76376E+08 7.55948E+07 7.55952E+07 1.70310E+09 7.02280E+03-1.69590E+08
 -1        10-3.46946E+09-5.12221E+08-1.15089E+10-2.53577E+09 5.59139E+09 3.20003E+08
 -1        11 4.34418E+09 1.86182E+09 1.86182E+09 1.98158E+09-2.53270E+02-4.24638E+09
 -1        12 7.99235E+09 3.42532E+09 3.42532E+09 1.32970E+09 1.13195E+02-4.33636E+09
 -1        13-1.19222E+08 9.61894E+08-6.93942E+08-2.06080E+09 5.07434E+08 7.94631E+08
 -1        14-9.45428E+08-2.09251E+09-1.85812E+09 1.96057E+09 8.71650E+08 7.95354E+08
 -1        15 1.76376E+08 7.55948E+07 7.55952E+07 1.70310E+09-7.02280E+03 1.69590E+08
 -1        16-3.46946E+09-5.12221E+08-1.15089E+10-2.53577E+09-5.59139E+09-3.20003E+08
 -1        17 7.99235E+09 3.42532E+09 3.42532E+09 1.32970E+09-1.13195E+02 4.33636E+09
 -1        18 4.34418E+09 1.86182E+09 1.86182E+09 1.98158E+09 2.53270E+02 4.24638E+09
 -1        19-9.45428E+08-2.09251E+09-1.85812E+09 1.96057E+09-8.71650E+08-7.95354E+08
 -1        20-1.19222E+08 9.61894E+08-6.93942E+08-2.06080E+09-5.07434E+08-7.94631E+08
 -1        21-7.99235E+09-3.42532E+09-3.42532E+09 1.32970E+09 1.13195E+02 4.33636E+09
 -1        22-4.34418E+09-1.86182E+09-1.86182E+09 1.98158E+09-2.53270E+02 4.24638E+09
 -1        23 1.19222E+08-9.61894E+08 6.93942E+08-2.06080E+09 5.07434E+08-7.94631E+08
 -1        24 9.45428E+08 2.09251E+09 1.85812E+09 1.96057E+09 8.71650E+08-7.95354E+08
 -1        25-1.76376E+08-7.55948E+07-7.55952E+07 1.70310E+09 7.02280E+03 1.69590E+08
 -1        26 3.46946E+09 5.12221E+08 1.15089E+10-2.53577E+09 5.59139E+09-3.20003E+08
 -1        27-1.76376E+08-7.55948E+07-7.55952E+07 1.70310E+09-7.02280E+03-1.69590E+08
 -1        28-4.34418E+09-1.86182E+09-1.86182E+09 1.98158E+09 2.53270E+02-4.24638E+09
 -1        29-7.99235E+09-3.42532E+09-3.42532E+09 1.32970E+09-1.13195E+02-4.33636E+09
 -1        30 3.46946E+09 5.12221E+08 1.15089E+10-2.53577E+09-5.59139E+09 3.20003E+08
 -1        31 1.19222E+08-9.61894E+08 6.93942E+08-2.06080E+09-5.07434E+08 7.94631E+08
 -1        32 9.45428E+08 2.09251E+09 1.85812E+09 1.96057E+09-8.71650E+08 7.95354E+08
 -1        33-3.26723E+08-1.15524E+08-3.76151E+08-3.15545E+08 2.96283E+07 1.77105E+08
 -1        34-6.69794E+08-6.13566E+08-1.26265E+09-6.97302E+08 1.48279E+08 4.04936E+08
 -1        35-1.13839E+09-1.24702E+09-2.38924E+09-9.59592E+08 3.18099E+08 5.46609E+08
 -1        36-1.69526E+09-1.95547E+09-3.70319E+09-1.13476E+09 5.27166E+08 6.40749E+08
 -1        37-2.30653E+09-2.70934E+09-5.10726E+09-1.23701E+09 7.57074E+08 6.92897E+08
 -1        38-2.93858E+09-3.46562E+09-6.52979E+09-1.26277E+09 9.95349E+08 7.03559E+08
 -1        39-3.55504E+09-4.18449E+09-7.89198E+09-1.20943E+09 1.22837E+09 6.71335E+08
 -1        40-4.11812E+09-4.82784E+09-9.11866E+09-1.07435E+09 1.44269E+09 5.95119E+08
 -1        41-4.59188E+09-5.36167E+09-1.01409E+10-8.61959E+08 1.62419E+09 4.77059E+08
 -1        42-4.94504E+09-5.75792E+09-1.09008E+10-5.84998E+08 1.75992E+09 3.23968E+08
 -1        43-5.15398E+09-5.99575E+09-1.13549E+10-2.64347E+08 1.83983E+09 1.47166E+08
 -1        44-5.20514E+09-6.06265E+09-1.14774E+10 7.38166E+07 1.85840E+09-3.90711E+07
 -1        45-5.09607E+09-5.95491E+09-1.12621E+10 4.02484E+08 1.81527E+09-2.19988E+08
 -1        46-4.83485E+09-5.67717E+09-1.07204E+10 6.98698E+08 1.71498E+09-3.83031E+08
 -1        47-4.43770E+09-5.24110E+09-9.87903E+09 9.47501E+08 1.56576E+09-5.20012E+08
 -1        48-3.92562E+09-4.66344E+09-8.77419E+09 1.14389E+09 1.37764E+09-6.28184E+08
 -1        49-3.32059E+09-3.96381E+09-7.44669E+09 1.29227E+09 1.16048E+09-7.09936E+08
 -1        50-2.64251E+09-3.16279E+09-5.93708E+09 1.40357E+09 9.22342E+08-7.71236E+08
 -1        51-1.90740E+09-2.28066E+09-4.28280E+09 1.49094E+09 6.68588E+08-8.19246E+08
 -1        52-1.12737E+09-1.33696E+09-2.51757E+09 1.56502E+09 4.01969E+08-8.59797E+08
 -1        53-3.12032E+08-3.50886E+08-6.72874E+08 1.63045E+09 1.23539E+08-8.95421E+08
 -1        54 5.29082E+08 6.58087E+08 1.21952E+09 1.68438E+09-1.65843E+08-9.24499E+08
 -1        55 1.38454E+09 1.67003E+09 3.12584E+09 1.71771E+09-4.63780E+08-9.41798E+08
 -1        56 2.24028E+09 2.66541E+09 5.01070E+09 1.71881E+09-7.64853E+08-9.40320E+08
 -1        57 3.08135E+09 3.62836E+09 6.84155E+09 1.67876E+09-1.05997E+09-9.14436E+08
 -1        58 3.89237E+09 4.54407E+09 8.58769E+09 1.59320E+09-1.33759E+09-8.63148E+08
 -1        59 4.65323E+09 5.39950E+09 1.02178E+10 1.47551E+09-1.59118E+09-7.95827E+08
 -1        60 5.33300E+09 6.13780E+09 1.16426E+10 1.28705E+09-1.82937E+09-7.22387E+08
 -1        61 5.78567E+09 6.67603E+09 1.27135E+10 1.27080E+09-2.07505E+09-7.02457E+08
 -1        62 3.26723E+08 1.15524E+08 3.76151E+08-3.15545E+08 2.96283E+07-1.77105E+08
 -1        63 6.69794E+08 6.13566E+08 1.26265E+09-6.97302E+08 1.48279E+08-4.04936E+08
 -1        64 1.13839E+09 1.24702E+09 2.38924E+09-9.59592E+08 3.18099E+08-5.46609E+08
 -1        65 1.69526E+09 1.95547E+09 3.70319E+09-1.13476E+09 5.27166E+08-6.40749E+08
 -1        66 2.30653E+09 2.70934E+09 5.10726E+09-1.23701E+09 7.57074E+08-6.92897E+08
 -1        67 2.93858E+09 3.46562E+09 6.52979E+09-1.26277E+09 9.95349E+08-7.03559E+08
 -1        68 3.55504E+09 4.18449E+09 7.89198E+09-1.20943E+09 1.22837E+09-6.71335E+08
 -1        69 4.11812E+09 4.82784E+09 9.11866E+09-1.07435E+09 1.44269E+09-5.95119E+08
 -1        70 4.59188E+09 5.36167E+09 1.01409E+10-8.61959E+08 1.62419E+09-4.77059E+08
 -1        71 4.94504E+09 5.75792E+09 1.09008E+10-5.84998E+08 1.75992E+09-3.23968E+08
 -1        72 5.15398E+09 5.99575E+09 1.13549E+10-2.64347E+08 1.83983E+09-1.47166E+08
 -1        73 5.20514E+09 6.06265E+09 1.14774E+10 7.38166E+07 1.85840E+09 3.90711E+07
 -1        74 5.09607E+09 5.95491E+09 1.12621E+10 4.02484E+08 1.81527E+09 2.19988E+08
 -1        75 4.83485E+09 5.67717E+09 1.07204E+10 6.98698E+08 1.71498E+09 3.83031E+08
 -1        76 4.43770E+09 5.24110E+09 9.87903E+09 9.47501E+08 1.56576E+09 5.20012E+08
 -1        77 3.92562E+09 4.66344E+09 8.77419E+09 1.14389E+09 1.37764E+09 6.28184E+08
 -1        78 3.32059E+09 3.96381E+09 7.44669E+09 1.29227E+09 1.16048E+09 7.09936E+08
 -1        79 2.64251E+09 3.16279E+09 5.93708E+09 1.40357E+09 9.22342E+08 7.71236E+08
 -1        80 1.90740E+09 2.28066E+09 4.28280E+09 1.49094E+09 6.68588E+08 8.19246E+08
 -1        81 1.12737E+09 1.33696E+09 2.51757E+09 1.56502E+09 4.01969E+08 8.59797E+08
 -1        82 3.12032E+08 3.50886E+08 6.72874E+08 1.63045E+09 1.23539E+08 8.95421E+08
 -1        83-5.29082E+08-6.58087E+08-1.21952E+09 1.68438E+09-1.65843E+08 9.24499E+08
 -1        84-1.38454E+09-1.67003E+09-3.12584E+09 1.71771E+09-4.63780E+08 9.41798E+08
 -1        85-2.24028E+09-2.66541E+09-5.01070E+09 1.71881E+09-7.64853E+08 9.40320E+08
 -1        86-3.08135E+09-3.62836E+09-6.84155E+09 1.67876E+09-1.05997E+09 9.14436E+08
 -1        87-3.89237E+09-4.54407E+09-8.58769E+09 1.59320E+09-1.33759E+09 8.63148E+08
 -1        88-4.65323E+09-5.39950E+09-1.02178E+10 1.47551E+09-1.59118E+09 7.95827E+08
 -1        89-5.33300E+09-6.13780E+09-1.16426E+10 1.28705E+09-1.82937E+09 7.22387E+08
 -1        90-5.78567E+09-6.67603E+09-1.27135E+10 1.27080E+09-2.07505E+09 7.02457E+08
 -1        91-4.53081E+08-1.94177E+08-1.94177E+08-1.58003E+09 8.23886E+02-8.67704E+07
 -1        92-7.19890E+08-3.08524E+08-3.08523E+08-2.52968E+09 9.53674E-07-1.82881E-02
 -1        93-4.53081E+08-1.94177E+08-1.94177E+08-1.58003E+09-8.23886E+02 8.67704E+07
 -1        94 4.53081E+08 1.94177E+08 1.94177E+08-1.58003E+09-8.23886E+02-8.67704E+07
 -1        95 7.19890E+08 3.08524E+08 3.08523E+08-2.52968E+09 1.19954E-06-2.07947E-02
 -1        96 4.53081E+08 1.94177E+08 1.94177E+08-1.58003E+09 8.23886E+02 8.67704E+07
 -1        97 3.26723E+08 1.15524E+08 3.76151E+08-3.15545E+08-2.96283E+07 1.77105E+08
 -1        98 6.69794E+08 6.13566E+08 1.26265E+09-6.97302E+08-1.48279E+08 4.04936E+08
 -1        99 1.13839E+09 1.24702E+09 2.38924E+09-9.59592E+08-3.18099E+08 5.46609E+08
 -1       100 1.69526E+09 1.95547E+09 3.70319E+09-1.13476E+09-5.27166E+08 6.40749E+08
 -1       101 2.30653E+09 2.70934E+09 5.10726E+09-1.23701E+09-7.57074E+08 6.92897E+08
 -1       102 2.93858E+09 3.46562E+09 6.52979E+09-1.26277E+09-9.95349E+08 7.03559E+08
 -1       103 3.55504E+09 4.18449E+09 7.89198E+09-1.20943E+09-1.22837E+09 6.71335E+08
 -1       104 4.11812E+09 4.82784E+09 9.11866E+09-1.07435E+09-1.44269E+09 5.95119E+08
 -1       105 4.59188E+09 5.36167E+09 1.01409E+10-8.61959E+08-1.62419E+09 4.77059E+08
 -1       106 4.94504E+09 5.75792E+09 1.09008E+10-5.84998E+08-1.75992E+09 3.23968E+08
 -1       107 5.15398E+09 5.99575E+09 1.13549E+10-2.64347E+08-1.83983E+09 1.47166E+08
 -1       108 5.20514E+09 6.06265E+09 1.14774E+10 7.38166E+07-1.85840E+09-3.90711E+07
 -1       109 5.09607E+09 5.95491E+09 1.12621E+10 4.02484E+08-1.81527E+09-2.19988E+08
 -1       110 4.83485E+09 5.67717E+09 1.07204E+10 6.98698E+08-1.71498E+09-3.83031E+08
 -1       111 4.43770E+09 5.24110E+09 9.87903E+09 9.47501E+08-1.56576E+09-5.20012E+08
 -1       112 3.92562E+09 4.66344E+09 8.77419E+09 1.14389E+09-1.37764E+09-6.28184E+08
 -1       113 3.32059E+09 3.96381E+09 7.44669E+09 1.29227E+09-1.16048E+09-7.09936E+08
 -1       114 2.64251E+09 3.16279E+09 5.93708E+09 1.40357E+09-9.22342E+08-7.71236E+08
 -1       115 1.90740E+09 2.28066E+09 4.28280E+09 1.49094E+09-6.68588E+08-8.19246E+08
 -1       116 1.12737E+09 1.33696E+09 2.51757E+09 1.56502E+09-4.01969E+08-8.59797E+08
 -1       117 3.12032E+08 3.50886E+08 6.72874E+08 1.63045E+09-1.23539E+08-8.95421E+08
 -1       118-5.29082E+08-6.58087E+08-1.21952E+09 1.68438E+09 1.65843E+08-9.24499E+08
 -1       119-1.38454E+09-1.67003E+09-3.12584E+09 1.71771E+09 4.63780E+08-9.41798E+08
 -1       120-2.24028E+09-2.66541E+09-5.01070E+09 1.71881E+09 7.64853E+08-9.40320E+08
 -1       121-3.08135E+09-3.62836E+09-6.84155E+09 1.67876E+09 1.05997E+09-9.14436E+08
 -1       122-3.89237E+09-4.54407E+09-8.58769E+09 1.59320E+09 1.33759E+09-8.63148E+08
 -1       123-4.65323E+09-5.39950E+09-1.02178E+10 1.47551E+09 1.59118E+09-7.95827E+08
 -1       124-5.33300E+09-6.13780E+09-1.16426E+10 1.28705E+09 1.82937E+09-7.22387E+08
 -1       125-5.78567E+09-6.67603E+09-1.27135E+10 1.27080E+09 2.07505E+09-7.02457E+08
 -1       126-5.49386E+09-5.52148E+09-1.29111E+10-3.08339E+08-4.63724E+09 7.88004E+08
 -1       127-6.40836E+09-6.47594E+09-1.51781E+10-4.05128E+08-7.63321E-03 2.24584E-02
 -1       128-5.49386E+09-5.52148E+09-1.29111E+10-3.08339E+08 4.63724E+09-7.88004E+08
 -1       129-3.26723E+08-1.15524E+08-3.76151E+08-3.15545E+08-2.96283E+07-1.77105E+08
 -1       130-6.69794E+08-6.13566E+08-1.26265E+09-6.97302E+08-1.48279E+08-4.04936E+08
 -1       131-1.13839E+09-1.24702E+09-2.38924E+09-9.59592E+08-3.18099E+08-5.46609E+08
 -1       132-1.69526E+09-1.95547E+09-3.70319E+09-1.13476E+09-5.27166E+08-6.40749E+08
 -1       133-2.30653E+09-2.70934E+09-5.10726E+09-1.23701E+09-7.57074E+08-6.92897E+08
 -1       134-2.93858E+09-3.46562E+09-6.52979E+09-1.26277E+09-9.95349E+08-7.03559E+08
 -1       135-3.55504E+09-4.18449E+09-7.89198E+09-1.20943E+09-1.22837E+09-6.71335E+08
 -1       136-4.11812E+09-4.82784E+09-9.11866E+09-1.07435E+09-1.44269E+09-5.95119E+08
 -1       137-4.59188E+09-5.36167E+09-1.01409E+10-8.61959E+08-1.62419E+09-4.77059E+08
 -1       138-4.94504E+09-5.75792E+09-1.09008E+10-5.84998E+08-1.75992E+09-3.23968E+08
 -1       139-5.15398E+09-5.99575E+09-1.13549E+10-2.64347E+08-1.83983E+09-1.47166E+08
 -1       140-5.20514E+09-6.06265E+09-1.14774E+10 7.38166E+07-1.85840E+09 3.90711E+07
 -1       141-5.09607E+09-5.95491E+09-1.12621E+10 4.02484E+08-1.81527E+09 2.19988E+08
 -1       142-4.83485E+09-5.67717E+09-1.07204E+10 6.98698E+08-1.71498E+09 3.83031E+08
 -1       143-4.43770E+09-5.24110E+09-9.87903E+09 9.47501E+08-1.56576E+09 5.20012E+08
 -1       144-3.92562E+09-4.66344E+09-8.77419E+09 1.14389E+09-1.37764E+09 6.28184E+08
 -1       145-3.32059E+09-3.96381E+09-7.44669E+09 1.29227E+09-1.16048E+09 7.09936E+08
 -1       146-2.64251E+09-3.16279E+09-5.93708E+09 1.40357E+09-9.22342E+08 7.71236E+08
 -1       147-1.90740E+09-2.28066E+09-4.28280E+09 1.49094E+09-6.68588E+08 8.19246E+08
 -1       148-1.12737E+09-1.33696E+09-2.51757E+09 1.56502E+09-4.01969E+08 8.59797E+08
 -1       149-3.12032E+08-3.50886E+08-6.72874E+08 1.63045E+09-1.23539E+08 8.95421E+08
 -1       150 5.29082E+08 6.58087E+08 1.21952E+09 1.68438E+09 1.65843E+08 9.24499E+08
 -1       151 1.38454E+09 1.67003E+09 3.12584E+09 1.71771E+09 4.63780E+08 9.41798E+08
 -1       152 2.24028E+09 2.66541E+09 5.01070E+09 1.71881E+09 7.64853E+08 9.40320E+08
 -1       153 3.08135E+09 3.62836E+09 6.84155E+09 1.67876E+09 1.05997E+09 9.14436E+08
 -1       154 3.89237E+09 4.54407E+09 8.58769E+09 1.59320E+09 1.33759E+09 8.63148E+08
 -1       155 4.65323E+09 5.39950E+09 1.02178E+10 1.47551E+09 1.59118E+09 7.95827E+08
 -1       156 5.33300E+09 6.13780E+09 1.16426E+10 1.28705E+09 1.82937E+09 7.22387E+08
 -1       157 5.78567E+09 6.67603E+09 1.27135E+10 1.27080E+09 2.07505E+09 7.02457E+08
 -1       158 5.49386E+09 5.52148E+09 1.29111E+10-3.08339E+08 4.63724E+09 7.88004E+08
 -1       159 6.40836E+09 6.47594E+09 1.51781E+10-4.05128E+08-8.11005E-03 6.53811E-03
 -1       160 5.49386E+09 5.52148E+09 1.29111E+10-3.08339E+08-4.63724E+09-7.88004E+08
 -1       161 1.54068E+08-1.79568E+08 2.61597E+08 1.67926E+09-2.40688E+08-4.12546E+07
 -1       162 4.10641E+08-4.80402E+07 1.09688E+09 2.35473E+09-5.54641E+08-2.20804E+08
 -1       163 6.77661E+08 4.58056E+07 2.07836E+09 2.80435E+09-1.05023E+09-3.22476E+08
 -1       164 1.00739E+09 1.33013E+08 3.23002E+09 3.02525E+09-1.60276E+09-3.97555E+08
 -1       165 1.36853E+09 2.17406E+08 4.45106E+09 3.06731E+09-2.20115E+09-4.44933E+08
 -1       166 1.74316E+09 2.91669E+08 5.68364E+09 2.95411E+09-2.80565E+09-4.63651E+08
 -1       167 2.10996E+09 3.54559E+08 6.85951E+09 2.69936E+09-3.38484E+09-4.50918E+08
 -1       168 2.44604E+09 4.05363E+08 7.91498E+09 2.31749E+09-3.90591E+09-4.04935E+08
 -1       169 2.72939E+09 4.44433E+08 8.79251E+09 1.82587E+09-4.33992E+09-3.26738E+08
 -1       170 2.94073E+09 4.72761E+08 9.44425E+09 1.24703E+09-4.66243E+09-2.21361E+08
 -1       171 3.06548E+09 4.91220E+08 9.83457E+09 6.08505E+08-4.85523E+09-9.76307E+07
 -1       172 3.09532E+09 5.00091E+08 9.94222E+09-5.89114E+07-4.90753E+09 3.31318E+07
 -1       173 3.02888E+09 4.98802E+08 9.76122E+09-7.24089E+08-4.81641E+09 1.59200E+08
 -1       174 2.87135E+09 4.86028E+08 9.30011E+09-1.35880E+09-4.58647E+09 2.70709E+08
 -1       175 2.63299E+09 4.60089E+08 8.57945E+09-1.94046E+09-4.22845E+09 3.61479E+08
 -1       176 2.32692E+09 4.19547E+08 7.62821E+09-2.45362E+09-3.75729E+09 4.29910E+08
 -1       177 1.96671E+09 3.63828E+08 6.47976E+09-2.88995E+09-3.18994E+09 4.78713E+08
 -1       178 1.56442E+09 2.93704E+08 5.16833E+09-3.24674E+09-2.54351E+09 5.13550E+08
 -1       179 1.12944E+09 2.11479E+08 3.72681E+09-3.52450E+09-1.83409E+09 5.40991E+08
 -1       180 6.68530E+08 1.20837E+08 2.18614E+09-3.72431E+09-1.07646E+09 5.66340E+08
 -1       181 1.86783E+08 2.63561E+07 5.76104E+08-3.84593E+09-2.84627E+08 5.91939E+08
 -1       182-3.10792E+08-6.71715E+07-1.07310E+09-3.88724E+09 5.27285E+08 6.16457E+08
 -1       183-8.17921E+08-1.55549E+08-2.73020E+09-3.84541E+09 1.34444E+09 6.35412E+08
 -1       184-1.32655E+09-2.35705E+08-4.36399E+09-3.71957E+09 2.15192E+09 6.42813E+08
 -1       185-1.82784E+09-3.06776E+08-5.94789E+09-3.51316E+09 2.93589E+09 6.33760E+08
 -1       186-2.31234E+09-3.66880E+08-7.45758E+09-3.23977E+09 3.68565E+09 6.06264E+08
 -1       187-2.76622E+09-4.24374E+08-8.86987E+09-2.90741E+09 4.38431E+09 5.64746E+08
 -1       188-3.17343E+09-4.56693E+08-1.00911E+10-2.60245E+09 4.99490E+09 5.06040E+08
 -1       189-3.38158E+09-4.70747E+08-1.09690E+10-2.19207E+09 5.47416E+09 4.86692E+08
 -1       190 1.89755E+09 8.13256E+08 8.13256E+08 1.80340E+09-7.37344E+02-2.16895E+09
 -1       191 3.83929E+09 1.64543E+09 1.64543E+09 1.13658E+09-3.07091E+02-2.21466E+09
 -1       192 3.44807E+09 7.19416E+09 5.25173E+09-1.95731E+09 1.57924E+09 2.43570E+08
 -1       193 2.30113E+09-7.73105E+08-1.27451E+09 1.34525E+09 1.94677E+07 2.60956E+08
 -1       194 1.95701E+09-1.04791E+08-8.08989E+07 2.01950E+09-5.24531E+07-9.87406E+07
 -1       195 7.72296E+08-3.15722E+08-1.32838E+08 2.48228E+09-1.21372E+08-2.76372E+08
 -1       196-1.22131E+08-4.12513E+08 6.62195E+07 2.73894E+09-1.97765E+08-3.66134E+08
 -1       197-7.95006E+08-5.34861E+08 1.91498E+08 2.83625E+09-2.80629E+08-3.99068E+08
 -1       198-1.16386E+09-6.29131E+08 3.33033E+08 2.78022E+09-3.66844E+08-3.95104E+08
 -1       199-1.26381E+09-6.98941E+08 4.67945E+08 2.57844E+09-4.51835E+08-3.63234E+08
 -1       200-1.16624E+09-7.43712E+08 5.94342E+08 2.23810E+09-5.30412E+08-3.10814E+08
 -1       201-9.79165E+08-7.70580E+08 7.02516E+08 1.77377E+09-5.97110E+08-2.43604E+08
 -1       202-8.16058E+08-7.87991E+08 7.83831E+08 1.20891E+09-6.46990E+08-1.66032E+08
 -1       203-7.67721E+08-8.03090E+08 8.31244E+08 5.75622E+08-6.76264E+08-8.11069E+07
 -1       204-8.78417E+08-8.18831E+08 8.41322E+08-8.83838E+07-6.82855E+08 9.22817E+06
 -1       205-1.13461E+09-8.32630E+08 8.15043E+08-7.44638E+08-6.66643E+08 1.03484E+08
 -1       206-1.46936E+09-8.36744E+08 7.57589E+08-1.35928E+09-6.29363E+08 1.99979E+08
 -1       207-1.78140E+09-8.20310E+08 6.77095E+08-1.90750E+09-5.74125E+08 2.96355E+08
 -1       208-1.96372E+09-7.72430E+08 5.82722E+08-2.37579E+09-5.04716E+08 3.89381E+08
 -1       209-1.93386E+09-6.85452E+08 4.82582E+08-2.76160E+09-4.24833E+08 4.75098E+08
 -1       210-1.65789E+09-5.57541E+08 3.82069E+08-3.07046E+09-3.37462E+08 5.49262E+08
 -1       211-1.16136E+09-3.93791E+08 2.83062E+08-3.31140E+09-2.44546E+08 6.07995E+08
 -1       212-5.24342E+08-2.05551E+08 1.84207E+08-3.49221E+09-1.47034E+08 6.48525E+08
 -1       213 1.38327E+08-8.06470E+06 8.22325E+07-3.61578E+09-4.52564E+07 6.69887E+08
 -1       214 7.06372E+08 1.83041E+08-2.59990E+07-3.67883E+09 6.04750E+07 6.73448E+08
 -1       215 1.08494E+09 3.55562E+08-1.41514E+08-3.67376E+09 1.69344E+08 6.62895E+08
 -1       216 1.22747E+09 5.03302E+08-2.61730E+08-3.59312E+09 2.79591E+08 6.43264E+08
 -1       217 1.14151E+09 6.26871E+08-3.82349E+08-3.43450E+09 3.89331E+08 6.17161E+08
 -1       218 8.74595E+08 7.30089E+08-4.96235E+08-3.20248E+09 4.95206E+08 5.82796E+08
 -1       219 4.91207E+08 8.14264E+08-6.07035E+08-2.90259E+09 5.96033E+08 5.42623E+08
 -1       220 6.95664E+07 8.92717E+08-6.76816E+08-2.56523E+09 6.76689E+08 4.87658E+08
 -1       221-9.53527E+07 1.04537E+09-6.75658E+08-2.11199E+09 7.71798E+08 6.56058E+08
 -1       222 5.22150E+09 3.78833E+08-5.28169E+07-9.51931E+08 1.22790E+08 2.44429E+08
 -1       223 3.94865E+09 9.59807E+08 8.35974E+08-1.79884E+09-4.70749E+07-6.07558E+07
 -1       224 2.20647E+09 7.96336E+08 6.31031E+08-2.28423E+09-1.60345E+08-2.53962E+08
 -1       225 9.45007E+08 8.71882E+08 7.71679E+08-2.59581E+09-3.00005E+08-3.43800E+08
 -1       226-3.42467E+07 9.60266E+08 8.68264E+08-2.74335E+09-4.37197E+08-3.82340E+08
 -1       227-6.94625E+08 1.08581E+09 9.88286E+08-2.73748E+09-5.73276E+08-3.82998E+08
 -1       228-1.08590E+09 1.21985E+09 1.09696E+09-2.57483E+09-7.00417E+08-3.55539E+08
 -1       229-1.27064E+09 1.34974E+09 1.19106E+09-2.25820E+09-8.13185E+08-3.06383E+08
 -1       230-1.33422E+09 1.46171E+09 1.26569E+09-1.79959E+09-9.06218E+08-2.41067E+08
 -1       231-1.36232E+09 1.54541E+09 1.31997E+09-1.22415E+09-9.75188E+08-1.64084E+08
 -1       232-1.42285E+09 1.59314E+09 1.35357E+09-5.69458E+08-1.01687E+09-7.88885E+07
 -1       233-1.55040E+09 1.60007E+09 1.36540E+09 1.18848E+08-1.02933E+09 1.18952E+07
 -1       234-1.73929E+09 1.56410E+09 1.35266E+09 7.93905E+08-1.01204E+09 1.06052E+08
 -1       235-1.94717E+09 1.48562E+09 1.31095E+09 1.41524E+09-9.65788E+08 2.01339E+08
 -1       236-2.10838E+09 1.36703E+09 1.23520E+09 1.95494E+09-8.92500E+08 2.95165E+08
 -1       237-2.15371E+09 1.21216E+09 1.12110E+09 2.40078E+09-7.94948E+08 3.84468E+08
 -1       238-2.03127E+09 1.02567E+09 9.66695E+08 2.75547E+09-6.76416E+08 4.65833E+08
 -1       239-1.72292E+09 8.12395E+08 7.73542E+08 3.03239E+09-5.40409E+08 5.35794E+08
 -1       240-1.25187E+09 5.77076E+08 5.47171E+08 3.24892E+09-3.90454E+08 5.91288E+08
 -1       241-6.79406E+08 3.24127E+08 2.96591E+08 3.41942E+09-2.30033E+08 6.30184E+08
 -1       242-9.18152E+07 5.76492E+07 3.29041E+07 3.54983E+09-6.26305E+07 6.51817E+08
 -1       243 4.18883E+08-2.18643E+08-2.32751E+08 3.63563E+09 1.08147E+08 6.57435E+08
 -1       244 7.74895E+08-5.01746E+08-4.91720E+08 3.66413E+09 2.78619E+08 6.50223E+08
 -1       245 9.27947E+08-7.90124E+08-7.39615E+08 3.62047E+09 4.44999E+08 6.34458E+08
 -1       246 8.66988E+08-1.08349E+09-9.77813E+08 3.49545E+09 6.04795E+08 6.12056E+08
 -1       247 6.16962E+08-1.38279E+09-1.20739E+09 3.28746E+09 7.54326E+08 5.80568E+08
 -1       248 2.28632E+08-1.67333E+09-1.43209E+09 3.00414E+09 8.94631E+08 5.42938E+08
 -1       249-2.32581E+08-1.95790E+09-1.62265E+09 2.65215E+09 1.00262E+09 4.88645E+08
 -1       250-7.40443E+08-2.15338E+09-1.82881E+09 2.24886E+09 1.12541E+09 6.56545E+08
 -1       251-3.88483E+07-1.74506E+09 1.52389E+09 2.21198E+09 1.01168E+09 2.48837E+08
 -1       252-3.38158E+09-4.70747E+08-1.09690E+10-2.19207E+09-5.47416E+09-4.86692E+08
 -1       253-3.17343E+09-4.56693E+08-1.00911E+10-2.60245E+09-4.99490E+09-5.06040E+08
 -1       254-2.76622E+09-4.24374E+08-8.86987E+09-2.90741E+09-4.38431E+09-5.64746E+08
 -1       255-2.31234E+09-3.66880E+08-7.45758E+09-3.23977E+09-3.68565E+09-6.06264E+08
 -1       256-1.82784E+09-3.06776E+08-5.94789E+09-3.51316E+09-2.93589E+09-6.33760E+08
 -1       257-1.32655E+09-2.35705E+08-4.36399E+09-3.71957E+09-2.15192E+09-6.42813E+08
 -1       258-8.17921E+08-1.55549E+08-2.73020E+09-3.84541E+09-1.34444E+09-6.35412E+08
 -1       259-3.10792E+08-6.71715E+07-1.07310E+09-3.88724E+09-5.27285E+08-6.16457E+08
 -1       260 1.86783E+08 2.63561E+07 5.76104E+08-3.84593E+09 2.84627E+08-5.91939E+08
 -1       261 6.68530E+08 1.20837E+08 2.18614E+09-3.72431E+09 1.07646E+09-5.66340E+08
 -1       262 1.12944E+09 2.11479E+08 3.72681E+09-3.52450E+09 1.83409E+09-5.40991E+08
 -1       263 1.56442E+09 2.93704E+08 5.16833E+09-3.24674E+09 2.54351E+09-5.13550E+08
 -1       264 1.96671E+09 3.63828E+08 6.47976E+09-2.88995E+09 3.18994E+09-4.78713E+08
 -1       265 2.32692E+09 4.19547E+08 7.62821E+09-2.45362E+09 3.75729E+09-4.29910E+08
 -1       266 2.63299E+09 4.60089E+08 8.57945E+09-1.94046E+09 4.22845E+09-3.61479E+08
 -1       267 2.87135E+09 4.86028E+08 9.30011E+09-1.35880E+09 4.58647E+09-2.70709E+08
 -1       268 3.02888E+09 4.98802E+08 9.76122E+09-7.24089E+08 4.81641E+09-1.59200E+08
 -1       269 3.09532E+09 5.00091E+08 9.94222E+09-5.89114E+07 4.90753E+09-3.31318E+07
 -1       270 3.06548E+09 4.91220E+08 9.83457E+09 6.08505E+08 4.85523E+09 9.76307E+07
 -1       271 2.94073E+09 4.72761E+08 9.44425E+09 1.24703E+09 4.66243E+09 2.21361E+08
 -1       272 2.72939E+09 4.44433E+08 8.79251E+09 1.82587E+09 4.33992E+09 3.26738E+08
 -1       273 2.44604E+09 4.05363E+08 7.91498E+09 2.31749E+09 3.90591E+09 4.04935E+08
 -1       274 2.10996E+09 3.54559E+08 6.85951E+09 2.69936E+09 3.38484E+09 4.50918E+08
 -1       275 1.74316E+09 2.91669E+08 5.68364E+09 2.95411E+09 2.80565E+09 4.63651E+08
 -1       276 1.36853E+09 2.17406E+08 4.45106E+09 3.06731E+09 2.20115E+09 4.44933E+08
 -1       277 1.00739E+09 1.33013E+08 3.23002E+09 3.02525E+09 1.60276E+09 3.97555E+08
 -1       278 6.77661E+08 4.58056E+07 2.07836E+09 2.80435E+09 1.05023E+09 3.22476E+08
 -1       279 4.10641E+08-4.80402E+07 1.09688E+09 2.35473E+09 5.54641E+08 2.20804E+08
 -1       280 1.54068E+08-1.79568E+08 2.61597E+08 1.67926E+09 2.40688E+08 4.12546E+07
 -1       281 3.83929E+09 1.64543E+09 1.64543E+09 1.13658E+09 3.07091E+02 2.21466E+09
 -1       282 1.89755E+09 8.13256E+08 8.13256E+08 1.80340E+09 7.37344E+02 2.16895E+09
 -1       283 5.22150E+09 3.78833E+08-5.28169E+07-9.51931E+08-1.22790E+08-2.44429E+08
 -1       284 3.94865E+09 9.59807E+08 8.35974E+08-1.79884E+09 4.70749E+07 6.07558E+07
 -1       285 2.20647E+09 7.96336E+08 6.31031E+08-2.28423E+09 1.60345E+08 2.53962E+08
 -1       286 9.45007E+08 8.71882E+08 7.71679E+08-2.59581E+09 3.00005E+08 3.43800E+08
 -1       287-3.42467E+07 9.60266E+08 8.68264E+08-2.74335E+09 4.37197E+08 3.82340E+08
 -1       288-6.94625E+08 1.08581E+09 9.88286E+08-2.73748E+09 5.73276E+08 3.82998E+08
 -1       289-1.08590E+09 1.21985E+09 1.09696E+09-2.57483E+09 7.00417E+08 3.55539E+08
 -1       290-1.27064E+09 1.34974E+09 1.19106E+09-2.25820E+09 8.13185E+08 3.06383E+08
 -1       291-1.33422E+09 1.46171E+09 1.26569E+09-1.79959E+09 9.06218E+08 2.41067E+08
 -1       292-1.36232E+09 1.54541E+09 1.31997E+09-1.22415E+09 9.75188E+08 1.64084E+08
 -1       293-1.42285E+09 1.59314E+09 1.35357E+09-5.69458E+08 1.01687E+09 7.88885E+07
 -1       294-1.55040E+09 1.60007E+09 1.36540E+09 1.18848E+08 1.02933E+09-1.18952E+07
 -1       295-1.73929E+09 1.56410E+09 1.35266E+09 7.93905E+08 1.01204E+09-1.06052E+08
 -1       296-1.94717E+09 1.48562E+09 1.31095E+09 1.41524E+09 9.65788E+08-2.01339E+08
 -1       297-2.10838E+09 1.36703E+09 1.23520E+09 1.95494E+09 8.92500E+08-2.95165E+08
 -1       298-2.15371E+09 1.21216E+09 1.12110E+09 2.40078E+09 7.94948E+08-3.84468E+08
 -1       299-2.03127E+09 1.02567E+09 9.66695E+08 2.75547E+09 6.76416E+08-4.65833E+08
 -1       300-1.72292E+09 8.12395E+08 7.73542E+08 3.03239E+09 5.40409E+08-5.35794E+08
 -1       301-1.25187E+09 5.77076E+08 5.47171E+08 3.24892E+09 3.90454E+08-5.91288E+08
 -1       302-6.79406E+08 3.24127E+08 2.96591E+08 3.41942E+09 2.30033E+08-6.30184E+08
 -1       303-9.18152E+07 5.76492E+07 3.29041E+07 3.54983E+09 6.26305E+07-6.51817E+08
 -1       304 4.18883E+08-2.18643E+08-2.32751E+08 3.63563E+09-1.08147E+08-6.57435E+08
 -1       305 7.74895E+08-5.01746E+08-4.91720E+08 3.66413E+09-2.78619E+08-6.50223E+08
 -1       306 9.27947E+08-7.90124E+08-7.39615E+08 3.62047E+09-4.44999E+08-6.34458E+08
 -1       307 8.66988E+08-1.08349E+09-9.77813E+08 3.49545E+09-6.04795E+08-6.12056E+08
 -1       308 6.16962E+08-1.38279E+09-1.20739E+09 3.28746E+09-7.54326E+08-5.80568E+08
 -1       309 2.28632E+08-1.67333E+09-1.43209E+09 3.00414E+09-8.94631E+08-5.42938E+08
 -1       310-2.32581E+08-1.95790E+09-1.62265E+09 2.65215E+09-1.00262E+09-4.88645E+08
 -1       311-7.40443E+08-2.15338E+09-1.82881E+09 2.24886E+09-1.12541E+09-6.56545E+08
 -1       312-3.88483E+07-1.74506E+09 1.52389E+09 2.21198E+09-1.01168E+09-2.48837E+08
 -1       313 2.30113E+09-7.73105E+08-1.27451E+09 1.34525E+09-1.94677E+07-2.60956E+08
 -1       314 1.95701E+09-1.04791E+08-8.08989E+07 2.01950E+09 5.24531E+07 9.87406E+07
 -1       315 7.72296E+08-3.15722E+08-1.32838E+08 2.48228E+09 1.21372E+08 2.76372E+08
 -1       316-1.22131E+08-4.12513E+08 6.62195E+07 2.73894E+09 1.97765E+08 3.66134E+08
 -1       317-7.95006E+08-5.34861E+08 1.91498E+08 2.83625E+09 2.80629E+08 3.99068E+08
 -1       318-1.16386E+09-6.29131E+08 3.33033E+08 2.78022E+09 3.66844E+08 3.95104E+08
 -1       319-1.26381E+09-6.98941E+08 4.67945E+08 2.57844E+09 4.51835E+08 3.63234E+08
 -1       320-1.16624E+09-7.43712E+08 5.94342E+08 2.23810E+09 5.30412E+08 3.10814E+08
 -1       321-9.79165E+08-7.70580E+08 7.02516E+08 1.77377E+09 5.97110E+08 2.43604E+08
 -1       322-8.16058E+08-7.87991E+08 7.83831E+08 1.20891E+09 6.46990E+08 1.66032E+08
 -1       323-7.67721E+08-8.03090E+08 8.31244E+08 5.75622E+08 6.76264E+08 8.11069E+07
 -1       324-8.78417E+08-8.18831E+08 8.41322E+08-8.83838E+07 6.82855E+08-9.22817E+06
 -1       325-1.13461E+09-8.32630E+08 8.15043E+08-7.44638E+08 6.66643E+08-1.03484E+08
 -1       326-1.46936E+09-8.36744E+08 7.57589E+08-1.35928E+09 6.29363E+08-1.99979E+08
 -1       327-1.78140E+09-8.20310E+08 6.77095E+08-1.90750E+09 5.74125E+08-2.96355E+08
 -1       328-1.96372E+09-7.72430E+08 5.82722E+08-2.37579E+09 5.04716E+08-3.89381E+08
 -1       329-1.93386E+09-6.85452E+08 4.82582E+08-2.76160E+09 4.24833E+08-4.75098E+08
 -1       330-1.65789E+09-5.57541E+08 3.82069E+08-3.07046E+09 3.37462E+08-5.49262E+08
 -1       331-1.16136E+09-3.93791E+08 2.83062E+08-3.31140E+09 2.44546E+08-6.07995E+08
 -1       332-5.24342E+08-2.05551E+08 1.84207E+08-3.49221E+09 1.47034E+08-6.48525E+08
 -1       333 1.38327E+08-8.06470E+06 8.22325E+07-3.61578E+09 4.52564E+07-6.69887E+08
 -1       334 7.06372E+08 1.83041E+08-2.59990E+07-3.67883E+09-6.04750E+07-6.73448E+08
 -1       335 1.08494E+09 3.55562E+08-1.41514E+08-3.67376E+09-1.69344E+08-6.62895E+08
 -1       336 1.22747E+09 5.03302E+08-2.61730E+08-3.59312E+09-2.79591E+08-6.43264E+08
 -1       337 1.14151E+09 6.26871E+08-3.82349E+08-3.43450E+09-3.89331E+08-6.17161E+08
 -1       338 8.74595E+08 7.30089E+08-4.96235E+08-3.20248E+09-4.95206E+08-5.82796E+08
 -1       339 4.91207E+08 8.14264E+08-6.07035E+08-2.90259E+09-5.96033E+08-5.42623E+08
 -1       340 6.95664E+07 8.92717E+08-6.76816E+08-2.56523E+09-6.76689E+08-4.87658E+08
 -1       341-9.53527E+07 1.04537E+09-6.75658E+08-2.11199E+09-7.71798E+08-6.56058E+08
 -1       342 3.44807E+09 7.19416E+09 5.25173E+09-1.95731E+09-1.57924E+09-2.43570E+08
 -1       343-2.30113E+09 7.73105E+08 1.27451E+09 1.34525E+09 1.94677E+07-2.60956E+08
 -1       344-1.95701E+09 1.04791E+08 8.08989E+07 2.01950E+09-5.24531E+07 9.87406E+07
 -1       345-7.72296E+08 3.15722E+08 1.32838E+08 2.48228E+09-1.21372E+08 2.76372E+08
 -1       346 1.22131E+08 4.12513E+08-6.62195E+07 2.73894E+09-1.97765E+08 3.66134E+08
 -1       347 7.95006E+08 5.34861E+08-1.91498E+08 2.83625E+09-2.80629E+08 3.99068E+08
 -1       348 1.16386E+09 6.29131E+08-3.33033E+08 2.78022E+09-3.66844E+08 3.95104E+08
 -1       349 1.26381E+09 6.98941E+08-4.67945E+08 2.57844E+09-4.51835E+08 3.63234E+08
 -1       350 1.16624E+09 7.43712E+08-5.94342E+08 2.23810E+09-5.30412E+08 3.10814E+08
 -1       351 9.79165E+08 7.70580E+08-7.02516E+08 1.77377E+09-5.97110E+08 2.43604E+08
 -1       352 8.16058E+08 7.87991E+08-7.83831E+08 1.20891E+09-6.46990E+08 1.66032E+08
 -1       353 7.67721E+08 8.03090E+08-8.31244E+08 5.75622E+08-6.76264E+08 8.11069E+07
 -1       354 8.78417E+08 8.18831E+08-8.41322E+08-8.83838E+07-6.82855E+08-9.22817E+06
 -1       355 1.13461E+09 8.32630E+08-8.15043E+08-7.44638E+08-6.66643E+08-1.03484E+08
 -1       356 1.46936E+09 8.36744E+08-7.57589E+08-1.35928E+09-6.29363E+08-1.99979E+08
 -1       357 1.78140E+09 8.20310E+08-6.77095E+08-1.90750E+09-5.74125E+08-2.96355E+08
 -1       358 1.96372E+09 7.72430E+08-5.82722E+08-2.37579E+09-5.04716E+08-3.89381E+08
 -1       359 1.93386E+09 6.85452E+08-4.82582E+08-2.76160E+09-4.24833E+08-4.75098E+08
 -1       360 1.65789E+09 5.57541E+08-3.82069E+08-3.07046E+09-3.37462E+08-5.49262E+08
 -1       361 1.16136E+09 3.93791E+08-2.83062E+08-3.31140E+09-2.44546E+08-6.07995E+08
 -1       362 5.24342E+08 2.05551E+08-1.84207E+08-3.49221E+09-1.47034E+08-6.48525E+08
 -1       363-1.38327E+08 8.06470E+06-8.22325E+07-3.61578E+09-4.52564E+07-6.69887E+08
 -1       364-7.06372E+08-1.83041E+08 2.59990E+07-3.67883E+09 6.04750E+07-6.73448E+08
 -1       365-1.08494E+09-3.55562E+08 1.41514E+08-3.67376E+09 1.69344E+08-6.62895E+08
 -1       366-1.22747E+09-5.03302E+08 2.61730E+08-3.59312E+09 2.79591E+08-6.43264E+08
 -1       367-1.14151E+09-6.26871E+08 3.82349E+08-3.43450E+09 3.89331E+08-6.17161E+08
 -1       368-8.74595E+08-7.30089E+08 4.96235E+08-3.20248E+09 4.95206E+08-5.82796E+08
 -1       369-4.91207E+08-8.14264E+08 6.07035E+08-2.90259E+09 5.96033E+08-5.42623E+08
 -1       370-6.95664E+07-8.92717E+08 6.76816E+08-2.56523E+09 6.76689E+08-4.87658E+08
 -1       371 9.53527E+07-1.04537E+09 6.75658E+08-2.11199E+09 7.71798E+08-6.56058E+08
 -1       372-5.22150E+09-3.78833E+08 5.28169E+07-9.51931E+08 1.22790E+08-2.44429E+08
 -1       373-3.94865E+09-9.59807E+08-8.35974E+08-1.79884E+09-4.70749E+07 6.07558E+07
 -1       374-2.20647E+09-7.96336E+08-6.31031E+08-2.28423E+09-1.60345E+08 2.53962E+08
 -1       375-9.45007E+08-8.71882E+08-7.71679E+08-2.59581E+09-3.00005E+08 3.43800E+08
 -1       376 3.42467E+07-9.60266E+08-8.68264E+08-2.74335E+09-4.37197E+08 3.82340E+08
 -1       377 6.94625E+08-1.08581E+09-9.88286E+08-2.73748E+09-5.73276E+08 3.82998E+08
 -1       378 1.08590E+09-1.21985E+09-1.09696E+09-2.57483E+09-7.00417E+08 3.55539E+08
 -1       379 1.27064E+09-1.34974E+09-1.19106E+09-2.25820E+09-8.13185E+08 3.06383E+08
 -1       380 1.33422E+09-1.46171E+09-1.26569E+09-1.79959E+09-9.06218E+08 2.41067E+08
 -1       381 1.36232E+09-1.54541E+09-1.31997E+09-1.22415E+09-9.75188E+08 1.64084E+08
 -1       382 1.42285E+09-1.59314E+09-1.35357E+09-5.69458E+08-1.01687E+09 7.88885E+07
 -1       383 1.55040E+09-1.60007E+09-1.36540E+09 1.18848E+08-1.02933E+09-1.18952E+07
 -1       384 1.73929E+09-1.56410E+09-1.35266E+09 7.93905E+08-1.01204E+09-1.06052E+08
 -1       385 1.94717E+09-1.48562E+09-1.31095E+09 1.41524E+09-9.65788E+08-2.01339E+08
 -1       386 2.10838E+09-1.36703E+09-1.23520E+09 1.95494E+09-8.92500E+08-2.95165E+08
 -1       387 2.15371E+09-1.21216E+09-1.12110E+09 2.40078E+09-7.94948E+08-3.84468E+08
 -1       388 2.03127E+09-1.02567E+09-9.66695E+08 2.75547E+09-6.76416E+08-4.65833E+08
 -1       389 1.72292E+09-8.12395E+08-7.73542E+08 3.03239E+09-5.40409E+08-5.35794E+08
 -1       390 1.25187E+09-5.77076E+08-5.47171E+08 3.24892E+09-3.90454E+08-5.91288E+08
 -1       391 6.79406E+08-3.24127E+08-2.96591E+08 3.41942E+09-2.30033E+08-6.30184E+08
 -1       392 9.18152E+07-5.76492E+07-3.29041E+07 3.54983E+09-6.26305E+07-6.51817E+08
 -1       393-4.18883E+08 2.18643E+08 2.32751E+08 3.63563E+09 1.08147E+08-6.57435E+08
 -1       394-7.74895E+08 5.01746E+08 4.91720E+08 3.66413E+09 2.78619E+08-6.50223E+08
 -1       395-9.27947E+08 7.90124E+08 7.39615E+08 3.62047E+09 4.44999E+08-6.34458E+08
 -1       396-8.66988E+08 1.08349E+09 9.77813E+08 3.49545E+09 6.04795E+08-6.12056E+08
 -1       397-6.16962E+08 1.38279E+09 1.20739E+09 3.28746E+09 7.54326E+08-5.80568E+08
 -1       398-2.28632E+08 1.67333E+09 1.43209E+09 3.00414E+09 8.94631E+08-5.42938E+08
 -1       399 2.32581E+08 1.95790E+09 1.62265E+09 2.65215E+09 1.00262E+09-4.88645E+08
 -1       400 7.40443E+08 2.15338E+09 1.82881E+09 2.24886E+09 1.12541E+09-6.56545E+08
 -1       401-1.89755E+09-8.13256E+08-8.13256E+08 1.80340E+09-7.37344E+02 2.16895E+09
 -1       402-3.83929E+09-1.64543E+09-1.64543E+09 1.13658E+09-3.07091E+02 2.21466E+09
 -1       403-3.44807E+09-7.19416E+09-5.25173E+09-1.95731E+09 1.57924E+09-2.43570E+08
 -1       404-1.54068E+08 1.79568E+08-2.61597E+08 1.67926E+09-2.40688E+08 4.12546E+07
 -1       405-4.10641E+08 4.80402E+07-1.09688E+09 2.35473E+09-5.54641E+08 2.20804E+08
 -1       406-6.77661E+08-4.58056E+07-2.07836E+09 2.80435E+09-1.05023E+09 3.22476E+08
 -1       407-1.00739E+09-1.33013E+08-3.23002E+09 3.02525E+09-1.60276E+09 3.97555E+08
 -1       408-1.36853E+09-2.17406E+08-4.45106E+09 3.06731E+09-2.20115E+09 4.44933E+08
 -1       409-1.74316E+09-2.91669E+08-5.68364E+09 2.95411E+09-2.80565E+09 4.63651E+08
 -1       410-2.10996E+09-3.54559E+08-6.85951E+09 2.69936E+09-3.38484E+09 4.50918E+08
 -1       411-2.44604E+09-4.05363E+08-7.91498E+09 2.31749E+09-3.90591E+09 4.04935E+08
 -1       412-2.72939E+09-4.44433E+08-8.79251E+09 1.82587E+09-4.33992E+09 3.26738E+08
 -1       413-2.94073E+09-4.72761E+08-9.44425E+09 1.24703E+09-4.66243E+09 2.21361E+08
 -1       414-3.06548E+09-4.91220E+08-9.83457E+09 6.08505E+08-4.85523E+09 9.76307E+07
 -1       415-3.09532E+09-5.00091E+08-9.94222E+09-5.89114E+07-4.90753E+09-3.31318E+07
 -1       416-3.02888E+09-4.98802E+08-9.76122E+09-7.24089E+08-4.81641E+09-1.59200E+08
 -1       417-2.87135E+09-4.86028E+08-9.30011E+09-1.35880E+09-4.58647E+09-2.70709E+08
 -1       418-2.63299E+09-4.60089E+08-8.57945E+09-1.94046E+09-4.22845E+09-3.61479E+08
 -1       419-2.32692E+09-4.19547E+08-7.62821E+09-2.45362E+09-3.75729E+09-4.29910E+08
 -1       420-1.96671E+09-3.63828E+08-6.47976E+09-2.88995E+09-3.18994E+09-4.78713E+08
 -1       421-1.56442E+09-2.93704E+08-5.16833E+09-3.24674E+09-2.54351E+09-5.13550E+08
 -1       422-1.12944E+09-2.11479E+08-3.72681E+09-3.52450E+09-1.83409E+09-5.40991E+08
 -1       423-6.68530E+08-1.20837E+08-2.18614E+09-3.72431E+09-1.07646E+09-5.66340E+08
 -1       424-1.86783E+08-2.63561E+07-5.76104E+08-3.84593E+09-2.84627E+08-5.91939E+08
 -1       425 3.10792E+08 6.71715E+07 1.07310E+09-3.88724E+09 5.27285E+08-6.16457E+08
 -1       426 8.17921E+08 1.55549E+08 2.73020E+09-3.84541E+09 1.34444E+09-6.35412E+08
 -1       427 1.32655E+09 2.35705E+08 4.36399E+09-3.71957E+09 2.15192E+09-6.42813E+08
 -1       428 1.82784E+09 3.06776E+08 5.94789E+09-3.51316E+09 2.93589E+09-6.33760E+08
 -1       429 2.31234E+09 3.66880E+08 7.45758E+09-3.23977E+09 3.68565E+09-6.06264E+08
 -1       430 2.76622E+09 4.24374E+08 8.86987E+09-2.90741E+09 4.38431E+09-5.64746E+08
 -1       431 3.17343E+09 4.56693E+08 1.00911E+10-2.60245E+09 4.99490E+09-5.06040E+08
 -1       432 3.38158E+09 4.70747E+08 1.09690E+10-2.19207E+09 5.47416E+09-4.86692E+08
 -1       433 3.88483E+07 1.74506E+09-1.52389E+09 2.21198E+09 1.01168E+09-2.48837E+08
 -1       434-1.89755E+09-8.13256E+08-8.13256E+08 1.80340E+09 7.37344E+02-2.16895E+09
 -1       435-3.83929E+09-1.64543E+09-1.64543E+09 1.13658E+09 3.07091E+02-2.21466E+09
 -1       436 3.38158E+09 4.70747E+08 1.09690E+10-2.19207E+09-5.47416E+09 4.86692E+08
 -1       437 3.17343E+09 4.56693E+08 1.00911E+10-2.60245E+09-4.99490E+09 5.06040E+08
 -1       438 2.76622E+09 4.24374E+08 8.86987E+09-2.90741E+09-4.38431E+09 5.64746E+08
 -1       439 2.31234E+09 3.66880E+08 7.45758E+09-3.23977E+09-3.68565E+09 6.06264E+08
 -1       440 1.82784E+09 3.06776E+08 5.94789E+09-3.51316E+09-2.93589E+09 6.33760E+08
 -1       441 1.32655E+09 2.35705E+08 4.36399E+09-3.71957E+09-2.15192E+09 6.42813E+08
 -1       442 8.17921E+08 1.55549E+08 2.73020E+09-3.84541E+09-1.34444E+09 6.35412E+08
 -1       443 3.10792E+08 6.71715E+07 1.07310E+09-3.88724E+09-5.27285E+08 6.16457E+08
 -1       444-1.86783E+08-2.63561E+07-5.76104E+08-3.84593E+09 2.84627E+08 5.91939E+08
 -1       445-6.68530E+08-1.20837E+08-2.18614E+09-3.72431E+09 1.07646E+09 5.66340E+08
 -1       446-1.12944E+09-2.11479E+08-3.72681E+09-3.52450E+09 1.83409E+09 5.40991E+08
 -1       447-1.56442E+09-2.93704E+08-5.16833E+09-3.24674E+09 2.54351E+09 5.13550E+08
 -1       448-1.96671E+09-3.63828E+08-6.47976E+09-2.88995E+09 3.18994E+09 4.78713E+08
 -1       449-2.32692E+09-4.19547E+08-7.62821E+09-2.45362E+09 3.75729E+09 4.29910E+08
 -1       450-2.63299E+09-4.60089E+08-8.57945E+09-1.94046E+09 4.22845E+09 3.61479E+08
 -1       451-2.87135E+09-4.86028E+08-9.30011E+09-1.35880E+09 4.58647E+09 2.70709E+08
 -1       452-3.02888E+09-4.98802E+08-9.76122E+09-7.24089E+08 4.81641E+09 1.59200E+08
 -1       453-3.09532E+09-5.00091E+08-9.94222E+09-5.89114E+07 4.90753E+09 3.31318E+07
 -1       454-3.06548E+09-4.91220E+08-9.83457E+09 6.08505E+08 4.85523E+09-9.76307E+07
 -1       455-2.94073E+09-4.72761E+08-9.44425E+09 1.24703E+09 4.66243E+09-2.21361E+08
 -1       456-2.72939E+09-4.44433E+08-8.79251E+09 1.82587E+09 4.33992E+09-3.26738E+08
 -1       457-2.44604E+09-4.05363E+08-7.91498E+09 2.31749E+09 3.90591E+09-4.04935E+08
 -1       458-2.10996E+09-3.54559E+08-6.85951E+09 2.69936E+09 3.38484E+09-4.50918E+08
 -1       459-1.74316E+09-2.91669E+08-5.68364E+09 2.95411E+09 2.80565E+09-4.63651E+08
 -1       460-1.36853E+09-2.17406E+08-4.45106E+09 3.06731E+09 2.20115E+09-4.44933E+08
 -1       461-1.00739E+09-1.33013E+08-3.23002E+09 3.02525E+09 1.60276E+09-3.97555E+08
 -1       462-6.77661E+08-4.58056E+07-2.07836E+09 2.80435E+09 1.05023E+09-3.22476E+08
 -1       463-4.10641E+08 4.80402E+07-1.09688E+09 2.35473E+09 5.54641E+08-2.20804E+08
 -1       464-1.54068E+08 1.79568E+08-2.61597E+08 1.67926E+09 2.40688E+08-4.12546E+07
 -1       465-3.44807E+09-7.19416E+09-5.25173E+09-1.95731E+09-1.57924E+09 2.43570E+08
 -1       466-2.30113E+09 7.73105E+08 1.27451E+09 1.34525E+09-1.94677E+07 2.60956E+08
 -1       467-1.95701E+09 1.04791E+08 8.08989E+07 2.01950E+09 5.24531E+07-9.87406E+07
 -1       468-7.72296E+08 3.15722E+08 1.32838E+08 2.48228E+09 1.21372E+08-2.76372E+08
 -1       469 1.22131E+08 4.12513E+08-6.62195E+07 2.73894E+09 1.97765E+08-3.66134E+08
 -1       470 7.95006E+08 5.34861E+08-1.91498E+08 2.83625E+09 2.80629E+08-3.99068E+08
 -1       471 1.16386E+09 6.29131E+08-3.33033E+08 2.78022E+09 3.66844E+08-3.95104E+08
 -1       472 1.26381E+09 6.98941E+08-4.67945E+08 2.57844E+09 4.51835E+08-3.63234E+08
 -1       473 1.16624E+09 7.43712E+08-5.94342E+08 2.23810E+09 5.30412E+08-3.10814E+08
 -1       474 9.79165E+08 7.70580E+08-7.02516E+08 1.77377E+09 5.97110E+08-2.43604E+08
 -1       475 8.16058E+08 7.87991E+08-7.83831E+08 1.20891E+09 6.46990E+08-1.66032E+08
 -1       476 7.67721E+08 8.03090E+08-8.31244E+08 5.75622E+08 6.76264E+08-8.11069E+07
 -1       477 8.78417E+08 8.18831E+08-8.41322E+08-8.83838E+07 6.82855E+08 9.22817E+06
 -1       478 1.13461E+09 8.32630E+08-8.15043E+08-7.44638E+08 6.66643E+08 1.03484E+08
 -1       479 1.46936E+09 8.36744E+08-7.57589E+08-1.35928E+09 6.29363E+08 1.99979E+08
 -1       480 1.78140E+09 8.20310E+08-6.77095E+08-1.90750E+09 5.74125E+08 2.96355E+08
 -1       481 1.96372E+09 7.72430E+08-5.82722E+08-2.37579E+09 5.04716E+08 3.89381E+08
 -1       482 1.93386E+09 6.85452E+08-4.82582E+08-2.76160E+09 4.24833E+08 4.75098E+08
 -1       483 1.65789E+09 5.57541E+08-3.82069E+08-3.07046E+09 3.37462E+08 5.49262E+08
 -1       484 1.16136E+09 3.93791E+08-2.83062E+08-3.31140E+09 2.44546E+08 6.07995E+08
 -1       485 5.24342E+08 2.05551E+08-1.84207E+08-3.49221E+09 1.47034E+08 6.48525E+08
 -1       486-1.38327E+08 8.06470E+06-8.22325E+07-3.61578E+09 4.52564E+07 6.69887E+08
 -1       487-7.06372E+08-1.83041E+08 2.59990E+07-3.67883E+09-6.04750E+07 6.73448E+08
 -1       488-1.08494E+09-3.55562E+08 1.41514E+08-3.67376E+09-1.69344E+08 6.62895E+08
 -1       489-1.22747E+09-5.03302E+08 2.61730E+08-3.59312E+09-2.79591E+08 6.43264E+08
 -1       490-1.14151E+09-6.26871E+08 3.82349E+08-3.43450E+09-3.89331E+08 6.17161E+08
 -1       491-8.74595E+08-7.30089E+08 4.96235E+08-3.20248E+09-4.95206E+08 5.82796E+08
 -1       492-4.91207E+08-8.14264E+08 6.07035E+08-2.90259E+09-5.96033E+08 5.42623E+08
 -1       493-6.95664E+07-8.92717E+08 6.76816E+08-2.56523E+09-6.76689E+08 4.87658E+08
 -1       494 9.53527E+07-1.04537E+09 6.75658E+08-2.11199E+09-7.71798E+08 6.56058E+08
 -1       495-5.22150E+09-3.78833E+08 5.28169E+07-9.51931E+08-1.22790E+08 2.44429E+08
 -1       496-3.94865E+09-9.59807E+08-8.35974E+08-1.79884E+09 4.70749E+07-6.07558E+07
 -1       497-2.20647E+09-7.96336E+08-6.31031E+08-2.28423E+09 1.60345E+08-2.53962E+08
 -1       498-9.45007E+08-8.71882E+08-7.71679E+08-2.59581E+09 3.00005E+08-3.43800E+08
 -1       499 3.42467E+07-9.60266E+08-8.68264E+08-2.74335E+09 4.37197E+08-3.82340E+08
 -1       500 6.94625E+08-1.08581E+09-9.88286E+08-2.73748E+09 5.73276E+08-3.82998E+08
 -1       501 1.08590E+09-1.21985E+09-1.09696E+09-2.57483E+09 7.00417E+08-3.55539E+08
 -1       502 1.27064E+09-1.34974E+09-1.19106E+09-2.25820E+09 8.13185E+08-3.06383E+08
 -1       503 1.33422E+09-1.46171E+09-1.26569E+09-1.79959E+09 9.06218E+08-2.41067E+08
 -1       504 1.36232E+09-1.54541E+09-1.31997E+09-1.22415E+09 9.75188E+08-1.64084E+08
 -1       505 1.42285E+09-1.59314E+09-1.35357E+09-5.69458E+08 1.01687E+09-7.88885E+07
 -1       506 1.55040E+09-1.60007E+09-1.36540E+09 1.18848E+08 1.02933E+09 1.18952E+07
 -1       507 1.73929E+09-1.56410E+09-1.35266E+09 7.93905E+08 1.01204E+09 1.06052E+08
 -1       508 1.94717E+09-1.48562E+09-1.31095E+09 1.41524E+09 9.65788E+08 2.01339E+08
 -1       509 2.10838E+09-1.36703E+09-1.23520E+09 1.95494E+09 8.92500E+08 2.95165E+08
 -1       510 2.15371E+09-1.21216E+09-1.12110E+09 2.40078E+09 7.94948E+08 3.84468E+08
 -1       511 2.03127E+09-1.02567E+09-9.66695E+08 2.75547E+09 6.76416E+08 4.65833E+08
 -1       512 1.72292E+09-8.12395E+08-7.73542E+08 3.03239E+09 5.40409E+08 5.35794E+08
 -1       513 1.25187E+09-5.77076E+08-5.47171E+08 3.24892E+09 3.90454E+08 5.91288E+08
 -1       514 6.79406E+08-3.24127E+08-2.96591E+08 3.41942E+09 2.30033E+08 6.30184E+08
 -1       515 9.18152E+07-5.76492E+07-3.29041E+07 3.54983E+09 6.26305E+07 6.51817E+08
 -1       516-4.18883E+08 2.18643E+08 2.32751E+08 3.63563E+09-1.08147E+08 6.57435E+08
 -1       517-7.74895E+08 5.01746E+08 4.91720E+08 3.66413E+09-2.78619E+08 6.50223E+08
 -1       518-9.27947E+08 7.90124E+08 7.39615E+08 3.62047E+09-4.44999E+08 6.34458E+08
 -1       519-8.66988E+08 1.08349E+09 9.77813E+08 3.49545E+09-6.04795E+08 6.12056E+08
 -1       520-6.16962E+08 1.38279E+09 1.20739E+09 3.28746E+09-7.54326E+08 5.80568E+08
 -1       521-2.28632E+08 1.67333E+09 1.43209E+09 3.00414E+09-8.94631E+08 5.42938E+08
 -1       522 2.32581E+08 1.95790E+09 1.62265E+09 2.65215E+09-1.00262E+09 4.88645E+08
 -1       523 7.40443E+08 2.15338E+09 1.82881E+09 2.24886E+09-1.12541E+09 6.56545E+08
 -1       524 3.88483E+07 1.74506E+09-1.52389E+09 2.21198E+09-1.01168E+09 2.48837E+08
 -1       525-2.74724E+08-4.62219E+07 1.20652E+08 1.25555E+08 7.73471E+07-3.08343E+08
 -1       526 1.32465E+08 3.05282E+08 8.85143E+08 1.45203E+08 2.69826E+08-5.28253E+08
 -1       527 6.44343E+08 7.73224E+08 1.93307E+09 1.50842E+08 5.77343E+08-6.77723E+08
 -1       528 1.22052E+09 1.31412E+09 3.15988E+09 1.65076E+08 9.64243E+08-7.68656E+08
 -1       529 1.84264E+09 1.89951E+09 4.48907E+09 1.93439E+08 1.39634E+09-8.10109E+08
 -1       530 2.49193E+09 2.50295E+09 5.85124E+09 2.22306E+08 1.84485E+09-8.06077E+08
 -1       531 3.13952E+09 3.09432E+09 7.17486E+09 2.38629E+08 2.28501E+09-7.57325E+08
 -1       532 3.74630E+09 3.63919E+09 8.38433E+09 2.30889E+08 2.69092E+09-6.64141E+08
 -1       533 4.26708E+09 4.10124E+09 9.40374E+09 1.94063E+08 3.03551E+09-5.29447E+08
 -1       534 4.65823E+09 4.44687E+09 1.01647E+10 1.30483E+08 3.29343E+09-3.60278E+08
 -1       535 4.88577E+09 4.65014E+09 1.06147E+10 4.91937E+07 3.44499E+09-1.67709E+08
 -1       536 4.93162E+09 4.69681E+09 1.07244E+10-3.64681E+07 3.47937E+09 3.45338E+07
 -1       537 4.79666E+09 4.58619E+09 1.04906E+10-1.12280E+08 3.39611E+09 2.32290E+08
 -1       538 4.49950E+09 4.33030E+09 9.93483E+09-1.66736E+08 3.20454E+09 4.13363E+08
 -1       539 4.07158E+09 3.95066E+09 9.09730E+09-1.93900E+08 2.92122E+09 5.69452E+08
 -1       540 3.54970E+09 3.47345E+09 8.02847E+09-1.94766E+08 2.56622E+09 6.97124E+08
 -1       541 2.96796E+09 2.92420E+09 6.77936E+09-1.76736E+08 2.15899E+09 7.97573E+08
 -1       542 2.35138E+09 2.32354E+09 5.39375E+09-1.51397E+08 1.71504E+09 8.75273E+08
 -1       543 1.71254E+09 1.68494E+09 3.90393E+09-1.31176E+08 1.24423E+09 9.35902E+08
 -1       544 1.05233E+09 1.01493E+09 2.33078E+09-1.25829E+08 7.50873E+08 9.84152E+08
 -1       545 3.64146E+08 3.15615E+08 6.87905E+08-1.39731E+08 2.35645E+08 1.02201E+09
 -1       546-3.59568E+08-4.11397E+08-1.01175E+09-1.70663E+08-3.01233E+08 1.04797E+09
 -1       547-1.12039E+09-1.16081E+09-2.74897E+09-2.10217E+08-8.56303E+08 1.05741E+09
 -1       548-1.90824E+09-1.92042E+09-4.49317E+09-2.45295E+08-1.41916E+09 1.04407E+09
 -1       549-2.69786E+09-2.66964E+09-6.20094E+09-2.59534E+08-1.97077E+09 1.00296E+09
 -1       550-3.44772E+09-3.38007E+09-7.81917E+09-2.34453E+08-2.48612E+09 9.34940E+08
 -1       551-4.10961E+09-4.02225E+09-9.29790E+09-1.66326E+08-2.95146E+09 8.53560E+08
 -1       552-4.63384E+09-4.57094E+09-1.06026E+10-3.86628E+07-3.39679E+09 7.89709E+08
 -1       553-5.04975E+09-5.04555E+09-1.17688E+10-2.01996E+06-3.96086E+09 7.81928E+08
 -1       554-4.79675E+08-1.25817E+08 6.02853E+07 2.03144E+08-3.92568E-03-1.76632E-02
 -1       555 4.32751E+07 2.99069E+08 9.53620E+08 1.09766E+08-1.04877E-02-1.59496E-02
 -1       556 6.69914E+08 8.53282E+08 2.17436E+09 5.50003E+07-1.25842E-02-5.78858E-03
 -1       557 1.37161E+09 1.49471E+09 3.61075E+09 2.70718E+07-1.11060E-02 2.83016E-03
 -1       558 2.12363E+09 2.18790E+09 5.16935E+09 2.56592E+07-7.59697E-03 6.77238E-03
 -1       559 2.90348E+09 2.90139E+09 6.76782E+09 4.32874E+07-8.78811E-03 8.66573E-03
 -1       560 3.67951E+09 3.60089E+09 8.32347E+09 6.39685E+07-1.65262E-02 5.51975E-03
 -1       561 4.40630E+09 4.24617E+09 9.74762E+09 7.47145E+07-1.45941E-02 4.10400E-03
 -1       562 5.03025E+09 4.79403E+09 1.09498E+10 6.85945E+07-1.40505E-02 3.04993E-03
 -1       563 5.49906E+09 5.20406E+09 1.18478E+10 4.56059E+07-8.52776E-03-2.56681E-03
 -1       564 5.77184E+09 5.44500E+09 1.23782E+10 1.16426E+07-5.74112E-03-9.11051E-03
 -1       565 5.82698E+09 5.49980E+09 1.25057E+10-2.36536E+07-3.92914E-04-9.51999E-03
 -1       566 5.66585E+09 5.36791E+09 1.22272E+10-4.98140E+07 4.87518E-03-6.43385E-03
 -1       567 5.31141E+09 5.06435E+09 1.15698E+10-5.85487E+07 7.44057E-03-4.74287E-03
 -1       568 4.80214E+09 4.61568E+09 1.05835E+10-4.61130E+07 7.25937E-03-9.67775E-03
 -1       569 4.18288E+09 4.05393E+09 9.33023E+09-1.44147E+07 1.13869E-02-2.32339E-02
 -1       570 3.49506E+09 3.41014E+09 7.87207E+09 2.94368E+07 1.83420E-02-3.40382E-02
 -1       571 2.76876E+09 2.70898E+09 6.26118E+09 7.50205E+07 2.29206E-02-3.81758E-02
 -1       572 2.01874E+09 1.96604E+09 4.53473E+09 1.11409E+08 2.85430E-02-3.74516E-02
 -1       573 1.24531E+09 1.18811E+09 2.71507E+09 1.30099E+08 2.31276E-02-3.36705E-02
 -1       574 4.39483E+08 3.76355E+08 8.15032E+08 1.27231E+08 1.81636E-02-3.17637E-02
 -1       575-4.08960E+08-4.68753E+08-1.15355E+09 1.04579E+08 1.72043E-02-2.92503E-02
 -1       576-1.30294E+09-1.34208E+09-3.17066E+09 6.94244E+07 1.41878E-02-2.31389E-02
 -1       577-2.23054E+09-2.22939E+09-5.20077E+09 3.43678E+07-2.13146E-04-1.29615E-02
 -1       578-3.15955E+09-3.10480E+09-7.18978E+09 1.75574E+07-8.56781E-03 1.48566E-03
 -1       579-4.03572E+09-3.93147E+09-9.06918E+09 4.20562E+07-1.37997E-03 1.83921E-02
 -1       580-4.78730E+09-4.66800E+09-1.07727E+10 1.34614E+08 6.91032E-03 3.34155E-02
 -1       581-5.37094E+09-5.29601E+09-1.22824E+10 2.50582E+08 7.09343E-03 4.31985E-02
 -1       582-5.84692E+09-5.86256E+09-1.36949E+10 2.92531E+08-1.06430E-03 3.47652E-02
 -1       583-2.74724E+08-4.62219E+07 1.20652E+08 1.25555E+08-7.73471E+07 3.08343E+08
 -1       584 1.32465E+08 3.05282E+08 8.85143E+08 1.45203E+08-2.69826E+08 5.28253E+08
 -1       585 6.44343E+08 7.73224E+08 1.93307E+09 1.50842E+08-5.77343E+08 6.77723E+08
 -1       586 1.22052E+09 1.31412E+09 3.15988E+09 1.65076E+08-9.64243E+08 7.68656E+08
 -1       587 1.84264E+09 1.89951E+09 4.48907E+09 1.93439E+08-1.39634E+09 8.10109E+08
 -1       588 2.49193E+09 2.50295E+09 5.85124E+09 2.22306E+08-1.84485E+09 8.06077E+08
 -1       589 3.13952E+09 3.09432E+09 7.17486E+09 2.38629E+08-2.28501E+09 7.57325E+08
 -1       590 3.74630E+09 3.63919E+09 8.38433E+09 2.30889E+08-2.69092E+09 6.64141E+08
 -1       591 4.26708E+09 4.10124E+09 9.40374E+09 1.94063E+08-3.03551E+09 5.29447E+08
 -1       592 4.65823E+09 4.44687E+09 1.01647E+10 1.30483E+08-3.29343E+09 3.60278E+08
 -1       593 4.88577E+09 4.65014E+09 1.06147E+10 4.91937E+07-3.44499E+09 1.67709E+08
 -1       594 4.93162E+09 4.69681E+09 1.07244E+10-3.64681E+07-3.47937E+09-3.45338E+07
 -1       595 4.79666E+09 4.58619E+09 1.04906E+10-1.12280E+08-3.39611E+09-2.32290E+08
 -1       596 4.49950E+09 4.33030E+09 9.93483E+09-1.66736E+08-3.20454E+09-4.13363E+08
 -1       597 4.07158E+09 3.95066E+09 9.09730E+09-1.93900E+08-2.92122E+09-5.69452E+08
 -1       598 3.54970E+09 3.47345E+09 8.02847E+09-1.94766E+08-2.56622E+09-6.97124E+08
 -1       599 2.96796E+09 2.92420E+09 6.77936E+09-1.76736E+08-2.15899E+09-7.97573E+08
 -1       600 2.35138E+09 2.32354E+09 5.39375E+09-1.51397E+08-1.71504E+09-8.75273E+08
 -1       601 1.71254E+09 1.68494E+09 3.90393E+09-1.31176E+08-1.24423E+09-9.35902E+08
 -1       602 1.05233E+09 1.01493E+09 2.33078E+09-1.25829E+08-7.50873E+08-9.84152E+08
 -1       603 3.64146E+08 3.15615E+08 6.87905E+08-1.39731E+08-2.35645E+08-1.02201E+09
 -1       604-3.59568E+08-4.11397E+08-1.01175E+09-1.70663E+08 3.01233E+08-1.04797E+09
 -1       605-1.12039E+09-1.16081E+09-2.74897E+09-2.10217E+08 8.56303E+08-1.05741E+09
 -1       606-1.90824E+09-1.92042E+09-4.49317E+09-2.45295E+08 1.41916E+09-1.04407E+09
 -1       607-2.69786E+09-2.66964E+09-6.20094E+09-2.59534E+08 1.97077E+09-1.00296E+09
 -1       608-3.44772E+09-3.38007E+09-7.81917E+09-2.34453E+08 2.48612E+09-9.34940E+08
 -1       609-4.10961E+09-4.02225E+09-9.29790E+09-1.66326E+08 2.95146E+09-8.53560E+08
 -1       610-4.63384E+09-4.57094E+09-1.06026E+10-3.86628E+07 3.39679E+09-7.89709E+08
 -1       611-5.04975E+09-5.04555E+09-1.17688E+10-2.01996E+06 3.96086E+09-7.81928E+08
 -1       612 2.74724E+08 4.62219E+07-1.20652E+08 1.25555E+08-7.73471E+07-3.08343E+08
 -1       613-1.32465E+08-3.05282E+08-8.85143E+08 1.45203E+08-2.69826E+08-5.28253E+08
 -1       614-6.44343E+08-7.73224E+08-1.93307E+09 1.50842E+08-5.77343E+08-6.77723E+08
 -1       615-1.22052E+09-1.31412E+09-3.15988E+09 1.65076E+08-9.64243E+08-7.68656E+08
 -1       616-1.84264E+09-1.89951E+09-4.48907E+09 1.93439E+08-1.39634E+09-8.10109E+08
 -1       617-2.49193E+09-2.50295E+09-5.85124E+09 2.22306E+08-1.84485E+09-8.06077E+08
 -1       618-3.13952E+09-3.09432E+09-7.17486E+09 2.38629E+08-2.28501E+09-7.57325E+08
 -1       619-3.74630E+09-3.63919E+09-8.38433E+09 2.30889E+08-2.69092E+09-6.64141E+08
 -1       620-4.26708E+09-4.10124E+09-9.40374E+09 1.94063E+08-3.03551E+09-5.29447E+08
 -1       621-4.65823E+09-4.44687E+09-1.01647E+10 1.30483E+08-3.29343E+09-3.60278E+08
 -1       622-4.88577E+09-4.65014E+09-1.06147E+10 4.91937E+07-3.44499E+09-1.67709E+08
 -1       623-4.93162E+09-4.69681E+09-1.07244E+10-3.64681E+07-3.47937E+09 3.45338E+07
 -1       624-4.79666E+09-4.58619E+09-1.04906E+10-1.12280E+08-3.39611E+09 2.32290E+08
 -1       625-4.49950E+09-4.33030E+09-9.93483E+09-1.66736E+08-3.20454E+09 4.13363E+08
 -1       626-4.07158E+09-3.95066E+09-9.09730E+09-1.93900E+08-2.92122E+09 5.69452E+08
 -1       627-3.54970E+09-3.47345E+09-8.02847E+09-1.94766E+08-2.56622E+09 6.97124E+08
 -1       628-2.96796E+09-2.92420E+09-6.77936E+09-1.76736E+08-2.15899E+09 7.97573E+08
 -1       629-2.35138E+09-2.32354E+09-5.39375E+09-1.51397E+08-1.71504E+09 8.75273E+08
 -1       630-1.71254E+09-1.68494E+09-3.90393E+09-1.31176E+08-1.24423E+09 9.35902E+08
 -1       631-1.05233E+09-1.01493E+09-2.33078E+09-1.25829E+08-7.50873E+08 9.84152E+08
 -1       632-3.64146E+08-3.15615E+08-6.87905E+08-1.39731E+08-2.35645E+08 1.02201E+09
 -1       633 3.59568E+08 4.11397E+08 1.01175E+09-1.70663E+08 3.01233E+08 1.04797E+09
 -1       634 1.12039E+09 1.16081E+09 2.74897E+09-2.10217E+08 8.56303E+08 1.05741E+09
 -1       635 1.90824E+09 1.92042E+09 4.49317E+09-2.45295E+08 1.41916E+09 1.04407E+09
 -1       636 2.69786E+09 2.66964E+09 6.20094E+09-2.59534E+08 1.97077E+09 1.00296E+09
 -1       637 3.44772E+09 3.38007E+09 7.81917E+09-2.34453E+08 2.48612E+09 9.34940E+08
 -1       638 4.10961E+09 4.02225E+09 9.29790E+09-1.66326E+08 2.95146E+09 8.53560E+08
 -1       639 4.63384E+09 4.57094E+09 1.06026E+10-3.86628E+07 3.39679E+09 7.89709E+08
 -1       640 5.04975E+09 5.04555E+09 1.17688E+10-2.01996E+06 3.96086E+09 7.81928E+08
 -1       641 4.79675E+08 1.25817E+08-6.02853E+07 2.03144E+08-3.95119E-03-2.43344E-02
 -1       642-4.32751E+07-2.99069E+08-9.53620E+08 1.09766E+08-1.04297E-02-2.15871E-02
 -1       643-6.69914E+08-8.53282E+08-2.17436E+09 5.50003E+07-1.25020E-02-8.02775E-03
 -1       644-1.37161E+09-1.49471E+09-3.61075E+09 2.70718E+07-1.10145E-02 3.86385E-03
 -1       645-2.12363E+09-2.18790E+09-5.16935E+09 2.56592E+07-7.52878E-03 9.50646E-03
 -1       646-2.90348E+09-2.90139E+09-6.76782E+09 4.32874E+07-8.72326E-03 1.14143E-02
 -1       647-3.67951E+09-3.60089E+09-8.32347E+09 6.39685E+07-1.63803E-02 1.20968E-02
 -1       648-4.40630E+09-4.24617E+09-9.74762E+09 7.47145E+07-1.44491E-02 1.36111E-02
 -1       649-5.03025E+09-4.79403E+09-1.09498E+10 6.85945E+07-1.39656E-02 1.12052E-02
 -1       650-5.49906E+09-5.20406E+09-1.18478E+10 4.56059E+07-8.43239E-03 2.46184E-03
 -1       651-5.77184E+09-5.44500E+09-1.23782E+10 1.16426E+07-5.63240E-03-8.04956E-03
 -1       652-5.82698E+09-5.49980E+09-1.25057E+10-2.36536E+07-3.47137E-04-1.18988E-02
 -1       653-5.66585E+09-5.36791E+09-1.22272E+10-4.98140E+07 4.89998E-03-1.25474E-02
 -1       654-5.31141E+09-5.06435E+09-1.15698E+10-5.85487E+07 7.42722E-03-1.35235E-02
 -1       655-4.80214E+09-4.61568E+09-1.05835E+10-4.61130E+07 7.30133E-03-1.66637E-02
 -1       656-4.18288E+09-4.05393E+09-9.33023E+09-1.44147E+07 1.15166E-02-2.56746E-02
 -1       657-3.49506E+09-3.41014E+09-7.87207E+09 2.94368E+07 1.82190E-02-3.31926E-02
 -1       658-2.76876E+09-2.70898E+09-6.26118E+09 7.50205E+07 2.28910E-02-3.39793E-02
 -1       659-2.01874E+09-1.96604E+09-4.53473E+09 1.11409E+08 2.86779E-02-3.25662E-02
 -1       660-1.24531E+09-1.18811E+09-2.71507E+09 1.30099E+08 2.33660E-02-2.94849E-02
 -1       661-4.39483E+08-3.76355E+08-8.15032E+08 1.27231E+08 1.83370E-02-2.49856E-02
 -1       662 4.08960E+08 4.68753E+08 1.15355E+09 1.04579E+08 1.74615E-02-2.28413E-02
 -1       663 1.30294E+09 1.34208E+09 3.17066E+09 6.94244E+07 1.44906E-02-2.51281E-02
 -1       664 2.23054E+09 2.22939E+09 5.20077E+09 3.43678E+07-7.15256E-05-2.10162E-02
 -1       665 3.15955E+09 3.10480E+09 7.18978E+09 1.75574E+07-8.30650E-03-3.92747E-03
 -1       666 4.03572E+09 3.93147E+09 9.06918E+09 4.20562E+07-1.10626E-03 1.51641E-02
 -1       667 4.78730E+09 4.66800E+09 1.07727E+10 1.34614E+08 7.17926E-03 2.57319E-02
 -1       668 5.37094E+09 5.29601E+09 1.22824E+10 2.50582E+08 7.07817E-03 2.92606E-02
 -1       669 5.84692E+09 5.86256E+09 1.36949E+10 2.92531E+08-1.10245E-03 1.84685E-02
 -1       670 2.74724E+08 4.62219E+07-1.20652E+08 1.25555E+08 7.73471E+07 3.08343E+08
 -1       671-1.32465E+08-3.05282E+08-8.85143E+08 1.45203E+08 2.69826E+08 5.28253E+08
 -1       672-6.44343E+08-7.73224E+08-1.93307E+09 1.50842E+08 5.77343E+08 6.77723E+08
 -1       673-1.22052E+09-1.31412E+09-3.15988E+09 1.65076E+08 9.64243E+08 7.68656E+08
 -1       674-1.84264E+09-1.89951E+09-4.48907E+09 1.93439E+08 1.39634E+09 8.10109E+08
 -1       675-2.49193E+09-2.50295E+09-5.85124E+09 2.22306E+08 1.84485E+09 8.06077E+08
 -1       676-3.13952E+09-3.09432E+09-7.17486E+09 2.38629E+08 2.28501E+09 7.57325E+08
 -1       677-3.74630E+09-3.63919E+09-8.38433E+09 2.30889E+08 2.69092E+09 6.64141E+08
 -1       678-4.26708E+09-4.10124E+09-9.40374E+09 1.94063E+08 3.03551E+09 5.29447E+08
 -1       679-4.65823E+09-4.44687E+09-1.01647E+10 1.30483E+08 3.29343E+09 3.60278E+08
 -1       680-4.88577E+09-4.65014E+09-1.06147E+10 4.91937E+07 3.44499E+09 1.67709E+08
 -1       681-4.93162E+09-4.69681E+09-1.07244E+10-3.64681E+07 3.47937E+09-3.45338E+07
 -1       682-4.79666E+09-4.58619E+09-1.04906E+10-1.12280E+08 3.39611E+09-2.32290E+08
 -1       683-4.49950E+09-4.33030E+09-9.93483E+09-1.66736E+08 3.20454E+09-4.13363E+08
 -1       684-4.07158E+09-3.95066E+09-9.09730E+09-1.93900E+08 2.92122E+09-5.69452E+08
 -1       685-3.54970E+09-3.47345E+09-8.02847E+09-1.94766E+08 2.56622E+09-6.97124E+08
 -1       686-2.96796E+09-2.92420E+09-6.77936E+09-1.76736E+08 2.15899E+09-7.97573E+08
 -1       687-2.35138E+09-2.32354E+09-5.39375E+09-1.51397E+08 1.71504E+09-8.75273E+08
 -1       688-1.71254E+09-1.68494E+09-3.90393E+09-1.31176E+08 1.24423E+09-9.35902E+08
 -1       689-1.05233E+09-1.01493E+09-2.33078E+09-1.25829E+08 7.50873E+08-9.84152E+08
 -1       690-3.64146E+08-3.15615E+08-6.87905E+08-1.39731E+08 2.35645E+08-1.02201E+09
 -1       691 3.59568E+08 4.11397E+08 1.01175E+09-1.70663E+08-3.01233E+08-1.04797E+09
 -1       692 1.12039E+09 1.16081E+09 2.74897E+09-2.10217E+08-8.56303E+08-1.05741E+09
 -1       693 1.90824E+09 1.92042E+09 4.49317E+09-2.45295E+08-1.41916E+09-1.04407E+09
 -1       694 2.69786E+09 2.66964E+09 6.20094E+09-2.59534E+08-1.97077E+09-1.00296E+09
 -1       695 3.44772E+09 3.38007E+09 7.81917E+09-2.34453E+08-2.48612E+09-9.34940E+08
 -1       696 4.10961E+09 4.02225E+09 9.29790E+09-1.66326E+08-2.95146E+09-8.53560E+08
 -1       697 4.63384E+09 4.57094E+09 1.06026E+10-3.86628E+07-3.39679E+09-7.89709E+08
 -1       698 5.04975E+09 5.04555E+09 1.17688E+10-2.01996E+06-3.96086E+09-7.81928E+08
 -1       699 9.17051E+08-8.25538E+08-8.52799E+08 1.53208E+09-1.82323E+08 3.18123E+08
 -1       700 6.30545E+08-8.41598E+08-6.55512E+08 2.24964E+09-2.22455E+08 2.90449E+08
 -1       701-3.02096E+08-1.46158E+09-1.12056E+09 2.70105E+09-3.63445E+08 3.01458E+08
 -1       702-1.11540E+09-2.14971E+09-1.59668E+09 2.93645E+09-5.16155E+08 3.17967E+08
 -1       703-1.84042E+09-2.89411E+09-2.12203E+09 3.00090E+09-6.87169E+08 3.32712E+08
 -1       704-2.42392E+09-3.64994E+09-2.65486E+09 2.90888E+09-8.61495E+08 3.36380E+08
 -1       705-2.85506E+09-4.37172E+09-3.16275E+09 2.67253E+09-1.02966E+09 3.23012E+08
 -1       706-3.14979E+09-5.01905E+09-3.61699E+09 2.30353E+09-1.18141E+09 2.88842E+08
 -1       707-3.34242E+09-5.55664E+09-3.99327E+09 1.81868E+09-1.30794E+09 2.32979E+08
 -1       708-3.47356E+09-5.95564E+09-4.27226E+09 1.24112E+09-1.40195E+09 1.58187E+08
 -1       709-3.57656E+09-6.19478E+09-4.43983E+09 6.00277E+08-1.45804E+09 7.07393E+07
 -1       710-3.66640E+09-6.26108E+09-4.48714E+09-7.04206E+07-1.47293E+09-2.07383E+07
 -1       711-3.73443E+09-6.15013E+09-4.41064E+09-7.37066E+08-1.44560E+09-1.07112E+08
 -1       712-3.75029E+09-5.86564E+09-4.21180E+09-1.36928E+09-1.37716E+09-1.80745E+08
 -1       713-3.67055E+09-5.41827E+09-3.89650E+09-1.94352E+09-1.27045E+09-2.37102E+08
 -1       714-3.45163E+09-4.82383E+09-3.47428E+09-2.44491E+09-1.12958E+09-2.75531E+08
 -1       715-3.06357E+09-4.10143E+09-2.95737E+09-2.86702E+09-9.59318E+08-2.99023E+08
 -1       716-2.50069E+09-3.27169E+09-2.35989E+09-3.20998E+09-7.64639E+08-3.13014E+08
 -1       717-1.78633E+09-2.35558E+09-1.69710E+09-3.47721E+09-5.50371E+08-3.23582E+08
 -1       718-9.70162E+08-1.37387E+09-9.84997E+08-3.67210E+09-3.21110E+08-3.35502E+08
 -1       719-1.18679E+08-3.47231E+08-2.40003E+08-3.79547E+09-8.13017E+07-3.50689E+08
 -1       720 6.98798E+08 7.03487E+08 5.21287E+08-3.84484E+09 1.64579E+08-3.67472E+08
 -1       721 1.42521E+09 1.75762E+09 1.28301E+09-3.81595E+09 4.12063E+08-3.81022E+08
 -1       722 2.02730E+09 2.79574E+09 2.03102E+09-3.70619E+09 6.56807E+08-3.85343E+08
 -1       723 2.50058E+09 3.80255E+09 2.75625E+09-3.51811E+09 8.95980E+08-3.75685E+08
 -1       724 2.86229E+09 4.76586E+09 3.44926E+09-3.25976E+09 1.12486E+09-3.51942E+08
 -1       725 3.13245E+09 5.66186E+09 4.10388E+09-2.94222E+09 1.34615E+09-3.21327E+08
 -1       726 3.36105E+09 6.47055E+09 4.67380E+09-2.58338E+09 1.51868E+09-2.40709E+08
 -1       727 3.47850E+09 7.05129E+09 5.11657E+09-2.21432E+09 1.71395E+09-1.76648E+08
 -1       728 2.57451E+09 1.21867E+07-1.04243E+08-7.87595E+08-6.10161E+07 3.02748E+08
 -1       729 2.02272E+09 4.66110E+08 1.54452E+08-1.61828E+09-1.24020E+08 2.97947E+08
 -1       730 1.08216E+09 5.49727E+08-1.01889E+08-2.15236E+09-2.34324E+08 3.00811E+08
 -1       731 3.95942E+08 7.16063E+08-2.83550E+08-2.50694E+09-3.54914E+08 3.15106E+08
 -1       732-1.47554E+08 8.95365E+08-4.77325E+08-2.70158E+09-4.82092E+08 3.27117E+08
 -1       733-5.39639E+08 1.07281E+09-6.72749E+08-2.73752E+09-6.06890E+08 3.28772E+08
 -1       734-7.96851E+08 1.23588E+09-8.63008E+08-2.60656E+09-7.22878E+08 3.14351E+08
 -1       735-9.48200E+08 1.37618E+09-1.03794E+09-2.30626E+09-8.24411E+08 2.80306E+08
 -1       736-1.03121E+09 1.48861E+09-1.18633E+09-1.84652E+09-9.07283E+08 2.25783E+08
 -1       737-1.08395E+09 1.57089E+09-1.29742E+09-1.25414E+09-9.68441E+08 1.53387E+08
 -1       738-1.13656E+09 1.62178E+09-1.36286E+09-5.71971E+08-1.00574E+09 6.90417E+07
 -1       739-1.20437E+09 1.63982E+09-1.37826E+09 1.46660E+08-1.01773E+09-1.90987E+07
 -1       740-1.28488E+09 1.62259E+09-1.34396E+09 8.46791E+08-1.00345E+09-1.02391E+08
 -1       741-1.35937E+09 1.56687E+09-1.26477E+09 1.48151E+09-9.62533E+08-1.73595E+08
 -1       742-1.39896E+09 1.46929E+09-1.14876E+09 2.01979E+09-8.95180E+08-2.28395E+08
 -1       743-1.37352E+09 1.32754E+09-1.00543E+09 2.45043E+09-8.02363E+08-2.66134E+08
 -1       744-1.26107E+09 1.14152E+09-8.43738E+08 2.78095E+09-6.85934E+08-2.89587E+08
 -1       745-1.05520E+09 9.14281E+08-6.70450E+08 3.03200E+09-5.48693E+08-3.03841E+08
 -1       746-7.68417E+08 6.52303E+08-4.89362E+08 3.22873E+09-3.94363E+08-3.14590E+08
 -1       747-4.30642E+08 3.65078E+08-3.01458E+08 3.39162E+09-2.27432E+08-3.26305E+08
 -1       748-8.32486E+07 6.40069E+07-1.06003E+08 3.52944E+09-5.28856E+07-3.40763E+08
 -1       749 2.29653E+08-2.39291E+08 9.77107E+07 3.63647E+09 1.24174E+08-3.56351E+08
 -1       750 4.70220E+08-5.35045E+08 3.08710E+08 3.69510E+09 2.99098E+08-3.68470E+08
 -1       751 6.13720E+08-8.17468E+08 5.22986E+08 3.68336E+09 4.68117E+08-3.71399E+08
 -1       752 6.51644E+08-1.08639E+09 7.34885E+08 3.58462E+09 6.29719E+08-3.60713E+08
 -1       753 5.91112E+08-1.34520E+09 9.34592E+08 3.39460E+09 7.80957E+08-3.36358E+08
 -1       754 4.60360E+08-1.58704E+09 1.12759E+09 3.11807E+09 9.27246E+08-3.06698E+08
 -1       755 2.69427E+08-1.80877E+09 1.26252E+09 2.77134E+09 1.03177E+09-2.27935E+08
 -1       756 4.00962E+06-1.96911E+09 1.36810E+09 2.36981E+09 1.17759E+09-1.67958E+08
 -1       757 2.57451E+09 1.21867E+07-1.04243E+08-7.87595E+08 6.10161E+07-3.02748E+08
 -1       758 2.02272E+09 4.66110E+08 1.54452E+08-1.61828E+09 1.24020E+08-2.97947E+08
 -1       759 1.08216E+09 5.49727E+08-1.01889E+08-2.15236E+09 2.34324E+08-3.00811E+08
 -1       760 3.95942E+08 7.16063E+08-2.83550E+08-2.50694E+09 3.54914E+08-3.15106E+08
 -1       761-1.47554E+08 8.95365E+08-4.77325E+08-2.70158E+09 4.82092E+08-3.27117E+08
 -1       762-5.39639E+08 1.07281E+09-6.72749E+08-2.73752E+09 6.06890E+08-3.28772E+08
 -1       763-7.96851E+08 1.23588E+09-8.63008E+08-2.60656E+09 7.22878E+08-3.14351E+08
 -1       764-9.48200E+08 1.37618E+09-1.03794E+09-2.30626E+09 8.24411E+08-2.80306E+08
 -1       765-1.03121E+09 1.48861E+09-1.18633E+09-1.84652E+09 9.07283E+08-2.25783E+08
 -1       766-1.08395E+09 1.57089E+09-1.29742E+09-1.25414E+09 9.68441E+08-1.53387E+08
 -1       767-1.13656E+09 1.62178E+09-1.36286E+09-5.71971E+08 1.00574E+09-6.90417E+07
 -1       768-1.20437E+09 1.63982E+09-1.37826E+09 1.46660E+08 1.01773E+09 1.90987E+07
 -1       769-1.28488E+09 1.62259E+09-1.34396E+09 8.46791E+08 1.00345E+09 1.02391E+08
 -1       770-1.35937E+09 1.56687E+09-1.26477E+09 1.48151E+09 9.62533E+08 1.73595E+08
 -1       771-1.39896E+09 1.46929E+09-1.14876E+09 2.01979E+09 8.95180E+08 2.28395E+08
 -1       772-1.37352E+09 1.32754E+09-1.00543E+09 2.45043E+09 8.02363E+08 2.66134E+08
 -1       773-1.26107E+09 1.14152E+09-8.43738E+08 2.78095E+09 6.85934E+08 2.89587E+08
 -1       774-1.05520E+09 9.14281E+08-6.70450E+08 3.03200E+09 5.48693E+08 3.03841E+08
 -1       775-7.68417E+08 6.52303E+08-4.89362E+08 3.22873E+09 3.94363E+08 3.14590E+08
 -1       776-4.30642E+08 3.65078E+08-3.01458E+08 3.39162E+09 2.27432E+08 3.26305E+08
 -1       777-8.32486E+07 6.40069E+07-1.06003E+08 3.52944E+09 5.28856E+07 3.40763E+08
 -1       778 2.29653E+08-2.39291E+08 9.77107E+07 3.63647E+09-1.24174E+08 3.56351E+08
 -1       779 4.70220E+08-5.35045E+08 3.08710E+08 3.69510E+09-2.99098E+08 3.68470E+08
 -1       780 6.13720E+08-8.17468E+08 5.22986E+08 3.68336E+09-4.68117E+08 3.71399E+08
 -1       781 6.51644E+08-1.08639E+09 7.34885E+08 3.58462E+09-6.29719E+08 3.60713E+08
 -1       782 5.91112E+08-1.34520E+09 9.34592E+08 3.39460E+09-7.80957E+08 3.36358E+08
 -1       783 4.60360E+08-1.58704E+09 1.12759E+09 3.11807E+09-9.27246E+08 3.06698E+08
 -1       784 2.69427E+08-1.80877E+09 1.26252E+09 2.77134E+09-1.03177E+09 2.27935E+08
 -1       785 4.00962E+06-1.96911E+09 1.36810E+09 2.36981E+09-1.17759E+09 1.67958E+08
 -1       786 9.17051E+08-8.25538E+08-8.52799E+08 1.53208E+09 1.82323E+08-3.18123E+08
 -1       787 6.30545E+08-8.41598E+08-6.55512E+08 2.24964E+09 2.22455E+08-2.90449E+08
 -1       788-3.02096E+08-1.46158E+09-1.12056E+09 2.70105E+09 3.63445E+08-3.01458E+08
 -1       789-1.11540E+09-2.14971E+09-1.59668E+09 2.93645E+09 5.16155E+08-3.17967E+08
 -1       790-1.84042E+09-2.89411E+09-2.12203E+09 3.00090E+09 6.87169E+08-3.32712E+08
 -1       791-2.42392E+09-3.64994E+09-2.65486E+09 2.90888E+09 8.61495E+08-3.36380E+08
 -1       792-2.85506E+09-4.37172E+09-3.16275E+09 2.67253E+09 1.02966E+09-3.23012E+08
 -1       793-3.14979E+09-5.01905E+09-3.61699E+09 2.30353E+09 1.18141E+09-2.88842E+08
 -1       794-3.34242E+09-5.55664E+09-3.99327E+09 1.81868E+09 1.30794E+09-2.32979E+08
 -1       795-3.47356E+09-5.95564E+09-4.27226E+09 1.24112E+09 1.40195E+09-1.58187E+08
 -1       796-3.57656E+09-6.19478E+09-4.43983E+09 6.00277E+08 1.45804E+09-7.07393E+07
 -1       797-3.66640E+09-6.26108E+09-4.48714E+09-7.04206E+07 1.47293E+09 2.07383E+07
 -1       798-3.73443E+09-6.15013E+09-4.41064E+09-7.37066E+08 1.44560E+09 1.07112E+08
 -1       799-3.75029E+09-5.86564E+09-4.21180E+09-1.36928E+09 1.37716E+09 1.80745E+08
 -1       800-3.67055E+09-5.41827E+09-3.89650E+09-1.94352E+09 1.27045E+09 2.37102E+08
 -1       801-3.45163E+09-4.82383E+09-3.47428E+09-2.44491E+09 1.12958E+09 2.75531E+08
 -1       802-3.06357E+09-4.10143E+09-2.95737E+09-2.86702E+09 9.59318E+08 2.99023E+08
 -1       803-2.50069E+09-3.27169E+09-2.35989E+09-3.20998E+09 7.64639E+08 3.13014E+08
 -1       804-1.78633E+09-2.35558E+09-1.69710E+09-3.47721E+09 5.50371E+08 3.23582E+08
 -1       805-9.70162E+08-1.37387E+09-9.84997E+08-3.67210E+09 3.21110E+08 3.35502E+08
 -1       806-1.18679E+08-3.47231E+08-2.40003E+08-3.79547E+09 8.13017E+07 3.50689E+08
 -1       807 6.98798E+08 7.03487E+08 5.21287E+08-3.84484E+09-1.64579E+08 3.67472E+08
 -1       808 1.42521E+09 1.75762E+09 1.28301E+09-3.81595E+09-4.12063E+08 3.81022E+08
 -1       809 2.02730E+09 2.79574E+09 2.03102E+09-3.70619E+09-6.56807E+08 3.85343E+08
 -1       810 2.50058E+09 3.80255E+09 2.75625E+09-3.51811E+09-8.95980E+08 3.75685E+08
 -1       811 2.86229E+09 4.76586E+09 3.44926E+09-3.25976E+09-1.12486E+09 3.51942E+08
 -1       812 3.13245E+09 5.66186E+09 4.10388E+09-2.94222E+09-1.34615E+09 3.21327E+08
 -1       813 3.36105E+09 6.47055E+09 4.67380E+09-2.58338E+09-1.51868E+09 2.40709E+08
 -1       814 3.47850E+09 7.05129E+09 5.11657E+09-2.21432E+09-1.71395E+09 1.76648E+08
 -1       815-9.17051E+08 8.25538E+08 8.52799E+08 1.53208E+09-1.82323E+08-3.18123E+08
 -1       816-6.30545E+08 8.41598E+08 6.55512E+08 2.24964E+09-2.22455E+08-2.90449E+08
 -1       817 3.02096E+08 1.46158E+09 1.12056E+09 2.70105E+09-3.63445E+08-3.01458E+08
 -1       818 1.11540E+09 2.14971E+09 1.59668E+09 2.93645E+09-5.16155E+08-3.17967E+08
 -1       819 1.84042E+09 2.89411E+09 2.12203E+09 3.00090E+09-6.87169E+08-3.32712E+08
 -1       820 2.42392E+09 3.64994E+09 2.65486E+09 2.90888E+09-8.61495E+08-3.36380E+08
 -1       821 2.85506E+09 4.37172E+09 3.16275E+09 2.67253E+09-1.02966E+09-3.23012E+08
 -1       822 3.14979E+09 5.01905E+09 3.61699E+09 2.30353E+09-1.18141E+09-2.88842E+08
 -1       823 3.34242E+09 5.55664E+09 3.99327E+09 1.81868E+09-1.30794E+09-2.32979E+08
 -1       824 3.47356E+09 5.95564E+09 4.27226E+09 1.24112E+09-1.40195E+09-1.58187E+08
 -1       825 3.57656E+09 6.19478E+09 4.43983E+09 6.00277E+08-1.45804E+09-7.07393E+07
 -1       826 3.66640E+09 6.26108E+09 4.48714E+09-7.04206E+07-1.47293E+09 2.07383E+07
 -1       827 3.73443E+09 6.15013E+09 4.41064E+09-7.37066E+08-1.44560E+09 1.07112E+08
 -1       828 3.75029E+09 5.86564E+09 4.21180E+09-1.36928E+09-1.37716E+09 1.80745E+08
 -1       829 3.67055E+09 5.41827E+09 3.89650E+09-1.94352E+09-1.27045E+09 2.37102E+08
 -1       830 3.45163E+09 4.82383E+09 3.47428E+09-2.44491E+09-1.12958E+09 2.75531E+08
 -1       831 3.06357E+09 4.10143E+09 2.95737E+09-2.86702E+09-9.59318E+08 2.99023E+08
 -1       832 2.50069E+09 3.27169E+09 2.35989E+09-3.20998E+09-7.64639E+08 3.13014E+08
 -1       833 1.78633E+09 2.35558E+09 1.69710E+09-3.47721E+09-5.50371E+08 3.23582E+08
 -1       834 9.70162E+08 1.37387E+09 9.84997E+08-3.67210E+09-3.21110E+08 3.35502E+08
 -1       835 1.18679E+08 3.47231E+08 2.40003E+08-3.79547E+09-8.13017E+07 3.50689E+08
 -1       836-6.98798E+08-7.03487E+08-5.21287E+08-3.84484E+09 1.64579E+08 3.67472E+08
 -1       837-1.42521E+09-1.75762E+09-1.28301E+09-3.81595E+09 4.12063E+08 3.81022E+08
 -1       838-2.02730E+09-2.79574E+09-2.03102E+09-3.70619E+09 6.56807E+08 3.85343E+08
 -1       839-2.50058E+09-3.80255E+09-2.75625E+09-3.51811E+09 8.95980E+08 3.75685E+08
 -1       840-2.86229E+09-4.76586E+09-3.44926E+09-3.25976E+09 1.12486E+09 3.51942E+08
 -1       841-3.13245E+09-5.66186E+09-4.10388E+09-2.94222E+09 1.34615E+09 3.21327E+08
 -1       842-3.36105E+09-6.47055E+09-4.67380E+09-2.58338E+09 1.51868E+09 2.40709E+08
 -1       843-3.47850E+09-7.05129E+09-5.11657E+09-2.21432E+09 1.71395E+09 1.76648E+08
 -1       844-2.57451E+09-1.21867E+07 1.04243E+08-7.87595E+08-6.10161E+07-3.02748E+08
 -1       845-2.02272E+09-4.66110E+08-1.54452E+08-1.61828E+09-1.24020E+08-2.97947E+08
 -1       846-1.08216E+09-5.49727E+08 1.01889E+08-2.15236E+09-2.34324E+08-3.00811E+08
 -1       847-3.95942E+08-7.16063E+08 2.83550E+08-2.50694E+09-3.54914E+08-3.15106E+08
 -1       848 1.47554E+08-8.95365E+08 4.77325E+08-2.70158E+09-4.82092E+08-3.27117E+08
 -1       849 5.39639E+08-1.07281E+09 6.72749E+08-2.73752E+09-6.06890E+08-3.28772E+08
 -1       850 7.96851E+08-1.23588E+09 8.63008E+08-2.60656E+09-7.22878E+08-3.14351E+08
 -1       851 9.48200E+08-1.37618E+09 1.03794E+09-2.30626E+09-8.24411E+08-2.80306E+08
 -1       852 1.03121E+09-1.48861E+09 1.18633E+09-1.84652E+09-9.07283E+08-2.25783E+08
 -1       853 1.08395E+09-1.57089E+09 1.29742E+09-1.25414E+09-9.68441E+08-1.53387E+08
 -1       854 1.13656E+09-1.62178E+09 1.36286E+09-5.71971E+08-1.00574E+09-6.90417E+07
 -1       855 1.20437E+09-1.63982E+09 1.37826E+09 1.46660E+08-1.01773E+09 1.90987E+07
 -1       856 1.28488E+09-1.62259E+09 1.34396E+09 8.46791E+08-1.00345E+09 1.02391E+08
 -1       857 1.35937E+09-1.56687E+09 1.26477E+09 1.48151E+09-9.62533E+08 1.73595E+08
 -1       858 1.39896E+09-1.46929E+09 1.14876E+09 2.01979E+09-8.95180E+08 2.28395E+08
 -1       859 1.37352E+09-1.32754E+09 1.00543E+09 2.45043E+09-8.02363E+08 2.66134E+08
 -1       860 1.26107E+09-1.14152E+09 8.43738E+08 2.78095E+09-6.85934E+08 2.89587E+08
 -1       861 1.05520E+09-9.14281E+08 6.70450E+08 3.03200E+09-5.48693E+08 3.03841E+08
 -1       862 7.68417E+08-6.52303E+08 4.89362E+08 3.22873E+09-3.94363E+08 3.14590E+08
 -1       863 4.30642E+08-3.65078E+08 3.01458E+08 3.39162E+09-2.27432E+08 3.26305E+08
 -1       864 8.32486E+07-6.40069E+07 1.06003E+08 3.52944E+09-5.28856E+07 3.40763E+08
 -1       865-2.29653E+08 2.39291E+08-9.77107E+07 3.63647E+09 1.24174E+08 3.56351E+08
 -1       866-4.70220E+08 5.35045E+08-3.08710E+08 3.69510E+09 2.99098E+08 3.68470E+08
 -1       867-6.13720E+08 8.17468E+08-5.22986E+08 3.68336E+09 4.68117E+08 3.71399E+08
 -1       868-6.51644E+08 1.08639E+09-7.34885E+08 3.58462E+09 6.29719E+08 3.60713E+08
 -1       869-5.91112E+08 1.34520E+09-9.34592E+08 3.39460E+09 7.80957E+08 3.36358E+08
 -1       870-4.60360E+08 1.58704E+09-1.12759E+09 3.11807E+09 9.27246E+08 3.06698E+08
 -1       871-2.69427E+08 1.80877E+09-1.26252E+09 2.77134E+09 1.03177E+09 2.27935E+08
 -1       872-4.00962E+06 1.96911E+09-1.36810E+09 2.36981E+09 1.17759E+09 1.67958E+08
 -1       873-3.47850E+09-7.05129E+09-5.11657E+09-2.21432E+09-1.71395E+09-1.76648E+08
 -1       874-3.36105E+09-6.47055E+09-4.67380E+09-2.58338E+09-1.51868E+09-2.40709E+08
 -1       875-3.13245E+09-5.66186E+09-4.10388E+09-2.94222E+09-1.34615E+09-3.21327E+08
 -1       876-2.86229E+09-4.76586E+09-3.44926E+09-3.25976E+09-1.12486E+09-3.51942E+08
 -1       877-2.50058E+09-3.80255E+09-2.75625E+09-3.51811E+09-8.95980E+08-3.75685E+08
 -1       878-2.02730E+09-2.79574E+09-2.03102E+09-3.70619E+09-6.56807E+08-3.85343E+08
 -1       879-1.42521E+09-1.75762E+09-1.28301E+09-3.81595E+09-4.12063E+08-3.81022E+08
 -1       880-6.98798E+08-7.03487E+08-5.21287E+08-3.84484E+09-1.64579E+08-3.67472E+08
 -1       881 1.18679E+08 3.47231E+08 2.40003E+08-3.79547E+09 8.13017E+07-3.50689E+08
 -1       882 9.70162E+08 1.37387E+09 9.84997E+08-3.67210E+09 3.21110E+08-3.35502E+08
 -1       883 1.78633E+09 2.35558E+09 1.69710E+09-3.47721E+09 5.50371E+08-3.23582E+08
 -1       884 2.50069E+09 3.27169E+09 2.35989E+09-3.20998E+09 7.64639E+08-3.13014E+08
 -1       885 3.06357E+09 4.10143E+09 2.95737E+09-2.86702E+09 9.59318E+08-2.99023E+08
 -1       886 3.45163E+09 4.82383E+09 3.47428E+09-2.44491E+09 1.12958E+09-2.75531E+08
 -1       887 3.67055E+09 5.41827E+09 3.89650E+09-1.94352E+09 1.27045E+09-2.37102E+08
 -1       888 3.75029E+09 5.86564E+09 4.21180E+09-1.36928E+09 1.37716E+09-1.80745E+08
 -1       889 3.73443E+09 6.15013E+09 4.41064E+09-7.37066E+08 1.44560E+09-1.07112E+08
 -1       890 3.66640E+09 6.26108E+09 4.48714E+09-7.04206E+07 1.47293E+09-2.07383E+07
 -1       891 3.57656E+09 6.19478E+09 4.43983E+09 6.00277E+08 1.45804E+09 7.07393E+07
 -1       892 3.47356E+09 5.95564E+09 4.27226E+09 1.24112E+09 1.40195E+09 1.58187E+08
 -1       893 3.34242E+09 5.55664E+09 3.99327E+09 1.81868E+09 1.30794E+09 2.32979E+08
 -1       894 3.14979E+09 5.01905E+09 3.61699E+09 2.30353E+09 1.18141E+09 2.88842E+08
 -1       895 2.85506E+09 4.37172E+09 3.16275E+09 2.67253E+09 1.02966E+09 3.23012E+08
 -1       896 2.42392E+09 3.64994E+09 2.65486E+09 2.90888E+09 8.61495E+08 3.36380E+08
 -1       897 1.84042E+09 2.89411E+09 2.12203E+09 3.00090E+09 6.87169E+08 3.32712E+08
 -1       898 1.11540E+09 2.14971E+09 1.59668E+09 2.93645E+09 5.16155E+08 3.17967E+08
 -1       899 3.02096E+08 1.46158E+09 1.12056E+09 2.70105E+09 3.63445E+08 3.01458E+08
 -1       900-6.30545E+08 8.41598E+08 6.55512E+08 2.24964E+09 2.22455E+08 2.90449E+08
 -1       901-9.17051E+08 8.25538E+08 8.52799E+08 1.53208E+09 1.82323E+08 3.18123E+08
 -1       902-2.57451E+09-1.21867E+07 1.04243E+08-7.87595E+08 6.10161E+07 3.02748E+08
 -1       903-2.02272E+09-4.66110E+08-1.54452E+08-1.61828E+09 1.24020E+08 2.97947E+08
 -1       904-1.08216E+09-5.49727E+08 1.01889E+08-2.15236E+09 2.34324E+08 3.00811E+08
 -1       905-3.95942E+08-7.16063E+08 2.83550E+08-2.50694E+09 3.54914E+08 3.15106E+08
 -1       906 1.47554E+08-8.95365E+08 4.77325E+08-2.70158E+09 4.82092E+08 3.27117E+08
 -1       907 5.39639E+08-1.07281E+09 6.72749E+08-2.73752E+09 6.06890E+08 3.28772E+08
 -1       908 7.96851E+08-1.23588E+09 8.63008E+08-2.60656E+09 7.22878E+08 3.14351E+08
 -1       909 9.48200E+08-1.37618E+09 1.03794E+09-2.30626E+09 8.24411E+08 2.80306E+08
 -1       910 1.03121E+09-1.48861E+09 1.18633E+09-1.84652E+09 9.07283E+08 2.25783E+08
 -1       911 1.08395E+09-1.57089E+09 1.29742E+09-1.25414E+09 9.68441E+08 1.53387E+08
 -1       912 1.13656E+09-1.62178E+09 1.36286E+09-5.71971E+08 1.00574E+09 6.90417E+07
 -1       913 1.20437E+09-1.63982E+09 1.37826E+09 1.46660E+08 1.01773E+09-1.90987E+07
 -1       914 1.28488E+09-1.62259E+09 1.34396E+09 8.46791E+08 1.00345E+09-1.02391E+08
 -1       915 1.35937E+09-1.56687E+09 1.26477E+09 1.48151E+09 9.62533E+08-1.73595E+08
 -1       916 1.39896E+09-1.46929E+09 1.14876E+09 2.01979E+09 8.95180E+08-2.28395E+08
 -1       917 1.37352E+09-1.32754E+09 1.00543E+09 2.45043E+09 8.02363E+08-2.66134E+08
 -1       918 1.26107E+09-1.14152E+09 8.43738E+08 2.78095E+09 6.85934E+08-2.89587E+08
 -1       919 1.05520E+09-9.14281E+08 6.70450E+08 3.03200E+09 5.48693E+08-3.03841E+08
 -1       920 7.68417E+08-6.52303E+08 4.89362E+08 3.22873E+09 3.94363E+08-3.14590E+08
 -1       921 4.30642E+08-3.65078E+08 3.01458E+08 3.39162E+09 2.27432E+08-3.26305E+08
 -1       922 8.32486E+07-6.40069E+07 1.06003E+08 3.52944E+09 5.28856E+07-3.40763E+08
 -1       923-2.29653E+08 2.39291E+08-9.77107E+07 3.63647E+09-1.24174E+08-3.56351E+08
 -1       924-4.70220E+08 5.35045E+08-3.08710E+08 3.69510E+09-2.99098E+08-3.68470E+08
 -1       925-6.13720E+08 8.17468E+08-5.22986E+08 3.68336E+09-4.68117E+08-3.71399E+08
 -1       926-6.51644E+08 1.08639E+09-7.34885E+08 3.58462E+09-6.29719E+08-3.60713E+08
 -1       927-5.91112E+08 1.34520E+09-9.34592E+08 3.39460E+09-7.80957E+08-3.36358E+08
 -1       928-4.60360E+08 1.58704E+09-1.12759E+09 3.11807E+09-9.27246E+08-3.06698E+08
 -1       929-2.69427E+08 1.80877E+09-1.26252E+09 2.77134E+09-1.03177E+09-2.27935E+08
 -1       930-4.00962E+06 1.96911E+09-1.36810E+09 2.36981E+09-1.17759E+09-1.67958E+08
 -3
    1PSTEP                        59           1           1          
    1PGM                1.000000E+00                                  
    1PGK                2.540482E+07                                  
    1PHID                         -1                                  
    1PSUBC                         0                                  
    1PMODE                        15                                  
  100CL  115 802.1917462         930                     2   15MODAL      1
 -4  FORC        4    1
 -5  F1          1    2    1    0
 -5  F2          1    2    2    0
 -5  F3          1    2    3    0
 -5  ALL         1    2    0    0    1ALL
 -1         1-7.48944E+05 6.89892E+04 3.24704E+05
 -1         2 7.48944E+05 6.89892E+04-3.24704E+05
 -1         3-1.26406E+03-5.81889E+04 6.76390E+04
 -1         4 1.26406E+03-5.81889E+04-6.76390E+04
 -1         5-7.48944E+05 6.89892E+04-3.24704E+05
 -1         6 7.48944E+05 6.89892E+04 3.24704E+05
 -1         7-1.26406E+03-5.81889E+04-6.76390E+04
 -1         8 1.26406E+03-5.81889E+04 6.76390E+04
 -1         9 2.34944E+05 6.74936E+03-2.93693E+05
 -1        10-1.09130E+03-1.00242E+05 6.30932E+04
 -1        11 6.29938E+05-4.46233E+05-1.35202E+06
 -1        12-2.44092E+06-4.92878E+05 1.44477E+06
 -1        13-4.64490E+03-8.44491E+04 2.64905E+05
 -1        14-5.58527E+03-6.82069E+04 2.64906E+05
 -1        15 2.34944E+05 6.74936E+03 2.93693E+05
 -1        16-1.09130E+03-1.00242E+05-6.30932E+04
 -1        17-2.44092E+06-4.92878E+05-1.44477E+06
 -1        18 6.29938E+05-4.46233E+05 1.35202E+06
 -1        19-5.58527E+03-6.82069E+04-2.64906E+05
 -1        20-4.64490E+03-8.44491E+04-2.64905E+05
 -1        21 2.44092E+06-4.92878E+05-1.44477E+06
 -1        22-6.29938E+05-4.46233E+05 1.35202E+06
 -1        23 4.64490E+03-8.44491E+04-2.64905E+05
 -1        24 5.58527E+03-6.82069E+04-2.64906E+05
 -1        25-2.34944E+05 6.74936E+03 2.93693E+05
 -1        26 1.09130E+03-1.00242E+05-6.30932E+04
 -1        27-2.34944E+05 6.74936E+03-2.93693E+05
 -1        28-6.29938E+05-4.46233E+05-1.35202E+06
 -1        29 2.44092E+06-4.92878E+05 1.44477E+06
 -1        30 1.09130E+03-1.00242E+05 6.30932E+04
 -1        31 4.64490E+03-8.44491E+04 2.64905E+05
 -1        32 5.58527E+03-6.82069E+04 2.64906E+05
 -1        33-1.26242E+03 7.85067E+03 4.05006E+03
 -1        34-2.29270E+03 2.12786E+04 1.17900E+04
 -1        35-2.89164E+03 3.85386E+04 2.27139E+04
 -1        36-3.10834E+03 5.63757E+04 3.56351E+04
 -1        37-3.02612E+03 7.21184E+04 4.96328E+04
 -1        38-2.73292E+03 8.40292E+04 6.38908E+04
 -1        39-2.31843E+03 9.15590E+04 7.76225E+04
 -1        40-1.85759E+03 9.52863E+04 9.00570E+04
 -1        41-1.39949E+03 9.65788E+04 1.00466E+05
 -1        42-9.62109E+02 9.70696E+04 1.08217E+05
 -1        43-5.34654E+02 9.80899E+04 1.12829E+05
 -1        44-8.73204E+01 1.00214E+05 1.14027E+05
 -1        45 4.14279E+02 1.03040E+05 1.11756E+05
 -1        46 9.93790E+02 1.05264E+05 1.06174E+05
 -1        47 1.65210E+03 1.05024E+05 9.76076E+04
 -1        48 2.36190E+03 1.00424E+05 8.64840E+04
 -1        49 3.07047E+03 9.00900E+04 7.32602E+04
 -1        50 3.70986E+03 7.35981E+04 5.83628E+04
 -1        51 4.21194E+03 5.16718E+04 4.21526E+04
 -1        52 4.52432E+03 2.60747E+04 2.49211E+04
 -1        53 4.62283E+03-7.65621E+02 6.91559E+03
 -1        54 4.51733E+03-2.63092E+04-1.16188E+04
 -1        55 4.24939E+03-4.84834E+04-3.03968E+04
 -1        56 3.88251E+03-6.61367E+04-4.90687E+04
 -1        57 3.48772E+03-7.92406E+04-6.72283E+04
 -1        58 3.12890E+03-8.87746E+04-8.44537E+04
 -1        59 2.85037E+03-9.63101E+04-1.00368E+05
 -1        60 2.67329E+03-1.03416E+05-1.14702E+05
 -1        61 2.59202E+03-1.11056E+05-1.27445E+05
 -1        62 1.26242E+03 7.85067E+03-4.05006E+03
 -1        63 2.29270E+03 2.12786E+04-1.17900E+04
 -1        64 2.89164E+03 3.85386E+04-2.27139E+04
 -1        65 3.10834E+03 5.63757E+04-3.56351E+04
 -1        66 3.02612E+03 7.21184E+04-4.96328E+04
 -1        67 2.73292E+03 8.40292E+04-6.38908E+04
 -1        68 2.31843E+03 9.15590E+04-7.76225E+04
 -1        69 1.85759E+03 9.52863E+04-9.00570E+04
 -1        70 1.39949E+03 9.65788E+04-1.00466E+05
 -1        71 9.62109E+02 9.70696E+04-1.08217E+05
 -1        72 5.34654E+02 9.80899E+04-1.12829E+05
 -1        73 8.73204E+01 1.00214E+05-1.14027E+05
 -1        74-4.14279E+02 1.03040E+05-1.11756E+05
 -1        75-9.93790E+02 1.05264E+05-1.06174E+05
 -1        76-1.65210E+03 1.05024E+05-9.76076E+04
 -1        77-2.36190E+03 1.00424E+05-8.64840E+04
 -1        78-3.07047E+03 9.00900E+04-7.32602E+04
 -1        79-3.70986E+03 7.35981E+04-5.83628E+04
 -1        80-4.21194E+03 5.16718E+04-4.21526E+04
 -1        81-4.52432E+03 2.60747E+04-2.49211E+04
 -1        82-4.62283E+03-7.65621E+02-6.91559E+03
 -1        83-4.51733E+03-2.63092E+04 1.16188E+04
 -1        84-4.24939E+03-4.84834E+04 3.03968E+04
 -1        85-3.88251E+03-6.61367E+04 4.90687E+04
 -1        86-3.48772E+03-7.92406E+04 6.72283E+04
 -1        87-3.12890E+03-8.87746E+04 8.44537E+04
 -1        88-2.85037E+03-9.63101E+04 1.00368E+05
 -1        89-2.67329E+03-1.03416E+05 1.14702E+05
 -1        90-2.59202E+03-1.11056E+05 1.27445E+05
 -1        91 2.21533E+06 1.97933E+04 2.34180E+04
 -1        92 3.86798E+06 4.55382E+04 7.20694E-06
 -1        93 2.21533E+06 1.97933E+04-2.34180E+04
 -1        94-2.21533E+06 1.97933E+04 2.34180E+04
 -1        95-3.86798E+06 4.55382E+04 7.80351E-06
 -1        96-2.21533E+06 1.97933E+04-2.34180E+04
 -1        97 1.26242E+03 7.85067E+03 4.05006E+03
 -1        98 2.29270E+03 2.12786E+04 1.17900E+04
 -1        99 2.89164E+03 3.85386E+04 2.27139E+04
 -1       100 3.10834E+03 5.63757E+04 3.56351E+04
 -1       101 3.02612E+03 7.21184E+04 4.96328E+04
 -1       102 2.73292E+03 8.40292E+04 6.38908E+04
 -1       103 2.31843E+03 9.15590E+04 7.76225E+04
 -1       104 1.85759E+03 9.52863E+04 9.00570E+04
 -1       105 1.39949E+03 9.65788E+04 1.00466E+05
 -1       106 9.62109E+02 9.70696E+04 1.08217E+05
 -1       107 5.34654E+02 9.80899E+04 1.12829E+05
 -1       108 8.73204E+01 1.00214E+05 1.14027E+05
 -1       109-4.14279E+02 1.03040E+05 1.11756E+05
 -1       110-9.93790E+02 1.05264E+05 1.06174E+05
 -1       111-1.65210E+03 1.05024E+05 9.76076E+04
 -1       112-2.36190E+03 1.00424E+05 8.64840E+04
 -1       113-3.07047E+03 9.00900E+04 7.32602E+04
 -1       114-3.70986E+03 7.35981E+04 5.83628E+04
 -1       115-4.21194E+03 5.16718E+04 4.21526E+04
 -1       116-4.52432E+03 2.60747E+04 2.49211E+04
 -1       117-4.62283E+03-7.65621E+02 6.91559E+03
 -1       118-4.51733E+03-2.63092E+04-1.16188E+04
 -1       119-4.24939E+03-4.84834E+04-3.03968E+04
 -1       120-3.88251E+03-6.61367E+04-4.90687E+04
 -1       121-3.48772E+03-7.92406E+04-6.72283E+04
 -1       122-3.12890E+03-8.87746E+04-8.44537E+04
 -1       123-2.85037E+03-9.63101E+04-1.00368E+05
 -1       124-2.67329E+03-1.03416E+05-1.14702E+05
 -1       125-2.59202E+03-1.11056E+05-1.27445E+05
 -1       126 5.70819E+02 3.75735E+05 6.15279E+03
 -1       127 8.74183E+02 5.81639E+05 2.88620E-06
 -1       128 5.70819E+02 3.75735E+05-6.15279E+03
 -1       129-1.26242E+03 7.85067E+03-4.05006E+03
 -1       130-2.29270E+03 2.12786E+04-1.17900E+04
 -1       131-2.89164E+03 3.85386E+04-2.27139E+04
 -1       132-3.10834E+03 5.63757E+04-3.56351E+04
 -1       133-3.02612E+03 7.21184E+04-4.96328E+04
 -1       134-2.73292E+03 8.40292E+04-6.38908E+04
 -1       135-2.31843E+03 9.15590E+04-7.76225E+04
 -1       136-1.85759E+03 9.52863E+04-9.00570E+04
 -1       137-1.39949E+03 9.65788E+04-1.00466E+05
 -1       138-9.62109E+02 9.70696E+04-1.08217E+05
 -1       139-5.34654E+02 9.80899E+04-1.12829E+05
 -1       140-8.73204E+01 1.00214E+05-1.14027E+05
 -1       141 4.14279E+02 1.03040E+05-1.11756E+05
 -1       142 9.93790E+02 1.05264E+05-1.06174E+05
 -1       143 1.65210E+03 1.05024E+05-9.76076E+04
 -1       144 2.36190E+03 1.00424E+05-8.64840E+04
 -1       145 3.07047E+03 9.00900E+04-7.32602E+04
 -1       146 3.70986E+03 7.35981E+04-5.83628E+04
 -1       147 4.21194E+03 5.16718E+04-4.21526E+04
 -1       148 4.52432E+03 2.60747E+04-2.49211E+04
 -1       149 4.62283E+03-7.65621E+02-6.91559E+03
 -1       150 4.51733E+03-2.63092E+04 1.16188E+04
 -1       151 4.24939E+03-4.84834E+04 3.03968E+04
 -1       152 3.88251E+03-6.61367E+04 4.90687E+04
 -1       153 3.48772E+03-7.92406E+04 6.72283E+04
 -1       154 3.12890E+03-8.87746E+04 8.44537E+04
 -1       155 2.85037E+03-9.63101E+04 1.00368E+05
 -1       156 2.67329E+03-1.03416E+05 1.14702E+05
 -1       157 2.59202E+03-1.11056E+05 1.27445E+05
 -1       158-5.70819E+02 3.75735E+05 6.15279E+03
 -1       159-8.74183E+02 5.81639E+05 2.21096E-06
 -1       160-5.70819E+02 3.75735E+05-6.15279E+03
 -1       161 1.01094E+03 7.92573E+03-3.77849E+03
 -1       162 1.88299E+03 2.23212E+04-1.10230E+04
 -1       163 2.39445E+03 4.19597E+04-2.12350E+04
 -1       164 2.57614E+03 6.40796E+04-3.33046E+04
 -1       165 2.50083E+03 8.64306E+04-4.63741E+04
 -1       166 2.24645E+03 1.07316E+05-5.96826E+04
 -1       167 1.89279E+03 1.25631E+05-7.24965E+04
 -1       168 1.50617E+03 1.40806E+05-8.40970E+04
 -1       169 1.12936E+03 1.52677E+05-9.38064E+04
 -1       170 7.76912E+02 1.61302E+05-1.01035E+05
 -1       171 4.37308E+02 1.66766E+05-1.05338E+05
 -1       172 8.18070E+01 1.69031E+05-1.06457E+05
 -1       173-3.22455E+02 1.67856E+05-1.04342E+05
 -1       174-7.98535E+02 1.62820E+05-9.91383E+04
 -1       175-1.34873E+03 1.53432E+05-9.11484E+04
 -1       176-1.94965E+03 1.39294E+05-8.07688E+04
 -1       177-2.55464E+03 1.20277E+05-6.84242E+04
 -1       178-3.10305E+03 9.66507E+04-5.45121E+04
 -1       179-3.53388E+03 6.91346E+04-3.93696E+04
 -1       180-3.80017E+03 3.88456E+04-2.32708E+04
 -1       181-3.88031E+03 7.15330E+03-6.44863E+03
 -1       182-3.78326E+03-2.45236E+04 1.08653E+04
 -1       183-3.54626E+03-5.49331E+04 2.84028E+04
 -1       184-3.22592E+03-8.31657E+04 4.58373E+04
 -1       185-2.88526E+03-1.08750E+05 6.27918E+04
 -1       186-2.58129E+03-1.31657E+05 7.88754E+04
 -1       187-2.35575E+03-1.52218E+05 9.37352E+04
 -1       188-2.23116E+03-1.71025E+05 1.07107E+05
 -1       189-2.20179E+03-1.88840E+05 1.18946E+05
 -1       190 1.17585E+06 5.13996E+04-1.56318E+06
 -1       191-2.64236E+06 1.81779E+05 1.66608E+06
 -1       192-5.77057E+03-1.68375E+05 3.25217E+05
 -1       193 4.48960E+03 7.11794E+03-1.59503E+04
 -1       194 8.07423E+03 1.91195E+04-4.65892E+04
 -1       195 1.01815E+04 3.54585E+04-8.96918E+04
 -1       196 1.09375E+04 5.39350E+04-1.40544E+05
 -1       197 1.06218E+04 7.26500E+04-1.95563E+05
 -1       198 9.56125E+03 9.01831E+04-2.51557E+05
 -1       199 8.08095E+03 1.05599E+05-3.05444E+05
 -1       200 6.45171E+03 1.18405E+05-3.54206E+05
 -1       201 4.84926E+03 1.28444E+05-3.95005E+05
 -1       202 3.33528E+03 1.35742E+05-4.25377E+05
 -1       203 1.86639E+03 1.40356E+05-4.43462E+05
 -1       204 3.29654E+02 1.42245E+05-4.48179E+05
 -1       205-1.40449E+03 1.41209E+05-4.39315E+05
 -1       206-3.42610E+03 1.36906E+05-4.17470E+05
 -1       207-5.74155E+03 1.28941E+05-3.83898E+05
 -1       208-8.25370E+03 1.16997E+05-3.40246E+05
 -1       209-1.07718E+04 1.00980E+05-2.88287E+05
 -1       210-1.30489E+04 8.11262E+04-2.29686E+05
 -1       211-1.48370E+04 5.80353E+04-1.65868E+05
 -1       212-1.59455E+04 3.26341E+04-9.79983E+04
 -1       213-1.62862E+04 6.05547E+03-2.70789E+04
 -1       214-1.58953E+04-2.05274E+04 4.58946E+04
 -1       215-1.49237E+04-4.60777E+04 1.19778E+05
 -1       216-1.36009E+04-6.98384E+04 1.93197E+05
 -1       217-1.21831E+04-9.14128E+04 2.64584E+05
 -1       218-1.09031E+04-1.10766E+05 3.32321E+05
 -1       219-9.93635E+03-1.28162E+05 3.94910E+05
 -1       220-9.38479E+03-1.44077E+05 4.51117E+05
 -1       221-9.24205E+03-1.59109E+05 5.00318E+05
 -1       222 5.47250E+03 6.13883E+03-1.60164E+04
 -1       223 9.74297E+03 1.62495E+04-4.66336E+04
 -1       224 1.22845E+04 2.99329E+04-8.97143E+04
 -1       225 1.32991E+04 4.52807E+04-1.40549E+05
 -1       226 1.30957E+04 6.06127E+04-1.95554E+05
 -1       227 1.20099E+04 7.47041E+04-2.51539E+05
 -1       228 1.03693E+04 8.68090E+04-3.05421E+05
 -1       229 8.44909E+03 9.66197E+04-3.54182E+05
 -1       230 6.43698E+03 1.04152E+05-3.94982E+05
 -1       231 4.41626E+03 1.09585E+05-4.25355E+05
 -1       232 2.37465E+03 1.13088E+05-4.43439E+05
 -1       233 2.36456E+02 1.14687E+05-4.48154E+05
 -1       234-2.08978E+03 1.14195E+05-4.39286E+05
 -1       235-4.66092E+03 1.11233E+05-4.17438E+05
 -1       236-7.45986E+03 1.05329E+05-3.83862E+05
 -1       237-1.03780E+04 9.60674E+04-3.40209E+05
 -1       238-1.32248E+04 8.32456E+04-2.88252E+05
 -1       239-1.57618E+04 6.69958E+04-2.29657E+05
 -1       240-1.77530E+04 4.78316E+04-1.65847E+05
 -1       241-1.90176E+04 2.66072E+04-9.79875E+04
 -1       242-1.94716E+04 4.39304E+03-2.70790E+04
 -1       243-1.91478E+04-1.76997E+04 4.58851E+04
 -1       244-1.81877E+04-3.87051E+04 1.19762E+05
 -1       245-1.68108E+04-5.79506E+04 1.93178E+05
 -1       246-1.52674E+04-7.51351E+04 2.64565E+05
 -1       247-1.37917E+04-9.03221E+04 3.32305E+05
 -1       248-1.25679E+04-1.03868E+05 3.94899E+05
 -1       249-1.17130E+04-1.16331E+05 4.51112E+05
 -1       250-1.12687E+04-1.28369E+05 5.00318E+05
 -1       251-6.95269E+03-1.36500E+05 3.25186E+05
 -1       252-2.20179E+03-1.88840E+05-1.18946E+05
 -1       253-2.23116E+03-1.71025E+05-1.07107E+05
 -1       254-2.35575E+03-1.52218E+05-9.37352E+04
 -1       255-2.58129E+03-1.31657E+05-7.88754E+04
 -1       256-2.88526E+03-1.08750E+05-6.27918E+04
 -1       257-3.22592E+03-8.31657E+04-4.58373E+04
 -1       258-3.54626E+03-5.49331E+04-2.84028E+04
 -1       259-3.78326E+03-2.45236E+04-1.08653E+04
 -1       260-3.88031E+03 7.15330E+03 6.44863E+03
 -1       261-3.80017E+03 3.88456E+04 2.32708E+04
 -1       262-3.53388E+03 6.91346E+04 3.93696E+04
 -1       263-3.10305E+03 9.66507E+04 5.45121E+04
 -1       264-2.55464E+03 1.20277E+05 6.84242E+04
 -1       265-1.94965E+03 1.39294E+05 8.07688E+04
 -1       266-1.34873E+03 1.53432E+05 9.11484E+04
 -1       267-7.98535E+02 1.62820E+05 9.91383E+04
 -1       268-3.22455E+02 1.67856E+05 1.04342E+05
 -1       269 8.18070E+01 1.69031E+05 1.06457E+05
 -1       270 4.37308E+02 1.66766E+05 1.05338E+05
 -1       271 7.76912E+02 1.61302E+05 1.01035E+05
 -1       272 1.12936E+03 1.52677E+05 9.38064E+04
 -1       273 1.50617E+03 1.40806E+05 8.40970E+04
 -1       274 1.89279E+03 1.25631E+05 7.24965E+04
 -1       275 2.24645E+03 1.07316E+05 5.96826E+04
 -1       276 2.50083E+03 8.64306E+04 4.63741E+04
 -1       277 2.57614E+03 6.40796E+04 3.33046E+04
 -1       278 2.39445E+03 4.19597E+04 2.12350E+04
 -1       279 1.88299E+03 2.23212E+04 1.10230E+04
 -1       280 1.01094E+03 7.92573E+03 3.77849E+03
 -1       281-2.64236E+06 1.81779E+05-1.66608E+06
 -1       282 1.17585E+06 5.13996E+04 1.56318E+06
 -1       283 5.47250E+03 6.13883E+03 1.60164E+04
 -1       284 9.74297E+03 1.62495E+04 4.66336E+04
 -1       285 1.22845E+04 2.99329E+04 8.97143E+04
 -1       286 1.32991E+04 4.52807E+04 1.40549E+05
 -1       287 1.30957E+04 6.06127E+04 1.95554E+05
 -1       288 1.20099E+04 7.47041E+04 2.51539E+05
 -1       289 1.03693E+04 8.68090E+04 3.05421E+05
 -1       290 8.44909E+03 9.66197E+04 3.54182E+05
 -1       291 6.43698E+03 1.04152E+05 3.94982E+05
 -1       292 4.41626E+03 1.09585E+05 4.25355E+05
 -1       293 2.37465E+03 1.13088E+05 4.43439E+05
 -1       294 2.36456E+02 1.14687E+05 4.48154E+05
 -1       295-2.08978E+03 1.14195E+05 4.39286E+05
 -1       296-4.66092E+03 1.11233E+05 4.17438E+05
 -1       297-7.45986E+03 1.05329E+05 3.83862E+05
 -1       298-1.03780E+04 9.60674E+04 3.40209E+05
 -1       299-1.32248E+04 8.32456E+04 2.88252E+05
 -1       300-1.57618E+04 6.69958E+04 2.29657E+05
 -1       301-1.77530E+04 4.78316E+04 1.65847E+05
 -1       302-1.90176E+04 2.66072E+04 9.79875E+04
 -1       303-1.94716E+04 4.39304E+03 2.70790E+04
 -1       304-1.91478E+04-1.76997E+04-4.58851E+04
 -1       305-1.81877E+04-3.87051E+04-1.19762E+05
 -1       306-1.68108E+04-5.79506E+04-1.93178E+05
 -1       307-1.52674E+04-7.51351E+04-2.64565E+05
 -1       308-1.37917E+04-9.03221E+04-3.32305E+05
 -1       309-1.25679E+04-1.03868E+05-3.94899E+05
 -1       310-1.17130E+04-1.16331E+05-4.51112E+05
 -1       311-1.12687E+04-1.28369E+05-5.00318E+05
 -1       312-6.95269E+03-1.36500E+05-3.25186E+05
 -1       313 4.48960E+03 7.11794E+03 1.59503E+04
 -1       314 8.07423E+03 1.91195E+04 4.65892E+04
 -1       315 1.01815E+04 3.54585E+04 8.96918E+04
 -1       316 1.09375E+04 5.39350E+04 1.40544E+05
 -1       317 1.06218E+04 7.26500E+04 1.95563E+05
 -1       318 9.56125E+03 9.01831E+04 2.51557E+05
 -1       319 8.08095E+03 1.05599E+05 3.05444E+05
 -1       320 6.45171E+03 1.18405E+05 3.54206E+05
 -1       321 4.84926E+03 1.28444E+05 3.95005E+05
 -1       322 3.33528E+03 1.35742E+05 4.25377E+05
 -1       323 1.86639E+03 1.40356E+05 4.43462E+05
 -1       324 3.29654E+02 1.42245E+05 4.48179E+05
 -1       325-1.40449E+03 1.41209E+05 4.39315E+05
 -1       326-3.42610E+03 1.36906E+05 4.17470E+05
 -1       327-5.74155E+03 1.28941E+05 3.83898E+05
 -1       328-8.25370E+03 1.16997E+05 3.40246E+05
 -1       329-1.07718E+04 1.00980E+05 2.88287E+05
 -1       330-1.30489E+04 8.11262E+04 2.29686E+05
 -1       331-1.48370E+04 5.80353E+04 1.65868E+05
 -1       332-1.59455E+04 3.26341E+04 9.79983E+04
 -1       333-1.62862E+04 6.05547E+03 2.70789E+04
 -1       334-1.58953E+04-2.05274E+04-4.58946E+04
 -1       335-1.49237E+04-4.60777E+04-1.19778E+05
 -1       336-1.36009E+04-6.98384E+04-1.93197E+05
 -1       337-1.21831E+04-9.14128E+04-2.64584E+05
 -1       338-1.09031E+04-1.10766E+05-3.32321E+05
 -1       339-9.93635E+03-1.28162E+05-3.94910E+05
 -1       340-9.38479E+03-1.44077E+05-4.51117E+05
 -1       341-9.24205E+03-1.59109E+05-5.00318E+05
 -1       342-5.77057E+03-1.68375E+05-3.25217E+05
 -1       343-4.48960E+03 7.11794E+03 1.59503E+04
 -1       344-8.07423E+03 1.91195E+04 4.65892E+04
 -1       345-1.01815E+04 3.54585E+04 8.96918E+04
 -1       346-1.09375E+04 5.39350E+04 1.40544E+05
 -1       347-1.06218E+04 7.26500E+04 1.95563E+05
 -1       348-9.56125E+03 9.01831E+04 2.51557E+05
 -1       349-8.08095E+03 1.05599E+05 3.05444E+05
 -1       350-6.45171E+03 1.18405E+05 3.54206E+05
 -1       351-4.84926E+03 1.28444E+05 3.95005E+05
 -1       352-3.33528E+03 1.35742E+05 4.25377E+05
 -1       353-1.86639E+03 1.40356E+05 4.43462E+05
 -1       354-3.29654E+02 1.42245E+05 4.48179E+05
 -1       355 1.40449E+03 1.41209E+05 4.39315E+05
 -1       356 3.42610E+03 1.36906E+05 4.17470E+05
 -1       357 5.74155E+03 1.28941E+05 3.83898E+05
 -1       358 8.25370E+03 1.16997E+05 3.40246E+05
 -1       359 1.07718E+04 1.00980E+05 2.88287E+05
 -1       360 1.30489E+04 8.11262E+04 2.29686E+05
 -1       361 1.48370E+04 5.80353E+04 1.65868E+05
 -1       362 1.59455E+04 3.26341E+04 9.79983E+04
 -1       363 1.62862E+04 6.05547E+03 2.70789E+04
 -1       364 1.58953E+04-2.05274E+04-4.58946E+04
 -1       365 1.49237E+04-4.60777E+04-1.19778E+05
 -1       366 1.36009E+04-6.98384E+04-1.93197E+05
 -1       367 1.21831E+04-9.14128E+04-2.64584E+05
 -1       368 1.09031E+04-1.10766E+05-3.32321E+05
 -1       369 9.93635E+03-1.28162E+05-3.94910E+05
 -1       370 9.38479E+03-1.44077E+05-4.51117E+05
 -1       371 9.24205E+03-1.59109E+05-5.00318E+05
 -1       372-5.47250E+03 6.13883E+03 1.60164E+04
 -1       373-9.74297E+03 1.62495E+04 4.66336E+04
 -1       374-1.22845E+04 2.99329E+04 8.97143E+04
 -1       375-1.32991E+04 4.52807E+04 1.40549E+05
 -1       376-1.30957E+04 6.06127E+04 1.95554E+05
 -1       377-1.20099E+04 7.47041E+04 2.51539E+05
 -1       378-1.03693E+04 8.68090E+04 3.05421E+05
 -1       379-8.44909E+03 9.66197E+04 3.54182E+05
 -1       380-6.43698E+03 1.04152E+05 3.94982E+05
 -1       381-4.41626E+03 1.09585E+05 4.25355E+05
 -1       382-2.37465E+03 1.13088E+05 4.43439E+05
 -1       383-2.36456E+02 1.14687E+05 4.48154E+05
 -1       384 2.08978E+03 1.14195E+05 4.39286E+05
 -1       385 4.66092E+03 1.11233E+05 4.17438E+05
 -1       386 7.45986E+03 1.05329E+05 3.83862E+05
 -1       387 1.03780E+04 9.60674E+04 3.40209E+05
 -1       388 1.32248E+04 8.32456E+04 2.88252E+05
 -1       389 1.57618E+04 6.69958E+04 2.29657E+05
 -1       390 1.77530E+04 4.78316E+04 1.65847E+05
 -1       391 1.90176E+04 2.66072E+04 9.79875E+04
 -1       392 1.94716E+04 4.39304E+03 2.70790E+04
 -1       393 1.91478E+04-1.76997E+04-4.58851E+04
 -1       394 1.81877E+04-3.87051E+04-1.19762E+05
 -1       395 1.68108E+04-5.79506E+04-1.93178E+05
 -1       396 1.52674E+04-7.51351E+04-2.64565E+05
 -1       397 1.37917E+04-9.03221E+04-3.32305E+05
 -1       398 1.25679E+04-1.03868E+05-3.94899E+05
 -1       399 1.17130E+04-1.16331E+05-4.51112E+05
 -1       400 1.12687E+04-1.28369E+05-5.00318E+05
 -1       401-1.17585E+06 5.13996E+04 1.56318E+06
 -1       402 2.64236E+06 1.81779E+05-1.66608E+06
 -1       403 5.77057E+03-1.68375E+05-3.25217E+05
 -1       404-1.01094E+03 7.92573E+03 3.77849E+03
 -1       405-1.88299E+03 2.23212E+04 1.10230E+04
 -1       406-2.39445E+03 4.19597E+04 2.12350E+04
 -1       407-2.57614E+03 6.40796E+04 3.33046E+04
 -1       408-2.50083E+03 8.64306E+04 4.63741E+04
 -1       409-2.24645E+03 1.07316E+05 5.96826E+04
 -1       410-1.89279E+03 1.25631E+05 7.24965E+04
 -1       411-1.50617E+03 1.40806E+05 8.40970E+04
 -1       412-1.12936E+03 1.52677E+05 9.38064E+04
 -1       413-7.76912E+02 1.61302E+05 1.01035E+05
 -1       414-4.37308E+02 1.66766E+05 1.05338E+05
 -1       415-8.18070E+01 1.69031E+05 1.06457E+05
 -1       416 3.22455E+02 1.67856E+05 1.04342E+05
 -1       417 7.98535E+02 1.62820E+05 9.91383E+04
 -1       418 1.34873E+03 1.53432E+05 9.11484E+04
 -1       419 1.94965E+03 1.39294E+05 8.07688E+04
 -1       420 2.55464E+03 1.20277E+05 6.84242E+04
 -1       421 3.10305E+03 9.66507E+04 5.45121E+04
 -1       422 3.53388E+03 6.91346E+04 3.93696E+04
 -1       423 3.80017E+03 3.88456E+04 2.32708E+04
 -1       424 3.88031E+03 7.15330E+03 6.44863E+03
 -1       425 3.78326E+03-2.45236E+04-1.08653E+04
 -1       426 3.54626E+03-5.49331E+04-2.84028E+04
 -1       427 3.22592E+03-8.31657E+04-4.58373E+04
 -1       428 2.88526E+03-1.08750E+05-6.27918E+04
 -1       429 2.58129E+03-1.31657E+05-7.88754E+04
 -1       430 2.35575E+03-1.52218E+05-9.37352E+04
 -1       431 2.23116E+03-1.71025E+05-1.07107E+05
 -1       432 2.20179E+03-1.88840E+05-1.18946E+05
 -1       433 6.95269E+03-1.36500E+05-3.25186E+05
 -1       434-1.17585E+06 5.13996E+04-1.56318E+06
 -1       435 2.64236E+06 1.81779E+05 1.66608E+06
 -1       436 2.20179E+03-1.88840E+05 1.18946E+05
 -1       437 2.23116E+03-1.71025E+05 1.07107E+05
 -1       438 2.35575E+03-1.52218E+05 9.37352E+04
 -1       439 2.58129E+03-1.31657E+05 7.88754E+04
 -1       440 2.88526E+03-1.08750E+05 6.27918E+04
 -1       441 3.22592E+03-8.31657E+04 4.58373E+04
 -1       442 3.54626E+03-5.49331E+04 2.84028E+04
 -1       443 3.78326E+03-2.45236E+04 1.08653E+04
 -1       444 3.88031E+03 7.15330E+03-6.44863E+03
 -1       445 3.80017E+03 3.88456E+04-2.32708E+04
 -1       446 3.53388E+03 6.91346E+04-3.93696E+04
 -1       447 3.10305E+03 9.66507E+04-5.45121E+04
 -1       448 2.55464E+03 1.20277E+05-6.84242E+04
 -1       449 1.94965E+03 1.39294E+05-8.07688E+04
 -1       450 1.34873E+03 1.53432E+05-9.11484E+04
 -1       451 7.98535E+02 1.62820E+05-9.91383E+04
 -1       452 3.22455E+02 1.67856E+05-1.04342E+05
 -1       453-8.18070E+01 1.69031E+05-1.06457E+05
 -1       454-4.37308E+02 1.66766E+05-1.05338E+05
 -1       455-7.76912E+02 1.61302E+05-1.01035E+05
 -1       456-1.12936E+03 1.52677E+05-9.38064E+04
 -1       457-1.50617E+03 1.40806E+05-8.40970E+04
 -1       458-1.89279E+03 1.25631E+05-7.24965E+04
 -1       459-2.24645E+03 1.07316E+05-5.96826E+04
 -1       460-2.50083E+03 8.64306E+04-4.63741E+04
 -1       461-2.57614E+03 6.40796E+04-3.33046E+04
 -1       462-2.39445E+03 4.19597E+04-2.12350E+04
 -1       463-1.88299E+03 2.23212E+04-1.10230E+04
 -1       464-1.01094E+03 7.92573E+03-3.77849E+03
 -1       465 5.77057E+03-1.68375E+05 3.25217E+05
 -1       466-4.48960E+03 7.11794E+03-1.59503E+04
 -1       467-8.07423E+03 1.91195E+04-4.65892E+04
 -1       468-1.01815E+04 3.54585E+04-8.96918E+04
 -1       469-1.09375E+04 5.39350E+04-1.40544E+05
 -1       470-1.06218E+04 7.26500E+04-1.95563E+05
 -1       471-9.56125E+03 9.01831E+04-2.51557E+05
 -1       472-8.08095E+03 1.05599E+05-3.05444E+05
 -1       473-6.45171E+03 1.18405E+05-3.54206E+05
 -1       474-4.84926E+03 1.28444E+05-3.95005E+05
 -1       475-3.33528E+03 1.35742E+05-4.25377E+05
 -1       476-1.86639E+03 1.40356E+05-4.43462E+05
 -1       477-3.29654E+02 1.42245E+05-4.48179E+05
 -1       478 1.40449E+03 1.41209E+05-4.39315E+05
 -1       479 3.42610E+03 1.36906E+05-4.17470E+05
 -1       480 5.74155E+03 1.28941E+05-3.83898E+05
 -1       481 8.25370E+03 1.16997E+05-3.40246E+05
 -1       482 1.07718E+04 1.00980E+05-2.88287E+05
 -1       483 1.30489E+04 8.11262E+04-2.29686E+05
 -1       484 1.48370E+04 5.80353E+04-1.65868E+05
 -1       485 1.59455E+04 3.26341E+04-9.79983E+04
 -1       486 1.62862E+04 6.05547E+03-2.70789E+04
 -1       487 1.58953E+04-2.05274E+04 4.58946E+04
 -1       488 1.49237E+04-4.60777E+04 1.19778E+05
 -1       489 1.36009E+04-6.98384E+04 1.93197E+05
 -1       490 1.21831E+04-9.14128E+04 2.64584E+05
 -1       491 1.09031E+04-1.10766E+05 3.32321E+05
 -1       492 9.93635E+03-1.28162E+05 3.94910E+05
 -1       493 9.38479E+03-1.44077E+05 4.51117E+05
 -1       494 9.24205E+03-1.59109E+05 5.00318E+05
 -1       495-5.47250E+03 6.13883E+03-1.60164E+04
 -1       496-9.74297E+03 1.62495E+04-4.66336E+04
 -1       497-1.22845E+04 2.99329E+04-8.97143E+04
 -1       498-1.32991E+04 4.52807E+04-1.40549E+05
 -1       499-1.30957E+04 6.06127E+04-1.95554E+05
 -1       500-1.20099E+04 7.47041E+04-2.51539E+05
 -1       501-1.03693E+04 8.68090E+04-3.05421E+05
 -1       502-8.44909E+03 9.66197E+04-3.54182E+05
 -1       503-6.43698E+03 1.04152E+05-3.94982E+05
 -1       504-4.41626E+03 1.09585E+05-4.25355E+05
 -1       505-2.37465E+03 1.13088E+05-4.43439E+05
 -1       506-2.36456E+02 1.14687E+05-4.48154E+05
 -1       507 2.08978E+03 1.14195E+05-4.39286E+05
 -1       508 4.66092E+03 1.11233E+05-4.17438E+05
 -1       509 7.45986E+03 1.05329E+05-3.83862E+05
 -1       510 1.03780E+04 9.60674E+04-3.40209E+05
 -1       511 1.32248E+04 8.32456E+04-2.88252E+05
 -1       512 1.57618E+04 6.69958E+04-2.29657E+05
 -1       513 1.77530E+04 4.78316E+04-1.65847E+05
 -1       514 1.90176E+04 2.66072E+04-9.79875E+04
 -1       515 1.94716E+04 4.39304E+03-2.70790E+04
 -1       516 1.91478E+04-1.76997E+04 4.58851E+04
 -1       517 1.81877E+04-3.87051E+04 1.19762E+05
 -1       518 1.68108E+04-5.79506E+04 1.93178E+05
 -1       519 1.52674E+04-7.51351E+04 2.64565E+05
 -1       520 1.37917E+04-9.03221E+04 3.32305E+05
 -1       521 1.25679E+04-1.03868E+05 3.94899E+05
 -1       522 1.17130E+04-1.16331E+05 4.51112E+05
 -1       523 1.12687E+04-1.28369E+05 5.00318E+05
 -1       524 6.95269E+03-1.36500E+05 3.25186E+05
 -1       525-3.37792E+02-1.64208E+04-3.45806E+02
 -1       526-6.10736E+02-5.00525E+04-1.01700E+03
 -1       527-8.19213E+02-1.00406E+05-1.98108E+03
 -1       528-9.78660E+02-1.63554E+05-3.13434E+03
 -1       529-1.09248E+03-2.36277E+05-4.39122E+03
 -1       530-1.15035E+03-3.15089E+05-5.67637E+03
 -1       531-1.13528E+03-3.95495E+05-6.91839E+03
 -1       532-1.03314E+03-4.71856E+05-8.04678E+03
 -1       533-8.40719E+02-5.37892E+05-8.99376E+03
 -1       534-5.69750E+02-5.87610E+05-9.69953E+03
 -1       535-2.46290E+02-6.16356E+05-1.01186E+04
 -1       536 9.41896E+01-6.21664E+05-1.02249E+04
 -1       537 4.14413E+02-6.03663E+05-1.00142E+04
 -1       538 6.83491E+02-5.64905E+05-9.50297E+03
 -1       539 8.83483E+02-5.09684E+05-8.72379E+03
 -1       540 1.01255E+03-4.42989E+05-7.71850E+03
 -1       541 1.08389E+03-3.69394E+05-6.53083E+03
 -1       542 1.12080E+03-2.92159E+05-5.20032E+03
 -1       543 1.14918E+03-2.12781E+05-3.75872E+03
 -1       544 1.18965E+03-1.31083E+05-2.22986E+03
 -1       545 1.25136E+03-4.58230E+04-6.32445E+02
 -1       546 1.32917E+03 4.43855E+04 1.01516E+03
 -1       547 1.40511E+03 1.40102E+05 2.68990E+03
 -1       548 1.45378E+03 2.40326E+05 4.36042E+03
 -1       549 1.45128E+03 3.42277E+05 5.98688E+03
 -1       550 1.38686E+03 4.41887E+05 7.52639E+03
 -1       551 1.27525E+03 5.35157E+05 8.94670E+03
 -1       552 1.16311E+03 6.20227E+05 1.02488E+04
 -1       553 1.11720E+03 6.99348E+05 1.14848E+04
 -1       554-5.68273E+02-2.78581E+04 1.84096E-06
 -1       555-1.01039E+03-8.38562E+04-3.43428E-06
 -1       556-1.33272E+03-1.66366E+05-3.13940E-06
 -1       557-1.56165E+03-2.68027E+05-1.98289E-06
 -1       558-1.70678E+03-3.82750E+05 6.66289E-07
 -1       559-1.76117E+03-5.04523E+05 3.07271E-06
 -1       560-1.70867E+03-6.26463E+05 4.34847E-06
 -1       561-1.53561E+03-7.40571E+05 1.07770E-06
 -1       562-1.24111E+03-8.38294E+05 1.91232E-06
 -1       563-8.42234E+02-9.11629E+05 2.92568E-06
 -1       564-3.73323E+02-9.54395E+05 4.13986E-06
 -1       565 1.19913E+02-9.63250E+05 4.80957E-06
 -1       566 5.89650E+02-9.38185E+05 4.51411E-07
 -1       567 9.95898E+02-8.82310E+05-2.99168E-06
 -1       568 1.31449E+03-8.01019E+05-1.89222E-07
 -1       569 1.54094E+03-7.00711E+05 3.11910E-06
 -1       570 1.68924E+03-5.87432E+05-2.26862E-06
 -1       571 1.78589E+03-4.65768E+05-2.20802E-06
 -1       572 1.86089E+03-3.38273E+05 3.87213E-06
 -1       573 1.93828E+03-2.05560E+05 3.36410E-06
 -1       574 2.02863E+03-6.69975E+04-1.58324E-06
 -1       575 2.12572E+03 7.82005E+04 1.55033E-07
 -1       576 2.20815E+03 2.29832E+05 4.80250E-08
 -1       577 2.24601E+03 3.85849E+05-4.89105E-06
 -1       578 2.21192E+03 5.42126E+05-7.58549E-06
 -1       579 2.09619E+03 6.93142E+05-5.02847E-06
 -1       580 1.92439E+03 8.33823E+05 7.14863E-07
 -1       581 1.76751E+03 9.62457E+05 5.16848E-07
 -1       582 1.71355E+03 1.08324E+06 2.70625E-06
 -1       583-3.37792E+02-1.64208E+04 3.45806E+02
 -1       584-6.10736E+02-5.00525E+04 1.01700E+03
 -1       585-8.19213E+02-1.00406E+05 1.98108E+03
 -1       586-9.78660E+02-1.63554E+05 3.13434E+03
 -1       587-1.09248E+03-2.36277E+05 4.39122E+03
 -1       588-1.15035E+03-3.15089E+05 5.67637E+03
 -1       589-1.13528E+03-3.95495E+05 6.91839E+03
 -1       590-1.03314E+03-4.71856E+05 8.04678E+03
 -1       591-8.40719E+02-5.37892E+05 8.99376E+03
 -1       592-5.69750E+02-5.87610E+05 9.69953E+03
 -1       593-2.46290E+02-6.16356E+05 1.01186E+04
 -1       594 9.41896E+01-6.21664E+05 1.02249E+04
 -1       595 4.14413E+02-6.03663E+05 1.00142E+04
 -1       596 6.83491E+02-5.64905E+05 9.50297E+03
 -1       597 8.83483E+02-5.09684E+05 8.72379E+03
 -1       598 1.01255E+03-4.42989E+05 7.71850E+03
 -1       599 1.08389E+03-3.69394E+05 6.53083E+03
 -1       600 1.12080E+03-2.92159E+05 5.20032E+03
 -1       601 1.14918E+03-2.12781E+05 3.75872E+03
 -1       602 1.18965E+03-1.31083E+05 2.22986E+03
 -1       603 1.25136E+03-4.58230E+04 6.32445E+02
 -1       604 1.32917E+03 4.43855E+04-1.01516E+03
 -1       605 1.40511E+03 1.40102E+05-2.68990E+03
 -1       606 1.45378E+03 2.40326E+05-4.36042E+03
 -1       607 1.45128E+03 3.42277E+05-5.98688E+03
 -1       608 1.38686E+03 4.41887E+05-7.52639E+03
 -1       609 1.27525E+03 5.35157E+05-8.94670E+03
 -1       610 1.16311E+03 6.20227E+05-1.02488E+04
 -1       611 1.11720E+03 6.99348E+05-1.14848E+04
 -1       612 3.37792E+02-1.64208E+04-3.45806E+02
 -1       613 6.10736E+02-5.00525E+04-1.01700E+03
 -1       614 8.19213E+02-1.00406E+05-1.98108E+03
 -1       615 9.78660E+02-1.63554E+05-3.13434E+03
 -1       616 1.09248E+03-2.36277E+05-4.39122E+03
 -1       617 1.15035E+03-3.15089E+05-5.67637E+03
 -1       618 1.13528E+03-3.95495E+05-6.91839E+03
 -1       619 1.03314E+03-4.71856E+05-8.04678E+03
 -1       620 8.40719E+02-5.37892E+05-8.99375E+03
 -1       621 5.69750E+02-5.87610E+05-9.69953E+03
 -1       622 2.46290E+02-6.16356E+05-1.01186E+04
 -1       623-9.41896E+01-6.21664E+05-1.02249E+04
 -1       624-4.14413E+02-6.03663E+05-1.00142E+04
 -1       625-6.83491E+02-5.64905E+05-9.50297E+03
 -1       626-8.83483E+02-5.09684E+05-8.72379E+03
 -1       627-1.01255E+03-4.42989E+05-7.71850E+03
 -1       628-1.08389E+03-3.69394E+05-6.53083E+03
 -1       629-1.12080E+03-2.92159E+05-5.20032E+03
 -1       630-1.14918E+03-2.12781E+05-3.75872E+03
 -1       631-1.18965E+03-1.31083E+05-2.22986E+03
 -1       632-1.25136E+03-4.58230E+04-6.32445E+02
 -1       633-1.32917E+03 4.43855E+04 1.01516E+03
 -1       634-1.40511E+03 1.40102E+05 2.68990E+03
 -1       635-1.45378E+03 2.40326E+05 4.36042E+03
 -1       636-1.45128E+03 3.42277E+05 5.98688E+03
 -1       637-1.38686E+03 4.41887E+05 7.52639E+03
 -1       638-1.27525E+03 5.35157E+05 8.94670E+03
 -1       639-1.16311E+03 6.20227E+05 1.02488E+04
 -1       640-1.11720E+03 6.99348E+05 1.14848E+04
 -1       641 5.68273E+02-2.78581E+04 2.14979E-06
 -1       642 1.01039E+03-8.38562E+04-1.72391E-06
 -1       643 1.33272E+03-1.66366E+05-5.73412E-06
 -1       644 1.56165E+03-2.68027E+05-2.05402E-06
 -1       645 1.70678E+03-3.82750E+05 1.47226E-06
 -1       646 1.76117E+03-5.04523E+05 6.03373E-06
 -1       647 1.70867E+03-6.26463E+05 2.63783E-06
 -1       648 1.53561E+03-7.40571E+05 1.11938E-06
 -1       649 1.24111E+03-8.38294E+05 4.24734E-06
 -1       650 8.42234E+02-9.11629E+05 5.35327E-06
 -1       651 3.73323E+02-9.54395E+05-6.96673E-07
 -1       652-1.19913E+02-9.63250E+05-2.90446E-06
 -1       653-5.89650E+02-9.38185E+05-2.53509E-07
 -1       654-9.95898E+02-8.82310E+05 4.95376E-07
 -1       655-1.31449E+03-8.01019E+05 4.64643E-08
 -1       656-1.54094E+03-7.00711E+05 2.76000E-06
 -1       657-1.68924E+03-5.87432E+05 1.39108E-06
 -1       658-1.78589E+03-4.65768E+05 1.11573E-06
 -1       659-1.86089E+03-3.38273E+05 2.06986E-06
 -1       660-1.93828E+03-2.05560E+05 1.92966E-06
 -1       661-2.02863E+03-6.69975E+04 7.71285E-07
 -1       662-2.12572E+03 7.82005E+04-1.47619E-06
 -1       663-2.20815E+03 2.29832E+05-4.53576E-07
 -1       664-2.24601E+03 3.85849E+05-2.95906E-06
 -1       665-2.21192E+03 5.42126E+05-3.83773E-06
 -1       666-2.09619E+03 6.93142E+05-4.42589E-06
 -1       667-1.92439E+03 8.33823E+05-2.97552E-06
 -1       668-1.76751E+03 9.62457E+05-1.77827E-06
 -1       669-1.71355E+03 1.08324E+06 6.74932E-06
 -1       670 3.37792E+02-1.64208E+04 3.45806E+02
 -1       671 6.10736E+02-5.00525E+04 1.01700E+03
 -1       672 8.19213E+02-1.00406E+05 1.98108E+03
 -1       673 9.78660E+02-1.63554E+05 3.13434E+03
 -1       674 1.09248E+03-2.36277E+05 4.39122E+03
 -1       675 1.15035E+03-3.15089E+05 5.67637E+03
 -1       676 1.13528E+03-3.95495E+05 6.91839E+03
 -1       677 1.03314E+03-4.71856E+05 8.04678E+03
 -1       678 8.40719E+02-5.37892E+05 8.99375E+03
 -1       679 5.69750E+02-5.87610E+05 9.69953E+03
 -1       680 2.46290E+02-6.16356E+05 1.01186E+04
 -1       681-9.41896E+01-6.21664E+05 1.02249E+04
 -1       682-4.14413E+02-6.03663E+05 1.00142E+04
 -1       683-6.83491E+02-5.64905E+05 9.50297E+03
 -1       684-8.83483E+02-5.09684E+05 8.72379E+03
 -1       685-1.01255E+03-4.42989E+05 7.71850E+03
 -1       686-1.08389E+03-3.69394E+05 6.53083E+03
 -1       687-1.12080E+03-2.92159E+05 5.20032E+03
 -1       688-1.14918E+03-2.12781E+05 3.75872E+03
 -1       689-1.18965E+03-1.31083E+05 2.22986E+03
 -1       690-1.25136E+03-4.58230E+04 6.32445E+02
 -1       691-1.32917E+03 4.43855E+04-1.01516E+03
 -1       692-1.40511E+03 1.40102E+05-2.68990E+03
 -1       693-1.45378E+03 2.40326E+05-4.36042E+03
 -1       694-1.45128E+03 3.42277E+05-5.98688E+03
 -1       695-1.38686E+03 4.41887E+05-7.52639E+03
 -1       696-1.27525E+03 5.35157E+05-8.94670E+03
 -1       697-1.16311E+03 6.20227E+05-1.02488E+04
 -1       698-1.11720E+03 6.99348E+05-1.14848E+04
 -1       699 5.30469E+03 1.36544E+04-1.95582E+04
 -1       700 9.76357E+03 3.77310E+04-5.70745E+04
 -1       701 1.23921E+04 7.05328E+04-1.09888E+05
 -1       702 1.33461E+04 1.07545E+05-1.72235E+05
 -1       703 1.29831E+04 1.44988E+05-2.39710E+05
 -1       704 1.16998E+04 1.80023E+05-3.08393E+05
 -1       705 9.89631E+03 2.10790E+05-3.74502E+05
 -1       706 7.90545E+03 2.36317E+05-4.34333E+05
 -1       707 5.94348E+03 2.56309E+05-4.84398E+05
 -1       708 4.08687E+03 2.70839E+05-5.21671E+05
 -1       709 2.28331E+03 2.80034E+05-5.43862E+05
 -1       710 3.95258E+02 2.83820E+05-5.49644E+05
 -1       711-1.73528E+03 2.81797E+05-5.38756E+05
 -1       712-4.21802E+03 2.73270E+05-5.11942E+05
 -1       713-7.06036E+03 2.57435E+05-4.70744E+05
 -1       714-1.01431E+04 2.33645E+05-4.17191E+05
 -1       715-1.32324E+04 2.01700E+05-3.53465E+05
 -1       716-1.60260E+04 1.62060E+05-2.81610E+05
 -1       717-1.82204E+04 1.15930E+05-2.03371E+05
 -1       718-1.95819E+04 6.51695E+04-1.20173E+05
 -1       719-2.00030E+04 1.20572E+04-3.32363E+04
 -1       720-1.95278E+04-4.10477E+04 5.62256E+04
 -1       721-1.83414E+04-9.20612E+04 1.46816E+05
 -1       722-1.67249E+04-1.39466E+05 2.36849E+05
 -1       723-1.49930E+04-1.82470E+05 3.24393E+05
 -1       724-1.34313E+04-2.21011E+05 4.07456E+05
 -1       725-1.22554E+04-2.55631E+05 4.84204E+05
 -1       726-1.15845E+04-2.87295E+05 5.53167E+05
 -1       727-1.14170E+04-3.17222E+05 6.13789E+05
 -1       728 6.53173E+03 1.17167E+04-1.96336E+04
 -1       729 1.18462E+04 3.21028E+04-5.71220E+04
 -1       730 1.50183E+04 5.97123E+04-1.09903E+05
 -1       731 1.62962E+04 9.06000E+04-1.72223E+05
 -1       732 1.60738E+04 1.21418E+05-2.39674E+05
 -1       733 1.47593E+04 1.49710E+05-3.08340E+05
 -1       734 1.27557E+04 1.73988E+05-3.74437E+05
 -1       735 1.04016E+04 1.93645E+05-4.34260E+05
 -1       736 7.92778E+03 2.08726E+05-4.84321E+05
 -1       737 5.43784E+03 2.19600E+05-5.21590E+05
 -1       738 2.91839E+03 2.26618E+05-5.43778E+05
 -1       739 2.78525E+02 2.29836E+05-5.49558E+05
 -1       740-2.59200E+03 2.28879E+05-5.38667E+05
 -1       741-5.76135E+03 2.22982E+05-5.11851E+05
 -1       742-9.20751E+03 2.11188E+05-4.70653E+05
 -1       743-1.27970E+04 1.92655E+05-4.17105E+05
 -1       744-1.62964E+04 1.66968E+05-3.53387E+05
 -1       745-1.94141E+04 1.34388E+05-2.81546E+05
 -1       746-2.18616E+04 9.59468E+04-2.03325E+05
 -1       747-2.34179E+04 5.33648E+04-1.20147E+05
 -1       748-2.39806E+04 8.79834E+03-3.32329E+04
 -1       749-2.35895E+04-3.55138E+04 5.62086E+04
 -1       750-2.24180E+04-7.76259E+04 1.46781E+05
 -1       751-2.07343E+04-1.16186E+05 2.36801E+05
 -1       752-1.88452E+04-1.50590E+05 3.24337E+05
 -1       753-1.70388E+04-1.80971E+05 4.07395E+05
 -1       754-1.55420E+04-2.08050E+05 4.84141E+05
 -1       755-1.44968E+04-2.32945E+05 5.53104E+05
 -1       756-1.39698E+04-2.56965E+05 6.13728E+05
 -1       757 6.53173E+03 1.17167E+04 1.96336E+04
 -1       758 1.18462E+04 3.21028E+04 5.71220E+04
 -1       759 1.50183E+04 5.97123E+04 1.09903E+05
 -1       760 1.62962E+04 9.06000E+04 1.72223E+05
 -1       761 1.60738E+04 1.21418E+05 2.39674E+05
 -1       762 1.47593E+04 1.49710E+05 3.08340E+05
 -1       763 1.27557E+04 1.73988E+05 3.74437E+05
 -1       764 1.04016E+04 1.93645E+05 4.34260E+05
 -1       765 7.92778E+03 2.08726E+05 4.84321E+05
 -1       766 5.43784E+03 2.19600E+05 5.21590E+05
 -1       767 2.91839E+03 2.26618E+05 5.43778E+05
 -1       768 2.78525E+02 2.29836E+05 5.49558E+05
 -1       769-2.59200E+03 2.28879E+05 5.38667E+05
 -1       770-5.76135E+03 2.22982E+05 5.11851E+05
 -1       771-9.20751E+03 2.11188E+05 4.70653E+05
 -1       772-1.27970E+04 1.92655E+05 4.17105E+05
 -1       773-1.62964E+04 1.66968E+05 3.53387E+05
 -1       774-1.94141E+04 1.34388E+05 2.81546E+05
 -1       775-2.18616E+04 9.59468E+04 2.03325E+05
 -1       776-2.34179E+04 5.33648E+04 1.20147E+05
 -1       777-2.39806E+04 8.79834E+03 3.32329E+04
 -1       778-2.35895E+04-3.55138E+04-5.62086E+04
 -1       779-2.24180E+04-7.76259E+04-1.46781E+05
 -1       780-2.07343E+04-1.16186E+05-2.36801E+05
 -1       781-1.88452E+04-1.50590E+05-3.24337E+05
 -1       782-1.70388E+04-1.80971E+05-4.07395E+05
 -1       783-1.55420E+04-2.08050E+05-4.84141E+05
 -1       784-1.44968E+04-2.32945E+05-5.53104E+05
 -1       785-1.39698E+04-2.56965E+05-6.13728E+05
 -1       786 5.30469E+03 1.36544E+04 1.95582E+04
 -1       787 9.76357E+03 3.77310E+04 5.70745E+04
 -1       788 1.23921E+04 7.05328E+04 1.09888E+05
 -1       789 1.33461E+04 1.07545E+05 1.72235E+05
 -1       790 1.29831E+04 1.44988E+05 2.39710E+05
 -1       791 1.16998E+04 1.80023E+05 3.08393E+05
 -1       792 9.89631E+03 2.10790E+05 3.74502E+05
 -1       793 7.90545E+03 2.36317E+05 4.34333E+05
 -1       794 5.94348E+03 2.56309E+05 4.84398E+05
 -1       795 4.08687E+03 2.70839E+05 5.21671E+05
 -1       796 2.28331E+03 2.80034E+05 5.43862E+05
 -1       797 3.95258E+02 2.83820E+05 5.49644E+05
 -1       798-1.73528E+03 2.81797E+05 5.38756E+05
 -1       799-4.21802E+03 2.73270E+05 5.11942E+05
 -1       800-7.06036E+03 2.57435E+05 4.70744E+05
 -1       801-1.01431E+04 2.33645E+05 4.17191E+05
 -1       802-1.32324E+04 2.01700E+05 3.53465E+05
 -1       803-1.60260E+04 1.62060E+05 2.81610E+05
 -1       804-1.82204E+04 1.15930E+05 2.03371E+05
 -1       805-1.95819E+04 6.51695E+04 1.20173E+05
 -1       806-2.00030E+04 1.20572E+04 3.32363E+04
 -1       807-1.95278E+04-4.10477E+04-5.62256E+04
 -1       808-1.83414E+04-9.20612E+04-1.46816E+05
 -1       809-1.67249E+04-1.39466E+05-2.36849E+05
 -1       810-1.49930E+04-1.82470E+05-3.24393E+05
 -1       811-1.34313E+04-2.21011E+05-4.07456E+05
 -1       812-1.22554E+04-2.55631E+05-4.84204E+05
 -1       813-1.15845E+04-2.87295E+05-5.53167E+05
 -1       814-1.14170E+04-3.17222E+05-6.13789E+05
 -1       815-5.30469E+03 1.36544E+04 1.95582E+04
 -1       816-9.76357E+03 3.77310E+04 5.70745E+04
 -1       817-1.23921E+04 7.05328E+04 1.09888E+05
 -1       818-1.33461E+04 1.07545E+05 1.72235E+05
 -1       819-1.29831E+04 1.44988E+05 2.39710E+05
 -1       820-1.16998E+04 1.80023E+05 3.08393E+05
 -1       821-9.89631E+03 2.10790E+05 3.74502E+05
 -1       822-7.90545E+03 2.36317E+05 4.34333E+05
 -1       823-5.94348E+03 2.56309E+05 4.84398E+05
 -1       824-4.08687E+03 2.70839E+05 5.21671E+05
 -1       825-2.28331E+03 2.80034E+05 5.43862E+05
 -1       826-3.95258E+02 2.83820E+05 5.49644E+05
 -1       827 1.73528E+03 2.81797E+05 5.38756E+05
 -1       828 4.21802E+03 2.73270E+05 5.11942E+05
 -1       829 7.06036E+03 2.57435E+05 4.70744E+05
 -1       830 1.01431E+04 2.33645E+05 4.17191E+05
 -1       831 1.32324E+04 2.01700E+05 3.53465E+05
 -1       832 1.60260E+04 1.62060E+05 2.81610E+05
 -1       833 1.82204E+04 1.15930E+05 2.03371E+05
 -1       834 1.95819E+04 6.51695E+04 1.20173E+05
 -1       835 2.00030E+04 1.20572E+04 3.32363E+04
 -1       836 1.95278E+04-4.10477E+04-5.62256E+04
 -1       837 1.83414E+04-9.20612E+04-1.46816E+05
 -1       838 1.67249E+04-1.39466E+05-2.36849E+05
 -1       839 1.49930E+04-1.82470E+05-3.24393E+05
 -1       840 1.34313E+04-2.21011E+05-4.07456E+05
 -1       841 1.22554E+04-2.55631E+05-4.84204E+05
 -1       842 1.15845E+04-2.87295E+05-5.53167E+05
 -1       843 1.14170E+04-3.17222E+05-6.13789E+05
 -1       844-6.53173E+03 1.17167E+04 1.96336E+04
 -1       845-1.18462E+04 3.21028E+04 5.71220E+04
 -1       846-1.50183E+04 5.97123E+04 1.09903E+05
 -1       847-1.62962E+04 9.06000E+04 1.72223E+05
 -1       848-1.60738E+04 1.21418E+05 2.39674E+05
 -1       849-1.47593E+04 1.49710E+05 3.08340E+05
 -1       850-1.27557E+04 1.73988E+05 3.74437E+05
 -1       851-1.04016E+04 1.93645E+05 4.34260E+05
 -1       852-7.92778E+03 2.08726E+05 4.84321E+05
 -1       853-5.43784E+03 2.19600E+05 5.21590E+05
 -1       854-2.91839E+03 2.26618E+05 5.43778E+05
 -1       855-2.78525E+02 2.29836E+05 5.49558E+05
 -1       856 2.59200E+03 2.28879E+05 5.38667E+05
 -1       857 5.76135E+03 2.22982E+05 5.11851E+05
 -1       858 9.20751E+03 2.11188E+05 4.70653E+05
 -1       859 1.27970E+04 1.92655E+05 4.17105E+05
 -1       860 1.62964E+04 1.66968E+05 3.53387E+05
 -1       861 1.94141E+04 1.34388E+05 2.81546E+05
 -1       862 2.18616E+04 9.59468E+04 2.03325E+05
 -1       863 2.34179E+04 5.33648E+04 1.20147E+05
 -1       864 2.39806E+04 8.79834E+03 3.32329E+04
 -1       865 2.35895E+04-3.55138E+04-5.62086E+04
 -1       866 2.24180E+04-7.76259E+04-1.46781E+05
 -1       867 2.07343E+04-1.16186E+05-2.36801E+05
 -1       868 1.88452E+04-1.50590E+05-3.24337E+05
 -1       869 1.70388E+04-1.80971E+05-4.07395E+05
 -1       870 1.55420E+04-2.08050E+05-4.84141E+05
 -1       871 1.44968E+04-2.32945E+05-5.53104E+05
 -1       872 1.39698E+04-2.56965E+05-6.13728E+05
 -1       873 1.14170E+04-3.17222E+05 6.13789E+05
 -1       874 1.15845E+04-2.87295E+05 5.53167E+05
 -1       875 1.22554E+04-2.55631E+05 4.84204E+05
 -1       876 1.34313E+04-2.21011E+05 4.07456E+05
 -1       877 1.49930E+04-1.82470E+05 3.24393E+05
 -1       878 1.67249E+04-1.39466E+05 2.36849E+05
 -1       879 1.83414E+04-9.20612E+04 1.46816E+05
 -1       880 1.95278E+04-4.10477E+04 5.62256E+04
 -1       881 2.00030E+04 1.20572E+04-3.32363E+04
 -1       882 1.95819E+04 6.51695E+04-1.20173E+05
 -1       883 1.82204E+04 1.15930E+05-2.03371E+05
 -1       884 1.60260E+04 1.62060E+05-2.81610E+05
 -1       885 1.32324E+04 2.01700E+05-3.53465E+05
 -1       886 1.01431E+04 2.33645E+05-4.17191E+05
 -1       887 7.06036E+03 2.57435E+05-4.70744E+05
 -1       888 4.21802E+03 2.73270E+05-5.11942E+05
 -1       889 1.73528E+03 2.81797E+05-5.38756E+05
 -1       890-3.95258E+02 2.83820E+05-5.49644E+05
 -1       891-2.28331E+03 2.80034E+05-5.43862E+05
 -1       892-4.08687E+03 2.70839E+05-5.21671E+05
 -1       893-5.94348E+03 2.56309E+05-4.84398E+05
 -1       894-7.90545E+03 2.36317E+05-4.34333E+05
 -1       895-9.89631E+03 2.10790E+05-3.74502E+05
 -1       896-1.16998E+04 1.80023E+05-3.08393E+05
 -1       897-1.29831E+04 1.44988E+05-2.39710E+05
 -1       898-1.33461E+04 1.07545E+05-1.72235E+05
 -1       899-1.23921E+04 7.05328E+04-1.09888E+05
 -1       900-9.76357E+03 3.77310E+04-5.70745E+04
 -1       901-5.30469E+03 1.36544E+04-1.95582E+04
 -1       902-6.53173E+03 1.17167E+04-1.96336E+04
 -1       903-1.18462E+04 3.21028E+04-5.71220E+04
 -1       904-1.50183E+04 5.97123E+04-1.09903E+05
 -1       905-1.62962E+04 9.06000E+04-1.72223E+05
 -1       906-1.60738E+04 1.21418E+05-2.39674E+05
 -1       907-1.47593E+04 1.49710E+05-3.08340E+05
 -1       908-1.27557E+04 1.73988E+05-3.74437E+05
 -1       909-1.04016E+04 1.93645E+05-4.34260E+05
 -1       910-7.92778E+03 2.08726E+05-4.84321E+05
 -1       911-5.43784E+03 2.19600E+05-5.21590E+05
 -1       912-2.91839E+03 2.26618E+05-5.43778E+05
 -1       913-2.78525E+02 2.29836E+05-5.49558E+05
 -1       914 2.59200E+03 2.28879E+05-5.38667E+05
 -1       915 5.76135E+03 2.22982E+05-5.11851E+05
 -1       916 9.20751E+03 2.11188E+05-4.70653E+05
 -1       917 1.27970E+04 1.92655E+05-4.17105E+05
 -1       918 1.62964E+04 1.66968E+05-3.53387E+05
 -1       919 1.94141E+04 1.34388E+05-2.81546E+05
 -1       920 2.18616E+04 9.59468E+04-2.03325E+05
 -1       921 2.34179E+04 5.33648E+04-1.20147E+05
 -1       922 2.39806E+04 8.79834E+03-3.32329E+04
 -1       923 2.35895E+04-3.55138E+04 5.62086E+04
 -1       924 2.24180E+04-7.76259E+04 1.46781E+05
 -1       925 2.07343E+04-1.16186E+05 2.36801E+05
 -1       926 1.88452E+04-1.50590E+05 3.24337E+05
 -1       927 1.70388E+04-1.80971E+05 4.07395E+05
 -1       928 1.55420E+04-2.08050E+05 4.84141E+05
 -1       929 1.44968E+04-2.32945E+05 5.53104E+05
 -1       930 1.39698E+04-2.56965E+05 6.13728E+05
 -3
    1PSTEP                        60           1           1          
    1PGM                1.000000E+00                                  
    1PGK                2.540482E+07                                  
    1PHID                         -1                                  
    1PSUBC                         0                                  
    1PMODE                        15                                  
  100CL  115 802.1917462         930                     2   15MODAL      1
 -4  ERROR       1    1
 -5  STR(%)      1    1    0    0
 -1         1 5.80957E+01
 -1         2 5.80957E+01
 -1         3 8.32678E+01
 -1         4 8.32678E+01
 -1         5 5.80957E+01
 -1         6 5.80957E+01
 -1         7 8.32678E+01
 -1         8 8.32678E+01
 -1         9 5.80957E+01
 -1        10 8.32678E+01
 -1        11 4.83916E+01
 -1        12 4.83916E+01
 -1        13 6.76650E+01
 -1        14 6.76650E+01
 -1        15 5.80957E+01
 -1        16 8.32678E+01
 -1        17 4.83916E+01
 -1        18 4.83916E+01
 -1        19 6.76650E+01
 -1        20 6.76650E+01
 -1        21 4.83916E+01
 -1        22 4.83916E+01
 -1        23 6.76650E+01
 -1        24 6.76650E+01
 -1        25 5.80957E+01
 -1        26 8.32678E+01
 -1        27 5.80957E+01
 -1        28 4.83916E+01
 -1        29 4.83916E+01
 -1        30 8.32678E+01
 -1        31 6.76650E+01
 -1        32 6.76650E+01
 -1        33 5.80957E+01
 -1        34 5.17492E+01
 -1        35 5.80773E+01
 -1        36 7.00332E+01
 -1        37 7.67160E+01
 -1        38 8.08879E+01
 -1        39 8.24604E+01
 -1        40 8.28979E+01
 -1        41 8.28979E+01
 -1        42 8.28801E+01
 -1        43 8.26911E+01
 -1        44 8.24571E+01
 -1        45 8.26980E+01
 -1        46 8.29689E+01
 -1        47 8.30662E+01
 -1        48 8.30662E+01
 -1        49 8.27901E+01
 -1        50 8.14387E+01
 -1        51 7.61628E+01
 -1        52 6.12822E+01
 -1        53 6.65846E+01
 -1        54 6.65846E+01
 -1        55 6.75107E+01
 -1        56 7.64547E+01
 -1        57 8.00383E+01
 -1        58 8.14693E+01
 -1        59 8.21107E+01
 -1        60 8.25269E+01
 -1        61 8.32678E+01
 -1        62 5.80957E+01
 -1        63 5.17492E+01
 -1        64 5.80773E+01
 -1        65 7.00332E+01
 -1        66 7.67160E+01
 -1        67 8.08879E+01
 -1        68 8.24604E+01
 -1        69 8.28979E+01
 -1        70 8.28979E+01
 -1        71 8.28801E+01
 -1        72 8.26911E+01
 -1        73 8.24571E+01
 -1        74 8.26980E+01
 -1        75 8.29689E+01
 -1        76 8.30662E+01
 -1        77 8.30662E+01
 -1        78 8.27901E+01
 -1        79 8.14387E+01
 -1        80 7.61628E+01
 -1        81 6.12822E+01
 -1        82 6.65846E+01
 -1        83 6.65846E+01
 -1        84 6.75107E+01
 -1        85 7.64547E+01
 -1        86 8.00383E+01
 -1        87 8.14693E+01
 -1        88 8.21107E+01
 -1        89 8.25269E+01
 -1        90 8.32678E+01
 -1        91 5.20668E+01
 -1        92 3.32826E+01
 -1        93 5.20668E+01
 -1        94 5.20668E+01
 -1        95 3.32826E+01
 -1        96 5.20668E+01
 -1        97 5.80957E+01
 -1        98 5.17492E+01
 -1        99 5.80773E+01
 -1       100 7.00332E+01
 -1       101 7.67160E+01
 -1       102 8.08879E+01
 -1       103 8.24604E+01
 -1       104 8.28979E+01
 -1       105 8.28979E+01
 -1       106 8.28801E+01
 -1       107 8.26911E+01
 -1       108 8.24571E+01
 -1       109 8.26980E+01
 -1       110 8.29689E+01
 -1       111 8.30662E+01
 -1       112 8.30662E+01
 -1       113 8.27901E+01
 -1       114 8.14387E+01
 -1       115 7.61628E+01
 -1       116 6.12822E+01
 -1       117 6.65846E+01
 -1       118 6.65846E+01
 -1       119 6.75107E+01
 -1       120 7.64547E+01
 -1       121 8.00383E+01
 -1       122 8.14693E+01
 -1       123 8.21107E+01
 -1       124 8.25269E+01
 -1       125 8.32678E+01
 -1       126 4.17557E+01
 -1       127 3.18738E+01
 -1       128 4.17557E+01
 -1       129 5.80957E+01
 -1       130 5.17492E+01
 -1       131 5.80773E+01
 -1       132 7.00332E+01
 -1       133 7.67160E+01
 -1       134 8.08879E+01
 -1       135 8.24604E+01
 -1       136 8.28979E+01
 -1       137 8.28979E+01
 -1       138 8.28801E+01
 -1       139 8.26911E+01
 -1       140 8.24571E+01
 -1       141 8.26980E+01
 -1       142 8.29689E+01
 -1       143 8.30662E+01
 -1       144 8.30662E+01
 -1       145 8.27901E+01
 -1       146 8.14387E+01
 -1       147 7.61628E+01
 -1       148 6.12822E+01
 -1       149 6.65846E+01
 -1       150 6.65846E+01
 -1       151 6.75107E+01
 -1       152 7.64547E+01
 -1       153 8.00383E+01
 -1       154 8.14693E+01
 -1       155 8.21107E+01
 -1       156 8.25269E+01
 -1       157 8.32678E+01
 -1       158 4.17557E+01
 -1       159 3.18738E+01
 -1       160 4.17557E+01
 -1       161 5.80957E+01
 -1       162 4.92961E+01
 -1       163 5.80773E+01
 -1       164 7.00332E+01
 -1       165 7.67160E+01
 -1       166 8.08879E+01
 -1       167 8.24604E+01
 -1       168 8.28979E+01
 -1       169 8.28979E+01
 -1       170 8.28801E+01
 -1       171 8.26911E+01
 -1       172 8.24571E+01
 -1       173 8.26980E+01
 -1       174 8.29689E+01
 -1       175 8.30662E+01
 -1       176 8.30662E+01
 -1       177 8.27901E+01
 -1       178 8.14387E+01
 -1       179 7.61628E+01
 -1       180 6.12822E+01
 -1       181 6.65846E+01
 -1       182 6.65846E+01
 -1       183 6.75107E+01
 -1       184 7.64547E+01
 -1       185 8.00383E+01
 -1       186 8.14693E+01
 -1       187 8.21107E+01
 -1       188 8.25269E+01
 -1       189 8.32678E+01
 -1       190 5.80957E+01
 -1       191 5.80957E+01
 -1       192 8.32678E+01
 -1       193 4.83916E+01
 -1       194 3.31860E+01
 -1       195 2.80653E+01
 -1       196 4.05495E+01
 -1       197 4.05495E+01
 -1       198 3.09231E+01
 -1       199 2.86507E+01
 -1       200 3.32643E+01
 -1       201 3.48282E+01
 -1       202 3.69904E+01
 -1       203 3.69904E+01
 -1       204 3.43072E+01
 -1       205 3.39496E+01
 -1       206 3.19636E+01
 -1       207 2.69079E+01
 -1       208 2.67968E+01
 -1       209 2.48679E+01
 -1       210 2.31827E+01
 -1       211 2.11585E+01
 -1       212 1.73712E+01
 -1       213 1.09313E+01
 -1       214 1.23103E+01
 -1       215 1.36443E+01
 -1       216 1.57393E+01
 -1       217 2.13096E+01
 -1       218 3.04326E+01
 -1       219 4.34678E+01
 -1       220 5.61712E+01
 -1       221 6.76650E+01
 -1       222 4.83916E+01
 -1       223 3.31860E+01
 -1       224 2.80653E+01
 -1       225 4.05495E+01
 -1       226 4.05495E+01
 -1       227 3.09231E+01
 -1       228 2.86507E+01
 -1       229 3.32643E+01
 -1       230 3.48282E+01
 -1       231 3.69904E+01
 -1       232 3.69904E+01
 -1       233 3.43072E+01
 -1       234 3.39496E+01
 -1       235 3.19636E+01
 -1       236 2.69079E+01
 -1       237 2.67968E+01
 -1       238 2.48679E+01
 -1       239 2.31827E+01
 -1       240 2.11585E+01
 -1       241 1.73712E+01
 -1       242 1.09313E+01
 -1       243 1.23103E+01
 -1       244 1.36443E+01
 -1       245 1.57393E+01
 -1       246 2.13096E+01
 -1       247 3.04326E+01
 -1       248 4.34678E+01
 -1       249 5.61712E+01
 -1       250 6.76650E+01
 -1       251 8.32678E+01
 -1       252 8.32678E+01
 -1       253 8.25269E+01
 -1       254 8.21107E+01
 -1       255 8.14693E+01
 -1       256 8.00383E+01
 -1       257 7.64547E+01
 -1       258 6.75107E+01
 -1       259 6.65846E+01
 -1       260 6.65846E+01
 -1       261 6.12822E+01
 -1       262 7.61628E+01
 -1       263 8.14387E+01
 -1       264 8.27901E+01
 -1       265 8.30662E+01
 -1       266 8.30662E+01
 -1       267 8.29689E+01
 -1       268 8.26980E+01
 -1       269 8.24571E+01
 -1       270 8.26911E+01
 -1       271 8.28801E+01
 -1       272 8.28979E+01
 -1       273 8.28979E+01
 -1       274 8.24604E+01
 -1       275 8.08879E+01
 -1       276 7.67160E+01
 -1       277 7.00332E+01
 -1       278 5.80773E+01
 -1       279 4.92961E+01
 -1       280 5.80957E+01
 -1       281 5.80957E+01
 -1       282 5.80957E+01
 -1       283 4.83916E+01
 -1       284 3.31860E+01
 -1       285 2.80653E+01
 -1       286 4.05495E+01
 -1       287 4.05495E+01
 -1       288 3.09231E+01
 -1       289 2.86507E+01
 -1       290 3.32643E+01
 -1       291 3.48282E+01
 -1       292 3.69904E+01
 -1       293 3.69904E+01
 -1       294 3.43072E+01
 -1       295 3.39496E+01
 -1       296 3.19636E+01
 -1       297 2.69079E+01
 -1       298 2.67968E+01
 -1       299 2.48679E+01
 -1       300 2.31827E+01
 -1       301 2.11585E+01
 -1       302 1.73712E+01
 -1       303 1.09313E+01
 -1       304 1.23103E+01
 -1       305 1.36443E+01
 -1       306 1.57393E+01
 -1       307 2.13096E+01
 -1       308 3.04326E+01
 -1       309 4.34678E+01
 -1       310 5.61712E+01
 -1       311 6.76650E+01
 -1       312 8.32678E+01
 -1       313 4.83916E+01
 -1       314 3.31860E+01
 -1       315 2.80653E+01
 -1       316 4.05495E+01
 -1       317 4.05495E+01
 -1       318 3.09231E+01
 -1       319 2.86507E+01
 -1       320 3.32643E+01
 -1       321 3.48282E+01
 -1       322 3.69904E+01
 -1       323 3.69904E+01
 -1       324 3.43072E+01
 -1       325 3.39496E+01
 -1       326 3.19636E+01
 -1       327 2.69079E+01
 -1       328 2.67968E+01
 -1       329 2.48679E+01
 -1       330 2.31827E+01
 -1       331 2.11585E+01
 -1       332 1.73712E+01
 -1       333 1.09313E+01
 -1       334 1.23103E+01
 -1       335 1.36443E+01
 -1       336 1.57393E+01
 -1       337 2.13096E+01
 -1       338 3.04326E+01
 -1       339 4.34678E+01
 -1       340 5.61712E+01
 -1       341 6.76650E+01
 -1       342 8.32678E+01
 -1       343 4.83916E+01
 -1       344 3.31860E+01
 -1       345 2.80653E+01
 -1       346 4.05495E+01
 -1       347 4.05495E+01
 -1       348 3.09231E+01
 -1       349 2.86507E+01
 -1       350 3.32643E+01
 -1       351 3.48282E+01
 -1       352 3.69904E+01
 -1       353 3.69904E+01
 -1       354 3.43072E+01
 -1       355 3.39496E+01
 -1       356 3.19636E+01
 -1       357 2.69079E+01
 -1       358 2.67968E+01
 -1       359 2.48679E+01
 -1       360 2.31827E+01
 -1       361 2.11585E+01
 -1       362 1.73712E+01
 -1       363 1.09313E+01
 -1       364 1.23103E+01
 -1       365 1.36443E+01
 -1       366 1.57393E+01
 -1       367 2.13096E+01
 -1       368 3.04326E+01
 -1       369 4.34678E+01
 -1       370 5.61712E+01
 -1       371 6.76650E+01
 -1       372 4.83916E+01
 -1       373 3.31860E+01
 -1       374 2.80653E+01
 -1       375 4.05495E+01
 -1       376 4.05495E+01
 -1       377 3.09231E+01
 -1       378 2.86507E+01
 -1       379 3.32643E+01
 -1       380 3.48282E+01
 -1       381 3.69904E+01
 -1       382 3.69904E+01
 -1       383 3.43072E+01
 -1       384 3.39496E+01
 -1       385 3.19636E+01
 -1       386 2.69079E+01
 -1       387 2.67968E+01
 -1       388 2.48679E+01
 -1       389 2.31827E+01
 -1       390 2.11585E+01
 -1       391 1.73712E+01
 -1       392 1.09313E+01
 -1       393 1.23103E+01
 -1       394 1.36443E+01
 -1       395 1.57393E+01
 -1       396 2.13096E+01
 -1       397 3.04326E+01
 -1       398 4.34678E+01
 -1       399 5.61712E+01
 -1       400 6.76650E+01
 -1       401 5.80957E+01
 -1       402 5.80957E+01
 -1       403 8.32678E+01
 -1       404 5.80957E+01
 -1       405 4.92961E+01
 -1       406 5.80773E+01
 -1       407 7.00332E+01
 -1       408 7.67160E+01
 -1       409 8.08879E+01
 -1       410 8.24604E+01
 -1       411 8.28979E+01
 -1       412 8.28979E+01
 -1       413 8.28801E+01
 -1       414 8.26911E+01
 -1       415 8.24571E+01
 -1       416 8.26980E+01
 -1       417 8.29689E+01
 -1       418 8.30662E+01
 -1       419 8.30662E+01
 -1       420 8.27901E+01
 -1       421 8.14387E+01
 -1       422 7.61628E+01
 -1       423 6.12822E+01
 -1       424 6.65846E+01
 -1       425 6.65846E+01
 -1       426 6.75107E+01
 -1       427 7.64547E+01
 -1       428 8.00383E+01
 -1       429 8.14693E+01
 -1       430 8.21107E+01
 -1       431 8.25269E+01
 -1       432 8.32678E+01
 -1       433 8.32678E+01
 -1       434 5.80957E+01
 -1       435 5.80957E+01
 -1       436 8.32678E+01
 -1       437 8.25269E+01
 -1       438 8.21107E+01
 -1       439 8.14693E+01
 -1       440 8.00383E+01
 -1       441 7.64547E+01
 -1       442 6.75107E+01
 -1       443 6.65846E+01
 -1       444 6.65846E+01
 -1       445 6.12822E+01
 -1       446 7.61628E+01
 -1       447 8.14387E+01
 -1       448 8.27901E+01
 -1       449 8.30662E+01
 -1       450 8.30662E+01
 -1       451 8.29689E+01
 -1       452 8.26980E+01
 -1       453 8.24571E+01
 -1       454 8.26911E+01
 -1       455 8.28801E+01
 -1       456 8.28979E+01
 -1       457 8.28979E+01
 -1       458 8.24604E+01
 -1       459 8.08879E+01
 -1       460 7.67160E+01
 -1       461 7.00332E+01
 -1       462 5.80773E+01
 -1       463 4.92961E+01
 -1       464 5.80957E+01
 -1       465 8.32678E+01
 -1       466 4.83916E+01
 -1       467 3.31860E+01
 -1       468 2.80653E+01
 -1       469 4.05495E+01
 -1       470 4.05495E+01
 -1       471 3.09231E+01
 -1       472 2.86507E+01
 -1       473 3.32643E+01
 -1       474 3.48282E+01
 -1       475 3.69904E+01
 -1       476 3.69904E+01
 -1       477 3.43072E+01
 -1       478 3.39496E+01
 -1       479 3.19636E+01
 -1       480 2.69079E+01
 -1       481 2.67968E+01
 -1       482 2.48679E+01
 -1       483 2.31827E+01
 -1       484 2.11585E+01
 -1       485 1.73712E+01
 -1       486 1.09313E+01
 -1       487 1.23103E+01
 -1       488 1.36443E+01
 -1       489 1.57393E+01
 -1       490 2.13096E+01
 -1       491 3.04326E+01
 -1       492 4.34678E+01
 -1       493 5.61712E+01
 -1       494 6.76650E+01
 -1       495 4.83916E+01
 -1       496 3.31860E+01
 -1       497 2.80653E+01
 -1       498 4.05495E+01
 -1       499 4.05495E+01
 -1       500 3.09231E+01
 -1       501 2.86507E+01
 -1       502 3.32643E+01
 -1       503 3.48282E+01
 -1       504 3.69904E+01
 -1       505 3.69904E+01
 -1       506 3.43072E+01
 -1       507 3.39496E+01
 -1       508 3.19636E+01
 -1       509 2.69079E+01
 -1       510 2.67968E+01
 -1       511 2.48679E+01
 -1       512 2.31827E+01
 -1       513 2.11585E+01
 -1       514 1.73712E+01
 -1       515 1.09313E+01
 -1       516 1.23103E+01
 -1       517 1.36443E+01
 -1       518 1.57393E+01
 -1       519 2.13096E+01
 -1       520 3.04326E+01
 -1       521 4.34678E+01
 -1       522 5.61712E+01
 -1       523 6.76650E+01
 -1       524 8.32678E+01
 -1       525 5.20668E+01
 -1       526 5.17492E+01
 -1       527 4.86413E+01
 -1       528 4.61004E+01
 -1       529 4.44914E+01
 -1       530 4.34099E+01
 -1       531 4.26282E+01
 -1       532 4.20156E+01
 -1       533 4.14828E+01
 -1       534 4.09637E+01
 -1       535 4.04105E+01
 -1       536 3.99185E+01
 -1       537 4.04317E+01
 -1       538 4.09327E+01
 -1       539 4.14990E+01
 -1       540 4.22458E+01
 -1       541 4.33613E+01
 -1       542 4.52102E+01
 -1       543 4.87105E+01
 -1       544 5.67716E+01
 -1       545 5.67716E+01
 -1       546 5.35214E+01
 -1       547 5.35214E+01
 -1       548 4.74322E+01
 -1       549 4.48933E+01
 -1       550 4.34685E+01
 -1       551 4.24767E+01
 -1       552 4.17266E+01
 -1       553 4.17557E+01
 -1       554 3.72364E+01
 -1       555 4.19901E+01
 -1       556 4.19901E+01
 -1       557 3.90449E+01
 -1       558 3.68320E+01
 -1       559 3.52493E+01
 -1       560 3.40527E+01
 -1       561 3.30751E+01
 -1       562 3.22104E+01
 -1       563 3.13912E+01
 -1       564 3.05748E+01
 -1       565 2.99938E+01
 -1       566 3.07691E+01
 -1       567 3.15432E+01
 -1       568 3.23847E+01
 -1       569 3.34060E+01
 -1       570 3.48084E+01
 -1       571 3.70047E+01
 -1       572 4.10632E+01
 -1       573 5.09607E+01
 -1       574 5.33974E+01
 -1       575 5.33974E+01
 -1       576 4.81036E+01
 -1       577 4.01498E+01
 -1       578 3.67878E+01
 -1       579 3.48491E+01
 -1       580 3.35081E+01
 -1       581 3.25352E+01
 -1       582 3.19967E+01
 -1       583 5.20668E+01
 -1       584 5.17492E+01
 -1       585 4.86413E+01
 -1       586 4.61004E+01
 -1       587 4.44914E+01
 -1       588 4.34099E+01
 -1       589 4.26282E+01
 -1       590 4.20156E+01
 -1       591 4.14828E+01
 -1       592 4.09637E+01
 -1       593 4.04105E+01
 -1       594 3.99185E+01
 -1       595 4.04317E+01
 -1       596 4.09327E+01
 -1       597 4.14990E+01
 -1       598 4.22458E+01
 -1       599 4.33613E+01
 -1       600 4.52102E+01
 -1       601 4.87105E+01
 -1       602 5.67716E+01
 -1       603 5.67716E+01
 -1       604 5.35214E+01
 -1       605 5.35214E+01
 -1       606 4.74322E+01
 -1       607 4.48933E+01
 -1       608 4.34685E+01
 -1       609 4.24767E+01
 -1       610 4.17266E+01
 -1       611 4.17557E+01
 -1       612 5.20668E+01
 -1       613 5.17492E+01
 -1       614 4.86413E+01
 -1       615 4.61004E+01
 -1       616 4.44914E+01
 -1       617 4.34099E+01
 -1       618 4.26282E+01
 -1       619 4.20156E+01
 -1       620 4.14828E+01
 -1       621 4.09637E+01
 -1       622 4.04105E+01
 -1       623 3.99185E+01
 -1       624 4.04317E+01
 -1       625 4.09327E+01
 -1       626 4.14990E+01
 -1       627 4.22458E+01
 -1       628 4.33613E+01
 -1       629 4.52102E+01
 -1       630 4.87105E+01
 -1       631 5.67716E+01
 -1       632 5.67716E+01
 -1       633 5.35214E+01
 -1       634 5.35214E+01
 -1       635 4.74322E+01
 -1       636 4.48933E+01
 -1       637 4.34685E+01
 -1       638 4.24767E+01
 -1       639 4.17266E+01
 -1       640 4.17557E+01
 -1       641 3.72364E+01
 -1       642 4.19901E+01
 -1       643 4.19901E+01
 -1       644 3.90449E+01
 -1       645 3.68320E+01
 -1       646 3.52493E+01
 -1       647 3.40527E+01
 -1       648 3.30751E+01
 -1       649 3.22104E+01
 -1       650 3.13912E+01
 -1       651 3.05748E+01
 -1       652 2.99938E+01
 -1       653 3.07691E+01
 -1       654 3.15432E+01
 -1       655 3.23847E+01
 -1       656 3.34060E+01
 -1       657 3.48084E+01
 -1       658 3.70047E+01
 -1       659 4.10632E+01
 -1       660 5.09607E+01
 -1       661 5.33974E+01
 -1       662 5.33974E+01
 -1       663 4.81036E+01
 -1       664 4.01498E+01
 -1       665 3.67878E+01
 -1       666 3.48491E+01
 -1       667 3.35081E+01
 -1       668 3.25352E+01
 -1       669 3.19967E+01
 -1       670 5.20668E+01
 -1       671 5.17492E+01
 -1       672 4.86413E+01
 -1       673 4.61004E+01
 -1       674 4.44914E+01
 -1       675 4.34099E+01
 -1       676 4.26282E+01
 -1       677 4.20156E+01
 -1       678 4.14828E+01
 -1       679 4.09637E+01
 -1       680 4.04105E+01
 -1       681 3.99185E+01
 -1       682 4.04317E+01
 -1       683 4.09327E+01
 -1       684 4.14990E+01
 -1       685 4.22458E+01
 -1       686 4.33613E+01
 -1       687 4.52102E+01
 -1       688 4.87105E+01
 -1       689 5.67716E+01
 -1       690 5.67716E+01
 -1       691 5.35214E+01
 -1       692 5.35214E+01
 -1       693 4.74322E+01
 -1       694 4.48933E+01
 -1       695 4.34685E+01
 -1       696 4.24767E+01
 -1       697 4.17266E+01
 -1       698 4.17557E+01
 -1       699 5.80957E+01
 -1       700 4.92961E+01
 -1       701 5.80773E+01
 -1       702 7.00332E+01
 -1       703 7.67160E+01
 -1       704 8.08879E+01
 -1       705 8.24604E+01
 -1       706 8.28979E+01
 -1       707 8.28979E+01
 -1       708 8.28801E+01
 -1       709 8.26911E+01
 -1       710 8.24571E+01
 -1       711 8.26980E+01
 -1       712 8.29689E+01
 -1       713 8.30662E+01
 -1       714 8.30662E+01
 -1       715 8.27901E+01
 -1       716 8.14387E+01
 -1       717 7.61628E+01
 -1       718 6.12822E+01
 -1       719 5.23875E+01
 -1       720 4.85093E+01
 -1       721 6.75107E+01
 -1       722 7.64547E+01
 -1       723 8.00383E+01
 -1       724 8.14693E+01
 -1       725 8.21107E+01
 -1       726 8.25269E+01
 -1       727 8.32678E+01
 -1       728 5.80957E+01
 -1       729 4.92961E+01
 -1       730 5.80773E+01
 -1       731 7.00332E+01
 -1       732 7.67160E+01
 -1       733 8.08879E+01
 -1       734 8.24604E+01
 -1       735 8.28979E+01
 -1       736 8.28979E+01
 -1       737 8.28801E+01
 -1       738 8.26911E+01
 -1       739 8.24571E+01
 -1       740 8.26980E+01
 -1       741 8.29689E+01
 -1       742 8.30662E+01
 -1       743 8.30662E+01
 -1       744 8.27901E+01
 -1       745 8.14387E+01
 -1       746 7.61628E+01
 -1       747 6.12822E+01
 -1       748 5.23875E+01
 -1       749 4.85093E+01
 -1       750 6.75107E+01
 -1       751 7.64547E+01
 -1       752 8.00383E+01
 -1       753 8.14693E+01
 -1       754 8.21107E+01
 -1       755 8.25269E+01
 -1       756 8.32678E+01
 -1       757 5.80957E+01
 -1       758 4.92961E+01
 -1       759 5.80773E+01
 -1       760 7.00332E+01
 -1       761 7.67160E+01
 -1       762 8.08879E+01
 -1       763 8.24604E+01
 -1       764 8.28979E+01
 -1       765 8.28979E+01
 -1       766 8.28801E+01
 -1       767 8.26911E+01
 -1       768 8.24571E+01
 -1       769 8.26980E+01
 -1       770 8.29689E+01
 -1       771 8.30662E+01
 -1       772 8.30662E+01
 -1       773 8.27901E+01
 -1       774 8.14387E+01
 -1       775 7.61628E+01
 -1       776 6.12822E+01
 -1       777 5.23875E+01
 -1       778 4.85093E+01
 -1       779 6.75107E+01
 -1       780 7.64547E+01
 -1       781 8.00383E+01
 -1       782 8.14693E+01
 -1       783 8.21107E+01
 -1       784 8.25269E+01
 -1       785 8.32678E+01
 -1       786 5.80957E+01
 -1       787 4.92961E+01
 -1       788 5.80773E+01
 -1       789 7.00332E+01
 -1       790 7.67160E+01
 -1       791 8.08879E+01
 -1       792 8.24604E+01
 -1       793 8.28979E+01
 -1       794 8.28979E+01
 -1       795 8.28801E+01
 -1       796 8.26911E+01
 -1       797 8.24571E+01
 -1       798 8.26980E+01
 -1       799 8.29689E+01
 -1       800 8.30662E+01
 -1       801 8.30662E+01
 -1       802 8.27901E+01
 -1       803 8.14387E+01
 -1       804 7.61628E+01
 -1       805 6.12822E+01
 -1       806 5.23875E+01
 -1       807 4.85093E+01
 -1       808 6.75107E+01
 -1       809 7.64547E+01
 -1       810 8.00383E+01
 -1       811 8.14693E+01
 -1       812 8.21107E+01
 -1       813 8.25269E+01
 -1       814 8.32678E+01
 -1       815 5.80957E+01
 -1       816 4.92961E+01
 -1       817 5.80773E+01
 -1       818 7.00332E+01
 -1       819 7.67160E+01
 -1       820 8.08879E+01
 -1       821 8.24604E+01
 -1       822 8.28979E+01
 -1       823 8.28979E+01
 -1       824 8.28801E+01
 -1       825 8.26911E+01
 -1       826 8.24571E+01
 -1       827 8.26980E+01
 -1       828 8.29689E+01
 -1       829 8.30662E+01
 -1       830 8.30662E+01
 -1       831 8.27901E+01
 -1       832 8.14387E+01
 -1       833 7.61628E+01
 -1       834 6.12822E+01
 -1       835 5.23875E+01
 -1       836 4.85093E+01
 -1       837 6.75107E+01
 -1       838 7.64547E+01
 -1       839 8.00383E+01
 -1       840 8.14693E+01
 -1       841 8.21107E+01
 -1       842 8.25269E+01
 -1       843 8.32678E+01
 -1       844 5.80957E+01
 -1       845 4.92961E+01
 -1       846 5.80773E+01
 -1       847 7.00332E+01
 -1       848 7.67160E+01
 -1       849 8.08879E+01
 -1       850 8.24604E+01
 -1       851 8.28979E+01
 -1       852 8.28979E+01
 -1       853 8.28801E+01
 -1       854 8.26911E+01
 -1       855 8.24571E+01
 -1       856 8.26980E+01
 -1       857 8.29689E+01
 -1       858 8.30662E+01
 -1       859 8.30662E+01
 -1       860 8.27901E+01
 -1       861 8.14387E+01
 -1       862 7.61628E+01
 -1       863 6.12822E+01
 -1       864 5.23875E+01
 -1       865 4.85093E+01
 -1       866 6.75107E+01
 -1       867 7.64547E+01
 -1       868 8.00383E+01
 -1       869 8.14693E+01
 -1       870 8.21107E+01
 -1       871 8.25269E+01
 -1       872 8.32678E+01
 -1       873 8.32678E+01
 -1       874 8.25269E+01
 -1       875 8.21107E+01
 -1       876 8.14693E+01
 -1       877 8.00383E+01
 -1       878 7.64547E+01
 -1       879 6.75107E+01
 -1       880 4.85093E+01
 -1       881 5.23875E+01
 -1       882 6.12822E+01
 -1       883 7.61628E+01
 -1       884 8.14387E+01
 -1       885 8.27901E+01
 -1       886 8.30662E+01
 -1       887 8.30662E+01
 -1       888 8.29689E+01
 -1       889 8.26980E+01
 -1       890 8.24571E+01
 -1       891 8.26911E+01
 -1       892 8.28801E+01
 -1       893 8.28979E+01
 -1       894 8.28979E+01
 -1       895 8.24604E+01
 -1       896 8.08879E+01
 -1       897 7.67160E+01
 -1       898 7.00332E+01
 -1       899 5.80773E+01
 -1       900 4.92961E+01
 -1       901 5.80957E+01
 -1       902 5.80957E+01
 -1       903 4.92961E+01
 -1       904 5.80773E+01
 -1       905 7.00332E+01
 -1       906 7.67160E+01
 -1       907 8.08879E+01
 -1       908 8.24604E+01
 -1       909 8.28979E+01
 -1       910 8.28979E+01
 -1       911 8.28801E+01
 -1       912 8.26911E+01
 -1       913 8.24571E+01
 -1       914 8.26980E+01
 -1       915 8.29689E+01
 -1       916 8.30662E+01
 -1       917 8.30662E+01
 -1       918 8.27901E+01
 -1       919 8.14387E+01
 -1       920 7.61628E+01
 -1       921 6.12822E+01
 -1       922 5.23875E+01
 -1       923 4.85093E+01
 -1       924 6.75107E+01
 -1       925 7.64547E+01
 -1       926 8.00383E+01
 -1       927 8.14693E+01
 -1       928 8.21107E+01
 -1       929 8.25269E+01
 -1       930 8.32678E+01
 -3
    1PSTEP                        61           1           1          
    1PGM                1.000000E+00                                  
    1PGK                2.688228E+07                                  
    1PHID                         -1                                  
    1PSUBC                         0                                  
    1PMODE                        16                                  
  100CL  116 825.1885118         930                     2   16MODAL      1
 -4  DISP        4    1
 -5  D1          1    2    1    0
 -5  D2          1    2    2    0
 -5  D3          1    2    3    0
 -5  ALL         1    2    0    0    1ALL
 -1         1 0.00000E+00 0.00000E+00 0.00000E+00
 -1         2 0.00000E+00 0.00000E+00 0.00000E+00
 -1         3-5.54481E-04-5.11059E-02 9.17421E-03
 -1         4 5.54481E-04-5.11059E-02-9.17421E-03
 -1         5 0.00000E+00 0.00000E+00 0.00000E+00
 -1         6 0.00000E+00 0.00000E+00 0.00000E+00
 -1         7-5.54481E-04-5.11059E-02-9.17421E-03
 -1         8 5.54481E-04-5.11059E-02 9.17421E-03
 -1         9 0.00000E+00 0.00000E+00 0.00000E+00
 -1        10-4.53360E-04-8.54255E-02 9.87372E-03
 -1        11 0.00000E+00 0.00000E+00 0.00000E+00
 -1        12 0.00000E+00 0.00000E+00 0.00000E+00
 -1        13-1.13141E-02-8.73465E-02 2.40794E-01
 -1        14-1.62519E-02-5.02756E-02 2.40731E-01
 -1        15 0.00000E+00 0.00000E+00 0.00000E+00
 -1        16-4.53360E-04-8.54255E-02-9.87372E-03
 -1        17 0.00000E+00 0.00000E+00 0.00000E+00
 -1        18 0.00000E+00 0.00000E+00 0.00000E+00
 -1        19-1.62519E-02-5.02756E-02-2.40731E-01
 -1        20-1.13141E-02-8.73465E-02-2.40794E-01
 -1        21 0.00000E+00 0.00000E+00 0.00000E+00
 -1        22 0.00000E+00 0.00000E+00 0.00000E+00
 -1        23 1.13141E-02-8.73465E-02-2.40794E-01
 -1        24 1.62519E-02-5.02756E-02-2.40731E-01
 -1        25 0.00000E+00 0.00000E+00 0.00000E+00
 -1        26 4.53360E-04-8.54255E-02-9.87372E-03
 -1        27 0.00000E+00 0.00000E+00 0.00000E+00
 -1        28 0.00000E+00 0.00000E+00 0.00000E+00
 -1        29 0.00000E+00 0.00000E+00 0.00000E+00
 -1        30 4.53360E-04-8.54255E-02 9.87372E-03
 -1        31 1.13141E-02-8.73465E-02 2.40794E-01
 -1        32 1.62519E-02-5.02756E-02 2.40731E-01
 -1        33 1.20168E-04-1.24077E-03-4.75174E-04
 -1        34 2.19345E-04-4.56779E-03-1.58167E-03
 -1        35 2.93417E-04-9.71900E-03-2.95209E-03
 -1        36 3.35258E-04-1.62751E-02-4.30252E-03
 -1        37 3.35882E-04-2.35401E-02-5.43217E-03
 -1        38 2.87906E-04-3.05360E-02-6.21540E-03
 -1        39 1.90920E-04-3.61293E-02-6.59243E-03
 -1        40 5.28418E-05-3.92236E-02-6.55455E-03
 -1        41-1.09678E-04-3.89893E-02-6.12751E-03
 -1        42-2.73857E-04-3.50632E-02-5.35553E-03
 -1        43-4.15116E-04-2.76587E-02-4.28955E-03
 -1        44-5.12166E-04-1.75531E-02-2.98187E-03
 -1        45-5.51465E-04-5.95063E-03-1.48734E-03
 -1        46-5.29883E-04 5.74819E-03 1.30627E-04
 -1        47-4.54882E-04 1.62126E-02 1.79279E-03
 -1        48-3.42190E-04 2.44191E-02 3.39957E-03
 -1        49-2.11643E-04 2.98025E-02 4.83261E-03
 -1        50-8.23299E-05 3.22882E-02 5.96389E-03
 -1        51 3.16356E-05 3.22055E-02 6.67158E-03
 -1        52 1.23627E-04 3.01139E-02 6.85961E-03
 -1        53 1.94703E-04 2.65974E-02 6.47629E-03
 -1        54 2.51574E-04 2.20867E-02 5.52716E-03
 -1        55 3.03063E-04 1.67601E-02 4.07850E-03
 -1        56 3.56217E-04 1.05490E-02 2.24951E-03
 -1        57 4.13392E-04 3.23696E-03 1.94077E-04
 -1        58 4.71221E-04-5.38463E-03-1.92537E-03
 -1        59 5.23402E-04-1.53728E-02-3.96948E-03
 -1        60 5.59692E-04-2.65649E-02-5.84908E-03
 -1        61 5.92927E-04-3.86381E-02-7.56020E-03
 -1        62-1.20168E-04-1.24077E-03 4.75174E-04
 -1        63-2.19345E-04-4.56779E-03 1.58167E-03
 -1        64-2.93417E-04-9.71900E-03 2.95209E-03
 -1        65-3.35258E-04-1.62751E-02 4.30252E-03
 -1        66-3.35882E-04-2.35401E-02 5.43217E-03
 -1        67-2.87906E-04-3.05360E-02 6.21540E-03
 -1        68-1.90920E-04-3.61293E-02 6.59243E-03
 -1        69-5.28418E-05-3.92236E-02 6.55455E-03
 -1        70 1.09678E-04-3.89893E-02 6.12751E-03
 -1        71 2.73857E-04-3.50632E-02 5.35553E-03
 -1        72 4.15116E-04-2.76587E-02 4.28955E-03
 -1        73 5.12166E-04-1.75531E-02 2.98187E-03
 -1        74 5.51465E-04-5.95063E-03 1.48734E-03
 -1        75 5.29883E-04 5.74819E-03-1.30627E-04
 -1        76 4.54882E-04 1.62126E-02-1.79279E-03
 -1        77 3.42190E-04 2.44191E-02-3.39957E-03
 -1        78 2.11643E-04 2.98025E-02-4.83261E-03
 -1        79 8.23299E-05 3.22882E-02-5.96389E-03
 -1        80-3.16356E-05 3.22055E-02-6.67158E-03
 -1        81-1.23627E-04 3.01139E-02-6.85961E-03
 -1        82-1.94703E-04 2.65974E-02-6.47629E-03
 -1        83-2.51574E-04 2.20867E-02-5.52716E-03
 -1        84-3.03063E-04 1.67601E-02-4.07850E-03
 -1        85-3.56217E-04 1.05490E-02-2.24951E-03
 -1        86-4.13392E-04 3.23696E-03-1.94077E-04
 -1        87-4.71221E-04-5.38463E-03 1.92537E-03
 -1        88-5.23402E-04-1.53728E-02 3.96948E-03
 -1        89-5.59692E-04-2.65649E-02 5.84908E-03
 -1        90-5.92927E-04-3.86381E-02 7.56020E-03
 -1        91 0.00000E+00 0.00000E+00 0.00000E+00
 -1        92 0.00000E+00 0.00000E+00 0.00000E+00
 -1        93 0.00000E+00 0.00000E+00 0.00000E+00
 -1        94 0.00000E+00 0.00000E+00 0.00000E+00
 -1        95 0.00000E+00 0.00000E+00 0.00000E+00
 -1        96 0.00000E+00 0.00000E+00 0.00000E+00
 -1        97-1.20168E-04-1.24077E-03-4.75174E-04
 -1        98-2.19345E-04-4.56779E-03-1.58167E-03
 -1        99-2.93417E-04-9.71900E-03-2.95209E-03
 -1       100-3.35258E-04-1.62751E-02-4.30252E-03
 -1       101-3.35882E-04-2.35401E-02-5.43217E-03
 -1       102-2.87906E-04-3.05360E-02-6.21540E-03
 -1       103-1.90920E-04-3.61293E-02-6.59243E-03
 -1       104-5.28418E-05-3.92236E-02-6.55455E-03
 -1       105 1.09678E-04-3.89893E-02-6.12751E-03
 -1       106 2.73857E-04-3.50632E-02-5.35553E-03
 -1       107 4.15116E-04-2.76587E-02-4.28955E-03
 -1       108 5.12166E-04-1.75531E-02-2.98187E-03
 -1       109 5.51465E-04-5.95063E-03-1.48734E-03
 -1       110 5.29883E-04 5.74819E-03 1.30627E-04
 -1       111 4.54882E-04 1.62126E-02 1.79279E-03
 -1       112 3.42190E-04 2.44191E-02 3.39957E-03
 -1       113 2.11643E-04 2.98025E-02 4.83261E-03
 -1       114 8.23299E-05 3.22882E-02 5.96389E-03
 -1       115-3.16356E-05 3.22055E-02 6.67158E-03
 -1       116-1.23627E-04 3.01139E-02 6.85961E-03
 -1       117-1.94703E-04 2.65974E-02 6.47629E-03
 -1       118-2.51574E-04 2.20867E-02 5.52716E-03
 -1       119-3.03063E-04 1.67601E-02 4.07850E-03
 -1       120-3.56217E-04 1.05490E-02 2.24951E-03
 -1       121-4.13392E-04 3.23696E-03 1.94077E-04
 -1       122-4.71221E-04-5.38463E-03-1.92537E-03
 -1       123-5.23402E-04-1.53728E-02-3.96948E-03
 -1       124-5.59692E-04-2.65649E-02-5.84908E-03
 -1       125-5.92927E-04-3.86381E-02-7.56020E-03
 -1       126 7.60437E-04 1.11721E-01 5.42795E-03
 -1       127 1.24803E-03 1.72514E-01 9.07607E-14
 -1       128 7.60437E-04 1.11721E-01-5.42795E-03
 -1       129 1.20168E-04-1.24077E-03 4.75174E-04
 -1       130 2.19345E-04-4.56779E-03 1.58167E-03
 -1       131 2.93417E-04-9.71900E-03 2.95209E-03
 -1       132 3.35258E-04-1.62751E-02 4.30252E-03
 -1       133 3.35882E-04-2.35401E-02 5.43217E-03
 -1       134 2.87906E-04-3.05360E-02 6.21540E-03
 -1       135 1.90920E-04-3.61293E-02 6.59243E-03
 -1       136 5.28418E-05-3.92236E-02 6.55455E-03
 -1       137-1.09678E-04-3.89893E-02 6.12751E-03
 -1       138-2.73857E-04-3.50632E-02 5.35553E-03
 -1       139-4.15116E-04-2.76587E-02 4.28955E-03
 -1       140-5.12166E-04-1.75531E-02 2.98187E-03
 -1       141-5.51465E-04-5.95063E-03 1.48734E-03
 -1       142-5.29883E-04 5.74819E-03-1.30627E-04
 -1       143-4.54882E-04 1.62126E-02-1.79279E-03
 -1       144-3.42190E-04 2.44191E-02-3.39957E-03
 -1       145-2.11643E-04 2.98025E-02-4.83261E-03
 -1       146-8.23299E-05 3.22882E-02-5.96389E-03
 -1       147 3.16356E-05 3.22055E-02-6.67158E-03
 -1       148 1.23627E-04 3.01139E-02-6.85961E-03
 -1       149 1.94703E-04 2.65974E-02-6.47629E-03
 -1       150 2.51574E-04 2.20867E-02-5.52716E-03
 -1       151 3.03063E-04 1.67601E-02-4.07850E-03
 -1       152 3.56217E-04 1.05490E-02-2.24951E-03
 -1       153 4.13392E-04 3.23696E-03-1.94077E-04
 -1       154 4.71221E-04-5.38463E-03 1.92537E-03
 -1       155 5.23402E-04-1.53728E-02 3.96948E-03
 -1       156 5.59692E-04-2.65649E-02 5.84908E-03
 -1       157 5.92927E-04-3.86381E-02 7.56020E-03
 -1       158-7.60437E-04 1.11721E-01 5.42795E-03
 -1       159-1.24803E-03 1.72514E-01 8.28435E-14
 -1       160-7.60437E-04 1.11721E-01-5.42795E-03
 -1       161-5.14183E-05-3.09149E-03 5.17486E-04
 -1       162-1.33606E-04-1.06138E-02 1.71683E-03
 -1       163-1.99709E-04-2.09352E-02 3.19347E-03
 -1       164-2.45283E-04-3.25913E-02 4.65133E-03
 -1       165-2.59074E-04-4.41508E-02 5.87386E-03
 -1       166-2.31666E-04-5.41590E-02 6.72589E-03
 -1       167-1.60890E-04-6.12396E-02 7.14062E-03
 -1       168-5.24918E-05-6.42417E-02 7.10606E-03
 -1       169 7.93997E-05-6.24151E-02 6.64775E-03
 -1       170 2.14705E-04-5.55535E-02 5.81219E-03
 -1       171 3.31458E-04-4.40629E-02 4.65437E-03
 -1       172 4.10587E-04-2.89279E-02 3.23193E-03
 -1       173 4.40104E-04-1.15768E-02 1.60619E-03
 -1       174 4.17600E-04 6.33040E-03-1.51957E-04
 -1       175 3.50373E-04 2.31459E-02-1.95482E-03
 -1       176 2.53186E-04 3.74590E-02-3.69355E-03
 -1       177 1.44298E-04 4.82554E-02-5.24015E-03
 -1       178 4.08564E-05 5.49837E-02-6.45730E-03
 -1       179-4.50827E-05 5.75264E-02-7.21519E-03
 -1       180-1.08854E-04 5.60961E-02-7.41208E-03
 -1       181-1.53250E-04 5.10948E-02-6.99381E-03
 -1       182-1.86437E-04 4.29812E-02-5.96729E-03
 -1       183-2.18434E-04 3.21823E-02-4.40378E-03
 -1       184-2.57277E-04 1.90671E-02-2.43044E-03
 -1       185-3.06169E-04 3.97922E-03-2.10708E-04
 -1       186-3.62165E-04-1.26986E-02 2.08273E-03
 -1       187-4.19241E-04-3.04979E-02 4.30001E-03
 -1       188-4.63401E-04-4.88520E-02 6.33599E-03
 -1       189-5.12154E-04-6.72810E-02 8.16957E-03
 -1       190 0.00000E+00 0.00000E+00 0.00000E+00
 -1       191 0.00000E+00 0.00000E+00 0.00000E+00
 -1       192-5.86783E-03-8.71124E-02 1.23253E-01
 -1       193-1.45252E-03-3.60717E-03 1.28319E-02
 -1       194-3.18591E-03-1.12582E-02 4.26599E-02
 -1       195-4.62015E-03-2.17914E-02 7.91722E-02
 -1       196-5.55490E-03-3.36453E-02 1.15197E-01
 -1       197-5.76117E-03-4.53431E-02 1.45588E-01
 -1       198-5.08079E-03-5.54160E-02 1.66988E-01
 -1       199-3.47453E-03-6.24855E-02 1.77644E-01
 -1       200-1.07532E-03-6.54125E-02 1.77123E-01
 -1       201 1.81239E-03-6.34642E-02 1.65943E-01
 -1       202 4.76029E-03-5.64504E-02 1.45188E-01
 -1       203 7.30177E-03-4.47862E-02 1.16218E-01
 -1       204 9.03189E-03-2.94574E-02 8.05180E-02
 -1       205 9.69516E-03-1.18875E-02 3.97121E-02
 -1       206 9.23781E-03 6.26865E-03-4.32230E-03
 -1       207 7.81068E-03 2.33634E-02-4.93066E-02
 -1       208 5.72274E-03 3.79754E-02-9.24818E-02
 -1       209 3.35833E-03 4.90677E-02-1.30674E-01
 -1       210 1.08108E-03 5.60559E-02-1.60535E-01
 -1       211-8.49322E-04 5.87846E-02-1.78947E-01
 -1       212-2.32568E-03 5.74316E-02-1.83498E-01
 -1       213-3.39541E-03 5.23753E-02-1.72936E-01
 -1       214-4.21782E-03 4.40683E-02-1.47478E-01
 -1       215-4.99137E-03 3.29509E-02-1.08872E-01
 -1       216-5.87431E-03 1.94220E-02-6.01805E-02
 -1       217-6.92567E-03 3.86409E-03-5.30436E-03
 -1       218-8.08998E-03-1.33017E-02 5.16406E-02
 -1       219-9.23648E-03-3.15673E-02 1.06915E-01
 -1       220-1.02237E-02-5.03439E-02 1.57617E-01
 -1       221-1.09878E-02-6.90946E-02 2.02071E-01
 -1       222-4.50681E-03-1.64751E-03 1.29859E-02
 -1       223-7.70869E-03-4.64015E-03 4.27250E-02
 -1       224-9.49908E-03-9.50405E-03 7.92028E-02
 -1       225-9.99330E-03-1.57661E-02 1.15174E-01
 -1       226-9.20602E-03-2.27449E-02 1.45512E-01
 -1       227-7.20198E-03-2.94903E-02 1.66861E-01
 -1       228-4.13608E-03-3.48984E-02 1.77473E-01
 -1       229-2.91153E-04-3.78996E-02 1.76925E-01
 -1       230 3.92999E-03-3.76832E-02 1.65738E-01
 -1       231 8.04657E-03-3.38919E-02 1.45001E-01
 -1       232 1.15690E-02-2.67299E-02 1.16070E-01
 -1       233 1.40780E-02-1.69511E-02 8.04276E-02
 -1       234 1.52941E-02-5.72521E-03 3.96878E-02
 -1       235 1.51200E-02 5.58694E-03-4.28078E-03
 -1       236 1.36466E-02 1.56933E-02-4.92082E-02
 -1       237 1.11207E-02 2.36020E-02-9.23418E-02
 -1       238 7.88433E-03 2.87689E-02-1.30510E-01
 -1       239 4.30208E-03 3.11279E-02-1.60365E-01
 -1       240 6.94255E-04 3.10060E-02-1.78784E-01
 -1       241-2.70771E-03 2.89531E-02-1.83349E-01
 -1       242-5.77495E-03 2.55400E-02-1.72806E-01
 -1       243-8.46468E-03 2.11850E-02-1.47367E-01
 -1       244-1.07830E-02 1.60572E-02-1.08779E-01
 -1       245-1.27426E-02 1.00820E-02-6.01047E-02
 -1       246-1.43322E-02 3.04003E-03-5.24886E-03
 -1       247-1.55094E-02-5.28279E-03 5.16716E-02
 -1       248-1.62244E-02-1.49605E-02 1.06918E-01
 -1       249-1.64767E-02-2.58655E-02 1.57592E-01
 -1       250-1.63657E-02-3.77238E-02 2.02020E-01
 -1       251-8.57369E-03-5.04898E-02 1.23392E-01
 -1       252-5.12154E-04-6.72810E-02-8.16957E-03
 -1       253-4.63401E-04-4.88520E-02-6.33599E-03
 -1       254-4.19241E-04-3.04979E-02-4.30001E-03
 -1       255-3.62165E-04-1.26986E-02-2.08273E-03
 -1       256-3.06169E-04 3.97922E-03 2.10708E-04
 -1       257-2.57277E-04 1.90671E-02 2.43044E-03
 -1       258-2.18434E-04 3.21823E-02 4.40378E-03
 -1       259-1.86437E-04 4.29812E-02 5.96729E-03
 -1       260-1.53250E-04 5.10948E-02 6.99381E-03
 -1       261-1.08854E-04 5.60961E-02 7.41208E-03
 -1       262-4.50827E-05 5.75264E-02 7.21519E-03
 -1       263 4.08564E-05 5.49837E-02 6.45730E-03
 -1       264 1.44298E-04 4.82554E-02 5.24015E-03
 -1       265 2.53186E-04 3.74590E-02 3.69355E-03
 -1       266 3.50373E-04 2.31459E-02 1.95482E-03
 -1       267 4.17600E-04 6.33040E-03 1.51957E-04
 -1       268 4.40104E-04-1.15768E-02-1.60619E-03
 -1       269 4.10587E-04-2.89279E-02-3.23193E-03
 -1       270 3.31458E-04-4.40629E-02-4.65437E-03
 -1       271 2.14705E-04-5.55535E-02-5.81219E-03
 -1       272 7.93997E-05-6.24151E-02-6.64775E-03
 -1       273-5.24918E-05-6.42417E-02-7.10606E-03
 -1       274-1.60890E-04-6.12396E-02-7.14062E-03
 -1       275-2.31666E-04-5.41590E-02-6.72589E-03
 -1       276-2.59074E-04-4.41508E-02-5.87386E-03
 -1       277-2.45283E-04-3.25913E-02-4.65133E-03
 -1       278-1.99709E-04-2.09352E-02-3.19347E-03
 -1       279-1.33606E-04-1.06138E-02-1.71683E-03
 -1       280-5.14183E-05-3.09149E-03-5.17486E-04
 -1       281 0.00000E+00 0.00000E+00 0.00000E+00
 -1       282 0.00000E+00 0.00000E+00 0.00000E+00
 -1       283-4.50681E-03-1.64751E-03-1.29859E-02
 -1       284-7.70869E-03-4.64015E-03-4.27250E-02
 -1       285-9.49908E-03-9.50405E-03-7.92028E-02
 -1       286-9.99330E-03-1.57661E-02-1.15174E-01
 -1       287-9.20602E-03-2.27449E-02-1.45512E-01
 -1       288-7.20198E-03-2.94903E-02-1.66861E-01
 -1       289-4.13608E-03-3.48984E-02-1.77473E-01
 -1       290-2.91153E-04-3.78996E-02-1.76925E-01
 -1       291 3.92999E-03-3.76832E-02-1.65738E-01
 -1       292 8.04657E-03-3.38919E-02-1.45001E-01
 -1       293 1.15690E-02-2.67299E-02-1.16070E-01
 -1       294 1.40780E-02-1.69511E-02-8.04276E-02
 -1       295 1.52941E-02-5.72521E-03-3.96878E-02
 -1       296 1.51200E-02 5.58694E-03 4.28078E-03
 -1       297 1.36466E-02 1.56933E-02 4.92082E-02
 -1       298 1.11207E-02 2.36020E-02 9.23418E-02
 -1       299 7.88433E-03 2.87689E-02 1.30510E-01
 -1       300 4.30208E-03 3.11279E-02 1.60365E-01
 -1       301 6.94255E-04 3.10060E-02 1.78784E-01
 -1       302-2.70771E-03 2.89531E-02 1.83349E-01
 -1       303-5.77495E-03 2.55400E-02 1.72806E-01
 -1       304-8.46468E-03 2.11850E-02 1.47367E-01
 -1       305-1.07830E-02 1.60572E-02 1.08779E-01
 -1       306-1.27426E-02 1.00820E-02 6.01047E-02
 -1       307-1.43322E-02 3.04003E-03 5.24886E-03
 -1       308-1.55094E-02-5.28279E-03-5.16716E-02
 -1       309-1.62244E-02-1.49605E-02-1.06918E-01
 -1       310-1.64767E-02-2.58655E-02-1.57592E-01
 -1       311-1.63657E-02-3.77238E-02-2.02020E-01
 -1       312-8.57369E-03-5.04898E-02-1.23392E-01
 -1       313-1.45252E-03-3.60717E-03-1.28319E-02
 -1       314-3.18591E-03-1.12582E-02-4.26599E-02
 -1       315-4.62015E-03-2.17914E-02-7.91722E-02
 -1       316-5.55490E-03-3.36453E-02-1.15197E-01
 -1       317-5.76117E-03-4.53431E-02-1.45588E-01
 -1       318-5.08079E-03-5.54160E-02-1.66988E-01
 -1       319-3.47453E-03-6.24855E-02-1.77644E-01
 -1       320-1.07532E-03-6.54125E-02-1.77123E-01
 -1       321 1.81239E-03-6.34642E-02-1.65943E-01
 -1       322 4.76029E-03-5.64504E-02-1.45188E-01
 -1       323 7.30177E-03-4.47862E-02-1.16218E-01
 -1       324 9.03189E-03-2.94574E-02-8.05180E-02
 -1       325 9.69516E-03-1.18875E-02-3.97121E-02
 -1       326 9.23781E-03 6.26865E-03 4.32230E-03
 -1       327 7.81068E-03 2.33634E-02 4.93066E-02
 -1       328 5.72274E-03 3.79754E-02 9.24818E-02
 -1       329 3.35833E-03 4.90677E-02 1.30674E-01
 -1       330 1.08108E-03 5.60559E-02 1.60535E-01
 -1       331-8.49322E-04 5.87846E-02 1.78947E-01
 -1       332-2.32568E-03 5.74316E-02 1.83498E-01
 -1       333-3.39541E-03 5.23753E-02 1.72936E-01
 -1       334-4.21782E-03 4.40683E-02 1.47478E-01
 -1       335-4.99137E-03 3.29509E-02 1.08872E-01
 -1       336-5.87431E-03 1.94220E-02 6.01805E-02
 -1       337-6.92567E-03 3.86409E-03 5.30436E-03
 -1       338-8.08998E-03-1.33017E-02-5.16406E-02
 -1       339-9.23648E-03-3.15673E-02-1.06915E-01
 -1       340-1.02237E-02-5.03439E-02-1.57617E-01
 -1       341-1.09878E-02-6.90946E-02-2.02071E-01
 -1       342-5.86783E-03-8.71124E-02-1.23253E-01
 -1       343 1.45252E-03-3.60717E-03-1.28319E-02
 -1       344 3.18591E-03-1.12582E-02-4.26599E-02
 -1       345 4.62015E-03-2.17914E-02-7.91722E-02
 -1       346 5.55490E-03-3.36453E-02-1.15197E-01
 -1       347 5.76117E-03-4.53431E-02-1.45588E-01
 -1       348 5.08079E-03-5.54160E-02-1.66988E-01
 -1       349 3.47453E-03-6.24855E-02-1.77644E-01
 -1       350 1.07532E-03-6.54125E-02-1.77123E-01
 -1       351-1.81239E-03-6.34642E-02-1.65943E-01
 -1       352-4.76029E-03-5.64504E-02-1.45188E-01
 -1       353-7.30177E-03-4.47862E-02-1.16218E-01
 -1       354-9.03189E-03-2.94574E-02-8.05180E-02
 -1       355-9.69516E-03-1.18875E-02-3.97121E-02
 -1       356-9.23781E-03 6.26865E-03 4.32230E-03
 -1       357-7.81068E-03 2.33634E-02 4.93066E-02
 -1       358-5.72274E-03 3.79754E-02 9.24818E-02
 -1       359-3.35833E-03 4.90677E-02 1.30674E-01
 -1       360-1.08108E-03 5.60559E-02 1.60535E-01
 -1       361 8.49322E-04 5.87846E-02 1.78947E-01
 -1       362 2.32568E-03 5.74316E-02 1.83498E-01
 -1       363 3.39541E-03 5.23753E-02 1.72936E-01
 -1       364 4.21782E-03 4.40683E-02 1.47478E-01
 -1       365 4.99137E-03 3.29509E-02 1.08872E-01
 -1       366 5.87431E-03 1.94220E-02 6.01805E-02
 -1       367 6.92567E-03 3.86409E-03 5.30436E-03
 -1       368 8.08998E-03-1.33017E-02-5.16406E-02
 -1       369 9.23648E-03-3.15673E-02-1.06915E-01
 -1       370 1.02237E-02-5.03439E-02-1.57617E-01
 -1       371 1.09878E-02-6.90946E-02-2.02071E-01
 -1       372 4.50681E-03-1.64751E-03-1.29859E-02
 -1       373 7.70869E-03-4.64015E-03-4.27250E-02
 -1       374 9.49908E-03-9.50405E-03-7.92028E-02
 -1       375 9.99330E-03-1.57661E-02-1.15174E-01
 -1       376 9.20602E-03-2.27449E-02-1.45512E-01
 -1       377 7.20198E-03-2.94903E-02-1.66861E-01
 -1       378 4.13608E-03-3.48984E-02-1.77473E-01
 -1       379 2.91153E-04-3.78996E-02-1.76925E-01
 -1       380-3.92999E-03-3.76832E-02-1.65738E-01
 -1       381-8.04657E-03-3.38919E-02-1.45001E-01
 -1       382-1.15690E-02-2.67299E-02-1.16070E-01
 -1       383-1.40780E-02-1.69511E-02-8.04276E-02
 -1       384-1.52941E-02-5.72521E-03-3.96878E-02
 -1       385-1.51200E-02 5.58694E-03 4.28078E-03
 -1       386-1.36466E-02 1.56933E-02 4.92082E-02
 -1       387-1.11207E-02 2.36020E-02 9.23418E-02
 -1       388-7.88433E-03 2.87689E-02 1.30510E-01
 -1       389-4.30208E-03 3.11279E-02 1.60365E-01
 -1       390-6.94255E-04 3.10060E-02 1.78784E-01
 -1       391 2.70771E-03 2.89531E-02 1.83349E-01
 -1       392 5.77495E-03 2.55400E-02 1.72806E-01
 -1       393 8.46468E-03 2.11850E-02 1.47367E-01
 -1       394 1.07830E-02 1.60572E-02 1.08779E-01
 -1       395 1.27426E-02 1.00820E-02 6.01047E-02
 -1       396 1.43322E-02 3.04003E-03 5.24886E-03
 -1       397 1.55094E-02-5.28279E-03-5.16716E-02
 -1       398 1.62244E-02-1.49605E-02-1.06918E-01
 -1       399 1.64767E-02-2.58655E-02-1.57592E-01
 -1       400 1.63657E-02-3.77238E-02-2.02020E-01
 -1       401 0.00000E+00 0.00000E+00 0.00000E+00
 -1       402 0.00000E+00 0.00000E+00 0.00000E+00
 -1       403 5.86783E-03-8.71124E-02-1.23253E-01
 -1       404 5.14183E-05-3.09149E-03-5.17486E-04
 -1       405 1.33606E-04-1.06138E-02-1.71683E-03
 -1       406 1.99709E-04-2.09352E-02-3.19347E-03
 -1       407 2.45283E-04-3.25913E-02-4.65133E-03
 -1       408 2.59074E-04-4.41508E-02-5.87386E-03
 -1       409 2.31666E-04-5.41590E-02-6.72589E-03
 -1       410 1.60890E-04-6.12396E-02-7.14062E-03
 -1       411 5.24918E-05-6.42417E-02-7.10606E-03
 -1       412-7.93997E-05-6.24151E-02-6.64775E-03
 -1       413-2.14705E-04-5.55535E-02-5.81219E-03
 -1       414-3.31458E-04-4.40629E-02-4.65437E-03
 -1       415-4.10587E-04-2.89279E-02-3.23193E-03
 -1       416-4.40104E-04-1.15768E-02-1.60619E-03
 -1       417-4.17600E-04 6.33040E-03 1.51957E-04
 -1       418-3.50373E-04 2.31459E-02 1.95482E-03
 -1       419-2.53186E-04 3.74590E-02 3.69355E-03
 -1       420-1.44298E-04 4.82554E-02 5.24015E-03
 -1       421-4.08564E-05 5.49837E-02 6.45730E-03
 -1       422 4.50827E-05 5.75264E-02 7.21519E-03
 -1       423 1.08854E-04 5.60961E-02 7.41208E-03
 -1       424 1.53250E-04 5.10948E-02 6.99381E-03
 -1       425 1.86437E-04 4.29812E-02 5.96729E-03
 -1       426 2.18434E-04 3.21823E-02 4.40378E-03
 -1       427 2.57277E-04 1.90671E-02 2.43044E-03
 -1       428 3.06169E-04 3.97922E-03 2.10708E-04
 -1       429 3.62165E-04-1.26986E-02-2.08273E-03
 -1       430 4.19241E-04-3.04979E-02-4.30001E-03
 -1       431 4.63401E-04-4.88520E-02-6.33599E-03
 -1       432 5.12154E-04-6.72810E-02-8.16957E-03
 -1       433 8.57369E-03-5.04898E-02-1.23392E-01
 -1       434 0.00000E+00 0.00000E+00 0.00000E+00
 -1       435 0.00000E+00 0.00000E+00 0.00000E+00
 -1       436 5.12154E-04-6.72810E-02 8.16957E-03
 -1       437 4.63401E-04-4.88520E-02 6.33599E-03
 -1       438 4.19241E-04-3.04979E-02 4.30001E-03
 -1       439 3.62165E-04-1.26986E-02 2.08273E-03
 -1       440 3.06169E-04 3.97922E-03-2.10708E-04
 -1       441 2.57277E-04 1.90671E-02-2.43044E-03
 -1       442 2.18434E-04 3.21823E-02-4.40378E-03
 -1       443 1.86437E-04 4.29812E-02-5.96729E-03
 -1       444 1.53250E-04 5.10948E-02-6.99381E-03
 -1       445 1.08854E-04 5.60961E-02-7.41208E-03
 -1       446 4.50827E-05 5.75264E-02-7.21519E-03
 -1       447-4.08564E-05 5.49837E-02-6.45730E-03
 -1       448-1.44298E-04 4.82554E-02-5.24015E-03
 -1       449-2.53186E-04 3.74590E-02-3.69355E-03
 -1       450-3.50373E-04 2.31459E-02-1.95482E-03
 -1       451-4.17600E-04 6.33040E-03-1.51957E-04
 -1       452-4.40104E-04-1.15768E-02 1.60619E-03
 -1       453-4.10587E-04-2.89279E-02 3.23193E-03
 -1       454-3.31458E-04-4.40629E-02 4.65437E-03
 -1       455-2.14705E-04-5.55535E-02 5.81219E-03
 -1       456-7.93997E-05-6.24151E-02 6.64775E-03
 -1       457 5.24918E-05-6.42417E-02 7.10606E-03
 -1       458 1.60890E-04-6.12396E-02 7.14062E-03
 -1       459 2.31666E-04-5.41590E-02 6.72589E-03
 -1       460 2.59074E-04-4.41508E-02 5.87386E-03
 -1       461 2.45283E-04-3.25913E-02 4.65133E-03
 -1       462 1.99709E-04-2.09352E-02 3.19347E-03
 -1       463 1.33606E-04-1.06138E-02 1.71683E-03
 -1       464 5.14183E-05-3.09149E-03 5.17486E-04
 -1       465 5.86783E-03-8.71124E-02 1.23253E-01
 -1       466 1.45252E-03-3.60717E-03 1.28319E-02
 -1       467 3.18591E-03-1.12582E-02 4.26599E-02
 -1       468 4.62015E-03-2.17914E-02 7.91722E-02
 -1       469 5.55490E-03-3.36453E-02 1.15197E-01
 -1       470 5.76117E-03-4.53431E-02 1.45588E-01
 -1       471 5.08079E-03-5.54160E-02 1.66988E-01
 -1       472 3.47453E-03-6.24855E-02 1.77644E-01
 -1       473 1.07532E-03-6.54125E-02 1.77123E-01
 -1       474-1.81239E-03-6.34642E-02 1.65943E-01
 -1       475-4.76029E-03-5.64504E-02 1.45188E-01
 -1       476-7.30177E-03-4.47862E-02 1.16218E-01
 -1       477-9.03189E-03-2.94574E-02 8.05180E-02
 -1       478-9.69516E-03-1.18875E-02 3.97121E-02
 -1       479-9.23781E-03 6.26865E-03-4.32230E-03
 -1       480-7.81068E-03 2.33634E-02-4.93066E-02
 -1       481-5.72274E-03 3.79754E-02-9.24818E-02
 -1       482-3.35833E-03 4.90677E-02-1.30674E-01
 -1       483-1.08108E-03 5.60559E-02-1.60535E-01
 -1       484 8.49322E-04 5.87846E-02-1.78947E-01
 -1       485 2.32568E-03 5.74316E-02-1.83498E-01
 -1       486 3.39541E-03 5.23753E-02-1.72936E-01
 -1       487 4.21782E-03 4.40683E-02-1.47478E-01
 -1       488 4.99137E-03 3.29509E-02-1.08872E-01
 -1       489 5.87431E-03 1.94220E-02-6.01805E-02
 -1       490 6.92567E-03 3.86409E-03-5.30436E-03
 -1       491 8.08998E-03-1.33017E-02 5.16406E-02
 -1       492 9.23648E-03-3.15673E-02 1.06915E-01
 -1       493 1.02237E-02-5.03439E-02 1.57617E-01
 -1       494 1.09878E-02-6.90946E-02 2.02071E-01
 -1       495 4.50681E-03-1.64751E-03 1.29859E-02
 -1       496 7.70869E-03-4.64015E-03 4.27250E-02
 -1       497 9.49908E-03-9.50405E-03 7.92028E-02
 -1       498 9.99330E-03-1.57661E-02 1.15174E-01
 -1       499 9.20602E-03-2.27449E-02 1.45512E-01
 -1       500 7.20198E-03-2.94903E-02 1.66861E-01
 -1       501 4.13608E-03-3.48984E-02 1.77473E-01
 -1       502 2.91153E-04-3.78996E-02 1.76925E-01
 -1       503-3.92999E-03-3.76832E-02 1.65738E-01
 -1       504-8.04657E-03-3.38919E-02 1.45001E-01
 -1       505-1.15690E-02-2.67299E-02 1.16070E-01
 -1       506-1.40780E-02-1.69511E-02 8.04276E-02
 -1       507-1.52941E-02-5.72521E-03 3.96878E-02
 -1       508-1.51200E-02 5.58694E-03-4.28078E-03
 -1       509-1.36466E-02 1.56933E-02-4.92082E-02
 -1       510-1.11207E-02 2.36020E-02-9.23418E-02
 -1       511-7.88433E-03 2.87689E-02-1.30510E-01
 -1       512-4.30208E-03 3.11279E-02-1.60365E-01
 -1       513-6.94255E-04 3.10060E-02-1.78784E-01
 -1       514 2.70771E-03 2.89531E-02-1.83349E-01
 -1       515 5.77495E-03 2.55400E-02-1.72806E-01
 -1       516 8.46468E-03 2.11850E-02-1.47367E-01
 -1       517 1.07830E-02 1.60572E-02-1.08779E-01
 -1       518 1.27426E-02 1.00820E-02-6.01047E-02
 -1       519 1.43322E-02 3.04003E-03-5.24886E-03
 -1       520 1.55094E-02-5.28279E-03 5.16716E-02
 -1       521 1.62244E-02-1.49605E-02 1.06918E-01
 -1       522 1.64767E-02-2.58655E-02 1.57592E-01
 -1       523 1.63657E-02-3.77238E-02 2.02020E-01
 -1       524 8.57369E-03-5.04898E-02 1.23392E-01
 -1       525 5.49625E-04 6.98256E-03 2.70336E-04
 -1       526 8.02928E-04 2.31044E-02 9.12751E-04
 -1       527 8.15911E-04 4.21359E-02 1.71552E-03
 -1       528 6.62934E-04 5.93926E-02 2.50569E-03
 -1       529 4.21174E-04 7.19587E-02 3.16151E-03
 -1       530 1.58313E-04 7.86029E-02 3.60965E-03
 -1       531-7.59778E-05 7.94582E-02 3.81835E-03
 -1       532-2.55370E-04 7.55353E-02 3.78656E-03
 -1       533-3.77078E-04 6.81741E-02 3.53275E-03
 -1       534-4.56845E-04 5.85489E-02 3.08467E-03
 -1       535-5.19552E-04 4.73448E-02 2.47213E-03
 -1       536-5.88004E-04 3.46753E-02 1.72388E-03
 -1       537-6.73071E-04 2.02502E-02 8.68812E-04
 -1       538-7.68118E-04 3.72443E-03-5.97095E-05
 -1       539-8.49423E-04-1.48910E-02-1.01864E-03
 -1       540-8.82540E-04-3.48990E-02-1.95181E-03
 -1       541-8.32792E-04-5.47841E-02-2.79036E-03
 -1       542-6.76840E-04-7.23419E-02-3.45806E-03
 -1       543-4.11891E-04-8.50531E-02-3.88113E-03
 -1       544-5.97334E-05-9.06143E-02-4.00038E-03
 -1       545 3.35814E-04-8.74875E-02-3.78301E-03
 -1       546 7.17546E-04-7.53178E-02-3.23092E-03
 -1       547 1.02747E-03-5.51011E-02-2.38327E-03
 -1       548 1.22023E-03-2.90468E-02-1.31214E-03
 -1       549 1.27434E-03-1.52195E-04-1.11657E-04
 -1       550 1.19966E-03 2.84408E-02 1.11887E-03
 -1       551 1.04007E-03 5.42073E-02 2.29756E-03
 -1       552 8.66460E-04 7.59750E-02 3.38638E-03
 -1       553 7.65709E-04 9.44045E-02 4.41310E-03
 -1       554 7.78582E-04 9.96916E-03-2.08488E-14
 -1       555 1.15089E-03 3.32733E-02-4.02126E-14
 -1       556 1.19447E-03 6.12755E-02-5.36533E-14
 -1       557 1.00445E-03 8.73654E-02-5.69648E-14
 -1       558 6.80938E-04 1.07254E-01-5.18856E-14
 -1       559 3.12823E-04 1.18893E-01-4.10054E-14
 -1       560-3.36833E-05 1.22063E-01-2.67772E-14
 -1       561-3.20802E-04 1.17772E-01-8.84709E-15
 -1       562-5.39256E-04 1.07569E-01 1.16261E-14
 -1       563-7.02274E-04 9.29431E-02 3.19163E-14
 -1       564-8.34603E-04 7.49113E-02 4.81264E-14
 -1       565-9.59331E-04 5.39062E-02 6.02435E-14
 -1       566-1.08630E-03 2.99554E-02 7.16580E-14
 -1       567-1.20560E-03 3.08151E-03 8.16153E-14
 -1       568-1.28820E-03-2.62285E-02 8.55219E-14
 -1       569-1.29364E-03-5.66529E-02 7.93879E-14
 -1       570-1.18253E-03-8.59075E-02 6.31717E-14
 -1       571-9.30376E-04-1.10934E-01 3.98501E-14
 -1       572-5.38307E-04-1.28386E-01 1.57595E-14
 -1       573-3.76422E-05-1.35293E-01-3.50241E-15
 -1       574 5.13589E-04-1.29748E-01-2.00812E-14
 -1       575 1.04143E-03-1.11414E-01-3.68455E-14
 -1       576 1.47150E-03-8.17265E-02-5.27495E-14
 -1       577 1.74544E-03-4.37035E-02-6.35325E-14
 -1       578 1.83507E-03-1.40057E-03-6.62109E-14
 -1       579 1.75254E-03 4.09238E-02-5.62952E-14
 -1       580 1.55597E-03 7.98262E-02-3.08018E-14
 -1       581 1.34730E-03 1.13749E-01 9.73874E-15
 -1       582 1.23184E-03 1.43704E-01 5.58095E-14
 -1       583 5.49625E-04 6.98256E-03-2.70336E-04
 -1       584 8.02928E-04 2.31044E-02-9.12751E-04
 -1       585 8.15911E-04 4.21359E-02-1.71552E-03
 -1       586 6.62934E-04 5.93926E-02-2.50569E-03
 -1       587 4.21174E-04 7.19587E-02-3.16151E-03
 -1       588 1.58313E-04 7.86029E-02-3.60965E-03
 -1       589-7.59778E-05 7.94582E-02-3.81835E-03
 -1       590-2.55370E-04 7.55353E-02-3.78656E-03
 -1       591-3.77078E-04 6.81741E-02-3.53275E-03
 -1       592-4.56845E-04 5.85489E-02-3.08467E-03
 -1       593-5.19552E-04 4.73448E-02-2.47213E-03
 -1       594-5.88004E-04 3.46753E-02-1.72388E-03
 -1       595-6.73071E-04 2.02502E-02-8.68812E-04
 -1       596-7.68118E-04 3.72443E-03 5.97095E-05
 -1       597-8.49423E-04-1.48910E-02 1.01864E-03
 -1       598-8.82540E-04-3.48990E-02 1.95181E-03
 -1       599-8.32792E-04-5.47841E-02 2.79036E-03
 -1       600-6.76840E-04-7.23419E-02 3.45806E-03
 -1       601-4.11891E-04-8.50531E-02 3.88113E-03
 -1       602-5.97334E-05-9.06143E-02 4.00038E-03
 -1       603 3.35814E-04-8.74875E-02 3.78301E-03
 -1       604 7.17546E-04-7.53178E-02 3.23092E-03
 -1       605 1.02747E-03-5.51011E-02 2.38327E-03
 -1       606 1.22023E-03-2.90468E-02 1.31214E-03
 -1       607 1.27434E-03-1.52195E-04 1.11657E-04
 -1       608 1.19966E-03 2.84408E-02-1.11887E-03
 -1       609 1.04007E-03 5.42073E-02-2.29756E-03
 -1       610 8.66460E-04 7.59750E-02-3.38638E-03
 -1       611 7.65709E-04 9.44045E-02-4.41310E-03
 -1       612-5.49625E-04 6.98256E-03 2.70336E-04
 -1       613-8.02928E-04 2.31044E-02 9.12751E-04
 -1       614-8.15911E-04 4.21359E-02 1.71552E-03
 -1       615-6.62934E-04 5.93926E-02 2.50569E-03
 -1       616-4.21174E-04 7.19587E-02 3.16151E-03
 -1       617-1.58313E-04 7.86029E-02 3.60965E-03
 -1       618 7.59778E-05 7.94582E-02 3.81835E-03
 -1       619 2.55370E-04 7.55353E-02 3.78656E-03
 -1       620 3.77078E-04 6.81741E-02 3.53275E-03
 -1       621 4.56845E-04 5.85489E-02 3.08467E-03
 -1       622 5.19552E-04 4.73448E-02 2.47213E-03
 -1       623 5.88004E-04 3.46753E-02 1.72388E-03
 -1       624 6.73071E-04 2.02502E-02 8.68812E-04
 -1       625 7.68118E-04 3.72443E-03-5.97095E-05
 -1       626 8.49423E-04-1.48910E-02-1.01864E-03
 -1       627 8.82540E-04-3.48990E-02-1.95181E-03
 -1       628 8.32792E-04-5.47841E-02-2.79036E-03
 -1       629 6.76840E-04-7.23419E-02-3.45806E-03
 -1       630 4.11891E-04-8.50531E-02-3.88113E-03
 -1       631 5.97334E-05-9.06143E-02-4.00038E-03
 -1       632-3.35814E-04-8.74875E-02-3.78301E-03
 -1       633-7.17546E-04-7.53178E-02-3.23092E-03
 -1       634-1.02747E-03-5.51011E-02-2.38327E-03
 -1       635-1.22023E-03-2.90468E-02-1.31214E-03
 -1       636-1.27434E-03-1.52195E-04-1.11657E-04
 -1       637-1.19966E-03 2.84408E-02 1.11887E-03
 -1       638-1.04007E-03 5.42073E-02 2.29756E-03
 -1       639-8.66460E-04 7.59750E-02 3.38638E-03
 -1       640-7.65709E-04 9.44045E-02 4.41310E-03
 -1       641-7.78582E-04 9.96916E-03-2.28869E-14
 -1       642-1.15089E-03 3.32733E-02-4.52641E-14
 -1       643-1.19447E-03 6.12755E-02-6.01880E-14
 -1       644-1.00445E-03 8.73654E-02-6.35221E-14
 -1       645-6.80938E-04 1.07254E-01-5.73569E-14
 -1       646-3.12823E-04 1.18893E-01-4.65045E-14
 -1       647 3.36833E-05 1.22063E-01-3.12667E-14
 -1       648 3.20802E-04 1.17772E-01-1.15463E-14
 -1       649 5.39256E-04 1.07569E-01 1.21882E-14
 -1       650 7.02274E-04 9.29431E-02 3.53198E-14
 -1       651 8.34603E-04 7.49113E-02 5.38371E-14
 -1       652 9.59331E-04 5.39062E-02 6.70228E-14
 -1       653 1.08630E-03 2.99554E-02 7.77295E-14
 -1       654 1.20560E-03 3.08151E-03 8.49598E-14
 -1       655 1.28820E-03-2.62285E-02 8.56468E-14
 -1       656 1.29364E-03-5.66529E-02 7.72507E-14
 -1       657 1.18253E-03-8.59075E-02 6.08055E-14
 -1       658 9.30376E-04-1.10934E-01 3.86705E-14
 -1       659 5.38307E-04-1.28386E-01 1.54382E-14
 -1       660 3.76422E-05-1.35293E-01-3.80945E-15
 -1       661-5.13589E-04-1.29748E-01-1.81383E-14
 -1       662-1.04143E-03-1.11414E-01-3.10099E-14
 -1       663-1.47150E-03-8.17265E-02-4.50820E-14
 -1       664-1.74544E-03-4.37035E-02-5.79675E-14
 -1       665-1.83507E-03-1.40057E-03-6.34354E-14
 -1       666-1.75254E-03 4.09238E-02-5.50150E-14
 -1       667-1.55597E-03 7.98262E-02-2.91152E-14
 -1       668-1.34730E-03 1.13749E-01 1.13139E-14
 -1       669-1.23184E-03 1.43704E-01 5.38319E-14
 -1       670-5.49625E-04 6.98256E-03-2.70336E-04
 -1       671-8.02928E-04 2.31044E-02-9.12751E-04
 -1       672-8.15911E-04 4.21359E-02-1.71552E-03
 -1       673-6.62934E-04 5.93926E-02-2.50569E-03
 -1       674-4.21174E-04 7.19587E-02-3.16151E-03
 -1       675-1.58313E-04 7.86029E-02-3.60965E-03
 -1       676 7.59778E-05 7.94582E-02-3.81835E-03
 -1       677 2.55370E-04 7.55353E-02-3.78656E-03
 -1       678 3.77078E-04 6.81741E-02-3.53275E-03
 -1       679 4.56845E-04 5.85489E-02-3.08467E-03
 -1       680 5.19552E-04 4.73448E-02-2.47213E-03
 -1       681 5.88004E-04 3.46753E-02-1.72388E-03
 -1       682 6.73071E-04 2.02502E-02-8.68812E-04
 -1       683 7.68118E-04 3.72443E-03 5.97095E-05
 -1       684 8.49423E-04-1.48910E-02 1.01864E-03
 -1       685 8.82540E-04-3.48990E-02 1.95181E-03
 -1       686 8.32792E-04-5.47841E-02 2.79036E-03
 -1       687 6.76840E-04-7.23419E-02 3.45806E-03
 -1       688 4.11891E-04-8.50531E-02 3.88113E-03
 -1       689 5.97334E-05-9.06143E-02 4.00038E-03
 -1       690-3.35814E-04-8.74875E-02 3.78301E-03
 -1       691-7.17546E-04-7.53178E-02 3.23092E-03
 -1       692-1.02747E-03-5.51011E-02 2.38327E-03
 -1       693-1.22023E-03-2.90468E-02 1.31214E-03
 -1       694-1.27434E-03-1.52195E-04 1.11657E-04
 -1       695-1.19966E-03 2.84408E-02-1.11887E-03
 -1       696-1.04007E-03 5.42073E-02-2.29756E-03
 -1       697-8.66460E-04 7.59750E-02-3.38638E-03
 -1       698-7.65709E-04 9.44045E-02-4.41310E-03
 -1       699-5.78630E-04-3.30525E-03 6.56201E-03
 -1       700-1.50873E-03-1.10236E-02 2.17296E-02
 -1       701-2.23529E-03-2.15798E-02 4.03319E-02
 -1       702-2.72463E-03-3.34724E-02 5.86884E-02
 -1       703-2.84873E-03-4.52261E-02 7.41606E-02
 -1       704-2.52447E-03-5.53675E-02 8.50381E-02
 -1       705-1.73181E-03-6.25079E-02 9.04351E-02
 -1       706-5.37042E-04-6.54943E-02 9.01425E-02
 -1       707 9.06436E-04-6.35810E-02 8.44331E-02
 -1       708 2.38253E-03-5.65702E-02 7.38647E-02
 -1       709 3.65566E-03-4.48770E-02 5.91297E-02
 -1       710 4.52140E-03-2.94954E-02 4.09808E-02
 -1       711 4.85083E-03-1.18632E-02 2.02364E-02
 -1       712 4.61703E-03 6.34857E-03-2.15691E-03
 -1       713 3.89649E-03 2.34781E-02-2.50468E-02
 -1       714 2.84551E-03 3.80963E-02-4.70328E-02
 -1       715 1.65827E-03 4.91660E-02-6.64982E-02
 -1       716 5.18176E-04 5.61113E-02-8.17337E-02
 -1       717-4.44327E-04 5.87905E-02-9.11422E-02
 -1       718-1.17628E-03 5.73968E-02-9.34865E-02
 -1       719-1.70317E-03 5.23216E-02-8.81222E-02
 -1       720-2.10728E-03 4.40240E-02-7.51556E-02
 -1       721-2.49069E-03 3.29431E-02-5.54787E-02
 -1       722-2.93508E-03 1.94696E-02-3.06586E-02
 -1       723-3.47202E-03 3.97435E-03-2.69446E-03
 -1       724-4.07507E-03-1.31327E-02 2.63031E-02
 -1       725-4.67696E-03-3.13510E-02 5.44364E-02
 -1       726-5.21523E-03-5.00902E-02 8.02419E-02
 -1       727-5.60162E-03-6.88072E-02 1.02942E-01
 -1       728-2.21830E-03-1.30371E-03 6.64469E-03
 -1       729-3.93941E-03-4.50239E-03 2.17965E-02
 -1       730-4.86103E-03-9.49867E-03 4.04049E-02
 -1       731-5.11044E-03-1.59086E-02 5.87624E-02
 -1       732-4.69586E-03-2.30330E-02 7.42317E-02
 -1       733-3.65640E-03-2.99119E-02 8.51017E-02
 -1       734-2.07777E-03-3.54252E-02 9.04879E-02
 -1       735-1.07208E-04-3.84877E-02 9.01835E-02
 -1       736 2.04960E-03-3.82766E-02 8.44637E-02
 -1       737 4.14954E-03-3.44295E-02 7.38880E-02
 -1       738 5.94612E-03-2.71549E-02 5.91493E-02
 -1       739 7.22844E-03-1.72195E-02 4.09991E-02
 -1       740 7.85537E-03-5.81235E-03 2.02535E-02
 -1       741 7.77664E-03 5.68316E-03-2.14315E-03
 -1       742 7.03567E-03 1.59537E-02-2.50405E-02
 -1       743 5.75399E-03 2.39913E-02-4.70388E-02
 -1       744 4.10161E-03 2.92429E-02-6.65202E-02
 -1       745 2.26122E-03 3.16415E-02-8.17729E-02
 -1       746 3.95262E-04 3.15198E-02-9.11962E-02
 -1       747-1.37629E-03 2.94371E-02-9.35494E-02
 -1       748-2.98321E-03 2.59742E-02-8.81851E-02
 -1       749-4.39766E-03 2.15570E-02-7.52085E-02
 -1       750-5.61666E-03 1.63582E-02-5.55123E-02
 -1       751-6.64228E-03 1.03035E-02-3.06658E-02
 -1       752-7.46735E-03 3.17119E-03-2.67164E-03
 -1       753-8.07363E-03-5.25417E-03 2.63566E-02
 -1       754-8.44314E-03-1.50395E-02 5.45194E-02
 -1       755-8.57850E-03-2.60507E-02 8.03491E-02
 -1       756-8.55364E-03-3.79808E-02 1.03070E-01
 -1       757-2.21830E-03-1.30371E-03-6.64469E-03
 -1       758-3.93941E-03-4.50239E-03-2.17965E-02
 -1       759-4.86103E-03-9.49867E-03-4.04049E-02
 -1       760-5.11044E-03-1.59086E-02-5.87624E-02
 -1       761-4.69586E-03-2.30330E-02-7.42317E-02
 -1       762-3.65640E-03-2.99119E-02-8.51017E-02
 -1       763-2.07777E-03-3.54252E-02-9.04879E-02
 -1       764-1.07208E-04-3.84877E-02-9.01835E-02
 -1       765 2.04960E-03-3.82766E-02-8.44637E-02
 -1       766 4.14954E-03-3.44295E-02-7.38880E-02
 -1       767 5.94612E-03-2.71549E-02-5.91493E-02
 -1       768 7.22844E-03-1.72195E-02-4.09991E-02
 -1       769 7.85537E-03-5.81235E-03-2.02535E-02
 -1       770 7.77664E-03 5.68316E-03 2.14315E-03
 -1       771 7.03567E-03 1.59537E-02 2.50405E-02
 -1       772 5.75399E-03 2.39913E-02 4.70388E-02
 -1       773 4.10161E-03 2.92429E-02 6.65202E-02
 -1       774 2.26122E-03 3.16415E-02 8.17729E-02
 -1       775 3.95262E-04 3.15198E-02 9.11962E-02
 -1       776-1.37629E-03 2.94371E-02 9.35494E-02
 -1       777-2.98321E-03 2.59742E-02 8.81851E-02
 -1       778-4.39766E-03 2.15570E-02 7.52085E-02
 -1       779-5.61666E-03 1.63582E-02 5.55123E-02
 -1       780-6.64228E-03 1.03035E-02 3.06658E-02
 -1       781-7.46735E-03 3.17119E-03 2.67164E-03
 -1       782-8.07363E-03-5.25417E-03-2.63566E-02
 -1       783-8.44314E-03-1.50395E-02-5.45194E-02
 -1       784-8.57850E-03-2.60507E-02-8.03491E-02
 -1       785-8.55364E-03-3.79808E-02-1.03070E-01
 -1       786-5.78630E-04-3.30525E-03-6.56201E-03
 -1       787-1.50873E-03-1.10236E-02-2.17296E-02
 -1       788-2.23529E-03-2.15798E-02-4.03319E-02
 -1       789-2.72463E-03-3.34724E-02-5.86884E-02
 -1       790-2.84873E-03-4.52261E-02-7.41606E-02
 -1       791-2.52447E-03-5.53675E-02-8.50381E-02
 -1       792-1.73181E-03-6.25079E-02-9.04351E-02
 -1       793-5.37042E-04-6.54943E-02-9.01425E-02
 -1       794 9.06436E-04-6.35810E-02-8.44331E-02
 -1       795 2.38253E-03-5.65702E-02-7.38647E-02
 -1       796 3.65566E-03-4.48770E-02-5.91297E-02
 -1       797 4.52140E-03-2.94954E-02-4.09808E-02
 -1       798 4.85083E-03-1.18632E-02-2.02364E-02
 -1       799 4.61703E-03 6.34857E-03 2.15691E-03
 -1       800 3.89649E-03 2.34781E-02 2.50468E-02
 -1       801 2.84551E-03 3.80963E-02 4.70328E-02
 -1       802 1.65827E-03 4.91660E-02 6.64982E-02
 -1       803 5.18176E-04 5.61113E-02 8.17337E-02
 -1       804-4.44327E-04 5.87905E-02 9.11422E-02
 -1       805-1.17628E-03 5.73968E-02 9.34865E-02
 -1       806-1.70317E-03 5.23216E-02 8.81222E-02
 -1       807-2.10728E-03 4.40240E-02 7.51556E-02
 -1       808-2.49069E-03 3.29431E-02 5.54787E-02
 -1       809-2.93508E-03 1.94696E-02 3.06586E-02
 -1       810-3.47202E-03 3.97435E-03 2.69446E-03
 -1       811-4.07507E-03-1.31327E-02-2.63031E-02
 -1       812-4.67696E-03-3.13510E-02-5.44364E-02
 -1       813-5.21523E-03-5.00902E-02-8.02419E-02
 -1       814-5.60162E-03-6.88072E-02-1.02942E-01
 -1       815 5.78630E-04-3.30525E-03-6.56201E-03
 -1       816 1.50873E-03-1.10236E-02-2.17296E-02
 -1       817 2.23529E-03-2.15798E-02-4.03319E-02
 -1       818 2.72463E-03-3.34724E-02-5.86884E-02
 -1       819 2.84873E-03-4.52261E-02-7.41606E-02
 -1       820 2.52447E-03-5.53675E-02-8.50381E-02
 -1       821 1.73181E-03-6.25079E-02-9.04351E-02
 -1       822 5.37042E-04-6.54943E-02-9.01425E-02
 -1       823-9.06436E-04-6.35810E-02-8.44331E-02
 -1       824-2.38253E-03-5.65702E-02-7.38647E-02
 -1       825-3.65566E-03-4.48770E-02-5.91297E-02
 -1       826-4.52140E-03-2.94954E-02-4.09808E-02
 -1       827-4.85083E-03-1.18632E-02-2.02364E-02
 -1       828-4.61703E-03 6.34857E-03 2.15691E-03
 -1       829-3.89649E-03 2.34781E-02 2.50468E-02
 -1       830-2.84551E-03 3.80963E-02 4.70328E-02
 -1       831-1.65827E-03 4.91660E-02 6.64982E-02
 -1       832-5.18176E-04 5.61113E-02 8.17337E-02
 -1       833 4.44327E-04 5.87905E-02 9.11422E-02
 -1       834 1.17628E-03 5.73968E-02 9.34865E-02
 -1       835 1.70317E-03 5.23216E-02 8.81222E-02
 -1       836 2.10728E-03 4.40240E-02 7.51556E-02
 -1       837 2.49069E-03 3.29431E-02 5.54787E-02
 -1       838 2.93508E-03 1.94696E-02 3.06586E-02
 -1       839 3.47202E-03 3.97435E-03 2.69446E-03
 -1       840 4.07507E-03-1.31327E-02-2.63031E-02
 -1       841 4.67696E-03-3.13510E-02-5.44364E-02
 -1       842 5.21523E-03-5.00902E-02-8.02419E-02
 -1       843 5.60162E-03-6.88072E-02-1.02942E-01
 -1       844 2.21830E-03-1.30371E-03-6.64469E-03
 -1       845 3.93941E-03-4.50239E-03-2.17965E-02
 -1       846 4.86103E-03-9.49867E-03-4.04049E-02
 -1       847 5.11044E-03-1.59086E-02-5.87624E-02
 -1       848 4.69586E-03-2.30330E-02-7.42317E-02
 -1       849 3.65640E-03-2.99119E-02-8.51017E-02
 -1       850 2.07777E-03-3.54252E-02-9.04879E-02
 -1       851 1.07208E-04-3.84877E-02-9.01835E-02
 -1       852-2.04960E-03-3.82766E-02-8.44637E-02
 -1       853-4.14954E-03-3.44295E-02-7.38880E-02
 -1       854-5.94612E-03-2.71549E-02-5.91493E-02
 -1       855-7.22844E-03-1.72195E-02-4.09991E-02
 -1       856-7.85537E-03-5.81235E-03-2.02535E-02
 -1       857-7.77664E-03 5.68316E-03 2.14315E-03
 -1       858-7.03567E-03 1.59537E-02 2.50405E-02
 -1       859-5.75399E-03 2.39913E-02 4.70388E-02
 -1       860-4.10161E-03 2.92429E-02 6.65202E-02
 -1       861-2.26122E-03 3.16415E-02 8.17729E-02
 -1       862-3.95262E-04 3.15198E-02 9.11962E-02
 -1       863 1.37629E-03 2.94371E-02 9.35494E-02
 -1       864 2.98321E-03 2.59742E-02 8.81851E-02
 -1       865 4.39766E-03 2.15570E-02 7.52085E-02
 -1       866 5.61666E-03 1.63582E-02 5.55123E-02
 -1       867 6.64228E-03 1.03035E-02 3.06658E-02
 -1       868 7.46735E-03 3.17119E-03 2.67164E-03
 -1       869 8.07363E-03-5.25417E-03-2.63566E-02
 -1       870 8.44314E-03-1.50395E-02-5.45194E-02
 -1       871 8.57850E-03-2.60507E-02-8.03491E-02
 -1       872 8.55364E-03-3.79808E-02-1.03070E-01
 -1       873 5.60162E-03-6.88072E-02 1.02942E-01
 -1       874 5.21523E-03-5.00902E-02 8.02419E-02
 -1       875 4.67696E-03-3.13510E-02 5.44364E-02
 -1       876 4.07507E-03-1.31327E-02 2.63031E-02
 -1       877 3.47202E-03 3.97435E-03-2.69446E-03
 -1       878 2.93508E-03 1.94696E-02-3.06586E-02
 -1       879 2.49069E-03 3.29431E-02-5.54787E-02
 -1       880 2.10728E-03 4.40240E-02-7.51556E-02
 -1       881 1.70317E-03 5.23216E-02-8.81222E-02
 -1       882 1.17628E-03 5.73968E-02-9.34865E-02
 -1       883 4.44327E-04 5.87905E-02-9.11422E-02
 -1       884-5.18176E-04 5.61113E-02-8.17337E-02
 -1       885-1.65827E-03 4.91660E-02-6.64982E-02
 -1       886-2.84551E-03 3.80963E-02-4.70328E-02
 -1       887-3.89649E-03 2.34781E-02-2.50468E-02
 -1       888-4.61703E-03 6.34857E-03-2.15691E-03
 -1       889-4.85083E-03-1.18632E-02 2.02364E-02
 -1       890-4.52140E-03-2.94954E-02 4.09808E-02
 -1       891-3.65566E-03-4.48770E-02 5.91297E-02
 -1       892-2.38253E-03-5.65702E-02 7.38647E-02
 -1       893-9.06436E-04-6.35810E-02 8.44331E-02
 -1       894 5.37042E-04-6.54943E-02 9.01425E-02
 -1       895 1.73181E-03-6.25079E-02 9.04351E-02
 -1       896 2.52447E-03-5.53675E-02 8.50381E-02
 -1       897 2.84873E-03-4.52261E-02 7.41606E-02
 -1       898 2.72463E-03-3.34724E-02 5.86884E-02
 -1       899 2.23529E-03-2.15798E-02 4.03319E-02
 -1       900 1.50873E-03-1.10236E-02 2.17296E-02
 -1       901 5.78630E-04-3.30525E-03 6.56201E-03
 -1       902 2.21830E-03-1.30371E-03 6.64469E-03
 -1       903 3.93941E-03-4.50239E-03 2.17965E-02
 -1       904 4.86103E-03-9.49867E-03 4.04049E-02
 -1       905 5.11044E-03-1.59086E-02 5.87624E-02
 -1       906 4.69586E-03-2.30330E-02 7.42317E-02
 -1       907 3.65640E-03-2.99119E-02 8.51017E-02
 -1       908 2.07777E-03-3.54252E-02 9.04879E-02
 -1       909 1.07208E-04-3.84877E-02 9.01835E-02
 -1       910-2.04960E-03-3.82766E-02 8.44637E-02
 -1       911-4.14954E-03-3.44295E-02 7.38880E-02
 -1       912-5.94612E-03-2.71549E-02 5.91493E-02
 -1       913-7.22844E-03-1.72195E-02 4.09991E-02
 -1       914-7.85537E-03-5.81235E-03 2.02535E-02
 -1       915-7.77664E-03 5.68316E-03-2.14315E-03
 -1       916-7.03567E-03 1.59537E-02-2.50405E-02
 -1       917-5.75399E-03 2.39913E-02-4.70388E-02
 -1       918-4.10161E-03 2.92429E-02-6.65202E-02
 -1       919-2.26122E-03 3.16415E-02-8.17729E-02
 -1       920-3.95262E-04 3.15198E-02-9.11962E-02
 -1       921 1.37629E-03 2.94371E-02-9.35494E-02
 -1       922 2.98321E-03 2.59742E-02-8.81851E-02
 -1       923 4.39766E-03 2.15570E-02-7.52085E-02
 -1       924 5.61666E-03 1.63582E-02-5.55123E-02
 -1       925 6.64228E-03 1.03035E-02-3.06658E-02
 -1       926 7.46735E-03 3.17119E-03-2.67164E-03
 -1       927 8.07363E-03-5.25417E-03 2.63566E-02
 -1       928 8.44314E-03-1.50395E-02 5.45194E-02
 -1       929 8.57850E-03-2.60507E-02 8.03491E-02
 -1       930 8.55364E-03-3.79808E-02 1.03070E-01
 -3
    1PSTEP                        62           1           1          
    1PGM                1.000000E+00                                  
    1PGK                2.688228E+07                                  
    1PHID                         -1                                  
    1PSUBC                         0                                  
    1PMODE                        16                                  
  100CL  116 825.1885118         930                     2   16MODAL      1
 -4  STRESS      6    1
 -5  SXX         1    4    1    1
 -5  SYY         1    4    2    2
 -5  SZZ         1    4    3    3
 -5  SXY         1    4    1    2
 -5  SYZ         1    4    2    3
 -5  SZX         1    4    3    1
 -1         1-3.39686E+08-1.45586E+08-1.45586E+08-1.00213E+09-1.30748E+04 3.83794E+08
 -1         2 3.39686E+08 1.45586E+08 1.45586E+08-1.00213E+09-1.30748E+04-3.83794E+08
 -1         3-6.27942E+09-7.11574E+09-1.40848E+10 1.91181E+09-2.74879E+09 1.27993E+09
 -1         4 6.27942E+09 7.11574E+09 1.40848E+10 1.91181E+09-2.74879E+09-1.27993E+09
 -1         5-3.39686E+08-1.45586E+08-1.45586E+08-1.00213E+09 1.30748E+04-3.83794E+08
 -1         6 3.39686E+08 1.45586E+08 1.45586E+08-1.00213E+09 1.30748E+04 3.83794E+08
 -1         7-6.27942E+09-7.11574E+09-1.40848E+10 1.91181E+09 2.74879E+09-1.27993E+09
 -1         8 6.27942E+09 7.11574E+09 1.40848E+10 1.91181E+09 2.74879E+09 1.27993E+09
 -1         9-1.45322E+08-6.22882E+07-6.22886E+07-2.49694E+09-1.61706E+04 4.17969E+08
 -1        10-3.72661E+09-6.41958E+08-1.21916E+10-5.29434E+09 5.74315E+09 7.71426E+08
 -1        11-4.10596E+09-1.75974E+09-1.75974E+09-2.91345E+09 3.97135E+02 1.03641E+10
 -1        12-1.27401E+10-5.46009E+09-5.46010E+09-1.33065E+09-7.96721E+01 1.04885E+10
 -1        13-8.22876E+08 5.86597E+08-1.04565E+09-4.47606E+09 2.34235E+08 1.73464E+09
 -1        14-8.46055E+08-1.83749E+09-1.77983E+09 4.33474E+09 6.15699E+08 1.72452E+09
 -1        15-1.45322E+08-6.22882E+07-6.22886E+07-2.49694E+09 1.61706E+04-4.17969E+08
 -1        16-3.72661E+09-6.41958E+08-1.21916E+10-5.29434E+09-5.74315E+09-7.71426E+08
 -1        17-1.27401E+10-5.46009E+09-5.46010E+09-1.33065E+09 7.96721E+01-1.04885E+10
 -1        18-4.10596E+09-1.75974E+09-1.75974E+09-2.91345E+09-3.97135E+02-1.03641E+10
 -1        19-8.46055E+08-1.83749E+09-1.77983E+09 4.33474E+09-6.15699E+08-1.72452E+09
 -1        20-8.22876E+08 5.86597E+08-1.04565E+09-4.47606E+09-2.34235E+08-1.73464E+09
 -1        21 1.27401E+10 5.46009E+09 5.46010E+09-1.33065E+09-7.96721E+01-1.04885E+10
 -1        22 4.10596E+09 1.75974E+09 1.75974E+09-2.91345E+09 3.97135E+02-1.03641E+10
 -1        23 8.22876E+08-5.86597E+08 1.04565E+09-4.47606E+09 2.34235E+08-1.73464E+09
 -1        24 8.46055E+08 1.83749E+09 1.77983E+09 4.33474E+09 6.15699E+08-1.72452E+09
 -1        25 1.45322E+08 6.22882E+07 6.22886E+07-2.49694E+09-1.61706E+04-4.17969E+08
 -1        26 3.72661E+09 6.41958E+08 1.21916E+10-5.29434E+09 5.74315E+09-7.71426E+08
 -1        27 1.45322E+08 6.22882E+07 6.22886E+07-2.49694E+09 1.61706E+04 4.17969E+08
 -1        28 4.10596E+09 1.75974E+09 1.75974E+09-2.91345E+09-3.97135E+02 1.03641E+10
 -1        29 1.27401E+10 5.46009E+09 5.46010E+09-1.33065E+09 7.96721E+01 1.04885E+10
 -1        30 3.72661E+09 6.41958E+08 1.21916E+10-5.29434E+09-5.74315E+09 7.71426E+08
 -1        31 8.22876E+08-5.86597E+08 1.04565E+09-4.47606E+09-2.34235E+08 1.73464E+09
 -1        32 8.46055E+08 1.83749E+09 1.77983E+09 4.33474E+09-6.15699E+08 1.72452E+09
 -1        33 5.92556E+08 3.36321E+08 8.71222E+08 9.78397E+08-7.06721E+07-5.57910E+08
 -1        34 1.40482E+09 1.34709E+09 2.72931E+09 1.66018E+09-4.02930E+08-9.53456E+08
 -1        35 2.35117E+09 2.53444E+09 4.89712E+09 1.81622E+09-7.90978E+08-1.04532E+09
 -1        36 3.27047E+09 3.69675E+09 7.05621E+09 1.61692E+09-1.16995E+09-9.30884E+08
 -1        37 4.03701E+09 4.71257E+09 8.90983E+09 1.18626E+09-1.47105E+09-6.84722E+08
 -1        38 4.56599E+09 5.46734E+09 1.02600E+10 6.37637E+08-1.66347E+09-3.73076E+08
 -1        39 4.81250E+09 5.88714E+09 1.09772E+10 6.78573E+07-1.73815E+09-5.03756E+07
 -1        40 4.76698E+09 5.93448E+09 1.10075E+10-4.59107E+08-1.70315E+09 2.47620E+08
 -1        41 4.44616E+09 5.60562E+09 1.03583E+10-9.12131E+08-1.57409E+09 5.03985E+08
 -1        42 3.88103E+09 4.92395E+09 9.08178E+09-1.28865E+09-1.36815E+09 7.17281E+08
 -1        43 3.10762E+09 3.93307E+09 7.25968E+09-1.60208E+09-1.09951E+09 8.94763E+08
 -1        44 2.16262E+09 2.69199E+09 4.99392E+09-1.86675E+09-7.78047E+08 1.04413E+09
 -1        45 1.08426E+09 1.27234E+09 2.40385E+09-2.08464E+09-4.10911E+08 1.16633E+09
 -1        46-8.31008E+07-2.42817E+08-3.72204E+08-2.23808E+09-6.25898E+06 1.25156E+09
 -1        47-1.28337E+09-1.76028E+09-3.17451E+09-2.29080E+09 4.22286E+08 1.27987E+09
 -1        48-2.44519E+09-3.17918E+09-5.82274E+09-2.19709E+09 8.52298E+08 1.22621E+09
 -1        49-3.48285E+09-4.39597E+09-8.12299E+09-1.91647E+09 1.25179E+09 1.06852E+09
 -1        50-4.30293E+09-5.31212E+09-9.88239E+09-1.42955E+09 1.58175E+09 7.96417E+08
 -1        51-4.81596E+09-5.84395E+09-1.09300E+10-7.50137E+08 1.80181E+09 4.17884E+08
 -1        52-4.95094E+09-5.93313E+09-1.11407E+10 7.03830E+07 1.87762E+09-3.83913E+07
 -1        53-4.66918E+09-5.55564E+09-1.04561E+10 9.48411E+08 1.78836E+09-5.25934E+08
 -1        54-3.97373E+09-4.72688E+09-8.89812E+09 1.78258E+09 1.53218E+09-9.88326E+08
 -1        55-2.91114E+09-3.50069E+09-6.56933E+09 2.47422E+09 1.12851E+09-1.37025E+09
 -1        56-1.56391E+09-1.96156E+09-3.63759E+09 2.94899E+09 6.16188E+08-1.62921E+09
 -1        57-3.46299E+07-2.10153E+08-3.07767E+08 3.17397E+09 4.78872E+07-1.74561E+09
 -1        58 1.56917E+09 1.64427E+09 3.20130E+09 3.16202E+09-5.22183E+08-1.72885E+09
 -1        59 3.14072E+09 3.48808E+09 6.67136E+09 2.97671E+09-1.05134E+09-1.62051E+09
 -1        60 4.56252E+09 5.15253E+09 9.81255E+09 2.65135E+09-1.55393E+09-1.47778E+09
 -1        61 5.62077E+09 6.45094E+09 1.23032E+10 2.51584E+09-2.02431E+09-1.41292E+09
 -1        62-5.92556E+08-3.36321E+08-8.71222E+08 9.78397E+08-7.06721E+07 5.57910E+08
 -1        63-1.40482E+09-1.34709E+09-2.72931E+09 1.66018E+09-4.02930E+08 9.53456E+08
 -1        64-2.35117E+09-2.53444E+09-4.89712E+09 1.81622E+09-7.90978E+08 1.04532E+09
 -1        65-3.27047E+09-3.69675E+09-7.05621E+09 1.61692E+09-1.16995E+09 9.30884E+08
 -1        66-4.03701E+09-4.71257E+09-8.90983E+09 1.18626E+09-1.47105E+09 6.84722E+08
 -1        67-4.56599E+09-5.46734E+09-1.02600E+10 6.37637E+08-1.66347E+09 3.73076E+08
 -1        68-4.81250E+09-5.88714E+09-1.09772E+10 6.78573E+07-1.73815E+09 5.03756E+07
 -1        69-4.76698E+09-5.93448E+09-1.10075E+10-4.59107E+08-1.70315E+09-2.47620E+08
 -1        70-4.44616E+09-5.60562E+09-1.03583E+10-9.12131E+08-1.57409E+09-5.03985E+08
 -1        71-3.88103E+09-4.92395E+09-9.08178E+09-1.28865E+09-1.36815E+09-7.17281E+08
 -1        72-3.10762E+09-3.93307E+09-7.25968E+09-1.60208E+09-1.09951E+09-8.94763E+08
 -1        73-2.16262E+09-2.69199E+09-4.99392E+09-1.86675E+09-7.78047E+08-1.04413E+09
 -1        74-1.08426E+09-1.27234E+09-2.40385E+09-2.08464E+09-4.10911E+08-1.16633E+09
 -1        75 8.31008E+07 2.42817E+08 3.72204E+08-2.23808E+09-6.25898E+06-1.25156E+09
 -1        76 1.28337E+09 1.76028E+09 3.17451E+09-2.29080E+09 4.22286E+08-1.27987E+09
 -1        77 2.44519E+09 3.17918E+09 5.82274E+09-2.19709E+09 8.52298E+08-1.22621E+09
 -1        78 3.48285E+09 4.39597E+09 8.12299E+09-1.91647E+09 1.25179E+09-1.06852E+09
 -1        79 4.30293E+09 5.31212E+09 9.88239E+09-1.42955E+09 1.58175E+09-7.96417E+08
 -1        80 4.81596E+09 5.84395E+09 1.09300E+10-7.50137E+08 1.80181E+09-4.17884E+08
 -1        81 4.95094E+09 5.93313E+09 1.11407E+10 7.03830E+07 1.87762E+09 3.83913E+07
 -1        82 4.66918E+09 5.55564E+09 1.04561E+10 9.48411E+08 1.78836E+09 5.25934E+08
 -1        83 3.97373E+09 4.72688E+09 8.89812E+09 1.78258E+09 1.53218E+09 9.88326E+08
 -1        84 2.91114E+09 3.50069E+09 6.56933E+09 2.47422E+09 1.12851E+09 1.37025E+09
 -1        85 1.56391E+09 1.96156E+09 3.63759E+09 2.94899E+09 6.16188E+08 1.62921E+09
 -1        86 3.46299E+07 2.10153E+08 3.07767E+08 3.17397E+09 4.78872E+07 1.74561E+09
 -1        87-1.56917E+09-1.64427E+09-3.20130E+09 3.16202E+09-5.22183E+08 1.72885E+09
 -1        88-3.14072E+09-3.48808E+09-6.67136E+09 2.97671E+09-1.05134E+09 1.62051E+09
 -1        89-4.56252E+09-5.15253E+09-9.81255E+09 2.65135E+09-1.55393E+09 1.47778E+09
 -1        90-5.62077E+09-6.45094E+09-1.23032E+10 2.51584E+09-2.02431E+09 1.41292E+09
 -1        91 1.55374E+09 6.65886E+08 6.65885E+08 5.63970E+09-2.51705E+03 2.18349E+08
 -1        92 2.20097E+09 9.43274E+08 9.43272E+08 8.05194E+09-2.65986E-06-1.68387E-02
 -1        93 1.55374E+09 6.65886E+08 6.65885E+08 5.63970E+09 2.51705E+03-2.18349E+08
 -1        94-1.55374E+09-6.65886E+08-6.65885E+08 5.63970E+09 2.51705E+03 2.18349E+08
 -1        95-2.20097E+09-9.43274E+08-9.43272E+08 8.05194E+09-2.99513E-06-1.84848E-02
 -1        96-1.55374E+09-6.65886E+08-6.65885E+08 5.63970E+09-2.51705E+03-2.18349E+08
 -1        97-5.92556E+08-3.36321E+08-8.71222E+08 9.78397E+08 7.06721E+07-5.57910E+08
 -1        98-1.40482E+09-1.34709E+09-2.72931E+09 1.66018E+09 4.02930E+08-9.53456E+08
 -1        99-2.35117E+09-2.53444E+09-4.89712E+09 1.81622E+09 7.90978E+08-1.04532E+09
 -1       100-3.27047E+09-3.69675E+09-7.05621E+09 1.61692E+09 1.16995E+09-9.30884E+08
 -1       101-4.03701E+09-4.71257E+09-8.90983E+09 1.18626E+09 1.47105E+09-6.84722E+08
 -1       102-4.56599E+09-5.46734E+09-1.02600E+10 6.37637E+08 1.66347E+09-3.73076E+08
 -1       103-4.81250E+09-5.88714E+09-1.09772E+10 6.78573E+07 1.73815E+09-5.03756E+07
 -1       104-4.76698E+09-5.93448E+09-1.10075E+10-4.59107E+08 1.70315E+09 2.47620E+08
 -1       105-4.44616E+09-5.60562E+09-1.03583E+10-9.12131E+08 1.57409E+09 5.03985E+08
 -1       106-3.88103E+09-4.92395E+09-9.08178E+09-1.28865E+09 1.36815E+09 7.17281E+08
 -1       107-3.10762E+09-3.93307E+09-7.25968E+09-1.60208E+09 1.09951E+09 8.94763E+08
 -1       108-2.16262E+09-2.69199E+09-4.99392E+09-1.86675E+09 7.78047E+08 1.04413E+09
 -1       109-1.08426E+09-1.27234E+09-2.40385E+09-2.08464E+09 4.10911E+08 1.16633E+09
 -1       110 8.31008E+07 2.42817E+08 3.72204E+08-2.23808E+09 6.25898E+06 1.25156E+09
 -1       111 1.28337E+09 1.76028E+09 3.17451E+09-2.29080E+09-4.22286E+08 1.27987E+09
 -1       112 2.44519E+09 3.17918E+09 5.82274E+09-2.19709E+09-8.52298E+08 1.22621E+09
 -1       113 3.48285E+09 4.39597E+09 8.12299E+09-1.91647E+09-1.25179E+09 1.06852E+09
 -1       114 4.30293E+09 5.31212E+09 9.88239E+09-1.42955E+09-1.58175E+09 7.96417E+08
 -1       115 4.81596E+09 5.84395E+09 1.09300E+10-7.50137E+08-1.80181E+09 4.17884E+08
 -1       116 4.95094E+09 5.93313E+09 1.11407E+10 7.03830E+07-1.87762E+09-3.83913E+07
 -1       117 4.66918E+09 5.55564E+09 1.04561E+10 9.48411E+08-1.78836E+09-5.25934E+08
 -1       118 3.97373E+09 4.72688E+09 8.89812E+09 1.78258E+09-1.53218E+09-9.88326E+08
 -1       119 2.91114E+09 3.50069E+09 6.56933E+09 2.47422E+09-1.12851E+09-1.37025E+09
 -1       120 1.56391E+09 1.96156E+09 3.63759E+09 2.94899E+09-6.16188E+08-1.62921E+09
 -1       121 3.46299E+07 2.10153E+08 3.07767E+08 3.17397E+09-4.78872E+07-1.74561E+09
 -1       122-1.56917E+09-1.64427E+09-3.20130E+09 3.16202E+09 5.22183E+08-1.72885E+09
 -1       123-3.14072E+09-3.48808E+09-6.67136E+09 2.97671E+09 1.05134E+09-1.62051E+09
 -1       124-4.56252E+09-5.15253E+09-9.81255E+09 2.65135E+09 1.55393E+09-1.47778E+09
 -1       125-5.62077E+09-6.45094E+09-1.23032E+10 2.51584E+09 2.02431E+09-1.41292E+09
 -1       126-5.97460E+09-5.96608E+09-1.39123E+10-2.96946E+08-5.11116E+09 1.60031E+09
 -1       127-7.00639E+09-7.03254E+09-1.64354E+10-1.72555E+08-5.77545E-03 1.38001E-02
 -1       128-5.97460E+09-5.96608E+09-1.39123E+10-2.96946E+08 5.11116E+09-1.60031E+09
 -1       129 5.92556E+08 3.36321E+08 8.71222E+08 9.78397E+08 7.06721E+07 5.57910E+08
 -1       130 1.40482E+09 1.34709E+09 2.72931E+09 1.66018E+09 4.02930E+08 9.53456E+08
 -1       131 2.35117E+09 2.53444E+09 4.89712E+09 1.81622E+09 7.90978E+08 1.04532E+09
 -1       132 3.27047E+09 3.69675E+09 7.05621E+09 1.61692E+09 1.16995E+09 9.30884E+08
 -1       133 4.03701E+09 4.71257E+09 8.90983E+09 1.18626E+09 1.47105E+09 6.84722E+08
 -1       134 4.56599E+09 5.46734E+09 1.02600E+10 6.37637E+08 1.66347E+09 3.73076E+08
 -1       135 4.81250E+09 5.88714E+09 1.09772E+10 6.78573E+07 1.73815E+09 5.03756E+07
 -1       136 4.76698E+09 5.93448E+09 1.10075E+10-4.59107E+08 1.70315E+09-2.47620E+08
 -1       137 4.44616E+09 5.60562E+09 1.03583E+10-9.12131E+08 1.57409E+09-5.03985E+08
 -1       138 3.88103E+09 4.92395E+09 9.08178E+09-1.28865E+09 1.36815E+09-7.17281E+08
 -1       139 3.10762E+09 3.93307E+09 7.25968E+09-1.60208E+09 1.09951E+09-8.94763E+08
 -1       140 2.16262E+09 2.69199E+09 4.99392E+09-1.86675E+09 7.78047E+08-1.04413E+09
 -1       141 1.08426E+09 1.27234E+09 2.40385E+09-2.08464E+09 4.10911E+08-1.16633E+09
 -1       142-8.31008E+07-2.42817E+08-3.72204E+08-2.23808E+09 6.25898E+06-1.25156E+09
 -1       143-1.28337E+09-1.76028E+09-3.17451E+09-2.29080E+09-4.22286E+08-1.27987E+09
 -1       144-2.44519E+09-3.17918E+09-5.82274E+09-2.19709E+09-8.52298E+08-1.22621E+09
 -1       145-3.48285E+09-4.39597E+09-8.12299E+09-1.91647E+09-1.25179E+09-1.06852E+09
 -1       146-4.30293E+09-5.31212E+09-9.88239E+09-1.42955E+09-1.58175E+09-7.96417E+08
 -1       147-4.81596E+09-5.84395E+09-1.09300E+10-7.50137E+08-1.80181E+09-4.17884E+08
 -1       148-4.95094E+09-5.93313E+09-1.11407E+10 7.03830E+07-1.87762E+09 3.83913E+07
 -1       149-4.66918E+09-5.55564E+09-1.04561E+10 9.48411E+08-1.78836E+09 5.25934E+08
 -1       150-3.97373E+09-4.72688E+09-8.89812E+09 1.78258E+09-1.53218E+09 9.88326E+08
 -1       151-2.91114E+09-3.50069E+09-6.56933E+09 2.47422E+09-1.12851E+09 1.37025E+09
 -1       152-1.56391E+09-1.96156E+09-3.63759E+09 2.94899E+09-6.16188E+08 1.62921E+09
 -1       153-3.46299E+07-2.10153E+08-3.07767E+08 3.17397E+09-4.78872E+07 1.74561E+09
 -1       154 1.56917E+09 1.64427E+09 3.20130E+09 3.16202E+09 5.22183E+08 1.72885E+09
 -1       155 3.14072E+09 3.48808E+09 6.67136E+09 2.97671E+09 1.05134E+09 1.62051E+09
 -1       156 4.56252E+09 5.15253E+09 9.81255E+09 2.65135E+09 1.55393E+09 1.47778E+09
 -1       157 5.62077E+09 6.45094E+09 1.23032E+10 2.51584E+09 2.02431E+09 1.41292E+09
 -1       158 5.97460E+09 5.96608E+09 1.39123E+10-2.96946E+08 5.11116E+09 1.60031E+09
 -1       159 7.00639E+09 7.03254E+09 1.64354E+10-1.72555E+08-5.94711E-03 4.81641E-03
 -1       160 5.97460E+09 5.96608E+09 1.39123E+10-2.96946E+08-5.11116E+09-1.60031E+09
 -1       161-2.66350E+08 2.44452E+08-6.64761E+08-3.30649E+09 5.15780E+08 2.82001E+08
 -1       162-8.43186E+08 4.89931E+07-2.34067E+09-4.65521E+09 1.18716E+09 5.67711E+08
 -1       163-1.41273E+09-1.07443E+08-4.21083E+09-5.08136E+09 2.11095E+09 6.24433E+08
 -1       164-1.96865E+09-2.59974E+08-6.09443E+09-4.73513E+09 3.00584E+09 5.44145E+08
 -1       165-2.42453E+09-4.08744E+08-7.72066E+09-3.83613E+09 3.78760E+09 3.78265E+08
 -1       166-2.73408E+09-5.35461E+08-8.92172E+09-2.56454E+09 4.35932E+09 1.75097E+08
 -1       167-2.87338E+09-6.27373E+08-9.57756E+09-1.08027E+09 4.66675E+09-2.61362E+07
 -1       168-2.83895E+09-6.71984E+08-9.63208E+09 4.74931E+08 4.68332E+09-2.01135E+08
 -1       169-2.64281E+09-6.60917E+08-9.08353E+09 1.98350E+09 4.41014E+09-3.41369E+08
 -1       170-2.30469E+09-5.91950E+08-7.97244E+09 3.35186E+09 3.86786E+09-4.51113E+08
 -1       171-1.84619E+09-4.69855E+08-6.36961E+09 4.50667E+09 3.09088E+09-5.41499E+08
 -1       172-1.28821E+09-3.06134E+08-4.36812E+09 5.38888E+09 2.12325E+09-6.23245E+08
 -1       173-6.51737E+08-1.17410E+08-2.07958E+09 5.94851E+09 1.01723E+09-7.00302E+08
 -1       174 3.89089E+07 7.71249E+07 3.66599E+08 6.14270E+09-1.66570E+08-7.66316E+08
 -1       175 7.52083E+08 2.58666E+08 2.82366E+09 5.93838E+09-1.35873E+09-8.04984E+08
 -1       176 1.44618E+09 4.11503E+08 5.13027E+09 5.31924E+09-2.48183E+09-7.94259E+08
 -1       177 2.06991E+09 5.24890E+08 7.11787E+09 4.29511E+09-3.45370E+09-7.13206E+08
 -1       178 2.56629E+09 5.93744E+08 8.62328E+09 2.91046E+09-4.19360E+09-5.49472E+08
 -1       179 2.87992E+09 6.18143E+08 9.50549E+09 1.24893E+09-4.63077E+09-3.05124E+08
 -1       180 2.96627E+09 6.01904E+08 9.66416E+09-5.69035E+08-4.71396E+09 1.01773E+06
 -1       181 2.80048E+09 5.50752E+08 9.05565E+09-2.39634E+09-4.41997E+09 3.35459E+08
 -1       182 2.38355E+09 4.70647E+08 7.70261E+09-4.07639E+09-3.75875E+09 6.56257E+08
 -1       183 1.74350E+09 3.66647E+08 5.69289E+09-5.46454E+09-2.77319E+09 9.22004E+08
 -1       184 9.30675E+08 2.42777E+08 3.16650E+09-6.44958E+09-1.53259E+09 1.10139E+09
 -1       185 7.88868E+06 1.01768E+08 2.91591E+08-6.96919E+09-1.21093E+08 1.18111E+09
 -1       186-9.58311E+08-4.87579E+07-2.74990E+09-7.02269E+09 1.37121E+09 1.16915E+09
 -1       187-1.90321E+09-2.13287E+08-5.77645E+09-6.65017E+09 2.85539E+09 1.09446E+09
 -1       188-2.75049E+09-3.41489E+08-8.50165E+09-6.02405E+09 4.18142E+09 9.86597E+08
 -1       189-3.29689E+09-4.28299E+08-1.05965E+10-5.16334E+09 5.32049E+09 9.45432E+08
 -1       190-1.63561E+09-7.01003E+08-7.01002E+08-2.66959E+09 1.54602E+03 5.30003E+09
 -1       191-6.27081E+09-2.68752E+09-2.68752E+09-1.05297E+09 8.89798E+02 5.36681E+09
 -1       192 3.21695E+09 7.26782E+09 5.31881E+09-4.54911E+09 1.47524E+09 2.15573E+08
 -1       193-2.26730E+09 1.44397E+09 2.14852E+09-2.89932E+09-9.38047E+07-1.04549E+09
 -1       194-3.23019E+09 2.12473E+08 1.06514E+08-4.18222E+09 1.42649E+08-2.68100E+08
 -1       195-2.47493E+09 2.36059E+08-1.94633E+08-4.54561E+09 3.02845E+08 1.03728E+08
 -1       196-1.33562E+09 2.37811E+08-6.96381E+08-4.17639E+09 4.54028E+08 2.67125E+08
 -1       197 3.17361E+08 3.75809E+08-9.77145E+08-3.30224E+09 5.67982E+08 3.05350E+08
 -1       198 2.22292E+09 5.59114E+08-1.15226E+09-2.10436E+09 6.40836E+08 2.54761E+08
 -1       199 4.06705E+09 7.47518E+08-1.20929E+09-7.52115E+08 6.68803E+08 1.34849E+08
 -1       200 5.46385E+09 8.85426E+08-1.17609E+09 6.19360E+08 6.55019E+08-3.37520E+07
 -1       201 6.08314E+09 9.29619E+08-1.07637E+09 1.91162E+09 6.05190E+08-2.27278E+08
 -1       202 5.74091E+09 8.55929E+08-9.31710E+08 3.06109E+09 5.25896E+08-4.19796E+08
 -1       203 4.45832E+09 6.66150E+08-7.55104E+08 4.02834E+09 4.22611E+08-5.86293E+08
 -1       204 2.46412E+09 3.87684E+08-5.50474E+08 4.78401E+09 2.99148E+08-7.05922E+08
 -1       205 1.41690E+08 6.69739E+07-3.15343E+08 5.29656E+09 1.58228E+08-7.64742E+08
 -1       206-2.06505E+09-2.41757E+08-4.62718E+07 5.52606E+09 2.95203E+06-7.57361E+08
 -1       207-3.76107E+09-4.89477E+08 2.54904E+08 5.42664E+09-1.61485E+08-6.87066E+08
 -1       208-4.69505E+09-6.43600E+08 5.76116E+08 4.95718E+09-3.26490E+08-5.64402E+08
 -1       209-4.81400E+09-6.94572E+08 8.93145E+08 4.09721E+09-4.79778E+08-4.04538E+08
 -1       210-4.26319E+09-6.56107E+08 1.17166E+09 2.86308E+09-6.06349E+08-2.24084E+08
 -1       211-3.33281E+09-5.59212E+08 1.37299E+09 1.31894E+09-6.90662E+08-3.81098E+07
 -1       212-2.36709E+09-4.41784E+08 1.46233E+09-4.21834E+08-7.19520E+08 1.42041E+08
 -1       213-1.66247E+09-3.36779E+08 1.41729E+09-2.20694E+09-6.84965E+08 3.09816E+08
 -1       214-1.38396E+09-2.62260E+08 1.23462E+09-3.86620E+09-5.86413E+08 4.63350E+08
 -1       215-1.52423E+09-2.16111E+08 9.32779E+08-5.23966E+09-4.31174E+08 6.03942E+08
 -1       216-1.91940E+09-1.77741E+08 5.49503E+08-6.20633E+09-2.33605E+08 7.33145E+08
 -1       217-2.32187E+09-1.16709E+08 1.31709E+08-6.70543E+09-1.08208E+07 8.46204E+08
 -1       218-2.50983E+09-6.33056E+06-2.72151E+08-6.74098E+09 2.16912E+08 9.29684E+08
 -1       219-2.38376E+09 1.55007E+08-6.32957E+08-6.36492E+09 4.37721E+08 9.90208E+08
 -1       220-1.98634E+09 3.84286E+08-8.75787E+08-5.71454E+09 6.04721E+08 1.01691E+09
 -1       221-1.17859E+09 7.85504E+08-8.97816E+08-4.79069E+09 8.39147E+08 1.41512E+09
 -1       222-8.54160E+09-1.01945E+09-4.72797E+08 2.43976E+09-2.28237E+08-1.01922E+09
 -1       223-6.08298E+09-1.53158E+09-1.27254E+09 3.93199E+09 1.46191E+08-3.17907E+08
 -1       224-2.93868E+09-1.07318E+09-7.26529E+08 4.24920E+09 3.82664E+08 6.79296E+07
 -1       225-2.00271E+08-9.73987E+08-7.19317E+08 3.85660E+09 6.37972E+08 2.23973E+08
 -1       226 2.44708E+09-8.93456E+08-7.19008E+08 2.95889E+09 8.45660E+08 2.63296E+08
 -1       227 4.82779E+09-8.56308E+08-7.95430E+08 1.77501E+09 1.00157E+09 2.16634E+08
 -1       228 6.74755E+09-8.20033E+08-8.75402E+08 4.83695E+08 1.08998E+09 1.06447E+08
 -1       229 7.96065E+09-7.70987E+08-9.23971E+08-7.77899E+08 1.10569E+09-4.74222E+07
 -1       230 8.27245E+09-6.98392E+08-9.07982E+08-1.92588E+09 1.04832E+09-2.22862E+08
 -1       231 7.59777E+09-5.98822E+08-8.11076E+08-2.92215E+09 9.22685E+08-3.96748E+08
 -1       232 6.00065E+09-4.73113E+08-6.34184E+08-3.75727E+09 7.37361E+08-5.47227E+08
 -1       233 3.69507E+09-3.25302E+08-3.95085E+08-4.42830E+09 5.03891E+08-6.56218E+08
 -1       234 1.00833E+09-1.61729E+08-1.23963E+08-4.91948E+09 2.36274E+08-7.11474E+08
 -1       235-1.68392E+09 9.40431E+06 1.43417E+08-5.19189E+09-4.93556E+07-7.07826E+08
 -1       236-4.03358E+09 1.78341E+08 3.73496E+08-5.18581E+09-3.35057E+08-6.47294E+08
 -1       237-5.78746E+09 3.34131E+08 5.41712E+08-4.83530E+09-6.01654E+08-5.38034E+08
 -1       238-6.82878E+09 4.65212E+08 6.36645E+08-4.09086E+09-8.29726E+08-3.92343E+08
 -1       239-7.18312E+09 5.60257E+08 6.60589E+08-2.94343E+09-1.00105E+09-2.24217E+08
 -1       240-6.98937E+09 6.09210E+08 6.26552E+08-1.44184E+09-1.10036E+09-4.70007E+07
 -1       241-6.44539E+09 6.04346E+08 5.52681E+08 3.02237E+08-1.11728E+09 1.28449E+08
 -1       242-5.74568E+09 5.40993E+08 4.55664E+08 2.12510E+09-1.04785E+09 2.94849E+08
 -1       243-5.02962E+09 4.17514E+08 3.44853E+08 3.83640E+09-8.95493E+08 4.48755E+08
 -1       244-4.35594E+09 2.34179E+08 2.18354E+08 5.25427E+09-6.70723E+08 5.89668E+08
 -1       245-3.71034E+09-8.95511E+06 6.28565E+07 6.24169E+09-3.90170E+08 7.17786E+08
 -1       246-3.04181E+09-3.12686E+08-1.43065E+08 6.73461E+09-7.24054E+07 8.28136E+08
 -1       247-2.31515E+09-6.78971E+08-4.15540E+08 6.74643E+09 2.59340E+08 9.08198E+08
 -1       248-1.56978E+09-1.08608E+09-7.61088E+08 6.35486E+09 5.89985E+08 9.67418E+08
 -1       249-9.51437E+08-1.53557E+09-1.14127E+09 5.69473E+09 8.54621E+08 9.95741E+08
 -1       250-8.58996E+08-2.00980E+09-1.64053E+09 4.86728E+09 1.17360E+09 1.40007E+09
 -1       251 2.34109E+07-1.50927E+09 1.72762E+09 4.69079E+09 8.75043E+08 2.25599E+08
 -1       252-3.29689E+09-4.28299E+08-1.05965E+10-5.16334E+09-5.32049E+09-9.45432E+08
 -1       253-2.75049E+09-3.41489E+08-8.50165E+09-6.02405E+09-4.18142E+09-9.86597E+08
 -1       254-1.90321E+09-2.13287E+08-5.77645E+09-6.65017E+09-2.85539E+09-1.09446E+09
 -1       255-9.58311E+08-4.87579E+07-2.74990E+09-7.02269E+09-1.37121E+09-1.16915E+09
 -1       256 7.88868E+06 1.01768E+08 2.91591E+08-6.96919E+09 1.21093E+08-1.18111E+09
 -1       257 9.30675E+08 2.42777E+08 3.16650E+09-6.44958E+09 1.53259E+09-1.10139E+09
 -1       258 1.74350E+09 3.66647E+08 5.69289E+09-5.46454E+09 2.77319E+09-9.22004E+08
 -1       259 2.38355E+09 4.70647E+08 7.70261E+09-4.07639E+09 3.75875E+09-6.56257E+08
 -1       260 2.80048E+09 5.50752E+08 9.05565E+09-2.39634E+09 4.41997E+09-3.35459E+08
 -1       261 2.96627E+09 6.01904E+08 9.66416E+09-5.69035E+08 4.71396E+09-1.01773E+06
 -1       262 2.87992E+09 6.18143E+08 9.50549E+09 1.24893E+09 4.63077E+09 3.05124E+08
 -1       263 2.56629E+09 5.93744E+08 8.62328E+09 2.91046E+09 4.19360E+09 5.49472E+08
 -1       264 2.06991E+09 5.24890E+08 7.11787E+09 4.29511E+09 3.45370E+09 7.13206E+08
 -1       265 1.44618E+09 4.11503E+08 5.13027E+09 5.31924E+09 2.48183E+09 7.94259E+08
 -1       266 7.52083E+08 2.58666E+08 2.82366E+09 5.93838E+09 1.35873E+09 8.04984E+08
 -1       267 3.89089E+07 7.71249E+07 3.66599E+08 6.14270E+09 1.66570E+08 7.66316E+08
 -1       268-6.51737E+08-1.17410E+08-2.07958E+09 5.94851E+09-1.01723E+09 7.00302E+08
 -1       269-1.28821E+09-3.06134E+08-4.36812E+09 5.38888E+09-2.12325E+09 6.23245E+08
 -1       270-1.84619E+09-4.69855E+08-6.36961E+09 4.50667E+09-3.09088E+09 5.41499E+08
 -1       271-2.30469E+09-5.91950E+08-7.97244E+09 3.35186E+09-3.86786E+09 4.51113E+08
 -1       272-2.64281E+09-6.60917E+08-9.08353E+09 1.98350E+09-4.41014E+09 3.41369E+08
 -1       273-2.83895E+09-6.71984E+08-9.63208E+09 4.74931E+08-4.68332E+09 2.01135E+08
 -1       274-2.87338E+09-6.27373E+08-9.57756E+09-1.08027E+09-4.66675E+09 2.61362E+07
 -1       275-2.73408E+09-5.35461E+08-8.92172E+09-2.56454E+09-4.35932E+09-1.75097E+08
 -1       276-2.42453E+09-4.08744E+08-7.72066E+09-3.83613E+09-3.78760E+09-3.78265E+08
 -1       277-1.96865E+09-2.59974E+08-6.09443E+09-4.73513E+09-3.00584E+09-5.44145E+08
 -1       278-1.41273E+09-1.07443E+08-4.21083E+09-5.08136E+09-2.11095E+09-6.24433E+08
 -1       279-8.43186E+08 4.89931E+07-2.34067E+09-4.65521E+09-1.18716E+09-5.67711E+08
 -1       280-2.66350E+08 2.44452E+08-6.64761E+08-3.30649E+09-5.15780E+08-2.82001E+08
 -1       281-6.27081E+09-2.68752E+09-2.68752E+09-1.05297E+09-8.89798E+02-5.36681E+09
 -1       282-1.63561E+09-7.01003E+08-7.01002E+08-2.66959E+09-1.54602E+03-5.30003E+09
 -1       283-8.54160E+09-1.01945E+09-4.72797E+08 2.43976E+09 2.28237E+08 1.01922E+09
 -1       284-6.08298E+09-1.53158E+09-1.27254E+09 3.93199E+09-1.46191E+08 3.17907E+08
 -1       285-2.93868E+09-1.07318E+09-7.26529E+08 4.24920E+09-3.82664E+08-6.79296E+07
 -1       286-2.00271E+08-9.73987E+08-7.19317E+08 3.85660E+09-6.37972E+08-2.23973E+08
 -1       287 2.44708E+09-8.93456E+08-7.19008E+08 2.95889E+09-8.45660E+08-2.63296E+08
 -1       288 4.82779E+09-8.56308E+08-7.95430E+08 1.77501E+09-1.00157E+09-2.16634E+08
 -1       289 6.74755E+09-8.20033E+08-8.75402E+08 4.83695E+08-1.08998E+09-1.06447E+08
 -1       290 7.96065E+09-7.70987E+08-9.23971E+08-7.77899E+08-1.10569E+09 4.74222E+07
 -1       291 8.27245E+09-6.98392E+08-9.07982E+08-1.92588E+09-1.04832E+09 2.22862E+08
 -1       292 7.59777E+09-5.98822E+08-8.11076E+08-2.92215E+09-9.22685E+08 3.96748E+08
 -1       293 6.00065E+09-4.73113E+08-6.34184E+08-3.75727E+09-7.37361E+08 5.47227E+08
 -1       294 3.69507E+09-3.25302E+08-3.95085E+08-4.42830E+09-5.03891E+08 6.56218E+08
 -1       295 1.00833E+09-1.61729E+08-1.23963E+08-4.91948E+09-2.36274E+08 7.11474E+08
 -1       296-1.68392E+09 9.40431E+06 1.43417E+08-5.19189E+09 4.93556E+07 7.07826E+08
 -1       297-4.03358E+09 1.78341E+08 3.73496E+08-5.18581E+09 3.35057E+08 6.47294E+08
 -1       298-5.78746E+09 3.34131E+08 5.41712E+08-4.83530E+09 6.01654E+08 5.38034E+08
 -1       299-6.82878E+09 4.65212E+08 6.36645E+08-4.09086E+09 8.29726E+08 3.92343E+08
 -1       300-7.18312E+09 5.60257E+08 6.60589E+08-2.94343E+09 1.00105E+09 2.24217E+08
 -1       301-6.98937E+09 6.09210E+08 6.26552E+08-1.44184E+09 1.10036E+09 4.70007E+07
 -1       302-6.44539E+09 6.04346E+08 5.52681E+08 3.02237E+08 1.11728E+09-1.28449E+08
 -1       303-5.74568E+09 5.40993E+08 4.55664E+08 2.12510E+09 1.04785E+09-2.94849E+08
 -1       304-5.02962E+09 4.17514E+08 3.44853E+08 3.83640E+09 8.95493E+08-4.48755E+08
 -1       305-4.35594E+09 2.34179E+08 2.18354E+08 5.25427E+09 6.70723E+08-5.89668E+08
 -1       306-3.71034E+09-8.95511E+06 6.28565E+07 6.24169E+09 3.90170E+08-7.17786E+08
 -1       307-3.04181E+09-3.12686E+08-1.43065E+08 6.73461E+09 7.24054E+07-8.28136E+08
 -1       308-2.31515E+09-6.78971E+08-4.15540E+08 6.74643E+09-2.59340E+08-9.08198E+08
 -1       309-1.56978E+09-1.08608E+09-7.61088E+08 6.35486E+09-5.89985E+08-9.67418E+08
 -1       310-9.51437E+08-1.53557E+09-1.14127E+09 5.69473E+09-8.54621E+08-9.95741E+08
 -1       311-8.58996E+08-2.00980E+09-1.64053E+09 4.86728E+09-1.17360E+09-1.40007E+09
 -1       312 2.34109E+07-1.50927E+09 1.72762E+09 4.69079E+09-8.75043E+08-2.25599E+08
 -1       313-2.26730E+09 1.44397E+09 2.14852E+09-2.89932E+09 9.38047E+07 1.04549E+09
 -1       314-3.23019E+09 2.12473E+08 1.06514E+08-4.18222E+09-1.42649E+08 2.68100E+08
 -1       315-2.47493E+09 2.36059E+08-1.94633E+08-4.54561E+09-3.02845E+08-1.03728E+08
 -1       316-1.33562E+09 2.37811E+08-6.96381E+08-4.17639E+09-4.54028E+08-2.67125E+08
 -1       317 3.17361E+08 3.75809E+08-9.77145E+08-3.30224E+09-5.67982E+08-3.05350E+08
 -1       318 2.22292E+09 5.59114E+08-1.15226E+09-2.10436E+09-6.40836E+08-2.54761E+08
 -1       319 4.06705E+09 7.47518E+08-1.20929E+09-7.52115E+08-6.68803E+08-1.34849E+08
 -1       320 5.46385E+09 8.85426E+08-1.17609E+09 6.19360E+08-6.55019E+08 3.37520E+07
 -1       321 6.08314E+09 9.29619E+08-1.07637E+09 1.91162E+09-6.05190E+08 2.27278E+08
 -1       322 5.74091E+09 8.55929E+08-9.31710E+08 3.06109E+09-5.25896E+08 4.19796E+08
 -1       323 4.45832E+09 6.66150E+08-7.55104E+08 4.02834E+09-4.22611E+08 5.86293E+08
 -1       324 2.46412E+09 3.87684E+08-5.50474E+08 4.78401E+09-2.99148E+08 7.05922E+08
 -1       325 1.41690E+08 6.69739E+07-3.15343E+08 5.29656E+09-1.58228E+08 7.64742E+08
 -1       326-2.06505E+09-2.41757E+08-4.62718E+07 5.52606E+09-2.95203E+06 7.57361E+08
 -1       327-3.76107E+09-4.89477E+08 2.54904E+08 5.42664E+09 1.61485E+08 6.87066E+08
 -1       328-4.69505E+09-6.43600E+08 5.76116E+08 4.95718E+09 3.26490E+08 5.64402E+08
 -1       329-4.81400E+09-6.94572E+08 8.93145E+08 4.09721E+09 4.79778E+08 4.04538E+08
 -1       330-4.26319E+09-6.56107E+08 1.17166E+09 2.86308E+09 6.06349E+08 2.24084E+08
 -1       331-3.33281E+09-5.59212E+08 1.37299E+09 1.31894E+09 6.90662E+08 3.81098E+07
 -1       332-2.36709E+09-4.41784E+08 1.46233E+09-4.21834E+08 7.19520E+08-1.42041E+08
 -1       333-1.66247E+09-3.36779E+08 1.41729E+09-2.20694E+09 6.84965E+08-3.09816E+08
 -1       334-1.38396E+09-2.62260E+08 1.23462E+09-3.86620E+09 5.86413E+08-4.63350E+08
 -1       335-1.52423E+09-2.16111E+08 9.32779E+08-5.23966E+09 4.31174E+08-6.03942E+08
 -1       336-1.91940E+09-1.77741E+08 5.49503E+08-6.20633E+09 2.33605E+08-7.33145E+08
 -1       337-2.32187E+09-1.16709E+08 1.31709E+08-6.70543E+09 1.08208E+07-8.46204E+08
 -1       338-2.50983E+09-6.33056E+06-2.72151E+08-6.74098E+09-2.16912E+08-9.29684E+08
 -1       339-2.38376E+09 1.55007E+08-6.32957E+08-6.36492E+09-4.37721E+08-9.90208E+08
 -1       340-1.98634E+09 3.84286E+08-8.75787E+08-5.71454E+09-6.04721E+08-1.01691E+09
 -1       341-1.17859E+09 7.85504E+08-8.97816E+08-4.79069E+09-8.39147E+08-1.41512E+09
 -1       342 3.21695E+09 7.26782E+09 5.31881E+09-4.54911E+09-1.47524E+09-2.15573E+08
 -1       343 2.26730E+09-1.44397E+09-2.14852E+09-2.89932E+09-9.38047E+07 1.04549E+09
 -1       344 3.23019E+09-2.12473E+08-1.06514E+08-4.18222E+09 1.42649E+08 2.68100E+08
 -1       345 2.47493E+09-2.36059E+08 1.94633E+08-4.54561E+09 3.02845E+08-1.03728E+08
 -1       346 1.33562E+09-2.37811E+08 6.96381E+08-4.17639E+09 4.54028E+08-2.67125E+08
 -1       347-3.17361E+08-3.75809E+08 9.77145E+08-3.30224E+09 5.67982E+08-3.05350E+08
 -1       348-2.22292E+09-5.59114E+08 1.15226E+09-2.10436E+09 6.40836E+08-2.54761E+08
 -1       349-4.06705E+09-7.47518E+08 1.20929E+09-7.52115E+08 6.68803E+08-1.34849E+08
 -1       350-5.46385E+09-8.85426E+08 1.17609E+09 6.19360E+08 6.55019E+08 3.37520E+07
 -1       351-6.08314E+09-9.29619E+08 1.07637E+09 1.91162E+09 6.05190E+08 2.27278E+08
 -1       352-5.74091E+09-8.55929E+08 9.31710E+08 3.06109E+09 5.25896E+08 4.19796E+08
 -1       353-4.45832E+09-6.66150E+08 7.55104E+08 4.02834E+09 4.22611E+08 5.86293E+08
 -1       354-2.46412E+09-3.87684E+08 5.50474E+08 4.78401E+09 2.99148E+08 7.05922E+08
 -1       355-1.41690E+08-6.69739E+07 3.15343E+08 5.29656E+09 1.58228E+08 7.64742E+08
 -1       356 2.06505E+09 2.41757E+08 4.62718E+07 5.52606E+09 2.95203E+06 7.57361E+08
 -1       357 3.76107E+09 4.89477E+08-2.54904E+08 5.42664E+09-1.61485E+08 6.87066E+08
 -1       358 4.69505E+09 6.43600E+08-5.76116E+08 4.95718E+09-3.26490E+08 5.64402E+08
 -1       359 4.81400E+09 6.94572E+08-8.93145E+08 4.09721E+09-4.79778E+08 4.04538E+08
 -1       360 4.26319E+09 6.56107E+08-1.17166E+09 2.86308E+09-6.06349E+08 2.24084E+08
 -1       361 3.33281E+09 5.59212E+08-1.37299E+09 1.31894E+09-6.90662E+08 3.81098E+07
 -1       362 2.36709E+09 4.41784E+08-1.46233E+09-4.21834E+08-7.19520E+08-1.42041E+08
 -1       363 1.66247E+09 3.36779E+08-1.41729E+09-2.20694E+09-6.84965E+08-3.09816E+08
 -1       364 1.38396E+09 2.62260E+08-1.23462E+09-3.86620E+09-5.86413E+08-4.63350E+08
 -1       365 1.52423E+09 2.16111E+08-9.32779E+08-5.23966E+09-4.31174E+08-6.03942E+08
 -1       366 1.91940E+09 1.77741E+08-5.49503E+08-6.20633E+09-2.33605E+08-7.33145E+08
 -1       367 2.32187E+09 1.16709E+08-1.31709E+08-6.70543E+09-1.08208E+07-8.46204E+08
 -1       368 2.50983E+09 6.33056E+06 2.72151E+08-6.74098E+09 2.16912E+08-9.29684E+08
 -1       369 2.38376E+09-1.55007E+08 6.32957E+08-6.36492E+09 4.37721E+08-9.90208E+08
 -1       370 1.98634E+09-3.84286E+08 8.75787E+08-5.71454E+09 6.04721E+08-1.01691E+09
 -1       371 1.17859E+09-7.85504E+08 8.97816E+08-4.79069E+09 8.39147E+08-1.41512E+09
 -1       372 8.54160E+09 1.01945E+09 4.72797E+08 2.43976E+09-2.28237E+08 1.01922E+09
 -1       373 6.08298E+09 1.53158E+09 1.27254E+09 3.93199E+09 1.46191E+08 3.17907E+08
 -1       374 2.93868E+09 1.07318E+09 7.26529E+08 4.24920E+09 3.82664E+08-6.79296E+07
 -1       375 2.00271E+08 9.73987E+08 7.19317E+08 3.85660E+09 6.37972E+08-2.23973E+08
 -1       376-2.44708E+09 8.93456E+08 7.19008E+08 2.95889E+09 8.45660E+08-2.63296E+08
 -1       377-4.82779E+09 8.56308E+08 7.95430E+08 1.77501E+09 1.00157E+09-2.16634E+08
 -1       378-6.74755E+09 8.20033E+08 8.75402E+08 4.83695E+08 1.08998E+09-1.06447E+08
 -1       379-7.96065E+09 7.70987E+08 9.23971E+08-7.77899E+08 1.10569E+09 4.74222E+07
 -1       380-8.27245E+09 6.98392E+08 9.07982E+08-1.92588E+09 1.04832E+09 2.22862E+08
 -1       381-7.59777E+09 5.98822E+08 8.11076E+08-2.92215E+09 9.22685E+08 3.96748E+08
 -1       382-6.00065E+09 4.73113E+08 6.34184E+08-3.75727E+09 7.37361E+08 5.47227E+08
 -1       383-3.69507E+09 3.25302E+08 3.95085E+08-4.42830E+09 5.03891E+08 6.56218E+08
 -1       384-1.00833E+09 1.61729E+08 1.23963E+08-4.91948E+09 2.36274E+08 7.11474E+08
 -1       385 1.68392E+09-9.40431E+06-1.43417E+08-5.19189E+09-4.93556E+07 7.07826E+08
 -1       386 4.03358E+09-1.78341E+08-3.73496E+08-5.18581E+09-3.35057E+08 6.47294E+08
 -1       387 5.78746E+09-3.34131E+08-5.41712E+08-4.83530E+09-6.01654E+08 5.38034E+08
 -1       388 6.82878E+09-4.65212E+08-6.36645E+08-4.09086E+09-8.29726E+08 3.92343E+08
 -1       389 7.18312E+09-5.60257E+08-6.60589E+08-2.94343E+09-1.00105E+09 2.24217E+08
 -1       390 6.98937E+09-6.09210E+08-6.26552E+08-1.44184E+09-1.10036E+09 4.70007E+07
 -1       391 6.44539E+09-6.04346E+08-5.52681E+08 3.02237E+08-1.11728E+09-1.28449E+08
 -1       392 5.74568E+09-5.40993E+08-4.55664E+08 2.12510E+09-1.04785E+09-2.94849E+08
 -1       393 5.02962E+09-4.17514E+08-3.44853E+08 3.83640E+09-8.95493E+08-4.48755E+08
 -1       394 4.35594E+09-2.34179E+08-2.18354E+08 5.25427E+09-6.70723E+08-5.89668E+08
 -1       395 3.71034E+09 8.95511E+06-6.28565E+07 6.24169E+09-3.90170E+08-7.17786E+08
 -1       396 3.04181E+09 3.12686E+08 1.43065E+08 6.73461E+09-7.24054E+07-8.28136E+08
 -1       397 2.31515E+09 6.78971E+08 4.15540E+08 6.74643E+09 2.59340E+08-9.08198E+08
 -1       398 1.56978E+09 1.08608E+09 7.61088E+08 6.35486E+09 5.89985E+08-9.67418E+08
 -1       399 9.51437E+08 1.53557E+09 1.14127E+09 5.69473E+09 8.54621E+08-9.95741E+08
 -1       400 8.58996E+08 2.00980E+09 1.64053E+09 4.86728E+09 1.17360E+09-1.40007E+09
 -1       401 1.63561E+09 7.01003E+08 7.01002E+08-2.66959E+09 1.54602E+03-5.30003E+09
 -1       402 6.27081E+09 2.68752E+09 2.68752E+09-1.05297E+09 8.89798E+02-5.36681E+09
 -1       403-3.21695E+09-7.26782E+09-5.31881E+09-4.54911E+09 1.47524E+09-2.15573E+08
 -1       404 2.66350E+08-2.44452E+08 6.64761E+08-3.30649E+09 5.15780E+08-2.82001E+08
 -1       405 8.43186E+08-4.89931E+07 2.34067E+09-4.65521E+09 1.18716E+09-5.67711E+08
 -1       406 1.41273E+09 1.07443E+08 4.21083E+09-5.08136E+09 2.11095E+09-6.24433E+08
 -1       407 1.96865E+09 2.59974E+08 6.09443E+09-4.73513E+09 3.00584E+09-5.44145E+08
 -1       408 2.42453E+09 4.08744E+08 7.72066E+09-3.83613E+09 3.78760E+09-3.78265E+08
 -1       409 2.73408E+09 5.35461E+08 8.92172E+09-2.56454E+09 4.35932E+09-1.75097E+08
 -1       410 2.87338E+09 6.27373E+08 9.57756E+09-1.08027E+09 4.66675E+09 2.61362E+07
 -1       411 2.83895E+09 6.71984E+08 9.63208E+09 4.74931E+08 4.68332E+09 2.01135E+08
 -1       412 2.64281E+09 6.60917E+08 9.08353E+09 1.98350E+09 4.41014E+09 3.41369E+08
 -1       413 2.30469E+09 5.91950E+08 7.97244E+09 3.35186E+09 3.86786E+09 4.51113E+08
 -1       414 1.84619E+09 4.69855E+08 6.36961E+09 4.50667E+09 3.09088E+09 5.41499E+08
 -1       415 1.28821E+09 3.06134E+08 4.36812E+09 5.38888E+09 2.12325E+09 6.23245E+08
 -1       416 6.51737E+08 1.17410E+08 2.07958E+09 5.94851E+09 1.01723E+09 7.00302E+08
 -1       417-3.89089E+07-7.71249E+07-3.66599E+08 6.14270E+09-1.66570E+08 7.66316E+08
 -1       418-7.52083E+08-2.58666E+08-2.82366E+09 5.93838E+09-1.35873E+09 8.04984E+08
 -1       419-1.44618E+09-4.11503E+08-5.13027E+09 5.31924E+09-2.48183E+09 7.94259E+08
 -1       420-2.06991E+09-5.24890E+08-7.11787E+09 4.29511E+09-3.45370E+09 7.13206E+08
 -1       421-2.56629E+09-5.93744E+08-8.62328E+09 2.91046E+09-4.19360E+09 5.49472E+08
 -1       422-2.87992E+09-6.18143E+08-9.50549E+09 1.24893E+09-4.63077E+09 3.05124E+08
 -1       423-2.96627E+09-6.01904E+08-9.66416E+09-5.69035E+08-4.71396E+09-1.01773E+06
 -1       424-2.80048E+09-5.50752E+08-9.05565E+09-2.39634E+09-4.41997E+09-3.35459E+08
 -1       425-2.38355E+09-4.70647E+08-7.70261E+09-4.07639E+09-3.75875E+09-6.56257E+08
 -1       426-1.74350E+09-3.66647E+08-5.69289E+09-5.46454E+09-2.77319E+09-9.22004E+08
 -1       427-9.30675E+08-2.42777E+08-3.16650E+09-6.44958E+09-1.53259E+09-1.10139E+09
 -1       428-7.88868E+06-1.01768E+08-2.91591E+08-6.96919E+09-1.21093E+08-1.18111E+09
 -1       429 9.58311E+08 4.87579E+07 2.74990E+09-7.02269E+09 1.37121E+09-1.16915E+09
 -1       430 1.90321E+09 2.13287E+08 5.77645E+09-6.65017E+09 2.85539E+09-1.09446E+09
 -1       431 2.75049E+09 3.41489E+08 8.50165E+09-6.02405E+09 4.18142E+09-9.86597E+08
 -1       432 3.29689E+09 4.28299E+08 1.05965E+10-5.16334E+09 5.32049E+09-9.45432E+08
 -1       433-2.34109E+07 1.50927E+09-1.72762E+09 4.69079E+09 8.75043E+08-2.25599E+08
 -1       434 1.63561E+09 7.01003E+08 7.01002E+08-2.66959E+09-1.54602E+03 5.30003E+09
 -1       435 6.27081E+09 2.68752E+09 2.68752E+09-1.05297E+09-8.89798E+02 5.36681E+09
 -1       436 3.29689E+09 4.28299E+08 1.05965E+10-5.16334E+09-5.32049E+09 9.45432E+08
 -1       437 2.75049E+09 3.41489E+08 8.50165E+09-6.02405E+09-4.18142E+09 9.86597E+08
 -1       438 1.90321E+09 2.13287E+08 5.77645E+09-6.65017E+09-2.85539E+09 1.09446E+09
 -1       439 9.58311E+08 4.87579E+07 2.74990E+09-7.02269E+09-1.37121E+09 1.16915E+09
 -1       440-7.88868E+06-1.01768E+08-2.91591E+08-6.96919E+09 1.21093E+08 1.18111E+09
 -1       441-9.30675E+08-2.42777E+08-3.16650E+09-6.44958E+09 1.53259E+09 1.10139E+09
 -1       442-1.74350E+09-3.66647E+08-5.69289E+09-5.46454E+09 2.77319E+09 9.22004E+08
 -1       443-2.38355E+09-4.70647E+08-7.70261E+09-4.07639E+09 3.75875E+09 6.56257E+08
 -1       444-2.80048E+09-5.50752E+08-9.05565E+09-2.39634E+09 4.41997E+09 3.35459E+08
 -1       445-2.96627E+09-6.01904E+08-9.66416E+09-5.69035E+08 4.71396E+09 1.01773E+06
 -1       446-2.87992E+09-6.18143E+08-9.50549E+09 1.24893E+09 4.63077E+09-3.05124E+08
 -1       447-2.56629E+09-5.93744E+08-8.62328E+09 2.91046E+09 4.19360E+09-5.49472E+08
 -1       448-2.06991E+09-5.24890E+08-7.11787E+09 4.29511E+09 3.45370E+09-7.13206E+08
 -1       449-1.44618E+09-4.11503E+08-5.13027E+09 5.31924E+09 2.48183E+09-7.94259E+08
 -1       450-7.52083E+08-2.58666E+08-2.82366E+09 5.93838E+09 1.35873E+09-8.04984E+08
 -1       451-3.89089E+07-7.71249E+07-3.66599E+08 6.14270E+09 1.66570E+08-7.66316E+08
 -1       452 6.51737E+08 1.17410E+08 2.07958E+09 5.94851E+09-1.01723E+09-7.00302E+08
 -1       453 1.28821E+09 3.06134E+08 4.36812E+09 5.38888E+09-2.12325E+09-6.23245E+08
 -1       454 1.84619E+09 4.69855E+08 6.36961E+09 4.50667E+09-3.09088E+09-5.41499E+08
 -1       455 2.30469E+09 5.91950E+08 7.97244E+09 3.35186E+09-3.86786E+09-4.51113E+08
 -1       456 2.64281E+09 6.60917E+08 9.08353E+09 1.98350E+09-4.41014E+09-3.41369E+08
 -1       457 2.83895E+09 6.71984E+08 9.63208E+09 4.74931E+08-4.68332E+09-2.01135E+08
 -1       458 2.87338E+09 6.27373E+08 9.57756E+09-1.08027E+09-4.66675E+09-2.61362E+07
 -1       459 2.73408E+09 5.35461E+08 8.92172E+09-2.56454E+09-4.35932E+09 1.75097E+08
 -1       460 2.42453E+09 4.08744E+08 7.72066E+09-3.83613E+09-3.78760E+09 3.78265E+08
 -1       461 1.96865E+09 2.59974E+08 6.09443E+09-4.73513E+09-3.00584E+09 5.44145E+08
 -1       462 1.41273E+09 1.07443E+08 4.21083E+09-5.08136E+09-2.11095E+09 6.24433E+08
 -1       463 8.43186E+08-4.89931E+07 2.34067E+09-4.65521E+09-1.18716E+09 5.67711E+08
 -1       464 2.66350E+08-2.44452E+08 6.64761E+08-3.30649E+09-5.15780E+08 2.82001E+08
 -1       465-3.21695E+09-7.26782E+09-5.31881E+09-4.54911E+09-1.47524E+09 2.15573E+08
 -1       466 2.26730E+09-1.44397E+09-2.14852E+09-2.89932E+09 9.38047E+07-1.04549E+09
 -1       467 3.23019E+09-2.12473E+08-1.06514E+08-4.18222E+09-1.42649E+08-2.68100E+08
 -1       468 2.47493E+09-2.36059E+08 1.94633E+08-4.54561E+09-3.02845E+08 1.03728E+08
 -1       469 1.33562E+09-2.37811E+08 6.96381E+08-4.17639E+09-4.54028E+08 2.67125E+08
 -1       470-3.17361E+08-3.75809E+08 9.77145E+08-3.30224E+09-5.67982E+08 3.05350E+08
 -1       471-2.22292E+09-5.59114E+08 1.15226E+09-2.10436E+09-6.40836E+08 2.54761E+08
 -1       472-4.06705E+09-7.47518E+08 1.20929E+09-7.52115E+08-6.68803E+08 1.34849E+08
 -1       473-5.46385E+09-8.85426E+08 1.17609E+09 6.19360E+08-6.55019E+08-3.37520E+07
 -1       474-6.08314E+09-9.29619E+08 1.07637E+09 1.91162E+09-6.05190E+08-2.27278E+08
 -1       475-5.74091E+09-8.55929E+08 9.31710E+08 3.06109E+09-5.25896E+08-4.19796E+08
 -1       476-4.45832E+09-6.66150E+08 7.55104E+08 4.02834E+09-4.22611E+08-5.86293E+08
 -1       477-2.46412E+09-3.87684E+08 5.50474E+08 4.78401E+09-2.99148E+08-7.05922E+08
 -1       478-1.41690E+08-6.69739E+07 3.15343E+08 5.29656E+09-1.58228E+08-7.64742E+08
 -1       479 2.06505E+09 2.41757E+08 4.62718E+07 5.52606E+09-2.95203E+06-7.57361E+08
 -1       480 3.76107E+09 4.89477E+08-2.54904E+08 5.42664E+09 1.61485E+08-6.87066E+08
 -1       481 4.69505E+09 6.43600E+08-5.76116E+08 4.95718E+09 3.26490E+08-5.64402E+08
 -1       482 4.81400E+09 6.94572E+08-8.93145E+08 4.09721E+09 4.79778E+08-4.04538E+08
 -1       483 4.26319E+09 6.56107E+08-1.17166E+09 2.86308E+09 6.06349E+08-2.24084E+08
 -1       484 3.33281E+09 5.59212E+08-1.37299E+09 1.31894E+09 6.90662E+08-3.81098E+07
 -1       485 2.36709E+09 4.41784E+08-1.46233E+09-4.21834E+08 7.19520E+08 1.42041E+08
 -1       486 1.66247E+09 3.36779E+08-1.41729E+09-2.20694E+09 6.84965E+08 3.09816E+08
 -1       487 1.38396E+09 2.62260E+08-1.23462E+09-3.86620E+09 5.86413E+08 4.63350E+08
 -1       488 1.52423E+09 2.16111E+08-9.32779E+08-5.23966E+09 4.31174E+08 6.03942E+08
 -1       489 1.91940E+09 1.77741E+08-5.49503E+08-6.20633E+09 2.33605E+08 7.33145E+08
 -1       490 2.32187E+09 1.16709E+08-1.31709E+08-6.70543E+09 1.08208E+07 8.46204E+08
 -1       491 2.50983E+09 6.33056E+06 2.72151E+08-6.74098E+09-2.16912E+08 9.29684E+08
 -1       492 2.38376E+09-1.55007E+08 6.32957E+08-6.36492E+09-4.37721E+08 9.90208E+08
 -1       493 1.98634E+09-3.84286E+08 8.75787E+08-5.71454E+09-6.04721E+08 1.01691E+09
 -1       494 1.17859E+09-7.85504E+08 8.97816E+08-4.79069E+09-8.39147E+08 1.41512E+09
 -1       495 8.54160E+09 1.01945E+09 4.72797E+08 2.43976E+09 2.28237E+08-1.01922E+09
 -1       496 6.08298E+09 1.53158E+09 1.27254E+09 3.93199E+09-1.46191E+08-3.17907E+08
 -1       497 2.93868E+09 1.07318E+09 7.26529E+08 4.24920E+09-3.82664E+08 6.79296E+07
 -1       498 2.00271E+08 9.73987E+08 7.19317E+08 3.85660E+09-6.37972E+08 2.23973E+08
 -1       499-2.44708E+09 8.93456E+08 7.19008E+08 2.95889E+09-8.45660E+08 2.63296E+08
 -1       500-4.82779E+09 8.56308E+08 7.95430E+08 1.77501E+09-1.00157E+09 2.16634E+08
 -1       501-6.74755E+09 8.20033E+08 8.75402E+08 4.83695E+08-1.08998E+09 1.06447E+08
 -1       502-7.96065E+09 7.70987E+08 9.23971E+08-7.77899E+08-1.10569E+09-4.74222E+07
 -1       503-8.27245E+09 6.98392E+08 9.07982E+08-1.92588E+09-1.04832E+09-2.22862E+08
 -1       504-7.59777E+09 5.98822E+08 8.11076E+08-2.92215E+09-9.22685E+08-3.96748E+08
 -1       505-6.00065E+09 4.73113E+08 6.34184E+08-3.75727E+09-7.37361E+08-5.47227E+08
 -1       506-3.69507E+09 3.25302E+08 3.95085E+08-4.42830E+09-5.03891E+08-6.56218E+08
 -1       507-1.00833E+09 1.61729E+08 1.23963E+08-4.91948E+09-2.36274E+08-7.11474E+08
 -1       508 1.68392E+09-9.40431E+06-1.43417E+08-5.19189E+09 4.93556E+07-7.07826E+08
 -1       509 4.03358E+09-1.78341E+08-3.73496E+08-5.18581E+09 3.35057E+08-6.47294E+08
 -1       510 5.78746E+09-3.34131E+08-5.41712E+08-4.83530E+09 6.01654E+08-5.38034E+08
 -1       511 6.82878E+09-4.65212E+08-6.36645E+08-4.09086E+09 8.29726E+08-3.92343E+08
 -1       512 7.18312E+09-5.60257E+08-6.60589E+08-2.94343E+09 1.00105E+09-2.24217E+08
 -1       513 6.98937E+09-6.09210E+08-6.26552E+08-1.44184E+09 1.10036E+09-4.70007E+07
 -1       514 6.44539E+09-6.04346E+08-5.52681E+08 3.02237E+08 1.11728E+09 1.28449E+08
 -1       515 5.74568E+09-5.40993E+08-4.55664E+08 2.12510E+09 1.04785E+09 2.94849E+08
 -1       516 5.02962E+09-4.17514E+08-3.44853E+08 3.83640E+09 8.95493E+08 4.48755E+08
 -1       517 4.35594E+09-2.34179E+08-2.18354E+08 5.25427E+09 6.70723E+08 5.89668E+08
 -1       518 3.71034E+09 8.95511E+06-6.28565E+07 6.24169E+09 3.90170E+08 7.17786E+08
 -1       519 3.04181E+09 3.12686E+08 1.43065E+08 6.73461E+09 7.24054E+07 8.28136E+08
 -1       520 2.31515E+09 6.78971E+08 4.15540E+08 6.74643E+09-2.59340E+08 9.08198E+08
 -1       521 1.56978E+09 1.08608E+09 7.61088E+08 6.35486E+09-5.89985E+08 9.67418E+08
 -1       522 9.51437E+08 1.53557E+09 1.14127E+09 5.69473E+09-8.54621E+08 9.95741E+08
 -1       523 8.58996E+08 2.00980E+09 1.64053E+09 4.86728E+09-1.17360E+09 1.40007E+09
 -1       524-2.34109E+07 1.50927E+09-1.72762E+09 4.69079E+09-8.75043E+08 2.25599E+08
 -1       525 8.26219E+08 1.77705E+08-2.33869E+08-9.93293E+08-2.23092E+08 7.57836E+08
 -1       526-6.51096E+08-8.66171E+08-2.23614E+09-8.85319E+08-7.56527E+08 1.17704E+09
 -1       527-2.11560E+09-2.00253E+09-4.55949E+09-6.70851E+08-1.47735E+09 1.28767E+09
 -1       528-3.35292E+09-3.03410E+09-6.76074E+09-4.08394E+08-2.18132E+09 1.16415E+09
 -1       529-4.24207E+09-3.83450E+09-8.53958E+09-1.53139E+08-2.74006E+09 8.86186E+08
 -1       530-4.74031E+09-4.33877E+09-9.72225E+09 5.49389E+07-3.08759E+09 5.25422E+08
 -1       531-4.86725E+09-4.53313E+09-1.02432E+10 1.88295E+08-3.21213E+09 1.39540E+08
 -1       532-4.68352E+09-4.44033E+09-1.01176E+10 2.39710E+08-3.13361E+09-2.31384E+08
 -1       533-4.26530E+09-4.10257E+09-9.40993E+09 2.22974E+08-2.88611E+09-5.64493E+08
 -1       534-3.68041E+09-3.56533E+09-8.20404E+09 1.69338E+08-2.50421E+09-8.51062E+08
 -1       535-2.97194E+09-2.86601E+09-6.58141E+09 1.17767E+08-2.01451E+09-1.09077E+09
 -1       536-2.15406E+09-2.03006E+09-4.61282E+09 1.02759E+08-1.43310E+09-1.28476E+09
 -1       537-1.22078E+09-1.07530E+09-2.36356E+09 1.43272E+08-7.69219E+08-1.42957E+09
 -1       538-1.64407E+08-2.19700E+07 9.11733E+07 2.36327E+08-3.33231E+07-1.51383E+09
 -1       539 1.00289E+09 1.09531E+09 2.64814E+09 3.57251E+08 7.53325E+08-1.51900E+09
 -1       540 2.23192E+09 2.21848E+09 5.16303E+09 4.66569E+08 1.55135E+09-1.42393E+09
 -1       541 3.43008E+09 3.26394E+09 7.44972E+09 5.21605E+08 2.30121E+09-1.21207E+09
 -1       542 4.46915E+09 4.12919E+09 9.29483E+09 4.89453E+08 2.92805E+09-8.79082E+08
 -1       543 5.20620E+09 4.70777E+09 1.04864E+10 3.57576E+08 3.35279E+09-4.38438E+08
 -1       544 5.51295E+09 4.90904E+09 1.08505E+10 1.38869E+08 3.50711E+09 7.68665E+07
 -1       545 5.30573E+09 4.67794E+09 1.02874E+10-1.30350E+08 3.34854E+09 6.17484E+08
 -1       546 4.56815E+09 4.00951E+09 8.79687E+09-3.98910E+08 2.87178E+09 1.12525E+09
 -1       547 3.35997E+09 2.95396E+09 6.48656E+09-6.13232E+08 2.11373E+09 1.54341E+09
 -1       548 1.81025E+09 1.61086E+09 3.55927E+09-7.29342E+08 1.15108E+09 1.82755E+09
 -1       549 9.69967E+07 1.13613E+08 2.81713E+08-7.20543E+08 8.89052E+07 1.95551E+09
 -1       550-1.58189E+09-1.39267E+09-3.06034E+09-5.80948E+08-9.61178E+08 1.93601E+09
 -1       551-3.04959E+09-2.78047E+09-6.21865E+09-3.39628E+08-1.92769E+09 1.81624E+09
 -1       552-4.18744E+09-3.96584E+09-9.03204E+09-4.17156E+07-2.84113E+09 1.68022E+09
 -1       553-5.06107E+09-4.97544E+09-1.15237E+10 5.33075E+07-3.92532E+09 1.61474E+09
 -1       554 1.27550E+09 3.45939E+08-1.22367E+08-1.18724E+09-2.51448E-03-1.51008E-02
 -1       555-5.98031E+08-9.33941E+08-2.51510E+09-8.97937E+08-6.31523E-03-1.24839E-02
 -1       556-2.43583E+09-2.31756E+09-5.28936E+09-5.91562E+08-6.21510E-03-6.82378E-03
 -1       557-3.98133E+09-3.56655E+09-7.90718E+09-2.98888E+08-3.38268E-03-3.16426E-04
 -1       558-5.08511E+09-4.52649E+09-1.00032E+10-5.81985E+07 1.40762E-03 4.83394E-03
 -1       559-5.69984E+09-5.12265E+09-1.13757E+10 1.04740E+08-5.45502E-04 7.05869E-03
 -1       560-5.85650E+09-5.34473E+09-1.19593E+10 1.80042E+08-2.85530E-03 8.09084E-03
 -1       561-5.63421E+09-5.22587E+09-1.17853E+10 1.72392E+08-5.88799E-03 8.74102E-03
 -1       562-5.12904E+09-4.82093E+09-1.09407E+10 1.02112E+08-4.86660E-03 8.10023E-03
 -1       563-4.42515E+09-4.18660E+09-9.53019E+09 2.39557E+06-2.71320E-03 5.50827E-03
 -1       564-3.57520E+09-3.36758E+09-7.65007E+09-8.81089E+07 1.39427E-03 2.67276E-03
 -1       565-2.59547E+09-2.39218E+09-5.37847E+09-1.35641E+08 4.64439E-03 2.08268E-03
 -1       566-1.47687E+09-1.27796E+09-2.78301E+09-1.20836E+08 6.03914E-03 3.21059E-03
 -1       567-2.07803E+08-4.47290E+07 5.87062E+07-4.43198E+07 4.57698E-03 1.65351E-03
 -1       568 1.19901E+09 1.27012E+09 3.03471E+09 7.34208E+07 3.13044E-03-4.51189E-03
 -1       569 2.68520E+09 2.59986E+09 5.98099E+09 1.97939E+08 3.48282E-03-1.25618E-02
 -1       570 4.13876E+09 3.84536E+09 8.67911E+09 2.90843E+08 7.59983E-03-2.05222E-02
 -1       571 5.40340E+09 4.88306E+09 1.08735E+10 3.21077E+08 1.26581E-02-2.46288E-02
 -1       572 6.30431E+09 5.58327E+09 1.23066E+10 2.74217E+08 1.40457E-02-2.25212E-02
 -1       573 6.68421E+09 5.83461E+09 1.27645E+10 1.57088E+08 9.24110E-03-1.93741E-02
 -1       574 6.44021E+09 5.56865E+09 1.21220E+10-3.69475E+06 7.86781E-03-1.93250E-02
 -1       575 5.55167E+09 4.77798E+09 1.03749E+10-1.68692E+08 1.01080E-02-1.97182E-02
 -1       576 4.09149E+09 3.52287E+09 7.65142E+09-2.95335E+08 9.06372E-03-1.66707E-02
 -1       577 2.21867E+09 1.92501E+09 4.19805E+09-3.46200E+08 7.06196E-04-1.14290E-02
 -1       578 1.55110E+08 1.49372E+08 3.42796E+08-2.92777E+08-5.54389E-03-5.15129E-03
 -1       579-1.84817E+09-1.62274E+09-3.56097E+09-1.15838E+08-6.11877E-03 3.68319E-03
 -1       580-3.55785E+09-3.23054E+09-7.21062E+09 1.83545E+08 4.49181E-04 1.41000E-02
 -1       581-4.85782E+09-4.59602E+09-1.04623E+10 4.89483E+08 6.96754E-03 2.13447E-02
 -1       582-5.87395E+09-5.79376E+09-1.34386E+10 5.93548E+08 3.94821E-03 1.90650E-02
 -1       583 8.26219E+08 1.77705E+08-2.33869E+08-9.93293E+08 2.23092E+08-7.57836E+08
 -1       584-6.51096E+08-8.66171E+08-2.23614E+09-8.85319E+08 7.56527E+08-1.17704E+09
 -1       585-2.11560E+09-2.00253E+09-4.55949E+09-6.70851E+08 1.47735E+09-1.28767E+09
 -1       586-3.35292E+09-3.03410E+09-6.76074E+09-4.08394E+08 2.18132E+09-1.16415E+09
 -1       587-4.24207E+09-3.83450E+09-8.53958E+09-1.53139E+08 2.74006E+09-8.86186E+08
 -1       588-4.74031E+09-4.33877E+09-9.72225E+09 5.49389E+07 3.08759E+09-5.25422E+08
 -1       589-4.86725E+09-4.53313E+09-1.02432E+10 1.88295E+08 3.21213E+09-1.39540E+08
 -1       590-4.68352E+09-4.44033E+09-1.01176E+10 2.39710E+08 3.13361E+09 2.31384E+08
 -1       591-4.26530E+09-4.10257E+09-9.40993E+09 2.22974E+08 2.88611E+09 5.64493E+08
 -1       592-3.68041E+09-3.56533E+09-8.20404E+09 1.69338E+08 2.50421E+09 8.51062E+08
 -1       593-2.97194E+09-2.86601E+09-6.58141E+09 1.17767E+08 2.01451E+09 1.09077E+09
 -1       594-2.15406E+09-2.03006E+09-4.61282E+09 1.02759E+08 1.43310E+09 1.28476E+09
 -1       595-1.22078E+09-1.07530E+09-2.36356E+09 1.43272E+08 7.69219E+08 1.42957E+09
 -1       596-1.64407E+08-2.19700E+07 9.11733E+07 2.36327E+08 3.33231E+07 1.51383E+09
 -1       597 1.00289E+09 1.09531E+09 2.64814E+09 3.57251E+08-7.53325E+08 1.51900E+09
 -1       598 2.23192E+09 2.21848E+09 5.16303E+09 4.66569E+08-1.55135E+09 1.42393E+09
 -1       599 3.43008E+09 3.26394E+09 7.44972E+09 5.21605E+08-2.30121E+09 1.21207E+09
 -1       600 4.46915E+09 4.12919E+09 9.29483E+09 4.89453E+08-2.92805E+09 8.79082E+08
 -1       601 5.20620E+09 4.70777E+09 1.04864E+10 3.57576E+08-3.35279E+09 4.38438E+08
 -1       602 5.51295E+09 4.90904E+09 1.08505E+10 1.38869E+08-3.50711E+09-7.68665E+07
 -1       603 5.30573E+09 4.67794E+09 1.02874E+10-1.30350E+08-3.34854E+09-6.17484E+08
 -1       604 4.56815E+09 4.00951E+09 8.79687E+09-3.98910E+08-2.87178E+09-1.12525E+09
 -1       605 3.35997E+09 2.95396E+09 6.48656E+09-6.13232E+08-2.11373E+09-1.54341E+09
 -1       606 1.81025E+09 1.61086E+09 3.55927E+09-7.29342E+08-1.15108E+09-1.82755E+09
 -1       607 9.69967E+07 1.13613E+08 2.81713E+08-7.20543E+08-8.89052E+07-1.95551E+09
 -1       608-1.58189E+09-1.39267E+09-3.06034E+09-5.80948E+08 9.61178E+08-1.93601E+09
 -1       609-3.04959E+09-2.78047E+09-6.21865E+09-3.39628E+08 1.92769E+09-1.81624E+09
 -1       610-4.18744E+09-3.96584E+09-9.03204E+09-4.17156E+07 2.84113E+09-1.68022E+09
 -1       611-5.06107E+09-4.97544E+09-1.15237E+10 5.33075E+07 3.92532E+09-1.61474E+09
 -1       612-8.26219E+08-1.77705E+08 2.33869E+08-9.93293E+08 2.23092E+08 7.57836E+08
 -1       613 6.51096E+08 8.66171E+08 2.23614E+09-8.85319E+08 7.56527E+08 1.17704E+09
 -1       614 2.11560E+09 2.00253E+09 4.55949E+09-6.70851E+08 1.47735E+09 1.28767E+09
 -1       615 3.35292E+09 3.03410E+09 6.76074E+09-4.08394E+08 2.18132E+09 1.16415E+09
 -1       616 4.24207E+09 3.83450E+09 8.53958E+09-1.53139E+08 2.74006E+09 8.86186E+08
 -1       617 4.74031E+09 4.33877E+09 9.72225E+09 5.49389E+07 3.08759E+09 5.25422E+08
 -1       618 4.86725E+09 4.53313E+09 1.02432E+10 1.88295E+08 3.21213E+09 1.39540E+08
 -1       619 4.68352E+09 4.44033E+09 1.01176E+10 2.39710E+08 3.13361E+09-2.31384E+08
 -1       620 4.26530E+09 4.10257E+09 9.40993E+09 2.22974E+08 2.88611E+09-5.64493E+08
 -1       621 3.68041E+09 3.56533E+09 8.20404E+09 1.69338E+08 2.50421E+09-8.51062E+08
 -1       622 2.97194E+09 2.86601E+09 6.58141E+09 1.17767E+08 2.01451E+09-1.09077E+09
 -1       623 2.15406E+09 2.03006E+09 4.61282E+09 1.02759E+08 1.43310E+09-1.28476E+09
 -1       624 1.22078E+09 1.07530E+09 2.36356E+09 1.43272E+08 7.69219E+08-1.42957E+09
 -1       625 1.64407E+08 2.19700E+07-9.11733E+07 2.36327E+08 3.33231E+07-1.51383E+09
 -1       626-1.00289E+09-1.09531E+09-2.64814E+09 3.57251E+08-7.53325E+08-1.51900E+09
 -1       627-2.23192E+09-2.21848E+09-5.16303E+09 4.66569E+08-1.55135E+09-1.42393E+09
 -1       628-3.43008E+09-3.26394E+09-7.44972E+09 5.21605E+08-2.30121E+09-1.21207E+09
 -1       629-4.46915E+09-4.12919E+09-9.29483E+09 4.89453E+08-2.92805E+09-8.79082E+08
 -1       630-5.20620E+09-4.70777E+09-1.04864E+10 3.57576E+08-3.35279E+09-4.38438E+08
 -1       631-5.51295E+09-4.90904E+09-1.08505E+10 1.38869E+08-3.50711E+09 7.68665E+07
 -1       632-5.30573E+09-4.67794E+09-1.02874E+10-1.30350E+08-3.34854E+09 6.17484E+08
 -1       633-4.56815E+09-4.00951E+09-8.79687E+09-3.98910E+08-2.87178E+09 1.12525E+09
 -1       634-3.35997E+09-2.95396E+09-6.48656E+09-6.13232E+08-2.11373E+09 1.54341E+09
 -1       635-1.81025E+09-1.61086E+09-3.55927E+09-7.29342E+08-1.15108E+09 1.82755E+09
 -1       636-9.69967E+07-1.13613E+08-2.81713E+08-7.20543E+08-8.89052E+07 1.95551E+09
 -1       637 1.58189E+09 1.39267E+09 3.06034E+09-5.80948E+08 9.61178E+08 1.93601E+09
 -1       638 3.04959E+09 2.78047E+09 6.21865E+09-3.39628E+08 1.92769E+09 1.81624E+09
 -1       639 4.18744E+09 3.96584E+09 9.03204E+09-4.17156E+07 2.84113E+09 1.68022E+09
 -1       640 5.06107E+09 4.97544E+09 1.15237E+10 5.33075E+07 3.92532E+09 1.61474E+09
 -1       641-1.27550E+09-3.45939E+08 1.22367E+08-1.18724E+09-2.57862E-03-1.94399E-02
 -1       642 5.98031E+08 9.33941E+08 2.51510E+09-8.97937E+08-6.28519E-03-1.60950E-02
 -1       643 2.43583E+09 2.31756E+09 5.28936E+09-5.91562E+08-6.11591E-03-8.18327E-03
 -1       644 3.98133E+09 3.56655E+09 7.90718E+09-2.98888E+08-3.26157E-03 3.52189E-04
 -1       645 5.08511E+09 4.52649E+09 1.00032E+10-5.81985E+07 1.50299E-03 5.50966E-03
 -1       646 5.69984E+09 5.12265E+09 1.13757E+10 1.04740E+08-4.52042E-04 7.91279E-03
 -1       647 5.85650E+09 5.34473E+09 1.19593E+10 1.80042E+08-2.73323E-03 1.06140E-02
 -1       648 5.63421E+09 5.22587E+09 1.17853E+10 1.72392E+08-5.80215E-03 1.30332E-02
 -1       649 5.12904E+09 4.82093E+09 1.09407E+10 1.02112E+08-4.73881E-03 1.30669E-02
 -1       650 4.42515E+09 4.18660E+09 9.53019E+09 2.39557E+06-2.67792E-03 9.40095E-03
 -1       651 3.57520E+09 3.36758E+09 7.65007E+09-8.81089E+07 1.46198E-03 5.14588E-03
 -1       652 2.59547E+09 2.39218E+09 5.37847E+09-1.35641E+08 4.71401E-03 2.24286E-03
 -1       653 1.47687E+09 1.27796E+09 2.78301E+09-1.20836E+08 6.02722E-03 3.47957E-04
 -1       654 2.07803E+08 4.47290E+07-5.87062E+07-4.43198E+07 4.55010E-03-3.25523E-03
 -1       655-1.19901E+09-1.27012E+09-3.03471E+09 7.34208E+07 3.05891E-03-9.08081E-03
 -1       656-2.68520E+09-2.59986E+09-5.98099E+09 1.97939E+08 3.38268E-03-1.48152E-02
 -1       657-4.13876E+09-3.84536E+09-8.67911E+09 2.90843E+08 7.48539E-03-2.00077E-02
 -1       658-5.40340E+09-4.88306E+09-1.08735E+10 3.21077E+08 1.25532E-02-2.30943E-02
 -1       659-6.30431E+09-5.58327E+09-1.23066E+10 2.74217E+08 1.40209E-02-2.18645E-02
 -1       660-6.68421E+09-5.83461E+09-1.27645E+10 1.57088E+08 9.37080E-03-1.74310E-02
 -1       661-6.44021E+09-5.56865E+09-1.21220E+10-3.69475E+06 7.96318E-03-1.40308E-02
 -1       662-5.55167E+09-4.77798E+09-1.03749E+10-1.68692E+08 1.02119E-02-1.47061E-02
 -1       663-4.09149E+09-3.52287E+09-7.65142E+09-2.95335E+08 9.16767E-03-1.65713E-02
 -1       664-2.21867E+09-1.92501E+09-4.19805E+09-3.46200E+08 8.56400E-04-1.51085E-02
 -1       665-1.55110E+08-1.49372E+08-3.42796E+08-2.92777E+08-5.41079E-03-8.50187E-03
 -1       666 1.84817E+09 1.62274E+09 3.56097E+09-1.15838E+08-6.01959E-03 2.61991E-03
 -1       667 3.55785E+09 3.23054E+09 7.21062E+09 1.83545E+08 4.94003E-04 1.41075E-02
 -1       668 4.85782E+09 4.59602E+09 1.04623E+10 4.89483E+08 6.98757E-03 1.83099E-02
 -1       669 5.87395E+09 5.79376E+09 1.34386E+10 5.93548E+08 3.88908E-03 1.17707E-02
 -1       670-8.26219E+08-1.77705E+08 2.33869E+08-9.93293E+08-2.23092E+08-7.57836E+08
 -1       671 6.51096E+08 8.66171E+08 2.23614E+09-8.85319E+08-7.56527E+08-1.17704E+09
 -1       672 2.11560E+09 2.00253E+09 4.55949E+09-6.70851E+08-1.47735E+09-1.28767E+09
 -1       673 3.35292E+09 3.03410E+09 6.76074E+09-4.08394E+08-2.18132E+09-1.16415E+09
 -1       674 4.24207E+09 3.83450E+09 8.53958E+09-1.53139E+08-2.74006E+09-8.86186E+08
 -1       675 4.74031E+09 4.33877E+09 9.72225E+09 5.49389E+07-3.08759E+09-5.25422E+08
 -1       676 4.86725E+09 4.53313E+09 1.02432E+10 1.88295E+08-3.21213E+09-1.39540E+08
 -1       677 4.68352E+09 4.44033E+09 1.01176E+10 2.39710E+08-3.13361E+09 2.31384E+08
 -1       678 4.26530E+09 4.10257E+09 9.40993E+09 2.22974E+08-2.88611E+09 5.64493E+08
 -1       679 3.68041E+09 3.56533E+09 8.20404E+09 1.69338E+08-2.50421E+09 8.51062E+08
 -1       680 2.97194E+09 2.86601E+09 6.58141E+09 1.17767E+08-2.01451E+09 1.09077E+09
 -1       681 2.15406E+09 2.03006E+09 4.61282E+09 1.02759E+08-1.43310E+09 1.28476E+09
 -1       682 1.22078E+09 1.07530E+09 2.36356E+09 1.43272E+08-7.69219E+08 1.42957E+09
 -1       683 1.64407E+08 2.19700E+07-9.11733E+07 2.36327E+08-3.33231E+07 1.51383E+09
 -1       684-1.00289E+09-1.09531E+09-2.64814E+09 3.57251E+08 7.53325E+08 1.51900E+09
 -1       685-2.23192E+09-2.21848E+09-5.16303E+09 4.66569E+08 1.55135E+09 1.42393E+09
 -1       686-3.43008E+09-3.26394E+09-7.44972E+09 5.21605E+08 2.30121E+09 1.21207E+09
 -1       687-4.46915E+09-4.12919E+09-9.29483E+09 4.89453E+08 2.92805E+09 8.79082E+08
 -1       688-5.20620E+09-4.70777E+09-1.04864E+10 3.57576E+08 3.35279E+09 4.38438E+08
 -1       689-5.51295E+09-4.90904E+09-1.08505E+10 1.38869E+08 3.50711E+09-7.68665E+07
 -1       690-5.30573E+09-4.67794E+09-1.02874E+10-1.30350E+08 3.34854E+09-6.17484E+08
 -1       691-4.56815E+09-4.00951E+09-8.79687E+09-3.98910E+08 2.87178E+09-1.12525E+09
 -1       692-3.35997E+09-2.95396E+09-6.48656E+09-6.13232E+08 2.11373E+09-1.54341E+09
 -1       693-1.81025E+09-1.61086E+09-3.55927E+09-7.29342E+08 1.15108E+09-1.82755E+09
 -1       694-9.69967E+07-1.13613E+08-2.81713E+08-7.20543E+08 8.89052E+07-1.95551E+09
 -1       695 1.58189E+09 1.39267E+09 3.06034E+09-5.80948E+08-9.61178E+08-1.93601E+09
 -1       696 3.04959E+09 2.78047E+09 6.21865E+09-3.39628E+08-1.92769E+09-1.81624E+09
 -1       697 4.18744E+09 3.96584E+09 9.03204E+09-4.17156E+07-2.84113E+09-1.68022E+09
 -1       698 5.06107E+09 4.97544E+09 1.15237E+10 5.33075E+07-3.92532E+09-1.61474E+09
 -1       699-6.61403E+08 1.52910E+09 1.54643E+09-3.13131E+09 3.69152E+08-1.03462E+09
 -1       700-8.29953E+08 1.72262E+09 1.30889E+09-4.50337E+09 4.28232E+08-9.04652E+08
 -1       701 1.47132E+08 2.74308E+09 2.00284E+09-4.89969E+09 6.73062E+08-7.83895E+08
 -1       702 1.28699E+09 3.76910E+09 2.66784E+09-4.54528E+09 8.96881E+08-6.12490E+08
 -1       703 2.60684E+09 4.69265E+09 3.29636E+09-3.65668E+09 1.10378E+09-4.09996E+08
 -1       704 3.92692E+09 5.39427E+09 3.78650E+09-2.40904E+09 1.25688E+09-1.99825E+08
 -1       705 5.04469E+09 5.78801E+09 4.07200E+09-9.66673E+08 1.34009E+09-8.44265E+06
 -1       706 5.75227E+09 5.82831E+09 4.11253E+09 5.30607E+08 1.34308E+09 1.47772E+08
 -1       707 5.88470E+09 5.50422E+09 3.89345E+09 1.97068E+09 1.26434E+09 2.65714E+08
 -1       708 5.36358E+09 4.83375E+09 3.42302E+09 3.26947E+09 1.10852E+09 3.53212E+08
 -1       709 4.22165E+09 3.85763E+09 2.72887E+09 4.36471E+09 8.84949E+08 4.23600E+08
 -1       710 2.60148E+09 2.63433E+09 1.85441E+09 5.20715E+09 6.06401E+08 4.89076E+08
 -1       711 7.28048E+08 1.23660E+09 8.55543E+08 5.75284E+09 2.88466E+08 5.54909E+08
 -1       712-1.13807E+09-2.50906E+08-2.02593E+08 5.95968E+09-5.06926E+07 6.16239E+08
 -1       713-2.75497E+09-1.73408E+09-1.24908E+09 5.79005E+09-3.90529E+08 6.58459E+08
 -1       714-3.94725E+09-3.11292E+09-2.21118E+09 5.21905E+09-7.08611E+08 6.61146E+08
 -1       715-4.63534E+09-4.28690E+09-3.01897E+09 4.24616E+09-9.81688E+08 6.04449E+08
 -1       716-4.83946E+09-5.16241E+09-3.61042E+09 2.90641E+09-1.18743E+09 4.76082E+08
 -1       717-4.65855E+09-5.66166E+09-3.93661E+09 1.27712E+09-1.30666E+09 2.76842E+08
 -1       718-4.23116E+09-5.73170E+09-3.96650E+09-5.23158E+08-1.32581E+09 2.29647E+07
 -1       719-3.69013E+09-5.35184E+09-3.69034E+09-2.34494E+09-1.23900E+09-2.55509E+08
 -1       720-3.12430E+09-4.53746E+09-3.12080E+09-4.02647E+09-1.04918E+09-5.20184E+08
 -1       721-2.55786E+09-3.33823E+09-2.29088E+09-5.41781E+09-7.67712E+08-7.32437E+08
 -1       722-1.95423E+09-1.83071E+09-1.24892E+09-6.40500E+09-4.12804E+08-8.63108E+08
 -1       723-1.24368E+09-1.05959E+08-4.98359E+07-6.92763E+09-4.64232E+06-8.99939E+08
 -1       724-3.69981E+08 1.74000E+09 1.24386E+09-6.98278E+09 4.29865E+08-8.50944E+08
 -1       725 6.45921E+08 3.58265E+09 2.56086E+09-6.61519E+09 8.79257E+08-7.49694E+08
 -1       726 1.76393E+09 5.32276E+09 3.79322E+09-5.92772E+09 1.24901E+09-5.33137E+08
 -1       727 2.78387E+09 6.72937E+09 4.83426E+09-5.07827E+09 1.68629E+09-2.91972E+08
 -1       728-4.25105E+09-3.02658E+08-7.99887E+07 2.31598E+09 1.84135E+08-1.00760E+09
 -1       729-3.03237E+09-7.61568E+08-9.70890E+07 3.74894E+09 2.39547E+08-9.08556E+08
 -1       730-1.30378E+09-7.63169E+08 5.15689E+08 4.06966E+09 4.16667E+08-7.81042E+08
 -1       731 1.78001E+08-9.14772E+08 9.29984E+08 3.63659E+09 5.90380E+08-6.13251E+08
 -1       732 1.56929E+09-1.10411E+09 1.24607E+09 2.70462E+09 7.59309E+08-4.14173E+08
 -1       733 2.79342E+09-1.29217E+09 1.44052E+09 1.51172E+09 8.96143E+08-2.07208E+08
 -1       734 3.75071E+09-1.43599E+09 1.51661E+09 2.54866E+08 9.84217E+08-1.75761E+07
 -1       735 4.33031E+09-1.49877E+09 1.48782E+09-9.26887E+08 1.00998E+09 1.38804E+08
 -1       736 4.44527E+09-1.45452E+09 1.37400E+09-1.96162E+09 9.66727E+08 2.58587E+08
 -1       737 4.06147E+09-1.29336E+09 1.19425E+09-2.83408E+09 8.54498E+08 3.48755E+08
 -1       738 3.21477E+09-1.02260E+09 9.62731E+08-3.56194E+09 6.80022E+08 4.21521E+08
 -1       739 2.01115E+09-6.65648E+08 6.87317E+08-4.16621E+09 4.55914E+08 4.88067E+08
 -1       740 6.09701E+08-2.57978E+08 3.71666E+08-4.64522E+09 1.99348E+08 5.53104E+08
 -1       741-8.07105E+08 1.58873E+08 1.96295E+07-4.96050E+09-6.97163E+07 6.11866E+08
 -1       742-2.06834E+09 5.44165E+08-3.59613E+08-5.03903E+09-3.30526E+08 6.50484E+08
 -1       743-3.04568E+09 8.64144E+08-7.47589E+08-4.79156E+09-5.63489E+08 6.49725E+08
 -1       744-3.67300E+09 1.09625E+09-1.11533E+09-4.14174E+09-7.51837E+08 5.91035E+08
 -1       745-3.95009E+09 1.23054E+09-1.42572E+09-3.05742E+09-8.82804E+08 4.63147E+08
 -1       746-3.93052E+09 1.26833E+09-1.63920E+09-1.57432E+09-9.48254E+08 2.67293E+08
 -1       747-3.69815E+09 1.21865E+09-1.72149E+09 1.95863E+08-9.44797E+08 1.94025E+07
 -1       748-3.33970E+09 1.09373E+09-1.65153E+09 2.07681E+09-8.73465E+08-2.51476E+08
 -1       749-2.92187E+09 9.04661E+08-1.42744E+09 3.85716E+09-7.39098E+08-5.08354E+08
 -1       750-2.47999E+09 6.57949E+08-1.06866E+09 5.33227E+09-5.49296E+08-7.14035E+08
 -1       751-2.02106E+09 3.53908E+08-6.13585E+08 6.34814E+09-3.13694E+08-8.40338E+08
 -1       752-1.53986E+09-1.26263E+07-1.10690E+08 6.83500E+09-4.12734E+07-8.75373E+08
 -1       753-1.04267E+09-4.46543E+08 3.86093E+08 6.81862E+09 2.52314E+08-8.26613E+08
 -1       754-5.50768E+08-9.20010E+08 8.51051E+08 6.39901E+09 5.65585E+08-7.28034E+08
 -1       755-1.83090E+08-1.41222E+09 1.18862E+09 5.73643E+09 8.14058E+08-5.15277E+08
 -1       756-1.43359E+08-1.87078E+09 1.37604E+09 4.99564E+09 1.15923E+09-2.78832E+08
 -1       757-4.25105E+09-3.02658E+08-7.99887E+07 2.31598E+09-1.84135E+08 1.00760E+09
 -1       758-3.03237E+09-7.61568E+08-9.70890E+07 3.74894E+09-2.39547E+08 9.08556E+08
 -1       759-1.30378E+09-7.63169E+08 5.15689E+08 4.06966E+09-4.16667E+08 7.81042E+08
 -1       760 1.78001E+08-9.14772E+08 9.29984E+08 3.63659E+09-5.90380E+08 6.13251E+08
 -1       761 1.56929E+09-1.10411E+09 1.24607E+09 2.70462E+09-7.59309E+08 4.14173E+08
 -1       762 2.79342E+09-1.29217E+09 1.44052E+09 1.51172E+09-8.96143E+08 2.07208E+08
 -1       763 3.75071E+09-1.43599E+09 1.51661E+09 2.54866E+08-9.84217E+08 1.75761E+07
 -1       764 4.33031E+09-1.49877E+09 1.48782E+09-9.26887E+08-1.00998E+09-1.38804E+08
 -1       765 4.44527E+09-1.45452E+09 1.37400E+09-1.96162E+09-9.66727E+08-2.58587E+08
 -1       766 4.06147E+09-1.29336E+09 1.19425E+09-2.83408E+09-8.54498E+08-3.48755E+08
 -1       767 3.21477E+09-1.02260E+09 9.62731E+08-3.56194E+09-6.80022E+08-4.21521E+08
 -1       768 2.01115E+09-6.65648E+08 6.87317E+08-4.16621E+09-4.55914E+08-4.88067E+08
 -1       769 6.09701E+08-2.57978E+08 3.71666E+08-4.64522E+09-1.99348E+08-5.53104E+08
 -1       770-8.07105E+08 1.58873E+08 1.96295E+07-4.96050E+09 6.97163E+07-6.11866E+08
 -1       771-2.06834E+09 5.44165E+08-3.59613E+08-5.03903E+09 3.30526E+08-6.50484E+08
 -1       772-3.04568E+09 8.64144E+08-7.47589E+08-4.79156E+09 5.63489E+08-6.49725E+08
 -1       773-3.67300E+09 1.09625E+09-1.11533E+09-4.14174E+09 7.51837E+08-5.91035E+08
 -1       774-3.95009E+09 1.23054E+09-1.42572E+09-3.05742E+09 8.82804E+08-4.63147E+08
 -1       775-3.93052E+09 1.26833E+09-1.63920E+09-1.57432E+09 9.48254E+08-2.67293E+08
 -1       776-3.69815E+09 1.21865E+09-1.72149E+09 1.95863E+08 9.44797E+08-1.94025E+07
 -1       777-3.33970E+09 1.09373E+09-1.65153E+09 2.07681E+09 8.73465E+08 2.51476E+08
 -1       778-2.92187E+09 9.04661E+08-1.42744E+09 3.85716E+09 7.39098E+08 5.08354E+08
 -1       779-2.47999E+09 6.57949E+08-1.06866E+09 5.33227E+09 5.49296E+08 7.14035E+08
 -1       780-2.02106E+09 3.53908E+08-6.13585E+08 6.34814E+09 3.13694E+08 8.40338E+08
 -1       781-1.53986E+09-1.26263E+07-1.10690E+08 6.83500E+09 4.12734E+07 8.75373E+08
 -1       782-1.04267E+09-4.46543E+08 3.86093E+08 6.81862E+09-2.52314E+08 8.26613E+08
 -1       783-5.50768E+08-9.20010E+08 8.51051E+08 6.39901E+09-5.65585E+08 7.28034E+08
 -1       784-1.83090E+08-1.41222E+09 1.18862E+09 5.73643E+09-8.14058E+08 5.15277E+08
 -1       785-1.43359E+08-1.87078E+09 1.37604E+09 4.99564E+09-1.15923E+09 2.78832E+08
 -1       786-6.61403E+08 1.52910E+09 1.54643E+09-3.13131E+09-3.69152E+08 1.03462E+09
 -1       787-8.29953E+08 1.72262E+09 1.30889E+09-4.50337E+09-4.28232E+08 9.04652E+08
 -1       788 1.47132E+08 2.74308E+09 2.00284E+09-4.89969E+09-6.73062E+08 7.83895E+08
 -1       789 1.28699E+09 3.76910E+09 2.66784E+09-4.54528E+09-8.96881E+08 6.12490E+08
 -1       790 2.60684E+09 4.69265E+09 3.29636E+09-3.65668E+09-1.10378E+09 4.09996E+08
 -1       791 3.92692E+09 5.39427E+09 3.78650E+09-2.40904E+09-1.25688E+09 1.99825E+08
 -1       792 5.04469E+09 5.78801E+09 4.07200E+09-9.66673E+08-1.34009E+09 8.44265E+06
 -1       793 5.75227E+09 5.82831E+09 4.11253E+09 5.30607E+08-1.34308E+09-1.47772E+08
 -1       794 5.88470E+09 5.50422E+09 3.89345E+09 1.97068E+09-1.26434E+09-2.65714E+08
 -1       795 5.36358E+09 4.83375E+09 3.42302E+09 3.26947E+09-1.10852E+09-3.53212E+08
 -1       796 4.22165E+09 3.85763E+09 2.72887E+09 4.36471E+09-8.84949E+08-4.23600E+08
 -1       797 2.60148E+09 2.63433E+09 1.85441E+09 5.20715E+09-6.06401E+08-4.89076E+08
 -1       798 7.28048E+08 1.23660E+09 8.55543E+08 5.75284E+09-2.88466E+08-5.54909E+08
 -1       799-1.13807E+09-2.50906E+08-2.02593E+08 5.95968E+09 5.06926E+07-6.16239E+08
 -1       800-2.75497E+09-1.73408E+09-1.24908E+09 5.79005E+09 3.90529E+08-6.58459E+08
 -1       801-3.94725E+09-3.11292E+09-2.21118E+09 5.21905E+09 7.08611E+08-6.61146E+08
 -1       802-4.63534E+09-4.28690E+09-3.01897E+09 4.24616E+09 9.81688E+08-6.04449E+08
 -1       803-4.83946E+09-5.16241E+09-3.61042E+09 2.90641E+09 1.18743E+09-4.76082E+08
 -1       804-4.65855E+09-5.66166E+09-3.93661E+09 1.27712E+09 1.30666E+09-2.76842E+08
 -1       805-4.23116E+09-5.73170E+09-3.96650E+09-5.23158E+08 1.32581E+09-2.29647E+07
 -1       806-3.69013E+09-5.35184E+09-3.69034E+09-2.34494E+09 1.23900E+09 2.55509E+08
 -1       807-3.12430E+09-4.53746E+09-3.12080E+09-4.02647E+09 1.04918E+09 5.20184E+08
 -1       808-2.55786E+09-3.33823E+09-2.29088E+09-5.41781E+09 7.67712E+08 7.32437E+08
 -1       809-1.95423E+09-1.83071E+09-1.24892E+09-6.40500E+09 4.12804E+08 8.63108E+08
 -1       810-1.24368E+09-1.05959E+08-4.98359E+07-6.92763E+09 4.64232E+06 8.99939E+08
 -1       811-3.69981E+08 1.74000E+09 1.24386E+09-6.98278E+09-4.29865E+08 8.50944E+08
 -1       812 6.45921E+08 3.58265E+09 2.56086E+09-6.61519E+09-8.79257E+08 7.49694E+08
 -1       813 1.76393E+09 5.32276E+09 3.79322E+09-5.92772E+09-1.24901E+09 5.33137E+08
 -1       814 2.78387E+09 6.72937E+09 4.83426E+09-5.07827E+09-1.68629E+09 2.91972E+08
 -1       815 6.61403E+08-1.52910E+09-1.54643E+09-3.13131E+09 3.69152E+08 1.03462E+09
 -1       816 8.29953E+08-1.72262E+09-1.30889E+09-4.50337E+09 4.28232E+08 9.04652E+08
 -1       817-1.47132E+08-2.74308E+09-2.00284E+09-4.89969E+09 6.73062E+08 7.83895E+08
 -1       818-1.28699E+09-3.76910E+09-2.66784E+09-4.54528E+09 8.96881E+08 6.12490E+08
 -1       819-2.60684E+09-4.69265E+09-3.29636E+09-3.65668E+09 1.10378E+09 4.09996E+08
 -1       820-3.92692E+09-5.39427E+09-3.78650E+09-2.40904E+09 1.25688E+09 1.99825E+08
 -1       821-5.04469E+09-5.78801E+09-4.07200E+09-9.66673E+08 1.34009E+09 8.44265E+06
 -1       822-5.75227E+09-5.82831E+09-4.11253E+09 5.30607E+08 1.34308E+09-1.47772E+08
 -1       823-5.88470E+09-5.50422E+09-3.89345E+09 1.97068E+09 1.26434E+09-2.65714E+08
 -1       824-5.36358E+09-4.83375E+09-3.42302E+09 3.26947E+09 1.10852E+09-3.53212E+08
 -1       825-4.22165E+09-3.85763E+09-2.72887E+09 4.36471E+09 8.84949E+08-4.23600E+08
 -1       826-2.60148E+09-2.63433E+09-1.85441E+09 5.20715E+09 6.06401E+08-4.89076E+08
 -1       827-7.28048E+08-1.23660E+09-8.55543E+08 5.75284E+09 2.88466E+08-5.54909E+08
 -1       828 1.13807E+09 2.50906E+08 2.02593E+08 5.95968E+09-5.06926E+07-6.16239E+08
 -1       829 2.75497E+09 1.73408E+09 1.24908E+09 5.79005E+09-3.90529E+08-6.58459E+08
 -1       830 3.94725E+09 3.11292E+09 2.21118E+09 5.21905E+09-7.08611E+08-6.61146E+08
 -1       831 4.63534E+09 4.28690E+09 3.01897E+09 4.24616E+09-9.81688E+08-6.04449E+08
 -1       832 4.83946E+09 5.16241E+09 3.61042E+09 2.90641E+09-1.18743E+09-4.76082E+08
 -1       833 4.65855E+09 5.66166E+09 3.93661E+09 1.27712E+09-1.30666E+09-2.76842E+08
 -1       834 4.23116E+09 5.73170E+09 3.96650E+09-5.23158E+08-1.32581E+09-2.29647E+07
 -1       835 3.69013E+09 5.35184E+09 3.69034E+09-2.34494E+09-1.23900E+09 2.55509E+08
 -1       836 3.12430E+09 4.53746E+09 3.12080E+09-4.02647E+09-1.04918E+09 5.20184E+08
 -1       837 2.55786E+09 3.33823E+09 2.29088E+09-5.41781E+09-7.67712E+08 7.32437E+08
 -1       838 1.95423E+09 1.83071E+09 1.24892E+09-6.40500E+09-4.12804E+08 8.63108E+08
 -1       839 1.24368E+09 1.05959E+08 4.98359E+07-6.92763E+09-4.64232E+06 8.99939E+08
 -1       840 3.69981E+08-1.74000E+09-1.24386E+09-6.98278E+09 4.29865E+08 8.50944E+08
 -1       841-6.45921E+08-3.58265E+09-2.56086E+09-6.61519E+09 8.79257E+08 7.49694E+08
 -1       842-1.76393E+09-5.32276E+09-3.79322E+09-5.92772E+09 1.24901E+09 5.33137E+08
 -1       843-2.78387E+09-6.72937E+09-4.83426E+09-5.07827E+09 1.68629E+09 2.91972E+08
 -1       844 4.25105E+09 3.02658E+08 7.99887E+07 2.31598E+09 1.84135E+08 1.00760E+09
 -1       845 3.03237E+09 7.61568E+08 9.70890E+07 3.74894E+09 2.39547E+08 9.08556E+08
 -1       846 1.30378E+09 7.63169E+08-5.15689E+08 4.06966E+09 4.16667E+08 7.81042E+08
 -1       847-1.78001E+08 9.14772E+08-9.29984E+08 3.63659E+09 5.90380E+08 6.13251E+08
 -1       848-1.56929E+09 1.10411E+09-1.24607E+09 2.70462E+09 7.59309E+08 4.14173E+08
 -1       849-2.79342E+09 1.29217E+09-1.44052E+09 1.51172E+09 8.96143E+08 2.07208E+08
 -1       850-3.75071E+09 1.43599E+09-1.51661E+09 2.54866E+08 9.84217E+08 1.75761E+07
 -1       851-4.33031E+09 1.49877E+09-1.48782E+09-9.26887E+08 1.00998E+09-1.38804E+08
 -1       852-4.44527E+09 1.45452E+09-1.37400E+09-1.96162E+09 9.66727E+08-2.58587E+08
 -1       853-4.06147E+09 1.29336E+09-1.19425E+09-2.83408E+09 8.54498E+08-3.48755E+08
 -1       854-3.21477E+09 1.02260E+09-9.62731E+08-3.56194E+09 6.80022E+08-4.21521E+08
 -1       855-2.01115E+09 6.65648E+08-6.87317E+08-4.16621E+09 4.55914E+08-4.88067E+08
 -1       856-6.09701E+08 2.57978E+08-3.71666E+08-4.64522E+09 1.99348E+08-5.53104E+08
 -1       857 8.07105E+08-1.58873E+08-1.96295E+07-4.96050E+09-6.97163E+07-6.11866E+08
 -1       858 2.06834E+09-5.44165E+08 3.59613E+08-5.03903E+09-3.30526E+08-6.50484E+08
 -1       859 3.04568E+09-8.64144E+08 7.47589E+08-4.79156E+09-5.63489E+08-6.49725E+08
 -1       860 3.67300E+09-1.09625E+09 1.11533E+09-4.14174E+09-7.51837E+08-5.91035E+08
 -1       861 3.95009E+09-1.23054E+09 1.42572E+09-3.05742E+09-8.82804E+08-4.63147E+08
 -1       862 3.93052E+09-1.26833E+09 1.63920E+09-1.57432E+09-9.48254E+08-2.67293E+08
 -1       863 3.69815E+09-1.21865E+09 1.72149E+09 1.95863E+08-9.44797E+08-1.94025E+07
 -1       864 3.33970E+09-1.09373E+09 1.65153E+09 2.07681E+09-8.73465E+08 2.51476E+08
 -1       865 2.92187E+09-9.04661E+08 1.42744E+09 3.85716E+09-7.39098E+08 5.08354E+08
 -1       866 2.47999E+09-6.57949E+08 1.06866E+09 5.33227E+09-5.49296E+08 7.14035E+08
 -1       867 2.02106E+09-3.53908E+08 6.13585E+08 6.34814E+09-3.13694E+08 8.40338E+08
 -1       868 1.53986E+09 1.26263E+07 1.10690E+08 6.83500E+09-4.12734E+07 8.75373E+08
 -1       869 1.04267E+09 4.46543E+08-3.86093E+08 6.81862E+09 2.52314E+08 8.26613E+08
 -1       870 5.50768E+08 9.20010E+08-8.51051E+08 6.39901E+09 5.65585E+08 7.28034E+08
 -1       871 1.83090E+08 1.41222E+09-1.18862E+09 5.73643E+09 8.14058E+08 5.15277E+08
 -1       872 1.43359E+08 1.87078E+09-1.37604E+09 4.99564E+09 1.15923E+09 2.78832E+08
 -1       873-2.78387E+09-6.72937E+09-4.83426E+09-5.07827E+09-1.68629E+09-2.91972E+08
 -1       874-1.76393E+09-5.32276E+09-3.79322E+09-5.92772E+09-1.24901E+09-5.33137E+08
 -1       875-6.45921E+08-3.58265E+09-2.56086E+09-6.61519E+09-8.79257E+08-7.49694E+08
 -1       876 3.69981E+08-1.74000E+09-1.24386E+09-6.98278E+09-4.29865E+08-8.50944E+08
 -1       877 1.24368E+09 1.05959E+08 4.98359E+07-6.92763E+09 4.64232E+06-8.99939E+08
 -1       878 1.95423E+09 1.83071E+09 1.24892E+09-6.40500E+09 4.12804E+08-8.63108E+08
 -1       879 2.55786E+09 3.33823E+09 2.29088E+09-5.41781E+09 7.67712E+08-7.32437E+08
 -1       880 3.12430E+09 4.53746E+09 3.12080E+09-4.02647E+09 1.04918E+09-5.20184E+08
 -1       881 3.69013E+09 5.35184E+09 3.69034E+09-2.34494E+09 1.23900E+09-2.55509E+08
 -1       882 4.23116E+09 5.73170E+09 3.96650E+09-5.23158E+08 1.32581E+09 2.29647E+07
 -1       883 4.65855E+09 5.66166E+09 3.93661E+09 1.27712E+09 1.30666E+09 2.76842E+08
 -1       884 4.83946E+09 5.16241E+09 3.61042E+09 2.90641E+09 1.18743E+09 4.76082E+08
 -1       885 4.63534E+09 4.28690E+09 3.01897E+09 4.24616E+09 9.81688E+08 6.04449E+08
 -1       886 3.94725E+09 3.11292E+09 2.21118E+09 5.21905E+09 7.08611E+08 6.61146E+08
 -1       887 2.75497E+09 1.73408E+09 1.24908E+09 5.79005E+09 3.90529E+08 6.58459E+08
 -1       888 1.13807E+09 2.50906E+08 2.02593E+08 5.95968E+09 5.06926E+07 6.16239E+08
 -1       889-7.28048E+08-1.23660E+09-8.55543E+08 5.75284E+09-2.88466E+08 5.54909E+08
 -1       890-2.60148E+09-2.63433E+09-1.85441E+09 5.20715E+09-6.06401E+08 4.89076E+08
 -1       891-4.22165E+09-3.85763E+09-2.72887E+09 4.36471E+09-8.84949E+08 4.23600E+08
 -1       892-5.36358E+09-4.83375E+09-3.42302E+09 3.26947E+09-1.10852E+09 3.53212E+08
 -1       893-5.88470E+09-5.50422E+09-3.89345E+09 1.97068E+09-1.26434E+09 2.65714E+08
 -1       894-5.75227E+09-5.82831E+09-4.11253E+09 5.30607E+08-1.34308E+09 1.47772E+08
 -1       895-5.04469E+09-5.78801E+09-4.07200E+09-9.66673E+08-1.34009E+09-8.44265E+06
 -1       896-3.92692E+09-5.39427E+09-3.78650E+09-2.40904E+09-1.25688E+09-1.99825E+08
 -1       897-2.60684E+09-4.69265E+09-3.29636E+09-3.65668E+09-1.10378E+09-4.09996E+08
 -1       898-1.28699E+09-3.76910E+09-2.66784E+09-4.54528E+09-8.96881E+08-6.12490E+08
 -1       899-1.47132E+08-2.74308E+09-2.00284E+09-4.89969E+09-6.73062E+08-7.83895E+08
 -1       900 8.29953E+08-1.72262E+09-1.30889E+09-4.50337E+09-4.28232E+08-9.04652E+08
 -1       901 6.61403E+08-1.52910E+09-1.54643E+09-3.13131E+09-3.69152E+08-1.03462E+09
 -1       902 4.25105E+09 3.02658E+08 7.99887E+07 2.31598E+09-1.84135E+08-1.00760E+09
 -1       903 3.03237E+09 7.61568E+08 9.70890E+07 3.74894E+09-2.39547E+08-9.08556E+08
 -1       904 1.30378E+09 7.63169E+08-5.15689E+08 4.06966E+09-4.16667E+08-7.81042E+08
 -1       905-1.78001E+08 9.14772E+08-9.29984E+08 3.63659E+09-5.90380E+08-6.13251E+08
 -1       906-1.56929E+09 1.10411E+09-1.24607E+09 2.70462E+09-7.59309E+08-4.14173E+08
 -1       907-2.79342E+09 1.29217E+09-1.44052E+09 1.51172E+09-8.96143E+08-2.07208E+08
 -1       908-3.75071E+09 1.43599E+09-1.51661E+09 2.54866E+08-9.84217E+08-1.75761E+07
 -1       909-4.33031E+09 1.49877E+09-1.48782E+09-9.26887E+08-1.00998E+09 1.38804E+08
 -1       910-4.44527E+09 1.45452E+09-1.37400E+09-1.96162E+09-9.66727E+08 2.58587E+08
 -1       911-4.06147E+09 1.29336E+09-1.19425E+09-2.83408E+09-8.54498E+08 3.48755E+08
 -1       912-3.21477E+09 1.02260E+09-9.62731E+08-3.56194E+09-6.80022E+08 4.21521E+08
 -1       913-2.01115E+09 6.65648E+08-6.87317E+08-4.16621E+09-4.55914E+08 4.88067E+08
 -1       914-6.09701E+08 2.57978E+08-3.71666E+08-4.64522E+09-1.99348E+08 5.53104E+08
 -1       915 8.07105E+08-1.58873E+08-1.96295E+07-4.96050E+09 6.97163E+07 6.11866E+08
 -1       916 2.06834E+09-5.44165E+08 3.59613E+08-5.03903E+09 3.30526E+08 6.50484E+08
 -1       917 3.04568E+09-8.64144E+08 7.47589E+08-4.79156E+09 5.63489E+08 6.49725E+08
 -1       918 3.67300E+09-1.09625E+09 1.11533E+09-4.14174E+09 7.51837E+08 5.91035E+08
 -1       919 3.95009E+09-1.23054E+09 1.42572E+09-3.05742E+09 8.82804E+08 4.63147E+08
 -1       920 3.93052E+09-1.26833E+09 1.63920E+09-1.57432E+09 9.48254E+08 2.67293E+08
 -1       921 3.69815E+09-1.21865E+09 1.72149E+09 1.95863E+08 9.44797E+08 1.94025E+07
 -1       922 3.33970E+09-1.09373E+09 1.65153E+09 2.07681E+09 8.73465E+08-2.51476E+08
 -1       923 2.92187E+09-9.04661E+08 1.42744E+09 3.85716E+09 7.39098E+08-5.08354E+08
 -1       924 2.47999E+09-6.57949E+08 1.06866E+09 5.33227E+09 5.49296E+08-7.14035E+08
 -1       925 2.02106E+09-3.53908E+08 6.13585E+08 6.34814E+09 3.13694E+08-8.40338E+08
 -1       926 1.53986E+09 1.26263E+07 1.10690E+08 6.83500E+09 4.12734E+07-8.75373E+08
 -1       927 1.04267E+09 4.46543E+08-3.86093E+08 6.81862E+09-2.52314E+08-8.26613E+08
 -1       928 5.50768E+08 9.20010E+08-8.51051E+08 6.39901E+09-5.65585E+08-7.28034E+08
 -1       929 1.83090E+08 1.41222E+09-1.18862E+09 5.73643E+09-8.14058E+08-5.15277E+08
 -1       930 1.43359E+08 1.87078E+09-1.37604E+09 4.99564E+09-1.15923E+09-2.78832E+08
 -3
    1PSTEP                        63           1           1          
    1PGM                1.000000E+00                                  
    1PGK                2.688228E+07                                  
    1PHID                         -1                                  
    1PSUBC                         0                                  
    1PMODE                        16                                  
  100CL  116 825.1885118         930                     2   16MODAL      1
 -4  FORC        4    1
 -5  F1          1    2    1    0
 -5  F2          1    2    2    0
 -5  F3          1    2    3    0
 -5  ALL         1    2    0    0    1ALL
 -1         1-7.30764E+04-2.14742E+05-4.69980E+05
 -1         2 7.30764E+04-2.14742E+05 4.69980E+05
 -1         3-4.57217E+03-9.73914E+04 7.44664E+04
 -1         4 4.57217E+03-9.73914E+04-7.44664E+04
 -1         5-7.30764E+04-2.14742E+05 4.69980E+05
 -1         6 7.30764E+04-2.14742E+05-4.69980E+05
 -1         7-4.57217E+03-9.73914E+04-7.44664E+04
 -1         8 4.57217E+03-9.73914E+04 7.44664E+04
 -1         9-7.56176E+05 1.02262E+04 3.55459E+05
 -1        10-3.97676E+03-1.26075E+05 6.94371E+04
 -1        11-2.67840E+06 5.58266E+05 1.74244E+06
 -1        12 5.05654E+06 6.71335E+05-2.02438E+06
 -1        13-1.65352E+04-1.06064E+05 2.91074E+05
 -1        14-1.87320E+04-8.82560E+04 2.91077E+05
 -1        15-7.56176E+05 1.02262E+04-3.55459E+05
 -1        16-3.97676E+03-1.26075E+05-6.94371E+04
 -1        17 5.05654E+06 6.71335E+05 2.02438E+06
 -1        18-2.67840E+06 5.58266E+05-1.74244E+06
 -1        19-1.87320E+04-8.82560E+04-2.91077E+05
 -1        20-1.65352E+04-1.06064E+05-2.91074E+05
 -1        21-5.05654E+06 6.71335E+05 2.02438E+06
 -1        22 2.67840E+06 5.58266E+05-1.74244E+06
 -1        23 1.65352E+04-1.06064E+05-2.91074E+05
 -1        24 1.87320E+04-8.82560E+04-2.91077E+05
 -1        25 7.56176E+05 1.02262E+04-3.55459E+05
 -1        26 3.97676E+03-1.26075E+05-6.94371E+04
 -1        27 7.56176E+05 1.02262E+04 3.55459E+05
 -1        28 2.67840E+06 5.58266E+05 1.74244E+06
 -1        29-5.05654E+06 6.71335E+05-2.02438E+06
 -1        30 3.97676E+03-1.26075E+05 6.94371E+04
 -1        31 1.65352E+04-1.06064E+05 2.91074E+05
 -1        32 1.87320E+04-8.82560E+04 2.91077E+05
 -1        33 1.75515E+03-1.13605E+03-1.02185E+04
 -1        34 3.34387E+03-6.00293E+03-2.84472E+04
 -1        35 4.44190E+03-1.92950E+04-5.13955E+04
 -1        36 4.96729E+03-4.34648E+04-7.42492E+04
 -1        37 4.84392E+03-7.72082E+04-9.35918E+04
 -1        38 4.01966E+03-1.15546E+05-1.07219E+05
 -1        39 2.52391E+03-1.50962E+05-1.13986E+05
 -1        40 4.90119E+02-1.75226E+05-1.13609E+05
 -1        41-1.84597E+03-1.81493E+05-1.06415E+05
 -1        42-4.17769E+03-1.66133E+05-9.30940E+04
 -1        43-6.18092E+03-1.29800E+05-7.45149E+04
 -1        44-7.57602E+03-7.74373E+04-5.16278E+04
 -1        45-8.18229E+03-1.72019E+04-2.54707E+04
 -1        46-7.95066E+03 4.14072E+04 2.75460E+03
 -1        47-6.96645E+03 8.97269E+04 3.15889E+04
 -1        48-5.42185E+03 1.21830E+05 5.92645E+04
 -1        49-3.56591E+03 1.35652E+05 8.37465E+04
 -1        50-1.64591E+03 1.33063E+05 1.02889E+05
 -1        51 1.44635E+02 1.18902E+05 1.14689E+05
 -1        52 1.69781E+03 9.92762E+04 1.17601E+05
 -1        53 2.99608E+03 7.96335E+04 1.10818E+05
 -1        54 4.09083E+03 6.31542E+04 9.44762E+04
 -1        55 5.06325E+03 4.99262E+04 6.96927E+04
 -1        56 5.98119E+03 3.71197E+04 3.84299E+04
 -1        57 6.86688E+03 2.00943E+04 3.19462E+03
 -1        58 7.68754E+03-5.89190E+03-3.33670E+04
 -1        59 8.37210E+03-4.38909E+04-6.88869E+04
 -1        60 8.85321E+03-9.39899E+04-1.01625E+05
 -1        61 9.11340E+03-1.53048E+05-1.30907E+05
 -1        62-1.75515E+03-1.13605E+03 1.02185E+04
 -1        63-3.34387E+03-6.00293E+03 2.84472E+04
 -1        64-4.44190E+03-1.92950E+04 5.13955E+04
 -1        65-4.96729E+03-4.34648E+04 7.42492E+04
 -1        66-4.84392E+03-7.72082E+04 9.35918E+04
 -1        67-4.01966E+03-1.15546E+05 1.07219E+05
 -1        68-2.52391E+03-1.50962E+05 1.13986E+05
 -1        69-4.90119E+02-1.75226E+05 1.13609E+05
 -1        70 1.84597E+03-1.81493E+05 1.06415E+05
 -1        71 4.17769E+03-1.66133E+05 9.30940E+04
 -1        72 6.18092E+03-1.29800E+05 7.45149E+04
 -1        73 7.57602E+03-7.74373E+04 5.16278E+04
 -1        74 8.18229E+03-1.72019E+04 2.54707E+04
 -1        75 7.95066E+03 4.14072E+04-2.75460E+03
 -1        76 6.96645E+03 8.97269E+04-3.15889E+04
 -1        77 5.42185E+03 1.21830E+05-5.92645E+04
 -1        78 3.56591E+03 1.35652E+05-8.37465E+04
 -1        79 1.64591E+03 1.33063E+05-1.02889E+05
 -1        80-1.44635E+02 1.18902E+05-1.14689E+05
 -1        81-1.69781E+03 9.92762E+04-1.17601E+05
 -1        82-2.99608E+03 7.96335E+04-1.10818E+05
 -1        83-4.09083E+03 6.31542E+04-9.44762E+04
 -1        84-5.06325E+03 4.99262E+04-6.96927E+04
 -1        85-5.98119E+03 3.71197E+04-3.84299E+04
 -1        86-6.86688E+03 2.00943E+04-3.19462E+03
 -1        87-7.68754E+03-5.89190E+03 3.33670E+04
 -1        88-8.37210E+03-4.38909E+04 6.88869E+04
 -1        89-8.85321E+03-9.39899E+04 1.01625E+05
 -1        90-9.11340E+03-1.53048E+05 1.30907E+05
 -1        91-9.24477E+06-1.80372E+05-6.02577E+04
 -1        92-1.35092E+07-2.54740E+05 6.52798E-06
 -1        93-9.24477E+06-1.80372E+05 6.02577E+04
 -1        94 9.24477E+06-1.80372E+05-6.02577E+04
 -1        95 1.35092E+07-2.54740E+05 6.98422E-06
 -1        96 9.24477E+06-1.80372E+05 6.02577E+04
 -1        97-1.75515E+03-1.13605E+03-1.02185E+04
 -1        98-3.34387E+03-6.00293E+03-2.84472E+04
 -1        99-4.44190E+03-1.92950E+04-5.13955E+04
 -1       100-4.96729E+03-4.34648E+04-7.42492E+04
 -1       101-4.84392E+03-7.72082E+04-9.35918E+04
 -1       102-4.01966E+03-1.15546E+05-1.07219E+05
 -1       103-2.52391E+03-1.50962E+05-1.13986E+05
 -1       104-4.90119E+02-1.75226E+05-1.13609E+05
 -1       105 1.84597E+03-1.81493E+05-1.06415E+05
 -1       106 4.17769E+03-1.66133E+05-9.30940E+04
 -1       107 6.18092E+03-1.29800E+05-7.45149E+04
 -1       108 7.57602E+03-7.74373E+04-5.16278E+04
 -1       109 8.18229E+03-1.72019E+04-2.54707E+04
 -1       110 7.95066E+03 4.14072E+04 2.75460E+03
 -1       111 6.96645E+03 8.97269E+04 3.15889E+04
 -1       112 5.42185E+03 1.21830E+05 5.92645E+04
 -1       113 3.56591E+03 1.35652E+05 8.37465E+04
 -1       114 1.64591E+03 1.33063E+05 1.02889E+05
 -1       115-1.44635E+02 1.18902E+05 1.14689E+05
 -1       116-1.69781E+03 9.92762E+04 1.17601E+05
 -1       117-2.99608E+03 7.96335E+04 1.10818E+05
 -1       118-4.09083E+03 6.31542E+04 9.44762E+04
 -1       119-5.06325E+03 4.99262E+04 6.96927E+04
 -1       120-5.98119E+03 3.71197E+04 3.84299E+04
 -1       121-6.86688E+03 2.00943E+04 3.19462E+03
 -1       122-7.68754E+03-5.89190E+03-3.33670E+04
 -1       123-8.37210E+03-4.38909E+04-6.88869E+04
 -1       124-8.85321E+03-9.39899E+04-1.01625E+05
 -1       125-9.11340E+03-1.53048E+05-1.30907E+05
 -1       126 8.75333E+02 3.80601E+05 6.81509E+03
 -1       127 1.52660E+03 6.08912E+05 2.00165E-06
 -1       128 8.75333E+02 3.80601E+05-6.81509E+03
 -1       129 1.75515E+03-1.13605E+03 1.02185E+04
 -1       130 3.34387E+03-6.00293E+03 2.84472E+04
 -1       131 4.44190E+03-1.92950E+04 5.13955E+04
 -1       132 4.96729E+03-4.34648E+04 7.42492E+04
 -1       133 4.84392E+03-7.72082E+04 9.35918E+04
 -1       134 4.01966E+03-1.15546E+05 1.07219E+05
 -1       135 2.52391E+03-1.50962E+05 1.13986E+05
 -1       136 4.90119E+02-1.75226E+05 1.13609E+05
 -1       137-1.84597E+03-1.81493E+05 1.06415E+05
 -1       138-4.17769E+03-1.66133E+05 9.30940E+04
 -1       139-6.18092E+03-1.29800E+05 7.45149E+04
 -1       140-7.57602E+03-7.74373E+04 5.16278E+04
 -1       141-8.18229E+03-1.72019E+04 2.54707E+04
 -1       142-7.95066E+03 4.14072E+04-2.75460E+03
 -1       143-6.96645E+03 8.97269E+04-3.15889E+04
 -1       144-5.42185E+03 1.21830E+05-5.92645E+04
 -1       145-3.56591E+03 1.35652E+05-8.37465E+04
 -1       146-1.64591E+03 1.33063E+05-1.02889E+05
 -1       147 1.44635E+02 1.18902E+05-1.14689E+05
 -1       148 1.69781E+03 9.92762E+04-1.17601E+05
 -1       149 2.99608E+03 7.96335E+04-1.10818E+05
 -1       150 4.09083E+03 6.31542E+04-9.44762E+04
 -1       151 5.06325E+03 4.99262E+04-6.96927E+04
 -1       152 5.98119E+03 3.71197E+04-3.84299E+04
 -1       153 6.86688E+03 2.00943E+04-3.19462E+03
 -1       154 7.68754E+03-5.89190E+03 3.33670E+04
 -1       155 8.37210E+03-4.38909E+04 6.88869E+04
 -1       156 8.85321E+03-9.39899E+04 1.01625E+05
 -1       157 9.11340E+03-1.53048E+05 1.30907E+05
 -1       158-8.75333E+02 3.80601E+05 6.81509E+03
 -1       159-1.52660E+03 6.08912E+05 2.07312E-06
 -1       160-8.75333E+02 3.80601E+05-6.81509E+03
 -1       161-1.32771E+03-1.14499E+04 9.53195E+03
 -1       162-2.64680E+03-3.32772E+04 2.65557E+04
 -1       163-3.60738E+03-6.42061E+04 4.79735E+04
 -1       164-4.10513E+03-1.00070E+05 6.93049E+04
 -1       165-4.05932E+03-1.36474E+05 8.73717E+04
 -1       166-3.41222E+03-1.68727E+05 1.00117E+05
 -1       167-2.17957E+03-1.92178E+05 1.06464E+05
 -1       168-4.70820E+02-2.02796E+05 1.06139E+05
 -1       169 1.51161E+03-1.97840E+05 9.94360E+04
 -1       170 3.50013E+03-1.76417E+05 8.69969E+04
 -1       171 5.21000E+03-1.39769E+05 6.96309E+04
 -1       172 6.39526E+03-9.11700E+04 4.82299E+04
 -1       173 6.89777E+03-3.54483E+04 2.37709E+04
 -1       174 6.67666E+03 2.17817E+04-2.61482E+03
 -1       175 5.81061E+03 7.50051E+04-2.95569E+04
 -1       176 4.47266E+03 1.19614E+05-5.54003E+04
 -1       177 2.88495E+03 1.52462E+05-7.82451E+04
 -1       178 1.26549E+03 1.72069E+05-9.60919E+04
 -1       179-2.18556E+02 1.78457E+05-1.07080E+05
 -1       180-1.47924E+03 1.72718E+05-1.09773E+05
 -1       181-2.51136E+03 1.56447E+05-1.03426E+05
 -1       182-3.37198E+03 1.31235E+05-8.81687E+04
 -1       183-4.14375E+03 9.83388E+04-6.50430E+04
 -1       184-4.89480E+03 5.86220E+04-3.58741E+04
 -1       185-5.64919E+03 1.27335E+04-2.99103E+03
 -1       186-6.37958E+03-3.85817E+04 3.11460E+04
 -1       187-7.02552E+03-9.42139E+04 6.43244E+04
 -1       188-7.52961E+03-1.52654E+05 9.48878E+04
 -1       189-7.85954E+03-2.12327E+05 1.22149E+05
 -1       190-3.82596E+06-4.24271E+04 2.01920E+06
 -1       191 5.79424E+06-3.66540E+05-2.33846E+06
 -1       192-2.04667E+04-2.11541E+05 3.57604E+05
 -1       193-6.09885E+03-1.03657E+04 4.01043E+04
 -1       194-1.16128E+04-2.87053E+04 1.11822E+05
 -1       195-1.55488E+04-5.45462E+04 2.01945E+05
 -1       196-1.75042E+04-8.44931E+04 2.91687E+05
 -1       197-1.71580E+04-1.14819E+05 3.67793E+05
 -1       198-1.43149E+04-1.41610E+05 4.21617E+05
 -1       199-9.06189E+03-1.61009E+05 4.48572E+05
 -1       200-1.86496E+03-1.69690E+05 4.47415E+05
 -1       201 6.43552E+03-1.65405E+05 4.19315E+05
 -1       202 1.47375E+04-1.47437E+05 3.66925E+05
 -1       203 2.18722E+04-1.16826E+05 2.93650E+05
 -1       204 2.68305E+04-7.62857E+04 2.03281E+05
 -1       205 2.89619E+04-2.98102E+04 9.99973E+04
 -1       206 2.80937E+04 1.79564E+04-1.13628E+04
 -1       207 2.45411E+04 6.24449E+04-1.24963E+05
 -1       208 1.90058E+04 9.98227E+04-2.33797E+05
 -1       209 1.23929E+04 1.27452E+05-3.29866E+05
 -1       210 5.59627E+03 1.44058E+05-4.04792E+05
 -1       211-6.91161E+02 1.49608E+05-4.50805E+05
 -1       212-6.09299E+03 1.44956E+05-4.61927E+05
 -1       213-1.05652E+04 1.31393E+05-4.35085E+05
 -1       214-1.43155E+04 1.10225E+05-3.70852E+05
 -1       215-1.76569E+04 8.25121E+04-2.73599E+05
 -1       216-2.08478E+04 4.90101E+04-1.50950E+05
 -1       217-2.39744E+04 1.03100E+04-1.26113E+04
 -1       218-2.69228E+04-3.29170E+04 1.31149E+05
 -1       219-2.94573E+04-7.97069E+04 2.70986E+05
 -1       220-3.13695E+04-1.28782E+05 3.99683E+05
 -1       221-3.25916E+04-1.78796E+05 5.13506E+05
 -1       222-8.49901E+03-7.91066E+03 4.02037E+04
 -1       223-1.53449E+04-2.18327E+04 1.11896E+05
 -1       224-1.96334E+04-4.21296E+04 2.01988E+05
 -1       225-2.12438E+04-6.65589E+04 2.91696E+05
 -1       226-2.00733E+04-9.22026E+04 3.67765E+05
 -1       227-1.61179E+04-1.15677E+05 4.21552E+05
 -1       228-9.63001E+03-1.33408E+05 4.48476E+05
 -1       229-1.20362E+03-1.42153E+05 4.47297E+05
 -1       230 8.23561E+03-1.39591E+05 4.19190E+05
 -1       231 1.75385E+04-1.24846E+05 3.66809E+05
 -1       232 2.55140E+04-9.87475E+04 2.93559E+05
 -1       233 3.11384E+04-6.37752E+04 2.03227E+05
 -1       234 3.37392E+04-2.36635E+04 9.99864E+04
 -1       235 3.31071E+04 1.72440E+04-1.13312E+04
 -1       236 2.95072E+04 5.47396E+04-1.24896E+05
 -1       237 2.35905E+04 8.54230E+04-2.33706E+05
 -1       238 1.62287E+04 1.07148E+05-3.29765E+05
 -1       239 8.31818E+03 1.19155E+05-4.04692E+05
 -1       240 6.04621E+02 1.21884E+05-4.50713E+05
 -1       241-6.43031E+03 1.16557E+05-4.61847E+05
 -1       242-1.25944E+04 1.04649E+05-4.35018E+05
 -1       243-1.79259E+04 8.74309E+04-3.70794E+05
 -1       244-2.25774E+04 6.56948E+04-2.73546E+05
 -1       245-2.66854E+04 3.97298E+04-1.50901E+05
 -1       246-3.02767E+04 9.53377E+03-1.25664E+04
 -1       247-3.32469E+04-2.48500E+04 1.31187E+05
 -1       248-3.54296E+04-6.30341E+04 2.71016E+05
 -1       249-3.67343E+04-1.04193E+05 3.99702E+05
 -1       250-3.72983E+04-1.47259E+05 5.13516E+05
 -1       251-2.32354E+04-1.76553E+05 3.57572E+05
 -1       252-7.85954E+03-2.12327E+05-1.22149E+05
 -1       253-7.52961E+03-1.52654E+05-9.48878E+04
 -1       254-7.02552E+03-9.42139E+04-6.43244E+04
 -1       255-6.37958E+03-3.85817E+04-3.11460E+04
 -1       256-5.64919E+03 1.27335E+04 2.99103E+03
 -1       257-4.89480E+03 5.86220E+04 3.58741E+04
 -1       258-4.14375E+03 9.83388E+04 6.50430E+04
 -1       259-3.37198E+03 1.31235E+05 8.81687E+04
 -1       260-2.51136E+03 1.56447E+05 1.03426E+05
 -1       261-1.47924E+03 1.72718E+05 1.09773E+05
 -1       262-2.18556E+02 1.78457E+05 1.07080E+05
 -1       263 1.26549E+03 1.72069E+05 9.60919E+04
 -1       264 2.88495E+03 1.52462E+05 7.82451E+04
 -1       265 4.47266E+03 1.19614E+05 5.54003E+04
 -1       266 5.81061E+03 7.50051E+04 2.95569E+04
 -1       267 6.67666E+03 2.17817E+04 2.61482E+03
 -1       268 6.89777E+03-3.54483E+04-2.37709E+04
 -1       269 6.39526E+03-9.11700E+04-4.82299E+04
 -1       270 5.21000E+03-1.39769E+05-6.96309E+04
 -1       271 3.50013E+03-1.76417E+05-8.69969E+04
 -1       272 1.51161E+03-1.97840E+05-9.94360E+04
 -1       273-4.70820E+02-2.02796E+05-1.06139E+05
 -1       274-2.17957E+03-1.92178E+05-1.06464E+05
 -1       275-3.41222E+03-1.68727E+05-1.00117E+05
 -1       276-4.05932E+03-1.36474E+05-8.73717E+04
 -1       277-4.10513E+03-1.00070E+05-6.93049E+04
 -1       278-3.60738E+03-6.42061E+04-4.79735E+04
 -1       279-2.64680E+03-3.32772E+04-2.65557E+04
 -1       280-1.32771E+03-1.14499E+04-9.53195E+03
 -1       281 5.79424E+06-3.66540E+05 2.33846E+06
 -1       282-3.82596E+06-4.24271E+04-2.01920E+06
 -1       283-8.49901E+03-7.91066E+03-4.02037E+04
 -1       284-1.53449E+04-2.18327E+04-1.11896E+05
 -1       285-1.96334E+04-4.21296E+04-2.01988E+05
 -1       286-2.12438E+04-6.65589E+04-2.91696E+05
 -1       287-2.00733E+04-9.22026E+04-3.67765E+05
 -1       288-1.61179E+04-1.15677E+05-4.21552E+05
 -1       289-9.63001E+03-1.33408E+05-4.48476E+05
 -1       290-1.20362E+03-1.42153E+05-4.47297E+05
 -1       291 8.23561E+03-1.39591E+05-4.19190E+05
 -1       292 1.75385E+04-1.24846E+05-3.66809E+05
 -1       293 2.55140E+04-9.87475E+04-2.93559E+05
 -1       294 3.11384E+04-6.37752E+04-2.03227E+05
 -1       295 3.37392E+04-2.36635E+04-9.99864E+04
 -1       296 3.31071E+04 1.72440E+04 1.13312E+04
 -1       297 2.95072E+04 5.47396E+04 1.24896E+05
 -1       298 2.35905E+04 8.54230E+04 2.33706E+05
 -1       299 1.62287E+04 1.07148E+05 3.29765E+05
 -1       300 8.31818E+03 1.19155E+05 4.04692E+05
 -1       301 6.04621E+02 1.21884E+05 4.50713E+05
 -1       302-6.43031E+03 1.16557E+05 4.61847E+05
 -1       303-1.25944E+04 1.04649E+05 4.35018E+05
 -1       304-1.79259E+04 8.74309E+04 3.70794E+05
 -1       305-2.25774E+04 6.56948E+04 2.73546E+05
 -1       306-2.66854E+04 3.97298E+04 1.50901E+05
 -1       307-3.02767E+04 9.53377E+03 1.25664E+04
 -1       308-3.32469E+04-2.48500E+04-1.31187E+05
 -1       309-3.54296E+04-6.30341E+04-2.71016E+05
 -1       310-3.67343E+04-1.04193E+05-3.99702E+05
 -1       311-3.72983E+04-1.47259E+05-5.13516E+05
 -1       312-2.32354E+04-1.76553E+05-3.57572E+05
 -1       313-6.09885E+03-1.03657E+04-4.01043E+04
 -1       314-1.16128E+04-2.87053E+04-1.11822E+05
 -1       315-1.55488E+04-5.45462E+04-2.01945E+05
 -1       316-1.75042E+04-8.44931E+04-2.91687E+05
 -1       317-1.71580E+04-1.14819E+05-3.67793E+05
 -1       318-1.43149E+04-1.41610E+05-4.21617E+05
 -1       319-9.06189E+03-1.61009E+05-4.48572E+05
 -1       320-1.86496E+03-1.69690E+05-4.47415E+05
 -1       321 6.43552E+03-1.65405E+05-4.19315E+05
 -1       322 1.47375E+04-1.47437E+05-3.66925E+05
 -1       323 2.18722E+04-1.16826E+05-2.93650E+05
 -1       324 2.68305E+04-7.62857E+04-2.03281E+05
 -1       325 2.89619E+04-2.98102E+04-9.99973E+04
 -1       326 2.80937E+04 1.79564E+04 1.13628E+04
 -1       327 2.45411E+04 6.24449E+04 1.24963E+05
 -1       328 1.90058E+04 9.98227E+04 2.33797E+05
 -1       329 1.23929E+04 1.27452E+05 3.29866E+05
 -1       330 5.59627E+03 1.44058E+05 4.04792E+05
 -1       331-6.91161E+02 1.49608E+05 4.50805E+05
 -1       332-6.09299E+03 1.44956E+05 4.61927E+05
 -1       333-1.05652E+04 1.31393E+05 4.35085E+05
 -1       334-1.43155E+04 1.10225E+05 3.70852E+05
 -1       335-1.76569E+04 8.25121E+04 2.73599E+05
 -1       336-2.08478E+04 4.90101E+04 1.50950E+05
 -1       337-2.39744E+04 1.03100E+04 1.26113E+04
 -1       338-2.69228E+04-3.29170E+04-1.31149E+05
 -1       339-2.94573E+04-7.97069E+04-2.70986E+05
 -1       340-3.13695E+04-1.28782E+05-3.99683E+05
 -1       341-3.25916E+04-1.78796E+05-5.13506E+05
 -1       342-2.04667E+04-2.11541E+05-3.57604E+05
 -1       343 6.09885E+03-1.03657E+04-4.01043E+04
 -1       344 1.16128E+04-2.87053E+04-1.11822E+05
 -1       345 1.55488E+04-5.45462E+04-2.01945E+05
 -1       346 1.75042E+04-8.44931E+04-2.91687E+05
 -1       347 1.71580E+04-1.14819E+05-3.67793E+05
 -1       348 1.43149E+04-1.41610E+05-4.21617E+05
 -1       349 9.06189E+03-1.61009E+05-4.48572E+05
 -1       350 1.86496E+03-1.69690E+05-4.47415E+05
 -1       351-6.43552E+03-1.65405E+05-4.19315E+05
 -1       352-1.47375E+04-1.47437E+05-3.66925E+05
 -1       353-2.18722E+04-1.16826E+05-2.93650E+05
 -1       354-2.68305E+04-7.62857E+04-2.03281E+05
 -1       355-2.89619E+04-2.98102E+04-9.99973E+04
 -1       356-2.80937E+04 1.79564E+04 1.13628E+04
 -1       357-2.45411E+04 6.24449E+04 1.24963E+05
 -1       358-1.90058E+04 9.98227E+04 2.33797E+05
 -1       359-1.23929E+04 1.27452E+05 3.29866E+05
 -1       360-5.59627E+03 1.44058E+05 4.04792E+05
 -1       361 6.91161E+02 1.49608E+05 4.50805E+05
 -1       362 6.09299E+03 1.44956E+05 4.61927E+05
 -1       363 1.05652E+04 1.31393E+05 4.35085E+05
 -1       364 1.43155E+04 1.10225E+05 3.70852E+05
 -1       365 1.76569E+04 8.25121E+04 2.73599E+05
 -1       366 2.08478E+04 4.90101E+04 1.50950E+05
 -1       367 2.39744E+04 1.03100E+04 1.26113E+04
 -1       368 2.69228E+04-3.29170E+04-1.31149E+05
 -1       369 2.94573E+04-7.97069E+04-2.70986E+05
 -1       370 3.13695E+04-1.28782E+05-3.99683E+05
 -1       371 3.25916E+04-1.78796E+05-5.13506E+05
 -1       372 8.49901E+03-7.91066E+03-4.02037E+04
 -1       373 1.53449E+04-2.18327E+04-1.11896E+05
 -1       374 1.96334E+04-4.21296E+04-2.01988E+05
 -1       375 2.12438E+04-6.65589E+04-2.91696E+05
 -1       376 2.00733E+04-9.22026E+04-3.67765E+05
 -1       377 1.61179E+04-1.15677E+05-4.21552E+05
 -1       378 9.63001E+03-1.33408E+05-4.48476E+05
 -1       379 1.20362E+03-1.42153E+05-4.47297E+05
 -1       380-8.23561E+03-1.39591E+05-4.19190E+05
 -1       381-1.75385E+04-1.24846E+05-3.66809E+05
 -1       382-2.55140E+04-9.87475E+04-2.93559E+05
 -1       383-3.11384E+04-6.37752E+04-2.03227E+05
 -1       384-3.37392E+04-2.36635E+04-9.99864E+04
 -1       385-3.31071E+04 1.72440E+04 1.13312E+04
 -1       386-2.95072E+04 5.47396E+04 1.24896E+05
 -1       387-2.35905E+04 8.54230E+04 2.33706E+05
 -1       388-1.62287E+04 1.07148E+05 3.29765E+05
 -1       389-8.31818E+03 1.19155E+05 4.04692E+05
 -1       390-6.04621E+02 1.21884E+05 4.50713E+05
 -1       391 6.43031E+03 1.16557E+05 4.61847E+05
 -1       392 1.25944E+04 1.04649E+05 4.35018E+05
 -1       393 1.79259E+04 8.74309E+04 3.70794E+05
 -1       394 2.25774E+04 6.56948E+04 2.73546E+05
 -1       395 2.66854E+04 3.97298E+04 1.50901E+05
 -1       396 3.02767E+04 9.53377E+03 1.25664E+04
 -1       397 3.32469E+04-2.48500E+04-1.31187E+05
 -1       398 3.54296E+04-6.30341E+04-2.71016E+05
 -1       399 3.67343E+04-1.04193E+05-3.99702E+05
 -1       400 3.72983E+04-1.47259E+05-5.13516E+05
 -1       401 3.82596E+06-4.24271E+04-2.01920E+06
 -1       402-5.79424E+06-3.66540E+05 2.33846E+06
 -1       403 2.04667E+04-2.11541E+05-3.57604E+05
 -1       404 1.32771E+03-1.14499E+04-9.53195E+03
 -1       405 2.64680E+03-3.32772E+04-2.65557E+04
 -1       406 3.60738E+03-6.42061E+04-4.79735E+04
 -1       407 4.10513E+03-1.00070E+05-6.93049E+04
 -1       408 4.05932E+03-1.36474E+05-8.73717E+04
 -1       409 3.41222E+03-1.68727E+05-1.00117E+05
 -1       410 2.17957E+03-1.92178E+05-1.06464E+05
 -1       411 4.70820E+02-2.02796E+05-1.06139E+05
 -1       412-1.51161E+03-1.97840E+05-9.94360E+04
 -1       413-3.50013E+03-1.76417E+05-8.69969E+04
 -1       414-5.21000E+03-1.39769E+05-6.96309E+04
 -1       415-6.39526E+03-9.11700E+04-4.82299E+04
 -1       416-6.89777E+03-3.54483E+04-2.37709E+04
 -1       417-6.67666E+03 2.17817E+04 2.61482E+03
 -1       418-5.81061E+03 7.50051E+04 2.95569E+04
 -1       419-4.47266E+03 1.19614E+05 5.54003E+04
 -1       420-2.88495E+03 1.52462E+05 7.82451E+04
 -1       421-1.26549E+03 1.72069E+05 9.60919E+04
 -1       422 2.18556E+02 1.78457E+05 1.07080E+05
 -1       423 1.47924E+03 1.72718E+05 1.09773E+05
 -1       424 2.51136E+03 1.56447E+05 1.03426E+05
 -1       425 3.37198E+03 1.31235E+05 8.81687E+04
 -1       426 4.14375E+03 9.83388E+04 6.50430E+04
 -1       427 4.89480E+03 5.86220E+04 3.58741E+04
 -1       428 5.64919E+03 1.27335E+04 2.99103E+03
 -1       429 6.37958E+03-3.85817E+04-3.11460E+04
 -1       430 7.02552E+03-9.42139E+04-6.43244E+04
 -1       431 7.52961E+03-1.52654E+05-9.48878E+04
 -1       432 7.85954E+03-2.12327E+05-1.22149E+05
 -1       433 2.32354E+04-1.76553E+05-3.57572E+05
 -1       434 3.82596E+06-4.24271E+04 2.01920E+06
 -1       435-5.79424E+06-3.66540E+05-2.33846E+06
 -1       436 7.85954E+03-2.12327E+05 1.22149E+05
 -1       437 7.52961E+03-1.52654E+05 9.48878E+04
 -1       438 7.02552E+03-9.42139E+04 6.43244E+04
 -1       439 6.37958E+03-3.85817E+04 3.11460E+04
 -1       440 5.64919E+03 1.27335E+04-2.99103E+03
 -1       441 4.89480E+03 5.86220E+04-3.58741E+04
 -1       442 4.14375E+03 9.83388E+04-6.50430E+04
 -1       443 3.37198E+03 1.31235E+05-8.81687E+04
 -1       444 2.51136E+03 1.56447E+05-1.03426E+05
 -1       445 1.47924E+03 1.72718E+05-1.09773E+05
 -1       446 2.18556E+02 1.78457E+05-1.07080E+05
 -1       447-1.26549E+03 1.72069E+05-9.60919E+04
 -1       448-2.88495E+03 1.52462E+05-7.82451E+04
 -1       449-4.47266E+03 1.19614E+05-5.54003E+04
 -1       450-5.81061E+03 7.50051E+04-2.95569E+04
 -1       451-6.67666E+03 2.17817E+04-2.61482E+03
 -1       452-6.89777E+03-3.54483E+04 2.37709E+04
 -1       453-6.39526E+03-9.11700E+04 4.82299E+04
 -1       454-5.21000E+03-1.39769E+05 6.96309E+04
 -1       455-3.50013E+03-1.76417E+05 8.69969E+04
 -1       456-1.51161E+03-1.97840E+05 9.94360E+04
 -1       457 4.70820E+02-2.02796E+05 1.06139E+05
 -1       458 2.17957E+03-1.92178E+05 1.06464E+05
 -1       459 3.41222E+03-1.68727E+05 1.00117E+05
 -1       460 4.05932E+03-1.36474E+05 8.73717E+04
 -1       461 4.10513E+03-1.00070E+05 6.93049E+04
 -1       462 3.60738E+03-6.42061E+04 4.79735E+04
 -1       463 2.64680E+03-3.32772E+04 2.65557E+04
 -1       464 1.32771E+03-1.14499E+04 9.53195E+03
 -1       465 2.04667E+04-2.11541E+05 3.57604E+05
 -1       466 6.09885E+03-1.03657E+04 4.01043E+04
 -1       467 1.16128E+04-2.87053E+04 1.11822E+05
 -1       468 1.55488E+04-5.45462E+04 2.01945E+05
 -1       469 1.75042E+04-8.44931E+04 2.91687E+05
 -1       470 1.71580E+04-1.14819E+05 3.67793E+05
 -1       471 1.43149E+04-1.41610E+05 4.21617E+05
 -1       472 9.06189E+03-1.61009E+05 4.48572E+05
 -1       473 1.86496E+03-1.69690E+05 4.47415E+05
 -1       474-6.43552E+03-1.65405E+05 4.19315E+05
 -1       475-1.47375E+04-1.47437E+05 3.66925E+05
 -1       476-2.18722E+04-1.16826E+05 2.93650E+05
 -1       477-2.68305E+04-7.62857E+04 2.03281E+05
 -1       478-2.89619E+04-2.98102E+04 9.99973E+04
 -1       479-2.80937E+04 1.79564E+04-1.13628E+04
 -1       480-2.45411E+04 6.24449E+04-1.24963E+05
 -1       481-1.90058E+04 9.98227E+04-2.33797E+05
 -1       482-1.23929E+04 1.27452E+05-3.29866E+05
 -1       483-5.59627E+03 1.44058E+05-4.04792E+05
 -1       484 6.91161E+02 1.49608E+05-4.50805E+05
 -1       485 6.09299E+03 1.44956E+05-4.61927E+05
 -1       486 1.05652E+04 1.31393E+05-4.35085E+05
 -1       487 1.43155E+04 1.10225E+05-3.70852E+05
 -1       488 1.76569E+04 8.25121E+04-2.73599E+05
 -1       489 2.08478E+04 4.90101E+04-1.50950E+05
 -1       490 2.39744E+04 1.03100E+04-1.26113E+04
 -1       491 2.69228E+04-3.29170E+04 1.31149E+05
 -1       492 2.94573E+04-7.97069E+04 2.70986E+05
 -1       493 3.13695E+04-1.28782E+05 3.99683E+05
 -1       494 3.25916E+04-1.78796E+05 5.13506E+05
 -1       495 8.49901E+03-7.91066E+03 4.02037E+04
 -1       496 1.53449E+04-2.18327E+04 1.11896E+05
 -1       497 1.96334E+04-4.21296E+04 2.01988E+05
 -1       498 2.12438E+04-6.65589E+04 2.91696E+05
 -1       499 2.00733E+04-9.22026E+04 3.67765E+05
 -1       500 1.61179E+04-1.15677E+05 4.21552E+05
 -1       501 9.63001E+03-1.33408E+05 4.48476E+05
 -1       502 1.20362E+03-1.42153E+05 4.47297E+05
 -1       503-8.23561E+03-1.39591E+05 4.19190E+05
 -1       504-1.75385E+04-1.24846E+05 3.66809E+05
 -1       505-2.55140E+04-9.87475E+04 2.93559E+05
 -1       506-3.11384E+04-6.37752E+04 2.03227E+05
 -1       507-3.37392E+04-2.36635E+04 9.99864E+04
 -1       508-3.31071E+04 1.72440E+04-1.13312E+04
 -1       509-2.95072E+04 5.47396E+04-1.24896E+05
 -1       510-2.35905E+04 8.54230E+04-2.33706E+05
 -1       511-1.62287E+04 1.07148E+05-3.29765E+05
 -1       512-8.31818E+03 1.19155E+05-4.04692E+05
 -1       513-6.04621E+02 1.21884E+05-4.50713E+05
 -1       514 6.43031E+03 1.16557E+05-4.61847E+05
 -1       515 1.25944E+04 1.04649E+05-4.35018E+05
 -1       516 1.79259E+04 8.74309E+04-3.70794E+05
 -1       517 2.25774E+04 6.56948E+04-2.73546E+05
 -1       518 2.66854E+04 3.97298E+04-1.50901E+05
 -1       519 3.02767E+04 9.53377E+03-1.25664E+04
 -1       520 3.32469E+04-2.48500E+04 1.31187E+05
 -1       521 3.54296E+04-6.30341E+04 2.71016E+05
 -1       522 3.67343E+04-1.04193E+05 3.99702E+05
 -1       523 3.72983E+04-1.47259E+05 5.13516E+05
 -1       524 2.32354E+04-1.76553E+05 3.57572E+05
 -1       525 1.21995E+03 6.29350E+04 8.97773E+02
 -1       526 1.84860E+03 1.74227E+05 2.53076E+03
 -1       527 1.88999E+03 3.07952E+05 4.60803E+03
 -1       528 1.52608E+03 4.29260E+05 6.67477E+03
 -1       529 9.47866E+02 5.16540E+05 8.40615E+03
 -1       530 3.23885E+02 5.60908E+05 9.60236E+03
 -1       531-2.23372E+02 5.63761E+05 1.01710E+04
 -1       532-6.30461E+02 5.33035E+05 1.01012E+04
 -1       533-8.93365E+02 4.78991E+05 9.43540E+03
 -1       534-1.05447E+03 4.10438E+05 8.24329E+03
 -1       535-1.17881E+03 3.32273E+05 6.60350E+03
 -1       536-1.32577E+03 2.44882E+05 4.59514E+03
 -1       537-1.52433E+03 1.45447E+05 2.30017E+03
 -1       538-1.75899E+03 3.06346E+04-1.86675E+02
 -1       539-1.97076E+03-1.00228E+05-2.74577E+03
 -1       540-2.07305E+03-2.42599E+05-5.22494E+03
 -1       541-1.97792E+03-3.85664E+05-7.44144E+03
 -1       542-1.62504E+03-5.13265E+05-9.19610E+03
 -1       543-1.00487E+03-6.06702E+05-1.02982E+04
 -1       544-1.68933E+02-6.48732E+05-1.05965E+04
 -1       545 7.76306E+02-6.27719E+05-1.00086E+04
 -1       546 1.69081E+03-5.40806E+05-8.54178E+03
 -1       547 2.43221E+03-3.95210E+05-6.29882E+03
 -1       548 2.88932E+03-2.07194E+05-3.46649E+03
 -1       549 3.01063E+03 1.14493E+03-2.86758E+02
 -1       550 2.82302E+03 2.06773E+05 2.98683E+03
 -1       551 2.43700E+03 3.91471E+05 6.14520E+03
 -1       552 2.02988E+03 5.47255E+05 9.08453E+03
 -1       553 1.78601E+03 6.79305E+05 1.18408E+04
 -1       554 1.80700E+03 9.27649E+04-8.16530E-07
 -1       555 2.77830E+03 2.58649E+05-9.56717E-07
 -1       556 2.91392E+03 4.61873E+05-1.79073E-06
 -1       557 2.45626E+03 6.52318E+05-6.91092E-07
 -1       558 1.65910E+03 7.97451E+05 6.47357E-07
 -1       559 7.48311E+02 8.81703E+05 1.43603E-06
 -1       560-1.07555E+02 9.03422E+05 3.59705E-07
 -1       561-8.12758E+02 8.70236E+05 9.03747E-08
 -1       562-1.34457E+03 7.93871E+05 1.15102E-06
 -1       563-1.73775E+03 6.85494E+05 2.25680E-06
 -1       564-2.05634E+03 5.52634E+05 1.45367E-06
 -1       565-2.36002E+03 3.98297E+05 7.20071E-07
 -1       566-2.67460E+03 2.22361E+05 1.03490E-06
 -1       567-2.97547E+03 2.46151E+04 1.27401E-06
 -1       568-3.18915E+03-1.91660E+05 1.41100E-06
 -1       569-3.21274E+03-4.16860E+05 7.66446E-07
 -1       570-2.94571E+03-6.34062E+05-1.10045E-07
 -1       571-2.32486E+03-8.20431E+05-1.85180E-07
 -1       572-1.35176E+03-9.50854E+05-1.18009E-06
 -1       573-1.04295E+02-1.00299E+06-2.93265E-07
 -1       574 1.27196E+03-9.62403E+05 1.68037E-06
 -1       575 2.59099E+03-8.26474E+05 2.04093E-06
 -1       576 3.66567E+03-6.05859E+05 4.61221E-07
 -1       577 4.34980E+03-3.23103E+05-4.16212E-08
 -1       578 4.57457E+03-8.45165E+03-1.59037E-06
 -1       579 4.37426E+03 3.06526E+05-2.62187E-06
 -1       580 3.89765E+03 5.96638E+05-2.94606E-06
 -1       581 3.38867E+03 8.50657E+05-6.26846E-07
 -1       582 3.09243E+03 1.07532E+06 2.86822E-06
 -1       583 1.21995E+03 6.29350E+04-8.97773E+02
 -1       584 1.84860E+03 1.74227E+05-2.53076E+03
 -1       585 1.88999E+03 3.07952E+05-4.60803E+03
 -1       586 1.52608E+03 4.29260E+05-6.67477E+03
 -1       587 9.47866E+02 5.16540E+05-8.40615E+03
 -1       588 3.23885E+02 5.60908E+05-9.60236E+03
 -1       589-2.23372E+02 5.63761E+05-1.01710E+04
 -1       590-6.30461E+02 5.33035E+05-1.01012E+04
 -1       591-8.93365E+02 4.78991E+05-9.43540E+03
 -1       592-1.05447E+03 4.10438E+05-8.24329E+03
 -1       593-1.17881E+03 3.32273E+05-6.60350E+03
 -1       594-1.32577E+03 2.44882E+05-4.59514E+03
 -1       595-1.52433E+03 1.45447E+05-2.30017E+03
 -1       596-1.75899E+03 3.06346E+04 1.86675E+02
 -1       597-1.97076E+03-1.00228E+05 2.74577E+03
 -1       598-2.07305E+03-2.42599E+05 5.22494E+03
 -1       599-1.97792E+03-3.85664E+05 7.44144E+03
 -1       600-1.62504E+03-5.13265E+05 9.19610E+03
 -1       601-1.00487E+03-6.06702E+05 1.02982E+04
 -1       602-1.68933E+02-6.48732E+05 1.05965E+04
 -1       603 7.76306E+02-6.27719E+05 1.00086E+04
 -1       604 1.69081E+03-5.40806E+05 8.54178E+03
 -1       605 2.43221E+03-3.95210E+05 6.29882E+03
 -1       606 2.88932E+03-2.07194E+05 3.46649E+03
 -1       607 3.01063E+03 1.14493E+03 2.86758E+02
 -1       608 2.82302E+03 2.06773E+05-2.98683E+03
 -1       609 2.43700E+03 3.91471E+05-6.14520E+03
 -1       610 2.02988E+03 5.47255E+05-9.08453E+03
 -1       611 1.78601E+03 6.79305E+05-1.18408E+04
 -1       612-1.21995E+03 6.29350E+04 8.97773E+02
 -1       613-1.84860E+03 1.74227E+05 2.53076E+03
 -1       614-1.88999E+03 3.07952E+05 4.60803E+03
 -1       615-1.52608E+03 4.29260E+05 6.67477E+03
 -1       616-9.47866E+02 5.16540E+05 8.40615E+03
 -1       617-3.23885E+02 5.60908E+05 9.60236E+03
 -1       618 2.23372E+02 5.63761E+05 1.01710E+04
 -1       619 6.30461E+02 5.33035E+05 1.01012E+04
 -1       620 8.93365E+02 4.78991E+05 9.43540E+03
 -1       621 1.05447E+03 4.10438E+05 8.24329E+03
 -1       622 1.17881E+03 3.32273E+05 6.60350E+03
 -1       623 1.32577E+03 2.44882E+05 4.59514E+03
 -1       624 1.52433E+03 1.45447E+05 2.30017E+03
 -1       625 1.75899E+03 3.06346E+04-1.86675E+02
 -1       626 1.97076E+03-1.00228E+05-2.74577E+03
 -1       627 2.07305E+03-2.42599E+05-5.22494E+03
 -1       628 1.97792E+03-3.85664E+05-7.44144E+03
 -1       629 1.62504E+03-5.13265E+05-9.19610E+03
 -1       630 1.00487E+03-6.06702E+05-1.02982E+04
 -1       631 1.68933E+02-6.48732E+05-1.05965E+04
 -1       632-7.76306E+02-6.27719E+05-1.00086E+04
 -1       633-1.69081E+03-5.40806E+05-8.54178E+03
 -1       634-2.43221E+03-3.95210E+05-6.29882E+03
 -1       635-2.88932E+03-2.07194E+05-3.46649E+03
 -1       636-3.01063E+03 1.14493E+03-2.86758E+02
 -1       637-2.82302E+03 2.06773E+05 2.98683E+03
 -1       638-2.43700E+03 3.91471E+05 6.14520E+03
 -1       639-2.02988E+03 5.47255E+05 9.08453E+03
 -1       640-1.78601E+03 6.79305E+05 1.18408E+04
 -1       641-1.80700E+03 9.27649E+04-1.19730E-06
 -1       642-2.77830E+03 2.58649E+05-2.28678E-06
 -1       643-2.91392E+03 4.61873E+05-1.11667E-06
 -1       644-2.45626E+03 6.52318E+05-2.81681E-07
 -1       645-1.65910E+03 7.97451E+05 6.45348E-07
 -1       646-7.48311E+02 8.81703E+05-9.43692E-08
 -1       647 1.07555E+02 9.03422E+05-2.22048E-07
 -1       648 8.12758E+02 8.70236E+05-2.63535E-08
 -1       649 1.34457E+03 7.93871E+05 9.65258E-07
 -1       650 1.73775E+03 6.85494E+05 2.39581E-06
 -1       651 2.05634E+03 5.52634E+05 3.12519E-06
 -1       652 2.36002E+03 3.98297E+05 1.87132E-06
 -1       653 2.67460E+03 2.22361E+05 1.00666E-06
 -1       654 2.97547E+03 2.46151E+04 1.17569E-06
 -1       655 3.18915E+03-1.91660E+05 1.08092E-06
 -1       656 3.21274E+03-4.16860E+05-1.61759E-07
 -1       657 2.94571E+03-6.34062E+05 5.10088E-07
 -1       658 2.32486E+03-8.20431E+05-6.10409E-07
 -1       659 1.35176E+03-9.50854E+05-1.44735E-06
 -1       660 1.04295E+02-1.00299E+06-5.45842E-08
 -1       661-1.27196E+03-9.62403E+05 1.32735E-06
 -1       662-2.59099E+03-8.26474E+05 1.47881E-06
 -1       663-3.66567E+03-6.05859E+05 1.13976E-06
 -1       664-4.34980E+03-3.23103E+05-7.91424E-08
 -1       665-4.57457E+03-8.45165E+03-2.27055E-06
 -1       666-4.37426E+03 3.06526E+05-3.70905E-06
 -1       667-3.89765E+03 5.96638E+05-3.36277E-06
 -1       668-3.38867E+03 8.50657E+05-1.03406E-07
 -1       669-3.09243E+03 1.07532E+06 2.49525E-06
 -1       670-1.21995E+03 6.29350E+04-8.97773E+02
 -1       671-1.84860E+03 1.74227E+05-2.53076E+03
 -1       672-1.88999E+03 3.07952E+05-4.60803E+03
 -1       673-1.52608E+03 4.29260E+05-6.67477E+03
 -1       674-9.47866E+02 5.16540E+05-8.40615E+03
 -1       675-3.23885E+02 5.60908E+05-9.60236E+03
 -1       676 2.23372E+02 5.63761E+05-1.01710E+04
 -1       677 6.30461E+02 5.33035E+05-1.01012E+04
 -1       678 8.93365E+02 4.78991E+05-9.43540E+03
 -1       679 1.05447E+03 4.10438E+05-8.24329E+03
 -1       680 1.17881E+03 3.32273E+05-6.60350E+03
 -1       681 1.32577E+03 2.44882E+05-4.59514E+03
 -1       682 1.52433E+03 1.45447E+05-2.30017E+03
 -1       683 1.75899E+03 3.06346E+04 1.86675E+02
 -1       684 1.97076E+03-1.00228E+05 2.74577E+03
 -1       685 2.07305E+03-2.42599E+05 5.22494E+03
 -1       686 1.97792E+03-3.85664E+05 7.44144E+03
 -1       687 1.62504E+03-5.13265E+05 9.19610E+03
 -1       688 1.00487E+03-6.06702E+05 1.02982E+04
 -1       689 1.68933E+02-6.48732E+05 1.05965E+04
 -1       690-7.76306E+02-6.27719E+05 1.00086E+04
 -1       691-1.69081E+03-5.40806E+05 8.54178E+03
 -1       692-2.43221E+03-3.95210E+05 6.29882E+03
 -1       693-2.88932E+03-2.07194E+05 3.46649E+03
 -1       694-3.01063E+03 1.14493E+03 2.86758E+02
 -1       695-2.82302E+03 2.06773E+05-2.98683E+03
 -1       696-2.43700E+03 3.91471E+05-6.14520E+03
 -1       697-2.02988E+03 5.47255E+05-9.08453E+03
 -1       698-1.78601E+03 6.79305E+05-1.18408E+04
 -1       699-7.17423E+03-1.98324E+04 4.92261E+04
 -1       700-1.39861E+04-5.65070E+04 1.37147E+05
 -1       701-1.88534E+04-1.08301E+05 2.47676E+05
 -1       702-2.12828E+04-1.68316E+05 3.57751E+05
 -1       703-2.08952E+04-2.29144E+05 4.51064E+05
 -1       704-1.74442E+04-2.82945E+05 5.17003E+05
 -1       705-1.10383E+04-3.21972E+05 5.49968E+05
 -1       706-2.24871E+03-3.39532E+05 5.48464E+05
 -1       707 7.89500E+03-3.31085E+05 5.13957E+05
 -1       708 1.80436E+04-2.95173E+05 4.49716E+05
 -1       709 2.67663E+04-2.33875E+05 3.59920E+05
 -1       710 3.28278E+04-1.52645E+05 2.49203E+05
 -1       711 3.54318E+04-5.95164E+04 1.22663E+05
 -1       712 3.43668E+04 3.61711E+04-1.37951E+04
 -1       713 3.00182E+04 1.25235E+05-1.53040E+05
 -1       714 2.32443E+04 1.99984E+05-2.86495E+05
 -1       715 1.51523E+04 2.55147E+05-4.04352E+05
 -1       716 6.83544E+03 2.88204E+05-4.96320E+05
 -1       717-8.58821E+02 2.99133E+05-5.52845E+05
 -1       718-7.47066E+03 2.89696E+05-5.66569E+05
 -1       719-1.29471E+04 2.62515E+05-5.33698E+05
 -1       720-1.75434E+04 2.20227E+05-4.54926E+05
 -1       721-2.16441E+04 1.64947E+05-3.35618E+05
 -1       722-2.55675E+04 9.81574E+04-1.85146E+05
 -1       723-2.94225E+04 2.10015E+04-1.54555E+04
 -1       724-3.30741E+04-6.52171E+04 1.60829E+05
 -1       725-3.62386E+04-1.58594E+05 3.32261E+05
 -1       726-3.86576E+04-2.56575E+05 4.90072E+05
 -1       727-4.02372E+04-3.56471E+05 6.30091E+05
 -1       728-1.01728E+04-1.49712E+04 4.93372E+04
 -1       729-1.86476E+04-4.30202E+04 1.37222E+05
 -1       730-2.39570E+04-8.39707E+04 2.47701E+05
 -1       731-2.59551E+04-1.33185E+05 3.57725E+05
 -1       732-2.45358E+04-1.84850E+05 4.50985E+05
 -1       733-1.96939E+04-2.32166E+05 5.16874E+05
 -1       734-1.17449E+04-2.67941E+05 5.49798E+05
 -1       735-1.42032E+03-2.85634E+05 5.48268E+05
 -1       736 1.01442E+04-2.80568E+05 5.13756E+05
 -1       737 2.15412E+04-2.50966E+05 4.49533E+05
 -1       738 3.13124E+04-1.98497E+05 3.59776E+05
 -1       739 3.82049E+04-1.28158E+05 2.49113E+05
 -1       740 4.13954E+04-4.74771E+04 1.22637E+05
 -1       741 4.06263E+04 3.47915E+04-1.37565E+04
 -1       742 3.62203E+04 1.10170E+05-1.52946E+05
 -1       743 2.89719E+04 1.71813E+05-2.86359E+05
 -1       744 1.99460E+04 2.15410E+05-4.04191E+05
 -1       745 1.02388E+04 2.39451E+05-4.96151E+05
 -1       746 7.63132E+02 2.44848E+05-5.52680E+05
 -1       747-7.88961E+03 2.34079E+05-5.66417E+05
 -1       748-1.54810E+04 2.10135E+05-5.33564E+05
 -1       749-2.20542E+04 1.75582E+05-4.54811E+05
 -1       750-2.77924E+04 1.32010E+05-3.35521E+05
 -1       751-3.28614E+04 7.99863E+04-1.85070E+05
 -1       752-3.72950E+04 1.94874E+04-1.54007E+04
 -1       753-4.09717E+04-4.94162E+04 1.60858E+05
 -1       754-4.36959E+04-1.25946E+05 3.32262E+05
 -1       755-4.53622E+04-2.08424E+05 4.90045E+05
 -1       756-4.61562E+04-2.94639E+05 6.30041E+05
 -1       757-1.01728E+04-1.49712E+04-4.93372E+04
 -1       758-1.86476E+04-4.30202E+04-1.37222E+05
 -1       759-2.39570E+04-8.39707E+04-2.47701E+05
 -1       760-2.59551E+04-1.33185E+05-3.57725E+05
 -1       761-2.45358E+04-1.84850E+05-4.50985E+05
 -1       762-1.96939E+04-2.32166E+05-5.16874E+05
 -1       763-1.17449E+04-2.67941E+05-5.49798E+05
 -1       764-1.42032E+03-2.85634E+05-5.48268E+05
 -1       765 1.01442E+04-2.80568E+05-5.13756E+05
 -1       766 2.15412E+04-2.50966E+05-4.49533E+05
 -1       767 3.13124E+04-1.98497E+05-3.59776E+05
 -1       768 3.82049E+04-1.28158E+05-2.49113E+05
 -1       769 4.13954E+04-4.74771E+04-1.22637E+05
 -1       770 4.06263E+04 3.47915E+04 1.37565E+04
 -1       771 3.62203E+04 1.10170E+05 1.52946E+05
 -1       772 2.89719E+04 1.71813E+05 2.86359E+05
 -1       773 1.99460E+04 2.15410E+05 4.04191E+05
 -1       774 1.02388E+04 2.39451E+05 4.96151E+05
 -1       775 7.63132E+02 2.44848E+05 5.52680E+05
 -1       776-7.88961E+03 2.34079E+05 5.66417E+05
 -1       777-1.54810E+04 2.10135E+05 5.33564E+05
 -1       778-2.20542E+04 1.75582E+05 4.54811E+05
 -1       779-2.77924E+04 1.32010E+05 3.35521E+05
 -1       780-3.28614E+04 7.99863E+04 1.85070E+05
 -1       781-3.72950E+04 1.94874E+04 1.54007E+04
 -1       782-4.09717E+04-4.94162E+04-1.60858E+05
 -1       783-4.36959E+04-1.25946E+05-3.32262E+05
 -1       784-4.53622E+04-2.08424E+05-4.90045E+05
 -1       785-4.61562E+04-2.94639E+05-6.30041E+05
 -1       786-7.17423E+03-1.98324E+04-4.92261E+04
 -1       787-1.39861E+04-5.65070E+04-1.37147E+05
 -1       788-1.88534E+04-1.08301E+05-2.47676E+05
 -1       789-2.12828E+04-1.68316E+05-3.57751E+05
 -1       790-2.08952E+04-2.29144E+05-4.51064E+05
 -1       791-1.74442E+04-2.82945E+05-5.17003E+05
 -1       792-1.10383E+04-3.21972E+05-5.49968E+05
 -1       793-2.24871E+03-3.39532E+05-5.48464E+05
 -1       794 7.89500E+03-3.31085E+05-5.13957E+05
 -1       795 1.80436E+04-2.95173E+05-4.49716E+05
 -1       796 2.67663E+04-2.33875E+05-3.59920E+05
 -1       797 3.28278E+04-1.52645E+05-2.49203E+05
 -1       798 3.54318E+04-5.95164E+04-1.22663E+05
 -1       799 3.43668E+04 3.61711E+04 1.37951E+04
 -1       800 3.00182E+04 1.25235E+05 1.53040E+05
 -1       801 2.32443E+04 1.99984E+05 2.86495E+05
 -1       802 1.51523E+04 2.55147E+05 4.04352E+05
 -1       803 6.83544E+03 2.88204E+05 4.96320E+05
 -1       804-8.58821E+02 2.99133E+05 5.52845E+05
 -1       805-7.47066E+03 2.89696E+05 5.66569E+05
 -1       806-1.29471E+04 2.62515E+05 5.33698E+05
 -1       807-1.75434E+04 2.20227E+05 4.54926E+05
 -1       808-2.16441E+04 1.64947E+05 3.35618E+05
 -1       809-2.55675E+04 9.81574E+04 1.85146E+05
 -1       810-2.94225E+04 2.10015E+04 1.54555E+04
 -1       811-3.30741E+04-6.52171E+04-1.60829E+05
 -1       812-3.62386E+04-1.58594E+05-3.32261E+05
 -1       813-3.86576E+04-2.56575E+05-4.90072E+05
 -1       814-4.02372E+04-3.56471E+05-6.30091E+05
 -1       815 7.17423E+03-1.98324E+04-4.92261E+04
 -1       816 1.39861E+04-5.65070E+04-1.37147E+05
 -1       817 1.88534E+04-1.08301E+05-2.47676E+05
 -1       818 2.12828E+04-1.68316E+05-3.57751E+05
 -1       819 2.08952E+04-2.29144E+05-4.51064E+05
 -1       820 1.74442E+04-2.82945E+05-5.17003E+05
 -1       821 1.10383E+04-3.21972E+05-5.49968E+05
 -1       822 2.24871E+03-3.39532E+05-5.48464E+05
 -1       823-7.89500E+03-3.31085E+05-5.13957E+05
 -1       824-1.80436E+04-2.95173E+05-4.49716E+05
 -1       825-2.67663E+04-2.33875E+05-3.59920E+05
 -1       826-3.28278E+04-1.52645E+05-2.49203E+05
 -1       827-3.54318E+04-5.95164E+04-1.22663E+05
 -1       828-3.43668E+04 3.61711E+04 1.37951E+04
 -1       829-3.00182E+04 1.25235E+05 1.53040E+05
 -1       830-2.32443E+04 1.99984E+05 2.86495E+05
 -1       831-1.51523E+04 2.55147E+05 4.04352E+05
 -1       832-6.83544E+03 2.88204E+05 4.96320E+05
 -1       833 8.58821E+02 2.99133E+05 5.52845E+05
 -1       834 7.47066E+03 2.89696E+05 5.66569E+05
 -1       835 1.29471E+04 2.62515E+05 5.33698E+05
 -1       836 1.75434E+04 2.20227E+05 4.54926E+05
 -1       837 2.16441E+04 1.64947E+05 3.35618E+05
 -1       838 2.55675E+04 9.81574E+04 1.85146E+05
 -1       839 2.94225E+04 2.10015E+04 1.54555E+04
 -1       840 3.30741E+04-6.52171E+04-1.60829E+05
 -1       841 3.62386E+04-1.58594E+05-3.32261E+05
 -1       842 3.86576E+04-2.56575E+05-4.90072E+05
 -1       843 4.02372E+04-3.56471E+05-6.30091E+05
 -1       844 1.01728E+04-1.49712E+04-4.93372E+04
 -1       845 1.86476E+04-4.30202E+04-1.37222E+05
 -1       846 2.39570E+04-8.39707E+04-2.47701E+05
 -1       847 2.59551E+04-1.33185E+05-3.57725E+05
 -1       848 2.45358E+04-1.84850E+05-4.50985E+05
 -1       849 1.96939E+04-2.32166E+05-5.16874E+05
 -1       850 1.17449E+04-2.67941E+05-5.49798E+05
 -1       851 1.42032E+03-2.85634E+05-5.48268E+05
 -1       852-1.01442E+04-2.80568E+05-5.13756E+05
 -1       853-2.15412E+04-2.50966E+05-4.49533E+05
 -1       854-3.13124E+04-1.98497E+05-3.59776E+05
 -1       855-3.82049E+04-1.28158E+05-2.49113E+05
 -1       856-4.13954E+04-4.74771E+04-1.22637E+05
 -1       857-4.06263E+04 3.47915E+04 1.37565E+04
 -1       858-3.62203E+04 1.10170E+05 1.52946E+05
 -1       859-2.89719E+04 1.71813E+05 2.86359E+05
 -1       860-1.99460E+04 2.15410E+05 4.04191E+05
 -1       861-1.02388E+04 2.39451E+05 4.96151E+05
 -1       862-7.63132E+02 2.44848E+05 5.52680E+05
 -1       863 7.88961E+03 2.34079E+05 5.66417E+05
 -1       864 1.54810E+04 2.10135E+05 5.33564E+05
 -1       865 2.20542E+04 1.75582E+05 4.54811E+05
 -1       866 2.77924E+04 1.32010E+05 3.35521E+05
 -1       867 3.28614E+04 7.99863E+04 1.85070E+05
 -1       868 3.72950E+04 1.94874E+04 1.54007E+04
 -1       869 4.09717E+04-4.94162E+04-1.60858E+05
 -1       870 4.36959E+04-1.25946E+05-3.32262E+05
 -1       871 4.53622E+04-2.08424E+05-4.90045E+05
 -1       872 4.61562E+04-2.94639E+05-6.30041E+05
 -1       873 4.02372E+04-3.56471E+05 6.30091E+05
 -1       874 3.86576E+04-2.56575E+05 4.90072E+05
 -1       875 3.62386E+04-1.58594E+05 3.32261E+05
 -1       876 3.30741E+04-6.52171E+04 1.60829E+05
 -1       877 2.94225E+04 2.10015E+04-1.54555E+04
 -1       878 2.55675E+04 9.81574E+04-1.85146E+05
 -1       879 2.16441E+04 1.64947E+05-3.35618E+05
 -1       880 1.75434E+04 2.20227E+05-4.54926E+05
 -1       881 1.29471E+04 2.62515E+05-5.33698E+05
 -1       882 7.47066E+03 2.89696E+05-5.66569E+05
 -1       883 8.58821E+02 2.99133E+05-5.52845E+05
 -1       884-6.83544E+03 2.88204E+05-4.96320E+05
 -1       885-1.51523E+04 2.55147E+05-4.04352E+05
 -1       886-2.32443E+04 1.99984E+05-2.86495E+05
 -1       887-3.00182E+04 1.25235E+05-1.53040E+05
 -1       888-3.43668E+04 3.61711E+04-1.37951E+04
 -1       889-3.54318E+04-5.95164E+04 1.22663E+05
 -1       890-3.28278E+04-1.52645E+05 2.49203E+05
 -1       891-2.67663E+04-2.33875E+05 3.59920E+05
 -1       892-1.80436E+04-2.95173E+05 4.49716E+05
 -1       893-7.89500E+03-3.31085E+05 5.13957E+05
 -1       894 2.24871E+03-3.39532E+05 5.48464E+05
 -1       895 1.10383E+04-3.21972E+05 5.49968E+05
 -1       896 1.74442E+04-2.82945E+05 5.17003E+05
 -1       897 2.08952E+04-2.29144E+05 4.51064E+05
 -1       898 2.12828E+04-1.68316E+05 3.57751E+05
 -1       899 1.88534E+04-1.08301E+05 2.47676E+05
 -1       900 1.39861E+04-5.65070E+04 1.37147E+05
 -1       901 7.17423E+03-1.98324E+04 4.92261E+04
 -1       902 1.01728E+04-1.49712E+04 4.93372E+04
 -1       903 1.86476E+04-4.30202E+04 1.37222E+05
 -1       904 2.39570E+04-8.39707E+04 2.47701E+05
 -1       905 2.59551E+04-1.33185E+05 3.57725E+05
 -1       906 2.45358E+04-1.84850E+05 4.50985E+05
 -1       907 1.96939E+04-2.32166E+05 5.16874E+05
 -1       908 1.17449E+04-2.67941E+05 5.49798E+05
 -1       909 1.42032E+03-2.85634E+05 5.48268E+05
 -1       910-1.01442E+04-2.80568E+05 5.13756E+05
 -1       911-2.15412E+04-2.50966E+05 4.49533E+05
 -1       912-3.13124E+04-1.98497E+05 3.59776E+05
 -1       913-3.82049E+04-1.28158E+05 2.49113E+05
 -1       914-4.13954E+04-4.74771E+04 1.22637E+05
 -1       915-4.06263E+04 3.47915E+04-1.37565E+04
 -1       916-3.62203E+04 1.10170E+05-1.52946E+05
 -1       917-2.89719E+04 1.71813E+05-2.86359E+05
 -1       918-1.99460E+04 2.15410E+05-4.04191E+05
 -1       919-1.02388E+04 2.39451E+05-4.96151E+05
 -1       920-7.63132E+02 2.44848E+05-5.52680E+05
 -1       921 7.88961E+03 2.34079E+05-5.66417E+05
 -1       922 1.54810E+04 2.10135E+05-5.33564E+05
 -1       923 2.20542E+04 1.75582E+05-4.54811E+05
 -1       924 2.77924E+04 1.32010E+05-3.35521E+05
 -1       925 3.28614E+04 7.99863E+04-1.85070E+05
 -1       926 3.72950E+04 1.94874E+04-1.54007E+04
 -1       927 4.09717E+04-4.94162E+04 1.60858E+05
 -1       928 4.36959E+04-1.25946E+05 3.32262E+05
 -1       929 4.53622E+04-2.08424E+05 4.90045E+05
 -1       930 4.61562E+04-2.94639E+05 6.30041E+05
 -3
    1PSTEP                        64           1           1          
    1PGM                1.000000E+00                                  
    1PGK                2.688228E+07                                  
    1PHID                         -1                                  
    1PSUBC                         0                                  
    1PMODE                        16                                  
  100CL  116 825.1885118         930                     2   16MODAL      1
 -4  ERROR       1    1
 -5  STR(%)      1    1    0    0
 -1         1 6.80965E+01
 -1         2 6.80965E+01
 -1         3 7.99537E+01
 -1         4 7.99537E+01
 -1         5 6.80965E+01
 -1         6 6.80965E+01
 -1         7 7.99537E+01
 -1         8 7.99537E+01
 -1         9 5.95798E+01
 -1        10 7.99537E+01
 -1        11 5.26938E+01
 -1        12 5.26938E+01
 -1        13 4.30205E+01
 -1        14 4.30205E+01
 -1        15 5.95798E+01
 -1        16 7.99537E+01
 -1        17 5.26938E+01
 -1        18 5.26938E+01
 -1        19 4.30205E+01
 -1        20 4.30205E+01
 -1        21 5.26938E+01
 -1        22 5.26938E+01
 -1        23 4.30205E+01
 -1        24 4.30205E+01
 -1        25 5.95798E+01
 -1        26 7.99537E+01
 -1        27 5.95798E+01
 -1        28 5.26938E+01
 -1        29 5.26938E+01
 -1        30 7.99537E+01
 -1        31 4.30205E+01
 -1        32 4.30205E+01
 -1        33 6.80965E+01
 -1        34 5.49244E+01
 -1        35 5.59312E+01
 -1        36 7.23089E+01
 -1        37 8.33492E+01
 -1        38 8.33492E+01
 -1        39 8.30449E+01
 -1        40 8.23645E+01
 -1        41 8.35687E+01
 -1        42 8.41022E+01
 -1        43 8.41022E+01
 -1        44 7.66640E+01
 -1        45 7.66491E+01
 -1        46 6.56723E+01
 -1        47 7.47834E+01
 -1        48 8.26656E+01
 -1        49 8.27296E+01
 -1        50 8.27296E+01
 -1        51 8.10393E+01
 -1        52 7.99394E+01
 -1        53 8.06036E+01
 -1        54 8.06036E+01
 -1        55 8.01200E+01
 -1        56 6.38960E+01
 -1        57 6.88193E+01
 -1        58 6.88193E+01
 -1        59 6.37578E+01
 -1        60 7.35228E+01
 -1        61 7.99537E+01
 -1        62 6.80965E+01
 -1        63 5.49244E+01
 -1        64 5.59312E+01
 -1        65 7.23089E+01
 -1        66 8.33492E+01
 -1        67 8.33492E+01
 -1        68 8.30449E+01
 -1        69 8.23645E+01
 -1        70 8.35687E+01
 -1        71 8.41022E+01
 -1        72 8.41022E+01
 -1        73 7.66640E+01
 -1        74 7.66491E+01
 -1        75 6.56723E+01
 -1        76 7.47834E+01
 -1        77 8.26656E+01
 -1        78 8.27296E+01
 -1        79 8.27296E+01
 -1        80 8.10393E+01
 -1        81 7.99394E+01
 -1        82 8.06036E+01
 -1        83 8.06036E+01
 -1        84 8.01200E+01
 -1        85 6.38960E+01
 -1        86 6.88193E+01
 -1        87 6.88193E+01
 -1        88 6.37578E+01
 -1        89 7.35228E+01
 -1        90 7.99537E+01
 -1        91 6.80965E+01
 -1        92 3.95285E+01
 -1        93 6.80965E+01
 -1        94 6.80965E+01
 -1        95 3.95285E+01
 -1        96 6.80965E+01
 -1        97 6.80965E+01
 -1        98 5.49244E+01
 -1        99 5.59312E+01
 -1       100 7.23089E+01
 -1       101 8.33492E+01
 -1       102 8.33492E+01
 -1       103 8.30449E+01
 -1       104 8.23645E+01
 -1       105 8.35687E+01
 -1       106 8.41022E+01
 -1       107 8.41022E+01
 -1       108 7.66640E+01
 -1       109 7.66491E+01
 -1       110 6.56723E+01
 -1       111 7.47834E+01
 -1       112 8.26656E+01
 -1       113 8.27296E+01
 -1       114 8.27296E+01
 -1       115 8.10393E+01
 -1       116 7.99394E+01
 -1       117 8.06036E+01
 -1       118 8.06036E+01
 -1       119 8.01200E+01
 -1       120 6.38960E+01
 -1       121 6.88193E+01
 -1       122 6.88193E+01
 -1       123 6.37578E+01
 -1       124 7.35228E+01
 -1       125 7.99537E+01
 -1       126 4.40289E+01
 -1       127 3.46154E+01
 -1       128 4.40289E+01
 -1       129 6.80965E+01
 -1       130 5.49244E+01
 -1       131 5.59312E+01
 -1       132 7.23089E+01
 -1       133 8.33492E+01
 -1       134 8.33492E+01
 -1       135 8.30449E+01
 -1       136 8.23645E+01
 -1       137 8.35687E+01
 -1       138 8.41022E+01
 -1       139 8.41022E+01
 -1       140 7.66640E+01
 -1       141 7.66491E+01
 -1       142 6.56723E+01
 -1       143 7.47834E+01
 -1       144 8.26656E+01
 -1       145 8.27296E+01
 -1       146 8.27296E+01
 -1       147 8.10393E+01
 -1       148 7.99394E+01
 -1       149 8.06036E+01
 -1       150 8.06036E+01
 -1       151 8.01200E+01
 -1       152 6.38960E+01
 -1       153 6.88193E+01
 -1       154 6.88193E+01
 -1       155 6.37578E+01
 -1       156 7.35228E+01
 -1       157 7.99537E+01
 -1       158 4.40289E+01
 -1       159 3.46154E+01
 -1       160 4.40289E+01
 -1       161 5.95798E+01
 -1       162 4.45649E+01
 -1       163 5.59312E+01
 -1       164 7.23089E+01
 -1       165 8.33492E+01
 -1       166 8.33492E+01
 -1       167 8.30449E+01
 -1       168 8.23645E+01
 -1       169 8.35687E+01
 -1       170 8.41022E+01
 -1       171 8.41022E+01
 -1       172 7.66640E+01
 -1       173 7.66491E+01
 -1       174 6.56723E+01
 -1       175 7.47834E+01
 -1       176 8.26656E+01
 -1       177 8.27296E+01
 -1       178 8.27296E+01
 -1       179 8.10393E+01
 -1       180 7.99394E+01
 -1       181 8.06036E+01
 -1       182 8.06036E+01
 -1       183 8.01200E+01
 -1       184 6.38960E+01
 -1       185 6.88193E+01
 -1       186 6.88193E+01
 -1       187 6.37578E+01
 -1       188 7.35228E+01
 -1       189 7.99537E+01
 -1       190 5.95798E+01
 -1       191 5.95798E+01
 -1       192 7.99537E+01
 -1       193 5.26938E+01
 -1       194 3.52035E+01
 -1       195 3.67190E+01
 -1       196 3.67190E+01
 -1       197 3.29340E+01
 -1       198 1.67699E+01
 -1       199 1.67699E+01
 -1       200 1.96953E+01
 -1       201 2.25595E+01
 -1       202 2.25595E+01
 -1       203 2.62493E+01
 -1       204 2.72032E+01
 -1       205 3.26172E+01
 -1       206 3.26172E+01
 -1       207 2.89028E+01
 -1       208 2.62095E+01
 -1       209 2.52359E+01
 -1       210 2.52359E+01
 -1       211 2.43414E+01
 -1       212 1.85917E+01
 -1       213 2.43225E+01
 -1       214 2.43225E+01
 -1       215 2.26307E+01
 -1       216 1.69320E+01
 -1       217 1.64558E+01
 -1       218 1.91007E+01
 -1       219 2.37627E+01
 -1       220 3.51698E+01
 -1       221 4.30205E+01
 -1       222 5.26938E+01
 -1       223 3.52035E+01
 -1       224 3.67190E+01
 -1       225 3.67190E+01
 -1       226 3.29340E+01
 -1       227 1.67699E+01
 -1       228 1.67699E+01
 -1       229 1.96953E+01
 -1       230 2.25595E+01
 -1       231 2.25595E+01
 -1       232 2.62493E+01
 -1       233 2.72032E+01
 -1       234 3.26172E+01
 -1       235 3.26172E+01
 -1       236 2.89028E+01
 -1       237 2.62095E+01
 -1       238 2.52359E+01
 -1       239 2.52359E+01
 -1       240 2.43414E+01
 -1       241 1.85917E+01
 -1       242 2.43225E+01
 -1       243 2.43225E+01
 -1       244 2.26307E+01
 -1       245 1.69320E+01
 -1       246 1.64558E+01
 -1       247 1.91007E+01
 -1       248 2.37627E+01
 -1       249 3.51698E+01
 -1       250 4.30205E+01
 -1       251 7.99537E+01
 -1       252 7.99537E+01
 -1       253 7.35228E+01
 -1       254 6.37578E+01
 -1       255 6.88193E+01
 -1       256 6.88193E+01
 -1       257 6.38960E+01
 -1       258 8.01200E+01
 -1       259 8.06036E+01
 -1       260 8.06036E+01
 -1       261 7.99394E+01
 -1       262 8.10393E+01
 -1       263 8.27296E+01
 -1       264 8.27296E+01
 -1       265 8.26656E+01
 -1       266 7.47834E+01
 -1       267 6.56723E+01
 -1       268 7.66491E+01
 -1       269 7.66640E+01
 -1       270 8.41022E+01
 -1       271 8.41022E+01
 -1       272 8.35687E+01
 -1       273 8.23645E+01
 -1       274 8.30449E+01
 -1       275 8.33492E+01
 -1       276 8.33492E+01
 -1       277 7.23089E+01
 -1       278 5.59312E+01
 -1       279 4.45649E+01
 -1       280 5.95798E+01
 -1       281 5.95798E+01
 -1       282 5.95798E+01
 -1       283 5.26938E+01
 -1       284 3.52035E+01
 -1       285 3.67190E+01
 -1       286 3.67190E+01
 -1       287 3.29340E+01
 -1       288 1.67699E+01
 -1       289 1.67699E+01
 -1       290 1.96953E+01
 -1       291 2.25595E+01
 -1       292 2.25595E+01
 -1       293 2.62493E+01
 -1       294 2.72032E+01
 -1       295 3.26172E+01
 -1       296 3.26172E+01
 -1       297 2.89028E+01
 -1       298 2.62095E+01
 -1       299 2.52359E+01
 -1       300 2.52359E+01
 -1       301 2.43414E+01
 -1       302 1.85917E+01
 -1       303 2.43225E+01
 -1       304 2.43225E+01
 -1       305 2.26307E+01
 -1       306 1.69320E+01
 -1       307 1.64558E+01
 -1       308 1.91007E+01
 -1       309 2.37627E+01
 -1       310 3.51698E+01
 -1       311 4.30205E+01
 -1       312 7.99537E+01
 -1       313 5.26938E+01
 -1       314 3.52035E+01
 -1       315 3.67190E+01
 -1       316 3.67190E+01
 -1       317 3.29340E+01
 -1       318 1.67699E+01
 -1       319 1.67699E+01
 -1       320 1.96953E+01
 -1       321 2.25595E+01
 -1       322 2.25595E+01
 -1       323 2.62493E+01
 -1       324 2.72032E+01
 -1       325 3.26172E+01
 -1       326 3.26172E+01
 -1       327 2.89028E+01
 -1       328 2.62095E+01
 -1       329 2.52359E+01
 -1       330 2.52359E+01
 -1       331 2.43414E+01
 -1       332 1.85917E+01
 -1       333 2.43225E+01
 -1       334 2.43225E+01
 -1       335 2.26307E+01
 -1       336 1.69320E+01
 -1       337 1.64558E+01
 -1       338 1.91007E+01
 -1       339 2.37627E+01
 -1       340 3.51698E+01
 -1       341 4.30205E+01
 -1       342 7.99537E+01
 -1       343 5.26938E+01
 -1       344 3.52035E+01
 -1       345 3.67190E+01
 -1       346 3.67190E+01
 -1       347 3.29340E+01
 -1       348 1.67699E+01
 -1       349 1.67699E+01
 -1       350 1.96953E+01
 -1       351 2.25595E+01
 -1       352 2.25595E+01
 -1       353 2.62493E+01
 -1       354 2.72032E+01
 -1       355 3.26172E+01
 -1       356 3.26172E+01
 -1       357 2.89028E+01
 -1       358 2.62095E+01
 -1       359 2.52359E+01
 -1       360 2.52359E+01
 -1       361 2.43414E+01
 -1       362 1.85917E+01
 -1       363 2.43225E+01
 -1       364 2.43225E+01
 -1       365 2.26307E+01
 -1       366 1.69320E+01
 -1       367 1.64558E+01
 -1       368 1.91007E+01
 -1       369 2.37627E+01
 -1       370 3.51698E+01
 -1       371 4.30205E+01
 -1       372 5.26938E+01
 -1       373 3.52035E+01
 -1       374 3.67190E+01
 -1       375 3.67190E+01
 -1       376 3.29340E+01
 -1       377 1.67699E+01
 -1       378 1.67699E+01
 -1       379 1.96953E+01
 -1       380 2.25595E+01
 -1       381 2.25595E+01
 -1       382 2.62493E+01
 -1       383 2.72032E+01
 -1       384 3.26172E+01
 -1       385 3.26172E+01
 -1       386 2.89028E+01
 -1       387 2.62095E+01
 -1       388 2.52359E+01
 -1       389 2.52359E+01
 -1       390 2.43414E+01
 -1       391 1.85917E+01
 -1       392 2.43225E+01
 -1       393 2.43225E+01
 -1       394 2.26307E+01
 -1       395 1.69320E+01
 -1       396 1.64558E+01
 -1       397 1.91007E+01
 -1       398 2.37627E+01
 -1       399 3.51698E+01
 -1       400 4.30205E+01
 -1       401 5.95798E+01
 -1       402 5.95798E+01
 -1       403 7.99537E+01
 -1       404 5.95798E+01
 -1       405 4.45649E+01
 -1       406 5.59312E+01
 -1       407 7.23089E+01
 -1       408 8.33492E+01
 -1       409 8.33492E+01
 -1       410 8.30449E+01
 -1       411 8.23645E+01
 -1       412 8.35687E+01
 -1       413 8.41022E+01
 -1       414 8.41022E+01
 -1       415 7.66640E+01
 -1       416 7.66491E+01
 -1       417 6.56723E+01
 -1       418 7.47834E+01
 -1       419 8.26656E+01
 -1       420 8.27296E+01
 -1       421 8.27296E+01
 -1       422 8.10393E+01
 -1       423 7.99394E+01
 -1       424 8.06036E+01
 -1       425 8.06036E+01
 -1       426 8.01200E+01
 -1       427 6.38960E+01
 -1       428 6.88193E+01
 -1       429 6.88193E+01
 -1       430 6.37578E+01
 -1       431 7.35228E+01
 -1       432 7.99537E+01
 -1       433 7.99537E+01
 -1       434 5.95798E+01
 -1       435 5.95798E+01
 -1       436 7.99537E+01
 -1       437 7.35228E+01
 -1       438 6.37578E+01
 -1       439 6.88193E+01
 -1       440 6.88193E+01
 -1       441 6.38960E+01
 -1       442 8.01200E+01
 -1       443 8.06036E+01
 -1       444 8.06036E+01
 -1       445 7.99394E+01
 -1       446 8.10393E+01
 -1       447 8.27296E+01
 -1       448 8.27296E+01
 -1       449 8.26656E+01
 -1       450 7.47834E+01
 -1       451 6.56723E+01
 -1       452 7.66491E+01
 -1       453 7.66640E+01
 -1       454 8.41022E+01
 -1       455 8.41022E+01
 -1       456 8.35687E+01
 -1       457 8.23645E+01
 -1       458 8.30449E+01
 -1       459 8.33492E+01
 -1       460 8.33492E+01
 -1       461 7.23089E+01
 -1       462 5.59312E+01
 -1       463 4.45649E+01
 -1       464 5.95798E+01
 -1       465 7.99537E+01
 -1       466 5.26938E+01
 -1       467 3.52035E+01
 -1       468 3.67190E+01
 -1       469 3.67190E+01
 -1       470 3.29340E+01
 -1       471 1.67699E+01
 -1       472 1.67699E+01
 -1       473 1.96953E+01
 -1       474 2.25595E+01
 -1       475 2.25595E+01
 -1       476 2.62493E+01
 -1       477 2.72032E+01
 -1       478 3.26172E+01
 -1       479 3.26172E+01
 -1       480 2.89028E+01
 -1       481 2.62095E+01
 -1       482 2.52359E+01
 -1       483 2.52359E+01
 -1       484 2.43414E+01
 -1       485 1.85917E+01
 -1       486 2.43225E+01
 -1       487 2.43225E+01
 -1       488 2.26307E+01
 -1       489 1.69320E+01
 -1       490 1.64558E+01
 -1       491 1.91007E+01
 -1       492 2.37627E+01
 -1       493 3.51698E+01
 -1       494 4.30205E+01
 -1       495 5.26938E+01
 -1       496 3.52035E+01
 -1       497 3.67190E+01
 -1       498 3.67190E+01
 -1       499 3.29340E+01
 -1       500 1.67699E+01
 -1       501 1.67699E+01
 -1       502 1.96953E+01
 -1       503 2.25595E+01
 -1       504 2.25595E+01
 -1       505 2.62493E+01
 -1       506 2.72032E+01
 -1       507 3.26172E+01
 -1       508 3.26172E+01
 -1       509 2.89028E+01
 -1       510 2.62095E+01
 -1       511 2.52359E+01
 -1       512 2.52359E+01
 -1       513 2.43414E+01
 -1       514 1.85917E+01
 -1       515 2.43225E+01
 -1       516 2.43225E+01
 -1       517 2.26307E+01
 -1       518 1.69320E+01
 -1       519 1.64558E+01
 -1       520 1.91007E+01
 -1       521 2.37627E+01
 -1       522 3.51698E+01
 -1       523 4.30205E+01
 -1       524 7.99537E+01
 -1       525 6.80965E+01
 -1       526 5.49244E+01
 -1       527 4.96256E+01
 -1       528 4.67529E+01
 -1       529 4.45604E+01
 -1       530 4.25635E+01
 -1       531 4.06282E+01
 -1       532 3.95806E+01
 -1       533 4.07781E+01
 -1       534 4.25985E+01
 -1       535 4.55994E+01
 -1       536 5.12049E+01
 -1       537 6.64037E+01
 -1       538 6.64037E+01
 -1       539 5.99931E+01
 -1       540 4.85792E+01
 -1       541 4.47610E+01
 -1       542 4.29050E+01
 -1       543 4.16724E+01
 -1       544 4.17042E+01
 -1       545 4.37827E+01
 -1       546 4.63145E+01
 -1       547 5.05561E+01
 -1       548 5.85310E+01
 -1       549 6.76508E+01
 -1       550 6.76508E+01
 -1       551 5.15249E+01
 -1       552 4.65940E+01
 -1       553 4.43094E+01
 -1       554 3.95285E+01
 -1       555 4.29906E+01
 -1       556 4.29906E+01
 -1       557 3.88089E+01
 -1       558 3.57272E+01
 -1       559 3.33162E+01
 -1       560 3.12506E+01
 -1       561 3.12126E+01
 -1       562 3.27526E+01
 -1       563 3.47990E+01
 -1       564 3.79898E+01
 -1       565 4.40655E+01
 -1       566 6.64037E+01
 -1       567 6.64037E+01
 -1       568 5.99931E+01
 -1       569 4.31591E+01
 -1       570 3.78889E+01
 -1       571 3.50389E+01
 -1       572 3.29534E+01
 -1       573 3.17662E+01
 -1       574 3.43022E+01
 -1       575 3.75591E+01
 -1       576 4.30483E+01
 -1       577 5.85310E+01
 -1       578 6.76508E+01
 -1       579 6.76508E+01
 -1       580 4.45276E+01
 -1       581 3.85660E+01
 -1       582 3.58445E+01
 -1       583 6.80965E+01
 -1       584 5.49244E+01
 -1       585 4.96256E+01
 -1       586 4.67529E+01
 -1       587 4.45604E+01
 -1       588 4.25635E+01
 -1       589 4.06282E+01
 -1       590 3.95806E+01
 -1       591 4.07781E+01
 -1       592 4.25985E+01
 -1       593 4.55994E+01
 -1       594 5.12049E+01
 -1       595 6.64037E+01
 -1       596 6.64037E+01
 -1       597 5.99931E+01
 -1       598 4.85792E+01
 -1       599 4.47610E+01
 -1       600 4.29050E+01
 -1       601 4.16724E+01
 -1       602 4.17042E+01
 -1       603 4.37827E+01
 -1       604 4.63145E+01
 -1       605 5.05561E+01
 -1       606 5.85310E+01
 -1       607 6.76508E+01
 -1       608 6.76508E+01
 -1       609 5.15249E+01
 -1       610 4.65940E+01
 -1       611 4.43094E+01
 -1       612 6.80965E+01
 -1       613 5.49244E+01
 -1       614 4.96256E+01
 -1       615 4.67529E+01
 -1       616 4.45604E+01
 -1       617 4.25635E+01
 -1       618 4.06282E+01
 -1       619 3.95806E+01
 -1       620 4.07781E+01
 -1       621 4.25985E+01
 -1       622 4.55994E+01
 -1       623 5.12049E+01
 -1       624 6.64037E+01
 -1       625 6.64037E+01
 -1       626 5.99931E+01
 -1       627 4.85792E+01
 -1       628 4.47610E+01
 -1       629 4.29050E+01
 -1       630 4.16724E+01
 -1       631 4.17042E+01
 -1       632 4.37827E+01
 -1       633 4.63145E+01
 -1       634 5.05561E+01
 -1       635 5.85310E+01
 -1       636 6.76508E+01
 -1       637 6.76508E+01
 -1       638 5.15249E+01
 -1       639 4.65940E+01
 -1       640 4.43094E+01
 -1       641 3.95285E+01
 -1       642 4.29906E+01
 -1       643 4.29906E+01
 -1       644 3.88089E+01
 -1       645 3.57272E+01
 -1       646 3.33162E+01
 -1       647 3.12506E+01
 -1       648 3.12126E+01
 -1       649 3.27526E+01
 -1       650 3.47990E+01
 -1       651 3.79898E+01
 -1       652 4.40655E+01
 -1       653 6.64037E+01
 -1       654 6.64037E+01
 -1       655 5.99931E+01
 -1       656 4.31591E+01
 -1       657 3.78889E+01
 -1       658 3.50389E+01
 -1       659 3.29534E+01
 -1       660 3.17662E+01
 -1       661 3.43022E+01
 -1       662 3.75591E+01
 -1       663 4.30483E+01
 -1       664 5.85310E+01
 -1       665 6.76508E+01
 -1       666 6.76508E+01
 -1       667 4.45276E+01
 -1       668 3.85660E+01
 -1       669 3.58445E+01
 -1       670 6.80965E+01
 -1       671 5.49244E+01
 -1       672 4.96256E+01
 -1       673 4.67529E+01
 -1       674 4.45604E+01
 -1       675 4.25635E+01
 -1       676 4.06282E+01
 -1       677 3.95806E+01
 -1       678 4.07781E+01
 -1       679 4.25985E+01
 -1       680 4.55994E+01
 -1       681 5.12049E+01
 -1       682 6.64037E+01
 -1       683 6.64037E+01
 -1       684 5.99931E+01
 -1       685 4.85792E+01
 -1       686 4.47610E+01
 -1       687 4.29050E+01
 -1       688 4.16724E+01
 -1       689 4.17042E+01
 -1       690 4.37827E+01
 -1       691 4.63145E+01
 -1       692 5.05561E+01
 -1       693 5.85310E+01
 -1       694 6.76508E+01
 -1       695 6.76508E+01
 -1       696 5.15249E+01
 -1       697 4.65940E+01
 -1       698 4.43094E+01
 -1       699 5.95798E+01
 -1       700 4.09008E+01
 -1       701 5.59312E+01
 -1       702 7.23089E+01
 -1       703 8.33492E+01
 -1       704 8.33492E+01
 -1       705 8.30449E+01
 -1       706 8.23645E+01
 -1       707 8.35687E+01
 -1       708 8.41022E+01
 -1       709 8.41022E+01
 -1       710 7.66640E+01
 -1       711 7.66491E+01
 -1       712 6.35318E+01
 -1       713 7.47834E+01
 -1       714 8.26656E+01
 -1       715 8.27296E+01
 -1       716 8.27296E+01
 -1       717 8.10393E+01
 -1       718 7.99394E+01
 -1       719 8.06036E+01
 -1       720 8.06036E+01
 -1       721 8.01200E+01
 -1       722 6.38960E+01
 -1       723 4.24743E+01
 -1       724 4.89887E+01
 -1       725 6.37578E+01
 -1       726 7.35228E+01
 -1       727 7.99537E+01
 -1       728 5.95798E+01
 -1       729 4.09008E+01
 -1       730 5.59312E+01
 -1       731 7.23089E+01
 -1       732 8.33492E+01
 -1       733 8.33492E+01
 -1       734 8.30449E+01
 -1       735 8.23645E+01
 -1       736 8.35687E+01
 -1       737 8.41022E+01
 -1       738 8.41022E+01
 -1       739 7.66640E+01
 -1       740 7.66491E+01
 -1       741 6.35318E+01
 -1       742 7.47834E+01
 -1       743 8.26656E+01
 -1       744 8.27296E+01
 -1       745 8.27296E+01
 -1       746 8.10393E+01
 -1       747 7.99394E+01
 -1       748 8.06036E+01
 -1       749 8.06036E+01
 -1       750 8.01200E+01
 -1       751 6.38960E+01
 -1       752 4.24743E+01
 -1       753 4.89887E+01
 -1       754 6.37578E+01
 -1       755 7.35228E+01
 -1       756 7.99537E+01
 -1       757 5.95798E+01
 -1       758 4.09008E+01
 -1       759 5.59312E+01
 -1       760 7.23089E+01
 -1       761 8.33492E+01
 -1       762 8.33492E+01
 -1       763 8.30449E+01
 -1       764 8.23645E+01
 -1       765 8.35687E+01
 -1       766 8.41022E+01
 -1       767 8.41022E+01
 -1       768 7.66640E+01
 -1       769 7.66491E+01
 -1       770 6.35318E+01
 -1       771 7.47834E+01
 -1       772 8.26656E+01
 -1       773 8.27296E+01
 -1       774 8.27296E+01
 -1       775 8.10393E+01
 -1       776 7.99394E+01
 -1       777 8.06036E+01
 -1       778 8.06036E+01
 -1       779 8.01200E+01
 -1       780 6.38960E+01
 -1       781 4.24743E+01
 -1       782 4.89887E+01
 -1       783 6.37578E+01
 -1       784 7.35228E+01
 -1       785 7.99537E+01
 -1       786 5.95798E+01
 -1       787 4.09008E+01
 -1       788 5.59312E+01
 -1       789 7.23089E+01
 -1       790 8.33492E+01
 -1       791 8.33492E+01
 -1       792 8.30449E+01
 -1       793 8.23645E+01
 -1       794 8.35687E+01
 -1       795 8.41022E+01
 -1       796 8.41022E+01
 -1       797 7.66640E+01
 -1       798 7.66491E+01
 -1       799 6.35318E+01
 -1       800 7.47834E+01
 -1       801 8.26656E+01
 -1       802 8.27296E+01
 -1       803 8.27296E+01
 -1       804 8.10393E+01
 -1       805 7.99394E+01
 -1       806 8.06036E+01
 -1       807 8.06036E+01
 -1       808 8.01200E+01
 -1       809 6.38960E+01
 -1       810 4.24743E+01
 -1       811 4.89887E+01
 -1       812 6.37578E+01
 -1       813 7.35228E+01
 -1       814 7.99537E+01
 -1       815 5.95798E+01
 -1       816 4.09008E+01
 -1       817 5.59312E+01
 -1       818 7.23089E+01
 -1       819 8.33492E+01
 -1       820 8.33492E+01
 -1       821 8.30449E+01
 -1       822 8.23645E+01
 -1       823 8.35687E+01
 -1       824 8.41022E+01
 -1       825 8.41022E+01
 -1       826 7.66640E+01
 -1       827 7.66491E+01
 -1       828 6.35318E+01
 -1       829 7.47834E+01
 -1       830 8.26656E+01
 -1       831 8.27296E+01
 -1       832 8.27296E+01
 -1       833 8.10393E+01
 -1       834 7.99394E+01
 -1       835 8.06036E+01
 -1       836 8.06036E+01
 -1       837 8.01200E+01
 -1       838 6.38960E+01
 -1       839 4.24743E+01
 -1       840 4.89887E+01
 -1       841 6.37578E+01
 -1       842 7.35228E+01
 -1       843 7.99537E+01
 -1       844 5.95798E+01
 -1       845 4.09008E+01
 -1       846 5.59312E+01
 -1       847 7.23089E+01
 -1       848 8.33492E+01
 -1       849 8.33492E+01
 -1       850 8.30449E+01
 -1       851 8.23645E+01
 -1       852 8.35687E+01
 -1       853 8.41022E+01
 -1       854 8.41022E+01
 -1       855 7.66640E+01
 -1       856 7.66491E+01
 -1       857 6.35318E+01
 -1       858 7.47834E+01
 -1       859 8.26656E+01
 -1       860 8.27296E+01
 -1       861 8.27296E+01
 -1       862 8.10393E+01
 -1       863 7.99394E+01
 -1       864 8.06036E+01
 -1       865 8.06036E+01
 -1       866 8.01200E+01
 -1       867 6.38960E+01
 -1       868 4.24743E+01
 -1       869 4.89887E+01
 -1       870 6.37578E+01
 -1       871 7.35228E+01
 -1       872 7.99537E+01
 -1       873 7.99537E+01
 -1       874 7.35228E+01
 -1       875 6.37578E+01
 -1       876 4.89887E+01
 -1       877 4.24743E+01
 -1       878 6.38960E+01
 -1       879 8.01200E+01
 -1       880 8.06036E+01
 -1       881 8.06036E+01
 -1       882 7.99394E+01
 -1       883 8.10393E+01
 -1       884 8.27296E+01
 -1       885 8.27296E+01
 -1       886 8.26656E+01
 -1       887 7.47834E+01
 -1       888 6.35318E+01
 -1       889 7.66491E+01
 -1       890 7.66640E+01
 -1       891 8.41022E+01
 -1       892 8.41022E+01
 -1       893 8.35687E+01
 -1       894 8.23645E+01
 -1       895 8.30449E+01
 -1       896 8.33492E+01
 -1       897 8.33492E+01
 -1       898 7.23089E+01
 -1       899 5.59312E+01
 -1       900 4.09008E+01
 -1       901 5.95798E+01
 -1       902 5.95798E+01
 -1       903 4.09008E+01
 -1       904 5.59312E+01
 -1       905 7.23089E+01
 -1       906 8.33492E+01
 -1       907 8.33492E+01
 -1       908 8.30449E+01
 -1       909 8.23645E+01
 -1       910 8.35687E+01
 -1       911 8.41022E+01
 -1       912 8.41022E+01
 -1       913 7.66640E+01
 -1       914 7.66491E+01
 -1       915 6.35318E+01
 -1       916 7.47834E+01
 -1       917 8.26656E+01
 -1       918 8.27296E+01
 -1       919 8.27296E+01
 -1       920 8.10393E+01
 -1       921 7.99394E+01
 -1       922 8.06036E+01
 -1       923 8.06036E+01
 -1       924 8.01200E+01
 -1       925 6.38960E+01
 -1       926 4.24743E+01
 -1       927 4.89887E+01
 -1       928 6.37578E+01
 -1       929 7.35228E+01
 -1       930 7.99537E+01
 -3
    1PSTEP                        65           1           1          
    1PGM                1.000000E+00                                  
    1PGK                2.743591E+07                                  
    1PHID                         -1                                  
    1PSUBC                         0                                  
    1PMODE                        17                                  
  100CL  117 833.6424446         930                     2   17MODAL      1
 -4  DISP        4    1
 -5  D1          1    2    1    0
 -5  D2          1    2    2    0
 -5  D3          1    2    3    0
 -5  ALL         1    2    0    0    1ALL
 -1         1 0.00000E+00 0.00000E+00 0.00000E+00
 -1         2 0.00000E+00 0.00000E+00 0.00000E+00
 -1         3-2.98532E-03-1.49471E-01 3.40300E-03
 -1         4 2.98532E-03-1.49471E-01-3.40300E-03
 -1         5 0.00000E+00 0.00000E+00 0.00000E+00
 -1         6 0.00000E+00 0.00000E+00 0.00000E+00
 -1         7 2.98532E-03 1.49471E-01 3.40300E-03
 -1         8-2.98532E-03 1.49471E-01-3.40300E-03
 -1         9 0.00000E+00 0.00000E+00 0.00000E+00
 -1        10-2.85600E-03-1.60678E-01 3.47853E-03
 -1        11 0.00000E+00 0.00000E+00 0.00000E+00
 -1        12 0.00000E+00 0.00000E+00 0.00000E+00
 -1        13-6.08917E-02-1.60977E-01 7.62130E-02
 -1        14-6.51917E-02-1.49568E-01 7.62262E-02
 -1        15 0.00000E+00 0.00000E+00 0.00000E+00
 -1        16 2.85600E-03 1.60678E-01 3.47853E-03
 -1        17 0.00000E+00 0.00000E+00 0.00000E+00
 -1        18 0.00000E+00 0.00000E+00 0.00000E+00
 -1        19 6.51917E-02 1.49568E-01 7.62262E-02
 -1        20 6.08917E-02 1.60977E-01 7.62130E-02
 -1        21 0.00000E+00 0.00000E+00 0.00000E+00
 -1        22 0.00000E+00 0.00000E+00 0.00000E+00
 -1        23 6.08917E-02-1.60977E-01-7.62130E-02
 -1        24 6.51917E-02-1.49568E-01-7.62262E-02
 -1        25 0.00000E+00 0.00000E+00 0.00000E+00
 -1        26 2.85600E-03-1.60678E-01-3.47853E-03
 -1        27 0.00000E+00 0.00000E+00 0.00000E+00
 -1        28 0.00000E+00 0.00000E+00 0.00000E+00
 -1        29 0.00000E+00 0.00000E+00 0.00000E+00
 -1        30-2.85600E-03 1.60678E-01-3.47853E-03
 -1        31-6.08917E-02 1.60977E-01-7.62130E-02
 -1        32-6.51917E-02 1.49568E-01-7.62262E-02
 -1        33 1.21903E-03-1.99748E-02-5.30623E-04
 -1        34 1.49900E-03-5.52952E-02-1.37450E-03
 -1        35 1.26807E-03-9.07481E-02-2.25510E-03
 -1        36 5.87372E-04-1.14381E-01-2.84803E-03
 -1        37-3.15736E-04-1.18373E-01-2.94455E-03
 -1        38-1.21885E-03-1.00061E-01-2.48559E-03
 -1        39-1.90109E-03-6.22394E-02-1.54646E-03
 -1        40-2.20075E-03-1.23249E-02-3.11582E-04
 -1        41-2.04329E-03 3.93915E-02 9.65729E-04
 -1        42-1.45642E-03 8.20595E-02 2.01872E-03
 -1        43-5.62649E-04 1.06671E-01 2.62604E-03
 -1        44 4.47903E-04 1.08043E-01 2.66037E-03
 -1        45 1.35905E-03 8.59565E-02 2.11660E-03
 -1        46 1.97550E-03 4.52213E-02 1.11331E-03
 -1        47 2.16520E-03-5.35308E-03-1.32444E-04
 -1        48 1.88797E-03-5.48526E-02-1.35179E-03
 -1        49 1.20433E-03-9.26105E-02-2.28198E-03
 -1        50 2.62580E-04-1.10509E-01-2.72305E-03
 -1        51-7.33030E-04-1.04734E-01-2.58117E-03
 -1        52-1.56609E-03-7.66080E-02-1.88914E-03
 -1        53-2.05440E-03-3.23168E-02-7.99909E-04
 -1        54-2.08872E-03 1.83993E-02 4.45641E-04
 -1        55-1.65553E-03 6.43096E-02 1.56953E-03
 -1        56-8.38675E-04 9.50541E-02 2.31546E-03
 -1        57 2.00762E-04 1.03281E-01 2.50324E-03
 -1        58 1.26246E-03 8.60773E-02 2.06773E-03
 -1        59 2.15312E-03 4.53627E-02 1.07119E-03
 -1        60 2.74230E-03-1.28946E-02-3.18490E-04
 -1        61 2.97017E-03-8.04725E-02-1.88508E-03
 -1        62-1.21903E-03-1.99748E-02 5.30623E-04
 -1        63-1.49900E-03-5.52952E-02 1.37450E-03
 -1        64-1.26807E-03-9.07481E-02 2.25510E-03
 -1        65-5.87372E-04-1.14381E-01 2.84803E-03
 -1        66 3.15736E-04-1.18373E-01 2.94455E-03
 -1        67 1.21885E-03-1.00061E-01 2.48559E-03
 -1        68 1.90109E-03-6.22394E-02 1.54646E-03
 -1        69 2.20075E-03-1.23249E-02 3.11582E-04
 -1        70 2.04329E-03 3.93915E-02-9.65729E-04
 -1        71 1.45642E-03 8.20595E-02-2.01872E-03
 -1        72 5.62649E-04 1.06671E-01-2.62604E-03
 -1        73-4.47903E-04 1.08043E-01-2.66037E-03
 -1        74-1.35905E-03 8.59565E-02-2.11660E-03
 -1        75-1.97550E-03 4.52213E-02-1.11331E-03
 -1        76-2.16520E-03-5.35308E-03 1.32444E-04
 -1        77-1.88797E-03-5.48526E-02 1.35179E-03
 -1        78-1.20433E-03-9.26105E-02 2.28198E-03
 -1        79-2.62580E-04-1.10509E-01 2.72305E-03
 -1        80 7.33030E-04-1.04734E-01 2.58117E-03
 -1        81 1.56609E-03-7.66080E-02 1.88914E-03
 -1        82 2.05440E-03-3.23168E-02 7.99909E-04
 -1        83 2.08872E-03 1.83993E-02-4.45641E-04
 -1        84 1.65553E-03 6.43096E-02-1.56953E-03
 -1        85 8.38675E-04 9.50541E-02-2.31546E-03
 -1        86-2.00762E-04 1.03281E-01-2.50324E-03
 -1        87-1.26246E-03 8.60773E-02-2.06773E-03
 -1        88-2.15312E-03 4.53627E-02-1.07119E-03
 -1        89-2.74230E-03-1.28946E-02 3.18490E-04
 -1        90-2.97017E-03-8.04725E-02 1.88508E-03
 -1        91 0.00000E+00 0.00000E+00 0.00000E+00
 -1        92 0.00000E+00 0.00000E+00 0.00000E+00
 -1        93 0.00000E+00 0.00000E+00 0.00000E+00
 -1        94 0.00000E+00 0.00000E+00 0.00000E+00
 -1        95 0.00000E+00 0.00000E+00 0.00000E+00
 -1        96 0.00000E+00 0.00000E+00 0.00000E+00
 -1        97 1.21903E-03 1.99748E-02 5.30623E-04
 -1        98 1.49900E-03 5.52952E-02 1.37450E-03
 -1        99 1.26807E-03 9.07481E-02 2.25510E-03
 -1       100 5.87372E-04 1.14381E-01 2.84803E-03
 -1       101-3.15736E-04 1.18373E-01 2.94455E-03
 -1       102-1.21885E-03 1.00061E-01 2.48559E-03
 -1       103-1.90109E-03 6.22394E-02 1.54646E-03
 -1       104-2.20075E-03 1.23249E-02 3.11582E-04
 -1       105-2.04329E-03-3.93915E-02-9.65729E-04
 -1       106-1.45642E-03-8.20595E-02-2.01872E-03
 -1       107-5.62649E-04-1.06671E-01-2.62604E-03
 -1       108 4.47903E-04-1.08043E-01-2.66037E-03
 -1       109 1.35905E-03-8.59565E-02-2.11660E-03
 -1       110 1.97550E-03-4.52213E-02-1.11331E-03
 -1       111 2.16520E-03 5.35308E-03 1.32444E-04
 -1       112 1.88797E-03 5.48526E-02 1.35179E-03
 -1       113 1.20433E-03 9.26105E-02 2.28198E-03
 -1       114 2.62580E-04 1.10509E-01 2.72305E-03
 -1       115-7.33030E-04 1.04734E-01 2.58117E-03
 -1       116-1.56609E-03 7.66080E-02 1.88914E-03
 -1       117-2.05440E-03 3.23168E-02 7.99909E-04
 -1       118-2.08872E-03-1.83993E-02-4.45641E-04
 -1       119-1.65553E-03-6.43096E-02-1.56953E-03
 -1       120-8.38675E-04-9.50541E-02-2.31546E-03
 -1       121 2.00762E-04-1.03281E-01-2.50324E-03
 -1       122 1.26246E-03-8.60773E-02-2.06773E-03
 -1       123 2.15312E-03-4.53627E-02-1.07119E-03
 -1       124 2.74230E-03 1.28946E-02 3.18490E-04
 -1       125 2.97017E-03 8.04725E-02 1.88508E-03
 -1       126-1.55072E-03-7.64983E-02 3.41614E-03
 -1       127 7.75768E-15-6.18213E-13 3.57156E-03
 -1       128 1.55072E-03 7.64983E-02 3.41614E-03
 -1       129-1.21903E-03 1.99748E-02-5.30623E-04
 -1       130-1.49900E-03 5.52952E-02-1.37450E-03
 -1       131-1.26807E-03 9.07481E-02-2.25510E-03
 -1       132-5.87372E-04 1.14381E-01-2.84803E-03
 -1       133 3.15736E-04 1.18373E-01-2.94455E-03
 -1       134 1.21885E-03 1.00061E-01-2.48559E-03
 -1       135 1.90109E-03 6.22394E-02-1.54646E-03
 -1       136 2.20075E-03 1.23249E-02-3.11582E-04
 -1       137 2.04329E-03-3.93915E-02 9.65729E-04
 -1       138 1.45642E-03-8.20595E-02 2.01872E-03
 -1       139 5.62649E-04-1.06671E-01 2.62604E-03
 -1       140-4.47903E-04-1.08043E-01 2.66037E-03
 -1       141-1.35905E-03-8.59565E-02 2.11660E-03
 -1       142-1.97550E-03-4.52213E-02 1.11331E-03
 -1       143-2.16520E-03 5.35308E-03-1.32444E-04
 -1       144-1.88797E-03 5.48526E-02-1.35179E-03
 -1       145-1.20433E-03 9.26105E-02-2.28198E-03
 -1       146-2.62580E-04 1.10509E-01-2.72305E-03
 -1       147 7.33030E-04 1.04734E-01-2.58117E-03
 -1       148 1.56609E-03 7.66080E-02-1.88914E-03
 -1       149 2.05440E-03 3.23168E-02-7.99909E-04
 -1       150 2.08872E-03-1.83993E-02 4.45641E-04
 -1       151 1.65553E-03-6.43096E-02 1.56953E-03
 -1       152 8.38675E-04-9.50541E-02 2.31546E-03
 -1       153-2.00762E-04-1.03281E-01 2.50324E-03
 -1       154-1.26246E-03-8.60773E-02 2.06773E-03
 -1       155-2.15312E-03-4.53627E-02 1.07119E-03
 -1       156-2.74230E-03 1.28946E-02-3.18490E-04
 -1       157-2.97017E-03 8.04725E-02-1.88508E-03
 -1       158-1.55072E-03 7.64983E-02-3.41614E-03
 -1       159 1.64348E-14-6.17961E-13-3.57156E-03
 -1       160 1.55072E-03-7.64983E-02-3.41614E-03
 -1       161-7.35059E-04-2.16573E-02 5.07854E-04
 -1       162-1.14020E-03-6.01141E-02 1.45051E-03
 -1       163-9.81979E-04-9.87336E-02 2.36531E-03
 -1       164-4.37663E-04-1.24433E-01 2.98894E-03
 -1       165 3.10220E-04-1.28745E-01 3.08659E-03
 -1       166 1.06643E-03-1.08807E-01 2.60457E-03
 -1       167 1.63953E-03-6.76830E-02 1.62071E-03
 -1       168 1.88935E-03-1.34374E-02 3.28445E-04
 -1       169 1.75111E-03 4.27526E-02-1.00750E-03
 -1       170 1.24767E-03 8.91062E-02-2.10852E-03
 -1       171 4.83109E-04 1.15844E-01-2.74352E-03
 -1       172-3.80593E-04 1.17337E-01-2.77961E-03
 -1       173-1.15911E-03 9.33509E-02-2.21149E-03
 -1       174-1.68587E-03 4.91101E-02-1.16314E-03
 -1       175-1.84826E-03-5.81768E-03 1.38610E-04
 -1       176-1.61206E-03-5.95785E-02 1.41280E-03
 -1       177-1.02904E-03-1.00587E-01 2.38484E-03
 -1       178-2.25865E-04-1.20028E-01 2.84582E-03
 -1       179 6.22948E-04-1.13758E-01 2.69771E-03
 -1       180 1.33248E-03-8.32164E-02 1.97486E-03
 -1       181 1.74689E-03-3.51240E-02 8.37288E-04
 -1       182 1.77247E-03 1.99341E-02-4.62960E-04
 -1       183 1.39691E-03 6.97520E-02-1.63498E-03
 -1       184 6.90558E-04 1.03071E-01-2.41060E-03
 -1       185-2.11138E-04 1.11913E-01-2.60181E-03
 -1       186-1.14013E-03 9.31510E-02-2.14231E-03
 -1       187-1.93694E-03 4.89563E-02-1.10153E-03
 -1       188-2.49272E-03-1.40252E-02 3.35843E-04
 -1       189-2.78125E-03-8.67580E-02 1.92977E-03
 -1       190 0.00000E+00 0.00000E+00 0.00000E+00
 -1       191 0.00000E+00 0.00000E+00 0.00000E+00
 -1       192-3.15671E-02-1.60878E-01 3.97991E-02
 -1       193-1.78726E-02-2.39315E-02 1.05352E-02
 -1       194-2.53633E-02-6.05530E-02 3.35501E-02
 -1       195-2.17329E-02-9.79400E-02 5.60247E-02
 -1       196-9.84974E-03-1.22841E-01 7.06210E-02
 -1       197 6.53045E-03-1.26840E-01 7.28429E-02
 -1       198 2.30039E-02-1.07111E-01 6.14237E-02
 -1       199 3.54883E-02-6.66347E-02 3.82338E-02
 -1       200 4.09405E-02-1.33114E-02 7.83014E-03
 -1       201 3.79614E-02 4.18972E-02-2.35674E-02
 -1       202 2.70504E-02 8.74329E-02-4.94300E-02
 -1       203 1.04685E-02 1.13700E-01-6.43444E-02
 -1       204-8.26768E-03 1.15177E-01-6.51993E-02
 -1       205-2.51572E-02 9.16342E-02-5.18743E-02
 -1       206-3.65848E-02 4.82031E-02-2.72800E-02
 -1       207-4.01061E-02-5.72245E-03 3.26089E-03
 -1       208-3.49786E-02-5.85044E-02 3.31561E-02
 -1       209-2.23244E-02-9.87690E-02 5.59636E-02
 -1       210-4.89237E-03-1.17861E-01 6.67817E-02
 -1       211 1.35319E-02-1.11716E-01 6.33118E-02
 -1       212 2.89368E-02-8.17475E-02 4.63645E-02
 -1       213 3.79426E-02-3.45581E-02 1.97025E-02
 -1       214 3.85183E-02 1.94542E-02-1.07447E-02
 -1       215 3.04011E-02 6.82970E-02-3.81306E-02
 -1       216 1.51224E-02 1.00904E-01-5.61485E-02
 -1       217-4.37007E-03 1.09425E-01-6.04042E-02
 -1       218-2.44202E-02 9.07661E-02-4.94280E-02
 -1       219-4.15616E-02 4.70361E-02-2.51068E-02
 -1       220-5.33952E-02-1.52916E-02 7.72619E-03
 -1       221-5.92878E-02-8.73515E-02 4.29122E-02
 -1       222-2.04213E-02-2.23126E-02 1.14297E-02
 -1       223-2.85409E-02-5.54038E-02 3.35231E-02
 -1       224-2.42933E-02-8.93253E-02 5.56523E-02
 -1       225-1.10138E-02-1.12000E-01 6.99254E-02
 -1       226 7.13903E-03-1.15666E-01 7.20510E-02
 -1       227 2.53428E-02-9.76919E-02 6.07271E-02
 -1       228 3.91195E-02-6.07715E-02 3.78026E-02
 -1       229 4.51316E-02-1.21066E-02 7.76876E-03
 -1       230 4.18461E-02 3.82928E-02-2.32381E-02
 -1       231 2.98170E-02 7.98678E-02-4.87762E-02
 -1       232 1.15377E-02 1.03851E-01-6.35039E-02
 -1       233-9.11579E-03 1.05196E-01-6.43512E-02
 -1       234-2.77333E-02 8.36935E-02-5.12002E-02
 -1       235-4.03300E-02 4.40273E-02-2.69243E-02
 -1       236-4.42111E-02-5.22276E-03 3.22239E-03
 -1       237-3.85580E-02-5.34280E-02 3.27324E-02
 -1       238-2.46078E-02-9.02010E-02 5.52467E-02
 -1       239-5.39043E-03-1.07637E-01 6.59272E-02
 -1       240 1.49206E-02-1.02023E-01 6.25055E-02
 -1       241 3.19020E-02-7.46477E-02 4.57822E-02
 -1       242 4.18267E-02-3.15387E-02 1.94729E-02
 -1       243 4.24542E-02 1.78150E-02-1.05673E-02
 -1       244 3.34956E-02 6.24701E-02-3.75770E-02
 -1       245 1.66480E-02 9.23266E-02-5.53266E-02
 -1       246-4.81368E-03 1.00206E-01-5.94733E-02
 -1       247-2.68073E-02 8.32401E-02-4.85609E-02
 -1       248-4.54302E-02 4.32392E-02-2.44459E-02
 -1       249-5.79795E-02-1.40820E-02 8.10427E-03
 -1       250-6.37988E-02-8.07775E-02 4.30384E-02
 -1       251-3.39610E-02-1.49424E-01 3.98358E-02
 -1       252 2.78125E-03 8.67580E-02 1.92977E-03
 -1       253 2.49272E-03 1.40252E-02 3.35843E-04
 -1       254 1.93694E-03-4.89563E-02-1.10153E-03
 -1       255 1.14013E-03-9.31510E-02-2.14231E-03
 -1       256 2.11138E-04-1.11913E-01-2.60181E-03
 -1       257-6.90558E-04-1.03071E-01-2.41060E-03
 -1       258-1.39691E-03-6.97520E-02-1.63498E-03
 -1       259-1.77247E-03-1.99341E-02-4.62960E-04
 -1       260-1.74689E-03 3.51240E-02 8.37288E-04
 -1       261-1.33248E-03 8.32164E-02 1.97486E-03
 -1       262-6.22948E-04 1.13758E-01 2.69771E-03
 -1       263 2.25865E-04 1.20028E-01 2.84582E-03
 -1       264 1.02904E-03 1.00587E-01 2.38484E-03
 -1       265 1.61206E-03 5.95785E-02 1.41280E-03
 -1       266 1.84826E-03 5.81768E-03 1.38610E-04
 -1       267 1.68587E-03-4.91101E-02-1.16314E-03
 -1       268 1.15911E-03-9.33509E-02-2.21149E-03
 -1       269 3.80593E-04-1.17337E-01-2.77961E-03
 -1       270-4.83109E-04-1.15844E-01-2.74352E-03
 -1       271-1.24767E-03-8.91062E-02-2.10852E-03
 -1       272-1.75111E-03-4.27526E-02-1.00750E-03
 -1       273-1.88935E-03 1.34374E-02 3.28445E-04
 -1       274-1.63953E-03 6.76830E-02 1.62071E-03
 -1       275-1.06643E-03 1.08807E-01 2.60457E-03
 -1       276-3.10220E-04 1.28745E-01 3.08659E-03
 -1       277 4.37663E-04 1.24433E-01 2.98894E-03
 -1       278 9.81979E-04 9.87336E-02 2.36531E-03
 -1       279 1.14020E-03 6.01141E-02 1.45051E-03
 -1       280 7.35059E-04 2.16573E-02 5.07854E-04
 -1       281 0.00000E+00 0.00000E+00 0.00000E+00
 -1       282 0.00000E+00 0.00000E+00 0.00000E+00
 -1       283 2.04213E-02 2.23126E-02 1.14297E-02
 -1       284 2.85409E-02 5.54038E-02 3.35231E-02
 -1       285 2.42933E-02 8.93253E-02 5.56523E-02
 -1       286 1.10138E-02 1.12000E-01 6.99254E-02
 -1       287-7.13903E-03 1.15666E-01 7.20510E-02
 -1       288-2.53428E-02 9.76919E-02 6.07271E-02
 -1       289-3.91195E-02 6.07715E-02 3.78026E-02
 -1       290-4.51316E-02 1.21066E-02 7.76876E-03
 -1       291-4.18461E-02-3.82928E-02-2.32381E-02
 -1       292-2.98170E-02-7.98678E-02-4.87762E-02
 -1       293-1.15377E-02-1.03851E-01-6.35039E-02
 -1       294 9.11579E-03-1.05196E-01-6.43512E-02
 -1       295 2.77333E-02-8.36935E-02-5.12002E-02
 -1       296 4.03300E-02-4.40273E-02-2.69243E-02
 -1       297 4.42111E-02 5.22276E-03 3.22239E-03
 -1       298 3.85580E-02 5.34280E-02 3.27324E-02
 -1       299 2.46078E-02 9.02010E-02 5.52467E-02
 -1       300 5.39043E-03 1.07637E-01 6.59272E-02
 -1       301-1.49206E-02 1.02023E-01 6.25055E-02
 -1       302-3.19020E-02 7.46477E-02 4.57822E-02
 -1       303-4.18267E-02 3.15387E-02 1.94729E-02
 -1       304-4.24542E-02-1.78150E-02-1.05673E-02
 -1       305-3.34956E-02-6.24701E-02-3.75770E-02
 -1       306-1.66480E-02-9.23266E-02-5.53266E-02
 -1       307 4.81368E-03-1.00206E-01-5.94733E-02
 -1       308 2.68073E-02-8.32401E-02-4.85609E-02
 -1       309 4.54302E-02-4.32392E-02-2.44459E-02
 -1       310 5.79795E-02 1.40820E-02 8.10427E-03
 -1       311 6.37988E-02 8.07775E-02 4.30384E-02
 -1       312 3.39610E-02 1.49424E-01 3.98358E-02
 -1       313 1.78726E-02 2.39315E-02 1.05352E-02
 -1       314 2.53633E-02 6.05530E-02 3.35501E-02
 -1       315 2.17329E-02 9.79400E-02 5.60247E-02
 -1       316 9.84974E-03 1.22841E-01 7.06210E-02
 -1       317-6.53045E-03 1.26840E-01 7.28429E-02
 -1       318-2.30039E-02 1.07111E-01 6.14237E-02
 -1       319-3.54883E-02 6.66347E-02 3.82338E-02
 -1       320-4.09405E-02 1.33114E-02 7.83014E-03
 -1       321-3.79614E-02-4.18972E-02-2.35674E-02
 -1       322-2.70504E-02-8.74329E-02-4.94300E-02
 -1       323-1.04685E-02-1.13700E-01-6.43444E-02
 -1       324 8.26768E-03-1.15177E-01-6.51993E-02
 -1       325 2.51572E-02-9.16342E-02-5.18743E-02
 -1       326 3.65848E-02-4.82031E-02-2.72800E-02
 -1       327 4.01061E-02 5.72245E-03 3.26089E-03
 -1       328 3.49786E-02 5.85044E-02 3.31561E-02
 -1       329 2.23244E-02 9.87690E-02 5.59636E-02
 -1       330 4.89237E-03 1.17861E-01 6.67817E-02
 -1       331-1.35319E-02 1.11716E-01 6.33118E-02
 -1       332-2.89368E-02 8.17475E-02 4.63645E-02
 -1       333-3.79426E-02 3.45581E-02 1.97025E-02
 -1       334-3.85183E-02-1.94542E-02-1.07447E-02
 -1       335-3.04011E-02-6.82970E-02-3.81306E-02
 -1       336-1.51224E-02-1.00904E-01-5.61485E-02
 -1       337 4.37007E-03-1.09425E-01-6.04042E-02
 -1       338 2.44202E-02-9.07661E-02-4.94280E-02
 -1       339 4.15616E-02-4.70361E-02-2.51068E-02
 -1       340 5.33952E-02 1.52916E-02 7.72619E-03
 -1       341 5.92878E-02 8.73515E-02 4.29122E-02
 -1       342 3.15671E-02 1.60878E-01 3.97991E-02
 -1       343 1.78726E-02-2.39315E-02-1.05352E-02
 -1       344 2.53633E-02-6.05530E-02-3.35501E-02
 -1       345 2.17329E-02-9.79400E-02-5.60247E-02
 -1       346 9.84974E-03-1.22841E-01-7.06210E-02
 -1       347-6.53045E-03-1.26840E-01-7.28429E-02
 -1       348-2.30039E-02-1.07111E-01-6.14237E-02
 -1       349-3.54883E-02-6.66347E-02-3.82338E-02
 -1       350-4.09405E-02-1.33114E-02-7.83014E-03
 -1       351-3.79614E-02 4.18972E-02 2.35674E-02
 -1       352-2.70504E-02 8.74329E-02 4.94300E-02
 -1       353-1.04685E-02 1.13700E-01 6.43444E-02
 -1       354 8.26768E-03 1.15177E-01 6.51993E-02
 -1       355 2.51572E-02 9.16342E-02 5.18743E-02
 -1       356 3.65848E-02 4.82031E-02 2.72800E-02
 -1       357 4.01061E-02-5.72245E-03-3.26089E-03
 -1       358 3.49786E-02-5.85044E-02-3.31561E-02
 -1       359 2.23244E-02-9.87690E-02-5.59636E-02
 -1       360 4.89237E-03-1.17861E-01-6.67817E-02
 -1       361-1.35319E-02-1.11716E-01-6.33118E-02
 -1       362-2.89368E-02-8.17475E-02-4.63645E-02
 -1       363-3.79426E-02-3.45581E-02-1.97025E-02
 -1       364-3.85183E-02 1.94542E-02 1.07447E-02
 -1       365-3.04011E-02 6.82970E-02 3.81306E-02
 -1       366-1.51224E-02 1.00904E-01 5.61485E-02
 -1       367 4.37007E-03 1.09425E-01 6.04042E-02
 -1       368 2.44202E-02 9.07661E-02 4.94280E-02
 -1       369 4.15616E-02 4.70361E-02 2.51068E-02
 -1       370 5.33952E-02-1.52916E-02-7.72619E-03
 -1       371 5.92878E-02-8.73515E-02-4.29122E-02
 -1       372 2.04213E-02-2.23126E-02-1.14297E-02
 -1       373 2.85409E-02-5.54038E-02-3.35231E-02
 -1       374 2.42933E-02-8.93253E-02-5.56523E-02
 -1       375 1.10138E-02-1.12000E-01-6.99254E-02
 -1       376-7.13903E-03-1.15666E-01-7.20510E-02
 -1       377-2.53428E-02-9.76919E-02-6.07271E-02
 -1       378-3.91195E-02-6.07715E-02-3.78026E-02
 -1       379-4.51316E-02-1.21066E-02-7.76876E-03
 -1       380-4.18461E-02 3.82928E-02 2.32381E-02
 -1       381-2.98170E-02 7.98678E-02 4.87762E-02
 -1       382-1.15377E-02 1.03851E-01 6.35039E-02
 -1       383 9.11579E-03 1.05196E-01 6.43512E-02
 -1       384 2.77333E-02 8.36935E-02 5.12002E-02
 -1       385 4.03300E-02 4.40273E-02 2.69243E-02
 -1       386 4.42111E-02-5.22276E-03-3.22239E-03
 -1       387 3.85580E-02-5.34280E-02-3.27324E-02
 -1       388 2.46078E-02-9.02010E-02-5.52467E-02
 -1       389 5.39043E-03-1.07637E-01-6.59272E-02
 -1       390-1.49206E-02-1.02023E-01-6.25055E-02
 -1       391-3.19020E-02-7.46477E-02-4.57822E-02
 -1       392-4.18267E-02-3.15387E-02-1.94729E-02
 -1       393-4.24542E-02 1.78150E-02 1.05673E-02
 -1       394-3.34956E-02 6.24701E-02 3.75770E-02
 -1       395-1.66480E-02 9.23266E-02 5.53266E-02
 -1       396 4.81368E-03 1.00206E-01 5.94733E-02
 -1       397 2.68073E-02 8.32401E-02 4.85609E-02
 -1       398 4.54302E-02 4.32392E-02 2.44459E-02
 -1       399 5.79795E-02-1.40820E-02-8.10427E-03
 -1       400 6.37988E-02-8.07775E-02-4.30384E-02
 -1       401 0.00000E+00 0.00000E+00 0.00000E+00
 -1       402 0.00000E+00 0.00000E+00 0.00000E+00
 -1       403 3.15671E-02-1.60878E-01-3.97991E-02
 -1       404 7.35059E-04-2.16573E-02-5.07854E-04
 -1       405 1.14020E-03-6.01141E-02-1.45051E-03
 -1       406 9.81979E-04-9.87336E-02-2.36531E-03
 -1       407 4.37663E-04-1.24433E-01-2.98894E-03
 -1       408-3.10220E-04-1.28745E-01-3.08659E-03
 -1       409-1.06643E-03-1.08807E-01-2.60457E-03
 -1       410-1.63953E-03-6.76830E-02-1.62071E-03
 -1       411-1.88935E-03-1.34374E-02-3.28445E-04
 -1       412-1.75111E-03 4.27526E-02 1.00750E-03
 -1       413-1.24767E-03 8.91062E-02 2.10852E-03
 -1       414-4.83109E-04 1.15844E-01 2.74352E-03
 -1       415 3.80593E-04 1.17337E-01 2.77961E-03
 -1       416 1.15911E-03 9.33509E-02 2.21149E-03
 -1       417 1.68587E-03 4.91101E-02 1.16314E-03
 -1       418 1.84826E-03-5.81768E-03-1.38610E-04
 -1       419 1.61206E-03-5.95785E-02-1.41280E-03
 -1       420 1.02904E-03-1.00587E-01-2.38484E-03
 -1       421 2.25865E-04-1.20028E-01-2.84582E-03
 -1       422-6.22948E-04-1.13758E-01-2.69771E-03
 -1       423-1.33248E-03-8.32164E-02-1.97486E-03
 -1       424-1.74689E-03-3.51240E-02-8.37288E-04
 -1       425-1.77247E-03 1.99341E-02 4.62960E-04
 -1       426-1.39691E-03 6.97520E-02 1.63498E-03
 -1       427-6.90558E-04 1.03071E-01 2.41060E-03
 -1       428 2.11138E-04 1.11913E-01 2.60181E-03
 -1       429 1.14013E-03 9.31510E-02 2.14231E-03
 -1       430 1.93694E-03 4.89563E-02 1.10153E-03
 -1       431 2.49272E-03-1.40252E-02-3.35843E-04
 -1       432 2.78125E-03-8.67580E-02-1.92977E-03
 -1       433 3.39610E-02-1.49424E-01-3.98358E-02
 -1       434 0.00000E+00 0.00000E+00 0.00000E+00
 -1       435 0.00000E+00 0.00000E+00 0.00000E+00
 -1       436-2.78125E-03 8.67580E-02-1.92977E-03
 -1       437-2.49272E-03 1.40252E-02-3.35843E-04
 -1       438-1.93694E-03-4.89563E-02 1.10153E-03
 -1       439-1.14013E-03-9.31510E-02 2.14231E-03
 -1       440-2.11138E-04-1.11913E-01 2.60181E-03
 -1       441 6.90558E-04-1.03071E-01 2.41060E-03
 -1       442 1.39691E-03-6.97520E-02 1.63498E-03
 -1       443 1.77247E-03-1.99341E-02 4.62960E-04
 -1       444 1.74689E-03 3.51240E-02-8.37288E-04
 -1       445 1.33248E-03 8.32164E-02-1.97486E-03
 -1       446 6.22948E-04 1.13758E-01-2.69771E-03
 -1       447-2.25865E-04 1.20028E-01-2.84582E-03
 -1       448-1.02904E-03 1.00587E-01-2.38484E-03
 -1       449-1.61206E-03 5.95785E-02-1.41280E-03
 -1       450-1.84826E-03 5.81768E-03-1.38610E-04
 -1       451-1.68587E-03-4.91101E-02 1.16314E-03
 -1       452-1.15911E-03-9.33509E-02 2.21149E-03
 -1       453-3.80593E-04-1.17337E-01 2.77961E-03
 -1       454 4.83109E-04-1.15844E-01 2.74352E-03
 -1       455 1.24767E-03-8.91062E-02 2.10852E-03
 -1       456 1.75111E-03-4.27526E-02 1.00750E-03
 -1       457 1.88935E-03 1.34374E-02-3.28445E-04
 -1       458 1.63953E-03 6.76830E-02-1.62071E-03
 -1       459 1.06643E-03 1.08807E-01-2.60457E-03
 -1       460 3.10220E-04 1.28745E-01-3.08659E-03
 -1       461-4.37663E-04 1.24433E-01-2.98894E-03
 -1       462-9.81979E-04 9.87336E-02-2.36531E-03
 -1       463-1.14020E-03 6.01141E-02-1.45051E-03
 -1       464-7.35059E-04 2.16573E-02-5.07854E-04
 -1       465-3.15671E-02 1.60878E-01-3.97991E-02
 -1       466-1.78726E-02 2.39315E-02-1.05352E-02
 -1       467-2.53633E-02 6.05530E-02-3.35501E-02
 -1       468-2.17329E-02 9.79400E-02-5.60247E-02
 -1       469-9.84974E-03 1.22841E-01-7.06210E-02
 -1       470 6.53045E-03 1.26840E-01-7.28429E-02
 -1       471 2.30039E-02 1.07111E-01-6.14237E-02
 -1       472 3.54883E-02 6.66347E-02-3.82338E-02
 -1       473 4.09405E-02 1.33114E-02-7.83014E-03
 -1       474 3.79614E-02-4.18972E-02 2.35674E-02
 -1       475 2.70504E-02-8.74329E-02 4.94300E-02
 -1       476 1.04685E-02-1.13700E-01 6.43444E-02
 -1       477-8.26768E-03-1.15177E-01 6.51993E-02
 -1       478-2.51572E-02-9.16342E-02 5.18743E-02
 -1       479-3.65848E-02-4.82031E-02 2.72800E-02
 -1       480-4.01061E-02 5.72245E-03-3.26089E-03
 -1       481-3.49786E-02 5.85044E-02-3.31561E-02
 -1       482-2.23244E-02 9.87690E-02-5.59636E-02
 -1       483-4.89237E-03 1.17861E-01-6.67817E-02
 -1       484 1.35319E-02 1.11716E-01-6.33118E-02
 -1       485 2.89368E-02 8.17475E-02-4.63645E-02
 -1       486 3.79426E-02 3.45581E-02-1.97025E-02
 -1       487 3.85183E-02-1.94542E-02 1.07447E-02
 -1       488 3.04011E-02-6.82970E-02 3.81306E-02
 -1       489 1.51224E-02-1.00904E-01 5.61485E-02
 -1       490-4.37007E-03-1.09425E-01 6.04042E-02
 -1       491-2.44202E-02-9.07661E-02 4.94280E-02
 -1       492-4.15616E-02-4.70361E-02 2.51068E-02
 -1       493-5.33952E-02 1.52916E-02-7.72619E-03
 -1       494-5.92878E-02 8.73515E-02-4.29122E-02
 -1       495-2.04213E-02 2.23126E-02-1.14297E-02
 -1       496-2.85409E-02 5.54038E-02-3.35231E-02
 -1       497-2.42933E-02 8.93253E-02-5.56523E-02
 -1       498-1.10138E-02 1.12000E-01-6.99254E-02
 -1       499 7.13903E-03 1.15666E-01-7.20510E-02
 -1       500 2.53428E-02 9.76919E-02-6.07271E-02
 -1       501 3.91195E-02 6.07715E-02-3.78026E-02
 -1       502 4.51316E-02 1.21066E-02-7.76876E-03
 -1       503 4.18461E-02-3.82928E-02 2.32381E-02
 -1       504 2.98170E-02-7.98678E-02 4.87762E-02
 -1       505 1.15377E-02-1.03851E-01 6.35039E-02
 -1       506-9.11579E-03-1.05196E-01 6.43512E-02
 -1       507-2.77333E-02-8.36935E-02 5.12002E-02
 -1       508-4.03300E-02-4.40273E-02 2.69243E-02
 -1       509-4.42111E-02 5.22276E-03-3.22239E-03
 -1       510-3.85580E-02 5.34280E-02-3.27324E-02
 -1       511-2.46078E-02 9.02010E-02-5.52467E-02
 -1       512-5.39043E-03 1.07637E-01-6.59272E-02
 -1       513 1.49206E-02 1.02023E-01-6.25055E-02
 -1       514 3.19020E-02 7.46477E-02-4.57822E-02
 -1       515 4.18267E-02 3.15387E-02-1.94729E-02
 -1       516 4.24542E-02-1.78150E-02 1.05673E-02
 -1       517 3.34956E-02-6.24701E-02 3.75770E-02
 -1       518 1.66480E-02-9.23266E-02 5.53266E-02
 -1       519-4.81368E-03-1.00206E-01 5.94733E-02
 -1       520-2.68073E-02-8.32401E-02 4.85609E-02
 -1       521-4.54302E-02-4.32392E-02 2.44459E-02
 -1       522-5.79795E-02 1.40820E-02-8.10427E-03
 -1       523-6.37988E-02 8.07775E-02-4.30384E-02
 -1       524-3.39610E-02 1.49424E-01-3.98358E-02
 -1       525-7.10552E-04-8.90643E-03 4.63259E-04
 -1       526-8.52361E-04-2.72561E-02 1.25460E-03
 -1       527-6.76220E-04-4.48852E-02 2.05583E-03
 -1       528-3.20380E-04-5.64472E-02 2.59161E-03
 -1       529 1.49204E-04-5.84148E-02 2.68284E-03
 -1       530 6.20036E-04-4.94085E-02 2.26814E-03
 -1       531 9.77276E-04-3.07315E-02 1.41074E-03
 -1       532 1.13523E-03-6.04243E-03 2.78736E-04
 -1       533 1.05548E-03 1.95555E-02-8.94375E-04
 -1       534 7.52639E-04 4.06815E-02-1.86234E-03
 -1       535 2.90353E-04 5.28681E-02-2.42069E-03
 -1       536-2.32729E-04 5.35434E-02-2.45175E-03
 -1       537-7.04482E-04 4.25974E-02-1.95055E-03
 -1       538-1.02365E-03 2.24121E-02-1.02620E-03
 -1       539-1.12176E-03-2.64777E-03 1.21401E-04
 -1       540-9.77969E-04-2.71745E-02 1.24460E-03
 -1       541-6.23597E-04-4.58827E-02 2.10136E-03
 -1       542-1.35424E-04-5.47499E-02 2.50748E-03
 -1       543 3.80812E-04-5.18857E-02 2.37640E-03
 -1       544 8.13148E-04-3.79429E-02 1.73809E-03
 -1       545 1.06743E-03-1.59822E-02 7.32862E-04
 -1       546 1.08737E-03 9.17812E-03-4.18386E-04
 -1       547 8.66319E-04 3.19844E-02-1.46096E-03
 -1       548 4.47738E-04 4.73131E-02-2.15991E-03
 -1       549-8.59315E-05 5.15136E-02-2.34827E-03
 -1       550-6.33423E-04 4.30808E-02-1.95934E-03
 -1       551-1.09665E-03 2.28274E-02-1.03484E-03
 -1       552-1.39712E-03-6.39525E-03 2.92406E-04
 -1       553-1.52375E-03-4.05629E-02 1.84330E-03
 -1       554 9.72529E-16 1.30590E-14 3.87292E-04
 -1       555-8.70831E-16 2.39392E-14 1.25753E-03
 -1       556-2.42167E-15 4.89192E-15 2.07576E-03
 -1       557-1.23859E-15-4.51722E-14 2.60703E-03
 -1       558 1.81799E-15-1.00392E-13 2.69732E-03
 -1       559 5.23886E-15-1.34039E-13 2.28192E-03
 -1       560 7.82360E-15-1.32477E-13 1.41933E-03
 -1       561 1.03112E-14-1.04874E-13 2.78446E-04
 -1       562 1.48293E-14-5.20695E-14-9.04705E-04
 -1       563 1.95677E-14 3.55571E-14-1.88126E-03
 -1       564 2.17465E-14 1.42553E-13-2.44459E-03
 -1       565 2.09069E-14 2.48149E-13-2.47576E-03
 -1       566 1.81920E-14 3.39792E-13-1.96962E-03
 -1       567 1.52101E-14 4.02893E-13-1.03632E-03
 -1       568 1.22333E-14 4.09357E-13 1.22356E-04
 -1       569 8.96158E-15 3.51788E-13 1.25637E-03
 -1       570 6.17909E-15 2.55823E-13 2.12136E-03
 -1       571 4.25354E-15 1.57548E-13 2.53132E-03
 -1       572 3.40439E-15 7.97817E-14 2.39886E-03
 -1       573 4.16334E-15 2.12053E-14 1.75411E-03
 -1       574 6.93542E-15-2.83037E-14 7.38521E-04
 -1       575 1.07310E-14-7.64284E-14-4.25246E-04
 -1       576 1.47243E-14-1.12802E-13-1.48058E-03
 -1       577 1.72293E-14-1.39064E-13-2.19076E-03
 -1       578 1.65631E-14-1.74756E-13-2.38682E-03
 -1       579 1.34996E-14-2.46553E-13-1.99818E-03
 -1       580 1.00475E-14-3.39232E-13-1.05980E-03
 -1       581 7.75768E-15-4.32411E-13 2.96092E-04
 -1       582 7.00134E-15-5.20883E-13 1.88681E-03
 -1       583 7.10552E-04 8.90643E-03 4.63259E-04
 -1       584 8.52361E-04 2.72561E-02 1.25460E-03
 -1       585 6.76220E-04 4.48852E-02 2.05583E-03
 -1       586 3.20380E-04 5.64472E-02 2.59161E-03
 -1       587-1.49204E-04 5.84148E-02 2.68284E-03
 -1       588-6.20036E-04 4.94085E-02 2.26814E-03
 -1       589-9.77276E-04 3.07315E-02 1.41074E-03
 -1       590-1.13523E-03 6.04243E-03 2.78736E-04
 -1       591-1.05548E-03-1.95555E-02-8.94375E-04
 -1       592-7.52639E-04-4.06815E-02-1.86234E-03
 -1       593-2.90353E-04-5.28681E-02-2.42069E-03
 -1       594 2.32729E-04-5.35434E-02-2.45175E-03
 -1       595 7.04482E-04-4.25974E-02-1.95055E-03
 -1       596 1.02365E-03-2.24121E-02-1.02620E-03
 -1       597 1.12176E-03 2.64777E-03 1.21401E-04
 -1       598 9.77969E-04 2.71745E-02 1.24460E-03
 -1       599 6.23597E-04 4.58827E-02 2.10136E-03
 -1       600 1.35424E-04 5.47499E-02 2.50748E-03
 -1       601-3.80812E-04 5.18857E-02 2.37640E-03
 -1       602-8.13148E-04 3.79429E-02 1.73809E-03
 -1       603-1.06743E-03 1.59822E-02 7.32862E-04
 -1       604-1.08737E-03-9.17812E-03-4.18386E-04
 -1       605-8.66319E-04-3.19844E-02-1.46096E-03
 -1       606-4.47738E-04-4.73131E-02-2.15991E-03
 -1       607 8.59315E-05-5.15136E-02-2.34827E-03
 -1       608 6.33423E-04-4.30808E-02-1.95934E-03
 -1       609 1.09665E-03-2.28274E-02-1.03484E-03
 -1       610 1.39712E-03 6.39525E-03 2.92406E-04
 -1       611 1.52375E-03 4.05629E-02 1.84330E-03
 -1       612-7.10552E-04 8.90643E-03-4.63259E-04
 -1       613-8.52361E-04 2.72561E-02-1.25460E-03
 -1       614-6.76220E-04 4.48852E-02-2.05583E-03
 -1       615-3.20380E-04 5.64472E-02-2.59161E-03
 -1       616 1.49204E-04 5.84148E-02-2.68284E-03
 -1       617 6.20036E-04 4.94085E-02-2.26814E-03
 -1       618 9.77276E-04 3.07315E-02-1.41074E-03
 -1       619 1.13523E-03 6.04243E-03-2.78736E-04
 -1       620 1.05548E-03-1.95555E-02 8.94375E-04
 -1       621 7.52639E-04-4.06815E-02 1.86234E-03
 -1       622 2.90353E-04-5.28681E-02 2.42069E-03
 -1       623-2.32729E-04-5.35434E-02 2.45175E-03
 -1       624-7.04482E-04-4.25974E-02 1.95055E-03
 -1       625-1.02365E-03-2.24121E-02 1.02620E-03
 -1       626-1.12176E-03 2.64777E-03-1.21401E-04
 -1       627-9.77969E-04 2.71745E-02-1.24460E-03
 -1       628-6.23597E-04 4.58827E-02-2.10136E-03
 -1       629-1.35424E-04 5.47499E-02-2.50748E-03
 -1       630 3.80812E-04 5.18857E-02-2.37640E-03
 -1       631 8.13148E-04 3.79429E-02-1.73809E-03
 -1       632 1.06743E-03 1.59822E-02-7.32862E-04
 -1       633 1.08737E-03-9.17812E-03 4.18386E-04
 -1       634 8.66319E-04-3.19844E-02 1.46096E-03
 -1       635 4.47738E-04-4.73131E-02 2.15991E-03
 -1       636-8.59315E-05-5.15136E-02 2.34827E-03
 -1       637-6.33423E-04-4.30808E-02 1.95934E-03
 -1       638-1.09665E-03-2.28274E-02 1.03484E-03
 -1       639-1.39712E-03 6.39525E-03-2.92406E-04
 -1       640-1.52375E-03 4.05629E-02-1.84330E-03
 -1       641-5.76796E-16 1.29827E-14-3.87292E-04
 -1       642-7.35523E-16 2.38698E-14-1.25753E-03
 -1       643 7.63278E-16 4.74620E-15-2.07576E-03
 -1       644 3.69496E-15-4.52919E-14-2.60703E-03
 -1       645 5.93969E-15-1.00531E-13-2.69732E-03
 -1       646 6.61970E-15-1.34122E-13-2.28192E-03
 -1       647 6.43843E-15-1.32533E-13-1.41933E-03
 -1       648 7.02563E-15-1.04909E-13-2.78446E-04
 -1       649 8.83408E-15-5.21250E-14 9.04705E-04
 -1       650 1.09149E-14 3.55562E-14 1.88126E-03
 -1       651 1.24206E-14 1.42580E-13 2.44459E-03
 -1       652 1.23165E-14 2.48218E-13 2.47576E-03
 -1       653 1.12479E-14 3.39815E-13 1.96962E-03
 -1       654 1.18967E-14 4.02942E-13 1.03632E-03
 -1       655 1.45439E-14 4.09377E-13-1.22356E-04
 -1       656 1.60358E-14 3.51788E-13-1.25637E-03
 -1       657 1.49603E-14 2.55837E-13-2.12136E-03
 -1       658 1.19123E-14 1.57541E-13-2.53132E-03
 -1       659 9.11944E-15 7.98060E-14-2.39886E-03
 -1       660 8.59729E-15 2.12261E-14-1.75411E-03
 -1       661 1.11421E-14-2.83384E-14-7.38521E-04
 -1       662 1.44711E-14-7.64380E-14 4.25246E-04
 -1       663 1.72570E-14-1.12809E-13 1.48058E-03
 -1       664 1.94289E-14-1.39045E-13 2.19076E-03
 -1       665 2.10387E-14-1.74718E-13 2.38682E-03
 -1       666 2.08757E-14-2.46526E-13 1.99818E-03
 -1       667 1.82077E-14-3.39187E-13 1.05980E-03
 -1       668 1.53766E-14-4.32383E-13-2.96092E-04
 -1       669 1.48284E-14-5.20796E-13-1.88681E-03
 -1       670 7.10552E-04-8.90643E-03-4.63259E-04
 -1       671 8.52361E-04-2.72561E-02-1.25460E-03
 -1       672 6.76220E-04-4.48852E-02-2.05583E-03
 -1       673 3.20380E-04-5.64472E-02-2.59161E-03
 -1       674-1.49204E-04-5.84148E-02-2.68284E-03
 -1       675-6.20036E-04-4.94085E-02-2.26814E-03
 -1       676-9.77276E-04-3.07315E-02-1.41074E-03
 -1       677-1.13523E-03-6.04243E-03-2.78736E-04
 -1       678-1.05548E-03 1.95555E-02 8.94375E-04
 -1       679-7.52639E-04 4.06815E-02 1.86234E-03
 -1       680-2.90353E-04 5.28681E-02 2.42069E-03
 -1       681 2.32729E-04 5.35434E-02 2.45175E-03
 -1       682 7.04482E-04 4.25974E-02 1.95055E-03
 -1       683 1.02365E-03 2.24121E-02 1.02620E-03
 -1       684 1.12176E-03-2.64777E-03-1.21401E-04
 -1       685 9.77969E-04-2.71745E-02-1.24460E-03
 -1       686 6.23597E-04-4.58827E-02-2.10136E-03
 -1       687 1.35424E-04-5.47499E-02-2.50748E-03
 -1       688-3.80812E-04-5.18857E-02-2.37640E-03
 -1       689-8.13148E-04-3.79429E-02-1.73809E-03
 -1       690-1.06743E-03-1.59822E-02-7.32862E-04
 -1       691-1.08737E-03 9.17812E-03 4.18386E-04
 -1       692-8.66319E-04 3.19844E-02 1.46096E-03
 -1       693-4.47738E-04 4.73131E-02 2.15991E-03
 -1       694 8.59315E-05 5.15136E-02 2.34827E-03
 -1       695 6.33423E-04 4.30808E-02 1.95934E-03
 -1       696 1.09665E-03 2.28274E-02 1.03484E-03
 -1       697 1.39712E-03-6.39525E-03-2.92406E-04
 -1       698 1.52375E-03-4.05629E-02-1.84330E-03
 -1       699-7.60722E-03-2.22335E-02 5.57179E-03
 -1       700-1.21293E-02-6.03872E-02 1.72270E-02
 -1       701-1.04689E-02-9.86916E-02 2.87039E-02
 -1       702-4.66524E-03-1.24224E-01 3.61844E-02
 -1       703 3.42259E-03-1.28449E-01 3.73367E-02
 -1       704 1.15953E-02-1.08530E-01 3.14867E-02
 -1       705 1.77949E-02-6.75133E-02 1.95983E-02
 -1       706 2.04949E-02-1.34305E-02 4.00654E-03
 -1       707 1.89914E-02 4.25820E-02-1.20978E-02
 -1       708 1.35308E-02 8.87863E-02-2.53645E-02
 -1       709 5.24081E-03 1.15438E-01-3.30152E-02
 -1       710-4.12324E-03 1.16930E-01-3.34530E-02
 -1       711-1.25634E-02 9.30275E-02-2.66161E-02
 -1       712-1.82743E-02 4.89386E-02-1.39973E-02
 -1       713-2.00352E-02-5.80128E-03 1.67227E-03
 -1       714-1.74755E-02-5.93789E-02 1.70105E-02
 -1       715-1.11562E-02-1.00249E-01 2.87121E-02
 -1       716-2.45083E-03-1.19625E-01 3.42623E-02
 -1       717 6.74892E-03-1.13380E-01 3.24816E-02
 -1       718 1.44382E-02-8.29473E-02 2.37854E-02
 -1       719 1.89274E-02-3.50278E-02 1.01036E-02
 -1       720 1.92001E-02 1.98280E-02-5.52294E-03
 -1       721 1.51219E-02 6.94523E-02-1.95834E-02
 -1       722 7.45316E-03 1.02621E-01-2.88433E-02
 -1       723-2.34135E-03 1.11378E-01-3.10469E-02
 -1       724-1.24474E-02 9.26042E-02-2.54346E-02
 -1       725-2.11473E-02 4.84660E-02-1.29476E-02
 -1       726-2.72811E-02-1.44149E-02 3.96881E-03
 -1       727-3.05503E-02-8.70026E-02 2.21694E-02
 -1       728-8.85467E-03-2.05672E-02 5.96425E-03
 -1       729-1.37370E-02-5.52993E-02 1.72735E-02
 -1       730-1.17770E-02-9.02171E-02 2.85613E-02
 -1       731-5.25688E-03-1.13565E-01 3.59078E-02
 -1       732 3.75329E-03-1.17463E-01 3.70103E-02
 -1       733 1.28276E-02-9.92697E-02 3.11977E-02
 -1       734 1.97009E-02-6.17486E-02 1.94195E-02
 -1       735 2.26922E-02-1.22459E-02 3.98363E-03
 -1       736 2.10272E-02 3.90383E-02-1.19553E-02
 -1       737 1.49806E-02 8.13482E-02-2.50842E-02
 -1       738 5.80142E-03 1.05754E-01-3.26557E-02
 -1       739-4.56675E-03 1.07116E-01-3.30907E-02
 -1       740-1.39119E-02 8.52198E-02-2.63281E-02
 -1       741-2.02349E-02 4.48329E-02-1.38452E-02
 -1       742-2.21844E-02-5.30993E-03 1.65614E-03
 -1       743-1.93496E-02-5.43875E-02 1.68300E-02
 -1       744-1.23520E-02-9.18242E-02 2.84067E-02
 -1       745-2.71210E-03-1.09571E-01 3.38983E-02
 -1       746 7.47510E-03-1.03849E-01 3.21384E-02
 -1       747 1.59893E-02-7.59662E-02 2.35382E-02
 -1       748 2.09589E-02-3.20586E-02 1.00076E-02
 -1       749 2.12577E-02 1.82165E-02-5.44406E-03
 -1       750 1.67375E-02 6.37227E-02-1.93420E-02
 -1       751 8.24468E-03 9.41857E-02-2.84842E-02
 -1       752-2.58500E-03 1.02311E-01-3.06366E-02
 -1       753-1.37153E-02 8.51988E-02-2.50451E-02
 -1       754-2.32058E-02 4.47306E-02-1.26391E-02
 -1       755-2.97257E-02-1.32124E-02 4.16568E-03
 -1       756-3.30101E-02-8.05014E-02 2.22580E-02
 -1       757 8.85467E-03 2.05672E-02 5.96425E-03
 -1       758 1.37370E-02 5.52993E-02 1.72735E-02
 -1       759 1.17770E-02 9.02171E-02 2.85613E-02
 -1       760 5.25688E-03 1.13565E-01 3.59078E-02
 -1       761-3.75329E-03 1.17463E-01 3.70103E-02
 -1       762-1.28276E-02 9.92697E-02 3.11977E-02
 -1       763-1.97009E-02 6.17486E-02 1.94195E-02
 -1       764-2.26922E-02 1.22459E-02 3.98363E-03
 -1       765-2.10272E-02-3.90383E-02-1.19553E-02
 -1       766-1.49806E-02-8.13482E-02-2.50842E-02
 -1       767-5.80142E-03-1.05754E-01-3.26557E-02
 -1       768 4.56675E-03-1.07116E-01-3.30907E-02
 -1       769 1.39119E-02-8.52198E-02-2.63281E-02
 -1       770 2.02349E-02-4.48329E-02-1.38452E-02
 -1       771 2.21844E-02 5.30993E-03 1.65614E-03
 -1       772 1.93496E-02 5.43875E-02 1.68300E-02
 -1       773 1.23520E-02 9.18242E-02 2.84067E-02
 -1       774 2.71210E-03 1.09571E-01 3.38983E-02
 -1       775-7.47510E-03 1.03849E-01 3.21384E-02
 -1       776-1.59893E-02 7.59662E-02 2.35382E-02
 -1       777-2.09589E-02 3.20586E-02 1.00076E-02
 -1       778-2.12577E-02-1.82165E-02-5.44406E-03
 -1       779-1.67375E-02-6.37227E-02-1.93420E-02
 -1       780-8.24468E-03-9.41857E-02-2.84842E-02
 -1       781 2.58500E-03-1.02311E-01-3.06366E-02
 -1       782 1.37153E-02-8.51988E-02-2.50451E-02
 -1       783 2.32058E-02-4.47306E-02-1.26391E-02
 -1       784 2.97257E-02 1.32124E-02 4.16568E-03
 -1       785 3.30101E-02 8.05014E-02 2.22580E-02
 -1       786 7.60722E-03 2.22335E-02 5.57179E-03
 -1       787 1.21293E-02 6.03872E-02 1.72270E-02
 -1       788 1.04689E-02 9.86916E-02 2.87039E-02
 -1       789 4.66524E-03 1.24224E-01 3.61844E-02
 -1       790-3.42259E-03 1.28449E-01 3.73367E-02
 -1       791-1.15953E-02 1.08530E-01 3.14867E-02
 -1       792-1.77949E-02 6.75133E-02 1.95983E-02
 -1       793-2.04949E-02 1.34305E-02 4.00654E-03
 -1       794-1.89914E-02-4.25820E-02-1.20978E-02
 -1       795-1.35308E-02-8.87863E-02-2.53645E-02
 -1       796-5.24081E-03-1.15438E-01-3.30152E-02
 -1       797 4.12324E-03-1.16930E-01-3.34530E-02
 -1       798 1.25634E-02-9.30275E-02-2.66161E-02
 -1       799 1.82743E-02-4.89386E-02-1.39973E-02
 -1       800 2.00352E-02 5.80128E-03 1.67227E-03
 -1       801 1.74755E-02 5.93789E-02 1.70105E-02
 -1       802 1.11562E-02 1.00249E-01 2.87121E-02
 -1       803 2.45083E-03 1.19625E-01 3.42623E-02
 -1       804-6.74892E-03 1.13380E-01 3.24816E-02
 -1       805-1.44382E-02 8.29473E-02 2.37854E-02
 -1       806-1.89274E-02 3.50278E-02 1.01036E-02
 -1       807-1.92001E-02-1.98280E-02-5.52294E-03
 -1       808-1.51219E-02-6.94523E-02-1.95834E-02
 -1       809-7.45316E-03-1.02621E-01-2.88433E-02
 -1       810 2.34135E-03-1.11378E-01-3.10469E-02
 -1       811 1.24474E-02-9.26042E-02-2.54346E-02
 -1       812 2.11473E-02-4.84660E-02-1.29476E-02
 -1       813 2.72811E-02 1.44149E-02 3.96881E-03
 -1       814 3.05503E-02 8.70026E-02 2.21694E-02
 -1       815 7.60722E-03-2.22335E-02-5.57179E-03
 -1       816 1.21293E-02-6.03872E-02-1.72270E-02
 -1       817 1.04689E-02-9.86916E-02-2.87039E-02
 -1       818 4.66524E-03-1.24224E-01-3.61844E-02
 -1       819-3.42259E-03-1.28449E-01-3.73367E-02
 -1       820-1.15953E-02-1.08530E-01-3.14867E-02
 -1       821-1.77949E-02-6.75133E-02-1.95983E-02
 -1       822-2.04949E-02-1.34305E-02-4.00654E-03
 -1       823-1.89914E-02 4.25820E-02 1.20978E-02
 -1       824-1.35308E-02 8.87863E-02 2.53645E-02
 -1       825-5.24081E-03 1.15438E-01 3.30152E-02
 -1       826 4.12324E-03 1.16930E-01 3.34530E-02
 -1       827 1.25634E-02 9.30275E-02 2.66161E-02
 -1       828 1.82743E-02 4.89386E-02 1.39973E-02
 -1       829 2.00352E-02-5.80128E-03-1.67227E-03
 -1       830 1.74755E-02-5.93789E-02-1.70105E-02
 -1       831 1.11562E-02-1.00249E-01-2.87121E-02
 -1       832 2.45083E-03-1.19625E-01-3.42623E-02
 -1       833-6.74892E-03-1.13380E-01-3.24816E-02
 -1       834-1.44382E-02-8.29473E-02-2.37854E-02
 -1       835-1.89274E-02-3.50278E-02-1.01036E-02
 -1       836-1.92001E-02 1.98280E-02 5.52294E-03
 -1       837-1.51219E-02 6.94523E-02 1.95834E-02
 -1       838-7.45316E-03 1.02621E-01 2.88433E-02
 -1       839 2.34135E-03 1.11378E-01 3.10469E-02
 -1       840 1.24474E-02 9.26042E-02 2.54346E-02
 -1       841 2.11473E-02 4.84660E-02 1.29476E-02
 -1       842 2.72811E-02-1.44149E-02-3.96881E-03
 -1       843 3.05503E-02-8.70026E-02-2.21694E-02
 -1       844 8.85467E-03-2.05672E-02-5.96425E-03
 -1       845 1.37370E-02-5.52993E-02-1.72735E-02
 -1       846 1.17770E-02-9.02171E-02-2.85613E-02
 -1       847 5.25688E-03-1.13565E-01-3.59078E-02
 -1       848-3.75329E-03-1.17463E-01-3.70103E-02
 -1       849-1.28276E-02-9.92697E-02-3.11977E-02
 -1       850-1.97009E-02-6.17486E-02-1.94195E-02
 -1       851-2.26922E-02-1.22459E-02-3.98363E-03
 -1       852-2.10272E-02 3.90383E-02 1.19553E-02
 -1       853-1.49806E-02 8.13482E-02 2.50842E-02
 -1       854-5.80142E-03 1.05754E-01 3.26557E-02
 -1       855 4.56675E-03 1.07116E-01 3.30907E-02
 -1       856 1.39119E-02 8.52198E-02 2.63281E-02
 -1       857 2.02349E-02 4.48329E-02 1.38452E-02
 -1       858 2.21844E-02-5.30993E-03-1.65614E-03
 -1       859 1.93496E-02-5.43875E-02-1.68300E-02
 -1       860 1.23520E-02-9.18242E-02-2.84067E-02
 -1       861 2.71210E-03-1.09571E-01-3.38983E-02
 -1       862-7.47510E-03-1.03849E-01-3.21384E-02
 -1       863-1.59893E-02-7.59662E-02-2.35382E-02
 -1       864-2.09589E-02-3.20586E-02-1.00076E-02
 -1       865-2.12577E-02 1.82165E-02 5.44406E-03
 -1       866-1.67375E-02 6.37227E-02 1.93420E-02
 -1       867-8.24468E-03 9.41857E-02 2.84842E-02
 -1       868 2.58500E-03 1.02311E-01 3.06366E-02
 -1       869 1.37153E-02 8.51988E-02 2.50451E-02
 -1       870 2.32058E-02 4.47306E-02 1.26391E-02
 -1       871 2.97257E-02-1.32124E-02-4.16568E-03
 -1       872 3.30101E-02-8.05014E-02-2.22580E-02
 -1       873-3.05503E-02 8.70026E-02-2.21694E-02
 -1       874-2.72811E-02 1.44149E-02-3.96881E-03
 -1       875-2.11473E-02-4.84660E-02 1.29476E-02
 -1       876-1.24474E-02-9.26042E-02 2.54346E-02
 -1       877-2.34135E-03-1.11378E-01 3.10469E-02
 -1       878 7.45316E-03-1.02621E-01 2.88433E-02
 -1       879 1.51219E-02-6.94523E-02 1.95834E-02
 -1       880 1.92001E-02-1.98280E-02 5.52294E-03
 -1       881 1.89274E-02 3.50278E-02-1.01036E-02
 -1       882 1.44382E-02 8.29473E-02-2.37854E-02
 -1       883 6.74892E-03 1.13380E-01-3.24816E-02
 -1       884-2.45083E-03 1.19625E-01-3.42623E-02
 -1       885-1.11562E-02 1.00249E-01-2.87121E-02
 -1       886-1.74755E-02 5.93789E-02-1.70105E-02
 -1       887-2.00352E-02 5.80128E-03-1.67227E-03
 -1       888-1.82743E-02-4.89386E-02 1.39973E-02
 -1       889-1.25634E-02-9.30275E-02 2.66161E-02
 -1       890-4.12324E-03-1.16930E-01 3.34530E-02
 -1       891 5.24081E-03-1.15438E-01 3.30152E-02
 -1       892 1.35308E-02-8.87863E-02 2.53645E-02
 -1       893 1.89914E-02-4.25820E-02 1.20978E-02
 -1       894 2.04949E-02 1.34305E-02-4.00654E-03
 -1       895 1.77949E-02 6.75133E-02-1.95983E-02
 -1       896 1.15953E-02 1.08530E-01-3.14867E-02
 -1       897 3.42259E-03 1.28449E-01-3.73367E-02
 -1       898-4.66524E-03 1.24224E-01-3.61844E-02
 -1       899-1.04689E-02 9.86916E-02-2.87039E-02
 -1       900-1.21293E-02 6.03872E-02-1.72270E-02
 -1       901-7.60722E-03 2.22335E-02-5.57179E-03
 -1       902-8.85467E-03 2.05672E-02-5.96425E-03
 -1       903-1.37370E-02 5.52993E-02-1.72735E-02
 -1       904-1.17770E-02 9.02171E-02-2.85613E-02
 -1       905-5.25688E-03 1.13565E-01-3.59078E-02
 -1       906 3.75329E-03 1.17463E-01-3.70103E-02
 -1       907 1.28276E-02 9.92697E-02-3.11977E-02
 -1       908 1.97009E-02 6.17486E-02-1.94195E-02
 -1       909 2.26922E-02 1.22459E-02-3.98363E-03
 -1       910 2.10272E-02-3.90383E-02 1.19553E-02
 -1       911 1.49806E-02-8.13482E-02 2.50842E-02
 -1       912 5.80142E-03-1.05754E-01 3.26557E-02
 -1       913-4.56675E-03-1.07116E-01 3.30907E-02
 -1       914-1.39119E-02-8.52198E-02 2.63281E-02
 -1       915-2.02349E-02-4.48329E-02 1.38452E-02
 -1       916-2.21844E-02 5.30993E-03-1.65614E-03
 -1       917-1.93496E-02 5.43875E-02-1.68300E-02
 -1       918-1.23520E-02 9.18242E-02-2.84067E-02
 -1       919-2.71210E-03 1.09571E-01-3.38983E-02
 -1       920 7.47510E-03 1.03849E-01-3.21384E-02
 -1       921 1.59893E-02 7.59662E-02-2.35382E-02
 -1       922 2.09589E-02 3.20586E-02-1.00076E-02
 -1       923 2.12577E-02-1.82165E-02 5.44406E-03
 -1       924 1.67375E-02-6.37227E-02 1.93420E-02
 -1       925 8.24468E-03-9.41857E-02 2.84842E-02
 -1       926-2.58500E-03-1.02311E-01 3.06366E-02
 -1       927-1.37153E-02-8.51988E-02 2.50451E-02
 -1       928-2.32058E-02-4.47306E-02 1.26391E-02
 -1       929-2.97257E-02 1.32124E-02-4.16568E-03
 -1       930-3.30101E-02 8.05014E-02-2.22580E-02
 -3
    1PSTEP                        66           1           1          
    1PGM                1.000000E+00                                  
    1PGK                2.743591E+07                                  
    1PHID                         -1                                  
    1PSUBC                         0                                  
    1PMODE                        17                                  
  100CL  117 833.6424446         930                     2   17MODAL      1
 -4  STRESS      6    1
 -5  SXX         1    4    1    1
 -5  SYY         1    4    2    2
 -5  SZZ         1    4    3    3
 -5  SXY         1    4    1    2
 -5  SYZ         1    4    2    3
 -5  SZX         1    4    3    1
 -1         1-3.44597E+09-1.47687E+09-1.47687E+09-1.61332E+10-5.23274E+03 4.28578E+08
 -1         2 3.44597E+09 1.47687E+09 1.47687E+09-1.61332E+10-5.23274E+03-4.28578E+08
 -1         3-5.32850E+08-5.66848E+08-1.10330E+09 1.11614E+09 2.62718E+08 1.12439E+09
 -1         4 5.32850E+08 5.66848E+08 1.10330E+09 1.11614E+09 2.62718E+08-1.12439E+09
 -1         5 3.44597E+09 1.47687E+09 1.47687E+09 1.61332E+10-5.23274E+03 4.28578E+08
 -1         6-3.44597E+09-1.47687E+09-1.47687E+09 1.61332E+10-5.23274E+03-4.28578E+08
 -1         7 5.32850E+08 5.66848E+08 1.10330E+09-1.11614E+09 2.62718E+08 1.12439E+09
 -1         8-5.32850E+08-5.66848E+08-1.10330E+09-1.11614E+09 2.62718E+08-1.12439E+09
 -1         9-2.07776E+09-8.90504E+08-8.90510E+08-1.74920E+10-2.60028E+03 4.10186E+08
 -1        10-6.05965E+08-1.07717E+08-1.38899E+09-5.82200E+09 1.47739E+08 4.77211E+08
 -1        11-5.05231E+10-2.16529E+10-2.16530E+10-1.93289E+10 1.20212E+03 8.50911E+09
 -1        12-5.77278E+10-2.47407E+10-2.47407E+10-1.80213E+10-2.15395E+03 9.23154E+09
 -1        13-4.13474E+09-1.16952E+09-1.38627E+09-4.19211E+09-3.75022E+08 1.16997E+09
 -1        14-3.41471E+09-6.24943E+08-1.00689E+09 3.30655E+09-3.30793E+08 1.07868E+09
 -1        15 2.07776E+09 8.90504E+08 8.90510E+08 1.74920E+10-2.60028E+03 4.10186E+08
 -1        16 6.05965E+08 1.07717E+08 1.38899E+09 5.82200E+09 1.47739E+08 4.77211E+08
 -1        17 5.77278E+10 2.47407E+10 2.47407E+10 1.80213E+10-2.15395E+03 9.23154E+09
 -1        18 5.05231E+10 2.16529E+10 2.16530E+10 1.93289E+10 1.20212E+03 8.50911E+09
 -1        19 3.41471E+09 6.24943E+08 1.00689E+09-3.30655E+09-3.30793E+08 1.07868E+09
 -1        20 4.13474E+09 1.16952E+09 1.38627E+09 4.19211E+09-3.75022E+08 1.16997E+09
 -1        21 5.77278E+10 2.47407E+10 2.47407E+10-1.80213E+10-2.15395E+03-9.23154E+09
 -1        22 5.05231E+10 2.16529E+10 2.16530E+10-1.93289E+10 1.20212E+03-8.50911E+09
 -1        23 4.13474E+09 1.16952E+09 1.38627E+09-4.19211E+09-3.75022E+08-1.16997E+09
 -1        24 3.41471E+09 6.24943E+08 1.00689E+09 3.30655E+09-3.30793E+08-1.07868E+09
 -1        25 2.07776E+09 8.90504E+08 8.90510E+08-1.74920E+10-2.60028E+03-4.10186E+08
 -1        26 6.05965E+08 1.07717E+08 1.38899E+09-5.82200E+09 1.47739E+08-4.77211E+08
 -1        27-2.07776E+09-8.90504E+08-8.90510E+08 1.74920E+10-2.60028E+03-4.10186E+08
 -1        28-5.05231E+10-2.16529E+10-2.16530E+10 1.93289E+10 1.20212E+03-8.50911E+09
 -1        29-5.77278E+10-2.47407E+10-2.47407E+10 1.80213E+10-2.15395E+03-9.23154E+09
 -1        30-6.05965E+08-1.07717E+08-1.38899E+09 5.82200E+09 1.47739E+08-4.77211E+08
 -1        31-4.13474E+09-1.16952E+09-1.38627E+09 4.19211E+09-3.75022E+08-1.16997E+09
 -1        32-3.41471E+09-6.24943E+08-1.00689E+09-3.30655E+09-3.30793E+08-1.07868E+09
 -1        33 1.45330E+09-5.01772E+08 9.99202E+07-2.26776E+09-1.52426E+08 1.22847E+09
 -1        34 5.72076E+08 5.27326E+08 1.20801E+09-2.12097E+09 1.14690E+08 5.47991E+08
 -1        35-4.24317E+07 1.36105E+09 1.68802E+09-1.37908E+09 3.24962E+08 3.75160E+08
 -1        36-5.15716E+08 1.78839E+09 2.03555E+09-8.66974E+08 3.85873E+08 2.41613E+08
 -1        37-7.31957E+08 1.87047E+09 2.01103E+09-3.30746E+08 4.04573E+08 1.72449E+08
 -1        38-6.88849E+08 1.58597E+09 1.66622E+09 1.12551E+08 3.42036E+08 1.29568E+08
 -1        39-4.22275E+08 9.87497E+08 1.04135E+09 4.41951E+08 2.14090E+08 1.01429E+08
 -1        40-1.14313E+07 2.02687E+08 2.56902E+08 6.09539E+08 4.24274E+07 8.01239E+07
 -1        41 4.38305E+08-6.06733E+08-5.37238E+08 6.02000E+08-1.35156E+08 6.08861E+07
 -1        42 8.17323E+08-1.27233E+09-1.18516E+09 4.35416E+08-2.81625E+08 4.10722E+07
 -1        43 1.03509E+09-1.65569E+09-1.55867E+09 1.56063E+08-3.66053E+08 2.04933E+07
 -1        44 1.03911E+09-1.67731E+09-1.58451E+09-1.68852E+08-3.70735E+08 6.10407E+05
 -1        45 8.25143E+08-1.33436E+09-1.26141E+09-4.64614E+08-2.94939E+08-1.62699E+07
 -1        46 4.37437E+08-7.01785E+08-6.61430E+08-6.64306E+08-1.55179E+08-2.78535E+07
 -1        47-4.13751E+07 8.35360E+07 8.48821E+07-7.22624E+08 1.83188E+07-3.26131E+07
 -1        48-5.08363E+08 8.52086E+08 8.16182E+08-6.25176E+08 1.88111E+08-3.03172E+07
 -1        49-8.62607E+08 1.43818E+09 1.37496E+09-3.91181E+08 3.17602E+08-2.22488E+07
 -1        50-1.02689E+09 1.71574E+09 1.64162E+09-6.89048E+07 3.78944E+08-1.11014E+07
 -1        51-9.64067E+08 1.62571E+09 1.56067E+09 2.75269E+08 3.59071E+08-6.10820E+05
 -1        52-6.84463E+08 1.18924E+09 1.15370E+09 5.71878E+08 2.62560E+08 4.95796E+06
 -1        53-2.42603E+08 5.04008E+08 5.16380E+08 7.64337E+08 1.10739E+08 1.32874E+06
 -1        54 2.76055E+08-2.75789E+08-1.99974E+08 8.22285E+08-6.28398E+07-1.53977E+07
 -1        55 7.75086E+08-9.71990E+08-8.19245E+08 7.49305E+08-2.19510E+08-4.85670E+07
 -1        56 1.16863E+09-1.42184E+09-1.17932E+09 5.82996E+08-3.24423E+08-1.00830E+08
 -1        57 1.39803E+09-1.51865E+09-1.17472E+09 3.86777E+08-3.52378E+08-1.74582E+08
 -1        58 1.43834E+09-1.24234E+09-7.95966E+08 2.43131E+08-2.98303E+08-2.72033E+08
 -1        59 1.29856E+09-6.90914E+08-1.59605E+08 2.20386E+08-1.57829E+08-4.06453E+08
 -1        60 9.70427E+08-8.87673E+07 4.64053E+08 4.76001E+08-1.97100E+07-5.86766E+08
 -1        61 6.01656E+08 3.69087E+08 7.85944E+08 9.12231E+08 1.86955E+08-9.09751E+08
 -1        62-1.45330E+09 5.01772E+08-9.99202E+07-2.26776E+09-1.52426E+08-1.22847E+09
 -1        63-5.72076E+08-5.27326E+08-1.20801E+09-2.12097E+09 1.14690E+08-5.47991E+08
 -1        64 4.24317E+07-1.36105E+09-1.68802E+09-1.37908E+09 3.24962E+08-3.75160E+08
 -1        65 5.15716E+08-1.78839E+09-2.03555E+09-8.66974E+08 3.85873E+08-2.41613E+08
 -1        66 7.31957E+08-1.87047E+09-2.01103E+09-3.30746E+08 4.04573E+08-1.72449E+08
 -1        67 6.88849E+08-1.58597E+09-1.66622E+09 1.12551E+08 3.42036E+08-1.29568E+08
 -1        68 4.22275E+08-9.87497E+08-1.04135E+09 4.41951E+08 2.14090E+08-1.01429E+08
 -1        69 1.14313E+07-2.02687E+08-2.56902E+08 6.09539E+08 4.24274E+07-8.01239E+07
 -1        70-4.38305E+08 6.06733E+08 5.37238E+08 6.02000E+08-1.35156E+08-6.08861E+07
 -1        71-8.17323E+08 1.27233E+09 1.18516E+09 4.35416E+08-2.81625E+08-4.10722E+07
 -1        72-1.03509E+09 1.65569E+09 1.55867E+09 1.56063E+08-3.66053E+08-2.04933E+07
 -1        73-1.03911E+09 1.67731E+09 1.58451E+09-1.68852E+08-3.70735E+08-6.10407E+05
 -1        74-8.25143E+08 1.33436E+09 1.26141E+09-4.64614E+08-2.94939E+08 1.62699E+07
 -1        75-4.37437E+08 7.01785E+08 6.61430E+08-6.64306E+08-1.55179E+08 2.78535E+07
 -1        76 4.13751E+07-8.35360E+07-8.48821E+07-7.22624E+08 1.83188E+07 3.26131E+07
 -1        77 5.08363E+08-8.52086E+08-8.16182E+08-6.25176E+08 1.88111E+08 3.03172E+07
 -1        78 8.62607E+08-1.43818E+09-1.37496E+09-3.91181E+08 3.17602E+08 2.22488E+07
 -1        79 1.02689E+09-1.71574E+09-1.64162E+09-6.89048E+07 3.78944E+08 1.11014E+07
 -1        80 9.64067E+08-1.62571E+09-1.56067E+09 2.75269E+08 3.59071E+08 6.10820E+05
 -1        81 6.84463E+08-1.18924E+09-1.15370E+09 5.71878E+08 2.62560E+08-4.95796E+06
 -1        82 2.42603E+08-5.04008E+08-5.16380E+08 7.64337E+08 1.10739E+08-1.32874E+06
 -1        83-2.76055E+08 2.75789E+08 1.99974E+08 8.22285E+08-6.28398E+07 1.53977E+07
 -1        84-7.75086E+08 9.71990E+08 8.19245E+08 7.49305E+08-2.19510E+08 4.85670E+07
 -1        85-1.16863E+09 1.42184E+09 1.17932E+09 5.82996E+08-3.24423E+08 1.00830E+08
 -1        86-1.39803E+09 1.51865E+09 1.17472E+09 3.86777E+08-3.52378E+08 1.74582E+08
 -1        87-1.43834E+09 1.24234E+09 7.95966E+08 2.43131E+08-2.98303E+08 2.72033E+08
 -1        88-1.29856E+09 6.90914E+08 1.59605E+08 2.20386E+08-1.57829E+08 4.06453E+08
 -1        89-9.70427E+08 8.87673E+07-4.64053E+08 4.76001E+08-1.97100E+07 5.86766E+08
 -1        90-6.01656E+08-3.69087E+08-7.85944E+08 9.12231E+08 1.86955E+08 9.09751E+08
 -1        91-2.00866E+09-8.60855E+08-8.60856E+08-7.19356E+09 3.49538E+01 3.74170E+08
 -1        92 2.74573E-03 1.17007E-03 1.17463E-03 1.05557E-02 7.15232E+03 3.12813E+08
 -1        93 2.00866E+09 8.60855E+08 8.60856E+08 7.19356E+09 3.49538E+01 3.74170E+08
 -1        94-2.00866E+09-8.60855E+08-8.60856E+08 7.19356E+09 3.49538E+01-3.74170E+08
 -1        95-1.63271E-03-7.03692E-04-7.01003E-04 1.04931E-02 7.15232E+03-3.12813E+08
 -1        96 2.00866E+09 8.60855E+08 8.60856E+08-7.19356E+09 3.49538E+01-3.74170E+08
 -1        97 1.45330E+09-5.01772E+08 9.99202E+07 2.26776E+09-1.52426E+08-1.22847E+09
 -1        98 5.72076E+08 5.27326E+08 1.20801E+09 2.12097E+09 1.14690E+08-5.47991E+08
 -1        99-4.24317E+07 1.36105E+09 1.68802E+09 1.37908E+09 3.24962E+08-3.75160E+08
 -1       100-5.15716E+08 1.78839E+09 2.03555E+09 8.66974E+08 3.85873E+08-2.41613E+08
 -1       101-7.31957E+08 1.87047E+09 2.01103E+09 3.30746E+08 4.04573E+08-1.72449E+08
 -1       102-6.88849E+08 1.58597E+09 1.66622E+09-1.12551E+08 3.42036E+08-1.29568E+08
 -1       103-4.22275E+08 9.87497E+08 1.04135E+09-4.41951E+08 2.14090E+08-1.01429E+08
 -1       104-1.14313E+07 2.02687E+08 2.56902E+08-6.09539E+08 4.24274E+07-8.01239E+07
 -1       105 4.38305E+08-6.06733E+08-5.37238E+08-6.02000E+08-1.35156E+08-6.08861E+07
 -1       106 8.17323E+08-1.27233E+09-1.18516E+09-4.35416E+08-2.81625E+08-4.10722E+07
 -1       107 1.03509E+09-1.65569E+09-1.55867E+09-1.56063E+08-3.66053E+08-2.04933E+07
 -1       108 1.03911E+09-1.67731E+09-1.58451E+09 1.68852E+08-3.70735E+08-6.10407E+05
 -1       109 8.25143E+08-1.33436E+09-1.26141E+09 4.64614E+08-2.94939E+08 1.62699E+07
 -1       110 4.37437E+08-7.01785E+08-6.61430E+08 6.64306E+08-1.55179E+08 2.78535E+07
 -1       111-4.13751E+07 8.35360E+07 8.48821E+07 7.22624E+08 1.83188E+07 3.26131E+07
 -1       112-5.08363E+08 8.52086E+08 8.16182E+08 6.25176E+08 1.88111E+08 3.03172E+07
 -1       113-8.62607E+08 1.43818E+09 1.37496E+09 3.91181E+08 3.17602E+08 2.22488E+07
 -1       114-1.02689E+09 1.71574E+09 1.64162E+09 6.89048E+07 3.78944E+08 1.11014E+07
 -1       115-9.64067E+08 1.62571E+09 1.56067E+09-2.75269E+08 3.59071E+08 6.10820E+05
 -1       116-6.84463E+08 1.18924E+09 1.15370E+09-5.71878E+08 2.62560E+08-4.95796E+06
 -1       117-2.42603E+08 5.04008E+08 5.16380E+08-7.64337E+08 1.10739E+08-1.32874E+06
 -1       118 2.76055E+08-2.75789E+08-1.99974E+08-8.22285E+08-6.28398E+07 1.53977E+07
 -1       119 7.75086E+08-9.71990E+08-8.19245E+08-7.49305E+08-2.19510E+08 4.85670E+07
 -1       120 1.16863E+09-1.42184E+09-1.17932E+09-5.82996E+08-3.24423E+08 1.00830E+08
 -1       121 1.39803E+09-1.51865E+09-1.17472E+09-3.86777E+08-3.52378E+08 1.74582E+08
 -1       122 1.43834E+09-1.24234E+09-7.95966E+08-2.43131E+08-2.98303E+08 2.72033E+08
 -1       123 1.29856E+09-6.90914E+08-1.59605E+08-2.20386E+08-1.57829E+08 4.06453E+08
 -1       124 9.70427E+08-8.87673E+07 4.64053E+08-4.76001E+08-1.97100E+07 5.86766E+08
 -1       125 6.01656E+08 3.69087E+08 7.85944E+08-9.12231E+08 1.86955E+08 9.09751E+08
 -1       126 3.32672E+07 7.68294E+07 2.22831E+08 1.03188E+08 5.65577E+08 2.56323E+09
 -1       127 2.02017E-02 2.37117E-02 3.83440E-02 2.83601E-03-8.27000E+08 2.70391E+09
 -1       128-3.32672E+07-7.68294E+07-2.22831E+08-1.03188E+08 5.65577E+08 2.56323E+09
 -1       129-1.45330E+09 5.01772E+08-9.99202E+07 2.26776E+09-1.52426E+08 1.22847E+09
 -1       130-5.72076E+08-5.27326E+08-1.20801E+09 2.12097E+09 1.14690E+08 5.47991E+08
 -1       131 4.24317E+07-1.36105E+09-1.68802E+09 1.37908E+09 3.24962E+08 3.75160E+08
 -1       132 5.15716E+08-1.78839E+09-2.03555E+09 8.66974E+08 3.85873E+08 2.41613E+08
 -1       133 7.31957E+08-1.87047E+09-2.01103E+09 3.30746E+08 4.04573E+08 1.72449E+08
 -1       134 6.88849E+08-1.58597E+09-1.66622E+09-1.12551E+08 3.42036E+08 1.29568E+08
 -1       135 4.22275E+08-9.87497E+08-1.04135E+09-4.41951E+08 2.14090E+08 1.01429E+08
 -1       136 1.14313E+07-2.02687E+08-2.56902E+08-6.09539E+08 4.24274E+07 8.01239E+07
 -1       137-4.38305E+08 6.06733E+08 5.37238E+08-6.02000E+08-1.35156E+08 6.08861E+07
 -1       138-8.17323E+08 1.27233E+09 1.18516E+09-4.35416E+08-2.81625E+08 4.10722E+07
 -1       139-1.03509E+09 1.65569E+09 1.55867E+09-1.56063E+08-3.66053E+08 2.04933E+07
 -1       140-1.03911E+09 1.67731E+09 1.58451E+09 1.68852E+08-3.70735E+08 6.10407E+05
 -1       141-8.25143E+08 1.33436E+09 1.26141E+09 4.64614E+08-2.94939E+08-1.62699E+07
 -1       142-4.37437E+08 7.01785E+08 6.61430E+08 6.64306E+08-1.55179E+08-2.78535E+07
 -1       143 4.13751E+07-8.35360E+07-8.48821E+07 7.22624E+08 1.83188E+07-3.26131E+07
 -1       144 5.08363E+08-8.52086E+08-8.16182E+08 6.25176E+08 1.88111E+08-3.03172E+07
 -1       145 8.62607E+08-1.43818E+09-1.37496E+09 3.91181E+08 3.17602E+08-2.22488E+07
 -1       146 1.02689E+09-1.71574E+09-1.64162E+09 6.89048E+07 3.78944E+08-1.11014E+07
 -1       147 9.64067E+08-1.62571E+09-1.56067E+09-2.75269E+08 3.59071E+08-6.10820E+05
 -1       148 6.84463E+08-1.18924E+09-1.15370E+09-5.71878E+08 2.62560E+08 4.95796E+06
 -1       149 2.42603E+08-5.04008E+08-5.16380E+08-7.64337E+08 1.10739E+08 1.32874E+06
 -1       150-2.76055E+08 2.75789E+08 1.99974E+08-8.22285E+08-6.28398E+07-1.53977E+07
 -1       151-7.75086E+08 9.71990E+08 8.19245E+08-7.49305E+08-2.19510E+08-4.85670E+07
 -1       152-1.16863E+09 1.42184E+09 1.17932E+09-5.82996E+08-3.24423E+08-1.00830E+08
 -1       153-1.39803E+09 1.51865E+09 1.17472E+09-3.86777E+08-3.52378E+08-1.74582E+08
 -1       154-1.43834E+09 1.24234E+09 7.95966E+08-2.43131E+08-2.98303E+08-2.72033E+08
 -1       155-1.29856E+09 6.90914E+08 1.59605E+08-2.20386E+08-1.57829E+08-4.06453E+08
 -1       156-9.70427E+08 8.87673E+07-4.64053E+08-4.76001E+08-1.97100E+07-5.86766E+08
 -1       157-6.01656E+08-3.69087E+08-7.85944E+08-9.12231E+08 1.86955E+08-9.09751E+08
 -1       158 3.32672E+07 7.68294E+07 2.22831E+08-1.03188E+08 5.65577E+08-2.56323E+09
 -1       159-2.14353E-02-1.92448E-02-6.34610E-02 2.89880E-03-8.27000E+08-2.70391E+09
 -1       160-3.32672E+07-7.68294E+07-2.22831E+08 1.03188E+08 5.65577E+08-2.56323E+09
 -1       161-5.92605E+08 1.41425E+09 6.00654E+08-1.08962E+10 5.23604E+08-2.30977E+09
 -1       162-6.45017E+08 6.91091E+07-1.35505E+09-1.00613E+10 3.39626E+08-1.39654E+09
 -1       163-5.54791E+07-7.02018E+08-1.94152E+09-7.81108E+09 7.39065E+08-1.09038E+09
 -1       164 2.66749E+08-1.17012E+09-2.46290E+09-4.02512E+09 7.85817E+08-6.04404E+08
 -1       165 4.32040E+08-1.34129E+09-2.48231E+09 4.63767E+08 7.86814E+08-1.22223E+08
 -1       166 4.19732E+08-1.17544E+09-2.07750E+09 4.72079E+09 6.42775E+08 3.19902E+08
 -1       167 2.56858E+08-7.27621E+08-1.29608E+09 7.89038E+09 4.03912E+08 6.45676E+08
 -1       168-3.35449E+06-1.06441E+08-2.95243E+08 9.31932E+09 1.05087E+08 8.01683E+08
 -1       169-2.90855E+08 5.48968E+08 7.27154E+08 8.71718E+09-1.94816E+08 7.63930E+08
 -1       170-5.33969E+08 1.09300E+09 1.56461E+09 6.22304E+09-4.38961E+08 5.47856E+08
 -1       171-6.73495E+08 1.40601E+09 2.04727E+09 2.37959E+09-5.79705E+08 2.04865E+08
 -1       172-6.75125E+08 1.41890E+09 2.07780E+09-1.98171E+09-5.90109E+08-1.87842E+08
 -1       173-5.35936E+08 1.12791E+09 1.65359E+09-5.91872E+09-4.69906E+08-5.43432E+08
 -1       174-2.84474E+08 5.95184E+08 8.68316E+08-8.58126E+09-2.46123E+08-7.83766E+08
 -1       175 2.57885E+07-6.47352E+07-1.07600E+08-9.39417E+09 3.24398E+07-8.55969E+08
 -1       176 3.28193E+08-7.09638E+08-1.06334E+09-8.18122E+09 3.05521E+08-7.43612E+08
 -1       177 5.57348E+08-1.20035E+09-1.79297E+09-5.20304E+09 5.14325E+08-4.70073E+08
 -1       178 6.63181E+08-1.43072E+09-2.13997E+09-1.10082E+09 6.14240E+08-9.33099E+07
 -1       179 6.21530E+08-1.35046E+09-2.03137E+09 3.24192E+09 5.84670E+08 3.06874E+08
 -1       180 4.38916E+08-9.75897E+08-1.49441E+09 6.88995E+09 4.33919E+08 6.46356E+08
 -1       181 1.50384E+08-3.86287E+08-6.52214E+08 9.05818E+09 1.98159E+08 8.55276E+08
 -1       182-1.89184E+08 2.93509E+08 3.00690E+08 9.28191E+09-6.54248E+07 8.93671E+08
 -1       183-5.18116E+08 9.20482E+08 1.13872E+09 7.51966E+09-2.90044E+08 7.60769E+08
 -1       184-7.82348E+08 1.36501E+09 1.65468E+09 4.16737E+09-4.14966E+08 4.95709E+08
 -1       185-9.46177E+08 1.54103E+09 1.71176E+09-1.57284E+07-3.99369E+08 1.70423E+08
 -1       186-9.96889E+08 1.42741E+09 1.28926E+09-4.06011E+09-2.48991E+08-1.25980E+08
 -1       187-9.46100E+08 1.07057E+09 5.09264E+08-6.98603E+09 9.57906E+06-2.92555E+08
 -1       188-7.98137E+08 6.18237E+08-3.23933E+08-8.03436E+09 1.85782E+08-2.69053E+08
 -1       189-5.68655E+08 1.85747E+08-8.09906E+08-6.93260E+09 4.06644E+08 1.38879E+08
 -1       190-2.15042E+10-9.21621E+09-9.21622E+09-1.79574E+10 5.90381E+02 4.50025E+09
 -1       191-2.50306E+10-1.07275E+10-1.07275E+10-1.66116E+10-2.32341E+03 4.81723E+09
 -1       192-2.12194E+09 8.52914E+07-4.09653E+07-4.97180E+09-2.48939E+07-8.30286E+07
 -1       193-2.30210E+10 3.86534E+09 8.16672E+09-5.10431E+09 3.30132E+08-1.69923E+09
 -1       194-5.22962E+09-1.48680E+09-2.43485E+09-4.94279E+09 3.94006E+07-6.40408E+08
 -1       195 1.64600E+10 1.09674E+09-5.25727E+08-3.92299E+09 4.32036E+07-3.48100E+08
 -1       196 2.97951E+10 1.75444E+09-1.35582E+09-1.89849E+09-4.67648E+07-1.72716E+08
 -1       197 3.47798E+10 2.17890E+09-1.23001E+09 4.94722E+08-7.67299E+07-7.32348E+07
 -1       198 3.06651E+10 1.92596E+09-1.05813E+09 2.80910E+09-7.75676E+07 1.69442E+07
 -1       199 1.89985E+10 1.19962E+09-6.47462E+08 4.52960E+09-4.76824E+07 8.16519E+07
 -1       200 2.60782E+09 1.61120E+08-1.24152E+08 5.29140E+09 7.76824E+05 1.16609E+08
 -1       201-1.47412E+10-9.40861E+08 4.17497E+08 4.92780E+09 5.48991E+07 1.17219E+08
 -1       202-2.91651E+10-1.85812E+09 8.63163E+08 3.51377E+09 1.00764E+08 8.50439E+07
 -1       203-3.74625E+10-2.38577E+09 1.11991E+09 1.35033E+09 1.27127E+08 2.86370E+07
 -1       204-3.77876E+10-2.40613E+09 1.13347E+09-1.09913E+09 1.27453E+08-3.81495E+07
 -1       205-3.00353E+10-1.91249E+09 9.01521E+08-3.30860E+09 1.01190E+08-9.94482E+07
 -1       206-1.58566E+10-1.00996E+09 4.74318E+08-4.80301E+09 5.37296E+07-1.40907E+08
 -1       207 1.70198E+09 1.07531E+08-5.59025E+07-5.26097E+09-4.82740E+06-1.52738E+08
 -1       208 1.88575E+10 1.19921E+09-5.74782E+08-4.58435E+09-6.18973E+07-1.31694E+08
 -1       209 3.19072E+10 2.02943E+09-9.70463E+08-2.91962E+09-1.05141E+08-8.15910E+07
 -1       210 3.80262E+10 2.41848E+09-1.15769E+09-6.26582E+08-1.25121E+08-1.22771E+07
 -1       211 3.58750E+10 2.28125E+09-1.09618E+09 1.79885E+09-1.17297E+08 6.26971E+07
 -1       212 2.58841E+10 1.64537E+09-7.99416E+08 3.83106E+09-8.29264E+07 1.29119E+08
 -1       213 1.01540E+10 6.44704E+08-3.32040E+08 5.02753E+09-2.86119E+07 1.75012E+08
 -1       214-8.01060E+09-5.10847E+08 2.03128E+08 5.12406E+09 3.53721E+07 1.92508E+08
 -1       215-2.48341E+10-1.58309E+09 6.85614E+08 4.09299E+09 9.77935E+07 1.78117E+08
 -1       216-3.69167E+10-2.36119E+09 1.00061E+09 2.15316E+09 1.48811E+08 1.32461E+08
 -1       217-4.20139E+10-2.71320E+09 1.06149E+09-2.70289E+08 1.83487E+08 5.99982E+07
 -1       218-3.95883E+10-2.62072E+09 8.25546E+08-2.62739E+09 1.98661E+08-2.70863E+07
 -1       219-3.09804E+10-2.18810E+09 3.29455E+08-4.35153E+09 2.02688E+08-6.45450E+07
 -1       220-1.91828E+10-1.56080E+09-3.41882E+08-5.04838E+09 1.54491E+08 4.20831E+07
 -1       221-8.47660E+09-1.10687E+09-9.11804E+08-4.66628E+09 2.32841E+08 6.69586E+08
 -1       222-2.73786E+10 2.25243E+09 6.37555E+09-5.72184E+08-6.16085E+08-1.71013E+09
 -1       223-5.41968E+09-1.89845E+09-2.61536E+09 8.41565E+08 1.78028E+08-1.15202E+09
 -1       224 1.89095E+10 1.39136E+09 2.97507E+08 7.36325E+08 4.76495E+08-6.18127E+08
 -1       225 3.37597E+10 2.47310E+09 4.91416E+07 2.13879E+08 7.43092E+08-3.42115E+08
 -1       226 3.92005E+10 3.06265E+09 3.61325E+08-6.03626E+08 8.00551E+08-7.36182E+07
 -1       227 3.44895E+10 2.71188E+09 3.24981E+08-1.42143E+09 6.90545E+08 1.62610E+08
 -1       228 2.13380E+10 1.67187E+09 1.96045E+08-2.03958E+09 4.27989E+08 3.38173E+08
 -1       229 2.90919E+09 1.81990E+08-2.74790E+07-2.29009E+09 7.33103E+07 4.23714E+08
 -1       230-1.65832E+10-1.40400E+09-2.74051E+08-2.09881E+09-2.97090E+08 4.06046E+08
 -1       231-3.27857E+10-2.72615E+09-4.83418E+08-1.49039E+09-6.03364E+08 2.91501E+08
 -1       232-4.21048E+10-3.48591E+09-6.02836E+08-5.83767E+08-7.79652E+08 1.07080E+08
 -1       233-4.24671E+10-3.51066E+09-6.01748E+08 4.34187E+08-7.87994E+08-1.05353E+08
 -1       234-3.37539E+10-2.78941E+09-4.77125E+08 1.34975E+09-6.26580E+08-2.98247E+08
 -1       235-1.78196E+10-1.47430E+09-2.53880E+08 1.96935E+09-3.30183E+08-4.28686E+08
 -1       236 1.91265E+09 1.52878E+08 2.09017E+07 2.16204E+09 3.73126E+07-4.67556E+08
 -1       237 2.11919E+10 1.74184E+09 2.88323E+08 1.88839E+09 3.96666E+08-4.05664E+08
 -1       238 3.58569E+10 2.94944E+09 4.90448E+08 1.20946E+09 6.70362E+08-2.55518E+08
 -1       239 4.27324E+10 3.51356E+09 5.82695E+08 2.74263E+08 7.99322E+08-4.84064E+07
 -1       240 4.03116E+10 3.30917E+09 5.43167E+08-7.11700E+08 7.55659E+08 1.72590E+08
 -1       241 2.90760E+10 2.37452E+09 3.76890E+08-1.52969E+09 5.48730E+08 3.62035E+08
 -1       242 1.13842E+10 9.01767E+08 1.14138E+08-1.99360E+09 2.23226E+08 4.81827E+08
 -1       243-9.04809E+09-8.05829E+08-1.96612E+08-1.98889E+09-1.50336E+08 5.08789E+08
 -1       244-2.79656E+10-2.40060E+09-4.99073E+08-1.49683E+09-4.90596E+08 4.38372E+08
 -1       245-4.15155E+10-3.56610E+09-7.40508E+08-6.00151E+08-7.23455E+08 2.84828E+08
 -1       246-4.71171E+10-4.08651E+09-8.81455E+08 5.31341E+08-7.97742E+08 7.82830E+07
 -1       247-4.40887E+10-3.90029E+09-9.08438E+08 1.67171E+09-7.01624E+08-1.36117E+08
 -1       248-3.39118E+10-3.11269E+09-8.27343E+08 2.58843E+09-4.61608E+08-2.62040E+08
 -1       249-2.01108E+10-1.99703E+09-7.51153E+08 3.17287E+09-1.87098E+08-1.73837E+08
 -1       250-8.28063E+09-1.41471E+09-9.45366E+08 3.31910E+09 1.61842E+08 5.22221E+08
 -1       251-2.22245E+09-5.04378E+08-2.48022E+08 2.95879E+09-1.08500E+08-1.24948E+08
 -1       252 5.68655E+08-1.85747E+08 8.09906E+08 6.93260E+09 4.06644E+08 1.38879E+08
 -1       253 7.98137E+08-6.18237E+08 3.23933E+08 8.03436E+09 1.85782E+08-2.69053E+08
 -1       254 9.46100E+08-1.07057E+09-5.09264E+08 6.98603E+09 9.57906E+06-2.92555E+08
 -1       255 9.96889E+08-1.42741E+09-1.28926E+09 4.06011E+09-2.48991E+08-1.25980E+08
 -1       256 9.46177E+08-1.54103E+09-1.71176E+09 1.57284E+07-3.99369E+08 1.70423E+08
 -1       257 7.82348E+08-1.36501E+09-1.65468E+09-4.16737E+09-4.14966E+08 4.95709E+08
 -1       258 5.18116E+08-9.20482E+08-1.13872E+09-7.51966E+09-2.90044E+08 7.60769E+08
 -1       259 1.89184E+08-2.93509E+08-3.00690E+08-9.28191E+09-6.54248E+07 8.93671E+08
 -1       260-1.50384E+08 3.86287E+08 6.52214E+08-9.05818E+09 1.98159E+08 8.55276E+08
 -1       261-4.38916E+08 9.75897E+08 1.49441E+09-6.88995E+09 4.33919E+08 6.46356E+08
 -1       262-6.21530E+08 1.35046E+09 2.03137E+09-3.24192E+09 5.84670E+08 3.06874E+08
 -1       263-6.63181E+08 1.43072E+09 2.13997E+09 1.10082E+09 6.14240E+08-9.33099E+07
 -1       264-5.57348E+08 1.20035E+09 1.79297E+09 5.20304E+09 5.14325E+08-4.70073E+08
 -1       265-3.28193E+08 7.09638E+08 1.06334E+09 8.18122E+09 3.05521E+08-7.43612E+08
 -1       266-2.57885E+07 6.47352E+07 1.07600E+08 9.39417E+09 3.24398E+07-8.55969E+08
 -1       267 2.84474E+08-5.95184E+08-8.68316E+08 8.58126E+09-2.46123E+08-7.83766E+08
 -1       268 5.35936E+08-1.12791E+09-1.65359E+09 5.91872E+09-4.69906E+08-5.43432E+08
 -1       269 6.75125E+08-1.41890E+09-2.07780E+09 1.98171E+09-5.90109E+08-1.87842E+08
 -1       270 6.73495E+08-1.40601E+09-2.04727E+09-2.37959E+09-5.79705E+08 2.04865E+08
 -1       271 5.33969E+08-1.09300E+09-1.56461E+09-6.22304E+09-4.38961E+08 5.47856E+08
 -1       272 2.90855E+08-5.48968E+08-7.27154E+08-8.71718E+09-1.94816E+08 7.63930E+08
 -1       273 3.35449E+06 1.06441E+08 2.95243E+08-9.31932E+09 1.05087E+08 8.01683E+08
 -1       274-2.56858E+08 7.27621E+08 1.29608E+09-7.89038E+09 4.03912E+08 6.45676E+08
 -1       275-4.19732E+08 1.17544E+09 2.07750E+09-4.72079E+09 6.42775E+08 3.19902E+08
 -1       276-4.32040E+08 1.34129E+09 2.48231E+09-4.63767E+08 7.86814E+08-1.22223E+08
 -1       277-2.66749E+08 1.17012E+09 2.46290E+09 4.02512E+09 7.85817E+08-6.04404E+08
 -1       278 5.54791E+07 7.02018E+08 1.94152E+09 7.81108E+09 7.39065E+08-1.09038E+09
 -1       279 6.45017E+08-6.91091E+07 1.35505E+09 1.00613E+10 3.39626E+08-1.39654E+09
 -1       280 5.92605E+08-1.41425E+09-6.00654E+08 1.08962E+10 5.23604E+08-2.30977E+09
 -1       281 2.50306E+10 1.07275E+10 1.07275E+10 1.66116E+10-2.32341E+03 4.81723E+09
 -1       282 2.15042E+10 9.21621E+09 9.21622E+09 1.79574E+10 5.90381E+02 4.50025E+09
 -1       283 2.73786E+10-2.25243E+09-6.37555E+09 5.72184E+08-6.16085E+08-1.71013E+09
 -1       284 5.41968E+09 1.89845E+09 2.61536E+09-8.41565E+08 1.78028E+08-1.15202E+09
 -1       285-1.89095E+10-1.39136E+09-2.97507E+08-7.36325E+08 4.76495E+08-6.18127E+08
 -1       286-3.37597E+10-2.47310E+09-4.91416E+07-2.13879E+08 7.43092E+08-3.42115E+08
 -1       287-3.92005E+10-3.06265E+09-3.61325E+08 6.03626E+08 8.00551E+08-7.36182E+07
 -1       288-3.44895E+10-2.71188E+09-3.24981E+08 1.42143E+09 6.90545E+08 1.62610E+08
 -1       289-2.13380E+10-1.67187E+09-1.96045E+08 2.03958E+09 4.27989E+08 3.38173E+08
 -1       290-2.90919E+09-1.81990E+08 2.74790E+07 2.29009E+09 7.33103E+07 4.23714E+08
 -1       291 1.65832E+10 1.40400E+09 2.74051E+08 2.09881E+09-2.97090E+08 4.06046E+08
 -1       292 3.27857E+10 2.72615E+09 4.83418E+08 1.49039E+09-6.03364E+08 2.91501E+08
 -1       293 4.21048E+10 3.48591E+09 6.02836E+08 5.83767E+08-7.79652E+08 1.07080E+08
 -1       294 4.24671E+10 3.51066E+09 6.01748E+08-4.34187E+08-7.87994E+08-1.05353E+08
 -1       295 3.37539E+10 2.78941E+09 4.77125E+08-1.34975E+09-6.26580E+08-2.98247E+08
 -1       296 1.78196E+10 1.47430E+09 2.53880E+08-1.96935E+09-3.30183E+08-4.28686E+08
 -1       297-1.91265E+09-1.52878E+08-2.09017E+07-2.16204E+09 3.73126E+07-4.67556E+08
 -1       298-2.11919E+10-1.74184E+09-2.88323E+08-1.88839E+09 3.96666E+08-4.05664E+08
 -1       299-3.58569E+10-2.94944E+09-4.90448E+08-1.20946E+09 6.70362E+08-2.55518E+08
 -1       300-4.27324E+10-3.51356E+09-5.82695E+08-2.74263E+08 7.99322E+08-4.84064E+07
 -1       301-4.03116E+10-3.30917E+09-5.43167E+08 7.11700E+08 7.55659E+08 1.72590E+08
 -1       302-2.90760E+10-2.37452E+09-3.76890E+08 1.52969E+09 5.48730E+08 3.62035E+08
 -1       303-1.13842E+10-9.01767E+08-1.14138E+08 1.99360E+09 2.23226E+08 4.81827E+08
 -1       304 9.04809E+09 8.05829E+08 1.96612E+08 1.98889E+09-1.50336E+08 5.08789E+08
 -1       305 2.79656E+10 2.40060E+09 4.99073E+08 1.49683E+09-4.90596E+08 4.38372E+08
 -1       306 4.15155E+10 3.56610E+09 7.40508E+08 6.00151E+08-7.23455E+08 2.84828E+08
 -1       307 4.71171E+10 4.08651E+09 8.81455E+08-5.31341E+08-7.97742E+08 7.82830E+07
 -1       308 4.40887E+10 3.90029E+09 9.08438E+08-1.67171E+09-7.01624E+08-1.36117E+08
 -1       309 3.39118E+10 3.11269E+09 8.27343E+08-2.58843E+09-4.61608E+08-2.62040E+08
 -1       310 2.01108E+10 1.99703E+09 7.51153E+08-3.17287E+09-1.87098E+08-1.73837E+08
 -1       311 8.28063E+09 1.41471E+09 9.45366E+08-3.31910E+09 1.61842E+08 5.22221E+08
 -1       312 2.22245E+09 5.04378E+08 2.48022E+08-2.95879E+09-1.08500E+08-1.24948E+08
 -1       313 2.30210E+10-3.86534E+09-8.16672E+09 5.10431E+09 3.30132E+08-1.69923E+09
 -1       314 5.22962E+09 1.48680E+09 2.43485E+09 4.94279E+09 3.94006E+07-6.40408E+08
 -1       315-1.64600E+10-1.09674E+09 5.25727E+08 3.92299E+09 4.32036E+07-3.48100E+08
 -1       316-2.97951E+10-1.75444E+09 1.35582E+09 1.89849E+09-4.67648E+07-1.72716E+08
 -1       317-3.47798E+10-2.17890E+09 1.23001E+09-4.94722E+08-7.67299E+07-7.32348E+07
 -1       318-3.06651E+10-1.92596E+09 1.05813E+09-2.80910E+09-7.75676E+07 1.69442E+07
 -1       319-1.89985E+10-1.19962E+09 6.47462E+08-4.52960E+09-4.76824E+07 8.16519E+07
 -1       320-2.60782E+09-1.61120E+08 1.24152E+08-5.29140E+09 7.76824E+05 1.16609E+08
 -1       321 1.47412E+10 9.40861E+08-4.17497E+08-4.92780E+09 5.48991E+07 1.17219E+08
 -1       322 2.91651E+10 1.85812E+09-8.63163E+08-3.51377E+09 1.00764E+08 8.50439E+07
 -1       323 3.74625E+10 2.38577E+09-1.11991E+09-1.35033E+09 1.27127E+08 2.86370E+07
 -1       324 3.77876E+10 2.40613E+09-1.13347E+09 1.09913E+09 1.27453E+08-3.81495E+07
 -1       325 3.00353E+10 1.91249E+09-9.01521E+08 3.30860E+09 1.01190E+08-9.94482E+07
 -1       326 1.58566E+10 1.00996E+09-4.74318E+08 4.80301E+09 5.37296E+07-1.40907E+08
 -1       327-1.70198E+09-1.07531E+08 5.59025E+07 5.26097E+09-4.82740E+06-1.52738E+08
 -1       328-1.88575E+10-1.19921E+09 5.74782E+08 4.58435E+09-6.18973E+07-1.31694E+08
 -1       329-3.19072E+10-2.02943E+09 9.70463E+08 2.91962E+09-1.05141E+08-8.15910E+07
 -1       330-3.80262E+10-2.41848E+09 1.15769E+09 6.26582E+08-1.25121E+08-1.22771E+07
 -1       331-3.58750E+10-2.28125E+09 1.09618E+09-1.79885E+09-1.17297E+08 6.26971E+07
 -1       332-2.58841E+10-1.64537E+09 7.99416E+08-3.83106E+09-8.29264E+07 1.29119E+08
 -1       333-1.01540E+10-6.44704E+08 3.32040E+08-5.02753E+09-2.86119E+07 1.75012E+08
 -1       334 8.01060E+09 5.10847E+08-2.03128E+08-5.12406E+09 3.53721E+07 1.92508E+08
 -1       335 2.48341E+10 1.58309E+09-6.85614E+08-4.09299E+09 9.77935E+07 1.78117E+08
 -1       336 3.69167E+10 2.36119E+09-1.00061E+09-2.15316E+09 1.48811E+08 1.32461E+08
 -1       337 4.20139E+10 2.71320E+09-1.06149E+09 2.70289E+08 1.83487E+08 5.99982E+07
 -1       338 3.95883E+10 2.62072E+09-8.25546E+08 2.62739E+09 1.98661E+08-2.70863E+07
 -1       339 3.09804E+10 2.18810E+09-3.29455E+08 4.35153E+09 2.02688E+08-6.45450E+07
 -1       340 1.91828E+10 1.56080E+09 3.41882E+08 5.04838E+09 1.54491E+08 4.20831E+07
 -1       341 8.47660E+09 1.10687E+09 9.11804E+08 4.66628E+09 2.32841E+08 6.69586E+08
 -1       342 2.12194E+09-8.52914E+07 4.09653E+07 4.97180E+09-2.48939E+07-8.30286E+07
 -1       343 2.30210E+10-3.86534E+09-8.16672E+09-5.10431E+09 3.30132E+08 1.69923E+09
 -1       344 5.22962E+09 1.48680E+09 2.43485E+09-4.94279E+09 3.94006E+07 6.40408E+08
 -1       345-1.64600E+10-1.09674E+09 5.25727E+08-3.92299E+09 4.32036E+07 3.48100E+08
 -1       346-2.97951E+10-1.75444E+09 1.35582E+09-1.89849E+09-4.67648E+07 1.72716E+08
 -1       347-3.47798E+10-2.17890E+09 1.23001E+09 4.94722E+08-7.67299E+07 7.32348E+07
 -1       348-3.06651E+10-1.92596E+09 1.05813E+09 2.80910E+09-7.75676E+07-1.69442E+07
 -1       349-1.89985E+10-1.19962E+09 6.47462E+08 4.52960E+09-4.76824E+07-8.16519E+07
 -1       350-2.60782E+09-1.61120E+08 1.24152E+08 5.29140E+09 7.76824E+05-1.16609E+08
 -1       351 1.47412E+10 9.40861E+08-4.17497E+08 4.92780E+09 5.48991E+07-1.17219E+08
 -1       352 2.91651E+10 1.85812E+09-8.63163E+08 3.51377E+09 1.00764E+08-8.50439E+07
 -1       353 3.74625E+10 2.38577E+09-1.11991E+09 1.35033E+09 1.27127E+08-2.86370E+07
 -1       354 3.77876E+10 2.40613E+09-1.13347E+09-1.09913E+09 1.27453E+08 3.81495E+07
 -1       355 3.00353E+10 1.91249E+09-9.01521E+08-3.30860E+09 1.01190E+08 9.94482E+07
 -1       356 1.58566E+10 1.00996E+09-4.74318E+08-4.80301E+09 5.37296E+07 1.40907E+08
 -1       357-1.70198E+09-1.07531E+08 5.59025E+07-5.26097E+09-4.82740E+06 1.52738E+08
 -1       358-1.88575E+10-1.19921E+09 5.74782E+08-4.58435E+09-6.18973E+07 1.31694E+08
 -1       359-3.19072E+10-2.02943E+09 9.70463E+08-2.91962E+09-1.05141E+08 8.15910E+07
 -1       360-3.80262E+10-2.41848E+09 1.15769E+09-6.26582E+08-1.25121E+08 1.22771E+07
 -1       361-3.58750E+10-2.28125E+09 1.09618E+09 1.79885E+09-1.17297E+08-6.26971E+07
 -1       362-2.58841E+10-1.64537E+09 7.99416E+08 3.83106E+09-8.29264E+07-1.29119E+08
 -1       363-1.01540E+10-6.44704E+08 3.32040E+08 5.02753E+09-2.86119E+07-1.75012E+08
 -1       364 8.01060E+09 5.10847E+08-2.03128E+08 5.12406E+09 3.53721E+07-1.92508E+08
 -1       365 2.48341E+10 1.58309E+09-6.85614E+08 4.09299E+09 9.77935E+07-1.78117E+08
 -1       366 3.69167E+10 2.36119E+09-1.00061E+09 2.15316E+09 1.48811E+08-1.32461E+08
 -1       367 4.20139E+10 2.71320E+09-1.06149E+09-2.70289E+08 1.83487E+08-5.99982E+07
 -1       368 3.95883E+10 2.62072E+09-8.25546E+08-2.62739E+09 1.98661E+08 2.70863E+07
 -1       369 3.09804E+10 2.18810E+09-3.29455E+08-4.35153E+09 2.02688E+08 6.45450E+07
 -1       370 1.91828E+10 1.56080E+09 3.41882E+08-5.04838E+09 1.54491E+08-4.20831E+07
 -1       371 8.47660E+09 1.10687E+09 9.11804E+08-4.66628E+09 2.32841E+08-6.69586E+08
 -1       372 2.73786E+10-2.25243E+09-6.37555E+09-5.72184E+08-6.16085E+08 1.71013E+09
 -1       373 5.41968E+09 1.89845E+09 2.61536E+09 8.41565E+08 1.78028E+08 1.15202E+09
 -1       374-1.89095E+10-1.39136E+09-2.97507E+08 7.36325E+08 4.76495E+08 6.18127E+08
 -1       375-3.37597E+10-2.47310E+09-4.91416E+07 2.13879E+08 7.43092E+08 3.42115E+08
 -1       376-3.92005E+10-3.06265E+09-3.61325E+08-6.03626E+08 8.00551E+08 7.36182E+07
 -1       377-3.44895E+10-2.71188E+09-3.24981E+08-1.42143E+09 6.90545E+08-1.62610E+08
 -1       378-2.13380E+10-1.67187E+09-1.96045E+08-2.03958E+09 4.27989E+08-3.38173E+08
 -1       379-2.90919E+09-1.81990E+08 2.74790E+07-2.29009E+09 7.33103E+07-4.23714E+08
 -1       380 1.65832E+10 1.40400E+09 2.74051E+08-2.09881E+09-2.97090E+08-4.06046E+08
 -1       381 3.27857E+10 2.72615E+09 4.83418E+08-1.49039E+09-6.03364E+08-2.91501E+08
 -1       382 4.21048E+10 3.48591E+09 6.02836E+08-5.83767E+08-7.79652E+08-1.07080E+08
 -1       383 4.24671E+10 3.51066E+09 6.01748E+08 4.34187E+08-7.87994E+08 1.05353E+08
 -1       384 3.37539E+10 2.78941E+09 4.77125E+08 1.34975E+09-6.26580E+08 2.98247E+08
 -1       385 1.78196E+10 1.47430E+09 2.53880E+08 1.96935E+09-3.30183E+08 4.28686E+08
 -1       386-1.91265E+09-1.52878E+08-2.09017E+07 2.16204E+09 3.73126E+07 4.67556E+08
 -1       387-2.11919E+10-1.74184E+09-2.88323E+08 1.88839E+09 3.96666E+08 4.05664E+08
 -1       388-3.58569E+10-2.94944E+09-4.90448E+08 1.20946E+09 6.70362E+08 2.55518E+08
 -1       389-4.27324E+10-3.51356E+09-5.82695E+08 2.74263E+08 7.99322E+08 4.84064E+07
 -1       390-4.03116E+10-3.30917E+09-5.43167E+08-7.11700E+08 7.55659E+08-1.72590E+08
 -1       391-2.90760E+10-2.37452E+09-3.76890E+08-1.52969E+09 5.48730E+08-3.62035E+08
 -1       392-1.13842E+10-9.01767E+08-1.14138E+08-1.99360E+09 2.23226E+08-4.81827E+08
 -1       393 9.04809E+09 8.05829E+08 1.96612E+08-1.98889E+09-1.50336E+08-5.08789E+08
 -1       394 2.79656E+10 2.40060E+09 4.99073E+08-1.49683E+09-4.90596E+08-4.38372E+08
 -1       395 4.15155E+10 3.56610E+09 7.40508E+08-6.00151E+08-7.23455E+08-2.84828E+08
 -1       396 4.71171E+10 4.08651E+09 8.81455E+08 5.31341E+08-7.97742E+08-7.82830E+07
 -1       397 4.40887E+10 3.90029E+09 9.08438E+08 1.67171E+09-7.01624E+08 1.36117E+08
 -1       398 3.39118E+10 3.11269E+09 8.27343E+08 2.58843E+09-4.61608E+08 2.62040E+08
 -1       399 2.01108E+10 1.99703E+09 7.51153E+08 3.17287E+09-1.87098E+08 1.73837E+08
 -1       400 8.28063E+09 1.41471E+09 9.45366E+08 3.31910E+09 1.61842E+08-5.22221E+08
 -1       401 2.15042E+10 9.21621E+09 9.21622E+09-1.79574E+10 5.90381E+02-4.50025E+09
 -1       402 2.50306E+10 1.07275E+10 1.07275E+10-1.66116E+10-2.32341E+03-4.81723E+09
 -1       403 2.12194E+09-8.52914E+07 4.09653E+07-4.97180E+09-2.48939E+07 8.30286E+07
 -1       404 5.92605E+08-1.41425E+09-6.00654E+08-1.08962E+10 5.23604E+08 2.30977E+09
 -1       405 6.45017E+08-6.91091E+07 1.35505E+09-1.00613E+10 3.39626E+08 1.39654E+09
 -1       406 5.54791E+07 7.02018E+08 1.94152E+09-7.81108E+09 7.39065E+08 1.09038E+09
 -1       407-2.66749E+08 1.17012E+09 2.46290E+09-4.02512E+09 7.85817E+08 6.04404E+08
 -1       408-4.32040E+08 1.34129E+09 2.48231E+09 4.63767E+08 7.86814E+08 1.22223E+08
 -1       409-4.19732E+08 1.17544E+09 2.07750E+09 4.72079E+09 6.42775E+08-3.19902E+08
 -1       410-2.56858E+08 7.27621E+08 1.29608E+09 7.89038E+09 4.03912E+08-6.45676E+08
 -1       411 3.35449E+06 1.06441E+08 2.95243E+08 9.31932E+09 1.05087E+08-8.01683E+08
 -1       412 2.90855E+08-5.48968E+08-7.27154E+08 8.71718E+09-1.94816E+08-7.63930E+08
 -1       413 5.33969E+08-1.09300E+09-1.56461E+09 6.22304E+09-4.38961E+08-5.47856E+08
 -1       414 6.73495E+08-1.40601E+09-2.04727E+09 2.37959E+09-5.79705E+08-2.04865E+08
 -1       415 6.75125E+08-1.41890E+09-2.07780E+09-1.98171E+09-5.90109E+08 1.87842E+08
 -1       416 5.35936E+08-1.12791E+09-1.65359E+09-5.91872E+09-4.69906E+08 5.43432E+08
 -1       417 2.84474E+08-5.95184E+08-8.68316E+08-8.58126E+09-2.46123E+08 7.83766E+08
 -1       418-2.57885E+07 6.47352E+07 1.07600E+08-9.39417E+09 3.24398E+07 8.55969E+08
 -1       419-3.28193E+08 7.09638E+08 1.06334E+09-8.18122E+09 3.05521E+08 7.43612E+08
 -1       420-5.57348E+08 1.20035E+09 1.79297E+09-5.20304E+09 5.14325E+08 4.70073E+08
 -1       421-6.63181E+08 1.43072E+09 2.13997E+09-1.10082E+09 6.14240E+08 9.33099E+07
 -1       422-6.21530E+08 1.35046E+09 2.03137E+09 3.24192E+09 5.84670E+08-3.06874E+08
 -1       423-4.38916E+08 9.75897E+08 1.49441E+09 6.88995E+09 4.33919E+08-6.46356E+08
 -1       424-1.50384E+08 3.86287E+08 6.52214E+08 9.05818E+09 1.98159E+08-8.55276E+08
 -1       425 1.89184E+08-2.93509E+08-3.00690E+08 9.28191E+09-6.54248E+07-8.93671E+08
 -1       426 5.18116E+08-9.20482E+08-1.13872E+09 7.51966E+09-2.90044E+08-7.60769E+08
 -1       427 7.82348E+08-1.36501E+09-1.65468E+09 4.16737E+09-4.14966E+08-4.95709E+08
 -1       428 9.46177E+08-1.54103E+09-1.71176E+09-1.57284E+07-3.99369E+08-1.70423E+08
 -1       429 9.96889E+08-1.42741E+09-1.28926E+09-4.06011E+09-2.48991E+08 1.25980E+08
 -1       430 9.46100E+08-1.07057E+09-5.09264E+08-6.98603E+09 9.57906E+06 2.92555E+08
 -1       431 7.98137E+08-6.18237E+08 3.23933E+08-8.03436E+09 1.85782E+08 2.69053E+08
 -1       432 5.68655E+08-1.85747E+08 8.09906E+08-6.93260E+09 4.06644E+08-1.38879E+08
 -1       433 2.22245E+09 5.04378E+08 2.48022E+08 2.95879E+09-1.08500E+08 1.24948E+08
 -1       434-2.15042E+10-9.21621E+09-9.21622E+09 1.79574E+10 5.90381E+02-4.50025E+09
 -1       435-2.50306E+10-1.07275E+10-1.07275E+10 1.66116E+10-2.32341E+03-4.81723E+09
 -1       436-5.68655E+08 1.85747E+08-8.09906E+08 6.93260E+09 4.06644E+08-1.38879E+08
 -1       437-7.98137E+08 6.18237E+08-3.23933E+08 8.03436E+09 1.85782E+08 2.69053E+08
 -1       438-9.46100E+08 1.07057E+09 5.09264E+08 6.98603E+09 9.57906E+06 2.92555E+08
 -1       439-9.96889E+08 1.42741E+09 1.28926E+09 4.06011E+09-2.48991E+08 1.25980E+08
 -1       440-9.46177E+08 1.54103E+09 1.71176E+09 1.57284E+07-3.99369E+08-1.70423E+08
 -1       441-7.82348E+08 1.36501E+09 1.65468E+09-4.16737E+09-4.14966E+08-4.95709E+08
 -1       442-5.18116E+08 9.20482E+08 1.13872E+09-7.51966E+09-2.90044E+08-7.60769E+08
 -1       443-1.89184E+08 2.93509E+08 3.00690E+08-9.28191E+09-6.54248E+07-8.93671E+08
 -1       444 1.50384E+08-3.86287E+08-6.52214E+08-9.05818E+09 1.98159E+08-8.55276E+08
 -1       445 4.38916E+08-9.75897E+08-1.49441E+09-6.88995E+09 4.33919E+08-6.46356E+08
 -1       446 6.21530E+08-1.35046E+09-2.03137E+09-3.24192E+09 5.84670E+08-3.06874E+08
 -1       447 6.63181E+08-1.43072E+09-2.13997E+09 1.10082E+09 6.14240E+08 9.33099E+07
 -1       448 5.57348E+08-1.20035E+09-1.79297E+09 5.20304E+09 5.14325E+08 4.70073E+08
 -1       449 3.28193E+08-7.09638E+08-1.06334E+09 8.18122E+09 3.05521E+08 7.43612E+08
 -1       450 2.57885E+07-6.47352E+07-1.07600E+08 9.39417E+09 3.24398E+07 8.55969E+08
 -1       451-2.84474E+08 5.95184E+08 8.68316E+08 8.58126E+09-2.46123E+08 7.83766E+08
 -1       452-5.35936E+08 1.12791E+09 1.65359E+09 5.91872E+09-4.69906E+08 5.43432E+08
 -1       453-6.75125E+08 1.41890E+09 2.07780E+09 1.98171E+09-5.90109E+08 1.87842E+08
 -1       454-6.73495E+08 1.40601E+09 2.04727E+09-2.37959E+09-5.79705E+08-2.04865E+08
 -1       455-5.33969E+08 1.09300E+09 1.56461E+09-6.22304E+09-4.38961E+08-5.47856E+08
 -1       456-2.90855E+08 5.48968E+08 7.27154E+08-8.71718E+09-1.94816E+08-7.63930E+08
 -1       457-3.35449E+06-1.06441E+08-2.95243E+08-9.31932E+09 1.05087E+08-8.01683E+08
 -1       458 2.56858E+08-7.27621E+08-1.29608E+09-7.89038E+09 4.03912E+08-6.45676E+08
 -1       459 4.19732E+08-1.17544E+09-2.07750E+09-4.72079E+09 6.42775E+08-3.19902E+08
 -1       460 4.32040E+08-1.34129E+09-2.48231E+09-4.63767E+08 7.86814E+08 1.22223E+08
 -1       461 2.66749E+08-1.17012E+09-2.46290E+09 4.02512E+09 7.85817E+08 6.04404E+08
 -1       462-5.54791E+07-7.02018E+08-1.94152E+09 7.81108E+09 7.39065E+08 1.09038E+09
 -1       463-6.45017E+08 6.91091E+07-1.35505E+09 1.00613E+10 3.39626E+08 1.39654E+09
 -1       464-5.92605E+08 1.41425E+09 6.00654E+08 1.08962E+10 5.23604E+08 2.30977E+09
 -1       465-2.12194E+09 8.52914E+07-4.09653E+07 4.97180E+09-2.48939E+07 8.30286E+07
 -1       466-2.30210E+10 3.86534E+09 8.16672E+09 5.10431E+09 3.30132E+08 1.69923E+09
 -1       467-5.22962E+09-1.48680E+09-2.43485E+09 4.94279E+09 3.94006E+07 6.40408E+08
 -1       468 1.64600E+10 1.09674E+09-5.25727E+08 3.92299E+09 4.32036E+07 3.48100E+08
 -1       469 2.97951E+10 1.75444E+09-1.35582E+09 1.89849E+09-4.67648E+07 1.72716E+08
 -1       470 3.47798E+10 2.17890E+09-1.23001E+09-4.94722E+08-7.67299E+07 7.32348E+07
 -1       471 3.06651E+10 1.92596E+09-1.05813E+09-2.80910E+09-7.75676E+07-1.69442E+07
 -1       472 1.89985E+10 1.19962E+09-6.47462E+08-4.52960E+09-4.76824E+07-8.16519E+07
 -1       473 2.60782E+09 1.61120E+08-1.24152E+08-5.29140E+09 7.76824E+05-1.16609E+08
 -1       474-1.47412E+10-9.40861E+08 4.17497E+08-4.92780E+09 5.48991E+07-1.17219E+08
 -1       475-2.91651E+10-1.85812E+09 8.63163E+08-3.51377E+09 1.00764E+08-8.50439E+07
 -1       476-3.74625E+10-2.38577E+09 1.11991E+09-1.35033E+09 1.27127E+08-2.86370E+07
 -1       477-3.77876E+10-2.40613E+09 1.13347E+09 1.09913E+09 1.27453E+08 3.81495E+07
 -1       478-3.00353E+10-1.91249E+09 9.01521E+08 3.30860E+09 1.01190E+08 9.94482E+07
 -1       479-1.58566E+10-1.00996E+09 4.74318E+08 4.80301E+09 5.37296E+07 1.40907E+08
 -1       480 1.70198E+09 1.07531E+08-5.59025E+07 5.26097E+09-4.82740E+06 1.52738E+08
 -1       481 1.88575E+10 1.19921E+09-5.74782E+08 4.58435E+09-6.18973E+07 1.31694E+08
 -1       482 3.19072E+10 2.02943E+09-9.70463E+08 2.91962E+09-1.05141E+08 8.15910E+07
 -1       483 3.80262E+10 2.41848E+09-1.15769E+09 6.26582E+08-1.25121E+08 1.22771E+07
 -1       484 3.58750E+10 2.28125E+09-1.09618E+09-1.79885E+09-1.17297E+08-6.26971E+07
 -1       485 2.58841E+10 1.64537E+09-7.99416E+08-3.83106E+09-8.29264E+07-1.29119E+08
 -1       486 1.01540E+10 6.44704E+08-3.32040E+08-5.02753E+09-2.86119E+07-1.75012E+08
 -1       487-8.01060E+09-5.10847E+08 2.03128E+08-5.12406E+09 3.53721E+07-1.92508E+08
 -1       488-2.48341E+10-1.58309E+09 6.85614E+08-4.09299E+09 9.77935E+07-1.78117E+08
 -1       489-3.69167E+10-2.36119E+09 1.00061E+09-2.15316E+09 1.48811E+08-1.32461E+08
 -1       490-4.20139E+10-2.71320E+09 1.06149E+09 2.70289E+08 1.83487E+08-5.99982E+07
 -1       491-3.95883E+10-2.62072E+09 8.25546E+08 2.62739E+09 1.98661E+08 2.70863E+07
 -1       492-3.09804E+10-2.18810E+09 3.29455E+08 4.35153E+09 2.02688E+08 6.45450E+07
 -1       493-1.91828E+10-1.56080E+09-3.41882E+08 5.04838E+09 1.54491E+08-4.20831E+07
 -1       494-8.47660E+09-1.10687E+09-9.11804E+08 4.66628E+09 2.32841E+08-6.69586E+08
 -1       495-2.73786E+10 2.25243E+09 6.37555E+09 5.72184E+08-6.16085E+08 1.71013E+09
 -1       496-5.41968E+09-1.89845E+09-2.61536E+09-8.41565E+08 1.78028E+08 1.15202E+09
 -1       497 1.89095E+10 1.39136E+09 2.97507E+08-7.36325E+08 4.76495E+08 6.18127E+08
 -1       498 3.37597E+10 2.47310E+09 4.91416E+07-2.13879E+08 7.43092E+08 3.42115E+08
 -1       499 3.92005E+10 3.06265E+09 3.61325E+08 6.03626E+08 8.00551E+08 7.36182E+07
 -1       500 3.44895E+10 2.71188E+09 3.24981E+08 1.42143E+09 6.90545E+08-1.62610E+08
 -1       501 2.13380E+10 1.67187E+09 1.96045E+08 2.03958E+09 4.27989E+08-3.38173E+08
 -1       502 2.90919E+09 1.81990E+08-2.74790E+07 2.29009E+09 7.33103E+07-4.23714E+08
 -1       503-1.65832E+10-1.40400E+09-2.74051E+08 2.09881E+09-2.97090E+08-4.06046E+08
 -1       504-3.27857E+10-2.72615E+09-4.83418E+08 1.49039E+09-6.03364E+08-2.91501E+08
 -1       505-4.21048E+10-3.48591E+09-6.02836E+08 5.83767E+08-7.79652E+08-1.07080E+08
 -1       506-4.24671E+10-3.51066E+09-6.01748E+08-4.34187E+08-7.87994E+08 1.05353E+08
 -1       507-3.37539E+10-2.78941E+09-4.77125E+08-1.34975E+09-6.26580E+08 2.98247E+08
 -1       508-1.78196E+10-1.47430E+09-2.53880E+08-1.96935E+09-3.30183E+08 4.28686E+08
 -1       509 1.91265E+09 1.52878E+08 2.09017E+07-2.16204E+09 3.73126E+07 4.67556E+08
 -1       510 2.11919E+10 1.74184E+09 2.88323E+08-1.88839E+09 3.96666E+08 4.05664E+08
 -1       511 3.58569E+10 2.94944E+09 4.90448E+08-1.20946E+09 6.70362E+08 2.55518E+08
 -1       512 4.27324E+10 3.51356E+09 5.82695E+08-2.74263E+08 7.99322E+08 4.84064E+07
 -1       513 4.03116E+10 3.30917E+09 5.43167E+08 7.11700E+08 7.55659E+08-1.72590E+08
 -1       514 2.90760E+10 2.37452E+09 3.76890E+08 1.52969E+09 5.48730E+08-3.62035E+08
 -1       515 1.13842E+10 9.01767E+08 1.14138E+08 1.99360E+09 2.23226E+08-4.81827E+08
 -1       516-9.04809E+09-8.05829E+08-1.96612E+08 1.98889E+09-1.50336E+08-5.08789E+08
 -1       517-2.79656E+10-2.40060E+09-4.99073E+08 1.49683E+09-4.90596E+08-4.38372E+08
 -1       518-4.15155E+10-3.56610E+09-7.40508E+08 6.00151E+08-7.23455E+08-2.84828E+08
 -1       519-4.71171E+10-4.08651E+09-8.81455E+08-5.31341E+08-7.97742E+08-7.82830E+07
 -1       520-4.40887E+10-3.90029E+09-9.08438E+08-1.67171E+09-7.01624E+08 1.36117E+08
 -1       521-3.39118E+10-3.11269E+09-8.27343E+08-2.58843E+09-4.61608E+08 2.62040E+08
 -1       522-2.01108E+10-1.99703E+09-7.51153E+08-3.17287E+09-1.87098E+08 1.73837E+08
 -1       523-8.28063E+09-1.41471E+09-9.45366E+08-3.31910E+09 1.61842E+08-5.22221E+08
 -1       524-2.22245E+09-5.04378E+08-2.48022E+08-2.95879E+09-1.08500E+08 1.24948E+08
 -1       525-1.29788E+09-6.09440E+08-7.33587E+08 2.33942E+09-5.09568E+07 1.03460E+09
 -1       526-2.74649E+07-5.51939E+07-1.56515E+08 1.48050E+09 3.81357E+08 1.29233E+09
 -1       527 6.35426E+08 2.05752E+08 5.04131E+07 9.13125E+08 6.85326E+08 1.08912E+09
 -1       528 1.01014E+09 3.43455E+08 1.34712E+08 5.54002E+08 8.56146E+08 5.07591E+08
 -1       529 1.16863E+09 4.09071E+08 1.94938E+08 3.99628E+07 8.71671E+08-2.67370E+08
 -1       530 1.03813E+09 3.69308E+08 1.92896E+08-4.66685E+08 7.30633E+08-1.04158E+09
 -1       531 6.45612E+08 2.29499E+08 1.19386E+08-8.43484E+08 4.55937E+08-1.62672E+09
 -1       532 8.90158E+07 2.58493E+07-2.85141E+06-1.01534E+09 1.01989E+08-1.88400E+09
 -1       533-5.01126E+08-1.92116E+08-1.39260E+08-9.56415E+08-2.60112E+08-1.74956E+09
 -1       534-9.92176E+08-3.74190E+08-2.55125E+08-6.84075E+08-5.56958E+08-1.24713E+09
 -1       535-1.27490E+09-4.79034E+08-3.21877E+08-2.59620E+08-7.28016E+08-4.81701E+08
 -1       536-1.28622E+09-4.82705E+08-3.22797E+08 2.23664E+08-7.38616E+08 3.83839E+08
 -1       537-1.02245E+09-3.83632E+08-2.56325E+08 6.60401E+08-5.87777E+08 1.16427E+09
 -1       538-5.39787E+08-2.02758E+08-1.36072E+08 9.55672E+08-3.08740E+08 1.69229E+09
 -1       539 5.80115E+07 2.11174E+07 1.23798E+07 1.04529E+09 3.79714E+07 1.85475E+09
 -1       540 6.42142E+08 2.39783E+08 1.57134E+08 9.09489E+08 3.77468E+08 1.61723E+09
 -1       541 1.08656E+09 4.06044E+08 2.66922E+08 5.77152E+08 6.36595E+08 1.03157E+09
 -1       542 1.29513E+09 4.83886E+08 3.17819E+08 1.19457E+08 7.59733E+08 2.24789E+08
 -1       543 1.22233E+09 4.56177E+08 2.98265E+08-3.65555E+08 7.20933E+08-6.28170E+08
 -1       544 8.82773E+08 3.28204E+08 2.11241E+08-7.74322E+08 5.29812E+08-1.34197E+09
 -1       545 3.47726E+08 1.26238E+08 7.30668E+07-1.02040E+09 2.29996E+08-1.76059E+09
 -1       546-2.71006E+08-1.08575E+08-9.09099E+07-1.05361E+09-1.09589E+08-1.79054E+09
 -1       547-8.46312E+08-3.29687E+08-2.52644E+08-8.71865E+08-4.09109E+08-1.42027E+09
 -1       548-1.26496E+09-4.95836E+08-3.87831E+08-5.23303E+08-5.95274E+08-7.21543E+08
 -1       549-1.45254E+09-5.79305E+08-4.78471E+08-9.51049E+07-6.20124E+08 1.67941E+08
 -1       550-1.38342E+09-5.67078E+08-5.06840E+08 3.13106E+08-4.74838E+08 1.07716E+09
 -1       551-1.07206E+09-4.55228E+08-4.45369E+08 6.18220E+08-2.07709E+08 1.84182E+09
 -1       552-6.18236E+08-2.73272E+08-2.92672E+08 6.42993E+08 9.19713E+07 2.34994E+09
 -1       553-2.15977E+08-9.19220E+07-9.04297E+07 3.10536E+08 2.27235E+08 2.54781E+09
 -1       554-9.12584E-05-7.99902E-04 3.54916E-03-4.88431E-03 4.39665E+08 1.12329E+09
 -1       555-1.99370E-03-4.97653E-04 5.73774E-03-2.01663E-03-1.26704E+07 1.42015E+09
 -1       556 9.89194E-04-1.41267E-03 6.00215E-03 2.02583E-03-1.12454E+08 1.13070E+09
 -1       557 7.52613E-03 1.87247E-03 8.37862E-03 3.86135E-03-7.70934E+07 5.28513E+08
 -1       558 1.13842E-02 3.62094E-03 1.16545E-02 2.87435E-03-6.88908E+07-2.60529E+08
 -1       559 1.31494E-02 6.81710E-03 1.59908E-02 6.37509E-05-6.68786E+07-1.05315E+09
 -1       560 1.13400E-02 6.29965E-03 1.37408E-02-1.18646E-03-4.17996E+07-1.65556E+09
 -1       561 1.11673E-02 4.80349E-03 7.89318E-03 1.63851E-03 3.49011E+06-1.92183E+09
 -1       562 9.89839E-03 1.37911E-03-7.88804E-04 4.09232E-04 5.53755E+07-1.78639E+09
 -1       563 4.93000E-03-7.43844E-04-7.03790E-03-2.68878E-03 1.00020E+08-1.27377E+09
 -1       564-4.05177E-03-4.69016E-03-1.35049E-02-1.77403E-03 1.25976E+08-4.91575E+08
 -1       565-1.15018E-02-7.33778E-03-1.85593E-02-1.07403E-03 1.26382E+08 3.93393E+08
 -1       566-1.83501E-02-1.34254E-02-2.77981E-02-2.77071E-03 1.00413E+08 1.19150E+09
 -1       567-2.32650E-02-1.75964E-02-3.90906E-02-3.05073E-03 5.33171E+07 1.73147E+09
 -1       568-2.53689E-02-1.98737E-02-4.28116E-02 1.04077E-03-4.89877E+06 1.89750E+09
 -1       569-2.24895E-02-1.76789E-02-3.60902E-02 4.43145E-03-6.17383E+07 1.65435E+09
 -1       570-1.50605E-02-1.09405E-02-2.27786E-02 4.05779E-03-1.04958E+08 1.05501E+09
 -1       571-8.95523E-03-6.80774E-03-1.33315E-02 8.82804E-04-1.25186E+08 2.29364E+08
 -1       572-4.06793E-03-3.39962E-03-9.84813E-03-1.33087E-03-1.17834E+08-6.43715E+08
 -1       573 3.51576E-04-2.13858E-03-9.05365E-03-1.96081E-03-8.38180E+07-1.37483E+09
 -1       574 5.19055E-03-7.27747E-04-4.96410E-03 1.08410E-04-2.89333E+07-1.80467E+09
 -1       575 1.02299E-02 3.84965E-03 2.98161E-03 1.00857E-03 3.79296E+07-1.83800E+09
 -1       576 1.18765E-02 6.48596E-03 1.03535E-02-1.52292E-03 1.07071E+08-1.46336E+09
 -1       577 8.96873E-03 7.74670E-03 1.57113E-02-4.39198E-03 1.69641E+08-7.53789E+08
 -1       578 4.93047E-03 8.59967E-03 2.08909E-02-1.41751E-03 2.14106E+08 1.52201E+08
 -1       579 5.03172E-03 1.07036E-02 2.88781E-02 2.81084E-03 2.18190E+08 1.08455E+09
 -1       580 8.62402E-03 1.38934E-02 3.49568E-02 1.55250E-03 1.34745E+08 1.87639E+09
 -1       581 1.32882E-02 1.61703E-02 3.87952E-02-1.79468E-03-2.23674E+07 2.40009E+09
 -1       582 1.76655E-02 1.95638E-02 3.93322E-02-1.51363E-03-3.07031E+08 2.64258E+09
 -1       583 1.29788E+09 6.09440E+08 7.33587E+08-2.33942E+09-5.09568E+07 1.03460E+09
 -1       584 2.74649E+07 5.51939E+07 1.56515E+08-1.48050E+09 3.81357E+08 1.29233E+09
 -1       585-6.35426E+08-2.05752E+08-5.04131E+07-9.13125E+08 6.85326E+08 1.08912E+09
 -1       586-1.01014E+09-3.43455E+08-1.34712E+08-5.54002E+08 8.56146E+08 5.07591E+08
 -1       587-1.16863E+09-4.09071E+08-1.94938E+08-3.99628E+07 8.71671E+08-2.67370E+08
 -1       588-1.03813E+09-3.69308E+08-1.92896E+08 4.66685E+08 7.30633E+08-1.04158E+09
 -1       589-6.45612E+08-2.29499E+08-1.19386E+08 8.43484E+08 4.55937E+08-1.62672E+09
 -1       590-8.90158E+07-2.58493E+07 2.85141E+06 1.01534E+09 1.01989E+08-1.88400E+09
 -1       591 5.01126E+08 1.92116E+08 1.39260E+08 9.56415E+08-2.60112E+08-1.74956E+09
 -1       592 9.92176E+08 3.74190E+08 2.55125E+08 6.84075E+08-5.56958E+08-1.24713E+09
 -1       593 1.27490E+09 4.79034E+08 3.21877E+08 2.59620E+08-7.28016E+08-4.81701E+08
 -1       594 1.28622E+09 4.82705E+08 3.22797E+08-2.23664E+08-7.38616E+08 3.83839E+08
 -1       595 1.02245E+09 3.83632E+08 2.56325E+08-6.60401E+08-5.87777E+08 1.16427E+09
 -1       596 5.39787E+08 2.02758E+08 1.36072E+08-9.55672E+08-3.08740E+08 1.69229E+09
 -1       597-5.80115E+07-2.11174E+07-1.23798E+07-1.04529E+09 3.79714E+07 1.85475E+09
 -1       598-6.42142E+08-2.39783E+08-1.57134E+08-9.09489E+08 3.77468E+08 1.61723E+09
 -1       599-1.08656E+09-4.06044E+08-2.66922E+08-5.77152E+08 6.36595E+08 1.03157E+09
 -1       600-1.29513E+09-4.83886E+08-3.17819E+08-1.19457E+08 7.59733E+08 2.24789E+08
 -1       601-1.22233E+09-4.56177E+08-2.98265E+08 3.65555E+08 7.20933E+08-6.28170E+08
 -1       602-8.82773E+08-3.28204E+08-2.11241E+08 7.74322E+08 5.29812E+08-1.34197E+09
 -1       603-3.47726E+08-1.26238E+08-7.30668E+07 1.02040E+09 2.29996E+08-1.76059E+09
 -1       604 2.71006E+08 1.08575E+08 9.09099E+07 1.05361E+09-1.09589E+08-1.79054E+09
 -1       605 8.46312E+08 3.29687E+08 2.52644E+08 8.71865E+08-4.09109E+08-1.42027E+09
 -1       606 1.26496E+09 4.95836E+08 3.87831E+08 5.23303E+08-5.95274E+08-7.21543E+08
 -1       607 1.45254E+09 5.79305E+08 4.78471E+08 9.51049E+07-6.20124E+08 1.67941E+08
 -1       608 1.38342E+09 5.67078E+08 5.06840E+08-3.13106E+08-4.74838E+08 1.07716E+09
 -1       609 1.07206E+09 4.55228E+08 4.45369E+08-6.18220E+08-2.07709E+08 1.84182E+09
 -1       610 6.18236E+08 2.73272E+08 2.92672E+08-6.42993E+08 9.19713E+07 2.34994E+09
 -1       611 2.15977E+08 9.19220E+07 9.04297E+07-3.10536E+08 2.27235E+08 2.54781E+09
 -1       612-1.29788E+09-6.09440E+08-7.33587E+08-2.33942E+09-5.09568E+07-1.03460E+09
 -1       613-2.74649E+07-5.51939E+07-1.56515E+08-1.48050E+09 3.81357E+08-1.29233E+09
 -1       614 6.35426E+08 2.05752E+08 5.04131E+07-9.13125E+08 6.85326E+08-1.08912E+09
 -1       615 1.01014E+09 3.43455E+08 1.34712E+08-5.54002E+08 8.56146E+08-5.07591E+08
 -1       616 1.16863E+09 4.09071E+08 1.94938E+08-3.99628E+07 8.71671E+08 2.67370E+08
 -1       617 1.03813E+09 3.69308E+08 1.92896E+08 4.66685E+08 7.30633E+08 1.04158E+09
 -1       618 6.45612E+08 2.29499E+08 1.19386E+08 8.43484E+08 4.55937E+08 1.62672E+09
 -1       619 8.90158E+07 2.58493E+07-2.85141E+06 1.01534E+09 1.01989E+08 1.88400E+09
 -1       620-5.01126E+08-1.92116E+08-1.39260E+08 9.56415E+08-2.60112E+08 1.74956E+09
 -1       621-9.92176E+08-3.74190E+08-2.55125E+08 6.84075E+08-5.56958E+08 1.24713E+09
 -1       622-1.27490E+09-4.79034E+08-3.21877E+08 2.59620E+08-7.28016E+08 4.81701E+08
 -1       623-1.28622E+09-4.82705E+08-3.22797E+08-2.23664E+08-7.38616E+08-3.83839E+08
 -1       624-1.02245E+09-3.83632E+08-2.56325E+08-6.60401E+08-5.87777E+08-1.16427E+09
 -1       625-5.39787E+08-2.02758E+08-1.36072E+08-9.55672E+08-3.08740E+08-1.69229E+09
 -1       626 5.80115E+07 2.11174E+07 1.23798E+07-1.04529E+09 3.79714E+07-1.85475E+09
 -1       627 6.42142E+08 2.39783E+08 1.57134E+08-9.09489E+08 3.77468E+08-1.61723E+09
 -1       628 1.08656E+09 4.06044E+08 2.66922E+08-5.77152E+08 6.36595E+08-1.03157E+09
 -1       629 1.29513E+09 4.83886E+08 3.17819E+08-1.19457E+08 7.59733E+08-2.24789E+08
 -1       630 1.22233E+09 4.56177E+08 2.98265E+08 3.65555E+08 7.20933E+08 6.28170E+08
 -1       631 8.82773E+08 3.28204E+08 2.11241E+08 7.74322E+08 5.29812E+08 1.34197E+09
 -1       632 3.47726E+08 1.26238E+08 7.30668E+07 1.02040E+09 2.29996E+08 1.76059E+09
 -1       633-2.71006E+08-1.08575E+08-9.09099E+07 1.05361E+09-1.09589E+08 1.79054E+09
 -1       634-8.46312E+08-3.29687E+08-2.52644E+08 8.71865E+08-4.09109E+08 1.42027E+09
 -1       635-1.26496E+09-4.95836E+08-3.87831E+08 5.23303E+08-5.95274E+08 7.21543E+08
 -1       636-1.45254E+09-5.79305E+08-4.78471E+08 9.51049E+07-6.20124E+08-1.67941E+08
 -1       637-1.38342E+09-5.67078E+08-5.06840E+08-3.13106E+08-4.74838E+08-1.07716E+09
 -1       638-1.07206E+09-4.55228E+08-4.45369E+08-6.18220E+08-2.07709E+08-1.84182E+09
 -1       639-6.18236E+08-2.73272E+08-2.92672E+08-6.42993E+08 9.19713E+07-2.34994E+09
 -1       640-2.15977E+08-9.19220E+07-9.04297E+07-3.10536E+08 2.27235E+08-2.54781E+09
 -1       641 6.38898E-04-1.85713E-04 4.88435E-03-4.93136E-03 4.39665E+08-1.12329E+09
 -1       642 5.13253E-03 2.79775E-03 9.61392E-03-2.10570E-03-1.26704E+07-1.42015E+09
 -1       643 6.07939E-03-1.86974E-04 4.94017E-03 1.91036E-03-1.12454E+08-1.13070E+09
 -1       644 3.32035E-03-3.09485E-03-3.95660E-03 3.73095E-03-7.70934E+07-5.28513E+08
 -1       645-2.29869E-03-7.19034E-03-1.07068E-02 2.75882E-03-6.88908E+07 2.60529E+08
 -1       646-4.53307E-03-6.43498E-03-1.04161E-02-1.48639E-05-6.68786E+07 1.05315E+09
 -1       647-3.76389E-03-5.03171E-03-8.92811E-03-1.23794E-03-4.17996E+07 1.65556E+09
 -1       648-1.18095E-03-3.80449E-03-8.50798E-03 1.63173E-03 3.49011E+06 1.92183E+09
 -1       649 3.50095E-04-3.83574E-03-8.60105E-03 4.69469E-04 5.53755E+07 1.78639E+09
 -1       650 4.34992E-03 1.38472E-03 5.68237E-04-2.56220E-03 1.00020E+08 1.27377E+09
 -1       651 7.42297E-03 6.70188E-03 1.31375E-02-1.62356E-03 1.25976E+08 4.91575E+08
 -1       652 1.05651E-02 1.28199E-02 2.64988E-02-9.55656E-04 1.26382E+08-3.93393E+08
 -1       653 1.41709E-02 1.48499E-02 3.38498E-02-2.69028E-03 1.00413E+08-1.19150E+09
 -1       654 1.97762E-02 1.79646E-02 3.64121E-02-3.02790E-03 5.33171E+07-1.73147E+09
 -1       655 2.07099E-02 1.77997E-02 3.67387E-02 1.01662E-03-4.89877E+06-1.89750E+09
 -1       656 1.50449E-02 1.46205E-02 3.40649E-02 4.38002E-03-6.17383E+07-1.65435E+09
 -1       657 7.98000E-03 1.16452E-02 2.93817E-02 3.94975E-03-1.04958E+08-1.05501E+09
 -1       658 2.03097E-03 6.68566E-03 2.05262E-02 7.58722E-04-1.25186E+08-2.29364E+08
 -1       659 6.17806E-04 3.85041E-03 9.81437E-03-1.44690E-03-1.17834E+08 6.43715E+08
 -1       660 2.31462E-03 1.01719E-03-3.75077E-04-2.06763E-03-8.38180E+07 1.37483E+09
 -1       661 2.82957E-03-2.52513E-03-8.59294E-03 6.64931E-05-2.89333E+07 1.80467E+09
 -1       662 4.50263E-04-4.58163E-03-1.53106E-02 1.05024E-03 3.79296E+07 1.83800E+09
 -1       663-2.74646E-03-6.90809E-03-1.95931E-02-1.42993E-03 1.07071E+08 1.46336E+09
 -1       664-4.19717E-03-6.99164E-03-2.02331E-02-4.26295E-03 1.69641E+08 7.53789E+08
 -1       665-6.15653E-03-6.62544E-03-1.89648E-02-1.31056E-03 2.14106E+08-1.52201E+08
 -1       666-1.24856E-02-9.79485E-03-2.19237E-02 2.89205E-03 2.18190E+08-1.08455E+09
 -1       667-1.89946E-02-1.39172E-02-3.01607E-02 1.58510E-03 1.34745E+08-1.87639E+09
 -1       668-2.05050E-02-1.73642E-02-3.91699E-02-1.84798E-03-2.23674E+07-2.40009E+09
 -1       669-1.91643E-02-1.81336E-02-4.94622E-02-1.51114E-03-3.07031E+08-2.64258E+09
 -1       670 1.29788E+09 6.09440E+08 7.33587E+08 2.33942E+09-5.09568E+07-1.03460E+09
 -1       671 2.74649E+07 5.51939E+07 1.56515E+08 1.48050E+09 3.81357E+08-1.29233E+09
 -1       672-6.35426E+08-2.05752E+08-5.04131E+07 9.13125E+08 6.85326E+08-1.08912E+09
 -1       673-1.01014E+09-3.43455E+08-1.34712E+08 5.54002E+08 8.56146E+08-5.07591E+08
 -1       674-1.16863E+09-4.09071E+08-1.94938E+08 3.99628E+07 8.71671E+08 2.67370E+08
 -1       675-1.03813E+09-3.69308E+08-1.92896E+08-4.66685E+08 7.30633E+08 1.04158E+09
 -1       676-6.45612E+08-2.29499E+08-1.19386E+08-8.43484E+08 4.55937E+08 1.62672E+09
 -1       677-8.90158E+07-2.58493E+07 2.85141E+06-1.01534E+09 1.01989E+08 1.88400E+09
 -1       678 5.01126E+08 1.92116E+08 1.39260E+08-9.56415E+08-2.60112E+08 1.74956E+09
 -1       679 9.92176E+08 3.74190E+08 2.55125E+08-6.84075E+08-5.56958E+08 1.24713E+09
 -1       680 1.27490E+09 4.79034E+08 3.21877E+08-2.59620E+08-7.28016E+08 4.81701E+08
 -1       681 1.28622E+09 4.82705E+08 3.22797E+08 2.23664E+08-7.38616E+08-3.83839E+08
 -1       682 1.02245E+09 3.83632E+08 2.56325E+08 6.60401E+08-5.87777E+08-1.16427E+09
 -1       683 5.39787E+08 2.02758E+08 1.36072E+08 9.55672E+08-3.08740E+08-1.69229E+09
 -1       684-5.80115E+07-2.11174E+07-1.23798E+07 1.04529E+09 3.79714E+07-1.85475E+09
 -1       685-6.42142E+08-2.39783E+08-1.57134E+08 9.09489E+08 3.77468E+08-1.61723E+09
 -1       686-1.08656E+09-4.06044E+08-2.66922E+08 5.77152E+08 6.36595E+08-1.03157E+09
 -1       687-1.29513E+09-4.83886E+08-3.17819E+08 1.19457E+08 7.59733E+08-2.24789E+08
 -1       688-1.22233E+09-4.56177E+08-2.98265E+08-3.65555E+08 7.20933E+08 6.28170E+08
 -1       689-8.82773E+08-3.28204E+08-2.11241E+08-7.74322E+08 5.29812E+08 1.34197E+09
 -1       690-3.47726E+08-1.26238E+08-7.30668E+07-1.02040E+09 2.29996E+08 1.76059E+09
 -1       691 2.71006E+08 1.08575E+08 9.09099E+07-1.05361E+09-1.09589E+08 1.79054E+09
 -1       692 8.46312E+08 3.29687E+08 2.52644E+08-8.71865E+08-4.09109E+08 1.42027E+09
 -1       693 1.26496E+09 4.95836E+08 3.87831E+08-5.23303E+08-5.95274E+08 7.21543E+08
 -1       694 1.45254E+09 5.79305E+08 4.78471E+08-9.51049E+07-6.20124E+08-1.67941E+08
 -1       695 1.38342E+09 5.67078E+08 5.06840E+08 3.13106E+08-4.74838E+08-1.07716E+09
 -1       696 1.07206E+09 4.55228E+08 4.45369E+08 6.18220E+08-2.07709E+08-1.84182E+09
 -1       697 6.18236E+08 2.73272E+08 2.92672E+08 6.42993E+08 9.19713E+07-2.34994E+09
 -1       698 2.15977E+08 9.19220E+07 9.04297E+07 3.10536E+08 2.27235E+08-2.54781E+09
 -1       699-1.04067E+10 3.67632E+09 4.08560E+09-8.23524E+09 5.18301E+08-5.06322E+08
 -1       700-3.00652E+09 1.31977E+08-1.38223E+08-8.04763E+09 1.87751E+08-2.76742E+08
 -1       701 8.14877E+09 6.24433E+08 4.14959E+08-6.22319E+09 1.30044E+08-1.70633E+08
 -1       702 1.49021E+10 6.82598E+08 3.73032E+08-3.14663E+09 3.37238E+07-5.33929E+07
 -1       703 1.73594E+10 6.34674E+08 3.20347E+08 4.75738E+08-1.58760E+07 8.13926E+07
 -1       704 1.53219E+10 5.16905E+08 2.55048E+08 3.93317E+09-3.12101E+07 2.08980E+08
 -1       705 9.49204E+09 3.28314E+08 1.64685E+08 6.50411E+09-1.69111E+07 3.05218E+08
 -1       706 1.30736E+09 1.03453E+08 6.69936E+07 7.65697E+09 1.76163E+07 3.45804E+08
 -1       707-7.35446E+09-1.17401E+08-2.42290E+07 7.15268E+09 5.99945E+07 3.18517E+08
 -1       708-1.45547E+10-2.95039E+08-9.56009E+07 5.10427E+09 9.72290E+07 2.26414E+08
 -1       709-1.86963E+10-3.97628E+08-1.36998E+08 1.95460E+09 1.18470E+08 8.75349E+07
 -1       710-1.88588E+10-4.07373E+08-1.42980E+08-1.61700E+09 1.17311E+08-6.91824E+07
 -1       711-1.49898E+10-3.24830E+08-1.14445E+08-4.84038E+09 9.28806E+07-2.10455E+08
 -1       712-7.91349E+09-1.69291E+08-5.87831E+07-7.02037E+09 4.98029E+07-3.06085E+08
 -1       713 8.49598E+08 2.49524E+07 1.13694E+07-7.68665E+09-2.96297E+06-3.35604E+08
 -1       714 9.41148E+09 2.15746E+08 8.06620E+07-6.69527E+09-5.41504E+07-2.92761E+08
 -1       715 1.59242E+10 3.62070E+08 1.34260E+08-4.25970E+09-9.26494E+07-1.86884E+08
 -1       716 1.89778E+10 4.32957E+08 1.61108E+08-9.04917E+08-1.09876E+08-4.08891E+07
 -1       717 1.79040E+10 4.14470E+08 1.56565E+08 2.64566E+09-1.01519E+08 1.13612E+08
 -1       718 1.29180E+10 3.13302E+08 1.23877E+08 5.62588E+09-6.82656E+07 2.42974E+08
 -1       719 5.06891E+09 1.56251E+08 7.41902E+07 7.39201E+09-1.53111E+07 3.18417E+08
 -1       720-3.99247E+09-1.45112E+07 2.49131E+07 7.56199E+09 4.91711E+07 3.21596E+08
 -1       721-1.23800E+10-1.50148E+08-3.94242E+06 6.10007E+09 1.16202E+08 2.47778E+08
 -1       722-1.83966E+10-2.07547E+08 4.36326E+06 3.32988E+09 1.77565E+08 1.06110E+08
 -1       723-2.09277E+10-1.64383E+08 5.44087E+07-1.25652E+08 2.27710E+08-8.10941E+07
 -1       724-1.97136E+10-2.96269E+07 1.35692E+08-3.46598E+09 2.59035E+08-2.76189E+08
 -1       725-1.54833E+10 1.16577E+08 1.87891E+08-5.87428E+09 2.76014E+08-4.41067E+08
 -1       726-9.73320E+09 2.48219E+08 2.16753E+08-6.73445E+09 2.28951E+08-4.44028E+08
 -1       727-4.42439E+09 1.55860E+08 9.67831E+07-5.89295E+09 2.71724E+08-2.47072E+08
 -1       728-1.25892E+10 2.91197E+09 3.20153E+09-4.23466E+09-3.03220E+08-4.87521E+08
 -1       729-3.55923E+09-9.94260E+08-6.41907E+08-2.64157E+09 1.41559E+08-4.92792E+08
 -1       730 8.69541E+09-8.35523E+08 1.40964E+08-1.82966E+09 3.77152E+08-3.01134E+08
 -1       731 1.61031E+10-9.27406E+08 2.50319E+08-1.17645E+09 5.56528E+08-1.27668E+08
 -1       732 1.88044E+10-9.04096E+08 2.92224E+08-6.57645E+08 5.96557E+08 7.63506E+07
 -1       733 1.65969E+10-7.48952E+08 2.57806E+08-2.36053E+08 5.13155E+08 2.68601E+08
 -1       734 1.02629E+10-4.71122E+08 1.56113E+08 6.70447E+07 3.19478E+08 4.12711E+08
 -1       735 1.36052E+09-1.22088E+08 1.52818E+07 2.41386E+08 5.95755E+07 4.75585E+08
 -1       736-8.06723E+09 2.32035E+08-1.33229E+08 2.84669E+08-2.10981E+08 4.40945E+08
 -1       737-1.59069E+10 5.21266E+08-2.56389E+08 2.13865E+08-4.34326E+08 3.14008E+08
 -1       738-2.04154E+10 6.88427E+08-3.26903E+08 6.27493E+07-5.62958E+08 1.20703E+08
 -1       739-2.05865E+10 7.00937E+08-3.28809E+08-1.23410E+08-5.69573E+08-9.80334E+07
 -1       740-1.63618E+10 5.58280E+08-2.61122E+08-2.96011E+08-4.53011E+08-2.95374E+08
 -1       741-8.63944E+09 2.92507E+08-1.38030E+08-4.12155E+08-2.38548E+08-4.28912E+08
 -1       742 9.22254E+08-3.83944E+07 1.41623E+07-4.42780E+08 2.75033E+07-4.69923E+08
 -1       743 1.02636E+10-3.62837E+08 1.62716E+08-3.78053E+08 2.87743E+08-4.09608E+08
 -1       744 1.73681E+10-6.11006E+08 2.75519E+08-2.28749E+08 4.86052E+08-2.60997E+08
 -1       745 2.06970E+10-7.29981E+08 3.27980E+08-2.31541E+07 5.79703E+08-5.61390E+07
 -1       746 1.95196E+10-6.95353E+08 3.08290E+08 2.00027E+08 5.48616E+08 1.60775E+08
 -1       747 1.40684E+10-5.16876E+08 2.19936E+08 4.01392E+08 3.99776E+08 3.42816E+08
 -1       748 5.48483E+09-2.36929E+08 8.10105E+07 5.51160E+08 1.65861E+08 4.50113E+08
 -1       749-4.43279E+09 7.80497E+07-7.94152E+07 6.37662E+08-1.01704E+08 4.57859E+08
 -1       750-1.36258E+10 3.51612E+08-2.27167E+08 6.71514E+08-3.43831E+08 3.60938E+08
 -1       751-2.02323E+10 5.14718E+08-3.29654E+08 6.83726E+08-5.07330E+08 1.74311E+08
 -1       752-2.30093E+10 5.23049E+08-3.63837E+08 7.18167E+08-5.56685E+08-6.88124E+07
 -1       753-2.16394E+10 3.62906E+08-3.24277E+08 8.21764E+08-4.87907E+08-3.17317E+08
 -1       754-1.68592E+10 7.44209E+07-2.37509E+08 1.04430E+09-3.18241E+08-5.18862E+08
 -1       755-1.04123E+10-2.55698E+08-1.38154E+08 1.48476E+09-1.43736E+08-5.32835E+08
 -1       756-4.76047E+09-7.64885E+08-2.80265E+08 2.32018E+09 1.10664E+08-3.11776E+08
 -1       757 1.25892E+10-2.91197E+09-3.20153E+09 4.23466E+09-3.03220E+08-4.87521E+08
 -1       758 3.55923E+09 9.94260E+08 6.41907E+08 2.64157E+09 1.41559E+08-4.92792E+08
 -1       759-8.69541E+09 8.35523E+08-1.40964E+08 1.82966E+09 3.77152E+08-3.01134E+08
 -1       760-1.61031E+10 9.27406E+08-2.50319E+08 1.17645E+09 5.56528E+08-1.27668E+08
 -1       761-1.88044E+10 9.04096E+08-2.92224E+08 6.57645E+08 5.96557E+08 7.63506E+07
 -1       762-1.65969E+10 7.48952E+08-2.57806E+08 2.36053E+08 5.13155E+08 2.68601E+08
 -1       763-1.02629E+10 4.71122E+08-1.56113E+08-6.70447E+07 3.19478E+08 4.12711E+08
 -1       764-1.36052E+09 1.22088E+08-1.52818E+07-2.41386E+08 5.95755E+07 4.75585E+08
 -1       765 8.06723E+09-2.32035E+08 1.33229E+08-2.84669E+08-2.10981E+08 4.40945E+08
 -1       766 1.59069E+10-5.21266E+08 2.56389E+08-2.13865E+08-4.34326E+08 3.14008E+08
 -1       767 2.04154E+10-6.88427E+08 3.26903E+08-6.27493E+07-5.62958E+08 1.20703E+08
 -1       768 2.05865E+10-7.00937E+08 3.28809E+08 1.23410E+08-5.69573E+08-9.80334E+07
 -1       769 1.63618E+10-5.58280E+08 2.61122E+08 2.96011E+08-4.53011E+08-2.95374E+08
 -1       770 8.63944E+09-2.92507E+08 1.38030E+08 4.12155E+08-2.38548E+08-4.28912E+08
 -1       771-9.22254E+08 3.83944E+07-1.41623E+07 4.42780E+08 2.75033E+07-4.69923E+08
 -1       772-1.02636E+10 3.62837E+08-1.62716E+08 3.78053E+08 2.87743E+08-4.09608E+08
 -1       773-1.73681E+10 6.11006E+08-2.75519E+08 2.28749E+08 4.86052E+08-2.60997E+08
 -1       774-2.06970E+10 7.29981E+08-3.27980E+08 2.31541E+07 5.79703E+08-5.61390E+07
 -1       775-1.95196E+10 6.95353E+08-3.08290E+08-2.00027E+08 5.48616E+08 1.60775E+08
 -1       776-1.40684E+10 5.16876E+08-2.19936E+08-4.01392E+08 3.99776E+08 3.42816E+08
 -1       777-5.48483E+09 2.36929E+08-8.10105E+07-5.51160E+08 1.65861E+08 4.50113E+08
 -1       778 4.43279E+09-7.80497E+07 7.94152E+07-6.37662E+08-1.01704E+08 4.57859E+08
 -1       779 1.36258E+10-3.51612E+08 2.27167E+08-6.71514E+08-3.43831E+08 3.60938E+08
 -1       780 2.02323E+10-5.14718E+08 3.29654E+08-6.83726E+08-5.07330E+08 1.74311E+08
 -1       781 2.30093E+10-5.23049E+08 3.63837E+08-7.18167E+08-5.56685E+08-6.88124E+07
 -1       782 2.16394E+10-3.62906E+08 3.24277E+08-8.21764E+08-4.87907E+08-3.17317E+08
 -1       783 1.68592E+10-7.44209E+07 2.37509E+08-1.04430E+09-3.18241E+08-5.18862E+08
 -1       784 1.04123E+10 2.55698E+08 1.38154E+08-1.48476E+09-1.43736E+08-5.32835E+08
 -1       785 4.76047E+09 7.64885E+08 2.80265E+08-2.32018E+09 1.10664E+08-3.11776E+08
 -1       786 1.04067E+10-3.67632E+09-4.08560E+09 8.23524E+09 5.18301E+08-5.06322E+08
 -1       787 3.00652E+09-1.31977E+08 1.38223E+08 8.04763E+09 1.87751E+08-2.76742E+08
 -1       788-8.14877E+09-6.24433E+08-4.14959E+08 6.22319E+09 1.30044E+08-1.70633E+08
 -1       789-1.49021E+10-6.82598E+08-3.73032E+08 3.14663E+09 3.37238E+07-5.33929E+07
 -1       790-1.73594E+10-6.34674E+08-3.20347E+08-4.75738E+08-1.58760E+07 8.13926E+07
 -1       791-1.53219E+10-5.16905E+08-2.55048E+08-3.93317E+09-3.12101E+07 2.08980E+08
 -1       792-9.49204E+09-3.28314E+08-1.64685E+08-6.50411E+09-1.69111E+07 3.05218E+08
 -1       793-1.30736E+09-1.03453E+08-6.69936E+07-7.65697E+09 1.76163E+07 3.45804E+08
 -1       794 7.35446E+09 1.17401E+08 2.42290E+07-7.15268E+09 5.99945E+07 3.18517E+08
 -1       795 1.45547E+10 2.95039E+08 9.56009E+07-5.10427E+09 9.72290E+07 2.26414E+08
 -1       796 1.86963E+10 3.97628E+08 1.36998E+08-1.95460E+09 1.18470E+08 8.75349E+07
 -1       797 1.88588E+10 4.07373E+08 1.42980E+08 1.61700E+09 1.17311E+08-6.91824E+07
 -1       798 1.49898E+10 3.24830E+08 1.14445E+08 4.84038E+09 9.28806E+07-2.10455E+08
 -1       799 7.91349E+09 1.69291E+08 5.87831E+07 7.02037E+09 4.98029E+07-3.06085E+08
 -1       800-8.49598E+08-2.49524E+07-1.13694E+07 7.68665E+09-2.96297E+06-3.35604E+08
 -1       801-9.41148E+09-2.15746E+08-8.06620E+07 6.69527E+09-5.41504E+07-2.92761E+08
 -1       802-1.59242E+10-3.62070E+08-1.34260E+08 4.25970E+09-9.26494E+07-1.86884E+08
 -1       803-1.89778E+10-4.32957E+08-1.61108E+08 9.04917E+08-1.09876E+08-4.08891E+07
 -1       804-1.79040E+10-4.14470E+08-1.56565E+08-2.64566E+09-1.01519E+08 1.13612E+08
 -1       805-1.29180E+10-3.13302E+08-1.23877E+08-5.62588E+09-6.82656E+07 2.42974E+08
 -1       806-5.06891E+09-1.56251E+08-7.41902E+07-7.39201E+09-1.53111E+07 3.18417E+08
 -1       807 3.99247E+09 1.45112E+07-2.49131E+07-7.56199E+09 4.91711E+07 3.21596E+08
 -1       808 1.23800E+10 1.50148E+08 3.94242E+06-6.10007E+09 1.16202E+08 2.47778E+08
 -1       809 1.83966E+10 2.07547E+08-4.36326E+06-3.32988E+09 1.77565E+08 1.06110E+08
 -1       810 2.09277E+10 1.64383E+08-5.44087E+07 1.25652E+08 2.27710E+08-8.10941E+07
 -1       811 1.97136E+10 2.96269E+07-1.35692E+08 3.46598E+09 2.59035E+08-2.76189E+08
 -1       812 1.54833E+10-1.16577E+08-1.87891E+08 5.87428E+09 2.76014E+08-4.41067E+08
 -1       813 9.73320E+09-2.48219E+08-2.16753E+08 6.73445E+09 2.28951E+08-4.44028E+08
 -1       814 4.42439E+09-1.55860E+08-9.67831E+07 5.89295E+09 2.71724E+08-2.47072E+08
 -1       815 1.04067E+10-3.67632E+09-4.08560E+09-8.23524E+09 5.18301E+08 5.06322E+08
 -1       816 3.00652E+09-1.31977E+08 1.38223E+08-8.04763E+09 1.87751E+08 2.76742E+08
 -1       817-8.14877E+09-6.24433E+08-4.14959E+08-6.22319E+09 1.30044E+08 1.70633E+08
 -1       818-1.49021E+10-6.82598E+08-3.73032E+08-3.14663E+09 3.37238E+07 5.33929E+07
 -1       819-1.73594E+10-6.34674E+08-3.20347E+08 4.75738E+08-1.58760E+07-8.13926E+07
 -1       820-1.53219E+10-5.16905E+08-2.55048E+08 3.93317E+09-3.12101E+07-2.08980E+08
 -1       821-9.49204E+09-3.28314E+08-1.64685E+08 6.50411E+09-1.69111E+07-3.05218E+08
 -1       822-1.30736E+09-1.03453E+08-6.69936E+07 7.65697E+09 1.76163E+07-3.45804E+08
 -1       823 7.35446E+09 1.17401E+08 2.42290E+07 7.15268E+09 5.99945E+07-3.18517E+08
 -1       824 1.45547E+10 2.95039E+08 9.56009E+07 5.10427E+09 9.72290E+07-2.26414E+08
 -1       825 1.86963E+10 3.97628E+08 1.36998E+08 1.95460E+09 1.18470E+08-8.75349E+07
 -1       826 1.88588E+10 4.07373E+08 1.42980E+08-1.61700E+09 1.17311E+08 6.91824E+07
 -1       827 1.49898E+10 3.24830E+08 1.14445E+08-4.84038E+09 9.28806E+07 2.10455E+08
 -1       828 7.91349E+09 1.69291E+08 5.87831E+07-7.02037E+09 4.98029E+07 3.06085E+08
 -1       829-8.49598E+08-2.49524E+07-1.13694E+07-7.68665E+09-2.96297E+06 3.35604E+08
 -1       830-9.41148E+09-2.15746E+08-8.06620E+07-6.69527E+09-5.41504E+07 2.92761E+08
 -1       831-1.59242E+10-3.62070E+08-1.34260E+08-4.25970E+09-9.26494E+07 1.86884E+08
 -1       832-1.89778E+10-4.32957E+08-1.61108E+08-9.04917E+08-1.09876E+08 4.08891E+07
 -1       833-1.79040E+10-4.14470E+08-1.56565E+08 2.64566E+09-1.01519E+08-1.13612E+08
 -1       834-1.29180E+10-3.13302E+08-1.23877E+08 5.62588E+09-6.82656E+07-2.42974E+08
 -1       835-5.06891E+09-1.56251E+08-7.41902E+07 7.39201E+09-1.53111E+07-3.18417E+08
 -1       836 3.99247E+09 1.45112E+07-2.49131E+07 7.56199E+09 4.91711E+07-3.21596E+08
 -1       837 1.23800E+10 1.50148E+08 3.94242E+06 6.10007E+09 1.16202E+08-2.47778E+08
 -1       838 1.83966E+10 2.07547E+08-4.36326E+06 3.32988E+09 1.77565E+08-1.06110E+08
 -1       839 2.09277E+10 1.64383E+08-5.44087E+07-1.25652E+08 2.27710E+08 8.10941E+07
 -1       840 1.97136E+10 2.96269E+07-1.35692E+08-3.46598E+09 2.59035E+08 2.76189E+08
 -1       841 1.54833E+10-1.16577E+08-1.87891E+08-5.87428E+09 2.76014E+08 4.41067E+08
 -1       842 9.73320E+09-2.48219E+08-2.16753E+08-6.73445E+09 2.28951E+08 4.44028E+08
 -1       843 4.42439E+09-1.55860E+08-9.67831E+07-5.89295E+09 2.71724E+08 2.47072E+08
 -1       844 1.25892E+10-2.91197E+09-3.20153E+09-4.23466E+09-3.03220E+08 4.87521E+08
 -1       845 3.55923E+09 9.94260E+08 6.41907E+08-2.64157E+09 1.41559E+08 4.92792E+08
 -1       846-8.69541E+09 8.35523E+08-1.40964E+08-1.82966E+09 3.77152E+08 3.01134E+08
 -1       847-1.61031E+10 9.27406E+08-2.50319E+08-1.17645E+09 5.56528E+08 1.27668E+08
 -1       848-1.88044E+10 9.04096E+08-2.92224E+08-6.57645E+08 5.96557E+08-7.63506E+07
 -1       849-1.65969E+10 7.48952E+08-2.57806E+08-2.36053E+08 5.13155E+08-2.68601E+08
 -1       850-1.02629E+10 4.71122E+08-1.56113E+08 6.70447E+07 3.19478E+08-4.12711E+08
 -1       851-1.36052E+09 1.22088E+08-1.52818E+07 2.41386E+08 5.95755E+07-4.75585E+08
 -1       852 8.06723E+09-2.32035E+08 1.33229E+08 2.84669E+08-2.10981E+08-4.40945E+08
 -1       853 1.59069E+10-5.21266E+08 2.56389E+08 2.13865E+08-4.34326E+08-3.14008E+08
 -1       854 2.04154E+10-6.88427E+08 3.26903E+08 6.27493E+07-5.62958E+08-1.20703E+08
 -1       855 2.05865E+10-7.00937E+08 3.28809E+08-1.23410E+08-5.69573E+08 9.80334E+07
 -1       856 1.63618E+10-5.58280E+08 2.61122E+08-2.96011E+08-4.53011E+08 2.95374E+08
 -1       857 8.63944E+09-2.92507E+08 1.38030E+08-4.12155E+08-2.38548E+08 4.28912E+08
 -1       858-9.22254E+08 3.83944E+07-1.41623E+07-4.42780E+08 2.75033E+07 4.69923E+08
 -1       859-1.02636E+10 3.62837E+08-1.62716E+08-3.78053E+08 2.87743E+08 4.09608E+08
 -1       860-1.73681E+10 6.11006E+08-2.75519E+08-2.28749E+08 4.86052E+08 2.60997E+08
 -1       861-2.06970E+10 7.29981E+08-3.27980E+08-2.31541E+07 5.79703E+08 5.61390E+07
 -1       862-1.95196E+10 6.95353E+08-3.08290E+08 2.00027E+08 5.48616E+08-1.60775E+08
 -1       863-1.40684E+10 5.16876E+08-2.19936E+08 4.01392E+08 3.99776E+08-3.42816E+08
 -1       864-5.48483E+09 2.36929E+08-8.10105E+07 5.51160E+08 1.65861E+08-4.50113E+08
 -1       865 4.43279E+09-7.80497E+07 7.94152E+07 6.37662E+08-1.01704E+08-4.57859E+08
 -1       866 1.36258E+10-3.51612E+08 2.27167E+08 6.71514E+08-3.43831E+08-3.60938E+08
 -1       867 2.02323E+10-5.14718E+08 3.29654E+08 6.83726E+08-5.07330E+08-1.74311E+08
 -1       868 2.30093E+10-5.23049E+08 3.63837E+08 7.18167E+08-5.56685E+08 6.88124E+07
 -1       869 2.16394E+10-3.62906E+08 3.24277E+08 8.21764E+08-4.87907E+08 3.17317E+08
 -1       870 1.68592E+10-7.44209E+07 2.37509E+08 1.04430E+09-3.18241E+08 5.18862E+08
 -1       871 1.04123E+10 2.55698E+08 1.38154E+08 1.48476E+09-1.43736E+08 5.32835E+08
 -1       872 4.76047E+09 7.64885E+08 2.80265E+08 2.32018E+09 1.10664E+08 3.11776E+08
 -1       873-4.42439E+09 1.55860E+08 9.67831E+07 5.89295E+09 2.71724E+08 2.47072E+08
 -1       874-9.73320E+09 2.48219E+08 2.16753E+08 6.73445E+09 2.28951E+08 4.44028E+08
 -1       875-1.54833E+10 1.16577E+08 1.87891E+08 5.87428E+09 2.76014E+08 4.41067E+08
 -1       876-1.97136E+10-2.96269E+07 1.35692E+08 3.46598E+09 2.59035E+08 2.76189E+08
 -1       877-2.09277E+10-1.64383E+08 5.44087E+07 1.25652E+08 2.27710E+08 8.10941E+07
 -1       878-1.83966E+10-2.07547E+08 4.36326E+06-3.32988E+09 1.77565E+08-1.06110E+08
 -1       879-1.23800E+10-1.50148E+08-3.94242E+06-6.10007E+09 1.16202E+08-2.47778E+08
 -1       880-3.99247E+09-1.45112E+07 2.49131E+07-7.56199E+09 4.91711E+07-3.21596E+08
 -1       881 5.06891E+09 1.56251E+08 7.41902E+07-7.39201E+09-1.53111E+07-3.18417E+08
 -1       882 1.29180E+10 3.13302E+08 1.23877E+08-5.62588E+09-6.82656E+07-2.42974E+08
 -1       883 1.79040E+10 4.14470E+08 1.56565E+08-2.64566E+09-1.01519E+08-1.13612E+08
 -1       884 1.89778E+10 4.32957E+08 1.61108E+08 9.04917E+08-1.09876E+08 4.08891E+07
 -1       885 1.59242E+10 3.62070E+08 1.34260E+08 4.25970E+09-9.26494E+07 1.86884E+08
 -1       886 9.41148E+09 2.15746E+08 8.06620E+07 6.69527E+09-5.41504E+07 2.92761E+08
 -1       887 8.49598E+08 2.49524E+07 1.13694E+07 7.68665E+09-2.96297E+06 3.35604E+08
 -1       888-7.91349E+09-1.69291E+08-5.87831E+07 7.02037E+09 4.98029E+07 3.06085E+08
 -1       889-1.49898E+10-3.24830E+08-1.14445E+08 4.84038E+09 9.28806E+07 2.10455E+08
 -1       890-1.88588E+10-4.07373E+08-1.42980E+08 1.61700E+09 1.17311E+08 6.91824E+07
 -1       891-1.86963E+10-3.97628E+08-1.36998E+08-1.95460E+09 1.18470E+08-8.75349E+07
 -1       892-1.45547E+10-2.95039E+08-9.56009E+07-5.10427E+09 9.72290E+07-2.26414E+08
 -1       893-7.35446E+09-1.17401E+08-2.42290E+07-7.15268E+09 5.99945E+07-3.18517E+08
 -1       894 1.30736E+09 1.03453E+08 6.69936E+07-7.65697E+09 1.76163E+07-3.45804E+08
 -1       895 9.49204E+09 3.28314E+08 1.64685E+08-6.50411E+09-1.69111E+07-3.05218E+08
 -1       896 1.53219E+10 5.16905E+08 2.55048E+08-3.93317E+09-3.12101E+07-2.08980E+08
 -1       897 1.73594E+10 6.34674E+08 3.20347E+08-4.75738E+08-1.58760E+07-8.13926E+07
 -1       898 1.49021E+10 6.82598E+08 3.73032E+08 3.14663E+09 3.37238E+07 5.33929E+07
 -1       899 8.14877E+09 6.24433E+08 4.14959E+08 6.22319E+09 1.30044E+08 1.70633E+08
 -1       900-3.00652E+09 1.31977E+08-1.38223E+08 8.04763E+09 1.87751E+08 2.76742E+08
 -1       901-1.04067E+10 3.67632E+09 4.08560E+09 8.23524E+09 5.18301E+08 5.06322E+08
 -1       902-1.25892E+10 2.91197E+09 3.20153E+09 4.23466E+09-3.03220E+08 4.87521E+08
 -1       903-3.55923E+09-9.94260E+08-6.41907E+08 2.64157E+09 1.41559E+08 4.92792E+08
 -1       904 8.69541E+09-8.35523E+08 1.40964E+08 1.82966E+09 3.77152E+08 3.01134E+08
 -1       905 1.61031E+10-9.27406E+08 2.50319E+08 1.17645E+09 5.56528E+08 1.27668E+08
 -1       906 1.88044E+10-9.04096E+08 2.92224E+08 6.57645E+08 5.96557E+08-7.63506E+07
 -1       907 1.65969E+10-7.48952E+08 2.57806E+08 2.36053E+08 5.13155E+08-2.68601E+08
 -1       908 1.02629E+10-4.71122E+08 1.56113E+08-6.70447E+07 3.19478E+08-4.12711E+08
 -1       909 1.36052E+09-1.22088E+08 1.52818E+07-2.41386E+08 5.95755E+07-4.75585E+08
 -1       910-8.06723E+09 2.32035E+08-1.33229E+08-2.84669E+08-2.10981E+08-4.40945E+08
 -1       911-1.59069E+10 5.21266E+08-2.56389E+08-2.13865E+08-4.34326E+08-3.14008E+08
 -1       912-2.04154E+10 6.88427E+08-3.26903E+08-6.27493E+07-5.62958E+08-1.20703E+08
 -1       913-2.05865E+10 7.00937E+08-3.28809E+08 1.23410E+08-5.69573E+08 9.80334E+07
 -1       914-1.63618E+10 5.58280E+08-2.61122E+08 2.96011E+08-4.53011E+08 2.95374E+08
 -1       915-8.63944E+09 2.92507E+08-1.38030E+08 4.12155E+08-2.38548E+08 4.28912E+08
 -1       916 9.22254E+08-3.83944E+07 1.41623E+07 4.42780E+08 2.75033E+07 4.69923E+08
 -1       917 1.02636E+10-3.62837E+08 1.62716E+08 3.78053E+08 2.87743E+08 4.09608E+08
 -1       918 1.73681E+10-6.11006E+08 2.75519E+08 2.28749E+08 4.86052E+08 2.60997E+08
 -1       919 2.06970E+10-7.29981E+08 3.27980E+08 2.31541E+07 5.79703E+08 5.61390E+07
 -1       920 1.95196E+10-6.95353E+08 3.08290E+08-2.00027E+08 5.48616E+08-1.60775E+08
 -1       921 1.40684E+10-5.16876E+08 2.19936E+08-4.01392E+08 3.99776E+08-3.42816E+08
 -1       922 5.48483E+09-2.36929E+08 8.10105E+07-5.51160E+08 1.65861E+08-4.50113E+08
 -1       923-4.43279E+09 7.80497E+07-7.94152E+07-6.37662E+08-1.01704E+08-4.57859E+08
 -1       924-1.36258E+10 3.51612E+08-2.27167E+08-6.71514E+08-3.43831E+08-3.60938E+08
 -1       925-2.02323E+10 5.14718E+08-3.29654E+08-6.83726E+08-5.07330E+08-1.74311E+08
 -1       926-2.30093E+10 5.23049E+08-3.63837E+08-7.18167E+08-5.56685E+08 6.88124E+07
 -1       927-2.16394E+10 3.62906E+08-3.24277E+08-8.21764E+08-4.87907E+08 3.17317E+08
 -1       928-1.68592E+10 7.44209E+07-2.37509E+08-1.04430E+09-3.18241E+08 5.18862E+08
 -1       929-1.04123E+10-2.55698E+08-1.38154E+08-1.48476E+09-1.43736E+08 5.32835E+08
 -1       930-4.76047E+09-7.64885E+08-2.80265E+08-2.32018E+09 1.10664E+08 3.11776E+08
 -3
    1PSTEP                        67           1           1          
    1PGM                1.000000E+00                                  
    1PGK                2.743591E+07                                  
    1PHID                         -1                                  
    1PSUBC                         0                                  
    1PMODE                        17                                  
  100CL  117 833.6424446         930                     2   17MODAL      1
 -4  FORC        4    1
 -5  F1          1    2    1    0
 -5  F2          1    2    2    0
 -5  F3          1    2    3    0
 -5  ALL         1    2    0    0    1ALL
 -1         1 1.63546E+07 1.02753E+06-2.74885E+06
 -1         2-1.63546E+07 1.02753E+06 2.74885E+06
 -1         3-2.21946E+04-4.70945E+05 2.30464E+04
 -1         4 2.21946E+04-4.70945E+05-2.30464E+04
 -1         5-1.63546E+07-1.02753E+06-2.74885E+06
 -1         6 1.63546E+07-1.02753E+06 2.74885E+06
 -1         7 2.21946E+04 4.70945E+05 2.30464E+04
 -1         8-2.21946E+04 4.70945E+05-2.30464E+04
 -1         9 3.38999E+05 5.11078E+05 2.84917E+06
 -1        10-1.99201E+04-2.48485E+05 2.09783E+04
 -1        11 5.76774E+06 4.77110E+06 1.27841E+07
 -1        12 1.27720E+07 4.86057E+06-1.31135E+07
 -1        13-8.08058E+04-2.07294E+05 8.52384E+04
 -1        14-8.27363E+04-2.02208E+05 8.52654E+04
 -1        15-3.38999E+05-5.11078E+05 2.84917E+06
 -1        16 1.99201E+04 2.48485E+05 2.09783E+04
 -1        17-1.27720E+07-4.86057E+06-1.31135E+07
 -1        18-5.76774E+06-4.77110E+06 1.27841E+07
 -1        19 8.27363E+04 2.02208E+05 8.52654E+04
 -1        20 8.08058E+04 2.07294E+05 8.52384E+04
 -1        21-1.27720E+07 4.86057E+06 1.31135E+07
 -1        22-5.76774E+06 4.77110E+06-1.27841E+07
 -1        23 8.08058E+04-2.07294E+05-8.52384E+04
 -1        24 8.27363E+04-2.02208E+05-8.52654E+04
 -1        25-3.38999E+05 5.11078E+05-2.84917E+06
 -1        26 1.99201E+04-2.48485E+05-2.09783E+04
 -1        27 3.38999E+05-5.11078E+05-2.84917E+06
 -1        28 5.76774E+06-4.77110E+06-1.27841E+07
 -1        29 1.27720E+07-4.86057E+06 1.31135E+07
 -1        30-1.99201E+04 2.48485E+05-2.09783E+04
 -1        31-8.08058E+04 2.07294E+05-8.52384E+04
 -1        32-8.27363E+04 2.02208E+05-8.52654E+04
 -1        33 1.15766E+04-1.67035E+05-9.16141E+03
 -1        34 1.72505E+04-4.11287E+05-2.30366E+04
 -1        35 1.49806E+04-6.60101E+05-3.72267E+04
 -1        36 6.65246E+03-8.25857E+05-4.65739E+04
 -1        37-4.88752E+03-8.52108E+05-4.79411E+04
 -1        38-1.65358E+04-7.19457E+05-4.03990E+04
 -1        39-2.53669E+04-4.47567E+05-2.51554E+04
 -1        40-2.92097E+04-8.93660E+04-5.18732E+03
 -1        41-2.70639E+04 2.81535E+05 1.54288E+04
 -1        42-1.92813E+04 5.87475E+05 3.24101E+04
 -1        43-7.46846E+03 7.63963E+05 4.22046E+04
 -1        44 5.87403E+03 7.73888E+05 4.27710E+04
 -1        45 1.78998E+04 6.15705E+05 3.40310E+04
 -1        46 2.60368E+04 3.23884E+05 1.78949E+04
 -1        47 2.85459E+04-3.84522E+04-2.14440E+03
 -1        48 2.48990E+04-3.93107E+05-2.17611E+04
 -1        49 1.58954E+04-6.63659E+05-3.67283E+04
 -1        50 3.49230E+03-7.91953E+05-4.38304E+04
 -1        51-9.61486E+03-7.50675E+05-4.15597E+04
 -1        52-2.05691E+04-5.49314E+05-3.04491E+04
 -1        53-2.69623E+04-2.32218E+05-1.29679E+04
 -1        54-2.73451E+04 1.30783E+05 6.99433E+03
 -1        55-2.15261E+04 4.59155E+05 2.49481E+04
 -1        56-1.05906E+04 6.78554E+05 3.67590E+04
 -1        57 3.36640E+03 7.36099E+05 3.95420E+04
 -1        58 1.77429E+04 6.10576E+05 3.23112E+04
 -1        59 3.00684E+04 3.15207E+05 1.62158E+04
 -1        60 3.86574E+04-1.07868E+05-5.77715E+03
 -1        61 4.31220E+04-6.00897E+05-2.99961E+04
 -1        62-1.15766E+04-1.67035E+05 9.16141E+03
 -1        63-1.72505E+04-4.11287E+05 2.30366E+04
 -1        64-1.49806E+04-6.60101E+05 3.72267E+04
 -1        65-6.65246E+03-8.25857E+05 4.65739E+04
 -1        66 4.88752E+03-8.52108E+05 4.79411E+04
 -1        67 1.65358E+04-7.19457E+05 4.03990E+04
 -1        68 2.53669E+04-4.47567E+05 2.51554E+04
 -1        69 2.92097E+04-8.93660E+04 5.18732E+03
 -1        70 2.70639E+04 2.81535E+05-1.54288E+04
 -1        71 1.92813E+04 5.87475E+05-3.24101E+04
 -1        72 7.46846E+03 7.63963E+05-4.22046E+04
 -1        73-5.87403E+03 7.73888E+05-4.27710E+04
 -1        74-1.78998E+04 6.15705E+05-3.40310E+04
 -1        75-2.60368E+04 3.23884E+05-1.78949E+04
 -1        76-2.85459E+04-3.84522E+04 2.14440E+03
 -1        77-2.48990E+04-3.93107E+05 2.17611E+04
 -1        78-1.58954E+04-6.63659E+05 3.67283E+04
 -1        79-3.49230E+03-7.91953E+05 4.38304E+04
 -1        80 9.61486E+03-7.50675E+05 4.15597E+04
 -1        81 2.05691E+04-5.49314E+05 3.04491E+04
 -1        82 2.69623E+04-2.32218E+05 1.29679E+04
 -1        83 2.73451E+04 1.30783E+05-6.99433E+03
 -1        84 2.15261E+04 4.59155E+05-2.49481E+04
 -1        85 1.05906E+04 6.78554E+05-3.67590E+04
 -1        86-3.36640E+03 7.36099E+05-3.95420E+04
 -1        87-1.77429E+04 6.10576E+05-3.23112E+04
 -1        88-3.00684E+04 3.15207E+05-1.62158E+04
 -1        89-3.86574E+04-1.07868E+05 5.77715E+03
 -1        90-4.31220E+04-6.00897E+05 2.99961E+04
 -1        91 1.53995E+07 4.89891E+05-1.00096E+05
 -1        92-2.50944E-05-1.49908E-06-1.02455E+05
 -1        93-1.53995E+07-4.89891E+05-1.00096E+05
 -1        94 1.53995E+07-4.89891E+05 1.00096E+05
 -1        95 2.37060E-05-7.15974E-07 1.02455E+05
 -1        96-1.53995E+07 4.89891E+05 1.00096E+05
 -1        97 1.15766E+04 1.67035E+05 9.16141E+03
 -1        98 1.72505E+04 4.11287E+05 2.30366E+04
 -1        99 1.49806E+04 6.60101E+05 3.72267E+04
 -1       100 6.65246E+03 8.25857E+05 4.65739E+04
 -1       101-4.88752E+03 8.52108E+05 4.79411E+04
 -1       102-1.65358E+04 7.19457E+05 4.03990E+04
 -1       103-2.53669E+04 4.47567E+05 2.51554E+04
 -1       104-2.92097E+04 8.93660E+04 5.18732E+03
 -1       105-2.70639E+04-2.81535E+05-1.54288E+04
 -1       106-1.92813E+04-5.87475E+05-3.24101E+04
 -1       107-7.46846E+03-7.63963E+05-4.22046E+04
 -1       108 5.87403E+03-7.73888E+05-4.27710E+04
 -1       109 1.78998E+04-6.15705E+05-3.40310E+04
 -1       110 2.60368E+04-3.23884E+05-1.78949E+04
 -1       111 2.85459E+04 3.84522E+04 2.14440E+03
 -1       112 2.48990E+04 3.93107E+05 2.17611E+04
 -1       113 1.58954E+04 6.63659E+05 3.67283E+04
 -1       114 3.49230E+03 7.91953E+05 4.38304E+04
 -1       115-9.61486E+03 7.50675E+05 4.15597E+04
 -1       116-2.05691E+04 5.49314E+05 3.04491E+04
 -1       117-2.69623E+04 2.32218E+05 1.29679E+04
 -1       118-2.73451E+04-1.30783E+05-6.99433E+03
 -1       119-2.15261E+04-4.59155E+05-2.49481E+04
 -1       120-1.05906E+04-6.78554E+05-3.67590E+04
 -1       121 3.36640E+03-7.36099E+05-3.95420E+04
 -1       122 1.77429E+04-6.10576E+05-3.23112E+04
 -1       123 3.00684E+04-3.15207E+05-1.62158E+04
 -1       124 3.86574E+04 1.07868E+05 5.77715E+03
 -1       125 4.31220E+04 6.00897E+05 2.99961E+04
 -1       126-2.19427E+03-2.76744E+05 4.19186E+03
 -1       127 2.26151E-07-8.03272E-06 4.27563E+03
 -1       128 2.19427E+03 2.76744E+05 4.19186E+03
 -1       129-1.15766E+04 1.67035E+05-9.16141E+03
 -1       130-1.72505E+04 4.11287E+05-2.30366E+04
 -1       131-1.49806E+04 6.60101E+05-3.72267E+04
 -1       132-6.65246E+03 8.25857E+05-4.65739E+04
 -1       133 4.88752E+03 8.52108E+05-4.79411E+04
 -1       134 1.65358E+04 7.19457E+05-4.03990E+04
 -1       135 2.53669E+04 4.47567E+05-2.51554E+04
 -1       136 2.92097E+04 8.93660E+04-5.18732E+03
 -1       137 2.70639E+04-2.81535E+05 1.54288E+04
 -1       138 1.92813E+04-5.87475E+05 3.24101E+04
 -1       139 7.46846E+03-7.63963E+05 4.22046E+04
 -1       140-5.87403E+03-7.73888E+05 4.27710E+04
 -1       141-1.78998E+04-6.15705E+05 3.40310E+04
 -1       142-2.60368E+04-3.23884E+05 1.78949E+04
 -1       143-2.85459E+04 3.84522E+04-2.14440E+03
 -1       144-2.48990E+04 3.93107E+05-2.17611E+04
 -1       145-1.58954E+04 6.63659E+05-3.67283E+04
 -1       146-3.49230E+03 7.91953E+05-4.38304E+04
 -1       147 9.61486E+03 7.50675E+05-4.15597E+04
 -1       148 2.05691E+04 5.49314E+05-3.04491E+04
 -1       149 2.69623E+04 2.32218E+05-1.29679E+04
 -1       150 2.73451E+04-1.30783E+05 6.99433E+03
 -1       151 2.15261E+04-4.59155E+05 2.49481E+04
 -1       152 1.05906E+04-6.78554E+05 3.67590E+04
 -1       153-3.36640E+03-7.36099E+05 3.95420E+04
 -1       154-1.77429E+04-6.10576E+05 3.23112E+04
 -1       155-3.00684E+04-3.15207E+05 1.62158E+04
 -1       156-3.86574E+04 1.07868E+05-5.77715E+03
 -1       157-4.31220E+04 6.00897E+05-2.99961E+04
 -1       158-2.19427E+03 2.76744E+05-4.19186E+03
 -1       159-4.53263E-07 3.89491E-06-4.27563E+03
 -1       160 2.19427E+03-2.76744E+05-4.19186E+03
 -1       161-9.58985E+03-8.94999E+04 8.25852E+03
 -1       162-1.47121E+04-2.19095E+05 2.11337E+04
 -1       163-1.28873E+04-3.51283E+05 3.42734E+04
 -1       164-5.67530E+03-4.39449E+05 4.29071E+04
 -1       165 4.39648E+03-4.53345E+05 4.41709E+04
 -1       166 1.45886E+04-3.82712E+05 3.72217E+04
 -1       167 2.23218E+04-2.38095E+05 2.31781E+04
 -1       168 2.56828E+04-4.76548E+04 4.78475E+03
 -1       169 2.37890E+04 1.49496E+05-1.42036E+04
 -1       170 1.69471E+04 3.12101E+05-2.98430E+04
 -1       171 6.56709E+03 4.05902E+05-3.88634E+04
 -1       172-5.15537E+03 4.11188E+05-3.93854E+04
 -1       173-1.57205E+04 3.27143E+05-3.13373E+04
 -1       174-2.28693E+04 1.72085E+05-1.64782E+04
 -1       175-2.50744E+04-2.04444E+04 1.97515E+03
 -1       176-2.18721E+04-2.08894E+05 2.00394E+04
 -1       177-1.39649E+04-3.52656E+05 3.38222E+04
 -1       178-3.07194E+03-4.20830E+05 4.03622E+04
 -1       179 8.43866E+03-3.98906E+05 3.82715E+04
 -1       180 1.80571E+04-2.91930E+05 2.80408E+04
 -1       181 2.36674E+04-1.23479E+05 1.19449E+04
 -1       182 2.39958E+04 6.93267E+04-6.43308E+03
 -1       183 1.88717E+04 2.43669E+05-2.29576E+04
 -1       184 9.24475E+03 3.60028E+05-3.38206E+04
 -1       185-3.05272E+03 3.90331E+05-3.63687E+04
 -1       186-1.57481E+04 3.23429E+05-2.97052E+04
 -1       187-2.66915E+04 1.66607E+05-1.49142E+04
 -1       188-3.44247E+04-5.74065E+04 5.22740E+03
 -1       189-3.85923E+04-3.17614E+05 2.73095E+04
 -1       190 2.22582E+06 2.60019E+05 1.42400E+07
 -1       191 1.11381E+07 1.32213E+04-1.46467E+07
 -1       192-1.00100E+05-4.14231E+05 1.05812E+05
 -1       193-4.28060E+04-7.79036E+04 3.35351E+04
 -1       194-6.29141E+04-1.83407E+05 8.74059E+04
 -1       195-5.45344E+04-2.90618E+05 1.42415E+05
 -1       196-2.42997E+04-3.62259E+05 1.78285E+05
 -1       197 1.76902E+04-3.73170E+05 1.83452E+05
 -1       198 6.00648E+04-3.14844E+05 1.54557E+05
 -1       199 9.21921E+04-1.95888E+05 9.62553E+04
 -1       200 1.06179E+05-3.93801E+04 1.99385E+04
 -1       201 9.83880E+04 1.22587E+05-5.88224E+04
 -1       202 7.00971E+04 2.56157E+05-1.23682E+05
 -1       203 2.71492E+04 3.33212E+05-1.61091E+05
 -1       204-2.13623E+04 3.37576E+05-1.63262E+05
 -1       205-6.50873E+04 2.68581E+05-1.29902E+05
 -1       206-9.46729E+04 1.41272E+05-6.83040E+04
 -1       207-1.03795E+05-1.68097E+04 8.19552E+03
 -1       208-9.05336E+04-1.71545E+05 8.30829E+04
 -1       209-5.77950E+04-2.89594E+05 1.40222E+05
 -1       210-1.26948E+04-3.45584E+05 1.67337E+05
 -1       211 3.49663E+04-3.27605E+05 1.58674E+05
 -1       212 7.48012E+04-2.39803E+05 1.16273E+05
 -1       213 9.80551E+04-1.01546E+05 4.95702E+04
 -1       214 9.94606E+04 5.66762E+04-2.65686E+04
 -1       215 7.83218E+04 1.99688E+05-9.49840E+04
 -1       216 3.85844E+04 2.95014E+05-1.39881E+05
 -1       217-1.21398E+04 3.19564E+05-1.50274E+05
 -1       218-6.44050E+04 2.64129E+05-1.22519E+05
 -1       219-1.09254E+05 1.34607E+05-6.13099E+04
 -1       220-1.40552E+05-5.04505E+04 2.15337E+04
 -1       221-1.56906E+05-2.65755E+05 1.11508E+05
 -1       222-4.47292E+04-7.58847E+04 3.40379E+04
 -1       223-6.54880E+04-1.78091E+05 8.74788E+04
 -1       224-5.66454E+04-2.81935E+05 1.42113E+05
 -1       225-2.52549E+04-3.51392E+05 1.77739E+05
 -1       226 1.82198E+04-3.61993E+05 1.82819E+05
 -1       227 6.20465E+04-3.05430E+05 1.53999E+05
 -1       228 9.52586E+04-1.90024E+05 9.59096E+04
 -1       229 1.09715E+05-3.81622E+04 1.98911E+04
 -1       230 1.01663E+05 1.19012E+05-5.85544E+04
 -1       231 7.24295E+04 2.48635E+05-1.23152E+05
 -1       232 2.80513E+04 3.23414E+05-1.60410E+05
 -1       233-2.20753E+04 3.27645E+05-1.62575E+05
 -1       234-6.72557E+04 2.60679E+05-1.29356E+05
 -1       235-9.78258E+04 1.37117E+05-6.80157E+04
 -1       236-1.07251E+05-1.63107E+04 8.16456E+03
 -1       237-9.35475E+04-1.66491E+05 8.27400E+04
 -1       238-5.97180E+04-2.81064E+05 1.39642E+05
 -1       239-1.31152E+04-3.35404E+05 1.66645E+05
 -1       240 3.61336E+04-3.17952E+05 1.58022E+05
 -1       241 7.72947E+04-2.32729E+05 1.15803E+05
 -1       242 1.01320E+05-9.85277E+04 4.93857E+04
 -1       243 1.02767E+05 5.50650E+04-2.64228E+04
 -1       244 8.09168E+04 1.93919E+05-9.45323E+04
 -1       245 3.98559E+04 2.86520E+05-1.39210E+05
 -1       246-1.25276E+04 3.10447E+05-1.49512E+05
 -1       247-6.64292E+04 2.56708E+05-1.21804E+05
 -1       248-1.12532E+05 1.30907E+05-6.07563E+04
 -1       249-1.44458E+05-4.91350E+04 2.18673E+04
 -1       250-1.60859E+05-2.59036E+05 1.11645E+05
 -1       251-1.02554E+05-4.04096E+05 1.05847E+05
 -1       252 3.85923E+04 3.17614E+05 2.73095E+04
 -1       253 3.44247E+04 5.74065E+04 5.22740E+03
 -1       254 2.66915E+04-1.66607E+05-1.49142E+04
 -1       255 1.57481E+04-3.23429E+05-2.97052E+04
 -1       256 3.05272E+03-3.90331E+05-3.63687E+04
 -1       257-9.24475E+03-3.60028E+05-3.38206E+04
 -1       258-1.88717E+04-2.43669E+05-2.29576E+04
 -1       259-2.39958E+04-6.93267E+04-6.43308E+03
 -1       260-2.36674E+04 1.23479E+05 1.19449E+04
 -1       261-1.80571E+04 2.91930E+05 2.80408E+04
 -1       262-8.43866E+03 3.98906E+05 3.82715E+04
 -1       263 3.07194E+03 4.20830E+05 4.03622E+04
 -1       264 1.39649E+04 3.52656E+05 3.38222E+04
 -1       265 2.18721E+04 2.08894E+05 2.00394E+04
 -1       266 2.50744E+04 2.04444E+04 1.97515E+03
 -1       267 2.28693E+04-1.72085E+05-1.64782E+04
 -1       268 1.57205E+04-3.27143E+05-3.13373E+04
 -1       269 5.15537E+03-4.11188E+05-3.93854E+04
 -1       270-6.56709E+03-4.05902E+05-3.88634E+04
 -1       271-1.69471E+04-3.12101E+05-2.98430E+04
 -1       272-2.37890E+04-1.49496E+05-1.42036E+04
 -1       273-2.56828E+04 4.76548E+04 4.78475E+03
 -1       274-2.23218E+04 2.38095E+05 2.31781E+04
 -1       275-1.45886E+04 3.82712E+05 3.72217E+04
 -1       276-4.39648E+03 4.53345E+05 4.41709E+04
 -1       277 5.67530E+03 4.39449E+05 4.29071E+04
 -1       278 1.28873E+04 3.51283E+05 3.42734E+04
 -1       279 1.47121E+04 2.19095E+05 2.11337E+04
 -1       280 9.58985E+03 8.94999E+04 8.25852E+03
 -1       281-1.11381E+07-1.32213E+04-1.46467E+07
 -1       282-2.22582E+06-2.60019E+05 1.42400E+07
 -1       283 4.47292E+04 7.58847E+04 3.40379E+04
 -1       284 6.54880E+04 1.78091E+05 8.74788E+04
 -1       285 5.66454E+04 2.81935E+05 1.42113E+05
 -1       286 2.52549E+04 3.51392E+05 1.77739E+05
 -1       287-1.82198E+04 3.61993E+05 1.82819E+05
 -1       288-6.20465E+04 3.05430E+05 1.53999E+05
 -1       289-9.52586E+04 1.90024E+05 9.59096E+04
 -1       290-1.09715E+05 3.81622E+04 1.98911E+04
 -1       291-1.01663E+05-1.19012E+05-5.85544E+04
 -1       292-7.24295E+04-2.48635E+05-1.23152E+05
 -1       293-2.80513E+04-3.23414E+05-1.60410E+05
 -1       294 2.20753E+04-3.27645E+05-1.62575E+05
 -1       295 6.72557E+04-2.60679E+05-1.29356E+05
 -1       296 9.78258E+04-1.37117E+05-6.80157E+04
 -1       297 1.07251E+05 1.63107E+04 8.16456E+03
 -1       298 9.35475E+04 1.66491E+05 8.27400E+04
 -1       299 5.97180E+04 2.81064E+05 1.39642E+05
 -1       300 1.31152E+04 3.35404E+05 1.66645E+05
 -1       301-3.61336E+04 3.17952E+05 1.58022E+05
 -1       302-7.72947E+04 2.32729E+05 1.15803E+05
 -1       303-1.01320E+05 9.85277E+04 4.93857E+04
 -1       304-1.02767E+05-5.50650E+04-2.64228E+04
 -1       305-8.09168E+04-1.93919E+05-9.45323E+04
 -1       306-3.98559E+04-2.86520E+05-1.39210E+05
 -1       307 1.25276E+04-3.10447E+05-1.49512E+05
 -1       308 6.64292E+04-2.56708E+05-1.21804E+05
 -1       309 1.12532E+05-1.30907E+05-6.07563E+04
 -1       310 1.44458E+05 4.91350E+04 2.18673E+04
 -1       311 1.60859E+05 2.59036E+05 1.11645E+05
 -1       312 1.02554E+05 4.04096E+05 1.05847E+05
 -1       313 4.28060E+04 7.79036E+04 3.35351E+04
 -1       314 6.29141E+04 1.83407E+05 8.74059E+04
 -1       315 5.45344E+04 2.90618E+05 1.42415E+05
 -1       316 2.42997E+04 3.62259E+05 1.78285E+05
 -1       317-1.76902E+04 3.73170E+05 1.83452E+05
 -1       318-6.00648E+04 3.14844E+05 1.54557E+05
 -1       319-9.21921E+04 1.95888E+05 9.62553E+04
 -1       320-1.06179E+05 3.93801E+04 1.99385E+04
 -1       321-9.83880E+04-1.22587E+05-5.88224E+04
 -1       322-7.00971E+04-2.56157E+05-1.23682E+05
 -1       323-2.71492E+04-3.33212E+05-1.61091E+05
 -1       324 2.13623E+04-3.37576E+05-1.63262E+05
 -1       325 6.50873E+04-2.68581E+05-1.29902E+05
 -1       326 9.46729E+04-1.41272E+05-6.83040E+04
 -1       327 1.03795E+05 1.68097E+04 8.19552E+03
 -1       328 9.05336E+04 1.71545E+05 8.30829E+04
 -1       329 5.77950E+04 2.89594E+05 1.40222E+05
 -1       330 1.26948E+04 3.45584E+05 1.67337E+05
 -1       331-3.49663E+04 3.27605E+05 1.58674E+05
 -1       332-7.48012E+04 2.39803E+05 1.16273E+05
 -1       333-9.80551E+04 1.01546E+05 4.95702E+04
 -1       334-9.94606E+04-5.66762E+04-2.65686E+04
 -1       335-7.83218E+04-1.99688E+05-9.49840E+04
 -1       336-3.85844E+04-2.95014E+05-1.39881E+05
 -1       337 1.21398E+04-3.19564E+05-1.50274E+05
 -1       338 6.44050E+04-2.64129E+05-1.22519E+05
 -1       339 1.09254E+05-1.34607E+05-6.13099E+04
 -1       340 1.40552E+05 5.04505E+04 2.15337E+04
 -1       341 1.56906E+05 2.65755E+05 1.11508E+05
 -1       342 1.00100E+05 4.14231E+05 1.05812E+05
 -1       343 4.28060E+04-7.79036E+04-3.35351E+04
 -1       344 6.29141E+04-1.83407E+05-8.74059E+04
 -1       345 5.45344E+04-2.90618E+05-1.42415E+05
 -1       346 2.42997E+04-3.62259E+05-1.78285E+05
 -1       347-1.76902E+04-3.73170E+05-1.83452E+05
 -1       348-6.00648E+04-3.14844E+05-1.54557E+05
 -1       349-9.21921E+04-1.95888E+05-9.62553E+04
 -1       350-1.06179E+05-3.93801E+04-1.99385E+04
 -1       351-9.83880E+04 1.22587E+05 5.88224E+04
 -1       352-7.00971E+04 2.56157E+05 1.23682E+05
 -1       353-2.71492E+04 3.33212E+05 1.61091E+05
 -1       354 2.13623E+04 3.37576E+05 1.63262E+05
 -1       355 6.50873E+04 2.68581E+05 1.29902E+05
 -1       356 9.46729E+04 1.41272E+05 6.83040E+04
 -1       357 1.03795E+05-1.68097E+04-8.19552E+03
 -1       358 9.05336E+04-1.71545E+05-8.30829E+04
 -1       359 5.77950E+04-2.89594E+05-1.40222E+05
 -1       360 1.26948E+04-3.45584E+05-1.67337E+05
 -1       361-3.49663E+04-3.27605E+05-1.58674E+05
 -1       362-7.48012E+04-2.39803E+05-1.16273E+05
 -1       363-9.80551E+04-1.01546E+05-4.95702E+04
 -1       364-9.94606E+04 5.66762E+04 2.65686E+04
 -1       365-7.83218E+04 1.99688E+05 9.49840E+04
 -1       366-3.85844E+04 2.95014E+05 1.39881E+05
 -1       367 1.21398E+04 3.19564E+05 1.50274E+05
 -1       368 6.44050E+04 2.64129E+05 1.22519E+05
 -1       369 1.09254E+05 1.34607E+05 6.13099E+04
 -1       370 1.40552E+05-5.04505E+04-2.15337E+04
 -1       371 1.56906E+05-2.65755E+05-1.11508E+05
 -1       372 4.47292E+04-7.58847E+04-3.40379E+04
 -1       373 6.54880E+04-1.78091E+05-8.74788E+04
 -1       374 5.66454E+04-2.81935E+05-1.42113E+05
 -1       375 2.52549E+04-3.51392E+05-1.77739E+05
 -1       376-1.82198E+04-3.61993E+05-1.82819E+05
 -1       377-6.20465E+04-3.05430E+05-1.53999E+05
 -1       378-9.52586E+04-1.90024E+05-9.59096E+04
 -1       379-1.09715E+05-3.81622E+04-1.98911E+04
 -1       380-1.01663E+05 1.19012E+05 5.85544E+04
 -1       381-7.24295E+04 2.48635E+05 1.23152E+05
 -1       382-2.80513E+04 3.23414E+05 1.60410E+05
 -1       383 2.20753E+04 3.27645E+05 1.62575E+05
 -1       384 6.72557E+04 2.60679E+05 1.29356E+05
 -1       385 9.78258E+04 1.37117E+05 6.80157E+04
 -1       386 1.07251E+05-1.63107E+04-8.16456E+03
 -1       387 9.35475E+04-1.66491E+05-8.27400E+04
 -1       388 5.97180E+04-2.81064E+05-1.39642E+05
 -1       389 1.31152E+04-3.35404E+05-1.66645E+05
 -1       390-3.61336E+04-3.17952E+05-1.58022E+05
 -1       391-7.72947E+04-2.32729E+05-1.15803E+05
 -1       392-1.01320E+05-9.85277E+04-4.93857E+04
 -1       393-1.02767E+05 5.50650E+04 2.64228E+04
 -1       394-8.09168E+04 1.93919E+05 9.45323E+04
 -1       395-3.98559E+04 2.86520E+05 1.39210E+05
 -1       396 1.25276E+04 3.10447E+05 1.49512E+05
 -1       397 6.64292E+04 2.56708E+05 1.21804E+05
 -1       398 1.12532E+05 1.30907E+05 6.07563E+04
 -1       399 1.44458E+05-4.91350E+04-2.18673E+04
 -1       400 1.60859E+05-2.59036E+05-1.11645E+05
 -1       401-2.22582E+06 2.60019E+05-1.42400E+07
 -1       402-1.11381E+07 1.32213E+04 1.46467E+07
 -1       403 1.00100E+05-4.14231E+05-1.05812E+05
 -1       404 9.58985E+03-8.94999E+04-8.25852E+03
 -1       405 1.47121E+04-2.19095E+05-2.11337E+04
 -1       406 1.28873E+04-3.51283E+05-3.42734E+04
 -1       407 5.67530E+03-4.39449E+05-4.29071E+04
 -1       408-4.39648E+03-4.53345E+05-4.41709E+04
 -1       409-1.45886E+04-3.82712E+05-3.72217E+04
 -1       410-2.23218E+04-2.38095E+05-2.31781E+04
 -1       411-2.56828E+04-4.76548E+04-4.78475E+03
 -1       412-2.37890E+04 1.49496E+05 1.42036E+04
 -1       413-1.69471E+04 3.12101E+05 2.98430E+04
 -1       414-6.56709E+03 4.05902E+05 3.88634E+04
 -1       415 5.15537E+03 4.11188E+05 3.93854E+04
 -1       416 1.57205E+04 3.27143E+05 3.13373E+04
 -1       417 2.28693E+04 1.72085E+05 1.64782E+04
 -1       418 2.50744E+04-2.04444E+04-1.97515E+03
 -1       419 2.18721E+04-2.08894E+05-2.00394E+04
 -1       420 1.39649E+04-3.52656E+05-3.38222E+04
 -1       421 3.07194E+03-4.20830E+05-4.03622E+04
 -1       422-8.43866E+03-3.98906E+05-3.82715E+04
 -1       423-1.80571E+04-2.91930E+05-2.80408E+04
 -1       424-2.36674E+04-1.23479E+05-1.19449E+04
 -1       425-2.39958E+04 6.93267E+04 6.43308E+03
 -1       426-1.88717E+04 2.43669E+05 2.29576E+04
 -1       427-9.24475E+03 3.60028E+05 3.38206E+04
 -1       428 3.05272E+03 3.90331E+05 3.63687E+04
 -1       429 1.57481E+04 3.23429E+05 2.97052E+04
 -1       430 2.66915E+04 1.66607E+05 1.49142E+04
 -1       431 3.44247E+04-5.74065E+04-5.22740E+03
 -1       432 3.85923E+04-3.17614E+05-2.73095E+04
 -1       433 1.02554E+05-4.04096E+05-1.05847E+05
 -1       434 2.22582E+06-2.60019E+05-1.42400E+07
 -1       435 1.11381E+07-1.32213E+04 1.46467E+07
 -1       436-3.85923E+04 3.17614E+05-2.73095E+04
 -1       437-3.44247E+04 5.74065E+04-5.22740E+03
 -1       438-2.66915E+04-1.66607E+05 1.49142E+04
 -1       439-1.57481E+04-3.23429E+05 2.97052E+04
 -1       440-3.05272E+03-3.90331E+05 3.63687E+04
 -1       441 9.24475E+03-3.60028E+05 3.38206E+04
 -1       442 1.88717E+04-2.43669E+05 2.29576E+04
 -1       443 2.39958E+04-6.93267E+04 6.43308E+03
 -1       444 2.36674E+04 1.23479E+05-1.19449E+04
 -1       445 1.80571E+04 2.91930E+05-2.80408E+04
 -1       446 8.43866E+03 3.98906E+05-3.82715E+04
 -1       447-3.07194E+03 4.20830E+05-4.03622E+04
 -1       448-1.39649E+04 3.52656E+05-3.38222E+04
 -1       449-2.18721E+04 2.08894E+05-2.00394E+04
 -1       450-2.50744E+04 2.04444E+04-1.97515E+03
 -1       451-2.28693E+04-1.72085E+05 1.64782E+04
 -1       452-1.57205E+04-3.27143E+05 3.13373E+04
 -1       453-5.15537E+03-4.11188E+05 3.93854E+04
 -1       454 6.56709E+03-4.05902E+05 3.88634E+04
 -1       455 1.69471E+04-3.12101E+05 2.98430E+04
 -1       456 2.37890E+04-1.49496E+05 1.42036E+04
 -1       457 2.56828E+04 4.76548E+04-4.78475E+03
 -1       458 2.23218E+04 2.38095E+05-2.31781E+04
 -1       459 1.45886E+04 3.82712E+05-3.72217E+04
 -1       460 4.39648E+03 4.53345E+05-4.41709E+04
 -1       461-5.67530E+03 4.39449E+05-4.29071E+04
 -1       462-1.28873E+04 3.51283E+05-3.42734E+04
 -1       463-1.47121E+04 2.19095E+05-2.11337E+04
 -1       464-9.58985E+03 8.94999E+04-8.25852E+03
 -1       465-1.00100E+05 4.14231E+05-1.05812E+05
 -1       466-4.28060E+04 7.79036E+04-3.35351E+04
 -1       467-6.29141E+04 1.83407E+05-8.74059E+04
 -1       468-5.45344E+04 2.90618E+05-1.42415E+05
 -1       469-2.42997E+04 3.62259E+05-1.78285E+05
 -1       470 1.76902E+04 3.73170E+05-1.83452E+05
 -1       471 6.00648E+04 3.14844E+05-1.54557E+05
 -1       472 9.21921E+04 1.95888E+05-9.62553E+04
 -1       473 1.06179E+05 3.93801E+04-1.99385E+04
 -1       474 9.83880E+04-1.22587E+05 5.88224E+04
 -1       475 7.00971E+04-2.56157E+05 1.23682E+05
 -1       476 2.71492E+04-3.33212E+05 1.61091E+05
 -1       477-2.13623E+04-3.37576E+05 1.63262E+05
 -1       478-6.50873E+04-2.68581E+05 1.29902E+05
 -1       479-9.46729E+04-1.41272E+05 6.83040E+04
 -1       480-1.03795E+05 1.68097E+04-8.19552E+03
 -1       481-9.05336E+04 1.71545E+05-8.30829E+04
 -1       482-5.77950E+04 2.89594E+05-1.40222E+05
 -1       483-1.26948E+04 3.45584E+05-1.67337E+05
 -1       484 3.49663E+04 3.27605E+05-1.58674E+05
 -1       485 7.48012E+04 2.39803E+05-1.16273E+05
 -1       486 9.80551E+04 1.01546E+05-4.95702E+04
 -1       487 9.94606E+04-5.66762E+04 2.65686E+04
 -1       488 7.83218E+04-1.99688E+05 9.49840E+04
 -1       489 3.85844E+04-2.95014E+05 1.39881E+05
 -1       490-1.21398E+04-3.19564E+05 1.50274E+05
 -1       491-6.44050E+04-2.64129E+05 1.22519E+05
 -1       492-1.09254E+05-1.34607E+05 6.13099E+04
 -1       493-1.40552E+05 5.04505E+04-2.15337E+04
 -1       494-1.56906E+05 2.65755E+05-1.11508E+05
 -1       495-4.47292E+04 7.58847E+04-3.40379E+04
 -1       496-6.54880E+04 1.78091E+05-8.74788E+04
 -1       497-5.66454E+04 2.81935E+05-1.42113E+05
 -1       498-2.52549E+04 3.51392E+05-1.77739E+05
 -1       499 1.82198E+04 3.61993E+05-1.82819E+05
 -1       500 6.20465E+04 3.05430E+05-1.53999E+05
 -1       501 9.52586E+04 1.90024E+05-9.59096E+04
 -1       502 1.09715E+05 3.81622E+04-1.98911E+04
 -1       503 1.01663E+05-1.19012E+05 5.85544E+04
 -1       504 7.24295E+04-2.48635E+05 1.23152E+05
 -1       505 2.80513E+04-3.23414E+05 1.60410E+05
 -1       506-2.20753E+04-3.27645E+05 1.62575E+05
 -1       507-6.72557E+04-2.60679E+05 1.29356E+05
 -1       508-9.78258E+04-1.37117E+05 6.80157E+04
 -1       509-1.07251E+05 1.63107E+04-8.16456E+03
 -1       510-9.35475E+04 1.66491E+05-8.27400E+04
 -1       511-5.97180E+04 2.81064E+05-1.39642E+05
 -1       512-1.31152E+04 3.35404E+05-1.66645E+05
 -1       513 3.61336E+04 3.17952E+05-1.58022E+05
 -1       514 7.72947E+04 2.32729E+05-1.15803E+05
 -1       515 1.01320E+05 9.85277E+04-4.93857E+04
 -1       516 1.02767E+05-5.50650E+04 2.64228E+04
 -1       517 8.09168E+04-1.93919E+05 9.45323E+04
 -1       518 3.98559E+04-2.86520E+05 1.39210E+05
 -1       519-1.25276E+04-3.10447E+05 1.49512E+05
 -1       520-6.64292E+04-2.56708E+05 1.21804E+05
 -1       521-1.12532E+05-1.30907E+05 6.07563E+04
 -1       522-1.44458E+05 4.91350E+04-2.18673E+04
 -1       523-1.60859E+05 2.59036E+05-1.11645E+05
 -1       524-1.02554E+05 4.04096E+05-1.05847E+05
 -1       525-1.69146E+03-9.27689E+04 1.49802E+03
 -1       526-2.21238E+03-2.35848E+05 3.67239E+03
 -1       527-1.81267E+03-3.80373E+05 5.89228E+03
 -1       528-8.42475E+02-4.75692E+05 7.37356E+03
 -1       529 4.38215E+02-4.90804E+05 7.60873E+03
 -1       530 1.72067E+03-4.14517E+05 6.42431E+03
 -1       531 2.69323E+03-2.57841E+05 3.99649E+03
 -1       532 3.12187E+03-5.12228E+04 7.98076E+02
 -1       533 2.90018E+03 1.62821E+05-2.51369E+03
 -1       534 2.06759E+03 3.39414E+05-5.24538E+03
 -1       535 7.98370E+02 4.41288E+05-6.82122E+03
 -1       536-6.37151E+02 4.46992E+05-6.90985E+03
 -1       537-1.93162E+03 3.55623E+05-5.49747E+03
 -1       538-2.80743E+03 1.87082E+05-2.89188E+03
 -1       539-3.07684E+03-2.21792E+04 3.43337E+02
 -1       540-2.68275E+03-2.27000E+05 3.50996E+03
 -1       541-1.71110E+03-3.83247E+05 5.92565E+03
 -1       542-3.72586E+02-4.57330E+05 7.07115E+03
 -1       543 1.04266E+03-4.33472E+05 6.70259E+03
 -1       544 2.22734E+03-3.17138E+05 4.90470E+03
 -1       545 2.92287E+03-1.33916E+05 2.07347E+03
 -1       546 2.97440E+03 7.59114E+04-1.16759E+03
 -1       547 2.36296E+03 2.65891E+05-4.09933E+03
 -1       548 1.20701E+03 3.93126E+05-6.05794E+03
 -1       549-2.67430E+02 4.27008E+05-6.57140E+03
 -1       550-1.78065E+03 3.54937E+05-5.45073E+03
 -1       551-3.06140E+03 1.83899E+05-2.81469E+03
 -1       552-3.91237E+03-6.23593E+04 9.60468E+02
 -1       553-4.30032E+03-3.51393E+05 5.35774E+03
 -1       554 2.51532E-07 4.46284E-06 1.39470E+03
 -1       555-9.35618E-07 2.87180E-06 3.60209E+03
 -1       556-1.15725E-06 3.02276E-06 5.82197E+03
 -1       557 4.26899E-07 4.18146E-07 7.27773E+03
 -1       558 8.19255E-07 4.17251E-06 7.50803E+03
 -1       559 2.13255E-07 8.57358E-07 6.34174E+03
 -1       560 3.14738E-07 5.69736E-07 3.94455E+03
 -1       561-7.92003E-07 1.93178E-07 7.81729E+02
 -1       562 1.71241E-07 2.33273E-06-2.49551E+03
 -1       563 2.12756E-06-2.89991E-06-5.19960E+03
 -1       564 2.21675E-06-6.31401E-06-6.75959E+03
 -1       565 2.35859E-06-7.07883E-06-6.84676E+03
 -1       566 7.21800E-07-1.42432E-06-5.44720E+03
 -1       567 6.87251E-07 1.43099E-06-2.86568E+03
 -1       568 1.53974E-06 6.71044E-06 3.39512E+02
 -1       569-3.67278E-07 8.90755E-06 3.47667E+03
 -1       570-7.68349E-07 2.94173E-06 5.86980E+03
 -1       571-5.67125E-07-8.98939E-09 7.00444E+03
 -1       572-1.44931E-06-2.94239E-06 6.63889E+03
 -1       573-1.20077E-06-1.97647E-06 4.85676E+03
 -1       574-5.19146E-07 6.11712E-06 2.04975E+03
 -1       575-4.47796E-07 1.68732E-06-1.16548E+03
 -1       576 6.40312E-07-3.02726E-06-4.07786E+03
 -1       577 1.36580E-06-3.98602E-06-6.03068E+03
 -1       578 1.03647E-06-3.79118E-06-6.55444E+03
 -1       579 2.94644E-07-3.71057E-06-5.45327E+03
 -1       580-7.89333E-07-2.27584E-06-2.82887E+03
 -1       581-2.90817E-07-2.22722E-06 9.59675E+02
 -1       582-6.05627E-07-5.67742E-06 5.42325E+03
 -1       583 1.69146E+03 9.27689E+04 1.49802E+03
 -1       584 2.21238E+03 2.35848E+05 3.67239E+03
 -1       585 1.81267E+03 3.80373E+05 5.89228E+03
 -1       586 8.42475E+02 4.75692E+05 7.37356E+03
 -1       587-4.38215E+02 4.90804E+05 7.60873E+03
 -1       588-1.72067E+03 4.14517E+05 6.42431E+03
 -1       589-2.69323E+03 2.57841E+05 3.99649E+03
 -1       590-3.12187E+03 5.12228E+04 7.98076E+02
 -1       591-2.90018E+03-1.62821E+05-2.51369E+03
 -1       592-2.06759E+03-3.39414E+05-5.24538E+03
 -1       593-7.98370E+02-4.41288E+05-6.82122E+03
 -1       594 6.37151E+02-4.46992E+05-6.90985E+03
 -1       595 1.93162E+03-3.55623E+05-5.49747E+03
 -1       596 2.80743E+03-1.87082E+05-2.89188E+03
 -1       597 3.07684E+03 2.21792E+04 3.43337E+02
 -1       598 2.68275E+03 2.27000E+05 3.50996E+03
 -1       599 1.71110E+03 3.83247E+05 5.92565E+03
 -1       600 3.72586E+02 4.57330E+05 7.07115E+03
 -1       601-1.04266E+03 4.33472E+05 6.70259E+03
 -1       602-2.22734E+03 3.17138E+05 4.90470E+03
 -1       603-2.92287E+03 1.33916E+05 2.07347E+03
 -1       604-2.97440E+03-7.59114E+04-1.16759E+03
 -1       605-2.36296E+03-2.65891E+05-4.09933E+03
 -1       606-1.20701E+03-3.93126E+05-6.05794E+03
 -1       607 2.67430E+02-4.27008E+05-6.57140E+03
 -1       608 1.78065E+03-3.54937E+05-5.45073E+03
 -1       609 3.06140E+03-1.83899E+05-2.81469E+03
 -1       610 3.91237E+03 6.23593E+04 9.60468E+02
 -1       611 4.30032E+03 3.51393E+05 5.35774E+03
 -1       612-1.69146E+03 9.27689E+04-1.49802E+03
 -1       613-2.21238E+03 2.35848E+05-3.67239E+03
 -1       614-1.81267E+03 3.80373E+05-5.89228E+03
 -1       615-8.42475E+02 4.75692E+05-7.37356E+03
 -1       616 4.38215E+02 4.90804E+05-7.60873E+03
 -1       617 1.72067E+03 4.14517E+05-6.42431E+03
 -1       618 2.69323E+03 2.57841E+05-3.99649E+03
 -1       619 3.12187E+03 5.12228E+04-7.98076E+02
 -1       620 2.90018E+03-1.62821E+05 2.51369E+03
 -1       621 2.06759E+03-3.39414E+05 5.24538E+03
 -1       622 7.98370E+02-4.41288E+05 6.82122E+03
 -1       623-6.37151E+02-4.46992E+05 6.90985E+03
 -1       624-1.93162E+03-3.55623E+05 5.49747E+03
 -1       625-2.80743E+03-1.87082E+05 2.89188E+03
 -1       626-3.07684E+03 2.21792E+04-3.43337E+02
 -1       627-2.68275E+03 2.27000E+05-3.50996E+03
 -1       628-1.71110E+03 3.83247E+05-5.92565E+03
 -1       629-3.72586E+02 4.57330E+05-7.07115E+03
 -1       630 1.04266E+03 4.33472E+05-6.70259E+03
 -1       631 2.22734E+03 3.17138E+05-4.90470E+03
 -1       632 2.92287E+03 1.33916E+05-2.07347E+03
 -1       633 2.97440E+03-7.59114E+04 1.16759E+03
 -1       634 2.36296E+03-2.65891E+05 4.09933E+03
 -1       635 1.20701E+03-3.93126E+05 6.05794E+03
 -1       636-2.67430E+02-4.27008E+05 6.57140E+03
 -1       637-1.78065E+03-3.54937E+05 5.45073E+03
 -1       638-3.06140E+03-1.83899E+05 2.81469E+03
 -1       639-3.91237E+03 6.23593E+04-9.60468E+02
 -1       640-4.30032E+03 3.51393E+05-5.35774E+03
 -1       641 2.40763E-07-3.32438E-06-1.39470E+03
 -1       642-5.64707E-07-3.23194E-07-3.60209E+03
 -1       643-5.07253E-07-1.42489E-06-5.82197E+03
 -1       644 6.66793E-07-1.84497E-06-7.27773E+03
 -1       645 1.06169E-06-6.99578E-06-7.50803E+03
 -1       646 1.37344E-06-3.06260E-06-6.34174E+03
 -1       647 4.71809E-07 4.36734E-07-3.94455E+03
 -1       648 4.37747E-07 7.52670E-07-7.81729E+02
 -1       649 9.00123E-07-5.17989E-06 2.49551E+03
 -1       650 4.17853E-07 3.25904E-06 5.19960E+03
 -1       651 1.06508E-06 8.84968E-06 6.75959E+03
 -1       652 6.21212E-07 9.09376E-06 6.84676E+03
 -1       653 2.70089E-07 2.98419E-06 5.44720E+03
 -1       654 6.74772E-08 4.10006E-06 2.86568E+03
 -1       655 3.19615E-07 7.26754E-07-3.39512E+02
 -1       656 1.04020E-06-2.38602E-06-3.47667E+03
 -1       657 8.83201E-07 1.74810E-06-5.86980E+03
 -1       658 2.19317E-07 7.66700E-07-7.00444E+03
 -1       659-1.23800E-08 3.55499E-06-6.63889E+03
 -1       660-1.24158E-06 2.89261E-06-4.85676E+03
 -1       661-3.18796E-07-4.91499E-06-2.04975E+03
 -1       662 5.16575E-07-5.05087E-06 1.16548E+03
 -1       663 1.01221E-06-1.26912E-06 4.07786E+03
 -1       664 1.18571E-06 2.83778E-07 6.03068E+03
 -1       665 1.40539E-06 4.64928E-06 6.55444E+03
 -1       666 1.33022E-06 1.02388E-06 5.45327E+03
 -1       667-4.58029E-07-2.50928E-06 2.82887E+03
 -1       668-3.03471E-06-4.68071E-06-9.59675E+02
 -1       669-1.98765E-06 6.48732E-07-5.42325E+03
 -1       670 1.69146E+03-9.27689E+04-1.49802E+03
 -1       671 2.21238E+03-2.35848E+05-3.67239E+03
 -1       672 1.81267E+03-3.80373E+05-5.89228E+03
 -1       673 8.42475E+02-4.75692E+05-7.37356E+03
 -1       674-4.38215E+02-4.90804E+05-7.60873E+03
 -1       675-1.72067E+03-4.14517E+05-6.42431E+03
 -1       676-2.69323E+03-2.57841E+05-3.99649E+03
 -1       677-3.12187E+03-5.12228E+04-7.98076E+02
 -1       678-2.90018E+03 1.62821E+05 2.51369E+03
 -1       679-2.06759E+03 3.39414E+05 5.24538E+03
 -1       680-7.98370E+02 4.41288E+05 6.82122E+03
 -1       681 6.37151E+02 4.46992E+05 6.90985E+03
 -1       682 1.93162E+03 3.55623E+05 5.49747E+03
 -1       683 2.80743E+03 1.87082E+05 2.89188E+03
 -1       684 3.07684E+03-2.21792E+04-3.43337E+02
 -1       685 2.68275E+03-2.27000E+05-3.50996E+03
 -1       686 1.71110E+03-3.83247E+05-5.92565E+03
 -1       687 3.72586E+02-4.57330E+05-7.07115E+03
 -1       688-1.04266E+03-4.33472E+05-6.70259E+03
 -1       689-2.22734E+03-3.17138E+05-4.90470E+03
 -1       690-2.92287E+03-1.33916E+05-2.07347E+03
 -1       691-2.97440E+03 7.59114E+04 1.16759E+03
 -1       692-2.36296E+03 2.65891E+05 4.09933E+03
 -1       693-1.20701E+03 3.93126E+05 6.05794E+03
 -1       694 2.67430E+02 4.27008E+05 6.57140E+03
 -1       695 1.78065E+03 3.54937E+05 5.45073E+03
 -1       696 3.06140E+03 1.83899E+05 2.81469E+03
 -1       697 3.91237E+03-6.23593E+04-9.60468E+02
 -1       698 4.30032E+03-3.51393E+05-5.35774E+03
 -1       699-4.93480E+04-1.51739E+05 4.16283E+04
 -1       700-7.48158E+04-3.65844E+05 1.07761E+05
 -1       701-6.53481E+04-5.83749E+05 1.75297E+05
 -1       702-2.88640E+04-7.29205E+05 2.19444E+05
 -1       703 2.20548E+04-7.51820E+05 2.25838E+05
 -1       704 7.35451E+04-6.34532E+05 1.90280E+05
 -1       705 1.12604E+05-3.94772E+05 1.18498E+05
 -1       706 1.29586E+05-7.91580E+04 2.45196E+04
 -1       707 1.20041E+05 2.47531E+05-7.24781E+04
 -1       708 8.55178E+04 5.16961E+05-1.52360E+05
 -1       709 3.31349E+04 6.72389E+05-1.98433E+05
 -1       710-2.60247E+04 6.81165E+05-2.01105E+05
 -1       711-7.93444E+04 5.41941E+05-1.60011E+05
 -1       712-1.15423E+05 2.85067E+05-8.41372E+04
 -1       713-1.26550E+05-3.38887E+04 1.00921E+04
 -1       714-1.10387E+05-3.46089E+05 1.02335E+05
 -1       715-7.04772E+04-5.84261E+05 1.72716E+05
 -1       716-1.54984E+04-6.97214E+05 2.06114E+05
 -1       717 4.25988E+04-6.60912E+05 1.95442E+05
 -1       718 9.11476E+04-4.83717E+05 1.43210E+05
 -1       719 1.19470E+05-2.04695E+05 6.10388E+04
 -1       720 1.21139E+05 1.14645E+05-3.27649E+04
 -1       721 9.52956E+04 4.03355E+05-1.17071E+05
 -1       722 4.67370E+04 5.95942E+05-1.72426E+05
 -1       723-1.52795E+04 6.45866E+05-1.85295E+05
 -1       724-7.92718E+04 5.34617E+05-1.51159E+05
 -1       725-1.34370E+05 2.74204E+05-7.57184E+04
 -1       726-1.73184E+05-9.77880E+04 2.65765E+04
 -1       727-1.93981E+05-5.30120E+05 1.38066E+05
 -1       728-5.17738E+04-1.47691E+05 4.22069E+04
 -1       729-7.80441E+04-3.55362E+05 1.07863E+05
 -1       730-6.79993E+04-5.66685E+05 1.74947E+05
 -1       731-3.00674E+04-7.07857E+05 2.18806E+05
 -1       732 2.27174E+04-7.29862E+05 2.25096E+05
 -1       733 7.60331E+04-6.16035E+05 1.89625E+05
 -1       734 1.16456E+05-3.83252E+05 1.18093E+05
 -1       735 1.34028E+05-7.67673E+04 2.44643E+04
 -1       736 1.24156E+05 2.40502E+05-7.21632E+04
 -1       737 8.84484E+04 5.02174E+05-1.51738E+05
 -1       738 3.42683E+04 6.53128E+05-1.97633E+05
 -1       739-2.69208E+04 6.61644E+05-2.00298E+05
 -1       740-8.20695E+04 5.26409E+05-1.59370E+05
 -1       741-1.19385E+05 2.76900E+05-8.37987E+04
 -1       742-1.30893E+05-3.29082E+04 1.00558E+04
 -1       743-1.14174E+05-3.36154E+05 1.01933E+05
 -1       744-7.28939E+04-5.67494E+05 1.72035E+05
 -1       745-1.60266E+04-6.77205E+05 2.05302E+05
 -1       746 4.40660E+04-6.41938E+05 1.94677E+05
 -1       747 9.42816E+04-4.69812E+05 1.42658E+05
 -1       748 1.23575E+05-1.98764E+05 6.08225E+04
 -1       749 1.25295E+05 1.11475E+05-3.25933E+04
 -1       750 9.85593E+04 3.92009E+05-1.16540E+05
 -1       751 4.83386E+04 5.79235E+05-1.71638E+05
 -1       752-1.57625E+04 6.27926E+05-1.84399E+05
 -1       753-8.18125E+04 5.20005E+05-1.50317E+05
 -1       754-1.38492E+05 2.66914E+05-7.50639E+04
 -1       755-1.78104E+05-9.51848E+04 2.69776E+04
 -1       756-1.98986E+05-5.16794E+05 1.38238E+05
 -1       757 5.17738E+04 1.47691E+05 4.22069E+04
 -1       758 7.80441E+04 3.55362E+05 1.07863E+05
 -1       759 6.79993E+04 5.66685E+05 1.74947E+05
 -1       760 3.00674E+04 7.07857E+05 2.18806E+05
 -1       761-2.27174E+04 7.29862E+05 2.25096E+05
 -1       762-7.60331E+04 6.16035E+05 1.89625E+05
 -1       763-1.16456E+05 3.83252E+05 1.18093E+05
 -1       764-1.34028E+05 7.67673E+04 2.44643E+04
 -1       765-1.24156E+05-2.40502E+05-7.21632E+04
 -1       766-8.84484E+04-5.02174E+05-1.51738E+05
 -1       767-3.42683E+04-6.53128E+05-1.97633E+05
 -1       768 2.69208E+04-6.61644E+05-2.00298E+05
 -1       769 8.20695E+04-5.26409E+05-1.59370E+05
 -1       770 1.19385E+05-2.76900E+05-8.37987E+04
 -1       771 1.30893E+05 3.29082E+04 1.00558E+04
 -1       772 1.14174E+05 3.36154E+05 1.01933E+05
 -1       773 7.28939E+04 5.67494E+05 1.72035E+05
 -1       774 1.60266E+04 6.77205E+05 2.05302E+05
 -1       775-4.40660E+04 6.41938E+05 1.94677E+05
 -1       776-9.42816E+04 4.69812E+05 1.42658E+05
 -1       777-1.23575E+05 1.98764E+05 6.08225E+04
 -1       778-1.25295E+05-1.11475E+05-3.25933E+04
 -1       779-9.85593E+04-3.92009E+05-1.16540E+05
 -1       780-4.83386E+04-5.79235E+05-1.71638E+05
 -1       781 1.57625E+04-6.27926E+05-1.84399E+05
 -1       782 8.18125E+04-5.20005E+05-1.50317E+05
 -1       783 1.38492E+05-2.66914E+05-7.50639E+04
 -1       784 1.78104E+05 9.51848E+04 2.69776E+04
 -1       785 1.98986E+05 5.16794E+05 1.38238E+05
 -1       786 4.93480E+04 1.51739E+05 4.16283E+04
 -1       787 7.48158E+04 3.65844E+05 1.07761E+05
 -1       788 6.53481E+04 5.83749E+05 1.75297E+05
 -1       789 2.88640E+04 7.29205E+05 2.19444E+05
 -1       790-2.20548E+04 7.51820E+05 2.25838E+05
 -1       791-7.35451E+04 6.34532E+05 1.90280E+05
 -1       792-1.12604E+05 3.94772E+05 1.18498E+05
 -1       793-1.29586E+05 7.91580E+04 2.45196E+04
 -1       794-1.20041E+05-2.47531E+05-7.24781E+04
 -1       795-8.55178E+04-5.16961E+05-1.52360E+05
 -1       796-3.31349E+04-6.72389E+05-1.98433E+05
 -1       797 2.60247E+04-6.81165E+05-2.01105E+05
 -1       798 7.93444E+04-5.41941E+05-1.60011E+05
 -1       799 1.15423E+05-2.85067E+05-8.41372E+04
 -1       800 1.26550E+05 3.38887E+04 1.00921E+04
 -1       801 1.10387E+05 3.46089E+05 1.02335E+05
 -1       802 7.04772E+04 5.84261E+05 1.72716E+05
 -1       803 1.54984E+04 6.97214E+05 2.06114E+05
 -1       804-4.25988E+04 6.60912E+05 1.95442E+05
 -1       805-9.11476E+04 4.83717E+05 1.43210E+05
 -1       806-1.19470E+05 2.04695E+05 6.10388E+04
 -1       807-1.21139E+05-1.14645E+05-3.27649E+04
 -1       808-9.52956E+04-4.03355E+05-1.17071E+05
 -1       809-4.67370E+04-5.95942E+05-1.72426E+05
 -1       810 1.52795E+04-6.45866E+05-1.85295E+05
 -1       811 7.92718E+04-5.34617E+05-1.51159E+05
 -1       812 1.34370E+05-2.74204E+05-7.57184E+04
 -1       813 1.73184E+05 9.77880E+04 2.65765E+04
 -1       814 1.93981E+05 5.30120E+05 1.38066E+05
 -1       815 4.93480E+04-1.51739E+05-4.16283E+04
 -1       816 7.48158E+04-3.65844E+05-1.07761E+05
 -1       817 6.53481E+04-5.83749E+05-1.75297E+05
 -1       818 2.88640E+04-7.29205E+05-2.19444E+05
 -1       819-2.20548E+04-7.51820E+05-2.25838E+05
 -1       820-7.35451E+04-6.34532E+05-1.90280E+05
 -1       821-1.12604E+05-3.94772E+05-1.18498E+05
 -1       822-1.29586E+05-7.91580E+04-2.45196E+04
 -1       823-1.20041E+05 2.47531E+05 7.24781E+04
 -1       824-8.55178E+04 5.16961E+05 1.52360E+05
 -1       825-3.31349E+04 6.72389E+05 1.98433E+05
 -1       826 2.60247E+04 6.81165E+05 2.01105E+05
 -1       827 7.93444E+04 5.41941E+05 1.60011E+05
 -1       828 1.15423E+05 2.85067E+05 8.41372E+04
 -1       829 1.26550E+05-3.38887E+04-1.00921E+04
 -1       830 1.10387E+05-3.46089E+05-1.02335E+05
 -1       831 7.04772E+04-5.84261E+05-1.72716E+05
 -1       832 1.54984E+04-6.97214E+05-2.06114E+05
 -1       833-4.25988E+04-6.60912E+05-1.95442E+05
 -1       834-9.11476E+04-4.83717E+05-1.43210E+05
 -1       835-1.19470E+05-2.04695E+05-6.10388E+04
 -1       836-1.21139E+05 1.14645E+05 3.27649E+04
 -1       837-9.52956E+04 4.03355E+05 1.17071E+05
 -1       838-4.67370E+04 5.95942E+05 1.72426E+05
 -1       839 1.52795E+04 6.45866E+05 1.85295E+05
 -1       840 7.92718E+04 5.34617E+05 1.51159E+05
 -1       841 1.34370E+05 2.74204E+05 7.57184E+04
 -1       842 1.73184E+05-9.77880E+04-2.65765E+04
 -1       843 1.93981E+05-5.30120E+05-1.38066E+05
 -1       844 5.17738E+04-1.47691E+05-4.22069E+04
 -1       845 7.80441E+04-3.55362E+05-1.07863E+05
 -1       846 6.79993E+04-5.66685E+05-1.74947E+05
 -1       847 3.00674E+04-7.07857E+05-2.18806E+05
 -1       848-2.27174E+04-7.29862E+05-2.25096E+05
 -1       849-7.60331E+04-6.16035E+05-1.89625E+05
 -1       850-1.16456E+05-3.83252E+05-1.18093E+05
 -1       851-1.34028E+05-7.67673E+04-2.44643E+04
 -1       852-1.24156E+05 2.40502E+05 7.21632E+04
 -1       853-8.84484E+04 5.02174E+05 1.51738E+05
 -1       854-3.42683E+04 6.53128E+05 1.97633E+05
 -1       855 2.69208E+04 6.61644E+05 2.00298E+05
 -1       856 8.20695E+04 5.26409E+05 1.59370E+05
 -1       857 1.19385E+05 2.76900E+05 8.37987E+04
 -1       858 1.30893E+05-3.29082E+04-1.00558E+04
 -1       859 1.14174E+05-3.36154E+05-1.01933E+05
 -1       860 7.28939E+04-5.67494E+05-1.72035E+05
 -1       861 1.60266E+04-6.77205E+05-2.05302E+05
 -1       862-4.40660E+04-6.41938E+05-1.94677E+05
 -1       863-9.42816E+04-4.69812E+05-1.42658E+05
 -1       864-1.23575E+05-1.98764E+05-6.08225E+04
 -1       865-1.25295E+05 1.11475E+05 3.25933E+04
 -1       866-9.85593E+04 3.92009E+05 1.16540E+05
 -1       867-4.83386E+04 5.79235E+05 1.71638E+05
 -1       868 1.57625E+04 6.27926E+05 1.84399E+05
 -1       869 8.18125E+04 5.20005E+05 1.50317E+05
 -1       870 1.38492E+05 2.66914E+05 7.50639E+04
 -1       871 1.78104E+05-9.51848E+04-2.69776E+04
 -1       872 1.98986E+05-5.16794E+05-1.38238E+05
 -1       873-1.93981E+05 5.30120E+05-1.38066E+05
 -1       874-1.73184E+05 9.77880E+04-2.65765E+04
 -1       875-1.34370E+05-2.74204E+05 7.57184E+04
 -1       876-7.92718E+04-5.34617E+05 1.51159E+05
 -1       877-1.52795E+04-6.45866E+05 1.85295E+05
 -1       878 4.67370E+04-5.95942E+05 1.72426E+05
 -1       879 9.52956E+04-4.03355E+05 1.17071E+05
 -1       880 1.21139E+05-1.14645E+05 3.27649E+04
 -1       881 1.19470E+05 2.04695E+05-6.10388E+04
 -1       882 9.11476E+04 4.83717E+05-1.43210E+05
 -1       883 4.25988E+04 6.60912E+05-1.95442E+05
 -1       884-1.54984E+04 6.97214E+05-2.06114E+05
 -1       885-7.04772E+04 5.84261E+05-1.72716E+05
 -1       886-1.10387E+05 3.46089E+05-1.02335E+05
 -1       887-1.26550E+05 3.38887E+04-1.00921E+04
 -1       888-1.15423E+05-2.85067E+05 8.41372E+04
 -1       889-7.93444E+04-5.41941E+05 1.60011E+05
 -1       890-2.60247E+04-6.81165E+05 2.01105E+05
 -1       891 3.31349E+04-6.72389E+05 1.98433E+05
 -1       892 8.55178E+04-5.16961E+05 1.52360E+05
 -1       893 1.20041E+05-2.47531E+05 7.24781E+04
 -1       894 1.29586E+05 7.91580E+04-2.45196E+04
 -1       895 1.12604E+05 3.94772E+05-1.18498E+05
 -1       896 7.35451E+04 6.34532E+05-1.90280E+05
 -1       897 2.20548E+04 7.51820E+05-2.25838E+05
 -1       898-2.88640E+04 7.29205E+05-2.19444E+05
 -1       899-6.53481E+04 5.83749E+05-1.75297E+05
 -1       900-7.48158E+04 3.65844E+05-1.07761E+05
 -1       901-4.93480E+04 1.51739E+05-4.16283E+04
 -1       902-5.17738E+04 1.47691E+05-4.22069E+04
 -1       903-7.80441E+04 3.55362E+05-1.07863E+05
 -1       904-6.79993E+04 5.66685E+05-1.74947E+05
 -1       905-3.00674E+04 7.07857E+05-2.18806E+05
 -1       906 2.27174E+04 7.29862E+05-2.25096E+05
 -1       907 7.60331E+04 6.16035E+05-1.89625E+05
 -1       908 1.16456E+05 3.83252E+05-1.18093E+05
 -1       909 1.34028E+05 7.67673E+04-2.44643E+04
 -1       910 1.24156E+05-2.40502E+05 7.21632E+04
 -1       911 8.84484E+04-5.02174E+05 1.51738E+05
 -1       912 3.42683E+04-6.53128E+05 1.97633E+05
 -1       913-2.69208E+04-6.61644E+05 2.00298E+05
 -1       914-8.20695E+04-5.26409E+05 1.59370E+05
 -1       915-1.19385E+05-2.76900E+05 8.37987E+04
 -1       916-1.30893E+05 3.29082E+04-1.00558E+04
 -1       917-1.14174E+05 3.36154E+05-1.01933E+05
 -1       918-7.28939E+04 5.67494E+05-1.72035E+05
 -1       919-1.60266E+04 6.77205E+05-2.05302E+05
 -1       920 4.40660E+04 6.41938E+05-1.94677E+05
 -1       921 9.42816E+04 4.69812E+05-1.42658E+05
 -1       922 1.23575E+05 1.98764E+05-6.08225E+04
 -1       923 1.25295E+05-1.11475E+05 3.25933E+04
 -1       924 9.85593E+04-3.92009E+05 1.16540E+05
 -1       925 4.83386E+04-5.79235E+05 1.71638E+05
 -1       926-1.57625E+04-6.27926E+05 1.84399E+05
 -1       927-8.18125E+04-5.20005E+05 1.50317E+05
 -1       928-1.38492E+05-2.66914E+05 7.50639E+04
 -1       929-1.78104E+05 9.51848E+04-2.69776E+04
 -1       930-1.98986E+05 5.16794E+05-1.38238E+05
 -3
    1PSTEP                        68           1           1          
    1PGM                1.000000E+00                                  
    1PGK                2.743591E+07                                  
    1PHID                         -1                                  
    1PSUBC                         0                                  
    1PMODE                        17                                  
  100CL  117 833.6424446         930                     2   17MODAL      1
 -4  ERROR       1    1
 -5  STR(%)      1    1    0    0
 -1         1 7.64673E+01
 -1         2 7.64673E+01
 -1         3 5.90880E+01
 -1         4 5.90880E+01
 -1         5 7.64673E+01
 -1         6 7.64673E+01
 -1         7 5.90880E+01
 -1         8 5.90880E+01
 -1         9 7.64673E+01
 -1        10 5.90880E+01
 -1        11 4.20551E+01
 -1        12 4.20551E+01
 -1        13 4.60190E+01
 -1        14 4.60190E+01
 -1        15 7.64673E+01
 -1        16 5.90880E+01
 -1        17 4.20551E+01
 -1        18 4.20551E+01
 -1        19 4.60190E+01
 -1        20 4.60190E+01
 -1        21 4.20551E+01
 -1        22 4.20551E+01
 -1        23 4.60190E+01
 -1        24 4.60190E+01
 -1        25 7.64673E+01
 -1        26 5.90880E+01
 -1        27 7.64673E+01
 -1        28 4.20551E+01
 -1        29 4.20551E+01
 -1        30 5.90880E+01
 -1        31 4.60190E+01
 -1        32 4.60190E+01
 -1        33 7.64673E+01
 -1        34 6.60521E+01
 -1        35 6.19960E+01
 -1        36 5.86949E+01
 -1        37 5.55703E+01
 -1        38 6.09174E+01
 -1        39 6.09174E+01
 -1        40 5.94461E+01
 -1        41 5.91231E+01
 -1        42 5.91231E+01
 -1        43 5.76007E+01
 -1        44 5.75597E+01
 -1        45 5.80578E+01
 -1        46 5.80578E+01
 -1        47 5.94047E+01
 -1        48 5.95761E+01
 -1        49 5.95761E+01
 -1        50 5.63739E+01
 -1        51 5.90117E+01
 -1        52 5.99891E+01
 -1        53 5.99891E+01
 -1        54 6.60536E+01
 -1        55 6.60536E+01
 -1        56 5.89199E+01
 -1        57 5.30764E+01
 -1        58 6.75005E+01
 -1        59 7.80372E+01
 -1        60 7.80372E+01
 -1        61 6.14212E+01
 -1        62 7.64673E+01
 -1        63 6.60521E+01
 -1        64 6.19960E+01
 -1        65 5.86949E+01
 -1        66 5.55703E+01
 -1        67 6.09174E+01
 -1        68 6.09174E+01
 -1        69 5.94461E+01
 -1        70 5.91231E+01
 -1        71 5.91231E+01
 -1        72 5.76007E+01
 -1        73 5.75597E+01
 -1        74 5.80578E+01
 -1        75 5.80578E+01
 -1        76 5.94047E+01
 -1        77 5.95761E+01
 -1        78 5.95761E+01
 -1        79 5.63739E+01
 -1        80 5.90117E+01
 -1        81 5.99891E+01
 -1        82 5.99891E+01
 -1        83 6.60536E+01
 -1        84 6.60536E+01
 -1        85 5.89199E+01
 -1        86 5.30764E+01
 -1        87 6.75005E+01
 -1        88 7.80372E+01
 -1        89 7.80372E+01
 -1        90 6.14212E+01
 -1        91 6.95100E+01
 -1        92 6.29913E+01
 -1        93 6.95100E+01
 -1        94 6.95100E+01
 -1        95 6.29913E+01
 -1        96 6.95100E+01
 -1        97 7.64673E+01
 -1        98 6.60521E+01
 -1        99 6.19960E+01
 -1       100 5.86949E+01
 -1       101 5.55703E+01
 -1       102 6.09174E+01
 -1       103 6.09174E+01
 -1       104 5.94461E+01
 -1       105 5.91231E+01
 -1       106 5.91231E+01
 -1       107 5.76007E+01
 -1       108 5.75597E+01
 -1       109 5.80578E+01
 -1       110 5.80578E+01
 -1       111 5.94047E+01
 -1       112 5.95761E+01
 -1       113 5.95761E+01
 -1       114 5.63739E+01
 -1       115 5.90117E+01
 -1       116 5.99891E+01
 -1       117 5.99891E+01
 -1       118 6.60536E+01
 -1       119 6.60536E+01
 -1       120 5.89199E+01
 -1       121 5.30764E+01
 -1       122 6.75005E+01
 -1       123 7.80372E+01
 -1       124 7.80372E+01
 -1       125 6.14212E+01
 -1       126 1.99407E+01
 -1       127 1.99407E+01
 -1       128 1.99407E+01
 -1       129 7.64673E+01
 -1       130 6.60521E+01
 -1       131 6.19960E+01
 -1       132 5.86949E+01
 -1       133 5.55703E+01
 -1       134 6.09174E+01
 -1       135 6.09174E+01
 -1       136 5.94461E+01
 -1       137 5.91231E+01
 -1       138 5.91231E+01
 -1       139 5.76007E+01
 -1       140 5.75597E+01
 -1       141 5.80578E+01
 -1       142 5.80578E+01
 -1       143 5.94047E+01
 -1       144 5.95761E+01
 -1       145 5.95761E+01
 -1       146 5.63739E+01
 -1       147 5.90117E+01
 -1       148 5.99891E+01
 -1       149 5.99891E+01
 -1       150 6.60536E+01
 -1       151 6.60536E+01
 -1       152 5.89199E+01
 -1       153 5.30764E+01
 -1       154 6.75005E+01
 -1       155 7.80372E+01
 -1       156 7.80372E+01
 -1       157 6.14212E+01
 -1       158 1.99407E+01
 -1       159 1.99407E+01
 -1       160 1.99407E+01
 -1       161 7.64673E+01
 -1       162 5.24382E+01
 -1       163 5.86949E+01
 -1       164 5.86949E+01
 -1       165 5.55703E+01
 -1       166 6.09174E+01
 -1       167 6.09174E+01
 -1       168 5.94461E+01
 -1       169 5.91231E+01
 -1       170 5.91231E+01
 -1       171 5.76007E+01
 -1       172 5.75597E+01
 -1       173 5.80578E+01
 -1       174 5.80578E+01
 -1       175 5.94047E+01
 -1       176 5.95761E+01
 -1       177 5.95761E+01
 -1       178 5.63739E+01
 -1       179 5.90117E+01
 -1       180 5.99891E+01
 -1       181 5.99891E+01
 -1       182 6.60536E+01
 -1       183 6.60536E+01
 -1       184 5.89199E+01
 -1       185 5.30764E+01
 -1       186 6.75005E+01
 -1       187 7.80372E+01
 -1       188 7.80372E+01
 -1       189 6.14212E+01
 -1       190 4.96602E+01
 -1       191 4.96602E+01
 -1       192 5.90880E+01
 -1       193 4.20551E+01
 -1       194 3.14610E+01
 -1       195 3.14610E+01
 -1       196 2.57012E+01
 -1       197 2.56222E+01
 -1       198 2.56222E+01
 -1       199 3.06326E+01
 -1       200 4.39266E+01
 -1       201 4.39266E+01
 -1       202 2.57047E+01
 -1       203 2.57047E+01
 -1       204 2.56283E+01
 -1       205 2.56283E+01
 -1       206 3.99836E+01
 -1       207 3.99836E+01
 -1       208 3.17589E+01
 -1       209 2.54795E+01
 -1       210 2.54795E+01
 -1       211 2.57314E+01
 -1       212 2.57314E+01
 -1       213 6.76490E+01
 -1       214 6.76490E+01
 -1       215 2.55838E+01
 -1       216 2.55838E+01
 -1       217 2.51428E+01
 -1       218 2.54776E+01
 -1       219 2.54776E+01
 -1       220 3.14447E+01
 -1       221 4.60190E+01
 -1       222 4.20551E+01
 -1       223 3.14610E+01
 -1       224 3.14610E+01
 -1       225 2.57012E+01
 -1       226 2.56222E+01
 -1       227 2.56222E+01
 -1       228 3.06326E+01
 -1       229 4.39266E+01
 -1       230 4.39266E+01
 -1       231 2.57047E+01
 -1       232 2.57047E+01
 -1       233 2.56283E+01
 -1       234 2.56283E+01
 -1       235 3.99836E+01
 -1       236 3.99836E+01
 -1       237 3.17589E+01
 -1       238 2.54795E+01
 -1       239 2.54795E+01
 -1       240 2.57314E+01
 -1       241 2.57314E+01
 -1       242 6.76490E+01
 -1       243 6.76490E+01
 -1       244 2.55838E+01
 -1       245 2.55838E+01
 -1       246 2.51428E+01
 -1       247 2.54776E+01
 -1       248 2.54776E+01
 -1       249 3.14447E+01
 -1       250 4.60190E+01
 -1       251 5.90880E+01
 -1       252 6.14212E+01
 -1       253 7.80372E+01
 -1       254 7.80372E+01
 -1       255 6.75005E+01
 -1       256 5.30764E+01
 -1       257 5.89199E+01
 -1       258 6.60536E+01
 -1       259 6.60536E+01
 -1       260 5.99891E+01
 -1       261 5.99891E+01
 -1       262 5.90117E+01
 -1       263 5.63739E+01
 -1       264 5.95761E+01
 -1       265 5.95761E+01
 -1       266 5.94047E+01
 -1       267 5.80578E+01
 -1       268 5.80578E+01
 -1       269 5.75597E+01
 -1       270 5.76007E+01
 -1       271 5.91231E+01
 -1       272 5.91231E+01
 -1       273 5.94461E+01
 -1       274 6.09174E+01
 -1       275 6.09174E+01
 -1       276 5.55703E+01
 -1       277 5.86949E+01
 -1       278 5.86949E+01
 -1       279 5.24382E+01
 -1       280 7.64673E+01
 -1       281 4.96602E+01
 -1       282 4.96602E+01
 -1       283 4.20551E+01
 -1       284 3.14610E+01
 -1       285 3.14610E+01
 -1       286 2.57012E+01
 -1       287 2.56222E+01
 -1       288 2.56222E+01
 -1       289 3.06326E+01
 -1       290 4.39266E+01
 -1       291 4.39266E+01
 -1       292 2.57047E+01
 -1       293 2.57047E+01
 -1       294 2.56283E+01
 -1       295 2.56283E+01
 -1       296 3.99836E+01
 -1       297 3.99836E+01
 -1       298 3.17589E+01
 -1       299 2.54795E+01
 -1       300 2.54795E+01
 -1       301 2.57314E+01
 -1       302 2.57314E+01
 -1       303 6.76490E+01
 -1       304 6.76490E+01
 -1       305 2.55838E+01
 -1       306 2.55838E+01
 -1       307 2.51428E+01
 -1       308 2.54776E+01
 -1       309 2.54776E+01
 -1       310 3.14447E+01
 -1       311 4.60190E+01
 -1       312 5.90880E+01
 -1       313 4.20551E+01
 -1       314 3.14610E+01
 -1       315 3.14610E+01
 -1       316 2.57012E+01
 -1       317 2.56222E+01
 -1       318 2.56222E+01
 -1       319 3.06326E+01
 -1       320 4.39266E+01
 -1       321 4.39266E+01
 -1       322 2.57047E+01
 -1       323 2.57047E+01
 -1       324 2.56283E+01
 -1       325 2.56283E+01
 -1       326 3.99836E+01
 -1       327 3.99836E+01
 -1       328 3.17589E+01
 -1       329 2.54795E+01
 -1       330 2.54795E+01
 -1       331 2.57314E+01
 -1       332 2.57314E+01
 -1       333 6.76490E+01
 -1       334 6.76490E+01
 -1       335 2.55838E+01
 -1       336 2.55838E+01
 -1       337 2.51428E+01
 -1       338 2.54776E+01
 -1       339 2.54776E+01
 -1       340 3.14447E+01
 -1       341 4.60190E+01
 -1       342 5.90880E+01
 -1       343 4.20551E+01
 -1       344 3.14610E+01
 -1       345 3.14610E+01
 -1       346 2.57012E+01
 -1       347 2.56222E+01
 -1       348 2.56222E+01
 -1       349 3.06326E+01
 -1       350 4.39266E+01
 -1       351 4.39266E+01
 -1       352 2.57047E+01
 -1       353 2.57047E+01
 -1       354 2.56283E+01
 -1       355 2.56283E+01
 -1       356 3.99836E+01
 -1       357 3.99836E+01
 -1       358 3.17589E+01
 -1       359 2.54795E+01
 -1       360 2.54795E+01
 -1       361 2.57314E+01
 -1       362 2.57314E+01
 -1       363 6.76490E+01
 -1       364 6.76490E+01
 -1       365 2.55838E+01
 -1       366 2.55838E+01
 -1       367 2.51428E+01
 -1       368 2.54776E+01
 -1       369 2.54776E+01
 -1       370 3.14447E+01
 -1       371 4.60190E+01
 -1       372 4.20551E+01
 -1       373 3.14610E+01
 -1       374 3.14610E+01
 -1       375 2.57012E+01
 -1       376 2.56222E+01
 -1       377 2.56222E+01
 -1       378 3.06326E+01
 -1       379 4.39266E+01
 -1       380 4.39266E+01
 -1       381 2.57047E+01
 -1       382 2.57047E+01
 -1       383 2.56283E+01
 -1       384 2.56283E+01
 -1       385 3.99836E+01
 -1       386 3.99836E+01
 -1       387 3.17589E+01
 -1       388 2.54795E+01
 -1       389 2.54795E+01
 -1       390 2.57314E+01
 -1       391 2.57314E+01
 -1       392 6.76490E+01
 -1       393 6.76490E+01
 -1       394 2.55838E+01
 -1       395 2.55838E+01
 -1       396 2.51428E+01
 -1       397 2.54776E+01
 -1       398 2.54776E+01
 -1       399 3.14447E+01
 -1       400 4.60190E+01
 -1       401 4.96602E+01
 -1       402 4.96602E+01
 -1       403 5.90880E+01
 -1       404 7.64673E+01
 -1       405 5.24382E+01
 -1       406 5.86949E+01
 -1       407 5.86949E+01
 -1       408 5.55703E+01
 -1       409 6.09174E+01
 -1       410 6.09174E+01
 -1       411 5.94461E+01
 -1       412 5.91231E+01
 -1       413 5.91231E+01
 -1       414 5.76007E+01
 -1       415 5.75597E+01
 -1       416 5.80578E+01
 -1       417 5.80578E+01
 -1       418 5.94047E+01
 -1       419 5.95761E+01
 -1       420 5.95761E+01
 -1       421 5.63739E+01
 -1       422 5.90117E+01
 -1       423 5.99891E+01
 -1       424 5.99891E+01
 -1       425 6.60536E+01
 -1       426 6.60536E+01
 -1       427 5.89199E+01
 -1       428 5.30764E+01
 -1       429 6.75005E+01
 -1       430 7.80372E+01
 -1       431 7.80372E+01
 -1       432 6.14212E+01
 -1       433 5.90880E+01
 -1       434 4.96602E+01
 -1       435 4.96602E+01
 -1       436 6.14212E+01
 -1       437 7.80372E+01
 -1       438 7.80372E+01
 -1       439 6.75005E+01
 -1       440 5.30764E+01
 -1       441 5.89199E+01
 -1       442 6.60536E+01
 -1       443 6.60536E+01
 -1       444 5.99891E+01
 -1       445 5.99891E+01
 -1       446 5.90117E+01
 -1       447 5.63739E+01
 -1       448 5.95761E+01
 -1       449 5.95761E+01
 -1       450 5.94047E+01
 -1       451 5.80578E+01
 -1       452 5.80578E+01
 -1       453 5.75597E+01
 -1       454 5.76007E+01
 -1       455 5.91231E+01
 -1       456 5.91231E+01
 -1       457 5.94461E+01
 -1       458 6.09174E+01
 -1       459 6.09174E+01
 -1       460 5.55703E+01
 -1       461 5.86949E+01
 -1       462 5.86949E+01
 -1       463 5.24382E+01
 -1       464 7.64673E+01
 -1       465 5.90880E+01
 -1       466 4.20551E+01
 -1       467 3.14610E+01
 -1       468 3.14610E+01
 -1       469 2.57012E+01
 -1       470 2.56222E+01
 -1       471 2.56222E+01
 -1       472 3.06326E+01
 -1       473 4.39266E+01
 -1       474 4.39266E+01
 -1       475 2.57047E+01
 -1       476 2.57047E+01
 -1       477 2.56283E+01
 -1       478 2.56283E+01
 -1       479 3.99836E+01
 -1       480 3.99836E+01
 -1       481 3.17589E+01
 -1       482 2.54795E+01
 -1       483 2.54795E+01
 -1       484 2.57314E+01
 -1       485 2.57314E+01
 -1       486 6.76490E+01
 -1       487 6.76490E+01
 -1       488 2.55838E+01
 -1       489 2.55838E+01
 -1       490 2.51428E+01
 -1       491 2.54776E+01
 -1       492 2.54776E+01
 -1       493 3.14447E+01
 -1       494 4.60190E+01
 -1       495 4.20551E+01
 -1       496 3.14610E+01
 -1       497 3.14610E+01
 -1       498 2.57012E+01
 -1       499 2.56222E+01
 -1       500 2.56222E+01
 -1       501 3.06326E+01
 -1       502 4.39266E+01
 -1       503 4.39266E+01
 -1       504 2.57047E+01
 -1       505 2.57047E+01
 -1       506 2.56283E+01
 -1       507 2.56283E+01
 -1       508 3.99836E+01
 -1       509 3.99836E+01
 -1       510 3.17589E+01
 -1       511 2.54795E+01
 -1       512 2.54795E+01
 -1       513 2.57314E+01
 -1       514 2.57314E+01
 -1       515 6.76490E+01
 -1       516 6.76490E+01
 -1       517 2.55838E+01
 -1       518 2.55838E+01
 -1       519 2.51428E+01
 -1       520 2.54776E+01
 -1       521 2.54776E+01
 -1       522 3.14447E+01
 -1       523 4.60190E+01
 -1       524 5.90880E+01
 -1       525 6.95100E+01
 -1       526 6.60521E+01
 -1       527 6.19960E+01
 -1       528 6.29183E+01
 -1       529 6.29183E+01
 -1       530 5.98386E+01
 -1       531 5.43342E+01
 -1       532 5.43342E+01
 -1       533 5.31841E+01
 -1       534 5.81385E+01
 -1       535 6.26987E+01
 -1       536 6.26987E+01
 -1       537 5.93181E+01
 -1       538 5.30009E+01
 -1       539 5.70480E+01
 -1       540 5.70480E+01
 -1       541 6.08662E+01
 -1       542 6.28662E+01
 -1       543 6.28662E+01
 -1       544 5.57283E+01
 -1       545 5.51832E+01
 -1       546 5.72001E+01
 -1       547 5.72001E+01
 -1       548 6.34133E+01
 -1       549 6.34133E+01
 -1       550 6.21845E+01
 -1       551 5.15442E+01
 -1       552 4.69894E+01
 -1       553 3.62240E+01
 -1       554 6.29913E+01
 -1       555 3.34950E+01
 -1       556 5.65278E+01
 -1       557 6.29183E+01
 -1       558 6.29183E+01
 -1       559 5.98386E+01
 -1       560 4.58217E+01
 -1       561 1.56796E+01
 -1       562 3.94771E+01
 -1       563 5.81385E+01
 -1       564 6.26987E+01
 -1       565 6.26987E+01
 -1       566 5.93181E+01
 -1       567 4.20717E+01
 -1       568 1.37892E+01
 -1       569 4.65323E+01
 -1       570 6.08662E+01
 -1       571 6.28662E+01
 -1       572 6.28662E+01
 -1       573 5.57283E+01
 -1       574 3.30950E+01
 -1       575 2.87989E+01
 -1       576 5.47826E+01
 -1       577 6.34133E+01
 -1       578 6.34133E+01
 -1       579 6.21845E+01
 -1       580 5.15442E+01
 -1       581 2.92389E+01
 -1       582 1.99407E+01
 -1       583 6.95100E+01
 -1       584 6.60521E+01
 -1       585 6.19960E+01
 -1       586 6.29183E+01
 -1       587 6.29183E+01
 -1       588 5.98386E+01
 -1       589 5.43342E+01
 -1       590 5.43342E+01
 -1       591 5.31841E+01
 -1       592 5.81385E+01
 -1       593 6.26987E+01
 -1       594 6.26987E+01
 -1       595 5.93181E+01
 -1       596 5.30009E+01
 -1       597 5.70480E+01
 -1       598 5.70480E+01
 -1       599 6.08662E+01
 -1       600 6.28662E+01
 -1       601 6.28662E+01
 -1       602 5.57283E+01
 -1       603 5.51832E+01
 -1       604 5.72001E+01
 -1       605 5.72001E+01
 -1       606 6.34133E+01
 -1       607 6.34133E+01
 -1       608 6.21845E+01
 -1       609 5.15442E+01
 -1       610 4.69894E+01
 -1       611 3.62240E+01
 -1       612 6.95100E+01
 -1       613 6.60521E+01
 -1       614 6.19960E+01
 -1       615 6.29183E+01
 -1       616 6.29183E+01
 -1       617 5.98386E+01
 -1       618 5.43342E+01
 -1       619 5.43342E+01
 -1       620 5.31841E+01
 -1       621 5.81385E+01
 -1       622 6.26987E+01
 -1       623 6.26987E+01
 -1       624 5.93181E+01
 -1       625 5.30009E+01
 -1       626 5.70480E+01
 -1       627 5.70480E+01
 -1       628 6.08662E+01
 -1       629 6.28662E+01
 -1       630 6.28662E+01
 -1       631 5.57283E+01
 -1       632 5.51832E+01
 -1       633 5.72001E+01
 -1       634 5.72001E+01
 -1       635 6.34133E+01
 -1       636 6.34133E+01
 -1       637 6.21845E+01
 -1       638 5.15442E+01
 -1       639 4.69894E+01
 -1       640 3.62240E+01
 -1       641 6.29913E+01
 -1       642 3.34950E+01
 -1       643 5.65278E+01
 -1       644 6.29183E+01
 -1       645 6.29183E+01
 -1       646 5.98386E+01
 -1       647 4.58217E+01
 -1       648 1.56796E+01
 -1       649 3.94771E+01
 -1       650 5.81385E+01
 -1       651 6.26987E+01
 -1       652 6.26987E+01
 -1       653 5.93181E+01
 -1       654 4.20717E+01
 -1       655 1.37892E+01
 -1       656 4.65323E+01
 -1       657 6.08662E+01
 -1       658 6.28662E+01
 -1       659 6.28662E+01
 -1       660 5.57283E+01
 -1       661 3.30950E+01
 -1       662 2.87989E+01
 -1       663 5.47826E+01
 -1       664 6.34133E+01
 -1       665 6.34133E+01
 -1       666 6.21845E+01
 -1       667 5.15442E+01
 -1       668 2.92389E+01
 -1       669 1.99407E+01
 -1       670 6.95100E+01
 -1       671 6.60521E+01
 -1       672 6.19960E+01
 -1       673 6.29183E+01
 -1       674 6.29183E+01
 -1       675 5.98386E+01
 -1       676 5.43342E+01
 -1       677 5.43342E+01
 -1       678 5.31841E+01
 -1       679 5.81385E+01
 -1       680 6.26987E+01
 -1       681 6.26987E+01
 -1       682 5.93181E+01
 -1       683 5.30009E+01
 -1       684 5.70480E+01
 -1       685 5.70480E+01
 -1       686 6.08662E+01
 -1       687 6.28662E+01
 -1       688 6.28662E+01
 -1       689 5.57283E+01
 -1       690 5.51832E+01
 -1       691 5.72001E+01
 -1       692 5.72001E+01
 -1       693 6.34133E+01
 -1       694 6.34133E+01
 -1       695 6.21845E+01
 -1       696 5.15442E+01
 -1       697 4.69894E+01
 -1       698 3.62240E+01
 -1       699 4.96602E+01
 -1       700 3.14610E+01
 -1       701 5.86949E+01
 -1       702 5.86949E+01
 -1       703 5.55703E+01
 -1       704 6.09174E+01
 -1       705 6.09174E+01
 -1       706 4.50696E+01
 -1       707 5.74516E+01
 -1       708 5.76007E+01
 -1       709 5.76007E+01
 -1       710 5.75597E+01
 -1       711 5.80578E+01
 -1       712 5.80578E+01
 -1       713 4.13977E+01
 -1       714 5.95761E+01
 -1       715 5.95761E+01
 -1       716 5.63739E+01
 -1       717 5.90117E+01
 -1       718 5.90117E+01
 -1       719 6.76490E+01
 -1       720 6.76490E+01
 -1       721 5.89199E+01
 -1       722 5.89199E+01
 -1       723 5.30764E+01
 -1       724 5.67541E+01
 -1       725 5.89517E+01
 -1       726 5.89517E+01
 -1       727 5.90880E+01
 -1       728 4.96602E+01
 -1       729 3.14610E+01
 -1       730 5.86949E+01
 -1       731 5.86949E+01
 -1       732 5.55703E+01
 -1       733 6.09174E+01
 -1       734 6.09174E+01
 -1       735 4.50696E+01
 -1       736 5.74516E+01
 -1       737 5.76007E+01
 -1       738 5.76007E+01
 -1       739 5.75597E+01
 -1       740 5.80578E+01
 -1       741 5.80578E+01
 -1       742 4.13977E+01
 -1       743 5.95761E+01
 -1       744 5.95761E+01
 -1       745 5.63739E+01
 -1       746 5.90117E+01
 -1       747 5.90117E+01
 -1       748 6.76490E+01
 -1       749 6.76490E+01
 -1       750 5.89199E+01
 -1       751 5.89199E+01
 -1       752 5.30764E+01
 -1       753 5.67541E+01
 -1       754 5.89517E+01
 -1       755 5.89517E+01
 -1       756 5.90880E+01
 -1       757 4.96602E+01
 -1       758 3.14610E+01
 -1       759 5.86949E+01
 -1       760 5.86949E+01
 -1       761 5.55703E+01
 -1       762 6.09174E+01
 -1       763 6.09174E+01
 -1       764 4.50696E+01
 -1       765 5.74516E+01
 -1       766 5.76007E+01
 -1       767 5.76007E+01
 -1       768 5.75597E+01
 -1       769 5.80578E+01
 -1       770 5.80578E+01
 -1       771 4.13977E+01
 -1       772 5.95761E+01
 -1       773 5.95761E+01
 -1       774 5.63739E+01
 -1       775 5.90117E+01
 -1       776 5.90117E+01
 -1       777 6.76490E+01
 -1       778 6.76490E+01
 -1       779 5.89199E+01
 -1       780 5.89199E+01
 -1       781 5.30764E+01
 -1       782 5.67541E+01
 -1       783 5.89517E+01
 -1       784 5.89517E+01
 -1       785 5.90880E+01
 -1       786 4.96602E+01
 -1       787 3.14610E+01
 -1       788 5.86949E+01
 -1       789 5.86949E+01
 -1       790 5.55703E+01
 -1       791 6.09174E+01
 -1       792 6.09174E+01
 -1       793 4.50696E+01
 -1       794 5.74516E+01
 -1       795 5.76007E+01
 -1       796 5.76007E+01
 -1       797 5.75597E+01
 -1       798 5.80578E+01
 -1       799 5.80578E+01
 -1       800 4.13977E+01
 -1       801 5.95761E+01
 -1       802 5.95761E+01
 -1       803 5.63739E+01
 -1       804 5.90117E+01
 -1       805 5.90117E+01
 -1       806 6.76490E+01
 -1       807 6.76490E+01
 -1       808 5.89199E+01
 -1       809 5.89199E+01
 -1       810 5.30764E+01
 -1       811 5.67541E+01
 -1       812 5.89517E+01
 -1       813 5.89517E+01
 -1       814 5.90880E+01
 -1       815 4.96602E+01
 -1       816 3.14610E+01
 -1       817 5.86949E+01
 -1       818 5.86949E+01
 -1       819 5.55703E+01
 -1       820 6.09174E+01
 -1       821 6.09174E+01
 -1       822 4.50696E+01
 -1       823 5.74516E+01
 -1       824 5.76007E+01
 -1       825 5.76007E+01
 -1       826 5.75597E+01
 -1       827 5.80578E+01
 -1       828 5.80578E+01
 -1       829 4.13977E+01
 -1       830 5.95761E+01
 -1       831 5.95761E+01
 -1       832 5.63739E+01
 -1       833 5.90117E+01
 -1       834 5.90117E+01
 -1       835 6.76490E+01
 -1       836 6.76490E+01
 -1       837 5.89199E+01
 -1       838 5.89199E+01
 -1       839 5.30764E+01
 -1       840 5.67541E+01
 -1       841 5.89517E+01
 -1       842 5.89517E+01
 -1       843 5.90880E+01
 -1       844 4.96602E+01
 -1       845 3.14610E+01
 -1       846 5.86949E+01
 -1       847 5.86949E+01
 -1       848 5.55703E+01
 -1       849 6.09174E+01
 -1       850 6.09174E+01
 -1       851 4.50696E+01
 -1       852 5.74516E+01
 -1       853 5.76007E+01
 -1       854 5.76007E+01
 -1       855 5.75597E+01
 -1       856 5.80578E+01
 -1       857 5.80578E+01
 -1       858 4.13977E+01
 -1       859 5.95761E+01
 -1       860 5.95761E+01
 -1       861 5.63739E+01
 -1       862 5.90117E+01
 -1       863 5.90117E+01
 -1       864 6.76490E+01
 -1       865 6.76490E+01
 -1       866 5.89199E+01
 -1       867 5.89199E+01
 -1       868 5.30764E+01
 -1       869 5.67541E+01
 -1       870 5.89517E+01
 -1       871 5.89517E+01
 -1       872 5.90880E+01
 -1       873 5.90880E+01
 -1       874 5.89517E+01
 -1       875 5.89517E+01
 -1       876 5.67541E+01
 -1       877 5.30764E+01
 -1       878 5.89199E+01
 -1       879 5.89199E+01
 -1       880 6.76490E+01
 -1       881 6.76490E+01
 -1       882 5.90117E+01
 -1       883 5.90117E+01
 -1       884 5.63739E+01
 -1       885 5.95761E+01
 -1       886 5.95761E+01
 -1       887 4.13977E+01
 -1       888 5.80578E+01
 -1       889 5.80578E+01
 -1       890 5.75597E+01
 -1       891 5.76007E+01
 -1       892 5.76007E+01
 -1       893 5.74516E+01
 -1       894 4.50696E+01
 -1       895 6.09174E+01
 -1       896 6.09174E+01
 -1       897 5.55703E+01
 -1       898 5.86949E+01
 -1       899 5.86949E+01
 -1       900 3.14610E+01
 -1       901 4.96602E+01
 -1       902 4.96602E+01
 -1       903 3.14610E+01
 -1       904 5.86949E+01
 -1       905 5.86949E+01
 -1       906 5.55703E+01
 -1       907 6.09174E+01
 -1       908 6.09174E+01
 -1       909 4.50696E+01
 -1       910 5.74516E+01
 -1       911 5.76007E+01
 -1       912 5.76007E+01
 -1       913 5.75597E+01
 -1       914 5.80578E+01
 -1       915 5.80578E+01
 -1       916 4.13977E+01
 -1       917 5.95761E+01
 -1       918 5.95761E+01
 -1       919 5.63739E+01
 -1       920 5.90117E+01
 -1       921 5.90117E+01
 -1       922 6.76490E+01
 -1       923 6.76490E+01
 -1       924 5.89199E+01
 -1       925 5.89199E+01
 -1       926 5.30764E+01
 -1       927 5.67541E+01
 -1       928 5.89517E+01
 -1       929 5.89517E+01
 -1       930 5.90880E+01
 -3
    1PSTEP                        69           1           1          
    1PGM                1.000000E+00                                  
    1PGK                3.040028E+07                                  
    1PHID                         -1                                  
    1PSUBC                         0                                  
    1PMODE                        18                                  
  100CL  118 877.5238154         930                     2   18MODAL      1
 -4  DISP        4    1
 -5  D1          1    2    1    0
 -5  D2          1    2    2    0
 -5  D3          1    2    3    0
 -5  ALL         1    2    0    0    1ALL
 -1         1 0.00000E+00 0.00000E+00 0.00000E+00
 -1         2 0.00000E+00 0.00000E+00 0.00000E+00
 -1         3-1.51818E-03-8.39553E-02 6.06072E-03
 -1         4 1.51818E-03-8.39553E-02-6.06072E-03
 -1         5 0.00000E+00 0.00000E+00 0.00000E+00
 -1         6 0.00000E+00 0.00000E+00 0.00000E+00
 -1         7-1.51818E-03-8.39553E-02-6.06072E-03
 -1         8 1.51818E-03-8.39553E-02 6.06072E-03
 -1         9 0.00000E+00 0.00000E+00 0.00000E+00
 -1        10-1.42014E-03-1.07455E-01 6.62742E-03
 -1        11 0.00000E+00 0.00000E+00 0.00000E+00
 -1        12 0.00000E+00 0.00000E+00 0.00000E+00
 -1        13-3.11244E-02-1.09062E-01 1.66798E-01
 -1        14-3.54066E-02-8.32580E-02 1.66756E-01
 -1        15 0.00000E+00 0.00000E+00 0.00000E+00
 -1        16-1.42014E-03-1.07455E-01-6.62742E-03
 -1        17 0.00000E+00 0.00000E+00 0.00000E+00
 -1        18 0.00000E+00 0.00000E+00 0.00000E+00
 -1        19-3.54066E-02-8.32580E-02-1.66756E-01
 -1        20-3.11244E-02-1.09062E-01-1.66798E-01
 -1        21 0.00000E+00 0.00000E+00 0.00000E+00
 -1        22 0.00000E+00 0.00000E+00 0.00000E+00
 -1        23 3.11244E-02-1.09062E-01-1.66798E-01
 -1        24 3.54066E-02-8.32580E-02-1.66756E-01
 -1        25 0.00000E+00 0.00000E+00 0.00000E+00
 -1        26 1.42014E-03-1.07455E-01-6.62742E-03
 -1        27 0.00000E+00 0.00000E+00 0.00000E+00
 -1        28 0.00000E+00 0.00000E+00 0.00000E+00
 -1        29 0.00000E+00 0.00000E+00 0.00000E+00
 -1        30 1.42014E-03-1.07455E-01 6.62742E-03
 -1        31 3.11244E-02-1.09062E-01 1.66798E-01
 -1        32 3.54066E-02-8.32580E-02 1.66756E-01
 -1        33-6.24265E-04 1.01574E-02 2.38376E-04
 -1        34-7.75140E-04 2.81542E-02 7.53071E-04
 -1        35-6.67294E-04 4.61046E-02 1.61787E-03
 -1        36-3.44100E-04 5.80626E-02 2.79252E-03
 -1        37 7.03713E-05 6.05566E-02 4.12129E-03
 -1        38 4.62698E-04 5.30214E-02 5.32330E-03
 -1        39 7.36244E-04 3.75963E-02 6.04719E-03
 -1        40 8.39803E-04 1.82081E-02 5.96429E-03
 -1        41 7.73481E-04-7.11940E-04 4.87500E-03
 -1        42 5.82514E-04-1.55092E-02 2.79484E-03
 -1        43 3.38184E-04-2.42195E-02-1.12520E-05
 -1        44 1.12922E-04-2.68723E-02-3.06333E-03
 -1        45-4.25208E-05-2.51392E-02-5.76579E-03
 -1        46-1.12753E-04-2.14905E-02-7.54769E-03
 -1        47-1.18310E-04-1.81720E-02-8.00630E-03
 -1        48-1.03568E-04-1.63600E-02-7.01373E-03
 -1        49-1.16572E-04-1.57821E-02-4.75581E-03
 -1        50-1.88009E-04-1.49261E-02-1.69129E-03
 -1        51-3.16719E-04-1.17563E-02 1.55802E-03
 -1        52-4.66968E-04-4.68029E-03 4.35609E-03
 -1        53-5.78699E-04 6.57914E-03 6.19954E-03
 -1        54-5.87625E-04 2.05289E-02 6.82334E-03
 -1        55-4.48547E-04 3.40554E-02 6.23870E-03
 -1        56-1.53983E-04 4.31669E-02 4.69683E-03
 -1        57 2.58663E-04 4.41149E-02 2.59379E-03
 -1        58 7.14811E-04 3.45353E-02 3.47112E-04
 -1        59 1.12409E-03 1.42221E-02-1.71885E-03
 -1        60 1.40927E-03-1.47726E-02-3.44349E-03
 -1        61 1.53943E-03-4.88176E-02-4.84889E-03
 -1        62 6.24265E-04 1.01574E-02-2.38376E-04
 -1        63 7.75140E-04 2.81542E-02-7.53071E-04
 -1        64 6.67294E-04 4.61046E-02-1.61787E-03
 -1        65 3.44100E-04 5.80626E-02-2.79252E-03
 -1        66-7.03713E-05 6.05566E-02-4.12129E-03
 -1        67-4.62698E-04 5.30214E-02-5.32330E-03
 -1        68-7.36244E-04 3.75963E-02-6.04719E-03
 -1        69-8.39803E-04 1.82081E-02-5.96429E-03
 -1        70-7.73481E-04-7.11940E-04-4.87500E-03
 -1        71-5.82514E-04-1.55092E-02-2.79484E-03
 -1        72-3.38184E-04-2.42195E-02 1.12520E-05
 -1        73-1.12922E-04-2.68723E-02 3.06333E-03
 -1        74 4.25208E-05-2.51392E-02 5.76579E-03
 -1        75 1.12753E-04-2.14905E-02 7.54769E-03
 -1        76 1.18310E-04-1.81720E-02 8.00630E-03
 -1        77 1.03568E-04-1.63600E-02 7.01373E-03
 -1        78 1.16572E-04-1.57821E-02 4.75581E-03
 -1        79 1.88009E-04-1.49261E-02 1.69129E-03
 -1        80 3.16719E-04-1.17563E-02-1.55802E-03
 -1        81 4.66968E-04-4.68029E-03-4.35609E-03
 -1        82 5.78699E-04 6.57914E-03-6.19954E-03
 -1        83 5.87625E-04 2.05289E-02-6.82334E-03
 -1        84 4.48547E-04 3.40554E-02-6.23870E-03
 -1        85 1.53983E-04 4.31669E-02-4.69683E-03
 -1        86-2.58663E-04 4.41149E-02-2.59379E-03
 -1        87-7.14811E-04 3.45353E-02-3.47112E-04
 -1        88-1.12409E-03 1.42221E-02 1.71885E-03
 -1        89-1.40927E-03-1.47726E-02 3.44349E-03
 -1        90-1.53943E-03-4.88176E-02 4.84889E-03
 -1        91 0.00000E+00 0.00000E+00 0.00000E+00
 -1        92 0.00000E+00 0.00000E+00 0.00000E+00
 -1        93 0.00000E+00 0.00000E+00 0.00000E+00
 -1        94 0.00000E+00 0.00000E+00 0.00000E+00
 -1        95 0.00000E+00 0.00000E+00 0.00000E+00
 -1        96 0.00000E+00 0.00000E+00 0.00000E+00
 -1        97 6.24265E-04 1.01574E-02 2.38376E-04
 -1        98 7.75140E-04 2.81542E-02 7.53071E-04
 -1        99 6.67294E-04 4.61046E-02 1.61787E-03
 -1       100 3.44100E-04 5.80626E-02 2.79252E-03
 -1       101-7.03713E-05 6.05566E-02 4.12129E-03
 -1       102-4.62698E-04 5.30214E-02 5.32330E-03
 -1       103-7.36244E-04 3.75963E-02 6.04719E-03
 -1       104-8.39803E-04 1.82081E-02 5.96429E-03
 -1       105-7.73481E-04-7.11940E-04 4.87500E-03
 -1       106-5.82514E-04-1.55092E-02 2.79484E-03
 -1       107-3.38184E-04-2.42195E-02-1.12520E-05
 -1       108-1.12922E-04-2.68723E-02-3.06333E-03
 -1       109 4.25208E-05-2.51392E-02-5.76579E-03
 -1       110 1.12753E-04-2.14905E-02-7.54769E-03
 -1       111 1.18310E-04-1.81720E-02-8.00630E-03
 -1       112 1.03568E-04-1.63600E-02-7.01373E-03
 -1       113 1.16572E-04-1.57821E-02-4.75581E-03
 -1       114 1.88009E-04-1.49261E-02-1.69129E-03
 -1       115 3.16719E-04-1.17563E-02 1.55802E-03
 -1       116 4.66968E-04-4.68029E-03 4.35609E-03
 -1       117 5.78699E-04 6.57914E-03 6.19954E-03
 -1       118 5.87625E-04 2.05289E-02 6.82334E-03
 -1       119 4.48547E-04 3.40554E-02 6.23870E-03
 -1       120 1.53983E-04 4.31669E-02 4.69683E-03
 -1       121-2.58663E-04 4.41149E-02 2.59379E-03
 -1       122-7.14811E-04 3.45353E-02 3.47112E-04
 -1       123-1.12409E-03 1.42221E-02-1.71885E-03
 -1       124-1.40927E-03-1.47726E-02-3.44349E-03
 -1       125-1.53943E-03-4.88176E-02-4.84889E-03
 -1       126-6.31290E-04 2.10151E-02 3.43240E-03
 -1       127-3.16591E-04 5.93069E-02 5.62168E-13
 -1       128-6.31290E-04 2.10151E-02-3.43240E-03
 -1       129-6.24265E-04 1.01574E-02-2.38376E-04
 -1       130-7.75140E-04 2.81542E-02-7.53071E-04
 -1       131-6.67294E-04 4.61046E-02-1.61787E-03
 -1       132-3.44100E-04 5.80626E-02-2.79252E-03
 -1       133 7.03713E-05 6.05566E-02-4.12129E-03
 -1       134 4.62698E-04 5.30214E-02-5.32330E-03
 -1       135 7.36244E-04 3.75963E-02-6.04719E-03
 -1       136 8.39803E-04 1.82081E-02-5.96429E-03
 -1       137 7.73481E-04-7.11940E-04-4.87500E-03
 -1       138 5.82514E-04-1.55092E-02-2.79484E-03
 -1       139 3.38184E-04-2.42195E-02 1.12520E-05
 -1       140 1.12922E-04-2.68723E-02 3.06333E-03
 -1       141-4.25208E-05-2.51392E-02 5.76579E-03
 -1       142-1.12753E-04-2.14905E-02 7.54769E-03
 -1       143-1.18310E-04-1.81720E-02 8.00630E-03
 -1       144-1.03568E-04-1.63600E-02 7.01373E-03
 -1       145-1.16572E-04-1.57821E-02 4.75581E-03
 -1       146-1.88009E-04-1.49261E-02 1.69129E-03
 -1       147-3.16719E-04-1.17563E-02-1.55802E-03
 -1       148-4.66968E-04-4.68029E-03-4.35609E-03
 -1       149-5.78699E-04 6.57914E-03-6.19954E-03
 -1       150-5.87625E-04 2.05289E-02-6.82334E-03
 -1       151-4.48547E-04 3.40554E-02-6.23870E-03
 -1       152-1.53983E-04 4.31669E-02-4.69683E-03
 -1       153 2.58663E-04 4.41149E-02-2.59379E-03
 -1       154 7.14811E-04 3.45353E-02-3.47112E-04
 -1       155 1.12409E-03 1.42221E-02 1.71885E-03
 -1       156 1.40927E-03-1.47726E-02 3.44349E-03
 -1       157 1.53943E-03-4.88176E-02 4.84889E-03
 -1       158 6.31290E-04 2.10151E-02 3.43240E-03
 -1       159 3.16591E-04 5.93069E-02 5.58553E-13
 -1       160 6.31290E-04 2.10151E-02-3.43240E-03
 -1       161 3.84166E-04 1.10979E-02-2.49223E-04
 -1       162 5.88219E-04 3.14310E-02-8.72442E-04
 -1       163 4.98621E-04 5.29927E-02-1.84014E-03
 -1       164 2.20966E-04 6.95392E-02-3.12895E-03
 -1       165-1.35247E-04 7.69818E-02-4.55382E-03
 -1       166-4.62900E-04 7.37291E-02-5.81947E-03
 -1       167-6.74372E-04 6.06747E-02-6.55585E-03
 -1       168-7.26389E-04 4.06056E-02-6.42098E-03
 -1       169-6.25388E-04 1.72976E-02-5.21152E-03
 -1       170-4.20371E-04-5.46999E-03-2.95246E-03
 -1       171-1.83555E-04-2.47174E-02 6.84307E-05
 -1       172 1.44241E-05-3.87011E-02 3.33810E-03
 -1       173 1.26894E-04-4.69234E-02 6.22364E-03
 -1       174 1.44162E-04-4.97916E-02 8.12040E-03
 -1       175 9.33583E-05-4.81056E-02 8.60304E-03
 -1       176 2.56247E-05-4.25915E-02 7.53758E-03
 -1       177-4.70257E-06-3.36586E-02 5.12210E-03
 -1       178 3.82856E-05-2.14616E-02 1.84356E-03
 -1       179 1.57069E-04-6.22426E-03-1.63795E-03
 -1       180 3.17523E-04 1.13253E-02-4.64609E-03
 -1       181 4.58855E-04 2.96092E-02-6.64329E-03
 -1       182 5.13555E-04 4.61263E-02-7.34266E-03
 -1       183 4.30850E-04 5.77442E-02-6.74872E-03
 -1       184 1.95807E-04 6.13205E-02-5.12033E-03
 -1       185-1.62770E-04 5.44933E-02-2.87145E-03
 -1       186-5.78578E-04 3.63952E-02-4.42797E-04
 -1       187-9.69240E-04 8.02933E-03 1.81767E-03
 -1       188-1.25841E-03-2.78524E-02 3.72548E-03
 -1       189-1.43189E-03-6.75422E-02 5.28227E-03
 -1       190 0.00000E+00 0.00000E+00 0.00000E+00
 -1       191 0.00000E+00 0.00000E+00 0.00000E+00
 -1       192-1.61736E-02-1.08832E-01 8.49829E-02
 -1       193 9.18538E-03 1.23632E-02-6.32044E-03
 -1       194 1.29523E-02 3.19305E-02-2.40322E-02
 -1       195 1.10421E-02 5.31332E-02-5.03810E-02
 -1       196 5.18328E-03 6.95945E-02-8.32190E-02
 -1       197-2.44595E-03 7.71925E-02-1.18027E-01
 -1       198-9.51796E-03 7.42763E-02-1.47680E-01
 -1       199-1.42045E-02 6.16056E-02-1.63563E-01
 -1       200-1.55611E-02 4.18111E-02-1.57876E-01
 -1       201-1.36835E-02 1.85379E-02-1.26226E-01
 -1       202-9.55501E-03-4.49776E-03-6.96564E-02
 -1       203-4.65178E-03-2.42881E-02 4.62214E-03
 -1       204-4.33115E-04-3.89744E-02 8.41826E-02
 -1       205 2.12030E-03-4.78872E-02 1.53895E-01
 -1       206 2.77722E-03-5.12539E-02 1.99411E-01
 -1       207 2.05667E-03-4.97390E-02 2.10700E-01
 -1       208 9.69342E-04-4.40180E-02 1.84662E-01
 -1       209 5.94133E-04-3.45506E-02 1.26063E-01
 -1       210 1.63791E-03-2.16293E-02 4.65169E-02
 -1       211 4.13065E-03-5.66414E-03-3.82305E-02
 -1       212 7.36282E-03 1.24339E-02-1.11986E-01
 -1       213 1.00911E-02 3.09584E-02-1.61758E-01
 -1       214 1.09484E-02 4.73668E-02-1.80410E-01
 -1       215 8.92491E-03 5.85783E-02-1.67662E-01
 -1       216 3.75652E-03 6.15727E-02-1.29274E-01
 -1       217-3.91734E-03 5.41372E-02-7.47821E-02
 -1       218-1.26986E-02 3.55303E-02-1.45572E-02
 -1       219-2.08563E-02 6.82520E-03 4.28588E-02
 -1       220-2.69000E-02-2.92503E-02 9.24151E-02
 -1       221-3.01646E-02-6.90296E-02 1.32948E-01
 -1       222 1.08434E-02 1.13636E-02-6.79065E-03
 -1       223 1.58735E-02 2.81423E-02-2.40322E-02
 -1       224 1.49872E-02 4.52019E-02-5.02072E-02
 -1       225 9.73747E-03 5.65463E-02-8.28825E-02
 -1       226 1.94834E-03 5.87503E-02-1.17640E-01
 -1       227-6.35387E-03 5.12650E-02-1.47331E-01
 -1       228-1.33998E-02 3.61766E-02-1.63321E-01
 -1       229-1.79658E-02 1.73137E-02-1.57774E-01
 -1       230-1.95480E-02-1.00904E-03-1.26262E-01
 -1       231-1.83369E-02-1.52460E-02-6.97964E-02
 -1       232-1.50273E-02-2.35109E-02 4.42654E-03
 -1       233-1.05317E-02-2.58694E-02 8.39787E-02
 -1       234-5.69352E-03-2.39908E-02 1.53715E-01
 -1       235-1.08752E-03-2.03180E-02 1.99267E-01
 -1       236 3.04022E-03-1.70631E-02 2.10585E-01
 -1       237 6.69134E-03-1.53790E-02 1.84559E-01
 -1       238 9.94065E-03-1.49878E-02 1.25957E-01
 -1       239 1.27467E-02-1.43871E-02 4.64092E-02
 -1       240 1.48294E-02-1.15540E-02-3.83223E-02
 -1       241 1.56710E-02-4.89562E-03-1.12029E-01
 -1       242 1.46505E-02 5.89268E-03-1.61714E-01
 -1       243 1.12719E-02 1.93775E-02-1.80252E-01
 -1       244 5.40586E-03 3.25295E-02-1.67385E-01
 -1       245-2.54532E-03 4.14473E-02-1.28905E-01
 -1       246-1.16361E-02 4.24524E-02-7.43747E-02
 -1       247-2.05487E-02 3.32041E-02-1.41805E-02
 -1       248-2.79246E-02 1.34497E-02 4.31397E-02
 -1       249-3.27886E-02-1.48809E-02 9.25618E-02
 -1       250-3.49337E-02-4.83016E-02 1.32968E-01
 -1       251-1.84766E-02-8.33950E-02 8.51093E-02
 -1       252-1.43189E-03-6.75422E-02-5.28227E-03
 -1       253-1.25841E-03-2.78524E-02-3.72548E-03
 -1       254-9.69240E-04 8.02933E-03-1.81767E-03
 -1       255-5.78578E-04 3.63952E-02 4.42797E-04
 -1       256-1.62770E-04 5.44933E-02 2.87145E-03
 -1       257 1.95807E-04 6.13205E-02 5.12033E-03
 -1       258 4.30850E-04 5.77442E-02 6.74872E-03
 -1       259 5.13555E-04 4.61263E-02 7.34266E-03
 -1       260 4.58855E-04 2.96092E-02 6.64329E-03
 -1       261 3.17523E-04 1.13253E-02 4.64609E-03
 -1       262 1.57069E-04-6.22426E-03 1.63795E-03
 -1       263 3.82856E-05-2.14616E-02-1.84356E-03
 -1       264-4.70257E-06-3.36586E-02-5.12210E-03
 -1       265 2.56247E-05-4.25915E-02-7.53758E-03
 -1       266 9.33583E-05-4.81056E-02-8.60304E-03
 -1       267 1.44162E-04-4.97916E-02-8.12040E-03
 -1       268 1.26894E-04-4.69234E-02-6.22364E-03
 -1       269 1.44241E-05-3.87011E-02-3.33810E-03
 -1       270-1.83555E-04-2.47174E-02-6.84307E-05
 -1       271-4.20371E-04-5.46999E-03 2.95246E-03
 -1       272-6.25388E-04 1.72976E-02 5.21152E-03
 -1       273-7.26389E-04 4.06056E-02 6.42098E-03
 -1       274-6.74372E-04 6.06747E-02 6.55585E-03
 -1       275-4.62900E-04 7.37291E-02 5.81947E-03
 -1       276-1.35247E-04 7.69818E-02 4.55382E-03
 -1       277 2.20966E-04 6.95392E-02 3.12895E-03
 -1       278 4.98621E-04 5.29927E-02 1.84014E-03
 -1       279 5.88219E-04 3.14310E-02 8.72442E-04
 -1       280 3.84166E-04 1.10979E-02 2.49223E-04
 -1       281 0.00000E+00 0.00000E+00 0.00000E+00
 -1       282 0.00000E+00 0.00000E+00 0.00000E+00
 -1       283 1.08434E-02 1.13636E-02 6.79065E-03
 -1       284 1.58735E-02 2.81423E-02 2.40322E-02
 -1       285 1.49872E-02 4.52019E-02 5.02072E-02
 -1       286 9.73747E-03 5.65463E-02 8.28825E-02
 -1       287 1.94834E-03 5.87503E-02 1.17640E-01
 -1       288-6.35387E-03 5.12650E-02 1.47331E-01
 -1       289-1.33998E-02 3.61766E-02 1.63321E-01
 -1       290-1.79658E-02 1.73137E-02 1.57774E-01
 -1       291-1.95480E-02-1.00904E-03 1.26262E-01
 -1       292-1.83369E-02-1.52460E-02 6.97964E-02
 -1       293-1.50273E-02-2.35109E-02-4.42654E-03
 -1       294-1.05317E-02-2.58694E-02-8.39787E-02
 -1       295-5.69352E-03-2.39908E-02-1.53715E-01
 -1       296-1.08752E-03-2.03180E-02-1.99267E-01
 -1       297 3.04022E-03-1.70631E-02-2.10585E-01
 -1       298 6.69134E-03-1.53790E-02-1.84559E-01
 -1       299 9.94065E-03-1.49878E-02-1.25957E-01
 -1       300 1.27467E-02-1.43871E-02-4.64092E-02
 -1       301 1.48294E-02-1.15540E-02 3.83223E-02
 -1       302 1.56710E-02-4.89562E-03 1.12029E-01
 -1       303 1.46505E-02 5.89268E-03 1.61714E-01
 -1       304 1.12719E-02 1.93775E-02 1.80252E-01
 -1       305 5.40586E-03 3.25295E-02 1.67385E-01
 -1       306-2.54532E-03 4.14473E-02 1.28905E-01
 -1       307-1.16361E-02 4.24524E-02 7.43747E-02
 -1       308-2.05487E-02 3.32041E-02 1.41805E-02
 -1       309-2.79246E-02 1.34497E-02-4.31397E-02
 -1       310-3.27886E-02-1.48809E-02-9.25618E-02
 -1       311-3.49337E-02-4.83016E-02-1.32968E-01
 -1       312-1.84766E-02-8.33950E-02-8.51093E-02
 -1       313 9.18538E-03 1.23632E-02 6.32044E-03
 -1       314 1.29523E-02 3.19305E-02 2.40322E-02
 -1       315 1.10421E-02 5.31332E-02 5.03810E-02
 -1       316 5.18328E-03 6.95945E-02 8.32190E-02
 -1       317-2.44595E-03 7.71925E-02 1.18027E-01
 -1       318-9.51796E-03 7.42763E-02 1.47680E-01
 -1       319-1.42045E-02 6.16056E-02 1.63563E-01
 -1       320-1.55611E-02 4.18111E-02 1.57876E-01
 -1       321-1.36835E-02 1.85379E-02 1.26226E-01
 -1       322-9.55501E-03-4.49776E-03 6.96564E-02
 -1       323-4.65178E-03-2.42881E-02-4.62214E-03
 -1       324-4.33115E-04-3.89744E-02-8.41826E-02
 -1       325 2.12030E-03-4.78872E-02-1.53895E-01
 -1       326 2.77722E-03-5.12539E-02-1.99411E-01
 -1       327 2.05667E-03-4.97390E-02-2.10700E-01
 -1       328 9.69342E-04-4.40180E-02-1.84662E-01
 -1       329 5.94133E-04-3.45506E-02-1.26063E-01
 -1       330 1.63791E-03-2.16293E-02-4.65169E-02
 -1       331 4.13065E-03-5.66414E-03 3.82305E-02
 -1       332 7.36282E-03 1.24339E-02 1.11986E-01
 -1       333 1.00911E-02 3.09584E-02 1.61758E-01
 -1       334 1.09484E-02 4.73668E-02 1.80410E-01
 -1       335 8.92491E-03 5.85783E-02 1.67662E-01
 -1       336 3.75652E-03 6.15727E-02 1.29274E-01
 -1       337-3.91734E-03 5.41372E-02 7.47821E-02
 -1       338-1.26986E-02 3.55303E-02 1.45572E-02
 -1       339-2.08563E-02 6.82520E-03-4.28588E-02
 -1       340-2.69000E-02-2.92503E-02-9.24151E-02
 -1       341-3.01646E-02-6.90296E-02-1.32948E-01
 -1       342-1.61736E-02-1.08832E-01-8.49829E-02
 -1       343-9.18538E-03 1.23632E-02 6.32044E-03
 -1       344-1.29523E-02 3.19305E-02 2.40322E-02
 -1       345-1.10421E-02 5.31332E-02 5.03810E-02
 -1       346-5.18328E-03 6.95945E-02 8.32190E-02
 -1       347 2.44595E-03 7.71925E-02 1.18027E-01
 -1       348 9.51796E-03 7.42763E-02 1.47680E-01
 -1       349 1.42045E-02 6.16056E-02 1.63563E-01
 -1       350 1.55611E-02 4.18111E-02 1.57876E-01
 -1       351 1.36835E-02 1.85379E-02 1.26226E-01
 -1       352 9.55501E-03-4.49776E-03 6.96564E-02
 -1       353 4.65178E-03-2.42881E-02-4.62214E-03
 -1       354 4.33115E-04-3.89744E-02-8.41826E-02
 -1       355-2.12030E-03-4.78872E-02-1.53895E-01
 -1       356-2.77722E-03-5.12539E-02-1.99411E-01
 -1       357-2.05667E-03-4.97390E-02-2.10700E-01
 -1       358-9.69342E-04-4.40180E-02-1.84662E-01
 -1       359-5.94133E-04-3.45506E-02-1.26063E-01
 -1       360-1.63791E-03-2.16293E-02-4.65169E-02
 -1       361-4.13065E-03-5.66414E-03 3.82305E-02
 -1       362-7.36282E-03 1.24339E-02 1.11986E-01
 -1       363-1.00911E-02 3.09584E-02 1.61758E-01
 -1       364-1.09484E-02 4.73668E-02 1.80410E-01
 -1       365-8.92491E-03 5.85783E-02 1.67662E-01
 -1       366-3.75652E-03 6.15727E-02 1.29274E-01
 -1       367 3.91734E-03 5.41372E-02 7.47821E-02
 -1       368 1.26986E-02 3.55303E-02 1.45572E-02
 -1       369 2.08563E-02 6.82520E-03-4.28588E-02
 -1       370 2.69000E-02-2.92503E-02-9.24151E-02
 -1       371 3.01646E-02-6.90296E-02-1.32948E-01
 -1       372-1.08434E-02 1.13636E-02 6.79065E-03
 -1       373-1.58735E-02 2.81423E-02 2.40322E-02
 -1       374-1.49872E-02 4.52019E-02 5.02072E-02
 -1       375-9.73747E-03 5.65463E-02 8.28825E-02
 -1       376-1.94834E-03 5.87503E-02 1.17640E-01
 -1       377 6.35387E-03 5.12650E-02 1.47331E-01
 -1       378 1.33998E-02 3.61766E-02 1.63321E-01
 -1       379 1.79658E-02 1.73137E-02 1.57774E-01
 -1       380 1.95480E-02-1.00904E-03 1.26262E-01
 -1       381 1.83369E-02-1.52460E-02 6.97964E-02
 -1       382 1.50273E-02-2.35109E-02-4.42654E-03
 -1       383 1.05317E-02-2.58694E-02-8.39787E-02
 -1       384 5.69352E-03-2.39908E-02-1.53715E-01
 -1       385 1.08752E-03-2.03180E-02-1.99267E-01
 -1       386-3.04022E-03-1.70631E-02-2.10585E-01
 -1       387-6.69134E-03-1.53790E-02-1.84559E-01
 -1       388-9.94065E-03-1.49878E-02-1.25957E-01
 -1       389-1.27467E-02-1.43871E-02-4.64092E-02
 -1       390-1.48294E-02-1.15540E-02 3.83223E-02
 -1       391-1.56710E-02-4.89562E-03 1.12029E-01
 -1       392-1.46505E-02 5.89268E-03 1.61714E-01
 -1       393-1.12719E-02 1.93775E-02 1.80252E-01
 -1       394-5.40586E-03 3.25295E-02 1.67385E-01
 -1       395 2.54532E-03 4.14473E-02 1.28905E-01
 -1       396 1.16361E-02 4.24524E-02 7.43747E-02
 -1       397 2.05487E-02 3.32041E-02 1.41805E-02
 -1       398 2.79246E-02 1.34497E-02-4.31397E-02
 -1       399 3.27886E-02-1.48809E-02-9.25618E-02
 -1       400 3.49337E-02-4.83016E-02-1.32968E-01
 -1       401 0.00000E+00 0.00000E+00 0.00000E+00
 -1       402 0.00000E+00 0.00000E+00 0.00000E+00
 -1       403 1.61736E-02-1.08832E-01-8.49829E-02
 -1       404-3.84166E-04 1.10979E-02 2.49223E-04
 -1       405-5.88219E-04 3.14310E-02 8.72442E-04
 -1       406-4.98621E-04 5.29927E-02 1.84014E-03
 -1       407-2.20966E-04 6.95392E-02 3.12895E-03
 -1       408 1.35247E-04 7.69818E-02 4.55382E-03
 -1       409 4.62900E-04 7.37291E-02 5.81947E-03
 -1       410 6.74372E-04 6.06747E-02 6.55585E-03
 -1       411 7.26389E-04 4.06056E-02 6.42098E-03
 -1       412 6.25388E-04 1.72976E-02 5.21152E-03
 -1       413 4.20371E-04-5.46999E-03 2.95246E-03
 -1       414 1.83555E-04-2.47174E-02-6.84307E-05
 -1       415-1.44241E-05-3.87011E-02-3.33810E-03
 -1       416-1.26894E-04-4.69234E-02-6.22364E-03
 -1       417-1.44162E-04-4.97916E-02-8.12040E-03
 -1       418-9.33583E-05-4.81056E-02-8.60304E-03
 -1       419-2.56247E-05-4.25915E-02-7.53758E-03
 -1       420 4.70257E-06-3.36586E-02-5.12210E-03
 -1       421-3.82856E-05-2.14616E-02-1.84356E-03
 -1       422-1.57069E-04-6.22426E-03 1.63795E-03
 -1       423-3.17523E-04 1.13253E-02 4.64609E-03
 -1       424-4.58855E-04 2.96092E-02 6.64329E-03
 -1       425-5.13555E-04 4.61263E-02 7.34266E-03
 -1       426-4.30850E-04 5.77442E-02 6.74872E-03
 -1       427-1.95807E-04 6.13205E-02 5.12033E-03
 -1       428 1.62770E-04 5.44933E-02 2.87145E-03
 -1       429 5.78578E-04 3.63952E-02 4.42797E-04
 -1       430 9.69240E-04 8.02933E-03-1.81767E-03
 -1       431 1.25841E-03-2.78524E-02-3.72548E-03
 -1       432 1.43189E-03-6.75422E-02-5.28227E-03
 -1       433 1.84766E-02-8.33950E-02-8.51093E-02
 -1       434 0.00000E+00 0.00000E+00 0.00000E+00
 -1       435 0.00000E+00 0.00000E+00 0.00000E+00
 -1       436 1.43189E-03-6.75422E-02 5.28227E-03
 -1       437 1.25841E-03-2.78524E-02 3.72548E-03
 -1       438 9.69240E-04 8.02933E-03 1.81767E-03
 -1       439 5.78578E-04 3.63952E-02-4.42797E-04
 -1       440 1.62770E-04 5.44933E-02-2.87145E-03
 -1       441-1.95807E-04 6.13205E-02-5.12033E-03
 -1       442-4.30850E-04 5.77442E-02-6.74872E-03
 -1       443-5.13555E-04 4.61263E-02-7.34266E-03
 -1       444-4.58855E-04 2.96092E-02-6.64329E-03
 -1       445-3.17523E-04 1.13253E-02-4.64609E-03
 -1       446-1.57069E-04-6.22426E-03-1.63795E-03
 -1       447-3.82856E-05-2.14616E-02 1.84356E-03
 -1       448 4.70257E-06-3.36586E-02 5.12210E-03
 -1       449-2.56247E-05-4.25915E-02 7.53758E-03
 -1       450-9.33583E-05-4.81056E-02 8.60304E-03
 -1       451-1.44162E-04-4.97916E-02 8.12040E-03
 -1       452-1.26894E-04-4.69234E-02 6.22364E-03
 -1       453-1.44241E-05-3.87011E-02 3.33810E-03
 -1       454 1.83555E-04-2.47174E-02 6.84307E-05
 -1       455 4.20371E-04-5.46999E-03-2.95246E-03
 -1       456 6.25388E-04 1.72976E-02-5.21152E-03
 -1       457 7.26389E-04 4.06056E-02-6.42098E-03
 -1       458 6.74372E-04 6.06747E-02-6.55585E-03
 -1       459 4.62900E-04 7.37291E-02-5.81947E-03
 -1       460 1.35247E-04 7.69818E-02-4.55382E-03
 -1       461-2.20966E-04 6.95392E-02-3.12895E-03
 -1       462-4.98621E-04 5.29927E-02-1.84014E-03
 -1       463-5.88219E-04 3.14310E-02-8.72442E-04
 -1       464-3.84166E-04 1.10979E-02-2.49223E-04
 -1       465 1.61736E-02-1.08832E-01 8.49829E-02
 -1       466-9.18538E-03 1.23632E-02-6.32044E-03
 -1       467-1.29523E-02 3.19305E-02-2.40322E-02
 -1       468-1.10421E-02 5.31332E-02-5.03810E-02
 -1       469-5.18328E-03 6.95945E-02-8.32190E-02
 -1       470 2.44595E-03 7.71925E-02-1.18027E-01
 -1       471 9.51796E-03 7.42763E-02-1.47680E-01
 -1       472 1.42045E-02 6.16056E-02-1.63563E-01
 -1       473 1.55611E-02 4.18111E-02-1.57876E-01
 -1       474 1.36835E-02 1.85379E-02-1.26226E-01
 -1       475 9.55501E-03-4.49776E-03-6.96564E-02
 -1       476 4.65178E-03-2.42881E-02 4.62214E-03
 -1       477 4.33115E-04-3.89744E-02 8.41826E-02
 -1       478-2.12030E-03-4.78872E-02 1.53895E-01
 -1       479-2.77722E-03-5.12539E-02 1.99411E-01
 -1       480-2.05667E-03-4.97390E-02 2.10700E-01
 -1       481-9.69342E-04-4.40180E-02 1.84662E-01
 -1       482-5.94133E-04-3.45506E-02 1.26063E-01
 -1       483-1.63791E-03-2.16293E-02 4.65169E-02
 -1       484-4.13065E-03-5.66414E-03-3.82305E-02
 -1       485-7.36282E-03 1.24339E-02-1.11986E-01
 -1       486-1.00911E-02 3.09584E-02-1.61758E-01
 -1       487-1.09484E-02 4.73668E-02-1.80410E-01
 -1       488-8.92491E-03 5.85783E-02-1.67662E-01
 -1       489-3.75652E-03 6.15727E-02-1.29274E-01
 -1       490 3.91734E-03 5.41372E-02-7.47821E-02
 -1       491 1.26986E-02 3.55303E-02-1.45572E-02
 -1       492 2.08563E-02 6.82520E-03 4.28588E-02
 -1       493 2.69000E-02-2.92503E-02 9.24151E-02
 -1       494 3.01646E-02-6.90296E-02 1.32948E-01
 -1       495-1.08434E-02 1.13636E-02-6.79065E-03
 -1       496-1.58735E-02 2.81423E-02-2.40322E-02
 -1       497-1.49872E-02 4.52019E-02-5.02072E-02
 -1       498-9.73747E-03 5.65463E-02-8.28825E-02
 -1       499-1.94834E-03 5.87503E-02-1.17640E-01
 -1       500 6.35387E-03 5.12650E-02-1.47331E-01
 -1       501 1.33998E-02 3.61766E-02-1.63321E-01
 -1       502 1.79658E-02 1.73137E-02-1.57774E-01
 -1       503 1.95480E-02-1.00904E-03-1.26262E-01
 -1       504 1.83369E-02-1.52460E-02-6.97964E-02
 -1       505 1.50273E-02-2.35109E-02 4.42654E-03
 -1       506 1.05317E-02-2.58694E-02 8.39787E-02
 -1       507 5.69352E-03-2.39908E-02 1.53715E-01
 -1       508 1.08752E-03-2.03180E-02 1.99267E-01
 -1       509-3.04022E-03-1.70631E-02 2.10585E-01
 -1       510-6.69134E-03-1.53790E-02 1.84559E-01
 -1       511-9.94065E-03-1.49878E-02 1.25957E-01
 -1       512-1.27467E-02-1.43871E-02 4.64092E-02
 -1       513-1.48294E-02-1.15540E-02-3.83223E-02
 -1       514-1.56710E-02-4.89562E-03-1.12029E-01
 -1       515-1.46505E-02 5.89268E-03-1.61714E-01
 -1       516-1.12719E-02 1.93775E-02-1.80252E-01
 -1       517-5.40586E-03 3.25295E-02-1.67385E-01
 -1       518 2.54532E-03 4.14473E-02-1.28905E-01
 -1       519 1.16361E-02 4.24524E-02-7.43747E-02
 -1       520 2.05487E-02 3.32041E-02-1.41805E-02
 -1       521 2.79246E-02 1.34497E-02 4.31397E-02
 -1       522 3.27886E-02-1.48809E-02 9.25618E-02
 -1       523 3.49337E-02-4.83016E-02 1.32968E-01
 -1       524 1.84766E-02-8.33950E-02 8.51093E-02
 -1       525 4.54135E-04 6.09689E-03-1.23585E-04
 -1       526 3.69211E-04 1.61948E-02-3.64928E-04
 -1       527-6.70853E-05 2.00023E-02-8.01646E-04
 -1       528-6.49588E-04 1.17397E-02-1.45904E-03
 -1       529-1.14940E-03-9.41824E-03-2.24994E-03
 -1       530-1.34900E-03-3.89554E-02-3.00160E-03
 -1       531-1.12126E-03-6.82869E-02-3.49358E-03
 -1       532-4.72033E-04-8.73694E-02-3.51432E-03
 -1       533 4.52000E-04-8.79428E-02-2.92850E-03
 -1       534 1.40128E-03-6.64177E-02-1.73274E-03
 -1       535 2.09620E-03-2.54546E-02-7.92418E-05
 -1       536 2.31258E-03 2.63288E-02 1.74365E-03
 -1       537 1.95307E-03 7.65065E-02 3.37234E-03
 -1       538 1.08171E-03 1.12247E-01 4.45517E-03
 -1       539-8.96743E-05 1.23966E-01 4.74229E-03
 -1       540-1.25991E-03 1.08129E-01 4.15271E-03
 -1       541-2.12439E-03 6.83481E-02 2.79894E-03
 -1       542-2.46254E-03 1.44326E-02 9.61837E-04
 -1       543-2.20042E-03-4.03377E-02-9.78017E-04
 -1       544-1.42957E-03-8.28974E-02-2.63304E-03
 -1       545-3.76910E-04-1.03948E-01-3.69999E-03
 -1       546 6.64817E-04-1.00333E-01-4.02513E-03
 -1       547 1.42415E-03-7.55532E-02-3.62654E-03
 -1       548 1.72896E-03-3.83448E-02-2.66997E-03
 -1       549 1.55213E-03 2.17320E-04-1.40770E-03
 -1       550 1.01212E-03 3.01515E-02-9.94687E-05
 -1       551 3.28333E-04 4.54854E-02 1.06257E-03
 -1       552-2.55478E-04 4.57401E-02 2.00281E-03
 -1       553-5.66226E-04 3.54231E-02 2.76373E-03
 -1       554 3.30002E-04 4.87621E-03-7.14463E-14
 -1       555 1.97423E-04 1.21786E-02-1.56949E-13
 -1       556-3.32114E-04 1.12536E-02-2.28935E-13
 -1       557-1.00048E-03-4.31161E-03-2.72685E-13
 -1       558-1.51950E-03-3.43337E-02-2.89102E-13
 -1       559-1.64664E-03-7.23441E-02-2.79894E-13
 -1       560-1.24482E-03-1.07275E-01-2.52125E-13
 -1       561-3.39982E-04-1.26689E-01-2.07214E-13
 -1       562 8.72138E-04-1.20788E-01-1.38960E-13
 -1       563 2.07414E-03-8.59270E-02-6.75527E-14
 -1       564 2.91752E-03-2.64634E-02-8.31626E-15
 -1       565 3.12818E-03 4.57508E-02 4.09464E-14
 -1       566 2.59382E-03 1.14203E-01 7.60017E-14
 -1       567 1.40537E-03 1.62106E-01 9.29049E-14
 -1       568-1.61348E-04 1.77061E-01 8.74231E-14
 -1       569-1.71950E-03 1.54621E-01 5.44165E-14
 -1       570-2.87893E-03 9.96599E-02-8.44593E-15
 -1       571-3.35572E-03 2.51446E-02-8.77336E-14
 -1       572-3.05069E-03-5.13663E-02-1.68941E-13
 -1       573-2.07371E-03-1.12453E-01-2.42986E-13
 -1       574-7.06982E-04-1.45415E-01-3.02335E-13
 -1       575 6.80738E-04-1.45376E-01-3.39176E-13
 -1       576 1.74235E-03-1.16060E-01-3.41912E-13
 -1       577 2.25014E-03-6.80816E-02-3.07098E-13
 -1       578 2.15444E-03-1.53651E-02-2.32162E-13
 -1       579 1.58739E-03 2.91803E-02-1.12552E-13
 -1       580 8.13249E-04 5.74327E-02 4.60881E-14
 -1       581 1.32734E-04 6.81144E-02 2.27042E-13
 -1       582-2.45146E-04 6.61934E-02 4.12601E-13
 -1       583 4.54135E-04 6.09689E-03 1.23585E-04
 -1       584 3.69211E-04 1.61948E-02 3.64928E-04
 -1       585-6.70853E-05 2.00023E-02 8.01646E-04
 -1       586-6.49588E-04 1.17397E-02 1.45904E-03
 -1       587-1.14940E-03-9.41824E-03 2.24994E-03
 -1       588-1.34900E-03-3.89554E-02 3.00160E-03
 -1       589-1.12126E-03-6.82869E-02 3.49358E-03
 -1       590-4.72033E-04-8.73694E-02 3.51432E-03
 -1       591 4.52000E-04-8.79428E-02 2.92850E-03
 -1       592 1.40128E-03-6.64177E-02 1.73274E-03
 -1       593 2.09620E-03-2.54546E-02 7.92418E-05
 -1       594 2.31258E-03 2.63288E-02-1.74365E-03
 -1       595 1.95307E-03 7.65065E-02-3.37234E-03
 -1       596 1.08171E-03 1.12247E-01-4.45517E-03
 -1       597-8.96743E-05 1.23966E-01-4.74229E-03
 -1       598-1.25991E-03 1.08129E-01-4.15271E-03
 -1       599-2.12439E-03 6.83481E-02-2.79894E-03
 -1       600-2.46254E-03 1.44326E-02-9.61837E-04
 -1       601-2.20042E-03-4.03377E-02 9.78017E-04
 -1       602-1.42957E-03-8.28974E-02 2.63304E-03
 -1       603-3.76910E-04-1.03948E-01 3.69999E-03
 -1       604 6.64817E-04-1.00333E-01 4.02513E-03
 -1       605 1.42415E-03-7.55532E-02 3.62654E-03
 -1       606 1.72896E-03-3.83448E-02 2.66997E-03
 -1       607 1.55213E-03 2.17320E-04 1.40770E-03
 -1       608 1.01212E-03 3.01515E-02 9.94687E-05
 -1       609 3.28333E-04 4.54854E-02-1.06257E-03
 -1       610-2.55478E-04 4.57401E-02-2.00281E-03
 -1       611-5.66226E-04 3.54231E-02-2.76373E-03
 -1       612-4.54135E-04 6.09689E-03-1.23585E-04
 -1       613-3.69211E-04 1.61948E-02-3.64928E-04
 -1       614 6.70853E-05 2.00023E-02-8.01646E-04
 -1       615 6.49588E-04 1.17397E-02-1.45904E-03
 -1       616 1.14940E-03-9.41824E-03-2.24994E-03
 -1       617 1.34900E-03-3.89554E-02-3.00160E-03
 -1       618 1.12126E-03-6.82869E-02-3.49358E-03
 -1       619 4.72033E-04-8.73694E-02-3.51432E-03
 -1       620-4.52000E-04-8.79428E-02-2.92850E-03
 -1       621-1.40128E-03-6.64177E-02-1.73274E-03
 -1       622-2.09620E-03-2.54546E-02-7.92418E-05
 -1       623-2.31258E-03 2.63288E-02 1.74365E-03
 -1       624-1.95307E-03 7.65065E-02 3.37234E-03
 -1       625-1.08171E-03 1.12247E-01 4.45517E-03
 -1       626 8.96743E-05 1.23966E-01 4.74229E-03
 -1       627 1.25991E-03 1.08129E-01 4.15271E-03
 -1       628 2.12439E-03 6.83481E-02 2.79894E-03
 -1       629 2.46254E-03 1.44326E-02 9.61837E-04
 -1       630 2.20042E-03-4.03377E-02-9.78017E-04
 -1       631 1.42957E-03-8.28974E-02-2.63304E-03
 -1       632 3.76910E-04-1.03948E-01-3.69999E-03
 -1       633-6.64817E-04-1.00333E-01-4.02513E-03
 -1       634-1.42415E-03-7.55532E-02-3.62654E-03
 -1       635-1.72896E-03-3.83448E-02-2.66997E-03
 -1       636-1.55213E-03 2.17320E-04-1.40770E-03
 -1       637-1.01212E-03 3.01515E-02-9.94687E-05
 -1       638-3.28333E-04 4.54854E-02 1.06257E-03
 -1       639 2.55478E-04 4.57401E-02 2.00281E-03
 -1       640 5.66226E-04 3.54231E-02 2.76373E-03
 -1       641-3.30002E-04 4.87621E-03-7.22963E-14
 -1       642-1.97423E-04 1.21786E-02-1.57515E-13
 -1       643 3.32114E-04 1.12536E-02-2.27783E-13
 -1       644 1.00048E-03-4.31161E-03-2.69441E-13
 -1       645 1.51950E-03-3.43337E-02-2.82947E-13
 -1       646 1.64664E-03-7.23441E-02-2.74163E-13
 -1       647 1.24482E-03-1.07275E-01-2.49488E-13
 -1       648 3.39982E-04-1.26689E-01-2.04230E-13
 -1       649-8.72138E-04-1.20788E-01-1.37413E-13
 -1       650-2.07414E-03-8.59270E-02-6.67682E-14
 -1       651-2.91752E-03-2.64634E-02-8.97893E-15
 -1       652-3.12818E-03 4.57508E-02 4.05544E-14
 -1       653-2.59382E-03 1.14203E-01 7.59601E-14
 -1       654-1.40537E-03 1.62106E-01 9.25510E-14
 -1       655 1.61348E-04 1.77061E-01 8.86513E-14
 -1       656 1.71950E-03 1.54621E-01 6.17475E-14
 -1       657 2.87893E-03 9.96599E-02 5.92495E-15
 -1       658 3.35572E-03 2.51446E-02-6.81538E-14
 -1       659 3.05069E-03-5.13663E-02-1.46078E-13
 -1       660 2.07371E-03-1.12453E-01-2.23252E-13
 -1       661 7.06982E-04-1.45415E-01-2.87714E-13
 -1       662-6.80738E-04-1.45376E-01-3.27436E-13
 -1       663-1.74235E-03-1.16060E-01-3.35874E-13
 -1       664-2.25014E-03-6.80816E-02-3.11511E-13
 -1       665-2.15444E-03-1.53651E-02-2.42507E-13
 -1       666-1.58739E-03 2.91803E-02-1.21812E-13
 -1       667-8.13249E-04 5.74327E-02 4.02178E-14
 -1       668-1.32734E-04 6.81144E-02 2.22057E-13
 -1       669 2.45146E-04 6.61934E-02 4.07473E-13
 -1       670-4.54135E-04 6.09689E-03 1.23585E-04
 -1       671-3.69211E-04 1.61948E-02 3.64928E-04
 -1       672 6.70853E-05 2.00023E-02 8.01646E-04
 -1       673 6.49588E-04 1.17397E-02 1.45904E-03
 -1       674 1.14940E-03-9.41824E-03 2.24994E-03
 -1       675 1.34900E-03-3.89554E-02 3.00160E-03
 -1       676 1.12126E-03-6.82869E-02 3.49358E-03
 -1       677 4.72033E-04-8.73694E-02 3.51432E-03
 -1       678-4.52000E-04-8.79428E-02 2.92850E-03
 -1       679-1.40128E-03-6.64177E-02 1.73274E-03
 -1       680-2.09620E-03-2.54546E-02 7.92418E-05
 -1       681-2.31258E-03 2.63288E-02-1.74365E-03
 -1       682-1.95307E-03 7.65065E-02-3.37234E-03
 -1       683-1.08171E-03 1.12247E-01-4.45517E-03
 -1       684 8.96743E-05 1.23966E-01-4.74229E-03
 -1       685 1.25991E-03 1.08129E-01-4.15271E-03
 -1       686 2.12439E-03 6.83481E-02-2.79894E-03
 -1       687 2.46254E-03 1.44326E-02-9.61837E-04
 -1       688 2.20042E-03-4.03377E-02 9.78017E-04
 -1       689 1.42957E-03-8.28974E-02 2.63304E-03
 -1       690 3.76910E-04-1.03948E-01 3.69999E-03
 -1       691-6.64817E-04-1.00333E-01 4.02513E-03
 -1       692-1.42415E-03-7.55532E-02 3.62654E-03
 -1       693-1.72896E-03-3.83448E-02 2.66997E-03
 -1       694-1.55213E-03 2.17320E-04 1.40770E-03
 -1       695-1.01212E-03 3.01515E-02 9.94687E-05
 -1       696-3.28333E-04 4.54854E-02-1.06257E-03
 -1       697 2.55478E-04 4.57401E-02-2.00281E-03
 -1       698 5.66226E-04 3.54231E-02-2.76373E-03
 -1       699 3.93040E-03 1.14602E-02-3.23220E-03
 -1       700 6.20143E-03 3.17829E-02-1.20313E-02
 -1       701 5.30032E-03 5.34016E-02-2.52761E-02
 -1       702 2.41186E-03 7.01180E-02-4.19212E-02
 -1       703-1.37329E-03 7.77648E-02-5.96918E-02
 -1       704-4.88208E-03 7.47135E-02-7.49323E-02
 -1       705-7.18658E-03 6.17886E-02-8.32133E-02
 -1       706-7.81310E-03 4.17102E-02-8.05068E-02
 -1       707-6.81531E-03 1.82111E-02-6.45233E-02
 -1       708-4.69635E-03-4.93142E-03-3.57601E-02
 -1       709-2.20748E-03-2.46915E-02 2.11708E-03
 -1       710-8.87242E-05-3.92377E-02 4.27558E-02
 -1       711 1.16562E-03-4.79615E-02 7.84056E-02
 -1       712 1.44412E-03-5.11627E-02 1.01707E-01
 -1       713 1.01793E-03-4.95652E-02 1.07511E-01
 -1       714 4.08398E-04-4.38708E-02 9.42206E-02
 -1       715 1.71039E-04-3.45233E-02 6.42740E-02
 -1       716 6.70903E-04-2.17636E-02 2.36237E-02
 -1       717 1.92694E-03-5.93222E-03-1.96618E-02
 -1       718 3.57965E-03 1.21237E-02-5.72894E-02
 -1       719 4.99530E-03 3.07327E-02-8.26156E-02
 -1       720 5.47443E-03 4.73453E-02-9.20080E-02
 -1       721 4.49636E-03 5.88326E-02-8.53558E-02
 -1       722 1.91723E-03 6.20996E-02-6.56458E-02
 -1       723-1.94934E-03 5.48565E-02-3.77933E-02
 -1       724-6.40519E-03 3.63097E-02-7.12550E-03
 -1       725-1.05803E-02 7.52420E-03 2.20054E-02
 -1       726-1.37411E-02-2.87226E-02 4.70552E-02
 -1       727-1.55225E-02-6.86850E-02 6.75148E-02
 -1       728 4.74105E-03 1.04412E-02-3.44556E-03
 -1       729 7.69846E-03 2.80682E-02-1.20824E-02
 -1       730 7.37311E-03 4.56516E-02-2.52535E-02
 -1       731 4.84742E-03 5.73636E-02-4.18553E-02
 -1       732 1.00955E-03 5.97211E-02-5.96223E-02
 -1       733-3.13671E-03 5.21793E-02-7.48931E-02
 -1       734-6.70097E-03 3.68674E-02-8.32240E-02
 -1       735-9.06091E-03 1.76853E-02-8.05679E-02
 -1       736-9.94449E-03-9.73297E-04-6.46178E-02
 -1       737-9.42149E-03-1.54950E-02-3.58596E-02
 -1       738-7.81417E-03-2.39525E-02 2.04247E-03
 -1       739-5.56075E-03-2.64030E-02 4.27279E-02
 -1       740-3.07745E-03-2.45346E-02 7.84309E-02
 -1       741-6.61013E-04-2.08239E-02 1.01775E-01
 -1       742 1.54312E-03-1.75157E-02 1.07598E-01
 -1       743 3.50571E-03-1.57811E-02 9.42954E-02
 -1       744 5.23407E-03-1.53400E-02 6.43116E-02
 -1       745 6.68506E-03-1.46704E-02 2.36109E-02
 -1       746 7.70943E-03-1.17232E-02-1.97211E-02
 -1       747 8.05419E-03-4.88676E-03-5.73751E-02
 -1       748 7.42752E-03 6.14136E-03-8.26978E-02
 -1       749 5.60693E-03 1.98988E-02-9.20563E-02
 -1       750 2.55279E-03 3.33043E-02-8.53483E-02
 -1       751-1.51675E-03 4.23939E-02-6.55762E-02
 -1       752-6.12467E-03 4.34355E-02-3.76714E-02
 -1       753-1.06228E-02 3.40631E-02-6.97336E-03
 -1       754-1.43550E-02 1.40445E-02 2.21627E-02
 -1       755-1.68608E-02-1.46260E-02 4.71986E-02
 -1       756-1.80904E-02-4.83662E-02 6.76403E-02
 -1       757 4.74105E-03 1.04412E-02 3.44556E-03
 -1       758 7.69846E-03 2.80682E-02 1.20824E-02
 -1       759 7.37311E-03 4.56516E-02 2.52535E-02
 -1       760 4.84742E-03 5.73636E-02 4.18553E-02
 -1       761 1.00955E-03 5.97211E-02 5.96223E-02
 -1       762-3.13671E-03 5.21793E-02 7.48931E-02
 -1       763-6.70097E-03 3.68674E-02 8.32240E-02
 -1       764-9.06091E-03 1.76853E-02 8.05679E-02
 -1       765-9.94449E-03-9.73297E-04 6.46178E-02
 -1       766-9.42149E-03-1.54950E-02 3.58596E-02
 -1       767-7.81417E-03-2.39525E-02-2.04247E-03
 -1       768-5.56075E-03-2.64030E-02-4.27279E-02
 -1       769-3.07745E-03-2.45346E-02-7.84309E-02
 -1       770-6.61013E-04-2.08239E-02-1.01775E-01
 -1       771 1.54312E-03-1.75157E-02-1.07598E-01
 -1       772 3.50571E-03-1.57811E-02-9.42954E-02
 -1       773 5.23407E-03-1.53400E-02-6.43116E-02
 -1       774 6.68506E-03-1.46704E-02-2.36109E-02
 -1       775 7.70943E-03-1.17232E-02 1.97211E-02
 -1       776 8.05419E-03-4.88676E-03 5.73751E-02
 -1       777 7.42752E-03 6.14136E-03 8.26978E-02
 -1       778 5.60693E-03 1.98988E-02 9.20563E-02
 -1       779 2.55279E-03 3.33043E-02 8.53483E-02
 -1       780-1.51675E-03 4.23939E-02 6.55762E-02
 -1       781-6.12467E-03 4.34355E-02 3.76714E-02
 -1       782-1.06228E-02 3.40631E-02 6.97336E-03
 -1       783-1.43550E-02 1.40445E-02-2.21627E-02
 -1       784-1.68608E-02-1.46260E-02-4.71986E-02
 -1       785-1.80904E-02-4.83662E-02-6.76403E-02
 -1       786 3.93040E-03 1.14602E-02 3.23220E-03
 -1       787 6.20143E-03 3.17829E-02 1.20313E-02
 -1       788 5.30032E-03 5.34016E-02 2.52761E-02
 -1       789 2.41186E-03 7.01180E-02 4.19212E-02
 -1       790-1.37329E-03 7.77648E-02 5.96918E-02
 -1       791-4.88208E-03 7.47135E-02 7.49323E-02
 -1       792-7.18658E-03 6.17886E-02 8.32133E-02
 -1       793-7.81310E-03 4.17102E-02 8.05068E-02
 -1       794-6.81531E-03 1.82111E-02 6.45233E-02
 -1       795-4.69635E-03-4.93142E-03 3.57601E-02
 -1       796-2.20748E-03-2.46915E-02-2.11708E-03
 -1       797-8.87242E-05-3.92377E-02-4.27558E-02
 -1       798 1.16562E-03-4.79615E-02-7.84056E-02
 -1       799 1.44412E-03-5.11627E-02-1.01707E-01
 -1       800 1.01793E-03-4.95652E-02-1.07511E-01
 -1       801 4.08398E-04-4.38708E-02-9.42206E-02
 -1       802 1.71039E-04-3.45233E-02-6.42740E-02
 -1       803 6.70903E-04-2.17636E-02-2.36237E-02
 -1       804 1.92694E-03-5.93222E-03 1.96618E-02
 -1       805 3.57965E-03 1.21237E-02 5.72894E-02
 -1       806 4.99530E-03 3.07327E-02 8.26156E-02
 -1       807 5.47443E-03 4.73453E-02 9.20080E-02
 -1       808 4.49636E-03 5.88326E-02 8.53558E-02
 -1       809 1.91723E-03 6.20996E-02 6.56458E-02
 -1       810-1.94934E-03 5.48565E-02 3.77933E-02
 -1       811-6.40519E-03 3.63097E-02 7.12550E-03
 -1       812-1.05803E-02 7.52420E-03-2.20054E-02
 -1       813-1.37411E-02-2.87226E-02-4.70552E-02
 -1       814-1.55225E-02-6.86850E-02-6.75148E-02
 -1       815-3.93040E-03 1.14602E-02 3.23220E-03
 -1       816-6.20143E-03 3.17829E-02 1.20313E-02
 -1       817-5.30032E-03 5.34016E-02 2.52761E-02
 -1       818-2.41186E-03 7.01180E-02 4.19212E-02
 -1       819 1.37329E-03 7.77648E-02 5.96918E-02
 -1       820 4.88208E-03 7.47135E-02 7.49323E-02
 -1       821 7.18658E-03 6.17886E-02 8.32133E-02
 -1       822 7.81310E-03 4.17102E-02 8.05068E-02
 -1       823 6.81531E-03 1.82111E-02 6.45233E-02
 -1       824 4.69635E-03-4.93142E-03 3.57601E-02
 -1       825 2.20748E-03-2.46915E-02-2.11708E-03
 -1       826 8.87242E-05-3.92377E-02-4.27558E-02
 -1       827-1.16562E-03-4.79615E-02-7.84056E-02
 -1       828-1.44412E-03-5.11627E-02-1.01707E-01
 -1       829-1.01793E-03-4.95652E-02-1.07511E-01
 -1       830-4.08398E-04-4.38708E-02-9.42206E-02
 -1       831-1.71039E-04-3.45233E-02-6.42740E-02
 -1       832-6.70903E-04-2.17636E-02-2.36237E-02
 -1       833-1.92694E-03-5.93222E-03 1.96618E-02
 -1       834-3.57965E-03 1.21237E-02 5.72894E-02
 -1       835-4.99530E-03 3.07327E-02 8.26156E-02
 -1       836-5.47443E-03 4.73453E-02 9.20080E-02
 -1       837-4.49636E-03 5.88326E-02 8.53558E-02
 -1       838-1.91723E-03 6.20996E-02 6.56458E-02
 -1       839 1.94934E-03 5.48565E-02 3.77933E-02
 -1       840 6.40519E-03 3.63097E-02 7.12550E-03
 -1       841 1.05803E-02 7.52420E-03-2.20054E-02
 -1       842 1.37411E-02-2.87226E-02-4.70552E-02
 -1       843 1.55225E-02-6.86850E-02-6.75148E-02
 -1       844-4.74105E-03 1.04412E-02 3.44556E-03
 -1       845-7.69846E-03 2.80682E-02 1.20824E-02
 -1       846-7.37311E-03 4.56516E-02 2.52535E-02
 -1       847-4.84742E-03 5.73636E-02 4.18553E-02
 -1       848-1.00955E-03 5.97211E-02 5.96223E-02
 -1       849 3.13671E-03 5.21793E-02 7.48931E-02
 -1       850 6.70097E-03 3.68674E-02 8.32240E-02
 -1       851 9.06091E-03 1.76853E-02 8.05679E-02
 -1       852 9.94449E-03-9.73297E-04 6.46178E-02
 -1       853 9.42149E-03-1.54950E-02 3.58596E-02
 -1       854 7.81417E-03-2.39525E-02-2.04247E-03
 -1       855 5.56075E-03-2.64030E-02-4.27279E-02
 -1       856 3.07745E-03-2.45346E-02-7.84309E-02
 -1       857 6.61013E-04-2.08239E-02-1.01775E-01
 -1       858-1.54312E-03-1.75157E-02-1.07598E-01
 -1       859-3.50571E-03-1.57811E-02-9.42954E-02
 -1       860-5.23407E-03-1.53400E-02-6.43116E-02
 -1       861-6.68506E-03-1.46704E-02-2.36109E-02
 -1       862-7.70943E-03-1.17232E-02 1.97211E-02
 -1       863-8.05419E-03-4.88676E-03 5.73751E-02
 -1       864-7.42752E-03 6.14136E-03 8.26978E-02
 -1       865-5.60693E-03 1.98988E-02 9.20563E-02
 -1       866-2.55279E-03 3.33043E-02 8.53483E-02
 -1       867 1.51675E-03 4.23939E-02 6.55762E-02
 -1       868 6.12467E-03 4.34355E-02 3.76714E-02
 -1       869 1.06228E-02 3.40631E-02 6.97336E-03
 -1       870 1.43550E-02 1.40445E-02-2.21627E-02
 -1       871 1.68608E-02-1.46260E-02-4.71986E-02
 -1       872 1.80904E-02-4.83662E-02-6.76403E-02
 -1       873 1.55225E-02-6.86850E-02 6.75148E-02
 -1       874 1.37411E-02-2.87226E-02 4.70552E-02
 -1       875 1.05803E-02 7.52420E-03 2.20054E-02
 -1       876 6.40519E-03 3.63097E-02-7.12550E-03
 -1       877 1.94934E-03 5.48565E-02-3.77933E-02
 -1       878-1.91723E-03 6.20996E-02-6.56458E-02
 -1       879-4.49636E-03 5.88326E-02-8.53558E-02
 -1       880-5.47443E-03 4.73453E-02-9.20080E-02
 -1       881-4.99530E-03 3.07327E-02-8.26156E-02
 -1       882-3.57965E-03 1.21237E-02-5.72894E-02
 -1       883-1.92694E-03-5.93222E-03-1.96618E-02
 -1       884-6.70903E-04-2.17636E-02 2.36237E-02
 -1       885-1.71039E-04-3.45233E-02 6.42740E-02
 -1       886-4.08398E-04-4.38708E-02 9.42206E-02
 -1       887-1.01793E-03-4.95652E-02 1.07511E-01
 -1       888-1.44412E-03-5.11627E-02 1.01707E-01
 -1       889-1.16562E-03-4.79615E-02 7.84056E-02
 -1       890 8.87242E-05-3.92377E-02 4.27558E-02
 -1       891 2.20748E-03-2.46915E-02 2.11708E-03
 -1       892 4.69635E-03-4.93142E-03-3.57601E-02
 -1       893 6.81531E-03 1.82111E-02-6.45233E-02
 -1       894 7.81310E-03 4.17102E-02-8.05068E-02
 -1       895 7.18658E-03 6.17886E-02-8.32133E-02
 -1       896 4.88208E-03 7.47135E-02-7.49323E-02
 -1       897 1.37329E-03 7.77648E-02-5.96918E-02
 -1       898-2.41186E-03 7.01180E-02-4.19212E-02
 -1       899-5.30032E-03 5.34016E-02-2.52761E-02
 -1       900-6.20143E-03 3.17829E-02-1.20313E-02
 -1       901-3.93040E-03 1.14602E-02-3.23220E-03
 -1       902-4.74105E-03 1.04412E-02-3.44556E-03
 -1       903-7.69846E-03 2.80682E-02-1.20824E-02
 -1       904-7.37311E-03 4.56516E-02-2.52535E-02
 -1       905-4.84742E-03 5.73636E-02-4.18553E-02
 -1       906-1.00955E-03 5.97211E-02-5.96223E-02
 -1       907 3.13671E-03 5.21793E-02-7.48931E-02
 -1       908 6.70097E-03 3.68674E-02-8.32240E-02
 -1       909 9.06091E-03 1.76853E-02-8.05679E-02
 -1       910 9.94449E-03-9.73297E-04-6.46178E-02
 -1       911 9.42149E-03-1.54950E-02-3.58596E-02
 -1       912 7.81417E-03-2.39525E-02 2.04247E-03
 -1       913 5.56075E-03-2.64030E-02 4.27279E-02
 -1       914 3.07745E-03-2.45346E-02 7.84309E-02
 -1       915 6.61013E-04-2.08239E-02 1.01775E-01
 -1       916-1.54312E-03-1.75157E-02 1.07598E-01
 -1       917-3.50571E-03-1.57811E-02 9.42954E-02
 -1       918-5.23407E-03-1.53400E-02 6.43116E-02
 -1       919-6.68506E-03-1.46704E-02 2.36109E-02
 -1       920-7.70943E-03-1.17232E-02-1.97211E-02
 -1       921-8.05419E-03-4.88676E-03-5.73751E-02
 -1       922-7.42752E-03 6.14136E-03-8.26978E-02
 -1       923-5.60693E-03 1.98988E-02-9.20563E-02
 -1       924-2.55279E-03 3.33043E-02-8.53483E-02
 -1       925 1.51675E-03 4.23939E-02-6.55762E-02
 -1       926 6.12467E-03 4.34355E-02-3.76714E-02
 -1       927 1.06228E-02 3.40631E-02-6.97336E-03
 -1       928 1.43550E-02 1.40445E-02 2.21627E-02
 -1       929 1.68608E-02-1.46260E-02 4.71986E-02
 -1       930 1.80904E-02-4.83662E-02 6.76403E-02
 -3
    1PSTEP                        70           1           1          
    1PGM                1.000000E+00                                  
    1PGK                3.040028E+07                                  
    1PHID                         -1                                  
    1PSUBC                         0                                  
    1PMODE                        18                                  
  100CL  118 877.5238154         930                     2   18MODAL      1
 -4  STRESS      6    1
 -5  SXX         1    4    1    1
 -5  SYY         1    4    2    2
 -5  SZZ         1    4    3    3
 -5  SXY         1    4    1    2
 -5  SYZ         1    4    2    3
 -5  SZX         1    4    3    1
 -1         1 1.76467E+09 7.56302E+08 7.56304E+08 8.20387E+09 8.39309E+03-1.92535E+08
 -1         2-1.76467E+09-7.56302E+08-7.56304E+08 8.20387E+09 8.39309E+03 1.92535E+08
 -1         3-4.99679E+09-5.73525E+09-1.10694E+10 1.28600E+09-1.52411E+09 8.43781E+08
 -1         4 4.99679E+09 5.73525E+09 1.10694E+10 1.28600E+09-1.52411E+09-8.43781E+08
 -1         5 1.76467E+09 7.56302E+08 7.56304E+08 8.20387E+09-8.39309E+03 1.92535E+08
 -1         6-1.76467E+09-7.56302E+08-7.56304E+08 8.20387E+09-8.39309E+03-1.92535E+08
 -1         7-4.99679E+09-5.73525E+09-1.10694E+10 1.28600E+09 1.52411E+09-8.43781E+08
 -1         8 4.99679E+09 5.73525E+09 1.10694E+10 1.28600E+09 1.52411E+09 8.43781E+08
 -1         9 1.08590E+09 4.65407E+08 4.65409E+08 8.96348E+09 9.29719E+03-2.01296E+08
 -1        10-3.10546E+09-5.28399E+08-9.90542E+09-4.99491E+09 4.50512E+09 4.99869E+08
 -1        11 2.59656E+10 1.11282E+10 1.11282E+10 9.98545E+09-1.07300E+03-5.10492E+09
 -1        12 3.06527E+10 1.31370E+10 1.31370E+10 9.17812E+09 6.44195E+02-5.48471E+09
 -1        13-2.43968E+09-2.14101E+07-1.39198E+09-4.15276E+09 1.69409E+08 1.72064E+09
 -1        14-2.10099E+09-1.85364E+09-1.84004E+09 3.67778E+09 4.86874E+08 1.67031E+09
 -1        15 1.08590E+09 4.65407E+08 4.65409E+08 8.96348E+09-9.29719E+03 2.01296E+08
 -1        16-3.10546E+09-5.28399E+08-9.90542E+09-4.99491E+09-4.50512E+09-4.99869E+08
 -1        17 3.06527E+10 1.31370E+10 1.31370E+10 9.17812E+09-6.44195E+02 5.48471E+09
 -1        18 2.59656E+10 1.11282E+10 1.11282E+10 9.98545E+09 1.07300E+03 5.10492E+09
 -1        19-2.10099E+09-1.85364E+09-1.84004E+09 3.67778E+09-4.86874E+08-1.67031E+09
 -1        20-2.43968E+09-2.14101E+07-1.39198E+09-4.15276E+09-1.69409E+08-1.72064E+09
 -1        21-3.06527E+10-1.31370E+10-1.31370E+10 9.17812E+09 6.44195E+02 5.48471E+09
 -1        22-2.59656E+10-1.11282E+10-1.11282E+10 9.98545E+09-1.07300E+03 5.10492E+09
 -1        23 2.43968E+09 2.14101E+07 1.39198E+09-4.15276E+09 1.69409E+08-1.72064E+09
 -1        24 2.10099E+09 1.85364E+09 1.84004E+09 3.67778E+09 4.86874E+08-1.67031E+09
 -1        25-1.08590E+09-4.65407E+08-4.65409E+08 8.96348E+09 9.29719E+03 2.01296E+08
 -1        26 3.10546E+09 5.28399E+08 9.90542E+09-4.99491E+09 4.50512E+09-4.99869E+08
 -1        27-1.08590E+09-4.65407E+08-4.65409E+08 8.96348E+09-9.29719E+03-2.01296E+08
 -1        28-2.59656E+10-1.11282E+10-1.11282E+10 9.98545E+09 1.07300E+03-5.10492E+09
 -1        29-3.06527E+10-1.31370E+10-1.31370E+10 9.17812E+09-6.44195E+02-5.48471E+09
 -1        30 3.10546E+09 5.28399E+08 9.90542E+09-4.99491E+09-4.50512E+09 4.99869E+08
 -1        31 2.43968E+09 2.14101E+07 1.39198E+09-4.15276E+09-1.69409E+08 1.72064E+09
 -1        32 2.10099E+09 1.85364E+09 1.84004E+09 3.67778E+09-4.86874E+08 1.67031E+09
 -1        33-9.42698E+08 3.99745E+07-4.69479E+08 9.65935E+08 7.64925E+07-6.04409E+08
 -1        34-1.02409E+09-1.09735E+09-2.16571E+09 4.60443E+08 2.57508E+07-7.12465E+07
 -1        35-1.50103E+09-2.41844E+09-4.09356E+09-4.91092E+08 9.97829E+07 3.62882E+08
 -1        36-2.20645E+09-3.68060E+09-6.25591E+09-1.30205E+09 3.62992E+08 8.06755E+08
 -1        37-3.04527E+09-4.74678E+09-8.22774E+09-1.83318E+09 7.63574E+08 1.07480E+09
 -1        38-3.82656E+09-5.42259E+09-9.66301E+09-1.79825E+09 1.22190E+09 1.03284E+09
 -1        39-4.30310E+09-5.52358E+09-1.01399E+10-1.09197E+09 1.59503E+09 6.16799E+08
 -1        40-4.23340E+09-4.92044E+09-9.32118E+09 2.11164E+08 1.74408E+09-1.27203E+08
 -1        41-3.46632E+09-3.58696E+09-7.06697E+09 1.83151E+09 1.56546E+09-1.04310E+09
 -1        42-2.00483E+09-1.63537E+09-3.52394E+09 3.35465E+09 1.03225E+09-1.89931E+09
 -1        43-3.07804E+07 6.84017E+08 8.56852E+08 4.34316E+09 2.11959E+08-2.45187E+09
 -1        44 2.11961E+09 3.01679E+09 5.38096E+09 4.46557E+09-7.41352E+08-2.51628E+09
 -1        45 4.02663E+09 4.96863E+09 9.24328E+09 3.60124E+09-1.62199E+09-2.02605E+09
 -1        46 5.28685E+09 6.18573E+09 1.17023E+10 1.88786E+09-2.22501E+09-1.05929E+09
 -1        47 5.61529E+09 6.43260E+09 1.22528E+10-3.04831E+08-2.40137E+09 1.76162E+08
 -1        48 4.92127E+09 5.64740E+09 1.07507E+10-2.46935E+09-2.09955E+09 1.39546E+09
 -1        49 3.33627E+09 3.96007E+09 7.45634E+09-4.09606E+09-1.38148E+09 2.31272E+09
 -1        50 1.18502E+09 1.66800E+09 2.98254E+09-4.81067E+09-4.07542E+08 2.71787E+09
 -1        51-1.09240E+09-8.25422E+08-1.83960E+09-4.47324E+09 6.04983E+08 2.53215E+09
 -1        52-3.04612E+09-3.09400E+09-6.14284E+09-3.20998E+09 1.43819E+09 1.82593E+09
 -1        53-4.32054E+09-4.77322E+09-9.20629E+09-1.36927E+09 1.92840E+09 7.94277E+08
 -1        54-4.72869E+09-5.62554E+09-1.05922E+10 5.83987E+08 2.00415E+09-3.01903E+08
 -1        55-4.27762E+09-5.57165E+09-1.02047E+10 2.20325E+09 1.69733E+09-1.21103E+09
 -1        56-3.14053E+09-4.68310E+09-8.26038E+09 3.18397E+09 1.12513E+09-1.75987E+09
 -1        57-1.58725E+09-3.14264E+09-5.18878E+09 3.43887E+09 4.50391E+08-1.89693E+09
 -1        58 9.84794E+07-1.19378E+09-1.50674E+09 3.10436E+09-1.74057E+08-1.69685E+09
 -1        59 1.68961E+09 9.05582E+08 2.29601E+09 2.47657E+09-6.42532E+08-1.33252E+09
 -1        60 3.03622E+09 2.88501E+09 5.78215E+09 1.89750E+09-9.71038E+08-9.95428E+08
 -1        61 4.07527E+09 4.55460E+09 8.64847E+09 1.73730E+09-1.16535E+09-9.09006E+08
 -1        62 9.42698E+08-3.99745E+07 4.69479E+08 9.65935E+08 7.64925E+07 6.04409E+08
 -1        63 1.02409E+09 1.09735E+09 2.16571E+09 4.60443E+08 2.57508E+07 7.12465E+07
 -1        64 1.50103E+09 2.41844E+09 4.09356E+09-4.91092E+08 9.97829E+07-3.62882E+08
 -1        65 2.20645E+09 3.68060E+09 6.25591E+09-1.30205E+09 3.62992E+08-8.06755E+08
 -1        66 3.04527E+09 4.74678E+09 8.22774E+09-1.83318E+09 7.63574E+08-1.07480E+09
 -1        67 3.82656E+09 5.42259E+09 9.66301E+09-1.79825E+09 1.22190E+09-1.03284E+09
 -1        68 4.30310E+09 5.52358E+09 1.01399E+10-1.09197E+09 1.59503E+09-6.16799E+08
 -1        69 4.23340E+09 4.92044E+09 9.32118E+09 2.11164E+08 1.74408E+09 1.27203E+08
 -1        70 3.46632E+09 3.58696E+09 7.06697E+09 1.83151E+09 1.56546E+09 1.04310E+09
 -1        71 2.00483E+09 1.63537E+09 3.52394E+09 3.35465E+09 1.03225E+09 1.89931E+09
 -1        72 3.07804E+07-6.84017E+08-8.56852E+08 4.34316E+09 2.11959E+08 2.45187E+09
 -1        73-2.11961E+09-3.01679E+09-5.38096E+09 4.46557E+09-7.41352E+08 2.51628E+09
 -1        74-4.02663E+09-4.96863E+09-9.24328E+09 3.60124E+09-1.62199E+09 2.02605E+09
 -1        75-5.28685E+09-6.18573E+09-1.17023E+10 1.88786E+09-2.22501E+09 1.05929E+09
 -1        76-5.61529E+09-6.43260E+09-1.22528E+10-3.04831E+08-2.40137E+09-1.76162E+08
 -1        77-4.92127E+09-5.64740E+09-1.07507E+10-2.46935E+09-2.09955E+09-1.39546E+09
 -1        78-3.33627E+09-3.96007E+09-7.45634E+09-4.09606E+09-1.38148E+09-2.31272E+09
 -1        79-1.18502E+09-1.66800E+09-2.98254E+09-4.81067E+09-4.07542E+08-2.71787E+09
 -1        80 1.09240E+09 8.25422E+08 1.83960E+09-4.47324E+09 6.04983E+08-2.53215E+09
 -1        81 3.04612E+09 3.09400E+09 6.14284E+09-3.20998E+09 1.43819E+09-1.82593E+09
 -1        82 4.32054E+09 4.77322E+09 9.20629E+09-1.36927E+09 1.92840E+09-7.94277E+08
 -1        83 4.72869E+09 5.62554E+09 1.05922E+10 5.83987E+08 2.00415E+09 3.01903E+08
 -1        84 4.27762E+09 5.57165E+09 1.02047E+10 2.20325E+09 1.69733E+09 1.21103E+09
 -1        85 3.14053E+09 4.68310E+09 8.26038E+09 3.18397E+09 1.12513E+09 1.75987E+09
 -1        86 1.58725E+09 3.14264E+09 5.18878E+09 3.43887E+09 4.50391E+08 1.89693E+09
 -1        87-9.84794E+07 1.19378E+09 1.50674E+09 3.10436E+09-1.74057E+08 1.69685E+09
 -1        88-1.68961E+09-9.05582E+08-2.29601E+09 2.47657E+09-6.42532E+08 1.33252E+09
 -1        89-3.03622E+09-2.88501E+09-5.78215E+09 1.89750E+09-9.71038E+08 9.95428E+08
 -1        90-4.07527E+09-4.55460E+09-8.64847E+09 1.73730E+09-1.16535E+09 9.09006E+08
 -1        91 1.28380E+09 5.50199E+08 5.50200E+08 4.92434E+09 2.66359E+02-9.98184E+07
 -1        92 9.32888E+08 3.99809E+08 3.99810E+08 3.93843E+09 1.00397E-06-5.77044E-02
 -1        93 1.28380E+09 5.50199E+08 5.50200E+08 4.92434E+09-2.66359E+02 9.98184E+07
 -1        94-1.28380E+09-5.50199E+08-5.50200E+08 4.92434E+09-2.66359E+02-9.98184E+07
 -1        95-9.32888E+08-3.99809E+08-3.99810E+08 3.93843E+09 1.61678E-06-5.83909E-02
 -1        96-1.28380E+09-5.50199E+08-5.50200E+08 4.92434E+09 2.66359E+02 9.98184E+07
 -1        97 9.42698E+08-3.99745E+07 4.69479E+08 9.65935E+08-7.64925E+07-6.04409E+08
 -1        98 1.02409E+09 1.09735E+09 2.16571E+09 4.60443E+08-2.57508E+07-7.12465E+07
 -1        99 1.50103E+09 2.41844E+09 4.09356E+09-4.91092E+08-9.97829E+07 3.62882E+08
 -1       100 2.20645E+09 3.68060E+09 6.25591E+09-1.30205E+09-3.62992E+08 8.06755E+08
 -1       101 3.04527E+09 4.74678E+09 8.22774E+09-1.83318E+09-7.63574E+08 1.07480E+09
 -1       102 3.82656E+09 5.42259E+09 9.66301E+09-1.79825E+09-1.22190E+09 1.03284E+09
 -1       103 4.30310E+09 5.52358E+09 1.01399E+10-1.09197E+09-1.59503E+09 6.16799E+08
 -1       104 4.23340E+09 4.92044E+09 9.32118E+09 2.11164E+08-1.74408E+09-1.27203E+08
 -1       105 3.46632E+09 3.58696E+09 7.06697E+09 1.83151E+09-1.56546E+09-1.04310E+09
 -1       106 2.00483E+09 1.63537E+09 3.52394E+09 3.35465E+09-1.03225E+09-1.89931E+09
 -1       107 3.07804E+07-6.84017E+08-8.56852E+08 4.34316E+09-2.11959E+08-2.45187E+09
 -1       108-2.11961E+09-3.01679E+09-5.38096E+09 4.46557E+09 7.41352E+08-2.51628E+09
 -1       109-4.02663E+09-4.96863E+09-9.24328E+09 3.60124E+09 1.62199E+09-2.02605E+09
 -1       110-5.28685E+09-6.18573E+09-1.17023E+10 1.88786E+09 2.22501E+09-1.05929E+09
 -1       111-5.61529E+09-6.43260E+09-1.22528E+10-3.04831E+08 2.40137E+09 1.76162E+08
 -1       112-4.92127E+09-5.64740E+09-1.07507E+10-2.46935E+09 2.09955E+09 1.39546E+09
 -1       113-3.33627E+09-3.96007E+09-7.45634E+09-4.09606E+09 1.38148E+09 2.31272E+09
 -1       114-1.18502E+09-1.66800E+09-2.98254E+09-4.81067E+09 4.07542E+08 2.71787E+09
 -1       115 1.09240E+09 8.25422E+08 1.83960E+09-4.47324E+09-6.04983E+08 2.53215E+09
 -1       116 3.04612E+09 3.09400E+09 6.14284E+09-3.20998E+09-1.43819E+09 1.82593E+09
 -1       117 4.32054E+09 4.77322E+09 9.20629E+09-1.36927E+09-1.92840E+09 7.94277E+08
 -1       118 4.72869E+09 5.62554E+09 1.05922E+10 5.83987E+08-2.00415E+09-3.01903E+08
 -1       119 4.27762E+09 5.57165E+09 1.02047E+10 2.20325E+09-1.69733E+09-1.21103E+09
 -1       120 3.14053E+09 4.68310E+09 8.26038E+09 3.18397E+09-1.12513E+09-1.75987E+09
 -1       121 1.58725E+09 3.14264E+09 5.18878E+09 3.43887E+09-4.50391E+08-1.89693E+09
 -1       122-9.84794E+07 1.19378E+09 1.50674E+09 3.10436E+09 1.74057E+08-1.69685E+09
 -1       123-1.68961E+09-9.05582E+08-2.29601E+09 2.47657E+09 6.42532E+08-1.33252E+09
 -1       124-3.03622E+09-2.88501E+09-5.78215E+09 1.89750E+09 9.71038E+08-9.95428E+08
 -1       125-4.07527E+09-4.55460E+09-8.64847E+09 1.73730E+09 1.16535E+09-9.09006E+08
 -1       126-4.12106E+09-4.01595E+09-9.26546E+09 2.20667E+08-2.42880E+09 1.06045E+09
 -1       127-4.66144E+09-4.54603E+09-1.04920E+10 3.84499E+08 3.05176E-05 1.85878E-02
 -1       128-4.12106E+09-4.01595E+09-9.26546E+09 2.20667E+08 2.42880E+09-1.06045E+09
 -1       129-9.42698E+08 3.99745E+07-4.69479E+08 9.65935E+08-7.64925E+07 6.04409E+08
 -1       130-1.02409E+09-1.09735E+09-2.16571E+09 4.60443E+08-2.57508E+07 7.12465E+07
 -1       131-1.50103E+09-2.41844E+09-4.09356E+09-4.91092E+08-9.97829E+07-3.62882E+08
 -1       132-2.20645E+09-3.68060E+09-6.25591E+09-1.30205E+09-3.62992E+08-8.06755E+08
 -1       133-3.04527E+09-4.74678E+09-8.22774E+09-1.83318E+09-7.63574E+08-1.07480E+09
 -1       134-3.82656E+09-5.42259E+09-9.66301E+09-1.79825E+09-1.22190E+09-1.03284E+09
 -1       135-4.30310E+09-5.52358E+09-1.01399E+10-1.09197E+09-1.59503E+09-6.16799E+08
 -1       136-4.23340E+09-4.92044E+09-9.32118E+09 2.11164E+08-1.74408E+09 1.27203E+08
 -1       137-3.46632E+09-3.58696E+09-7.06697E+09 1.83151E+09-1.56546E+09 1.04310E+09
 -1       138-2.00483E+09-1.63537E+09-3.52394E+09 3.35465E+09-1.03225E+09 1.89931E+09
 -1       139-3.07804E+07 6.84017E+08 8.56852E+08 4.34316E+09-2.11959E+08 2.45187E+09
 -1       140 2.11961E+09 3.01679E+09 5.38096E+09 4.46557E+09 7.41352E+08 2.51628E+09
 -1       141 4.02663E+09 4.96863E+09 9.24328E+09 3.60124E+09 1.62199E+09 2.02605E+09
 -1       142 5.28685E+09 6.18573E+09 1.17023E+10 1.88786E+09 2.22501E+09 1.05929E+09
 -1       143 5.61529E+09 6.43260E+09 1.22528E+10-3.04831E+08 2.40137E+09-1.76162E+08
 -1       144 4.92127E+09 5.64740E+09 1.07507E+10-2.46935E+09 2.09955E+09-1.39546E+09
 -1       145 3.33627E+09 3.96007E+09 7.45634E+09-4.09606E+09 1.38148E+09-2.31272E+09
 -1       146 1.18502E+09 1.66800E+09 2.98254E+09-4.81067E+09 4.07542E+08-2.71787E+09
 -1       147-1.09240E+09-8.25422E+08-1.83960E+09-4.47324E+09-6.04983E+08-2.53215E+09
 -1       148-3.04612E+09-3.09400E+09-6.14284E+09-3.20998E+09-1.43819E+09-1.82593E+09
 -1       149-4.32054E+09-4.77322E+09-9.20629E+09-1.36927E+09-1.92840E+09-7.94277E+08
 -1       150-4.72869E+09-5.62554E+09-1.05922E+10 5.83987E+08-2.00415E+09 3.01903E+08
 -1       151-4.27762E+09-5.57165E+09-1.02047E+10 2.20325E+09-1.69733E+09 1.21103E+09
 -1       152-3.14053E+09-4.68310E+09-8.26038E+09 3.18397E+09-1.12513E+09 1.75987E+09
 -1       153-1.58725E+09-3.14264E+09-5.18878E+09 3.43887E+09-4.50391E+08 1.89693E+09
 -1       154 9.84794E+07-1.19378E+09-1.50674E+09 3.10436E+09 1.74057E+08 1.69685E+09
 -1       155 1.68961E+09 9.05582E+08 2.29601E+09 2.47657E+09 6.42532E+08 1.33252E+09
 -1       156 3.03622E+09 2.88501E+09 5.78215E+09 1.89750E+09 9.71038E+08 9.95428E+08
 -1       157 4.07527E+09 4.55460E+09 8.64847E+09 1.73730E+09 1.16535E+09 9.09006E+08
 -1       158 4.12106E+09 4.01595E+09 9.26546E+09 2.20667E+08 2.42880E+09 1.06045E+09
 -1       159 4.66144E+09 4.54603E+09 1.04920E+10 3.84499E+08-5.87463E-04 2.13914E-02
 -1       160 4.12106E+09 4.01595E+09 9.26546E+09 2.20667E+08-2.42880E+09-1.06045E+09
 -1       161 4.16539E+08-7.41355E+08 7.12935E+07 5.74289E+09-4.74944E+08 1.08415E+09
 -1       162 7.35566E+08-2.01314E+07 2.07149E+09 6.10420E+09-8.94275E+08 4.75835E+08
 -1       163 8.97696E+08 4.23668E+08 3.85392E+09 6.18131E+09-1.84128E+09 9.78729E+07
 -1       164 1.30496E+09 7.25779E+08 5.84242E+09 5.54769E+09-2.71607E+09-3.59205E+08
 -1       165 1.80817E+09 8.84621E+08 7.53589E+09 4.12904E+09-3.53612E+09-6.98399E+08
 -1       166 2.29911E+09 8.78847E+08 8.67155E+09 1.92680E+09-4.09989E+09-8.07291E+08
 -1       167 2.61783E+09 7.31077E+08 8.91709E+09-9.05619E+08-4.25774E+09-6.13078E+08
 -1       168 2.60617E+09 4.84611E+08 8.03111E+09-4.01651E+09-3.87474E+09-1.35641E+08
 -1       169 2.16118E+09 1.92184E+08 5.94074E+09-6.90005E+09-2.90451E+09 5.14713E+08
 -1       170 1.27767E+09-9.43141E+07 2.80690E+09-8.98945E+09-1.41472E+09 1.16218E+09
 -1       171 6.48089E+07-3.35096E+08-9.70511E+08-9.78873E+09 4.05058E+08 1.61526E+09
 -1       172-1.26841E+09-5.07566E+08-4.80689E+09-9.00597E+09 2.26982E+09 1.72383E+09
 -1       173-2.45803E+09-6.06142E+08-8.04128E+09-6.64950E+09 3.85272E+09 1.42650E+09
 -1       174-3.24876E+09-6.37274E+08-1.00745E+10-3.05650E+09 4.85483E+09 7.72979E+08
 -1       175-3.45933E+09-6.12248E+08-1.05039E+10 1.15953E+09 5.07371E+09-8.60822E+07
 -1       176-3.03127E+09-5.40690E+08-9.22026E+09 5.23289E+09 4.45290E+09-9.39425E+08
 -1       177-2.04688E+09-4.27223E+08-6.43995E+09 8.41164E+09 3.09875E+09-1.57391E+09
 -1       178-7.10933E+08-2.72339E+08-2.66357E+09 1.01233E+10 1.25963E+09-1.83421E+09
 -1       179 6.99098E+08-7.68963E+07 1.42996E+09 1.00975E+10-7.27633E+08-1.66562E+09
 -1       180 1.90043E+09 1.51821E+08 5.12673E+09 8.41453E+09-2.51035E+09-1.12726E+09
 -1       181 2.67123E+09 3.95272E+08 7.82270E+09 5.46924E+09-3.79293E+09-3.71981E+08
 -1       182 2.89766E+09 6.22544E+08 9.13424E+09 1.86349E+09-4.39206E+09 4.00569E+08
 -1       183 2.58929E+09 7.94259E+08 8.94866E+09-1.74196E+09-4.26090E+09 1.00334E+09
 -1       184 1.86025E+09 8.71143E+08 7.40711E+09-4.77417E+09-3.47889E+09 1.31557E+09
 -1       185 8.84008E+08 8.24886E+08 4.83185E+09-6.85346E+09-2.21259E+09 1.31526E+09
 -1       186-1.60336E+08 6.52013E+08 1.63589E+09-7.83895E+09-6.70714E+08 1.07860E+09
 -1       187-1.13358E+09 3.67568E+08-1.76700E+09-7.78509E+09 9.53054E+08 7.56887E+08
 -1       188-1.95438E+09 5.94708E+07-4.95493E+09-6.93597E+09 2.42959E+09 4.96550E+08
 -1       189-2.50221E+09-2.17411E+08-7.55728E+09-5.41914E+09 3.76526E+09 5.28543E+08
 -1       190 1.11105E+10 4.76170E+09 4.76171E+09 9.25609E+09-1.29996E+03-2.61060E+09
 -1       191 1.34021E+10 5.74383E+09 5.74384E+09 8.43307E+09 3.08100E+02-2.78293E+09
 -1       192 1.56649E+09 5.64806E+09 4.13068E+09-4.43123E+09 1.23337E+09 3.29890E+08
 -1       193 1.15341E+10-2.33109E+09-4.55339E+09 2.98962E+09-1.59061E+08 2.14553E+08
 -1       194 2.20700E+09 1.50777E+08 7.07705E+08 3.73975E+09-4.36132E+07-3.16400E+08
 -1       195-8.66288E+09-1.37628E+09-3.09140E+08 4.38751E+09-1.31342E+08-2.99129E+08
 -1       196-1.45642E+10-1.69698E+09 3.56340E+08 4.49228E+09-2.23123E+08-7.13628E+07
 -1       197-1.56908E+10-1.65966E+09 8.09749E+08 3.91258E+09-3.79920E+08 2.58341E+08
 -1       198-1.22485E+10-1.10340E+09 1.42884E+09 2.44361E+09-5.50326E+08 5.41037E+08
 -1       199-5.84960E+09-2.79037E+08 1.93048E+09 1.17439E+08-6.85936E+08 6.97106E+08
 -1       200 1.36236E+09 5.61124E+08 2.15620E+09-2.78821E+09-7.30053E+08 6.91321E+08
 -1       201 7.24329E+09 1.16048E+09 1.96288E+09-5.75553E+09-6.42506E+08 5.40364E+08
 -1       202 1.02829E+10 1.35351E+09 1.31274E+09-8.13679E+09-4.13729E+08 3.01145E+08
 -1       203 9.99714E+09 1.10890E+09 2.89235E+08-9.31587E+09-7.22089E+07 5.14076E+07
 -1       204 6.99754E+09 5.35397E+08-9.11690E+08-8.88123E+09 3.19364E+08-1.35736E+08
 -1       205 2.71546E+09-1.57123E+08-2.02689E+09-6.75850E+09 6.78200E+08-2.14899E+08
 -1       206-1.12328E+09-7.27845E+08-2.79336E+09-3.26060E+09 9.22323E+08-1.81651E+08
 -1       207-3.09932E+09-9.84061E+08-3.01926E+09 9.64219E+08 9.92410E+08-7.16659E+07
 -1       208-2.58014E+09-8.43728E+08-2.63768E+09 5.07640E+09 8.68264E+08 5.36191E+07
 -1       209 7.52944E+07-3.61557E+08-1.72714E+09 8.24406E+09 5.75036E+08 1.29898E+08
 -1       210 3.65238E+09 2.89631E+08-4.92366E+08 9.84290E+09 1.77271E+08 1.13691E+08
 -1       211 6.51065E+09 8.76209E+08 7.89280E+08 9.60240E+09-2.37593E+08-1.06336E+06
 -1       212 7.16481E+09 1.18125E+09 1.84042E+09 7.65881E+09-5.81567E+08-1.79072E+08
 -1       213 4.82431E+09 1.07728E+09 2.45430E+09 4.50233E+09-7.87916E+08-3.53822E+08
 -1       214-2.90033E+08 5.70717E+08 2.54355E+09 8.36123E+08-8.26306E+08-4.48714E+08
 -1       215-6.96417E+09-1.96793E+08 2.15337E+09-2.61052E+09-7.07033E+08-4.02966E+08
 -1       216-1.33505E+10-9.92021E+08 1.43662E+09-5.26045E+09-4.74091E+08-1.94309E+08
 -1       217-1.75676E+10-1.56588E+09 5.98048E+08-6.80756E+09-1.87743E+08 1.46948E+08
 -1       218-1.83580E+10-1.73855E+09-1.70282E+08-7.24409E+09 9.11164E+07 5.42199E+08
 -1       219-1.55754E+10-1.47029E+09-7.44133E+08-6.79167E+09 3.26544E+08 9.11419E+08
 -1       220-1.03478E+10-8.40506E+08-1.07438E+09-5.82991E+09 4.71085E+08 1.15145E+09
 -1       221-4.81462E+09-1.03749E+08-1.15996E+09-4.63249E+09 6.76567E+08 1.50572E+09
 -1       222 1.56082E+10-6.89670E+08-2.83875E+09-1.37472E+08 3.25089E+08 2.14561E+08
 -1       223 5.64763E+09 2.02146E+09 2.30110E+09-1.74403E+09-1.40042E+08-5.63419E+07
 -1       224-5.84221E+09 8.08821E+08 1.19259E+09-2.88127E+09-4.16245E+08-1.63235E+08
 -1       225-1.30984E+10 5.13940E+08 1.45936E+09-3.74591E+09-7.33184E+08 1.46302E+07
 -1       226-1.65289E+10 1.27256E+08 1.09439E+09-3.90235E+09-9.77666E+08 2.63526E+08
 -1       227-1.59732E+10-1.30403E+08 6.03315E+08-3.05214E+09-1.13510E+09 4.82731E+08
 -1       228-1.22850E+10-3.02208E+08-7.09461E+06-1.08423E+09-1.16285E+09 5.97016E+08
 -1       229-6.72859E+09-3.62260E+08-5.48099E+08 1.76788E+09-1.03668E+09 5.78975E+08
 -1       230-7.45603E+08-3.11082E+08-8.75253E+08 4.95279E+09-7.53007E+08 4.42815E+08
 -1       231 4.42907E+09-1.60501E+08-8.97621E+08 7.71758E+09-3.37411E+08 2.36647E+08
 -1       232 8.02815E+09 5.95331E+07-6.16272E+08 9.30597E+09 1.55838E+08 2.56182E+07
 -1       233 9.85425E+09 3.04207E+08-1.24033E+08 9.17606E+09 6.51024E+08-1.29291E+08
 -1       234 1.01990E+10 5.21215E+08 4.21685E+08 7.17298E+09 1.06450E+09-1.90662E+08
 -1       235 9.62295E+09 6.61645E+08 8.47360E+08 3.60160E+09 1.32151E+09-1.55684E+08
 -1       236 8.68017E+09 6.91190E+08 1.01717E+09-8.27344E+08 1.37244E+09-5.53747E+07
 -1       237 7.68743E+09 5.98439E+08 8.75246E+08-5.16652E+09 1.20434E+09 5.75905E+07
 -1       238 6.61620E+09 3.97756E+08 4.62931E+08-8.47092E+09 8.44653E+08 1.28224E+08
 -1       239 5.14242E+09 1.25740E+08-9.45214E+07-1.00390E+10 3.56070E+08 1.19259E+08
 -1       240 2.83171E+09-1.67890E+08-6.27630E+08-9.58752E+09-1.76343E+08 2.51984E+07
 -1       241-6.10625E+08-4.32654E+08-9.76384E+08-7.31134E+09-6.62631E+08-1.24277E+08
 -1       242-5.12032E+09-6.29763E+08-1.04120E+09-3.81226E+09-1.02571E+09-2.72750E+08
 -1       243-1.01738E+10-7.41664E+08-8.15284E+08 7.91172E+07-1.21525E+09-3.54788E+08
 -1       244-1.48572E+10-7.76641E+08-3.88494E+08 3.53493E+09-1.21428E+09-3.17810E+08
 -1       245-1.81001E+10-7.67491E+08 7.90947E+07 5.94604E+09-1.03837E+09-1.41438E+08
 -1       246-1.90102E+10-7.63418E+08 4.06017E+08 7.05969E+09-7.26057E+08 1.50046E+08
 -1       247-1.72137E+10-8.19892E+08 4.48605E+08 6.99693E+09-3.32059E+08 4.91093E+08
 -1       248-1.30975E+10-9.69691E+08 1.49404E+08 6.15889E+09 9.35040E+07 8.18565E+08
 -1       249-7.86965E+09-1.24791E+09-4.53141E+08 5.08475E+09 4.64707E+08 1.04620E+09
 -1       250-3.70088E+09-1.83001E+09-1.34372E+09 4.13467E+09 8.74913E+08 1.42950E+09
 -1       251-9.43074E+08-1.63366E+09 1.19330E+09 3.64614E+09 7.38875E+08 3.30607E+08
 -1       252-2.50221E+09-2.17411E+08-7.55728E+09-5.41914E+09-3.76526E+09-5.28543E+08
 -1       253-1.95438E+09 5.94708E+07-4.95493E+09-6.93597E+09-2.42959E+09-4.96550E+08
 -1       254-1.13358E+09 3.67568E+08-1.76700E+09-7.78509E+09-9.53054E+08-7.56887E+08
 -1       255-1.60336E+08 6.52013E+08 1.63589E+09-7.83895E+09 6.70714E+08-1.07860E+09
 -1       256 8.84008E+08 8.24886E+08 4.83185E+09-6.85346E+09 2.21259E+09-1.31526E+09
 -1       257 1.86025E+09 8.71143E+08 7.40711E+09-4.77417E+09 3.47889E+09-1.31557E+09
 -1       258 2.58929E+09 7.94259E+08 8.94866E+09-1.74196E+09 4.26090E+09-1.00334E+09
 -1       259 2.89766E+09 6.22544E+08 9.13424E+09 1.86349E+09 4.39206E+09-4.00569E+08
 -1       260 2.67123E+09 3.95272E+08 7.82270E+09 5.46924E+09 3.79293E+09 3.71981E+08
 -1       261 1.90043E+09 1.51821E+08 5.12673E+09 8.41453E+09 2.51035E+09 1.12726E+09
 -1       262 6.99098E+08-7.68963E+07 1.42996E+09 1.00975E+10 7.27633E+08 1.66562E+09
 -1       263-7.10933E+08-2.72339E+08-2.66357E+09 1.01233E+10-1.25963E+09 1.83421E+09
 -1       264-2.04688E+09-4.27223E+08-6.43995E+09 8.41164E+09-3.09875E+09 1.57391E+09
 -1       265-3.03127E+09-5.40690E+08-9.22026E+09 5.23289E+09-4.45290E+09 9.39425E+08
 -1       266-3.45933E+09-6.12248E+08-1.05039E+10 1.15953E+09-5.07371E+09 8.60822E+07
 -1       267-3.24876E+09-6.37274E+08-1.00745E+10-3.05650E+09-4.85483E+09-7.72979E+08
 -1       268-2.45803E+09-6.06142E+08-8.04128E+09-6.64950E+09-3.85272E+09-1.42650E+09
 -1       269-1.26841E+09-5.07566E+08-4.80689E+09-9.00597E+09-2.26982E+09-1.72383E+09
 -1       270 6.48089E+07-3.35096E+08-9.70511E+08-9.78873E+09-4.05058E+08-1.61526E+09
 -1       271 1.27767E+09-9.43141E+07 2.80690E+09-8.98945E+09 1.41472E+09-1.16218E+09
 -1       272 2.16118E+09 1.92184E+08 5.94074E+09-6.90005E+09 2.90451E+09-5.14713E+08
 -1       273 2.60617E+09 4.84611E+08 8.03111E+09-4.01651E+09 3.87474E+09 1.35641E+08
 -1       274 2.61783E+09 7.31077E+08 8.91709E+09-9.05619E+08 4.25774E+09 6.13078E+08
 -1       275 2.29911E+09 8.78847E+08 8.67155E+09 1.92680E+09 4.09989E+09 8.07291E+08
 -1       276 1.80817E+09 8.84621E+08 7.53589E+09 4.12904E+09 3.53612E+09 6.98399E+08
 -1       277 1.30496E+09 7.25779E+08 5.84242E+09 5.54769E+09 2.71607E+09 3.59205E+08
 -1       278 8.97696E+08 4.23668E+08 3.85392E+09 6.18131E+09 1.84128E+09-9.78729E+07
 -1       279 7.35566E+08-2.01314E+07 2.07149E+09 6.10420E+09 8.94275E+08-4.75835E+08
 -1       280 4.16539E+08-7.41355E+08 7.12935E+07 5.74289E+09 4.74944E+08-1.08415E+09
 -1       281 1.34021E+10 5.74383E+09 5.74384E+09 8.43307E+09-3.08100E+02 2.78293E+09
 -1       282 1.11105E+10 4.76170E+09 4.76171E+09 9.25609E+09 1.29996E+03 2.61060E+09
 -1       283 1.56082E+10-6.89670E+08-2.83875E+09-1.37472E+08-3.25089E+08-2.14561E+08
 -1       284 5.64763E+09 2.02146E+09 2.30110E+09-1.74403E+09 1.40042E+08 5.63419E+07
 -1       285-5.84221E+09 8.08821E+08 1.19259E+09-2.88127E+09 4.16245E+08 1.63235E+08
 -1       286-1.30984E+10 5.13940E+08 1.45936E+09-3.74591E+09 7.33184E+08-1.46302E+07
 -1       287-1.65289E+10 1.27256E+08 1.09439E+09-3.90235E+09 9.77666E+08-2.63526E+08
 -1       288-1.59732E+10-1.30403E+08 6.03315E+08-3.05214E+09 1.13510E+09-4.82731E+08
 -1       289-1.22850E+10-3.02208E+08-7.09461E+06-1.08423E+09 1.16285E+09-5.97016E+08
 -1       290-6.72859E+09-3.62260E+08-5.48099E+08 1.76788E+09 1.03668E+09-5.78975E+08
 -1       291-7.45603E+08-3.11082E+08-8.75253E+08 4.95279E+09 7.53007E+08-4.42815E+08
 -1       292 4.42907E+09-1.60501E+08-8.97621E+08 7.71758E+09 3.37411E+08-2.36647E+08
 -1       293 8.02815E+09 5.95331E+07-6.16272E+08 9.30597E+09-1.55838E+08-2.56182E+07
 -1       294 9.85425E+09 3.04207E+08-1.24033E+08 9.17606E+09-6.51024E+08 1.29291E+08
 -1       295 1.01990E+10 5.21215E+08 4.21685E+08 7.17298E+09-1.06450E+09 1.90662E+08
 -1       296 9.62295E+09 6.61645E+08 8.47360E+08 3.60160E+09-1.32151E+09 1.55684E+08
 -1       297 8.68017E+09 6.91190E+08 1.01717E+09-8.27344E+08-1.37244E+09 5.53747E+07
 -1       298 7.68743E+09 5.98439E+08 8.75246E+08-5.16652E+09-1.20434E+09-5.75905E+07
 -1       299 6.61620E+09 3.97756E+08 4.62931E+08-8.47092E+09-8.44653E+08-1.28224E+08
 -1       300 5.14242E+09 1.25740E+08-9.45214E+07-1.00390E+10-3.56070E+08-1.19259E+08
 -1       301 2.83171E+09-1.67890E+08-6.27630E+08-9.58752E+09 1.76343E+08-2.51984E+07
 -1       302-6.10625E+08-4.32654E+08-9.76384E+08-7.31134E+09 6.62631E+08 1.24277E+08
 -1       303-5.12032E+09-6.29763E+08-1.04120E+09-3.81226E+09 1.02571E+09 2.72750E+08
 -1       304-1.01738E+10-7.41664E+08-8.15284E+08 7.91172E+07 1.21525E+09 3.54788E+08
 -1       305-1.48572E+10-7.76641E+08-3.88494E+08 3.53493E+09 1.21428E+09 3.17810E+08
 -1       306-1.81001E+10-7.67491E+08 7.90947E+07 5.94604E+09 1.03837E+09 1.41438E+08
 -1       307-1.90102E+10-7.63418E+08 4.06017E+08 7.05969E+09 7.26057E+08-1.50046E+08
 -1       308-1.72137E+10-8.19892E+08 4.48605E+08 6.99693E+09 3.32059E+08-4.91093E+08
 -1       309-1.30975E+10-9.69691E+08 1.49404E+08 6.15889E+09-9.35040E+07-8.18565E+08
 -1       310-7.86965E+09-1.24791E+09-4.53141E+08 5.08475E+09-4.64707E+08-1.04620E+09
 -1       311-3.70088E+09-1.83001E+09-1.34372E+09 4.13467E+09-8.74913E+08-1.42950E+09
 -1       312-9.43074E+08-1.63366E+09 1.19330E+09 3.64614E+09-7.38875E+08-3.30607E+08
 -1       313 1.15341E+10-2.33109E+09-4.55339E+09 2.98962E+09 1.59061E+08-2.14553E+08
 -1       314 2.20700E+09 1.50777E+08 7.07705E+08 3.73975E+09 4.36132E+07 3.16400E+08
 -1       315-8.66288E+09-1.37628E+09-3.09140E+08 4.38751E+09 1.31342E+08 2.99129E+08
 -1       316-1.45642E+10-1.69698E+09 3.56340E+08 4.49228E+09 2.23123E+08 7.13628E+07
 -1       317-1.56908E+10-1.65966E+09 8.09749E+08 3.91258E+09 3.79920E+08-2.58341E+08
 -1       318-1.22485E+10-1.10340E+09 1.42884E+09 2.44361E+09 5.50326E+08-5.41037E+08
 -1       319-5.84960E+09-2.79037E+08 1.93048E+09 1.17439E+08 6.85936E+08-6.97106E+08
 -1       320 1.36236E+09 5.61124E+08 2.15620E+09-2.78821E+09 7.30053E+08-6.91321E+08
 -1       321 7.24329E+09 1.16048E+09 1.96288E+09-5.75553E+09 6.42506E+08-5.40364E+08
 -1       322 1.02829E+10 1.35351E+09 1.31274E+09-8.13679E+09 4.13729E+08-3.01145E+08
 -1       323 9.99714E+09 1.10890E+09 2.89235E+08-9.31587E+09 7.22089E+07-5.14076E+07
 -1       324 6.99754E+09 5.35397E+08-9.11690E+08-8.88123E+09-3.19364E+08 1.35736E+08
 -1       325 2.71546E+09-1.57123E+08-2.02689E+09-6.75850E+09-6.78200E+08 2.14899E+08
 -1       326-1.12328E+09-7.27845E+08-2.79336E+09-3.26060E+09-9.22323E+08 1.81651E+08
 -1       327-3.09932E+09-9.84061E+08-3.01926E+09 9.64219E+08-9.92410E+08 7.16659E+07
 -1       328-2.58014E+09-8.43728E+08-2.63768E+09 5.07640E+09-8.68264E+08-5.36191E+07
 -1       329 7.52944E+07-3.61557E+08-1.72714E+09 8.24406E+09-5.75036E+08-1.29898E+08
 -1       330 3.65238E+09 2.89631E+08-4.92366E+08 9.84290E+09-1.77271E+08-1.13691E+08
 -1       331 6.51065E+09 8.76209E+08 7.89280E+08 9.60240E+09 2.37593E+08 1.06336E+06
 -1       332 7.16481E+09 1.18125E+09 1.84042E+09 7.65881E+09 5.81567E+08 1.79072E+08
 -1       333 4.82431E+09 1.07728E+09 2.45430E+09 4.50233E+09 7.87916E+08 3.53822E+08
 -1       334-2.90033E+08 5.70717E+08 2.54355E+09 8.36123E+08 8.26306E+08 4.48714E+08
 -1       335-6.96417E+09-1.96793E+08 2.15337E+09-2.61052E+09 7.07033E+08 4.02966E+08
 -1       336-1.33505E+10-9.92021E+08 1.43662E+09-5.26045E+09 4.74091E+08 1.94309E+08
 -1       337-1.75676E+10-1.56588E+09 5.98048E+08-6.80756E+09 1.87743E+08-1.46948E+08
 -1       338-1.83580E+10-1.73855E+09-1.70282E+08-7.24409E+09-9.11164E+07-5.42199E+08
 -1       339-1.55754E+10-1.47029E+09-7.44133E+08-6.79167E+09-3.26544E+08-9.11419E+08
 -1       340-1.03478E+10-8.40506E+08-1.07438E+09-5.82991E+09-4.71085E+08-1.15145E+09
 -1       341-4.81462E+09-1.03749E+08-1.15996E+09-4.63249E+09-6.76567E+08-1.50572E+09
 -1       342 1.56649E+09 5.64806E+09 4.13068E+09-4.43123E+09-1.23337E+09-3.29890E+08
 -1       343-1.15341E+10 2.33109E+09 4.55339E+09 2.98962E+09-1.59061E+08-2.14553E+08
 -1       344-2.20700E+09-1.50777E+08-7.07705E+08 3.73975E+09-4.36132E+07 3.16400E+08
 -1       345 8.66288E+09 1.37628E+09 3.09140E+08 4.38751E+09-1.31342E+08 2.99129E+08
 -1       346 1.45642E+10 1.69698E+09-3.56340E+08 4.49228E+09-2.23123E+08 7.13628E+07
 -1       347 1.56908E+10 1.65966E+09-8.09749E+08 3.91258E+09-3.79920E+08-2.58341E+08
 -1       348 1.22485E+10 1.10340E+09-1.42884E+09 2.44361E+09-5.50326E+08-5.41037E+08
 -1       349 5.84960E+09 2.79037E+08-1.93048E+09 1.17439E+08-6.85936E+08-6.97106E+08
 -1       350-1.36236E+09-5.61124E+08-2.15620E+09-2.78821E+09-7.30053E+08-6.91321E+08
 -1       351-7.24329E+09-1.16048E+09-1.96288E+09-5.75553E+09-6.42506E+08-5.40364E+08
 -1       352-1.02829E+10-1.35351E+09-1.31274E+09-8.13679E+09-4.13729E+08-3.01145E+08
 -1       353-9.99714E+09-1.10890E+09-2.89235E+08-9.31587E+09-7.22089E+07-5.14076E+07
 -1       354-6.99754E+09-5.35397E+08 9.11690E+08-8.88123E+09 3.19364E+08 1.35736E+08
 -1       355-2.71546E+09 1.57123E+08 2.02689E+09-6.75850E+09 6.78200E+08 2.14899E+08
 -1       356 1.12328E+09 7.27845E+08 2.79336E+09-3.26060E+09 9.22323E+08 1.81651E+08
 -1       357 3.09932E+09 9.84061E+08 3.01926E+09 9.64219E+08 9.92410E+08 7.16659E+07
 -1       358 2.58014E+09 8.43728E+08 2.63768E+09 5.07640E+09 8.68264E+08-5.36191E+07
 -1       359-7.52944E+07 3.61557E+08 1.72714E+09 8.24406E+09 5.75036E+08-1.29898E+08
 -1       360-3.65238E+09-2.89631E+08 4.92366E+08 9.84290E+09 1.77271E+08-1.13691E+08
 -1       361-6.51065E+09-8.76209E+08-7.89280E+08 9.60240E+09-2.37593E+08 1.06336E+06
 -1       362-7.16481E+09-1.18125E+09-1.84042E+09 7.65881E+09-5.81567E+08 1.79072E+08
 -1       363-4.82431E+09-1.07728E+09-2.45430E+09 4.50233E+09-7.87916E+08 3.53822E+08
 -1       364 2.90033E+08-5.70717E+08-2.54355E+09 8.36123E+08-8.26306E+08 4.48714E+08
 -1       365 6.96417E+09 1.96793E+08-2.15337E+09-2.61052E+09-7.07033E+08 4.02966E+08
 -1       366 1.33505E+10 9.92021E+08-1.43662E+09-5.26045E+09-4.74091E+08 1.94309E+08
 -1       367 1.75676E+10 1.56588E+09-5.98048E+08-6.80756E+09-1.87743E+08-1.46948E+08
 -1       368 1.83580E+10 1.73855E+09 1.70282E+08-7.24409E+09 9.11164E+07-5.42199E+08
 -1       369 1.55754E+10 1.47029E+09 7.44133E+08-6.79167E+09 3.26544E+08-9.11419E+08
 -1       370 1.03478E+10 8.40506E+08 1.07438E+09-5.82991E+09 4.71085E+08-1.15145E+09
 -1       371 4.81462E+09 1.03749E+08 1.15996E+09-4.63249E+09 6.76567E+08-1.50572E+09
 -1       372-1.56082E+10 6.89670E+08 2.83875E+09-1.37472E+08 3.25089E+08-2.14561E+08
 -1       373-5.64763E+09-2.02146E+09-2.30110E+09-1.74403E+09-1.40042E+08 5.63419E+07
 -1       374 5.84221E+09-8.08821E+08-1.19259E+09-2.88127E+09-4.16245E+08 1.63235E+08
 -1       375 1.30984E+10-5.13940E+08-1.45936E+09-3.74591E+09-7.33184E+08-1.46302E+07
 -1       376 1.65289E+10-1.27256E+08-1.09439E+09-3.90235E+09-9.77666E+08-2.63526E+08
 -1       377 1.59732E+10 1.30403E+08-6.03315E+08-3.05214E+09-1.13510E+09-4.82731E+08
 -1       378 1.22850E+10 3.02208E+08 7.09461E+06-1.08423E+09-1.16285E+09-5.97016E+08
 -1       379 6.72859E+09 3.62260E+08 5.48099E+08 1.76788E+09-1.03668E+09-5.78975E+08
 -1       380 7.45603E+08 3.11082E+08 8.75253E+08 4.95279E+09-7.53007E+08-4.42815E+08
 -1       381-4.42907E+09 1.60501E+08 8.97621E+08 7.71758E+09-3.37411E+08-2.36647E+08
 -1       382-8.02815E+09-5.95331E+07 6.16272E+08 9.30597E+09 1.55838E+08-2.56182E+07
 -1       383-9.85425E+09-3.04207E+08 1.24033E+08 9.17606E+09 6.51024E+08 1.29291E+08
 -1       384-1.01990E+10-5.21215E+08-4.21685E+08 7.17298E+09 1.06450E+09 1.90662E+08
 -1       385-9.62295E+09-6.61645E+08-8.47360E+08 3.60160E+09 1.32151E+09 1.55684E+08
 -1       386-8.68017E+09-6.91190E+08-1.01717E+09-8.27344E+08 1.37244E+09 5.53747E+07
 -1       387-7.68743E+09-5.98439E+08-8.75246E+08-5.16652E+09 1.20434E+09-5.75905E+07
 -1       388-6.61620E+09-3.97756E+08-4.62931E+08-8.47092E+09 8.44653E+08-1.28224E+08
 -1       389-5.14242E+09-1.25740E+08 9.45214E+07-1.00390E+10 3.56070E+08-1.19259E+08
 -1       390-2.83171E+09 1.67890E+08 6.27630E+08-9.58752E+09-1.76343E+08-2.51984E+07
 -1       391 6.10625E+08 4.32654E+08 9.76384E+08-7.31134E+09-6.62631E+08 1.24277E+08
 -1       392 5.12032E+09 6.29763E+08 1.04120E+09-3.81226E+09-1.02571E+09 2.72750E+08
 -1       393 1.01738E+10 7.41664E+08 8.15284E+08 7.91172E+07-1.21525E+09 3.54788E+08
 -1       394 1.48572E+10 7.76641E+08 3.88494E+08 3.53493E+09-1.21428E+09 3.17810E+08
 -1       395 1.81001E+10 7.67491E+08-7.90947E+07 5.94604E+09-1.03837E+09 1.41438E+08
 -1       396 1.90102E+10 7.63418E+08-4.06017E+08 7.05969E+09-7.26057E+08-1.50046E+08
 -1       397 1.72137E+10 8.19892E+08-4.48605E+08 6.99693E+09-3.32059E+08-4.91093E+08
 -1       398 1.30975E+10 9.69691E+08-1.49404E+08 6.15889E+09 9.35040E+07-8.18565E+08
 -1       399 7.86965E+09 1.24791E+09 4.53141E+08 5.08475E+09 4.64707E+08-1.04620E+09
 -1       400 3.70088E+09 1.83001E+09 1.34372E+09 4.13467E+09 8.74913E+08-1.42950E+09
 -1       401-1.11105E+10-4.76170E+09-4.76171E+09 9.25609E+09-1.29996E+03 2.61060E+09
 -1       402-1.34021E+10-5.74383E+09-5.74384E+09 8.43307E+09 3.08100E+02 2.78293E+09
 -1       403-1.56649E+09-5.64806E+09-4.13068E+09-4.43123E+09 1.23337E+09-3.29890E+08
 -1       404-4.16539E+08 7.41355E+08-7.12935E+07 5.74289E+09-4.74944E+08-1.08415E+09
 -1       405-7.35566E+08 2.01314E+07-2.07149E+09 6.10420E+09-8.94275E+08-4.75835E+08
 -1       406-8.97696E+08-4.23668E+08-3.85392E+09 6.18131E+09-1.84128E+09-9.78729E+07
 -1       407-1.30496E+09-7.25779E+08-5.84242E+09 5.54769E+09-2.71607E+09 3.59205E+08
 -1       408-1.80817E+09-8.84621E+08-7.53589E+09 4.12904E+09-3.53612E+09 6.98399E+08
 -1       409-2.29911E+09-8.78847E+08-8.67155E+09 1.92680E+09-4.09989E+09 8.07291E+08
 -1       410-2.61783E+09-7.31077E+08-8.91709E+09-9.05619E+08-4.25774E+09 6.13078E+08
 -1       411-2.60617E+09-4.84611E+08-8.03111E+09-4.01651E+09-3.87474E+09 1.35641E+08
 -1       412-2.16118E+09-1.92184E+08-5.94074E+09-6.90005E+09-2.90451E+09-5.14713E+08
 -1       413-1.27767E+09 9.43141E+07-2.80690E+09-8.98945E+09-1.41472E+09-1.16218E+09
 -1       414-6.48089E+07 3.35096E+08 9.70511E+08-9.78873E+09 4.05058E+08-1.61526E+09
 -1       415 1.26841E+09 5.07566E+08 4.80689E+09-9.00597E+09 2.26982E+09-1.72383E+09
 -1       416 2.45803E+09 6.06142E+08 8.04128E+09-6.64950E+09 3.85272E+09-1.42650E+09
 -1       417 3.24876E+09 6.37274E+08 1.00745E+10-3.05650E+09 4.85483E+09-7.72979E+08
 -1       418 3.45933E+09 6.12248E+08 1.05039E+10 1.15953E+09 5.07371E+09 8.60822E+07
 -1       419 3.03127E+09 5.40690E+08 9.22026E+09 5.23289E+09 4.45290E+09 9.39425E+08
 -1       420 2.04688E+09 4.27223E+08 6.43995E+09 8.41164E+09 3.09875E+09 1.57391E+09
 -1       421 7.10933E+08 2.72339E+08 2.66357E+09 1.01233E+10 1.25963E+09 1.83421E+09
 -1       422-6.99098E+08 7.68963E+07-1.42996E+09 1.00975E+10-7.27633E+08 1.66562E+09
 -1       423-1.90043E+09-1.51821E+08-5.12673E+09 8.41453E+09-2.51035E+09 1.12726E+09
 -1       424-2.67123E+09-3.95272E+08-7.82270E+09 5.46924E+09-3.79293E+09 3.71981E+08
 -1       425-2.89766E+09-6.22544E+08-9.13424E+09 1.86349E+09-4.39206E+09-4.00569E+08
 -1       426-2.58929E+09-7.94259E+08-8.94866E+09-1.74196E+09-4.26090E+09-1.00334E+09
 -1       427-1.86025E+09-8.71143E+08-7.40711E+09-4.77417E+09-3.47889E+09-1.31557E+09
 -1       428-8.84008E+08-8.24886E+08-4.83185E+09-6.85346E+09-2.21259E+09-1.31526E+09
 -1       429 1.60336E+08-6.52013E+08-1.63589E+09-7.83895E+09-6.70714E+08-1.07860E+09
 -1       430 1.13358E+09-3.67568E+08 1.76700E+09-7.78509E+09 9.53054E+08-7.56887E+08
 -1       431 1.95438E+09-5.94708E+07 4.95493E+09-6.93597E+09 2.42959E+09-4.96550E+08
 -1       432 2.50221E+09 2.17411E+08 7.55728E+09-5.41914E+09 3.76526E+09-5.28543E+08
 -1       433 9.43074E+08 1.63366E+09-1.19330E+09 3.64614E+09 7.38875E+08-3.30607E+08
 -1       434-1.11105E+10-4.76170E+09-4.76171E+09 9.25609E+09 1.29996E+03-2.61060E+09
 -1       435-1.34021E+10-5.74383E+09-5.74384E+09 8.43307E+09-3.08100E+02-2.78293E+09
 -1       436 2.50221E+09 2.17411E+08 7.55728E+09-5.41914E+09-3.76526E+09 5.28543E+08
 -1       437 1.95438E+09-5.94708E+07 4.95493E+09-6.93597E+09-2.42959E+09 4.96550E+08
 -1       438 1.13358E+09-3.67568E+08 1.76700E+09-7.78509E+09-9.53054E+08 7.56887E+08
 -1       439 1.60336E+08-6.52013E+08-1.63589E+09-7.83895E+09 6.70714E+08 1.07860E+09
 -1       440-8.84008E+08-8.24886E+08-4.83185E+09-6.85346E+09 2.21259E+09 1.31526E+09
 -1       441-1.86025E+09-8.71143E+08-7.40711E+09-4.77417E+09 3.47889E+09 1.31557E+09
 -1       442-2.58929E+09-7.94259E+08-8.94866E+09-1.74196E+09 4.26090E+09 1.00334E+09
 -1       443-2.89766E+09-6.22544E+08-9.13424E+09 1.86349E+09 4.39206E+09 4.00569E+08
 -1       444-2.67123E+09-3.95272E+08-7.82270E+09 5.46924E+09 3.79293E+09-3.71981E+08
 -1       445-1.90043E+09-1.51821E+08-5.12673E+09 8.41453E+09 2.51035E+09-1.12726E+09
 -1       446-6.99098E+08 7.68963E+07-1.42996E+09 1.00975E+10 7.27633E+08-1.66562E+09
 -1       447 7.10933E+08 2.72339E+08 2.66357E+09 1.01233E+10-1.25963E+09-1.83421E+09
 -1       448 2.04688E+09 4.27223E+08 6.43995E+09 8.41164E+09-3.09875E+09-1.57391E+09
 -1       449 3.03127E+09 5.40690E+08 9.22026E+09 5.23289E+09-4.45290E+09-9.39425E+08
 -1       450 3.45933E+09 6.12248E+08 1.05039E+10 1.15953E+09-5.07371E+09-8.60822E+07
 -1       451 3.24876E+09 6.37274E+08 1.00745E+10-3.05650E+09-4.85483E+09 7.72979E+08
 -1       452 2.45803E+09 6.06142E+08 8.04128E+09-6.64950E+09-3.85272E+09 1.42650E+09
 -1       453 1.26841E+09 5.07566E+08 4.80689E+09-9.00597E+09-2.26982E+09 1.72383E+09
 -1       454-6.48089E+07 3.35096E+08 9.70511E+08-9.78873E+09-4.05058E+08 1.61526E+09
 -1       455-1.27767E+09 9.43141E+07-2.80690E+09-8.98945E+09 1.41472E+09 1.16218E+09
 -1       456-2.16118E+09-1.92184E+08-5.94074E+09-6.90005E+09 2.90451E+09 5.14713E+08
 -1       457-2.60617E+09-4.84611E+08-8.03111E+09-4.01651E+09 3.87474E+09-1.35641E+08
 -1       458-2.61783E+09-7.31077E+08-8.91709E+09-9.05619E+08 4.25774E+09-6.13078E+08
 -1       459-2.29911E+09-8.78847E+08-8.67155E+09 1.92680E+09 4.09989E+09-8.07291E+08
 -1       460-1.80817E+09-8.84621E+08-7.53589E+09 4.12904E+09 3.53612E+09-6.98399E+08
 -1       461-1.30496E+09-7.25779E+08-5.84242E+09 5.54769E+09 2.71607E+09-3.59205E+08
 -1       462-8.97696E+08-4.23668E+08-3.85392E+09 6.18131E+09 1.84128E+09 9.78729E+07
 -1       463-7.35566E+08 2.01314E+07-2.07149E+09 6.10420E+09 8.94275E+08 4.75835E+08
 -1       464-4.16539E+08 7.41355E+08-7.12935E+07 5.74289E+09 4.74944E+08 1.08415E+09
 -1       465-1.56649E+09-5.64806E+09-4.13068E+09-4.43123E+09-1.23337E+09 3.29890E+08
 -1       466-1.15341E+10 2.33109E+09 4.55339E+09 2.98962E+09 1.59061E+08 2.14553E+08
 -1       467-2.20700E+09-1.50777E+08-7.07705E+08 3.73975E+09 4.36132E+07-3.16400E+08
 -1       468 8.66288E+09 1.37628E+09 3.09140E+08 4.38751E+09 1.31342E+08-2.99129E+08
 -1       469 1.45642E+10 1.69698E+09-3.56340E+08 4.49228E+09 2.23123E+08-7.13628E+07
 -1       470 1.56908E+10 1.65966E+09-8.09749E+08 3.91258E+09 3.79920E+08 2.58341E+08
 -1       471 1.22485E+10 1.10340E+09-1.42884E+09 2.44361E+09 5.50326E+08 5.41037E+08
 -1       472 5.84960E+09 2.79037E+08-1.93048E+09 1.17439E+08 6.85936E+08 6.97106E+08
 -1       473-1.36236E+09-5.61124E+08-2.15620E+09-2.78821E+09 7.30053E+08 6.91321E+08
 -1       474-7.24329E+09-1.16048E+09-1.96288E+09-5.75553E+09 6.42506E+08 5.40364E+08
 -1       475-1.02829E+10-1.35351E+09-1.31274E+09-8.13679E+09 4.13729E+08 3.01145E+08
 -1       476-9.99714E+09-1.10890E+09-2.89235E+08-9.31587E+09 7.22089E+07 5.14076E+07
 -1       477-6.99754E+09-5.35397E+08 9.11690E+08-8.88123E+09-3.19364E+08-1.35736E+08
 -1       478-2.71546E+09 1.57123E+08 2.02689E+09-6.75850E+09-6.78200E+08-2.14899E+08
 -1       479 1.12328E+09 7.27845E+08 2.79336E+09-3.26060E+09-9.22323E+08-1.81651E+08
 -1       480 3.09932E+09 9.84061E+08 3.01926E+09 9.64219E+08-9.92410E+08-7.16659E+07
 -1       481 2.58014E+09 8.43728E+08 2.63768E+09 5.07640E+09-8.68264E+08 5.36191E+07
 -1       482-7.52944E+07 3.61557E+08 1.72714E+09 8.24406E+09-5.75036E+08 1.29898E+08
 -1       483-3.65238E+09-2.89631E+08 4.92366E+08 9.84290E+09-1.77271E+08 1.13691E+08
 -1       484-6.51065E+09-8.76209E+08-7.89280E+08 9.60240E+09 2.37593E+08-1.06336E+06
 -1       485-7.16481E+09-1.18125E+09-1.84042E+09 7.65881E+09 5.81567E+08-1.79072E+08
 -1       486-4.82431E+09-1.07728E+09-2.45430E+09 4.50233E+09 7.87916E+08-3.53822E+08
 -1       487 2.90033E+08-5.70717E+08-2.54355E+09 8.36123E+08 8.26306E+08-4.48714E+08
 -1       488 6.96417E+09 1.96793E+08-2.15337E+09-2.61052E+09 7.07033E+08-4.02966E+08
 -1       489 1.33505E+10 9.92021E+08-1.43662E+09-5.26045E+09 4.74091E+08-1.94309E+08
 -1       490 1.75676E+10 1.56588E+09-5.98048E+08-6.80756E+09 1.87743E+08 1.46948E+08
 -1       491 1.83580E+10 1.73855E+09 1.70282E+08-7.24409E+09-9.11164E+07 5.42199E+08
 -1       492 1.55754E+10 1.47029E+09 7.44133E+08-6.79167E+09-3.26544E+08 9.11419E+08
 -1       493 1.03478E+10 8.40506E+08 1.07438E+09-5.82991E+09-4.71085E+08 1.15145E+09
 -1       494 4.81462E+09 1.03749E+08 1.15996E+09-4.63249E+09-6.76567E+08 1.50572E+09
 -1       495-1.56082E+10 6.89670E+08 2.83875E+09-1.37472E+08-3.25089E+08 2.14561E+08
 -1       496-5.64763E+09-2.02146E+09-2.30110E+09-1.74403E+09 1.40042E+08-5.63419E+07
 -1       497 5.84221E+09-8.08821E+08-1.19259E+09-2.88127E+09 4.16245E+08-1.63235E+08
 -1       498 1.30984E+10-5.13940E+08-1.45936E+09-3.74591E+09 7.33184E+08 1.46302E+07
 -1       499 1.65289E+10-1.27256E+08-1.09439E+09-3.90235E+09 9.77666E+08 2.63526E+08
 -1       500 1.59732E+10 1.30403E+08-6.03315E+08-3.05214E+09 1.13510E+09 4.82731E+08
 -1       501 1.22850E+10 3.02208E+08 7.09461E+06-1.08423E+09 1.16285E+09 5.97016E+08
 -1       502 6.72859E+09 3.62260E+08 5.48099E+08 1.76788E+09 1.03668E+09 5.78975E+08
 -1       503 7.45603E+08 3.11082E+08 8.75253E+08 4.95279E+09 7.53007E+08 4.42815E+08
 -1       504-4.42907E+09 1.60501E+08 8.97621E+08 7.71758E+09 3.37411E+08 2.36647E+08
 -1       505-8.02815E+09-5.95331E+07 6.16272E+08 9.30597E+09-1.55838E+08 2.56182E+07
 -1       506-9.85425E+09-3.04207E+08 1.24033E+08 9.17606E+09-6.51024E+08-1.29291E+08
 -1       507-1.01990E+10-5.21215E+08-4.21685E+08 7.17298E+09-1.06450E+09-1.90662E+08
 -1       508-9.62295E+09-6.61645E+08-8.47360E+08 3.60160E+09-1.32151E+09-1.55684E+08
 -1       509-8.68017E+09-6.91190E+08-1.01717E+09-8.27344E+08-1.37244E+09-5.53747E+07
 -1       510-7.68743E+09-5.98439E+08-8.75246E+08-5.16652E+09-1.20434E+09 5.75905E+07
 -1       511-6.61620E+09-3.97756E+08-4.62931E+08-8.47092E+09-8.44653E+08 1.28224E+08
 -1       512-5.14242E+09-1.25740E+08 9.45214E+07-1.00390E+10-3.56070E+08 1.19259E+08
 -1       513-2.83171E+09 1.67890E+08 6.27630E+08-9.58752E+09 1.76343E+08 2.51984E+07
 -1       514 6.10625E+08 4.32654E+08 9.76384E+08-7.31134E+09 6.62631E+08-1.24277E+08
 -1       515 5.12032E+09 6.29763E+08 1.04120E+09-3.81226E+09 1.02571E+09-2.72750E+08
 -1       516 1.01738E+10 7.41664E+08 8.15284E+08 7.91172E+07 1.21525E+09-3.54788E+08
 -1       517 1.48572E+10 7.76641E+08 3.88494E+08 3.53493E+09 1.21428E+09-3.17810E+08
 -1       518 1.81001E+10 7.67491E+08-7.90947E+07 5.94604E+09 1.03837E+09-1.41438E+08
 -1       519 1.90102E+10 7.63418E+08-4.06017E+08 7.05969E+09 7.26057E+08 1.50046E+08
 -1       520 1.72137E+10 8.19892E+08-4.48605E+08 6.99693E+09 3.32059E+08 4.91093E+08
 -1       521 1.30975E+10 9.69691E+08-1.49404E+08 6.15889E+09-9.35040E+07 8.18565E+08
 -1       522 7.86965E+09 1.24791E+09 4.53141E+08 5.08475E+09-4.64707E+08 1.04620E+09
 -1       523 3.70088E+09 1.83001E+09 1.34372E+09 4.13467E+09-8.74913E+08 1.42950E+09
 -1       524 9.43074E+08 1.63366E+09-1.19330E+09 3.64614E+09-7.38875E+08 3.30607E+08
 -1       525 6.76716E+08 3.78508E+08 5.84979E+08-1.99008E+09 3.41927E+07-2.74812E+08
 -1       526-2.47513E+08 1.73469E+08 8.25744E+08-1.31948E+09-6.40406E+07-5.24026E+08
 -1       527-3.89031E+08 4.33840E+08 1.83516E+09-5.39060E+08-3.54864E+07-8.74671E+08
 -1       528 2.84262E+08 1.15843E+09 3.57718E+09 3.20209E+08 3.93022E+08-1.16719E+09
 -1       529 1.68866E+09 2.25357E+09 5.82324E+09 1.11680E+09 1.16690E+09-1.25054E+09
 -1       530 3.49786E+09 3.47513E+09 8.08592E+09 1.56519E+09 2.08755E+09-1.01497E+09
 -1       531 5.16789E+09 4.45958E+09 9.69736E+09 1.50948E+09 2.88130E+09-4.27310E+08
 -1       532 6.09822E+09 4.82752E+09 9.99350E+09 9.28485E+08 3.25938E+09 4.44666E+08
 -1       533 5.81470E+09 4.30166E+09 8.52415E+09-2.89131E+07 3.00507E+09 1.43216E+09
 -1       534 4.13956E+09 2.81156E+09 5.23232E+09-1.08537E+09 2.05046E+09 2.30119E+09
 -1       535 1.28077E+09 5.44724E+08 5.34977E+08-1.91865E+09 5.16664E+08 2.81388E+09
 -1       536-2.19229E+09-2.07668E+09-4.72999E+09-2.26181E+09-1.30040E+09 2.79754E+09
 -1       537-5.48531E+09-4.49116E+09-9.48521E+09-1.98784E+09-2.99820E+09 2.19993E+09
 -1       538-7.79040E+09-6.14051E+09-1.26780E+10-1.15208E+09-4.17207E+09 1.11305E+09
 -1       539-8.51077E+09-6.61948E+09-1.35542E+10 2.12511E+07-4.52555E+09-2.43260E+08
 -1       540-7.43220E+09-5.78878E+09-1.18637E+10 1.20461E+09-3.95438E+09-1.57433E+09
 -1       541-4.78931E+09-3.81796E+09-7.93721E+09 2.06485E+09-2.57859E+09-2.58589E+09
 -1       542-1.20614E+09-1.14474E+09-2.60966E+09 2.36301E+09-7.12899E+08-3.06001E+09
 -1       543 2.47217E+09 1.63785E+09 2.98734E+09 2.02528E+09 1.21637E+09-2.91011E+09
 -1       544 5.40722E+09 3.93439E+09 7.70743E+09 1.16345E+09 2.78372E+09-2.19956E+09
 -1       545 6.98762E+09 5.29602E+09 1.06658E+10 3.85861E+07 3.67374E+09-1.11899E+09
 -1       546 6.97825E+09 5.52356E+09 1.14336E+10-1.02033E+09 3.75626E+09 6.99892E+07
 -1       547 5.55686E+09 4.69737E+09 1.01010E+10-1.71709E+09 3.10727E+09 1.10759E+09
 -1       548 3.23202E+09 3.12865E+09 7.19682E+09-1.87633E+09 1.97208E+09 1.80386E+09
 -1       549 6.71750E+08 1.25073E+09 3.49734E+09-1.49248E+09 6.82076E+08 2.08314E+09
 -1       550-1.50429E+09-5.15843E+08-2.15190E+08-7.29942E+08-4.50741E+08 1.99463E+09
 -1       551-2.90829E+09-1.88446E+09-3.37325E+09 1.28125E+08-1.24524E+09 1.68801E+09
 -1       552-3.50136E+09-2.77883E+09-5.76142E+09 7.35136E+08-1.72327E+09 1.35481E+09
 -1       553-3.68110E+09-3.37756E+09-7.57743E+09 6.50650E+08-2.10386E+09 1.13785E+09
 -1       554 4.39614E+08 2.80158E+08 4.94245E+08-1.28036E+09-4.77588E-03-6.18442E-02
 -1       555-4.61744E+08 7.30388E+07 7.05207E+08-1.13283E+09-1.01817E-02-6.29917E-02
 -1       556-6.51654E+08 3.15875E+08 1.70457E+09-4.21225E+08-1.40455E-02-4.52549E-02
 -1       557 2.17313E+08 1.17635E+09 3.70386E+09 3.82285E+08-1.48759E-02-2.49021E-02
 -1       558 2.00987E+09 2.53177E+09 6.42936E+09 1.06702E+09-9.98688E-03-6.75684E-03
 -1       559 4.28801E+09 4.06616E+09 9.26585E+09 1.47278E+09-1.06611E-02 1.15973E-02
 -1       560 6.38586E+09 5.33049E+09 1.13824E+10 1.43513E+09-1.90945E-02 2.18226E-02
 -1       561 7.55812E+09 5.84828E+09 1.19361E+10 9.28680E+08-1.45483E-02 3.22073E-02
 -1       562 7.21703E+09 5.26718E+09 1.03402E+10 7.98307E+07-1.45426E-02 3.93666E-02
 -1       563 5.14227E+09 3.49024E+09 6.49187E+09-8.66890E+08-7.82061E-03 3.44411E-02
 -1       564 1.59280E+09 7.41457E+08 8.78728E+08-1.62381E+09-4.78125E-03 2.23489E-02
 -1       565-2.72294E+09-2.46149E+09-5.48202E+09-1.95071E+09 2.35319E-03 1.46725E-02
 -1       566-6.81655E+09-5.42506E+09-1.12670E+10-1.73149E+09 7.39002E-03 8.78224E-03
 -1       567-9.68257E+09-7.45726E+09-1.51750E+10-1.01274E+09 6.14738E-03-6.86333E-04
 -1       568-1.05782E+10-8.05425E+09-1.62693E+10 7.83467E+06 5.90515E-03-1.82659E-02
 -1       569-9.23649E+09-7.04153E+09-1.42353E+10 1.03996E+09 1.35708E-02-4.50260E-02
 -1       570-5.94919E+09-4.62764E+09-9.47626E+09 1.78815E+09 2.35863E-02-6.42338E-02
 -1       571-1.49241E+09-1.35369E+09-3.01988E+09 2.04098E+09 2.94228E-02-7.12235E-02
 -1       572 3.08273E+09 2.04727E+09 3.74149E+09 1.73456E+09 3.62778E-02-7.05298E-02
 -1       573 6.73363E+09 4.84065E+09 9.40187E+09 9.70596E+08 2.78435E-02-6.39411E-02
 -1       574 8.70041E+09 6.47568E+09 1.28852E+10-1.63895E+07 1.94683E-02-5.61240E-02
 -1       575 8.69158E+09 6.71329E+09 1.36860E+10-9.32127E+08 1.87435E-02-4.37178E-02
 -1       576 6.92998E+09 5.66239E+09 1.19447E+10-1.51226E+09 1.41029E-02-2.67602E-02
 -1       577 4.05137E+09 3.71853E+09 8.34373E+09-1.60022E+09-1.89114E-03-7.65193E-03
 -1       578 8.92162E+08 1.42745E+09 3.86602E+09-1.18917E+09-7.65657E-03 1.45031E-02
 -1       579-1.76648E+09-6.83214E+08-5.10903E+08-4.17790E+08 7.17014E-04 3.48351E-02
 -1       580-3.43662E+09-2.26171E+09-4.10240E+09 4.47658E+08 9.26208E-03 4.75295E-02
 -1       581-4.09810E+09-3.24325E+09-6.71272E+09 1.04477E+09 7.68852E-03 5.31074E-02
 -1       582-4.22582E+09-3.86291E+09-8.65054E+09 1.04785E+09 1.25694E-03 3.66790E-02
 -1       583 6.76716E+08 3.78508E+08 5.84979E+08-1.99008E+09-3.41927E+07 2.74812E+08
 -1       584-2.47513E+08 1.73469E+08 8.25744E+08-1.31948E+09 6.40406E+07 5.24026E+08
 -1       585-3.89031E+08 4.33840E+08 1.83516E+09-5.39060E+08 3.54864E+07 8.74671E+08
 -1       586 2.84262E+08 1.15843E+09 3.57718E+09 3.20209E+08-3.93022E+08 1.16719E+09
 -1       587 1.68866E+09 2.25357E+09 5.82324E+09 1.11680E+09-1.16690E+09 1.25054E+09
 -1       588 3.49786E+09 3.47513E+09 8.08592E+09 1.56519E+09-2.08755E+09 1.01497E+09
 -1       589 5.16789E+09 4.45958E+09 9.69736E+09 1.50948E+09-2.88130E+09 4.27310E+08
 -1       590 6.09822E+09 4.82752E+09 9.99350E+09 9.28485E+08-3.25938E+09-4.44666E+08
 -1       591 5.81470E+09 4.30166E+09 8.52415E+09-2.89131E+07-3.00507E+09-1.43216E+09
 -1       592 4.13956E+09 2.81156E+09 5.23232E+09-1.08537E+09-2.05046E+09-2.30119E+09
 -1       593 1.28077E+09 5.44724E+08 5.34977E+08-1.91865E+09-5.16664E+08-2.81388E+09
 -1       594-2.19229E+09-2.07668E+09-4.72999E+09-2.26181E+09 1.30040E+09-2.79754E+09
 -1       595-5.48531E+09-4.49116E+09-9.48521E+09-1.98784E+09 2.99820E+09-2.19993E+09
 -1       596-7.79040E+09-6.14051E+09-1.26780E+10-1.15208E+09 4.17207E+09-1.11305E+09
 -1       597-8.51077E+09-6.61948E+09-1.35542E+10 2.12511E+07 4.52555E+09 2.43260E+08
 -1       598-7.43220E+09-5.78878E+09-1.18637E+10 1.20461E+09 3.95438E+09 1.57433E+09
 -1       599-4.78931E+09-3.81796E+09-7.93721E+09 2.06485E+09 2.57859E+09 2.58589E+09
 -1       600-1.20614E+09-1.14474E+09-2.60966E+09 2.36301E+09 7.12899E+08 3.06001E+09
 -1       601 2.47217E+09 1.63785E+09 2.98734E+09 2.02528E+09-1.21637E+09 2.91011E+09
 -1       602 5.40722E+09 3.93439E+09 7.70743E+09 1.16345E+09-2.78372E+09 2.19956E+09
 -1       603 6.98762E+09 5.29602E+09 1.06658E+10 3.85861E+07-3.67374E+09 1.11899E+09
 -1       604 6.97825E+09 5.52356E+09 1.14336E+10-1.02033E+09-3.75626E+09-6.99892E+07
 -1       605 5.55686E+09 4.69737E+09 1.01010E+10-1.71709E+09-3.10727E+09-1.10759E+09
 -1       606 3.23202E+09 3.12865E+09 7.19682E+09-1.87633E+09-1.97208E+09-1.80386E+09
 -1       607 6.71750E+08 1.25073E+09 3.49734E+09-1.49248E+09-6.82076E+08-2.08314E+09
 -1       608-1.50429E+09-5.15843E+08-2.15190E+08-7.29942E+08 4.50741E+08-1.99463E+09
 -1       609-2.90829E+09-1.88446E+09-3.37325E+09 1.28125E+08 1.24524E+09-1.68801E+09
 -1       610-3.50136E+09-2.77883E+09-5.76142E+09 7.35136E+08 1.72327E+09-1.35481E+09
 -1       611-3.68110E+09-3.37756E+09-7.57743E+09 6.50650E+08 2.10386E+09-1.13785E+09
 -1       612-6.76716E+08-3.78508E+08-5.84979E+08-1.99008E+09-3.41927E+07-2.74812E+08
 -1       613 2.47513E+08-1.73469E+08-8.25744E+08-1.31948E+09 6.40406E+07-5.24026E+08
 -1       614 3.89031E+08-4.33840E+08-1.83516E+09-5.39060E+08 3.54864E+07-8.74671E+08
 -1       615-2.84262E+08-1.15843E+09-3.57718E+09 3.20209E+08-3.93022E+08-1.16719E+09
 -1       616-1.68866E+09-2.25357E+09-5.82324E+09 1.11680E+09-1.16690E+09-1.25054E+09
 -1       617-3.49786E+09-3.47513E+09-8.08592E+09 1.56519E+09-2.08755E+09-1.01497E+09
 -1       618-5.16789E+09-4.45958E+09-9.69736E+09 1.50948E+09-2.88130E+09-4.27310E+08
 -1       619-6.09822E+09-4.82752E+09-9.99350E+09 9.28485E+08-3.25938E+09 4.44666E+08
 -1       620-5.81470E+09-4.30166E+09-8.52415E+09-2.89131E+07-3.00507E+09 1.43216E+09
 -1       621-4.13956E+09-2.81156E+09-5.23232E+09-1.08537E+09-2.05046E+09 2.30119E+09
 -1       622-1.28077E+09-5.44724E+08-5.34977E+08-1.91865E+09-5.16664E+08 2.81388E+09
 -1       623 2.19229E+09 2.07668E+09 4.72999E+09-2.26181E+09 1.30040E+09 2.79754E+09
 -1       624 5.48531E+09 4.49116E+09 9.48521E+09-1.98784E+09 2.99820E+09 2.19993E+09
 -1       625 7.79040E+09 6.14051E+09 1.26780E+10-1.15208E+09 4.17207E+09 1.11305E+09
 -1       626 8.51077E+09 6.61948E+09 1.35542E+10 2.12511E+07 4.52555E+09-2.43260E+08
 -1       627 7.43220E+09 5.78878E+09 1.18637E+10 1.20461E+09 3.95438E+09-1.57433E+09
 -1       628 4.78931E+09 3.81796E+09 7.93721E+09 2.06485E+09 2.57859E+09-2.58589E+09
 -1       629 1.20614E+09 1.14474E+09 2.60966E+09 2.36301E+09 7.12899E+08-3.06001E+09
 -1       630-2.47217E+09-1.63785E+09-2.98734E+09 2.02528E+09-1.21637E+09-2.91011E+09
 -1       631-5.40722E+09-3.93439E+09-7.70743E+09 1.16345E+09-2.78372E+09-2.19956E+09
 -1       632-6.98762E+09-5.29602E+09-1.06658E+10 3.85861E+07-3.67374E+09-1.11899E+09
 -1       633-6.97825E+09-5.52356E+09-1.14336E+10-1.02033E+09-3.75626E+09 6.99892E+07
 -1       634-5.55686E+09-4.69737E+09-1.01010E+10-1.71709E+09-3.10727E+09 1.10759E+09
 -1       635-3.23202E+09-3.12865E+09-7.19682E+09-1.87633E+09-1.97208E+09 1.80386E+09
 -1       636-6.71750E+08-1.25073E+09-3.49734E+09-1.49248E+09-6.82076E+08 2.08314E+09
 -1       637 1.50429E+09 5.15843E+08 2.15190E+08-7.29942E+08 4.50741E+08 1.99463E+09
 -1       638 2.90829E+09 1.88446E+09 3.37325E+09 1.28125E+08 1.24524E+09 1.68801E+09
 -1       639 3.50136E+09 2.77883E+09 5.76142E+09 7.35136E+08 1.72327E+09 1.35481E+09
 -1       640 3.68110E+09 3.37756E+09 7.57743E+09 6.50650E+08 2.10386E+09 1.13785E+09
 -1       641-4.39614E+08-2.80158E+08-4.94245E+08-1.28036E+09-4.92510E-03-6.20336E-02
 -1       642 4.61744E+08-7.30388E+07-7.05207E+08-1.13283E+09-1.00753E-02-6.07674E-02
 -1       643 6.51654E+08-3.15875E+08-1.70457E+09-4.21225E+08-1.38631E-02-4.19191E-02
 -1       644-2.17313E+08-1.17635E+09-3.70386E+09 3.82285E+08-1.45783E-02-2.08380E-02
 -1       645-2.00987E+09-2.53177E+09-6.42936E+09 1.06702E+09-9.64451E-03-4.68433E-03
 -1       646-4.28801E+09-4.06616E+09-9.26585E+09 1.47278E+09-1.03025E-02 8.52466E-03
 -1       647-6.38586E+09-5.33049E+09-1.13824E+10 1.43513E+09-1.87025E-02 1.98270E-02
 -1       648-7.55812E+09-5.84828E+09-1.19361E+10 9.28680E+08-1.42279E-02 3.14708E-02
 -1       649-7.21703E+09-5.26718E+09-1.03402E+10 7.98307E+07-1.43442E-02 3.71790E-02
 -1       650-5.14227E+09-3.49024E+09-6.49187E+09-8.66890E+08-7.72858E-03 3.21413E-02
 -1       651-1.59280E+09-7.41457E+08-8.78728E+08-1.62381E+09-4.76640E-03 2.08990E-02
 -1       652 2.72294E+09 2.46149E+09 5.48202E+09-1.95071E+09 2.20299E-03 1.48570E-02
 -1       653 6.81655E+09 5.42506E+09 1.12670E+10-1.73149E+09 7.07722E-03 8.56873E-03
 -1       654 9.68257E+09 7.45726E+09 1.51750E+10-1.01274E+09 5.84030E-03 6.23465E-05
 -1       655 1.05782E+10 8.05425E+09 1.62693E+10 7.83467E+06 5.63049E-03-1.22470E-02
 -1       656 9.23649E+09 7.04153E+09 1.42353E+10 1.03996E+09 1.34830E-02-3.46489E-02
 -1       657 5.94919E+09 4.62764E+09 9.47626E+09 1.78815E+09 2.32716E-02-5.48424E-02
 -1       658 1.49241E+09 1.35369E+09 3.01988E+09 2.04098E+09 2.92640E-02-6.45942E-02
 -1       659-3.08273E+09-2.04727E+09-3.74149E+09 1.73456E+09 3.64752E-02-7.02702E-02
 -1       660-6.73363E+09-4.84065E+09-9.40187E+09 9.70596E+08 2.81973E-02-7.05866E-02
 -1       661-8.70041E+09-6.47568E+09-1.28852E+10-1.63895E+07 1.98307E-02-6.22031E-02
 -1       662-8.69158E+09-6.71329E+09-1.36860E+10-9.32127E+08 1.92966E-02-4.97945E-02
 -1       663-6.92998E+09-5.66239E+09-1.19447E+10-1.51226E+09 1.48315E-02-3.95360E-02
 -1       664-4.05137E+09-3.71853E+09-8.34373E+09-1.60022E+09-1.51443E-03-2.08536E-02
 -1       665-8.92162E+08-1.42745E+09-3.86602E+09-1.18917E+09-7.23600E-03 1.06191E-02
 -1       666 1.76648E+09 6.83214E+08 5.10903E+08-4.17790E+08 1.15561E-03 3.83667E-02
 -1       667 3.43662E+09 2.26171E+09 4.10240E+09 4.47658E+08 9.59778E-03 5.09077E-02
 -1       668 4.09810E+09 3.24325E+09 6.71272E+09 1.04477E+09 7.66945E-03 5.38271E-02
 -1       669 4.22582E+09 3.86291E+09 8.65054E+09 1.04785E+09 1.20926E-03 3.80069E-02
 -1       670-6.76716E+08-3.78508E+08-5.84979E+08-1.99008E+09 3.41927E+07 2.74812E+08
 -1       671 2.47513E+08-1.73469E+08-8.25744E+08-1.31948E+09-6.40406E+07 5.24026E+08
 -1       672 3.89031E+08-4.33840E+08-1.83516E+09-5.39060E+08-3.54864E+07 8.74671E+08
 -1       673-2.84262E+08-1.15843E+09-3.57718E+09 3.20209E+08 3.93022E+08 1.16719E+09
 -1       674-1.68866E+09-2.25357E+09-5.82324E+09 1.11680E+09 1.16690E+09 1.25054E+09
 -1       675-3.49786E+09-3.47513E+09-8.08592E+09 1.56519E+09 2.08755E+09 1.01497E+09
 -1       676-5.16789E+09-4.45958E+09-9.69736E+09 1.50948E+09 2.88130E+09 4.27310E+08
 -1       677-6.09822E+09-4.82752E+09-9.99350E+09 9.28485E+08 3.25938E+09-4.44666E+08
 -1       678-5.81470E+09-4.30166E+09-8.52415E+09-2.89131E+07 3.00507E+09-1.43216E+09
 -1       679-4.13956E+09-2.81156E+09-5.23232E+09-1.08537E+09 2.05046E+09-2.30119E+09
 -1       680-1.28077E+09-5.44724E+08-5.34977E+08-1.91865E+09 5.16664E+08-2.81388E+09
 -1       681 2.19229E+09 2.07668E+09 4.72999E+09-2.26181E+09-1.30040E+09-2.79754E+09
 -1       682 5.48531E+09 4.49116E+09 9.48521E+09-1.98784E+09-2.99820E+09-2.19993E+09
 -1       683 7.79040E+09 6.14051E+09 1.26780E+10-1.15208E+09-4.17207E+09-1.11305E+09
 -1       684 8.51077E+09 6.61948E+09 1.35542E+10 2.12511E+07-4.52555E+09 2.43260E+08
 -1       685 7.43220E+09 5.78878E+09 1.18637E+10 1.20461E+09-3.95438E+09 1.57433E+09
 -1       686 4.78931E+09 3.81796E+09 7.93721E+09 2.06485E+09-2.57859E+09 2.58589E+09
 -1       687 1.20614E+09 1.14474E+09 2.60966E+09 2.36301E+09-7.12899E+08 3.06001E+09
 -1       688-2.47217E+09-1.63785E+09-2.98734E+09 2.02528E+09 1.21637E+09 2.91011E+09
 -1       689-5.40722E+09-3.93439E+09-7.70743E+09 1.16345E+09 2.78372E+09 2.19956E+09
 -1       690-6.98762E+09-5.29602E+09-1.06658E+10 3.85861E+07 3.67374E+09 1.11899E+09
 -1       691-6.97825E+09-5.52356E+09-1.14336E+10-1.02033E+09 3.75626E+09-6.99892E+07
 -1       692-5.55686E+09-4.69737E+09-1.01010E+10-1.71709E+09 3.10727E+09-1.10759E+09
 -1       693-3.23202E+09-3.12865E+09-7.19682E+09-1.87633E+09 1.97208E+09-1.80386E+09
 -1       694-6.71750E+08-1.25073E+09-3.49734E+09-1.49248E+09 6.82076E+08-2.08314E+09
 -1       695 1.50429E+09 5.15843E+08 2.15190E+08-7.29942E+08-4.50741E+08-1.99463E+09
 -1       696 2.90829E+09 1.88446E+09 3.37325E+09 1.28125E+08-1.24524E+09-1.68801E+09
 -1       697 3.50136E+09 2.77883E+09 5.76142E+09 7.35136E+08-1.72327E+09-1.35481E+09
 -1       698 3.68110E+09 3.37756E+09 7.57743E+09 6.50650E+08-2.10386E+09-1.13785E+09
 -1       699 5.06170E+09-2.33181E+09-2.49988E+09 4.54038E+09-3.74485E+08-8.72451E+06
 -1       700 7.71132E+08-1.27688E+09-9.47169E+08 5.28498E+09-3.97198E+08 5.42638E+07
 -1       701-5.35202E+09-2.55607E+09-2.02102E+09 5.54451E+09-6.19670E+08 3.30383E+08
 -1       702-8.91926E+09-3.63368E+09-2.74052E+09 5.16212E+09-8.26265E+08 6.73078E+08
 -1       703-9.98293E+09-4.48905E+09-3.25967E+09 4.03360E+09-1.00908E+09 9.24917E+08
 -1       704-8.63916E+09-4.97565E+09-3.47598E+09 2.08215E+09-1.12175E+09 9.43345E+08
 -1       705-5.55481E+09-4.94224E+09-3.31583E+09-5.76497E+08-1.12743E+09 6.54098E+08
 -1       706-1.72814E+09-4.30020E+09-2.75987E+09-3.61730E+09-9.98084E+08 8.23282E+07
 -1       707 1.80379E+09-3.05128E+09-1.84446E+09-6.52914E+09-7.26819E+08-6.50869E+08
 -1       708 4.24508E+09-1.30903E+09-6.67590E+08-8.71689E+09-3.34604E+08-1.35766E+09
 -1       709 5.23600E+09 7.05454E+08 6.21819E+08-9.64327E+09 1.29625E+08-1.83598E+09
 -1       710 4.90329E+09 2.69426E+09 1.84475E+09-8.97565E+09 5.95843E+08-1.92978E+09
 -1       711 3.75610E+09 4.33490E+09 2.82089E+09-6.69453E+09 9.85835E+08-1.57858E+09
 -1       712 2.46784E+09 5.34355E+09 3.39975E+09-3.12924E+09 1.22932E+09-8.40580E+08
 -1       713 1.61937E+09 5.53478E+09 3.48831E+09 1.09444E+09 1.27953E+09 1.18721E+08
 -1       714 1.49057E+09 4.86353E+09 3.06928E+09 5.18519E+09 1.12424E+09 1.06972E+09
 -1       715 1.96882E+09 3.43825E+09 2.20594E+09 8.36346E+09 7.89506E+08 1.78139E+09
 -1       716 2.60376E+09 1.50161E+09 1.03220E+09 1.00387E+10 3.34752E+08 2.08496E+09
 -1       717 2.78791E+09-6.17157E+08-2.70103E+08 9.94024E+09-1.59411E+08 1.91965E+09
 -1       718 2.00100E+09-2.56684E+09-1.50218E+09 8.16696E+09-6.07773E+08 1.34713E+09
 -1       719 3.31610E+07-4.04036E+09-2.48083E+09 5.14604E+09-9.37302E+08 5.30755E+08
 -1       720-2.89172E+09-4.82703E+09-3.06608E+09 1.51354E+09-1.10006E+09-3.13892E+08
 -1       721-6.14021E+09-4.83948E+09-3.17838E+09-2.04693E+09-1.07914E+09-9.81926E+08
 -1       722-8.84226E+09-4.11174E+09-2.80357E+09-4.96161E+09-8.87267E+08-1.33726E+09
 -1       723-1.01658E+10-2.77292E+09-1.98599E+09-6.87656E+09-5.57519E+08-1.34745E+09
 -1       724-9.61105E+09-1.00996E+09-8.19872E+08-7.69221E+09-1.39014E+08-1.08436E+09
 -1       725-7.25498E+09 9.39579E+08 5.51814E+08-7.52010E+09 3.30319E+08-7.02994E+08
 -1       726-3.72301E+09 2.90356E+09 1.98372E+09-6.61039E+09 7.51888E+08-2.86289E+08
 -1       727-2.08928E+08 4.55935E+09 3.25761E+09-5.27233E+09 1.24525E+09-4.65543E+07
 -1       728 7.26114E+09-1.23022E+09-1.50956E+09 1.70389E+09 7.88937E+07-2.93757E+07
 -1       729 3.27805E+09 1.17456E+09 5.40336E+08-1.02553E+07-2.84716E+08 1.49552E+08
 -1       730-2.55079E+09 1.45337E+09 2.21832E+07-1.66526E+09-5.73933E+08 3.77657E+08
 -1       731-6.25906E+09 1.73872E+09-3.30736E+08-3.17100E+09-8.26358E+08 6.92045E+08
 -1       732-8.10710E+09 1.74607E+09-8.26388E+08-3.99622E+09-9.65873E+08 9.14094E+08
 -1       733-8.06409E+09 1.47408E+09-1.36854E+09-3.67711E+09-9.83384E+08 9.10928E+08
 -1       734-6.46258E+09 9.98170E+08-1.80603E+09-1.99525E+09-8.76394E+08 6.13600E+08
 -1       735-3.86905E+09 4.36415E+08-1.98116E+09 8.58914E+08-6.63355E+08 4.84849E+07
 -1       736-9.37912E+08-8.66044E+07-1.77757E+09 4.29464E+09-3.75836E+08-6.66371E+08
 -1       737 1.74560E+09-4.70979E+08-1.16602E+09 7.45280E+09-5.40767E+07-1.34962E+09
 -1       738 3.78548E+09-6.68306E+08-2.25468E+08 9.43875E+09 2.60081E+08-1.80706E+09
 -1       739 5.02654E+09-6.89410E+08 8.66629E+08 9.58419E+09 5.29045E+08-1.88943E+09
 -1       740 5.52900E+09-5.92957E+08 1.87440E+09 7.65904E+09 7.23636E+08-1.53988E+09
 -1       741 5.48268E+09-4.59375E+08 2.56333E+09 3.96571E+09 8.25166E+08-8.15956E+08
 -1       742 5.09602E+09-3.59551E+08 2.76300E+09-7.17270E+08 8.25835E+08 1.21492E+08
 -1       743 4.50105E+09-3.29187E+08 2.41461E+09-5.33004E+09 7.28111E+08 1.05003E+09
 -1       744 3.70764E+09-3.57474E+08 1.58886E+09-8.81026E+09 5.43735E+08 1.74602E+09
 -1       745 2.62159E+09-3.93747E+08 4.68946E+08-1.03754E+10 2.92728E+08 2.04589E+09
 -1       746 1.11751E+09-3.69664E+08-6.96973E+08-9.72655E+09 2.36320E+06 1.89023E+09
 -1       747-8.62815E+08-2.29162E+08-1.66002E+09-7.11472E+09-2.94265E+08 1.33786E+09
 -1       748-3.22633E+09 4.42137E+07-2.23331E+09-3.25265E+09-5.60512E+08 5.45866E+08
 -1       749-5.69528E+09 4.12225E+08-2.33537E+09 9.00056E+08-7.59629E+08-2.77695E+08
 -1       750-7.84498E+09 7.84715E+08-2.00255E+09 4.41237E+09-8.59097E+08-9.34336E+08
 -1       751-9.20927E+09 1.04047E+09-1.36800E+09 6.63536E+09-8.35873E+08-1.29104E+09
 -1       752-9.42677E+09 1.06145E+09-6.13957E+08 7.35846E+09-6.79845E+08-1.31412E+09
 -1       753-8.38566E+09 7.70651E+08 8.19273E+07 6.82328E+09-4.03804E+08-1.07007E+09
 -1       754-6.31351E+09 1.80429E+08 6.06509E+08 5.59563E+09-2.75603E+07-7.06550E+08
 -1       755-3.84041E+09-6.19432E+08 8.91600E+08 4.36964E+09 3.47852E+08-2.99115E+08
 -1       756-1.88686E+09-1.55457E+09 9.20053E+08 3.70091E+09 8.17682E+08-5.33899E+07
 -1       757 7.26114E+09-1.23022E+09-1.50956E+09 1.70389E+09-7.88937E+07 2.93757E+07
 -1       758 3.27805E+09 1.17456E+09 5.40336E+08-1.02553E+07 2.84716E+08-1.49552E+08
 -1       759-2.55079E+09 1.45337E+09 2.21832E+07-1.66526E+09 5.73933E+08-3.77657E+08
 -1       760-6.25906E+09 1.73872E+09-3.30736E+08-3.17100E+09 8.26358E+08-6.92045E+08
 -1       761-8.10710E+09 1.74607E+09-8.26388E+08-3.99622E+09 9.65873E+08-9.14094E+08
 -1       762-8.06409E+09 1.47408E+09-1.36854E+09-3.67711E+09 9.83384E+08-9.10928E+08
 -1       763-6.46258E+09 9.98170E+08-1.80603E+09-1.99525E+09 8.76394E+08-6.13600E+08
 -1       764-3.86905E+09 4.36415E+08-1.98116E+09 8.58914E+08 6.63355E+08-4.84849E+07
 -1       765-9.37912E+08-8.66044E+07-1.77757E+09 4.29464E+09 3.75836E+08 6.66371E+08
 -1       766 1.74560E+09-4.70979E+08-1.16602E+09 7.45280E+09 5.40767E+07 1.34962E+09
 -1       767 3.78548E+09-6.68306E+08-2.25468E+08 9.43875E+09-2.60081E+08 1.80706E+09
 -1       768 5.02654E+09-6.89410E+08 8.66629E+08 9.58419E+09-5.29045E+08 1.88943E+09
 -1       769 5.52900E+09-5.92957E+08 1.87440E+09 7.65904E+09-7.23636E+08 1.53988E+09
 -1       770 5.48268E+09-4.59375E+08 2.56333E+09 3.96571E+09-8.25166E+08 8.15956E+08
 -1       771 5.09602E+09-3.59551E+08 2.76300E+09-7.17270E+08-8.25835E+08-1.21492E+08
 -1       772 4.50105E+09-3.29187E+08 2.41461E+09-5.33004E+09-7.28111E+08-1.05003E+09
 -1       773 3.70764E+09-3.57474E+08 1.58886E+09-8.81026E+09-5.43735E+08-1.74602E+09
 -1       774 2.62159E+09-3.93747E+08 4.68946E+08-1.03754E+10-2.92728E+08-2.04589E+09
 -1       775 1.11751E+09-3.69664E+08-6.96973E+08-9.72655E+09-2.36320E+06-1.89023E+09
 -1       776-8.62815E+08-2.29162E+08-1.66002E+09-7.11472E+09 2.94265E+08-1.33786E+09
 -1       777-3.22633E+09 4.42137E+07-2.23331E+09-3.25265E+09 5.60512E+08-5.45866E+08
 -1       778-5.69528E+09 4.12225E+08-2.33537E+09 9.00056E+08 7.59629E+08 2.77695E+08
 -1       779-7.84498E+09 7.84715E+08-2.00255E+09 4.41237E+09 8.59097E+08 9.34336E+08
 -1       780-9.20927E+09 1.04047E+09-1.36800E+09 6.63536E+09 8.35873E+08 1.29104E+09
 -1       781-9.42677E+09 1.06145E+09-6.13957E+08 7.35846E+09 6.79845E+08 1.31412E+09
 -1       782-8.38566E+09 7.70651E+08 8.19273E+07 6.82328E+09 4.03804E+08 1.07007E+09
 -1       783-6.31351E+09 1.80429E+08 6.06509E+08 5.59563E+09 2.75603E+07 7.06550E+08
 -1       784-3.84041E+09-6.19432E+08 8.91600E+08 4.36964E+09-3.47852E+08 2.99115E+08
 -1       785-1.88686E+09-1.55457E+09 9.20053E+08 3.70091E+09-8.17682E+08 5.33899E+07
 -1       786 5.06170E+09-2.33181E+09-2.49988E+09 4.54038E+09 3.74485E+08 8.72451E+06
 -1       787 7.71132E+08-1.27688E+09-9.47169E+08 5.28498E+09 3.97198E+08-5.42638E+07
 -1       788-5.35202E+09-2.55607E+09-2.02102E+09 5.54451E+09 6.19670E+08-3.30383E+08
 -1       789-8.91926E+09-3.63368E+09-2.74052E+09 5.16212E+09 8.26265E+08-6.73078E+08
 -1       790-9.98293E+09-4.48905E+09-3.25967E+09 4.03360E+09 1.00908E+09-9.24917E+08
 -1       791-8.63916E+09-4.97565E+09-3.47598E+09 2.08215E+09 1.12175E+09-9.43345E+08
 -1       792-5.55481E+09-4.94224E+09-3.31583E+09-5.76497E+08 1.12743E+09-6.54098E+08
 -1       793-1.72814E+09-4.30020E+09-2.75987E+09-3.61730E+09 9.98084E+08-8.23282E+07
 -1       794 1.80379E+09-3.05128E+09-1.84446E+09-6.52914E+09 7.26819E+08 6.50869E+08
 -1       795 4.24508E+09-1.30903E+09-6.67590E+08-8.71689E+09 3.34604E+08 1.35766E+09
 -1       796 5.23600E+09 7.05454E+08 6.21819E+08-9.64327E+09-1.29625E+08 1.83598E+09
 -1       797 4.90329E+09 2.69426E+09 1.84475E+09-8.97565E+09-5.95843E+08 1.92978E+09
 -1       798 3.75610E+09 4.33490E+09 2.82089E+09-6.69453E+09-9.85835E+08 1.57858E+09
 -1       799 2.46784E+09 5.34355E+09 3.39975E+09-3.12924E+09-1.22932E+09 8.40580E+08
 -1       800 1.61937E+09 5.53478E+09 3.48831E+09 1.09444E+09-1.27953E+09-1.18721E+08
 -1       801 1.49057E+09 4.86353E+09 3.06928E+09 5.18519E+09-1.12424E+09-1.06972E+09
 -1       802 1.96882E+09 3.43825E+09 2.20594E+09 8.36346E+09-7.89506E+08-1.78139E+09
 -1       803 2.60376E+09 1.50161E+09 1.03220E+09 1.00387E+10-3.34752E+08-2.08496E+09
 -1       804 2.78791E+09-6.17157E+08-2.70103E+08 9.94024E+09 1.59411E+08-1.91965E+09
 -1       805 2.00100E+09-2.56684E+09-1.50218E+09 8.16696E+09 6.07773E+08-1.34713E+09
 -1       806 3.31610E+07-4.04036E+09-2.48083E+09 5.14604E+09 9.37302E+08-5.30755E+08
 -1       807-2.89172E+09-4.82703E+09-3.06608E+09 1.51354E+09 1.10006E+09 3.13892E+08
 -1       808-6.14021E+09-4.83948E+09-3.17838E+09-2.04693E+09 1.07914E+09 9.81926E+08
 -1       809-8.84226E+09-4.11174E+09-2.80357E+09-4.96161E+09 8.87267E+08 1.33726E+09
 -1       810-1.01658E+10-2.77292E+09-1.98599E+09-6.87656E+09 5.57519E+08 1.34745E+09
 -1       811-9.61105E+09-1.00996E+09-8.19872E+08-7.69221E+09 1.39014E+08 1.08436E+09
 -1       812-7.25498E+09 9.39579E+08 5.51814E+08-7.52010E+09-3.30319E+08 7.02994E+08
 -1       813-3.72301E+09 2.90356E+09 1.98372E+09-6.61039E+09-7.51888E+08 2.86289E+08
 -1       814-2.08928E+08 4.55935E+09 3.25761E+09-5.27233E+09-1.24525E+09 4.65543E+07
 -1       815-5.06170E+09 2.33181E+09 2.49988E+09 4.54038E+09-3.74485E+08 8.72451E+06
 -1       816-7.71132E+08 1.27688E+09 9.47169E+08 5.28498E+09-3.97198E+08-5.42638E+07
 -1       817 5.35202E+09 2.55607E+09 2.02102E+09 5.54451E+09-6.19670E+08-3.30383E+08
 -1       818 8.91926E+09 3.63368E+09 2.74052E+09 5.16212E+09-8.26265E+08-6.73078E+08
 -1       819 9.98293E+09 4.48905E+09 3.25967E+09 4.03360E+09-1.00908E+09-9.24917E+08
 -1       820 8.63916E+09 4.97565E+09 3.47598E+09 2.08215E+09-1.12175E+09-9.43345E+08
 -1       821 5.55481E+09 4.94224E+09 3.31583E+09-5.76497E+08-1.12743E+09-6.54098E+08
 -1       822 1.72814E+09 4.30020E+09 2.75987E+09-3.61730E+09-9.98084E+08-8.23282E+07
 -1       823-1.80379E+09 3.05128E+09 1.84446E+09-6.52914E+09-7.26819E+08 6.50869E+08
 -1       824-4.24508E+09 1.30903E+09 6.67590E+08-8.71689E+09-3.34604E+08 1.35766E+09
 -1       825-5.23600E+09-7.05454E+08-6.21819E+08-9.64327E+09 1.29625E+08 1.83598E+09
 -1       826-4.90329E+09-2.69426E+09-1.84475E+09-8.97565E+09 5.95843E+08 1.92978E+09
 -1       827-3.75610E+09-4.33490E+09-2.82089E+09-6.69453E+09 9.85835E+08 1.57858E+09
 -1       828-2.46784E+09-5.34355E+09-3.39975E+09-3.12924E+09 1.22932E+09 8.40580E+08
 -1       829-1.61937E+09-5.53478E+09-3.48831E+09 1.09444E+09 1.27953E+09-1.18721E+08
 -1       830-1.49057E+09-4.86353E+09-3.06928E+09 5.18519E+09 1.12424E+09-1.06972E+09
 -1       831-1.96882E+09-3.43825E+09-2.20594E+09 8.36346E+09 7.89506E+08-1.78139E+09
 -1       832-2.60376E+09-1.50161E+09-1.03220E+09 1.00387E+10 3.34752E+08-2.08496E+09
 -1       833-2.78791E+09 6.17157E+08 2.70103E+08 9.94024E+09-1.59411E+08-1.91965E+09
 -1       834-2.00100E+09 2.56684E+09 1.50218E+09 8.16696E+09-6.07773E+08-1.34713E+09
 -1       835-3.31610E+07 4.04036E+09 2.48083E+09 5.14604E+09-9.37302E+08-5.30755E+08
 -1       836 2.89172E+09 4.82703E+09 3.06608E+09 1.51354E+09-1.10006E+09 3.13892E+08
 -1       837 6.14021E+09 4.83948E+09 3.17838E+09-2.04693E+09-1.07914E+09 9.81926E+08
 -1       838 8.84226E+09 4.11174E+09 2.80357E+09-4.96161E+09-8.87267E+08 1.33726E+09
 -1       839 1.01658E+10 2.77292E+09 1.98599E+09-6.87656E+09-5.57519E+08 1.34745E+09
 -1       840 9.61105E+09 1.00996E+09 8.19872E+08-7.69221E+09-1.39014E+08 1.08436E+09
 -1       841 7.25498E+09-9.39579E+08-5.51814E+08-7.52010E+09 3.30319E+08 7.02994E+08
 -1       842 3.72301E+09-2.90356E+09-1.98372E+09-6.61039E+09 7.51888E+08 2.86289E+08
 -1       843 2.08928E+08-4.55935E+09-3.25761E+09-5.27233E+09 1.24525E+09 4.65543E+07
 -1       844-7.26114E+09 1.23022E+09 1.50956E+09 1.70389E+09 7.88937E+07 2.93757E+07
 -1       845-3.27805E+09-1.17456E+09-5.40336E+08-1.02553E+07-2.84716E+08-1.49552E+08
 -1       846 2.55079E+09-1.45337E+09-2.21832E+07-1.66526E+09-5.73933E+08-3.77657E+08
 -1       847 6.25906E+09-1.73872E+09 3.30736E+08-3.17100E+09-8.26358E+08-6.92045E+08
 -1       848 8.10710E+09-1.74607E+09 8.26388E+08-3.99622E+09-9.65873E+08-9.14094E+08
 -1       849 8.06409E+09-1.47408E+09 1.36854E+09-3.67711E+09-9.83384E+08-9.10928E+08
 -1       850 6.46258E+09-9.98170E+08 1.80603E+09-1.99525E+09-8.76394E+08-6.13600E+08
 -1       851 3.86905E+09-4.36415E+08 1.98116E+09 8.58914E+08-6.63355E+08-4.84849E+07
 -1       852 9.37912E+08 8.66044E+07 1.77757E+09 4.29464E+09-3.75836E+08 6.66371E+08
 -1       853-1.74560E+09 4.70979E+08 1.16602E+09 7.45280E+09-5.40767E+07 1.34962E+09
 -1       854-3.78548E+09 6.68306E+08 2.25468E+08 9.43875E+09 2.60081E+08 1.80706E+09
 -1       855-5.02654E+09 6.89410E+08-8.66629E+08 9.58419E+09 5.29045E+08 1.88943E+09
 -1       856-5.52900E+09 5.92957E+08-1.87440E+09 7.65904E+09 7.23636E+08 1.53988E+09
 -1       857-5.48268E+09 4.59375E+08-2.56333E+09 3.96571E+09 8.25166E+08 8.15956E+08
 -1       858-5.09602E+09 3.59551E+08-2.76300E+09-7.17270E+08 8.25835E+08-1.21492E+08
 -1       859-4.50105E+09 3.29187E+08-2.41461E+09-5.33004E+09 7.28111E+08-1.05003E+09
 -1       860-3.70764E+09 3.57474E+08-1.58886E+09-8.81026E+09 5.43735E+08-1.74602E+09
 -1       861-2.62159E+09 3.93747E+08-4.68946E+08-1.03754E+10 2.92728E+08-2.04589E+09
 -1       862-1.11751E+09 3.69664E+08 6.96973E+08-9.72655E+09 2.36320E+06-1.89023E+09
 -1       863 8.62815E+08 2.29162E+08 1.66002E+09-7.11472E+09-2.94265E+08-1.33786E+09
 -1       864 3.22633E+09-4.42137E+07 2.23331E+09-3.25265E+09-5.60512E+08-5.45866E+08
 -1       865 5.69528E+09-4.12225E+08 2.33537E+09 9.00056E+08-7.59629E+08 2.77695E+08
 -1       866 7.84498E+09-7.84715E+08 2.00255E+09 4.41237E+09-8.59097E+08 9.34336E+08
 -1       867 9.20927E+09-1.04047E+09 1.36800E+09 6.63536E+09-8.35873E+08 1.29104E+09
 -1       868 9.42677E+09-1.06145E+09 6.13957E+08 7.35846E+09-6.79845E+08 1.31412E+09
 -1       869 8.38566E+09-7.70651E+08-8.19273E+07 6.82328E+09-4.03804E+08 1.07007E+09
 -1       870 6.31351E+09-1.80429E+08-6.06509E+08 5.59563E+09-2.75603E+07 7.06550E+08
 -1       871 3.84041E+09 6.19432E+08-8.91600E+08 4.36964E+09 3.47852E+08 2.99115E+08
 -1       872 1.88686E+09 1.55457E+09-9.20053E+08 3.70091E+09 8.17682E+08 5.33899E+07
 -1       873 2.08928E+08-4.55935E+09-3.25761E+09-5.27233E+09-1.24525E+09-4.65543E+07
 -1       874 3.72301E+09-2.90356E+09-1.98372E+09-6.61039E+09-7.51888E+08-2.86289E+08
 -1       875 7.25498E+09-9.39579E+08-5.51814E+08-7.52010E+09-3.30319E+08-7.02994E+08
 -1       876 9.61105E+09 1.00996E+09 8.19872E+08-7.69221E+09 1.39014E+08-1.08436E+09
 -1       877 1.01658E+10 2.77292E+09 1.98599E+09-6.87656E+09 5.57519E+08-1.34745E+09
 -1       878 8.84226E+09 4.11174E+09 2.80357E+09-4.96161E+09 8.87267E+08-1.33726E+09
 -1       879 6.14021E+09 4.83948E+09 3.17838E+09-2.04693E+09 1.07914E+09-9.81926E+08
 -1       880 2.89172E+09 4.82703E+09 3.06608E+09 1.51354E+09 1.10006E+09-3.13892E+08
 -1       881-3.31610E+07 4.04036E+09 2.48083E+09 5.14604E+09 9.37302E+08 5.30755E+08
 -1       882-2.00100E+09 2.56684E+09 1.50218E+09 8.16696E+09 6.07773E+08 1.34713E+09
 -1       883-2.78791E+09 6.17157E+08 2.70103E+08 9.94024E+09 1.59411E+08 1.91965E+09
 -1       884-2.60376E+09-1.50161E+09-1.03220E+09 1.00387E+10-3.34752E+08 2.08496E+09
 -1       885-1.96882E+09-3.43825E+09-2.20594E+09 8.36346E+09-7.89506E+08 1.78139E+09
 -1       886-1.49057E+09-4.86353E+09-3.06928E+09 5.18519E+09-1.12424E+09 1.06972E+09
 -1       887-1.61937E+09-5.53478E+09-3.48831E+09 1.09444E+09-1.27953E+09 1.18721E+08
 -1       888-2.46784E+09-5.34355E+09-3.39975E+09-3.12924E+09-1.22932E+09-8.40580E+08
 -1       889-3.75610E+09-4.33490E+09-2.82089E+09-6.69453E+09-9.85835E+08-1.57858E+09
 -1       890-4.90329E+09-2.69426E+09-1.84475E+09-8.97565E+09-5.95843E+08-1.92978E+09
 -1       891-5.23600E+09-7.05454E+08-6.21819E+08-9.64327E+09-1.29625E+08-1.83598E+09
 -1       892-4.24508E+09 1.30903E+09 6.67590E+08-8.71689E+09 3.34604E+08-1.35766E+09
 -1       893-1.80379E+09 3.05128E+09 1.84446E+09-6.52914E+09 7.26819E+08-6.50869E+08
 -1       894 1.72814E+09 4.30020E+09 2.75987E+09-3.61730E+09 9.98084E+08 8.23282E+07
 -1       895 5.55481E+09 4.94224E+09 3.31583E+09-5.76497E+08 1.12743E+09 6.54098E+08
 -1       896 8.63916E+09 4.97565E+09 3.47598E+09 2.08215E+09 1.12175E+09 9.43345E+08
 -1       897 9.98293E+09 4.48905E+09 3.25967E+09 4.03360E+09 1.00908E+09 9.24917E+08
 -1       898 8.91926E+09 3.63368E+09 2.74052E+09 5.16212E+09 8.26265E+08 6.73078E+08
 -1       899 5.35202E+09 2.55607E+09 2.02102E+09 5.54451E+09 6.19670E+08 3.30383E+08
 -1       900-7.71132E+08 1.27688E+09 9.47169E+08 5.28498E+09 3.97198E+08 5.42638E+07
 -1       901-5.06170E+09 2.33181E+09 2.49988E+09 4.54038E+09 3.74485E+08-8.72451E+06
 -1       902-7.26114E+09 1.23022E+09 1.50956E+09 1.70389E+09-7.88937E+07-2.93757E+07
 -1       903-3.27805E+09-1.17456E+09-5.40336E+08-1.02553E+07 2.84716E+08 1.49552E+08
 -1       904 2.55079E+09-1.45337E+09-2.21832E+07-1.66526E+09 5.73933E+08 3.77657E+08
 -1       905 6.25906E+09-1.73872E+09 3.30736E+08-3.17100E+09 8.26358E+08 6.92045E+08
 -1       906 8.10710E+09-1.74607E+09 8.26388E+08-3.99622E+09 9.65873E+08 9.14094E+08
 -1       907 8.06409E+09-1.47408E+09 1.36854E+09-3.67711E+09 9.83384E+08 9.10928E+08
 -1       908 6.46258E+09-9.98170E+08 1.80603E+09-1.99525E+09 8.76394E+08 6.13600E+08
 -1       909 3.86905E+09-4.36415E+08 1.98116E+09 8.58914E+08 6.63355E+08 4.84849E+07
 -1       910 9.37912E+08 8.66044E+07 1.77757E+09 4.29464E+09 3.75836E+08-6.66371E+08
 -1       911-1.74560E+09 4.70979E+08 1.16602E+09 7.45280E+09 5.40767E+07-1.34962E+09
 -1       912-3.78548E+09 6.68306E+08 2.25468E+08 9.43875E+09-2.60081E+08-1.80706E+09
 -1       913-5.02654E+09 6.89410E+08-8.66629E+08 9.58419E+09-5.29045E+08-1.88943E+09
 -1       914-5.52900E+09 5.92957E+08-1.87440E+09 7.65904E+09-7.23636E+08-1.53988E+09
 -1       915-5.48268E+09 4.59375E+08-2.56333E+09 3.96571E+09-8.25166E+08-8.15956E+08
 -1       916-5.09602E+09 3.59551E+08-2.76300E+09-7.17270E+08-8.25835E+08 1.21492E+08
 -1       917-4.50105E+09 3.29187E+08-2.41461E+09-5.33004E+09-7.28111E+08 1.05003E+09
 -1       918-3.70764E+09 3.57474E+08-1.58886E+09-8.81026E+09-5.43735E+08 1.74602E+09
 -1       919-2.62159E+09 3.93747E+08-4.68946E+08-1.03754E+10-2.92728E+08 2.04589E+09
 -1       920-1.11751E+09 3.69664E+08 6.96973E+08-9.72655E+09-2.36320E+06 1.89023E+09
 -1       921 8.62815E+08 2.29162E+08 1.66002E+09-7.11472E+09 2.94265E+08 1.33786E+09
 -1       922 3.22633E+09-4.42137E+07 2.23331E+09-3.25265E+09 5.60512E+08 5.45866E+08
 -1       923 5.69528E+09-4.12225E+08 2.33537E+09 9.00056E+08 7.59629E+08-2.77695E+08
 -1       924 7.84498E+09-7.84715E+08 2.00255E+09 4.41237E+09 8.59097E+08-9.34336E+08
 -1       925 9.20927E+09-1.04047E+09 1.36800E+09 6.63536E+09 8.35873E+08-1.29104E+09
 -1       926 9.42677E+09-1.06145E+09 6.13957E+08 7.35846E+09 6.79845E+08-1.31412E+09
 -1       927 8.38566E+09-7.70651E+08-8.19273E+07 6.82328E+09 4.03804E+08-1.07007E+09
 -1       928 6.31351E+09-1.80429E+08-6.06509E+08 5.59563E+09 2.75603E+07-7.06550E+08
 -1       929 3.84041E+09 6.19432E+08-8.91600E+08 4.36964E+09-3.47852E+08-2.99115E+08
 -1       930 1.88686E+09 1.55457E+09-9.20053E+08 3.70091E+09-8.17682E+08-5.33899E+07
 -3
    1PSTEP                        71           1           1          
    1PGM                1.000000E+00                                  
    1PGK                3.040028E+07                                  
    1PHID                         -1                                  
    1PSUBC                         0                                  
    1PMODE                        18                                  
  100CL  118 877.5238154         930                     2   18MODAL      1
 -4  FORC        4    1
 -5  F1          1    2    1    0
 -5  F2          1    2    2    0
 -5  F3          1    2    3    0
 -5  ALL         1    2    0    0    1ALL
 -1         1-8.86372E+06-5.09605E+05 1.41554E+06
 -1         2 8.86372E+06-5.09605E+05-1.41554E+06
 -1         3-1.29562E+04-2.59488E+05 5.68227E+04
 -1         4 1.29562E+04-2.59488E+05-5.68227E+04
 -1         5-8.86372E+06-5.09605E+05-1.41554E+06
 -1         6 8.86372E+06-5.09605E+05 1.41554E+06
 -1         7-1.29562E+04-2.59488E+05-5.68227E+04
 -1         8 1.29562E+04-2.59488E+05 5.68227E+04
 -1         9-2.03390E+05-2.30770E+05-1.49777E+06
 -1        10-1.14821E+04-1.80341E+05 5.31586E+04
 -1        11-2.96655E+06-2.46050E+06-6.69915E+06
 -1        12-6.61232E+06-2.51464E+06 6.78433E+06
 -1        13-4.67787E+04-1.51221E+05 2.24454E+05
 -1        14-4.89415E+04-1.37425E+05 2.24470E+05
 -1        15-2.03390E+05-2.30770E+05 1.49777E+06
 -1        16-1.14821E+04-1.80341E+05-5.31586E+04
 -1        17-6.61232E+06-2.51464E+06-6.78433E+06
 -1        18-2.96655E+06-2.46050E+06 6.69915E+06
 -1        19-4.89415E+04-1.37425E+05-2.24470E+05
 -1        20-4.67787E+04-1.51221E+05-2.24454E+05
 -1        21 6.61232E+06-2.51464E+06-6.78433E+06
 -1        22 2.96655E+06-2.46050E+06 6.69915E+06
 -1        23 4.67787E+04-1.51221E+05-2.24454E+05
 -1        24 4.89415E+04-1.37425E+05-2.24470E+05
 -1        25 2.03390E+05-2.30770E+05 1.49777E+06
 -1        26 1.14821E+04-1.80341E+05-5.31586E+04
 -1        27 2.03390E+05-2.30770E+05-1.49777E+06
 -1        28 2.96655E+06-2.46050E+06-6.69915E+06
 -1        29 6.61232E+06-2.51464E+06 6.78433E+06
 -1        30 1.14821E+04-1.80341E+05 5.31586E+04
 -1        31 4.67787E+04-1.51221E+05 2.24454E+05
 -1        32 4.89415E+04-1.37425E+05 2.24470E+05
 -1        33-6.80206E+03 9.67278E+04 6.02284E+03
 -1        34-1.02940E+04 2.35462E+05 1.79720E+04
 -1        35-9.36166E+03 3.69048E+05 3.63529E+04
 -1        36-5.15970E+03 4.45169E+05 5.95967E+04
 -1        37 6.52098E+02 4.36798E+05 8.44284E+04
 -1        38 6.39842E+03 3.45024E+05 1.05675E+05
 -1        39 1.06867E+04 1.95734E+05 1.17122E+05
 -1        40 1.27032E+04 2.97846E+04 1.13143E+05
 -1        41 1.23301E+04-1.10370E+05 9.05564E+04
 -1        42 1.00703E+04-1.93573E+05 5.00844E+04
 -1        43 6.80804E+03-2.08596E+05-3.11991E+03
 -1        44 3.48878E+03-1.66018E+05-6.01490E+04
 -1        45 8.19627E+02-9.30721E+04-1.10146E+05
 -1        46-9.15723E+02-2.33512E+04-1.42808E+05
 -1        47-1.87623E+03 1.51064E+04-1.50929E+05
 -1        48-2.52095E+03 9.39583E+03-1.32278E+05
 -1        49-3.36256E+03-3.41470E+04-9.02757E+04
 -1        50-4.70860E+03-9.26253E+04-3.32597E+04
 -1        51-6.48494E+03-1.35123E+05 2.74667E+04
 -1        52-8.20765E+03-1.34248E+05 8.02815E+04
 -1        53-9.11809E+03-7.68161E+04 1.15866E+05
 -1        54-8.43979E+03 2.99501E+04 1.29112E+05
 -1        55-5.67158E+03 1.58888E+05 1.19836E+05
 -1        56-8.14635E+02 2.70068E+05 9.21957E+04
 -1        57 5.55237E+03 3.22499E+05 5.30590E+04
 -1        58 1.23917E+04 2.86646E+05 9.87934E+03
 -1        59 1.85007E+04 1.53612E+05-3.12524E+04
 -1        60 2.29123E+04-6.23695E+04-6.68320E+04
 -1        61 2.52737E+04-3.29713E+05-9.63340E+04
 -1        62 6.80206E+03 9.67278E+04-6.02284E+03
 -1        63 1.02940E+04 2.35462E+05-1.79720E+04
 -1        64 9.36166E+03 3.69048E+05-3.63529E+04
 -1        65 5.15970E+03 4.45169E+05-5.95967E+04
 -1        66-6.52098E+02 4.36798E+05-8.44284E+04
 -1        67-6.39842E+03 3.45024E+05-1.05675E+05
 -1        68-1.06867E+04 1.95734E+05-1.17122E+05
 -1        69-1.27032E+04 2.97846E+04-1.13143E+05
 -1        70-1.23301E+04-1.10370E+05-9.05564E+04
 -1        71-1.00703E+04-1.93573E+05-5.00844E+04
 -1        72-6.80804E+03-2.08596E+05 3.11991E+03
 -1        73-3.48878E+03-1.66018E+05 6.01490E+04
 -1        74-8.19627E+02-9.30721E+04 1.10146E+05
 -1        75 9.15723E+02-2.33512E+04 1.42808E+05
 -1        76 1.87623E+03 1.51064E+04 1.50929E+05
 -1        77 2.52095E+03 9.39583E+03 1.32278E+05
 -1        78 3.36256E+03-3.41470E+04 9.02757E+04
 -1        79 4.70860E+03-9.26253E+04 3.32597E+04
 -1        80 6.48494E+03-1.35123E+05-2.74667E+04
 -1        81 8.20765E+03-1.34248E+05-8.02815E+04
 -1        82 9.11809E+03-7.68161E+04-1.15866E+05
 -1        83 8.43979E+03 2.99501E+04-1.29112E+05
 -1        84 5.67158E+03 1.58888E+05-1.19836E+05
 -1        85 8.14635E+02 2.70068E+05-9.21957E+04
 -1        86-5.55237E+03 3.22499E+05-5.30590E+04
 -1        87-1.23917E+04 2.86646E+05-9.87934E+03
 -1        88-1.85007E+04 1.53612E+05 3.12524E+04
 -1        89-2.29123E+04-6.23695E+04 6.68320E+04
 -1        90-2.52737E+04-3.29713E+05 9.63340E+04
 -1        91-1.14539E+07-4.04605E+05 2.34829E+04
 -1        92-9.21719E+06-2.97624E+05 2.20398E-05
 -1        93-1.14539E+07-4.04605E+05-2.34829E+04
 -1        94 1.14539E+07-4.04605E+05 2.34829E+04
 -1        95 9.21719E+06-2.97624E+05 2.21417E-05
 -1        96 1.14539E+07-4.04605E+05-2.34829E+04
 -1        97 6.80206E+03 9.67278E+04 6.02284E+03
 -1        98 1.02940E+04 2.35462E+05 1.79720E+04
 -1        99 9.36166E+03 3.69048E+05 3.63529E+04
 -1       100 5.15970E+03 4.45169E+05 5.95967E+04
 -1       101-6.52098E+02 4.36798E+05 8.44284E+04
 -1       102-6.39842E+03 3.45024E+05 1.05675E+05
 -1       103-1.06867E+04 1.95734E+05 1.17122E+05
 -1       104-1.27032E+04 2.97846E+04 1.13143E+05
 -1       105-1.23301E+04-1.10370E+05 9.05564E+04
 -1       106-1.00703E+04-1.93573E+05 5.00844E+04
 -1       107-6.80804E+03-2.08596E+05-3.11991E+03
 -1       108-3.48878E+03-1.66018E+05-6.01490E+04
 -1       109-8.19627E+02-9.30721E+04-1.10146E+05
 -1       110 9.15723E+02-2.33512E+04-1.42808E+05
 -1       111 1.87623E+03 1.51064E+04-1.50929E+05
 -1       112 2.52095E+03 9.39583E+03-1.32278E+05
 -1       113 3.36256E+03-3.41470E+04-9.02757E+04
 -1       114 4.70860E+03-9.26253E+04-3.32597E+04
 -1       115 6.48494E+03-1.35123E+05 2.74667E+04
 -1       116 8.20765E+03-1.34248E+05 8.02815E+04
 -1       117 9.11809E+03-7.68161E+04 1.15866E+05
 -1       118 8.43979E+03 2.99501E+04 1.29112E+05
 -1       119 5.67158E+03 1.58888E+05 1.19836E+05
 -1       120 8.14635E+02 2.70068E+05 9.21957E+04
 -1       121-5.55237E+03 3.22499E+05 5.30590E+04
 -1       122-1.23917E+04 2.86646E+05 9.87934E+03
 -1       123-1.85007E+04 1.53612E+05-3.12524E+04
 -1       124-2.29123E+04-6.23695E+04-6.68320E+04
 -1       125-2.52737E+04-3.29713E+05-9.63340E+04
 -1       126-1.13138E+03 7.38649E+04 4.91600E+03
 -1       127-6.35354E+02 2.37665E+05 3.34572E-06
 -1       128-1.13138E+03 7.38649E+04-4.91600E+03
 -1       129-6.80206E+03 9.67278E+04-6.02284E+03
 -1       130-1.02940E+04 2.35462E+05-1.79720E+04
 -1       131-9.36166E+03 3.69048E+05-3.63529E+04
 -1       132-5.15970E+03 4.45169E+05-5.95967E+04
 -1       133 6.52098E+02 4.36798E+05-8.44284E+04
 -1       134 6.39842E+03 3.45024E+05-1.05675E+05
 -1       135 1.06867E+04 1.95734E+05-1.17122E+05
 -1       136 1.27032E+04 2.97846E+04-1.13143E+05
 -1       137 1.23301E+04-1.10370E+05-9.05564E+04
 -1       138 1.00703E+04-1.93573E+05-5.00844E+04
 -1       139 6.80804E+03-2.08596E+05 3.11991E+03
 -1       140 3.48878E+03-1.66018E+05 6.01490E+04
 -1       141 8.19627E+02-9.30721E+04 1.10146E+05
 -1       142-9.15723E+02-2.33512E+04 1.42808E+05
 -1       143-1.87623E+03 1.51064E+04 1.50929E+05
 -1       144-2.52095E+03 9.39583E+03 1.32278E+05
 -1       145-3.36256E+03-3.41470E+04 9.02757E+04
 -1       146-4.70860E+03-9.26253E+04 3.32597E+04
 -1       147-6.48494E+03-1.35123E+05-2.74667E+04
 -1       148-8.20765E+03-1.34248E+05-8.02815E+04
 -1       149-9.11809E+03-7.68161E+04-1.15866E+05
 -1       150-8.43979E+03 2.99501E+04-1.29112E+05
 -1       151-5.67158E+03 1.58888E+05-1.19836E+05
 -1       152-8.14635E+02 2.70068E+05-9.21957E+04
 -1       153 5.55237E+03 3.22499E+05-5.30590E+04
 -1       154 1.23917E+04 2.86646E+05-9.87934E+03
 -1       155 1.85007E+04 1.53612E+05 3.12524E+04
 -1       156 2.29123E+04-6.23695E+04 6.68320E+04
 -1       157 2.52737E+04-3.29713E+05 9.63340E+04
 -1       158 1.13138E+03 7.38649E+04 4.91600E+03
 -1       159 6.35354E+02 2.37665E+05 3.77389E-06
 -1       160 1.13138E+03 7.38649E+04-4.91600E+03
 -1       161 5.56427E+03 5.10433E+04-5.60938E+03
 -1       162 8.62088E+03 1.26521E+05-1.69727E+04
 -1       163 7.81921E+03 2.06554E+05-3.43280E+04
 -1       164 4.13849E+03 2.66126E+05-5.61170E+04
 -1       165-9.26987E+02 2.89370E+05-7.92614E+04
 -1       166-5.87830E+03 2.71022E+05-9.89526E+04
 -1       167-9.48056E+03 2.15971E+05-1.09436E+05
 -1       168-1.10325E+04 1.36570E+05-1.05519E+05
 -1       169-1.04686E+04 4.85784E+04-8.42874E+04
 -1       170-8.28269E+03-3.31125E+04-4.64527E+04
 -1       171-5.30430E+03-9.78072E+04 3.16734E+03
 -1       172-2.40104E+03-1.40599E+05 5.62816E+04
 -1       173-2.03867E+02-1.61995E+05 1.02802E+05
 -1       174 1.06065E+03-1.65986E+05 1.33165E+05
 -1       175 1.58335E+03-1.57418E+05 1.40689E+05
 -1       176 1.83522E+03-1.39703E+05 1.23308E+05
 -1       177 2.33406E+03-1.13695E+05 8.42047E+04
 -1       178 3.40009E+03-7.81061E+04 3.11227E+04
 -1       179 4.98856E+03-3.12457E+04-2.54384E+04
 -1       180 6.66069E+03 2.66340E+04-7.46775E+04
 -1       181 7.70727E+03 9.13583E+04-1.07924E+05
 -1       182 7.38672E+03 1.54100E+05-1.20405E+05
 -1       183 5.19878E+03 2.02375E+05-1.11916E+05
 -1       184 1.09886E+03 2.22654E+05-8.62842E+04
 -1       185-4.42717E+03 2.03886E+05-4.98570E+04
 -1       186-1.04671E+04 1.40812E+05-9.54815E+03
 -1       187-1.59495E+04 3.59207E+04 2.89629E+04
 -1       188-2.00051E+04-1.00866E+05 6.23573E+04
 -1       189-2.22859E+04-2.55087E+05 9.00657E+04
 -1       190-1.20155E+06-9.27529E+04-7.49404E+06
 -1       191-5.76542E+06 5.04759E+04 7.59271E+06
 -1       192-5.79564E+04-3.01801E+05 2.75132E+05
 -1       193 2.47834E+04 4.45978E+04-2.39943E+04
 -1       194 3.69265E+04 1.06316E+05-7.33620E+04
 -1       195 3.33619E+04 1.71684E+05-1.47997E+05
 -1       196 1.81514E+04 2.20698E+05-2.40402E+05
 -1       197-2.83113E+03 2.40077E+05-3.37456E+05
 -1       198-2.34579E+04 2.25333E+05-4.19098E+05
 -1       199-3.86863E+04 1.80300E+05-4.61500E+05
 -1       200-4.56039E+04 1.14958E+05-4.43300E+05
 -1       201-4.38554E+04 4.21473E+04-3.52701E+05
 -1       202-3.53512E+04-2.59027E+04-1.93004E+05
 -1       203-2.33791E+04-8.02979E+04 1.54539E+04
 -1       204-1.14196E+04-1.16802E+05 2.37979E+05
 -1       205-2.04396E+03-1.35573E+05 4.32508E+05
 -1       206 3.76299E+03-1.39641E+05 5.59245E+05
 -1       207 6.66519E+03-1.32812E+05 5.90429E+05
 -1       208 8.43952E+03-1.17834E+05 5.17531E+05
 -1       209 1.10561E+04-9.54899E+04 3.53836E+05
 -1       210 1.57137E+04-6.49258E+04 1.31619E+05
 -1       211 2.21809E+04-2.50272E+04-1.05368E+05
 -1       212 2.86869E+04 2.37171E+04-3.12068E+05
 -1       213 3.24180E+04 7.76536E+04-4.52220E+05
 -1       214 3.04673E+04 1.29409E+05-5.05713E+05
 -1       215 2.09229E+04 1.68723E+05-4.71403E+05
 -1       216 3.71353E+03 1.84580E+05-3.64915E+05
 -1       217-1.91051E+04 1.68048E+05-2.12450E+05
 -1       218-4.37828E+04 1.14960E+05-4.27250E+04
 -1       219-6.59569E+04 2.74531E+04 1.20398E+05
 -1       220-8.20962E+04-8.63124E+04 2.62590E+05
 -1       221-9.09011E+04-2.14518E+05 3.80494E+05
 -1       222 2.63075E+04 4.31046E+04-2.42925E+04
 -1       223 3.97033E+04 1.01728E+05-7.34251E+04
 -1       224 3.71158E+04 1.62442E+05-1.47858E+05
 -1       225 2.24533E+04 2.05747E+05-2.40136E+05
 -1       226 1.27857E+03 2.19170E+05-3.37146E+05
 -1       227-2.05460E+04 1.99453E+05-4.18826E+05
 -1       228-3.80218E+04 1.51879E+05-4.61323E+05
 -1       229-4.79681E+04 8.77232E+04-4.43244E+05
 -1       230-4.94655E+04 2.05330E+04-3.52758E+05
 -1       231-4.36834E+04-3.76768E+04-1.93141E+05
 -1       232-3.31824E+04-7.92652E+04 1.52827E+04
 -1       233-2.09364E+04-1.02122E+05 2.37817E+05
 -1       234-9.39292E+03-1.08977E+05 4.32380E+05
 -1       235 1.38143E+02-1.05291E+05 5.59158E+05
 -1       236 7.60315E+03-9.65626E+04 5.90369E+05
 -1       237 1.38345E+04-8.60581E+04 5.17476E+05
 -1       238 1.98629E+04-7.37485E+04 3.53768E+05
 -1       239 2.61864E+04-5.68059E+04 1.31534E+05
 -1       240 3.22817E+04-3.14422E+04-1.05455E+05
 -1       241 3.65541E+04 4.60945E+03-3.12127E+05
 -1       242 3.67687E+04 4.99169E+04-4.52212E+05
 -1       243 3.08308E+04 9.83446E+04-5.05609E+05
 -1       244 1.76516E+04 1.39715E+05-4.71191E+05
 -1       245-2.21394E+03 1.62067E+05-3.64613E+05
 -1       246-2.64171E+04 1.54882E+05-2.12101E+05
 -1       247-5.12729E+04 1.12236E+05-4.23877E+04
 -1       248-7.27608E+04 3.48038E+04 1.20668E+05
 -1       249-8.78230E+04-7.01501E+04 2.62758E+05
 -1       250-9.56426E+04-1.91064E+05 3.80567E+05
 -1       251-6.06620E+04-2.74777E+05 2.75124E+05
 -1       252-2.22859E+04-2.55087E+05-9.00657E+04
 -1       253-2.00051E+04-1.00866E+05-6.23573E+04
 -1       254-1.59495E+04 3.59207E+04-2.89629E+04
 -1       255-1.04671E+04 1.40812E+05 9.54815E+03
 -1       256-4.42717E+03 2.03886E+05 4.98570E+04
 -1       257 1.09886E+03 2.22654E+05 8.62842E+04
 -1       258 5.19878E+03 2.02375E+05 1.11916E+05
 -1       259 7.38672E+03 1.54100E+05 1.20405E+05
 -1       260 7.70727E+03 9.13583E+04 1.07924E+05
 -1       261 6.66069E+03 2.66340E+04 7.46775E+04
 -1       262 4.98856E+03-3.12457E+04 2.54384E+04
 -1       263 3.40009E+03-7.81061E+04-3.11227E+04
 -1       264 2.33406E+03-1.13695E+05-8.42047E+04
 -1       265 1.83522E+03-1.39703E+05-1.23308E+05
 -1       266 1.58335E+03-1.57418E+05-1.40689E+05
 -1       267 1.06065E+03-1.65986E+05-1.33165E+05
 -1       268-2.03867E+02-1.61995E+05-1.02802E+05
 -1       269-2.40104E+03-1.40599E+05-5.62816E+04
 -1       270-5.30430E+03-9.78072E+04-3.16734E+03
 -1       271-8.28269E+03-3.31125E+04 4.64527E+04
 -1       272-1.04686E+04 4.85784E+04 8.42874E+04
 -1       273-1.10325E+04 1.36570E+05 1.05519E+05
 -1       274-9.48056E+03 2.15971E+05 1.09436E+05
 -1       275-5.87830E+03 2.71022E+05 9.89526E+04
 -1       276-9.26987E+02 2.89370E+05 7.92614E+04
 -1       277 4.13849E+03 2.66126E+05 5.61170E+04
 -1       278 7.81921E+03 2.06554E+05 3.43280E+04
 -1       279 8.62088E+03 1.26521E+05 1.69727E+04
 -1       280 5.56427E+03 5.10433E+04 5.60938E+03
 -1       281-5.76542E+06 5.04759E+04-7.59271E+06
 -1       282-1.20155E+06-9.27529E+04 7.49404E+06
 -1       283 2.63075E+04 4.31046E+04 2.42925E+04
 -1       284 3.97033E+04 1.01728E+05 7.34251E+04
 -1       285 3.71158E+04 1.62442E+05 1.47858E+05
 -1       286 2.24533E+04 2.05747E+05 2.40136E+05
 -1       287 1.27857E+03 2.19170E+05 3.37146E+05
 -1       288-2.05460E+04 1.99453E+05 4.18826E+05
 -1       289-3.80218E+04 1.51879E+05 4.61323E+05
 -1       290-4.79681E+04 8.77232E+04 4.43244E+05
 -1       291-4.94655E+04 2.05330E+04 3.52758E+05
 -1       292-4.36834E+04-3.76768E+04 1.93141E+05
 -1       293-3.31824E+04-7.92652E+04-1.52827E+04
 -1       294-2.09364E+04-1.02122E+05-2.37817E+05
 -1       295-9.39292E+03-1.08977E+05-4.32380E+05
 -1       296 1.38143E+02-1.05291E+05-5.59158E+05
 -1       297 7.60315E+03-9.65626E+04-5.90369E+05
 -1       298 1.38345E+04-8.60581E+04-5.17476E+05
 -1       299 1.98629E+04-7.37485E+04-3.53768E+05
 -1       300 2.61864E+04-5.68059E+04-1.31534E+05
 -1       301 3.22817E+04-3.14422E+04 1.05455E+05
 -1       302 3.65541E+04 4.60945E+03 3.12127E+05
 -1       303 3.67687E+04 4.99169E+04 4.52212E+05
 -1       304 3.08308E+04 9.83446E+04 5.05609E+05
 -1       305 1.76516E+04 1.39715E+05 4.71191E+05
 -1       306-2.21394E+03 1.62067E+05 3.64613E+05
 -1       307-2.64171E+04 1.54882E+05 2.12101E+05
 -1       308-5.12729E+04 1.12236E+05 4.23877E+04
 -1       309-7.27608E+04 3.48038E+04-1.20668E+05
 -1       310-8.78230E+04-7.01501E+04-2.62758E+05
 -1       311-9.56426E+04-1.91064E+05-3.80567E+05
 -1       312-6.06620E+04-2.74777E+05-2.75124E+05
 -1       313 2.47834E+04 4.45978E+04 2.39943E+04
 -1       314 3.69265E+04 1.06316E+05 7.33620E+04
 -1       315 3.33619E+04 1.71684E+05 1.47997E+05
 -1       316 1.81514E+04 2.20698E+05 2.40402E+05
 -1       317-2.83113E+03 2.40077E+05 3.37456E+05
 -1       318-2.34579E+04 2.25333E+05 4.19098E+05
 -1       319-3.86863E+04 1.80300E+05 4.61500E+05
 -1       320-4.56039E+04 1.14958E+05 4.43300E+05
 -1       321-4.38554E+04 4.21473E+04 3.52701E+05
 -1       322-3.53512E+04-2.59027E+04 1.93004E+05
 -1       323-2.33791E+04-8.02979E+04-1.54539E+04
 -1       324-1.14196E+04-1.16802E+05-2.37979E+05
 -1       325-2.04396E+03-1.35573E+05-4.32508E+05
 -1       326 3.76299E+03-1.39641E+05-5.59245E+05
 -1       327 6.66519E+03-1.32812E+05-5.90429E+05
 -1       328 8.43952E+03-1.17834E+05-5.17531E+05
 -1       329 1.10561E+04-9.54899E+04-3.53836E+05
 -1       330 1.57137E+04-6.49258E+04-1.31619E+05
 -1       331 2.21809E+04-2.50272E+04 1.05368E+05
 -1       332 2.86869E+04 2.37171E+04 3.12068E+05
 -1       333 3.24180E+04 7.76536E+04 4.52220E+05
 -1       334 3.04673E+04 1.29409E+05 5.05713E+05
 -1       335 2.09229E+04 1.68723E+05 4.71403E+05
 -1       336 3.71353E+03 1.84580E+05 3.64915E+05
 -1       337-1.91051E+04 1.68048E+05 2.12450E+05
 -1       338-4.37828E+04 1.14960E+05 4.27250E+04
 -1       339-6.59569E+04 2.74531E+04-1.20398E+05
 -1       340-8.20962E+04-8.63124E+04-2.62590E+05
 -1       341-9.09011E+04-2.14518E+05-3.80494E+05
 -1       342-5.79564E+04-3.01801E+05-2.75132E+05
 -1       343-2.47834E+04 4.45978E+04 2.39943E+04
 -1       344-3.69265E+04 1.06316E+05 7.33620E+04
 -1       345-3.33619E+04 1.71684E+05 1.47997E+05
 -1       346-1.81514E+04 2.20698E+05 2.40402E+05
 -1       347 2.83113E+03 2.40077E+05 3.37456E+05
 -1       348 2.34579E+04 2.25333E+05 4.19098E+05
 -1       349 3.86863E+04 1.80300E+05 4.61500E+05
 -1       350 4.56039E+04 1.14958E+05 4.43300E+05
 -1       351 4.38554E+04 4.21473E+04 3.52701E+05
 -1       352 3.53512E+04-2.59027E+04 1.93004E+05
 -1       353 2.33791E+04-8.02979E+04-1.54539E+04
 -1       354 1.14196E+04-1.16802E+05-2.37979E+05
 -1       355 2.04396E+03-1.35573E+05-4.32508E+05
 -1       356-3.76299E+03-1.39641E+05-5.59245E+05
 -1       357-6.66519E+03-1.32812E+05-5.90429E+05
 -1       358-8.43952E+03-1.17834E+05-5.17531E+05
 -1       359-1.10561E+04-9.54899E+04-3.53836E+05
 -1       360-1.57137E+04-6.49258E+04-1.31619E+05
 -1       361-2.21809E+04-2.50272E+04 1.05368E+05
 -1       362-2.86869E+04 2.37171E+04 3.12068E+05
 -1       363-3.24180E+04 7.76536E+04 4.52220E+05
 -1       364-3.04673E+04 1.29409E+05 5.05713E+05
 -1       365-2.09229E+04 1.68723E+05 4.71403E+05
 -1       366-3.71353E+03 1.84580E+05 3.64915E+05
 -1       367 1.91051E+04 1.68048E+05 2.12450E+05
 -1       368 4.37828E+04 1.14960E+05 4.27250E+04
 -1       369 6.59569E+04 2.74531E+04-1.20398E+05
 -1       370 8.20962E+04-8.63124E+04-2.62590E+05
 -1       371 9.09011E+04-2.14518E+05-3.80494E+05
 -1       372-2.63075E+04 4.31046E+04 2.42925E+04
 -1       373-3.97033E+04 1.01728E+05 7.34251E+04
 -1       374-3.71158E+04 1.62442E+05 1.47858E+05
 -1       375-2.24533E+04 2.05747E+05 2.40136E+05
 -1       376-1.27857E+03 2.19170E+05 3.37146E+05
 -1       377 2.05460E+04 1.99453E+05 4.18826E+05
 -1       378 3.80218E+04 1.51879E+05 4.61323E+05
 -1       379 4.79681E+04 8.77232E+04 4.43244E+05
 -1       380 4.94655E+04 2.05330E+04 3.52758E+05
 -1       381 4.36834E+04-3.76768E+04 1.93141E+05
 -1       382 3.31824E+04-7.92652E+04-1.52827E+04
 -1       383 2.09364E+04-1.02122E+05-2.37817E+05
 -1       384 9.39292E+03-1.08977E+05-4.32380E+05
 -1       385-1.38143E+02-1.05291E+05-5.59158E+05
 -1       386-7.60315E+03-9.65626E+04-5.90369E+05
 -1       387-1.38345E+04-8.60581E+04-5.17476E+05
 -1       388-1.98629E+04-7.37485E+04-3.53768E+05
 -1       389-2.61864E+04-5.68059E+04-1.31534E+05
 -1       390-3.22817E+04-3.14422E+04 1.05455E+05
 -1       391-3.65541E+04 4.60945E+03 3.12127E+05
 -1       392-3.67687E+04 4.99169E+04 4.52212E+05
 -1       393-3.08308E+04 9.83446E+04 5.05609E+05
 -1       394-1.76516E+04 1.39715E+05 4.71191E+05
 -1       395 2.21394E+03 1.62067E+05 3.64613E+05
 -1       396 2.64171E+04 1.54882E+05 2.12101E+05
 -1       397 5.12729E+04 1.12236E+05 4.23877E+04
 -1       398 7.27608E+04 3.48038E+04-1.20668E+05
 -1       399 8.78230E+04-7.01501E+04-2.62758E+05
 -1       400 9.56426E+04-1.91064E+05-3.80567E+05
 -1       401 1.20155E+06-9.27529E+04 7.49404E+06
 -1       402 5.76542E+06 5.04759E+04-7.59271E+06
 -1       403 5.79564E+04-3.01801E+05-2.75132E+05
 -1       404-5.56427E+03 5.10433E+04 5.60938E+03
 -1       405-8.62088E+03 1.26521E+05 1.69727E+04
 -1       406-7.81921E+03 2.06554E+05 3.43280E+04
 -1       407-4.13849E+03 2.66126E+05 5.61170E+04
 -1       408 9.26987E+02 2.89370E+05 7.92614E+04
 -1       409 5.87830E+03 2.71022E+05 9.89526E+04
 -1       410 9.48056E+03 2.15971E+05 1.09436E+05
 -1       411 1.10325E+04 1.36570E+05 1.05519E+05
 -1       412 1.04686E+04 4.85784E+04 8.42874E+04
 -1       413 8.28269E+03-3.31125E+04 4.64527E+04
 -1       414 5.30430E+03-9.78072E+04-3.16734E+03
 -1       415 2.40104E+03-1.40599E+05-5.62816E+04
 -1       416 2.03867E+02-1.61995E+05-1.02802E+05
 -1       417-1.06065E+03-1.65986E+05-1.33165E+05
 -1       418-1.58335E+03-1.57418E+05-1.40689E+05
 -1       419-1.83522E+03-1.39703E+05-1.23308E+05
 -1       420-2.33406E+03-1.13695E+05-8.42047E+04
 -1       421-3.40009E+03-7.81061E+04-3.11227E+04
 -1       422-4.98856E+03-3.12457E+04 2.54384E+04
 -1       423-6.66069E+03 2.66340E+04 7.46775E+04
 -1       424-7.70727E+03 9.13583E+04 1.07924E+05
 -1       425-7.38672E+03 1.54100E+05 1.20405E+05
 -1       426-5.19878E+03 2.02375E+05 1.11916E+05
 -1       427-1.09886E+03 2.22654E+05 8.62842E+04
 -1       428 4.42717E+03 2.03886E+05 4.98570E+04
 -1       429 1.04671E+04 1.40812E+05 9.54815E+03
 -1       430 1.59495E+04 3.59207E+04-2.89629E+04
 -1       431 2.00051E+04-1.00866E+05-6.23573E+04
 -1       432 2.22859E+04-2.55087E+05-9.00657E+04
 -1       433 6.06620E+04-2.74777E+05-2.75124E+05
 -1       434 1.20155E+06-9.27529E+04-7.49404E+06
 -1       435 5.76542E+06 5.04759E+04 7.59271E+06
 -1       436 2.22859E+04-2.55087E+05 9.00657E+04
 -1       437 2.00051E+04-1.00866E+05 6.23573E+04
 -1       438 1.59495E+04 3.59207E+04 2.89629E+04
 -1       439 1.04671E+04 1.40812E+05-9.54815E+03
 -1       440 4.42717E+03 2.03886E+05-4.98570E+04
 -1       441-1.09886E+03 2.22654E+05-8.62842E+04
 -1       442-5.19878E+03 2.02375E+05-1.11916E+05
 -1       443-7.38672E+03 1.54100E+05-1.20405E+05
 -1       444-7.70727E+03 9.13583E+04-1.07924E+05
 -1       445-6.66069E+03 2.66340E+04-7.46775E+04
 -1       446-4.98856E+03-3.12457E+04-2.54384E+04
 -1       447-3.40009E+03-7.81061E+04 3.11227E+04
 -1       448-2.33406E+03-1.13695E+05 8.42047E+04
 -1       449-1.83522E+03-1.39703E+05 1.23308E+05
 -1       450-1.58335E+03-1.57418E+05 1.40689E+05
 -1       451-1.06065E+03-1.65986E+05 1.33165E+05
 -1       452 2.03867E+02-1.61995E+05 1.02802E+05
 -1       453 2.40104E+03-1.40599E+05 5.62816E+04
 -1       454 5.30430E+03-9.78072E+04 3.16734E+03
 -1       455 8.28269E+03-3.31125E+04-4.64527E+04
 -1       456 1.04686E+04 4.85784E+04-8.42874E+04
 -1       457 1.10325E+04 1.36570E+05-1.05519E+05
 -1       458 9.48056E+03 2.15971E+05-1.09436E+05
 -1       459 5.87830E+03 2.71022E+05-9.89526E+04
 -1       460 9.26987E+02 2.89370E+05-7.92614E+04
 -1       461-4.13849E+03 2.66126E+05-5.61170E+04
 -1       462-7.81921E+03 2.06554E+05-3.43280E+04
 -1       463-8.62088E+03 1.26521E+05-1.69727E+04
 -1       464-5.56427E+03 5.10433E+04-5.60938E+03
 -1       465 5.79564E+04-3.01801E+05 2.75132E+05
 -1       466-2.47834E+04 4.45978E+04-2.39943E+04
 -1       467-3.69265E+04 1.06316E+05-7.33620E+04
 -1       468-3.33619E+04 1.71684E+05-1.47997E+05
 -1       469-1.81514E+04 2.20698E+05-2.40402E+05
 -1       470 2.83113E+03 2.40077E+05-3.37456E+05
 -1       471 2.34579E+04 2.25333E+05-4.19098E+05
 -1       472 3.86863E+04 1.80300E+05-4.61500E+05
 -1       473 4.56039E+04 1.14958E+05-4.43300E+05
 -1       474 4.38554E+04 4.21473E+04-3.52701E+05
 -1       475 3.53512E+04-2.59027E+04-1.93004E+05
 -1       476 2.33791E+04-8.02979E+04 1.54539E+04
 -1       477 1.14196E+04-1.16802E+05 2.37979E+05
 -1       478 2.04396E+03-1.35573E+05 4.32508E+05
 -1       479-3.76299E+03-1.39641E+05 5.59245E+05
 -1       480-6.66519E+03-1.32812E+05 5.90429E+05
 -1       481-8.43952E+03-1.17834E+05 5.17531E+05
 -1       482-1.10561E+04-9.54899E+04 3.53836E+05
 -1       483-1.57137E+04-6.49258E+04 1.31619E+05
 -1       484-2.21809E+04-2.50272E+04-1.05368E+05
 -1       485-2.86869E+04 2.37171E+04-3.12068E+05
 -1       486-3.24180E+04 7.76536E+04-4.52220E+05
 -1       487-3.04673E+04 1.29409E+05-5.05713E+05
 -1       488-2.09229E+04 1.68723E+05-4.71403E+05
 -1       489-3.71353E+03 1.84580E+05-3.64915E+05
 -1       490 1.91051E+04 1.68048E+05-2.12450E+05
 -1       491 4.37828E+04 1.14960E+05-4.27250E+04
 -1       492 6.59569E+04 2.74531E+04 1.20398E+05
 -1       493 8.20962E+04-8.63124E+04 2.62590E+05
 -1       494 9.09011E+04-2.14518E+05 3.80494E+05
 -1       495-2.63075E+04 4.31046E+04-2.42925E+04
 -1       496-3.97033E+04 1.01728E+05-7.34251E+04
 -1       497-3.71158E+04 1.62442E+05-1.47858E+05
 -1       498-2.24533E+04 2.05747E+05-2.40136E+05
 -1       499-1.27857E+03 2.19170E+05-3.37146E+05
 -1       500 2.05460E+04 1.99453E+05-4.18826E+05
 -1       501 3.80218E+04 1.51879E+05-4.61323E+05
 -1       502 4.79681E+04 8.77232E+04-4.43244E+05
 -1       503 4.94655E+04 2.05330E+04-3.52758E+05
 -1       504 4.36834E+04-3.76768E+04-1.93141E+05
 -1       505 3.31824E+04-7.92652E+04 1.52827E+04
 -1       506 2.09364E+04-1.02122E+05 2.37817E+05
 -1       507 9.39292E+03-1.08977E+05 4.32380E+05
 -1       508-1.38143E+02-1.05291E+05 5.59158E+05
 -1       509-7.60315E+03-9.65626E+04 5.90369E+05
 -1       510-1.38345E+04-8.60581E+04 5.17476E+05
 -1       511-1.98629E+04-7.37485E+04 3.53768E+05
 -1       512-2.61864E+04-5.68059E+04 1.31534E+05
 -1       513-3.22817E+04-3.14422E+04-1.05455E+05
 -1       514-3.65541E+04 4.60945E+03-3.12127E+05
 -1       515-3.67687E+04 4.99169E+04-4.52212E+05
 -1       516-3.08308E+04 9.83446E+04-5.05609E+05
 -1       517-1.76516E+04 1.39715E+05-4.71191E+05
 -1       518 2.21394E+03 1.62067E+05-3.64613E+05
 -1       519 2.64171E+04 1.54882E+05-2.12101E+05
 -1       520 5.12729E+04 1.12236E+05-4.23877E+04
 -1       521 7.27608E+04 3.48038E+04 1.20668E+05
 -1       522 8.78230E+04-7.01501E+04 2.62758E+05
 -1       523 9.56426E+04-1.91064E+05 3.80567E+05
 -1       524 6.06620E+04-2.74777E+05 2.75124E+05
 -1       525 1.19901E+03 6.98524E+04-4.55734E+02
 -1       526 1.11950E+03 1.58748E+05-1.27660E+03
 -1       527-4.76646E+01 2.00760E+05-2.67039E+03
 -1       528-1.69579E+03 1.40546E+05-4.64806E+03
 -1       529-3.14624E+03-3.19588E+04-6.95013E+03
 -1       530-3.78107E+03-2.80384E+05-9.07823E+03
 -1       531-3.22844E+03-5.32780E+05-1.04051E+04
 -1       532-1.49126E+03-7.03832E+05-1.03395E+04
 -1       533 1.03269E+03-7.22496E+05-8.51489E+03
 -1       534 3.65549E+03-5.56648E+05-4.94377E+03
 -1       535 5.60127E+03-2.26710E+05-8.06907E+01
 -1       536 6.24419E+03 1.96526E+05 5.23645E+03
 -1       537 5.30766E+03 6.09797E+05 9.96118E+03
 -1       538 2.96165E+03 9.05929E+05 1.30868E+04
 -1       539-2.14200E+02 1.00458E+06 1.39011E+04
 -1       540-3.39201E+03 8.75858E+05 1.21761E+04
 -1       541-5.73368E+03 5.49631E+05 8.23724E+03
 -1       542-6.63334E+03 1.07542E+05 2.89160E+03
 -1       543-5.89071E+03-3.39875E+05-2.76702E+03
 -1       544-3.76305E+03-6.84179E+05-7.62172E+03
 -1       545-8.80794E+02-8.48824E+05-1.07926E+04
 -1       546 1.94587E+03-8.08991E+05-1.18230E+04
 -1       547 3.96913E+03-5.95759E+05-1.07456E+04
 -1       548 4.71994E+03-2.83819E+05-8.01632E+03
 -1       549 4.13398E+03 3.30937E+04-4.34324E+03
 -1       550 2.55093E+03 2.71254E+05-4.63863E+02
 -1       551 5.87658E+02 3.81432E+05 3.06440E+03
 -1       552-1.08455E+03 3.60928E+05 5.99760E+03
 -1       553-2.02510E+03 2.47726E+05 8.40476E+03
 -1       554 9.25108E+02 5.52603E+04 2.68974E-06
 -1       555 6.09410E+02 1.17255E+05-5.32012E-06
 -1       556-8.52655E+02 1.13608E+05-5.10081E-06
 -1       557-2.75053E+03-1.22856E+04-4.88270E-06
 -1       558-4.26110E+03-2.62014E+05-1.14258E-06
 -1       559-4.67257E+03-5.82375E+05 1.81721E-06
 -1       560-3.58622E+03-8.80204E+05 3.22104E-06
 -1       561-1.06723E+03-1.05011E+06-1.24065E-06
 -1       562 2.33600E+03-1.00851E+06 1.76199E-06
 -1       563 5.72821E+03-7.23513E+05 3.77368E-06
 -1       564 8.12359E+03-2.30701E+05 5.64183E-06
 -1       565 8.74456E+03 3.70985E+05 6.78574E-06
 -1       566 7.26960E+03 9.43042E+05 1.21488E-06
 -1       567 3.95129E+03 1.34435E+06-2.10164E-06
 -1       568-4.35201E+02 1.47053E+06 1.80282E-06
 -1       569-4.80047E+03 1.28396E+06 5.07477E-06
 -1       570-8.04535E+03 8.25463E+05-1.29469E-06
 -1       571-9.37049E+03 2.03864E+05-1.56240E-06
 -1       572-8.49832E+03-4.33454E+05 6.05384E-06
 -1       573-5.74148E+03-9.40448E+05 3.97249E-06
 -1       574-1.89858E+03-1.21100E+06-2.50230E-06
 -1       575 1.98877E+03-1.20505E+06-1.57313E-06
 -1       576 4.94235E+03-9.54923E+05-1.30000E-06
 -1       577 6.32381E+03-5.50863E+05-8.68645E-06
 -1       578 6.00012E+03-1.10600E+05-9.51477E-06
 -1       579 4.35272E+03 2.57238E+05-6.19931E-06
 -1       580 2.12931E+03 4.84766E+05 1.29110E-06
 -1       581 1.66265E+02 5.61398E+05 1.14753E-06
 -1       582-9.71170E+02 5.27801E+05 3.53050E-06
 -1       583 1.19901E+03 6.98524E+04 4.55734E+02
 -1       584 1.11950E+03 1.58748E+05 1.27660E+03
 -1       585-4.76646E+01 2.00760E+05 2.67039E+03
 -1       586-1.69579E+03 1.40546E+05 4.64806E+03
 -1       587-3.14624E+03-3.19588E+04 6.95013E+03
 -1       588-3.78107E+03-2.80384E+05 9.07823E+03
 -1       589-3.22844E+03-5.32780E+05 1.04051E+04
 -1       590-1.49126E+03-7.03832E+05 1.03395E+04
 -1       591 1.03269E+03-7.22496E+05 8.51489E+03
 -1       592 3.65549E+03-5.56648E+05 4.94377E+03
 -1       593 5.60127E+03-2.26710E+05 8.06907E+01
 -1       594 6.24419E+03 1.96526E+05-5.23645E+03
 -1       595 5.30766E+03 6.09797E+05-9.96118E+03
 -1       596 2.96165E+03 9.05929E+05-1.30868E+04
 -1       597-2.14200E+02 1.00458E+06-1.39011E+04
 -1       598-3.39201E+03 8.75858E+05-1.21761E+04
 -1       599-5.73368E+03 5.49631E+05-8.23724E+03
 -1       600-6.63334E+03 1.07542E+05-2.89160E+03
 -1       601-5.89071E+03-3.39875E+05 2.76702E+03
 -1       602-3.76305E+03-6.84179E+05 7.62172E+03
 -1       603-8.80794E+02-8.48824E+05 1.07926E+04
 -1       604 1.94587E+03-8.08991E+05 1.18230E+04
 -1       605 3.96913E+03-5.95759E+05 1.07456E+04
 -1       606 4.71994E+03-2.83819E+05 8.01632E+03
 -1       607 4.13398E+03 3.30937E+04 4.34324E+03
 -1       608 2.55093E+03 2.71254E+05 4.63863E+02
 -1       609 5.87658E+02 3.81432E+05-3.06440E+03
 -1       610-1.08455E+03 3.60928E+05-5.99760E+03
 -1       611-2.02510E+03 2.47726E+05-8.40476E+03
 -1       612-1.19901E+03 6.98524E+04-4.55734E+02
 -1       613-1.11950E+03 1.58748E+05-1.27660E+03
 -1       614 4.76646E+01 2.00760E+05-2.67039E+03
 -1       615 1.69579E+03 1.40546E+05-4.64806E+03
 -1       616 3.14624E+03-3.19588E+04-6.95013E+03
 -1       617 3.78107E+03-2.80384E+05-9.07823E+03
 -1       618 3.22844E+03-5.32780E+05-1.04051E+04
 -1       619 1.49126E+03-7.03832E+05-1.03395E+04
 -1       620-1.03269E+03-7.22496E+05-8.51489E+03
 -1       621-3.65549E+03-5.56648E+05-4.94377E+03
 -1       622-5.60127E+03-2.26710E+05-8.06907E+01
 -1       623-6.24419E+03 1.96526E+05 5.23645E+03
 -1       624-5.30766E+03 6.09797E+05 9.96118E+03
 -1       625-2.96165E+03 9.05929E+05 1.30868E+04
 -1       626 2.14200E+02 1.00458E+06 1.39011E+04
 -1       627 3.39201E+03 8.75858E+05 1.21761E+04
 -1       628 5.73368E+03 5.49631E+05 8.23724E+03
 -1       629 6.63334E+03 1.07542E+05 2.89160E+03
 -1       630 5.89071E+03-3.39875E+05-2.76702E+03
 -1       631 3.76305E+03-6.84179E+05-7.62172E+03
 -1       632 8.80794E+02-8.48824E+05-1.07926E+04
 -1       633-1.94587E+03-8.08991E+05-1.18230E+04
 -1       634-3.96913E+03-5.95759E+05-1.07456E+04
 -1       635-4.71994E+03-2.83819E+05-8.01632E+03
 -1       636-4.13398E+03 3.30937E+04-4.34324E+03
 -1       637-2.55093E+03 2.71254E+05-4.63864E+02
 -1       638-5.87658E+02 3.81432E+05 3.06440E+03
 -1       639 1.08455E+03 3.60928E+05 5.99760E+03
 -1       640 2.02510E+03 2.47726E+05 8.40476E+03
 -1       641-9.25108E+02 5.52603E+04 3.85103E-06
 -1       642-6.09410E+02 1.17255E+05-2.16747E-06
 -1       643 8.52655E+02 1.13608E+05-9.33252E-06
 -1       644 2.75053E+03-1.22856E+04-4.82490E-06
 -1       645 4.26110E+03-2.62014E+05-3.18687E-09
 -1       646 4.67257E+03-5.82375E+05 7.31302E-06
 -1       647 3.58622E+03-8.80204E+05 3.80381E-06
 -1       648 1.06723E+03-1.05011E+06 6.36021E-07
 -1       649-2.33600E+03-1.00851E+06 3.98625E-06
 -1       650-5.72821E+03-7.23513E+05 6.37225E-06
 -1       651-8.12359E+03-2.30701E+05-1.93983E-06
 -1       652-8.74456E+03 3.70985E+05-3.69981E-06
 -1       653-7.26960E+03 9.43042E+05 1.21293E-06
 -1       654-3.95129E+03 1.34435E+06 1.51646E-06
 -1       655 4.35201E+02 1.47053E+06 1.48371E-06
 -1       656 4.80047E+03 1.28396E+06 6.90712E-06
 -1       657 8.04535E+03 8.25463E+05 2.51841E-06
 -1       658 9.37049E+03 2.03864E+05 9.28943E-07
 -1       659 8.49832E+03-4.33454E+05 4.98586E-06
 -1       660 5.74148E+03-9.40448E+05 3.95134E-06
 -1       661 1.89858E+03-1.21100E+06-1.57763E-06
 -1       662-1.98877E+03-1.20505E+06-5.35609E-06
 -1       663-4.94235E+03-9.54923E+05-3.26877E-06
 -1       664-6.32381E+03-5.50863E+05-5.54811E-06
 -1       665-6.00012E+03-1.10600E+05-7.56057E-06
 -1       666-4.35272E+03 2.57238E+05-4.83753E-06
 -1       667-2.12931E+03 4.84766E+05-1.26744E-06
 -1       668-1.66265E+02 5.61398E+05-2.06617E-06
 -1       669 9.71170E+02 5.27801E+05 9.14320E-06
 -1       670-1.19901E+03 6.98524E+04 4.55734E+02
 -1       671-1.11950E+03 1.58748E+05 1.27660E+03
 -1       672 4.76646E+01 2.00760E+05 2.67039E+03
 -1       673 1.69579E+03 1.40546E+05 4.64806E+03
 -1       674 3.14624E+03-3.19588E+04 6.95013E+03
 -1       675 3.78107E+03-2.80384E+05 9.07823E+03
 -1       676 3.22844E+03-5.32780E+05 1.04051E+04
 -1       677 1.49126E+03-7.03832E+05 1.03395E+04
 -1       678-1.03269E+03-7.22496E+05 8.51489E+03
 -1       679-3.65549E+03-5.56648E+05 4.94377E+03
 -1       680-5.60127E+03-2.26710E+05 8.06907E+01
 -1       681-6.24419E+03 1.96526E+05-5.23645E+03
 -1       682-5.30766E+03 6.09797E+05-9.96118E+03
 -1       683-2.96165E+03 9.05929E+05-1.30868E+04
 -1       684 2.14200E+02 1.00458E+06-1.39011E+04
 -1       685 3.39201E+03 8.75858E+05-1.21761E+04
 -1       686 5.73368E+03 5.49631E+05-8.23724E+03
 -1       687 6.63334E+03 1.07542E+05-2.89160E+03
 -1       688 5.89071E+03-3.39875E+05 2.76702E+03
 -1       689 3.76305E+03-6.84179E+05 7.62172E+03
 -1       690 8.80794E+02-8.48824E+05 1.07926E+04
 -1       691-1.94587E+03-8.08991E+05 1.18230E+04
 -1       692-3.96913E+03-5.95759E+05 1.07456E+04
 -1       693-4.71994E+03-2.83819E+05 8.01632E+03
 -1       694-4.13398E+03 3.30937E+04 4.34324E+03
 -1       695-2.55093E+03 2.71254E+05 4.63863E+02
 -1       696-5.87658E+02 3.81432E+05-3.06440E+03
 -1       697 1.08455E+03 3.60928E+05-5.99760E+03
 -1       698 2.02510E+03 2.47726E+05-8.40476E+03
 -1       699 2.86445E+04 8.67349E+04-2.92974E+04
 -1       700 4.39828E+04 2.11770E+05-8.92200E+04
 -1       701 4.00234E+04 3.44248E+05-1.80121E+05
 -1       702 2.16466E+04 4.43234E+05-2.93167E+05
 -1       703-3.81789E+03 4.82188E+05-4.12333E+05
 -1       704-2.88847E+04 4.52215E+05-5.12946E+05
 -1       705-4.73757E+04 3.61224E+05-5.65627E+05
 -1       706-5.57273E+04 2.29504E+05-5.43982E+05
 -1       707-5.35075E+04 8.30616E+04-4.33361E+05
 -1       708-4.30571E+04-5.34188E+04-2.37690E+05
 -1       709-2.84004E+04-1.62083E+05 1.81135E+04
 -1       710-1.37942E+04-2.34561E+05 2.91422E+05
 -1       711-2.37902E+03-2.71395E+05 5.30491E+05
 -1       712 4.64896E+03-2.78914E+05 6.86339E+05
 -1       713 8.11354E+03-2.64950E+05 7.24773E+05
 -1       714 1.02012E+04-2.35094E+05 6.35271E+05
 -1       715 1.33340E+04-1.90857E+05 4.34166E+05
 -1       716 1.89877E+04-1.30335E+05 1.61168E+05
 -1       717 2.68841E+04-5.10428E+04-1.29893E+05
 -1       718 3.48564E+04 4.62806E+04-3.83602E+05
 -1       719 3.94567E+04 1.54459E+05-5.55394E+05
 -1       720 3.71182E+04 2.58722E+05-6.20617E+05
 -1       721 2.54867E+04 3.38376E+05-5.77980E+05
 -1       722 4.45693E+03 3.71109E+05-4.46832E+05
 -1       723-2.34785E+04 3.38780E+05-2.59513E+05
 -1       724-5.37567E+04 2.32858E+05-5.13913E+04
 -1       725-8.10705E+04 5.75960E+04 1.48256E+05
 -1       726-1.01141E+05-1.70518E+05 3.21982E+05
 -1       727-1.12358E+05-4.27532E+05 4.66126E+05
 -1       728 3.05401E+04 8.37958E+04-2.96385E+04
 -1       729 4.74296E+04 2.02852E+05-8.92946E+04
 -1       730 4.46976E+04 3.26306E+05-1.79942E+05
 -1       731 2.70198E+04 4.14152E+05-2.92826E+05
 -1       732 1.32873E+03 4.41440E+05-4.11928E+05
 -1       733-2.52252E+04 4.01683E+05-5.12574E+05
 -1       734-4.65207E+04 3.05645E+05-5.65361E+05
 -1       735-5.86596E+04 1.76172E+05-5.43862E+05
 -1       736-6.05040E+04 4.06748E+04-4.33385E+05
 -1       737-5.34660E+04-7.65693E+04-2.37827E+05
 -1       738-4.06578E+04-1.60156E+05 1.79105E+04
 -1       739-2.56998E+04-2.05883E+05 2.91201E+05
 -1       740-1.15767E+04-2.19344E+05 5.30288E+05
 -1       741 1.09468E+02-2.11643E+05 6.86167E+05
 -1       742 9.28373E+03-1.93941E+05 7.24629E+05
 -1       743 1.69493E+04-1.72851E+05 6.35143E+05
 -1       744 2.43513E+04-1.48287E+05 4.34043E+05
 -1       745 3.20875E+04-1.14473E+05 1.61052E+05
 -1       746 3.95145E+04-6.36697E+04-1.29983E+05
 -1       747 4.46872E+04 8.79308E+03-3.83632E+05
 -1       748 4.48838E+04 1.00097E+05-5.55328E+05
 -1       749 3.75555E+04 1.97891E+05-6.20431E+05
 -1       750 2.13801E+04 2.81630E+05-5.77672E+05
 -1       751-2.96382E+03 3.27138E+05-4.46431E+05
 -1       752-3.26179E+04 3.13135E+05-2.59076E+05
 -1       753-6.31047E+04 2.27647E+05-5.09882E+04
 -1       754-8.95492E+04 7.20564E+04 1.48561E+05
 -1       755-1.08270E+05-1.38883E+05 3.22152E+05
 -1       756-1.18283E+05-3.81657E+05 4.66170E+05
 -1       757 3.05401E+04 8.37958E+04 2.96385E+04
 -1       758 4.74296E+04 2.02852E+05 8.92946E+04
 -1       759 4.46976E+04 3.26306E+05 1.79942E+05
 -1       760 2.70198E+04 4.14152E+05 2.92826E+05
 -1       761 1.32873E+03 4.41440E+05 4.11928E+05
 -1       762-2.52252E+04 4.01683E+05 5.12574E+05
 -1       763-4.65207E+04 3.05645E+05 5.65361E+05
 -1       764-5.86596E+04 1.76172E+05 5.43862E+05
 -1       765-6.05040E+04 4.06748E+04 4.33385E+05
 -1       766-5.34660E+04-7.65693E+04 2.37827E+05
 -1       767-4.06578E+04-1.60156E+05-1.79105E+04
 -1       768-2.56998E+04-2.05883E+05-2.91201E+05
 -1       769-1.15767E+04-2.19344E+05-5.30288E+05
 -1       770 1.09468E+02-2.11643E+05-6.86167E+05
 -1       771 9.28373E+03-1.93941E+05-7.24629E+05
 -1       772 1.69493E+04-1.72851E+05-6.35143E+05
 -1       773 2.43513E+04-1.48287E+05-4.34043E+05
 -1       774 3.20875E+04-1.14473E+05-1.61052E+05
 -1       775 3.95145E+04-6.36697E+04 1.29983E+05
 -1       776 4.46872E+04 8.79308E+03 3.83632E+05
 -1       777 4.48838E+04 1.00097E+05 5.55328E+05
 -1       778 3.75555E+04 1.97891E+05 6.20431E+05
 -1       779 2.13801E+04 2.81630E+05 5.77672E+05
 -1       780-2.96382E+03 3.27138E+05 4.46431E+05
 -1       781-3.26179E+04 3.13135E+05 2.59076E+05
 -1       782-6.31047E+04 2.27647E+05 5.09882E+04
 -1       783-8.95492E+04 7.20564E+04-1.48561E+05
 -1       784-1.08270E+05-1.38883E+05-3.22152E+05
 -1       785-1.18283E+05-3.81657E+05-4.66170E+05
 -1       786 2.86445E+04 8.67349E+04 2.92974E+04
 -1       787 4.39828E+04 2.11770E+05 8.92200E+04
 -1       788 4.00234E+04 3.44248E+05 1.80121E+05
 -1       789 2.16466E+04 4.43234E+05 2.93167E+05
 -1       790-3.81789E+03 4.82188E+05 4.12333E+05
 -1       791-2.88847E+04 4.52215E+05 5.12946E+05
 -1       792-4.73757E+04 3.61224E+05 5.65627E+05
 -1       793-5.57273E+04 2.29504E+05 5.43982E+05
 -1       794-5.35075E+04 8.30616E+04 4.33361E+05
 -1       795-4.30571E+04-5.34188E+04 2.37690E+05
 -1       796-2.84004E+04-1.62083E+05-1.81135E+04
 -1       797-1.37942E+04-2.34561E+05-2.91422E+05
 -1       798-2.37902E+03-2.71395E+05-5.30491E+05
 -1       799 4.64896E+03-2.78914E+05-6.86339E+05
 -1       800 8.11354E+03-2.64950E+05-7.24773E+05
 -1       801 1.02012E+04-2.35094E+05-6.35271E+05
 -1       802 1.33340E+04-1.90857E+05-4.34166E+05
 -1       803 1.89877E+04-1.30335E+05-1.61168E+05
 -1       804 2.68841E+04-5.10428E+04 1.29893E+05
 -1       805 3.48564E+04 4.62806E+04 3.83602E+05
 -1       806 3.94567E+04 1.54459E+05 5.55394E+05
 -1       807 3.71182E+04 2.58722E+05 6.20617E+05
 -1       808 2.54867E+04 3.38376E+05 5.77980E+05
 -1       809 4.45693E+03 3.71109E+05 4.46832E+05
 -1       810-2.34785E+04 3.38780E+05 2.59513E+05
 -1       811-5.37567E+04 2.32858E+05 5.13913E+04
 -1       812-8.10705E+04 5.75960E+04-1.48256E+05
 -1       813-1.01141E+05-1.70518E+05-3.21982E+05
 -1       814-1.12358E+05-4.27532E+05-4.66126E+05
 -1       815-2.86445E+04 8.67349E+04 2.92974E+04
 -1       816-4.39828E+04 2.11770E+05 8.92200E+04
 -1       817-4.00234E+04 3.44248E+05 1.80121E+05
 -1       818-2.16466E+04 4.43234E+05 2.93167E+05
 -1       819 3.81789E+03 4.82188E+05 4.12333E+05
 -1       820 2.88847E+04 4.52215E+05 5.12946E+05
 -1       821 4.73757E+04 3.61224E+05 5.65627E+05
 -1       822 5.57273E+04 2.29504E+05 5.43982E+05
 -1       823 5.35075E+04 8.30616E+04 4.33361E+05
 -1       824 4.30571E+04-5.34188E+04 2.37690E+05
 -1       825 2.84004E+04-1.62083E+05-1.81135E+04
 -1       826 1.37942E+04-2.34561E+05-2.91422E+05
 -1       827 2.37902E+03-2.71395E+05-5.30491E+05
 -1       828-4.64896E+03-2.78914E+05-6.86339E+05
 -1       829-8.11354E+03-2.64950E+05-7.24773E+05
 -1       830-1.02012E+04-2.35094E+05-6.35271E+05
 -1       831-1.33340E+04-1.90857E+05-4.34166E+05
 -1       832-1.89877E+04-1.30335E+05-1.61168E+05
 -1       833-2.68841E+04-5.10428E+04 1.29893E+05
 -1       834-3.48564E+04 4.62806E+04 3.83602E+05
 -1       835-3.94567E+04 1.54459E+05 5.55394E+05
 -1       836-3.71182E+04 2.58722E+05 6.20617E+05
 -1       837-2.54867E+04 3.38376E+05 5.77980E+05
 -1       838-4.45693E+03 3.71109E+05 4.46832E+05
 -1       839 2.34785E+04 3.38780E+05 2.59513E+05
 -1       840 5.37567E+04 2.32858E+05 5.13913E+04
 -1       841 8.10705E+04 5.75960E+04-1.48256E+05
 -1       842 1.01141E+05-1.70518E+05-3.21982E+05
 -1       843 1.12358E+05-4.27532E+05-4.66126E+05
 -1       844-3.05401E+04 8.37958E+04 2.96385E+04
 -1       845-4.74296E+04 2.02852E+05 8.92946E+04
 -1       846-4.46976E+04 3.26306E+05 1.79942E+05
 -1       847-2.70198E+04 4.14152E+05 2.92826E+05
 -1       848-1.32873E+03 4.41440E+05 4.11928E+05
 -1       849 2.52252E+04 4.01683E+05 5.12574E+05
 -1       850 4.65207E+04 3.05645E+05 5.65361E+05
 -1       851 5.86596E+04 1.76172E+05 5.43862E+05
 -1       852 6.05040E+04 4.06748E+04 4.33385E+05
 -1       853 5.34660E+04-7.65693E+04 2.37827E+05
 -1       854 4.06578E+04-1.60156E+05-1.79105E+04
 -1       855 2.56998E+04-2.05883E+05-2.91201E+05
 -1       856 1.15767E+04-2.19344E+05-5.30288E+05
 -1       857-1.09468E+02-2.11643E+05-6.86167E+05
 -1       858-9.28373E+03-1.93941E+05-7.24629E+05
 -1       859-1.69493E+04-1.72851E+05-6.35143E+05
 -1       860-2.43513E+04-1.48287E+05-4.34043E+05
 -1       861-3.20875E+04-1.14473E+05-1.61052E+05
 -1       862-3.95145E+04-6.36697E+04 1.29983E+05
 -1       863-4.46872E+04 8.79308E+03 3.83632E+05
 -1       864-4.48838E+04 1.00097E+05 5.55328E+05
 -1       865-3.75555E+04 1.97891E+05 6.20431E+05
 -1       866-2.13801E+04 2.81630E+05 5.77672E+05
 -1       867 2.96382E+03 3.27138E+05 4.46431E+05
 -1       868 3.26179E+04 3.13135E+05 2.59076E+05
 -1       869 6.31047E+04 2.27647E+05 5.09882E+04
 -1       870 8.95492E+04 7.20564E+04-1.48561E+05
 -1       871 1.08270E+05-1.38883E+05-3.22152E+05
 -1       872 1.18283E+05-3.81657E+05-4.66170E+05
 -1       873 1.12358E+05-4.27532E+05 4.66126E+05
 -1       874 1.01141E+05-1.70518E+05 3.21982E+05
 -1       875 8.10705E+04 5.75960E+04 1.48256E+05
 -1       876 5.37567E+04 2.32858E+05-5.13913E+04
 -1       877 2.34785E+04 3.38780E+05-2.59513E+05
 -1       878-4.45693E+03 3.71109E+05-4.46832E+05
 -1       879-2.54867E+04 3.38376E+05-5.77980E+05
 -1       880-3.71182E+04 2.58722E+05-6.20617E+05
 -1       881-3.94567E+04 1.54459E+05-5.55394E+05
 -1       882-3.48564E+04 4.62806E+04-3.83602E+05
 -1       883-2.68841E+04-5.10428E+04-1.29893E+05
 -1       884-1.89877E+04-1.30335E+05 1.61168E+05
 -1       885-1.33340E+04-1.90857E+05 4.34166E+05
 -1       886-1.02012E+04-2.35094E+05 6.35271E+05
 -1       887-8.11354E+03-2.64950E+05 7.24773E+05
 -1       888-4.64896E+03-2.78914E+05 6.86339E+05
 -1       889 2.37902E+03-2.71395E+05 5.30491E+05
 -1       890 1.37942E+04-2.34561E+05 2.91422E+05
 -1       891 2.84004E+04-1.62083E+05 1.81135E+04
 -1       892 4.30571E+04-5.34188E+04-2.37690E+05
 -1       893 5.35075E+04 8.30616E+04-4.33361E+05
 -1       894 5.57273E+04 2.29504E+05-5.43982E+05
 -1       895 4.73757E+04 3.61224E+05-5.65627E+05
 -1       896 2.88847E+04 4.52215E+05-5.12946E+05
 -1       897 3.81789E+03 4.82188E+05-4.12333E+05
 -1       898-2.16466E+04 4.43234E+05-2.93167E+05
 -1       899-4.00234E+04 3.44248E+05-1.80121E+05
 -1       900-4.39828E+04 2.11770E+05-8.92200E+04
 -1       901-2.86445E+04 8.67349E+04-2.92974E+04
 -1       902-3.05401E+04 8.37958E+04-2.96385E+04
 -1       903-4.74296E+04 2.02852E+05-8.92946E+04
 -1       904-4.46976E+04 3.26306E+05-1.79942E+05
 -1       905-2.70198E+04 4.14152E+05-2.92826E+05
 -1       906-1.32873E+03 4.41440E+05-4.11928E+05
 -1       907 2.52252E+04 4.01683E+05-5.12574E+05
 -1       908 4.65207E+04 3.05645E+05-5.65361E+05
 -1       909 5.86596E+04 1.76172E+05-5.43862E+05
 -1       910 6.05040E+04 4.06748E+04-4.33385E+05
 -1       911 5.34660E+04-7.65693E+04-2.37827E+05
 -1       912 4.06578E+04-1.60156E+05 1.79105E+04
 -1       913 2.56998E+04-2.05883E+05 2.91201E+05
 -1       914 1.15767E+04-2.19344E+05 5.30288E+05
 -1       915-1.09468E+02-2.11643E+05 6.86167E+05
 -1       916-9.28373E+03-1.93941E+05 7.24629E+05
 -1       917-1.69493E+04-1.72851E+05 6.35143E+05
 -1       918-2.43513E+04-1.48287E+05 4.34043E+05
 -1       919-3.20875E+04-1.14473E+05 1.61052E+05
 -1       920-3.95145E+04-6.36697E+04-1.29983E+05
 -1       921-4.46872E+04 8.79308E+03-3.83632E+05
 -1       922-4.48838E+04 1.00097E+05-5.55328E+05
 -1       923-3.75555E+04 1.97891E+05-6.20431E+05
 -1       924-2.13801E+04 2.81630E+05-5.77672E+05
 -1       925 2.96382E+03 3.27138E+05-4.46431E+05
 -1       926 3.26179E+04 3.13135E+05-2.59076E+05
 -1       927 6.31047E+04 2.27647E+05-5.09882E+04
 -1       928 8.95492E+04 7.20564E+04 1.48561E+05
 -1       929 1.08270E+05-1.38883E+05 3.22152E+05
 -1       930 1.18283E+05-3.81657E+05 4.66170E+05
 -3
    1PSTEP                        72           1           1          
    1PGM                1.000000E+00                                  
    1PGK                3.040028E+07                                  
    1PHID                         -1                                  
    1PSUBC                         0                                  
    1PMODE                        18                                  
  100CL  118 877.5238154         930                     2   18MODAL      1
 -4  ERROR       1    1
 -5  STR(%)      1    1    0    0
 -1         1 7.17789E+01
 -1         2 7.17789E+01
 -1         3 7.15312E+01
 -1         4 7.15312E+01
 -1         5 7.17789E+01
 -1         6 7.17789E+01
 -1         7 7.15312E+01
 -1         8 7.15312E+01
 -1         9 7.17789E+01
 -1        10 7.15312E+01
 -1        11 4.23935E+01
 -1        12 4.23935E+01
 -1        13 5.70938E+01
 -1        14 5.70938E+01
 -1        15 7.17789E+01
 -1        16 7.15312E+01
 -1        17 4.23935E+01
 -1        18 4.23935E+01
 -1        19 5.70938E+01
 -1        20 5.70938E+01
 -1        21 4.23935E+01
 -1        22 4.23935E+01
 -1        23 5.70938E+01
 -1        24 5.70938E+01
 -1        25 7.17789E+01
 -1        26 7.15312E+01
 -1        27 7.17789E+01
 -1        28 4.23935E+01
 -1        29 4.23935E+01
 -1        30 7.15312E+01
 -1        31 5.70938E+01
 -1        32 5.70938E+01
 -1        33 7.17789E+01
 -1        34 6.53157E+01
 -1        35 7.84547E+01
 -1        36 8.27873E+01
 -1        37 8.38324E+01
 -1        38 8.38324E+01
 -1        39 8.21024E+01
 -1        40 7.77386E+01
 -1        41 5.61051E+01
 -1        42 5.56168E+01
 -1        43 5.56168E+01
 -1        44 7.80770E+01
 -1        45 7.80770E+01
 -1        46 7.16250E+01
 -1        47 6.52466E+01
 -1        48 6.52466E+01
 -1        49 6.52396E+01
 -1        50 6.49908E+01
 -1        51 6.49908E+01
 -1        52 5.71181E+01
 -1        53 6.37972E+01
 -1        54 7.53397E+01
 -1        55 7.79882E+01
 -1        56 7.79882E+01
 -1        57 7.01948E+01
 -1        58 6.90952E+01
 -1        59 6.57464E+01
 -1        60 5.32718E+01
 -1        61 7.15312E+01
 -1        62 7.17789E+01
 -1        63 6.53157E+01
 -1        64 7.84547E+01
 -1        65 8.27873E+01
 -1        66 8.38324E+01
 -1        67 8.38324E+01
 -1        68 8.21024E+01
 -1        69 7.77386E+01
 -1        70 5.61051E+01
 -1        71 5.56168E+01
 -1        72 5.56168E+01
 -1        73 7.80770E+01
 -1        74 7.80770E+01
 -1        75 7.16250E+01
 -1        76 6.52466E+01
 -1        77 6.52466E+01
 -1        78 6.52396E+01
 -1        79 6.49908E+01
 -1        80 6.49908E+01
 -1        81 5.71181E+01
 -1        82 6.37972E+01
 -1        83 7.53397E+01
 -1        84 7.79882E+01
 -1        85 7.79882E+01
 -1        86 7.01948E+01
 -1        87 6.90952E+01
 -1        88 6.57464E+01
 -1        89 5.32718E+01
 -1        90 7.15312E+01
 -1        91 6.93500E+01
 -1        92 5.82369E+01
 -1        93 6.93500E+01
 -1        94 6.93500E+01
 -1        95 5.82369E+01
 -1        96 6.93500E+01
 -1        97 7.17789E+01
 -1        98 6.53157E+01
 -1        99 7.84547E+01
 -1       100 8.27873E+01
 -1       101 8.38324E+01
 -1       102 8.38324E+01
 -1       103 8.21024E+01
 -1       104 7.77386E+01
 -1       105 5.61051E+01
 -1       106 5.56168E+01
 -1       107 5.56168E+01
 -1       108 7.80770E+01
 -1       109 7.80770E+01
 -1       110 7.16250E+01
 -1       111 6.52466E+01
 -1       112 6.52466E+01
 -1       113 6.52396E+01
 -1       114 6.49908E+01
 -1       115 6.49908E+01
 -1       116 5.71181E+01
 -1       117 6.37972E+01
 -1       118 7.53397E+01
 -1       119 7.79882E+01
 -1       120 7.79882E+01
 -1       121 7.01948E+01
 -1       122 6.90952E+01
 -1       123 6.57464E+01
 -1       124 5.32718E+01
 -1       125 7.15312E+01
 -1       126 4.14040E+01
 -1       127 3.43945E+01
 -1       128 4.14040E+01
 -1       129 7.17789E+01
 -1       130 6.53157E+01
 -1       131 7.84547E+01
 -1       132 8.27873E+01
 -1       133 8.38324E+01
 -1       134 8.38324E+01
 -1       135 8.21024E+01
 -1       136 7.77386E+01
 -1       137 5.61051E+01
 -1       138 5.56168E+01
 -1       139 5.56168E+01
 -1       140 7.80770E+01
 -1       141 7.80770E+01
 -1       142 7.16250E+01
 -1       143 6.52466E+01
 -1       144 6.52466E+01
 -1       145 6.52396E+01
 -1       146 6.49908E+01
 -1       147 6.49908E+01
 -1       148 5.71181E+01
 -1       149 6.37972E+01
 -1       150 7.53397E+01
 -1       151 7.79882E+01
 -1       152 7.79882E+01
 -1       153 7.01948E+01
 -1       154 6.90952E+01
 -1       155 6.57464E+01
 -1       156 5.32718E+01
 -1       157 7.15312E+01
 -1       158 4.14040E+01
 -1       159 3.43945E+01
 -1       160 4.14040E+01
 -1       161 7.17789E+01
 -1       162 6.53157E+01
 -1       163 7.84547E+01
 -1       164 8.27873E+01
 -1       165 8.38324E+01
 -1       166 8.38324E+01
 -1       167 8.21024E+01
 -1       168 7.77386E+01
 -1       169 5.61051E+01
 -1       170 5.51415E+01
 -1       171 5.51415E+01
 -1       172 7.80770E+01
 -1       173 7.80770E+01
 -1       174 7.16250E+01
 -1       175 6.52466E+01
 -1       176 6.52466E+01
 -1       177 6.52396E+01
 -1       178 6.49908E+01
 -1       179 6.49908E+01
 -1       180 4.93550E+01
 -1       181 6.37972E+01
 -1       182 7.53397E+01
 -1       183 7.79882E+01
 -1       184 7.79882E+01
 -1       185 7.01948E+01
 -1       186 6.90952E+01
 -1       187 6.57464E+01
 -1       188 5.32718E+01
 -1       189 7.15312E+01
 -1       190 4.99122E+01
 -1       191 4.99122E+01
 -1       192 7.15312E+01
 -1       193 4.23935E+01
 -1       194 6.29593E+01
 -1       195 6.29593E+01
 -1       196 3.58408E+01
 -1       197 2.73053E+01
 -1       198 2.99747E+01
 -1       199 2.99747E+01
 -1       200 6.13381E+01
 -1       201 6.13381E+01
 -1       202 4.92495E+01
 -1       203 3.43721E+01
 -1       204 3.53932E+01
 -1       205 4.05435E+01
 -1       206 4.05435E+01
 -1       207 3.49147E+01
 -1       208 3.84693E+01
 -1       209 3.84693E+01
 -1       210 2.83838E+01
 -1       211 3.82617E+01
 -1       212 5.44672E+01
 -1       213 5.44672E+01
 -1       214 3.49405E+01
 -1       215 3.49405E+01
 -1       216 3.48360E+01
 -1       217 3.06616E+01
 -1       218 3.31631E+01
 -1       219 3.83965E+01
 -1       220 4.55808E+01
 -1       221 5.70938E+01
 -1       222 4.23935E+01
 -1       223 6.29593E+01
 -1       224 6.29593E+01
 -1       225 3.58408E+01
 -1       226 2.73053E+01
 -1       227 2.99747E+01
 -1       228 2.99747E+01
 -1       229 6.13381E+01
 -1       230 6.13381E+01
 -1       231 4.92495E+01
 -1       232 3.43721E+01
 -1       233 3.53932E+01
 -1       234 4.05435E+01
 -1       235 4.05435E+01
 -1       236 3.49147E+01
 -1       237 3.84693E+01
 -1       238 3.84693E+01
 -1       239 2.83838E+01
 -1       240 3.82617E+01
 -1       241 5.44672E+01
 -1       242 5.44672E+01
 -1       243 3.49405E+01
 -1       244 3.49405E+01
 -1       245 3.48360E+01
 -1       246 3.06616E+01
 -1       247 3.31631E+01
 -1       248 3.83965E+01
 -1       249 4.55808E+01
 -1       250 5.70938E+01
 -1       251 7.15312E+01
 -1       252 7.15312E+01
 -1       253 5.32718E+01
 -1       254 6.57464E+01
 -1       255 6.90952E+01
 -1       256 7.01948E+01
 -1       257 7.79882E+01
 -1       258 7.79882E+01
 -1       259 7.53397E+01
 -1       260 6.37972E+01
 -1       261 4.93550E+01
 -1       262 6.49908E+01
 -1       263 6.49908E+01
 -1       264 6.52396E+01
 -1       265 6.52466E+01
 -1       266 6.52466E+01
 -1       267 7.16250E+01
 -1       268 7.80770E+01
 -1       269 7.80770E+01
 -1       270 5.51415E+01
 -1       271 5.51415E+01
 -1       272 5.61051E+01
 -1       273 7.77386E+01
 -1       274 8.21024E+01
 -1       275 8.38324E+01
 -1       276 8.38324E+01
 -1       277 8.27873E+01
 -1       278 7.84547E+01
 -1       279 6.53157E+01
 -1       280 7.17789E+01
 -1       281 4.99122E+01
 -1       282 4.99122E+01
 -1       283 4.23935E+01
 -1       284 6.29593E+01
 -1       285 6.29593E+01
 -1       286 3.58408E+01
 -1       287 2.73053E+01
 -1       288 2.99747E+01
 -1       289 2.99747E+01
 -1       290 6.13381E+01
 -1       291 6.13381E+01
 -1       292 4.92495E+01
 -1       293 3.43721E+01
 -1       294 3.53932E+01
 -1       295 4.05435E+01
 -1       296 4.05435E+01
 -1       297 3.49147E+01
 -1       298 3.84693E+01
 -1       299 3.84693E+01
 -1       300 2.83838E+01
 -1       301 3.82617E+01
 -1       302 5.44672E+01
 -1       303 5.44672E+01
 -1       304 3.49405E+01
 -1       305 3.49405E+01
 -1       306 3.48360E+01
 -1       307 3.06616E+01
 -1       308 3.31631E+01
 -1       309 3.83965E+01
 -1       310 4.55808E+01
 -1       311 5.70938E+01
 -1       312 7.15312E+01
 -1       313 4.23935E+01
 -1       314 6.29593E+01
 -1       315 6.29593E+01
 -1       316 3.58408E+01
 -1       317 2.73053E+01
 -1       318 2.99747E+01
 -1       319 2.99747E+01
 -1       320 6.13381E+01
 -1       321 6.13381E+01
 -1       322 4.92495E+01
 -1       323 3.43721E+01
 -1       324 3.53932E+01
 -1       325 4.05435E+01
 -1       326 4.05435E+01
 -1       327 3.49147E+01
 -1       328 3.84693E+01
 -1       329 3.84693E+01
 -1       330 2.83838E+01
 -1       331 3.82617E+01
 -1       332 5.44672E+01
 -1       333 5.44672E+01
 -1       334 3.49405E+01
 -1       335 3.49405E+01
 -1       336 3.48360E+01
 -1       337 3.06616E+01
 -1       338 3.31631E+01
 -1       339 3.83965E+01
 -1       340 4.55808E+01
 -1       341 5.70938E+01
 -1       342 7.15312E+01
 -1       343 4.23935E+01
 -1       344 6.29593E+01
 -1       345 6.29593E+01
 -1       346 3.58408E+01
 -1       347 2.73053E+01
 -1       348 2.99747E+01
 -1       349 2.99747E+01
 -1       350 6.13381E+01
 -1       351 6.13381E+01
 -1       352 4.92495E+01
 -1       353 3.43721E+01
 -1       354 3.53932E+01
 -1       355 4.05435E+01
 -1       356 4.05435E+01
 -1       357 3.49147E+01
 -1       358 3.84693E+01
 -1       359 3.84693E+01
 -1       360 2.83838E+01
 -1       361 3.82617E+01
 -1       362 5.44672E+01
 -1       363 5.44672E+01
 -1       364 3.49405E+01
 -1       365 3.49405E+01
 -1       366 3.48360E+01
 -1       367 3.06616E+01
 -1       368 3.31631E+01
 -1       369 3.83965E+01
 -1       370 4.55808E+01
 -1       371 5.70938E+01
 -1       372 4.23935E+01
 -1       373 6.29593E+01
 -1       374 6.29593E+01
 -1       375 3.58408E+01
 -1       376 2.73053E+01
 -1       377 2.99747E+01
 -1       378 2.99747E+01
 -1       379 6.13381E+01
 -1       380 6.13381E+01
 -1       381 4.92495E+01
 -1       382 3.43721E+01
 -1       383 3.53932E+01
 -1       384 4.05435E+01
 -1       385 4.05435E+01
 -1       386 3.49147E+01
 -1       387 3.84693E+01
 -1       388 3.84693E+01
 -1       389 2.83838E+01
 -1       390 3.82617E+01
 -1       391 5.44672E+01
 -1       392 5.44672E+01
 -1       393 3.49405E+01
 -1       394 3.49405E+01
 -1       395 3.48360E+01
 -1       396 3.06616E+01
 -1       397 3.31631E+01
 -1       398 3.83965E+01
 -1       399 4.55808E+01
 -1       400 5.70938E+01
 -1       401 4.99122E+01
 -1       402 4.99122E+01
 -1       403 7.15312E+01
 -1       404 7.17789E+01
 -1       405 6.53157E+01
 -1       406 7.84547E+01
 -1       407 8.27873E+01
 -1       408 8.38324E+01
 -1       409 8.38324E+01
 -1       410 8.21024E+01
 -1       411 7.77386E+01
 -1       412 5.61051E+01
 -1       413 5.51415E+01
 -1       414 5.51415E+01
 -1       415 7.80770E+01
 -1       416 7.80770E+01
 -1       417 7.16250E+01
 -1       418 6.52466E+01
 -1       419 6.52466E+01
 -1       420 6.52396E+01
 -1       421 6.49908E+01
 -1       422 6.49908E+01
 -1       423 4.93550E+01
 -1       424 6.37972E+01
 -1       425 7.53397E+01
 -1       426 7.79882E+01
 -1       427 7.79882E+01
 -1       428 7.01948E+01
 -1       429 6.90952E+01
 -1       430 6.57464E+01
 -1       431 5.32718E+01
 -1       432 7.15312E+01
 -1       433 7.15312E+01
 -1       434 4.99122E+01
 -1       435 4.99122E+01
 -1       436 7.15312E+01
 -1       437 5.32718E+01
 -1       438 6.57464E+01
 -1       439 6.90952E+01
 -1       440 7.01948E+01
 -1       441 7.79882E+01
 -1       442 7.79882E+01
 -1       443 7.53397E+01
 -1       444 6.37972E+01
 -1       445 4.93550E+01
 -1       446 6.49908E+01
 -1       447 6.49908E+01
 -1       448 6.52396E+01
 -1       449 6.52466E+01
 -1       450 6.52466E+01
 -1       451 7.16250E+01
 -1       452 7.80770E+01
 -1       453 7.80770E+01
 -1       454 5.51415E+01
 -1       455 5.51415E+01
 -1       456 5.61051E+01
 -1       457 7.77386E+01
 -1       458 8.21024E+01
 -1       459 8.38324E+01
 -1       460 8.38324E+01
 -1       461 8.27873E+01
 -1       462 7.84547E+01
 -1       463 6.53157E+01
 -1       464 7.17789E+01
 -1       465 7.15312E+01
 -1       466 4.23935E+01
 -1       467 6.29593E+01
 -1       468 6.29593E+01
 -1       469 3.58408E+01
 -1       470 2.73053E+01
 -1       471 2.99747E+01
 -1       472 2.99747E+01
 -1       473 6.13381E+01
 -1       474 6.13381E+01
 -1       475 4.92495E+01
 -1       476 3.43721E+01
 -1       477 3.53932E+01
 -1       478 4.05435E+01
 -1       479 4.05435E+01
 -1       480 3.49147E+01
 -1       481 3.84693E+01
 -1       482 3.84693E+01
 -1       483 2.83838E+01
 -1       484 3.82617E+01
 -1       485 5.44672E+01
 -1       486 5.44672E+01
 -1       487 3.49405E+01
 -1       488 3.49405E+01
 -1       489 3.48360E+01
 -1       490 3.06616E+01
 -1       491 3.31631E+01
 -1       492 3.83965E+01
 -1       493 4.55808E+01
 -1       494 5.70938E+01
 -1       495 4.23935E+01
 -1       496 6.29593E+01
 -1       497 6.29593E+01
 -1       498 3.58408E+01
 -1       499 2.73053E+01
 -1       500 2.99747E+01
 -1       501 2.99747E+01
 -1       502 6.13381E+01
 -1       503 6.13381E+01
 -1       504 4.92495E+01
 -1       505 3.43721E+01
 -1       506 3.53932E+01
 -1       507 4.05435E+01
 -1       508 4.05435E+01
 -1       509 3.49147E+01
 -1       510 3.84693E+01
 -1       511 3.84693E+01
 -1       512 2.83838E+01
 -1       513 3.82617E+01
 -1       514 5.44672E+01
 -1       515 5.44672E+01
 -1       516 3.49405E+01
 -1       517 3.49405E+01
 -1       518 3.48360E+01
 -1       519 3.06616E+01
 -1       520 3.31631E+01
 -1       521 3.83965E+01
 -1       522 4.55808E+01
 -1       523 5.70938E+01
 -1       524 7.15312E+01
 -1       525 6.93500E+01
 -1       526 5.17900E+01
 -1       527 3.97663E+01
 -1       528 3.44086E+01
 -1       529 3.56407E+01
 -1       530 3.81796E+01
 -1       531 4.18212E+01
 -1       532 4.74594E+01
 -1       533 5.32209E+01
 -1       534 5.59725E+01
 -1       535 5.90298E+01
 -1       536 5.90298E+01
 -1       537 4.96091E+01
 -1       538 4.68390E+01
 -1       539 4.60435E+01
 -1       540 4.92921E+01
 -1       541 5.49048E+01
 -1       542 5.49048E+01
 -1       543 5.71181E+01
 -1       544 5.71181E+01
 -1       545 5.06102E+01
 -1       546 4.57092E+01
 -1       547 4.28800E+01
 -1       548 4.24813E+01
 -1       549 4.19310E+01
 -1       550 5.05284E+01
 -1       551 5.05284E+01
 -1       552 4.94432E+01
 -1       553 4.49693E+01
 -1       554 5.82369E+01
 -1       555 5.17900E+01
 -1       556 2.83418E+01
 -1       557 3.24260E+01
 -1       558 3.43303E+01
 -1       559 3.43303E+01
 -1       560 3.39089E+01
 -1       561 3.51689E+01
 -1       562 4.11063E+01
 -1       563 5.59725E+01
 -1       564 5.90298E+01
 -1       565 5.90298E+01
 -1       566 4.47502E+01
 -1       567 3.80159E+01
 -1       568 3.48834E+01
 -1       569 4.02458E+01
 -1       570 5.03508E+01
 -1       571 5.03508E+01
 -1       572 4.75262E+01
 -1       573 4.75262E+01
 -1       574 3.87367E+01
 -1       575 3.43476E+01
 -1       576 3.78828E+01
 -1       577 4.19310E+01
 -1       578 4.19310E+01
 -1       579 4.38018E+01
 -1       580 4.38018E+01
 -1       581 4.02018E+01
 -1       582 3.67964E+01
 -1       583 6.93500E+01
 -1       584 5.17900E+01
 -1       585 3.97663E+01
 -1       586 3.44086E+01
 -1       587 3.56407E+01
 -1       588 3.81796E+01
 -1       589 4.18212E+01
 -1       590 4.74594E+01
 -1       591 5.32209E+01
 -1       592 5.59725E+01
 -1       593 5.90298E+01
 -1       594 5.90298E+01
 -1       595 4.96091E+01
 -1       596 4.68390E+01
 -1       597 4.60435E+01
 -1       598 4.92921E+01
 -1       599 5.49048E+01
 -1       600 5.49048E+01
 -1       601 5.71181E+01
 -1       602 5.71181E+01
 -1       603 5.06102E+01
 -1       604 4.57092E+01
 -1       605 4.28800E+01
 -1       606 4.24813E+01
 -1       607 4.19310E+01
 -1       608 5.05284E+01
 -1       609 5.05284E+01
 -1       610 4.94432E+01
 -1       611 4.49693E+01
 -1       612 6.93500E+01
 -1       613 5.17900E+01
 -1       614 3.97663E+01
 -1       615 3.44086E+01
 -1       616 3.56407E+01
 -1       617 3.81796E+01
 -1       618 4.18212E+01
 -1       619 4.74594E+01
 -1       620 5.32209E+01
 -1       621 5.59725E+01
 -1       622 5.90298E+01
 -1       623 5.90298E+01
 -1       624 4.96091E+01
 -1       625 4.68390E+01
 -1       626 4.60435E+01
 -1       627 4.92921E+01
 -1       628 5.49048E+01
 -1       629 5.49048E+01
 -1       630 5.71181E+01
 -1       631 5.71181E+01
 -1       632 5.06102E+01
 -1       633 4.57092E+01
 -1       634 4.28800E+01
 -1       635 4.24813E+01
 -1       636 4.19310E+01
 -1       637 5.05284E+01
 -1       638 5.05284E+01
 -1       639 4.94432E+01
 -1       640 4.49693E+01
 -1       641 5.82369E+01
 -1       642 5.17900E+01
 -1       643 2.83418E+01
 -1       644 3.24260E+01
 -1       645 3.43303E+01
 -1       646 3.43303E+01
 -1       647 3.39089E+01
 -1       648 3.51689E+01
 -1       649 4.11063E+01
 -1       650 5.59725E+01
 -1       651 5.90298E+01
 -1       652 5.90298E+01
 -1       653 4.47502E+01
 -1       654 3.80159E+01
 -1       655 3.48834E+01
 -1       656 4.02458E+01
 -1       657 5.03508E+01
 -1       658 5.03508E+01
 -1       659 4.75262E+01
 -1       660 4.75262E+01
 -1       661 3.87367E+01
 -1       662 3.43476E+01
 -1       663 3.78828E+01
 -1       664 4.19310E+01
 -1       665 4.19310E+01
 -1       666 4.38018E+01
 -1       667 4.38018E+01
 -1       668 4.02018E+01
 -1       669 3.67964E+01
 -1       670 6.93500E+01
 -1       671 5.17900E+01
 -1       672 3.97663E+01
 -1       673 3.44086E+01
 -1       674 3.56407E+01
 -1       675 3.81796E+01
 -1       676 4.18212E+01
 -1       677 4.74594E+01
 -1       678 5.32209E+01
 -1       679 5.59725E+01
 -1       680 5.90298E+01
 -1       681 5.90298E+01
 -1       682 4.96091E+01
 -1       683 4.68390E+01
 -1       684 4.60435E+01
 -1       685 4.92921E+01
 -1       686 5.49048E+01
 -1       687 5.49048E+01
 -1       688 5.71181E+01
 -1       689 5.71181E+01
 -1       690 5.06102E+01
 -1       691 4.57092E+01
 -1       692 4.28800E+01
 -1       693 4.24813E+01
 -1       694 4.19310E+01
 -1       695 5.05284E+01
 -1       696 5.05284E+01
 -1       697 4.94432E+01
 -1       698 4.49693E+01
 -1       699 4.99122E+01
 -1       700 6.53157E+01
 -1       701 7.84547E+01
 -1       702 8.27873E+01
 -1       703 8.38324E+01
 -1       704 8.38324E+01
 -1       705 8.21024E+01
 -1       706 7.77386E+01
 -1       707 6.13381E+01
 -1       708 4.92495E+01
 -1       709 4.91856E+01
 -1       710 7.80770E+01
 -1       711 7.80770E+01
 -1       712 7.16250E+01
 -1       713 6.52466E+01
 -1       714 6.52466E+01
 -1       715 6.52396E+01
 -1       716 5.26666E+01
 -1       717 3.82617E+01
 -1       718 5.44672E+01
 -1       719 6.37972E+01
 -1       720 7.53397E+01
 -1       721 7.79882E+01
 -1       722 7.79882E+01
 -1       723 7.01948E+01
 -1       724 6.90952E+01
 -1       725 6.57464E+01
 -1       726 5.32718E+01
 -1       727 7.15312E+01
 -1       728 4.99122E+01
 -1       729 6.53157E+01
 -1       730 7.84547E+01
 -1       731 8.27873E+01
 -1       732 8.38324E+01
 -1       733 8.38324E+01
 -1       734 8.21024E+01
 -1       735 7.77386E+01
 -1       736 6.13381E+01
 -1       737 4.92495E+01
 -1       738 4.91856E+01
 -1       739 7.80770E+01
 -1       740 7.80770E+01
 -1       741 7.16250E+01
 -1       742 6.52466E+01
 -1       743 6.52466E+01
 -1       744 6.52396E+01
 -1       745 5.26666E+01
 -1       746 3.82617E+01
 -1       747 5.44672E+01
 -1       748 6.37972E+01
 -1       749 7.53397E+01
 -1       750 7.79882E+01
 -1       751 7.79882E+01
 -1       752 7.01948E+01
 -1       753 6.90952E+01
 -1       754 6.57464E+01
 -1       755 5.32718E+01
 -1       756 7.15312E+01
 -1       757 4.99122E+01
 -1       758 6.53157E+01
 -1       759 7.84547E+01
 -1       760 8.27873E+01
 -1       761 8.38324E+01
 -1       762 8.38324E+01
 -1       763 8.21024E+01
 -1       764 7.77386E+01
 -1       765 6.13381E+01
 -1       766 4.92495E+01
 -1       767 4.91856E+01
 -1       768 7.80770E+01
 -1       769 7.80770E+01
 -1       770 7.16250E+01
 -1       771 6.52466E+01
 -1       772 6.52466E+01
 -1       773 6.52396E+01
 -1       774 5.26666E+01
 -1       775 3.82617E+01
 -1       776 5.44672E+01
 -1       777 6.37972E+01
 -1       778 7.53397E+01
 -1       779 7.79882E+01
 -1       780 7.79882E+01
 -1       781 7.01948E+01
 -1       782 6.90952E+01
 -1       783 6.57464E+01
 -1       784 5.32718E+01
 -1       785 7.15312E+01
 -1       786 4.99122E+01
 -1       787 6.53157E+01
 -1       788 7.84547E+01
 -1       789 8.27873E+01
 -1       790 8.38324E+01
 -1       791 8.38324E+01
 -1       792 8.21024E+01
 -1       793 7.77386E+01
 -1       794 6.13381E+01
 -1       795 4.92495E+01
 -1       796 4.91856E+01
 -1       797 7.80770E+01
 -1       798 7.80770E+01
 -1       799 7.16250E+01
 -1       800 6.52466E+01
 -1       801 6.52466E+01
 -1       802 6.52396E+01
 -1       803 5.26666E+01
 -1       804 3.82617E+01
 -1       805 5.44672E+01
 -1       806 6.37972E+01
 -1       807 7.53397E+01
 -1       808 7.79882E+01
 -1       809 7.79882E+01
 -1       810 7.01948E+01
 -1       811 6.90952E+01
 -1       812 6.57464E+01
 -1       813 5.32718E+01
 -1       814 7.15312E+01
 -1       815 4.99122E+01
 -1       816 6.53157E+01
 -1       817 7.84547E+01
 -1       818 8.27873E+01
 -1       819 8.38324E+01
 -1       820 8.38324E+01
 -1       821 8.21024E+01
 -1       822 7.77386E+01
 -1       823 6.13381E+01
 -1       824 4.92495E+01
 -1       825 4.91856E+01
 -1       826 7.80770E+01
 -1       827 7.80770E+01
 -1       828 7.16250E+01
 -1       829 6.52466E+01
 -1       830 6.52466E+01
 -1       831 6.52396E+01
 -1       832 5.26666E+01
 -1       833 3.82617E+01
 -1       834 5.44672E+01
 -1       835 6.37972E+01
 -1       836 7.53397E+01
 -1       837 7.79882E+01
 -1       838 7.79882E+01
 -1       839 7.01948E+01
 -1       840 6.90952E+01
 -1       841 6.57464E+01
 -1       842 5.32718E+01
 -1       843 7.15312E+01
 -1       844 4.99122E+01
 -1       845 6.53157E+01
 -1       846 7.84547E+01
 -1       847 8.27873E+01
 -1       848 8.38324E+01
 -1       849 8.38324E+01
 -1       850 8.21024E+01
 -1       851 7.77386E+01
 -1       852 6.13381E+01
 -1       853 4.92495E+01
 -1       854 4.91856E+01
 -1       855 7.80770E+01
 -1       856 7.80770E+01
 -1       857 7.16250E+01
 -1       858 6.52466E+01
 -1       859 6.52466E+01
 -1       860 6.52396E+01
 -1       861 5.26666E+01
 -1       862 3.82617E+01
 -1       863 5.44672E+01
 -1       864 6.37972E+01
 -1       865 7.53397E+01
 -1       866 7.79882E+01
 -1       867 7.79882E+01
 -1       868 7.01948E+01
 -1       869 6.90952E+01
 -1       870 6.57464E+01
 -1       871 5.32718E+01
 -1       872 7.15312E+01
 -1       873 7.15312E+01
 -1       874 5.32718E+01
 -1       875 6.57464E+01
 -1       876 6.90952E+01
 -1       877 7.01948E+01
 -1       878 7.79882E+01
 -1       879 7.79882E+01
 -1       880 7.53397E+01
 -1       881 6.37972E+01
 -1       882 5.44672E+01
 -1       883 3.82617E+01
 -1       884 5.26666E+01
 -1       885 6.52396E+01
 -1       886 6.52466E+01
 -1       887 6.52466E+01
 -1       888 7.16250E+01
 -1       889 7.80770E+01
 -1       890 7.80770E+01
 -1       891 4.91856E+01
 -1       892 4.92495E+01
 -1       893 6.13381E+01
 -1       894 7.77386E+01
 -1       895 8.21024E+01
 -1       896 8.38324E+01
 -1       897 8.38324E+01
 -1       898 8.27873E+01
 -1       899 7.84547E+01
 -1       900 6.53157E+01
 -1       901 4.99122E+01
 -1       902 4.99122E+01
 -1       903 6.53157E+01
 -1       904 7.84547E+01
 -1       905 8.27873E+01
 -1       906 8.38324E+01
 -1       907 8.38324E+01
 -1       908 8.21024E+01
 -1       909 7.77386E+01
 -1       910 6.13381E+01
 -1       911 4.92495E+01
 -1       912 4.91856E+01
 -1       913 7.80770E+01
 -1       914 7.80770E+01
 -1       915 7.16250E+01
 -1       916 6.52466E+01
 -1       917 6.52466E+01
 -1       918 6.52396E+01
 -1       919 5.26666E+01
 -1       920 3.82617E+01
 -1       921 5.44672E+01
 -1       922 6.37972E+01
 -1       923 7.53397E+01
 -1       924 7.79882E+01
 -1       925 7.79882E+01
 -1       926 7.01948E+01
 -1       927 6.90952E+01
 -1       928 6.57464E+01
 -1       929 5.32718E+01
 -1       930 7.15312E+01
 -3
    1PSTEP                        73           1           1          
    1PGM                1.000000E+00                                  
    1PGK                3.124460E+07                                  
    1PHID                         -1                                  
    1PSUBC                         0                                  
    1PMODE                        19                                  
  100CL  119 889.6263563         930                     2   19MODAL      1
 -4  DISP        4    1
 -5  D1          1    2    1    0
 -5  D2          1    2    2    0
 -5  D3          1    2    3    0
 -5  ALL         1    2    0    0    1ALL
 -1         1 0.00000E+00 0.00000E+00 0.00000E+00
 -1         2 0.00000E+00 0.00000E+00 0.00000E+00
 -1         3 1.04341E-03 3.67381E-02 1.03482E-02
 -1         4-1.04341E-03 3.67381E-02-1.03482E-02
 -1         5 0.00000E+00 0.00000E+00 0.00000E+00
 -1         6 0.00000E+00 0.00000E+00 0.00000E+00
 -1         7 1.04341E-03 3.67381E-02-1.03482E-02
 -1         8-1.04341E-03 3.67381E-02 1.03482E-02
 -1         9 0.00000E+00 0.00000E+00 0.00000E+00
 -1        10 1.24471E-03 5.59263E-04 1.08375E-02
 -1        11 0.00000E+00 0.00000E+00 0.00000E+00
 -1        12 0.00000E+00 0.00000E+00 0.00000E+00
 -1        13 2.33984E-02-4.63706E-04 2.47371E-01
 -1        14 1.07762E-02 3.68276E-02 2.47311E-01
 -1        15 0.00000E+00 0.00000E+00 0.00000E+00
 -1        16 1.24471E-03 5.59263E-04-1.08375E-02
 -1        17 0.00000E+00 0.00000E+00 0.00000E+00
 -1        18 0.00000E+00 0.00000E+00 0.00000E+00
 -1        19 1.07762E-02 3.68276E-02-2.47311E-01
 -1        20 2.33984E-02-4.63706E-04-2.47371E-01
 -1        21 0.00000E+00 0.00000E+00 0.00000E+00
 -1        22 0.00000E+00 0.00000E+00 0.00000E+00
 -1        23-2.33984E-02-4.63706E-04-2.47371E-01
 -1        24-1.07762E-02 3.68276E-02-2.47311E-01
 -1        25 0.00000E+00 0.00000E+00 0.00000E+00
 -1        26-1.24471E-03 5.59263E-04-1.08375E-02
 -1        27 0.00000E+00 0.00000E+00 0.00000E+00
 -1        28 0.00000E+00 0.00000E+00 0.00000E+00
 -1        29 0.00000E+00 0.00000E+00 0.00000E+00
 -1        30-1.24471E-03 5.59263E-04 1.08375E-02
 -1        31-2.33984E-02-4.63706E-04 2.47371E-01
 -1        32-1.07762E-02 3.68276E-02 2.47311E-01
 -1        33 4.38536E-04-8.86347E-03 1.18656E-03
 -1        34 3.95629E-04-2.22648E-02 3.72413E-03
 -1        35 1.18737E-04-3.13422E-02 6.06832E-03
 -1        36-3.00693E-04-3.03408E-02 7.18116E-03
 -1        37-6.81733E-04-1.77142E-02 6.60930E-03
 -1        38-8.71586E-04 3.52635E-03 4.50336E-03
 -1        39-7.77159E-04 2.68393E-02 1.49639E-03
 -1        40-4.02634E-04 4.43618E-02-1.53289E-03
 -1        41 1.51049E-04 4.95813E-02-3.74846E-03
 -1        42 7.16561E-04 3.96104E-02-4.61545E-03
 -1        43 1.11322E-03 1.63197E-02-4.05099E-03
 -1        44 1.20541E-03-1.40563E-02-2.42455E-03
 -1        45 9.47689E-04-4.27403E-02-4.12217E-04
 -1        46 4.01850E-04-6.10944E-02 1.24324E-03
 -1        47-2.79909E-04-6.33185E-02 1.98584E-03
 -1        48-9.00657E-04-4.83045E-02 1.62921E-03
 -1        49-1.27902E-03-2.00487E-02 4.09023E-04
 -1        50-1.30508E-03 1.35185E-02-1.11064E-03
 -1        51-9.74151E-04 4.29264E-02-2.24436E-03
 -1        52-3.87857E-04 6.00312E-02-2.43532E-03
 -1        53 2.77816E-04 6.04597E-02-1.46326E-03
 -1        54 8.27217E-04 4.48673E-02 4.60640E-04
 -1        55 1.10500E-03 1.86318E-02 2.74581E-03
 -1        56 1.04232E-03-9.89892E-03 4.60588E-03
 -1        57 6.74866E-04-3.20240E-02 5.31338E-03
 -1        58 1.26721E-04-4.13233E-02 4.43855E-03
 -1        59-4.30210E-04-3.54705E-02 1.97933E-03
 -1        60-8.44992E-04-1.66736E-02-1.66076E-03
 -1        61-1.00301E-03 9.48967E-03-5.91095E-03
 -1        62-4.38536E-04-8.86347E-03-1.18656E-03
 -1        63-3.95629E-04-2.22648E-02-3.72413E-03
 -1        64-1.18737E-04-3.13422E-02-6.06832E-03
 -1        65 3.00693E-04-3.03408E-02-7.18116E-03
 -1        66 6.81733E-04-1.77142E-02-6.60930E-03
 -1        67 8.71586E-04 3.52635E-03-4.50336E-03
 -1        68 7.77159E-04 2.68393E-02-1.49639E-03
 -1        69 4.02634E-04 4.43618E-02 1.53289E-03
 -1        70-1.51049E-04 4.95813E-02 3.74846E-03
 -1        71-7.16561E-04 3.96104E-02 4.61545E-03
 -1        72-1.11322E-03 1.63197E-02 4.05099E-03
 -1        73-1.20541E-03-1.40563E-02 2.42455E-03
 -1        74-9.47689E-04-4.27403E-02 4.12217E-04
 -1        75-4.01850E-04-6.10944E-02-1.24324E-03
 -1        76 2.79909E-04-6.33185E-02-1.98584E-03
 -1        77 9.00657E-04-4.83045E-02-1.62921E-03
 -1        78 1.27902E-03-2.00487E-02-4.09023E-04
 -1        79 1.30508E-03 1.35185E-02 1.11064E-03
 -1        80 9.74151E-04 4.29264E-02 2.24436E-03
 -1        81 3.87857E-04 6.00312E-02 2.43532E-03
 -1        82-2.77816E-04 6.04597E-02 1.46326E-03
 -1        83-8.27217E-04 4.48673E-02-4.60640E-04
 -1        84-1.10500E-03 1.86318E-02-2.74581E-03
 -1        85-1.04232E-03-9.89892E-03-4.60588E-03
 -1        86-6.74866E-04-3.20240E-02-5.31338E-03
 -1        87-1.26721E-04-4.13233E-02-4.43855E-03
 -1        88 4.30210E-04-3.54705E-02-1.97933E-03
 -1        89 8.44992E-04-1.66736E-02 1.66076E-03
 -1        90 1.00301E-03 9.48967E-03 5.91095E-03
 -1        91 0.00000E+00 0.00000E+00 0.00000E+00
 -1        92 0.00000E+00 0.00000E+00 0.00000E+00
 -1        93 0.00000E+00 0.00000E+00 0.00000E+00
 -1        94 0.00000E+00 0.00000E+00 0.00000E+00
 -1        95 0.00000E+00 0.00000E+00 0.00000E+00
 -1        96 0.00000E+00 0.00000E+00 0.00000E+00
 -1        97-4.38536E-04-8.86347E-03 1.18656E-03
 -1        98-3.95629E-04-2.22648E-02 3.72413E-03
 -1        99-1.18737E-04-3.13422E-02 6.06832E-03
 -1       100 3.00693E-04-3.03408E-02 7.18116E-03
 -1       101 6.81733E-04-1.77142E-02 6.60930E-03
 -1       102 8.71586E-04 3.52635E-03 4.50336E-03
 -1       103 7.77159E-04 2.68393E-02 1.49639E-03
 -1       104 4.02634E-04 4.43618E-02-1.53289E-03
 -1       105-1.51049E-04 4.95813E-02-3.74846E-03
 -1       106-7.16561E-04 3.96104E-02-4.61545E-03
 -1       107-1.11322E-03 1.63197E-02-4.05099E-03
 -1       108-1.20541E-03-1.40563E-02-2.42455E-03
 -1       109-9.47689E-04-4.27403E-02-4.12217E-04
 -1       110-4.01850E-04-6.10944E-02 1.24324E-03
 -1       111 2.79909E-04-6.33185E-02 1.98584E-03
 -1       112 9.00657E-04-4.83045E-02 1.62921E-03
 -1       113 1.27902E-03-2.00487E-02 4.09023E-04
 -1       114 1.30508E-03 1.35185E-02-1.11064E-03
 -1       115 9.74151E-04 4.29264E-02-2.24436E-03
 -1       116 3.87857E-04 6.00312E-02-2.43532E-03
 -1       117-2.77816E-04 6.04597E-02-1.46326E-03
 -1       118-8.27217E-04 4.48673E-02 4.60640E-04
 -1       119-1.10500E-03 1.86318E-02 2.74581E-03
 -1       120-1.04232E-03-9.89892E-03 4.60588E-03
 -1       121-6.74866E-04-3.20240E-02 5.31338E-03
 -1       122-1.26721E-04-4.13233E-02 4.43855E-03
 -1       123 4.30210E-04-3.54705E-02 1.97933E-03
 -1       124 8.44992E-04-1.66736E-02-1.66076E-03
 -1       125 1.00301E-03 9.48967E-03-5.91095E-03
 -1       126 4.91503E-03 2.28313E-01 6.58677E-03
 -1       127 6.33354E-03 3.02809E-01-1.32117E-13
 -1       128 4.91503E-03 2.28313E-01-6.58677E-03
 -1       129 4.38536E-04-8.86347E-03-1.18656E-03
 -1       130 3.95629E-04-2.22648E-02-3.72413E-03
 -1       131 1.18737E-04-3.13422E-02-6.06832E-03
 -1       132-3.00693E-04-3.03408E-02-7.18116E-03
 -1       133-6.81733E-04-1.77142E-02-6.60930E-03
 -1       134-8.71586E-04 3.52635E-03-4.50336E-03
 -1       135-7.77159E-04 2.68393E-02-1.49639E-03
 -1       136-4.02634E-04 4.43618E-02 1.53289E-03
 -1       137 1.51049E-04 4.95813E-02 3.74846E-03
 -1       138 7.16561E-04 3.96104E-02 4.61545E-03
 -1       139 1.11322E-03 1.63197E-02 4.05099E-03
 -1       140 1.20541E-03-1.40563E-02 2.42455E-03
 -1       141 9.47689E-04-4.27403E-02 4.12217E-04
 -1       142 4.01850E-04-6.10944E-02-1.24324E-03
 -1       143-2.79909E-04-6.33185E-02-1.98584E-03
 -1       144-9.00657E-04-4.83045E-02-1.62921E-03
 -1       145-1.27902E-03-2.00487E-02-4.09023E-04
 -1       146-1.30508E-03 1.35185E-02 1.11064E-03
 -1       147-9.74151E-04 4.29264E-02 2.24436E-03
 -1       148-3.87857E-04 6.00312E-02 2.43532E-03
 -1       149 2.77816E-04 6.04597E-02 1.46326E-03
 -1       150 8.27217E-04 4.48673E-02-4.60640E-04
 -1       151 1.10500E-03 1.86318E-02-2.74581E-03
 -1       152 1.04232E-03-9.89892E-03-4.60588E-03
 -1       153 6.74866E-04-3.20240E-02-5.31338E-03
 -1       154 1.26721E-04-4.13233E-02-4.43855E-03
 -1       155-4.30210E-04-3.54705E-02-1.97933E-03
 -1       156-8.44992E-04-1.66736E-02 1.66076E-03
 -1       157-1.00301E-03 9.48967E-03 5.91095E-03
 -1       158-4.91503E-03 2.28313E-01 6.58677E-03
 -1       159-6.33354E-03 3.02809E-01-1.33990E-13
 -1       160-4.91503E-03 2.28313E-01-6.58677E-03
 -1       161-3.68997E-04-4.32882E-03-1.29623E-03
 -1       162-4.20335E-04-8.65475E-03-3.95842E-03
 -1       163-1.55749E-04-9.36208E-03-6.43392E-03
 -1       164 2.65487E-04-4.33212E-03-7.61213E-03
 -1       165 6.63811E-04 6.37325E-03-7.02499E-03
 -1       166 8.78711E-04 2.02305E-02-4.82262E-03
 -1       167 8.12659E-04 3.28882E-02-1.66409E-03
 -1       168 4.64628E-04 3.95650E-02 1.53168E-03
 -1       169-6.94001E-05 3.67048E-02 3.88723E-03
 -1       170-6.26327E-04 2.33384E-02 4.83788E-03
 -1       171-1.02807E-03 1.67893E-03 4.29057E-03
 -1       172-1.13932E-03-2.32821E-02 2.62517E-03
 -1       173-9.12296E-04-4.50932E-02 5.43254E-04
 -1       174-4.04059E-04-5.76912E-02-1.18205E-03
 -1       175 2.39512E-04-5.72164E-02-1.97043E-03
 -1       176 8.28202E-04-4.32274E-02-1.62533E-03
 -1       177 1.18639E-03-1.89279E-02-3.89039E-04
 -1       178 1.20776E-03 9.68041E-03 1.15459E-03
 -1       179 8.88337E-04 3.54735E-02 2.29572E-03
 -1       180 3.27496E-04 5.22057E-02 2.45873E-03
 -1       181-3.03460E-04 5.62325E-02 1.41866E-03
 -1       182-8.14913E-04 4.74432E-02-6.00464E-04
 -1       183-1.05760E-03 2.91382E-02-2.98018E-03
 -1       184-9.67594E-04 6.91596E-03-4.89911E-03
 -1       185-5.83276E-04-1.30604E-02-5.59807E-03
 -1       186-2.86604E-05-2.58597E-02-4.63013E-03
 -1       187 5.29634E-04-2.91100E-02-1.99874E-03
 -1       188 9.49184E-04-2.34217E-02 1.84988E-03
 -1       189 1.14791E-03-1.20504E-02 6.28323E-03
 -1       190 0.00000E+00 0.00000E+00 0.00000E+00
 -1       191 0.00000E+00 0.00000E+00 0.00000E+00
 -1       192 1.24416E-02-4.93662E-04 1.28505E-01
 -1       193-7.94495E-03-4.54971E-03-3.16180E-02
 -1       194-8.41789E-03-7.63428E-03-9.48173E-02
 -1       195-2.88275E-03-7.50485E-03-1.52910E-01
 -1       196 5.68721E-03-2.17802E-03-1.81000E-01
 -1       197 1.37429E-02 8.20296E-03-1.68040E-01
 -1       198 1.79910E-02 2.12105E-02-1.17269E-01
 -1       199 1.64694E-02 3.27602E-02-4.36926E-02
 -1       200 9.17879E-03 3.84187E-02 3.14904E-02
 -1       201-1.88615E-03 3.49438E-02 8.78765E-02
 -1       202-1.33574E-02 2.15454E-02 1.12158E-01
 -1       203-2.15681E-02 4.25432E-04 1.01845E-01
 -1       204-2.37415E-02-2.36204E-02 6.53471E-02
 -1       205-1.89111E-02-4.44536E-02 1.85484E-02
 -1       206-8.27392E-03-5.63379E-02-2.09179E-02
 -1       207 5.14214E-03-5.56465E-02-3.97300E-02
 -1       208 1.73979E-02-4.20015E-02-3.32672E-02
 -1       209 2.48588E-02-1.84813E-02-6.89278E-03
 -1       210 2.53240E-02 9.18476E-03 2.62550E-02
 -1       211 1.87080E-02 3.42004E-02 5.01808E-02
 -1       212 7.06147E-03 5.05944E-02 5.19709E-02
 -1       213-6.07567E-03 5.48516E-02 2.67246E-02
 -1       214-1.67799E-02 4.68009E-02-2.02202E-02
 -1       215-2.19534E-02 2.95103E-02-7.45578E-02
 -1       216-2.02525E-02 8.24701E-03-1.17398E-01
 -1       217-1.24418E-02-1.11506E-02-1.31326E-01
 -1       218-1.07312E-03-2.39674E-02-1.06138E-01
 -1       219 1.04035E-02-2.78434E-02-4.23768E-02
 -1       220 1.88602E-02-2.31917E-02 4.87565E-02
 -1       221 2.26732E-02-1.28888E-02 1.49915E-01
 -1       222-8.43432E-04-9.32982E-03-3.14358E-02
 -1       223 1.83766E-04-2.22713E-02-9.49300E-02
 -1       224 3.14370E-03-3.11074E-02-1.53111E-01
 -1       225 6.75826E-03-3.01300E-02-1.81227E-01
 -1       226 9.36258E-03-1.77715E-02-1.68177E-01
 -1       227 9.44390E-03 3.04262E-03-1.17240E-01
 -1       228 6.26528E-03 2.59243E-02-4.34753E-02
 -1       229 1.89397E-04 4.31789E-02 3.18518E-02
 -1       230-7.34223E-03 4.84221E-02 8.82832E-02
 -1       231-1.42037E-02 3.88105E-02 1.12486E-01
 -1       232-1.82301E-02 1.61548E-02 1.01985E-01
 -1       233-1.79123E-02-1.34630E-02 6.52410E-02
 -1       234-1.29168E-02-4.14680E-02 1.82085E-02
 -1       235-4.25814E-03-5.94158E-02-2.14083E-02
 -1       236 5.94138E-03-6.16319E-02-4.02400E-02
 -1       237 1.50397E-02-4.70258E-02-3.36568E-02
 -1       238 2.06343E-02-1.94957E-02-7.05441E-03
 -1       239 2.12622E-02 1.32150E-02 2.63643E-02
 -1       240 1.68233E-02 4.18581E-02 5.05267E-02
 -1       241 8.60045E-03 5.84840E-02 5.24528E-02
 -1       242-1.13089E-03 5.88298E-02 2.72061E-02
 -1       243-9.77856E-03 4.35492E-02-1.98700E-02
 -1       244-1.51857E-02 1.79115E-02-7.44262E-02
 -1       245-1.62272E-02-9.91185E-03-1.17505E-01
 -1       246-1.30707E-02-3.14050E-02-1.31623E-01
 -1       247-7.02985E-03-4.02850E-02-1.06527E-01
 -1       248-6.24304E-05-3.42894E-02-4.27440E-02
 -1       249 5.88553E-03-1.55933E-02 4.85020E-02
 -1       250 9.55930E-03 1.02678E-02 1.49793E-01
 -1       251 5.33561E-03 3.68035E-02 1.28571E-01
 -1       252 1.14791E-03-1.20504E-02-6.28323E-03
 -1       253 9.49184E-04-2.34217E-02-1.84988E-03
 -1       254 5.29634E-04-2.91100E-02 1.99874E-03
 -1       255-2.86604E-05-2.58597E-02 4.63013E-03
 -1       256-5.83276E-04-1.30604E-02 5.59807E-03
 -1       257-9.67594E-04 6.91596E-03 4.89911E-03
 -1       258-1.05760E-03 2.91382E-02 2.98018E-03
 -1       259-8.14913E-04 4.74432E-02 6.00464E-04
 -1       260-3.03460E-04 5.62325E-02-1.41866E-03
 -1       261 3.27496E-04 5.22057E-02-2.45873E-03
 -1       262 8.88337E-04 3.54735E-02-2.29572E-03
 -1       263 1.20776E-03 9.68041E-03-1.15459E-03
 -1       264 1.18639E-03-1.89279E-02 3.89039E-04
 -1       265 8.28202E-04-4.32274E-02 1.62533E-03
 -1       266 2.39512E-04-5.72164E-02 1.97043E-03
 -1       267-4.04059E-04-5.76912E-02 1.18205E-03
 -1       268-9.12296E-04-4.50932E-02-5.43254E-04
 -1       269-1.13932E-03-2.32821E-02-2.62517E-03
 -1       270-1.02807E-03 1.67893E-03-4.29057E-03
 -1       271-6.26327E-04 2.33384E-02-4.83788E-03
 -1       272-6.94001E-05 3.67048E-02-3.88723E-03
 -1       273 4.64628E-04 3.95650E-02-1.53168E-03
 -1       274 8.12659E-04 3.28882E-02 1.66409E-03
 -1       275 8.78711E-04 2.02305E-02 4.82262E-03
 -1       276 6.63811E-04 6.37325E-03 7.02499E-03
 -1       277 2.65487E-04-4.33212E-03 7.61213E-03
 -1       278-1.55749E-04-9.36208E-03 6.43392E-03
 -1       279-4.20335E-04-8.65475E-03 3.95842E-03
 -1       280-3.68997E-04-4.32882E-03 1.29623E-03
 -1       281 0.00000E+00 0.00000E+00 0.00000E+00
 -1       282 0.00000E+00 0.00000E+00 0.00000E+00
 -1       283-8.43432E-04-9.32982E-03 3.14358E-02
 -1       284 1.83766E-04-2.22713E-02 9.49300E-02
 -1       285 3.14370E-03-3.11074E-02 1.53111E-01
 -1       286 6.75826E-03-3.01300E-02 1.81227E-01
 -1       287 9.36258E-03-1.77715E-02 1.68177E-01
 -1       288 9.44390E-03 3.04262E-03 1.17240E-01
 -1       289 6.26528E-03 2.59243E-02 4.34753E-02
 -1       290 1.89397E-04 4.31789E-02-3.18518E-02
 -1       291-7.34223E-03 4.84221E-02-8.82832E-02
 -1       292-1.42037E-02 3.88105E-02-1.12486E-01
 -1       293-1.82301E-02 1.61548E-02-1.01985E-01
 -1       294-1.79123E-02-1.34630E-02-6.52410E-02
 -1       295-1.29168E-02-4.14680E-02-1.82085E-02
 -1       296-4.25814E-03-5.94158E-02 2.14083E-02
 -1       297 5.94138E-03-6.16319E-02 4.02400E-02
 -1       298 1.50397E-02-4.70258E-02 3.36568E-02
 -1       299 2.06343E-02-1.94957E-02 7.05441E-03
 -1       300 2.12622E-02 1.32150E-02-2.63643E-02
 -1       301 1.68233E-02 4.18581E-02-5.05267E-02
 -1       302 8.60045E-03 5.84840E-02-5.24528E-02
 -1       303-1.13089E-03 5.88298E-02-2.72061E-02
 -1       304-9.77856E-03 4.35492E-02 1.98700E-02
 -1       305-1.51857E-02 1.79115E-02 7.44262E-02
 -1       306-1.62272E-02-9.91185E-03 1.17505E-01
 -1       307-1.30707E-02-3.14050E-02 1.31623E-01
 -1       308-7.02985E-03-4.02850E-02 1.06527E-01
 -1       309-6.24304E-05-3.42894E-02 4.27440E-02
 -1       310 5.88553E-03-1.55933E-02-4.85020E-02
 -1       311 9.55930E-03 1.02678E-02-1.49793E-01
 -1       312 5.33561E-03 3.68035E-02-1.28571E-01
 -1       313-7.94495E-03-4.54971E-03 3.16180E-02
 -1       314-8.41789E-03-7.63428E-03 9.48173E-02
 -1       315-2.88275E-03-7.50485E-03 1.52910E-01
 -1       316 5.68721E-03-2.17802E-03 1.81000E-01
 -1       317 1.37429E-02 8.20296E-03 1.68040E-01
 -1       318 1.79910E-02 2.12105E-02 1.17269E-01
 -1       319 1.64694E-02 3.27602E-02 4.36926E-02
 -1       320 9.17879E-03 3.84187E-02-3.14904E-02
 -1       321-1.88615E-03 3.49438E-02-8.78765E-02
 -1       322-1.33574E-02 2.15454E-02-1.12158E-01
 -1       323-2.15681E-02 4.25432E-04-1.01845E-01
 -1       324-2.37415E-02-2.36204E-02-6.53471E-02
 -1       325-1.89111E-02-4.44536E-02-1.85484E-02
 -1       326-8.27392E-03-5.63379E-02 2.09179E-02
 -1       327 5.14214E-03-5.56465E-02 3.97300E-02
 -1       328 1.73979E-02-4.20015E-02 3.32672E-02
 -1       329 2.48588E-02-1.84813E-02 6.89278E-03
 -1       330 2.53240E-02 9.18476E-03-2.62550E-02
 -1       331 1.87080E-02 3.42004E-02-5.01808E-02
 -1       332 7.06147E-03 5.05944E-02-5.19709E-02
 -1       333-6.07567E-03 5.48516E-02-2.67246E-02
 -1       334-1.67799E-02 4.68009E-02 2.02202E-02
 -1       335-2.19534E-02 2.95103E-02 7.45578E-02
 -1       336-2.02525E-02 8.24701E-03 1.17398E-01
 -1       337-1.24418E-02-1.11506E-02 1.31326E-01
 -1       338-1.07312E-03-2.39674E-02 1.06138E-01
 -1       339 1.04035E-02-2.78434E-02 4.23768E-02
 -1       340 1.88602E-02-2.31917E-02-4.87565E-02
 -1       341 2.26732E-02-1.28888E-02-1.49915E-01
 -1       342 1.24416E-02-4.93662E-04-1.28505E-01
 -1       343 7.94495E-03-4.54971E-03 3.16180E-02
 -1       344 8.41789E-03-7.63428E-03 9.48173E-02
 -1       345 2.88275E-03-7.50485E-03 1.52910E-01
 -1       346-5.68721E-03-2.17802E-03 1.81000E-01
 -1       347-1.37429E-02 8.20296E-03 1.68040E-01
 -1       348-1.79910E-02 2.12105E-02 1.17269E-01
 -1       349-1.64694E-02 3.27602E-02 4.36926E-02
 -1       350-9.17879E-03 3.84187E-02-3.14904E-02
 -1       351 1.88615E-03 3.49438E-02-8.78765E-02
 -1       352 1.33574E-02 2.15454E-02-1.12158E-01
 -1       353 2.15681E-02 4.25432E-04-1.01845E-01
 -1       354 2.37415E-02-2.36204E-02-6.53471E-02
 -1       355 1.89111E-02-4.44536E-02-1.85484E-02
 -1       356 8.27392E-03-5.63379E-02 2.09179E-02
 -1       357-5.14214E-03-5.56465E-02 3.97300E-02
 -1       358-1.73979E-02-4.20015E-02 3.32672E-02
 -1       359-2.48588E-02-1.84813E-02 6.89278E-03
 -1       360-2.53240E-02 9.18476E-03-2.62550E-02
 -1       361-1.87080E-02 3.42004E-02-5.01808E-02
 -1       362-7.06147E-03 5.05944E-02-5.19709E-02
 -1       363 6.07567E-03 5.48516E-02-2.67246E-02
 -1       364 1.67799E-02 4.68009E-02 2.02202E-02
 -1       365 2.19534E-02 2.95103E-02 7.45578E-02
 -1       366 2.02525E-02 8.24701E-03 1.17398E-01
 -1       367 1.24418E-02-1.11506E-02 1.31326E-01
 -1       368 1.07312E-03-2.39674E-02 1.06138E-01
 -1       369-1.04035E-02-2.78434E-02 4.23768E-02
 -1       370-1.88602E-02-2.31917E-02-4.87565E-02
 -1       371-2.26732E-02-1.28888E-02-1.49915E-01
 -1       372 8.43432E-04-9.32982E-03 3.14358E-02
 -1       373-1.83766E-04-2.22713E-02 9.49300E-02
 -1       374-3.14370E-03-3.11074E-02 1.53111E-01
 -1       375-6.75826E-03-3.01300E-02 1.81227E-01
 -1       376-9.36258E-03-1.77715E-02 1.68177E-01
 -1       377-9.44390E-03 3.04262E-03 1.17240E-01
 -1       378-6.26528E-03 2.59243E-02 4.34753E-02
 -1       379-1.89397E-04 4.31789E-02-3.18518E-02
 -1       380 7.34223E-03 4.84221E-02-8.82832E-02
 -1       381 1.42037E-02 3.88105E-02-1.12486E-01
 -1       382 1.82301E-02 1.61548E-02-1.01985E-01
 -1       383 1.79123E-02-1.34630E-02-6.52410E-02
 -1       384 1.29168E-02-4.14680E-02-1.82085E-02
 -1       385 4.25814E-03-5.94158E-02 2.14083E-02
 -1       386-5.94138E-03-6.16319E-02 4.02400E-02
 -1       387-1.50397E-02-4.70258E-02 3.36568E-02
 -1       388-2.06343E-02-1.94957E-02 7.05441E-03
 -1       389-2.12622E-02 1.32150E-02-2.63643E-02
 -1       390-1.68233E-02 4.18581E-02-5.05267E-02
 -1       391-8.60045E-03 5.84840E-02-5.24528E-02
 -1       392 1.13089E-03 5.88298E-02-2.72061E-02
 -1       393 9.77856E-03 4.35492E-02 1.98700E-02
 -1       394 1.51857E-02 1.79115E-02 7.44262E-02
 -1       395 1.62272E-02-9.91185E-03 1.17505E-01
 -1       396 1.30707E-02-3.14050E-02 1.31623E-01
 -1       397 7.02985E-03-4.02850E-02 1.06527E-01
 -1       398 6.24304E-05-3.42894E-02 4.27440E-02
 -1       399-5.88553E-03-1.55933E-02-4.85020E-02
 -1       400-9.55930E-03 1.02678E-02-1.49793E-01
 -1       401 0.00000E+00 0.00000E+00 0.00000E+00
 -1       402 0.00000E+00 0.00000E+00 0.00000E+00
 -1       403-1.24416E-02-4.93662E-04-1.28505E-01
 -1       404 3.68997E-04-4.32882E-03 1.29623E-03
 -1       405 4.20335E-04-8.65475E-03 3.95842E-03
 -1       406 1.55749E-04-9.36208E-03 6.43392E-03
 -1       407-2.65487E-04-4.33212E-03 7.61213E-03
 -1       408-6.63811E-04 6.37325E-03 7.02499E-03
 -1       409-8.78711E-04 2.02305E-02 4.82262E-03
 -1       410-8.12659E-04 3.28882E-02 1.66409E-03
 -1       411-4.64628E-04 3.95650E-02-1.53168E-03
 -1       412 6.94001E-05 3.67048E-02-3.88723E-03
 -1       413 6.26327E-04 2.33384E-02-4.83788E-03
 -1       414 1.02807E-03 1.67893E-03-4.29057E-03
 -1       415 1.13932E-03-2.32821E-02-2.62517E-03
 -1       416 9.12296E-04-4.50932E-02-5.43254E-04
 -1       417 4.04059E-04-5.76912E-02 1.18205E-03
 -1       418-2.39512E-04-5.72164E-02 1.97043E-03
 -1       419-8.28202E-04-4.32274E-02 1.62533E-03
 -1       420-1.18639E-03-1.89279E-02 3.89039E-04
 -1       421-1.20776E-03 9.68041E-03-1.15459E-03
 -1       422-8.88337E-04 3.54735E-02-2.29572E-03
 -1       423-3.27496E-04 5.22057E-02-2.45873E-03
 -1       424 3.03460E-04 5.62325E-02-1.41866E-03
 -1       425 8.14913E-04 4.74432E-02 6.00464E-04
 -1       426 1.05760E-03 2.91382E-02 2.98018E-03
 -1       427 9.67594E-04 6.91596E-03 4.89911E-03
 -1       428 5.83276E-04-1.30604E-02 5.59807E-03
 -1       429 2.86604E-05-2.58597E-02 4.63013E-03
 -1       430-5.29634E-04-2.91100E-02 1.99874E-03
 -1       431-9.49184E-04-2.34217E-02-1.84988E-03
 -1       432-1.14791E-03-1.20504E-02-6.28323E-03
 -1       433-5.33561E-03 3.68035E-02-1.28571E-01
 -1       434 0.00000E+00 0.00000E+00 0.00000E+00
 -1       435 0.00000E+00 0.00000E+00 0.00000E+00
 -1       436-1.14791E-03-1.20504E-02 6.28323E-03
 -1       437-9.49184E-04-2.34217E-02 1.84988E-03
 -1       438-5.29634E-04-2.91100E-02-1.99874E-03
 -1       439 2.86604E-05-2.58597E-02-4.63013E-03
 -1       440 5.83276E-04-1.30604E-02-5.59807E-03
 -1       441 9.67594E-04 6.91596E-03-4.89911E-03
 -1       442 1.05760E-03 2.91382E-02-2.98018E-03
 -1       443 8.14913E-04 4.74432E-02-6.00464E-04
 -1       444 3.03460E-04 5.62325E-02 1.41866E-03
 -1       445-3.27496E-04 5.22057E-02 2.45873E-03
 -1       446-8.88337E-04 3.54735E-02 2.29572E-03
 -1       447-1.20776E-03 9.68041E-03 1.15459E-03
 -1       448-1.18639E-03-1.89279E-02-3.89039E-04
 -1       449-8.28202E-04-4.32274E-02-1.62533E-03
 -1       450-2.39512E-04-5.72164E-02-1.97043E-03
 -1       451 4.04059E-04-5.76912E-02-1.18205E-03
 -1       452 9.12296E-04-4.50932E-02 5.43254E-04
 -1       453 1.13932E-03-2.32821E-02 2.62517E-03
 -1       454 1.02807E-03 1.67893E-03 4.29057E-03
 -1       455 6.26327E-04 2.33384E-02 4.83788E-03
 -1       456 6.94001E-05 3.67048E-02 3.88723E-03
 -1       457-4.64628E-04 3.95650E-02 1.53168E-03
 -1       458-8.12659E-04 3.28882E-02-1.66409E-03
 -1       459-8.78711E-04 2.02305E-02-4.82262E-03
 -1       460-6.63811E-04 6.37325E-03-7.02499E-03
 -1       461-2.65487E-04-4.33212E-03-7.61213E-03
 -1       462 1.55749E-04-9.36208E-03-6.43392E-03
 -1       463 4.20335E-04-8.65475E-03-3.95842E-03
 -1       464 3.68997E-04-4.32882E-03-1.29623E-03
 -1       465-1.24416E-02-4.93662E-04 1.28505E-01
 -1       466 7.94495E-03-4.54971E-03-3.16180E-02
 -1       467 8.41789E-03-7.63428E-03-9.48173E-02
 -1       468 2.88275E-03-7.50485E-03-1.52910E-01
 -1       469-5.68721E-03-2.17802E-03-1.81000E-01
 -1       470-1.37429E-02 8.20296E-03-1.68040E-01
 -1       471-1.79910E-02 2.12105E-02-1.17269E-01
 -1       472-1.64694E-02 3.27602E-02-4.36926E-02
 -1       473-9.17879E-03 3.84187E-02 3.14904E-02
 -1       474 1.88615E-03 3.49438E-02 8.78765E-02
 -1       475 1.33574E-02 2.15454E-02 1.12158E-01
 -1       476 2.15681E-02 4.25432E-04 1.01845E-01
 -1       477 2.37415E-02-2.36204E-02 6.53471E-02
 -1       478 1.89111E-02-4.44536E-02 1.85484E-02
 -1       479 8.27392E-03-5.63379E-02-2.09179E-02
 -1       480-5.14214E-03-5.56465E-02-3.97300E-02
 -1       481-1.73979E-02-4.20015E-02-3.32672E-02
 -1       482-2.48588E-02-1.84813E-02-6.89278E-03
 -1       483-2.53240E-02 9.18476E-03 2.62550E-02
 -1       484-1.87080E-02 3.42004E-02 5.01808E-02
 -1       485-7.06147E-03 5.05944E-02 5.19709E-02
 -1       486 6.07567E-03 5.48516E-02 2.67246E-02
 -1       487 1.67799E-02 4.68009E-02-2.02202E-02
 -1       488 2.19534E-02 2.95103E-02-7.45578E-02
 -1       489 2.02525E-02 8.24701E-03-1.17398E-01
 -1       490 1.24418E-02-1.11506E-02-1.31326E-01
 -1       491 1.07312E-03-2.39674E-02-1.06138E-01
 -1       492-1.04035E-02-2.78434E-02-4.23768E-02
 -1       493-1.88602E-02-2.31917E-02 4.87565E-02
 -1       494-2.26732E-02-1.28888E-02 1.49915E-01
 -1       495 8.43432E-04-9.32982E-03-3.14358E-02
 -1       496-1.83766E-04-2.22713E-02-9.49300E-02
 -1       497-3.14370E-03-3.11074E-02-1.53111E-01
 -1       498-6.75826E-03-3.01300E-02-1.81227E-01
 -1       499-9.36258E-03-1.77715E-02-1.68177E-01
 -1       500-9.44390E-03 3.04262E-03-1.17240E-01
 -1       501-6.26528E-03 2.59243E-02-4.34753E-02
 -1       502-1.89397E-04 4.31789E-02 3.18518E-02
 -1       503 7.34223E-03 4.84221E-02 8.82832E-02
 -1       504 1.42037E-02 3.88105E-02 1.12486E-01
 -1       505 1.82301E-02 1.61548E-02 1.01985E-01
 -1       506 1.79123E-02-1.34630E-02 6.52410E-02
 -1       507 1.29168E-02-4.14680E-02 1.82085E-02
 -1       508 4.25814E-03-5.94158E-02-2.14083E-02
 -1       509-5.94138E-03-6.16319E-02-4.02400E-02
 -1       510-1.50397E-02-4.70258E-02-3.36568E-02
 -1       511-2.06343E-02-1.94957E-02-7.05441E-03
 -1       512-2.12622E-02 1.32150E-02 2.63643E-02
 -1       513-1.68233E-02 4.18581E-02 5.05267E-02
 -1       514-8.60045E-03 5.84840E-02 5.24528E-02
 -1       515 1.13089E-03 5.88298E-02 2.72061E-02
 -1       516 9.77856E-03 4.35492E-02-1.98700E-02
 -1       517 1.51857E-02 1.79115E-02-7.44262E-02
 -1       518 1.62272E-02-9.91185E-03-1.17505E-01
 -1       519 1.30707E-02-3.14050E-02-1.31623E-01
 -1       520 7.02985E-03-4.02850E-02-1.06527E-01
 -1       521 6.24304E-05-3.42894E-02-4.27440E-02
 -1       522-5.88553E-03-1.55933E-02 4.85020E-02
 -1       523-9.55930E-03 1.02678E-02 1.49793E-01
 -1       524-5.33561E-03 3.68035E-02 1.28571E-01
 -1       525-2.25692E-03-2.96876E-02-7.01106E-04
 -1       526-2.66007E-03-8.93343E-02-2.25992E-03
 -1       527-1.67640E-03-1.41292E-01-3.72685E-03
 -1       528 7.96100E-05-1.60473E-01-4.41175E-03
 -1       529 1.91149E-03-1.37009E-01-4.03203E-03
 -1       530 3.17746E-03-7.68402E-02-2.69245E-03
 -1       531 3.46558E-03 1.70365E-03-8.00739E-04
 -1       532 2.69669E-03 7.45158E-02 1.08400E-03
 -1       533 1.13564E-03 1.19710E-01 2.43470E-03
 -1       534-7.02464E-04 1.24646E-01 2.91919E-03
 -1       535-2.22309E-03 8.98263E-02 2.49456E-03
 -1       536-2.94597E-03 2.84804E-02 1.40573E-03
 -1       537-2.65951E-03-3.79764E-02 9.12051E-05
 -1       538-1.48642E-03-8.70835E-02-9.70980E-04
 -1       539 1.60109E-04-1.02735E-01-1.42544E-03
 -1       540 1.71492E-03-8.04194E-02-1.15609E-03
 -1       541 2.64839E-03-2.85954E-02-3.19231E-04
 -1       542 2.64169E-03 3.42248E-02 7.17056E-04
 -1       543 1.69247E-03 8.57230E-02 1.50613E-03
 -1       544 1.16461E-04 1.07292E-01 1.68354E-03
 -1       545-1.55555E-03 9.03499E-02 1.10102E-03
 -1       546-2.75198E-03 3.93754E-02-1.11956E-04
 -1       547-3.04886E-03-2.93584E-02-1.58097E-03
 -1       548-2.31029E-03-9.29438E-02-2.80443E-03
 -1       549-7.32573E-04-1.29193E-01-3.31728E-03
 -1       550 1.22752E-03-1.23681E-01-2.84279E-03
 -1       551 3.02487E-03-7.39108E-02-1.37094E-03
 -1       552 4.23859E-03 1.11165E-02 8.79797E-04
 -1       553 4.77624E-03 1.16147E-01 3.61984E-03
 -1       554-2.80993E-03-3.76170E-02 4.25701E-15
 -1       555-3.40332E-03-1.14638E-01 2.02616E-14
 -1       556-2.20413E-03-1.83186E-01 2.72143E-14
 -1       557 1.14673E-06-2.10089E-01 2.21143E-14
 -1       558 2.31621E-03-1.82318E-01 1.54841E-14
 -1       559 3.94248E-03-1.07022E-01 8.29545E-15
 -1       560 4.36057E-03-7.14073E-03 9.19056E-15
 -1       561 3.46370E-03 8.69031E-02 1.63797E-14
 -1       562 1.57083E-03 1.47275E-01 1.38986E-14
 -1       563-6.88083E-04 1.57595E-01 1.41970E-14
 -1       564-2.58169E-03 1.17893E-01 2.83037E-14
 -1       565-3.51557E-03 4.41777E-02 4.04260E-14
 -1       566-3.22286E-03-3.71717E-02 4.96469E-14
 -1       567-1.84596E-03-9.82879E-02 5.29715E-14
 -1       568 1.16153E-04-1.19049E-01 5.13409E-14
 -1       569 1.97703E-03-9.36349E-02 4.96001E-14
 -1       570 3.09229E-03-3.22789E-02 5.35925E-14
 -1       571 3.07426E-03 4.23377E-02 5.86545E-14
 -1       572 1.92144E-03 1.02838E-01 5.78912E-14
 -1       573 2.03380E-05 1.26484E-01 5.43073E-14
 -1       574-1.98119E-03 1.03010E-01 5.25378E-14
 -1       575-3.38762E-03 3.83498E-02 5.40783E-14
 -1       576-3.68689E-03-4.69963E-02 5.32283E-14
 -1       577-2.72204E-03-1.24454E-01 5.02029E-14
 -1       578-7.43665E-04-1.66583E-01 4.46865E-14
 -1       579 1.68193E-03-1.55828E-01 2.48135E-14
 -1       580 3.89013E-03-8.95794E-02-8.16708E-15
 -1       581 5.40056E-03 2.07774E-02-4.95298E-14
 -1       582 6.11511E-03 1.56870E-01-9.77829E-14
 -1       583-2.25692E-03-2.96876E-02 7.01106E-04
 -1       584-2.66007E-03-8.93343E-02 2.25992E-03
 -1       585-1.67640E-03-1.41292E-01 3.72685E-03
 -1       586 7.96100E-05-1.60473E-01 4.41175E-03
 -1       587 1.91149E-03-1.37009E-01 4.03203E-03
 -1       588 3.17746E-03-7.68402E-02 2.69245E-03
 -1       589 3.46558E-03 1.70365E-03 8.00739E-04
 -1       590 2.69669E-03 7.45158E-02-1.08400E-03
 -1       591 1.13564E-03 1.19710E-01-2.43470E-03
 -1       592-7.02464E-04 1.24646E-01-2.91919E-03
 -1       593-2.22309E-03 8.98263E-02-2.49456E-03
 -1       594-2.94597E-03 2.84804E-02-1.40573E-03
 -1       595-2.65951E-03-3.79764E-02-9.12051E-05
 -1       596-1.48642E-03-8.70835E-02 9.70980E-04
 -1       597 1.60109E-04-1.02735E-01 1.42544E-03
 -1       598 1.71492E-03-8.04194E-02 1.15609E-03
 -1       599 2.64839E-03-2.85954E-02 3.19231E-04
 -1       600 2.64169E-03 3.42248E-02-7.17056E-04
 -1       601 1.69247E-03 8.57230E-02-1.50613E-03
 -1       602 1.16461E-04 1.07292E-01-1.68354E-03
 -1       603-1.55555E-03 9.03499E-02-1.10102E-03
 -1       604-2.75198E-03 3.93754E-02 1.11956E-04
 -1       605-3.04886E-03-2.93584E-02 1.58097E-03
 -1       606-2.31029E-03-9.29438E-02 2.80443E-03
 -1       607-7.32573E-04-1.29193E-01 3.31728E-03
 -1       608 1.22752E-03-1.23681E-01 2.84279E-03
 -1       609 3.02487E-03-7.39108E-02 1.37094E-03
 -1       610 4.23859E-03 1.11165E-02-8.79797E-04
 -1       611 4.77624E-03 1.16147E-01-3.61984E-03
 -1       612 2.25692E-03-2.96876E-02-7.01106E-04
 -1       613 2.66007E-03-8.93343E-02-2.25992E-03
 -1       614 1.67640E-03-1.41292E-01-3.72685E-03
 -1       615-7.96100E-05-1.60473E-01-4.41175E-03
 -1       616-1.91149E-03-1.37009E-01-4.03203E-03
 -1       617-3.17746E-03-7.68402E-02-2.69245E-03
 -1       618-3.46558E-03 1.70365E-03-8.00739E-04
 -1       619-2.69669E-03 7.45158E-02 1.08400E-03
 -1       620-1.13564E-03 1.19710E-01 2.43470E-03
 -1       621 7.02464E-04 1.24646E-01 2.91919E-03
 -1       622 2.22309E-03 8.98263E-02 2.49456E-03
 -1       623 2.94597E-03 2.84804E-02 1.40573E-03
 -1       624 2.65951E-03-3.79764E-02 9.12051E-05
 -1       625 1.48642E-03-8.70835E-02-9.70980E-04
 -1       626-1.60109E-04-1.02735E-01-1.42544E-03
 -1       627-1.71492E-03-8.04194E-02-1.15609E-03
 -1       628-2.64839E-03-2.85954E-02-3.19231E-04
 -1       629-2.64169E-03 3.42248E-02 7.17056E-04
 -1       630-1.69247E-03 8.57230E-02 1.50613E-03
 -1       631-1.16461E-04 1.07292E-01 1.68354E-03
 -1       632 1.55555E-03 9.03499E-02 1.10102E-03
 -1       633 2.75198E-03 3.93754E-02-1.11956E-04
 -1       634 3.04886E-03-2.93584E-02-1.58097E-03
 -1       635 2.31029E-03-9.29438E-02-2.80443E-03
 -1       636 7.32573E-04-1.29193E-01-3.31728E-03
 -1       637-1.22752E-03-1.23681E-01-2.84279E-03
 -1       638-3.02487E-03-7.39108E-02-1.37094E-03
 -1       639-4.23859E-03 1.11165E-02 8.79797E-04
 -1       640-4.77624E-03 1.16147E-01 3.61984E-03
 -1       641 2.80993E-03-3.76170E-02 5.24754E-15
 -1       642 3.40332E-03-1.14638E-01 2.14065E-14
 -1       643 2.20413E-03-1.83186E-01 2.82691E-14
 -1       644-1.14673E-06-2.10089E-01 2.29400E-14
 -1       645-2.31621E-03-1.82318E-01 1.19241E-14
 -1       646-3.94248E-03-1.07022E-01 5.45050E-15
 -1       647-4.36057E-03-7.14073E-03 9.18016E-15
 -1       648-3.46370E-03 8.69031E-02 1.55518E-14
 -1       649-1.57083E-03 1.47275E-01 1.30000E-14
 -1       650 6.88083E-04 1.57595E-01 1.24484E-14
 -1       651 2.58169E-03 1.17893E-01 2.64025E-14
 -1       652 3.51557E-03 4.41777E-02 3.90139E-14
 -1       653 3.22286E-03-3.71717E-02 4.77136E-14
 -1       654 1.84596E-03-9.82879E-02 5.18491E-14
 -1       655-1.16153E-04-1.19049E-01 5.11050E-14
 -1       656-1.97703E-03-9.36349E-02 4.67612E-14
 -1       657-3.09229E-03-3.22789E-02 4.92557E-14
 -1       658-3.07426E-03 4.23377E-02 5.18648E-14
 -1       659-1.92144E-03 1.02838E-01 4.82496E-14
 -1       660-2.03380E-05 1.26484E-01 4.51722E-14
 -1       661 1.98119E-03 1.03010E-01 4.51097E-14
 -1       662 3.38762E-03 3.83498E-02 4.56388E-14
 -1       663 3.68689E-03-4.69963E-02 4.56883E-14
 -1       664 2.72204E-03-1.24454E-01 4.94327E-14
 -1       665 7.43665E-04-1.66583E-01 4.90510E-14
 -1       666-1.68193E-03-1.55828E-01 2.98303E-14
 -1       667-3.89013E-03-8.95794E-02-4.52763E-15
 -1       668-5.40056E-03 2.07774E-02-4.78194E-14
 -1       669-6.11511E-03 1.56870E-01-9.76649E-14
 -1       670 2.25692E-03-2.96876E-02 7.01106E-04
 -1       671 2.66007E-03-8.93343E-02 2.25992E-03
 -1       672 1.67640E-03-1.41292E-01 3.72685E-03
 -1       673-7.96100E-05-1.60473E-01 4.41175E-03
 -1       674-1.91149E-03-1.37009E-01 4.03203E-03
 -1       675-3.17746E-03-7.68402E-02 2.69245E-03
 -1       676-3.46558E-03 1.70365E-03 8.00739E-04
 -1       677-2.69669E-03 7.45158E-02-1.08400E-03
 -1       678-1.13564E-03 1.19710E-01-2.43470E-03
 -1       679 7.02464E-04 1.24646E-01-2.91919E-03
 -1       680 2.22309E-03 8.98263E-02-2.49456E-03
 -1       681 2.94597E-03 2.84804E-02-1.40573E-03
 -1       682 2.65951E-03-3.79764E-02-9.12051E-05
 -1       683 1.48642E-03-8.70835E-02 9.70980E-04
 -1       684-1.60109E-04-1.02735E-01 1.42544E-03
 -1       685-1.71492E-03-8.04194E-02 1.15609E-03
 -1       686-2.64839E-03-2.85954E-02 3.19231E-04
 -1       687-2.64169E-03 3.42248E-02-7.17056E-04
 -1       688-1.69247E-03 8.57230E-02-1.50613E-03
 -1       689-1.16461E-04 1.07292E-01-1.68354E-03
 -1       690 1.55555E-03 9.03499E-02-1.10102E-03
 -1       691 2.75198E-03 3.93754E-02 1.11956E-04
 -1       692 3.04886E-03-2.93584E-02 1.58097E-03
 -1       693 2.31029E-03-9.29438E-02 2.80443E-03
 -1       694 7.32573E-04-1.29193E-01 3.31728E-03
 -1       695-1.22752E-03-1.23681E-01 2.84279E-03
 -1       696-3.02487E-03-7.39108E-02 1.37094E-03
 -1       697-4.23859E-03 1.11165E-02-8.79797E-04
 -1       698-4.77624E-03 1.16147E-01-3.61984E-03
 -1       699-3.67652E-03-4.19939E-03-1.61949E-02
 -1       700-4.20841E-03-7.98370E-03-4.85929E-02
 -1       701-1.45187E-03-8.22439E-03-7.84112E-02
 -1       702 2.88887E-03-3.00267E-03-9.28070E-02
 -1       703 6.99032E-03 7.58579E-03-8.60729E-02
 -1       704 9.17144E-03 2.10415E-02-5.99065E-02
 -1       705 8.42405E-03 3.31323E-02-2.20539E-02
 -1       706 4.74192E-03 3.92427E-02 1.65611E-02
 -1       707-8.66664E-04 3.59746E-02 4.54388E-02
 -1       708-6.69353E-03 2.24592E-02 5.77465E-02
 -1       709-1.08766E-02 9.23735E-04 5.22306E-02
 -1       710-1.20036E-02-2.37132E-02 3.32563E-02
 -1       711-9.58052E-03-4.51313E-02 9.03403E-03
 -1       712-4.21107E-03-5.74107E-02-1.13320E-02
 -1       713 2.57146E-03-5.67981E-02-2.09714E-02
 -1       714 8.77060E-03-4.28871E-02-1.75106E-02
 -1       715 1.25439E-02-1.88349E-02-3.73311E-03
 -1       716 1.27756E-02 9.46671E-03 1.35623E-02
 -1       717 9.42330E-03 3.50275E-02 2.61000E-02
 -1       718 3.52772E-03 5.17107E-02 2.71941E-02
 -1       719-3.11534E-03 5.59164E-02 1.42940E-02
 -1       720-8.51619E-03 4.74953E-02-9.86433E-03
 -1       721-1.11051E-02 2.96354E-02-3.79126E-02
 -1       722-1.02030E-02 7.78278E-03-6.01113E-02
 -1       723-6.20071E-03-1.20439E-02-6.74784E-02
 -1       724-3.93577E-04-2.50046E-02-5.47480E-02
 -1       725 5.47598E-03-2.87155E-02-2.21474E-02
 -1       726 9.82588E-03-2.36732E-02 2.46222E-02
 -1       727 1.19801E-02-1.29043E-02 7.67635E-02
 -1       728 2.31157E-04-9.07118E-03-1.61440E-02
 -1       729 4.96655E-04-2.23930E-02-4.86850E-02
 -1       730 1.84132E-03-3.14353E-02-7.85864E-02
 -1       731 3.45700E-03-3.04676E-02-9.30059E-02
 -1       732 4.56916E-03-1.79233E-02-8.62293E-02
 -1       733 4.47334E-03 3.21627E-03-5.99666E-02
 -1       734 2.83260E-03 2.64505E-02-2.19950E-02
 -1       735-1.63979E-04 4.39570E-02 1.67225E-02
 -1       736-3.81594E-03 4.92482E-02 4.56526E-02
 -1       737-7.10122E-03 3.94382E-02 5.79445E-02
 -1       738-8.98556E-03 1.63726E-02 5.23486E-02
 -1       739-8.75437E-03-1.37618E-02 3.32551E-02
 -1       740-6.26020E-03-4.22452E-02 8.91235E-03
 -1       741-2.00336E-03-6.04921E-02-1.15370E-02
 -1       742 2.98511E-03-6.27344E-02-2.11957E-02
 -1       743 7.42663E-03-4.78652E-02-1.76838E-02
 -1       744 1.01602E-02-1.98505E-02-3.80077E-03
 -1       745 1.04784E-02 1.34344E-02 1.36212E-02
 -1       746 8.33115E-03 4.25839E-02 2.62664E-02
 -1       747 4.33523E-03 5.95119E-02 2.74147E-02
 -1       748-4.12153E-04 5.98808E-02 1.44987E-02
 -1       749-4.65768E-03 4.43511E-02-9.74046E-03
 -1       750-7.35287E-03 1.82764E-02-3.79084E-02
 -1       751-7.94144E-03-1.00397E-02-6.02277E-02
 -1       752-6.48629E-03-3.19434E-02-6.76779E-02
 -1       753-3.60267E-03-4.10534E-02-5.49672E-02
 -1       754-2.22873E-04-3.50670E-02-2.23171E-02
 -1       755 2.75316E-03-1.62131E-02 2.45448E-02
 -1       756 4.70524E-03 9.90485E-03 7.67842E-02
 -1       757 2.31157E-04-9.07118E-03 1.61440E-02
 -1       758 4.96655E-04-2.23930E-02 4.86850E-02
 -1       759 1.84132E-03-3.14353E-02 7.85864E-02
 -1       760 3.45700E-03-3.04676E-02 9.30059E-02
 -1       761 4.56916E-03-1.79233E-02 8.62293E-02
 -1       762 4.47334E-03 3.21627E-03 5.99666E-02
 -1       763 2.83260E-03 2.64505E-02 2.19950E-02
 -1       764-1.63979E-04 4.39570E-02-1.67225E-02
 -1       765-3.81594E-03 4.92482E-02-4.56526E-02
 -1       766-7.10122E-03 3.94382E-02-5.79445E-02
 -1       767-8.98556E-03 1.63726E-02-5.23486E-02
 -1       768-8.75437E-03-1.37618E-02-3.32551E-02
 -1       769-6.26020E-03-4.22452E-02-8.91235E-03
 -1       770-2.00336E-03-6.04921E-02 1.15370E-02
 -1       771 2.98511E-03-6.27344E-02 2.11957E-02
 -1       772 7.42663E-03-4.78652E-02 1.76838E-02
 -1       773 1.01602E-02-1.98505E-02 3.80077E-03
 -1       774 1.04784E-02 1.34344E-02-1.36212E-02
 -1       775 8.33115E-03 4.25839E-02-2.62664E-02
 -1       776 4.33523E-03 5.95119E-02-2.74147E-02
 -1       777-4.12153E-04 5.98808E-02-1.44987E-02
 -1       778-4.65768E-03 4.43511E-02 9.74046E-03
 -1       779-7.35287E-03 1.82764E-02 3.79084E-02
 -1       780-7.94144E-03-1.00397E-02 6.02277E-02
 -1       781-6.48629E-03-3.19434E-02 6.76779E-02
 -1       782-3.60267E-03-4.10534E-02 5.49672E-02
 -1       783-2.22873E-04-3.50670E-02 2.23171E-02
 -1       784 2.75316E-03-1.62131E-02-2.45448E-02
 -1       785 4.70524E-03 9.90485E-03-7.67842E-02
 -1       786-3.67652E-03-4.19939E-03 1.61949E-02
 -1       787-4.20841E-03-7.98370E-03 4.85929E-02
 -1       788-1.45187E-03-8.22439E-03 7.84112E-02
 -1       789 2.88887E-03-3.00267E-03 9.28070E-02
 -1       790 6.99032E-03 7.58579E-03 8.60729E-02
 -1       791 9.17144E-03 2.10415E-02 5.99065E-02
 -1       792 8.42405E-03 3.31323E-02 2.20539E-02
 -1       793 4.74192E-03 3.92427E-02-1.65611E-02
 -1       794-8.66664E-04 3.59746E-02-4.54388E-02
 -1       795-6.69353E-03 2.24592E-02-5.77465E-02
 -1       796-1.08766E-02 9.23735E-04-5.22306E-02
 -1       797-1.20036E-02-2.37132E-02-3.32563E-02
 -1       798-9.58052E-03-4.51313E-02-9.03403E-03
 -1       799-4.21107E-03-5.74107E-02 1.13320E-02
 -1       800 2.57146E-03-5.67981E-02 2.09714E-02
 -1       801 8.77060E-03-4.28871E-02 1.75106E-02
 -1       802 1.25439E-02-1.88349E-02 3.73311E-03
 -1       803 1.27756E-02 9.46671E-03-1.35623E-02
 -1       804 9.42330E-03 3.50275E-02-2.61000E-02
 -1       805 3.52772E-03 5.17107E-02-2.71941E-02
 -1       806-3.11534E-03 5.59164E-02-1.42940E-02
 -1       807-8.51619E-03 4.74953E-02 9.86433E-03
 -1       808-1.11051E-02 2.96354E-02 3.79126E-02
 -1       809-1.02030E-02 7.78278E-03 6.01113E-02
 -1       810-6.20071E-03-1.20439E-02 6.74784E-02
 -1       811-3.93577E-04-2.50046E-02 5.47480E-02
 -1       812 5.47598E-03-2.87155E-02 2.21474E-02
 -1       813 9.82588E-03-2.36732E-02-2.46222E-02
 -1       814 1.19801E-02-1.29043E-02-7.67635E-02
 -1       815 3.67652E-03-4.19939E-03 1.61949E-02
 -1       816 4.20841E-03-7.98370E-03 4.85929E-02
 -1       817 1.45187E-03-8.22439E-03 7.84112E-02
 -1       818-2.88887E-03-3.00267E-03 9.28070E-02
 -1       819-6.99032E-03 7.58579E-03 8.60729E-02
 -1       820-9.17144E-03 2.10415E-02 5.99065E-02
 -1       821-8.42405E-03 3.31323E-02 2.20539E-02
 -1       822-4.74192E-03 3.92427E-02-1.65611E-02
 -1       823 8.66664E-04 3.59746E-02-4.54388E-02
 -1       824 6.69353E-03 2.24592E-02-5.77465E-02
 -1       825 1.08766E-02 9.23735E-04-5.22306E-02
 -1       826 1.20036E-02-2.37132E-02-3.32563E-02
 -1       827 9.58052E-03-4.51313E-02-9.03403E-03
 -1       828 4.21107E-03-5.74107E-02 1.13320E-02
 -1       829-2.57146E-03-5.67981E-02 2.09714E-02
 -1       830-8.77060E-03-4.28871E-02 1.75106E-02
 -1       831-1.25439E-02-1.88349E-02 3.73311E-03
 -1       832-1.27756E-02 9.46671E-03-1.35623E-02
 -1       833-9.42330E-03 3.50275E-02-2.61000E-02
 -1       834-3.52772E-03 5.17107E-02-2.71941E-02
 -1       835 3.11534E-03 5.59164E-02-1.42940E-02
 -1       836 8.51619E-03 4.74953E-02 9.86433E-03
 -1       837 1.11051E-02 2.96354E-02 3.79126E-02
 -1       838 1.02030E-02 7.78278E-03 6.01113E-02
 -1       839 6.20071E-03-1.20439E-02 6.74784E-02
 -1       840 3.93577E-04-2.50046E-02 5.47480E-02
 -1       841-5.47598E-03-2.87155E-02 2.21474E-02
 -1       842-9.82588E-03-2.36732E-02-2.46222E-02
 -1       843-1.19801E-02-1.29043E-02-7.67635E-02
 -1       844-2.31157E-04-9.07118E-03 1.61440E-02
 -1       845-4.96655E-04-2.23930E-02 4.86850E-02
 -1       846-1.84132E-03-3.14353E-02 7.85864E-02
 -1       847-3.45700E-03-3.04676E-02 9.30059E-02
 -1       848-4.56916E-03-1.79233E-02 8.62293E-02
 -1       849-4.47334E-03 3.21627E-03 5.99666E-02
 -1       850-2.83260E-03 2.64505E-02 2.19950E-02
 -1       851 1.63979E-04 4.39570E-02-1.67225E-02
 -1       852 3.81594E-03 4.92482E-02-4.56526E-02
 -1       853 7.10122E-03 3.94382E-02-5.79445E-02
 -1       854 8.98556E-03 1.63726E-02-5.23486E-02
 -1       855 8.75437E-03-1.37618E-02-3.32551E-02
 -1       856 6.26020E-03-4.22452E-02-8.91235E-03
 -1       857 2.00336E-03-6.04921E-02 1.15370E-02
 -1       858-2.98511E-03-6.27344E-02 2.11957E-02
 -1       859-7.42663E-03-4.78652E-02 1.76838E-02
 -1       860-1.01602E-02-1.98505E-02 3.80077E-03
 -1       861-1.04784E-02 1.34344E-02-1.36212E-02
 -1       862-8.33115E-03 4.25839E-02-2.62664E-02
 -1       863-4.33523E-03 5.95119E-02-2.74147E-02
 -1       864 4.12153E-04 5.98808E-02-1.44987E-02
 -1       865 4.65768E-03 4.43511E-02 9.74046E-03
 -1       866 7.35287E-03 1.82764E-02 3.79084E-02
 -1       867 7.94144E-03-1.00397E-02 6.02277E-02
 -1       868 6.48629E-03-3.19434E-02 6.76779E-02
 -1       869 3.60267E-03-4.10534E-02 5.49672E-02
 -1       870 2.22873E-04-3.50670E-02 2.23171E-02
 -1       871-2.75316E-03-1.62131E-02-2.45448E-02
 -1       872-4.70524E-03 9.90485E-03-7.67842E-02
 -1       873-1.19801E-02-1.29043E-02 7.67635E-02
 -1       874-9.82588E-03-2.36732E-02 2.46222E-02
 -1       875-5.47598E-03-2.87155E-02-2.21474E-02
 -1       876 3.93577E-04-2.50046E-02-5.47480E-02
 -1       877 6.20071E-03-1.20439E-02-6.74784E-02
 -1       878 1.02030E-02 7.78278E-03-6.01113E-02
 -1       879 1.11051E-02 2.96354E-02-3.79126E-02
 -1       880 8.51619E-03 4.74953E-02-9.86433E-03
 -1       881 3.11534E-03 5.59164E-02 1.42940E-02
 -1       882-3.52772E-03 5.17107E-02 2.71941E-02
 -1       883-9.42330E-03 3.50275E-02 2.61000E-02
 -1       884-1.27756E-02 9.46671E-03 1.35623E-02
 -1       885-1.25439E-02-1.88349E-02-3.73311E-03
 -1       886-8.77060E-03-4.28871E-02-1.75106E-02
 -1       887-2.57146E-03-5.67981E-02-2.09714E-02
 -1       888 4.21107E-03-5.74107E-02-1.13320E-02
 -1       889 9.58052E-03-4.51313E-02 9.03403E-03
 -1       890 1.20036E-02-2.37132E-02 3.32563E-02
 -1       891 1.08766E-02 9.23735E-04 5.22306E-02
 -1       892 6.69353E-03 2.24592E-02 5.77465E-02
 -1       893 8.66664E-04 3.59746E-02 4.54388E-02
 -1       894-4.74192E-03 3.92427E-02 1.65611E-02
 -1       895-8.42405E-03 3.31323E-02-2.20539E-02
 -1       896-9.17144E-03 2.10415E-02-5.99065E-02
 -1       897-6.99032E-03 7.58579E-03-8.60729E-02
 -1       898-2.88887E-03-3.00267E-03-9.28070E-02
 -1       899 1.45187E-03-8.22439E-03-7.84112E-02
 -1       900 4.20841E-03-7.98370E-03-4.85929E-02
 -1       901 3.67652E-03-4.19939E-03-1.61949E-02
 -1       902-2.31157E-04-9.07118E-03-1.61440E-02
 -1       903-4.96655E-04-2.23930E-02-4.86850E-02
 -1       904-1.84132E-03-3.14353E-02-7.85864E-02
 -1       905-3.45700E-03-3.04676E-02-9.30059E-02
 -1       906-4.56916E-03-1.79233E-02-8.62293E-02
 -1       907-4.47334E-03 3.21627E-03-5.99666E-02
 -1       908-2.83260E-03 2.64505E-02-2.19950E-02
 -1       909 1.63979E-04 4.39570E-02 1.67225E-02
 -1       910 3.81594E-03 4.92482E-02 4.56526E-02
 -1       911 7.10122E-03 3.94382E-02 5.79445E-02
 -1       912 8.98556E-03 1.63726E-02 5.23486E-02
 -1       913 8.75437E-03-1.37618E-02 3.32551E-02
 -1       914 6.26020E-03-4.22452E-02 8.91235E-03
 -1       915 2.00336E-03-6.04921E-02-1.15370E-02
 -1       916-2.98511E-03-6.27344E-02-2.11957E-02
 -1       917-7.42663E-03-4.78652E-02-1.76838E-02
 -1       918-1.01602E-02-1.98505E-02-3.80077E-03
 -1       919-1.04784E-02 1.34344E-02 1.36212E-02
 -1       920-8.33115E-03 4.25839E-02 2.62664E-02
 -1       921-4.33523E-03 5.95119E-02 2.74147E-02
 -1       922 4.12153E-04 5.98808E-02 1.44987E-02
 -1       923 4.65768E-03 4.43511E-02-9.74046E-03
 -1       924 7.35287E-03 1.82764E-02-3.79084E-02
 -1       925 7.94144E-03-1.00397E-02-6.02277E-02
 -1       926 6.48629E-03-3.19434E-02-6.76779E-02
 -1       927 3.60267E-03-4.10534E-02-5.49672E-02
 -1       928 2.22873E-04-3.50670E-02-2.23171E-02
 -1       929-2.75316E-03-1.62131E-02 2.45448E-02
 -1       930-4.70524E-03 9.90485E-03 7.67842E-02
 -3
    1PSTEP                        74           1           1          
    1PGM                1.000000E+00                                  
    1PGK                3.124460E+07                                  
    1PHID                         -1                                  
    1PSUBC                         0                                  
    1PMODE                        19                                  
  100CL  119 889.6263563         930                     2   19MODAL      1
 -4  STRESS      6    1
 -5  SXX         1    4    1    1
 -5  SYY         1    4    2    2
 -5  SZZ         1    4    3    3
 -5  SXY         1    4    1    2
 -5  SYZ         1    4    2    3
 -5  SZX         1    4    3    1
 -1         1-1.23967E+09-5.31287E+08-5.31289E+08-7.15884E+09 2.86220E+04-9.58369E+08
 -1         2 1.23967E+09 5.31287E+08 5.31289E+08-7.15884E+09 2.86220E+04 9.58369E+08
 -1         3-4.50389E+09-4.65139E+09-1.06444E+10 6.24554E+09-4.25032E+09 3.89881E+09
 -1         4 4.50389E+09 4.65139E+09 1.06444E+10 6.24554E+09-4.25032E+09-3.89881E+09
 -1         5-1.23967E+09-5.31287E+08-5.31289E+08-7.15884E+09-2.86220E+04 9.58369E+08
 -1         6 1.23967E+09 5.31287E+08 5.31289E+08-7.15884E+09-2.86220E+04-9.58369E+08
 -1         7-4.50389E+09-4.65139E+09-1.06444E+10 6.24554E+09 4.25032E+09-3.89881E+09
 -1         8 4.50389E+09 4.65139E+09 1.06444E+10 6.24554E+09 4.25032E+09 3.89881E+09
 -1         9-1.04308E+09-4.47042E+08-4.47045E+08-3.49623E+09 3.57006E+04-1.04695E+09
 -1        10-2.62903E+09-8.00738E+08-8.64026E+09-1.20579E+10 3.77363E+09 2.47407E+09
 -1        11-2.24593E+10-9.62547E+09-9.62547E+09-3.67463E+09 1.53134E+02-2.55373E+10
 -1        12-2.38406E+09-1.02178E+09-1.02178E+09-7.53548E+09-7.24632E+02-2.53902E+10
 -1        13 1.43377E+09 1.49469E+08-4.46246E+08-1.06170E+10-9.43161E+08 3.19651E+09
 -1        14 2.84026E+09 7.83658E+08 1.65960E+08 1.11970E+10-7.06233E+08 3.24760E+09
 -1        15-1.04308E+09-4.47042E+08-4.47045E+08-3.49623E+09-3.57006E+04 1.04695E+09
 -1        16-2.62903E+09-8.00738E+08-8.64026E+09-1.20579E+10-3.77363E+09-2.47407E+09
 -1        17-2.38406E+09-1.02178E+09-1.02178E+09-7.53548E+09 7.24632E+02 2.53902E+10
 -1        18-2.24593E+10-9.62547E+09-9.62547E+09-3.67463E+09-1.53134E+02 2.55373E+10
 -1        19 2.84026E+09 7.83658E+08 1.65960E+08 1.11970E+10 7.06233E+08-3.24760E+09
 -1        20 1.43377E+09 1.49469E+08-4.46246E+08-1.06170E+10 9.43161E+08-3.19651E+09
 -1        21 2.38406E+09 1.02178E+09 1.02178E+09-7.53548E+09-7.24632E+02 2.53902E+10
 -1        22 2.24593E+10 9.62547E+09 9.62547E+09-3.67463E+09 1.53134E+02 2.55373E+10
 -1        23-1.43377E+09-1.49469E+08 4.46246E+08-1.06170E+10-9.43161E+08-3.19651E+09
 -1        24-2.84026E+09-7.83658E+08-1.65960E+08 1.11970E+10-7.06233E+08-3.24760E+09
 -1        25 1.04308E+09 4.47042E+08 4.47045E+08-3.49623E+09 3.57006E+04 1.04695E+09
 -1        26 2.62903E+09 8.00738E+08 8.64026E+09-1.20579E+10 3.77363E+09-2.47407E+09
 -1        27 1.04308E+09 4.47042E+08 4.47045E+08-3.49623E+09-3.57006E+04-1.04695E+09
 -1        28 2.24593E+10 9.62547E+09 9.62547E+09-3.67463E+09-1.53134E+02-2.55373E+10
 -1        29 2.38406E+09 1.02178E+09 1.02178E+09-7.53548E+09 7.24632E+02-2.53902E+10
 -1        30 2.62903E+09 8.00738E+08 8.64026E+09-1.20579E+10-3.77363E+09 2.47407E+09
 -1        31-1.43377E+09-1.49469E+08 4.46246E+08-1.06170E+10 9.43161E+08 3.19651E+09
 -1        32-2.84026E+09-7.83658E+08-1.65960E+08 1.11970E+10 7.06233E+08 3.24760E+09
 -1        33-5.02965E+08-1.08351E+09-1.97769E+09-3.92070E+09 1.57211E+08 2.30630E+09
 -1        34-2.60872E+09-2.51161E+09-5.06488E+09-4.68428E+09 1.23516E+09 2.52669E+09
 -1        35-4.27329E+09-3.82793E+09-7.97939E+09-3.00608E+09 2.13894E+09 1.69818E+09
 -1        36-5.02875E+09-4.54168E+09-9.41930E+09-2.44916E+08 2.53975E+09 1.41876E+08
 -1        37-4.60713E+09-4.40882E+09-8.95026E+09 2.69763E+09 2.27231E+09-1.50794E+09
 -1        38-3.12145E+09-3.43404E+09-6.63680E+09 4.81532E+09 1.41135E+09-2.70213E+09
 -1        39-1.00821E+09-1.87552E+09-3.12640E+09 5.46781E+09 2.34049E+08-3.07229E+09
 -1        40 1.11761E+09-1.40712E+08 6.17554E+08 4.49829E+09-9.00785E+08-2.53315E+09
 -1        41 2.66711E+09 1.34461E+09 3.62881E+09 2.27534E+09-1.66177E+09-1.29069E+09
 -1        42 3.26309E+09 2.26967E+09 5.23990E+09-4.47915E+08-1.84970E+09 2.33656E+08
 -1        43 2.84814E+09 2.51973E+09 5.26320E+09-2.78658E+09-1.45484E+09 1.54481E+09
 -1        44 1.68516E+09 2.18893E+09 4.00756E+09-4.01342E+09-6.53151E+08 2.23560E+09
 -1        45 2.53885E+08 1.52503E+09 2.13352E+09-3.79085E+09 2.57355E+08 2.11660E+09
 -1        46-9.19305E+08 8.28970E+08 4.03014E+08-2.27203E+09 9.58475E+08 1.27276E+09
 -1        47-1.44094E+09 3.45023E+08-5.89668E+08-3.96915E+07 1.21811E+09 2.93380E+07
 -1        48-1.17985E+09 1.79028E+08-6.15165E+08 2.09557E+09 9.66078E+08-1.16087E+09
 -1        49-3.04170E+08 2.71480E+08 1.30021E+08 3.37031E+09 3.14860E+08-1.87129E+09
 -1        50 7.85058E+08 4.33172E+08 1.11670E+09 3.32572E+09-4.81315E+08-1.84563E+09
 -1        51 1.60057E+09 4.29400E+08 1.69575E+09 1.96274E+09-1.11506E+09-1.08462E+09
 -1        52 1.74578E+09 8.20925E+07 1.35554E+09-2.56366E+08-1.33261E+09 1.53044E+08
 -1        53 1.06185E+09-6.46908E+08-6.61016E+07-2.56056E+09-1.02324E+09 1.43613E+09
 -1        54-3.04839E+08-1.62147E+09-2.28963E+09-4.12651E+09-2.61086E+08 2.30458E+09
 -1        55-1.93761E+09-2.55792E+09-4.65358E+09-4.35417E+09 7.15235E+08 2.42430E+09
 -1        56-3.27507E+09-3.10454E+09-6.30697E+09-3.06991E+09 1.57984E+09 1.70103E+09
 -1        57-3.78593E+09-2.94530E+09-6.47003E+09-5.88271E+08 2.02780E+09 3.14398E+08
 -1        58-3.14483E+09-1.91319E+09-4.70203E+09 2.37896E+09 1.87252E+09-1.34630E+09
 -1        59-1.37276E+09-8.10038E+07-1.09408E+09 4.97775E+09 1.09659E+09-2.81572E+09
 -1        60 1.09415E+09 2.13548E+09 3.51633E+09 6.37672E+09-2.36089E+08-3.75064E+09
 -1        61 3.33040E+09 4.01238E+09 7.78335E+09 6.68392E+09-1.84082E+09-4.01981E+09
 -1        62 5.02965E+08 1.08351E+09 1.97769E+09-3.92070E+09 1.57211E+08-2.30630E+09
 -1        63 2.60872E+09 2.51161E+09 5.06488E+09-4.68428E+09 1.23516E+09-2.52669E+09
 -1        64 4.27329E+09 3.82793E+09 7.97939E+09-3.00608E+09 2.13894E+09-1.69818E+09
 -1        65 5.02875E+09 4.54168E+09 9.41930E+09-2.44916E+08 2.53975E+09-1.41876E+08
 -1        66 4.60713E+09 4.40882E+09 8.95026E+09 2.69763E+09 2.27231E+09 1.50794E+09
 -1        67 3.12145E+09 3.43404E+09 6.63680E+09 4.81532E+09 1.41135E+09 2.70213E+09
 -1        68 1.00821E+09 1.87552E+09 3.12640E+09 5.46781E+09 2.34049E+08 3.07229E+09
 -1        69-1.11761E+09 1.40712E+08-6.17554E+08 4.49829E+09-9.00785E+08 2.53315E+09
 -1        70-2.66711E+09-1.34461E+09-3.62881E+09 2.27534E+09-1.66177E+09 1.29069E+09
 -1        71-3.26309E+09-2.26967E+09-5.23990E+09-4.47915E+08-1.84970E+09-2.33656E+08
 -1        72-2.84814E+09-2.51973E+09-5.26320E+09-2.78658E+09-1.45484E+09-1.54481E+09
 -1        73-1.68516E+09-2.18893E+09-4.00756E+09-4.01342E+09-6.53151E+08-2.23560E+09
 -1        74-2.53885E+08-1.52503E+09-2.13352E+09-3.79085E+09 2.57355E+08-2.11660E+09
 -1        75 9.19305E+08-8.28970E+08-4.03014E+08-2.27203E+09 9.58475E+08-1.27276E+09
 -1        76 1.44094E+09-3.45023E+08 5.89668E+08-3.96915E+07 1.21811E+09-2.93380E+07
 -1        77 1.17985E+09-1.79028E+08 6.15165E+08 2.09557E+09 9.66078E+08 1.16087E+09
 -1        78 3.04170E+08-2.71480E+08-1.30021E+08 3.37031E+09 3.14860E+08 1.87129E+09
 -1        79-7.85058E+08-4.33172E+08-1.11670E+09 3.32572E+09-4.81315E+08 1.84563E+09
 -1        80-1.60057E+09-4.29400E+08-1.69575E+09 1.96274E+09-1.11506E+09 1.08462E+09
 -1        81-1.74578E+09-8.20925E+07-1.35554E+09-2.56366E+08-1.33261E+09-1.53044E+08
 -1        82-1.06185E+09 6.46908E+08 6.61016E+07-2.56056E+09-1.02324E+09-1.43613E+09
 -1        83 3.04839E+08 1.62147E+09 2.28963E+09-4.12651E+09-2.61086E+08-2.30458E+09
 -1        84 1.93761E+09 2.55792E+09 4.65358E+09-4.35417E+09 7.15235E+08-2.42430E+09
 -1        85 3.27507E+09 3.10454E+09 6.30697E+09-3.06991E+09 1.57984E+09-1.70103E+09
 -1        86 3.78593E+09 2.94530E+09 6.47003E+09-5.88271E+08 2.02780E+09-3.14398E+08
 -1        87 3.14483E+09 1.91319E+09 4.70203E+09 2.37896E+09 1.87252E+09 1.34630E+09
 -1        88 1.37276E+09 8.10038E+07 1.09408E+09 4.97775E+09 1.09659E+09 2.81572E+09
 -1        89-1.09415E+09-2.13548E+09-3.51633E+09 6.37672E+09-2.36089E+08 3.75064E+09
 -1        90-3.33040E+09-4.01238E+09-7.78335E+09 6.68392E+09-1.84082E+09 4.01981E+09
 -1        91-6.38009E+09-2.73432E+09-2.73432E+09-2.39782E+10 8.58846E+03-5.66278E+08
 -1        92-7.94339E+09-3.40431E+09-3.40430E+09-3.03827E+10 8.32975E-06 3.43833E-03
 -1        93-6.38009E+09-2.73432E+09-2.73432E+09-2.39782E+10-8.58846E+03 5.66278E+08
 -1        94 6.38009E+09 2.73432E+09 2.73432E+09-2.39782E+10-8.58846E+03-5.66278E+08
 -1        95 7.94339E+09 3.40431E+09 3.40430E+09-3.03827E+10 6.88434E-06 4.23817E-03
 -1        96 6.38009E+09 2.73432E+09 2.73432E+09-2.39782E+10 8.58846E+03 5.66278E+08
 -1        97 5.02965E+08 1.08351E+09 1.97769E+09-3.92070E+09-1.57211E+08 2.30630E+09
 -1        98 2.60872E+09 2.51161E+09 5.06488E+09-4.68428E+09-1.23516E+09 2.52669E+09
 -1        99 4.27329E+09 3.82793E+09 7.97939E+09-3.00608E+09-2.13894E+09 1.69818E+09
 -1       100 5.02875E+09 4.54168E+09 9.41930E+09-2.44916E+08-2.53975E+09 1.41876E+08
 -1       101 4.60713E+09 4.40882E+09 8.95026E+09 2.69763E+09-2.27231E+09-1.50794E+09
 -1       102 3.12145E+09 3.43404E+09 6.63680E+09 4.81532E+09-1.41135E+09-2.70213E+09
 -1       103 1.00821E+09 1.87552E+09 3.12640E+09 5.46781E+09-2.34049E+08-3.07229E+09
 -1       104-1.11761E+09 1.40712E+08-6.17554E+08 4.49829E+09 9.00785E+08-2.53315E+09
 -1       105-2.66711E+09-1.34461E+09-3.62881E+09 2.27534E+09 1.66177E+09-1.29069E+09
 -1       106-3.26309E+09-2.26967E+09-5.23990E+09-4.47915E+08 1.84970E+09 2.33656E+08
 -1       107-2.84814E+09-2.51973E+09-5.26320E+09-2.78658E+09 1.45484E+09 1.54481E+09
 -1       108-1.68516E+09-2.18893E+09-4.00756E+09-4.01342E+09 6.53151E+08 2.23560E+09
 -1       109-2.53885E+08-1.52503E+09-2.13352E+09-3.79085E+09-2.57355E+08 2.11660E+09
 -1       110 9.19305E+08-8.28970E+08-4.03014E+08-2.27203E+09-9.58475E+08 1.27276E+09
 -1       111 1.44094E+09-3.45023E+08 5.89668E+08-3.96915E+07-1.21811E+09 2.93380E+07
 -1       112 1.17985E+09-1.79028E+08 6.15165E+08 2.09557E+09-9.66078E+08-1.16087E+09
 -1       113 3.04170E+08-2.71480E+08-1.30021E+08 3.37031E+09-3.14860E+08-1.87129E+09
 -1       114-7.85058E+08-4.33172E+08-1.11670E+09 3.32572E+09 4.81315E+08-1.84563E+09
 -1       115-1.60057E+09-4.29400E+08-1.69575E+09 1.96274E+09 1.11506E+09-1.08462E+09
 -1       116-1.74578E+09-8.20925E+07-1.35554E+09-2.56366E+08 1.33261E+09 1.53044E+08
 -1       117-1.06185E+09 6.46908E+08 6.61016E+07-2.56056E+09 1.02324E+09 1.43613E+09
 -1       118 3.04839E+08 1.62147E+09 2.28963E+09-4.12651E+09 2.61086E+08 2.30458E+09
 -1       119 1.93761E+09 2.55792E+09 4.65358E+09-4.35417E+09-7.15235E+08 2.42430E+09
 -1       120 3.27507E+09 3.10454E+09 6.30697E+09-3.06991E+09-1.57984E+09 1.70103E+09
 -1       121 3.78593E+09 2.94530E+09 6.47003E+09-5.88271E+08-2.02780E+09 3.14398E+08
 -1       122 3.14483E+09 1.91319E+09 4.70203E+09 2.37896E+09-1.87252E+09-1.34630E+09
 -1       123 1.37276E+09 8.10038E+07 1.09408E+09 4.97775E+09-1.09659E+09-2.81572E+09
 -1       124-1.09415E+09-2.13548E+09-3.51633E+09 6.37672E+09 2.36089E+08-3.75064E+09
 -1       125-3.33040E+09-4.01238E+09-7.78335E+09 6.68392E+09 1.84082E+09-4.01981E+09
 -1       126-6.32998E+09-6.55418E+09-1.55173E+10-1.72599E+09-8.49328E+09 4.68738E+09
 -1       127-7.94021E+09-8.29307E+09-1.97033E+10-1.09314E+09-9.44519E-03-7.04944E-03
 -1       128-6.32998E+09-6.55418E+09-1.55173E+10-1.72599E+09 8.49328E+09-4.68738E+09
 -1       129-5.02965E+08-1.08351E+09-1.97769E+09-3.92070E+09-1.57211E+08-2.30630E+09
 -1       130-2.60872E+09-2.51161E+09-5.06488E+09-4.68428E+09-1.23516E+09-2.52669E+09
 -1       131-4.27329E+09-3.82793E+09-7.97939E+09-3.00608E+09-2.13894E+09-1.69818E+09
 -1       132-5.02875E+09-4.54168E+09-9.41930E+09-2.44916E+08-2.53975E+09-1.41876E+08
 -1       133-4.60713E+09-4.40882E+09-8.95026E+09 2.69763E+09-2.27231E+09 1.50794E+09
 -1       134-3.12145E+09-3.43404E+09-6.63680E+09 4.81532E+09-1.41135E+09 2.70213E+09
 -1       135-1.00821E+09-1.87552E+09-3.12640E+09 5.46781E+09-2.34049E+08 3.07229E+09
 -1       136 1.11761E+09-1.40712E+08 6.17554E+08 4.49829E+09 9.00785E+08 2.53315E+09
 -1       137 2.66711E+09 1.34461E+09 3.62881E+09 2.27534E+09 1.66177E+09 1.29069E+09
 -1       138 3.26309E+09 2.26967E+09 5.23990E+09-4.47915E+08 1.84970E+09-2.33656E+08
 -1       139 2.84814E+09 2.51973E+09 5.26320E+09-2.78658E+09 1.45484E+09-1.54481E+09
 -1       140 1.68516E+09 2.18893E+09 4.00756E+09-4.01342E+09 6.53151E+08-2.23560E+09
 -1       141 2.53885E+08 1.52503E+09 2.13352E+09-3.79085E+09-2.57355E+08-2.11660E+09
 -1       142-9.19305E+08 8.28970E+08 4.03014E+08-2.27203E+09-9.58475E+08-1.27276E+09
 -1       143-1.44094E+09 3.45023E+08-5.89668E+08-3.96915E+07-1.21811E+09-2.93380E+07
 -1       144-1.17985E+09 1.79028E+08-6.15165E+08 2.09557E+09-9.66078E+08 1.16087E+09
 -1       145-3.04170E+08 2.71480E+08 1.30021E+08 3.37031E+09-3.14860E+08 1.87129E+09
 -1       146 7.85058E+08 4.33172E+08 1.11670E+09 3.32572E+09 4.81315E+08 1.84563E+09
 -1       147 1.60057E+09 4.29400E+08 1.69575E+09 1.96274E+09 1.11506E+09 1.08462E+09
 -1       148 1.74578E+09 8.20925E+07 1.35554E+09-2.56366E+08 1.33261E+09-1.53044E+08
 -1       149 1.06185E+09-6.46908E+08-6.61016E+07-2.56056E+09 1.02324E+09-1.43613E+09
 -1       150-3.04839E+08-1.62147E+09-2.28963E+09-4.12651E+09 2.61086E+08-2.30458E+09
 -1       151-1.93761E+09-2.55792E+09-4.65358E+09-4.35417E+09-7.15235E+08-2.42430E+09
 -1       152-3.27507E+09-3.10454E+09-6.30697E+09-3.06991E+09-1.57984E+09-1.70103E+09
 -1       153-3.78593E+09-2.94530E+09-6.47003E+09-5.88271E+08-2.02780E+09-3.14398E+08
 -1       154-3.14483E+09-1.91319E+09-4.70203E+09 2.37896E+09-1.87252E+09 1.34630E+09
 -1       155-1.37276E+09-8.10038E+07-1.09408E+09 4.97775E+09-1.09659E+09 2.81572E+09
 -1       156 1.09415E+09 2.13548E+09 3.51633E+09 6.37672E+09 2.36089E+08 3.75064E+09
 -1       157 3.33040E+09 4.01238E+09 7.78335E+09 6.68392E+09 1.84082E+09 4.01981E+09
 -1       158 6.32998E+09 6.55418E+09 1.55173E+10-1.72599E+09 8.49328E+09 4.68738E+09
 -1       159 7.94021E+09 8.29307E+09 1.97033E+10-1.09314E+09-9.23157E-03-1.00944E-02
 -1       160 6.32998E+09 6.55418E+09 1.55173E+10-1.72599E+09-8.49328E+09-4.68738E+09
 -1       161 2.07159E+08 3.02690E+08 1.85895E+09 3.08763E+09-9.14965E+08-2.01459E+09
 -1       162 1.45532E+09 1.82447E+07 4.08653E+09 5.48516E+09-2.18429E+09-1.92698E+09
 -1       163 2.64199E+09-5.63214E+07 6.46275E+09 4.42997E+09-3.24276E+09-1.25407E+09
 -1       164 3.14658E+09-2.11884E+07 7.64153E+09 1.38878E+09-3.82253E+09-2.80619E+07
 -1       165 2.88310E+09 1.02332E+08 7.36184E+09-2.27739E+09-3.63552E+09 1.23374E+09
 -1       166 1.92899E+09 2.80116E+08 5.62887E+09-5.36031E+09-2.73155E+09 2.12231E+09
 -1       167 5.74641E+08 4.48915E+08 2.91569E+09-6.99760E+09-1.34455E+09 2.35373E+09
 -1       168-7.80202E+08 5.39694E+08-5.34338E+07-6.85352E+09 1.48632E+08 1.87095E+09
 -1       169-1.75494E+09 5.02593E+08-2.53436E+09-5.14982E+09 1.36986E+09 8.46685E+08
 -1       170-2.10834E+09 3.23012E+08-3.99572E+09-2.54452E+09 2.05278E+09-3.76967E+08
 -1       171-1.80749E+09 3.02963E+07-4.25988E+09 1.09911E+08 2.11651E+09-1.40297E+09
 -1       172-1.02733E+09-3.08122E+08-3.52146E+09 2.05083E+09 1.67304E+09-1.90869E+09
 -1       173-8.28087E+07-6.04654E+08-2.24455E+09 2.84162E+09 9.72463E+08-1.74926E+09
 -1       174 6.82222E+08-7.76790E+08-9.80101E+08 2.48687E+09 3.06652E+08-1.00191E+09
 -1       175 1.01189E+09-7.71890E+08-1.67677E+08 1.39391E+09-9.45607E+07 6.26709E+07
 -1       176 8.22361E+08-5.83798E+08 1.12127E+07 1.98890E+08-1.39850E+08 1.07212E+09
 -1       177 2.25722E+08-2.55990E+08-3.19928E+08-4.79869E+08 9.96244E+07 1.67684E+09
 -1       178-5.13576E+08 1.29943E+08-7.98753E+08-2.75618E+08 4.25642E+08 1.66648E+09
 -1       179-1.07449E+09 4.77109E+08-9.78099E+08 7.86602E+08 5.94466E+08 1.04008E+09
 -1       180-1.19488E+09 7.00567E+08-5.12560E+08 2.29150E+09 4.15546E+08 6.93851E+06
 -1       181-7.67581E+08 7.50757E+08 6.88711E+08 3.57682E+09-1.67376E+08-1.08200E+09
 -1       182 1.15272E+08 6.26084E+08 2.39740E+09 3.96980E+09-1.04129E+09-1.85004E+09
 -1       183 1.18469E+09 3.70821E+08 4.11243E+09 3.03548E+09-1.94738E+09-2.01954E+09
 -1       184 2.07647E+09 5.95265E+07 5.20199E+09 7.49779E+08-2.55486E+09-1.50428E+09
 -1       185 2.44493E+09-2.29330E+08 5.09307E+09-2.46402E+09-2.56106E+09-4.39346E+08
 -1       186 2.08334E+09-4.27343E+08 3.47692E+09-5.86839E+09-1.79777E+09 8.66876E+08
 -1       187 9.98522E+08-5.34771E+08 4.41006E+08-8.65128E+09-2.92883E+08 2.02205E+09
 -1       188-4.67850E+08-4.93152E+08-3.23011E+09-1.03909E+10 1.53713E+09 2.72123E+09
 -1       189-1.71610E+09-3.45190E+08-6.40938E+09-1.13052E+10 3.43606E+09 2.76266E+09
 -1       190-1.03930E+10-4.45417E+09-4.45418E+09-3.39167E+09-2.77769E+03-1.30803E+10
 -1       191 6.53631E+08 2.80104E+08 2.80092E+08-7.32657E+09-3.02001E+03-1.30392E+10
 -1       192 3.34726E+09 4.53002E+09 3.39728E+09-1.08550E+10 2.21415E+08-7.23618E+08
 -1       193-9.27288E+09-1.15332E+09-2.94208E+08 4.96267E+09 4.72520E+08 4.19615E+09
 -1       194 5.15566E+09-2.50151E+08-2.81514E+08 6.74117E+09-4.42313E+08 2.47963E+09
 -1       195 1.60981E+10 1.99335E+09 2.30053E+09 4.90059E+09-7.86982E+08 1.25131E+09
 -1       196 1.91272E+10 2.59040E+09 2.97861E+09 1.06885E+09-9.97396E+08 2.97959E+08
 -1       197 1.44145E+10 2.15039E+09 2.83543E+09-3.28275E+09-9.00955E+08-4.69455E+08
 -1       198 3.63484E+09 7.95477E+08 1.77780E+09-6.70700E+09-5.73011E+08-9.19743E+08
 -1       199-9.45278E+09-9.32766E+08 2.65392E+08-8.21550E+09-1.11352E+08-9.74659E+08
 -1       200-2.03705E+10-2.43905E+09-1.21995E+09-7.48138E+09 3.39330E+08-6.49017E+08
 -1       201-2.52895E+10-3.20188E+09-2.22201E+09-4.89251E+09 6.47654E+08-6.57516E+07
 -1       202-2.22911E+10-2.94982E+09-2.46866E+09-1.37919E+09 7.32670E+08 5.77424E+08
 -1       203-1.20089E+10-1.74340E+09-1.94254E+09 1.91281E+09 5.88323E+08 1.06648E+09
 -1       204 2.54036E+09 4.44177E+07-8.75809E+08 4.00091E+09 2.81886E+08 1.23690E+09
 -1       205 1.68958E+10 1.84840E+09 3.35854E+08 4.37460E+09-7.08457E+07 1.02542E+09
 -1       206 2.65638E+10 3.09283E+09 1.26931E+09 3.13800E+09-3.45549E+08 4.90552E+08
 -1       207 2.84525E+10 3.37709E+09 1.61576E+09 9.44142E+08-4.51112E+08-2.05466E+08
 -1       208 2.18680E+10 2.60521E+09 1.28178E+09-1.25279E+09-3.59468E+08-8.47748E+08
 -1       209 8.75256E+09 1.01762E+09 4.16976E+08-2.54151E+09-1.13809E+08-1.23690E+09
 -1       210-6.91589E+09-8.85131E+08-6.40393E+08-2.37753E+09 1.87331E+08-1.25236E+09
 -1       211-2.03701E+10-2.50226E+09-1.48119E+09-7.77865E+08 4.24685E+08-8.90484E+08
 -1       212-2.75496E+10-3.32456E+09-1.76716E+09 1.67896E+09 4.99926E+08-2.65118E+08
 -1       213-2.63663E+10-3.09619E+09-1.34908E+09 4.04800E+09 3.70461E+08 4.30086E+08
 -1       214-1.73356E+10-1.89380E+09-3.21398E+08 5.34249E+09 6.55866E+07 9.85652E+08
 -1       215-3.37372E+09-9.72888E+07 1.00526E+09 4.87846E+09-3.21026E+08 1.24531E+09
 -1       216 1.11697E+10 1.73743E+09 2.20524E+09 2.52191E+09-6.61458E+08 1.15722E+09
 -1       217 2.19186E+10 3.06033E+09 2.87547E+09-1.24558E+09-8.31326E+08 7.84307E+08
 -1       218 2.58752E+10 3.51385E+09 2.78017E+09-5.46039E+09-7.59387E+08 2.83264E+08
 -1       219 2.24131E+10 3.02581E+09 1.91977E+09-8.97476E+09-4.34770E+08-6.30593E+07
 -1       220 1.36969E+10 1.97208E+09 7.41543E+08-1.09898E+10-3.06604E+07 2.98498E+07
 -1       221 5.27148E+09 1.54785E+09 1.40751E+08-1.09770E+10 6.58478E+08 1.75017E+09
 -1       222 2.62594E+09 3.45247E+09 4.65718E+09-6.96853E+09 2.25040E+08 4.15064E+09
 -1       223 4.27999E+09 6.00998E+08-2.88872E+08-8.20491E+09-4.03486E+08 2.32489E+09
 -1       224 6.56137E+09 1.54032E+07-1.15389E+09-5.62853E+09-7.38368E+08 1.20501E+09
 -1       225 5.79485E+09-5.00464E+08-1.94835E+09-8.36980E+08-9.43769E+08 3.23736E+08
 -1       226 2.13547E+09-6.05691E+08-1.67510E+09 4.36130E+09-9.37187E+08-3.65987E+08
 -1       227-3.62804E+09-4.71773E+08-7.81238E+08 8.27709E+09-7.40576E+08-7.76559E+08
 -1       228-9.64209E+09-1.83833E+08 4.33280E+08 9.73841E+09-4.10167E+08-8.40325E+08
 -1       229-1.37893E+10 1.33985E+08 1.52632E+09 8.41948E+09-3.76817E+07-5.72575E+08
 -1       230-1.43585E+10 3.80171E+08 2.13188E+09 4.88260E+09 2.84192E+08-7.92335E+07
 -1       231-1.06699E+10 4.90050E+08 2.04966E+09 3.56649E+08 4.87358E+08 4.69883E+08
 -1       232-3.36643E+09 4.49798E+08 1.30816E+09-3.68505E+09 5.46155E+08 8.91110E+08
 -1       233 5.71251E+09 2.94672E+08 1.50913E+08-6.00858E+09 4.79775E+08 1.04295E+09
 -1       234 1.40511E+10 9.32361E+07-1.04408E+09-6.01058E+09 3.40509E+08 8.70264E+08
 -1       235 1.92107E+10-7.78683E+07-1.88783E+09-3.89296E+09 1.92304E+08 4.21863E+08
 -1       236 1.95818E+10-1.60474E+08-2.10671E+09-5.68700E+08 8.73079E+07-1.64771E+08
 -1       237 1.48975E+10-1.34113E+08-1.63118E+09 2.66642E+09 4.83837E+07-7.07058E+08
 -1       238 6.34149E+09-2.16722E+07-6.18131E+08 4.58488E+09 6.33206E+07-1.03544E+09
 -1       239-3.78525E+09 1.20195E+08 6.00395E+08 4.45078E+09 9.23777E+07-1.04740E+09
 -1       240-1.27400E+10 2.22509E+08 1.62527E+09 2.27451E+09 8.61873E+07-7.40030E+08
 -1       241-1.81462E+10 2.29822E+08 2.12017E+09-1.18572E+09 7.45886E+06-2.10361E+08
 -1       242-1.86847E+10 1.21381E+08 1.92067E+09-4.67654E+09-1.51359E+08 3.76924E+08
 -1       243-1.44552E+10-8.03917E+07 1.08676E+09-6.87208E+09-3.61017E+08 8.44337E+08
 -1       244-6.90225E+09-3.18268E+08-1.19600E+08-6.82548E+09-5.61220E+08 1.06060E+09
 -1       245 1.66623E+09-5.23745E+08-1.32416E+09-4.29807E+09-6.78968E+08 9.84190E+08
 -1       246 8.81279E+09-6.45350E+08-2.16797E+09 1.45162E+08-6.47760E+08 6.70863E+08
 -1       247 1.27309E+10-6.72069E+08-2.41889E+09 5.29512E+09-4.41065E+08 2.54870E+08
 -1       248 1.27607E+10-6.02069E+08-2.06431E+09 9.66916E+09-6.24786E+07-9.12552E+06
 -1       249 9.56289E+09-5.44825E+08-1.25373E+09 1.20898E+10 3.03274E+08 1.28684E+08
 -1       250 4.78719E+09-5.31176E+08-6.28244E+08 1.20203E+10 9.28415E+08 1.82905E+09
 -1       251 2.25192E+09 1.06485E+09 2.02913E+09 1.25529E+10-1.83921E+08-6.86678E+08
 -1       252-1.71610E+09-3.45190E+08-6.40938E+09-1.13052E+10-3.43606E+09-2.76266E+09
 -1       253-4.67850E+08-4.93152E+08-3.23011E+09-1.03909E+10-1.53713E+09-2.72123E+09
 -1       254 9.98522E+08-5.34771E+08 4.41006E+08-8.65128E+09 2.92883E+08-2.02205E+09
 -1       255 2.08334E+09-4.27343E+08 3.47692E+09-5.86839E+09 1.79777E+09-8.66876E+08
 -1       256 2.44493E+09-2.29330E+08 5.09307E+09-2.46402E+09 2.56106E+09 4.39346E+08
 -1       257 2.07647E+09 5.95265E+07 5.20199E+09 7.49779E+08 2.55486E+09 1.50428E+09
 -1       258 1.18469E+09 3.70821E+08 4.11243E+09 3.03548E+09 1.94738E+09 2.01954E+09
 -1       259 1.15272E+08 6.26084E+08 2.39740E+09 3.96980E+09 1.04129E+09 1.85004E+09
 -1       260-7.67581E+08 7.50757E+08 6.88711E+08 3.57682E+09 1.67376E+08 1.08200E+09
 -1       261-1.19488E+09 7.00567E+08-5.12560E+08 2.29150E+09-4.15546E+08-6.93851E+06
 -1       262-1.07449E+09 4.77109E+08-9.78099E+08 7.86602E+08-5.94466E+08-1.04008E+09
 -1       263-5.13576E+08 1.29943E+08-7.98753E+08-2.75618E+08-4.25642E+08-1.66648E+09
 -1       264 2.25722E+08-2.55990E+08-3.19928E+08-4.79869E+08-9.96244E+07-1.67684E+09
 -1       265 8.22361E+08-5.83798E+08 1.12127E+07 1.98890E+08 1.39850E+08-1.07212E+09
 -1       266 1.01189E+09-7.71890E+08-1.67677E+08 1.39391E+09 9.45607E+07-6.26709E+07
 -1       267 6.82222E+08-7.76790E+08-9.80101E+08 2.48687E+09-3.06652E+08 1.00191E+09
 -1       268-8.28087E+07-6.04654E+08-2.24455E+09 2.84162E+09-9.72463E+08 1.74926E+09
 -1       269-1.02733E+09-3.08122E+08-3.52146E+09 2.05083E+09-1.67304E+09 1.90869E+09
 -1       270-1.80749E+09 3.02963E+07-4.25988E+09 1.09911E+08-2.11651E+09 1.40297E+09
 -1       271-2.10834E+09 3.23012E+08-3.99572E+09-2.54452E+09-2.05278E+09 3.76967E+08
 -1       272-1.75494E+09 5.02593E+08-2.53436E+09-5.14982E+09-1.36986E+09-8.46685E+08
 -1       273-7.80202E+08 5.39694E+08-5.34338E+07-6.85352E+09-1.48632E+08-1.87095E+09
 -1       274 5.74641E+08 4.48915E+08 2.91569E+09-6.99760E+09 1.34455E+09-2.35373E+09
 -1       275 1.92899E+09 2.80116E+08 5.62887E+09-5.36031E+09 2.73155E+09-2.12231E+09
 -1       276 2.88310E+09 1.02332E+08 7.36184E+09-2.27739E+09 3.63552E+09-1.23374E+09
 -1       277 3.14658E+09-2.11884E+07 7.64153E+09 1.38878E+09 3.82253E+09 2.80619E+07
 -1       278 2.64199E+09-5.63214E+07 6.46275E+09 4.42997E+09 3.24276E+09 1.25407E+09
 -1       279 1.45532E+09 1.82447E+07 4.08653E+09 5.48516E+09 2.18429E+09 1.92698E+09
 -1       280 2.07159E+08 3.02690E+08 1.85895E+09 3.08763E+09 9.14965E+08 2.01459E+09
 -1       281 6.53631E+08 2.80104E+08 2.80092E+08-7.32657E+09 3.02001E+03 1.30392E+10
 -1       282-1.03930E+10-4.45417E+09-4.45418E+09-3.39167E+09 2.77769E+03 1.30803E+10
 -1       283 2.62594E+09 3.45247E+09 4.65718E+09-6.96853E+09-2.25040E+08-4.15064E+09
 -1       284 4.27999E+09 6.00998E+08-2.88872E+08-8.20491E+09 4.03486E+08-2.32489E+09
 -1       285 6.56137E+09 1.54032E+07-1.15389E+09-5.62853E+09 7.38368E+08-1.20501E+09
 -1       286 5.79485E+09-5.00464E+08-1.94835E+09-8.36980E+08 9.43769E+08-3.23736E+08
 -1       287 2.13547E+09-6.05691E+08-1.67510E+09 4.36130E+09 9.37187E+08 3.65987E+08
 -1       288-3.62804E+09-4.71773E+08-7.81238E+08 8.27709E+09 7.40576E+08 7.76559E+08
 -1       289-9.64209E+09-1.83833E+08 4.33280E+08 9.73841E+09 4.10167E+08 8.40325E+08
 -1       290-1.37893E+10 1.33985E+08 1.52632E+09 8.41948E+09 3.76817E+07 5.72575E+08
 -1       291-1.43585E+10 3.80171E+08 2.13188E+09 4.88260E+09-2.84192E+08 7.92335E+07
 -1       292-1.06699E+10 4.90050E+08 2.04966E+09 3.56649E+08-4.87358E+08-4.69883E+08
 -1       293-3.36643E+09 4.49798E+08 1.30816E+09-3.68505E+09-5.46155E+08-8.91110E+08
 -1       294 5.71251E+09 2.94672E+08 1.50913E+08-6.00858E+09-4.79775E+08-1.04295E+09
 -1       295 1.40511E+10 9.32361E+07-1.04408E+09-6.01058E+09-3.40509E+08-8.70264E+08
 -1       296 1.92107E+10-7.78683E+07-1.88783E+09-3.89296E+09-1.92304E+08-4.21863E+08
 -1       297 1.95818E+10-1.60474E+08-2.10671E+09-5.68700E+08-8.73079E+07 1.64771E+08
 -1       298 1.48975E+10-1.34113E+08-1.63118E+09 2.66642E+09-4.83837E+07 7.07058E+08
 -1       299 6.34149E+09-2.16722E+07-6.18131E+08 4.58488E+09-6.33206E+07 1.03544E+09
 -1       300-3.78525E+09 1.20195E+08 6.00395E+08 4.45078E+09-9.23777E+07 1.04740E+09
 -1       301-1.27400E+10 2.22509E+08 1.62527E+09 2.27451E+09-8.61873E+07 7.40030E+08
 -1       302-1.81462E+10 2.29822E+08 2.12017E+09-1.18572E+09-7.45886E+06 2.10361E+08
 -1       303-1.86847E+10 1.21381E+08 1.92067E+09-4.67654E+09 1.51359E+08-3.76924E+08
 -1       304-1.44552E+10-8.03917E+07 1.08676E+09-6.87208E+09 3.61017E+08-8.44337E+08
 -1       305-6.90225E+09-3.18268E+08-1.19600E+08-6.82548E+09 5.61220E+08-1.06060E+09
 -1       306 1.66623E+09-5.23745E+08-1.32416E+09-4.29807E+09 6.78968E+08-9.84190E+08
 -1       307 8.81279E+09-6.45350E+08-2.16797E+09 1.45162E+08 6.47760E+08-6.70863E+08
 -1       308 1.27309E+10-6.72069E+08-2.41889E+09 5.29512E+09 4.41065E+08-2.54870E+08
 -1       309 1.27607E+10-6.02069E+08-2.06431E+09 9.66916E+09 6.24786E+07 9.12552E+06
 -1       310 9.56289E+09-5.44825E+08-1.25373E+09 1.20898E+10-3.03274E+08-1.28684E+08
 -1       311 4.78719E+09-5.31176E+08-6.28244E+08 1.20203E+10-9.28415E+08-1.82905E+09
 -1       312 2.25192E+09 1.06485E+09 2.02913E+09 1.25529E+10 1.83921E+08 6.86678E+08
 -1       313-9.27288E+09-1.15332E+09-2.94208E+08 4.96267E+09-4.72520E+08-4.19615E+09
 -1       314 5.15566E+09-2.50151E+08-2.81514E+08 6.74117E+09 4.42313E+08-2.47963E+09
 -1       315 1.60981E+10 1.99335E+09 2.30053E+09 4.90059E+09 7.86982E+08-1.25131E+09
 -1       316 1.91272E+10 2.59040E+09 2.97861E+09 1.06885E+09 9.97396E+08-2.97959E+08
 -1       317 1.44145E+10 2.15039E+09 2.83543E+09-3.28275E+09 9.00955E+08 4.69455E+08
 -1       318 3.63484E+09 7.95477E+08 1.77780E+09-6.70700E+09 5.73011E+08 9.19743E+08
 -1       319-9.45278E+09-9.32766E+08 2.65392E+08-8.21550E+09 1.11352E+08 9.74659E+08
 -1       320-2.03705E+10-2.43905E+09-1.21995E+09-7.48138E+09-3.39330E+08 6.49017E+08
 -1       321-2.52895E+10-3.20188E+09-2.22201E+09-4.89251E+09-6.47654E+08 6.57516E+07
 -1       322-2.22911E+10-2.94982E+09-2.46866E+09-1.37919E+09-7.32670E+08-5.77424E+08
 -1       323-1.20089E+10-1.74340E+09-1.94254E+09 1.91281E+09-5.88323E+08-1.06648E+09
 -1       324 2.54036E+09 4.44177E+07-8.75809E+08 4.00091E+09-2.81886E+08-1.23690E+09
 -1       325 1.68958E+10 1.84840E+09 3.35854E+08 4.37460E+09 7.08457E+07-1.02542E+09
 -1       326 2.65638E+10 3.09283E+09 1.26931E+09 3.13800E+09 3.45549E+08-4.90552E+08
 -1       327 2.84525E+10 3.37709E+09 1.61576E+09 9.44142E+08 4.51112E+08 2.05466E+08
 -1       328 2.18680E+10 2.60521E+09 1.28178E+09-1.25279E+09 3.59468E+08 8.47748E+08
 -1       329 8.75256E+09 1.01762E+09 4.16976E+08-2.54151E+09 1.13809E+08 1.23690E+09
 -1       330-6.91589E+09-8.85131E+08-6.40393E+08-2.37753E+09-1.87331E+08 1.25236E+09
 -1       331-2.03701E+10-2.50226E+09-1.48119E+09-7.77865E+08-4.24685E+08 8.90484E+08
 -1       332-2.75496E+10-3.32456E+09-1.76716E+09 1.67896E+09-4.99926E+08 2.65118E+08
 -1       333-2.63663E+10-3.09619E+09-1.34908E+09 4.04800E+09-3.70461E+08-4.30086E+08
 -1       334-1.73356E+10-1.89380E+09-3.21398E+08 5.34249E+09-6.55866E+07-9.85652E+08
 -1       335-3.37372E+09-9.72888E+07 1.00526E+09 4.87846E+09 3.21026E+08-1.24531E+09
 -1       336 1.11697E+10 1.73743E+09 2.20524E+09 2.52191E+09 6.61458E+08-1.15722E+09
 -1       337 2.19186E+10 3.06033E+09 2.87547E+09-1.24558E+09 8.31326E+08-7.84307E+08
 -1       338 2.58752E+10 3.51385E+09 2.78017E+09-5.46039E+09 7.59387E+08-2.83264E+08
 -1       339 2.24131E+10 3.02581E+09 1.91977E+09-8.97476E+09 4.34770E+08 6.30593E+07
 -1       340 1.36969E+10 1.97208E+09 7.41543E+08-1.09898E+10 3.06604E+07-2.98498E+07
 -1       341 5.27148E+09 1.54785E+09 1.40751E+08-1.09770E+10-6.58478E+08-1.75017E+09
 -1       342 3.34726E+09 4.53002E+09 3.39728E+09-1.08550E+10-2.21415E+08 7.23618E+08
 -1       343 9.27288E+09 1.15332E+09 2.94208E+08 4.96267E+09 4.72520E+08-4.19615E+09
 -1       344-5.15566E+09 2.50151E+08 2.81514E+08 6.74117E+09-4.42313E+08-2.47963E+09
 -1       345-1.60981E+10-1.99335E+09-2.30053E+09 4.90059E+09-7.86982E+08-1.25131E+09
 -1       346-1.91272E+10-2.59040E+09-2.97861E+09 1.06885E+09-9.97396E+08-2.97959E+08
 -1       347-1.44145E+10-2.15039E+09-2.83543E+09-3.28275E+09-9.00955E+08 4.69455E+08
 -1       348-3.63484E+09-7.95477E+08-1.77780E+09-6.70700E+09-5.73011E+08 9.19743E+08
 -1       349 9.45278E+09 9.32766E+08-2.65392E+08-8.21550E+09-1.11352E+08 9.74659E+08
 -1       350 2.03705E+10 2.43905E+09 1.21995E+09-7.48138E+09 3.39330E+08 6.49017E+08
 -1       351 2.52895E+10 3.20188E+09 2.22201E+09-4.89251E+09 6.47654E+08 6.57516E+07
 -1       352 2.22911E+10 2.94982E+09 2.46866E+09-1.37919E+09 7.32670E+08-5.77424E+08
 -1       353 1.20089E+10 1.74340E+09 1.94254E+09 1.91281E+09 5.88323E+08-1.06648E+09
 -1       354-2.54036E+09-4.44177E+07 8.75809E+08 4.00091E+09 2.81886E+08-1.23690E+09
 -1       355-1.68958E+10-1.84840E+09-3.35854E+08 4.37460E+09-7.08457E+07-1.02542E+09
 -1       356-2.65638E+10-3.09283E+09-1.26931E+09 3.13800E+09-3.45549E+08-4.90552E+08
 -1       357-2.84525E+10-3.37709E+09-1.61576E+09 9.44142E+08-4.51112E+08 2.05466E+08
 -1       358-2.18680E+10-2.60521E+09-1.28178E+09-1.25279E+09-3.59468E+08 8.47748E+08
 -1       359-8.75256E+09-1.01762E+09-4.16976E+08-2.54151E+09-1.13809E+08 1.23690E+09
 -1       360 6.91589E+09 8.85131E+08 6.40393E+08-2.37753E+09 1.87331E+08 1.25236E+09
 -1       361 2.03701E+10 2.50226E+09 1.48119E+09-7.77865E+08 4.24685E+08 8.90484E+08
 -1       362 2.75496E+10 3.32456E+09 1.76716E+09 1.67896E+09 4.99926E+08 2.65118E+08
 -1       363 2.63663E+10 3.09619E+09 1.34908E+09 4.04800E+09 3.70461E+08-4.30086E+08
 -1       364 1.73356E+10 1.89380E+09 3.21398E+08 5.34249E+09 6.55866E+07-9.85652E+08
 -1       365 3.37372E+09 9.72888E+07-1.00526E+09 4.87846E+09-3.21026E+08-1.24531E+09
 -1       366-1.11697E+10-1.73743E+09-2.20524E+09 2.52191E+09-6.61458E+08-1.15722E+09
 -1       367-2.19186E+10-3.06033E+09-2.87547E+09-1.24558E+09-8.31326E+08-7.84307E+08
 -1       368-2.58752E+10-3.51385E+09-2.78017E+09-5.46039E+09-7.59387E+08-2.83264E+08
 -1       369-2.24131E+10-3.02581E+09-1.91977E+09-8.97476E+09-4.34770E+08 6.30593E+07
 -1       370-1.36969E+10-1.97208E+09-7.41543E+08-1.09898E+10-3.06604E+07-2.98498E+07
 -1       371-5.27148E+09-1.54785E+09-1.40751E+08-1.09770E+10 6.58478E+08-1.75017E+09
 -1       372-2.62594E+09-3.45247E+09-4.65718E+09-6.96853E+09 2.25040E+08-4.15064E+09
 -1       373-4.27999E+09-6.00998E+08 2.88872E+08-8.20491E+09-4.03486E+08-2.32489E+09
 -1       374-6.56137E+09-1.54032E+07 1.15389E+09-5.62853E+09-7.38368E+08-1.20501E+09
 -1       375-5.79485E+09 5.00464E+08 1.94835E+09-8.36980E+08-9.43769E+08-3.23736E+08
 -1       376-2.13547E+09 6.05691E+08 1.67510E+09 4.36130E+09-9.37187E+08 3.65987E+08
 -1       377 3.62804E+09 4.71773E+08 7.81238E+08 8.27709E+09-7.40576E+08 7.76559E+08
 -1       378 9.64209E+09 1.83833E+08-4.33280E+08 9.73841E+09-4.10167E+08 8.40325E+08
 -1       379 1.37893E+10-1.33985E+08-1.52632E+09 8.41948E+09-3.76817E+07 5.72575E+08
 -1       380 1.43585E+10-3.80171E+08-2.13188E+09 4.88260E+09 2.84192E+08 7.92335E+07
 -1       381 1.06699E+10-4.90050E+08-2.04966E+09 3.56649E+08 4.87358E+08-4.69883E+08
 -1       382 3.36643E+09-4.49798E+08-1.30816E+09-3.68505E+09 5.46155E+08-8.91110E+08
 -1       383-5.71251E+09-2.94672E+08-1.50913E+08-6.00858E+09 4.79775E+08-1.04295E+09
 -1       384-1.40511E+10-9.32361E+07 1.04408E+09-6.01058E+09 3.40509E+08-8.70264E+08
 -1       385-1.92107E+10 7.78683E+07 1.88783E+09-3.89296E+09 1.92304E+08-4.21863E+08
 -1       386-1.95818E+10 1.60474E+08 2.10671E+09-5.68700E+08 8.73079E+07 1.64771E+08
 -1       387-1.48975E+10 1.34113E+08 1.63118E+09 2.66642E+09 4.83837E+07 7.07058E+08
 -1       388-6.34149E+09 2.16722E+07 6.18131E+08 4.58488E+09 6.33206E+07 1.03544E+09
 -1       389 3.78525E+09-1.20195E+08-6.00395E+08 4.45078E+09 9.23777E+07 1.04740E+09
 -1       390 1.27400E+10-2.22509E+08-1.62527E+09 2.27451E+09 8.61873E+07 7.40030E+08
 -1       391 1.81462E+10-2.29822E+08-2.12017E+09-1.18572E+09 7.45886E+06 2.10361E+08
 -1       392 1.86847E+10-1.21381E+08-1.92067E+09-4.67654E+09-1.51359E+08-3.76924E+08
 -1       393 1.44552E+10 8.03917E+07-1.08676E+09-6.87208E+09-3.61017E+08-8.44337E+08
 -1       394 6.90225E+09 3.18268E+08 1.19600E+08-6.82548E+09-5.61220E+08-1.06060E+09
 -1       395-1.66623E+09 5.23745E+08 1.32416E+09-4.29807E+09-6.78968E+08-9.84190E+08
 -1       396-8.81279E+09 6.45350E+08 2.16797E+09 1.45162E+08-6.47760E+08-6.70863E+08
 -1       397-1.27309E+10 6.72069E+08 2.41889E+09 5.29512E+09-4.41065E+08-2.54870E+08
 -1       398-1.27607E+10 6.02069E+08 2.06431E+09 9.66916E+09-6.24786E+07 9.12552E+06
 -1       399-9.56289E+09 5.44825E+08 1.25373E+09 1.20898E+10 3.03274E+08-1.28684E+08
 -1       400-4.78719E+09 5.31176E+08 6.28244E+08 1.20203E+10 9.28415E+08-1.82905E+09
 -1       401 1.03930E+10 4.45417E+09 4.45418E+09-3.39167E+09-2.77769E+03 1.30803E+10
 -1       402-6.53631E+08-2.80104E+08-2.80092E+08-7.32657E+09-3.02001E+03 1.30392E+10
 -1       403-3.34726E+09-4.53002E+09-3.39728E+09-1.08550E+10 2.21415E+08 7.23618E+08
 -1       404-2.07159E+08-3.02690E+08-1.85895E+09 3.08763E+09-9.14965E+08 2.01459E+09
 -1       405-1.45532E+09-1.82447E+07-4.08653E+09 5.48516E+09-2.18429E+09 1.92698E+09
 -1       406-2.64199E+09 5.63214E+07-6.46275E+09 4.42997E+09-3.24276E+09 1.25407E+09
 -1       407-3.14658E+09 2.11884E+07-7.64153E+09 1.38878E+09-3.82253E+09 2.80619E+07
 -1       408-2.88310E+09-1.02332E+08-7.36184E+09-2.27739E+09-3.63552E+09-1.23374E+09
 -1       409-1.92899E+09-2.80116E+08-5.62887E+09-5.36031E+09-2.73155E+09-2.12231E+09
 -1       410-5.74641E+08-4.48915E+08-2.91569E+09-6.99760E+09-1.34455E+09-2.35373E+09
 -1       411 7.80202E+08-5.39694E+08 5.34338E+07-6.85352E+09 1.48632E+08-1.87095E+09
 -1       412 1.75494E+09-5.02593E+08 2.53436E+09-5.14982E+09 1.36986E+09-8.46685E+08
 -1       413 2.10834E+09-3.23012E+08 3.99572E+09-2.54452E+09 2.05278E+09 3.76967E+08
 -1       414 1.80749E+09-3.02963E+07 4.25988E+09 1.09911E+08 2.11651E+09 1.40297E+09
 -1       415 1.02733E+09 3.08122E+08 3.52146E+09 2.05083E+09 1.67304E+09 1.90869E+09
 -1       416 8.28087E+07 6.04654E+08 2.24455E+09 2.84162E+09 9.72463E+08 1.74926E+09
 -1       417-6.82222E+08 7.76790E+08 9.80101E+08 2.48687E+09 3.06652E+08 1.00191E+09
 -1       418-1.01189E+09 7.71890E+08 1.67677E+08 1.39391E+09-9.45607E+07-6.26709E+07
 -1       419-8.22361E+08 5.83798E+08-1.12127E+07 1.98890E+08-1.39850E+08-1.07212E+09
 -1       420-2.25722E+08 2.55990E+08 3.19928E+08-4.79869E+08 9.96244E+07-1.67684E+09
 -1       421 5.13576E+08-1.29943E+08 7.98753E+08-2.75618E+08 4.25642E+08-1.66648E+09
 -1       422 1.07449E+09-4.77109E+08 9.78099E+08 7.86602E+08 5.94466E+08-1.04008E+09
 -1       423 1.19488E+09-7.00567E+08 5.12560E+08 2.29150E+09 4.15546E+08-6.93851E+06
 -1       424 7.67581E+08-7.50757E+08-6.88711E+08 3.57682E+09-1.67376E+08 1.08200E+09
 -1       425-1.15272E+08-6.26084E+08-2.39740E+09 3.96980E+09-1.04129E+09 1.85004E+09
 -1       426-1.18469E+09-3.70821E+08-4.11243E+09 3.03548E+09-1.94738E+09 2.01954E+09
 -1       427-2.07647E+09-5.95265E+07-5.20199E+09 7.49779E+08-2.55486E+09 1.50428E+09
 -1       428-2.44493E+09 2.29330E+08-5.09307E+09-2.46402E+09-2.56106E+09 4.39346E+08
 -1       429-2.08334E+09 4.27343E+08-3.47692E+09-5.86839E+09-1.79777E+09-8.66876E+08
 -1       430-9.98522E+08 5.34771E+08-4.41006E+08-8.65128E+09-2.92883E+08-2.02205E+09
 -1       431 4.67850E+08 4.93152E+08 3.23011E+09-1.03909E+10 1.53713E+09-2.72123E+09
 -1       432 1.71610E+09 3.45190E+08 6.40938E+09-1.13052E+10 3.43606E+09-2.76266E+09
 -1       433-2.25192E+09-1.06485E+09-2.02913E+09 1.25529E+10-1.83921E+08 6.86678E+08
 -1       434 1.03930E+10 4.45417E+09 4.45418E+09-3.39167E+09 2.77769E+03-1.30803E+10
 -1       435-6.53631E+08-2.80104E+08-2.80092E+08-7.32657E+09 3.02001E+03-1.30392E+10
 -1       436 1.71610E+09 3.45190E+08 6.40938E+09-1.13052E+10-3.43606E+09 2.76266E+09
 -1       437 4.67850E+08 4.93152E+08 3.23011E+09-1.03909E+10-1.53713E+09 2.72123E+09
 -1       438-9.98522E+08 5.34771E+08-4.41006E+08-8.65128E+09 2.92883E+08 2.02205E+09
 -1       439-2.08334E+09 4.27343E+08-3.47692E+09-5.86839E+09 1.79777E+09 8.66876E+08
 -1       440-2.44493E+09 2.29330E+08-5.09307E+09-2.46402E+09 2.56106E+09-4.39346E+08
 -1       441-2.07647E+09-5.95265E+07-5.20199E+09 7.49779E+08 2.55486E+09-1.50428E+09
 -1       442-1.18469E+09-3.70821E+08-4.11243E+09 3.03548E+09 1.94738E+09-2.01954E+09
 -1       443-1.15272E+08-6.26084E+08-2.39740E+09 3.96980E+09 1.04129E+09-1.85004E+09
 -1       444 7.67581E+08-7.50757E+08-6.88711E+08 3.57682E+09 1.67376E+08-1.08200E+09
 -1       445 1.19488E+09-7.00567E+08 5.12560E+08 2.29150E+09-4.15546E+08 6.93851E+06
 -1       446 1.07449E+09-4.77109E+08 9.78099E+08 7.86602E+08-5.94466E+08 1.04008E+09
 -1       447 5.13576E+08-1.29943E+08 7.98753E+08-2.75618E+08-4.25642E+08 1.66648E+09
 -1       448-2.25722E+08 2.55990E+08 3.19928E+08-4.79869E+08-9.96244E+07 1.67684E+09
 -1       449-8.22361E+08 5.83798E+08-1.12127E+07 1.98890E+08 1.39850E+08 1.07212E+09
 -1       450-1.01189E+09 7.71890E+08 1.67677E+08 1.39391E+09 9.45607E+07 6.26709E+07
 -1       451-6.82222E+08 7.76790E+08 9.80101E+08 2.48687E+09-3.06652E+08-1.00191E+09
 -1       452 8.28087E+07 6.04654E+08 2.24455E+09 2.84162E+09-9.72463E+08-1.74926E+09
 -1       453 1.02733E+09 3.08122E+08 3.52146E+09 2.05083E+09-1.67304E+09-1.90869E+09
 -1       454 1.80749E+09-3.02963E+07 4.25988E+09 1.09911E+08-2.11651E+09-1.40297E+09
 -1       455 2.10834E+09-3.23012E+08 3.99572E+09-2.54452E+09-2.05278E+09-3.76967E+08
 -1       456 1.75494E+09-5.02593E+08 2.53436E+09-5.14982E+09-1.36986E+09 8.46685E+08
 -1       457 7.80202E+08-5.39694E+08 5.34338E+07-6.85352E+09-1.48632E+08 1.87095E+09
 -1       458-5.74641E+08-4.48915E+08-2.91569E+09-6.99760E+09 1.34455E+09 2.35373E+09
 -1       459-1.92899E+09-2.80116E+08-5.62887E+09-5.36031E+09 2.73155E+09 2.12231E+09
 -1       460-2.88310E+09-1.02332E+08-7.36184E+09-2.27739E+09 3.63552E+09 1.23374E+09
 -1       461-3.14658E+09 2.11884E+07-7.64153E+09 1.38878E+09 3.82253E+09-2.80619E+07
 -1       462-2.64199E+09 5.63214E+07-6.46275E+09 4.42997E+09 3.24276E+09-1.25407E+09
 -1       463-1.45532E+09-1.82447E+07-4.08653E+09 5.48516E+09 2.18429E+09-1.92698E+09
 -1       464-2.07159E+08-3.02690E+08-1.85895E+09 3.08763E+09 9.14965E+08-2.01459E+09
 -1       465-3.34726E+09-4.53002E+09-3.39728E+09-1.08550E+10-2.21415E+08-7.23618E+08
 -1       466 9.27288E+09 1.15332E+09 2.94208E+08 4.96267E+09-4.72520E+08 4.19615E+09
 -1       467-5.15566E+09 2.50151E+08 2.81514E+08 6.74117E+09 4.42313E+08 2.47963E+09
 -1       468-1.60981E+10-1.99335E+09-2.30053E+09 4.90059E+09 7.86982E+08 1.25131E+09
 -1       469-1.91272E+10-2.59040E+09-2.97861E+09 1.06885E+09 9.97396E+08 2.97959E+08
 -1       470-1.44145E+10-2.15039E+09-2.83543E+09-3.28275E+09 9.00955E+08-4.69455E+08
 -1       471-3.63484E+09-7.95477E+08-1.77780E+09-6.70700E+09 5.73011E+08-9.19743E+08
 -1       472 9.45278E+09 9.32766E+08-2.65392E+08-8.21550E+09 1.11352E+08-9.74659E+08
 -1       473 2.03705E+10 2.43905E+09 1.21995E+09-7.48138E+09-3.39330E+08-6.49017E+08
 -1       474 2.52895E+10 3.20188E+09 2.22201E+09-4.89251E+09-6.47654E+08-6.57516E+07
 -1       475 2.22911E+10 2.94982E+09 2.46866E+09-1.37919E+09-7.32670E+08 5.77424E+08
 -1       476 1.20089E+10 1.74340E+09 1.94254E+09 1.91281E+09-5.88323E+08 1.06648E+09
 -1       477-2.54036E+09-4.44177E+07 8.75809E+08 4.00091E+09-2.81886E+08 1.23690E+09
 -1       478-1.68958E+10-1.84840E+09-3.35854E+08 4.37460E+09 7.08457E+07 1.02542E+09
 -1       479-2.65638E+10-3.09283E+09-1.26931E+09 3.13800E+09 3.45549E+08 4.90552E+08
 -1       480-2.84525E+10-3.37709E+09-1.61576E+09 9.44142E+08 4.51112E+08-2.05466E+08
 -1       481-2.18680E+10-2.60521E+09-1.28178E+09-1.25279E+09 3.59468E+08-8.47748E+08
 -1       482-8.75256E+09-1.01762E+09-4.16976E+08-2.54151E+09 1.13809E+08-1.23690E+09
 -1       483 6.91589E+09 8.85131E+08 6.40393E+08-2.37753E+09-1.87331E+08-1.25236E+09
 -1       484 2.03701E+10 2.50226E+09 1.48119E+09-7.77865E+08-4.24685E+08-8.90484E+08
 -1       485 2.75496E+10 3.32456E+09 1.76716E+09 1.67896E+09-4.99926E+08-2.65118E+08
 -1       486 2.63663E+10 3.09619E+09 1.34908E+09 4.04800E+09-3.70461E+08 4.30086E+08
 -1       487 1.73356E+10 1.89380E+09 3.21398E+08 5.34249E+09-6.55866E+07 9.85652E+08
 -1       488 3.37372E+09 9.72888E+07-1.00526E+09 4.87846E+09 3.21026E+08 1.24531E+09
 -1       489-1.11697E+10-1.73743E+09-2.20524E+09 2.52191E+09 6.61458E+08 1.15722E+09
 -1       490-2.19186E+10-3.06033E+09-2.87547E+09-1.24558E+09 8.31326E+08 7.84307E+08
 -1       491-2.58752E+10-3.51385E+09-2.78017E+09-5.46039E+09 7.59387E+08 2.83264E+08
 -1       492-2.24131E+10-3.02581E+09-1.91977E+09-8.97476E+09 4.34770E+08-6.30593E+07
 -1       493-1.36969E+10-1.97208E+09-7.41543E+08-1.09898E+10 3.06604E+07 2.98498E+07
 -1       494-5.27148E+09-1.54785E+09-1.40751E+08-1.09770E+10-6.58478E+08 1.75017E+09
 -1       495-2.62594E+09-3.45247E+09-4.65718E+09-6.96853E+09-2.25040E+08 4.15064E+09
 -1       496-4.27999E+09-6.00998E+08 2.88872E+08-8.20491E+09 4.03486E+08 2.32489E+09
 -1       497-6.56137E+09-1.54032E+07 1.15389E+09-5.62853E+09 7.38368E+08 1.20501E+09
 -1       498-5.79485E+09 5.00464E+08 1.94835E+09-8.36980E+08 9.43769E+08 3.23736E+08
 -1       499-2.13547E+09 6.05691E+08 1.67510E+09 4.36130E+09 9.37187E+08-3.65987E+08
 -1       500 3.62804E+09 4.71773E+08 7.81238E+08 8.27709E+09 7.40576E+08-7.76559E+08
 -1       501 9.64209E+09 1.83833E+08-4.33280E+08 9.73841E+09 4.10167E+08-8.40325E+08
 -1       502 1.37893E+10-1.33985E+08-1.52632E+09 8.41948E+09 3.76817E+07-5.72575E+08
 -1       503 1.43585E+10-3.80171E+08-2.13188E+09 4.88260E+09-2.84192E+08-7.92335E+07
 -1       504 1.06699E+10-4.90050E+08-2.04966E+09 3.56649E+08-4.87358E+08 4.69883E+08
 -1       505 3.36643E+09-4.49798E+08-1.30816E+09-3.68505E+09-5.46155E+08 8.91110E+08
 -1       506-5.71251E+09-2.94672E+08-1.50913E+08-6.00858E+09-4.79775E+08 1.04295E+09
 -1       507-1.40511E+10-9.32361E+07 1.04408E+09-6.01058E+09-3.40509E+08 8.70264E+08
 -1       508-1.92107E+10 7.78683E+07 1.88783E+09-3.89296E+09-1.92304E+08 4.21863E+08
 -1       509-1.95818E+10 1.60474E+08 2.10671E+09-5.68700E+08-8.73079E+07-1.64771E+08
 -1       510-1.48975E+10 1.34113E+08 1.63118E+09 2.66642E+09-4.83837E+07-7.07058E+08
 -1       511-6.34149E+09 2.16722E+07 6.18131E+08 4.58488E+09-6.33206E+07-1.03544E+09
 -1       512 3.78525E+09-1.20195E+08-6.00395E+08 4.45078E+09-9.23777E+07-1.04740E+09
 -1       513 1.27400E+10-2.22509E+08-1.62527E+09 2.27451E+09-8.61873E+07-7.40030E+08
 -1       514 1.81462E+10-2.29822E+08-2.12017E+09-1.18572E+09-7.45886E+06-2.10361E+08
 -1       515 1.86847E+10-1.21381E+08-1.92067E+09-4.67654E+09 1.51359E+08 3.76924E+08
 -1       516 1.44552E+10 8.03917E+07-1.08676E+09-6.87208E+09 3.61017E+08 8.44337E+08
 -1       517 6.90225E+09 3.18268E+08 1.19600E+08-6.82548E+09 5.61220E+08 1.06060E+09
 -1       518-1.66623E+09 5.23745E+08 1.32416E+09-4.29807E+09 6.78968E+08 9.84190E+08
 -1       519-8.81279E+09 6.45350E+08 2.16797E+09 1.45162E+08 6.47760E+08 6.70863E+08
 -1       520-1.27309E+10 6.72069E+08 2.41889E+09 5.29512E+09 4.41065E+08 2.54870E+08
 -1       521-1.27607E+10 6.02069E+08 2.06431E+09 9.66916E+09 6.24786E+07-9.12552E+06
 -1       522-9.56289E+09 5.44825E+08 1.25373E+09 1.20898E+10-3.03274E+08 1.28684E+08
 -1       523-4.78719E+09 5.31176E+08 6.28244E+08 1.20203E+10-9.28415E+08 1.82905E+09
 -1       524-2.25192E+09-1.06485E+09-2.02913E+09 1.25529E+10 1.83921E+08-6.86678E+08
 -1       525-2.98907E+09-8.40570E+08 1.87171E+08 6.31569E+09 7.16693E+08-1.93965E+09
 -1       526 3.23978E+09 2.77091E+09 5.99657E+09 4.89436E+09 2.44465E+09-2.52449E+09
 -1       527 7.81447E+09 5.60167E+09 1.08578E+10 2.75954E+09 4.24297E+09-1.77214E+09
 -1       528 9.73629E+09 6.83840E+09 1.30584E+10 2.34461E+08 5.02332E+09-2.52970E+08
 -1       529 8.67216E+09 6.17006E+09 1.18947E+10-2.12959E+09 4.44940E+09 1.40218E+09
 -1       530 5.12208E+09 3.86686E+09 7.76746E+09-3.66539E+09 2.69742E+09 2.63487E+09
 -1       531 2.92524E+08 6.80840E+08 1.97694E+09-3.97137E+09 3.24676E+08 3.07698E+09
 -1       532-4.28904E+09-2.40718E+09-3.73489E+09-2.99703E+09-1.93761E+09 2.63228E+09
 -1       533-7.23959E+09-4.49414E+09-7.74088E+09-1.08657E+09-3.42303E+09 1.48683E+09
 -1       534-7.74566E+09-5.03286E+09-9.03054E+09 1.12644E+09-3.73603E+09 3.65092E+07
 -1       535-5.80267E+09-3.99062E+09-7.49940E+09 2.92157E+09-2.86743E+09-1.24716E+09
 -1       536-2.19187E+09-1.83939E+09-3.93941E+09 3.72314E+09-1.18474E+09-1.97106E+09
 -1       537 1.79522E+09 6.16360E+08 2.59317E+08 3.28498E+09 6.98504E+08-1.94514E+09
 -1       538 4.79301E+09 2.51565E+09 3.59248E+09 1.76771E+09 2.13074E+09-1.23790E+09
 -1       539 5.81498E+09 3.22929E+09 4.94933E+09-3.16126E+08 2.63914E+09-1.45674E+08
 -1       540 4.57543E+09 2.56567E+09 3.97682E+09-2.27124E+09 2.08385E+09 9.12887E+08
 -1       541 1.57565E+09 8.27113E+08 1.18139E+09-3.44762E+09 6.99674E+08 1.54174E+09
 -1       542-2.07264E+09-1.30055E+09-2.26254E+09-3.45330E+09-9.87902E+08 1.50334E+09
 -1       543-5.02726E+09-2.98766E+09-4.93162E+09-2.28274E+09-2.34412E+09 8.00556E+08
 -1       544-6.17293E+09-3.54955E+09-5.65891E+09-3.19004E+08-2.84355E+09-3.22765E+08
 -1       545-5.00496E+09-2.68816E+09-3.95556E+09 1.79104E+09-2.25339E+09-1.46279E+09
 -1       546-1.81149E+09-6.05358E+08-2.06373E+08 3.34823E+09-7.19670E+08-2.19195E+09
 -1       547 2.40802E+09 2.05127E+09 4.42956E+09 3.83189E+09 1.27409E+09-2.20549E+09
 -1       548 6.26601E+09 4.39517E+09 8.38457E+09 3.07763E+09 3.06575E+09-1.42864E+09
 -1       549 8.45217E+09 5.59473E+09 1.01969E+10 1.34740E+09 4.03577E+09-4.52856E+07
 -1       550 8.19431E+09 5.15947E+09 9.00393E+09-7.31508E+08 3.80816E+09 1.56930E+09
 -1       551 5.54181E+09 3.10981E+09 4.82421E+09-2.38050E+09 2.31775E+09 3.00175E+09
 -1       552 1.39663E+09-1.79294E+07-1.45640E+09-2.86170E+09-3.06448E+08 3.98840E+09
 -1       553-2.88372E+09-3.43007E+09-8.54986E+09-2.00080E+09-4.16598E+09 4.51865E+09
 -1       554-3.89953E+09-1.15072E+09 6.38162E+07 6.48455E+09 2.94876E-03 7.82868E-03
 -1       555 3.79242E+09 3.30312E+09 7.21800E+09 5.13889E+09 5.05924E-03 9.98750E-03
 -1       556 9.65409E+09 6.90434E+09 1.33604E+10 2.85382E+09 7.81441E-03 1.54719E-04
 -1       557 1.21212E+10 8.47014E+09 1.61126E+10 3.29198E+08 9.86481E-03-4.74967E-03
 -1       558 1.08094E+10 7.62605E+09 1.46107E+10-1.88372E+09-2.89536E-03-6.69841E-03
 -1       559 6.38771E+09 4.73651E+09 9.40065E+09-3.30914E+09-1.18256E-03-1.05246E-02
 -1       560 3.63604E+08 7.50312E+08 2.13744E+09-3.59092E+09 8.07667E-03-5.77316E-03
 -1       561-5.35153E+09-3.09829E+09-4.97611E+09-2.70014E+09 5.75829E-03-4.51776E-03
 -1       562-9.03157E+09-5.67823E+09-9.89587E+09-9.57105E+08 5.85556E-03-5.50540E-03
 -1       563-9.66207E+09-6.30814E+09-1.13651E+10 1.05875E+09 9.15527E-04 2.45116E-03
 -1       564-7.23753E+09-4.95380E+09-9.27514E+09 2.69015E+09-2.34604E-03 1.17383E-02
 -1       565-2.73264E+09-2.21477E+09-4.64993E+09 3.41262E+09-2.95734E-03 1.09749E-02
 -1       566 2.24142E+09 8.92894E+08 7.34898E+08 3.00264E+09-6.07491E-03 4.77161E-03
 -1       567 5.98106E+09 3.28418E+09 4.96622E+09 1.60797E+09-4.05836E-03-1.81031E-03
 -1       568 7.25559E+09 4.16781E+09 6.63710E+09-3.02669E+08-3.38554E-04-6.02458E-04
 -1       569 5.70865E+09 3.30486E+09 5.30756E+09-2.09398E+09-6.69909E-03 1.03360E-02
 -1       570 1.96562E+09 1.07941E+09 1.63242E+09-3.17219E+09-8.32379E-03 1.74388E-02
 -1       571-2.58655E+09-1.64088E+09-2.88303E+09-3.17914E+09-1.31438E-02 1.67580E-02
 -1       572-6.27337E+09-3.80676E+09-6.41583E+09-2.10942E+09-1.93338E-02 1.31317E-02
 -1       573-7.70348E+09-4.55137E+09-7.46777E+09-3.12453E+08-1.66974E-02 1.03815E-02
 -1       574-6.24746E+09-3.49490E+09-5.40219E+09 1.62108E+09-1.03779E-02 1.19775E-02
 -1       575-2.26548E+09-8.87801E+08-6.93858E+08 3.05213E+09-1.31048E-02 1.40198E-02
 -1       576 2.99481E+09 2.45723E+09 5.19595E+09 3.50523E+09-1.39365E-02 1.40848E-02
 -1       577 7.80371E+09 5.42650E+09 1.02846E+10 2.83519E+09 1.49727E-04 1.21828E-02
 -1       578 1.05347E+10 6.97767E+09 1.27242E+10 1.29846E+09 8.49152E-03 4.87111E-03
 -1       579 1.02431E+10 6.50043E+09 1.14250E+10-4.95106E+08 7.27463E-03-3.79488E-03
 -1       580 7.03728E+09 4.03379E+09 6.40868E+09-1.74911E+09 1.12152E-03-8.69378E-03
 -1       581 2.00184E+09 2.04754E+08-1.31932E+09-1.91383E+09-3.95799E-03-1.51762E-02
 -1       582-3.38427E+09-4.13783E+09-1.04085E+10-9.66198E+08-6.25420E-03-1.30008E-02
 -1       583-2.98907E+09-8.40570E+08 1.87171E+08 6.31569E+09-7.16693E+08 1.93965E+09
 -1       584 3.23978E+09 2.77091E+09 5.99657E+09 4.89436E+09-2.44465E+09 2.52449E+09
 -1       585 7.81447E+09 5.60167E+09 1.08578E+10 2.75954E+09-4.24297E+09 1.77214E+09
 -1       586 9.73629E+09 6.83840E+09 1.30584E+10 2.34461E+08-5.02332E+09 2.52970E+08
 -1       587 8.67216E+09 6.17006E+09 1.18947E+10-2.12959E+09-4.44940E+09-1.40218E+09
 -1       588 5.12208E+09 3.86686E+09 7.76746E+09-3.66539E+09-2.69742E+09-2.63487E+09
 -1       589 2.92524E+08 6.80840E+08 1.97694E+09-3.97137E+09-3.24676E+08-3.07698E+09
 -1       590-4.28904E+09-2.40718E+09-3.73489E+09-2.99703E+09 1.93761E+09-2.63228E+09
 -1       591-7.23959E+09-4.49414E+09-7.74088E+09-1.08657E+09 3.42303E+09-1.48683E+09
 -1       592-7.74566E+09-5.03286E+09-9.03054E+09 1.12644E+09 3.73603E+09-3.65092E+07
 -1       593-5.80267E+09-3.99062E+09-7.49940E+09 2.92157E+09 2.86743E+09 1.24716E+09
 -1       594-2.19187E+09-1.83939E+09-3.93941E+09 3.72314E+09 1.18474E+09 1.97106E+09
 -1       595 1.79522E+09 6.16360E+08 2.59317E+08 3.28498E+09-6.98504E+08 1.94514E+09
 -1       596 4.79301E+09 2.51565E+09 3.59248E+09 1.76771E+09-2.13074E+09 1.23790E+09
 -1       597 5.81498E+09 3.22929E+09 4.94933E+09-3.16126E+08-2.63914E+09 1.45674E+08
 -1       598 4.57543E+09 2.56567E+09 3.97682E+09-2.27124E+09-2.08385E+09-9.12887E+08
 -1       599 1.57565E+09 8.27113E+08 1.18139E+09-3.44762E+09-6.99674E+08-1.54174E+09
 -1       600-2.07264E+09-1.30055E+09-2.26254E+09-3.45330E+09 9.87902E+08-1.50334E+09
 -1       601-5.02726E+09-2.98766E+09-4.93162E+09-2.28274E+09 2.34412E+09-8.00556E+08
 -1       602-6.17293E+09-3.54955E+09-5.65891E+09-3.19004E+08 2.84355E+09 3.22765E+08
 -1       603-5.00496E+09-2.68816E+09-3.95556E+09 1.79104E+09 2.25339E+09 1.46279E+09
 -1       604-1.81149E+09-6.05358E+08-2.06373E+08 3.34823E+09 7.19670E+08 2.19195E+09
 -1       605 2.40802E+09 2.05127E+09 4.42956E+09 3.83189E+09-1.27409E+09 2.20549E+09
 -1       606 6.26601E+09 4.39517E+09 8.38457E+09 3.07763E+09-3.06575E+09 1.42864E+09
 -1       607 8.45217E+09 5.59473E+09 1.01969E+10 1.34740E+09-4.03577E+09 4.52856E+07
 -1       608 8.19431E+09 5.15947E+09 9.00393E+09-7.31508E+08-3.80816E+09-1.56930E+09
 -1       609 5.54181E+09 3.10981E+09 4.82421E+09-2.38050E+09-2.31775E+09-3.00175E+09
 -1       610 1.39663E+09-1.79294E+07-1.45640E+09-2.86170E+09 3.06448E+08-3.98840E+09
 -1       611-2.88372E+09-3.43007E+09-8.54986E+09-2.00080E+09 4.16598E+09-4.51865E+09
 -1       612 2.98907E+09 8.40570E+08-1.87171E+08 6.31569E+09-7.16693E+08-1.93965E+09
 -1       613-3.23978E+09-2.77091E+09-5.99657E+09 4.89436E+09-2.44465E+09-2.52449E+09
 -1       614-7.81447E+09-5.60167E+09-1.08578E+10 2.75954E+09-4.24297E+09-1.77214E+09
 -1       615-9.73629E+09-6.83840E+09-1.30584E+10 2.34461E+08-5.02332E+09-2.52970E+08
 -1       616-8.67216E+09-6.17006E+09-1.18947E+10-2.12959E+09-4.44940E+09 1.40218E+09
 -1       617-5.12208E+09-3.86686E+09-7.76746E+09-3.66539E+09-2.69742E+09 2.63487E+09
 -1       618-2.92524E+08-6.80840E+08-1.97694E+09-3.97137E+09-3.24676E+08 3.07698E+09
 -1       619 4.28904E+09 2.40718E+09 3.73489E+09-2.99703E+09 1.93761E+09 2.63228E+09
 -1       620 7.23959E+09 4.49414E+09 7.74088E+09-1.08657E+09 3.42303E+09 1.48683E+09
 -1       621 7.74566E+09 5.03286E+09 9.03054E+09 1.12644E+09 3.73603E+09 3.65092E+07
 -1       622 5.80267E+09 3.99062E+09 7.49940E+09 2.92157E+09 2.86743E+09-1.24716E+09
 -1       623 2.19187E+09 1.83939E+09 3.93941E+09 3.72314E+09 1.18474E+09-1.97106E+09
 -1       624-1.79522E+09-6.16360E+08-2.59317E+08 3.28498E+09-6.98504E+08-1.94514E+09
 -1       625-4.79301E+09-2.51565E+09-3.59248E+09 1.76771E+09-2.13074E+09-1.23790E+09
 -1       626-5.81498E+09-3.22929E+09-4.94933E+09-3.16126E+08-2.63914E+09-1.45674E+08
 -1       627-4.57543E+09-2.56567E+09-3.97682E+09-2.27124E+09-2.08385E+09 9.12887E+08
 -1       628-1.57565E+09-8.27113E+08-1.18139E+09-3.44762E+09-6.99674E+08 1.54174E+09
 -1       629 2.07264E+09 1.30055E+09 2.26254E+09-3.45330E+09 9.87902E+08 1.50334E+09
 -1       630 5.02726E+09 2.98766E+09 4.93162E+09-2.28274E+09 2.34412E+09 8.00556E+08
 -1       631 6.17293E+09 3.54955E+09 5.65891E+09-3.19004E+08 2.84355E+09-3.22765E+08
 -1       632 5.00496E+09 2.68816E+09 3.95556E+09 1.79104E+09 2.25339E+09-1.46279E+09
 -1       633 1.81149E+09 6.05358E+08 2.06373E+08 3.34823E+09 7.19670E+08-2.19195E+09
 -1       634-2.40802E+09-2.05127E+09-4.42956E+09 3.83189E+09-1.27409E+09-2.20549E+09
 -1       635-6.26601E+09-4.39517E+09-8.38457E+09 3.07763E+09-3.06575E+09-1.42864E+09
 -1       636-8.45217E+09-5.59473E+09-1.01969E+10 1.34740E+09-4.03577E+09-4.52856E+07
 -1       637-8.19431E+09-5.15947E+09-9.00393E+09-7.31508E+08-3.80816E+09 1.56930E+09
 -1       638-5.54181E+09-3.10981E+09-4.82421E+09-2.38050E+09-2.31775E+09 3.00175E+09
 -1       639-1.39663E+09 1.79294E+07 1.45640E+09-2.86170E+09 3.06448E+08 3.98840E+09
 -1       640 2.88372E+09 3.43007E+09 8.54986E+09-2.00080E+09 4.16598E+09 4.51865E+09
 -1       641 3.89953E+09 1.15072E+09-6.38162E+07 6.48455E+09 2.87676E-03 8.73581E-03
 -1       642-3.79242E+09-3.30312E+09-7.21800E+09 5.13889E+09 5.01060E-03 9.59814E-03
 -1       643-9.65409E+09-6.90434E+09-1.33604E+10 2.85382E+09 7.90405E-03 3.91603E-05
 -1       644-1.21212E+10-8.47014E+09-1.61126E+10 3.29198E+08 9.86290E-03-8.30497E-03
 -1       645-1.08094E+10-7.62605E+09-1.46107E+10-1.88372E+09-2.97546E-03-9.61995E-03
 -1       646-6.38771E+09-4.73651E+09-9.40065E+09-3.30914E+09-1.23978E-03-7.33519E-03
 -1       647-3.63604E+08-7.50312E+08-2.13744E+09-3.59092E+09 7.90787E-03-4.49145E-03
 -1       648 5.35153E+09 3.09829E+09 4.97611E+09-2.70014E+09 5.63622E-03-5.44918E-03
 -1       649 9.03157E+09 5.67823E+09 9.89587E+09-9.57105E+08 5.80406E-03-5.97191E-03
 -1       650 9.66207E+09 6.30814E+09 1.13651E+10 1.05875E+09 7.15256E-04 1.88727E-03
 -1       651 7.23753E+09 4.95380E+09 9.27514E+09 2.69015E+09-2.45190E-03 1.23277E-02
 -1       652 2.73264E+09 2.21477E+09 4.64993E+09 3.41262E+09-2.99978E-03 1.10417E-02
 -1       653-2.24142E+09-8.92894E+08-7.34898E+08 3.00264E+09-6.04486E-03 4.87860E-03
 -1       654-5.98106E+09-3.28418E+09-4.96622E+09 1.60797E+09-3.97730E-03-3.12626E-04
 -1       655-7.25559E+09-4.16781E+09-6.63710E+09-3.02669E+08-4.36306E-04-2.02340E-03
 -1       656-5.70865E+09-3.30486E+09-5.30756E+09-2.09398E+09-6.92272E-03 7.16378E-03
 -1       657-1.96562E+09-1.07941E+09-1.63242E+09-3.17219E+09-8.22449E-03 1.46999E-02
 -1       658 2.58655E+09 1.64088E+09 2.88303E+09-3.17914E+09-1.30458E-02 1.26252E-02
 -1       659 6.27337E+09 3.80676E+09 6.41583E+09-2.10942E+09-1.95103E-02 1.12479E-02
 -1       660 7.70348E+09 4.55137E+09 7.46777E+09-3.12453E+08-1.68076E-02 1.22612E-02
 -1       661 6.24746E+09 3.49490E+09 5.40219E+09 1.62108E+09-1.04527E-02 1.23496E-02
 -1       662 2.26548E+09 8.87801E+08 6.93858E+08 3.05213E+09-1.31575E-02 1.33777E-02
 -1       663-2.99481E+09-2.45723E+09-5.19595E+09 3.50523E+09-1.40705E-02 2.00011E-02
 -1       664-7.80371E+09-5.42650E+09-1.02846E+10 2.83519E+09 2.43187E-04 2.16234E-02
 -1       665-1.05347E+10-6.97767E+09-1.27242E+10 1.29846E+09 8.63457E-03 9.18789E-03
 -1       666-1.02431E+10-6.50043E+09-1.14250E+10-4.95106E+08 7.16209E-03-4.30074E-03
 -1       667-7.03728E+09-4.03379E+09-6.40868E+09-1.74911E+09 9.84192E-04-1.09649E-02
 -1       668-2.00184E+09-2.04754E+08 1.31932E+09-1.91383E+09-3.96538E-03-1.77670E-02
 -1       669 3.38427E+09 4.13783E+09 1.04085E+10-9.66198E+08-6.29997E-03-1.55932E-02
 -1       670 2.98907E+09 8.40570E+08-1.87171E+08 6.31569E+09 7.16693E+08 1.93965E+09
 -1       671-3.23978E+09-2.77091E+09-5.99657E+09 4.89436E+09 2.44465E+09 2.52449E+09
 -1       672-7.81447E+09-5.60167E+09-1.08578E+10 2.75954E+09 4.24297E+09 1.77214E+09
 -1       673-9.73629E+09-6.83840E+09-1.30584E+10 2.34461E+08 5.02332E+09 2.52970E+08
 -1       674-8.67216E+09-6.17006E+09-1.18947E+10-2.12959E+09 4.44940E+09-1.40218E+09
 -1       675-5.12208E+09-3.86686E+09-7.76746E+09-3.66539E+09 2.69742E+09-2.63487E+09
 -1       676-2.92524E+08-6.80840E+08-1.97694E+09-3.97137E+09 3.24676E+08-3.07698E+09
 -1       677 4.28904E+09 2.40718E+09 3.73489E+09-2.99703E+09-1.93761E+09-2.63228E+09
 -1       678 7.23959E+09 4.49414E+09 7.74088E+09-1.08657E+09-3.42303E+09-1.48683E+09
 -1       679 7.74566E+09 5.03286E+09 9.03054E+09 1.12644E+09-3.73603E+09-3.65092E+07
 -1       680 5.80267E+09 3.99062E+09 7.49940E+09 2.92157E+09-2.86743E+09 1.24716E+09
 -1       681 2.19187E+09 1.83939E+09 3.93941E+09 3.72314E+09-1.18474E+09 1.97106E+09
 -1       682-1.79522E+09-6.16360E+08-2.59317E+08 3.28498E+09 6.98504E+08 1.94514E+09
 -1       683-4.79301E+09-2.51565E+09-3.59248E+09 1.76771E+09 2.13074E+09 1.23790E+09
 -1       684-5.81498E+09-3.22929E+09-4.94933E+09-3.16126E+08 2.63914E+09 1.45674E+08
 -1       685-4.57543E+09-2.56567E+09-3.97682E+09-2.27124E+09 2.08385E+09-9.12887E+08
 -1       686-1.57565E+09-8.27113E+08-1.18139E+09-3.44762E+09 6.99674E+08-1.54174E+09
 -1       687 2.07264E+09 1.30055E+09 2.26254E+09-3.45330E+09-9.87902E+08-1.50334E+09
 -1       688 5.02726E+09 2.98766E+09 4.93162E+09-2.28274E+09-2.34412E+09-8.00556E+08
 -1       689 6.17293E+09 3.54955E+09 5.65891E+09-3.19004E+08-2.84355E+09 3.22765E+08
 -1       690 5.00496E+09 2.68816E+09 3.95556E+09 1.79104E+09-2.25339E+09 1.46279E+09
 -1       691 1.81149E+09 6.05358E+08 2.06373E+08 3.34823E+09-7.19670E+08 2.19195E+09
 -1       692-2.40802E+09-2.05127E+09-4.42956E+09 3.83189E+09 1.27409E+09 2.20549E+09
 -1       693-6.26601E+09-4.39517E+09-8.38457E+09 3.07763E+09 3.06575E+09 1.42864E+09
 -1       694-8.45217E+09-5.59473E+09-1.01969E+10 1.34740E+09 4.03577E+09 4.52856E+07
 -1       695-8.19431E+09-5.15947E+09-9.00393E+09-7.31508E+08 3.80816E+09-1.56930E+09
 -1       696-5.54181E+09-3.10981E+09-4.82421E+09-2.38050E+09 2.31775E+09-3.00175E+09
 -1       697-1.39663E+09 1.79294E+07 1.45640E+09-2.86170E+09-3.06448E+08-3.98840E+09
 -1       698 2.88372E+09 3.43007E+09 8.54986E+09-2.00080E+09-4.16598E+09-4.51865E+09
 -1       699-5.17951E+09-1.36413E+09-1.17180E+09 3.91597E+09-5.70256E+08 3.75525E+09
 -1       700 8.75123E+08-2.84511E+09-2.02378E+09 5.91198E+09-5.78333E+08 3.02416E+09
 -1       701 5.83334E+09-3.39957E+09-1.99566E+09 4.58168E+09-8.20155E+08 1.84717E+09
 -1       702 7.10209E+09-3.77663E+09-2.09654E+09 1.27507E+09-9.08713E+08 3.04954E+08
 -1       703 4.88961E+09-3.63344E+09-2.05625E+09-2.61647E+09-8.67538E+08-1.19889E+09
 -1       704 1.02140E+08-2.90310E+09-1.77447E+09-5.81096E+09-6.70154E+08-2.25447E+09
 -1       705-5.55188E+09-1.73316E+09-1.27045E+09-7.40551E+09-3.66328E+08-2.57200E+09
 -1       706-1.00621E+10-3.97693E+08-6.26307E+08-7.06498E+09-2.99684E+07-2.09487E+09
 -1       707-1.17547E+10 8.00691E+08 3.97589E+07-5.06568E+09 2.57877E+08-1.01265E+09
 -1       708-9.83709E+09 1.62700E+09 6.16184E+08-2.15651E+09 4.37831E+08 3.03665E+08
 -1       709-4.67459E+09 1.97691E+09 1.02590E+09 7.11798E+08 4.87684E+08 1.42340E+09
 -1       710 2.29963E+09 1.89061E+09 1.23894E+09 2.70272E+09 4.25360E+08 1.99519E+09
 -1       711 9.01808E+09 1.51897E+09 1.26845E+09 3.35470E+09 2.98351E+08 1.85836E+09
 -1       712 1.34228E+10 1.05739E+09 1.15503E+09 2.70553E+09 1.64453E+08 1.09099E+09
 -1       713 1.41158E+10 6.71827E+08 9.46468E+08 1.24472E+09 7.06518E+07-2.04191E+07
 -1       714 1.08077E+10 4.42809E+08 6.80756E+08-2.85149E+08 3.73802E+07-1.07926E+09
 -1       715 4.42228E+09 3.45766E+08 3.78098E+08-1.16770E+09 5.33391E+07-1.71252E+09
 -1       716-3.18134E+09 2.73289E+08 4.39051E+07-9.76678E+08 8.23284E+07-1.69589E+09
 -1       717-9.77887E+09 8.99153E+07-3.19602E+08 2.65602E+08 7.94121E+07-1.02909E+09
 -1       718-1.34651E+10-3.01160E+08-6.98861E+08 2.08932E+09 1.05151E+07 6.34587E+07
 -1       719-1.32343E+10-9.04137E+08-1.05820E+09 3.73776E+09-1.31555E+08 1.20701E+09
 -1       720-9.27309E+09-1.60934E+09-1.33785E+09 4.43300E+09-3.20457E+08 2.00171E+09
 -1       721-2.87295E+09-2.21192E+09-1.46114E+09 3.65587E+09-5.00814E+08 2.15726E+09
 -1       722 4.00526E+09-2.46476E+09-1.34931E+09 1.34339E+09-6.03821E+08 1.59061E+09
 -1       723 9.37457E+09-2.14791E+09-9.35367E+08-2.06471E+09-5.62523E+08 4.57343E+08
 -1       724 1.18618E+10-1.13578E+09-1.91807E+08-5.74835E+09-3.50867E+08-8.92943E+08
 -1       725 1.11309E+10 4.89577E+08 8.46559E+08-8.76809E+09 5.44680E+07-2.04236E+09
 -1       726 8.17373E+09 2.48710E+09 1.99492E+09-1.04952E+10 4.25104E+08-2.37070E+09
 -1       727 5.06857E+09 4.53636E+09 3.20413E+09-1.09259E+10 1.09714E+09-1.57253E+09
 -1       728 1.81789E+09 2.29572E+09 2.02538E+09-8.66156E+09-6.38577E+08 3.71805E+09
 -1       729 1.45849E+09 1.70448E+08-9.44101E+08-9.57757E+09-2.51304E+08 2.93285E+09
 -1       730 2.27962E+09-5.53762E+08-2.20804E+09-6.33555E+09-2.86136E+08 1.80404E+09
 -1       731 1.77242E+09-8.27811E+08-2.81080E+09-6.29259E+08-2.88259E+08 3.12553E+08
 -1       732 1.13703E+08-5.98998E+08-2.57869E+09 5.42161E+09-3.46468E+08-1.14282E+09
 -1       733-2.30962E+09 4.77992E+06-1.62563E+09 9.84091E+09-3.96454E+08-2.16754E+09
 -1       734-4.73296E+09 7.37121E+08-2.83684E+08 1.12804E+10-4.13130E+08-2.48254E+09
 -1       735-6.27588E+09 1.32333E+09 1.02587E+09 9.40760E+09-3.69516E+08-2.03228E+09
 -1       736-6.24754E+09 1.54021E+09 1.91375E+09 4.95251E+09-2.56154E+08-9.97914E+08
 -1       737-4.39947E+09 1.28337E+09 2.14438E+09-5.65474E+08-8.10278E+07 2.64961E+08
 -1       738-1.04455E+09 6.01468E+08 1.70228E+09-5.35240E+09 1.29618E+08 1.34298E+09
 -1       739 3.00284E+09-3.16686E+08 7.87711E+08-7.92673E+09 3.36323E+08 1.89841E+09
 -1       740 6.65131E+09-1.19939E+09-2.57091E+08-7.59126E+09 4.95208E+08 1.77604E+09
 -1       741 8.85449E+09-1.77649E+09-1.06564E+09-4.63999E+09 5.68937E+08 1.04953E+09
 -1       742 8.93063E+09-1.86462E+09-1.37000E+09-2.36440E+08 5.36783E+08-7.57689E+06
 -1       743 6.77914E+09-1.42611E+09-1.08850E+09 3.99285E+09 4.00899E+08-1.01598E+09
 -1       744 2.92462E+09-5.82442E+08-3.49664E+08 6.51375E+09 1.86829E+08-1.61877E+09
 -1       745-1.62740E+09 4.22051E+08 5.54714E+08 6.40486E+09-6.20877E+07-1.60140E+09
 -1       746-5.67999E+09 1.29521E+09 1.27165E+09 3.67082E+09-2.94986E+08-9.63798E+08
 -1       747-8.19101E+09 1.78691E+09 1.50979E+09-7.54843E+08-4.65669E+08 7.89396E+07
 -1       748-8.56991E+09 1.76536E+09 1.14198E+09-5.31856E+09-5.43306E+08 1.16796E+09
 -1       749-6.83502E+09 1.25513E+09 2.52910E+08-8.36530E+09-5.18730E+08 1.92074E+09
 -1       750-3.58595E+09 4.23920E+08-8.84291E+08-8.69473E+09-4.03923E+08 2.06020E+09
 -1       751 1.97950E+08-4.77498E+08-1.89533E+09-5.96971E+09-2.26474E+08 1.50837E+09
 -1       752 3.46691E+09-1.20390E+09-2.42446E+09-8.42052E+08-1.44094E+07 4.15851E+08
 -1       753 5.41774E+09-1.59792E+09-2.26368E+09 5.24448E+09 1.95434E+08-8.80903E+08
 -1       754 5.79076E+09-1.56874E+09-1.37298E+09 1.04959E+10 4.18832E+08-1.98508E+09
 -1       755 4.74386E+09-1.27273E+09-1.61994E+08 1.34110E+10 4.86744E+08-2.29379E+09
 -1       756 2.73611E+09-8.16408E+08 8.98568E+08 1.33464E+10 8.61704E+08-1.51444E+09
 -1       757 1.81789E+09 2.29572E+09 2.02538E+09-8.66156E+09 6.38577E+08-3.71805E+09
 -1       758 1.45849E+09 1.70448E+08-9.44101E+08-9.57757E+09 2.51304E+08-2.93285E+09
 -1       759 2.27962E+09-5.53762E+08-2.20804E+09-6.33555E+09 2.86136E+08-1.80404E+09
 -1       760 1.77242E+09-8.27811E+08-2.81080E+09-6.29259E+08 2.88259E+08-3.12553E+08
 -1       761 1.13703E+08-5.98998E+08-2.57869E+09 5.42161E+09 3.46468E+08 1.14282E+09
 -1       762-2.30962E+09 4.77992E+06-1.62563E+09 9.84091E+09 3.96454E+08 2.16754E+09
 -1       763-4.73296E+09 7.37121E+08-2.83684E+08 1.12804E+10 4.13130E+08 2.48254E+09
 -1       764-6.27588E+09 1.32333E+09 1.02587E+09 9.40760E+09 3.69516E+08 2.03228E+09
 -1       765-6.24754E+09 1.54021E+09 1.91375E+09 4.95251E+09 2.56154E+08 9.97914E+08
 -1       766-4.39947E+09 1.28337E+09 2.14438E+09-5.65474E+08 8.10278E+07-2.64961E+08
 -1       767-1.04455E+09 6.01468E+08 1.70228E+09-5.35240E+09-1.29618E+08-1.34298E+09
 -1       768 3.00284E+09-3.16686E+08 7.87711E+08-7.92673E+09-3.36323E+08-1.89841E+09
 -1       769 6.65131E+09-1.19939E+09-2.57091E+08-7.59126E+09-4.95208E+08-1.77604E+09
 -1       770 8.85449E+09-1.77649E+09-1.06564E+09-4.63999E+09-5.68937E+08-1.04953E+09
 -1       771 8.93063E+09-1.86462E+09-1.37000E+09-2.36440E+08-5.36783E+08 7.57689E+06
 -1       772 6.77914E+09-1.42611E+09-1.08850E+09 3.99285E+09-4.00899E+08 1.01598E+09
 -1       773 2.92462E+09-5.82442E+08-3.49664E+08 6.51375E+09-1.86829E+08 1.61877E+09
 -1       774-1.62740E+09 4.22051E+08 5.54714E+08 6.40486E+09 6.20877E+07 1.60140E+09
 -1       775-5.67999E+09 1.29521E+09 1.27165E+09 3.67082E+09 2.94986E+08 9.63798E+08
 -1       776-8.19101E+09 1.78691E+09 1.50979E+09-7.54843E+08 4.65669E+08-7.89396E+07
 -1       777-8.56991E+09 1.76536E+09 1.14198E+09-5.31856E+09 5.43306E+08-1.16796E+09
 -1       778-6.83502E+09 1.25513E+09 2.52910E+08-8.36530E+09 5.18730E+08-1.92074E+09
 -1       779-3.58595E+09 4.23920E+08-8.84291E+08-8.69473E+09 4.03923E+08-2.06020E+09
 -1       780 1.97950E+08-4.77498E+08-1.89533E+09-5.96971E+09 2.26474E+08-1.50837E+09
 -1       781 3.46691E+09-1.20390E+09-2.42446E+09-8.42052E+08 1.44094E+07-4.15851E+08
 -1       782 5.41774E+09-1.59792E+09-2.26368E+09 5.24448E+09-1.95434E+08 8.80903E+08
 -1       783 5.79076E+09-1.56874E+09-1.37298E+09 1.04959E+10-4.18832E+08 1.98508E+09
 -1       784 4.74386E+09-1.27273E+09-1.61994E+08 1.34110E+10-4.86744E+08 2.29379E+09
 -1       785 2.73611E+09-8.16408E+08 8.98568E+08 1.33464E+10-8.61704E+08 1.51444E+09
 -1       786-5.17951E+09-1.36413E+09-1.17180E+09 3.91597E+09 5.70256E+08-3.75525E+09
 -1       787 8.75123E+08-2.84511E+09-2.02378E+09 5.91198E+09 5.78333E+08-3.02416E+09
 -1       788 5.83334E+09-3.39957E+09-1.99566E+09 4.58168E+09 8.20155E+08-1.84717E+09
 -1       789 7.10209E+09-3.77663E+09-2.09654E+09 1.27507E+09 9.08713E+08-3.04954E+08
 -1       790 4.88961E+09-3.63344E+09-2.05625E+09-2.61647E+09 8.67538E+08 1.19889E+09
 -1       791 1.02140E+08-2.90310E+09-1.77447E+09-5.81096E+09 6.70154E+08 2.25447E+09
 -1       792-5.55188E+09-1.73316E+09-1.27045E+09-7.40551E+09 3.66328E+08 2.57200E+09
 -1       793-1.00621E+10-3.97693E+08-6.26307E+08-7.06498E+09 2.99684E+07 2.09487E+09
 -1       794-1.17547E+10 8.00691E+08 3.97589E+07-5.06568E+09-2.57877E+08 1.01265E+09
 -1       795-9.83709E+09 1.62700E+09 6.16184E+08-2.15651E+09-4.37831E+08-3.03665E+08
 -1       796-4.67459E+09 1.97691E+09 1.02590E+09 7.11798E+08-4.87684E+08-1.42340E+09
 -1       797 2.29963E+09 1.89061E+09 1.23894E+09 2.70272E+09-4.25360E+08-1.99519E+09
 -1       798 9.01808E+09 1.51897E+09 1.26845E+09 3.35470E+09-2.98351E+08-1.85836E+09
 -1       799 1.34228E+10 1.05739E+09 1.15503E+09 2.70553E+09-1.64453E+08-1.09099E+09
 -1       800 1.41158E+10 6.71827E+08 9.46468E+08 1.24472E+09-7.06518E+07 2.04191E+07
 -1       801 1.08077E+10 4.42809E+08 6.80756E+08-2.85149E+08-3.73802E+07 1.07926E+09
 -1       802 4.42228E+09 3.45766E+08 3.78098E+08-1.16770E+09-5.33391E+07 1.71252E+09
 -1       803-3.18134E+09 2.73289E+08 4.39051E+07-9.76678E+08-8.23284E+07 1.69589E+09
 -1       804-9.77887E+09 8.99153E+07-3.19602E+08 2.65602E+08-7.94121E+07 1.02909E+09
 -1       805-1.34651E+10-3.01160E+08-6.98861E+08 2.08932E+09-1.05151E+07-6.34587E+07
 -1       806-1.32343E+10-9.04137E+08-1.05820E+09 3.73776E+09 1.31555E+08-1.20701E+09
 -1       807-9.27309E+09-1.60934E+09-1.33785E+09 4.43300E+09 3.20457E+08-2.00171E+09
 -1       808-2.87295E+09-2.21192E+09-1.46114E+09 3.65587E+09 5.00814E+08-2.15726E+09
 -1       809 4.00526E+09-2.46476E+09-1.34931E+09 1.34339E+09 6.03821E+08-1.59061E+09
 -1       810 9.37457E+09-2.14791E+09-9.35367E+08-2.06471E+09 5.62523E+08-4.57343E+08
 -1       811 1.18618E+10-1.13578E+09-1.91807E+08-5.74835E+09 3.50867E+08 8.92943E+08
 -1       812 1.11309E+10 4.89577E+08 8.46559E+08-8.76809E+09-5.44680E+07 2.04236E+09
 -1       813 8.17373E+09 2.48710E+09 1.99492E+09-1.04952E+10-4.25104E+08 2.37070E+09
 -1       814 5.06857E+09 4.53636E+09 3.20413E+09-1.09259E+10-1.09714E+09 1.57253E+09
 -1       815 5.17951E+09 1.36413E+09 1.17180E+09 3.91597E+09-5.70256E+08-3.75525E+09
 -1       816-8.75123E+08 2.84511E+09 2.02378E+09 5.91198E+09-5.78333E+08-3.02416E+09
 -1       817-5.83334E+09 3.39957E+09 1.99566E+09 4.58168E+09-8.20155E+08-1.84717E+09
 -1       818-7.10209E+09 3.77663E+09 2.09654E+09 1.27507E+09-9.08713E+08-3.04954E+08
 -1       819-4.88961E+09 3.63344E+09 2.05625E+09-2.61647E+09-8.67538E+08 1.19889E+09
 -1       820-1.02140E+08 2.90310E+09 1.77447E+09-5.81096E+09-6.70154E+08 2.25447E+09
 -1       821 5.55188E+09 1.73316E+09 1.27045E+09-7.40551E+09-3.66328E+08 2.57200E+09
 -1       822 1.00621E+10 3.97693E+08 6.26307E+08-7.06498E+09-2.99684E+07 2.09487E+09
 -1       823 1.17547E+10-8.00691E+08-3.97589E+07-5.06568E+09 2.57877E+08 1.01265E+09
 -1       824 9.83709E+09-1.62700E+09-6.16184E+08-2.15651E+09 4.37831E+08-3.03665E+08
 -1       825 4.67459E+09-1.97691E+09-1.02590E+09 7.11798E+08 4.87684E+08-1.42340E+09
 -1       826-2.29963E+09-1.89061E+09-1.23894E+09 2.70272E+09 4.25360E+08-1.99519E+09
 -1       827-9.01808E+09-1.51897E+09-1.26845E+09 3.35470E+09 2.98351E+08-1.85836E+09
 -1       828-1.34228E+10-1.05739E+09-1.15503E+09 2.70553E+09 1.64453E+08-1.09099E+09
 -1       829-1.41158E+10-6.71827E+08-9.46468E+08 1.24472E+09 7.06518E+07 2.04191E+07
 -1       830-1.08077E+10-4.42809E+08-6.80756E+08-2.85149E+08 3.73802E+07 1.07926E+09
 -1       831-4.42228E+09-3.45766E+08-3.78098E+08-1.16770E+09 5.33391E+07 1.71252E+09
 -1       832 3.18134E+09-2.73289E+08-4.39051E+07-9.76678E+08 8.23284E+07 1.69589E+09
 -1       833 9.77887E+09-8.99153E+07 3.19602E+08 2.65602E+08 7.94121E+07 1.02909E+09
 -1       834 1.34651E+10 3.01160E+08 6.98861E+08 2.08932E+09 1.05151E+07-6.34587E+07
 -1       835 1.32343E+10 9.04137E+08 1.05820E+09 3.73776E+09-1.31555E+08-1.20701E+09
 -1       836 9.27309E+09 1.60934E+09 1.33785E+09 4.43300E+09-3.20457E+08-2.00171E+09
 -1       837 2.87295E+09 2.21192E+09 1.46114E+09 3.65587E+09-5.00814E+08-2.15726E+09
 -1       838-4.00526E+09 2.46476E+09 1.34931E+09 1.34339E+09-6.03821E+08-1.59061E+09
 -1       839-9.37457E+09 2.14791E+09 9.35367E+08-2.06471E+09-5.62523E+08-4.57343E+08
 -1       840-1.18618E+10 1.13578E+09 1.91807E+08-5.74835E+09-3.50867E+08 8.92943E+08
 -1       841-1.11309E+10-4.89577E+08-8.46559E+08-8.76809E+09 5.44680E+07 2.04236E+09
 -1       842-8.17373E+09-2.48710E+09-1.99492E+09-1.04952E+10 4.25104E+08 2.37070E+09
 -1       843-5.06857E+09-4.53636E+09-3.20413E+09-1.09259E+10 1.09714E+09 1.57253E+09
 -1       844-1.81789E+09-2.29572E+09-2.02538E+09-8.66156E+09-6.38577E+08-3.71805E+09
 -1       845-1.45849E+09-1.70448E+08 9.44101E+08-9.57757E+09-2.51304E+08-2.93285E+09
 -1       846-2.27962E+09 5.53762E+08 2.20804E+09-6.33555E+09-2.86136E+08-1.80404E+09
 -1       847-1.77242E+09 8.27811E+08 2.81080E+09-6.29259E+08-2.88259E+08-3.12553E+08
 -1       848-1.13703E+08 5.98998E+08 2.57869E+09 5.42161E+09-3.46468E+08 1.14282E+09
 -1       849 2.30962E+09-4.77992E+06 1.62563E+09 9.84091E+09-3.96454E+08 2.16754E+09
 -1       850 4.73296E+09-7.37121E+08 2.83684E+08 1.12804E+10-4.13130E+08 2.48254E+09
 -1       851 6.27588E+09-1.32333E+09-1.02587E+09 9.40760E+09-3.69516E+08 2.03228E+09
 -1       852 6.24754E+09-1.54021E+09-1.91375E+09 4.95251E+09-2.56154E+08 9.97914E+08
 -1       853 4.39947E+09-1.28337E+09-2.14438E+09-5.65474E+08-8.10278E+07-2.64961E+08
 -1       854 1.04455E+09-6.01468E+08-1.70228E+09-5.35240E+09 1.29618E+08-1.34298E+09
 -1       855-3.00284E+09 3.16686E+08-7.87711E+08-7.92673E+09 3.36323E+08-1.89841E+09
 -1       856-6.65131E+09 1.19939E+09 2.57091E+08-7.59126E+09 4.95208E+08-1.77604E+09
 -1       857-8.85449E+09 1.77649E+09 1.06564E+09-4.63999E+09 5.68937E+08-1.04953E+09
 -1       858-8.93063E+09 1.86462E+09 1.37000E+09-2.36440E+08 5.36783E+08 7.57689E+06
 -1       859-6.77914E+09 1.42611E+09 1.08850E+09 3.99285E+09 4.00899E+08 1.01598E+09
 -1       860-2.92462E+09 5.82442E+08 3.49664E+08 6.51375E+09 1.86829E+08 1.61877E+09
 -1       861 1.62740E+09-4.22051E+08-5.54714E+08 6.40486E+09-6.20877E+07 1.60140E+09
 -1       862 5.67999E+09-1.29521E+09-1.27165E+09 3.67082E+09-2.94986E+08 9.63798E+08
 -1       863 8.19101E+09-1.78691E+09-1.50979E+09-7.54843E+08-4.65669E+08-7.89396E+07
 -1       864 8.56991E+09-1.76536E+09-1.14198E+09-5.31856E+09-5.43306E+08-1.16796E+09
 -1       865 6.83502E+09-1.25513E+09-2.52910E+08-8.36530E+09-5.18730E+08-1.92074E+09
 -1       866 3.58595E+09-4.23920E+08 8.84291E+08-8.69473E+09-4.03923E+08-2.06020E+09
 -1       867-1.97950E+08 4.77498E+08 1.89533E+09-5.96971E+09-2.26474E+08-1.50837E+09
 -1       868-3.46691E+09 1.20390E+09 2.42446E+09-8.42052E+08-1.44094E+07-4.15851E+08
 -1       869-5.41774E+09 1.59792E+09 2.26368E+09 5.24448E+09 1.95434E+08 8.80903E+08
 -1       870-5.79076E+09 1.56874E+09 1.37298E+09 1.04959E+10 4.18832E+08 1.98508E+09
 -1       871-4.74386E+09 1.27273E+09 1.61994E+08 1.34110E+10 4.86744E+08 2.29379E+09
 -1       872-2.73611E+09 8.16408E+08-8.98568E+08 1.33464E+10 8.61704E+08 1.51444E+09
 -1       873-5.06857E+09-4.53636E+09-3.20413E+09-1.09259E+10-1.09714E+09-1.57253E+09
 -1       874-8.17373E+09-2.48710E+09-1.99492E+09-1.04952E+10-4.25104E+08-2.37070E+09
 -1       875-1.11309E+10-4.89577E+08-8.46559E+08-8.76809E+09-5.44680E+07-2.04236E+09
 -1       876-1.18618E+10 1.13578E+09 1.91807E+08-5.74835E+09 3.50867E+08-8.92943E+08
 -1       877-9.37457E+09 2.14791E+09 9.35367E+08-2.06471E+09 5.62523E+08 4.57343E+08
 -1       878-4.00526E+09 2.46476E+09 1.34931E+09 1.34339E+09 6.03821E+08 1.59061E+09
 -1       879 2.87295E+09 2.21192E+09 1.46114E+09 3.65587E+09 5.00814E+08 2.15726E+09
 -1       880 9.27309E+09 1.60934E+09 1.33785E+09 4.43300E+09 3.20457E+08 2.00171E+09
 -1       881 1.32343E+10 9.04137E+08 1.05820E+09 3.73776E+09 1.31555E+08 1.20701E+09
 -1       882 1.34651E+10 3.01160E+08 6.98861E+08 2.08932E+09-1.05151E+07 6.34587E+07
 -1       883 9.77887E+09-8.99153E+07 3.19602E+08 2.65602E+08-7.94121E+07-1.02909E+09
 -1       884 3.18134E+09-2.73289E+08-4.39051E+07-9.76678E+08-8.23284E+07-1.69589E+09
 -1       885-4.42228E+09-3.45766E+08-3.78098E+08-1.16770E+09-5.33391E+07-1.71252E+09
 -1       886-1.08077E+10-4.42809E+08-6.80756E+08-2.85149E+08-3.73802E+07-1.07926E+09
 -1       887-1.41158E+10-6.71827E+08-9.46468E+08 1.24472E+09-7.06518E+07-2.04191E+07
 -1       888-1.34228E+10-1.05739E+09-1.15503E+09 2.70553E+09-1.64453E+08 1.09099E+09
 -1       889-9.01808E+09-1.51897E+09-1.26845E+09 3.35470E+09-2.98351E+08 1.85836E+09
 -1       890-2.29963E+09-1.89061E+09-1.23894E+09 2.70272E+09-4.25360E+08 1.99519E+09
 -1       891 4.67459E+09-1.97691E+09-1.02590E+09 7.11798E+08-4.87684E+08 1.42340E+09
 -1       892 9.83709E+09-1.62700E+09-6.16184E+08-2.15651E+09-4.37831E+08 3.03665E+08
 -1       893 1.17547E+10-8.00691E+08-3.97589E+07-5.06568E+09-2.57877E+08-1.01265E+09
 -1       894 1.00621E+10 3.97693E+08 6.26307E+08-7.06498E+09 2.99684E+07-2.09487E+09
 -1       895 5.55188E+09 1.73316E+09 1.27045E+09-7.40551E+09 3.66328E+08-2.57200E+09
 -1       896-1.02140E+08 2.90310E+09 1.77447E+09-5.81096E+09 6.70154E+08-2.25447E+09
 -1       897-4.88961E+09 3.63344E+09 2.05625E+09-2.61647E+09 8.67538E+08-1.19889E+09
 -1       898-7.10209E+09 3.77663E+09 2.09654E+09 1.27507E+09 9.08713E+08 3.04954E+08
 -1       899-5.83334E+09 3.39957E+09 1.99566E+09 4.58168E+09 8.20155E+08 1.84717E+09
 -1       900-8.75123E+08 2.84511E+09 2.02378E+09 5.91198E+09 5.78333E+08 3.02416E+09
 -1       901 5.17951E+09 1.36413E+09 1.17180E+09 3.91597E+09 5.70256E+08 3.75525E+09
 -1       902-1.81789E+09-2.29572E+09-2.02538E+09-8.66156E+09 6.38577E+08 3.71805E+09
 -1       903-1.45849E+09-1.70448E+08 9.44101E+08-9.57757E+09 2.51304E+08 2.93285E+09
 -1       904-2.27962E+09 5.53762E+08 2.20804E+09-6.33555E+09 2.86136E+08 1.80404E+09
 -1       905-1.77242E+09 8.27811E+08 2.81080E+09-6.29259E+08 2.88259E+08 3.12553E+08
 -1       906-1.13703E+08 5.98998E+08 2.57869E+09 5.42161E+09 3.46468E+08-1.14282E+09
 -1       907 2.30962E+09-4.77992E+06 1.62563E+09 9.84091E+09 3.96454E+08-2.16754E+09
 -1       908 4.73296E+09-7.37121E+08 2.83684E+08 1.12804E+10 4.13130E+08-2.48254E+09
 -1       909 6.27588E+09-1.32333E+09-1.02587E+09 9.40760E+09 3.69516E+08-2.03228E+09
 -1       910 6.24754E+09-1.54021E+09-1.91375E+09 4.95251E+09 2.56154E+08-9.97914E+08
 -1       911 4.39947E+09-1.28337E+09-2.14438E+09-5.65474E+08 8.10278E+07 2.64961E+08
 -1       912 1.04455E+09-6.01468E+08-1.70228E+09-5.35240E+09-1.29618E+08 1.34298E+09
 -1       913-3.00284E+09 3.16686E+08-7.87711E+08-7.92673E+09-3.36323E+08 1.89841E+09
 -1       914-6.65131E+09 1.19939E+09 2.57091E+08-7.59126E+09-4.95208E+08 1.77604E+09
 -1       915-8.85449E+09 1.77649E+09 1.06564E+09-4.63999E+09-5.68937E+08 1.04953E+09
 -1       916-8.93063E+09 1.86462E+09 1.37000E+09-2.36440E+08-5.36783E+08-7.57689E+06
 -1       917-6.77914E+09 1.42611E+09 1.08850E+09 3.99285E+09-4.00899E+08-1.01598E+09
 -1       918-2.92462E+09 5.82442E+08 3.49664E+08 6.51375E+09-1.86829E+08-1.61877E+09
 -1       919 1.62740E+09-4.22051E+08-5.54714E+08 6.40486E+09 6.20877E+07-1.60140E+09
 -1       920 5.67999E+09-1.29521E+09-1.27165E+09 3.67082E+09 2.94986E+08-9.63798E+08
 -1       921 8.19101E+09-1.78691E+09-1.50979E+09-7.54843E+08 4.65669E+08 7.89396E+07
 -1       922 8.56991E+09-1.76536E+09-1.14198E+09-5.31856E+09 5.43306E+08 1.16796E+09
 -1       923 6.83502E+09-1.25513E+09-2.52910E+08-8.36530E+09 5.18730E+08 1.92074E+09
 -1       924 3.58595E+09-4.23920E+08 8.84291E+08-8.69473E+09 4.03923E+08 2.06020E+09
 -1       925-1.97950E+08 4.77498E+08 1.89533E+09-5.96971E+09 2.26474E+08 1.50837E+09
 -1       926-3.46691E+09 1.20390E+09 2.42446E+09-8.42052E+08 1.44094E+07 4.15851E+08
 -1       927-5.41774E+09 1.59792E+09 2.26368E+09 5.24448E+09-1.95434E+08-8.80903E+08
 -1       928-5.79076E+09 1.56874E+09 1.37298E+09 1.04959E+10-4.18832E+08-1.98508E+09
 -1       929-4.74386E+09 1.27273E+09 1.61994E+08 1.34110E+10-4.86744E+08-2.29379E+09
 -1       930-2.73611E+09 8.16408E+08-8.98568E+08 1.33464E+10-8.61704E+08-1.51444E+09
 -3
    1PSTEP                        75           1           1          
    1PGM                1.000000E+00                                  
    1PGK                3.124460E+07                                  
    1PHID                         -1                                  
    1PSUBC                         0                                  
    1PMODE                        19                                  
  100CL  119 889.6263563         930                     2   19MODAL      1
 -4  FORC        4    1
 -5  F1          1    2    1    0
 -5  F2          1    2    2    0
 -5  F3          1    2    3    0
 -5  ALL         1    2    0    0    1ALL
 -1         1 1.14384E+07 1.14099E+06-4.51084E+05
 -1         2-1.14384E+07 1.14099E+06 4.51084E+05
 -1         3 7.75339E+03 2.38356E+05 8.39023E+04
 -1         4-7.75339E+03 2.38356E+05-8.39023E+04
 -1         5 1.14384E+07 1.14099E+06 4.51084E+05
 -1         6-1.14384E+07 1.14099E+06-4.51084E+05
 -1         7 7.75339E+03 2.38356E+05-8.39023E+04
 -1         8-7.75339E+03 2.38356E+05 8.39023E+04
 -1         9 2.75285E+06 9.77087E+04 9.46330E+05
 -1        10 7.35112E+03 1.41043E+04 7.77124E+04
 -1        11 1.25920E+07 1.47992E+06 3.66762E+06
 -1        12-7.46382E+06 1.20327E+06-2.73852E+06
 -1        13 2.81930E+04 1.10557E+04 3.19822E+05
 -1        14 2.17424E+04 3.02940E+04 3.19801E+05
 -1        15 2.75285E+06 9.77087E+04-9.46330E+05
 -1        16 7.35112E+03 1.41043E+04-7.77124E+04
 -1        17-7.46382E+06 1.20327E+06 2.73852E+06
 -1        18 1.25920E+07 1.47992E+06-3.66762E+06
 -1        19 2.17424E+04 3.02940E+04-3.19801E+05
 -1        20 2.81930E+04 1.10557E+04-3.19822E+05
 -1        21 7.46382E+06 1.20327E+06 2.73852E+06
 -1        22-1.25920E+07 1.47992E+06-3.66762E+06
 -1        23-2.81930E+04 1.10557E+04-3.19822E+05
 -1        24-2.17424E+04 3.02940E+04-3.19801E+05
 -1        25-2.75285E+06 9.77087E+04-9.46330E+05
 -1        26-7.35112E+03 1.41043E+04-7.77124E+04
 -1        27-2.75285E+06 9.77087E+04 9.46330E+05
 -1        28-1.25920E+07 1.47992E+06 3.66762E+06
 -1        29 7.46382E+06 1.20327E+06-2.73852E+06
 -1        30-7.35112E+03 1.41043E+04 7.77124E+04
 -1        31-2.81930E+04 1.10557E+04 3.19822E+05
 -1        32-2.17424E+04 3.02940E+04 3.19801E+05
 -1        33 3.40719E+03-1.21888E+05 2.81009E+04
 -1        34 3.56370E+03-2.87404E+05 7.20817E+04
 -1        35 2.07748E+02-4.15688E+05 1.13736E+05
 -1        36-4.89108E+03-4.29553E+05 1.33886E+05
 -1        37-9.45129E+03-3.04046E+05 1.23995E+05
 -1        38-1.14443E+04-6.87411E+04 8.63460E+04
 -1        39-9.70864E+03 2.04586E+05 3.19775E+04
 -1        40-4.35834E+03 4.26925E+05-2.34843E+04
 -1        41 3.21650E+03 5.22149E+05-6.50019E+04
 -1        42 1.07656E+04 4.52901E+05-8.27792E+04
 -1        43 1.58865E+04 2.33964E+05-7.50065E+04
 -1        44 1.68011E+04-7.12242E+04-4.79230E+04
 -1        45 1.29520E+04-3.69920E+05-1.32795E+04
 -1        46 5.22192E+03-5.69154E+05 1.58878E+04
 -1        47-4.29786E+03-6.05237E+05 2.97366E+04
 -1        48-1.29246E+04-4.64231E+05 2.48605E+04
 -1        49-1.81945E+04-1.86769E+05 5.23582E+03
 -1        50-1.86129E+04 1.44399E+05-1.94127E+04
 -1        51-1.41081E+04 4.30188E+05-3.72470E+04
 -1        52-6.04774E+03 5.86118E+05-3.87070E+04
 -1        53 3.18840E+03 5.68573E+05-2.01567E+04
 -1        54 1.09399E+04 3.88049E+05 1.44672E+04
 -1        55 1.50711E+04 1.05282E+05 5.45931E+04
 -1        56 1.45948E+04-1.88337E+05 8.62571E+04
 -1        57 9.92003E+03-3.99589E+05 9.65865E+04
 -1        58 2.64820E+03-4.61915E+05 7.80205E+04
 -1        59-5.01792E+03-3.54072E+05 3.07978E+04
 -1        60-1.10777E+04-1.02458E+05-3.73079E+04
 -1        61-1.44803E+04 2.34651E+05-1.14959E+05
 -1        62-3.40719E+03-1.21888E+05-2.81009E+04
 -1        63-3.56370E+03-2.87404E+05-7.20817E+04
 -1        64-2.07748E+02-4.15688E+05-1.13736E+05
 -1        65 4.89108E+03-4.29553E+05-1.33886E+05
 -1        66 9.45129E+03-3.04046E+05-1.23995E+05
 -1        67 1.14443E+04-6.87411E+04-8.63460E+04
 -1        68 9.70864E+03 2.04586E+05-3.19775E+04
 -1        69 4.35834E+03 4.26925E+05 2.34843E+04
 -1        70-3.21650E+03 5.22149E+05 6.50019E+04
 -1        71-1.07656E+04 4.52901E+05 8.27792E+04
 -1        72-1.58865E+04 2.33964E+05 7.50065E+04
 -1        73-1.68011E+04-7.12242E+04 4.79230E+04
 -1        74-1.29520E+04-3.69920E+05 1.32795E+04
 -1        75-5.22192E+03-5.69154E+05-1.58878E+04
 -1        76 4.29786E+03-6.05237E+05-2.97366E+04
 -1        77 1.29246E+04-4.64231E+05-2.48605E+04
 -1        78 1.81945E+04-1.86769E+05-5.23582E+03
 -1        79 1.86129E+04 1.44399E+05 1.94127E+04
 -1        80 1.41081E+04 4.30188E+05 3.72470E+04
 -1        81 6.04774E+03 5.86118E+05 3.87070E+04
 -1        82-3.18840E+03 5.68573E+05 2.01567E+04
 -1        83-1.09399E+04 3.88049E+05-1.44672E+04
 -1        84-1.50711E+04 1.05282E+05-5.45931E+04
 -1        85-1.45948E+04-1.88337E+05-8.62571E+04
 -1        86-9.92003E+03-3.99589E+05-9.65865E+04
 -1        87-2.64820E+03-4.61915E+05-7.80205E+04
 -1        88 5.01792E+03-3.54072E+05-3.07978E+04
 -1        89 1.10777E+04-1.02458E+05 3.73079E+04
 -1        90 1.44803E+04 2.34651E+05 1.14959E+05
 -1        91 4.46382E+07 1.21190E+06 1.63193E+05
 -1        92 5.59264E+07 1.39854E+06-1.76350E-06
 -1        93 4.46382E+07 1.21190E+06-1.63193E+05
 -1        94-4.46382E+07 1.21190E+06 1.63193E+05
 -1        95-5.59264E+07 1.39854E+06-1.89705E-06
 -1        96-4.46382E+07 1.21190E+06-1.63193E+05
 -1        97-3.40719E+03-1.21888E+05 2.81009E+04
 -1        98-3.56370E+03-2.87404E+05 7.20817E+04
 -1        99-2.07748E+02-4.15688E+05 1.13736E+05
 -1       100 4.89108E+03-4.29553E+05 1.33886E+05
 -1       101 9.45129E+03-3.04046E+05 1.23995E+05
 -1       102 1.14443E+04-6.87411E+04 8.63460E+04
 -1       103 9.70864E+03 2.04586E+05 3.19775E+04
 -1       104 4.35834E+03 4.26925E+05-2.34843E+04
 -1       105-3.21650E+03 5.22149E+05-6.50019E+04
 -1       106-1.07656E+04 4.52901E+05-8.27792E+04
 -1       107-1.58865E+04 2.33964E+05-7.50065E+04
 -1       108-1.68011E+04-7.12242E+04-4.79230E+04
 -1       109-1.29520E+04-3.69920E+05-1.32795E+04
 -1       110-5.22192E+03-5.69154E+05 1.58878E+04
 -1       111 4.29786E+03-6.05237E+05 2.97366E+04
 -1       112 1.29246E+04-4.64231E+05 2.48605E+04
 -1       113 1.81945E+04-1.86769E+05 5.23582E+03
 -1       114 1.86129E+04 1.44399E+05-1.94127E+04
 -1       115 1.41081E+04 4.30188E+05-3.72470E+04
 -1       116 6.04774E+03 5.86118E+05-3.87070E+04
 -1       117-3.18840E+03 5.68573E+05-2.01567E+04
 -1       118-1.09399E+04 3.88049E+05 1.44672E+04
 -1       119-1.50711E+04 1.05282E+05 5.45931E+04
 -1       120-1.45948E+04-1.88337E+05 8.62571E+04
 -1       121-9.92003E+03-3.99589E+05 9.65865E+04
 -1       122-2.64820E+03-4.61915E+05 7.80205E+04
 -1       123 5.01792E+03-3.54072E+05 3.07978E+04
 -1       124 1.10777E+04-1.02458E+05-3.73079E+04
 -1       125 1.44803E+04 2.34651E+05-1.14959E+05
 -1       126 7.31205E+03 8.56863E+05 8.53989E+03
 -1       127 9.50156E+03 1.14615E+06-2.94938E-06
 -1       128 7.31205E+03 8.56863E+05-8.53989E+03
 -1       129 3.40719E+03-1.21888E+05-2.81009E+04
 -1       130 3.56370E+03-2.87404E+05-7.20817E+04
 -1       131 2.07748E+02-4.15688E+05-1.13736E+05
 -1       132-4.89108E+03-4.29553E+05-1.33886E+05
 -1       133-9.45129E+03-3.04046E+05-1.23995E+05
 -1       134-1.14443E+04-6.87411E+04-8.63460E+04
 -1       135-9.70864E+03 2.04586E+05-3.19775E+04
 -1       136-4.35834E+03 4.26925E+05 2.34843E+04
 -1       137 3.21650E+03 5.22149E+05 6.50019E+04
 -1       138 1.07656E+04 4.52901E+05 8.27792E+04
 -1       139 1.58865E+04 2.33964E+05 7.50065E+04
 -1       140 1.68011E+04-7.12242E+04 4.79230E+04
 -1       141 1.29520E+04-3.69920E+05 1.32795E+04
 -1       142 5.22192E+03-5.69154E+05-1.58878E+04
 -1       143-4.29786E+03-6.05237E+05-2.97366E+04
 -1       144-1.29246E+04-4.64231E+05-2.48605E+04
 -1       145-1.81945E+04-1.86769E+05-5.23582E+03
 -1       146-1.86129E+04 1.44399E+05 1.94127E+04
 -1       147-1.41081E+04 4.30188E+05 3.72470E+04
 -1       148-6.04774E+03 5.86118E+05 3.87070E+04
 -1       149 3.18840E+03 5.68573E+05 2.01567E+04
 -1       150 1.09399E+04 3.88049E+05-1.44672E+04
 -1       151 1.50711E+04 1.05282E+05-5.45931E+04
 -1       152 1.45948E+04-1.88337E+05-8.62571E+04
 -1       153 9.92003E+03-3.99589E+05-9.65865E+04
 -1       154 2.64820E+03-4.61915E+05-7.80205E+04
 -1       155-5.01792E+03-3.54072E+05-3.07978E+04
 -1       156-1.10777E+04-1.02458E+05 3.73079E+04
 -1       157-1.44803E+04 2.34651E+05 1.14959E+05
 -1       158-7.31205E+03 8.56863E+05 8.53989E+03
 -1       159-9.50156E+03 1.14615E+06-1.75927E-06
 -1       160-7.31205E+03 8.56863E+05-8.53989E+03
 -1       161-3.25050E+03-2.58531E+04-2.62016E+04
 -1       162-3.56571E+03-5.29807E+04-6.69928E+04
 -1       163-5.00060E+02-6.51577E+04-1.05607E+05
 -1       164 4.28423E+03-4.89831E+04-1.24320E+05
 -1       165 8.64131E+03-2.68797E+03-1.15227E+05
 -1       166 1.06640E+04 6.28663E+04-8.04150E+04
 -1       167 9.24367E+03 1.27325E+05-3.00737E+04
 -1       168 4.45252E+03 1.67505E+05 2.13486E+04
 -1       169-2.45139E+03 1.65372E+05 5.99325E+04
 -1       170-9.40553E+03 1.14701E+05 7.65937E+04
 -1       171-1.41952E+04 2.41495E+04 6.96265E+04
 -1       172-1.51704E+04-8.43865E+04 4.47665E+04
 -1       173-1.17977E+04-1.81757E+05 1.28504E+04
 -1       174-4.86586E+03-2.40107E+05-1.40872E+04
 -1       175 3.72440E+03-2.41348E+05-2.69517E+04
 -1       176 1.15256E+04-1.82886E+05-2.25855E+04
 -1       177 1.62870E+04-7.87677E+04-4.64339E+03
 -1       178 1.66440E+04 4.41707E+04 1.79138E+04
 -1       179 1.25349E+04 1.54005E+05 3.41764E+04
 -1       180 5.21447E+03 2.22936E+05 3.53392E+04
 -1       181-3.13791E+03 2.35193E+05 1.80679E+04
 -1       182-1.00913E+04 1.91235E+05-1.39810E+04
 -1       183-1.37020E+04 1.07032E+05-5.10284E+04
 -1       184-1.30841E+04 8.76125E+03-8.01675E+04
 -1       185-8.63483E+03-7.53245E+04-8.95062E+04
 -1       186-1.84661E+03-1.23247E+05-7.20694E+04
 -1       187 5.23358E+03-1.25275E+05-2.81193E+04
 -1       188 1.07529E+04-8.57577E+04 3.50472E+04
 -1       189 1.38031E+04-2.03764E+04 1.06776E+05
 -1       190 1.41224E+07 1.94130E+04 4.01968E+06
 -1       191-1.08114E+07 8.49067E+05-2.95071E+06
 -1       192 3.52624E+04 2.23535E+04 3.95573E+05
 -1       193-1.33723E+04-2.17260E+04-1.09467E+05
 -1       194-1.39118E+04-4.25784E+04-2.79243E+05
 -1       195-1.37601E+03-5.11933E+04-4.39649E+05
 -1       196 1.76001E+04-3.72693E+04-5.17638E+05
 -1       197 3.46926E+04 5.81344E+02-4.80559E+05
 -1       198 4.23683E+04 5.35363E+04-3.36843E+05
 -1       199 3.62877E+04 1.05172E+05-1.28425E+05
 -1       200 1.68135E+04 1.36846E+05 8.50520E+04
 -1       201-1.09712E+04 1.34125E+05 2.45993E+05
 -1       202-3.87911E+04 9.21374E+04 3.16670E+05
 -1       203-5.77884E+04 1.80302E+04 2.89763E+05
 -1       204-6.13891E+04-7.03771E+04 1.88671E+05
 -1       205-4.75035E+04-1.49445E+05 5.78902E+04
 -1       206-1.93426E+04-1.96627E+05-5.30552E+04
 -1       207 1.54310E+04-1.97316E+05-1.06670E+05
 -1       208 4.69714E+04-1.49463E+05-8.98482E+04
 -1       209 6.62314E+04-6.44980E+04-1.74976E+04
 -1       210 6.77232E+04 3.57904E+04 7.36524E+04
 -1       211 5.11902E+04 1.25490E+05 1.38865E+05
 -1       212 2.16633E+04 1.82020E+05 1.42080E+05
 -1       213-1.21098E+04 1.92530E+05 6.97650E+04
 -1       214-4.03592E+04 1.57304E+05-6.28474E+04
 -1       215-5.52535E+04 8.92008E+04-2.15347E+05
 -1       216-5.31923E+04 9.37532E+03-3.34489E+05
 -1       217-3.57163E+04-5.92877E+04-3.71251E+05
 -1       218-8.77217E+03-9.89174E+04-2.96973E+05
 -1       219 1.94266E+04-1.01473E+05-1.13157E+05
 -1       220 4.13274E+04-7.02467E+04 1.49189E+05
 -1       221 5.31330E+04-1.75770E+04 4.43628E+05
 -1       222-7.17474E+03-2.83874E+04-1.09379E+05
 -1       223-5.95782E+03-5.96294E+04-2.79337E+05
 -1       224 4.27322E+03-7.80404E+04-4.39865E+05
 -1       225 1.85857E+04-6.88874E+04-5.17876E+05
 -1       226 3.05012E+04-2.88042E+04-4.80715E+05
 -1       227 3.42001E+04 3.28808E+04-3.36840E+05
 -1       228 2.65217E+04 9.72014E+04-1.28237E+05
 -1       229 8.18229E+03 1.41892E+05 8.53842E+04
 -1       230-1.62544E+04 1.49014E+05 2.46377E+05
 -1       231-3.96907E+04 1.11395E+05 3.16988E+05
 -1       232-5.46962E+04 3.57265E+04 2.89910E+05
 -1       233-5.59039E+04-5.87617E+04 1.88589E+05
 -1       234-4.18293E+04-1.45736E+05 5.75877E+04
 -1       235-1.55146E+04-1.99649E+05-5.35012E+04
 -1       236 1.62341E+04-2.03615E+05-1.07138E+05
 -1       237 4.47997E+04-1.54788E+05-9.02059E+04
 -1       238 6.23026E+04-6.54949E+04-1.76446E+04
 -1       239 6.39543E+04 4.02531E+04 7.37560E+04
 -1       240 4.94836E+04 1.33839E+05 1.39186E+05
 -1       241 2.31920E+04 1.90502E+05 1.42525E+05
 -1       242-7.37270E+03 1.96577E+05 7.02037E+04
 -1       243-3.37035E+04 1.53282E+05-6.25366E+04
 -1       244-4.88607E+04 7.59312E+04-2.15244E+05
 -1       245-4.94487E+04-1.10877E+04-3.34611E+05
 -1       246-3.64378E+04-8.19139E+04-3.71546E+05
 -1       247-1.45962E+04-1.16941E+05-2.97346E+05
 -1       248 9.26706E+03-1.08239E+05-1.13498E+05
 -1       249 2.87011E+04-6.10173E+04 1.48960E+05
 -1       250 4.00363E+04 9.42185E+03 4.43528E+05
 -1       251 2.70612E+04 6.05338E+04 3.95509E+05
 -1       252 1.38031E+04-2.03764E+04-1.06776E+05
 -1       253 1.07529E+04-8.57577E+04-3.50472E+04
 -1       254 5.23358E+03-1.25275E+05 2.81193E+04
 -1       255-1.84661E+03-1.23247E+05 7.20694E+04
 -1       256-8.63483E+03-7.53245E+04 8.95062E+04
 -1       257-1.30841E+04 8.76125E+03 8.01675E+04
 -1       258-1.37020E+04 1.07032E+05 5.10284E+04
 -1       259-1.00913E+04 1.91235E+05 1.39810E+04
 -1       260-3.13791E+03 2.35193E+05-1.80679E+04
 -1       261 5.21447E+03 2.22936E+05-3.53392E+04
 -1       262 1.25349E+04 1.54005E+05-3.41764E+04
 -1       263 1.66440E+04 4.41707E+04-1.79138E+04
 -1       264 1.62870E+04-7.87677E+04 4.64339E+03
 -1       265 1.15256E+04-1.82886E+05 2.25855E+04
 -1       266 3.72440E+03-2.41348E+05 2.69517E+04
 -1       267-4.86586E+03-2.40107E+05 1.40872E+04
 -1       268-1.17977E+04-1.81757E+05-1.28504E+04
 -1       269-1.51704E+04-8.43865E+04-4.47665E+04
 -1       270-1.41952E+04 2.41495E+04-6.96265E+04
 -1       271-9.40553E+03 1.14701E+05-7.65937E+04
 -1       272-2.45139E+03 1.65372E+05-5.99325E+04
 -1       273 4.45252E+03 1.67505E+05-2.13486E+04
 -1       274 9.24367E+03 1.27325E+05 3.00737E+04
 -1       275 1.06640E+04 6.28663E+04 8.04150E+04
 -1       276 8.64131E+03-2.68797E+03 1.15227E+05
 -1       277 4.28423E+03-4.89831E+04 1.24320E+05
 -1       278-5.00060E+02-6.51577E+04 1.05607E+05
 -1       279-3.56571E+03-5.29807E+04 6.69928E+04
 -1       280-3.25050E+03-2.58531E+04 2.62016E+04
 -1       281-1.08114E+07 8.49067E+05 2.95071E+06
 -1       282 1.41224E+07 1.94130E+04-4.01968E+06
 -1       283-7.17474E+03-2.83874E+04 1.09379E+05
 -1       284-5.95782E+03-5.96294E+04 2.79337E+05
 -1       285 4.27322E+03-7.80404E+04 4.39865E+05
 -1       286 1.85857E+04-6.88874E+04 5.17876E+05
 -1       287 3.05012E+04-2.88042E+04 4.80715E+05
 -1       288 3.42001E+04 3.28808E+04 3.36840E+05
 -1       289 2.65217E+04 9.72014E+04 1.28237E+05
 -1       290 8.18229E+03 1.41892E+05-8.53842E+04
 -1       291-1.62544E+04 1.49014E+05-2.46377E+05
 -1       292-3.96907E+04 1.11395E+05-3.16988E+05
 -1       293-5.46962E+04 3.57265E+04-2.89910E+05
 -1       294-5.59039E+04-5.87617E+04-1.88589E+05
 -1       295-4.18293E+04-1.45736E+05-5.75877E+04
 -1       296-1.55146E+04-1.99649E+05 5.35012E+04
 -1       297 1.62341E+04-2.03615E+05 1.07138E+05
 -1       298 4.47997E+04-1.54788E+05 9.02059E+04
 -1       299 6.23026E+04-6.54949E+04 1.76446E+04
 -1       300 6.39543E+04 4.02531E+04-7.37560E+04
 -1       301 4.94836E+04 1.33839E+05-1.39186E+05
 -1       302 2.31920E+04 1.90502E+05-1.42525E+05
 -1       303-7.37270E+03 1.96577E+05-7.02037E+04
 -1       304-3.37035E+04 1.53282E+05 6.25366E+04
 -1       305-4.88607E+04 7.59312E+04 2.15244E+05
 -1       306-4.94487E+04-1.10877E+04 3.34611E+05
 -1       307-3.64378E+04-8.19139E+04 3.71546E+05
 -1       308-1.45962E+04-1.16941E+05 2.97346E+05
 -1       309 9.26706E+03-1.08239E+05 1.13498E+05
 -1       310 2.87011E+04-6.10173E+04-1.48960E+05
 -1       311 4.00363E+04 9.42185E+03-4.43528E+05
 -1       312 2.70612E+04 6.05338E+04-3.95509E+05
 -1       313-1.33723E+04-2.17260E+04 1.09467E+05
 -1       314-1.39118E+04-4.25784E+04 2.79243E+05
 -1       315-1.37601E+03-5.11933E+04 4.39649E+05
 -1       316 1.76001E+04-3.72693E+04 5.17638E+05
 -1       317 3.46926E+04 5.81344E+02 4.80559E+05
 -1       318 4.23683E+04 5.35363E+04 3.36843E+05
 -1       319 3.62877E+04 1.05172E+05 1.28425E+05
 -1       320 1.68135E+04 1.36846E+05-8.50520E+04
 -1       321-1.09712E+04 1.34125E+05-2.45993E+05
 -1       322-3.87911E+04 9.21374E+04-3.16670E+05
 -1       323-5.77884E+04 1.80302E+04-2.89763E+05
 -1       324-6.13891E+04-7.03771E+04-1.88671E+05
 -1       325-4.75035E+04-1.49445E+05-5.78902E+04
 -1       326-1.93426E+04-1.96627E+05 5.30552E+04
 -1       327 1.54310E+04-1.97316E+05 1.06670E+05
 -1       328 4.69714E+04-1.49463E+05 8.98482E+04
 -1       329 6.62314E+04-6.44980E+04 1.74976E+04
 -1       330 6.77232E+04 3.57904E+04-7.36524E+04
 -1       331 5.11902E+04 1.25490E+05-1.38865E+05
 -1       332 2.16633E+04 1.82020E+05-1.42080E+05
 -1       333-1.21098E+04 1.92530E+05-6.97650E+04
 -1       334-4.03592E+04 1.57304E+05 6.28474E+04
 -1       335-5.52535E+04 8.92008E+04 2.15347E+05
 -1       336-5.31923E+04 9.37532E+03 3.34489E+05
 -1       337-3.57163E+04-5.92877E+04 3.71251E+05
 -1       338-8.77217E+03-9.89174E+04 2.96973E+05
 -1       339 1.94266E+04-1.01473E+05 1.13157E+05
 -1       340 4.13274E+04-7.02467E+04-1.49189E+05
 -1       341 5.31330E+04-1.75770E+04-4.43628E+05
 -1       342 3.52624E+04 2.23535E+04-3.95573E+05
 -1       343 1.33723E+04-2.17260E+04 1.09467E+05
 -1       344 1.39118E+04-4.25784E+04 2.79243E+05
 -1       345 1.37601E+03-5.11933E+04 4.39649E+05
 -1       346-1.76001E+04-3.72693E+04 5.17638E+05
 -1       347-3.46926E+04 5.81344E+02 4.80559E+05
 -1       348-4.23683E+04 5.35363E+04 3.36843E+05
 -1       349-3.62877E+04 1.05172E+05 1.28425E+05
 -1       350-1.68135E+04 1.36846E+05-8.50520E+04
 -1       351 1.09712E+04 1.34125E+05-2.45993E+05
 -1       352 3.87911E+04 9.21374E+04-3.16670E+05
 -1       353 5.77884E+04 1.80302E+04-2.89763E+05
 -1       354 6.13891E+04-7.03771E+04-1.88671E+05
 -1       355 4.75035E+04-1.49445E+05-5.78902E+04
 -1       356 1.93426E+04-1.96627E+05 5.30552E+04
 -1       357-1.54310E+04-1.97316E+05 1.06670E+05
 -1       358-4.69714E+04-1.49463E+05 8.98482E+04
 -1       359-6.62314E+04-6.44980E+04 1.74976E+04
 -1       360-6.77232E+04 3.57904E+04-7.36524E+04
 -1       361-5.11902E+04 1.25490E+05-1.38865E+05
 -1       362-2.16633E+04 1.82020E+05-1.42080E+05
 -1       363 1.21098E+04 1.92530E+05-6.97650E+04
 -1       364 4.03592E+04 1.57304E+05 6.28474E+04
 -1       365 5.52535E+04 8.92008E+04 2.15347E+05
 -1       366 5.31923E+04 9.37532E+03 3.34489E+05
 -1       367 3.57163E+04-5.92877E+04 3.71251E+05
 -1       368 8.77217E+03-9.89174E+04 2.96973E+05
 -1       369-1.94266E+04-1.01473E+05 1.13157E+05
 -1       370-4.13274E+04-7.02467E+04-1.49189E+05
 -1       371-5.31330E+04-1.75770E+04-4.43628E+05
 -1       372 7.17474E+03-2.83874E+04 1.09379E+05
 -1       373 5.95782E+03-5.96294E+04 2.79337E+05
 -1       374-4.27322E+03-7.80404E+04 4.39865E+05
 -1       375-1.85857E+04-6.88874E+04 5.17876E+05
 -1       376-3.05012E+04-2.88042E+04 4.80715E+05
 -1       377-3.42001E+04 3.28808E+04 3.36840E+05
 -1       378-2.65217E+04 9.72014E+04 1.28237E+05
 -1       379-8.18229E+03 1.41892E+05-8.53842E+04
 -1       380 1.62544E+04 1.49014E+05-2.46377E+05
 -1       381 3.96907E+04 1.11395E+05-3.16988E+05
 -1       382 5.46962E+04 3.57265E+04-2.89910E+05
 -1       383 5.59039E+04-5.87617E+04-1.88589E+05
 -1       384 4.18293E+04-1.45736E+05-5.75877E+04
 -1       385 1.55146E+04-1.99649E+05 5.35012E+04
 -1       386-1.62341E+04-2.03615E+05 1.07138E+05
 -1       387-4.47997E+04-1.54788E+05 9.02059E+04
 -1       388-6.23026E+04-6.54949E+04 1.76446E+04
 -1       389-6.39543E+04 4.02531E+04-7.37560E+04
 -1       390-4.94836E+04 1.33839E+05-1.39186E+05
 -1       391-2.31920E+04 1.90502E+05-1.42525E+05
 -1       392 7.37270E+03 1.96577E+05-7.02037E+04
 -1       393 3.37035E+04 1.53282E+05 6.25366E+04
 -1       394 4.88607E+04 7.59312E+04 2.15244E+05
 -1       395 4.94487E+04-1.10877E+04 3.34611E+05
 -1       396 3.64378E+04-8.19139E+04 3.71546E+05
 -1       397 1.45962E+04-1.16941E+05 2.97346E+05
 -1       398-9.26706E+03-1.08239E+05 1.13498E+05
 -1       399-2.87011E+04-6.10173E+04-1.48960E+05
 -1       400-4.00363E+04 9.42185E+03-4.43528E+05
 -1       401-1.41224E+07 1.94130E+04-4.01968E+06
 -1       402 1.08114E+07 8.49067E+05 2.95071E+06
 -1       403-3.52624E+04 2.23535E+04-3.95573E+05
 -1       404 3.25050E+03-2.58531E+04 2.62016E+04
 -1       405 3.56571E+03-5.29807E+04 6.69928E+04
 -1       406 5.00060E+02-6.51577E+04 1.05607E+05
 -1       407-4.28423E+03-4.89831E+04 1.24320E+05
 -1       408-8.64131E+03-2.68797E+03 1.15227E+05
 -1       409-1.06640E+04 6.28663E+04 8.04150E+04
 -1       410-9.24367E+03 1.27325E+05 3.00737E+04
 -1       411-4.45252E+03 1.67505E+05-2.13486E+04
 -1       412 2.45139E+03 1.65372E+05-5.99325E+04
 -1       413 9.40553E+03 1.14701E+05-7.65937E+04
 -1       414 1.41952E+04 2.41495E+04-6.96265E+04
 -1       415 1.51704E+04-8.43865E+04-4.47665E+04
 -1       416 1.17977E+04-1.81757E+05-1.28504E+04
 -1       417 4.86586E+03-2.40107E+05 1.40872E+04
 -1       418-3.72440E+03-2.41348E+05 2.69517E+04
 -1       419-1.15256E+04-1.82886E+05 2.25855E+04
 -1       420-1.62870E+04-7.87677E+04 4.64339E+03
 -1       421-1.66440E+04 4.41707E+04-1.79138E+04
 -1       422-1.25349E+04 1.54005E+05-3.41764E+04
 -1       423-5.21447E+03 2.22936E+05-3.53392E+04
 -1       424 3.13791E+03 2.35193E+05-1.80679E+04
 -1       425 1.00913E+04 1.91235E+05 1.39810E+04
 -1       426 1.37020E+04 1.07032E+05 5.10284E+04
 -1       427 1.30841E+04 8.76125E+03 8.01675E+04
 -1       428 8.63483E+03-7.53245E+04 8.95062E+04
 -1       429 1.84661E+03-1.23247E+05 7.20694E+04
 -1       430-5.23358E+03-1.25275E+05 2.81193E+04
 -1       431-1.07529E+04-8.57577E+04-3.50472E+04
 -1       432-1.38031E+04-2.03764E+04-1.06776E+05
 -1       433-2.70612E+04 6.05338E+04-3.95509E+05
 -1       434-1.41224E+07 1.94130E+04 4.01968E+06
 -1       435 1.08114E+07 8.49067E+05-2.95071E+06
 -1       436-1.38031E+04-2.03764E+04 1.06776E+05
 -1       437-1.07529E+04-8.57577E+04 3.50472E+04
 -1       438-5.23358E+03-1.25275E+05-2.81193E+04
 -1       439 1.84661E+03-1.23247E+05-7.20694E+04
 -1       440 8.63483E+03-7.53245E+04-8.95062E+04
 -1       441 1.30841E+04 8.76125E+03-8.01675E+04
 -1       442 1.37020E+04 1.07032E+05-5.10284E+04
 -1       443 1.00913E+04 1.91235E+05-1.39810E+04
 -1       444 3.13791E+03 2.35193E+05 1.80679E+04
 -1       445-5.21447E+03 2.22936E+05 3.53392E+04
 -1       446-1.25349E+04 1.54005E+05 3.41764E+04
 -1       447-1.66440E+04 4.41707E+04 1.79138E+04
 -1       448-1.62870E+04-7.87677E+04-4.64339E+03
 -1       449-1.15256E+04-1.82886E+05-2.25855E+04
 -1       450-3.72440E+03-2.41348E+05-2.69517E+04
 -1       451 4.86586E+03-2.40107E+05-1.40872E+04
 -1       452 1.17977E+04-1.81757E+05 1.28504E+04
 -1       453 1.51704E+04-8.43865E+04 4.47665E+04
 -1       454 1.41952E+04 2.41495E+04 6.96265E+04
 -1       455 9.40553E+03 1.14701E+05 7.65937E+04
 -1       456 2.45139E+03 1.65372E+05 5.99325E+04
 -1       457-4.45252E+03 1.67505E+05 2.13486E+04
 -1       458-9.24367E+03 1.27325E+05-3.00737E+04
 -1       459-1.06640E+04 6.28663E+04-8.04150E+04
 -1       460-8.64131E+03-2.68797E+03-1.15227E+05
 -1       461-4.28423E+03-4.89831E+04-1.24320E+05
 -1       462 5.00060E+02-6.51577E+04-1.05607E+05
 -1       463 3.56571E+03-5.29807E+04-6.69928E+04
 -1       464 3.25050E+03-2.58531E+04-2.62016E+04
 -1       465-3.52624E+04 2.23535E+04 3.95573E+05
 -1       466 1.33723E+04-2.17260E+04-1.09467E+05
 -1       467 1.39118E+04-4.25784E+04-2.79243E+05
 -1       468 1.37601E+03-5.11933E+04-4.39649E+05
 -1       469-1.76001E+04-3.72693E+04-5.17638E+05
 -1       470-3.46926E+04 5.81344E+02-4.80559E+05
 -1       471-4.23683E+04 5.35363E+04-3.36843E+05
 -1       472-3.62877E+04 1.05172E+05-1.28425E+05
 -1       473-1.68135E+04 1.36846E+05 8.50520E+04
 -1       474 1.09712E+04 1.34125E+05 2.45993E+05
 -1       475 3.87911E+04 9.21374E+04 3.16670E+05
 -1       476 5.77884E+04 1.80302E+04 2.89763E+05
 -1       477 6.13891E+04-7.03771E+04 1.88671E+05
 -1       478 4.75035E+04-1.49445E+05 5.78902E+04
 -1       479 1.93426E+04-1.96627E+05-5.30552E+04
 -1       480-1.54310E+04-1.97316E+05-1.06670E+05
 -1       481-4.69714E+04-1.49463E+05-8.98482E+04
 -1       482-6.62314E+04-6.44980E+04-1.74976E+04
 -1       483-6.77232E+04 3.57904E+04 7.36524E+04
 -1       484-5.11902E+04 1.25490E+05 1.38865E+05
 -1       485-2.16633E+04 1.82020E+05 1.42080E+05
 -1       486 1.21098E+04 1.92530E+05 6.97650E+04
 -1       487 4.03592E+04 1.57304E+05-6.28474E+04
 -1       488 5.52535E+04 8.92008E+04-2.15347E+05
 -1       489 5.31923E+04 9.37532E+03-3.34489E+05
 -1       490 3.57163E+04-5.92877E+04-3.71251E+05
 -1       491 8.77217E+03-9.89174E+04-2.96973E+05
 -1       492-1.94266E+04-1.01473E+05-1.13157E+05
 -1       493-4.13274E+04-7.02467E+04 1.49189E+05
 -1       494-5.31330E+04-1.75770E+04 4.43628E+05
 -1       495 7.17474E+03-2.83874E+04-1.09379E+05
 -1       496 5.95782E+03-5.96294E+04-2.79337E+05
 -1       497-4.27322E+03-7.80404E+04-4.39865E+05
 -1       498-1.85857E+04-6.88874E+04-5.17876E+05
 -1       499-3.05012E+04-2.88042E+04-4.80715E+05
 -1       500-3.42001E+04 3.28808E+04-3.36840E+05
 -1       501-2.65217E+04 9.72014E+04-1.28237E+05
 -1       502-8.18229E+03 1.41892E+05 8.53842E+04
 -1       503 1.62544E+04 1.49014E+05 2.46377E+05
 -1       504 3.96907E+04 1.11395E+05 3.16988E+05
 -1       505 5.46962E+04 3.57265E+04 2.89910E+05
 -1       506 5.59039E+04-5.87617E+04 1.88589E+05
 -1       507 4.18293E+04-1.45736E+05 5.75877E+04
 -1       508 1.55146E+04-1.99649E+05-5.35012E+04
 -1       509-1.62341E+04-2.03615E+05-1.07138E+05
 -1       510-4.47997E+04-1.54788E+05-9.02059E+04
 -1       511-6.23026E+04-6.54949E+04-1.76446E+04
 -1       512-6.39543E+04 4.02531E+04 7.37560E+04
 -1       513-4.94836E+04 1.33839E+05 1.39186E+05
 -1       514-2.31920E+04 1.90502E+05 1.42525E+05
 -1       515 7.37270E+03 1.96577E+05 7.02037E+04
 -1       516 3.37035E+04 1.53282E+05-6.25366E+04
 -1       517 4.88607E+04 7.59312E+04-2.15244E+05
 -1       518 4.94487E+04-1.10877E+04-3.34611E+05
 -1       519 3.64378E+04-8.19139E+04-3.71546E+05
 -1       520 1.45962E+04-1.16941E+05-2.97346E+05
 -1       521-9.26706E+03-1.08239E+05-1.13498E+05
 -1       522-2.87011E+04-6.10173E+04 1.48960E+05
 -1       523-4.00363E+04 9.42185E+03 4.43528E+05
 -1       524-2.70612E+04 6.05338E+04 3.95509E+05
 -1       525-5.78644E+03-3.15575E+05-2.61601E+03
 -1       526-7.19952E+03-7.98221E+05-6.92273E+03
 -1       527-4.54700E+03-1.22807E+06-1.10636E+04
 -1       528 3.73040E+02-1.38152E+06-1.30242E+04
 -1       529 5.52928E+03-1.17073E+06-1.19338E+04
 -1       530 9.08251E+03-6.46082E+05-8.06168E+03
 -1       531 9.85086E+03 3.40182E+04-2.56810E+03
 -1       532 7.61050E+03 6.60981E+05 2.93798E+03
 -1       533 3.12233E+03 1.04573E+06 6.93075E+03
 -1       534-2.13841E+03 1.07973E+06 8.44012E+03
 -1       535-6.47165E+03 7.68721E+05 7.32656E+03
 -1       536-8.50660E+03 2.28896E+05 4.27958E+03
 -1       537-7.64310E+03-3.52668E+05 5.48966E+02
 -1       538-4.23859E+03-7.80218E+05-2.49685E+03
 -1       539 5.18131E+02-9.13691E+05-3.83655E+03
 -1       540 5.00395E+03-7.14242E+05-3.13143E+03
 -1       541 7.69867E+03-2.56167E+05-8.21244E+02
 -1       542 7.68700E+03 2.98584E+05 2.04875E+03
 -1       543 4.96125E+03 7.54832E+05 4.20924E+03
 -1       544 4.26209E+02 9.49666E+05 4.62724E+03
 -1       545-4.39590E+03 8.07506E+05 2.88943E+03
 -1       546-7.86410E+03 3.66602E+05-6.22521E+02
 -1       547-8.75816E+03-2.31827E+05-4.82728E+03
 -1       548-6.68017E+03-7.88332E+05-8.28180E+03
 -1       549-2.17962E+03-1.10901E+06-9.64925E+03
 -1       550 3.45418E+03-1.06640E+06-8.13044E+03
 -1       551 8.68228E+03-6.35453E+05-3.68640E+03
 -1       552 1.23337E+04 1.10513E+05 3.06397E+03
 -1       553 1.41264E+04 1.04498E+06 1.12404E+04
 -1       554-7.46233E+03-4.03385E+05-4.99653E-06
 -1       555-9.43920E+03-1.03102E+06 3.07698E-06
 -1       556-6.14187E+03-1.60083E+06 4.78478E-06
 -1       557 1.43306E+02-1.82047E+06 2.64960E-06
 -1       558 6.79688E+03-1.57253E+06-1.97458E-06
 -1       559 1.14703E+04-9.16685E+05-6.60334E-06
 -1       560 1.26455E+04-5.07440E+04-6.65433E-06
 -1       561 1.00096E+04 7.62175E+05 6.12385E-07
 -1       562 4.49021E+03 1.28135E+06-1.73431E-06
 -1       563-2.08053E+03 1.36550E+06-5.12085E-06
 -1       564-7.57667E+03 1.01577E+06-2.07009E-06
 -1       565-1.02718E+04 3.71881E+05-1.46323E-06
 -1       566-9.39332E+03-3.36622E+05 4.38699E-06
 -1       567-5.35924E+03-8.67526E+05 4.16151E-06
 -1       568 3.75231E+02-1.04613E+06 6.23604E-08
 -1       569 5.81001E+03-8.22151E+05-2.51785E-06
 -1       570 9.06817E+03-2.84880E+05 9.12700E-07
 -1       571 9.02046E+03 3.68171E+05 2.20468E-06
 -1       572 5.66202E+03 8.98649E+05-5.92219E-06
 -1       573 1.17649E+02 1.10849E+06-7.27857E-06
 -1       574-5.72632E+03 9.07971E+05-1.59856E-06
 -1       575-9.84373E+03 3.48214E+05-1.02402E-06
 -1       576-1.07403E+04-3.92941E+05-7.43719E-07
 -1       577-7.95157E+03-1.06713E+06 4.66773E-06
 -1       578-2.19326E+03-1.43512E+06 8.79589E-06
 -1       579 4.90838E+03-1.34232E+06 3.57671E-06
 -1       580 1.14468E+04-7.62160E+05 8.33061E-07
 -1       581 1.60216E+04 2.11722E+05-2.77287E-08
 -1       582 1.83304E+04 1.42393E+06-4.08744E-06
 -1       583-5.78644E+03-3.15575E+05 2.61601E+03
 -1       584-7.19952E+03-7.98221E+05 6.92273E+03
 -1       585-4.54700E+03-1.22807E+06 1.10636E+04
 -1       586 3.73040E+02-1.38152E+06 1.30242E+04
 -1       587 5.52928E+03-1.17073E+06 1.19338E+04
 -1       588 9.08251E+03-6.46082E+05 8.06168E+03
 -1       589 9.85086E+03 3.40182E+04 2.56810E+03
 -1       590 7.61050E+03 6.60981E+05-2.93798E+03
 -1       591 3.12233E+03 1.04573E+06-6.93075E+03
 -1       592-2.13841E+03 1.07973E+06-8.44012E+03
 -1       593-6.47165E+03 7.68721E+05-7.32656E+03
 -1       594-8.50660E+03 2.28896E+05-4.27958E+03
 -1       595-7.64310E+03-3.52668E+05-5.48966E+02
 -1       596-4.23859E+03-7.80218E+05 2.49685E+03
 -1       597 5.18131E+02-9.13691E+05 3.83655E+03
 -1       598 5.00395E+03-7.14242E+05 3.13143E+03
 -1       599 7.69867E+03-2.56167E+05 8.21244E+02
 -1       600 7.68700E+03 2.98584E+05-2.04875E+03
 -1       601 4.96125E+03 7.54832E+05-4.20924E+03
 -1       602 4.26209E+02 9.49666E+05-4.62724E+03
 -1       603-4.39590E+03 8.07506E+05-2.88943E+03
 -1       604-7.86410E+03 3.66602E+05 6.22521E+02
 -1       605-8.75816E+03-2.31827E+05 4.82728E+03
 -1       606-6.68017E+03-7.88332E+05 8.28180E+03
 -1       607-2.17962E+03-1.10901E+06 9.64925E+03
 -1       608 3.45418E+03-1.06640E+06 8.13044E+03
 -1       609 8.68228E+03-6.35453E+05 3.68640E+03
 -1       610 1.23337E+04 1.10513E+05-3.06397E+03
 -1       611 1.41264E+04 1.04498E+06-1.12404E+04
 -1       612 5.78644E+03-3.15575E+05-2.61601E+03
 -1       613 7.19952E+03-7.98221E+05-6.92273E+03
 -1       614 4.54700E+03-1.22807E+06-1.10636E+04
 -1       615-3.73040E+02-1.38152E+06-1.30242E+04
 -1       616-5.52928E+03-1.17073E+06-1.19338E+04
 -1       617-9.08251E+03-6.46082E+05-8.06168E+03
 -1       618-9.85086E+03 3.40182E+04-2.56810E+03
 -1       619-7.61050E+03 6.60981E+05 2.93798E+03
 -1       620-3.12233E+03 1.04573E+06 6.93075E+03
 -1       621 2.13841E+03 1.07973E+06 8.44012E+03
 -1       622 6.47165E+03 7.68721E+05 7.32656E+03
 -1       623 8.50660E+03 2.28896E+05 4.27958E+03
 -1       624 7.64310E+03-3.52668E+05 5.48966E+02
 -1       625 4.23859E+03-7.80218E+05-2.49685E+03
 -1       626-5.18131E+02-9.13691E+05-3.83655E+03
 -1       627-5.00395E+03-7.14242E+05-3.13143E+03
 -1       628-7.69867E+03-2.56167E+05-8.21244E+02
 -1       629-7.68700E+03 2.98584E+05 2.04875E+03
 -1       630-4.96125E+03 7.54832E+05 4.20924E+03
 -1       631-4.26209E+02 9.49666E+05 4.62724E+03
 -1       632 4.39590E+03 8.07506E+05 2.88943E+03
 -1       633 7.86410E+03 3.66602E+05-6.22521E+02
 -1       634 8.75816E+03-2.31827E+05-4.82728E+03
 -1       635 6.68017E+03-7.88332E+05-8.28180E+03
 -1       636 2.17962E+03-1.10901E+06-9.64925E+03
 -1       637-3.45418E+03-1.06640E+06-8.13044E+03
 -1       638-8.68228E+03-6.35453E+05-3.68640E+03
 -1       639-1.23337E+04 1.10513E+05 3.06397E+03
 -1       640-1.41264E+04 1.04498E+06 1.12404E+04
 -1       641 7.46233E+03-4.03385E+05-5.36515E-06
 -1       642 9.43920E+03-1.03102E+06 1.46555E-06
 -1       643 6.14187E+03-1.60083E+06 6.39595E-06
 -1       644-1.43306E+02-1.82047E+06 2.06419E-06
 -1       645-6.79688E+03-1.57253E+06-3.30765E-06
 -1       646-1.14703E+04-9.16685E+05-1.00749E-05
 -1       647-1.26455E+04-5.07440E+04-6.12122E-06
 -1       648-1.00096E+04 7.62175E+05-5.98011E-07
 -1       649-4.49021E+03 1.28135E+06-3.61215E-06
 -1       650 2.08053E+03 1.36550E+06-6.09267E-06
 -1       651 7.57667E+03 1.01577E+06 2.04470E-06
 -1       652 1.02718E+04 3.71881E+05 3.81416E-06
 -1       653 9.39332E+03-3.36622E+05 7.97707E-07
 -1       654 5.35924E+03-8.67526E+05 3.26421E-06
 -1       655-3.75231E+02-1.04613E+06 2.90830E-06
 -1       656-5.81001E+03-8.22151E+05-4.97219E-06
 -1       657-9.06817E+03-2.84880E+05-1.09103E-06
 -1       658-9.02046E+03 3.68171E+05-6.31422E-07
 -1       659-5.66202E+03 8.98649E+05-6.42186E-06
 -1       660-1.17649E+02 1.10849E+06-5.81095E-06
 -1       661 5.72632E+03 9.07971E+05-1.42587E-07
 -1       662 9.84373E+03 3.48214E+05 3.96439E-06
 -1       663 1.07403E+04-3.92941E+05 1.87551E-06
 -1       664 7.95157E+03-1.06713E+06 4.50562E-06
 -1       665 2.19326E+03-1.43512E+06 6.56962E-06
 -1       666-4.90838E+03-1.34232E+06 5.09415E-06
 -1       667-1.14468E+04-7.62160E+05-9.93957E-07
 -1       668-1.60216E+04 2.11722E+05 1.91439E-06
 -1       669-1.83304E+04 1.42393E+06-3.58454E-06
 -1       670 5.78644E+03-3.15575E+05 2.61601E+03
 -1       671 7.19952E+03-7.98221E+05 6.92273E+03
 -1       672 4.54700E+03-1.22807E+06 1.10636E+04
 -1       673-3.73040E+02-1.38152E+06 1.30242E+04
 -1       674-5.52928E+03-1.17073E+06 1.19338E+04
 -1       675-9.08251E+03-6.46082E+05 8.06168E+03
 -1       676-9.85086E+03 3.40182E+04 2.56810E+03
 -1       677-7.61050E+03 6.60981E+05-2.93798E+03
 -1       678-3.12233E+03 1.04573E+06-6.93075E+03
 -1       679 2.13841E+03 1.07973E+06-8.44012E+03
 -1       680 6.47165E+03 7.68721E+05-7.32656E+03
 -1       681 8.50660E+03 2.28896E+05-4.27958E+03
 -1       682 7.64310E+03-3.52668E+05-5.48966E+02
 -1       683 4.23859E+03-7.80218E+05 2.49685E+03
 -1       684-5.18131E+02-9.13691E+05 3.83655E+03
 -1       685-5.00395E+03-7.14242E+05 3.13143E+03
 -1       686-7.69867E+03-2.56167E+05 8.21244E+02
 -1       687-7.68700E+03 2.98584E+05-2.04875E+03
 -1       688-4.96125E+03 7.54832E+05-4.20924E+03
 -1       689-4.26209E+02 9.49666E+05-4.62724E+03
 -1       690 4.39590E+03 8.07506E+05-2.88943E+03
 -1       691 7.86410E+03 3.66602E+05 6.22521E+02
 -1       692 8.75816E+03-2.31827E+05 4.82728E+03
 -1       693 6.68017E+03-7.88332E+05 8.28180E+03
 -1       694 2.17962E+03-1.10901E+06 9.64925E+03
 -1       695-3.45418E+03-1.06640E+06 8.13044E+03
 -1       696-8.68228E+03-6.35453E+05 3.68640E+03
 -1       697-1.23337E+04 1.10513E+05-3.06397E+03
 -1       698-1.41264E+04 1.04498E+06-1.12404E+04
 -1       699-1.54467E+04-4.29508E+04-1.34659E+05
 -1       700-1.65513E+04-8.64284E+04-3.43595E+05
 -1       701-1.50241E+03-1.05152E+05-5.41112E+05
 -1       702 2.16350E+04-7.76802E+04-6.37051E+05
 -1       703 4.25287E+04-1.18858E+03-5.91100E+05
 -1       704 5.19360E+04 1.06423E+05-4.13738E+05
 -1       705 4.45220E+04 2.11747E+05-1.56769E+05
 -1       706 2.07149E+04 2.76810E+05 1.06203E+05
 -1       707-1.32744E+04 2.72155E+05 3.04152E+05
 -1       708-4.73241E+04 1.87739E+05 3.90611E+05
 -1       709-7.05950E+04 3.79530E+04 3.56658E+05
 -1       710-7.50395E+04-1.41100E+05 2.31281E+05
 -1       711-5.80949E+04-3.01450E+05 6.94915E+04
 -1       712-2.36846E+04-3.97312E+05-6.75306E+04
 -1       713 1.88213E+04-3.98990E+05-1.33492E+05
 -1       714 5.73802E+04-3.02277E+05-1.12248E+05
 -1       715 8.09254E+04-1.30334E+05-2.22673E+04
 -1       716 8.27448E+04 7.26482E+04 9.10153E+04
 -1       717 6.25258E+04 2.54110E+05 1.72269E+05
 -1       718 2.64242E+04 3.68264E+05 1.76876E+05
 -1       719-1.48569E+04 3.89085E+05 8.80410E+04
 -1       720-4.93650E+04 3.17228E+05-7.54916E+04
 -1       721-6.75201E+04 1.78865E+05-2.63868E+05
 -1       722-6.49185E+04 1.69818E+04-4.11363E+05
 -1       723-4.34453E+04-1.21967E+05-4.57450E+05
 -1       724-1.03702E+04-2.01768E+05-3.66705E+05
 -1       725 2.42811E+04-2.06248E+05-1.40800E+05
 -1       726 5.13597E+04-1.42298E+05 1.82316E+05
 -1       727 6.63050E+04-3.53166E+04 5.46531E+05
 -1       728-7.68932E+03-5.61598E+04-1.34545E+05
 -1       729-6.58766E+03-1.19979E+05-3.43663E+05
 -1       730 5.57664E+03-1.57925E+05-5.41308E+05
 -1       731 2.28637E+04-1.39807E+05-6.37264E+05
 -1       732 3.72636E+04-5.88866E+04-5.91223E+05
 -1       733 4.16863E+04 6.59341E+04-4.13692E+05
 -1       734 3.22752E+04 1.96232E+05-1.56532E+05
 -1       735 9.90032E+03 2.86893E+05 1.06582E+05
 -1       736-1.98813E+04 3.01561E+05 3.04573E+05
 -1       737-4.84268E+04 2.25668E+05 3.90945E+05
 -1       738-6.66893E+04 7.27211E+04 3.56794E+05
 -1       739-6.81360E+04-1.18385E+05 2.31161E+05
 -1       740-5.09634E+04-2.94362E+05 6.91293E+04
 -1       741-1.88810E+04-4.03498E+05-6.80474E+04
 -1       742 1.98174E+04-4.11612E+05-1.34028E+05
 -1       743 5.46333E+04-3.12924E+05-1.12656E+05
 -1       744 7.59674E+04-1.32375E+05-2.24377E+04
 -1       745 7.79861E+04 8.14564E+04 9.11277E+04
 -1       746 6.03585E+04 2.70664E+05 1.72629E+05
 -1       747 2.83247E+04 3.85151E+05 1.77379E+05
 -1       748-8.91987E+03 3.97280E+05 8.85471E+04
 -1       749-4.10094E+04 3.09536E+05-7.51192E+04
 -1       750-5.94842E+04 1.52929E+05-2.63721E+05
 -1       751-6.01987E+04-2.31797E+04-4.11465E+05
 -1       752-4.43220E+04-1.66469E+05-4.57752E+05
 -1       753-1.76474E+04-2.37300E+05-3.67108E+05
 -1       754 1.15573E+04-2.19690E+05-1.41189E+05
 -1       755 3.55163E+04-1.24269E+05 1.82024E+05
 -1       756 4.97486E+04 1.79275E+04 5.46355E+05
 -1       757-7.68932E+03-5.61598E+04 1.34545E+05
 -1       758-6.58766E+03-1.19979E+05 3.43663E+05
 -1       759 5.57664E+03-1.57925E+05 5.41308E+05
 -1       760 2.28637E+04-1.39807E+05 6.37264E+05
 -1       761 3.72636E+04-5.88866E+04 5.91223E+05
 -1       762 4.16863E+04 6.59341E+04 4.13692E+05
 -1       763 3.22752E+04 1.96232E+05 1.56532E+05
 -1       764 9.90032E+03 2.86893E+05-1.06582E+05
 -1       765-1.98813E+04 3.01561E+05-3.04573E+05
 -1       766-4.84268E+04 2.25668E+05-3.90945E+05
 -1       767-6.66893E+04 7.27211E+04-3.56794E+05
 -1       768-6.81360E+04-1.18385E+05-2.31161E+05
 -1       769-5.09634E+04-2.94362E+05-6.91293E+04
 -1       770-1.88810E+04-4.03498E+05 6.80474E+04
 -1       771 1.98174E+04-4.11612E+05 1.34028E+05
 -1       772 5.46333E+04-3.12924E+05 1.12656E+05
 -1       773 7.59674E+04-1.32375E+05 2.24377E+04
 -1       774 7.79861E+04 8.14564E+04-9.11277E+04
 -1       775 6.03585E+04 2.70664E+05-1.72629E+05
 -1       776 2.83247E+04 3.85151E+05-1.77379E+05
 -1       777-8.91987E+03 3.97280E+05-8.85471E+04
 -1       778-4.10094E+04 3.09536E+05 7.51192E+04
 -1       779-5.94842E+04 1.52929E+05 2.63721E+05
 -1       780-6.01987E+04-2.31797E+04 4.11465E+05
 -1       781-4.43220E+04-1.66469E+05 4.57752E+05
 -1       782-1.76474E+04-2.37300E+05 3.67108E+05
 -1       783 1.15573E+04-2.19690E+05 1.41189E+05
 -1       784 3.55163E+04-1.24269E+05-1.82024E+05
 -1       785 4.97486E+04 1.79275E+04-5.46355E+05
 -1       786-1.54467E+04-4.29508E+04 1.34659E+05
 -1       787-1.65513E+04-8.64284E+04 3.43595E+05
 -1       788-1.50241E+03-1.05152E+05 5.41112E+05
 -1       789 2.16350E+04-7.76802E+04 6.37051E+05
 -1       790 4.25287E+04-1.18858E+03 5.91100E+05
 -1       791 5.19360E+04 1.06423E+05 4.13738E+05
 -1       792 4.45220E+04 2.11747E+05 1.56769E+05
 -1       793 2.07149E+04 2.76810E+05-1.06203E+05
 -1       794-1.32744E+04 2.72155E+05-3.04152E+05
 -1       795-4.73241E+04 1.87739E+05-3.90611E+05
 -1       796-7.05950E+04 3.79530E+04-3.56658E+05
 -1       797-7.50395E+04-1.41100E+05-2.31281E+05
 -1       798-5.80949E+04-3.01450E+05-6.94915E+04
 -1       799-2.36846E+04-3.97312E+05 6.75306E+04
 -1       800 1.88213E+04-3.98990E+05 1.33492E+05
 -1       801 5.73802E+04-3.02277E+05 1.12248E+05
 -1       802 8.09254E+04-1.30334E+05 2.22673E+04
 -1       803 8.27448E+04 7.26482E+04-9.10153E+04
 -1       804 6.25258E+04 2.54110E+05-1.72269E+05
 -1       805 2.64242E+04 3.68264E+05-1.76876E+05
 -1       806-1.48569E+04 3.89085E+05-8.80410E+04
 -1       807-4.93650E+04 3.17228E+05 7.54916E+04
 -1       808-6.75201E+04 1.78865E+05 2.63868E+05
 -1       809-6.49185E+04 1.69818E+04 4.11363E+05
 -1       810-4.34453E+04-1.21967E+05 4.57450E+05
 -1       811-1.03702E+04-2.01768E+05 3.66705E+05
 -1       812 2.42811E+04-2.06248E+05 1.40800E+05
 -1       813 5.13597E+04-1.42298E+05-1.82316E+05
 -1       814 6.63050E+04-3.53166E+04-5.46531E+05
 -1       815 1.54467E+04-4.29508E+04 1.34659E+05
 -1       816 1.65513E+04-8.64284E+04 3.43595E+05
 -1       817 1.50241E+03-1.05152E+05 5.41112E+05
 -1       818-2.16350E+04-7.76802E+04 6.37051E+05
 -1       819-4.25287E+04-1.18858E+03 5.91100E+05
 -1       820-5.19360E+04 1.06423E+05 4.13738E+05
 -1       821-4.45220E+04 2.11747E+05 1.56769E+05
 -1       822-2.07149E+04 2.76810E+05-1.06203E+05
 -1       823 1.32744E+04 2.72155E+05-3.04152E+05
 -1       824 4.73241E+04 1.87739E+05-3.90611E+05
 -1       825 7.05950E+04 3.79530E+04-3.56658E+05
 -1       826 7.50395E+04-1.41100E+05-2.31281E+05
 -1       827 5.80949E+04-3.01450E+05-6.94915E+04
 -1       828 2.36846E+04-3.97312E+05 6.75306E+04
 -1       829-1.88213E+04-3.98990E+05 1.33492E+05
 -1       830-5.73802E+04-3.02277E+05 1.12248E+05
 -1       831-8.09254E+04-1.30334E+05 2.22673E+04
 -1       832-8.27448E+04 7.26482E+04-9.10153E+04
 -1       833-6.25258E+04 2.54110E+05-1.72269E+05
 -1       834-2.64242E+04 3.68264E+05-1.76876E+05
 -1       835 1.48569E+04 3.89085E+05-8.80410E+04
 -1       836 4.93650E+04 3.17228E+05 7.54916E+04
 -1       837 6.75201E+04 1.78865E+05 2.63868E+05
 -1       838 6.49185E+04 1.69818E+04 4.11363E+05
 -1       839 4.34453E+04-1.21967E+05 4.57450E+05
 -1       840 1.03702E+04-2.01768E+05 3.66705E+05
 -1       841-2.42811E+04-2.06248E+05 1.40800E+05
 -1       842-5.13597E+04-1.42298E+05-1.82316E+05
 -1       843-6.63050E+04-3.53166E+04-5.46531E+05
 -1       844 7.68932E+03-5.61598E+04 1.34545E+05
 -1       845 6.58766E+03-1.19979E+05 3.43663E+05
 -1       846-5.57664E+03-1.57925E+05 5.41308E+05
 -1       847-2.28637E+04-1.39807E+05 6.37264E+05
 -1       848-3.72636E+04-5.88866E+04 5.91223E+05
 -1       849-4.16863E+04 6.59341E+04 4.13692E+05
 -1       850-3.22752E+04 1.96232E+05 1.56532E+05
 -1       851-9.90032E+03 2.86893E+05-1.06582E+05
 -1       852 1.98813E+04 3.01561E+05-3.04573E+05
 -1       853 4.84268E+04 2.25668E+05-3.90945E+05
 -1       854 6.66893E+04 7.27211E+04-3.56794E+05
 -1       855 6.81360E+04-1.18385E+05-2.31161E+05
 -1       856 5.09634E+04-2.94362E+05-6.91293E+04
 -1       857 1.88810E+04-4.03498E+05 6.80474E+04
 -1       858-1.98174E+04-4.11612E+05 1.34028E+05
 -1       859-5.46333E+04-3.12924E+05 1.12656E+05
 -1       860-7.59674E+04-1.32375E+05 2.24377E+04
 -1       861-7.79861E+04 8.14564E+04-9.11277E+04
 -1       862-6.03585E+04 2.70664E+05-1.72629E+05
 -1       863-2.83247E+04 3.85151E+05-1.77379E+05
 -1       864 8.91987E+03 3.97280E+05-8.85471E+04
 -1       865 4.10094E+04 3.09536E+05 7.51192E+04
 -1       866 5.94842E+04 1.52929E+05 2.63721E+05
 -1       867 6.01987E+04-2.31797E+04 4.11465E+05
 -1       868 4.43220E+04-1.66469E+05 4.57752E+05
 -1       869 1.76474E+04-2.37300E+05 3.67108E+05
 -1       870-1.15573E+04-2.19690E+05 1.41189E+05
 -1       871-3.55163E+04-1.24269E+05-1.82024E+05
 -1       872-4.97486E+04 1.79275E+04-5.46355E+05
 -1       873-6.63050E+04-3.53166E+04 5.46531E+05
 -1       874-5.13597E+04-1.42298E+05 1.82316E+05
 -1       875-2.42811E+04-2.06248E+05-1.40800E+05
 -1       876 1.03702E+04-2.01768E+05-3.66705E+05
 -1       877 4.34453E+04-1.21967E+05-4.57450E+05
 -1       878 6.49185E+04 1.69818E+04-4.11363E+05
 -1       879 6.75201E+04 1.78865E+05-2.63868E+05
 -1       880 4.93650E+04 3.17228E+05-7.54916E+04
 -1       881 1.48569E+04 3.89085E+05 8.80410E+04
 -1       882-2.64242E+04 3.68264E+05 1.76876E+05
 -1       883-6.25258E+04 2.54110E+05 1.72269E+05
 -1       884-8.27448E+04 7.26482E+04 9.10153E+04
 -1       885-8.09254E+04-1.30334E+05-2.22673E+04
 -1       886-5.73802E+04-3.02277E+05-1.12248E+05
 -1       887-1.88213E+04-3.98990E+05-1.33492E+05
 -1       888 2.36846E+04-3.97312E+05-6.75306E+04
 -1       889 5.80949E+04-3.01450E+05 6.94915E+04
 -1       890 7.50395E+04-1.41100E+05 2.31281E+05
 -1       891 7.05950E+04 3.79530E+04 3.56658E+05
 -1       892 4.73241E+04 1.87739E+05 3.90611E+05
 -1       893 1.32744E+04 2.72155E+05 3.04152E+05
 -1       894-2.07149E+04 2.76810E+05 1.06203E+05
 -1       895-4.45220E+04 2.11747E+05-1.56769E+05
 -1       896-5.19360E+04 1.06423E+05-4.13738E+05
 -1       897-4.25287E+04-1.18858E+03-5.91100E+05
 -1       898-2.16350E+04-7.76802E+04-6.37051E+05
 -1       899 1.50241E+03-1.05152E+05-5.41112E+05
 -1       900 1.65513E+04-8.64284E+04-3.43595E+05
 -1       901 1.54467E+04-4.29508E+04-1.34659E+05
 -1       902 7.68932E+03-5.61598E+04-1.34545E+05
 -1       903 6.58766E+03-1.19979E+05-3.43663E+05
 -1       904-5.57664E+03-1.57925E+05-5.41308E+05
 -1       905-2.28637E+04-1.39807E+05-6.37264E+05
 -1       906-3.72636E+04-5.88866E+04-5.91223E+05
 -1       907-4.16863E+04 6.59341E+04-4.13692E+05
 -1       908-3.22752E+04 1.96232E+05-1.56532E+05
 -1       909-9.90032E+03 2.86893E+05 1.06582E+05
 -1       910 1.98813E+04 3.01561E+05 3.04573E+05
 -1       911 4.84268E+04 2.25668E+05 3.90945E+05
 -1       912 6.66893E+04 7.27211E+04 3.56794E+05
 -1       913 6.81360E+04-1.18385E+05 2.31161E+05
 -1       914 5.09634E+04-2.94362E+05 6.91293E+04
 -1       915 1.88810E+04-4.03498E+05-6.80474E+04
 -1       916-1.98174E+04-4.11612E+05-1.34028E+05
 -1       917-5.46333E+04-3.12924E+05-1.12656E+05
 -1       918-7.59674E+04-1.32375E+05-2.24377E+04
 -1       919-7.79861E+04 8.14564E+04 9.11277E+04
 -1       920-6.03585E+04 2.70664E+05 1.72629E+05
 -1       921-2.83247E+04 3.85151E+05 1.77379E+05
 -1       922 8.91987E+03 3.97280E+05 8.85471E+04
 -1       923 4.10094E+04 3.09536E+05-7.51192E+04
 -1       924 5.94842E+04 1.52929E+05-2.63721E+05
 -1       925 6.01987E+04-2.31797E+04-4.11465E+05
 -1       926 4.43220E+04-1.66469E+05-4.57752E+05
 -1       927 1.76474E+04-2.37300E+05-3.67108E+05
 -1       928-1.15573E+04-2.19690E+05-1.41189E+05
 -1       929-3.55163E+04-1.24269E+05 1.82024E+05
 -1       930-4.97486E+04 1.79275E+04 5.46355E+05
 -3
    1PSTEP                        76           1           1          
    1PGM                1.000000E+00                                  
    1PGK                3.124460E+07                                  
    1PHID                         -1                                  
    1PSUBC                         0                                  
    1PMODE                        19                                  
  100CL  119 889.6263563         930                     2   19MODAL      1
 -4  ERROR       1    1
 -5  STR(%)      1    1    0    0
 -1         1 6.70932E+01
 -1         2 6.70932E+01
 -1         3 6.59639E+01
 -1         4 6.59639E+01
 -1         5 6.70932E+01
 -1         6 6.70932E+01
 -1         7 6.59639E+01
 -1         8 6.59639E+01
 -1         9 6.12565E+01
 -1        10 6.59639E+01
 -1        11 5.25988E+01
 -1        12 5.25988E+01
 -1        13 1.54159E+01
 -1        14 1.54159E+01
 -1        15 6.12565E+01
 -1        16 6.59639E+01
 -1        17 5.25988E+01
 -1        18 5.25988E+01
 -1        19 1.54159E+01
 -1        20 1.54159E+01
 -1        21 5.25988E+01
 -1        22 5.25988E+01
 -1        23 1.54159E+01
 -1        24 1.54159E+01
 -1        25 6.12565E+01
 -1        26 6.59639E+01
 -1        27 6.12565E+01
 -1        28 5.25988E+01
 -1        29 5.25988E+01
 -1        30 6.59639E+01
 -1        31 1.54159E+01
 -1        32 1.54159E+01
 -1        33 8.60735E+01
 -1        34 8.60735E+01
 -1        35 5.49936E+01
 -1        36 5.14299E+01
 -1        37 5.26691E+01
 -1        38 7.50507E+01
 -1        39 7.50507E+01
 -1        40 5.95738E+01
 -1        41 5.95738E+01
 -1        42 5.44004E+01
 -1        43 5.62032E+01
 -1        44 8.69391E+01
 -1        45 8.69391E+01
 -1        46 6.13765E+01
 -1        47 6.13765E+01
 -1        48 6.96191E+01
 -1        49 6.96191E+01
 -1        50 6.55157E+01
 -1        51 6.55157E+01
 -1        52 6.89781E+01
 -1        53 6.89781E+01
 -1        54 8.61896E+01
 -1        55 8.61896E+01
 -1        56 6.35562E+01
 -1        57 5.30028E+01
 -1        58 5.87305E+01
 -1        59 5.87305E+01
 -1        60 7.33146E+01
 -1        61 7.33146E+01
 -1        62 8.60735E+01
 -1        63 8.60735E+01
 -1        64 5.49936E+01
 -1        65 5.14299E+01
 -1        66 5.26691E+01
 -1        67 7.50507E+01
 -1        68 7.50507E+01
 -1        69 5.95738E+01
 -1        70 5.95738E+01
 -1        71 5.44004E+01
 -1        72 5.62032E+01
 -1        73 8.69391E+01
 -1        74 8.69391E+01
 -1        75 6.13765E+01
 -1        76 6.13765E+01
 -1        77 6.96191E+01
 -1        78 6.96191E+01
 -1        79 6.55157E+01
 -1        80 6.55157E+01
 -1        81 6.89781E+01
 -1        82 6.89781E+01
 -1        83 8.61896E+01
 -1        84 8.61896E+01
 -1        85 6.35562E+01
 -1        86 5.30028E+01
 -1        87 5.87305E+01
 -1        88 5.87305E+01
 -1        89 7.33146E+01
 -1        90 7.33146E+01
 -1        91 6.70932E+01
 -1        92 4.54406E+01
 -1        93 6.70932E+01
 -1        94 6.70932E+01
 -1        95 4.54406E+01
 -1        96 6.70932E+01
 -1        97 8.60735E+01
 -1        98 8.60735E+01
 -1        99 5.49936E+01
 -1       100 5.14299E+01
 -1       101 5.26691E+01
 -1       102 7.50507E+01
 -1       103 7.50507E+01
 -1       104 5.95738E+01
 -1       105 5.95738E+01
 -1       106 5.44004E+01
 -1       107 5.62032E+01
 -1       108 8.69391E+01
 -1       109 8.69391E+01
 -1       110 6.13765E+01
 -1       111 6.13765E+01
 -1       112 6.96191E+01
 -1       113 6.96191E+01
 -1       114 6.55157E+01
 -1       115 6.55157E+01
 -1       116 6.89781E+01
 -1       117 6.89781E+01
 -1       118 8.61896E+01
 -1       119 8.61896E+01
 -1       120 6.35562E+01
 -1       121 5.30028E+01
 -1       122 5.87305E+01
 -1       123 5.87305E+01
 -1       124 7.33146E+01
 -1       125 7.33146E+01
 -1       126 5.56349E+01
 -1       127 4.37604E+01
 -1       128 5.56349E+01
 -1       129 8.60735E+01
 -1       130 8.60735E+01
 -1       131 5.49936E+01
 -1       132 5.14299E+01
 -1       133 5.26691E+01
 -1       134 7.50507E+01
 -1       135 7.50507E+01
 -1       136 5.95738E+01
 -1       137 5.95738E+01
 -1       138 5.44004E+01
 -1       139 5.62032E+01
 -1       140 8.69391E+01
 -1       141 8.69391E+01
 -1       142 6.13765E+01
 -1       143 6.13765E+01
 -1       144 6.96191E+01
 -1       145 6.96191E+01
 -1       146 6.55157E+01
 -1       147 6.55157E+01
 -1       148 6.89781E+01
 -1       149 6.89781E+01
 -1       150 8.61896E+01
 -1       151 8.61896E+01
 -1       152 6.35562E+01
 -1       153 5.30028E+01
 -1       154 5.87305E+01
 -1       155 5.87305E+01
 -1       156 7.33146E+01
 -1       157 7.33146E+01
 -1       158 5.56349E+01
 -1       159 4.37604E+01
 -1       160 5.56349E+01
 -1       161 8.60735E+01
 -1       162 8.60735E+01
 -1       163 4.96478E+01
 -1       164 3.94750E+01
 -1       165 5.25312E+01
 -1       166 7.50507E+01
 -1       167 7.50507E+01
 -1       168 5.84425E+01
 -1       169 5.56091E+01
 -1       170 4.86370E+01
 -1       171 5.62032E+01
 -1       172 8.69391E+01
 -1       173 8.69391E+01
 -1       174 6.13765E+01
 -1       175 6.13765E+01
 -1       176 5.91831E+01
 -1       177 5.93863E+01
 -1       178 5.97845E+01
 -1       179 6.31031E+01
 -1       180 6.89781E+01
 -1       181 6.89781E+01
 -1       182 8.61896E+01
 -1       183 8.61896E+01
 -1       184 6.35562E+01
 -1       185 4.55585E+01
 -1       186 5.37088E+01
 -1       187 5.82637E+01
 -1       188 7.33146E+01
 -1       189 7.33146E+01
 -1       190 6.12565E+01
 -1       191 6.12565E+01
 -1       192 6.59639E+01
 -1       193 7.60674E+01
 -1       194 7.60674E+01
 -1       195 4.35933E+01
 -1       196 4.35933E+01
 -1       197 4.17662E+01
 -1       198 5.59153E+01
 -1       199 5.59153E+01
 -1       200 3.55073E+01
 -1       201 3.84574E+01
 -1       202 3.84574E+01
 -1       203 8.72328E+01
 -1       204 8.72328E+01
 -1       205 3.87443E+01
 -1       206 3.25810E+01
 -1       207 3.25810E+01
 -1       208 3.22295E+01
 -1       209 7.31997E+01
 -1       210 7.31997E+01
 -1       211 3.31753E+01
 -1       212 3.37517E+01
 -1       213 3.37517E+01
 -1       214 3.87200E+01
 -1       215 8.07857E+01
 -1       216 8.07857E+01
 -1       217 3.98933E+01
 -1       218 3.98933E+01
 -1       219 3.70339E+01
 -1       220 3.00109E+01
 -1       221 3.00109E+01
 -1       222 7.60674E+01
 -1       223 7.60674E+01
 -1       224 4.35933E+01
 -1       225 4.35933E+01
 -1       226 4.17662E+01
 -1       227 5.59153E+01
 -1       228 5.59153E+01
 -1       229 3.55073E+01
 -1       230 3.84574E+01
 -1       231 3.84574E+01
 -1       232 8.72328E+01
 -1       233 8.72328E+01
 -1       234 3.87443E+01
 -1       235 3.25810E+01
 -1       236 3.25810E+01
 -1       237 3.22295E+01
 -1       238 7.31997E+01
 -1       239 7.31997E+01
 -1       240 3.31753E+01
 -1       241 3.37517E+01
 -1       242 3.37517E+01
 -1       243 3.87200E+01
 -1       244 8.07857E+01
 -1       245 8.07857E+01
 -1       246 3.98933E+01
 -1       247 3.98933E+01
 -1       248 3.70339E+01
 -1       249 3.00109E+01
 -1       250 3.00109E+01
 -1       251 6.59639E+01
 -1       252 7.33146E+01
 -1       253 7.33146E+01
 -1       254 5.82637E+01
 -1       255 5.37088E+01
 -1       256 4.55585E+01
 -1       257 6.35562E+01
 -1       258 8.61896E+01
 -1       259 8.61896E+01
 -1       260 6.89781E+01
 -1       261 6.89781E+01
 -1       262 6.31031E+01
 -1       263 5.97845E+01
 -1       264 5.93863E+01
 -1       265 5.91831E+01
 -1       266 6.13765E+01
 -1       267 6.13765E+01
 -1       268 8.69391E+01
 -1       269 8.69391E+01
 -1       270 5.62032E+01
 -1       271 4.86370E+01
 -1       272 5.56091E+01
 -1       273 5.84425E+01
 -1       274 7.50507E+01
 -1       275 7.50507E+01
 -1       276 5.25312E+01
 -1       277 3.94750E+01
 -1       278 4.96478E+01
 -1       279 8.60735E+01
 -1       280 8.60735E+01
 -1       281 6.12565E+01
 -1       282 6.12565E+01
 -1       283 7.60674E+01
 -1       284 7.60674E+01
 -1       285 4.35933E+01
 -1       286 4.35933E+01
 -1       287 4.17662E+01
 -1       288 5.59153E+01
 -1       289 5.59153E+01
 -1       290 3.55073E+01
 -1       291 3.84574E+01
 -1       292 3.84574E+01
 -1       293 8.72328E+01
 -1       294 8.72328E+01
 -1       295 3.87443E+01
 -1       296 3.25810E+01
 -1       297 3.25810E+01
 -1       298 3.22295E+01
 -1       299 7.31997E+01
 -1       300 7.31997E+01
 -1       301 3.31753E+01
 -1       302 3.37517E+01
 -1       303 3.37517E+01
 -1       304 3.87200E+01
 -1       305 8.07857E+01
 -1       306 8.07857E+01
 -1       307 3.98933E+01
 -1       308 3.98933E+01
 -1       309 3.70339E+01
 -1       310 3.00109E+01
 -1       311 3.00109E+01
 -1       312 6.59639E+01
 -1       313 7.60674E+01
 -1       314 7.60674E+01
 -1       315 4.35933E+01
 -1       316 4.35933E+01
 -1       317 4.17662E+01
 -1       318 5.59153E+01
 -1       319 5.59153E+01
 -1       320 3.55073E+01
 -1       321 3.84574E+01
 -1       322 3.84574E+01
 -1       323 8.72328E+01
 -1       324 8.72328E+01
 -1       325 3.87443E+01
 -1       326 3.25810E+01
 -1       327 3.25810E+01
 -1       328 3.22295E+01
 -1       329 7.31997E+01
 -1       330 7.31997E+01
 -1       331 3.31753E+01
 -1       332 3.37517E+01
 -1       333 3.37517E+01
 -1       334 3.87200E+01
 -1       335 8.07857E+01
 -1       336 8.07857E+01
 -1       337 3.98933E+01
 -1       338 3.98933E+01
 -1       339 3.70339E+01
 -1       340 3.00109E+01
 -1       341 3.00109E+01
 -1       342 6.59639E+01
 -1       343 7.60674E+01
 -1       344 7.60674E+01
 -1       345 4.35933E+01
 -1       346 4.35933E+01
 -1       347 4.17662E+01
 -1       348 5.59153E+01
 -1       349 5.59153E+01
 -1       350 3.55073E+01
 -1       351 3.84574E+01
 -1       352 3.84574E+01
 -1       353 8.72328E+01
 -1       354 8.72328E+01
 -1       355 3.87443E+01
 -1       356 3.25810E+01
 -1       357 3.25810E+01
 -1       358 3.22295E+01
 -1       359 7.31997E+01
 -1       360 7.31997E+01
 -1       361 3.31753E+01
 -1       362 3.37517E+01
 -1       363 3.37517E+01
 -1       364 3.87200E+01
 -1       365 8.07857E+01
 -1       366 8.07857E+01
 -1       367 3.98933E+01
 -1       368 3.98933E+01
 -1       369 3.70339E+01
 -1       370 3.00109E+01
 -1       371 3.00109E+01
 -1       372 7.60674E+01
 -1       373 7.60674E+01
 -1       374 4.35933E+01
 -1       375 4.35933E+01
 -1       376 4.17662E+01
 -1       377 5.59153E+01
 -1       378 5.59153E+01
 -1       379 3.55073E+01
 -1       380 3.84574E+01
 -1       381 3.84574E+01
 -1       382 8.72328E+01
 -1       383 8.72328E+01
 -1       384 3.87443E+01
 -1       385 3.25810E+01
 -1       386 3.25810E+01
 -1       387 3.22295E+01
 -1       388 7.31997E+01
 -1       389 7.31997E+01
 -1       390 3.31753E+01
 -1       391 3.37517E+01
 -1       392 3.37517E+01
 -1       393 3.87200E+01
 -1       394 8.07857E+01
 -1       395 8.07857E+01
 -1       396 3.98933E+01
 -1       397 3.98933E+01
 -1       398 3.70339E+01
 -1       399 3.00109E+01
 -1       400 3.00109E+01
 -1       401 6.12565E+01
 -1       402 6.12565E+01
 -1       403 6.59639E+01
 -1       404 8.60735E+01
 -1       405 8.60735E+01
 -1       406 4.96478E+01
 -1       407 3.94750E+01
 -1       408 5.25312E+01
 -1       409 7.50507E+01
 -1       410 7.50507E+01
 -1       411 5.84425E+01
 -1       412 5.56091E+01
 -1       413 4.86370E+01
 -1       414 5.62032E+01
 -1       415 8.69391E+01
 -1       416 8.69391E+01
 -1       417 6.13765E+01
 -1       418 6.13765E+01
 -1       419 5.91831E+01
 -1       420 5.93863E+01
 -1       421 5.97845E+01
 -1       422 6.31031E+01
 -1       423 6.89781E+01
 -1       424 6.89781E+01
 -1       425 8.61896E+01
 -1       426 8.61896E+01
 -1       427 6.35562E+01
 -1       428 4.55585E+01
 -1       429 5.37088E+01
 -1       430 5.82637E+01
 -1       431 7.33146E+01
 -1       432 7.33146E+01
 -1       433 6.59639E+01
 -1       434 6.12565E+01
 -1       435 6.12565E+01
 -1       436 7.33146E+01
 -1       437 7.33146E+01
 -1       438 5.82637E+01
 -1       439 5.37088E+01
 -1       440 4.55585E+01
 -1       441 6.35562E+01
 -1       442 8.61896E+01
 -1       443 8.61896E+01
 -1       444 6.89781E+01
 -1       445 6.89781E+01
 -1       446 6.31031E+01
 -1       447 5.97845E+01
 -1       448 5.93863E+01
 -1       449 5.91831E+01
 -1       450 6.13765E+01
 -1       451 6.13765E+01
 -1       452 8.69391E+01
 -1       453 8.69391E+01
 -1       454 5.62032E+01
 -1       455 4.86370E+01
 -1       456 5.56091E+01
 -1       457 5.84425E+01
 -1       458 7.50507E+01
 -1       459 7.50507E+01
 -1       460 5.25312E+01
 -1       461 3.94750E+01
 -1       462 4.96478E+01
 -1       463 8.60735E+01
 -1       464 8.60735E+01
 -1       465 6.59639E+01
 -1       466 7.60674E+01
 -1       467 7.60674E+01
 -1       468 4.35933E+01
 -1       469 4.35933E+01
 -1       470 4.17662E+01
 -1       471 5.59153E+01
 -1       472 5.59153E+01
 -1       473 3.55073E+01
 -1       474 3.84574E+01
 -1       475 3.84574E+01
 -1       476 8.72328E+01
 -1       477 8.72328E+01
 -1       478 3.87443E+01
 -1       479 3.25810E+01
 -1       480 3.25810E+01
 -1       481 3.22295E+01
 -1       482 7.31997E+01
 -1       483 7.31997E+01
 -1       484 3.31753E+01
 -1       485 3.37517E+01
 -1       486 3.37517E+01
 -1       487 3.87200E+01
 -1       488 8.07857E+01
 -1       489 8.07857E+01
 -1       490 3.98933E+01
 -1       491 3.98933E+01
 -1       492 3.70339E+01
 -1       493 3.00109E+01
 -1       494 3.00109E+01
 -1       495 7.60674E+01
 -1       496 7.60674E+01
 -1       497 4.35933E+01
 -1       498 4.35933E+01
 -1       499 4.17662E+01
 -1       500 5.59153E+01
 -1       501 5.59153E+01
 -1       502 3.55073E+01
 -1       503 3.84574E+01
 -1       504 3.84574E+01
 -1       505 8.72328E+01
 -1       506 8.72328E+01
 -1       507 3.87443E+01
 -1       508 3.25810E+01
 -1       509 3.25810E+01
 -1       510 3.22295E+01
 -1       511 7.31997E+01
 -1       512 7.31997E+01
 -1       513 3.31753E+01
 -1       514 3.37517E+01
 -1       515 3.37517E+01
 -1       516 3.87200E+01
 -1       517 8.07857E+01
 -1       518 8.07857E+01
 -1       519 3.98933E+01
 -1       520 3.98933E+01
 -1       521 3.70339E+01
 -1       522 3.00109E+01
 -1       523 3.00109E+01
 -1       524 6.59639E+01
 -1       525 6.70932E+01
 -1       526 5.49936E+01
 -1       527 5.49936E+01
 -1       528 5.14299E+01
 -1       529 5.26691E+01
 -1       530 5.32963E+01
 -1       531 5.32963E+01
 -1       532 5.95738E+01
 -1       533 5.95738E+01
 -1       534 5.44004E+01
 -1       535 5.44004E+01
 -1       536 5.33661E+01
 -1       537 5.90405E+01
 -1       538 5.90405E+01
 -1       539 5.79699E+01
 -1       540 6.96191E+01
 -1       541 6.96191E+01
 -1       542 6.55157E+01
 -1       543 6.55157E+01
 -1       544 5.81246E+01
 -1       545 5.92722E+01
 -1       546 5.92722E+01
 -1       547 5.20797E+01
 -1       548 5.30028E+01
 -1       549 5.30028E+01
 -1       550 5.87305E+01
 -1       551 5.87305E+01
 -1       552 5.36772E+01
 -1       553 5.56349E+01
 -1       554 4.54406E+01
 -1       555 4.38841E+01
 -1       556 4.38841E+01
 -1       557 3.66390E+01
 -1       558 4.14144E+01
 -1       559 5.31288E+01
 -1       560 5.31288E+01
 -1       561 5.05610E+01
 -1       562 4.31690E+01
 -1       563 3.76679E+01
 -1       564 4.56611E+01
 -1       565 4.56611E+01
 -1       566 4.72529E+01
 -1       567 4.72529E+01
 -1       568 3.74991E+01
 -1       569 5.12924E+01
 -1       570 5.12924E+01
 -1       571 5.09167E+01
 -1       572 4.75769E+01
 -1       573 3.69042E+01
 -1       574 4.79168E+01
 -1       575 4.79168E+01
 -1       576 4.52882E+01
 -1       577 4.52882E+01
 -1       578 3.76711E+01
 -1       579 4.14458E+01
 -1       580 4.30142E+01
 -1       581 5.02852E+01
 -1       582 5.02852E+01
 -1       583 6.70932E+01
 -1       584 5.49936E+01
 -1       585 5.49936E+01
 -1       586 5.14299E+01
 -1       587 5.26691E+01
 -1       588 5.32963E+01
 -1       589 5.32963E+01
 -1       590 5.95738E+01
 -1       591 5.95738E+01
 -1       592 5.44004E+01
 -1       593 5.44004E+01
 -1       594 5.33661E+01
 -1       595 5.90405E+01
 -1       596 5.90405E+01
 -1       597 5.79699E+01
 -1       598 6.96191E+01
 -1       599 6.96191E+01
 -1       600 6.55157E+01
 -1       601 6.55157E+01
 -1       602 5.81246E+01
 -1       603 5.92722E+01
 -1       604 5.92722E+01
 -1       605 5.20797E+01
 -1       606 5.30028E+01
 -1       607 5.30028E+01
 -1       608 5.87305E+01
 -1       609 5.87305E+01
 -1       610 5.36772E+01
 -1       611 5.56349E+01
 -1       612 6.70932E+01
 -1       613 5.49936E+01
 -1       614 5.49936E+01
 -1       615 5.14299E+01
 -1       616 5.26691E+01
 -1       617 5.32963E+01
 -1       618 5.32963E+01
 -1       619 5.95738E+01
 -1       620 5.95738E+01
 -1       621 5.44004E+01
 -1       622 5.44004E+01
 -1       623 5.33661E+01
 -1       624 5.90405E+01
 -1       625 5.90405E+01
 -1       626 5.79699E+01
 -1       627 6.96191E+01
 -1       628 6.96191E+01
 -1       629 6.55157E+01
 -1       630 6.55157E+01
 -1       631 5.81246E+01
 -1       632 5.92722E+01
 -1       633 5.92722E+01
 -1       634 5.20797E+01
 -1       635 5.30028E+01
 -1       636 5.30028E+01
 -1       637 5.87305E+01
 -1       638 5.87305E+01
 -1       639 5.36772E+01
 -1       640 5.56349E+01
 -1       641 4.54406E+01
 -1       642 4.38841E+01
 -1       643 4.38841E+01
 -1       644 3.66390E+01
 -1       645 4.14144E+01
 -1       646 5.31288E+01
 -1       647 5.31288E+01
 -1       648 5.05610E+01
 -1       649 4.31690E+01
 -1       650 3.76679E+01
 -1       651 4.56611E+01
 -1       652 4.56611E+01
 -1       653 4.72529E+01
 -1       654 4.72529E+01
 -1       655 3.74991E+01
 -1       656 5.12924E+01
 -1       657 5.12924E+01
 -1       658 5.09167E+01
 -1       659 4.75769E+01
 -1       660 3.69042E+01
 -1       661 4.79168E+01
 -1       662 4.79168E+01
 -1       663 4.52882E+01
 -1       664 4.52882E+01
 -1       665 3.76711E+01
 -1       666 4.14458E+01
 -1       667 4.30142E+01
 -1       668 5.02852E+01
 -1       669 5.02852E+01
 -1       670 6.70932E+01
 -1       671 5.49936E+01
 -1       672 5.49936E+01
 -1       673 5.14299E+01
 -1       674 5.26691E+01
 -1       675 5.32963E+01
 -1       676 5.32963E+01
 -1       677 5.95738E+01
 -1       678 5.95738E+01
 -1       679 5.44004E+01
 -1       680 5.44004E+01
 -1       681 5.33661E+01
 -1       682 5.90405E+01
 -1       683 5.90405E+01
 -1       684 5.79699E+01
 -1       685 6.96191E+01
 -1       686 6.96191E+01
 -1       687 6.55157E+01
 -1       688 6.55157E+01
 -1       689 5.81246E+01
 -1       690 5.92722E+01
 -1       691 5.92722E+01
 -1       692 5.20797E+01
 -1       693 5.30028E+01
 -1       694 5.30028E+01
 -1       695 5.87305E+01
 -1       696 5.87305E+01
 -1       697 5.36772E+01
 -1       698 5.56349E+01
 -1       699 8.60735E+01
 -1       700 8.60735E+01
 -1       701 4.96478E+01
 -1       702 4.35933E+01
 -1       703 5.25312E+01
 -1       704 7.50507E+01
 -1       705 7.50507E+01
 -1       706 5.84425E+01
 -1       707 4.91863E+01
 -1       708 4.86370E+01
 -1       709 8.72328E+01
 -1       710 8.72328E+01
 -1       711 8.69391E+01
 -1       712 6.13765E+01
 -1       713 6.13765E+01
 -1       714 5.91831E+01
 -1       715 7.31997E+01
 -1       716 7.31997E+01
 -1       717 5.67929E+01
 -1       718 6.15743E+01
 -1       719 6.15743E+01
 -1       720 8.61896E+01
 -1       721 8.61896E+01
 -1       722 8.07857E+01
 -1       723 4.55585E+01
 -1       724 4.81614E+01
 -1       725 5.17258E+01
 -1       726 7.33146E+01
 -1       727 7.33146E+01
 -1       728 8.60735E+01
 -1       729 8.60735E+01
 -1       730 4.96478E+01
 -1       731 4.35933E+01
 -1       732 5.25312E+01
 -1       733 7.50507E+01
 -1       734 7.50507E+01
 -1       735 5.84425E+01
 -1       736 4.91863E+01
 -1       737 4.86370E+01
 -1       738 8.72328E+01
 -1       739 8.72328E+01
 -1       740 8.69391E+01
 -1       741 6.13765E+01
 -1       742 6.13765E+01
 -1       743 5.91831E+01
 -1       744 7.31997E+01
 -1       745 7.31997E+01
 -1       746 5.67929E+01
 -1       747 6.15743E+01
 -1       748 6.15743E+01
 -1       749 8.61896E+01
 -1       750 8.61896E+01
 -1       751 8.07857E+01
 -1       752 4.55585E+01
 -1       753 4.81614E+01
 -1       754 5.17258E+01
 -1       755 7.33146E+01
 -1       756 7.33146E+01
 -1       757 8.60735E+01
 -1       758 8.60735E+01
 -1       759 4.96478E+01
 -1       760 4.35933E+01
 -1       761 5.25312E+01
 -1       762 7.50507E+01
 -1       763 7.50507E+01
 -1       764 5.84425E+01
 -1       765 4.91863E+01
 -1       766 4.86370E+01
 -1       767 8.72328E+01
 -1       768 8.72328E+01
 -1       769 8.69391E+01
 -1       770 6.13765E+01
 -1       771 6.13765E+01
 -1       772 5.91831E+01
 -1       773 7.31997E+01
 -1       774 7.31997E+01
 -1       775 5.67929E+01
 -1       776 6.15743E+01
 -1       777 6.15743E+01
 -1       778 8.61896E+01
 -1       779 8.61896E+01
 -1       780 8.07857E+01
 -1       781 4.55585E+01
 -1       782 4.81614E+01
 -1       783 5.17258E+01
 -1       784 7.33146E+01
 -1       785 7.33146E+01
 -1       786 8.60735E+01
 -1       787 8.60735E+01
 -1       788 4.96478E+01
 -1       789 4.35933E+01
 -1       790 5.25312E+01
 -1       791 7.50507E+01
 -1       792 7.50507E+01
 -1       793 5.84425E+01
 -1       794 4.91863E+01
 -1       795 4.86370E+01
 -1       796 8.72328E+01
 -1       797 8.72328E+01
 -1       798 8.69391E+01
 -1       799 6.13765E+01
 -1       800 6.13765E+01
 -1       801 5.91831E+01
 -1       802 7.31997E+01
 -1       803 7.31997E+01
 -1       804 5.67929E+01
 -1       805 6.15743E+01
 -1       806 6.15743E+01
 -1       807 8.61896E+01
 -1       808 8.61896E+01
 -1       809 8.07857E+01
 -1       810 4.55585E+01
 -1       811 4.81614E+01
 -1       812 5.17258E+01
 -1       813 7.33146E+01
 -1       814 7.33146E+01
 -1       815 8.60735E+01
 -1       816 8.60735E+01
 -1       817 4.96478E+01
 -1       818 4.35933E+01
 -1       819 5.25312E+01
 -1       820 7.50507E+01
 -1       821 7.50507E+01
 -1       822 5.84425E+01
 -1       823 4.91863E+01
 -1       824 4.86370E+01
 -1       825 8.72328E+01
 -1       826 8.72328E+01
 -1       827 8.69391E+01
 -1       828 6.13765E+01
 -1       829 6.13765E+01
 -1       830 5.91831E+01
 -1       831 7.31997E+01
 -1       832 7.31997E+01
 -1       833 5.67929E+01
 -1       834 6.15743E+01
 -1       835 6.15743E+01
 -1       836 8.61896E+01
 -1       837 8.61896E+01
 -1       838 8.07857E+01
 -1       839 4.55585E+01
 -1       840 4.81614E+01
 -1       841 5.17258E+01
 -1       842 7.33146E+01
 -1       843 7.33146E+01
 -1       844 8.60735E+01
 -1       845 8.60735E+01
 -1       846 4.96478E+01
 -1       847 4.35933E+01
 -1       848 5.25312E+01
 -1       849 7.50507E+01
 -1       850 7.50507E+01
 -1       851 5.84425E+01
 -1       852 4.91863E+01
 -1       853 4.86370E+01
 -1       854 8.72328E+01
 -1       855 8.72328E+01
 -1       856 8.69391E+01
 -1       857 6.13765E+01
 -1       858 6.13765E+01
 -1       859 5.91831E+01
 -1       860 7.31997E+01
 -1       861 7.31997E+01
 -1       862 5.67929E+01
 -1       863 6.15743E+01
 -1       864 6.15743E+01
 -1       865 8.61896E+01
 -1       866 8.61896E+01
 -1       867 8.07857E+01
 -1       868 4.55585E+01
 -1       869 4.81614E+01
 -1       870 5.17258E+01
 -1       871 7.33146E+01
 -1       872 7.33146E+01
 -1       873 7.33146E+01
 -1       874 7.33146E+01
 -1       875 5.17258E+01
 -1       876 4.81614E+01
 -1       877 4.55585E+01
 -1       878 8.07857E+01
 -1       879 8.61896E+01
 -1       880 8.61896E+01
 -1       881 6.15743E+01
 -1       882 6.15743E+01
 -1       883 5.67929E+01
 -1       884 7.31997E+01
 -1       885 7.31997E+01
 -1       886 5.91831E+01
 -1       887 6.13765E+01
 -1       888 6.13765E+01
 -1       889 8.69391E+01
 -1       890 8.72328E+01
 -1       891 8.72328E+01
 -1       892 4.86370E+01
 -1       893 4.91863E+01
 -1       894 5.84425E+01
 -1       895 7.50507E+01
 -1       896 7.50507E+01
 -1       897 5.25312E+01
 -1       898 4.35933E+01
 -1       899 4.96478E+01
 -1       900 8.60735E+01
 -1       901 8.60735E+01
 -1       902 8.60735E+01
 -1       903 8.60735E+01
 -1       904 4.96478E+01
 -1       905 4.35933E+01
 -1       906 5.25312E+01
 -1       907 7.50507E+01
 -1       908 7.50507E+01
 -1       909 5.84425E+01
 -1       910 4.91863E+01
 -1       911 4.86370E+01
 -1       912 8.72328E+01
 -1       913 8.72328E+01
 -1       914 8.69391E+01
 -1       915 6.13765E+01
 -1       916 6.13765E+01
 -1       917 5.91831E+01
 -1       918 7.31997E+01
 -1       919 7.31997E+01
 -1       920 5.67929E+01
 -1       921 6.15743E+01
 -1       922 6.15743E+01
 -1       923 8.61896E+01
 -1       924 8.61896E+01
 -1       925 8.07857E+01
 -1       926 4.55585E+01
 -1       927 4.81614E+01
 -1       928 5.17258E+01
 -1       929 7.33146E+01
 -1       930 7.33146E+01
 -3
    1PSTEP                        77           1           1          
    1PGM                1.000000E+00                                  
    1PGK                3.462256E+07                                  
    1PHID                         -1                                  
    1PSUBC                         0                                  
    1PMODE                        20                                  
  100CL  120 936.4826560         930                     2   20MODAL      1
 -4  DISP        4    1
 -5  D1          1    2    1    0
 -5  D2          1    2    2    0
 -5  D3          1    2    3    0
 -5  ALL         1    2    0    0    1ALL
 -1         1 0.00000E+00 0.00000E+00 0.00000E+00
 -1         2 0.00000E+00 0.00000E+00 0.00000E+00
 -1         3 4.93482E-02 4.68129E-05 1.07479E-01
 -1         4 4.93482E-02-4.68129E-05 1.07479E-01
 -1         5 0.00000E+00 0.00000E+00 0.00000E+00
 -1         6 0.00000E+00 0.00000E+00 0.00000E+00
 -1         7-4.93482E-02-4.68129E-05 1.07479E-01
 -1         8-4.93482E-02 4.68129E-05 1.07479E-01
 -1         9 0.00000E+00 0.00000E+00 0.00000E+00
 -1        10 5.33520E-02-5.26440E-04 1.07682E-01
 -1        11 0.00000E+00 0.00000E+00 0.00000E+00
 -1        12 0.00000E+00 0.00000E+00 0.00000E+00
 -1        13 5.30023E-02-2.35945E-03 1.27076E-01
 -1        14 4.76342E-02 1.50184E-03 1.27045E-01
 -1        15 0.00000E+00 0.00000E+00 0.00000E+00
 -1        16-5.33520E-02 5.26440E-04 1.07682E-01
 -1        17 0.00000E+00 0.00000E+00 0.00000E+00
 -1        18 0.00000E+00 0.00000E+00 0.00000E+00
 -1        19-4.76342E-02-1.50184E-03 1.27045E-01
 -1        20-5.30023E-02 2.35945E-03 1.27076E-01
 -1        21 0.00000E+00 0.00000E+00 0.00000E+00
 -1        22 0.00000E+00 0.00000E+00 0.00000E+00
 -1        23 5.30023E-02 2.35945E-03 1.27076E-01
 -1        24 4.76342E-02-1.50184E-03 1.27045E-01
 -1        25 0.00000E+00 0.00000E+00 0.00000E+00
 -1        26 5.33520E-02 5.26440E-04 1.07682E-01
 -1        27 0.00000E+00 0.00000E+00 0.00000E+00
 -1        28 0.00000E+00 0.00000E+00 0.00000E+00
 -1        29 0.00000E+00 0.00000E+00 0.00000E+00
 -1        30-5.33520E-02-5.26440E-04 1.07682E-01
 -1        31-5.30023E-02-2.35945E-03 1.27076E-01
 -1        32-4.76342E-02 1.50184E-03 1.27045E-01
 -1        33-2.85073E-03 5.89316E-05-2.35280E-02
 -1        34-3.94315E-03-1.13498E-05-5.42978E-02
 -1        35-1.87073E-03-2.28146E-05-8.00442E-02
 -1        36 2.41383E-03-3.73031E-05-9.74685E-02
 -1        37 8.08794E-03-4.80206E-05-1.04041E-01
 -1        38 1.42123E-02-4.99037E-05-9.87976E-02
 -1        39 1.98219E-02-4.22434E-05-8.22732E-02
 -1        40 2.40551E-02-2.68459E-05-5.63544E-02
 -1        41 2.62558E-02-6.25585E-06-2.40820E-02
 -1        42 2.60466E-02 1.65288E-05 1.07041E-02
 -1        43 2.33713E-02 3.83429E-05 4.38379E-02
 -1        44 1.84997E-02 5.61832E-05 7.13450E-02
 -1        45 1.19924E-02 6.75523E-05 8.99358E-02
 -1        46 4.63084E-03 7.07587E-05 9.74138E-02
 -1        47-2.67939E-03 6.51189E-05 9.29488E-02
 -1        48-9.02016E-03 5.10336E-05 7.71812E-02
 -1        49-1.35731E-02 2.99300E-05 5.21465E-02
 -1        50-1.57191E-02 4.07618E-06 2.10274E-02
 -1        51-1.51129E-02-2.37075E-05-1.22345E-02
 -1        52-1.17227E-02-5.04060E-05-4.34205E-02
 -1        53-5.83135E-03-7.31932E-05-6.85499E-02
 -1        54 2.00294E-03-8.97975E-05-8.43650E-02
 -1        55 1.10202E-02-9.88067E-05-8.87272E-02
 -1        56 2.03586E-02-9.98634E-05-8.08750E-02
 -1        57 2.91686E-02-9.37196E-05-6.15160E-02
 -1        58 3.67263E-02-8.18384E-05-3.27352E-02
 -1        59 4.25299E-02-6.61191E-05 2.28968E-03
 -1        60 4.63752E-02-4.94481E-05 3.97275E-02
 -1        61 4.84245E-02-4.26109E-05 7.57375E-02
 -1        62-2.85073E-03-5.89316E-05-2.35280E-02
 -1        63-3.94315E-03 1.13498E-05-5.42978E-02
 -1        64-1.87073E-03 2.28146E-05-8.00442E-02
 -1        65 2.41383E-03 3.73031E-05-9.74685E-02
 -1        66 8.08794E-03 4.80206E-05-1.04041E-01
 -1        67 1.42123E-02 4.99037E-05-9.87976E-02
 -1        68 1.98219E-02 4.22434E-05-8.22732E-02
 -1        69 2.40551E-02 2.68459E-05-5.63544E-02
 -1        70 2.62558E-02 6.25585E-06-2.40820E-02
 -1        71 2.60466E-02-1.65288E-05 1.07041E-02
 -1        72 2.33713E-02-3.83429E-05 4.38379E-02
 -1        73 1.84997E-02-5.61832E-05 7.13450E-02
 -1        74 1.19924E-02-6.75523E-05 8.99358E-02
 -1        75 4.63084E-03-7.07587E-05 9.74138E-02
 -1        76-2.67939E-03-6.51189E-05 9.29488E-02
 -1        77-9.02016E-03-5.10336E-05 7.71812E-02
 -1        78-1.35731E-02-2.99300E-05 5.21465E-02
 -1        79-1.57191E-02-4.07618E-06 2.10274E-02
 -1        80-1.51129E-02 2.37075E-05-1.22345E-02
 -1        81-1.17227E-02 5.04060E-05-4.34205E-02
 -1        82-5.83135E-03 7.31932E-05-6.85499E-02
 -1        83 2.00294E-03 8.97975E-05-8.43650E-02
 -1        84 1.10202E-02 9.88067E-05-8.87272E-02
 -1        85 2.03586E-02 9.98634E-05-8.08750E-02
 -1        86 2.91686E-02 9.37196E-05-6.15160E-02
 -1        87 3.67263E-02 8.18384E-05-3.27352E-02
 -1        88 4.25299E-02 6.61191E-05 2.28968E-03
 -1        89 4.63752E-02 4.94481E-05 3.97275E-02
 -1        90 4.84245E-02 4.26109E-05 7.57375E-02
 -1        91 0.00000E+00 0.00000E+00 0.00000E+00
 -1        92 0.00000E+00 0.00000E+00 0.00000E+00
 -1        93 0.00000E+00 0.00000E+00 0.00000E+00
 -1        94 0.00000E+00 0.00000E+00 0.00000E+00
 -1        95 0.00000E+00 0.00000E+00 0.00000E+00
 -1        96 0.00000E+00 0.00000E+00 0.00000E+00
 -1        97 2.85073E-03 5.89316E-05-2.35280E-02
 -1        98 3.94315E-03-1.13498E-05-5.42978E-02
 -1        99 1.87073E-03-2.28146E-05-8.00442E-02
 -1       100-2.41383E-03-3.73031E-05-9.74685E-02
 -1       101-8.08794E-03-4.80206E-05-1.04041E-01
 -1       102-1.42123E-02-4.99037E-05-9.87976E-02
 -1       103-1.98219E-02-4.22434E-05-8.22732E-02
 -1       104-2.40551E-02-2.68459E-05-5.63544E-02
 -1       105-2.62558E-02-6.25585E-06-2.40820E-02
 -1       106-2.60466E-02 1.65288E-05 1.07041E-02
 -1       107-2.33713E-02 3.83429E-05 4.38379E-02
 -1       108-1.84997E-02 5.61832E-05 7.13450E-02
 -1       109-1.19924E-02 6.75523E-05 8.99358E-02
 -1       110-4.63084E-03 7.07587E-05 9.74138E-02
 -1       111 2.67939E-03 6.51189E-05 9.29488E-02
 -1       112 9.02016E-03 5.10336E-05 7.71812E-02
 -1       113 1.35731E-02 2.99300E-05 5.21465E-02
 -1       114 1.57191E-02 4.07618E-06 2.10274E-02
 -1       115 1.51129E-02-2.37075E-05-1.22345E-02
 -1       116 1.17227E-02-5.04060E-05-4.34205E-02
 -1       117 5.83135E-03-7.31932E-05-6.85499E-02
 -1       118-2.00294E-03-8.97975E-05-8.43650E-02
 -1       119-1.10202E-02-9.88067E-05-8.87272E-02
 -1       120-2.03586E-02-9.98634E-05-8.08750E-02
 -1       121-2.91686E-02-9.37196E-05-6.15160E-02
 -1       122-3.67263E-02-8.18384E-05-3.27352E-02
 -1       123-4.25299E-02-6.61191E-05 2.28968E-03
 -1       124-4.63752E-02-4.94481E-05 3.97275E-02
 -1       125-4.84245E-02-4.26109E-05 7.57375E-02
 -1       126 2.43094E-02-5.56823E-05 1.04589E-01
 -1       127-1.45103E-13-7.10570E-13 1.03325E-01
 -1       128-2.43094E-02 5.56823E-05 1.04589E-01
 -1       129 2.85073E-03-5.89316E-05-2.35280E-02
 -1       130 3.94315E-03 1.13498E-05-5.42978E-02
 -1       131 1.87073E-03 2.28146E-05-8.00442E-02
 -1       132-2.41383E-03 3.73031E-05-9.74685E-02
 -1       133-8.08794E-03 4.80206E-05-1.04041E-01
 -1       134-1.42123E-02 4.99037E-05-9.87976E-02
 -1       135-1.98219E-02 4.22434E-05-8.22732E-02
 -1       136-2.40551E-02 2.68459E-05-5.63544E-02
 -1       137-2.62558E-02 6.25585E-06-2.40820E-02
 -1       138-2.60466E-02-1.65288E-05 1.07041E-02
 -1       139-2.33713E-02-3.83429E-05 4.38379E-02
 -1       140-1.84997E-02-5.61832E-05 7.13450E-02
 -1       141-1.19924E-02-6.75523E-05 8.99358E-02
 -1       142-4.63084E-03-7.07587E-05 9.74138E-02
 -1       143 2.67939E-03-6.51189E-05 9.29488E-02
 -1       144 9.02016E-03-5.10336E-05 7.71812E-02
 -1       145 1.35731E-02-2.99300E-05 5.21465E-02
 -1       146 1.57191E-02-4.07618E-06 2.10274E-02
 -1       147 1.51129E-02 2.37075E-05-1.22345E-02
 -1       148 1.17227E-02 5.04060E-05-4.34205E-02
 -1       149 5.83135E-03 7.31932E-05-6.85499E-02
 -1       150-2.00294E-03 8.97975E-05-8.43650E-02
 -1       151-1.10202E-02 9.88067E-05-8.87272E-02
 -1       152-2.03586E-02 9.98634E-05-8.08750E-02
 -1       153-2.91686E-02 9.37196E-05-6.15160E-02
 -1       154-3.67263E-02 8.18384E-05-3.27352E-02
 -1       155-4.25299E-02 6.61191E-05 2.28968E-03
 -1       156-4.63752E-02 4.94481E-05 3.97275E-02
 -1       157-4.84245E-02 4.26109E-05 7.57375E-02
 -1       158-2.43094E-02-5.56823E-05 1.04589E-01
 -1       159-1.35641E-13-7.09904E-13 1.03325E-01
 -1       160 2.43094E-02 5.56823E-05 1.04589E-01
 -1       161-6.86591E-03-2.50920E-04-2.36281E-02
 -1       162-7.49747E-03 9.45490E-05-5.42695E-02
 -1       163-4.58559E-03 3.49606E-04-7.99882E-02
 -1       164 9.37624E-04 4.83752E-04-9.73565E-02
 -1       165 8.06684E-03 5.20109E-04-1.03897E-01
 -1       166 1.56689E-02 4.91324E-04-9.86487E-02
 -1       167 2.26017E-02 4.07367E-04-8.21472E-02
 -1       168 2.78431E-02 2.76746E-04-5.62745E-02
 -1       169 3.06105E-02 1.13400E-04-2.40639E-02
 -1       170 3.04534E-02-6.33773E-05 1.06539E-02
 -1       171 2.73067E-02-2.32003E-04 4.37223E-02
 -1       172 2.14966E-02-3.71783E-04 7.11759E-02
 -1       173 1.36982E-02-4.65614E-04 8.97326E-02
 -1       174 4.85144E-03-5.02077E-04 9.72011E-02
 -1       175-3.95545E-03-4.76820E-04 9.27532E-02
 -1       176-1.16197E-02-3.93089E-04 7.70281E-02
 -1       177-1.71590E-02-2.61328E-04 5.20570E-02
 -1       178-1.98315E-02-9.78985E-05 2.10158E-02
 -1       179-1.92251E-02 7.69261E-05-1.21624E-02
 -1       180-1.53053E-02 2.41458E-04-4.32680E-02
 -1       181-8.41667E-03 3.75255E-04-6.83286E-02
 -1       182 7.64137E-04 4.61591E-04-8.40935E-02
 -1       183 1.13167E-02 4.89418E-04-8.84283E-02
 -1       184 2.21962E-02 4.54669E-04-8.05726E-02
 -1       185 3.23698E-02 3.61258E-04-6.12317E-02
 -1       186 4.09537E-02 2.22150E-04-3.24860E-02
 -1       187 4.73330E-02 6.06965E-05 2.49325E-03
 -1       188 5.12577E-02-1.01200E-04 3.98838E-02
 -1       189 5.29461E-02-2.41886E-04 7.58510E-02
 -1       190 0.00000E+00 0.00000E+00 0.00000E+00
 -1       191 0.00000E+00 0.00000E+00 0.00000E+00
 -1       192 5.30632E-02-2.14144E-03 1.15183E-01
 -1       193-4.25526E-03-1.48946E-03-1.78412E-02
 -1       194-5.16540E-03 4.43459E-04-5.66730E-02
 -1       195-2.62768E-03 2.41026E-03-9.18778E-02
 -1       196 2.32392E-03 3.43358E-03-1.13585E-01
 -1       197 8.65060E-03 3.80944E-03-1.21055E-01
 -1       198 1.53984E-02 3.66112E-03-1.14684E-01
 -1       199 2.15687E-02 3.04726E-03-9.54080E-02
 -1       200 2.62307E-02 2.04249E-03-6.53467E-02
 -1       201 2.86623E-02 7.66452E-04-2.79453E-02
 -1       202 2.84471E-02-6.22069E-04 1.23731E-02
 -1       203 2.55228E-02-1.94783E-03 5.07814E-02
 -1       204 2.01855E-02-3.04323E-03 8.26699E-02
 -1       205 1.30507E-02-3.76953E-03 1.04225E-01
 -1       206 4.97561E-03-4.03377E-03 1.12900E-01
 -1       207-3.04633E-03-3.79994E-03 1.07734E-01
 -1       208-1.00081E-02-3.09328E-03 8.94700E-02
 -1       209-1.50122E-02-1.99703E-03 6.04665E-02
 -1       210-1.73799E-02-6.42094E-04 2.44128E-02
 -1       211-1.67327E-02 8.09209E-04-1.41231E-02
 -1       212-1.30365E-02 2.18326E-03-5.02520E-02
 -1       213-6.60209E-03 3.31663E-03-7.93604E-02
 -1       214 1.95754E-03 4.07622E-03-9.76717E-02
 -1       215 1.18082E-02 4.37531E-03-1.02700E-01
 -1       216 2.20034E-02 4.18432E-03-9.35513E-02
 -1       217 3.16061E-02 3.53722E-03-7.10443E-02
 -1       218 3.98095E-02 2.53569E-03-3.76824E-02
 -1       219 4.60531E-02 1.34529E-03 2.58095E-03
 -1       220 5.01684E-02 1.82514E-04 4.51184E-02
 -1       221 5.23326E-02-9.42818E-04 8.66938E-02
 -1       222 5.17919E-05-4.27579E-04-1.77610E-02
 -1       223 1.59324E-04 9.06633E-06-5.67099E-02
 -1       224 1.22512E-03-4.86477E-05-9.19848E-02
 -1       225 4.25551E-03 7.18362E-05-1.13771E-01
 -1       226 8.70663E-03 2.59148E-04-1.21276E-01
 -1       227 1.36488E-02 3.42623E-04-1.14906E-01
 -1       228 1.82079E-02 3.03280E-04-9.55939E-02
 -1       229 2.16336E-02 1.65560E-04-6.54675E-02
 -1       230 2.33654E-02-3.56596E-05-2.79811E-02
 -1       231 2.30813E-02-2.64317E-04 1.24310E-02
 -1       232 2.07315E-02-4.84180E-04 5.09288E-02
 -1       233 1.65429E-02-6.61151E-04 8.28908E-02
 -1       234 1.09900E-02-7.66718E-04 1.04493E-01
 -1       235 4.73587E-03-7.81317E-04 1.13183E-01
 -1       236-1.45020E-03-6.96641E-04 1.07997E-01
 -1       237-6.78752E-03-5.16510E-04 8.96792E-02
 -1       238-1.05793E-02-2.56197E-04 6.05940E-02
 -1       239-1.22975E-02 5.96612E-05 2.44398E-02
 -1       240-1.16453E-02 4.00315E-04-1.42040E-02
 -1       241-8.59166E-03 7.32921E-04-5.04360E-02
 -1       242-3.37158E-03 1.02686E-03-7.96314E-02
 -1       243 3.54706E-03 1.25798E-03-9.80043E-02
 -1       244 1.15262E-02 1.41221E-03-1.03064E-01
 -1       245 1.98437E-02 1.48806E-03-9.39121E-02
 -1       246 2.77927E-02 1.49564E-03-7.13726E-02
 -1       247 3.47810E-02 1.44931E-03-3.79546E-02
 -1       248 4.04116E-02 1.35147E-03 2.37702E-03
 -1       249 4.44926E-02 1.24079E-03 4.49865E-02
 -1       250 4.68558E-02 1.32672E-03 8.66324E-02
 -1       251 4.83467E-02 1.23194E-03 1.15186E-01
 -1       252-5.29461E-02 2.41886E-04 7.58510E-02
 -1       253-5.12577E-02 1.01200E-04 3.98838E-02
 -1       254-4.73330E-02-6.06965E-05 2.49325E-03
 -1       255-4.09537E-02-2.22150E-04-3.24860E-02
 -1       256-3.23698E-02-3.61258E-04-6.12317E-02
 -1       257-2.21962E-02-4.54669E-04-8.05726E-02
 -1       258-1.13167E-02-4.89418E-04-8.84283E-02
 -1       259-7.64137E-04-4.61591E-04-8.40935E-02
 -1       260 8.41667E-03-3.75255E-04-6.83286E-02
 -1       261 1.53053E-02-2.41458E-04-4.32680E-02
 -1       262 1.92251E-02-7.69261E-05-1.21624E-02
 -1       263 1.98315E-02 9.78985E-05 2.10158E-02
 -1       264 1.71590E-02 2.61328E-04 5.20570E-02
 -1       265 1.16197E-02 3.93089E-04 7.70281E-02
 -1       266 3.95545E-03 4.76820E-04 9.27532E-02
 -1       267-4.85144E-03 5.02077E-04 9.72011E-02
 -1       268-1.36982E-02 4.65614E-04 8.97326E-02
 -1       269-2.14966E-02 3.71783E-04 7.11759E-02
 -1       270-2.73067E-02 2.32003E-04 4.37223E-02
 -1       271-3.04534E-02 6.33773E-05 1.06539E-02
 -1       272-3.06105E-02-1.13400E-04-2.40639E-02
 -1       273-2.78431E-02-2.76746E-04-5.62745E-02
 -1       274-2.26017E-02-4.07367E-04-8.21472E-02
 -1       275-1.56689E-02-4.91324E-04-9.86487E-02
 -1       276-8.06684E-03-5.20109E-04-1.03897E-01
 -1       277-9.37624E-04-4.83752E-04-9.73565E-02
 -1       278 4.58559E-03-3.49606E-04-7.99882E-02
 -1       279 7.49747E-03-9.45490E-05-5.42695E-02
 -1       280 6.86591E-03 2.50920E-04-2.36281E-02
 -1       281 0.00000E+00 0.00000E+00 0.00000E+00
 -1       282 0.00000E+00 0.00000E+00 0.00000E+00
 -1       283-5.17919E-05 4.27579E-04-1.77610E-02
 -1       284-1.59324E-04-9.06633E-06-5.67099E-02
 -1       285-1.22512E-03 4.86477E-05-9.19848E-02
 -1       286-4.25551E-03-7.18362E-05-1.13771E-01
 -1       287-8.70663E-03-2.59148E-04-1.21276E-01
 -1       288-1.36488E-02-3.42623E-04-1.14906E-01
 -1       289-1.82079E-02-3.03280E-04-9.55939E-02
 -1       290-2.16336E-02-1.65560E-04-6.54675E-02
 -1       291-2.33654E-02 3.56596E-05-2.79811E-02
 -1       292-2.30813E-02 2.64317E-04 1.24310E-02
 -1       293-2.07315E-02 4.84180E-04 5.09288E-02
 -1       294-1.65429E-02 6.61151E-04 8.28908E-02
 -1       295-1.09900E-02 7.66718E-04 1.04493E-01
 -1       296-4.73587E-03 7.81317E-04 1.13183E-01
 -1       297 1.45020E-03 6.96641E-04 1.07997E-01
 -1       298 6.78752E-03 5.16510E-04 8.96792E-02
 -1       299 1.05793E-02 2.56197E-04 6.05940E-02
 -1       300 1.22975E-02-5.96612E-05 2.44398E-02
 -1       301 1.16453E-02-4.00315E-04-1.42040E-02
 -1       302 8.59166E-03-7.32921E-04-5.04360E-02
 -1       303 3.37158E-03-1.02686E-03-7.96314E-02
 -1       304-3.54706E-03-1.25798E-03-9.80043E-02
 -1       305-1.15262E-02-1.41221E-03-1.03064E-01
 -1       306-1.98437E-02-1.48806E-03-9.39121E-02
 -1       307-2.77927E-02-1.49564E-03-7.13726E-02
 -1       308-3.47810E-02-1.44931E-03-3.79546E-02
 -1       309-4.04116E-02-1.35147E-03 2.37702E-03
 -1       310-4.44926E-02-1.24079E-03 4.49865E-02
 -1       311-4.68558E-02-1.32672E-03 8.66324E-02
 -1       312-4.83467E-02-1.23194E-03 1.15186E-01
 -1       313 4.25526E-03 1.48946E-03-1.78412E-02
 -1       314 5.16540E-03-4.43459E-04-5.66730E-02
 -1       315 2.62768E-03-2.41026E-03-9.18778E-02
 -1       316-2.32392E-03-3.43358E-03-1.13585E-01
 -1       317-8.65060E-03-3.80944E-03-1.21055E-01
 -1       318-1.53984E-02-3.66112E-03-1.14684E-01
 -1       319-2.15687E-02-3.04726E-03-9.54080E-02
 -1       320-2.62307E-02-2.04249E-03-6.53467E-02
 -1       321-2.86623E-02-7.66452E-04-2.79453E-02
 -1       322-2.84471E-02 6.22069E-04 1.23731E-02
 -1       323-2.55228E-02 1.94783E-03 5.07814E-02
 -1       324-2.01855E-02 3.04323E-03 8.26699E-02
 -1       325-1.30507E-02 3.76953E-03 1.04225E-01
 -1       326-4.97561E-03 4.03377E-03 1.12900E-01
 -1       327 3.04633E-03 3.79994E-03 1.07734E-01
 -1       328 1.00081E-02 3.09328E-03 8.94700E-02
 -1       329 1.50122E-02 1.99703E-03 6.04665E-02
 -1       330 1.73799E-02 6.42094E-04 2.44128E-02
 -1       331 1.67327E-02-8.09209E-04-1.41231E-02
 -1       332 1.30365E-02-2.18326E-03-5.02520E-02
 -1       333 6.60209E-03-3.31663E-03-7.93604E-02
 -1       334-1.95754E-03-4.07622E-03-9.76717E-02
 -1       335-1.18082E-02-4.37531E-03-1.02700E-01
 -1       336-2.20034E-02-4.18432E-03-9.35513E-02
 -1       337-3.16061E-02-3.53722E-03-7.10443E-02
 -1       338-3.98095E-02-2.53569E-03-3.76824E-02
 -1       339-4.60531E-02-1.34529E-03 2.58095E-03
 -1       340-5.01684E-02-1.82514E-04 4.51184E-02
 -1       341-5.23326E-02 9.42818E-04 8.66938E-02
 -1       342-5.30632E-02 2.14144E-03 1.15183E-01
 -1       343-4.25526E-03 1.48946E-03-1.78412E-02
 -1       344-5.16540E-03-4.43459E-04-5.66730E-02
 -1       345-2.62768E-03-2.41026E-03-9.18778E-02
 -1       346 2.32392E-03-3.43358E-03-1.13585E-01
 -1       347 8.65060E-03-3.80944E-03-1.21055E-01
 -1       348 1.53984E-02-3.66112E-03-1.14684E-01
 -1       349 2.15687E-02-3.04726E-03-9.54080E-02
 -1       350 2.62307E-02-2.04249E-03-6.53467E-02
 -1       351 2.86623E-02-7.66452E-04-2.79453E-02
 -1       352 2.84471E-02 6.22069E-04 1.23731E-02
 -1       353 2.55228E-02 1.94783E-03 5.07814E-02
 -1       354 2.01855E-02 3.04323E-03 8.26699E-02
 -1       355 1.30507E-02 3.76953E-03 1.04225E-01
 -1       356 4.97561E-03 4.03377E-03 1.12900E-01
 -1       357-3.04633E-03 3.79994E-03 1.07734E-01
 -1       358-1.00081E-02 3.09328E-03 8.94700E-02
 -1       359-1.50122E-02 1.99703E-03 6.04665E-02
 -1       360-1.73799E-02 6.42094E-04 2.44128E-02
 -1       361-1.67327E-02-8.09209E-04-1.41231E-02
 -1       362-1.30365E-02-2.18326E-03-5.02520E-02
 -1       363-6.60209E-03-3.31663E-03-7.93604E-02
 -1       364 1.95754E-03-4.07622E-03-9.76717E-02
 -1       365 1.18082E-02-4.37531E-03-1.02700E-01
 -1       366 2.20034E-02-4.18432E-03-9.35513E-02
 -1       367 3.16061E-02-3.53722E-03-7.10443E-02
 -1       368 3.98095E-02-2.53569E-03-3.76824E-02
 -1       369 4.60531E-02-1.34529E-03 2.58095E-03
 -1       370 5.01684E-02-1.82514E-04 4.51184E-02
 -1       371 5.23326E-02 9.42818E-04 8.66938E-02
 -1       372 5.17919E-05 4.27579E-04-1.77610E-02
 -1       373 1.59324E-04-9.06633E-06-5.67099E-02
 -1       374 1.22512E-03 4.86477E-05-9.19848E-02
 -1       375 4.25551E-03-7.18362E-05-1.13771E-01
 -1       376 8.70663E-03-2.59148E-04-1.21276E-01
 -1       377 1.36488E-02-3.42623E-04-1.14906E-01
 -1       378 1.82079E-02-3.03280E-04-9.55939E-02
 -1       379 2.16336E-02-1.65560E-04-6.54675E-02
 -1       380 2.33654E-02 3.56596E-05-2.79811E-02
 -1       381 2.30813E-02 2.64317E-04 1.24310E-02
 -1       382 2.07315E-02 4.84180E-04 5.09288E-02
 -1       383 1.65429E-02 6.61151E-04 8.28908E-02
 -1       384 1.09900E-02 7.66718E-04 1.04493E-01
 -1       385 4.73587E-03 7.81317E-04 1.13183E-01
 -1       386-1.45020E-03 6.96641E-04 1.07997E-01
 -1       387-6.78752E-03 5.16510E-04 8.96792E-02
 -1       388-1.05793E-02 2.56197E-04 6.05940E-02
 -1       389-1.22975E-02-5.96612E-05 2.44398E-02
 -1       390-1.16453E-02-4.00315E-04-1.42040E-02
 -1       391-8.59166E-03-7.32921E-04-5.04360E-02
 -1       392-3.37158E-03-1.02686E-03-7.96314E-02
 -1       393 3.54706E-03-1.25798E-03-9.80043E-02
 -1       394 1.15262E-02-1.41221E-03-1.03064E-01
 -1       395 1.98437E-02-1.48806E-03-9.39121E-02
 -1       396 2.77927E-02-1.49564E-03-7.13726E-02
 -1       397 3.47810E-02-1.44931E-03-3.79546E-02
 -1       398 4.04116E-02-1.35147E-03 2.37702E-03
 -1       399 4.44926E-02-1.24079E-03 4.49865E-02
 -1       400 4.68558E-02-1.32672E-03 8.66324E-02
 -1       401 0.00000E+00 0.00000E+00 0.00000E+00
 -1       402 0.00000E+00 0.00000E+00 0.00000E+00
 -1       403 5.30632E-02 2.14144E-03 1.15183E-01
 -1       404-6.86591E-03 2.50920E-04-2.36281E-02
 -1       405-7.49747E-03-9.45490E-05-5.42695E-02
 -1       406-4.58559E-03-3.49606E-04-7.99882E-02
 -1       407 9.37624E-04-4.83752E-04-9.73565E-02
 -1       408 8.06684E-03-5.20109E-04-1.03897E-01
 -1       409 1.56689E-02-4.91324E-04-9.86487E-02
 -1       410 2.26017E-02-4.07367E-04-8.21472E-02
 -1       411 2.78431E-02-2.76746E-04-5.62745E-02
 -1       412 3.06105E-02-1.13400E-04-2.40639E-02
 -1       413 3.04534E-02 6.33773E-05 1.06539E-02
 -1       414 2.73067E-02 2.32003E-04 4.37223E-02
 -1       415 2.14966E-02 3.71783E-04 7.11759E-02
 -1       416 1.36982E-02 4.65614E-04 8.97326E-02
 -1       417 4.85144E-03 5.02077E-04 9.72011E-02
 -1       418-3.95545E-03 4.76820E-04 9.27532E-02
 -1       419-1.16197E-02 3.93089E-04 7.70281E-02
 -1       420-1.71590E-02 2.61328E-04 5.20570E-02
 -1       421-1.98315E-02 9.78985E-05 2.10158E-02
 -1       422-1.92251E-02-7.69261E-05-1.21624E-02
 -1       423-1.53053E-02-2.41458E-04-4.32680E-02
 -1       424-8.41667E-03-3.75255E-04-6.83286E-02
 -1       425 7.64137E-04-4.61591E-04-8.40935E-02
 -1       426 1.13167E-02-4.89418E-04-8.84283E-02
 -1       427 2.21962E-02-4.54669E-04-8.05726E-02
 -1       428 3.23698E-02-3.61258E-04-6.12317E-02
 -1       429 4.09537E-02-2.22150E-04-3.24860E-02
 -1       430 4.73330E-02-6.06965E-05 2.49325E-03
 -1       431 5.12577E-02 1.01200E-04 3.98838E-02
 -1       432 5.29461E-02 2.41886E-04 7.58510E-02
 -1       433 4.83467E-02-1.23194E-03 1.15186E-01
 -1       434 0.00000E+00 0.00000E+00 0.00000E+00
 -1       435 0.00000E+00 0.00000E+00 0.00000E+00
 -1       436-5.29461E-02-2.41886E-04 7.58510E-02
 -1       437-5.12577E-02-1.01200E-04 3.98838E-02
 -1       438-4.73330E-02 6.06965E-05 2.49325E-03
 -1       439-4.09537E-02 2.22150E-04-3.24860E-02
 -1       440-3.23698E-02 3.61258E-04-6.12317E-02
 -1       441-2.21962E-02 4.54669E-04-8.05726E-02
 -1       442-1.13167E-02 4.89418E-04-8.84283E-02
 -1       443-7.64137E-04 4.61591E-04-8.40935E-02
 -1       444 8.41667E-03 3.75255E-04-6.83286E-02
 -1       445 1.53053E-02 2.41458E-04-4.32680E-02
 -1       446 1.92251E-02 7.69261E-05-1.21624E-02
 -1       447 1.98315E-02-9.78985E-05 2.10158E-02
 -1       448 1.71590E-02-2.61328E-04 5.20570E-02
 -1       449 1.16197E-02-3.93089E-04 7.70281E-02
 -1       450 3.95545E-03-4.76820E-04 9.27532E-02
 -1       451-4.85144E-03-5.02077E-04 9.72011E-02
 -1       452-1.36982E-02-4.65614E-04 8.97326E-02
 -1       453-2.14966E-02-3.71783E-04 7.11759E-02
 -1       454-2.73067E-02-2.32003E-04 4.37223E-02
 -1       455-3.04534E-02-6.33773E-05 1.06539E-02
 -1       456-3.06105E-02 1.13400E-04-2.40639E-02
 -1       457-2.78431E-02 2.76746E-04-5.62745E-02
 -1       458-2.26017E-02 4.07367E-04-8.21472E-02
 -1       459-1.56689E-02 4.91324E-04-9.86487E-02
 -1       460-8.06684E-03 5.20109E-04-1.03897E-01
 -1       461-9.37624E-04 4.83752E-04-9.73565E-02
 -1       462 4.58559E-03 3.49606E-04-7.99882E-02
 -1       463 7.49747E-03 9.45490E-05-5.42695E-02
 -1       464 6.86591E-03-2.50920E-04-2.36281E-02
 -1       465-5.30632E-02-2.14144E-03 1.15183E-01
 -1       466 4.25526E-03-1.48946E-03-1.78412E-02
 -1       467 5.16540E-03 4.43459E-04-5.66730E-02
 -1       468 2.62768E-03 2.41026E-03-9.18778E-02
 -1       469-2.32392E-03 3.43358E-03-1.13585E-01
 -1       470-8.65060E-03 3.80944E-03-1.21055E-01
 -1       471-1.53984E-02 3.66112E-03-1.14684E-01
 -1       472-2.15687E-02 3.04726E-03-9.54080E-02
 -1       473-2.62307E-02 2.04249E-03-6.53467E-02
 -1       474-2.86623E-02 7.66452E-04-2.79453E-02
 -1       475-2.84471E-02-6.22069E-04 1.23731E-02
 -1       476-2.55228E-02-1.94783E-03 5.07814E-02
 -1       477-2.01855E-02-3.04323E-03 8.26699E-02
 -1       478-1.30507E-02-3.76953E-03 1.04225E-01
 -1       479-4.97561E-03-4.03377E-03 1.12900E-01
 -1       480 3.04633E-03-3.79994E-03 1.07734E-01
 -1       481 1.00081E-02-3.09328E-03 8.94700E-02
 -1       482 1.50122E-02-1.99703E-03 6.04665E-02
 -1       483 1.73799E-02-6.42094E-04 2.44128E-02
 -1       484 1.67327E-02 8.09209E-04-1.41231E-02
 -1       485 1.30365E-02 2.18326E-03-5.02520E-02
 -1       486 6.60209E-03 3.31663E-03-7.93604E-02
 -1       487-1.95754E-03 4.07622E-03-9.76717E-02
 -1       488-1.18082E-02 4.37531E-03-1.02700E-01
 -1       489-2.20034E-02 4.18432E-03-9.35513E-02
 -1       490-3.16061E-02 3.53722E-03-7.10443E-02
 -1       491-3.98095E-02 2.53569E-03-3.76824E-02
 -1       492-4.60531E-02 1.34529E-03 2.58095E-03
 -1       493-5.01684E-02 1.82514E-04 4.51184E-02
 -1       494-5.23326E-02-9.42818E-04 8.66938E-02
 -1       495-5.17919E-05-4.27579E-04-1.77610E-02
 -1       496-1.59324E-04 9.06633E-06-5.67099E-02
 -1       497-1.22512E-03-4.86477E-05-9.19848E-02
 -1       498-4.25551E-03 7.18362E-05-1.13771E-01
 -1       499-8.70663E-03 2.59148E-04-1.21276E-01
 -1       500-1.36488E-02 3.42623E-04-1.14906E-01
 -1       501-1.82079E-02 3.03280E-04-9.55939E-02
 -1       502-2.16336E-02 1.65560E-04-6.54675E-02
 -1       503-2.33654E-02-3.56596E-05-2.79811E-02
 -1       504-2.30813E-02-2.64317E-04 1.24310E-02
 -1       505-2.07315E-02-4.84180E-04 5.09288E-02
 -1       506-1.65429E-02-6.61151E-04 8.28908E-02
 -1       507-1.09900E-02-7.66718E-04 1.04493E-01
 -1       508-4.73587E-03-7.81317E-04 1.13183E-01
 -1       509 1.45020E-03-6.96641E-04 1.07997E-01
 -1       510 6.78752E-03-5.16510E-04 8.96792E-02
 -1       511 1.05793E-02-2.56197E-04 6.05940E-02
 -1       512 1.22975E-02 5.96612E-05 2.44398E-02
 -1       513 1.16453E-02 4.00315E-04-1.42040E-02
 -1       514 8.59166E-03 7.32921E-04-5.04360E-02
 -1       515 3.37158E-03 1.02686E-03-7.96314E-02
 -1       516-3.54706E-03 1.25798E-03-9.80043E-02
 -1       517-1.15262E-02 1.41221E-03-1.03064E-01
 -1       518-1.98437E-02 1.48806E-03-9.39121E-02
 -1       519-2.77927E-02 1.49564E-03-7.13726E-02
 -1       520-3.47810E-02 1.44931E-03-3.79546E-02
 -1       521-4.04116E-02 1.35147E-03 2.37702E-03
 -1       522-4.44926E-02 1.24079E-03 4.49865E-02
 -1       523-4.68558E-02 1.32672E-03 8.66324E-02
 -1       524-4.83467E-02 1.23194E-03 1.15186E-01
 -1       525-2.80484E-04-3.88246E-05-2.52966E-02
 -1       526-1.41479E-05 1.85624E-05-5.36997E-02
 -1       527 5.79096E-04 5.08262E-05-7.90872E-02
 -1       528 2.11275E-03 7.56750E-05-9.64221E-02
 -1       529 4.34555E-03 8.45925E-05-1.03072E-01
 -1       530 6.83496E-03 8.16230E-05-9.79627E-02
 -1       531 9.14257E-03 6.79969E-05-8.15962E-02
 -1       532 1.08815E-02 4.55907E-05-5.58596E-02
 -1       533 1.17634E-02 1.71472E-05-2.37907E-02
 -1       534 1.16246E-02-1.37812E-05 1.07845E-02
 -1       535 1.04404E-02-4.33046E-05 4.37188E-02
 -1       536 8.32564E-03-6.76991E-05 7.10560E-02
 -1       537 5.52042E-03-8.38793E-05 8.95214E-02
 -1       538 2.35983E-03-8.97769E-05 9.69281E-02
 -1       539-7.67399E-04-8.45908E-05 9.24487E-02
 -1       540-3.46675E-03-6.88829E-05 7.67195E-02
 -1       541-5.38618E-03-4.45062E-05 5.17650E-02
 -1       542-6.25884E-03-1.43744E-05 2.07513E-02
 -1       543-5.93497E-03 1.78994E-05-1.24001E-02
 -1       544-4.39905E-03 4.84502E-05-4.34925E-02
 -1       545-1.77008E-03 7.36396E-05-6.85659E-02
 -1       546 1.71520E-03 9.05033E-05-8.43802E-02
 -1       547 5.73435E-03 9.71159E-05-8.88103E-02
 -1       548 9.92288E-03 9.28370E-05-8.11026E-02
 -1       549 1.39240E-02 7.84386E-05-6.19643E-02
 -1       550 1.74354E-02 5.61814E-05-3.34648E-02
 -1       551 2.02473E-02 2.96265E-05 1.25056E-03
 -1       552 2.22519E-02 2.33415E-06 3.83977E-02
 -1       553 2.34766E-02-2.23669E-05 7.41289E-02
 -1       554-7.12971E-15-5.51573E-14-2.60265E-02
 -1       555-2.00864E-14-1.82424E-13-5.35941E-02
 -1       556-2.49991E-14-3.21534E-13-7.84990E-02
 -1       557-1.66950E-14-3.76260E-13-9.57703E-02
 -1       558-8.05606E-15-2.80220E-13-1.02429E-01
 -1       559-4.96478E-15-4.66849E-14-9.73890E-02
 -1       560-1.18482E-14 2.63622E-13-8.11274E-02
 -1       561-2.40814E-14 4.96748E-13-5.55284E-02
 -1       562-2.59653E-14 5.77434E-13-2.36218E-02
 -1       563-2.46591E-14 5.40776E-13 1.07813E-02
 -1       564-2.93567E-14 4.02400E-13 4.35518E-02
 -1       565-4.03531E-14 2.17146E-13 7.07515E-02
 -1       566-5.47652E-14 7.60867E-14 8.91205E-02
 -1       567-6.76577E-14-2.46244E-14 9.64812E-02
 -1       568-7.86697E-14-1.71844E-13 9.20097E-02
 -1       569-9.06619E-14-3.49221E-13 7.63390E-02
 -1       570-9.95506E-14-4.60618E-13 5.14840E-02
 -1       571-1.04240E-13-4.21066E-13 2.05962E-02
 -1       572-1.09206E-13-1.59921E-13-1.24217E-02
 -1       573-1.16300E-13 2.13621E-13-4.33922E-02
 -1       574-1.18414E-13 5.36918E-13-6.83739E-02
 -1       575-1.20695E-13 6.66592E-13-8.41424E-02
 -1       576-1.19682E-13 6.14279E-13-8.85834E-02
 -1       577-1.18433E-13 4.79583E-13-8.09485E-02
 -1       578-1.23651E-13 2.60592E-13-6.19425E-02
 -1       579-1.33796E-13-3.32095E-14-3.36219E-02
 -1       580-1.46552E-13-3.06172E-13 8.91668E-04
 -1       581-1.52878E-13-4.99316E-13 3.78608E-02
 -1       582-1.50491E-13-6.05738E-13 7.33442E-02
 -1       583 2.80484E-04 3.88246E-05-2.52966E-02
 -1       584 1.41479E-05-1.85624E-05-5.36997E-02
 -1       585-5.79096E-04-5.08262E-05-7.90872E-02
 -1       586-2.11275E-03-7.56750E-05-9.64221E-02
 -1       587-4.34555E-03-8.45925E-05-1.03072E-01
 -1       588-6.83496E-03-8.16230E-05-9.79627E-02
 -1       589-9.14257E-03-6.79969E-05-8.15962E-02
 -1       590-1.08815E-02-4.55907E-05-5.58596E-02
 -1       591-1.17634E-02-1.71472E-05-2.37907E-02
 -1       592-1.16246E-02 1.37812E-05 1.07845E-02
 -1       593-1.04404E-02 4.33046E-05 4.37188E-02
 -1       594-8.32564E-03 6.76991E-05 7.10560E-02
 -1       595-5.52042E-03 8.38793E-05 8.95214E-02
 -1       596-2.35983E-03 8.97769E-05 9.69281E-02
 -1       597 7.67399E-04 8.45908E-05 9.24487E-02
 -1       598 3.46675E-03 6.88829E-05 7.67195E-02
 -1       599 5.38618E-03 4.45062E-05 5.17650E-02
 -1       600 6.25884E-03 1.43744E-05 2.07513E-02
 -1       601 5.93497E-03-1.78994E-05-1.24001E-02
 -1       602 4.39905E-03-4.84502E-05-4.34925E-02
 -1       603 1.77008E-03-7.36396E-05-6.85659E-02
 -1       604-1.71520E-03-9.05033E-05-8.43802E-02
 -1       605-5.73435E-03-9.71159E-05-8.88103E-02
 -1       606-9.92288E-03-9.28370E-05-8.11026E-02
 -1       607-1.39240E-02-7.84386E-05-6.19643E-02
 -1       608-1.74354E-02-5.61814E-05-3.34648E-02
 -1       609-2.02473E-02-2.96265E-05 1.25056E-03
 -1       610-2.22519E-02-2.33415E-06 3.83977E-02
 -1       611-2.34766E-02 2.23669E-05 7.41289E-02
 -1       612 2.80484E-04-3.88246E-05-2.52966E-02
 -1       613 1.41479E-05 1.85624E-05-5.36997E-02
 -1       614-5.79096E-04 5.08262E-05-7.90872E-02
 -1       615-2.11275E-03 7.56750E-05-9.64221E-02
 -1       616-4.34555E-03 8.45925E-05-1.03072E-01
 -1       617-6.83496E-03 8.16230E-05-9.79627E-02
 -1       618-9.14257E-03 6.79969E-05-8.15962E-02
 -1       619-1.08815E-02 4.55907E-05-5.58596E-02
 -1       620-1.17634E-02 1.71472E-05-2.37907E-02
 -1       621-1.16246E-02-1.37812E-05 1.07845E-02
 -1       622-1.04404E-02-4.33046E-05 4.37188E-02
 -1       623-8.32564E-03-6.76991E-05 7.10560E-02
 -1       624-5.52042E-03-8.38793E-05 8.95214E-02
 -1       625-2.35983E-03-8.97769E-05 9.69281E-02
 -1       626 7.67399E-04-8.45908E-05 9.24487E-02
 -1       627 3.46675E-03-6.88829E-05 7.67195E-02
 -1       628 5.38618E-03-4.45062E-05 5.17650E-02
 -1       629 6.25884E-03-1.43744E-05 2.07513E-02
 -1       630 5.93497E-03 1.78994E-05-1.24001E-02
 -1       631 4.39905E-03 4.84502E-05-4.34925E-02
 -1       632 1.77008E-03 7.36396E-05-6.85659E-02
 -1       633-1.71520E-03 9.05033E-05-8.43802E-02
 -1       634-5.73435E-03 9.71159E-05-8.88103E-02
 -1       635-9.92288E-03 9.28370E-05-8.11026E-02
 -1       636-1.39240E-02 7.84386E-05-6.19643E-02
 -1       637-1.74354E-02 5.61814E-05-3.34648E-02
 -1       638-2.02473E-02 2.96265E-05 1.25056E-03
 -1       639-2.22519E-02 2.33415E-06 3.83977E-02
 -1       640-2.34766E-02-2.23669E-05 7.41289E-02
 -1       641 1.41033E-15-5.50601E-14-2.60265E-02
 -1       642-7.55819E-15-1.82382E-13-5.35941E-02
 -1       643-1.53488E-14-3.21992E-13-7.84990E-02
 -1       644-1.81521E-14-3.76730E-13-9.57703E-02
 -1       645-2.25445E-14-2.80304E-13-1.02429E-01
 -1       646-2.98997E-14-4.67126E-14-9.73890E-02
 -1       647-3.71131E-14 2.63733E-13-8.11274E-02
 -1       648-3.75255E-14 4.96797E-13-5.55284E-02
 -1       649-2.73514E-14 5.77552E-13-2.36218E-02
 -1       650-1.68789E-14 5.40873E-13 1.07813E-02
 -1       651-1.43212E-14 4.02664E-13 4.35518E-02
 -1       652-2.55872E-14 2.17512E-13 7.07515E-02
 -1       653-4.54185E-14 7.64120E-14 8.91205E-02
 -1       654-5.77836E-14-2.43815E-14 9.64812E-02
 -1       655-6.37866E-14-1.71649E-13 9.20097E-02
 -1       656-7.69541E-14-3.48957E-13 7.63390E-02
 -1       657-9.50620E-14-4.60423E-13 5.14840E-02
 -1       658-1.17250E-13-4.20899E-13 2.05962E-02
 -1       659-1.38566E-13-1.59671E-13-1.24217E-02
 -1       660-1.48516E-13 2.13760E-13-4.33922E-02
 -1       661-1.38885E-13 5.36945E-13-6.83739E-02
 -1       662-1.22728E-13 6.66703E-13-8.41424E-02
 -1       663-1.10925E-13 6.14224E-13-8.85834E-02
 -1       664-1.03667E-13 4.79738E-13-8.09485E-02
 -1       665-1.00912E-13 2.60713E-13-6.19425E-02
 -1       666-1.08386E-13-3.31332E-14-3.36219E-02
 -1       667-1.26125E-13-3.05825E-13 8.91668E-04
 -1       668-1.40818E-13-4.99198E-13 3.78608E-02
 -1       669-1.42482E-13-6.05654E-13 7.33442E-02
 -1       670-2.80484E-04 3.88246E-05-2.52966E-02
 -1       671-1.41479E-05-1.85624E-05-5.36997E-02
 -1       672 5.79096E-04-5.08262E-05-7.90872E-02
 -1       673 2.11275E-03-7.56750E-05-9.64221E-02
 -1       674 4.34555E-03-8.45925E-05-1.03072E-01
 -1       675 6.83496E-03-8.16230E-05-9.79627E-02
 -1       676 9.14257E-03-6.79969E-05-8.15962E-02
 -1       677 1.08815E-02-4.55907E-05-5.58596E-02
 -1       678 1.17634E-02-1.71472E-05-2.37907E-02
 -1       679 1.16246E-02 1.37812E-05 1.07845E-02
 -1       680 1.04404E-02 4.33046E-05 4.37188E-02
 -1       681 8.32564E-03 6.76991E-05 7.10560E-02
 -1       682 5.52042E-03 8.38793E-05 8.95214E-02
 -1       683 2.35983E-03 8.97769E-05 9.69281E-02
 -1       684-7.67399E-04 8.45908E-05 9.24487E-02
 -1       685-3.46675E-03 6.88829E-05 7.67195E-02
 -1       686-5.38618E-03 4.45062E-05 5.17650E-02
 -1       687-6.25884E-03 1.43744E-05 2.07513E-02
 -1       688-5.93497E-03-1.78994E-05-1.24001E-02
 -1       689-4.39905E-03-4.84502E-05-4.34925E-02
 -1       690-1.77008E-03-7.36396E-05-6.85659E-02
 -1       691 1.71520E-03-9.05033E-05-8.43802E-02
 -1       692 5.73435E-03-9.71159E-05-8.88103E-02
 -1       693 9.92288E-03-9.28370E-05-8.11026E-02
 -1       694 1.39240E-02-7.84386E-05-6.19643E-02
 -1       695 1.74354E-02-5.61814E-05-3.34648E-02
 -1       696 2.02473E-02-2.96265E-05 1.25056E-03
 -1       697 2.22519E-02-2.33415E-06 3.83977E-02
 -1       698 2.34766E-02 2.23669E-05 7.41289E-02
 -1       699-4.95480E-03-1.18611E-03-2.10761E-02
 -1       700-5.87655E-03 3.79898E-04-5.53443E-02
 -1       701-3.19426E-03 1.78706E-03-8.44480E-02
 -1       702 1.88167E-03 2.50701E-03-1.03435E-01
 -1       703 8.45172E-03 2.74668E-03-1.10328E-01
 -1       704 1.54721E-02 2.62116E-03-1.04659E-01
 -1       705 2.18861E-02 2.17818E-03-8.71183E-02
 -1       706 2.67322E-02 1.46815E-03-5.96758E-02
 -1       707 2.92703E-02 5.72145E-04-2.55201E-02
 -1       708 2.90737E-02-4.00674E-04 1.12962E-02
 -1       709 2.60797E-02-1.32916E-03 4.63653E-02
 -1       710 2.05939E-02-2.09732E-03 7.54806E-02
 -1       711 1.32504E-02-2.60921E-03 9.51607E-02
 -1       712 4.93244E-03-2.80061E-03 1.03082E-01
 -1       713-3.33667E-03-2.64681E-03 9.83654E-02
 -1       714-1.05198E-02-2.16558E-03 8.16897E-02
 -1       715-1.56927E-02-1.41488E-03 5.52087E-02
 -1       716-1.81568E-02-4.85755E-04 2.22905E-02
 -1       717-1.75232E-02 5.08944E-04-1.28940E-02
 -1       718-1.37575E-02 1.44850E-03-4.58804E-02
 -1       719-7.18123E-03 2.21923E-03-7.24564E-02
 -1       720 1.57253E-03 2.72836E-03-8.91741E-02
 -1       721 1.16423E-02 2.91511E-03-9.37677E-02
 -1       722 2.20505E-02 2.75812E-03-8.54264E-02
 -1       723 3.18304E-02 2.28035E-03-6.48981E-02
 -1       724 4.01538E-02 1.55318E-03-3.44217E-02
 -1       725 4.64470E-02 6.96224E-04 2.54106E-03
 -1       726 5.04862E-02-1.48126E-04 4.18872E-02
 -1       727 5.25027E-02-9.24430E-04 7.98413E-02
 -1       728-3.82369E-04-1.82448E-04-2.09389E-02
 -1       729-1.29174E-03-4.83261E-05-5.53883E-02
 -1       730 2.08764E-04-2.65742E-04-8.45934E-02
 -1       731 3.71076E-03-3.01679E-04-1.03662E-01
 -1       732 8.55068E-03-2.24822E-04-1.10594E-01
 -1       733 1.38598E-02-1.56143E-04-1.04922E-01
 -1       734 1.87432E-02-1.18448E-04-8.73387E-02
 -1       735 2.24193E-02-1.03049E-04-5.98203E-02
 -1       736 2.42966E-02-1.00239E-04-2.55659E-02
 -1       737 2.40344E-02-1.03309E-04 1.13586E-02
 -1       738 2.15805E-02-1.07206E-04 4.65312E-02
 -1       739 1.71754E-02-1.07467E-04 7.57315E-02
 -1       740 1.13209E-02-1.00225E-04 9.54671E-02
 -1       741 4.71719E-03-8.25960E-05 1.03406E-01
 -1       742-1.82328E-03-5.30038E-05 9.86677E-02
 -1       743-7.47644E-03-1.12923E-05 8.19314E-02
 -1       744-1.15071E-02 4.13692E-05 5.53581E-02
 -1       745-1.33584E-02 1.02753E-04 2.23263E-02
 -1       746-1.27183E-02 1.69970E-04-1.29800E-02
 -1       747-9.55530E-03 2.39960E-04-4.60826E-02
 -1       748-4.11948E-03 3.10031E-04-7.27562E-02
 -1       749 3.09298E-03 3.78481E-04-8.95422E-02
 -1       750 1.14059E-02 4.45284E-04-9.41682E-02
 -1       751 2.00530E-02 5.12461E-04-8.58212E-02
 -1       752 2.82818E-02 5.83054E-04-6.52522E-02
 -1       753 3.54571E-02 6.54873E-04-3.47079E-02
 -1       754 4.11403E-02 7.13108E-04 2.33869E-03
 -1       755 4.51452E-02 7.61338E-04 4.17684E-02
 -1       756 4.75302E-02 9.62319E-04 7.98039E-02
 -1       757 3.82369E-04 1.82448E-04-2.09389E-02
 -1       758 1.29174E-03 4.83261E-05-5.53883E-02
 -1       759-2.08764E-04 2.65742E-04-8.45934E-02
 -1       760-3.71076E-03 3.01679E-04-1.03662E-01
 -1       761-8.55068E-03 2.24822E-04-1.10594E-01
 -1       762-1.38598E-02 1.56143E-04-1.04922E-01
 -1       763-1.87432E-02 1.18448E-04-8.73387E-02
 -1       764-2.24193E-02 1.03049E-04-5.98203E-02
 -1       765-2.42966E-02 1.00239E-04-2.55659E-02
 -1       766-2.40344E-02 1.03309E-04 1.13586E-02
 -1       767-2.15805E-02 1.07206E-04 4.65312E-02
 -1       768-1.71754E-02 1.07467E-04 7.57315E-02
 -1       769-1.13209E-02 1.00225E-04 9.54671E-02
 -1       770-4.71719E-03 8.25960E-05 1.03406E-01
 -1       771 1.82328E-03 5.30038E-05 9.86677E-02
 -1       772 7.47644E-03 1.12923E-05 8.19314E-02
 -1       773 1.15071E-02-4.13692E-05 5.53581E-02
 -1       774 1.33584E-02-1.02753E-04 2.23263E-02
 -1       775 1.27183E-02-1.69970E-04-1.29800E-02
 -1       776 9.55530E-03-2.39960E-04-4.60826E-02
 -1       777 4.11948E-03-3.10031E-04-7.27562E-02
 -1       778-3.09298E-03-3.78481E-04-8.95422E-02
 -1       779-1.14059E-02-4.45284E-04-9.41682E-02
 -1       780-2.00530E-02-5.12461E-04-8.58212E-02
 -1       781-2.82818E-02-5.83054E-04-6.52522E-02
 -1       782-3.54571E-02-6.54873E-04-3.47079E-02
 -1       783-4.11403E-02-7.13108E-04 2.33869E-03
 -1       784-4.51452E-02-7.61338E-04 4.17684E-02
 -1       785-4.75302E-02-9.62319E-04 7.98039E-02
 -1       786 4.95480E-03 1.18611E-03-2.10761E-02
 -1       787 5.87655E-03-3.79898E-04-5.53443E-02
 -1       788 3.19426E-03-1.78706E-03-8.44480E-02
 -1       789-1.88167E-03-2.50701E-03-1.03435E-01
 -1       790-8.45172E-03-2.74668E-03-1.10328E-01
 -1       791-1.54721E-02-2.62116E-03-1.04659E-01
 -1       792-2.18861E-02-2.17818E-03-8.71183E-02
 -1       793-2.67322E-02-1.46815E-03-5.96758E-02
 -1       794-2.92703E-02-5.72145E-04-2.55201E-02
 -1       795-2.90737E-02 4.00674E-04 1.12962E-02
 -1       796-2.60797E-02 1.32916E-03 4.63653E-02
 -1       797-2.05939E-02 2.09732E-03 7.54806E-02
 -1       798-1.32504E-02 2.60921E-03 9.51607E-02
 -1       799-4.93244E-03 2.80061E-03 1.03082E-01
 -1       800 3.33667E-03 2.64681E-03 9.83654E-02
 -1       801 1.05198E-02 2.16558E-03 8.16897E-02
 -1       802 1.56927E-02 1.41488E-03 5.52087E-02
 -1       803 1.81568E-02 4.85755E-04 2.22905E-02
 -1       804 1.75232E-02-5.08944E-04-1.28940E-02
 -1       805 1.37575E-02-1.44850E-03-4.58804E-02
 -1       806 7.18123E-03-2.21923E-03-7.24564E-02
 -1       807-1.57253E-03-2.72836E-03-8.91741E-02
 -1       808-1.16423E-02-2.91511E-03-9.37677E-02
 -1       809-2.20505E-02-2.75812E-03-8.54264E-02
 -1       810-3.18304E-02-2.28035E-03-6.48981E-02
 -1       811-4.01538E-02-1.55318E-03-3.44217E-02
 -1       812-4.64470E-02-6.96224E-04 2.54106E-03
 -1       813-5.04862E-02 1.48126E-04 4.18872E-02
 -1       814-5.25027E-02 9.24430E-04 7.98413E-02
 -1       815-4.95480E-03 1.18611E-03-2.10761E-02
 -1       816-5.87655E-03-3.79898E-04-5.53443E-02
 -1       817-3.19426E-03-1.78706E-03-8.44480E-02
 -1       818 1.88167E-03-2.50701E-03-1.03435E-01
 -1       819 8.45172E-03-2.74668E-03-1.10328E-01
 -1       820 1.54721E-02-2.62116E-03-1.04659E-01
 -1       821 2.18861E-02-2.17818E-03-8.71183E-02
 -1       822 2.67322E-02-1.46815E-03-5.96758E-02
 -1       823 2.92703E-02-5.72145E-04-2.55201E-02
 -1       824 2.90737E-02 4.00674E-04 1.12962E-02
 -1       825 2.60797E-02 1.32916E-03 4.63653E-02
 -1       826 2.05939E-02 2.09732E-03 7.54806E-02
 -1       827 1.32504E-02 2.60921E-03 9.51607E-02
 -1       828 4.93244E-03 2.80061E-03 1.03082E-01
 -1       829-3.33667E-03 2.64681E-03 9.83654E-02
 -1       830-1.05198E-02 2.16558E-03 8.16897E-02
 -1       831-1.56927E-02 1.41488E-03 5.52087E-02
 -1       832-1.81568E-02 4.85755E-04 2.22905E-02
 -1       833-1.75232E-02-5.08944E-04-1.28940E-02
 -1       834-1.37575E-02-1.44850E-03-4.58804E-02
 -1       835-7.18123E-03-2.21923E-03-7.24564E-02
 -1       836 1.57253E-03-2.72836E-03-8.91741E-02
 -1       837 1.16423E-02-2.91511E-03-9.37677E-02
 -1       838 2.20505E-02-2.75812E-03-8.54264E-02
 -1       839 3.18304E-02-2.28035E-03-6.48981E-02
 -1       840 4.01538E-02-1.55318E-03-3.44217E-02
 -1       841 4.64470E-02-6.96224E-04 2.54106E-03
 -1       842 5.04862E-02 1.48126E-04 4.18872E-02
 -1       843 5.25027E-02 9.24430E-04 7.98413E-02
 -1       844-3.82369E-04 1.82448E-04-2.09389E-02
 -1       845-1.29174E-03 4.83261E-05-5.53883E-02
 -1       846 2.08764E-04 2.65742E-04-8.45934E-02
 -1       847 3.71076E-03 3.01679E-04-1.03662E-01
 -1       848 8.55068E-03 2.24822E-04-1.10594E-01
 -1       849 1.38598E-02 1.56143E-04-1.04922E-01
 -1       850 1.87432E-02 1.18448E-04-8.73387E-02
 -1       851 2.24193E-02 1.03049E-04-5.98203E-02
 -1       852 2.42966E-02 1.00239E-04-2.55659E-02
 -1       853 2.40344E-02 1.03309E-04 1.13586E-02
 -1       854 2.15805E-02 1.07206E-04 4.65312E-02
 -1       855 1.71754E-02 1.07467E-04 7.57315E-02
 -1       856 1.13209E-02 1.00225E-04 9.54671E-02
 -1       857 4.71719E-03 8.25960E-05 1.03406E-01
 -1       858-1.82328E-03 5.30038E-05 9.86677E-02
 -1       859-7.47644E-03 1.12923E-05 8.19314E-02
 -1       860-1.15071E-02-4.13692E-05 5.53581E-02
 -1       861-1.33584E-02-1.02753E-04 2.23263E-02
 -1       862-1.27183E-02-1.69970E-04-1.29800E-02
 -1       863-9.55530E-03-2.39960E-04-4.60826E-02
 -1       864-4.11948E-03-3.10031E-04-7.27562E-02
 -1       865 3.09298E-03-3.78481E-04-8.95422E-02
 -1       866 1.14059E-02-4.45284E-04-9.41682E-02
 -1       867 2.00530E-02-5.12461E-04-8.58212E-02
 -1       868 2.82818E-02-5.83054E-04-6.52522E-02
 -1       869 3.54571E-02-6.54873E-04-3.47079E-02
 -1       870 4.11403E-02-7.13108E-04 2.33869E-03
 -1       871 4.51452E-02-7.61338E-04 4.17684E-02
 -1       872 4.75302E-02-9.62319E-04 7.98039E-02
 -1       873-5.25027E-02-9.24430E-04 7.98413E-02
 -1       874-5.04862E-02-1.48126E-04 4.18872E-02
 -1       875-4.64470E-02 6.96224E-04 2.54106E-03
 -1       876-4.01538E-02 1.55318E-03-3.44217E-02
 -1       877-3.18304E-02 2.28035E-03-6.48981E-02
 -1       878-2.20505E-02 2.75812E-03-8.54264E-02
 -1       879-1.16423E-02 2.91511E-03-9.37677E-02
 -1       880-1.57253E-03 2.72836E-03-8.91741E-02
 -1       881 7.18123E-03 2.21923E-03-7.24564E-02
 -1       882 1.37575E-02 1.44850E-03-4.58804E-02
 -1       883 1.75232E-02 5.08944E-04-1.28940E-02
 -1       884 1.81568E-02-4.85755E-04 2.22905E-02
 -1       885 1.56927E-02-1.41488E-03 5.52087E-02
 -1       886 1.05198E-02-2.16558E-03 8.16897E-02
 -1       887 3.33667E-03-2.64681E-03 9.83654E-02
 -1       888-4.93244E-03-2.80061E-03 1.03082E-01
 -1       889-1.32504E-02-2.60921E-03 9.51607E-02
 -1       890-2.05939E-02-2.09732E-03 7.54806E-02
 -1       891-2.60797E-02-1.32916E-03 4.63653E-02
 -1       892-2.90737E-02-4.00674E-04 1.12962E-02
 -1       893-2.92703E-02 5.72145E-04-2.55201E-02
 -1       894-2.67322E-02 1.46815E-03-5.96758E-02
 -1       895-2.18861E-02 2.17818E-03-8.71183E-02
 -1       896-1.54721E-02 2.62116E-03-1.04659E-01
 -1       897-8.45172E-03 2.74668E-03-1.10328E-01
 -1       898-1.88167E-03 2.50701E-03-1.03435E-01
 -1       899 3.19426E-03 1.78706E-03-8.44480E-02
 -1       900 5.87655E-03 3.79898E-04-5.53443E-02
 -1       901 4.95480E-03-1.18611E-03-2.10761E-02
 -1       902 3.82369E-04-1.82448E-04-2.09389E-02
 -1       903 1.29174E-03-4.83261E-05-5.53883E-02
 -1       904-2.08764E-04-2.65742E-04-8.45934E-02
 -1       905-3.71076E-03-3.01679E-04-1.03662E-01
 -1       906-8.55068E-03-2.24822E-04-1.10594E-01
 -1       907-1.38598E-02-1.56143E-04-1.04922E-01
 -1       908-1.87432E-02-1.18448E-04-8.73387E-02
 -1       909-2.24193E-02-1.03049E-04-5.98203E-02
 -1       910-2.42966E-02-1.00239E-04-2.55659E-02
 -1       911-2.40344E-02-1.03309E-04 1.13586E-02
 -1       912-2.15805E-02-1.07206E-04 4.65312E-02
 -1       913-1.71754E-02-1.07467E-04 7.57315E-02
 -1       914-1.13209E-02-1.00225E-04 9.54671E-02
 -1       915-4.71719E-03-8.25960E-05 1.03406E-01
 -1       916 1.82328E-03-5.30038E-05 9.86677E-02
 -1       917 7.47644E-03-1.12923E-05 8.19314E-02
 -1       918 1.15071E-02 4.13692E-05 5.53581E-02
 -1       919 1.33584E-02 1.02753E-04 2.23263E-02
 -1       920 1.27183E-02 1.69970E-04-1.29800E-02
 -1       921 9.55530E-03 2.39960E-04-4.60826E-02
 -1       922 4.11948E-03 3.10031E-04-7.27562E-02
 -1       923-3.09298E-03 3.78481E-04-8.95422E-02
 -1       924-1.14059E-02 4.45284E-04-9.41682E-02
 -1       925-2.00530E-02 5.12461E-04-8.58212E-02
 -1       926-2.82818E-02 5.83054E-04-6.52522E-02
 -1       927-3.54571E-02 6.54873E-04-3.47079E-02
 -1       928-4.11403E-02 7.13108E-04 2.33869E-03
 -1       929-4.51452E-02 7.61338E-04 4.17684E-02
 -1       930-4.75302E-02 9.62319E-04 7.98039E-02
 -3
    1PSTEP                        78           1           1          
    1PGM                1.000000E+00                                  
    1PGK                3.462256E+07                                  
    1PHID                         -1                                  
    1PSUBC                         0                                  
    1PMODE                        20                                  
  100CL  120 936.4826560         930                     2   20MODAL      1
 -4  STRESS      6    1
 -5  SXX         1    4    1    1
 -5  SYY         1    4    2    2
 -5  SZZ         1    4    3    3
 -5  SXY         1    4    1    2
 -5  SYZ         1    4    2    3
 -5  SZX         1    4    3    1
 -1         1-8.05846E+09-3.45371E+09-3.45365E+09-4.75717E+07 5.60439E+03-1.90030E+10
 -1         2-8.05846E+09-3.45371E+09-3.45365E+09 4.75717E+07-5.60439E+03-1.90030E+10
 -1         3-1.84777E+09-6.00153E+09-6.62321E+09 6.32613E+08-2.58546E+09 2.43879E+09
 -1         4-1.84777E+09-6.00153E+09-6.62321E+09-6.32613E+08 2.58546E+09 2.43879E+09
 -1         5 8.05846E+09 3.45371E+09 3.45365E+09 4.75717E+07 5.60439E+03-1.90030E+10
 -1         6 8.05846E+09 3.45371E+09 3.45365E+09-4.75717E+07-5.60439E+03-1.90030E+10
 -1         7 1.84777E+09 6.00153E+09 6.62321E+09-6.32613E+08-2.58546E+09 2.43879E+09
 -1         8 1.84777E+09 6.00153E+09 6.62321E+09 6.32613E+08 2.58546E+09 2.43879E+09
 -1         9-1.94089E+10-8.31820E+09-8.31817E+09-2.02623E+08 8.49998E+03-1.90839E+10
 -1        10 9.03082E+09 2.13075E+10 5.95378E+09 4.24011E+07-3.63959E+09 1.75487E+09
 -1        11-1.20290E+10-5.15533E+09-5.15533E+09-1.20298E+09-1.85389E+03-1.44100E+10
 -1        12 1.46609E+08 6.27970E+07 6.27917E+07-3.45309E+08-1.47271E+03-1.43453E+10
 -1        13 2.22673E+09 1.96687E+09 7.67947E+08-1.02953E+09 6.83596E+08 4.99765E+08
 -1        14 1.15452E+09-1.12031E+09-4.79866E+08 1.48439E+09 7.49986E+08 5.23838E+08
 -1        15 1.94089E+10 8.31820E+09 8.31817E+09 2.02623E+08 8.49998E+03-1.90839E+10
 -1        16-9.03082E+09-2.13075E+10-5.95378E+09-4.24011E+07-3.63959E+09 1.75487E+09
 -1        17-1.46609E+08-6.27970E+07-6.27917E+07 3.45309E+08-1.47271E+03-1.43453E+10
 -1        18 1.20290E+10 5.15533E+09 5.15533E+09 1.20298E+09-1.85389E+03-1.44100E+10
 -1        19-1.15452E+09 1.12031E+09 4.79866E+08-1.48439E+09 7.49986E+08 5.23838E+08
 -1        20-2.22673E+09-1.96687E+09-7.67947E+08 1.02953E+09 6.83596E+08 4.99765E+08
 -1        21 1.46609E+08 6.27970E+07 6.27917E+07 3.45309E+08 1.47271E+03-1.43453E+10
 -1        22-1.20290E+10-5.15533E+09-5.15533E+09 1.20298E+09 1.85389E+03-1.44100E+10
 -1        23 2.22673E+09 1.96687E+09 7.67947E+08 1.02953E+09-6.83596E+08 4.99765E+08
 -1        24 1.15452E+09-1.12031E+09-4.79866E+08-1.48439E+09-7.49986E+08 5.23838E+08
 -1        25-1.94089E+10-8.31820E+09-8.31817E+09 2.02623E+08-8.49998E+03-1.90839E+10
 -1        26 9.03082E+09 2.13075E+10 5.95378E+09-4.24011E+07 3.63959E+09 1.75487E+09
 -1        27 1.94089E+10 8.31820E+09 8.31817E+09-2.02623E+08-8.49998E+03-1.90839E+10
 -1        28 1.20290E+10 5.15533E+09 5.15533E+09-1.20298E+09 1.85389E+03-1.44100E+10
 -1        29-1.46609E+08-6.27970E+07-6.27917E+07-3.45309E+08 1.47271E+03-1.43453E+10
 -1        30-9.03082E+09-2.13075E+10-5.95378E+09 4.24011E+07 3.63959E+09 1.75487E+09
 -1        31-2.22673E+09-1.96687E+09-7.67947E+08-1.02953E+09-6.83596E+08 4.99765E+08
 -1        32-1.15452E+09 1.12031E+09 4.79866E+08 1.48439E+09-7.49986E+08 5.23838E+08
 -1        33-4.51748E+09 2.98334E+08-1.55613E+09 1.54627E+09 8.55200E+08-5.17058E+09
 -1        34 1.31797E+09 3.17223E+08 6.46156E+08 1.63284E+09-3.55395E+08-7.51238E+09
 -1        35 8.90779E+09 3.56484E+09 3.87923E+09 1.29604E+09-1.56291E+09-5.89825E+09
 -1        36 1.34775E+10 4.92614E+09 5.14481E+09 8.04666E+08-2.12162E+09-3.88959E+09
 -1        37 1.55943E+10 5.20545E+09 5.48226E+09 2.85645E+08-2.24489E+09-1.53304E+09
 -1        38 1.53124E+10 4.84463E+09 5.12943E+09-2.19181E+08-2.09639E+09 8.50880E+08
 -1        39 1.28095E+10 4.00399E+09 4.24602E+09-6.68481E+08-1.73377E+09 2.96986E+09
 -1        40 8.44818E+09 2.74280E+09 2.90022E+09-1.01318E+09-1.18632E+09 4.58768E+09
 -1        41 2.81511E+09 1.18383E+09 1.22988E+09-1.21344E+09-5.08141E+08 5.52756E+09
 -1        42-3.34977E+09-4.97111E+08-5.73487E+08-1.24624E+09 2.23563E+08 5.68809E+09
 -1        43-9.24174E+09-2.09969E+09-2.29302E+09-1.10910E+09 9.21182E+08 5.05926E+09
 -1        44-1.40929E+10-3.43125E+09-3.72054E+09-8.20211E+08 1.50060E+09 3.72541E+09
 -1        45-1.72668E+10-4.33277E+09-4.68410E+09-4.16026E+08 1.89236E+09 1.85525E+09
 -1        46-1.83350E+10-4.69841E+09-5.06914E+09 5.32694E+07 2.05022E+09-3.18759E+08
 -1        47-1.71292E+10-4.48836E+09-4.83233E+09 5.29921E+08 1.95674E+09-2.52905E+09
 -1        48-1.37601E+10-3.73368E+09-4.00693E+09 9.55695E+08 1.62542E+09-4.50593E+09
 -1        49-8.60306E+09-2.53269E+09-2.69877E+09 1.27906E+09 1.09913E+09-6.01077E+09
 -1        50-2.25042E+09-1.03899E+09-1.07340E+09 1.46154E+09 4.44859E+08-6.86555E+09
 -1        51 4.56251E+09 5.57263E+08 6.64192E+08 1.48251E+09-2.54443E+08-6.97499E+09
 -1        52 1.10494E+10 2.05260E+09 2.29468E+09 1.34177E+09-9.10026E+08-6.33851E+09
 -1        53 1.64712E+10 3.25502E+09 3.61119E+09 1.05965E+09-1.43816E+09-5.05071E+09
 -1        54 2.02288E+10 4.00690E+09 4.44407E+09 6.74517E+08-1.77014E+09-3.29035E+09
 -1        55 2.19377E+10 4.20278E+09 4.68045E+09 2.38226E+08-1.86014E+09-1.29916E+09
 -1        56 2.14789E+10 3.80181E+09 4.27746E+09-1.89938E+08-1.69051E+09 6.46670E+08
 -1        57 1.90181E+10 2.83663E+09 3.27222E+09-5.49894E+08-1.27596E+09 2.27160E+09
 -1        58 1.50009E+10 1.43996E+09 1.80041E+09-7.86292E+08-6.72399E+08 3.33644E+09
 -1        59 1.01183E+10-1.43578E+08 1.01473E+08-8.59969E+08 1.96977E+07 3.67247E+09
 -1        60 5.22082E+09-1.67298E+09-1.55462E+09-7.63307E+08 6.95052E+08 3.22219E+09
 -1        61 1.15904E+09-3.46502E+09-3.07640E+09-5.60789E+08 1.43898E+09 2.12359E+09
 -1        62-4.51748E+09 2.98334E+08-1.55613E+09-1.54627E+09-8.55200E+08-5.17058E+09
 -1        63 1.31797E+09 3.17223E+08 6.46156E+08-1.63284E+09 3.55395E+08-7.51238E+09
 -1        64 8.90779E+09 3.56484E+09 3.87923E+09-1.29604E+09 1.56291E+09-5.89825E+09
 -1        65 1.34775E+10 4.92614E+09 5.14481E+09-8.04666E+08 2.12162E+09-3.88959E+09
 -1        66 1.55943E+10 5.20545E+09 5.48226E+09-2.85645E+08 2.24489E+09-1.53304E+09
 -1        67 1.53124E+10 4.84463E+09 5.12943E+09 2.19181E+08 2.09639E+09 8.50880E+08
 -1        68 1.28095E+10 4.00399E+09 4.24602E+09 6.68481E+08 1.73377E+09 2.96986E+09
 -1        69 8.44818E+09 2.74280E+09 2.90022E+09 1.01318E+09 1.18632E+09 4.58768E+09
 -1        70 2.81511E+09 1.18383E+09 1.22988E+09 1.21344E+09 5.08141E+08 5.52756E+09
 -1        71-3.34977E+09-4.97111E+08-5.73487E+08 1.24624E+09-2.23563E+08 5.68809E+09
 -1        72-9.24174E+09-2.09969E+09-2.29302E+09 1.10910E+09-9.21182E+08 5.05926E+09
 -1        73-1.40929E+10-3.43125E+09-3.72054E+09 8.20211E+08-1.50060E+09 3.72541E+09
 -1        74-1.72668E+10-4.33277E+09-4.68410E+09 4.16026E+08-1.89236E+09 1.85525E+09
 -1        75-1.83350E+10-4.69841E+09-5.06914E+09-5.32694E+07-2.05022E+09-3.18759E+08
 -1        76-1.71292E+10-4.48836E+09-4.83233E+09-5.29921E+08-1.95674E+09-2.52905E+09
 -1        77-1.37601E+10-3.73368E+09-4.00693E+09-9.55695E+08-1.62542E+09-4.50593E+09
 -1        78-8.60306E+09-2.53269E+09-2.69877E+09-1.27906E+09-1.09913E+09-6.01077E+09
 -1        79-2.25042E+09-1.03899E+09-1.07340E+09-1.46154E+09-4.44859E+08-6.86555E+09
 -1        80 4.56251E+09 5.57263E+08 6.64192E+08-1.48251E+09 2.54443E+08-6.97499E+09
 -1        81 1.10494E+10 2.05260E+09 2.29468E+09-1.34177E+09 9.10026E+08-6.33851E+09
 -1        82 1.64712E+10 3.25502E+09 3.61119E+09-1.05965E+09 1.43816E+09-5.05071E+09
 -1        83 2.02288E+10 4.00690E+09 4.44407E+09-6.74517E+08 1.77014E+09-3.29035E+09
 -1        84 2.19377E+10 4.20278E+09 4.68045E+09-2.38226E+08 1.86014E+09-1.29916E+09
 -1        85 2.14789E+10 3.80181E+09 4.27746E+09 1.89938E+08 1.69051E+09 6.46670E+08
 -1        86 1.90181E+10 2.83663E+09 3.27222E+09 5.49894E+08 1.27596E+09 2.27160E+09
 -1        87 1.50009E+10 1.43996E+09 1.80041E+09 7.86292E+08 6.72399E+08 3.33644E+09
 -1        88 1.01183E+10-1.43578E+08 1.01473E+08 8.59969E+08-1.96977E+07 3.67247E+09
 -1        89 5.22082E+09-1.67298E+09-1.55462E+09 7.63307E+08-6.95052E+08 3.22219E+09
 -1        90 1.15904E+09-3.46502E+09-3.07640E+09 5.60789E+08-1.43898E+09 2.12359E+09
 -1        91-7.92808E+08-3.39789E+08-3.39732E+08-3.13581E+07 9.05213E+01-2.04311E+10
 -1        92-2.01523E-02-8.63475E-03-8.63304E-03-4.45497E-02 1.19272E+02-2.10206E+10
 -1        93 7.92808E+08 3.39789E+08 3.39732E+08 3.13581E+07 9.05213E+01-2.04311E+10
 -1        94 7.92808E+08 3.39789E+08 3.39732E+08-3.13581E+07-9.05213E+01-2.04311E+10
 -1        95 3.98652E-03 1.70895E-03 1.70644E-03-4.44712E-02-1.19272E+02-2.10206E+10
 -1        96-7.92808E+08-3.39789E+08-3.39732E+08 3.13581E+07-9.05213E+01-2.04311E+10
 -1        97 4.51748E+09-2.98334E+08 1.55613E+09 1.54627E+09-8.55200E+08-5.17058E+09
 -1        98-1.31797E+09-3.17223E+08-6.46156E+08 1.63284E+09 3.55395E+08-7.51238E+09
 -1        99-8.90779E+09-3.56484E+09-3.87923E+09 1.29604E+09 1.56291E+09-5.89825E+09
 -1       100-1.34775E+10-4.92614E+09-5.14481E+09 8.04666E+08 2.12162E+09-3.88959E+09
 -1       101-1.55943E+10-5.20545E+09-5.48226E+09 2.85645E+08 2.24489E+09-1.53304E+09
 -1       102-1.53124E+10-4.84463E+09-5.12943E+09-2.19181E+08 2.09639E+09 8.50880E+08
 -1       103-1.28095E+10-4.00399E+09-4.24602E+09-6.68481E+08 1.73377E+09 2.96986E+09
 -1       104-8.44818E+09-2.74280E+09-2.90022E+09-1.01318E+09 1.18632E+09 4.58768E+09
 -1       105-2.81511E+09-1.18383E+09-1.22988E+09-1.21344E+09 5.08141E+08 5.52756E+09
 -1       106 3.34977E+09 4.97111E+08 5.73487E+08-1.24624E+09-2.23563E+08 5.68809E+09
 -1       107 9.24174E+09 2.09969E+09 2.29302E+09-1.10910E+09-9.21182E+08 5.05926E+09
 -1       108 1.40929E+10 3.43125E+09 3.72054E+09-8.20211E+08-1.50060E+09 3.72541E+09
 -1       109 1.72668E+10 4.33277E+09 4.68410E+09-4.16026E+08-1.89236E+09 1.85525E+09
 -1       110 1.83350E+10 4.69841E+09 5.06914E+09 5.32694E+07-2.05022E+09-3.18759E+08
 -1       111 1.71292E+10 4.48836E+09 4.83233E+09 5.29921E+08-1.95674E+09-2.52905E+09
 -1       112 1.37601E+10 3.73368E+09 4.00693E+09 9.55695E+08-1.62542E+09-4.50593E+09
 -1       113 8.60306E+09 2.53269E+09 2.69877E+09 1.27906E+09-1.09913E+09-6.01077E+09
 -1       114 2.25042E+09 1.03899E+09 1.07340E+09 1.46154E+09-4.44859E+08-6.86555E+09
 -1       115-4.56251E+09-5.57263E+08-6.64192E+08 1.48251E+09 2.54443E+08-6.97499E+09
 -1       116-1.10494E+10-2.05260E+09-2.29468E+09 1.34177E+09 9.10026E+08-6.33851E+09
 -1       117-1.64712E+10-3.25502E+09-3.61119E+09 1.05965E+09 1.43816E+09-5.05071E+09
 -1       118-2.02288E+10-4.00690E+09-4.44407E+09 6.74517E+08 1.77014E+09-3.29035E+09
 -1       119-2.19377E+10-4.20278E+09-4.68045E+09 2.38226E+08 1.86014E+09-1.29916E+09
 -1       120-2.14789E+10-3.80181E+09-4.27746E+09-1.89938E+08 1.69051E+09 6.46670E+08
 -1       121-1.90181E+10-2.83663E+09-3.27222E+09-5.49894E+08 1.27596E+09 2.27160E+09
 -1       122-1.50009E+10-1.43996E+09-1.80041E+09-7.86292E+08 6.72399E+08 3.33644E+09
 -1       123-1.01183E+10 1.43578E+08-1.01473E+08-8.59969E+08-1.96977E+07 3.67247E+09
 -1       124-5.22082E+09 1.67298E+09 1.55462E+09-7.63307E+08-6.95052E+08 3.22219E+09
 -1       125-1.15904E+09 3.46502E+09 3.07640E+09-5.60789E+08-1.43898E+09 2.12359E+09
 -1       126 1.22415E+09 1.97064E+09-3.71982E+09-2.69083E+07-2.02735E+07 3.23034E+09
 -1       127 4.11873E-02 4.50386E-02 5.47428E-02 4.17503E-03 4.82293E+07 3.15903E+09
 -1       128-1.22415E+09-1.97064E+09 3.71982E+09 2.69083E+07-2.02735E+07 3.23034E+09
 -1       129 4.51748E+09-2.98334E+08 1.55613E+09-1.54627E+09 8.55200E+08-5.17058E+09
 -1       130-1.31797E+09-3.17223E+08-6.46156E+08-1.63284E+09-3.55395E+08-7.51238E+09
 -1       131-8.90779E+09-3.56484E+09-3.87923E+09-1.29604E+09-1.56291E+09-5.89825E+09
 -1       132-1.34775E+10-4.92614E+09-5.14481E+09-8.04666E+08-2.12162E+09-3.88959E+09
 -1       133-1.55943E+10-5.20545E+09-5.48226E+09-2.85645E+08-2.24489E+09-1.53304E+09
 -1       134-1.53124E+10-4.84463E+09-5.12943E+09 2.19181E+08-2.09639E+09 8.50880E+08
 -1       135-1.28095E+10-4.00399E+09-4.24602E+09 6.68481E+08-1.73377E+09 2.96986E+09
 -1       136-8.44818E+09-2.74280E+09-2.90022E+09 1.01318E+09-1.18632E+09 4.58768E+09
 -1       137-2.81511E+09-1.18383E+09-1.22988E+09 1.21344E+09-5.08141E+08 5.52756E+09
 -1       138 3.34977E+09 4.97111E+08 5.73487E+08 1.24624E+09 2.23563E+08 5.68809E+09
 -1       139 9.24174E+09 2.09969E+09 2.29302E+09 1.10910E+09 9.21182E+08 5.05926E+09
 -1       140 1.40929E+10 3.43125E+09 3.72054E+09 8.20211E+08 1.50060E+09 3.72541E+09
 -1       141 1.72668E+10 4.33277E+09 4.68410E+09 4.16026E+08 1.89236E+09 1.85525E+09
 -1       142 1.83350E+10 4.69841E+09 5.06914E+09-5.32694E+07 2.05022E+09-3.18759E+08
 -1       143 1.71292E+10 4.48836E+09 4.83233E+09-5.29921E+08 1.95674E+09-2.52905E+09
 -1       144 1.37601E+10 3.73368E+09 4.00693E+09-9.55695E+08 1.62542E+09-4.50593E+09
 -1       145 8.60306E+09 2.53269E+09 2.69877E+09-1.27906E+09 1.09913E+09-6.01077E+09
 -1       146 2.25042E+09 1.03899E+09 1.07340E+09-1.46154E+09 4.44859E+08-6.86555E+09
 -1       147-4.56251E+09-5.57263E+08-6.64192E+08-1.48251E+09-2.54443E+08-6.97499E+09
 -1       148-1.10494E+10-2.05260E+09-2.29468E+09-1.34177E+09-9.10026E+08-6.33851E+09
 -1       149-1.64712E+10-3.25502E+09-3.61119E+09-1.05965E+09-1.43816E+09-5.05071E+09
 -1       150-2.02288E+10-4.00690E+09-4.44407E+09-6.74517E+08-1.77014E+09-3.29035E+09
 -1       151-2.19377E+10-4.20278E+09-4.68045E+09-2.38226E+08-1.86014E+09-1.29916E+09
 -1       152-2.14789E+10-3.80181E+09-4.27746E+09 1.89938E+08-1.69051E+09 6.46670E+08
 -1       153-1.90181E+10-2.83663E+09-3.27222E+09 5.49894E+08-1.27596E+09 2.27160E+09
 -1       154-1.50009E+10-1.43996E+09-1.80041E+09 7.86292E+08-6.72399E+08 3.33644E+09
 -1       155-1.01183E+10 1.43578E+08-1.01473E+08 8.59969E+08 1.96977E+07 3.67247E+09
 -1       156-5.22082E+09 1.67298E+09 1.55462E+09 7.63307E+08 6.95052E+08 3.22219E+09
 -1       157-1.15904E+09 3.46502E+09 3.07640E+09 5.60789E+08 1.43898E+09 2.12359E+09
 -1       158-1.22415E+09-1.97064E+09 3.71982E+09-2.69083E+07 2.02735E+07 3.23034E+09
 -1       159-3.74253E-02-3.60316E-02-1.36880E-01 4.64537E-03-4.82293E+07 3.15903E+09
 -1       160 1.22415E+09 1.97064E+09-3.71982E+09 2.69083E+07 2.02735E+07 3.23034E+09
 -1       161-4.84264E+09 7.68865E+09 2.40958E+09-1.76291E+09-1.25647E+09 2.10603E+09
 -1       162 1.23381E+09-2.92172E+09-9.46467E+08-1.28507E+09 5.15100E+08-1.49561E+09
 -1       163 4.46243E+09-1.16264E+10-3.02060E+09-1.15405E+09 2.24801E+09-1.15767E+09
 -1       164 7.20271E+09-1.59162E+10-4.35673E+09-8.20839E+08 3.05796E+09-8.23580E+08
 -1       165 9.06171E+09-1.68023E+10-4.54964E+09-3.59658E+08 3.23587E+09-3.95617E+08
 -1       166 9.27484E+09-1.57075E+10-4.24643E+09 1.39910E+08 3.02325E+09 6.90609E+07
 -1       167 7.83474E+09-1.29873E+10-3.50502E+09 5.87694E+08 2.50046E+09 4.81806E+08
 -1       168 5.02000E+09-8.89225E+09-2.40438E+09 9.28207E+08 1.71046E+09 7.93300E+08
 -1       169 1.28029E+09-3.82262E+09-1.04539E+09 1.12573E+09 7.31428E+08 9.74804E+08
 -1       170-2.84986E+09 1.64469E+09 4.18713E+08 1.16073E+09-3.25007E+08 1.00964E+09
 -1       171-6.80289E+09 6.85692E+09 1.81440E+09 1.03177E+09-1.33225E+09 8.96434E+08
 -1       172-1.00400E+10 1.11867E+10 2.97447E+09 7.56365E+08-2.16877E+09 6.50890E+08
 -1       173-1.21137E+10 1.41161E+10 3.76091E+09 3.69447E+08-2.73421E+09 3.04345E+08
 -1       174-1.27210E+10 1.53002E+10 4.08193E+09-8.08603E+07-2.96173E+09-9.99602E+07
 -1       175-1.17404E+10 1.46090E+10 3.90305E+09-5.39142E+08-2.82612E+09-5.12264E+08
 -1       176-9.24470E+09 1.21437E+10 3.25137E+09-9.49541E+08-2.34689E+09-8.82435E+08
 -1       177-5.49123E+09 8.22405E+09 2.21236E+09-1.26266E+09-1.58593E+09-1.16617E+09
 -1       178-8.88372E+08 3.35023E+09 9.19542E+08-1.44166E+09-6.40014E+08-1.33047E+09
 -1       179 4.05624E+09-1.85863E+09-4.61804E+08-1.46686E+09 3.71041E+08-1.35778E+09
 -1       180 8.79993E+09-6.74007E+09-1.75484E+09-1.33820E+09 1.31904E+09-1.24817E+09
 -1       181 1.28338E+10-1.06690E+10-2.79265E+09-1.07541E+09 2.08303E+09-1.01952E+09
 -1       182 1.57481E+10-1.31325E+10-3.43813E+09-7.15748E+08 2.56381E+09-7.05497E+08
 -1       183 1.72865E+10-1.37882E+10-3.59944E+09-3.09654E+08 2.69520E+09-3.51828E+08
 -1       184 1.73815E+10-1.25041E+10-3.24064E+09 8.56076E+07 2.45175E+09-1.09315E+07
 -1       185 1.61591E+10-9.39340E+09-2.39176E+09 4.14396E+08 1.85480E+09 2.67654E+08
 -1       186 1.39018E+10-4.86492E+09-1.16522E+09 6.32493E+08 9.84826E+08 4.42925E+08
 -1       187 1.09835E+10 3.23462E+08 2.25676E+08 7.04369E+08-1.26200E+07 4.89611E+08
 -1       188 8.02290E+09 5.47881E+09 1.61930E+09 6.04968E+08-9.86779E+08 4.13620E+08
 -1       189 6.31376E+09 1.04522E+10 3.26404E+09 2.46085E+08-2.05862E+09 3.27834E+08
 -1       190-1.40065E+10-6.00282E+09-6.00282E+09-9.57945E+08 1.35303E+04-1.70228E+10
 -1       191-1.08067E+09-4.63194E+08-4.63187E+08-1.47301E+08 1.35966E+04-1.69120E+10
 -1       192 4.20886E+09 6.75867E+09 3.34803E+09-6.53396E+08 1.90418E+09 3.26927E+08
 -1       193-5.72369E+09-4.08189E+08-5.92349E+08-1.13945E+09 2.55540E+08 2.88155E+09
 -1       194 1.79006E+09 2.35914E+08 3.46226E+07 2.34454E+08-9.43054E+07 1.95793E+09
 -1       195 7.86344E+09-5.34745E+08 5.34462E+08 1.39625E+08-7.06676E+08 6.70834E+07
 -1       196 1.16563E+10-9.45644E+08 3.27541E+08-2.68528E+08-9.80884E+08-2.26573E+08
 -1       197 1.34910E+10-1.07506E+09 2.86088E+08-2.82977E+08-1.02067E+09-1.08600E+08
 -1       198 1.33313E+10-1.02254E+09 2.48654E+08-1.68846E+08-9.56684E+08-1.10086E+08
 -1       199 1.11853E+10-8.39662E+08 2.12656E+08-5.53790E+07-7.91293E+08-1.82392E+08
 -1       200 7.31787E+09-5.76524E+08 1.42530E+08 2.42812E+07-5.40319E+08-2.59125E+08
 -1       201 2.26285E+09-2.59775E+08 4.53588E+07 6.97774E+07-2.27588E+08-3.04512E+08
 -1       202-3.29213E+09 7.81868E+07-6.38287E+07 8.49533E+07 1.10447E+08-3.09742E+08
 -1       203-8.60498E+09 3.99832E+08-1.68578E+08 7.20509E+07 4.32864E+08-2.76638E+08
 -1       204-1.29713E+10 6.67815E+08-2.54579E+08 3.41042E+07 7.00436E+08-2.10773E+08
 -1       205-1.58076E+10 8.50929E+08-3.10403E+08-2.36035E+07 8.80822E+08-1.20550E+08
 -1       206-1.67212E+10 9.28399E+08-3.28431E+08-9.36529E+07 9.52472E+08-1.69540E+07
 -1       207-1.55563E+10 8.92509E+08-3.05644E+08-1.67439E+08 9.07226E+08 8.73624E+07
 -1       208-1.24120E+10 7.49546E+08-2.43998E+08-2.36328E+08 7.51312E+08 1.79553E+08
 -1       209-7.62940E+09 5.19060E+08-1.50188E+08-2.92770E+08 5.04602E+08 2.48186E+08
 -1       210-1.74743E+09 2.31499E+08-3.48095E+07-3.31254E+08 1.98186E+08 2.84669E+08
 -1       211 4.56442E+09-7.54734E+07 8.89746E+07-3.49008E+08-1.29431E+08 2.84337E+08
 -1       212 1.05904E+10-3.61526E+08 2.07116E+08-3.46407E+08-4.37056E+08 2.47104E+08
 -1       213 1.56586E+10-5.88458E+08 3.06535E+08-3.27135E+08-6.85850E+08 1.77560E+08
 -1       214 1.92258E+10-7.24598E+08 3.76873E+08-2.98143E+08-8.44002E+08 8.41647E+07
 -1       215 2.09462E+10-7.48670E+08 4.11388E+08-2.69119E+08-8.90337E+08-2.32295E+07
 -1       216 2.07129E+10-6.53485E+08 4.06495E+08-2.49790E+08-8.16614E+08-1.37373E+08
 -1       217 1.86675E+10-4.51822E+08 3.58072E+08-2.42993E+08-6.29522E+08-2.52948E+08
 -1       218 1.51985E+10-1.73622E+08 2.72554E+08-2.36192E+08-3.53517E+08-3.51627E+08
 -1       219 1.09762E+10 1.62946E+08 1.69657E+08-2.07753E+08-3.82002E+07-3.13609E+08
 -1       220 6.75711E+09 4.38971E+08 1.07222E+08-3.25010E+08 2.41068E+08 1.11849E+07
 -1       221 3.50730E+09 1.28777E+09 4.84769E+08-7.05958E+08 6.62114E+08 3.31158E+08
 -1       222 1.63795E+09 2.43328E+09 2.46858E+09-8.14666E+08 3.63012E+08 2.86667E+09
 -1       223 1.16544E+09 1.44308E+06-2.23107E+08-2.58208E+09-1.07917E+08 1.88234E+09
 -1       224 4.21563E+09 8.89876E+07-3.72762E+08-1.89036E+09-7.79056E+08 7.04504E+06
 -1       225 7.85349E+09 4.03020E+08-4.08716E+08-9.02495E+08-1.05807E+09-2.72645E+08
 -1       226 9.92431E+09 5.13362E+08-3.07402E+08-1.84596E+08-1.10514E+09-1.23095E+08
 -1       227 1.00320E+10 4.78093E+08-2.90954E+08 4.15375E+08-1.03526E+09-9.58676E+07
 -1       228 8.42540E+09 3.86701E+08-2.47415E+08 9.37360E+08-8.56463E+08-1.41784E+08
 -1       229 5.44555E+09 2.67551E+08-1.65943E+08 1.34414E+09-5.84919E+08-1.98490E+08
 -1       230 1.54300E+09 1.30368E+08-5.35527E+07 1.58162E+09-2.46657E+08-2.32331E+08
 -1       231-2.74806E+09-1.38460E+07 7.17819E+07 1.61534E+09 1.18949E+08-2.35787E+08
 -1       232-6.85271E+09-1.50849E+08 1.91899E+08 1.44011E+09 4.67648E+08-2.10794E+08
 -1       233-1.02207E+10-2.65666E+08 2.90555E+08 1.07825E+09 7.57046E+08-1.61869E+08
 -1       234-1.23940E+10-3.45597E+08 3.54722E+08 5.75144E+08 9.52181E+08-9.52899E+07
 -1       235-1.30635E+10-3.82234E+08 3.75680E+08-6.91209E+06 1.02976E+09-1.91122E+07
 -1       236-1.21058E+10-3.72556E+08 3.49978E+08-5.96267E+08 9.80970E+08 5.73844E+07
 -1       237-9.59699E+09-3.19293E+08 2.79860E+08-1.12066E+09 8.12543E+08 1.24758E+08
 -1       238-5.80246E+09-2.30604E+08 1.72994E+08-1.51607E+09 5.45967E+08 1.74588E+08
 -1       239-1.14244E+09-1.19115E+08 4.15021E+07-1.73463E+09 2.14857E+08 2.00534E+08
 -1       240 3.86094E+09-4.15506E+05-9.95520E+07-1.75055E+09-1.39154E+08 1.99141E+08
 -1       241 8.64940E+09 1.08793E+08-2.34084E+08-1.56331E+09-4.71529E+08 1.70339E+08
 -1       242 1.26987E+10 1.92592E+08-3.47094E+08-1.19765E+09-7.40272E+08 1.17537E+08
 -1       243 1.55853E+10 2.37556E+08-4.26636E+08-7.00261E+08-9.10988E+08 4.69507E+07
 -1       244 1.70415E+10 2.34392E+08-4.65118E+08-1.33969E+08-9.60777E+08-3.45966E+07
 -1       245 1.69954E+10 1.79976E+08-4.58716E+08 4.28354E+08-8.80758E+08-1.23321E+08
 -1       246 1.55862E+10 8.17399E+07-4.06272E+08 9.06410E+08-6.77997E+08-2.17213E+08
 -1       247 1.31464E+10-4.02350E+07-3.03056E+08 1.21618E+09-3.79829E+08-3.01401E+08
 -1       248 1.00916E+10-1.58542E+08-1.92177E+08 1.28932E+09-3.52699E+07-2.56925E+08
 -1       249 6.56909E+09-4.43061E+08-2.13793E+08 1.22014E+09 2.65858E+08 6.87781E+07
 -1       250 2.85986E+09-1.05121E+09-4.11156E+08 1.37662E+09 7.07137E+08 3.71698E+08
 -1       251 2.84368E+08-3.77709E+09-9.90041E+08 1.83307E+09 1.74316E+09 3.60156E+08
 -1       252-6.31376E+09-1.04522E+10-3.26404E+09-2.46085E+08-2.05862E+09 3.27834E+08
 -1       253-8.02290E+09-5.47881E+09-1.61930E+09-6.04968E+08-9.86779E+08 4.13620E+08
 -1       254-1.09835E+10-3.23462E+08-2.25676E+08-7.04369E+08-1.26200E+07 4.89611E+08
 -1       255-1.39018E+10 4.86492E+09 1.16522E+09-6.32493E+08 9.84826E+08 4.42925E+08
 -1       256-1.61591E+10 9.39340E+09 2.39176E+09-4.14396E+08 1.85480E+09 2.67654E+08
 -1       257-1.73815E+10 1.25041E+10 3.24064E+09-8.56076E+07 2.45175E+09-1.09315E+07
 -1       258-1.72865E+10 1.37882E+10 3.59944E+09 3.09654E+08 2.69520E+09-3.51828E+08
 -1       259-1.57481E+10 1.31325E+10 3.43813E+09 7.15748E+08 2.56381E+09-7.05497E+08
 -1       260-1.28338E+10 1.06690E+10 2.79265E+09 1.07541E+09 2.08303E+09-1.01952E+09
 -1       261-8.79993E+09 6.74007E+09 1.75484E+09 1.33820E+09 1.31904E+09-1.24817E+09
 -1       262-4.05624E+09 1.85863E+09 4.61804E+08 1.46686E+09 3.71041E+08-1.35778E+09
 -1       263 8.88372E+08-3.35023E+09-9.19542E+08 1.44166E+09-6.40014E+08-1.33047E+09
 -1       264 5.49123E+09-8.22405E+09-2.21236E+09 1.26266E+09-1.58593E+09-1.16617E+09
 -1       265 9.24470E+09-1.21437E+10-3.25137E+09 9.49541E+08-2.34689E+09-8.82435E+08
 -1       266 1.17404E+10-1.46090E+10-3.90305E+09 5.39142E+08-2.82612E+09-5.12264E+08
 -1       267 1.27210E+10-1.53002E+10-4.08193E+09 8.08603E+07-2.96173E+09-9.99602E+07
 -1       268 1.21137E+10-1.41161E+10-3.76091E+09-3.69447E+08-2.73421E+09 3.04345E+08
 -1       269 1.00400E+10-1.11867E+10-2.97447E+09-7.56365E+08-2.16877E+09 6.50890E+08
 -1       270 6.80289E+09-6.85692E+09-1.81440E+09-1.03177E+09-1.33225E+09 8.96434E+08
 -1       271 2.84986E+09-1.64469E+09-4.18713E+08-1.16073E+09-3.25007E+08 1.00964E+09
 -1       272-1.28029E+09 3.82262E+09 1.04539E+09-1.12573E+09 7.31428E+08 9.74804E+08
 -1       273-5.02000E+09 8.89225E+09 2.40438E+09-9.28207E+08 1.71046E+09 7.93300E+08
 -1       274-7.83474E+09 1.29873E+10 3.50502E+09-5.87694E+08 2.50046E+09 4.81806E+08
 -1       275-9.27484E+09 1.57075E+10 4.24643E+09-1.39910E+08 3.02325E+09 6.90609E+07
 -1       276-9.06171E+09 1.68023E+10 4.54964E+09 3.59658E+08 3.23587E+09-3.95617E+08
 -1       277-7.20271E+09 1.59162E+10 4.35673E+09 8.20839E+08 3.05796E+09-8.23580E+08
 -1       278-4.46243E+09 1.16264E+10 3.02060E+09 1.15405E+09 2.24801E+09-1.15767E+09
 -1       279-1.23381E+09 2.92172E+09 9.46467E+08 1.28507E+09 5.15100E+08-1.49561E+09
 -1       280 4.84264E+09-7.68865E+09-2.40958E+09 1.76291E+09-1.25647E+09 2.10603E+09
 -1       281 1.08067E+09 4.63194E+08 4.63187E+08 1.47301E+08 1.35966E+04-1.69120E+10
 -1       282 1.40065E+10 6.00282E+09 6.00282E+09 9.57945E+08 1.35303E+04-1.70228E+10
 -1       283-1.63795E+09-2.43328E+09-2.46858E+09 8.14666E+08 3.63012E+08 2.86667E+09
 -1       284-1.16544E+09-1.44308E+06 2.23107E+08 2.58208E+09-1.07917E+08 1.88234E+09
 -1       285-4.21563E+09-8.89876E+07 3.72762E+08 1.89036E+09-7.79056E+08 7.04504E+06
 -1       286-7.85349E+09-4.03020E+08 4.08716E+08 9.02495E+08-1.05807E+09-2.72645E+08
 -1       287-9.92431E+09-5.13362E+08 3.07402E+08 1.84596E+08-1.10514E+09-1.23095E+08
 -1       288-1.00320E+10-4.78093E+08 2.90954E+08-4.15375E+08-1.03526E+09-9.58676E+07
 -1       289-8.42540E+09-3.86701E+08 2.47415E+08-9.37360E+08-8.56463E+08-1.41784E+08
 -1       290-5.44555E+09-2.67551E+08 1.65943E+08-1.34414E+09-5.84919E+08-1.98490E+08
 -1       291-1.54300E+09-1.30368E+08 5.35527E+07-1.58162E+09-2.46657E+08-2.32331E+08
 -1       292 2.74806E+09 1.38460E+07-7.17819E+07-1.61534E+09 1.18949E+08-2.35787E+08
 -1       293 6.85271E+09 1.50849E+08-1.91899E+08-1.44011E+09 4.67648E+08-2.10794E+08
 -1       294 1.02207E+10 2.65666E+08-2.90555E+08-1.07825E+09 7.57046E+08-1.61869E+08
 -1       295 1.23940E+10 3.45597E+08-3.54722E+08-5.75144E+08 9.52181E+08-9.52899E+07
 -1       296 1.30635E+10 3.82234E+08-3.75680E+08 6.91209E+06 1.02976E+09-1.91122E+07
 -1       297 1.21058E+10 3.72556E+08-3.49978E+08 5.96267E+08 9.80970E+08 5.73844E+07
 -1       298 9.59699E+09 3.19293E+08-2.79860E+08 1.12066E+09 8.12543E+08 1.24758E+08
 -1       299 5.80246E+09 2.30604E+08-1.72994E+08 1.51607E+09 5.45967E+08 1.74588E+08
 -1       300 1.14244E+09 1.19115E+08-4.15021E+07 1.73463E+09 2.14857E+08 2.00534E+08
 -1       301-3.86094E+09 4.15506E+05 9.95520E+07 1.75055E+09-1.39154E+08 1.99141E+08
 -1       302-8.64940E+09-1.08793E+08 2.34084E+08 1.56331E+09-4.71529E+08 1.70339E+08
 -1       303-1.26987E+10-1.92592E+08 3.47094E+08 1.19765E+09-7.40272E+08 1.17537E+08
 -1       304-1.55853E+10-2.37556E+08 4.26636E+08 7.00261E+08-9.10988E+08 4.69507E+07
 -1       305-1.70415E+10-2.34392E+08 4.65118E+08 1.33969E+08-9.60777E+08-3.45966E+07
 -1       306-1.69954E+10-1.79976E+08 4.58716E+08-4.28354E+08-8.80758E+08-1.23321E+08
 -1       307-1.55862E+10-8.17399E+07 4.06272E+08-9.06410E+08-6.77997E+08-2.17213E+08
 -1       308-1.31464E+10 4.02350E+07 3.03056E+08-1.21618E+09-3.79829E+08-3.01401E+08
 -1       309-1.00916E+10 1.58542E+08 1.92177E+08-1.28932E+09-3.52699E+07-2.56925E+08
 -1       310-6.56909E+09 4.43061E+08 2.13793E+08-1.22014E+09 2.65858E+08 6.87781E+07
 -1       311-2.85986E+09 1.05121E+09 4.11156E+08-1.37662E+09 7.07137E+08 3.71698E+08
 -1       312-2.84368E+08 3.77709E+09 9.90041E+08-1.83307E+09 1.74316E+09 3.60156E+08
 -1       313 5.72369E+09 4.08189E+08 5.92349E+08 1.13945E+09 2.55540E+08 2.88155E+09
 -1       314-1.79006E+09-2.35914E+08-3.46226E+07-2.34454E+08-9.43054E+07 1.95793E+09
 -1       315-7.86344E+09 5.34745E+08-5.34462E+08-1.39625E+08-7.06676E+08 6.70834E+07
 -1       316-1.16563E+10 9.45644E+08-3.27541E+08 2.68528E+08-9.80884E+08-2.26573E+08
 -1       317-1.34910E+10 1.07506E+09-2.86088E+08 2.82977E+08-1.02067E+09-1.08600E+08
 -1       318-1.33313E+10 1.02254E+09-2.48654E+08 1.68846E+08-9.56684E+08-1.10086E+08
 -1       319-1.11853E+10 8.39662E+08-2.12656E+08 5.53790E+07-7.91293E+08-1.82392E+08
 -1       320-7.31787E+09 5.76524E+08-1.42530E+08-2.42812E+07-5.40319E+08-2.59125E+08
 -1       321-2.26285E+09 2.59775E+08-4.53588E+07-6.97774E+07-2.27588E+08-3.04512E+08
 -1       322 3.29213E+09-7.81868E+07 6.38287E+07-8.49533E+07 1.10447E+08-3.09742E+08
 -1       323 8.60498E+09-3.99832E+08 1.68578E+08-7.20509E+07 4.32864E+08-2.76638E+08
 -1       324 1.29713E+10-6.67815E+08 2.54579E+08-3.41042E+07 7.00436E+08-2.10773E+08
 -1       325 1.58076E+10-8.50929E+08 3.10403E+08 2.36035E+07 8.80822E+08-1.20550E+08
 -1       326 1.67212E+10-9.28399E+08 3.28431E+08 9.36529E+07 9.52472E+08-1.69540E+07
 -1       327 1.55563E+10-8.92509E+08 3.05644E+08 1.67439E+08 9.07226E+08 8.73624E+07
 -1       328 1.24120E+10-7.49546E+08 2.43998E+08 2.36328E+08 7.51312E+08 1.79553E+08
 -1       329 7.62940E+09-5.19060E+08 1.50188E+08 2.92770E+08 5.04602E+08 2.48186E+08
 -1       330 1.74743E+09-2.31499E+08 3.48095E+07 3.31254E+08 1.98186E+08 2.84669E+08
 -1       331-4.56442E+09 7.54734E+07-8.89746E+07 3.49008E+08-1.29431E+08 2.84337E+08
 -1       332-1.05904E+10 3.61526E+08-2.07116E+08 3.46407E+08-4.37056E+08 2.47104E+08
 -1       333-1.56586E+10 5.88458E+08-3.06535E+08 3.27135E+08-6.85850E+08 1.77560E+08
 -1       334-1.92258E+10 7.24598E+08-3.76873E+08 2.98143E+08-8.44002E+08 8.41647E+07
 -1       335-2.09462E+10 7.48670E+08-4.11388E+08 2.69119E+08-8.90337E+08-2.32295E+07
 -1       336-2.07129E+10 6.53485E+08-4.06495E+08 2.49790E+08-8.16614E+08-1.37373E+08
 -1       337-1.86675E+10 4.51822E+08-3.58072E+08 2.42993E+08-6.29522E+08-2.52948E+08
 -1       338-1.51985E+10 1.73622E+08-2.72554E+08 2.36192E+08-3.53517E+08-3.51627E+08
 -1       339-1.09762E+10-1.62946E+08-1.69657E+08 2.07753E+08-3.82002E+07-3.13609E+08
 -1       340-6.75711E+09-4.38971E+08-1.07222E+08 3.25010E+08 2.41068E+08 1.11849E+07
 -1       341-3.50730E+09-1.28777E+09-4.84769E+08 7.05958E+08 6.62114E+08 3.31158E+08
 -1       342-4.20886E+09-6.75867E+09-3.34803E+09 6.53396E+08 1.90418E+09 3.26927E+08
 -1       343-5.72369E+09-4.08189E+08-5.92349E+08 1.13945E+09-2.55540E+08 2.88155E+09
 -1       344 1.79006E+09 2.35914E+08 3.46226E+07-2.34454E+08 9.43054E+07 1.95793E+09
 -1       345 7.86344E+09-5.34745E+08 5.34462E+08-1.39625E+08 7.06676E+08 6.70834E+07
 -1       346 1.16563E+10-9.45644E+08 3.27541E+08 2.68528E+08 9.80884E+08-2.26573E+08
 -1       347 1.34910E+10-1.07506E+09 2.86088E+08 2.82977E+08 1.02067E+09-1.08600E+08
 -1       348 1.33313E+10-1.02254E+09 2.48654E+08 1.68846E+08 9.56684E+08-1.10086E+08
 -1       349 1.11853E+10-8.39662E+08 2.12656E+08 5.53790E+07 7.91293E+08-1.82392E+08
 -1       350 7.31787E+09-5.76524E+08 1.42530E+08-2.42812E+07 5.40319E+08-2.59125E+08
 -1       351 2.26285E+09-2.59775E+08 4.53588E+07-6.97774E+07 2.27588E+08-3.04512E+08
 -1       352-3.29213E+09 7.81868E+07-6.38287E+07-8.49533E+07-1.10447E+08-3.09742E+08
 -1       353-8.60498E+09 3.99832E+08-1.68578E+08-7.20509E+07-4.32864E+08-2.76638E+08
 -1       354-1.29713E+10 6.67815E+08-2.54579E+08-3.41042E+07-7.00436E+08-2.10773E+08
 -1       355-1.58076E+10 8.50929E+08-3.10403E+08 2.36035E+07-8.80822E+08-1.20550E+08
 -1       356-1.67212E+10 9.28399E+08-3.28431E+08 9.36529E+07-9.52472E+08-1.69540E+07
 -1       357-1.55563E+10 8.92509E+08-3.05644E+08 1.67439E+08-9.07226E+08 8.73624E+07
 -1       358-1.24120E+10 7.49546E+08-2.43998E+08 2.36328E+08-7.51312E+08 1.79553E+08
 -1       359-7.62940E+09 5.19060E+08-1.50188E+08 2.92770E+08-5.04602E+08 2.48186E+08
 -1       360-1.74743E+09 2.31499E+08-3.48095E+07 3.31254E+08-1.98186E+08 2.84669E+08
 -1       361 4.56442E+09-7.54734E+07 8.89746E+07 3.49008E+08 1.29431E+08 2.84337E+08
 -1       362 1.05904E+10-3.61526E+08 2.07116E+08 3.46407E+08 4.37056E+08 2.47104E+08
 -1       363 1.56586E+10-5.88458E+08 3.06535E+08 3.27135E+08 6.85850E+08 1.77560E+08
 -1       364 1.92258E+10-7.24598E+08 3.76873E+08 2.98143E+08 8.44002E+08 8.41647E+07
 -1       365 2.09462E+10-7.48670E+08 4.11388E+08 2.69119E+08 8.90337E+08-2.32295E+07
 -1       366 2.07129E+10-6.53485E+08 4.06495E+08 2.49790E+08 8.16614E+08-1.37373E+08
 -1       367 1.86675E+10-4.51822E+08 3.58072E+08 2.42993E+08 6.29522E+08-2.52948E+08
 -1       368 1.51985E+10-1.73622E+08 2.72554E+08 2.36192E+08 3.53517E+08-3.51627E+08
 -1       369 1.09762E+10 1.62946E+08 1.69657E+08 2.07753E+08 3.82002E+07-3.13609E+08
 -1       370 6.75711E+09 4.38971E+08 1.07222E+08 3.25010E+08-2.41068E+08 1.11849E+07
 -1       371 3.50730E+09 1.28777E+09 4.84769E+08 7.05958E+08-6.62114E+08 3.31158E+08
 -1       372 1.63795E+09 2.43328E+09 2.46858E+09 8.14666E+08-3.63012E+08 2.86667E+09
 -1       373 1.16544E+09 1.44308E+06-2.23107E+08 2.58208E+09 1.07917E+08 1.88234E+09
 -1       374 4.21563E+09 8.89876E+07-3.72762E+08 1.89036E+09 7.79056E+08 7.04504E+06
 -1       375 7.85349E+09 4.03020E+08-4.08716E+08 9.02495E+08 1.05807E+09-2.72645E+08
 -1       376 9.92431E+09 5.13362E+08-3.07402E+08 1.84596E+08 1.10514E+09-1.23095E+08
 -1       377 1.00320E+10 4.78093E+08-2.90954E+08-4.15375E+08 1.03526E+09-9.58676E+07
 -1       378 8.42540E+09 3.86701E+08-2.47415E+08-9.37360E+08 8.56463E+08-1.41784E+08
 -1       379 5.44555E+09 2.67551E+08-1.65943E+08-1.34414E+09 5.84919E+08-1.98490E+08
 -1       380 1.54300E+09 1.30368E+08-5.35527E+07-1.58162E+09 2.46657E+08-2.32331E+08
 -1       381-2.74806E+09-1.38460E+07 7.17819E+07-1.61534E+09-1.18949E+08-2.35787E+08
 -1       382-6.85271E+09-1.50849E+08 1.91899E+08-1.44011E+09-4.67648E+08-2.10794E+08
 -1       383-1.02207E+10-2.65666E+08 2.90555E+08-1.07825E+09-7.57046E+08-1.61869E+08
 -1       384-1.23940E+10-3.45597E+08 3.54722E+08-5.75144E+08-9.52181E+08-9.52899E+07
 -1       385-1.30635E+10-3.82234E+08 3.75680E+08 6.91209E+06-1.02976E+09-1.91122E+07
 -1       386-1.21058E+10-3.72556E+08 3.49978E+08 5.96267E+08-9.80970E+08 5.73844E+07
 -1       387-9.59699E+09-3.19293E+08 2.79860E+08 1.12066E+09-8.12543E+08 1.24758E+08
 -1       388-5.80246E+09-2.30604E+08 1.72994E+08 1.51607E+09-5.45967E+08 1.74588E+08
 -1       389-1.14244E+09-1.19115E+08 4.15021E+07 1.73463E+09-2.14857E+08 2.00534E+08
 -1       390 3.86094E+09-4.15506E+05-9.95520E+07 1.75055E+09 1.39154E+08 1.99141E+08
 -1       391 8.64940E+09 1.08793E+08-2.34084E+08 1.56331E+09 4.71529E+08 1.70339E+08
 -1       392 1.26987E+10 1.92592E+08-3.47094E+08 1.19765E+09 7.40272E+08 1.17537E+08
 -1       393 1.55853E+10 2.37556E+08-4.26636E+08 7.00261E+08 9.10988E+08 4.69507E+07
 -1       394 1.70415E+10 2.34392E+08-4.65118E+08 1.33969E+08 9.60777E+08-3.45966E+07
 -1       395 1.69954E+10 1.79976E+08-4.58716E+08-4.28354E+08 8.80758E+08-1.23321E+08
 -1       396 1.55862E+10 8.17399E+07-4.06272E+08-9.06410E+08 6.77997E+08-2.17213E+08
 -1       397 1.31464E+10-4.02350E+07-3.03056E+08-1.21618E+09 3.79829E+08-3.01401E+08
 -1       398 1.00916E+10-1.58542E+08-1.92177E+08-1.28932E+09 3.52699E+07-2.56925E+08
 -1       399 6.56909E+09-4.43061E+08-2.13793E+08-1.22014E+09-2.65858E+08 6.87781E+07
 -1       400 2.85986E+09-1.05121E+09-4.11156E+08-1.37662E+09-7.07137E+08 3.71698E+08
 -1       401-1.40065E+10-6.00282E+09-6.00282E+09 9.57945E+08-1.35303E+04-1.70228E+10
 -1       402-1.08067E+09-4.63194E+08-4.63187E+08 1.47301E+08-1.35966E+04-1.69120E+10
 -1       403 4.20886E+09 6.75867E+09 3.34803E+09 6.53396E+08-1.90418E+09 3.26927E+08
 -1       404-4.84264E+09 7.68865E+09 2.40958E+09 1.76291E+09 1.25647E+09 2.10603E+09
 -1       405 1.23381E+09-2.92172E+09-9.46467E+08 1.28507E+09-5.15100E+08-1.49561E+09
 -1       406 4.46243E+09-1.16264E+10-3.02060E+09 1.15405E+09-2.24801E+09-1.15767E+09
 -1       407 7.20271E+09-1.59162E+10-4.35673E+09 8.20839E+08-3.05796E+09-8.23580E+08
 -1       408 9.06171E+09-1.68023E+10-4.54964E+09 3.59658E+08-3.23587E+09-3.95617E+08
 -1       409 9.27484E+09-1.57075E+10-4.24643E+09-1.39910E+08-3.02325E+09 6.90609E+07
 -1       410 7.83474E+09-1.29873E+10-3.50502E+09-5.87694E+08-2.50046E+09 4.81806E+08
 -1       411 5.02000E+09-8.89225E+09-2.40438E+09-9.28207E+08-1.71046E+09 7.93300E+08
 -1       412 1.28029E+09-3.82262E+09-1.04539E+09-1.12573E+09-7.31428E+08 9.74804E+08
 -1       413-2.84986E+09 1.64469E+09 4.18713E+08-1.16073E+09 3.25007E+08 1.00964E+09
 -1       414-6.80289E+09 6.85692E+09 1.81440E+09-1.03177E+09 1.33225E+09 8.96434E+08
 -1       415-1.00400E+10 1.11867E+10 2.97447E+09-7.56365E+08 2.16877E+09 6.50890E+08
 -1       416-1.21137E+10 1.41161E+10 3.76091E+09-3.69447E+08 2.73421E+09 3.04345E+08
 -1       417-1.27210E+10 1.53002E+10 4.08193E+09 8.08603E+07 2.96173E+09-9.99602E+07
 -1       418-1.17404E+10 1.46090E+10 3.90305E+09 5.39142E+08 2.82612E+09-5.12264E+08
 -1       419-9.24470E+09 1.21437E+10 3.25137E+09 9.49541E+08 2.34689E+09-8.82435E+08
 -1       420-5.49123E+09 8.22405E+09 2.21236E+09 1.26266E+09 1.58593E+09-1.16617E+09
 -1       421-8.88372E+08 3.35023E+09 9.19542E+08 1.44166E+09 6.40014E+08-1.33047E+09
 -1       422 4.05624E+09-1.85863E+09-4.61804E+08 1.46686E+09-3.71041E+08-1.35778E+09
 -1       423 8.79993E+09-6.74007E+09-1.75484E+09 1.33820E+09-1.31904E+09-1.24817E+09
 -1       424 1.28338E+10-1.06690E+10-2.79265E+09 1.07541E+09-2.08303E+09-1.01952E+09
 -1       425 1.57481E+10-1.31325E+10-3.43813E+09 7.15748E+08-2.56381E+09-7.05497E+08
 -1       426 1.72865E+10-1.37882E+10-3.59944E+09 3.09654E+08-2.69520E+09-3.51828E+08
 -1       427 1.73815E+10-1.25041E+10-3.24064E+09-8.56076E+07-2.45175E+09-1.09315E+07
 -1       428 1.61591E+10-9.39340E+09-2.39176E+09-4.14396E+08-1.85480E+09 2.67654E+08
 -1       429 1.39018E+10-4.86492E+09-1.16522E+09-6.32493E+08-9.84826E+08 4.42925E+08
 -1       430 1.09835E+10 3.23462E+08 2.25676E+08-7.04369E+08 1.26200E+07 4.89611E+08
 -1       431 8.02290E+09 5.47881E+09 1.61930E+09-6.04968E+08 9.86779E+08 4.13620E+08
 -1       432 6.31376E+09 1.04522E+10 3.26404E+09-2.46085E+08 2.05862E+09 3.27834E+08
 -1       433 2.84368E+08-3.77709E+09-9.90041E+08-1.83307E+09-1.74316E+09 3.60156E+08
 -1       434 1.40065E+10 6.00282E+09 6.00282E+09-9.57945E+08-1.35303E+04-1.70228E+10
 -1       435 1.08067E+09 4.63194E+08 4.63187E+08-1.47301E+08-1.35966E+04-1.69120E+10
 -1       436-6.31376E+09-1.04522E+10-3.26404E+09 2.46085E+08 2.05862E+09 3.27834E+08
 -1       437-8.02290E+09-5.47881E+09-1.61930E+09 6.04968E+08 9.86779E+08 4.13620E+08
 -1       438-1.09835E+10-3.23462E+08-2.25676E+08 7.04369E+08 1.26200E+07 4.89611E+08
 -1       439-1.39018E+10 4.86492E+09 1.16522E+09 6.32493E+08-9.84826E+08 4.42925E+08
 -1       440-1.61591E+10 9.39340E+09 2.39176E+09 4.14396E+08-1.85480E+09 2.67654E+08
 -1       441-1.73815E+10 1.25041E+10 3.24064E+09 8.56076E+07-2.45175E+09-1.09315E+07
 -1       442-1.72865E+10 1.37882E+10 3.59944E+09-3.09654E+08-2.69520E+09-3.51828E+08
 -1       443-1.57481E+10 1.31325E+10 3.43813E+09-7.15748E+08-2.56381E+09-7.05497E+08
 -1       444-1.28338E+10 1.06690E+10 2.79265E+09-1.07541E+09-2.08303E+09-1.01952E+09
 -1       445-8.79993E+09 6.74007E+09 1.75484E+09-1.33820E+09-1.31904E+09-1.24817E+09
 -1       446-4.05624E+09 1.85863E+09 4.61804E+08-1.46686E+09-3.71041E+08-1.35778E+09
 -1       447 8.88372E+08-3.35023E+09-9.19542E+08-1.44166E+09 6.40014E+08-1.33047E+09
 -1       448 5.49123E+09-8.22405E+09-2.21236E+09-1.26266E+09 1.58593E+09-1.16617E+09
 -1       449 9.24470E+09-1.21437E+10-3.25137E+09-9.49541E+08 2.34689E+09-8.82435E+08
 -1       450 1.17404E+10-1.46090E+10-3.90305E+09-5.39142E+08 2.82612E+09-5.12264E+08
 -1       451 1.27210E+10-1.53002E+10-4.08193E+09-8.08603E+07 2.96173E+09-9.99602E+07
 -1       452 1.21137E+10-1.41161E+10-3.76091E+09 3.69447E+08 2.73421E+09 3.04345E+08
 -1       453 1.00400E+10-1.11867E+10-2.97447E+09 7.56365E+08 2.16877E+09 6.50890E+08
 -1       454 6.80289E+09-6.85692E+09-1.81440E+09 1.03177E+09 1.33225E+09 8.96434E+08
 -1       455 2.84986E+09-1.64469E+09-4.18713E+08 1.16073E+09 3.25007E+08 1.00964E+09
 -1       456-1.28029E+09 3.82262E+09 1.04539E+09 1.12573E+09-7.31428E+08 9.74804E+08
 -1       457-5.02000E+09 8.89225E+09 2.40438E+09 9.28207E+08-1.71046E+09 7.93300E+08
 -1       458-7.83474E+09 1.29873E+10 3.50502E+09 5.87694E+08-2.50046E+09 4.81806E+08
 -1       459-9.27484E+09 1.57075E+10 4.24643E+09 1.39910E+08-3.02325E+09 6.90609E+07
 -1       460-9.06171E+09 1.68023E+10 4.54964E+09-3.59658E+08-3.23587E+09-3.95617E+08
 -1       461-7.20271E+09 1.59162E+10 4.35673E+09-8.20839E+08-3.05796E+09-8.23580E+08
 -1       462-4.46243E+09 1.16264E+10 3.02060E+09-1.15405E+09-2.24801E+09-1.15767E+09
 -1       463-1.23381E+09 2.92172E+09 9.46467E+08-1.28507E+09-5.15100E+08-1.49561E+09
 -1       464 4.84264E+09-7.68865E+09-2.40958E+09-1.76291E+09 1.25647E+09 2.10603E+09
 -1       465-4.20886E+09-6.75867E+09-3.34803E+09-6.53396E+08-1.90418E+09 3.26927E+08
 -1       466 5.72369E+09 4.08189E+08 5.92349E+08-1.13945E+09-2.55540E+08 2.88155E+09
 -1       467-1.79006E+09-2.35914E+08-3.46226E+07 2.34454E+08 9.43054E+07 1.95793E+09
 -1       468-7.86344E+09 5.34745E+08-5.34462E+08 1.39625E+08 7.06676E+08 6.70834E+07
 -1       469-1.16563E+10 9.45644E+08-3.27541E+08-2.68528E+08 9.80884E+08-2.26573E+08
 -1       470-1.34910E+10 1.07506E+09-2.86088E+08-2.82977E+08 1.02067E+09-1.08600E+08
 -1       471-1.33313E+10 1.02254E+09-2.48654E+08-1.68846E+08 9.56684E+08-1.10086E+08
 -1       472-1.11853E+10 8.39662E+08-2.12656E+08-5.53790E+07 7.91293E+08-1.82392E+08
 -1       473-7.31787E+09 5.76524E+08-1.42530E+08 2.42812E+07 5.40319E+08-2.59125E+08
 -1       474-2.26285E+09 2.59775E+08-4.53588E+07 6.97774E+07 2.27588E+08-3.04512E+08
 -1       475 3.29213E+09-7.81868E+07 6.38287E+07 8.49533E+07-1.10447E+08-3.09742E+08
 -1       476 8.60498E+09-3.99832E+08 1.68578E+08 7.20509E+07-4.32864E+08-2.76638E+08
 -1       477 1.29713E+10-6.67815E+08 2.54579E+08 3.41042E+07-7.00436E+08-2.10773E+08
 -1       478 1.58076E+10-8.50929E+08 3.10403E+08-2.36035E+07-8.80822E+08-1.20550E+08
 -1       479 1.67212E+10-9.28399E+08 3.28431E+08-9.36529E+07-9.52472E+08-1.69540E+07
 -1       480 1.55563E+10-8.92509E+08 3.05644E+08-1.67439E+08-9.07226E+08 8.73624E+07
 -1       481 1.24120E+10-7.49546E+08 2.43998E+08-2.36328E+08-7.51312E+08 1.79553E+08
 -1       482 7.62940E+09-5.19060E+08 1.50188E+08-2.92770E+08-5.04602E+08 2.48186E+08
 -1       483 1.74743E+09-2.31499E+08 3.48095E+07-3.31254E+08-1.98186E+08 2.84669E+08
 -1       484-4.56442E+09 7.54734E+07-8.89746E+07-3.49008E+08 1.29431E+08 2.84337E+08
 -1       485-1.05904E+10 3.61526E+08-2.07116E+08-3.46407E+08 4.37056E+08 2.47104E+08
 -1       486-1.56586E+10 5.88458E+08-3.06535E+08-3.27135E+08 6.85850E+08 1.77560E+08
 -1       487-1.92258E+10 7.24598E+08-3.76873E+08-2.98143E+08 8.44002E+08 8.41647E+07
 -1       488-2.09462E+10 7.48670E+08-4.11388E+08-2.69119E+08 8.90337E+08-2.32295E+07
 -1       489-2.07129E+10 6.53485E+08-4.06495E+08-2.49790E+08 8.16614E+08-1.37373E+08
 -1       490-1.86675E+10 4.51822E+08-3.58072E+08-2.42993E+08 6.29522E+08-2.52948E+08
 -1       491-1.51985E+10 1.73622E+08-2.72554E+08-2.36192E+08 3.53517E+08-3.51627E+08
 -1       492-1.09762E+10-1.62946E+08-1.69657E+08-2.07753E+08 3.82002E+07-3.13609E+08
 -1       493-6.75711E+09-4.38971E+08-1.07222E+08-3.25010E+08-2.41068E+08 1.11849E+07
 -1       494-3.50730E+09-1.28777E+09-4.84769E+08-7.05958E+08-6.62114E+08 3.31158E+08
 -1       495-1.63795E+09-2.43328E+09-2.46858E+09-8.14666E+08-3.63012E+08 2.86667E+09
 -1       496-1.16544E+09-1.44308E+06 2.23107E+08-2.58208E+09 1.07917E+08 1.88234E+09
 -1       497-4.21563E+09-8.89876E+07 3.72762E+08-1.89036E+09 7.79056E+08 7.04504E+06
 -1       498-7.85349E+09-4.03020E+08 4.08716E+08-9.02495E+08 1.05807E+09-2.72645E+08
 -1       499-9.92431E+09-5.13362E+08 3.07402E+08-1.84596E+08 1.10514E+09-1.23095E+08
 -1       500-1.00320E+10-4.78093E+08 2.90954E+08 4.15375E+08 1.03526E+09-9.58676E+07
 -1       501-8.42540E+09-3.86701E+08 2.47415E+08 9.37360E+08 8.56463E+08-1.41784E+08
 -1       502-5.44555E+09-2.67551E+08 1.65943E+08 1.34414E+09 5.84919E+08-1.98490E+08
 -1       503-1.54300E+09-1.30368E+08 5.35527E+07 1.58162E+09 2.46657E+08-2.32331E+08
 -1       504 2.74806E+09 1.38460E+07-7.17819E+07 1.61534E+09-1.18949E+08-2.35787E+08
 -1       505 6.85271E+09 1.50849E+08-1.91899E+08 1.44011E+09-4.67648E+08-2.10794E+08
 -1       506 1.02207E+10 2.65666E+08-2.90555E+08 1.07825E+09-7.57046E+08-1.61869E+08
 -1       507 1.23940E+10 3.45597E+08-3.54722E+08 5.75144E+08-9.52181E+08-9.52899E+07
 -1       508 1.30635E+10 3.82234E+08-3.75680E+08-6.91209E+06-1.02976E+09-1.91122E+07
 -1       509 1.21058E+10 3.72556E+08-3.49978E+08-5.96267E+08-9.80970E+08 5.73844E+07
 -1       510 9.59699E+09 3.19293E+08-2.79860E+08-1.12066E+09-8.12543E+08 1.24758E+08
 -1       511 5.80246E+09 2.30604E+08-1.72994E+08-1.51607E+09-5.45967E+08 1.74588E+08
 -1       512 1.14244E+09 1.19115E+08-4.15021E+07-1.73463E+09-2.14857E+08 2.00534E+08
 -1       513-3.86094E+09 4.15506E+05 9.95520E+07-1.75055E+09 1.39154E+08 1.99141E+08
 -1       514-8.64940E+09-1.08793E+08 2.34084E+08-1.56331E+09 4.71529E+08 1.70339E+08
 -1       515-1.26987E+10-1.92592E+08 3.47094E+08-1.19765E+09 7.40272E+08 1.17537E+08
 -1       516-1.55853E+10-2.37556E+08 4.26636E+08-7.00261E+08 9.10988E+08 4.69507E+07
 -1       517-1.70415E+10-2.34392E+08 4.65118E+08-1.33969E+08 9.60777E+08-3.45966E+07
 -1       518-1.69954E+10-1.79976E+08 4.58716E+08 4.28354E+08 8.80758E+08-1.23321E+08
 -1       519-1.55862E+10-8.17399E+07 4.06272E+08 9.06410E+08 6.77997E+08-2.17213E+08
 -1       520-1.31464E+10 4.02350E+07 3.03056E+08 1.21618E+09 3.79829E+08-3.01401E+08
 -1       521-1.00916E+10 1.58542E+08 1.92177E+08 1.28932E+09 3.52699E+07-2.56925E+08
 -1       522-6.56909E+09 4.43061E+08 2.13793E+08 1.22014E+09-2.65858E+08 6.87781E+07
 -1       523-2.85986E+09 1.05121E+09 4.11156E+08 1.37662E+09-7.07137E+08 3.71698E+08
 -1       524-2.84368E+08 3.77709E+09 9.90041E+08 1.83307E+09-1.74316E+09 3.60156E+08
 -1       525-5.49098E+08 9.20801E+08-2.70173E+09 7.49630E+06 2.55218E+07-2.04510E+10
 -1       526 1.14913E+09-2.42452E+08 1.06444E+09 3.62048E+07-4.91527E+06-2.00146E+10
 -1       527 2.57788E+09-1.04925E+09 2.19842E+09 2.30645E+07-9.88045E+06-1.64424E+10
 -1       528 4.29457E+09-1.59024E+09 2.72350E+09 1.36363E+07-1.61551E+07-1.07310E+10
 -1       529 5.33765E+09-1.65408E+09 2.91923E+09 2.40206E+06-2.07966E+07-4.12472E+09
 -1       530 5.39544E+09-1.54516E+09 2.74112E+09-6.70199E+06-2.16121E+07 2.51757E+09
 -1       531 4.54786E+09-1.27471E+09 2.27205E+09-1.45514E+07-1.82946E+07 8.41835E+09
 -1       532 2.95637E+09-8.73012E+08 1.55512E+09-2.05353E+07-1.16263E+07 1.29263E+10
 -1       533 8.66228E+08-3.78135E+08 6.64652E+08-2.39769E+07-2.70926E+06 1.55425E+10
 -1       534-1.43152E+09 1.54717E+08-2.96125E+08-2.44130E+07 7.15824E+06 1.59826E+10
 -1       535-3.62857E+09 6.62668E+08-1.21191E+09-2.17744E+07 1.66054E+07 1.42182E+10
 -1       536-5.43200E+09 1.08483E+09-1.97235E+09-1.63858E+07 2.43316E+07 1.04849E+10
 -1       537-6.59846E+09 1.37089E+09-2.48630E+09-8.91596E+06 2.92553E+07 5.25450E+09
 -1       538-6.96363E+09 1.48734E+09-2.69299E+09-2.87301E+05 3.06439E+07-8.23320E+08
 -1       539-6.46202E+09 1.42160E+09-2.56950E+09 8.43791E+06 2.82014E+07-7.00052E+09
 -1       540-5.13452E+09 1.18353E+09-2.13355E+09 1.61879E+07 2.21015E+07-1.25230E+10
 -1       541-3.12271E+09 8.04257E+08-1.44142E+09 2.20129E+07 1.29620E+07-1.67236E+10
 -1       542-6.50793E+08 3.32427E+08-5.81075E+08 2.52020E+07 1.76530E+06-1.91044E+10
 -1       543 2.00273E+09-1.71754E+08 3.38518E+08 2.53713E+07-1.02671E+07-1.93988E+10
 -1       544 4.54002E+09-6.43859E+08 1.20078E+09 2.25103E+07-2.18296E+07-1.76047E+10
 -1       545 6.68150E+09-1.02307E+09 1.89574E+09 1.69828E+07-3.16982E+07-1.39863E+10
 -1       546 8.20148E+09-1.25937E+09 2.33325E+09 9.48075E+06-3.88892E+07-9.04271E+09
 -1       547 8.95798E+09-1.31927E+09 2.45353E+09 9.42443E+05-4.27909E+07-3.44883E+09
 -1       548 8.91186E+09-1.19005E+09 2.23382E+09-7.54267E+06-4.32485E+07 2.02467E+09
 -1       549 8.13113E+09-8.83021E+08 1.69413E+09-1.48031E+07-4.05877E+07 6.60576E+09
 -1       550 6.77856E+09-4.39056E+08 9.03411E+08-1.97124E+07-3.54423E+07 9.62329E+09
 -1       551 5.06482E+09 6.17931E+07-3.61248E+07-2.17458E+07-2.86346E+07 1.06022E+10
 -1       552 3.28592E+09 5.90103E+08-9.39014E+08-2.09971E+07-2.14148E+07 9.34712E+09
 -1       553 1.98368E+09 1.16214E+09-1.75098E+09-2.34295E+07-1.84538E+07 5.75909E+09
 -1       554-1.74882E-02 5.57721E-04 1.14461E-02 6.53522E-03 3.36279E+07-2.14000E+10
 -1       555-4.00670E-03 1.12074E-02 3.79769E-02 1.00863E-02-1.60778E+07-2.11777E+10
 -1       556 2.33162E-02 1.19772E-02 5.38776E-02 1.23527E-02-4.40232E+07-1.75336E+10
 -1       557 3.60149E-02 1.35067E-02 4.72607E-02 2.99709E-03-6.55461E+07-1.14937E+10
 -1       558 2.62685E-02 1.52415E-02 3.13000E-02-2.97694E-03-7.32700E+07-4.41748E+09
 -1       559 1.85791E-03 4.41498E-03 1.51050E-02-1.45606E-02-7.06980E+07 2.68242E+09
 -1       560-2.87289E-02-1.11833E-02-1.75965E-02-1.78266E-02-5.88957E+07 8.98599E+09
 -1       561-3.49433E-02-2.25988E-02-4.43832E-02 4.56744E-04-3.94885E+07 1.37978E+10
 -1       562-2.72226E-02-2.45161E-02-6.41042E-02 4.76029E-03-1.48521E+07 1.65893E+10
 -1       563-2.50062E-02-2.04199E-02-5.09678E-02 2.37829E-03 1.19366E+07 1.70583E+10
 -1       564-2.98845E-02-1.22370E-02-3.23635E-02 1.05043E-02 3.75084E+07 1.51751E+10
 -1       565-2.62769E-02 1.13255E-03 2.68698E-04 6.89608E-03 5.86377E+07 1.11909E+10
 -1       566-2.34552E-02 4.71231E-03 1.27018E-02-9.86112E-03 7.26523E+07 5.60903E+09
 -1       567-2.33732E-02 4.94510E-04 5.26834E-03-7.39504E-03 7.77605E+07-8.77151E+08
 -1       568-1.72460E-02 4.99025E-03 1.80295E-02 8.69469E-03 7.32685E+07-7.46936E+09
 -1       569-5.27230E-03 1.65385E-02 3.89501E-02 1.21136E-02 5.96631E+07-1.33628E+10
 -1       570 1.05942E-02 2.51971E-02 5.75911E-02 1.31456E-02 3.85491E+07-1.78455E+10
 -1       571 1.58761E-02 2.67892E-02 5.98710E-02-7.45577E-04 1.24504E+07-2.03861E+10
 -1       572-1.64251E-03 1.27781E-02 2.39037E-02-1.94235E-02-1.55036E+07-2.07000E+10
 -1       573-2.44688E-02-1.44326E-02-3.49402E-02-2.11476E-02-4.19653E+07-1.87850E+10
 -1       574-3.75556E-02-3.34857E-02-7.63301E-02-9.32956E-03-6.37831E+07-1.49231E+10
 -1       575-3.91341E-02-3.60168E-02-8.99710E-02 1.21540E-02-7.83897E+07-9.64677E+09
 -1       576-3.36649E-02-3.65178E-02-8.35589E-02 6.71924E-03-8.41172E+07-3.67683E+09
 -1       577-3.25015E-02-2.63731E-02-6.79899E-02-4.17290E-03-8.04110E+07 2.16392E+09
 -1       578-3.51603E-02-2.04414E-02-4.28664E-02 6.46317E-03-6.79398E+07 7.05201E+09
 -1       579-2.88333E-02-8.86500E-03-6.93777E-03 9.75254E-03-4.86617E+07 1.02731E+10
 -1       580-1.02579E-02 1.17128E-02 2.10555E-02 3.61290E-03-2.56611E+07 1.13302E+10
 -1       581 1.53032E-02 2.07440E-02 4.42405E-02-7.72679E-03-2.02173E+06 9.98561E+09
 -1       582 3.13889E-02 2.67205E-02 5.09020E-02-1.01155E-02 1.93732E+07 6.10263E+09
 -1       583 5.49098E+08-9.20801E+08 2.70173E+09-7.49630E+06 2.55218E+07-2.04510E+10
 -1       584-1.14913E+09 2.42452E+08-1.06444E+09-3.62048E+07-4.91527E+06-2.00146E+10
 -1       585-2.57788E+09 1.04925E+09-2.19842E+09-2.30645E+07-9.88045E+06-1.64424E+10
 -1       586-4.29457E+09 1.59024E+09-2.72350E+09-1.36363E+07-1.61551E+07-1.07310E+10
 -1       587-5.33765E+09 1.65408E+09-2.91923E+09-2.40206E+06-2.07966E+07-4.12472E+09
 -1       588-5.39544E+09 1.54516E+09-2.74112E+09 6.70199E+06-2.16121E+07 2.51757E+09
 -1       589-4.54786E+09 1.27471E+09-2.27205E+09 1.45514E+07-1.82946E+07 8.41835E+09
 -1       590-2.95637E+09 8.73012E+08-1.55512E+09 2.05353E+07-1.16263E+07 1.29263E+10
 -1       591-8.66228E+08 3.78135E+08-6.64652E+08 2.39769E+07-2.70926E+06 1.55425E+10
 -1       592 1.43152E+09-1.54717E+08 2.96125E+08 2.44130E+07 7.15824E+06 1.59826E+10
 -1       593 3.62857E+09-6.62668E+08 1.21191E+09 2.17744E+07 1.66054E+07 1.42182E+10
 -1       594 5.43200E+09-1.08483E+09 1.97235E+09 1.63858E+07 2.43316E+07 1.04849E+10
 -1       595 6.59846E+09-1.37089E+09 2.48630E+09 8.91596E+06 2.92553E+07 5.25450E+09
 -1       596 6.96363E+09-1.48734E+09 2.69299E+09 2.87301E+05 3.06439E+07-8.23320E+08
 -1       597 6.46202E+09-1.42160E+09 2.56950E+09-8.43791E+06 2.82014E+07-7.00052E+09
 -1       598 5.13452E+09-1.18353E+09 2.13355E+09-1.61879E+07 2.21015E+07-1.25230E+10
 -1       599 3.12271E+09-8.04257E+08 1.44142E+09-2.20129E+07 1.29620E+07-1.67236E+10
 -1       600 6.50793E+08-3.32427E+08 5.81075E+08-2.52020E+07 1.76530E+06-1.91044E+10
 -1       601-2.00273E+09 1.71754E+08-3.38518E+08-2.53713E+07-1.02671E+07-1.93988E+10
 -1       602-4.54002E+09 6.43859E+08-1.20078E+09-2.25103E+07-2.18296E+07-1.76047E+10
 -1       603-6.68150E+09 1.02307E+09-1.89574E+09-1.69828E+07-3.16982E+07-1.39863E+10
 -1       604-8.20148E+09 1.25937E+09-2.33325E+09-9.48075E+06-3.88892E+07-9.04271E+09
 -1       605-8.95798E+09 1.31927E+09-2.45353E+09-9.42443E+05-4.27909E+07-3.44883E+09
 -1       606-8.91186E+09 1.19005E+09-2.23382E+09 7.54267E+06-4.32485E+07 2.02467E+09
 -1       607-8.13113E+09 8.83021E+08-1.69413E+09 1.48031E+07-4.05877E+07 6.60576E+09
 -1       608-6.77856E+09 4.39056E+08-9.03411E+08 1.97124E+07-3.54423E+07 9.62329E+09
 -1       609-5.06482E+09-6.17931E+07 3.61248E+07 2.17458E+07-2.86346E+07 1.06022E+10
 -1       610-3.28592E+09-5.90103E+08 9.39014E+08 2.09971E+07-2.14148E+07 9.34712E+09
 -1       611-1.98368E+09-1.16214E+09 1.75098E+09 2.34295E+07-1.84538E+07 5.75909E+09
 -1       612 5.49098E+08-9.20801E+08 2.70173E+09 7.49630E+06-2.55218E+07-2.04510E+10
 -1       613-1.14913E+09 2.42452E+08-1.06444E+09 3.62048E+07 4.91527E+06-2.00146E+10
 -1       614-2.57788E+09 1.04925E+09-2.19842E+09 2.30645E+07 9.88045E+06-1.64424E+10
 -1       615-4.29457E+09 1.59024E+09-2.72350E+09 1.36363E+07 1.61551E+07-1.07310E+10
 -1       616-5.33765E+09 1.65408E+09-2.91923E+09 2.40206E+06 2.07966E+07-4.12472E+09
 -1       617-5.39544E+09 1.54516E+09-2.74112E+09-6.70199E+06 2.16121E+07 2.51757E+09
 -1       618-4.54786E+09 1.27471E+09-2.27205E+09-1.45514E+07 1.82946E+07 8.41835E+09
 -1       619-2.95637E+09 8.73012E+08-1.55512E+09-2.05353E+07 1.16263E+07 1.29263E+10
 -1       620-8.66228E+08 3.78135E+08-6.64652E+08-2.39769E+07 2.70926E+06 1.55425E+10
 -1       621 1.43152E+09-1.54717E+08 2.96125E+08-2.44130E+07-7.15824E+06 1.59826E+10
 -1       622 3.62857E+09-6.62668E+08 1.21191E+09-2.17744E+07-1.66054E+07 1.42182E+10
 -1       623 5.43200E+09-1.08483E+09 1.97235E+09-1.63858E+07-2.43316E+07 1.04849E+10
 -1       624 6.59846E+09-1.37089E+09 2.48630E+09-8.91596E+06-2.92553E+07 5.25450E+09
 -1       625 6.96363E+09-1.48734E+09 2.69299E+09-2.87301E+05-3.06439E+07-8.23320E+08
 -1       626 6.46202E+09-1.42160E+09 2.56950E+09 8.43791E+06-2.82014E+07-7.00052E+09
 -1       627 5.13452E+09-1.18353E+09 2.13355E+09 1.61879E+07-2.21015E+07-1.25230E+10
 -1       628 3.12271E+09-8.04257E+08 1.44142E+09 2.20129E+07-1.29620E+07-1.67236E+10
 -1       629 6.50793E+08-3.32427E+08 5.81075E+08 2.52020E+07-1.76530E+06-1.91044E+10
 -1       630-2.00273E+09 1.71754E+08-3.38518E+08 2.53713E+07 1.02671E+07-1.93988E+10
 -1       631-4.54002E+09 6.43859E+08-1.20078E+09 2.25103E+07 2.18296E+07-1.76047E+10
 -1       632-6.68150E+09 1.02307E+09-1.89574E+09 1.69828E+07 3.16982E+07-1.39863E+10
 -1       633-8.20148E+09 1.25937E+09-2.33325E+09 9.48075E+06 3.88892E+07-9.04271E+09
 -1       634-8.95798E+09 1.31927E+09-2.45353E+09 9.42443E+05 4.27909E+07-3.44883E+09
 -1       635-8.91186E+09 1.19005E+09-2.23382E+09-7.54267E+06 4.32485E+07 2.02467E+09
 -1       636-8.13113E+09 8.83021E+08-1.69413E+09-1.48031E+07 4.05877E+07 6.60576E+09
 -1       637-6.77856E+09 4.39056E+08-9.03411E+08-1.97124E+07 3.54423E+07 9.62329E+09
 -1       638-5.06482E+09-6.17931E+07 3.61248E+07-2.17458E+07 2.86346E+07 1.06022E+10
 -1       639-3.28592E+09-5.90103E+08 9.39014E+08-2.09971E+07 2.14148E+07 9.34712E+09
 -1       640-1.98368E+09-1.16214E+09 1.75098E+09-2.34295E+07 1.84538E+07 5.75909E+09
 -1       641-1.52689E-03 6.40127E-03 1.49640E-02 6.55209E-03-3.36279E+07-2.14000E+10
 -1       642-1.04040E-02 3.91379E-03 2.00612E-02 9.86200E-03 1.60778E+07-2.11777E+10
 -1       643-1.22497E-02-1.22954E-02 8.53568E-03 1.21459E-02 4.40232E+07-1.75336E+10
 -1       644-1.71850E-02-2.02061E-02-1.19160E-02 3.14808E-03 6.55461E+07-1.14937E+10
 -1       645-2.05705E-02-1.26548E-02-1.48476E-02-2.79935E-03 7.32700E+07-4.41748E+09
 -1       646-1.34280E-02-2.19700E-03 8.35145E-03-1.44830E-02 7.06980E+07 2.68242E+09
 -1       647 6.53729E-03 1.47599E-02 3.36128E-02-1.77910E-02 5.88957E+07 8.98599E+09
 -1       648 3.04864E-02 2.34942E-02 4.38305E-02 4.58606E-04 3.94885E+07 1.37978E+10
 -1       649 3.67049E-02 2.22155E-02 2.77400E-02 4.77867E-03 1.48521E+07 1.65893E+10
 -1       650 2.87529E-02 2.00219E-02 3.00794E-02 2.43741E-03-1.19366E+07 1.70583E+10
 -1       651 1.28645E-03 1.32444E-02 2.14041E-02 1.06159E-02-3.75084E+07 1.51751E+10
 -1       652-2.49155E-02 7.05367E-03 1.86448E-02 6.91551E-03-5.86377E+07 1.11909E+10
 -1       653-3.01867E-02 1.91179E-03 1.00954E-02-9.91036E-03-7.26523E+07 5.60903E+09
 -1       654-2.22786E-02-2.88853E-03-7.10171E-03-7.44846E-03-7.77605E+07-8.77151E+08
 -1       655-2.78667E-02-8.72135E-03-1.70574E-02 8.70303E-03-7.32685E+07-7.46936E+09
 -1       656-4.73573E-02-1.71396E-02-3.12245E-02 1.21141E-02-5.96631E+07-1.33628E+10
 -1       657-6.24302E-02-2.62234E-02-4.07846E-02 1.31078E-02-3.85491E+07-1.78455E+10
 -1       658-6.48628E-02-2.65833E-02-3.72969E-02-7.22881E-04-1.24504E+07-2.03861E+10
 -1       659-4.26072E-02-1.26477E-02-1.98826E-02-1.94354E-02 1.55036E+07-2.07000E+10
 -1       660 1.86700E-03 4.74436E-03 2.64671E-03-2.12371E-02 4.19653E+07-1.87850E+10
 -1       661 4.32234E-02 2.29229E-02 3.09181E-02-9.34145E-03 6.37831E+07-1.49231E+10
 -1       662 5.23060E-02 3.18058E-02 4.46634E-02 1.21200E-02 7.83897E+07-9.64677E+09
 -1       663 4.02640E-02 2.38116E-02 4.36124E-02 6.73892E-03 8.41172E+07-3.67683E+09
 -1       664 3.24839E-02 2.72702E-02 4.58354E-02-4.10093E-03 8.04110E+07 2.16392E+09
 -1       665 1.32072E-02 1.92535E-02 4.10838E-02 6.43082E-03 6.79398E+07 7.05201E+09
 -1       666-1.92391E-02 2.50758E-03 2.13739E-02 9.84292E-03 4.86617E+07 1.02731E+10
 -1       667-4.05338E-02-7.87835E-03-1.39740E-02 3.62984E-03 2.56611E+07 1.13302E+10
 -1       668-3.91304E-02-2.37634E-02-4.96851E-02-7.83243E-03 2.02173E+06 9.98561E+09
 -1       669-3.17459E-02-3.44250E-02-8.97791E-02-9.89208E-03-1.93732E+07 6.10263E+09
 -1       670-5.49098E+08 9.20801E+08-2.70173E+09-7.49630E+06-2.55218E+07-2.04510E+10
 -1       671 1.14913E+09-2.42452E+08 1.06444E+09-3.62048E+07 4.91527E+06-2.00146E+10
 -1       672 2.57788E+09-1.04925E+09 2.19842E+09-2.30645E+07 9.88045E+06-1.64424E+10
 -1       673 4.29457E+09-1.59024E+09 2.72350E+09-1.36363E+07 1.61551E+07-1.07310E+10
 -1       674 5.33765E+09-1.65408E+09 2.91923E+09-2.40206E+06 2.07966E+07-4.12472E+09
 -1       675 5.39544E+09-1.54516E+09 2.74112E+09 6.70199E+06 2.16121E+07 2.51757E+09
 -1       676 4.54786E+09-1.27471E+09 2.27205E+09 1.45514E+07 1.82946E+07 8.41835E+09
 -1       677 2.95637E+09-8.73012E+08 1.55512E+09 2.05353E+07 1.16263E+07 1.29263E+10
 -1       678 8.66228E+08-3.78135E+08 6.64652E+08 2.39769E+07 2.70926E+06 1.55425E+10
 -1       679-1.43152E+09 1.54717E+08-2.96125E+08 2.44130E+07-7.15824E+06 1.59826E+10
 -1       680-3.62857E+09 6.62668E+08-1.21191E+09 2.17744E+07-1.66054E+07 1.42182E+10
 -1       681-5.43200E+09 1.08483E+09-1.97235E+09 1.63858E+07-2.43316E+07 1.04849E+10
 -1       682-6.59846E+09 1.37089E+09-2.48630E+09 8.91596E+06-2.92553E+07 5.25450E+09
 -1       683-6.96363E+09 1.48734E+09-2.69299E+09 2.87301E+05-3.06439E+07-8.23320E+08
 -1       684-6.46202E+09 1.42160E+09-2.56950E+09-8.43791E+06-2.82014E+07-7.00052E+09
 -1       685-5.13452E+09 1.18353E+09-2.13355E+09-1.61879E+07-2.21015E+07-1.25230E+10
 -1       686-3.12271E+09 8.04257E+08-1.44142E+09-2.20129E+07-1.29620E+07-1.67236E+10
 -1       687-6.50793E+08 3.32427E+08-5.81075E+08-2.52020E+07-1.76530E+06-1.91044E+10
 -1       688 2.00273E+09-1.71754E+08 3.38518E+08-2.53713E+07 1.02671E+07-1.93988E+10
 -1       689 4.54002E+09-6.43859E+08 1.20078E+09-2.25103E+07 2.18296E+07-1.76047E+10
 -1       690 6.68150E+09-1.02307E+09 1.89574E+09-1.69828E+07 3.16982E+07-1.39863E+10
 -1       691 8.20148E+09-1.25937E+09 2.33325E+09-9.48075E+06 3.88892E+07-9.04271E+09
 -1       692 8.95798E+09-1.31927E+09 2.45353E+09-9.42443E+05 4.27909E+07-3.44883E+09
 -1       693 8.91186E+09-1.19005E+09 2.23382E+09 7.54267E+06 4.32485E+07 2.02467E+09
 -1       694 8.13113E+09-8.83021E+08 1.69413E+09 1.48031E+07 4.05877E+07 6.60576E+09
 -1       695 6.77856E+09-4.39056E+08 9.03411E+08 1.97124E+07 3.54423E+07 9.62329E+09
 -1       696 5.06482E+09 6.17931E+07-3.61248E+07 2.17458E+07 2.86346E+07 1.06022E+10
 -1       697 3.28592E+09 5.90103E+08-9.39014E+08 2.09971E+07 2.14148E+07 9.34712E+09
 -1       698 1.98368E+09 1.16214E+09-1.75098E+09 2.34295E+07 1.84538E+07 5.75909E+09
 -1       699-5.32392E+09 1.75691E+09 1.06404E+09-2.30694E+09 5.50900E+08 5.00588E+09
 -1       700 1.59965E+09-4.79942E+08-3.49593E+08-9.97110E+08-2.96832E+08 1.83799E+09
 -1       701 6.74779E+09-3.40236E+09-1.25784E+09-9.86165E+08-1.07616E+09 9.38561E+08
 -1       702 1.02582E+10-4.70793E+09-1.85758E+09-9.18946E+08-1.50901E+09 4.91821E+08
 -1       703 1.21728E+10-5.00368E+09-1.98508E+09-5.04054E+08-1.60769E+09 9.79986E+07
 -1       704 1.21463E+10-4.67890E+09-1.85222E+09 2.53313E+07-1.50327E+09-2.73688E+08
 -1       705 1.02050E+10-3.86524E+09-1.52695E+09 5.07865E+08-1.24269E+09-6.37866E+08
 -1       706 6.64377E+09-2.64835E+09-1.04931E+09 8.71023E+08-8.50151E+08-9.27329E+08
 -1       707 1.97500E+09-1.14708E+09-4.64557E+08 1.08130E+09-3.64656E+08-1.09534E+09
 -1       708-3.15981E+09 4.70121E+08 1.63610E+08 1.12294E+09 1.58839E+08-1.11933E+09
 -1       709-8.07137E+09 2.01159E+09 7.62097E+08 9.96044E+08 6.57909E+08-9.97617E+08
 -1       710-1.21045E+10 3.29262E+09 1.26006E+09 7.18661E+08 1.07246E+09-7.46473E+08
 -1       711-1.47161E+10 4.16055E+09 1.59884E+09 3.26258E+08 1.35285E+09-3.97417E+08
 -1       712-1.55398E+10 4.51376E+09 1.73946E+09-1.32208E+08 1.46600E+09 6.40786E+06
 -1       713-1.44298E+10 4.31406E+09 1.66735E+09-6.00328E+08 1.39945E+09 4.15343E+08
 -1       714-1.14777E+10 3.59134E+09 1.39416E+09-1.02127E+09 1.16286E+09 7.79263E+08
 -1       715-6.99970E+09 2.44009E+09 9.56400E+08-1.34482E+09 7.86899E+08 1.05375E+09
 -1       716-1.49624E+09 1.00792E+09 4.11051E+08-1.53361E+09 3.19460E+08 1.20559E+09
 -1       717 4.41099E+09-5.22456E+08-1.71394E+08-1.56777E+09-1.80134E+08 1.21687E+09
 -1       718 1.00573E+10-1.95551E+09-7.15486E+08-1.44750E+09-6.48417E+08 1.08728E+09
 -1       719 1.48189E+10-3.10667E+09-1.14994E+09-1.19325E+09-1.02550E+09 8.34160E+08
 -1       720 1.81919E+10-3.82432E+09-1.41605E+09-8.43667E+08-1.26221E+09 4.90211E+08
 -1       721 1.98566E+10-4.00709E+09-1.47434E+09-4.51225E+08-1.32572E+09 9.88967E+07
 -1       722 1.97189E+10-3.61620E+09-1.30988E+09-7.46476E+07-1.20363E+09-2.91488E+08
 -1       723 1.79208E+10-2.68691E+09-9.36539E+08 2.33087E+08-9.06735E+08-6.32635E+08
 -1       724 1.48203E+10-1.34575E+09-4.09688E+08 4.38639E+08-4.77082E+08-8.64764E+08
 -1       725 1.09718E+10 2.05477E+08 2.05279E+08 5.19172E+08 1.83575E+07-9.32580E+08
 -1       726 7.09249E+09 1.66684E+09 7.80786E+08 3.72186E+08 5.07871E+08-7.36827E+08
 -1       727 4.29736E+09 3.53725E+09 1.76821E+09-2.26870E+08 1.06933E+09-1.49734E+08
 -1       728-7.32655E+07 1.66481E+09 2.61160E+09-2.75496E+09 5.69596E+08 4.98809E+09
 -1       729 4.43228E+08-2.98735E+07-5.61498E+08-3.89998E+09-2.88768E+08 1.72387E+09
 -1       730 5.86686E+09 1.96134E+09 8.69877E+07-3.01995E+09-1.02812E+09 8.64902E+08
 -1       731 9.70936E+09 2.90698E+09 2.62248E+08-1.71914E+09-1.43976E+09 4.43159E+08
 -1       732 1.16601E+10 3.06537E+09 2.81815E+08-5.24303E+08-1.53431E+09 8.32058E+07
 -1       733 1.16313E+10 2.84760E+09 2.51226E+08 5.74006E+08-1.43497E+09-2.55334E+08
 -1       734 9.75094E+09 2.34580E+09 2.00148E+08 1.54256E+09-1.18624E+09-5.89979E+08
 -1       735 6.35624E+09 1.60958E+09 1.41806E+08 2.28943E+09-8.11546E+08-8.56817E+08
 -1       736 1.93062E+09 7.05268E+08 7.78326E+07 2.72394E+09-3.48123E+08-1.01179E+09
 -1       737-2.92865E+09-2.67990E+08 1.15241E+07 2.79180E+09 1.51563E+08-1.03384E+09
 -1       738-7.57568E+09-1.19573E+09-5.13920E+07 2.48617E+09 6.27932E+08-9.21467E+08
 -1       739-1.13938E+10-1.96726E+09-1.04676E+08 1.84701E+09 1.02363E+09-6.89733E+08
 -1       740-1.38708E+10-2.49110E+09-1.43064E+08 9.54749E+08 1.29127E+09-3.67726E+08
 -1       741-1.46616E+10-2.70645E+09-1.63147E+08-7.99143E+07 1.39928E+09 4.76066E+06
 -1       742-1.36290E+10-2.59053E+09-1.63801E+08-1.12964E+09 1.33577E+09 3.81924E+08
 -1       743-1.08599E+10-2.16139E+09-1.46320E+08-2.06601E+09 1.10997E+09 7.17531E+08
 -1       744-6.65281E+09-1.47577E+09-1.14292E+08-2.77535E+09 7.51127E+08 9.70608E+08
 -1       745-1.48024E+09-6.22231E+08-7.31938E+07-3.17274E+09 3.04980E+08 1.11051E+09
 -1       746 4.07105E+09 2.89595E+08-2.97602E+07-3.21258E+09-1.71857E+08 1.12072E+09
 -1       747 9.37368E+09 1.14242E+09 8.79153E+06-2.89424E+09-6.18805E+08 1.00094E+09
 -1       748 1.38384E+10 1.82548E+09 3.55457E+07-2.26223E+09-9.78695E+08 7.67170E+08
 -1       749 1.69885E+10 2.24762E+09 4.45385E+07-1.40061E+09-1.20461E+09 4.49565E+08
 -1       750 1.85210E+10 2.34755E+09 3.13632E+07-4.22773E+08-1.26520E+09 8.81385E+07
 -1       751 1.83474E+10 2.10096E+09-6.15996E+06 5.40956E+08-1.14865E+09-2.72730E+08
 -1       752 1.66134E+10 1.52983E+09-6.37223E+07 1.35430E+09-8.65221E+08-5.88794E+08
 -1       753 1.36726E+10 7.09907E+08-1.37281E+08 1.88588E+09-4.55354E+08-8.03525E+08
 -1       754 1.00601E+10-1.87282E+08-1.86050E+08 2.03933E+09 1.87002E+07-8.64948E+08
 -1       755 6.28181E+09-1.12462E+09-2.99854E+08 1.87491E+09 4.84871E+08-6.70215E+08
 -1       756 2.37379E+09-2.63234E+09-6.59744E+08 1.66843E+09 1.02013E+09-1.00282E+08
 -1       757 7.32655E+07-1.66481E+09-2.61160E+09 2.75496E+09 5.69596E+08 4.98809E+09
 -1       758-4.43228E+08 2.98735E+07 5.61498E+08 3.89998E+09-2.88768E+08 1.72387E+09
 -1       759-5.86686E+09-1.96134E+09-8.69877E+07 3.01995E+09-1.02812E+09 8.64902E+08
 -1       760-9.70936E+09-2.90698E+09-2.62248E+08 1.71914E+09-1.43976E+09 4.43159E+08
 -1       761-1.16601E+10-3.06537E+09-2.81815E+08 5.24303E+08-1.53431E+09 8.32058E+07
 -1       762-1.16313E+10-2.84760E+09-2.51226E+08-5.74006E+08-1.43497E+09-2.55334E+08
 -1       763-9.75094E+09-2.34580E+09-2.00148E+08-1.54256E+09-1.18624E+09-5.89979E+08
 -1       764-6.35624E+09-1.60958E+09-1.41806E+08-2.28943E+09-8.11546E+08-8.56817E+08
 -1       765-1.93062E+09-7.05268E+08-7.78326E+07-2.72394E+09-3.48123E+08-1.01179E+09
 -1       766 2.92865E+09 2.67990E+08-1.15241E+07-2.79180E+09 1.51563E+08-1.03384E+09
 -1       767 7.57568E+09 1.19573E+09 5.13920E+07-2.48617E+09 6.27932E+08-9.21467E+08
 -1       768 1.13938E+10 1.96726E+09 1.04676E+08-1.84701E+09 1.02363E+09-6.89733E+08
 -1       769 1.38708E+10 2.49110E+09 1.43064E+08-9.54749E+08 1.29127E+09-3.67726E+08
 -1       770 1.46616E+10 2.70645E+09 1.63147E+08 7.99143E+07 1.39928E+09 4.76066E+06
 -1       771 1.36290E+10 2.59053E+09 1.63801E+08 1.12964E+09 1.33577E+09 3.81924E+08
 -1       772 1.08599E+10 2.16139E+09 1.46320E+08 2.06601E+09 1.10997E+09 7.17531E+08
 -1       773 6.65281E+09 1.47577E+09 1.14292E+08 2.77535E+09 7.51127E+08 9.70608E+08
 -1       774 1.48024E+09 6.22231E+08 7.31938E+07 3.17274E+09 3.04980E+08 1.11051E+09
 -1       775-4.07105E+09-2.89595E+08 2.97602E+07 3.21258E+09-1.71857E+08 1.12072E+09
 -1       776-9.37368E+09-1.14242E+09-8.79153E+06 2.89424E+09-6.18805E+08 1.00094E+09
 -1       777-1.38384E+10-1.82548E+09-3.55457E+07 2.26223E+09-9.78695E+08 7.67170E+08
 -1       778-1.69885E+10-2.24762E+09-4.45385E+07 1.40061E+09-1.20461E+09 4.49565E+08
 -1       779-1.85210E+10-2.34755E+09-3.13632E+07 4.22773E+08-1.26520E+09 8.81385E+07
 -1       780-1.83474E+10-2.10096E+09 6.15996E+06-5.40956E+08-1.14865E+09-2.72730E+08
 -1       781-1.66134E+10-1.52983E+09 6.37223E+07-1.35430E+09-8.65221E+08-5.88794E+08
 -1       782-1.36726E+10-7.09907E+08 1.37281E+08-1.88588E+09-4.55354E+08-8.03525E+08
 -1       783-1.00601E+10 1.87282E+08 1.86050E+08-2.03933E+09 1.87002E+07-8.64948E+08
 -1       784-6.28181E+09 1.12462E+09 2.99854E+08-1.87491E+09 4.84871E+08-6.70215E+08
 -1       785-2.37379E+09 2.63234E+09 6.59744E+08-1.66843E+09 1.02013E+09-1.00282E+08
 -1       786 5.32392E+09-1.75691E+09-1.06404E+09 2.30694E+09 5.50900E+08 5.00588E+09
 -1       787-1.59965E+09 4.79942E+08 3.49593E+08 9.97110E+08-2.96832E+08 1.83799E+09
 -1       788-6.74779E+09 3.40236E+09 1.25784E+09 9.86165E+08-1.07616E+09 9.38561E+08
 -1       789-1.02582E+10 4.70793E+09 1.85758E+09 9.18946E+08-1.50901E+09 4.91821E+08
 -1       790-1.21728E+10 5.00368E+09 1.98508E+09 5.04054E+08-1.60769E+09 9.79986E+07
 -1       791-1.21463E+10 4.67890E+09 1.85222E+09-2.53313E+07-1.50327E+09-2.73688E+08
 -1       792-1.02050E+10 3.86524E+09 1.52695E+09-5.07865E+08-1.24269E+09-6.37866E+08
 -1       793-6.64377E+09 2.64835E+09 1.04931E+09-8.71023E+08-8.50151E+08-9.27329E+08
 -1       794-1.97500E+09 1.14708E+09 4.64557E+08-1.08130E+09-3.64656E+08-1.09534E+09
 -1       795 3.15981E+09-4.70121E+08-1.63610E+08-1.12294E+09 1.58839E+08-1.11933E+09
 -1       796 8.07137E+09-2.01159E+09-7.62097E+08-9.96044E+08 6.57909E+08-9.97617E+08
 -1       797 1.21045E+10-3.29262E+09-1.26006E+09-7.18661E+08 1.07246E+09-7.46473E+08
 -1       798 1.47161E+10-4.16055E+09-1.59884E+09-3.26258E+08 1.35285E+09-3.97417E+08
 -1       799 1.55398E+10-4.51376E+09-1.73946E+09 1.32208E+08 1.46600E+09 6.40786E+06
 -1       800 1.44298E+10-4.31406E+09-1.66735E+09 6.00328E+08 1.39945E+09 4.15343E+08
 -1       801 1.14777E+10-3.59134E+09-1.39416E+09 1.02127E+09 1.16286E+09 7.79263E+08
 -1       802 6.99970E+09-2.44009E+09-9.56400E+08 1.34482E+09 7.86899E+08 1.05375E+09
 -1       803 1.49624E+09-1.00792E+09-4.11051E+08 1.53361E+09 3.19460E+08 1.20559E+09
 -1       804-4.41099E+09 5.22456E+08 1.71394E+08 1.56777E+09-1.80134E+08 1.21687E+09
 -1       805-1.00573E+10 1.95551E+09 7.15486E+08 1.44750E+09-6.48417E+08 1.08728E+09
 -1       806-1.48189E+10 3.10667E+09 1.14994E+09 1.19325E+09-1.02550E+09 8.34160E+08
 -1       807-1.81919E+10 3.82432E+09 1.41605E+09 8.43667E+08-1.26221E+09 4.90211E+08
 -1       808-1.98566E+10 4.00709E+09 1.47434E+09 4.51225E+08-1.32572E+09 9.88967E+07
 -1       809-1.97189E+10 3.61620E+09 1.30988E+09 7.46476E+07-1.20363E+09-2.91488E+08
 -1       810-1.79208E+10 2.68691E+09 9.36539E+08-2.33087E+08-9.06735E+08-6.32635E+08
 -1       811-1.48203E+10 1.34575E+09 4.09688E+08-4.38639E+08-4.77082E+08-8.64764E+08
 -1       812-1.09718E+10-2.05477E+08-2.05279E+08-5.19172E+08 1.83575E+07-9.32580E+08
 -1       813-7.09249E+09-1.66684E+09-7.80786E+08-3.72186E+08 5.07871E+08-7.36827E+08
 -1       814-4.29736E+09-3.53725E+09-1.76821E+09 2.26870E+08 1.06933E+09-1.49734E+08
 -1       815-5.32392E+09 1.75691E+09 1.06404E+09 2.30694E+09-5.50900E+08 5.00588E+09
 -1       816 1.59965E+09-4.79942E+08-3.49593E+08 9.97110E+08 2.96832E+08 1.83799E+09
 -1       817 6.74779E+09-3.40236E+09-1.25784E+09 9.86165E+08 1.07616E+09 9.38561E+08
 -1       818 1.02582E+10-4.70793E+09-1.85758E+09 9.18946E+08 1.50901E+09 4.91821E+08
 -1       819 1.21728E+10-5.00368E+09-1.98508E+09 5.04054E+08 1.60769E+09 9.79986E+07
 -1       820 1.21463E+10-4.67890E+09-1.85222E+09-2.53313E+07 1.50327E+09-2.73688E+08
 -1       821 1.02050E+10-3.86524E+09-1.52695E+09-5.07865E+08 1.24269E+09-6.37866E+08
 -1       822 6.64377E+09-2.64835E+09-1.04931E+09-8.71023E+08 8.50151E+08-9.27329E+08
 -1       823 1.97500E+09-1.14708E+09-4.64557E+08-1.08130E+09 3.64656E+08-1.09534E+09
 -1       824-3.15981E+09 4.70121E+08 1.63610E+08-1.12294E+09-1.58839E+08-1.11933E+09
 -1       825-8.07137E+09 2.01159E+09 7.62097E+08-9.96044E+08-6.57909E+08-9.97617E+08
 -1       826-1.21045E+10 3.29262E+09 1.26006E+09-7.18661E+08-1.07246E+09-7.46473E+08
 -1       827-1.47161E+10 4.16055E+09 1.59884E+09-3.26258E+08-1.35285E+09-3.97417E+08
 -1       828-1.55398E+10 4.51376E+09 1.73946E+09 1.32208E+08-1.46600E+09 6.40786E+06
 -1       829-1.44298E+10 4.31406E+09 1.66735E+09 6.00328E+08-1.39945E+09 4.15343E+08
 -1       830-1.14777E+10 3.59134E+09 1.39416E+09 1.02127E+09-1.16286E+09 7.79263E+08
 -1       831-6.99970E+09 2.44009E+09 9.56400E+08 1.34482E+09-7.86899E+08 1.05375E+09
 -1       832-1.49624E+09 1.00792E+09 4.11051E+08 1.53361E+09-3.19460E+08 1.20559E+09
 -1       833 4.41099E+09-5.22456E+08-1.71394E+08 1.56777E+09 1.80134E+08 1.21687E+09
 -1       834 1.00573E+10-1.95551E+09-7.15486E+08 1.44750E+09 6.48417E+08 1.08728E+09
 -1       835 1.48189E+10-3.10667E+09-1.14994E+09 1.19325E+09 1.02550E+09 8.34160E+08
 -1       836 1.81919E+10-3.82432E+09-1.41605E+09 8.43667E+08 1.26221E+09 4.90211E+08
 -1       837 1.98566E+10-4.00709E+09-1.47434E+09 4.51225E+08 1.32572E+09 9.88967E+07
 -1       838 1.97189E+10-3.61620E+09-1.30988E+09 7.46476E+07 1.20363E+09-2.91488E+08
 -1       839 1.79208E+10-2.68691E+09-9.36539E+08-2.33087E+08 9.06735E+08-6.32635E+08
 -1       840 1.48203E+10-1.34575E+09-4.09688E+08-4.38639E+08 4.77082E+08-8.64764E+08
 -1       841 1.09718E+10 2.05477E+08 2.05279E+08-5.19172E+08-1.83575E+07-9.32580E+08
 -1       842 7.09249E+09 1.66684E+09 7.80786E+08-3.72186E+08-5.07871E+08-7.36827E+08
 -1       843 4.29736E+09 3.53725E+09 1.76821E+09 2.26870E+08-1.06933E+09-1.49734E+08
 -1       844-7.32655E+07 1.66481E+09 2.61160E+09 2.75496E+09-5.69596E+08 4.98809E+09
 -1       845 4.43228E+08-2.98735E+07-5.61498E+08 3.89998E+09 2.88768E+08 1.72387E+09
 -1       846 5.86686E+09 1.96134E+09 8.69877E+07 3.01995E+09 1.02812E+09 8.64902E+08
 -1       847 9.70936E+09 2.90698E+09 2.62248E+08 1.71914E+09 1.43976E+09 4.43159E+08
 -1       848 1.16601E+10 3.06537E+09 2.81815E+08 5.24303E+08 1.53431E+09 8.32058E+07
 -1       849 1.16313E+10 2.84760E+09 2.51226E+08-5.74006E+08 1.43497E+09-2.55334E+08
 -1       850 9.75094E+09 2.34580E+09 2.00148E+08-1.54256E+09 1.18624E+09-5.89979E+08
 -1       851 6.35624E+09 1.60958E+09 1.41806E+08-2.28943E+09 8.11546E+08-8.56817E+08
 -1       852 1.93062E+09 7.05268E+08 7.78326E+07-2.72394E+09 3.48123E+08-1.01179E+09
 -1       853-2.92865E+09-2.67990E+08 1.15241E+07-2.79180E+09-1.51563E+08-1.03384E+09
 -1       854-7.57568E+09-1.19573E+09-5.13920E+07-2.48617E+09-6.27932E+08-9.21467E+08
 -1       855-1.13938E+10-1.96726E+09-1.04676E+08-1.84701E+09-1.02363E+09-6.89733E+08
 -1       856-1.38708E+10-2.49110E+09-1.43064E+08-9.54749E+08-1.29127E+09-3.67726E+08
 -1       857-1.46616E+10-2.70645E+09-1.63147E+08 7.99143E+07-1.39928E+09 4.76066E+06
 -1       858-1.36290E+10-2.59053E+09-1.63801E+08 1.12964E+09-1.33577E+09 3.81924E+08
 -1       859-1.08599E+10-2.16139E+09-1.46320E+08 2.06601E+09-1.10997E+09 7.17531E+08
 -1       860-6.65281E+09-1.47577E+09-1.14292E+08 2.77535E+09-7.51127E+08 9.70608E+08
 -1       861-1.48024E+09-6.22231E+08-7.31938E+07 3.17274E+09-3.04980E+08 1.11051E+09
 -1       862 4.07105E+09 2.89595E+08-2.97602E+07 3.21258E+09 1.71857E+08 1.12072E+09
 -1       863 9.37368E+09 1.14242E+09 8.79153E+06 2.89424E+09 6.18805E+08 1.00094E+09
 -1       864 1.38384E+10 1.82548E+09 3.55457E+07 2.26223E+09 9.78695E+08 7.67170E+08
 -1       865 1.69885E+10 2.24762E+09 4.45385E+07 1.40061E+09 1.20461E+09 4.49565E+08
 -1       866 1.85210E+10 2.34755E+09 3.13632E+07 4.22773E+08 1.26520E+09 8.81385E+07
 -1       867 1.83474E+10 2.10096E+09-6.15996E+06-5.40956E+08 1.14865E+09-2.72730E+08
 -1       868 1.66134E+10 1.52983E+09-6.37223E+07-1.35430E+09 8.65221E+08-5.88794E+08
 -1       869 1.36726E+10 7.09907E+08-1.37281E+08-1.88588E+09 4.55354E+08-8.03525E+08
 -1       870 1.00601E+10-1.87282E+08-1.86050E+08-2.03933E+09-1.87002E+07-8.64948E+08
 -1       871 6.28181E+09-1.12462E+09-2.99854E+08-1.87491E+09-4.84871E+08-6.70215E+08
 -1       872 2.37379E+09-2.63234E+09-6.59744E+08-1.66843E+09-1.02013E+09-1.00282E+08
 -1       873-4.29736E+09-3.53725E+09-1.76821E+09-2.26870E+08-1.06933E+09-1.49734E+08
 -1       874-7.09249E+09-1.66684E+09-7.80786E+08 3.72186E+08-5.07871E+08-7.36827E+08
 -1       875-1.09718E+10-2.05477E+08-2.05279E+08 5.19172E+08-1.83575E+07-9.32580E+08
 -1       876-1.48203E+10 1.34575E+09 4.09688E+08 4.38639E+08 4.77082E+08-8.64764E+08
 -1       877-1.79208E+10 2.68691E+09 9.36539E+08 2.33087E+08 9.06735E+08-6.32635E+08
 -1       878-1.97189E+10 3.61620E+09 1.30988E+09-7.46476E+07 1.20363E+09-2.91488E+08
 -1       879-1.98566E+10 4.00709E+09 1.47434E+09-4.51225E+08 1.32572E+09 9.88967E+07
 -1       880-1.81919E+10 3.82432E+09 1.41605E+09-8.43667E+08 1.26221E+09 4.90211E+08
 -1       881-1.48189E+10 3.10667E+09 1.14994E+09-1.19325E+09 1.02550E+09 8.34160E+08
 -1       882-1.00573E+10 1.95551E+09 7.15486E+08-1.44750E+09 6.48417E+08 1.08728E+09
 -1       883-4.41099E+09 5.22456E+08 1.71394E+08-1.56777E+09 1.80134E+08 1.21687E+09
 -1       884 1.49624E+09-1.00792E+09-4.11051E+08-1.53361E+09-3.19460E+08 1.20559E+09
 -1       885 6.99970E+09-2.44009E+09-9.56400E+08-1.34482E+09-7.86899E+08 1.05375E+09
 -1       886 1.14777E+10-3.59134E+09-1.39416E+09-1.02127E+09-1.16286E+09 7.79263E+08
 -1       887 1.44298E+10-4.31406E+09-1.66735E+09-6.00328E+08-1.39945E+09 4.15343E+08
 -1       888 1.55398E+10-4.51376E+09-1.73946E+09-1.32208E+08-1.46600E+09 6.40786E+06
 -1       889 1.47161E+10-4.16055E+09-1.59884E+09 3.26258E+08-1.35285E+09-3.97417E+08
 -1       890 1.21045E+10-3.29262E+09-1.26006E+09 7.18661E+08-1.07246E+09-7.46473E+08
 -1       891 8.07137E+09-2.01159E+09-7.62097E+08 9.96044E+08-6.57909E+08-9.97617E+08
 -1       892 3.15981E+09-4.70121E+08-1.63610E+08 1.12294E+09-1.58839E+08-1.11933E+09
 -1       893-1.97500E+09 1.14708E+09 4.64557E+08 1.08130E+09 3.64656E+08-1.09534E+09
 -1       894-6.64377E+09 2.64835E+09 1.04931E+09 8.71023E+08 8.50151E+08-9.27329E+08
 -1       895-1.02050E+10 3.86524E+09 1.52695E+09 5.07865E+08 1.24269E+09-6.37866E+08
 -1       896-1.21463E+10 4.67890E+09 1.85222E+09 2.53313E+07 1.50327E+09-2.73688E+08
 -1       897-1.21728E+10 5.00368E+09 1.98508E+09-5.04054E+08 1.60769E+09 9.79986E+07
 -1       898-1.02582E+10 4.70793E+09 1.85758E+09-9.18946E+08 1.50901E+09 4.91821E+08
 -1       899-6.74779E+09 3.40236E+09 1.25784E+09-9.86165E+08 1.07616E+09 9.38561E+08
 -1       900-1.59965E+09 4.79942E+08 3.49593E+08-9.97110E+08 2.96832E+08 1.83799E+09
 -1       901 5.32392E+09-1.75691E+09-1.06404E+09-2.30694E+09-5.50900E+08 5.00588E+09
 -1       902 7.32655E+07-1.66481E+09-2.61160E+09-2.75496E+09-5.69596E+08 4.98809E+09
 -1       903-4.43228E+08 2.98735E+07 5.61498E+08-3.89998E+09 2.88768E+08 1.72387E+09
 -1       904-5.86686E+09-1.96134E+09-8.69877E+07-3.01995E+09 1.02812E+09 8.64902E+08
 -1       905-9.70936E+09-2.90698E+09-2.62248E+08-1.71914E+09 1.43976E+09 4.43159E+08
 -1       906-1.16601E+10-3.06537E+09-2.81815E+08-5.24303E+08 1.53431E+09 8.32058E+07
 -1       907-1.16313E+10-2.84760E+09-2.51226E+08 5.74006E+08 1.43497E+09-2.55334E+08
 -1       908-9.75094E+09-2.34580E+09-2.00148E+08 1.54256E+09 1.18624E+09-5.89979E+08
 -1       909-6.35624E+09-1.60958E+09-1.41806E+08 2.28943E+09 8.11546E+08-8.56817E+08
 -1       910-1.93062E+09-7.05268E+08-7.78326E+07 2.72394E+09 3.48123E+08-1.01179E+09
 -1       911 2.92865E+09 2.67990E+08-1.15241E+07 2.79180E+09-1.51563E+08-1.03384E+09
 -1       912 7.57568E+09 1.19573E+09 5.13920E+07 2.48617E+09-6.27932E+08-9.21467E+08
 -1       913 1.13938E+10 1.96726E+09 1.04676E+08 1.84701E+09-1.02363E+09-6.89733E+08
 -1       914 1.38708E+10 2.49110E+09 1.43064E+08 9.54749E+08-1.29127E+09-3.67726E+08
 -1       915 1.46616E+10 2.70645E+09 1.63147E+08-7.99143E+07-1.39928E+09 4.76066E+06
 -1       916 1.36290E+10 2.59053E+09 1.63801E+08-1.12964E+09-1.33577E+09 3.81924E+08
 -1       917 1.08599E+10 2.16139E+09 1.46320E+08-2.06601E+09-1.10997E+09 7.17531E+08
 -1       918 6.65281E+09 1.47577E+09 1.14292E+08-2.77535E+09-7.51127E+08 9.70608E+08
 -1       919 1.48024E+09 6.22231E+08 7.31938E+07-3.17274E+09-3.04980E+08 1.11051E+09
 -1       920-4.07105E+09-2.89595E+08 2.97602E+07-3.21258E+09 1.71857E+08 1.12072E+09
 -1       921-9.37368E+09-1.14242E+09-8.79153E+06-2.89424E+09 6.18805E+08 1.00094E+09
 -1       922-1.38384E+10-1.82548E+09-3.55457E+07-2.26223E+09 9.78695E+08 7.67170E+08
 -1       923-1.69885E+10-2.24762E+09-4.45385E+07-1.40061E+09 1.20461E+09 4.49565E+08
 -1       924-1.85210E+10-2.34755E+09-3.13632E+07-4.22773E+08 1.26520E+09 8.81385E+07
 -1       925-1.83474E+10-2.10096E+09 6.15996E+06 5.40956E+08 1.14865E+09-2.72730E+08
 -1       926-1.66134E+10-1.52983E+09 6.37223E+07 1.35430E+09 8.65221E+08-5.88794E+08
 -1       927-1.36726E+10-7.09907E+08 1.37281E+08 1.88588E+09 4.55354E+08-8.03525E+08
 -1       928-1.00601E+10 1.87282E+08 1.86050E+08 2.03933E+09-1.87002E+07-8.64948E+08
 -1       929-6.28181E+09 1.12462E+09 2.99854E+08 1.87491E+09-4.84871E+08-6.70215E+08
 -1       930-2.37379E+09 2.63234E+09 6.59744E+08 1.66843E+09-1.02013E+09-1.00282E+08
 -3
    1PSTEP                        79           1           1          
    1PGM                1.000000E+00                                  
    1PGK                3.462256E+07                                  
    1PHID                         -1                                  
    1PSUBC                         0                                  
    1PMODE                        20                                  
  100CL  120 936.4826560         930                     2   20MODAL      1
 -4  FORC        4    1
 -5  F1          1    2    1    0
 -5  F2          1    2    2    0
 -5  F3          1    2    3    0
 -5  ALL         1    2    0    0    1ALL
 -1         1-6.80737E+06 4.24748E+06 4.84016E+05
 -1         2-6.80737E+06-4.24748E+06 4.84016E+05
 -1         3 2.29408E+05-3.00117E+01 4.94770E+05
 -1         4 2.29408E+05 3.00117E+01 4.94770E+05
 -1         5 6.80737E+06-4.24748E+06 4.84016E+05
 -1         6 6.80737E+06 4.24748E+06 4.84016E+05
 -1         7-2.29408E+05 3.00117E+01 4.94770E+05
 -1         8-2.29408E+05-3.00117E+01 4.94770E+05
 -1         9 1.46004E+07 6.07787E+05 5.68759E+06
 -1        10 1.21931E+05-9.01652E+02 2.33107E+05
 -1        11 8.45044E+06 1.09326E+06 2.24576E+06
 -1        12-6.13010E+06 5.87846E+05-1.67105E+06
 -1        13 1.00380E+05-1.52669E+03 2.16575E+05
 -1        14 9.69716E+04 5.56339E+02 2.16554E+05
 -1        15-1.46004E+07-6.07787E+05 5.68759E+06
 -1        16-1.21931E+05 9.01652E+02 2.33107E+05
 -1        17 6.13010E+06-5.87846E+05-1.67105E+06
 -1        18-8.45044E+06-1.09326E+06 2.24576E+06
 -1        19-9.69716E+04-5.56339E+02 2.16554E+05
 -1        20-1.00380E+05 1.52669E+03 2.16575E+05
 -1        21-6.13010E+06-5.87846E+05-1.67105E+06
 -1        22 8.45044E+06-1.09326E+06 2.24576E+06
 -1        23 1.00380E+05 1.52669E+03 2.16575E+05
 -1        24 9.69716E+04-5.56339E+02 2.16554E+05
 -1        25 1.46004E+07-6.07787E+05 5.68759E+06
 -1        26 1.21931E+05 9.01652E+02 2.33107E+05
 -1        27-1.46004E+07 6.07787E+05 5.68759E+06
 -1        28-8.45044E+06 1.09326E+06 2.24576E+06
 -1        29 6.13010E+06 5.87846E+05-1.67105E+06
 -1        30-1.21931E+05-9.01652E+02 2.33107E+05
 -1        31-1.00380E+05-1.52669E+03 2.16575E+05
 -1        32-9.69716E+04 5.56339E+02 2.16554E+05
 -1        33-2.43510E+04 7.07554E+02-2.51560E+05
 -1        34-3.10286E+04-1.50903E+02-5.44484E+05
 -1        35-1.29973E+04-9.44468E+02-8.03594E+05
 -1        36 2.54078E+04-1.42123E+03-9.78473E+05
 -1        37 7.66946E+04-1.66071E+03-1.04430E+06
 -1        38 1.32220E+05-1.64382E+03-9.91596E+05
 -1        39 1.83141E+05-1.37777E+03-8.25730E+05
 -1        40 2.21561E+05-9.04937E+02-5.65683E+05
 -1        41 2.41465E+05-2.91293E+02-2.41960E+05
 -1        42 2.39397E+05 3.81203E+02 1.06945E+05
 -1        43 2.14840E+05 1.02404E+03 4.39272E+05
 -1        44 1.70255E+05 1.55285E+03 7.15174E+05
 -1        45 1.10763E+05 1.89766E+03 9.01675E+05
 -1        46 4.35021E+04 2.01135E+03 9.76753E+05
 -1        47-2.32534E+04 1.87531E+03 9.32088E+05
 -1        48-8.11137E+04 1.50159E+03 7.74104E+05
 -1        49-1.22599E+05 9.31276E+02 5.23213E+05
 -1        50-1.42051E+05 2.29286E+02 2.11330E+05
 -1        51-1.36308E+05-5.23781E+02-1.22024E+05
 -1        52-1.05075E+05-1.24174E+03-4.34544E+05
 -1        53-5.09284E+04-1.84362E+03-6.86313E+05
 -1        54 2.10422E+04-2.26384E+03-8.44663E+05
 -1        55 1.03905E+05-2.46056E+03-8.88144E+05
 -1        56 1.89803E+05-2.42121E+03-8.09120E+05
 -1        57 2.70994E+05-2.16441E+03-6.14686E+05
 -1        58 3.40881E+05-1.73681E+03-3.25739E+05
 -1        59 3.94899E+05-1.20918E+03 2.58672E+04
 -1        60 4.31205E+05-6.95363E+02 4.02046E+05
 -1        61 4.51421E+05-2.84067E+02 7.65524E+05
 -1        62-2.43510E+04-7.07554E+02-2.51560E+05
 -1        63-3.10286E+04 1.50903E+02-5.44484E+05
 -1        64-1.29973E+04 9.44468E+02-8.03594E+05
 -1        65 2.54078E+04 1.42123E+03-9.78473E+05
 -1        66 7.66946E+04 1.66071E+03-1.04430E+06
 -1        67 1.32220E+05 1.64382E+03-9.91596E+05
 -1        68 1.83141E+05 1.37777E+03-8.25730E+05
 -1        69 2.21561E+05 9.04937E+02-5.65683E+05
 -1        70 2.41465E+05 2.91293E+02-2.41960E+05
 -1        71 2.39397E+05-3.81203E+02 1.06945E+05
 -1        72 2.14840E+05-1.02404E+03 4.39272E+05
 -1        73 1.70255E+05-1.55285E+03 7.15174E+05
 -1        74 1.10763E+05-1.89766E+03 9.01675E+05
 -1        75 4.35021E+04-2.01135E+03 9.76753E+05
 -1        76-2.32534E+04-1.87531E+03 9.32088E+05
 -1        77-8.11137E+04-1.50159E+03 7.74104E+05
 -1        78-1.22599E+05-9.31276E+02 5.23213E+05
 -1        79-1.42051E+05-2.29286E+02 2.11330E+05
 -1        80-1.36308E+05 5.23781E+02-1.22024E+05
 -1        81-1.05075E+05 1.24174E+03-4.34544E+05
 -1        82-5.09284E+04 1.84362E+03-6.86313E+05
 -1        83 2.10422E+04 2.26384E+03-8.44663E+05
 -1        84 1.03905E+05 2.46056E+03-8.88144E+05
 -1        85 1.89803E+05 2.42121E+03-8.09120E+05
 -1        86 2.70994E+05 2.16441E+03-6.14686E+05
 -1        87 3.40881E+05 1.73681E+03-3.25739E+05
 -1        88 3.94899E+05 1.20918E+03 2.58672E+04
 -1        89 4.31205E+05 6.95363E+02 4.02046E+05
 -1        90 4.51421E+05 2.84067E+02 7.65524E+05
 -1        91 1.23330E+06 2.61795E+06 7.35165E+06
 -1        92 8.17194E-05 6.25134E-06 7.98973E+06
 -1        93-1.23330E+06-2.61795E+06 7.35165E+06
 -1        94-1.23330E+06 2.61795E+06 7.35165E+06
 -1        95-7.93469E-05-2.98182E-06 7.98973E+06
 -1        96 1.23330E+06-2.61795E+06 7.35165E+06
 -1        97 2.43510E+04 7.07554E+02-2.51560E+05
 -1        98 3.10286E+04-1.50903E+02-5.44484E+05
 -1        99 1.29973E+04-9.44468E+02-8.03594E+05
 -1       100-2.54078E+04-1.42123E+03-9.78473E+05
 -1       101-7.66946E+04-1.66071E+03-1.04430E+06
 -1       102-1.32220E+05-1.64382E+03-9.91596E+05
 -1       103-1.83141E+05-1.37777E+03-8.25730E+05
 -1       104-2.21561E+05-9.04937E+02-5.65683E+05
 -1       105-2.41465E+05-2.91293E+02-2.41960E+05
 -1       106-2.39397E+05 3.81203E+02 1.06945E+05
 -1       107-2.14840E+05 1.02404E+03 4.39272E+05
 -1       108-1.70255E+05 1.55285E+03 7.15174E+05
 -1       109-1.10763E+05 1.89766E+03 9.01675E+05
 -1       110-4.35021E+04 2.01135E+03 9.76753E+05
 -1       111 2.32534E+04 1.87531E+03 9.32088E+05
 -1       112 8.11137E+04 1.50159E+03 7.74104E+05
 -1       113 1.22599E+05 9.31276E+02 5.23213E+05
 -1       114 1.42051E+05 2.29286E+02 2.11330E+05
 -1       115 1.36308E+05-5.23781E+02-1.22024E+05
 -1       116 1.05075E+05-1.24174E+03-4.34544E+05
 -1       117 5.09284E+04-1.84362E+03-6.86313E+05
 -1       118-2.10422E+04-2.26384E+03-8.44663E+05
 -1       119-1.03905E+05-2.46056E+03-8.88144E+05
 -1       120-1.89803E+05-2.42121E+03-8.09120E+05
 -1       121-2.70994E+05-2.16441E+03-6.14686E+05
 -1       122-3.40881E+05-1.73681E+03-3.25739E+05
 -1       123-3.94899E+05-1.20918E+03 2.58672E+04
 -1       124-4.31205E+05-6.95363E+02 4.02046E+05
 -1       125-4.51421E+05-2.84067E+02 7.65524E+05
 -1       126 1.31836E+05-4.02307E+01 5.15812E+05
 -1       127 6.61981E-07-5.13451E-06 5.10566E+05
 -1       128-1.31836E+05 4.02307E+01 5.15812E+05
 -1       129 2.43510E+04-7.07554E+02-2.51560E+05
 -1       130 3.10286E+04 1.50903E+02-5.44484E+05
 -1       131 1.29973E+04 9.44468E+02-8.03594E+05
 -1       132-2.54078E+04 1.42123E+03-9.78473E+05
 -1       133-7.66946E+04 1.66071E+03-1.04430E+06
 -1       134-1.32220E+05 1.64382E+03-9.91596E+05
 -1       135-1.83141E+05 1.37777E+03-8.25730E+05
 -1       136-2.21561E+05 9.04937E+02-5.65683E+05
 -1       137-2.41465E+05 2.91293E+02-2.41960E+05
 -1       138-2.39397E+05-3.81203E+02 1.06945E+05
 -1       139-2.14840E+05-1.02404E+03 4.39272E+05
 -1       140-1.70255E+05-1.55285E+03 7.15174E+05
 -1       141-1.10763E+05-1.89766E+03 9.01675E+05
 -1       142-4.35021E+04-2.01135E+03 9.76753E+05
 -1       143 2.32534E+04-1.87531E+03 9.32088E+05
 -1       144 8.11137E+04-1.50159E+03 7.74104E+05
 -1       145 1.22599E+05-9.31276E+02 5.23213E+05
 -1       146 1.42051E+05-2.29286E+02 2.11330E+05
 -1       147 1.36308E+05 5.23781E+02-1.22024E+05
 -1       148 1.05075E+05 1.24174E+03-4.34544E+05
 -1       149 5.09284E+04 1.84362E+03-6.86313E+05
 -1       150-2.10422E+04 2.26384E+03-8.44663E+05
 -1       151-1.03905E+05 2.46056E+03-8.88144E+05
 -1       152-1.89803E+05 2.42121E+03-8.09120E+05
 -1       153-2.70994E+05 2.16441E+03-6.14686E+05
 -1       154-3.40881E+05 1.73681E+03-3.25739E+05
 -1       155-3.94899E+05 1.20918E+03 2.58672E+04
 -1       156-4.31205E+05 6.95363E+02 4.02046E+05
 -1       157-4.51421E+05 2.84067E+02 7.65524E+05
 -1       158-1.31836E+05-4.02307E+01 5.15812E+05
 -1       159-8.53906E-08 7.71028E-07 5.10566E+05
 -1       160 1.31836E+05 4.02307E+01 5.15812E+05
 -1       161-2.00960E+04-1.01921E+03-1.14926E+05
 -1       162-2.45767E+04 4.16272E+02-2.53630E+05
 -1       163-1.33447E+04 2.01372E+03-3.76518E+05
 -1       164 9.32474E+03 2.93010E+03-4.58855E+05
 -1       165 3.90063E+04 3.27079E+03-4.89589E+05
 -1       166 7.08605E+04 3.14599E+03-4.64728E+05
 -1       167 9.99801E+04 2.61777E+03-3.86945E+05
 -1       168 1.21970E+05 1.75582E+03-2.65121E+05
 -1       169 1.33469E+05 6.63693E+02-1.13508E+05
 -1       170 1.32539E+05-5.23639E+02 4.98864E+04
 -1       171 1.18897E+05-1.65711E+03 2.05516E+05
 -1       172 9.39310E+04-2.59389E+03 3.34729E+05
 -1       173 6.05243E+04-3.21564E+03 4.22086E+05
 -1       174 2.26939E+04-3.44307E+03 4.57282E+05
 -1       175-1.49065E+04-3.24552E+03 4.36421E+05
 -1       176-4.75594E+04-2.64458E+03 3.62513E+05
 -1       177-7.10615E+04-1.71135E+03 2.45116E+05
 -1       178-8.22343E+04-5.57579E+02 9.91703E+04
 -1       179-7.93077E+04 6.78128E+02-5.68187E+04
 -1       180-6.21247E+04 1.84753E+03-2.03046E+05
 -1       181-3.21454E+04 2.81107E+03-3.20821E+05
 -1       182 7.75260E+03 3.45496E+03-3.94849E+05
 -1       183 5.36529E+04 3.70508E+03-4.15081E+05
 -1       184 1.01112E+05 3.53646E+03-3.77937E+05
 -1       185 1.45744E+05 2.97913E+03-2.86738E+05
 -1       186 1.83803E+05 2.12065E+03-1.51298E+05
 -1       187 2.12696E+05 1.10059E+03 1.34005E+04
 -1       188 2.31415E+05 8.55072E+01 1.89510E+05
 -1       189 2.40958E+05-9.14662E+02 3.60106E+05
 -1       190 2.00602E+07 9.50725E+05 6.20531E+06
 -1       191-1.54287E+07 8.28998E+05-3.79890E+06
 -1       192 2.01706E+05-2.72227E+03 4.08916E+05
 -1       193-1.03523E+04-2.54519E+03-8.63339E+04
 -1       194-1.27380E+04 9.82510E+02-2.18342E+05
 -1       195-4.73616E+03 5.27730E+03-3.43449E+05
 -1       196 1.19629E+04 7.87843E+03-4.24547E+05
 -1       197 3.41270E+04 8.96054E+03-4.53272E+05
 -1       198 5.80453E+04 8.71430E+03-4.29709E+05
 -1       199 7.99644E+04 7.27037E+03-3.57525E+05
 -1       200 9.64963E+04 4.83380E+03-2.44911E+05
 -1       201 1.05039E+05 1.71539E+03-1.04857E+05
 -1       202 1.04090E+05-1.68671E+03 4.60833E+04
 -1       203 9.34234E+04-4.93646E+03 1.89863E+05
 -1       204 7.41027E+04-7.61688E+03 3.09242E+05
 -1       205 4.83431E+04-9.38234E+03 3.89953E+05
 -1       206 1.92340E+04-1.00008E+04 4.22472E+05
 -1       207-9.64415E+03-9.38156E+03 4.03202E+05
 -1       208-3.46599E+04-7.58618E+03 3.34923E+05
 -1       209-5.25755E+04-4.82017E+03 2.26466E+05
 -1       210-6.09404E+04-1.40734E+03 9.16337E+04
 -1       211-5.83854E+04 2.25056E+03-5.24772E+04
 -1       212-4.47804E+04 5.72386E+03-1.87570E+05
 -1       213-2.12374E+04 8.60841E+03-2.96378E+05
 -1       214 1.00441E+04 1.05757E+04-3.64766E+05
 -1       215 4.60690E+04 1.14134E+04-3.83434E+05
 -1       216 8.34404E+04 1.10531E+04-3.49049E+05
 -1       217 1.18807E+05 9.58475E+03-2.64714E+05
 -1       218 1.49309E+05 7.25579E+03-1.39770E+05
 -1       219 1.72989E+05 4.45738E+03 1.13399E+04
 -1       220 1.89085E+05 1.66628E+03 1.72215E+05
 -1       221 1.97972E+05-1.00635E+03 3.30606E+05
 -1       222-5.40415E+03-1.72904E+03-8.62558E+04
 -1       223-6.53408E+03 3.25143E+02-2.18381E+05
 -1       224 2.13294E+01 2.45955E+03-3.43606E+05
 -1       225 1.44442E+04 3.86261E+03-4.24799E+05
 -1       226 3.42307E+04 4.64895E+03-4.53573E+05
 -1       227 5.58544E+04 4.67356E+03-4.30009E+05
 -1       228 7.57371E+04 3.93103E+03-3.57777E+05
 -1       229 9.07126E+04 2.55107E+03-2.45075E+05
 -1       230 9.83749E+04 7.38675E+02-1.04907E+05
 -1       231 9.73400E+04-1.25551E+03 4.61602E+04
 -1       232 8.73964E+04-3.16306E+03 1.90061E+05
 -1       233 6.95209E+04-4.72866E+03 3.09539E+05
 -1       234 4.57517E+04-5.74037E+03 3.90314E+05
 -1       235 1.89338E+04-6.05518E+03 4.22854E+05
 -1       236-7.63430E+03-5.61606E+03 4.03556E+05
 -1       237-3.06060E+04-4.45851E+03 3.35205E+05
 -1       238-4.69961E+04-2.70557E+03 2.26638E+05
 -1       239-5.45435E+04-5.52140E+02 9.16713E+04
 -1       240-5.19819E+04 1.75966E+03-5.25843E+04
 -1       241-3.91852E+04 3.97095E+03-1.87815E+05
 -1       242-1.71699E+04 5.83879E+03-2.96740E+05
 -1       243 1.20473E+04 7.16698E+03-3.65210E+05
 -1       244 4.57183E+04 7.83157E+03-3.83919E+05
 -1       245 8.07295E+04 7.79737E+03-3.49529E+05
 -1       246 1.14019E+05 7.12226E+03-2.65150E+05
 -1       247 1.42992E+05 5.94303E+03-1.40130E+05
 -1       248 1.65870E+05 4.46262E+03 1.10739E+04
 -1       249 1.81858E+05 3.01716E+03 1.72048E+05
 -1       250 1.90995E+05 1.89245E+03 3.30527E+05
 -1       251 1.95420E+05 6.22862E+02 4.08860E+05
 -1       252-2.40958E+05 9.14662E+02 3.60106E+05
 -1       253-2.31415E+05-8.55072E+01 1.89510E+05
 -1       254-2.12696E+05-1.10059E+03 1.34005E+04
 -1       255-1.83803E+05-2.12065E+03-1.51298E+05
 -1       256-1.45744E+05-2.97913E+03-2.86738E+05
 -1       257-1.01112E+05-3.53646E+03-3.77937E+05
 -1       258-5.36529E+04-3.70508E+03-4.15081E+05
 -1       259-7.75260E+03-3.45496E+03-3.94849E+05
 -1       260 3.21454E+04-2.81107E+03-3.20821E+05
 -1       261 6.21247E+04-1.84753E+03-2.03046E+05
 -1       262 7.93077E+04-6.78128E+02-5.68187E+04
 -1       263 8.22343E+04 5.57579E+02 9.91703E+04
 -1       264 7.10615E+04 1.71135E+03 2.45116E+05
 -1       265 4.75594E+04 2.64458E+03 3.62513E+05
 -1       266 1.49065E+04 3.24552E+03 4.36421E+05
 -1       267-2.26939E+04 3.44307E+03 4.57282E+05
 -1       268-6.05243E+04 3.21564E+03 4.22086E+05
 -1       269-9.39310E+04 2.59389E+03 3.34729E+05
 -1       270-1.18897E+05 1.65711E+03 2.05516E+05
 -1       271-1.32539E+05 5.23639E+02 4.98864E+04
 -1       272-1.33469E+05-6.63693E+02-1.13508E+05
 -1       273-1.21970E+05-1.75582E+03-2.65121E+05
 -1       274-9.99801E+04-2.61777E+03-3.86945E+05
 -1       275-7.08605E+04-3.14599E+03-4.64728E+05
 -1       276-3.90063E+04-3.27079E+03-4.89589E+05
 -1       277-9.32474E+03-2.93010E+03-4.58855E+05
 -1       278 1.33447E+04-2.01372E+03-3.76518E+05
 -1       279 2.45767E+04-4.16272E+02-2.53630E+05
 -1       280 2.00960E+04 1.01921E+03-1.14926E+05
 -1       281 1.54287E+07-8.28998E+05-3.79890E+06
 -1       282-2.00602E+07-9.50725E+05 6.20531E+06
 -1       283 5.40415E+03 1.72904E+03-8.62558E+04
 -1       284 6.53408E+03-3.25143E+02-2.18381E+05
 -1       285-2.13294E+01-2.45955E+03-3.43606E+05
 -1       286-1.44442E+04-3.86261E+03-4.24799E+05
 -1       287-3.42307E+04-4.64895E+03-4.53573E+05
 -1       288-5.58544E+04-4.67356E+03-4.30009E+05
 -1       289-7.57371E+04-3.93103E+03-3.57777E+05
 -1       290-9.07126E+04-2.55107E+03-2.45075E+05
 -1       291-9.83749E+04-7.38675E+02-1.04907E+05
 -1       292-9.73400E+04 1.25551E+03 4.61602E+04
 -1       293-8.73964E+04 3.16306E+03 1.90061E+05
 -1       294-6.95209E+04 4.72866E+03 3.09539E+05
 -1       295-4.57517E+04 5.74037E+03 3.90314E+05
 -1       296-1.89338E+04 6.05518E+03 4.22854E+05
 -1       297 7.63430E+03 5.61606E+03 4.03556E+05
 -1       298 3.06060E+04 4.45851E+03 3.35205E+05
 -1       299 4.69961E+04 2.70557E+03 2.26638E+05
 -1       300 5.45435E+04 5.52140E+02 9.16713E+04
 -1       301 5.19819E+04-1.75966E+03-5.25843E+04
 -1       302 3.91852E+04-3.97095E+03-1.87815E+05
 -1       303 1.71699E+04-5.83879E+03-2.96740E+05
 -1       304-1.20473E+04-7.16698E+03-3.65210E+05
 -1       305-4.57183E+04-7.83157E+03-3.83919E+05
 -1       306-8.07295E+04-7.79737E+03-3.49529E+05
 -1       307-1.14019E+05-7.12226E+03-2.65150E+05
 -1       308-1.42992E+05-5.94303E+03-1.40130E+05
 -1       309-1.65870E+05-4.46262E+03 1.10739E+04
 -1       310-1.81858E+05-3.01716E+03 1.72048E+05
 -1       311-1.90995E+05-1.89245E+03 3.30527E+05
 -1       312-1.95420E+05-6.22862E+02 4.08860E+05
 -1       313 1.03523E+04 2.54519E+03-8.63339E+04
 -1       314 1.27380E+04-9.82510E+02-2.18342E+05
 -1       315 4.73616E+03-5.27730E+03-3.43449E+05
 -1       316-1.19629E+04-7.87843E+03-4.24547E+05
 -1       317-3.41270E+04-8.96054E+03-4.53272E+05
 -1       318-5.80453E+04-8.71430E+03-4.29709E+05
 -1       319-7.99644E+04-7.27037E+03-3.57525E+05
 -1       320-9.64963E+04-4.83380E+03-2.44911E+05
 -1       321-1.05039E+05-1.71539E+03-1.04857E+05
 -1       322-1.04090E+05 1.68671E+03 4.60833E+04
 -1       323-9.34234E+04 4.93646E+03 1.89863E+05
 -1       324-7.41027E+04 7.61688E+03 3.09242E+05
 -1       325-4.83431E+04 9.38234E+03 3.89953E+05
 -1       326-1.92340E+04 1.00008E+04 4.22472E+05
 -1       327 9.64415E+03 9.38156E+03 4.03202E+05
 -1       328 3.46599E+04 7.58618E+03 3.34923E+05
 -1       329 5.25755E+04 4.82017E+03 2.26466E+05
 -1       330 6.09404E+04 1.40734E+03 9.16337E+04
 -1       331 5.83854E+04-2.25056E+03-5.24772E+04
 -1       332 4.47804E+04-5.72386E+03-1.87570E+05
 -1       333 2.12374E+04-8.60841E+03-2.96378E+05
 -1       334-1.00441E+04-1.05757E+04-3.64766E+05
 -1       335-4.60690E+04-1.14134E+04-3.83434E+05
 -1       336-8.34404E+04-1.10531E+04-3.49049E+05
 -1       337-1.18807E+05-9.58475E+03-2.64714E+05
 -1       338-1.49309E+05-7.25579E+03-1.39770E+05
 -1       339-1.72989E+05-4.45738E+03 1.13399E+04
 -1       340-1.89085E+05-1.66628E+03 1.72215E+05
 -1       341-1.97972E+05 1.00635E+03 3.30606E+05
 -1       342-2.01706E+05 2.72227E+03 4.08916E+05
 -1       343-1.03523E+04 2.54519E+03-8.63339E+04
 -1       344-1.27380E+04-9.82510E+02-2.18342E+05
 -1       345-4.73616E+03-5.27730E+03-3.43449E+05
 -1       346 1.19629E+04-7.87843E+03-4.24547E+05
 -1       347 3.41270E+04-8.96054E+03-4.53272E+05
 -1       348 5.80453E+04-8.71430E+03-4.29709E+05
 -1       349 7.99644E+04-7.27037E+03-3.57525E+05
 -1       350 9.64963E+04-4.83380E+03-2.44911E+05
 -1       351 1.05039E+05-1.71539E+03-1.04857E+05
 -1       352 1.04090E+05 1.68671E+03 4.60833E+04
 -1       353 9.34234E+04 4.93646E+03 1.89863E+05
 -1       354 7.41027E+04 7.61688E+03 3.09242E+05
 -1       355 4.83431E+04 9.38234E+03 3.89953E+05
 -1       356 1.92340E+04 1.00008E+04 4.22472E+05
 -1       357-9.64415E+03 9.38156E+03 4.03202E+05
 -1       358-3.46599E+04 7.58618E+03 3.34923E+05
 -1       359-5.25755E+04 4.82017E+03 2.26466E+05
 -1       360-6.09404E+04 1.40734E+03 9.16337E+04
 -1       361-5.83854E+04-2.25056E+03-5.24772E+04
 -1       362-4.47804E+04-5.72386E+03-1.87570E+05
 -1       363-2.12374E+04-8.60841E+03-2.96378E+05
 -1       364 1.00441E+04-1.05757E+04-3.64766E+05
 -1       365 4.60690E+04-1.14134E+04-3.83434E+05
 -1       366 8.34404E+04-1.10531E+04-3.49049E+05
 -1       367 1.18807E+05-9.58475E+03-2.64714E+05
 -1       368 1.49309E+05-7.25579E+03-1.39770E+05
 -1       369 1.72989E+05-4.45738E+03 1.13399E+04
 -1       370 1.89085E+05-1.66628E+03 1.72215E+05
 -1       371 1.97972E+05 1.00635E+03 3.30606E+05
 -1       372-5.40415E+03 1.72904E+03-8.62558E+04
 -1       373-6.53408E+03-3.25143E+02-2.18381E+05
 -1       374 2.13294E+01-2.45955E+03-3.43606E+05
 -1       375 1.44442E+04-3.86261E+03-4.24799E+05
 -1       376 3.42307E+04-4.64895E+03-4.53573E+05
 -1       377 5.58544E+04-4.67356E+03-4.30009E+05
 -1       378 7.57371E+04-3.93103E+03-3.57777E+05
 -1       379 9.07126E+04-2.55107E+03-2.45075E+05
 -1       380 9.83749E+04-7.38675E+02-1.04907E+05
 -1       381 9.73400E+04 1.25551E+03 4.61602E+04
 -1       382 8.73964E+04 3.16306E+03 1.90061E+05
 -1       383 6.95209E+04 4.72866E+03 3.09539E+05
 -1       384 4.57517E+04 5.74037E+03 3.90314E+05
 -1       385 1.89338E+04 6.05518E+03 4.22854E+05
 -1       386-7.63430E+03 5.61606E+03 4.03556E+05
 -1       387-3.06060E+04 4.45851E+03 3.35205E+05
 -1       388-4.69961E+04 2.70557E+03 2.26638E+05
 -1       389-5.45435E+04 5.52140E+02 9.16713E+04
 -1       390-5.19819E+04-1.75966E+03-5.25843E+04
 -1       391-3.91852E+04-3.97095E+03-1.87815E+05
 -1       392-1.71699E+04-5.83879E+03-2.96740E+05
 -1       393 1.20473E+04-7.16698E+03-3.65210E+05
 -1       394 4.57183E+04-7.83157E+03-3.83919E+05
 -1       395 8.07295E+04-7.79737E+03-3.49529E+05
 -1       396 1.14019E+05-7.12226E+03-2.65150E+05
 -1       397 1.42992E+05-5.94303E+03-1.40130E+05
 -1       398 1.65870E+05-4.46262E+03 1.10739E+04
 -1       399 1.81858E+05-3.01716E+03 1.72048E+05
 -1       400 1.90995E+05-1.89245E+03 3.30527E+05
 -1       401 2.00602E+07-9.50725E+05 6.20531E+06
 -1       402-1.54287E+07-8.28998E+05-3.79890E+06
 -1       403 2.01706E+05 2.72227E+03 4.08916E+05
 -1       404-2.00960E+04 1.01921E+03-1.14926E+05
 -1       405-2.45767E+04-4.16272E+02-2.53630E+05
 -1       406-1.33447E+04-2.01372E+03-3.76518E+05
 -1       407 9.32474E+03-2.93010E+03-4.58855E+05
 -1       408 3.90063E+04-3.27079E+03-4.89589E+05
 -1       409 7.08605E+04-3.14599E+03-4.64728E+05
 -1       410 9.99801E+04-2.61777E+03-3.86945E+05
 -1       411 1.21970E+05-1.75582E+03-2.65121E+05
 -1       412 1.33469E+05-6.63693E+02-1.13508E+05
 -1       413 1.32539E+05 5.23639E+02 4.98864E+04
 -1       414 1.18897E+05 1.65711E+03 2.05516E+05
 -1       415 9.39310E+04 2.59389E+03 3.34729E+05
 -1       416 6.05243E+04 3.21564E+03 4.22086E+05
 -1       417 2.26939E+04 3.44307E+03 4.57282E+05
 -1       418-1.49065E+04 3.24552E+03 4.36421E+05
 -1       419-4.75594E+04 2.64458E+03 3.62513E+05
 -1       420-7.10615E+04 1.71135E+03 2.45116E+05
 -1       421-8.22343E+04 5.57579E+02 9.91703E+04
 -1       422-7.93077E+04-6.78128E+02-5.68187E+04
 -1       423-6.21247E+04-1.84753E+03-2.03046E+05
 -1       424-3.21454E+04-2.81107E+03-3.20821E+05
 -1       425 7.75260E+03-3.45496E+03-3.94849E+05
 -1       426 5.36529E+04-3.70508E+03-4.15081E+05
 -1       427 1.01112E+05-3.53646E+03-3.77937E+05
 -1       428 1.45744E+05-2.97913E+03-2.86738E+05
 -1       429 1.83803E+05-2.12065E+03-1.51298E+05
 -1       430 2.12696E+05-1.10059E+03 1.34005E+04
 -1       431 2.31415E+05-8.55072E+01 1.89510E+05
 -1       432 2.40958E+05 9.14662E+02 3.60106E+05
 -1       433 1.95420E+05-6.22862E+02 4.08860E+05
 -1       434-2.00602E+07 9.50725E+05 6.20531E+06
 -1       435 1.54287E+07 8.28998E+05-3.79890E+06
 -1       436-2.40958E+05-9.14662E+02 3.60106E+05
 -1       437-2.31415E+05 8.55072E+01 1.89510E+05
 -1       438-2.12696E+05 1.10059E+03 1.34005E+04
 -1       439-1.83803E+05 2.12065E+03-1.51298E+05
 -1       440-1.45744E+05 2.97913E+03-2.86738E+05
 -1       441-1.01112E+05 3.53646E+03-3.77937E+05
 -1       442-5.36529E+04 3.70508E+03-4.15081E+05
 -1       443-7.75260E+03 3.45496E+03-3.94849E+05
 -1       444 3.21454E+04 2.81107E+03-3.20821E+05
 -1       445 6.21247E+04 1.84753E+03-2.03046E+05
 -1       446 7.93077E+04 6.78128E+02-5.68187E+04
 -1       447 8.22343E+04-5.57579E+02 9.91703E+04
 -1       448 7.10615E+04-1.71135E+03 2.45116E+05
 -1       449 4.75594E+04-2.64458E+03 3.62513E+05
 -1       450 1.49065E+04-3.24552E+03 4.36421E+05
 -1       451-2.26939E+04-3.44307E+03 4.57282E+05
 -1       452-6.05243E+04-3.21564E+03 4.22086E+05
 -1       453-9.39310E+04-2.59389E+03 3.34729E+05
 -1       454-1.18897E+05-1.65711E+03 2.05516E+05
 -1       455-1.32539E+05-5.23639E+02 4.98864E+04
 -1       456-1.33469E+05 6.63693E+02-1.13508E+05
 -1       457-1.21970E+05 1.75582E+03-2.65121E+05
 -1       458-9.99801E+04 2.61777E+03-3.86945E+05
 -1       459-7.08605E+04 3.14599E+03-4.64728E+05
 -1       460-3.90063E+04 3.27079E+03-4.89589E+05
 -1       461-9.32474E+03 2.93010E+03-4.58855E+05
 -1       462 1.33447E+04 2.01372E+03-3.76518E+05
 -1       463 2.45767E+04 4.16272E+02-2.53630E+05
 -1       464 2.00960E+04-1.01921E+03-1.14926E+05
 -1       465-2.01706E+05-2.72227E+03 4.08916E+05
 -1       466 1.03523E+04-2.54519E+03-8.63339E+04
 -1       467 1.27380E+04 9.82510E+02-2.18342E+05
 -1       468 4.73616E+03 5.27730E+03-3.43449E+05
 -1       469-1.19629E+04 7.87843E+03-4.24547E+05
 -1       470-3.41270E+04 8.96054E+03-4.53272E+05
 -1       471-5.80453E+04 8.71430E+03-4.29709E+05
 -1       472-7.99644E+04 7.27037E+03-3.57525E+05
 -1       473-9.64963E+04 4.83380E+03-2.44911E+05
 -1       474-1.05039E+05 1.71539E+03-1.04857E+05
 -1       475-1.04090E+05-1.68671E+03 4.60833E+04
 -1       476-9.34234E+04-4.93646E+03 1.89863E+05
 -1       477-7.41027E+04-7.61688E+03 3.09242E+05
 -1       478-4.83431E+04-9.38234E+03 3.89953E+05
 -1       479-1.92340E+04-1.00008E+04 4.22472E+05
 -1       480 9.64415E+03-9.38156E+03 4.03202E+05
 -1       481 3.46599E+04-7.58618E+03 3.34923E+05
 -1       482 5.25755E+04-4.82017E+03 2.26466E+05
 -1       483 6.09404E+04-1.40734E+03 9.16337E+04
 -1       484 5.83854E+04 2.25056E+03-5.24772E+04
 -1       485 4.47804E+04 5.72386E+03-1.87570E+05
 -1       486 2.12374E+04 8.60841E+03-2.96378E+05
 -1       487-1.00441E+04 1.05757E+04-3.64766E+05
 -1       488-4.60690E+04 1.14134E+04-3.83434E+05
 -1       489-8.34404E+04 1.10531E+04-3.49049E+05
 -1       490-1.18807E+05 9.58475E+03-2.64714E+05
 -1       491-1.49309E+05 7.25579E+03-1.39770E+05
 -1       492-1.72989E+05 4.45738E+03 1.13399E+04
 -1       493-1.89085E+05 1.66628E+03 1.72215E+05
 -1       494-1.97972E+05-1.00635E+03 3.30606E+05
 -1       495 5.40415E+03-1.72904E+03-8.62558E+04
 -1       496 6.53408E+03 3.25143E+02-2.18381E+05
 -1       497-2.13294E+01 2.45955E+03-3.43606E+05
 -1       498-1.44442E+04 3.86261E+03-4.24799E+05
 -1       499-3.42307E+04 4.64895E+03-4.53573E+05
 -1       500-5.58544E+04 4.67356E+03-4.30009E+05
 -1       501-7.57371E+04 3.93103E+03-3.57777E+05
 -1       502-9.07126E+04 2.55107E+03-2.45075E+05
 -1       503-9.83749E+04 7.38675E+02-1.04907E+05
 -1       504-9.73400E+04-1.25551E+03 4.61602E+04
 -1       505-8.73964E+04-3.16306E+03 1.90061E+05
 -1       506-6.95209E+04-4.72866E+03 3.09539E+05
 -1       507-4.57517E+04-5.74037E+03 3.90314E+05
 -1       508-1.89338E+04-6.05518E+03 4.22854E+05
 -1       509 7.63430E+03-5.61606E+03 4.03556E+05
 -1       510 3.06060E+04-4.45851E+03 3.35205E+05
 -1       511 4.69961E+04-2.70557E+03 2.26638E+05
 -1       512 5.45435E+04-5.52140E+02 9.16713E+04
 -1       513 5.19819E+04 1.75966E+03-5.25843E+04
 -1       514 3.91852E+04 3.97095E+03-1.87815E+05
 -1       515 1.71699E+04 5.83879E+03-2.96740E+05
 -1       516-1.20473E+04 7.16698E+03-3.65210E+05
 -1       517-4.57183E+04 7.83157E+03-3.83919E+05
 -1       518-8.07295E+04 7.79737E+03-3.49529E+05
 -1       519-1.14019E+05 7.12226E+03-2.65150E+05
 -1       520-1.42992E+05 5.94303E+03-1.40130E+05
 -1       521-1.65870E+05 4.46262E+03 1.10739E+04
 -1       522-1.81858E+05 3.01716E+03 1.72048E+05
 -1       523-1.90995E+05 1.89245E+03 3.30527E+05
 -1       524-1.95420E+05 6.22862E+02 4.08860E+05
 -1       525-6.02126E+03-7.78318E+01-2.80216E+05
 -1       526-5.91094E+03 3.57501E+01-5.80135E+05
 -1       527 2.61785E+03 1.34215E+02-8.47980E+05
 -1       528 2.10013E+04 1.99042E+02-1.03209E+06
 -1       529 4.67092E+04 2.28248E+02-1.10251E+06
 -1       530 7.50965E+04 2.22622E+02-1.04763E+06
 -1       531 1.01322E+05 1.85924E+02-8.72596E+05
 -1       532 1.21096E+05 1.23703E+02-5.97554E+05
 -1       533 1.31189E+05 4.40898E+01-2.54942E+05
 -1       534 1.29753E+05-4.27171E+01 1.14396E+05
 -1       535 1.16511E+05-1.25617E+02 4.66193E+05
 -1       536 9.27588E+04-1.93999E+02 7.58224E+05
 -1       537 6.12009E+04-2.39062E+02 9.55540E+05
 -1       538 2.56120E+04-2.54893E+02 1.03480E+06
 -1       539-9.63047E+03-2.39186E+02 9.87181E+05
 -1       540-4.00850E+04-1.93510E+02 8.19479E+05
 -1       541-6.17894E+04-1.23103E+02 5.53311E+05
 -1       542-7.17416E+04-3.62201E+01 2.22485E+05
 -1       543-6.82590E+04 5.68969E+01-1.31133E+05
 -1       544-5.11721E+04 1.45295E+02-4.62733E+05
 -1       545-2.18268E+04 2.18668E+02-7.30032E+05
 -1       546 1.71041E+04 2.68642E+02-8.98434E+05
 -1       547 6.19806E+04 2.89816E+02-9.45239E+05
 -1       548 1.08684E+05 2.80481E+02-8.62395E+05
 -1       549 1.53170E+05 2.42952E+02-6.57425E+05
 -1       550 1.92003E+05 1.83485E+02-3.52367E+05
 -1       551 2.22781E+05 1.11386E+02 1.92826E+04
 -1       552 2.44412E+05 3.76290E+01 4.17301E+05
 -1       553 2.57705E+05-3.07322E+01 8.00011E+05
 -1       554 7.64732E-07-6.37375E-06-2.84732E+05
 -1       555-6.64241E-06-1.18297E-05-5.79401E+05
 -1       556-5.51634E-06-1.11109E-05-8.43499E+05
 -1       557 4.49808E-06-7.89609E-06-1.02675E+06
 -1       558 3.42007E-06-8.36889E-06-1.09732E+06
 -1       559 4.19377E-06-4.80320E-06-1.04302E+06
 -1       560 2.07190E-06 9.05833E-06-8.68849E+05
 -1       561-5.37757E-06 9.06345E-06-5.94879E+05
 -1       562 6.46207E-07 6.44812E-06-2.53503E+05
 -1       563 8.20943E-06 2.28997E-06 1.14536E+05
 -1       564 1.10753E-05 7.13313E-06 4.65099E+05
 -1       565 9.35426E-06-5.08683E-06 7.56091E+05
 -1       566 1.09062E-06-9.08455E-06 9.52665E+05
 -1       567 2.58016E-07 4.17590E-06 1.03155E+06
 -1       568 5.28988E-06-1.40973E-06 9.83943E+05
 -1       569-7.65809E-07-2.20308E-06 8.16617E+05
 -1       570-1.90074E-06 4.80089E-06 5.51119E+05
 -1       571 1.46116E-07-1.03723E-05 2.21147E+05
 -1       572 8.93779E-08-3.18823E-06-1.31567E+05
 -1       573-4.56795E-06 6.51765E-06-4.62356E+05
 -1       574-5.22625E-07 1.93517E-05-7.29073E+05
 -1       575 6.28977E-07 1.37050E-05-8.97238E+05
 -1       576 4.37000E-06 1.19458E-05-9.44233E+05
 -1       577 3.61680E-06 3.46639E-06-8.62045E+05
 -1       578 5.14142E-06 9.32724E-06-6.58181E+05
 -1       579 5.29728E-06 1.52721E-05-3.54578E+05
 -1       580-5.24298E-06 9.42820E-06 1.54669E+04
 -1       581-1.09461E-05 9.03547E-06 4.11901E+05
 -1       582-2.16619E-06 1.74620E-05 7.92299E+05
 -1       583 6.02126E+03 7.78318E+01-2.80216E+05
 -1       584 5.91094E+03-3.57501E+01-5.80135E+05
 -1       585-2.61785E+03-1.34215E+02-8.47980E+05
 -1       586-2.10013E+04-1.99042E+02-1.03209E+06
 -1       587-4.67092E+04-2.28248E+02-1.10251E+06
 -1       588-7.50965E+04-2.22622E+02-1.04763E+06
 -1       589-1.01322E+05-1.85924E+02-8.72596E+05
 -1       590-1.21096E+05-1.23703E+02-5.97554E+05
 -1       591-1.31189E+05-4.40898E+01-2.54942E+05
 -1       592-1.29753E+05 4.27171E+01 1.14396E+05
 -1       593-1.16511E+05 1.25617E+02 4.66193E+05
 -1       594-9.27588E+04 1.93999E+02 7.58224E+05
 -1       595-6.12009E+04 2.39062E+02 9.55540E+05
 -1       596-2.56120E+04 2.54893E+02 1.03480E+06
 -1       597 9.63047E+03 2.39186E+02 9.87181E+05
 -1       598 4.00850E+04 1.93510E+02 8.19479E+05
 -1       599 6.17894E+04 1.23103E+02 5.53311E+05
 -1       600 7.17416E+04 3.62201E+01 2.22485E+05
 -1       601 6.82590E+04-5.68969E+01-1.31133E+05
 -1       602 5.11721E+04-1.45295E+02-4.62733E+05
 -1       603 2.18268E+04-2.18668E+02-7.30032E+05
 -1       604-1.71041E+04-2.68642E+02-8.98434E+05
 -1       605-6.19806E+04-2.89816E+02-9.45239E+05
 -1       606-1.08684E+05-2.80481E+02-8.62395E+05
 -1       607-1.53170E+05-2.42952E+02-6.57425E+05
 -1       608-1.92003E+05-1.83485E+02-3.52367E+05
 -1       609-2.22781E+05-1.11386E+02 1.92826E+04
 -1       610-2.44412E+05-3.76290E+01 4.17301E+05
 -1       611-2.57705E+05 3.07322E+01 8.00011E+05
 -1       612 6.02126E+03-7.78318E+01-2.80216E+05
 -1       613 5.91094E+03 3.57501E+01-5.80135E+05
 -1       614-2.61785E+03 1.34215E+02-8.47980E+05
 -1       615-2.10013E+04 1.99042E+02-1.03209E+06
 -1       616-4.67092E+04 2.28248E+02-1.10251E+06
 -1       617-7.50965E+04 2.22622E+02-1.04763E+06
 -1       618-1.01322E+05 1.85924E+02-8.72596E+05
 -1       619-1.21096E+05 1.23703E+02-5.97554E+05
 -1       620-1.31189E+05 4.40898E+01-2.54942E+05
 -1       621-1.29753E+05-4.27171E+01 1.14396E+05
 -1       622-1.16511E+05-1.25617E+02 4.66193E+05
 -1       623-9.27588E+04-1.93999E+02 7.58224E+05
 -1       624-6.12009E+04-2.39062E+02 9.55540E+05
 -1       625-2.56120E+04-2.54893E+02 1.03480E+06
 -1       626 9.63047E+03-2.39186E+02 9.87181E+05
 -1       627 4.00850E+04-1.93510E+02 8.19479E+05
 -1       628 6.17894E+04-1.23103E+02 5.53311E+05
 -1       629 7.17416E+04-3.62201E+01 2.22485E+05
 -1       630 6.82590E+04 5.68969E+01-1.31133E+05
 -1       631 5.11721E+04 1.45295E+02-4.62733E+05
 -1       632 2.18268E+04 2.18668E+02-7.30032E+05
 -1       633-1.71041E+04 2.68642E+02-8.98434E+05
 -1       634-6.19806E+04 2.89816E+02-9.45239E+05
 -1       635-1.08684E+05 2.80481E+02-8.62395E+05
 -1       636-1.53170E+05 2.42952E+02-6.57425E+05
 -1       637-1.92003E+05 1.83485E+02-3.52367E+05
 -1       638-2.22781E+05 1.11386E+02 1.92826E+04
 -1       639-2.44412E+05 3.76290E+01 4.17301E+05
 -1       640-2.57705E+05-3.07322E+01 8.00011E+05
 -1       641 5.26372E-06 4.08806E-06-2.84732E+05
 -1       642-3.27715E-06 1.10992E-05-5.79401E+05
 -1       643-5.18368E-06 1.37762E-06-8.43499E+05
 -1       644 5.31552E-06-6.14481E-06-1.02675E+06
 -1       645 8.79481E-06 2.00836E-06-1.09732E+06
 -1       646 4.04159E-06 2.64393E-07-1.04302E+06
 -1       647-5.33124E-07 1.06308E-05-8.68849E+05
 -1       648-5.13444E-06 1.22777E-05-5.94879E+05
 -1       649 1.53139E-06-3.99055E-06-2.53503E+05
 -1       650 6.12118E-06 2.43828E-06 1.14536E+05
 -1       651 7.81167E-06-5.48311E-06 4.65099E+05
 -1       652 5.02385E-06-8.87240E-06 7.56091E+05
 -1       653-1.00859E-07-4.78857E-06 9.52665E+05
 -1       654 2.02836E-06-6.85849E-07 1.03155E+06
 -1       655 5.33476E-06 3.28241E-06 9.83943E+05
 -1       656 4.38851E-06-2.10673E-06 8.16617E+05
 -1       657 3.48099E-06-5.36959E-06 5.51119E+05
 -1       658 2.97348E-06-9.02427E-06 2.21147E+05
 -1       659-9.95351E-08 1.07474E-06-1.31567E+05
 -1       660-6.63282E-06-4.67480E-06-4.62356E+05
 -1       661-3.17086E-07-6.06895E-06-7.29073E+05
 -1       662 1.98878E-06-3.09163E-06-8.97238E+05
 -1       663 1.35346E-06-1.49268E-05-9.44233E+05
 -1       664 4.82943E-06 5.30915E-06-8.62045E+05
 -1       665 5.20836E-06 5.81559E-06-6.58181E+05
 -1       666 2.93119E-06-8.44163E-06-3.54578E+05
 -1       667-4.99206E-06-3.96688E-06 1.54669E+04
 -1       668-9.96605E-06-1.96662E-05 4.11901E+05
 -1       669-6.81235E-06-1.76261E-05 7.92299E+05
 -1       670-6.02126E+03 7.78318E+01-2.80216E+05
 -1       671-5.91094E+03-3.57501E+01-5.80135E+05
 -1       672 2.61785E+03-1.34215E+02-8.47980E+05
 -1       673 2.10013E+04-1.99042E+02-1.03209E+06
 -1       674 4.67092E+04-2.28248E+02-1.10251E+06
 -1       675 7.50965E+04-2.22622E+02-1.04763E+06
 -1       676 1.01322E+05-1.85924E+02-8.72596E+05
 -1       677 1.21096E+05-1.23703E+02-5.97554E+05
 -1       678 1.31189E+05-4.40898E+01-2.54942E+05
 -1       679 1.29753E+05 4.27171E+01 1.14396E+05
 -1       680 1.16511E+05 1.25617E+02 4.66193E+05
 -1       681 9.27588E+04 1.93999E+02 7.58224E+05
 -1       682 6.12009E+04 2.39062E+02 9.55540E+05
 -1       683 2.56120E+04 2.54893E+02 1.03480E+06
 -1       684-9.63047E+03 2.39186E+02 9.87181E+05
 -1       685-4.00850E+04 1.93510E+02 8.19479E+05
 -1       686-6.17894E+04 1.23103E+02 5.53311E+05
 -1       687-7.17416E+04 3.62201E+01 2.22485E+05
 -1       688-6.82590E+04-5.68969E+01-1.31133E+05
 -1       689-5.11721E+04-1.45295E+02-4.62733E+05
 -1       690-2.18268E+04-2.18668E+02-7.30032E+05
 -1       691 1.71041E+04-2.68642E+02-8.98434E+05
 -1       692 6.19806E+04-2.89816E+02-9.45239E+05
 -1       693 1.08684E+05-2.80481E+02-8.62395E+05
 -1       694 1.53170E+05-2.42952E+02-6.57425E+05
 -1       695 1.92003E+05-1.83485E+02-3.52367E+05
 -1       696 2.22781E+05-1.11386E+02 1.92826E+04
 -1       697 2.44412E+05-3.76291E+01 4.17301E+05
 -1       698 2.57705E+05 3.07322E+01 8.00011E+05
 -1       699-2.51938E+04-3.84331E+03-1.82230E+05
 -1       700-3.13830E+04 1.47838E+03-4.29093E+05
 -1       701-1.43658E+04 7.68970E+03-6.54461E+05
 -1       702 2.07162E+04 1.13506E+04-8.02920E+05
 -1       703 6.70002E+04 1.28105E+04-8.56966E+05
 -1       704 1.16848E+05 1.24042E+04-8.12955E+05
 -1       705 1.62485E+05 1.03382E+04-6.76651E+05
 -1       706 1.96923E+05 6.89800E+03-4.63572E+05
 -1       707 2.14804E+05 2.51261E+03-1.98477E+05
 -1       708 2.13040E+05-2.26511E+03 8.72208E+04
 -1       709 1.91171E+05-6.82776E+03 3.59353E+05
 -1       710 1.51394E+05-1.05940E+04 5.85296E+05
 -1       711 9.82837E+04-1.30823E+04 7.38053E+05
 -1       712 3.82168E+04-1.39692E+04 7.99600E+05
 -1       713-2.14183E+04-1.31292E+04 7.63127E+05
 -1       714-7.31296E+04-1.06488E+04 6.33896E+05
 -1       715-1.10238E+05-6.81551E+03 4.28620E+05
 -1       716-1.27693E+05-2.08220E+03 1.73426E+05
 -1       717-1.22672E+05 2.98956E+03-9.93295E+04
 -1       718-9.49167E+04 7.79908E+03-3.55016E+05
 -1       719-4.67303E+04 1.17812E+04-5.60953E+05
 -1       720 1.73361E+04 1.44759E+04-6.90390E+05
 -1       721 9.10866E+04 1.55850E+04-7.25743E+05
 -1       722 1.67493E+05 1.50108E+04-6.60727E+05
 -1       723 2.39621E+05 1.28775E+04-5.01182E+05
 -1       724 3.01554E+05 9.53377E+03-2.64516E+05
 -1       725 3.49214E+05 5.53276E+03 2.25389E+04
 -1       726 3.81016E+05 1.55463E+03 3.28817E+05
 -1       727 3.98128E+05-2.27816E+03 6.27779E+05
 -1       728-1.54645E+04-2.47173E+03-1.82035E+05
 -1       729-2.00525E+04 4.12008E+02-4.29165E+05
 -1       730-5.72865E+03 3.23063E+03-6.54783E+05
 -1       731 2.53418E+04 5.01243E+03-8.03429E+05
 -1       732 6.72157E+04 6.00147E+03-8.57572E+05
 -1       733 1.12710E+05 6.02210E+03-8.13560E+05
 -1       734 1.54468E+05 5.06375E+03-6.77159E+05
 -1       735 1.85946E+05 3.29202E+03-4.63903E+05
 -1       736 2.02157E+05 9.68576E+02-1.98577E+05
 -1       737 2.00230E+05-1.58654E+03 8.73751E+04
 -1       738 1.79733E+05-4.03039E+03 3.59750E+05
 -1       739 1.42698E+05-6.03677E+03 5.85893E+05
 -1       740 9.33652E+04-7.33493E+03 7.38779E+05
 -1       741 3.76459E+04-7.74221E+03 8.00367E+05
 -1       742-1.76061E+04-7.18589E+03 7.63840E+05
 -1       743-6.54388E+04-5.71147E+03 6.34464E+05
 -1       744-9.96532E+04-3.47640E+03 4.28967E+05
 -1       745-1.15556E+05-7.29972E+02 1.73502E+05
 -1       746-1.10524E+05 2.21815E+03-9.95443E+04
 -1       747-8.43023E+04 5.03686E+03-3.55509E+05
 -1       748-3.90150E+04 7.41538E+03-5.61680E+05
 -1       749 2.11341E+04 9.10266E+03-6.91282E+05
 -1       750 9.04188E+04 9.93990E+03-7.26717E+05
 -1       751 1.62349E+05 9.88174E+03-6.61692E+05
 -1       752 2.30533E+05 9.00176E+03-5.02057E+05
 -1       753 2.89540E+05 7.47396E+03-2.65237E+05
 -1       754 3.35628E+05 5.55776E+03 2.20077E+04
 -1       755 3.67241E+05 3.70678E+03 3.28483E+05
 -1       756 3.85047E+05 2.32051E+03 6.27613E+05
 -1       757 1.54645E+04 2.47173E+03-1.82035E+05
 -1       758 2.00525E+04-4.12008E+02-4.29165E+05
 -1       759 5.72865E+03-3.23063E+03-6.54783E+05
 -1       760-2.53418E+04-5.01243E+03-8.03429E+05
 -1       761-6.72157E+04-6.00147E+03-8.57572E+05
 -1       762-1.12710E+05-6.02210E+03-8.13560E+05
 -1       763-1.54468E+05-5.06375E+03-6.77159E+05
 -1       764-1.85946E+05-3.29202E+03-4.63903E+05
 -1       765-2.02157E+05-9.68576E+02-1.98577E+05
 -1       766-2.00230E+05 1.58654E+03 8.73751E+04
 -1       767-1.79733E+05 4.03039E+03 3.59750E+05
 -1       768-1.42698E+05 6.03677E+03 5.85893E+05
 -1       769-9.33652E+04 7.33493E+03 7.38779E+05
 -1       770-3.76459E+04 7.74221E+03 8.00367E+05
 -1       771 1.76061E+04 7.18589E+03 7.63840E+05
 -1       772 6.54388E+04 5.71147E+03 6.34464E+05
 -1       773 9.96532E+04 3.47640E+03 4.28967E+05
 -1       774 1.15556E+05 7.29972E+02 1.73502E+05
 -1       775 1.10524E+05-2.21815E+03-9.95443E+04
 -1       776 8.43023E+04-5.03686E+03-3.55509E+05
 -1       777 3.90150E+04-7.41538E+03-5.61680E+05
 -1       778-2.11341E+04-9.10266E+03-6.91282E+05
 -1       779-9.04188E+04-9.93990E+03-7.26717E+05
 -1       780-1.62349E+05-9.88174E+03-6.61692E+05
 -1       781-2.30533E+05-9.00176E+03-5.02057E+05
 -1       782-2.89540E+05-7.47396E+03-2.65237E+05
 -1       783-3.35628E+05-5.55776E+03 2.20077E+04
 -1       784-3.67241E+05-3.70678E+03 3.28483E+05
 -1       785-3.85047E+05-2.32051E+03 6.27613E+05
 -1       786 2.51938E+04 3.84331E+03-1.82230E+05
 -1       787 3.13830E+04-1.47838E+03-4.29093E+05
 -1       788 1.43658E+04-7.68970E+03-6.54461E+05
 -1       789-2.07162E+04-1.13506E+04-8.02920E+05
 -1       790-6.70002E+04-1.28105E+04-8.56966E+05
 -1       791-1.16848E+05-1.24042E+04-8.12955E+05
 -1       792-1.62485E+05-1.03382E+04-6.76651E+05
 -1       793-1.96923E+05-6.89800E+03-4.63572E+05
 -1       794-2.14804E+05-2.51261E+03-1.98477E+05
 -1       795-2.13040E+05 2.26511E+03 8.72208E+04
 -1       796-1.91171E+05 6.82776E+03 3.59353E+05
 -1       797-1.51394E+05 1.05940E+04 5.85296E+05
 -1       798-9.82837E+04 1.30823E+04 7.38053E+05
 -1       799-3.82168E+04 1.39692E+04 7.99600E+05
 -1       800 2.14183E+04 1.31292E+04 7.63127E+05
 -1       801 7.31296E+04 1.06488E+04 6.33896E+05
 -1       802 1.10238E+05 6.81551E+03 4.28620E+05
 -1       803 1.27693E+05 2.08220E+03 1.73426E+05
 -1       804 1.22672E+05-2.98956E+03-9.93295E+04
 -1       805 9.49167E+04-7.79908E+03-3.55016E+05
 -1       806 4.67303E+04-1.17812E+04-5.60953E+05
 -1       807-1.73361E+04-1.44759E+04-6.90390E+05
 -1       808-9.10866E+04-1.55850E+04-7.25743E+05
 -1       809-1.67493E+05-1.50108E+04-6.60727E+05
 -1       810-2.39621E+05-1.28775E+04-5.01182E+05
 -1       811-3.01554E+05-9.53377E+03-2.64516E+05
 -1       812-3.49214E+05-5.53276E+03 2.25389E+04
 -1       813-3.81016E+05-1.55463E+03 3.28817E+05
 -1       814-3.98128E+05 2.27816E+03 6.27779E+05
 -1       815-2.51938E+04 3.84331E+03-1.82230E+05
 -1       816-3.13830E+04-1.47838E+03-4.29093E+05
 -1       817-1.43658E+04-7.68970E+03-6.54461E+05
 -1       818 2.07162E+04-1.13506E+04-8.02920E+05
 -1       819 6.70002E+04-1.28105E+04-8.56966E+05
 -1       820 1.16848E+05-1.24042E+04-8.12955E+05
 -1       821 1.62485E+05-1.03382E+04-6.76651E+05
 -1       822 1.96923E+05-6.89800E+03-4.63572E+05
 -1       823 2.14804E+05-2.51261E+03-1.98477E+05
 -1       824 2.13040E+05 2.26511E+03 8.72208E+04
 -1       825 1.91171E+05 6.82776E+03 3.59353E+05
 -1       826 1.51394E+05 1.05940E+04 5.85296E+05
 -1       827 9.82837E+04 1.30823E+04 7.38053E+05
 -1       828 3.82168E+04 1.39692E+04 7.99600E+05
 -1       829-2.14183E+04 1.31292E+04 7.63127E+05
 -1       830-7.31296E+04 1.06488E+04 6.33896E+05
 -1       831-1.10238E+05 6.81551E+03 4.28620E+05
 -1       832-1.27693E+05 2.08220E+03 1.73426E+05
 -1       833-1.22672E+05-2.98956E+03-9.93295E+04
 -1       834-9.49167E+04-7.79908E+03-3.55016E+05
 -1       835-4.67303E+04-1.17812E+04-5.60953E+05
 -1       836 1.73361E+04-1.44759E+04-6.90390E+05
 -1       837 9.10866E+04-1.55850E+04-7.25743E+05
 -1       838 1.67493E+05-1.50108E+04-6.60727E+05
 -1       839 2.39621E+05-1.28775E+04-5.01182E+05
 -1       840 3.01554E+05-9.53377E+03-2.64516E+05
 -1       841 3.49214E+05-5.53276E+03 2.25389E+04
 -1       842 3.81016E+05-1.55463E+03 3.28817E+05
 -1       843 3.98128E+05 2.27816E+03 6.27779E+05
 -1       844-1.54645E+04 2.47173E+03-1.82035E+05
 -1       845-2.00525E+04-4.12008E+02-4.29165E+05
 -1       846-5.72865E+03-3.23063E+03-6.54783E+05
 -1       847 2.53418E+04-5.01243E+03-8.03429E+05
 -1       848 6.72157E+04-6.00147E+03-8.57572E+05
 -1       849 1.12710E+05-6.02210E+03-8.13560E+05
 -1       850 1.54468E+05-5.06375E+03-6.77159E+05
 -1       851 1.85946E+05-3.29202E+03-4.63903E+05
 -1       852 2.02157E+05-9.68576E+02-1.98577E+05
 -1       853 2.00230E+05 1.58654E+03 8.73751E+04
 -1       854 1.79733E+05 4.03039E+03 3.59750E+05
 -1       855 1.42698E+05 6.03677E+03 5.85893E+05
 -1       856 9.33652E+04 7.33493E+03 7.38779E+05
 -1       857 3.76459E+04 7.74221E+03 8.00367E+05
 -1       858-1.76061E+04 7.18589E+03 7.63840E+05
 -1       859-6.54388E+04 5.71147E+03 6.34464E+05
 -1       860-9.96532E+04 3.47640E+03 4.28967E+05
 -1       861-1.15556E+05 7.29972E+02 1.73502E+05
 -1       862-1.10524E+05-2.21815E+03-9.95443E+04
 -1       863-8.43023E+04-5.03686E+03-3.55509E+05
 -1       864-3.90150E+04-7.41538E+03-5.61680E+05
 -1       865 2.11341E+04-9.10266E+03-6.91282E+05
 -1       866 9.04188E+04-9.93990E+03-7.26717E+05
 -1       867 1.62349E+05-9.88174E+03-6.61692E+05
 -1       868 2.30533E+05-9.00176E+03-5.02057E+05
 -1       869 2.89540E+05-7.47396E+03-2.65237E+05
 -1       870 3.35628E+05-5.55776E+03 2.20077E+04
 -1       871 3.67241E+05-3.70678E+03 3.28483E+05
 -1       872 3.85047E+05-2.32051E+03 6.27613E+05
 -1       873-3.98128E+05-2.27816E+03 6.27779E+05
 -1       874-3.81016E+05 1.55463E+03 3.28817E+05
 -1       875-3.49214E+05 5.53276E+03 2.25389E+04
 -1       876-3.01554E+05 9.53377E+03-2.64516E+05
 -1       877-2.39621E+05 1.28775E+04-5.01182E+05
 -1       878-1.67493E+05 1.50108E+04-6.60727E+05
 -1       879-9.10866E+04 1.55850E+04-7.25743E+05
 -1       880-1.73361E+04 1.44759E+04-6.90390E+05
 -1       881 4.67303E+04 1.17812E+04-5.60953E+05
 -1       882 9.49167E+04 7.79908E+03-3.55016E+05
 -1       883 1.22672E+05 2.98956E+03-9.93295E+04
 -1       884 1.27693E+05-2.08220E+03 1.73426E+05
 -1       885 1.10238E+05-6.81551E+03 4.28620E+05
 -1       886 7.31296E+04-1.06488E+04 6.33896E+05
 -1       887 2.14183E+04-1.31292E+04 7.63127E+05
 -1       888-3.82168E+04-1.39692E+04 7.99600E+05
 -1       889-9.82837E+04-1.30823E+04 7.38053E+05
 -1       890-1.51394E+05-1.05940E+04 5.85296E+05
 -1       891-1.91171E+05-6.82776E+03 3.59353E+05
 -1       892-2.13040E+05-2.26511E+03 8.72208E+04
 -1       893-2.14804E+05 2.51261E+03-1.98477E+05
 -1       894-1.96923E+05 6.89800E+03-4.63572E+05
 -1       895-1.62485E+05 1.03382E+04-6.76651E+05
 -1       896-1.16848E+05 1.24042E+04-8.12955E+05
 -1       897-6.70002E+04 1.28105E+04-8.56966E+05
 -1       898-2.07162E+04 1.13506E+04-8.02920E+05
 -1       899 1.43658E+04 7.68970E+03-6.54461E+05
 -1       900 3.13830E+04 1.47838E+03-4.29093E+05
 -1       901 2.51938E+04-3.84331E+03-1.82230E+05
 -1       902 1.54645E+04-2.47173E+03-1.82035E+05
 -1       903 2.00525E+04 4.12008E+02-4.29165E+05
 -1       904 5.72865E+03 3.23063E+03-6.54783E+05
 -1       905-2.53418E+04 5.01243E+03-8.03429E+05
 -1       906-6.72157E+04 6.00147E+03-8.57572E+05
 -1       907-1.12710E+05 6.02210E+03-8.13560E+05
 -1       908-1.54468E+05 5.06375E+03-6.77159E+05
 -1       909-1.85946E+05 3.29202E+03-4.63903E+05
 -1       910-2.02157E+05 9.68576E+02-1.98577E+05
 -1       911-2.00230E+05-1.58654E+03 8.73751E+04
 -1       912-1.79733E+05-4.03039E+03 3.59750E+05
 -1       913-1.42698E+05-6.03677E+03 5.85893E+05
 -1       914-9.33652E+04-7.33493E+03 7.38779E+05
 -1       915-3.76459E+04-7.74221E+03 8.00367E+05
 -1       916 1.76061E+04-7.18589E+03 7.63840E+05
 -1       917 6.54388E+04-5.71147E+03 6.34464E+05
 -1       918 9.96532E+04-3.47640E+03 4.28967E+05
 -1       919 1.15556E+05-7.29972E+02 1.73502E+05
 -1       920 1.10524E+05 2.21815E+03-9.95443E+04
 -1       921 8.43023E+04 5.03686E+03-3.55509E+05
 -1       922 3.90150E+04 7.41538E+03-5.61680E+05
 -1       923-2.11341E+04 9.10266E+03-6.91282E+05
 -1       924-9.04188E+04 9.93990E+03-7.26717E+05
 -1       925-1.62349E+05 9.88174E+03-6.61692E+05
 -1       926-2.30533E+05 9.00176E+03-5.02057E+05
 -1       927-2.89540E+05 7.47396E+03-2.65237E+05
 -1       928-3.35628E+05 5.55776E+03 2.20077E+04
 -1       929-3.67241E+05 3.70678E+03 3.28483E+05
 -1       930-3.85047E+05 2.32051E+03 6.27613E+05
 -3
    1PSTEP                        80           1           1          
    1PGM                1.000000E+00                                  
    1PGK                3.462256E+07                                  
    1PHID                         -1                                  
    1PSUBC                         0                                  
    1PMODE                        20                                  
  100CL  120 936.4826560         930                     2   20MODAL      1
 -4  ERROR       1    1
 -5  STR(%)      1    1    0    0
 -1         1 5.18628E+01
 -1         2 5.18628E+01
 -1         3 8.66362E+01
 -1         4 8.66362E+01
 -1         5 5.18628E+01
 -1         6 5.18628E+01
 -1         7 8.66362E+01
 -1         8 8.66362E+01
 -1         9 5.18628E+01
 -1        10 8.66362E+01
 -1        11 5.03234E+01
 -1        12 5.03234E+01
 -1        13 3.35863E+01
 -1        14 3.35863E+01
 -1        15 5.18628E+01
 -1        16 8.66362E+01
 -1        17 5.03234E+01
 -1        18 5.03234E+01
 -1        19 3.35863E+01
 -1        20 3.35863E+01
 -1        21 5.03234E+01
 -1        22 5.03234E+01
 -1        23 3.35863E+01
 -1        24 3.35863E+01
 -1        25 5.18628E+01
 -1        26 8.66362E+01
 -1        27 5.18628E+01
 -1        28 5.03234E+01
 -1        29 5.03234E+01
 -1        30 8.66362E+01
 -1        31 3.35863E+01
 -1        32 3.35863E+01
 -1        33 6.79580E+01
 -1        34 7.34530E+01
 -1        35 7.34530E+01
 -1        36 6.72349E+01
 -1        37 6.31111E+01
 -1        38 6.44488E+01
 -1        39 6.82582E+01
 -1        40 7.48003E+01
 -1        41 7.48003E+01
 -1        42 7.90711E+01
 -1        43 7.90711E+01
 -1        44 6.98868E+01
 -1        45 6.53650E+01
 -1        46 6.20245E+01
 -1        47 6.52550E+01
 -1        48 6.94130E+01
 -1        49 7.65523E+01
 -1        50 7.65523E+01
 -1        51 7.95051E+01
 -1        52 7.95051E+01
 -1        53 1.75634E+01
 -1        54 2.52280E+01
 -1        55 2.66093E+01
 -1        56 2.70929E+01
 -1        57 2.70929E+01
 -1        58 2.09976E+01
 -1        59 1.52887E+01
 -1        60 4.74179E+01
 -1        61 8.66362E+01
 -1        62 6.79580E+01
 -1        63 7.34530E+01
 -1        64 7.34530E+01
 -1        65 6.72349E+01
 -1        66 6.31111E+01
 -1        67 6.44488E+01
 -1        68 6.82582E+01
 -1        69 7.48003E+01
 -1        70 7.48003E+01
 -1        71 7.90711E+01
 -1        72 7.90711E+01
 -1        73 6.98868E+01
 -1        74 6.53650E+01
 -1        75 6.20245E+01
 -1        76 6.52550E+01
 -1        77 6.94130E+01
 -1        78 7.65523E+01
 -1        79 7.65523E+01
 -1        80 7.95051E+01
 -1        81 7.95051E+01
 -1        82 1.75634E+01
 -1        83 2.52280E+01
 -1        84 2.66093E+01
 -1        85 2.70929E+01
 -1        86 2.70929E+01
 -1        87 2.09976E+01
 -1        88 1.52887E+01
 -1        89 4.74179E+01
 -1        90 8.66362E+01
 -1        91 2.86462E+00
 -1        92 1.14990E+00
 -1        93 2.86462E+00
 -1        94 2.86462E+00
 -1        95 1.14990E+00
 -1        96 2.86462E+00
 -1        97 6.79580E+01
 -1        98 7.34530E+01
 -1        99 7.34530E+01
 -1       100 6.72349E+01
 -1       101 6.31111E+01
 -1       102 6.44488E+01
 -1       103 6.82582E+01
 -1       104 7.48003E+01
 -1       105 7.48003E+01
 -1       106 7.90711E+01
 -1       107 7.90711E+01
 -1       108 6.98868E+01
 -1       109 6.53650E+01
 -1       110 6.20245E+01
 -1       111 6.52550E+01
 -1       112 6.94130E+01
 -1       113 7.65523E+01
 -1       114 7.65523E+01
 -1       115 7.95051E+01
 -1       116 7.95051E+01
 -1       117 1.75634E+01
 -1       118 2.52280E+01
 -1       119 2.66093E+01
 -1       120 2.70929E+01
 -1       121 2.70929E+01
 -1       122 2.09976E+01
 -1       123 1.52887E+01
 -1       124 4.74179E+01
 -1       125 8.66362E+01
 -1       126 2.32347E+01
 -1       127 1.37286E+01
 -1       128 2.32347E+01
 -1       129 6.79580E+01
 -1       130 7.34530E+01
 -1       131 7.34530E+01
 -1       132 6.72349E+01
 -1       133 6.31111E+01
 -1       134 6.44488E+01
 -1       135 6.82582E+01
 -1       136 7.48003E+01
 -1       137 7.48003E+01
 -1       138 7.90711E+01
 -1       139 7.90711E+01
 -1       140 6.98868E+01
 -1       141 6.53650E+01
 -1       142 6.20245E+01
 -1       143 6.52550E+01
 -1       144 6.94130E+01
 -1       145 7.65523E+01
 -1       146 7.65523E+01
 -1       147 7.95051E+01
 -1       148 7.95051E+01
 -1       149 1.75634E+01
 -1       150 2.52280E+01
 -1       151 2.66093E+01
 -1       152 2.70929E+01
 -1       153 2.70929E+01
 -1       154 2.09976E+01
 -1       155 1.52887E+01
 -1       156 4.74179E+01
 -1       157 8.66362E+01
 -1       158 2.32347E+01
 -1       159 1.37286E+01
 -1       160 2.32347E+01
 -1       161 6.79580E+01
 -1       162 7.34530E+01
 -1       163 7.34530E+01
 -1       164 6.72349E+01
 -1       165 6.31111E+01
 -1       166 6.44488E+01
 -1       167 6.82582E+01
 -1       168 7.48003E+01
 -1       169 7.48003E+01
 -1       170 7.90711E+01
 -1       171 7.90711E+01
 -1       172 6.98868E+01
 -1       173 6.53650E+01
 -1       174 6.20245E+01
 -1       175 6.52550E+01
 -1       176 6.94130E+01
 -1       177 7.65523E+01
 -1       178 7.65523E+01
 -1       179 7.95051E+01
 -1       180 7.95051E+01
 -1       181 1.22890E+01
 -1       182 1.03923E+01
 -1       183 8.49874E+00
 -1       184 8.00454E+00
 -1       185 7.34272E+00
 -1       186 5.39697E+00
 -1       187 1.52887E+01
 -1       188 4.74179E+01
 -1       189 8.66362E+01
 -1       190 5.18628E+01
 -1       191 5.18628E+01
 -1       192 8.66362E+01
 -1       193 9.30966E+01
 -1       194 9.30966E+01
 -1       195 1.84674E+01
 -1       196 1.25217E+01
 -1       197 7.45600E+00
 -1       198 5.59551E+00
 -1       199 7.82688E+00
 -1       200 1.17043E+01
 -1       201 6.87849E+01
 -1       202 6.87849E+01
 -1       203 9.24012E+00
 -1       204 6.30399E+00
 -1       205 4.86165E+00
 -1       206 4.51695E+00
 -1       207 5.51148E+00
 -1       208 8.06680E+00
 -1       209 1.33903E+01
 -1       210 4.73308E+01
 -1       211 4.73308E+01
 -1       212 8.71045E+00
 -1       213 5.64557E+00
 -1       214 4.59432E+00
 -1       215 4.06389E+00
 -1       216 3.75476E+00
 -1       217 3.80062E+00
 -1       218 3.80062E+00
 -1       219 3.61676E+00
 -1       220 7.95873E+00
 -1       221 3.35863E+01
 -1       222 9.30966E+01
 -1       223 9.30966E+01
 -1       224 1.84674E+01
 -1       225 1.25217E+01
 -1       226 7.45600E+00
 -1       227 5.59551E+00
 -1       228 7.82688E+00
 -1       229 1.17043E+01
 -1       230 6.87849E+01
 -1       231 6.87849E+01
 -1       232 9.24012E+00
 -1       233 6.30399E+00
 -1       234 4.86165E+00
 -1       235 4.51695E+00
 -1       236 5.51148E+00
 -1       237 8.06680E+00
 -1       238 1.33903E+01
 -1       239 4.73308E+01
 -1       240 4.73308E+01
 -1       241 8.71045E+00
 -1       242 5.64557E+00
 -1       243 4.59432E+00
 -1       244 4.06389E+00
 -1       245 3.75476E+00
 -1       246 3.80062E+00
 -1       247 3.80062E+00
 -1       248 3.61676E+00
 -1       249 7.95873E+00
 -1       250 3.35863E+01
 -1       251 8.66362E+01
 -1       252 8.66362E+01
 -1       253 4.74179E+01
 -1       254 1.52887E+01
 -1       255 5.39697E+00
 -1       256 7.34272E+00
 -1       257 8.00454E+00
 -1       258 8.49874E+00
 -1       259 1.03923E+01
 -1       260 1.22890E+01
 -1       261 7.95051E+01
 -1       262 7.95051E+01
 -1       263 7.65523E+01
 -1       264 7.65523E+01
 -1       265 6.94130E+01
 -1       266 6.52550E+01
 -1       267 6.20245E+01
 -1       268 6.53650E+01
 -1       269 6.98868E+01
 -1       270 7.90711E+01
 -1       271 7.90711E+01
 -1       272 7.48003E+01
 -1       273 7.48003E+01
 -1       274 6.82582E+01
 -1       275 6.44488E+01
 -1       276 6.31111E+01
 -1       277 6.72349E+01
 -1       278 7.34530E+01
 -1       279 7.34530E+01
 -1       280 6.79580E+01
 -1       281 5.18628E+01
 -1       282 5.18628E+01
 -1       283 9.30966E+01
 -1       284 9.30966E+01
 -1       285 1.84674E+01
 -1       286 1.25217E+01
 -1       287 7.45600E+00
 -1       288 5.59551E+00
 -1       289 7.82688E+00
 -1       290 1.17043E+01
 -1       291 6.87849E+01
 -1       292 6.87849E+01
 -1       293 9.24012E+00
 -1       294 6.30399E+00
 -1       295 4.86165E+00
 -1       296 4.51695E+00
 -1       297 5.51148E+00
 -1       298 8.06680E+00
 -1       299 1.33903E+01
 -1       300 4.73308E+01
 -1       301 4.73308E+01
 -1       302 8.71045E+00
 -1       303 5.64557E+00
 -1       304 4.59432E+00
 -1       305 4.06389E+00
 -1       306 3.75476E+00
 -1       307 3.80062E+00
 -1       308 3.80062E+00
 -1       309 3.61676E+00
 -1       310 7.95873E+00
 -1       311 3.35863E+01
 -1       312 8.66362E+01
 -1       313 9.30966E+01
 -1       314 9.30966E+01
 -1       315 1.84674E+01
 -1       316 1.25217E+01
 -1       317 7.45600E+00
 -1       318 5.59551E+00
 -1       319 7.82688E+00
 -1       320 1.17043E+01
 -1       321 6.87849E+01
 -1       322 6.87849E+01
 -1       323 9.24012E+00
 -1       324 6.30399E+00
 -1       325 4.86165E+00
 -1       326 4.51695E+00
 -1       327 5.51148E+00
 -1       328 8.06680E+00
 -1       329 1.33903E+01
 -1       330 4.73308E+01
 -1       331 4.73308E+01
 -1       332 8.71045E+00
 -1       333 5.64557E+00
 -1       334 4.59432E+00
 -1       335 4.06389E+00
 -1       336 3.75476E+00
 -1       337 3.80062E+00
 -1       338 3.80062E+00
 -1       339 3.61676E+00
 -1       340 7.95873E+00
 -1       341 3.35863E+01
 -1       342 8.66362E+01
 -1       343 9.30966E+01
 -1       344 9.30966E+01
 -1       345 1.84674E+01
 -1       346 1.25217E+01
 -1       347 7.45600E+00
 -1       348 5.59551E+00
 -1       349 7.82688E+00
 -1       350 1.17043E+01
 -1       351 6.87849E+01
 -1       352 6.87849E+01
 -1       353 9.24012E+00
 -1       354 6.30399E+00
 -1       355 4.86165E+00
 -1       356 4.51695E+00
 -1       357 5.51148E+00
 -1       358 8.06680E+00
 -1       359 1.33903E+01
 -1       360 4.73308E+01
 -1       361 4.73308E+01
 -1       362 8.71045E+00
 -1       363 5.64557E+00
 -1       364 4.59432E+00
 -1       365 4.06389E+00
 -1       366 3.75476E+00
 -1       367 3.80062E+00
 -1       368 3.80062E+00
 -1       369 3.61676E+00
 -1       370 7.95873E+00
 -1       371 3.35863E+01
 -1       372 9.30966E+01
 -1       373 9.30966E+01
 -1       374 1.84674E+01
 -1       375 1.25217E+01
 -1       376 7.45600E+00
 -1       377 5.59551E+00
 -1       378 7.82688E+00
 -1       379 1.17043E+01
 -1       380 6.87849E+01
 -1       381 6.87849E+01
 -1       382 9.24012E+00
 -1       383 6.30399E+00
 -1       384 4.86165E+00
 -1       385 4.51695E+00
 -1       386 5.51148E+00
 -1       387 8.06680E+00
 -1       388 1.33903E+01
 -1       389 4.73308E+01
 -1       390 4.73308E+01
 -1       391 8.71045E+00
 -1       392 5.64557E+00
 -1       393 4.59432E+00
 -1       394 4.06389E+00
 -1       395 3.75476E+00
 -1       396 3.80062E+00
 -1       397 3.80062E+00
 -1       398 3.61676E+00
 -1       399 7.95873E+00
 -1       400 3.35863E+01
 -1       401 5.18628E+01
 -1       402 5.18628E+01
 -1       403 8.66362E+01
 -1       404 6.79580E+01
 -1       405 7.34530E+01
 -1       406 7.34530E+01
 -1       407 6.72349E+01
 -1       408 6.31111E+01
 -1       409 6.44488E+01
 -1       410 6.82582E+01
 -1       411 7.48003E+01
 -1       412 7.48003E+01
 -1       413 7.90711E+01
 -1       414 7.90711E+01
 -1       415 6.98868E+01
 -1       416 6.53650E+01
 -1       417 6.20245E+01
 -1       418 6.52550E+01
 -1       419 6.94130E+01
 -1       420 7.65523E+01
 -1       421 7.65523E+01
 -1       422 7.95051E+01
 -1       423 7.95051E+01
 -1       424 1.22890E+01
 -1       425 1.03923E+01
 -1       426 8.49874E+00
 -1       427 8.00454E+00
 -1       428 7.34272E+00
 -1       429 5.39697E+00
 -1       430 1.52887E+01
 -1       431 4.74179E+01
 -1       432 8.66362E+01
 -1       433 8.66362E+01
 -1       434 5.18628E+01
 -1       435 5.18628E+01
 -1       436 8.66362E+01
 -1       437 4.74179E+01
 -1       438 1.52887E+01
 -1       439 5.39697E+00
 -1       440 7.34272E+00
 -1       441 8.00454E+00
 -1       442 8.49874E+00
 -1       443 1.03923E+01
 -1       444 1.22890E+01
 -1       445 7.95051E+01
 -1       446 7.95051E+01
 -1       447 7.65523E+01
 -1       448 7.65523E+01
 -1       449 6.94130E+01
 -1       450 6.52550E+01
 -1       451 6.20245E+01
 -1       452 6.53650E+01
 -1       453 6.98868E+01
 -1       454 7.90711E+01
 -1       455 7.90711E+01
 -1       456 7.48003E+01
 -1       457 7.48003E+01
 -1       458 6.82582E+01
 -1       459 6.44488E+01
 -1       460 6.31111E+01
 -1       461 6.72349E+01
 -1       462 7.34530E+01
 -1       463 7.34530E+01
 -1       464 6.79580E+01
 -1       465 8.66362E+01
 -1       466 9.30966E+01
 -1       467 9.30966E+01
 -1       468 1.84674E+01
 -1       469 1.25217E+01
 -1       470 7.45600E+00
 -1       471 5.59551E+00
 -1       472 7.82688E+00
 -1       473 1.17043E+01
 -1       474 6.87849E+01
 -1       475 6.87849E+01
 -1       476 9.24012E+00
 -1       477 6.30399E+00
 -1       478 4.86165E+00
 -1       479 4.51695E+00
 -1       480 5.51148E+00
 -1       481 8.06680E+00
 -1       482 1.33903E+01
 -1       483 4.73308E+01
 -1       484 4.73308E+01
 -1       485 8.71045E+00
 -1       486 5.64557E+00
 -1       487 4.59432E+00
 -1       488 4.06389E+00
 -1       489 3.75476E+00
 -1       490 3.80062E+00
 -1       491 3.80062E+00
 -1       492 3.61676E+00
 -1       493 7.95873E+00
 -1       494 3.35863E+01
 -1       495 9.30966E+01
 -1       496 9.30966E+01
 -1       497 1.84674E+01
 -1       498 1.25217E+01
 -1       499 7.45600E+00
 -1       500 5.59551E+00
 -1       501 7.82688E+00
 -1       502 1.17043E+01
 -1       503 6.87849E+01
 -1       504 6.87849E+01
 -1       505 9.24012E+00
 -1       506 6.30399E+00
 -1       507 4.86165E+00
 -1       508 4.51695E+00
 -1       509 5.51148E+00
 -1       510 8.06680E+00
 -1       511 1.33903E+01
 -1       512 4.73308E+01
 -1       513 4.73308E+01
 -1       514 8.71045E+00
 -1       515 5.64557E+00
 -1       516 4.59432E+00
 -1       517 4.06389E+00
 -1       518 3.75476E+00
 -1       519 3.80062E+00
 -1       520 3.80062E+00
 -1       521 3.61676E+00
 -1       522 7.95873E+00
 -1       523 3.35863E+01
 -1       524 8.66362E+01
 -1       525 8.76089E+00
 -1       526 8.76089E+00
 -1       527 1.08901E+01
 -1       528 2.04466E+01
 -1       529 4.19831E+01
 -1       530 4.19831E+01
 -1       531 2.38781E+01
 -1       532 1.25775E+01
 -1       533 4.15445E+00
 -1       534 4.09270E+00
 -1       535 1.15479E+01
 -1       536 2.07508E+01
 -1       537 3.84549E+01
 -1       538 3.84549E+01
 -1       539 2.83283E+01
 -1       540 1.77780E+01
 -1       541 8.76670E+00
 -1       542 3.05819E+00
 -1       543 3.84400E+00
 -1       544 9.91961E+00
 -1       545 1.75634E+01
 -1       546 2.74095E+01
 -1       547 5.15266E+01
 -1       548 5.15266E+01
 -1       549 3.56919E+01
 -1       550 2.16940E+01
 -1       551 1.50272E+01
 -1       552 1.24175E+01
 -1       553 2.32347E+01
 -1       554 1.14990E+00
 -1       555 1.44346E+00
 -1       556 2.56959E+00
 -1       557 8.60380E+00
 -1       558 4.19831E+01
 -1       559 4.19831E+01
 -1       560 1.51029E+01
 -1       561 4.38784E+00
 -1       562 1.84063E+00
 -1       563 2.66120E+00
 -1       564 5.08921E+00
 -1       565 1.47284E+01
 -1       566 3.84549E+01
 -1       567 3.84549E+01
 -1       568 2.83283E+01
 -1       569 1.03323E+01
 -1       570 3.76393E+00
 -1       571 1.41811E+00
 -1       572 2.80370E+00
 -1       573 5.20255E+00
 -1       574 1.33443E+01
 -1       575 2.74095E+01
 -1       576 5.15266E+01
 -1       577 5.15266E+01
 -1       578 3.56919E+01
 -1       579 2.16940E+01
 -1       580 1.50272E+01
 -1       581 1.24175E+01
 -1       582 1.37286E+01
 -1       583 8.76089E+00
 -1       584 8.76089E+00
 -1       585 1.08901E+01
 -1       586 2.04466E+01
 -1       587 4.19831E+01
 -1       588 4.19831E+01
 -1       589 2.38781E+01
 -1       590 1.25775E+01
 -1       591 4.15445E+00
 -1       592 4.09270E+00
 -1       593 1.15479E+01
 -1       594 2.07508E+01
 -1       595 3.84549E+01
 -1       596 3.84549E+01
 -1       597 2.83283E+01
 -1       598 1.77780E+01
 -1       599 8.76670E+00
 -1       600 3.05819E+00
 -1       601 3.84400E+00
 -1       602 9.91961E+00
 -1       603 1.75634E+01
 -1       604 2.74095E+01
 -1       605 5.15266E+01
 -1       606 5.15266E+01
 -1       607 3.56919E+01
 -1       608 2.16940E+01
 -1       609 1.50272E+01
 -1       610 1.24175E+01
 -1       611 2.32347E+01
 -1       612 8.76089E+00
 -1       613 8.76089E+00
 -1       614 1.08901E+01
 -1       615 2.04466E+01
 -1       616 4.19831E+01
 -1       617 4.19831E+01
 -1       618 2.38781E+01
 -1       619 1.25775E+01
 -1       620 4.15445E+00
 -1       621 4.09270E+00
 -1       622 1.15479E+01
 -1       623 2.07508E+01
 -1       624 3.84549E+01
 -1       625 3.84549E+01
 -1       626 2.83283E+01
 -1       627 1.77780E+01
 -1       628 8.76670E+00
 -1       629 3.05819E+00
 -1       630 3.84400E+00
 -1       631 9.91961E+00
 -1       632 1.75634E+01
 -1       633 2.74095E+01
 -1       634 5.15266E+01
 -1       635 5.15266E+01
 -1       636 3.56919E+01
 -1       637 2.16940E+01
 -1       638 1.50272E+01
 -1       639 1.24175E+01
 -1       640 2.32347E+01
 -1       641 1.14990E+00
 -1       642 1.44346E+00
 -1       643 2.56959E+00
 -1       644 8.60380E+00
 -1       645 4.19831E+01
 -1       646 4.19831E+01
 -1       647 1.51029E+01
 -1       648 4.38784E+00
 -1       649 1.84063E+00
 -1       650 2.66120E+00
 -1       651 5.08921E+00
 -1       652 1.47284E+01
 -1       653 3.84549E+01
 -1       654 3.84549E+01
 -1       655 2.83283E+01
 -1       656 1.03323E+01
 -1       657 3.76393E+00
 -1       658 1.41811E+00
 -1       659 2.80370E+00
 -1       660 5.20255E+00
 -1       661 1.33443E+01
 -1       662 2.74095E+01
 -1       663 5.15266E+01
 -1       664 5.15266E+01
 -1       665 3.56919E+01
 -1       666 2.16940E+01
 -1       667 1.50272E+01
 -1       668 1.24175E+01
 -1       669 1.37286E+01
 -1       670 8.76089E+00
 -1       671 8.76089E+00
 -1       672 1.08901E+01
 -1       673 2.04466E+01
 -1       674 4.19831E+01
 -1       675 4.19831E+01
 -1       676 2.38781E+01
 -1       677 1.25775E+01
 -1       678 4.15445E+00
 -1       679 4.09270E+00
 -1       680 1.15479E+01
 -1       681 2.07508E+01
 -1       682 3.84549E+01
 -1       683 3.84549E+01
 -1       684 2.83283E+01
 -1       685 1.77780E+01
 -1       686 8.76670E+00
 -1       687 3.05819E+00
 -1       688 3.84400E+00
 -1       689 9.91961E+00
 -1       690 1.75634E+01
 -1       691 2.74095E+01
 -1       692 5.15266E+01
 -1       693 5.15266E+01
 -1       694 3.56919E+01
 -1       695 2.16940E+01
 -1       696 1.50272E+01
 -1       697 1.24175E+01
 -1       698 2.32347E+01
 -1       699 9.30966E+01
 -1       700 9.30966E+01
 -1       701 3.74700E+01
 -1       702 2.37115E+01
 -1       703 1.39898E+01
 -1       704 1.18202E+01
 -1       705 1.85966E+01
 -1       706 3.27744E+01
 -1       707 6.87849E+01
 -1       708 6.87849E+01
 -1       709 2.12992E+01
 -1       710 1.23405E+01
 -1       711 7.54779E+00
 -1       712 5.32377E+00
 -1       713 9.64107E+00
 -1       714 1.72309E+01
 -1       715 3.26737E+01
 -1       716 4.73308E+01
 -1       717 4.73308E+01
 -1       718 1.66852E+01
 -1       719 8.50202E+00
 -1       720 4.70046E+00
 -1       721 4.06389E+00
 -1       722 3.75476E+00
 -1       723 3.80062E+00
 -1       724 3.80062E+00
 -1       725 4.71366E+00
 -1       726 2.73606E+01
 -1       727 8.66362E+01
 -1       728 9.30966E+01
 -1       729 9.30966E+01
 -1       730 3.74700E+01
 -1       731 2.37115E+01
 -1       732 1.39898E+01
 -1       733 1.18202E+01
 -1       734 1.85966E+01
 -1       735 3.27744E+01
 -1       736 6.87849E+01
 -1       737 6.87849E+01
 -1       738 2.12992E+01
 -1       739 1.23405E+01
 -1       740 7.54779E+00
 -1       741 5.32377E+00
 -1       742 9.64107E+00
 -1       743 1.72309E+01
 -1       744 3.26737E+01
 -1       745 4.73308E+01
 -1       746 4.73308E+01
 -1       747 1.66852E+01
 -1       748 8.50202E+00
 -1       749 4.70046E+00
 -1       750 4.06389E+00
 -1       751 3.75476E+00
 -1       752 3.80062E+00
 -1       753 3.80062E+00
 -1       754 4.71366E+00
 -1       755 2.73606E+01
 -1       756 8.66362E+01
 -1       757 9.30966E+01
 -1       758 9.30966E+01
 -1       759 3.74700E+01
 -1       760 2.37115E+01
 -1       761 1.39898E+01
 -1       762 1.18202E+01
 -1       763 1.85966E+01
 -1       764 3.27744E+01
 -1       765 6.87849E+01
 -1       766 6.87849E+01
 -1       767 2.12992E+01
 -1       768 1.23405E+01
 -1       769 7.54779E+00
 -1       770 5.32377E+00
 -1       771 9.64107E+00
 -1       772 1.72309E+01
 -1       773 3.26737E+01
 -1       774 4.73308E+01
 -1       775 4.73308E+01
 -1       776 1.66852E+01
 -1       777 8.50202E+00
 -1       778 4.70046E+00
 -1       779 4.06389E+00
 -1       780 3.75476E+00
 -1       781 3.80062E+00
 -1       782 3.80062E+00
 -1       783 4.71366E+00
 -1       784 2.73606E+01
 -1       785 8.66362E+01
 -1       786 9.30966E+01
 -1       787 9.30966E+01
 -1       788 3.74700E+01
 -1       789 2.37115E+01
 -1       790 1.39898E+01
 -1       791 1.18202E+01
 -1       792 1.85966E+01
 -1       793 3.27744E+01
 -1       794 6.87849E+01
 -1       795 6.87849E+01
 -1       796 2.12992E+01
 -1       797 1.23405E+01
 -1       798 7.54779E+00
 -1       799 5.32377E+00
 -1       800 9.64107E+00
 -1       801 1.72309E+01
 -1       802 3.26737E+01
 -1       803 4.73308E+01
 -1       804 4.73308E+01
 -1       805 1.66852E+01
 -1       806 8.50202E+00
 -1       807 4.70046E+00
 -1       808 4.06389E+00
 -1       809 3.75476E+00
 -1       810 3.80062E+00
 -1       811 3.80062E+00
 -1       812 4.71366E+00
 -1       813 2.73606E+01
 -1       814 8.66362E+01
 -1       815 9.30966E+01
 -1       816 9.30966E+01
 -1       817 3.74700E+01
 -1       818 2.37115E+01
 -1       819 1.39898E+01
 -1       820 1.18202E+01
 -1       821 1.85966E+01
 -1       822 3.27744E+01
 -1       823 6.87849E+01
 -1       824 6.87849E+01
 -1       825 2.12992E+01
 -1       826 1.23405E+01
 -1       827 7.54779E+00
 -1       828 5.32377E+00
 -1       829 9.64107E+00
 -1       830 1.72309E+01
 -1       831 3.26737E+01
 -1       832 4.73308E+01
 -1       833 4.73308E+01
 -1       834 1.66852E+01
 -1       835 8.50202E+00
 -1       836 4.70046E+00
 -1       837 4.06389E+00
 -1       838 3.75476E+00
 -1       839 3.80062E+00
 -1       840 3.80062E+00
 -1       841 4.71366E+00
 -1       842 2.73606E+01
 -1       843 8.66362E+01
 -1       844 9.30966E+01
 -1       845 9.30966E+01
 -1       846 3.74700E+01
 -1       847 2.37115E+01
 -1       848 1.39898E+01
 -1       849 1.18202E+01
 -1       850 1.85966E+01
 -1       851 3.27744E+01
 -1       852 6.87849E+01
 -1       853 6.87849E+01
 -1       854 2.12992E+01
 -1       855 1.23405E+01
 -1       856 7.54779E+00
 -1       857 5.32377E+00
 -1       858 9.64107E+00
 -1       859 1.72309E+01
 -1       860 3.26737E+01
 -1       861 4.73308E+01
 -1       862 4.73308E+01
 -1       863 1.66852E+01
 -1       864 8.50202E+00
 -1       865 4.70046E+00
 -1       866 4.06389E+00
 -1       867 3.75476E+00
 -1       868 3.80062E+00
 -1       869 3.80062E+00
 -1       870 4.71366E+00
 -1       871 2.73606E+01
 -1       872 8.66362E+01
 -1       873 8.66362E+01
 -1       874 2.73606E+01
 -1       875 4.71366E+00
 -1       876 3.80062E+00
 -1       877 3.80062E+00
 -1       878 3.75476E+00
 -1       879 4.06389E+00
 -1       880 4.70046E+00
 -1       881 8.50202E+00
 -1       882 1.66852E+01
 -1       883 4.73308E+01
 -1       884 4.73308E+01
 -1       885 3.26737E+01
 -1       886 1.72309E+01
 -1       887 9.64107E+00
 -1       888 5.32377E+00
 -1       889 7.54779E+00
 -1       890 1.23405E+01
 -1       891 2.12992E+01
 -1       892 6.87849E+01
 -1       893 6.87849E+01
 -1       894 3.27744E+01
 -1       895 1.85966E+01
 -1       896 1.18202E+01
 -1       897 1.39898E+01
 -1       898 2.37115E+01
 -1       899 3.74700E+01
 -1       900 9.30966E+01
 -1       901 9.30966E+01
 -1       902 9.30966E+01
 -1       903 9.30966E+01
 -1       904 3.74700E+01
 -1       905 2.37115E+01
 -1       906 1.39898E+01
 -1       907 1.18202E+01
 -1       908 1.85966E+01
 -1       909 3.27744E+01
 -1       910 6.87849E+01
 -1       911 6.87849E+01
 -1       912 2.12992E+01
 -1       913 1.23405E+01
 -1       914 7.54779E+00
 -1       915 5.32377E+00
 -1       916 9.64107E+00
 -1       917 1.72309E+01
 -1       918 3.26737E+01
 -1       919 4.73308E+01
 -1       920 4.73308E+01
 -1       921 1.66852E+01
 -1       922 8.50202E+00
 -1       923 4.70046E+00
 -1       924 4.06389E+00
 -1       925 3.75476E+00
 -1       926 3.80062E+00
 -1       927 3.80062E+00
 -1       928 4.71366E+00
 -1       929 2.73606E+01
 -1       930 8.66362E+01
 -3
 9999
